    1C
    1UHash: PXJD0WWr, Date: 03/11/2021, Unit system: MM_TON_S_C         
    1UUSER                                                              
    1UDATE              11.march.2021                                   
    1UTIME              20:35:34                                        
    1UHOST                                                              
    1UPGM               CalculiX                                        
    1UVERSION           Version 2.10                             
    1UCOMPILETIME       Sa 5. MÃ¤r 12:23:33 CET 2016                    
    1UDIR                                                               
    1UDBN                                                               
    1UMAT    1RUBBER                                                    
    2C                            50                                     1
 -1       175 4.80000E+01 4.40000E+01 0.00000E+00
 -1       176 4.80000E+01 4.40000E+01 5.00000E+00
 -1       177 0.00000E+00 0.00000E+00 0.00000E+00
 -1       178 0.00000E+00 0.00000E+00 5.00000E+00
 -1       179 4.80000E+01 6.00000E+01 0.00000E+00
 -1       180 4.80000E+01 6.00000E+01 5.00000E+00
 -1       181 0.00000E+00 4.40000E+01 0.00000E+00
 -1       182 0.00000E+00 4.40000E+01 5.00000E+00
 -1       183 3.60000E+01 3.30000E+01 0.00000E+00
 -1       184 2.40000E+01 2.20000E+01 0.00000E+00
 -1       185 1.20000E+01 1.10000E+01 0.00000E+00
 -1       186 3.60000E+01 3.30000E+01 5.00000E+00
 -1       187 2.40000E+01 2.20000E+01 5.00000E+00
 -1       188 1.20000E+01 1.10000E+01 5.00000E+00
 -1       189 4.80000E+01 5.60000E+01 0.00000E+00
 -1       190 4.80000E+01 5.20000E+01 0.00000E+00
 -1       191 4.80000E+01 4.80000E+01 0.00000E+00
 -1       192 4.80000E+01 5.60000E+01 5.00000E+00
 -1       193 4.80000E+01 5.20000E+01 5.00000E+00
 -1       194 4.80000E+01 4.80000E+01 5.00000E+00
 -1       195 1.20000E+01 4.80000E+01 0.00000E+00
 -1       196 2.40000E+01 5.20000E+01 0.00000E+00
 -1       197 3.60000E+01 5.60000E+01 0.00000E+00
 -1       198 1.20000E+01 4.80000E+01 5.00000E+00
 -1       199 2.40000E+01 5.20000E+01 5.00000E+00
 -1       200 3.60000E+01 5.60000E+01 5.00000E+00
 -1       201 0.00000E+00 1.10000E+01 0.00000E+00
 -1       202 0.00000E+00 2.20000E+01 0.00000E+00
 -1       203 0.00000E+00 3.30000E+01 0.00000E+00
 -1       204 0.00000E+00 1.10000E+01 5.00000E+00
 -1       205 0.00000E+00 2.20000E+01 5.00000E+00
 -1       206 0.00000E+00 3.30000E+01 5.00000E+00
 -1       207 3.60000E+01 3.87500E+01 0.00000E+00
 -1       208 3.60000E+01 4.45000E+01 0.00000E+00
 -1       209 3.60000E+01 5.02500E+01 0.00000E+00
 -1       210 2.40000E+01 2.95000E+01 0.00000E+00
 -1       211 2.40000E+01 3.70000E+01 0.00000E+00
 -1       212 2.40000E+01 4.45000E+01 0.00000E+00
 -1       213 1.20000E+01 2.02500E+01 0.00000E+00
 -1       214 1.20000E+01 2.95000E+01 0.00000E+00
 -1       215 1.20000E+01 3.87500E+01 0.00000E+00
 -1       216 1.20000E+01 2.02500E+01 5.00000E+00
 -1       217 1.20000E+01 2.95000E+01 5.00000E+00
 -1       218 1.20000E+01 3.87500E+01 5.00000E+00
 -1       219 2.40000E+01 2.95000E+01 5.00000E+00
 -1       220 2.40000E+01 3.70000E+01 5.00000E+00
 -1       221 2.40000E+01 4.45000E+01 5.00000E+00
 -1       222 3.60000E+01 3.87500E+01 5.00000E+00
 -1       223 3.60000E+01 4.45000E+01 5.00000E+00
 -1       224 3.60000E+01 5.02500E+01 5.00000E+00
 -3
    3C                            16                                     1
 -1       363    1    0    1
 -2       176       175       183       186       194       191       207       222
 -1       364    1    0    1
 -2       194       191       207       222       193       190       208       223
 -1       365    1    0    1
 -2       193       190       208       223       192       189       209       224
 -1       366    1    0    1
 -2       192       189       209       224       180       179       197       200
 -1       367    1    0    1
 -2       186       183       184       187       222       207       210       219
 -1       368    1    0    1
 -2       222       207       210       219       223       208       211       220
 -1       369    1    0    1
 -2       223       208       211       220       224       209       212       221
 -1       370    1    0    1
 -2       224       209       212       221       200       197       196       199
 -1       371    1    0    1
 -2       187       184       185       188       219       210       213       216
 -1       372    1    0    1
 -2       219       210       213       216       220       211       214       217
 -1       373    1    0    1
 -2       220       211       214       217       221       212       215       218
 -1       374    1    0    1
 -2       221       212       215       218       199       196       195       198
 -1       375    1    0    1
 -2       188       185       177       178       216       213       201       204
 -1       376    1    0    1
 -2       216       213       201       204       217       214       202       205
 -1       377    1    0    1
 -2       217       214       202       205       218       215       203       206
 -1       378    1    0    1
 -2       218       215       203       206       198       195       181       182
 -3
    1PSTEP                         1           1           1          
  100CL  101 1.000000000          50                     0    1           1
 -4  DISP        4    1
 -5  D1          1    2    1    0
 -5  D2          1    2    2    0
 -5  D3          1    2    3    0
 -5  ALL         1    2    0    0    1ALL
 -1       175-4.28518E+00 2.24167E+01 0.00000E+00
 -1       176-4.28518E+00 2.24167E+01 0.00000E+00
 -1       177 0.00000E+00 0.00000E+00 0.00000E+00
 -1       178 0.00000E+00 0.00000E+00 0.00000E+00
 -1       179-1.56918E+01 2.33046E+01 0.00000E+00
 -1       180-1.56918E+01 2.33046E+01 0.00000E+00
 -1       181 0.00000E+00 0.00000E+00 0.00000E+00
 -1       182 0.00000E+00 0.00000E+00 0.00000E+00
 -1       183 5.46984E-01 1.22550E+01 0.00000E+00
 -1       184 1.64104E+00 5.36367E+00 0.00000E+00
 -1       185 8.13207E-01 1.79882E+00 0.00000E+00
 -1       186 5.46984E-01 1.22550E+01 0.00000E+00
 -1       187 1.64104E+00 5.36367E+00 0.00000E+00
 -1       188 8.13207E-01 1.79882E+00 0.00000E+00
 -1       189-1.23228E+01 2.31886E+01 0.00000E+00
 -1       190-9.36703E+00 2.29231E+01 0.00000E+00
 -1       191-6.72511E+00 2.26333E+01 0.00000E+00
 -1       192-1.23228E+01 2.31886E+01 0.00000E+00
 -1       193-9.36703E+00 2.29231E+01 0.00000E+00
 -1       194-6.72511E+00 2.26333E+01 0.00000E+00
 -1       195-3.81057E+00 2.36199E+00 0.00000E+00
 -1       196-7.75387E+00 6.50243E+00 0.00000E+00
 -1       197-1.18534E+01 1.33431E+01 0.00000E+00
 -1       198-3.81057E+00 2.36199E+00 0.00000E+00
 -1       199-7.75387E+00 6.50243E+00 0.00000E+00
 -1       200-1.18534E+01 1.33431E+01 0.00000E+00
 -1       201 0.00000E+00 0.00000E+00 0.00000E+00
 -1       202 0.00000E+00 0.00000E+00 0.00000E+00
 -1       203 0.00000E+00 0.00000E+00 0.00000E+00
 -1       204 0.00000E+00 0.00000E+00 0.00000E+00
 -1       205 0.00000E+00 0.00000E+00 0.00000E+00
 -1       206 0.00000E+00 0.00000E+00 0.00000E+00
 -1       207-1.74416E+00 1.25550E+01 0.00000E+00
 -1       208-4.49016E+00 1.28745E+01 0.00000E+00
 -1       209-7.80717E+00 1.31420E+01 0.00000E+00
 -1       210 7.01307E-01 5.59358E+00 0.00000E+00
 -1       211-1.12593E+00 5.82150E+00 0.00000E+00
 -1       212-3.90761E+00 6.14792E+00 0.00000E+00
 -1       213 8.40782E-01 1.84909E+00 0.00000E+00
 -1       214 2.20778E-01 1.69611E+00 0.00000E+00
 -1       215-1.05024E+00 1.74445E+00 0.00000E+00
 -1       216 8.40782E-01 1.84909E+00 0.00000E+00
 -1       217 2.20778E-01 1.69611E+00 0.00000E+00
 -1       218-1.05024E+00 1.74445E+00 0.00000E+00
 -1       219 7.01307E-01 5.59358E+00 0.00000E+00
 -1       220-1.12593E+00 5.82150E+00 0.00000E+00
 -1       221-3.90761E+00 6.14792E+00 0.00000E+00
 -1       222-1.74416E+00 1.25550E+01 0.00000E+00
 -1       223-4.49016E+00 1.28745E+01 0.00000E+00
 -1       224-7.80717E+00 1.31420E+01 0.00000E+00
 -3
    1PSTEP                         2           1           1          
  100CL  101 1.000000000          50                     0    1           1
 -4  STRESS      6    1
 -5  SXX         1    4    1    1
 -5  SYY         1    4    2    2
 -5  SZZ         1    4    3    3
 -5  SXY         1    4    1    2
 -5  SYZ         1    4    2    3
 -5  SZX         1    4    3    1
 -1       175 1.75515E+01 1.28856E+01 1.00442E+01 5.32676E+00-1.02077E-13 2.01193E-14
 -1       176 1.75515E+01 1.28856E+01 1.00442E+01 5.32676E+00-9.56613E-14 1.99498E-14
 -1       177 7.02836E+00 3.45046E+00 3.45801E+00 3.94602E+00 1.72932E-16-8.82427E-17
 -1       178 7.02836E+00 3.45046E+00 3.45801E+00 3.94602E+00 1.72932E-16-3.50051E-18
 -1       179-2.89632E+00 8.84669E-01-6.63846E-01-3.16798E-01-1.04517E-13 4.81389E-14
 -1       180-2.89632E+00 8.84669E-01-6.63846E-01-3.16798E-01-9.62716E-14 5.09853E-14
 -1       181-3.32960E+01-1.65380E+01-1.64452E+01 5.40239E+00-9.47634E-17-8.28285E-16
 -1       182-3.32960E+01-1.65380E+01-1.64452E+01 5.40239E+00-9.47634E-17-8.28285E-16
 -1       183 1.37571E+01 1.08276E+01 8.11294E+00 7.28652E+00-8.86776E-15 7.07784E-15
 -1       184 1.15470E+01 8.02460E+00 6.45862E+00 7.65307E+00 1.03279E-14 2.35448E-15
 -1       185 6.87462E+00 3.77517E+00 3.51443E+00 5.89154E+00-3.52160E-16 1.20063E-15
 -1       186 1.37571E+01 1.08276E+01 8.11294E+00 7.28652E+00-2.08406E-14 7.35174E-15
 -1       187 1.15470E+01 8.02460E+00 6.45862E+00 7.65307E+00 9.06282E-15 2.67075E-15
 -1       188 6.87462E+00 3.77517E+00 3.51443E+00 5.89154E+00-1.31914E-17 1.00013E-15
 -1       189 2.13900E+00 4.76021E+00 2.27674E+00 9.14037E-01-3.29436E-14-3.44824E-14
 -1       190 5.88798E+00 8.24984E+00 4.66548E+00 2.82638E+00-1.86235E-14 1.76481E-14
 -1       191 9.80902E+00 9.75048E+00 6.45464E+00 4.48453E+00 8.23440E-14 3.47354E-14
 -1       192 2.13900E+00 4.76021E+00 2.27674E+00 9.14037E-01-3.70355E-14-3.97939E-14
 -1       193 5.88798E+00 8.24984E+00 4.66548E+00 2.82638E+00-2.18316E-14 1.76481E-14
 -1       194 9.80902E+00 9.75048E+00 6.45464E+00 4.48453E+00 7.98139E-14 3.50517E-14
 -1       195-2.00963E+01-4.71224E+00-8.18681E+00-1.09072E+00 7.96358E-15 8.43447E-15
 -1       196-1.48506E+01-3.55335E+00-6.07331E+00-1.66946E+00-1.21344E-14 2.49935E-15
 -1       197-8.44940E+00-1.37775E+00-3.24296E+00-1.89145E-01 7.41975E-14-3.12169E-14
 -1       198-2.00963E+01-4.71224E+00-8.18681E+00-1.09072E+00 7.96358E-15 8.26499E-15
 -1       199-1.48506E+01-3.55335E+00-6.07331E+00-1.66946E+00-1.21556E-14 3.13189E-15
 -1       200-8.44940E+00-1.37775E+00-3.24296E+00-1.89145E-01 6.38200E-14-3.15983E-14
 -1       201 7.20649E+00 3.56098E+00 3.55326E+00 4.07414E+00-2.24590E-16 1.33235E-16
 -1       202 1.74086E+00 8.69168E-01 8.61309E-01 3.78795E+00 2.44298E-16 5.59222E-18
 -1       203-9.41107E+00-4.70994E+00-4.65993E+00 3.98875E+00-6.58828E-17 1.21533E-16
 -1       204 7.20649E+00 3.56098E+00 3.55326E+00 4.07414E+00-1.39848E-16-2.48983E-17
 -1       205 1.74086E+00 8.69168E-01 8.61309E-01 3.78795E+00-7.19691E-17 5.59222E-18
 -1       206-9.41107E+00-4.70994E+00-4.65993E+00 3.98875E+00-6.58828E-17 1.21533E-16
 -1       207 4.73519E+00 6.49915E+00 3.70733E+00 6.37691E+00-2.39467E-14-3.43003E-15
 -1       208 4.92992E-01 4.18872E+00 1.54497E+00 4.30893E+00-3.65835E-15 6.12418E-15
 -1       209-2.89980E+00 1.76853E+00-3.73317E-01 1.55132E+00 9.11534E-15 8.84288E-15
 -1       210 4.45235E+00 4.50057E+00 2.95447E+00 6.49407E+00-1.66862E-15-8.93839E-15
 -1       211 8.60534E-01 3.24091E+00 1.35348E+00 3.79654E+00 1.24093E-15 1.15105E-15
 -1       212-5.33049E+00 9.33184E-01-1.45111E+00 5.12119E-01 2.82491E-14 9.55961E-15
 -1       213 5.05167E+00 2.01449E+00 2.33183E+00 5.48872E+00 7.34736E-15-6.23650E-16
 -1       214 1.12975E+00 6.66928E-02 3.94827E-01 3.92235E+00 2.13732E-15-3.58411E-16
 -1       215-4.59865E+00 5.06427E-01-1.35043E+00 7.43921E-01-9.74005E-15-1.70505E-15
 -1       216 5.05167E+00 2.01449E+00 2.33183E+00 5.48872E+00 6.40844E-15-3.06149E-16
 -1       217 1.12975E+00 6.66928E-02 3.94827E-01 3.92235E+00 2.77780E-15-3.47819E-16
 -1       218-4.59865E+00 5.06427E-01-1.35043E+00 7.43921E-01-9.77958E-15-1.38878E-15
 -1       219 4.45235E+00 4.50057E+00 2.95447E+00 6.49407E+00 2.21685E-15-9.38102E-15
 -1       220 8.60534E-01 3.24091E+00 1.35348E+00 3.79654E+00-2.57261E-15 1.12863E-15
 -1       221-5.33049E+00 9.33184E-01-1.45111E+00 5.12119E-01 2.84362E-14 8.37927E-15
 -1       222 4.73519E+00 6.49915E+00 3.70733E+00 6.37691E+00-2.06599E-14-3.94113E-15
 -1       223 4.92992E-01 4.18872E+00 1.54497E+00 4.30893E+00 7.68200E-15 6.12418E-15
 -1       224-2.89980E+00 1.76853E+00-3.73317E-01 1.55132E+00 7.40344E-15 9.55449E-15
 -3
    1PSTEP                         3           1           1          
  100CL  101 1.000000000          50                     0    1           1
 -4  TOSTRAIN    6    1
 -5  EXX         1    4    1    1
 -5  EYY         1    4    2    2
 -5  EZZ         1    4    3    3
 -5  EXY         1    4    1    2
 -5  EYZ         1    4    2    3
 -5  EZX         1    4    3    1
 -1       175 1.42637E-01 5.39865E-02 0.00000E+00 1.01208E-01-1.93947E-15 3.82266E-16
 -1       176 1.42637E-01 5.39865E-02 0.00000E+00 1.01208E-01-1.81756E-15 3.79046E-16
 -1       177 6.78366E-02-1.43460E-04 0.00000E+00 7.49744E-02 3.28570E-18-1.67661E-18
 -1       178 6.78366E-02-1.43460E-04 0.00000E+00 7.49744E-02 3.28570E-18-6.65097E-20
 -1       179-4.24171E-02 2.94218E-02 0.00000E+00-6.01917E-03-1.98583E-15 9.14639E-16
 -1       180-4.24171E-02 2.94218E-02 0.00000E+00-6.01917E-03-1.82916E-15 9.68720E-16
 -1       181-3.20165E-01-1.76239E-03 0.00000E+00 1.02645E-01-1.80051E-18-1.57374E-17
 -1       182-3.20165E-01-1.76239E-03 0.00000E+00 1.02645E-01-1.80051E-18-1.57374E-17
 -1       183 1.07239E-01 5.15778E-02 0.00000E+00 1.38444E-01-1.68487E-16 1.34479E-16
 -1       184 9.66788E-02 2.97536E-02 0.00000E+00 1.45408E-01 1.96230E-16 4.47352E-17
 -1       185 6.38436E-02 4.95406E-03 0.00000E+00 1.11939E-01-6.69104E-18 2.28120E-17
 -1       186 1.07239E-01 5.15778E-02 0.00000E+00 1.38444E-01-3.95972E-16 1.39683E-16
 -1       187 9.66788E-02 2.97536E-02 0.00000E+00 1.45408E-01 1.72194E-16 5.07443E-17
 -1       188 6.38436E-02 4.95406E-03 0.00000E+00 1.11939E-01-2.50637E-19 1.90024E-17
 -1       189-2.61699E-03 4.71859E-02 0.00000E+00 1.73667E-02-6.25928E-16-6.55165E-16
 -1       190 2.32275E-02 6.81028E-02 0.00000E+00 5.37012E-02-3.53847E-16 3.35313E-16
 -1       191 6.37334E-02 6.26210E-02 0.00000E+00 8.52060E-02 1.56454E-15 6.59972E-16
 -1       192-2.61699E-03 4.71859E-02 0.00000E+00 1.73667E-02-7.03674E-16-7.56084E-16
 -1       193 2.32275E-02 6.81028E-02 0.00000E+00 5.37012E-02-4.14800E-16 3.35313E-16
 -1       194 6.37334E-02 6.26210E-02 0.00000E+00 8.52060E-02 1.51646E-15 6.65981E-16
 -1       195-2.26280E-01 6.60167E-02 0.00000E+00-2.07237E-02 1.51308E-16 1.60255E-16
 -1       196-1.66769E-01 4.78791E-02 0.00000E+00-3.17197E-02-2.30554E-16 4.74877E-17
 -1       197-9.89223E-02 3.54389E-02 0.00000E+00-3.59375E-03 1.40975E-15-5.93122E-16
 -1       198-2.26280E-01 6.60167E-02 0.00000E+00-2.07237E-02 1.51308E-16 1.57035E-16
 -1       199-1.66769E-01 4.78791E-02 0.00000E+00-3.17197E-02-2.30957E-16 5.95059E-17
 -1       200-9.89223E-02 3.54389E-02 0.00000E+00-3.59375E-03 1.21258E-15-6.00367E-16
 -1       201 6.94112E-02 1.46562E-04 0.00000E+00 7.74087E-02-4.26721E-18 2.53147E-18
 -1       202 1.67115E-02 1.49316E-04 0.00000E+00 7.19710E-02 4.64167E-18 1.06252E-19
 -1       203-9.02716E-02-9.50173E-04 0.00000E+00 7.57863E-02-1.25177E-18 2.30913E-18
 -1       204 6.94112E-02 1.46562E-04 0.00000E+00 7.74087E-02-2.65711E-18-4.73068E-19
 -1       205 1.67115E-02 1.49316E-04 0.00000E+00 7.19710E-02-1.36741E-18 1.06252E-19
 -1       206-9.02716E-02-9.50173E-04 0.00000E+00 7.57863E-02-1.25177E-18 2.30913E-18
 -1       207 1.95293E-02 5.30445E-02 0.00000E+00 1.21161E-01-4.54987E-16-6.51706E-17
 -1       208-1.99875E-02 5.02313E-02 0.00000E+00 8.18697E-02-6.95086E-17 1.16359E-16
 -1       209-4.80031E-02 4.06952E-02 0.00000E+00 2.94750E-02 1.73191E-16 1.68015E-16
 -1       210 2.84599E-02 2.93760E-02 0.00000E+00 1.23387E-01-3.17039E-17-1.69829E-16
 -1       211-9.36592E-03 3.58613E-02 0.00000E+00 7.21342E-02 2.35777E-17 2.18699E-17
 -1       212-7.37083E-02 4.53016E-02 0.00000E+00 9.73025E-03 5.36734E-16 1.81633E-16
 -1       213 5.16769E-02-6.02950E-03 0.00000E+00 1.04286E-01 1.39600E-16-1.18493E-17
 -1       214 1.39636E-02-6.23454E-03 0.00000E+00 7.45246E-02 4.06090E-17-6.80982E-18
 -1       215-6.17161E-02 3.52804E-02 0.00000E+00 1.41345E-02-1.85061E-16-3.23959E-17
 -1       216 5.16769E-02-6.02950E-03 0.00000E+00 1.04286E-01 1.21760E-16-5.81684E-18
 -1       217 1.39636E-02-6.23454E-03 0.00000E+00 7.45246E-02 5.27782E-17-6.60855E-18
 -1       218-6.17161E-02 3.52804E-02 0.00000E+00 1.41345E-02-1.85812E-16-2.63868E-17
 -1       219 2.84599E-02 2.93760E-02 0.00000E+00 1.23387E-01 4.21201E-17-1.78239E-16
 -1       220-9.36592E-03 3.58613E-02 0.00000E+00 7.21342E-02-4.88796E-17 2.14440E-17
 -1       221-7.37083E-02 4.53016E-02 0.00000E+00 9.73025E-03 5.40288E-16 1.59206E-16
 -1       222 1.95293E-02 5.30445E-02 0.00000E+00 1.21161E-01-3.92538E-16-7.48816E-17
 -1       223-1.99875E-02 5.02313E-02 0.00000E+00 8.18697E-02 1.45958E-16 1.16359E-16
 -1       224-4.80031E-02 4.06952E-02 0.00000E+00 2.94750E-02 1.40665E-16 1.81535E-16
 -3
    1PSTEP                         4           1           1          
  100CL  101 1.000000000          50                     0    1           1
 -4  FORC        4    1
 -5  F1          1    2    1    0
 -5  F2          1    2    2    0
 -5  F3          1    2    3    0
 -5  ALL         1    2    0    0    1ALL
 -1       175-2.19085E-13 3.12500E+01-6.96846E+01
 -1       176 1.50117E-12 3.12500E+01 6.96846E+01
 -1       177-5.93372E+01-5.44876E+01-1.10749E+02
 -1       178-5.93372E+01-5.44876E+01 1.10749E+02
 -1       179-3.94175E-13 3.12500E+01 5.35527E+00
 -1       180-3.68132E-14 3.12500E+01-5.35527E+00
 -1       181 3.50100E+02-1.16930E+02 2.99115E+02
 -1       182 3.50100E+02-1.16930E+02-2.99115E+02
 -1       183-3.77524E-13-3.03694E-13-1.93313E+02
 -1       184 2.30019E-13-1.13185E-13-2.47669E+02
 -1       185-1.00364E-13-3.47170E-13-2.18011E+02
 -1       186 3.27786E-13-1.79824E-12 1.93313E+02
 -1       187 5.46693E-13 1.38165E-13 2.47669E+02
 -1       188 4.88498E-15-2.22819E-13 2.18011E+02
 -1       189 7.53390E-13 6.25000E+01-2.64440E+01
 -1       190 4.44977E-13 6.25000E+01-6.88587E+01
 -1       191 1.00759E-12 6.25000E+01-1.01639E+02
 -1       192-3.03084E-13 6.25000E+01 2.64440E+01
 -1       193 9.45466E-13 6.25000E+01 6.88587E+01
 -1       194 6.96382E-13 6.25000E+01 1.01639E+02
 -1       195-5.58829E-13-1.15628E-13 3.24603E+02
 -1       196-4.55452E-13 2.00903E-13 1.78691E+02
 -1       197 1.32727E-13 2.06049E-12 7.26555E+01
 -1       198-2.29279E-14 1.51155E-13-3.24603E+02
 -1       199-1.68649E-14 4.27261E-13-1.78691E+02
 -1       200-5.54959E-13 2.98059E-12-7.26555E+01
 -1       201-2.05045E+02-8.86856E+01-2.11456E+02
 -1       202-1.52707E+02-3.71181E+01-8.32853E+01
 -1       203 6.69890E+01 4.72208E+01 2.16473E+02
 -1       204-2.05045E+02-8.86856E+01 2.11456E+02
 -1       205-1.52707E+02-3.71181E+01 8.32853E+01
 -1       206 6.69890E+01 4.72208E+01-2.16473E+02
 -1       207-2.96652E-13 7.48512E-13-2.35379E+02
 -1       208 4.37746E-13-1.90603E-12-9.61757E+01
 -1       209-1.24473E-12-8.19020E-14 3.36297E+01
 -1       210 6.55802E-13 2.63383E-13-3.09549E+02
 -1       211-7.27853E-13 6.69233E-13-9.64103E+01
 -1       212-1.08114E-13-2.42202E-12 1.45498E+02
 -1       213 3.91286E-14-3.05387E-13-3.40369E+02
 -1       214 4.00981E-14-3.07472E-13-1.05644E+02
 -1       215 3.21889E-13 3.56528E-13 2.32611E+02
 -1       216-4.19047E-13 7.12284E-13 3.40369E+02
 -1       217 1.01566E-13 2.61412E-14 1.05644E+02
 -1       218 4.21295E-13 8.62293E-14-2.32611E+02
 -1       219-4.44859E-13 4.24400E-13 3.09549E+02
 -1       220-2.88001E-13 1.04673E-12 9.64103E+01
 -1       221 7.76719E-13 6.52884E-13-1.45498E+02
 -1       222-1.23990E-12 1.89221E-12 2.35379E+02
 -1       223 1.73763E-12-2.85644E-12 9.61757E+01
 -1       224-4.42035E-13 7.19836E-13-3.36297E+01
 -3
 9999
