    1C
    1UHash: PXJD0WWr, Date: 03/11/2021, Unit system: MM_TON_S_C         
    1UUSER                                                              
    1UDATE              11.march.2021                                   
    1UTIME              20:39:43                                        
    1UHOST                                                              
    1UPGM               CalculiX                                        
    1UVERSION           Version 2.10                             
    1UCOMPILETIME       Sa 5. MÃ¤r 12:23:33 CET 2016                    
    1UDIR                                                               
    1UDBN                                                               
    1UMAT    1RUBBER                                                    
    2C                           162                                     1
 -1       719 4.80000E+01 4.40000E+01 0.00000E+00
 -1       720 4.80000E+01 4.40000E+01 5.00000E+00
 -1       721 0.00000E+00 0.00000E+00 0.00000E+00
 -1       722 0.00000E+00 0.00000E+00 5.00000E+00
 -1       723 4.80000E+01 6.00000E+01 0.00000E+00
 -1       724 4.80000E+01 6.00000E+01 5.00000E+00
 -1       725 0.00000E+00 4.40000E+01 0.00000E+00
 -1       726 0.00000E+00 4.40000E+01 5.00000E+00
 -1       727 4.20000E+01 3.85000E+01 0.00000E+00
 -1       728 3.60000E+01 3.30000E+01 0.00000E+00
 -1       729 3.00000E+01 2.75000E+01 0.00000E+00
 -1       730 2.40000E+01 2.20000E+01 0.00000E+00
 -1       731 1.80000E+01 1.65000E+01 0.00000E+00
 -1       732 1.20000E+01 1.10000E+01 0.00000E+00
 -1       733 6.00000E+00 5.50000E+00 0.00000E+00
 -1       734 4.20000E+01 3.85000E+01 5.00000E+00
 -1       735 3.60000E+01 3.30000E+01 5.00000E+00
 -1       736 3.00000E+01 2.75000E+01 5.00000E+00
 -1       737 2.40000E+01 2.20000E+01 5.00000E+00
 -1       738 1.80000E+01 1.65000E+01 5.00000E+00
 -1       739 1.20000E+01 1.10000E+01 5.00000E+00
 -1       740 6.00000E+00 5.50000E+00 5.00000E+00
 -1       741 4.80000E+01 5.80000E+01 0.00000E+00
 -1       742 4.80000E+01 5.60000E+01 0.00000E+00
 -1       743 4.80000E+01 5.40000E+01 0.00000E+00
 -1       744 4.80000E+01 5.20000E+01 0.00000E+00
 -1       745 4.80000E+01 5.00000E+01 0.00000E+00
 -1       746 4.80000E+01 4.80000E+01 0.00000E+00
 -1       747 4.80000E+01 4.60000E+01 0.00000E+00
 -1       748 4.80000E+01 5.80000E+01 5.00000E+00
 -1       749 4.80000E+01 5.60000E+01 5.00000E+00
 -1       750 4.80000E+01 5.40000E+01 5.00000E+00
 -1       751 4.80000E+01 5.20000E+01 5.00000E+00
 -1       752 4.80000E+01 5.00000E+01 5.00000E+00
 -1       753 4.80000E+01 4.80000E+01 5.00000E+00
 -1       754 4.80000E+01 4.60000E+01 5.00000E+00
 -1       755 6.00000E+00 4.60000E+01 0.00000E+00
 -1       756 1.20000E+01 4.80000E+01 0.00000E+00
 -1       757 1.80000E+01 5.00000E+01 0.00000E+00
 -1       758 2.40000E+01 5.20000E+01 0.00000E+00
 -1       759 3.00000E+01 5.40000E+01 0.00000E+00
 -1       760 3.60000E+01 5.60000E+01 0.00000E+00
 -1       761 4.20000E+01 5.80000E+01 0.00000E+00
 -1       762 6.00000E+00 4.60000E+01 5.00000E+00
 -1       763 1.20000E+01 4.80000E+01 5.00000E+00
 -1       764 1.80000E+01 5.00000E+01 5.00000E+00
 -1       765 2.40000E+01 5.20000E+01 5.00000E+00
 -1       766 3.00000E+01 5.40000E+01 5.00000E+00
 -1       767 3.60000E+01 5.60000E+01 5.00000E+00
 -1       768 4.20000E+01 5.80000E+01 5.00000E+00
 -1       769 0.00000E+00 5.50000E+00 0.00000E+00
 -1       770 0.00000E+00 1.10000E+01 0.00000E+00
 -1       771 0.00000E+00 1.65000E+01 0.00000E+00
 -1       772 0.00000E+00 2.20000E+01 0.00000E+00
 -1       773 0.00000E+00 2.75000E+01 0.00000E+00
 -1       774 0.00000E+00 3.30000E+01 0.00000E+00
 -1       775 0.00000E+00 3.85000E+01 0.00000E+00
 -1       776 0.00000E+00 5.50000E+00 5.00000E+00
 -1       777 0.00000E+00 1.10000E+01 5.00000E+00
 -1       778 0.00000E+00 1.65000E+01 5.00000E+00
 -1       779 0.00000E+00 2.20000E+01 5.00000E+00
 -1       780 0.00000E+00 2.75000E+01 5.00000E+00
 -1       781 0.00000E+00 3.30000E+01 5.00000E+00
 -1       782 0.00000E+00 3.85000E+01 5.00000E+00
 -1       783 4.20000E+01 4.09375E+01 0.00000E+00
 -1       784 4.20000E+01 4.33750E+01 0.00000E+00
 -1       785 4.20000E+01 4.58125E+01 0.00000E+00
 -1       786 4.20000E+01 4.82500E+01 0.00000E+00
 -1       787 4.20000E+01 5.06875E+01 0.00000E+00
 -1       788 4.20000E+01 5.31250E+01 0.00000E+00
 -1       789 4.20000E+01 5.55625E+01 0.00000E+00
 -1       790 3.60000E+01 3.58750E+01 0.00000E+00
 -1       791 3.60000E+01 3.87500E+01 0.00000E+00
 -1       792 3.60000E+01 4.16250E+01 0.00000E+00
 -1       793 3.60000E+01 4.45000E+01 0.00000E+00
 -1       794 3.60000E+01 4.73750E+01 0.00000E+00
 -1       795 3.60000E+01 5.02500E+01 0.00000E+00
 -1       796 3.60000E+01 5.31250E+01 0.00000E+00
 -1       797 3.00000E+01 3.08125E+01 0.00000E+00
 -1       798 3.00000E+01 3.41250E+01 0.00000E+00
 -1       799 3.00000E+01 3.74375E+01 0.00000E+00
 -1       800 3.00000E+01 4.07500E+01 0.00000E+00
 -1       801 3.00000E+01 4.40625E+01 0.00000E+00
 -1       802 3.00000E+01 4.73750E+01 0.00000E+00
 -1       803 3.00000E+01 5.06875E+01 0.00000E+00
 -1       804 2.40000E+01 2.57500E+01 0.00000E+00
 -1       805 2.40000E+01 2.95000E+01 0.00000E+00
 -1       806 2.40000E+01 3.32500E+01 0.00000E+00
 -1       807 2.40000E+01 3.70000E+01 0.00000E+00
 -1       808 2.40000E+01 4.07500E+01 0.00000E+00
 -1       809 2.40000E+01 4.45000E+01 0.00000E+00
 -1       810 2.40000E+01 4.82500E+01 0.00000E+00
 -1       811 1.80000E+01 2.06875E+01 0.00000E+00
 -1       812 1.80000E+01 2.48750E+01 0.00000E+00
 -1       813 1.80000E+01 2.90625E+01 0.00000E+00
 -1       814 1.80000E+01 3.32500E+01 0.00000E+00
 -1       815 1.80000E+01 3.74375E+01 0.00000E+00
 -1       816 1.80000E+01 4.16250E+01 0.00000E+00
 -1       817 1.80000E+01 4.58125E+01 0.00000E+00
 -1       818 1.20000E+01 1.56250E+01 0.00000E+00
 -1       819 1.20000E+01 2.02500E+01 0.00000E+00
 -1       820 1.20000E+01 2.48750E+01 0.00000E+00
 -1       821 1.20000E+01 2.95000E+01 0.00000E+00
 -1       822 1.20000E+01 3.41250E+01 0.00000E+00
 -1       823 1.20000E+01 3.87500E+01 0.00000E+00
 -1       824 1.20000E+01 4.33750E+01 0.00000E+00
 -1       825 6.00000E+00 1.05625E+01 0.00000E+00
 -1       826 6.00000E+00 1.56250E+01 0.00000E+00
 -1       827 6.00000E+00 2.06875E+01 0.00000E+00
 -1       828 6.00000E+00 2.57500E+01 0.00000E+00
 -1       829 6.00000E+00 3.08125E+01 0.00000E+00
 -1       830 6.00000E+00 3.58750E+01 0.00000E+00
 -1       831 6.00000E+00 4.09375E+01 0.00000E+00
 -1       832 6.00000E+00 1.05625E+01 5.00000E+00
 -1       833 6.00000E+00 1.56250E+01 5.00000E+00
 -1       834 6.00000E+00 2.06875E+01 5.00000E+00
 -1       835 6.00000E+00 2.57500E+01 5.00000E+00
 -1       836 6.00000E+00 3.08125E+01 5.00000E+00
 -1       837 6.00000E+00 3.58750E+01 5.00000E+00
 -1       838 6.00000E+00 4.09375E+01 5.00000E+00
 -1       839 1.20000E+01 1.56250E+01 5.00000E+00
 -1       840 1.20000E+01 2.02500E+01 5.00000E+00
 -1       841 1.20000E+01 2.48750E+01 5.00000E+00
 -1       842 1.20000E+01 2.95000E+01 5.00000E+00
 -1       843 1.20000E+01 3.41250E+01 5.00000E+00
 -1       844 1.20000E+01 3.87500E+01 5.00000E+00
 -1       845 1.20000E+01 4.33750E+01 5.00000E+00
 -1       846 1.80000E+01 2.06875E+01 5.00000E+00
 -1       847 1.80000E+01 2.48750E+01 5.00000E+00
 -1       848 1.80000E+01 2.90625E+01 5.00000E+00
 -1       849 1.80000E+01 3.32500E+01 5.00000E+00
 -1       850 1.80000E+01 3.74375E+01 5.00000E+00
 -1       851 1.80000E+01 4.16250E+01 5.00000E+00
 -1       852 1.80000E+01 4.58125E+01 5.00000E+00
 -1       853 2.40000E+01 2.57500E+01 5.00000E+00
 -1       854 2.40000E+01 2.95000E+01 5.00000E+00
 -1       855 2.40000E+01 3.32500E+01 5.00000E+00
 -1       856 2.40000E+01 3.70000E+01 5.00000E+00
 -1       857 2.40000E+01 4.07500E+01 5.00000E+00
 -1       858 2.40000E+01 4.45000E+01 5.00000E+00
 -1       859 2.40000E+01 4.82500E+01 5.00000E+00
 -1       860 3.00000E+01 3.08125E+01 5.00000E+00
 -1       861 3.00000E+01 3.41250E+01 5.00000E+00
 -1       862 3.00000E+01 3.74375E+01 5.00000E+00
 -1       863 3.00000E+01 4.07500E+01 5.00000E+00
 -1       864 3.00000E+01 4.40625E+01 5.00000E+00
 -1       865 3.00000E+01 4.73750E+01 5.00000E+00
 -1       866 3.00000E+01 5.06875E+01 5.00000E+00
 -1       867 3.60000E+01 3.58750E+01 5.00000E+00
 -1       868 3.60000E+01 3.87500E+01 5.00000E+00
 -1       869 3.60000E+01 4.16250E+01 5.00000E+00
 -1       870 3.60000E+01 4.45000E+01 5.00000E+00
 -1       871 3.60000E+01 4.73750E+01 5.00000E+00
 -1       872 3.60000E+01 5.02500E+01 5.00000E+00
 -1       873 3.60000E+01 5.31250E+01 5.00000E+00
 -1       874 4.20000E+01 4.09375E+01 5.00000E+00
 -1       875 4.20000E+01 4.33750E+01 5.00000E+00
 -1       876 4.20000E+01 4.58125E+01 5.00000E+00
 -1       877 4.20000E+01 4.82500E+01 5.00000E+00
 -1       878 4.20000E+01 5.06875E+01 5.00000E+00
 -1       879 4.20000E+01 5.31250E+01 5.00000E+00
 -1       880 4.20000E+01 5.55625E+01 5.00000E+00
 -3
    3C                            64                                     1
 -1       568    1    0    1
 -2       720       719       727       734       754       747       783       874
 -1       569    1    0    1
 -2       754       747       783       874       753       746       784       875
 -1       570    1    0    1
 -2       753       746       784       875       752       745       785       876
 -1       571    1    0    1
 -2       752       745       785       876       751       744       786       877
 -1       572    1    0    1
 -2       751       744       786       877       750       743       787       878
 -1       573    1    0    1
 -2       750       743       787       878       749       742       788       879
 -1       574    1    0    1
 -2       749       742       788       879       748       741       789       880
 -1       575    1    0    1
 -2       748       741       789       880       724       723       761       768
 -1       576    1    0    1
 -2       734       727       728       735       874       783       790       867
 -1       577    1    0    1
 -2       874       783       790       867       875       784       791       868
 -1       578    1    0    1
 -2       875       784       791       868       876       785       792       869
 -1       579    1    0    1
 -2       876       785       792       869       877       786       793       870
 -1       580    1    0    1
 -2       877       786       793       870       878       787       794       871
 -1       581    1    0    1
 -2       878       787       794       871       879       788       795       872
 -1       582    1    0    1
 -2       879       788       795       872       880       789       796       873
 -1       583    1    0    1
 -2       880       789       796       873       768       761       760       767
 -1       584    1    0    1
 -2       735       728       729       736       867       790       797       860
 -1       585    1    0    1
 -2       867       790       797       860       868       791       798       861
 -1       586    1    0    1
 -2       868       791       798       861       869       792       799       862
 -1       587    1    0    1
 -2       869       792       799       862       870       793       800       863
 -1       588    1    0    1
 -2       870       793       800       863       871       794       801       864
 -1       589    1    0    1
 -2       871       794       801       864       872       795       802       865
 -1       590    1    0    1
 -2       872       795       802       865       873       796       803       866
 -1       591    1    0    1
 -2       873       796       803       866       767       760       759       766
 -1       592    1    0    1
 -2       736       729       730       737       860       797       804       853
 -1       593    1    0    1
 -2       860       797       804       853       861       798       805       854
 -1       594    1    0    1
 -2       861       798       805       854       862       799       806       855
 -1       595    1    0    1
 -2       862       799       806       855       863       800       807       856
 -1       596    1    0    1
 -2       863       800       807       856       864       801       808       857
 -1       597    1    0    1
 -2       864       801       808       857       865       802       809       858
 -1       598    1    0    1
 -2       865       802       809       858       866       803       810       859
 -1       599    1    0    1
 -2       866       803       810       859       766       759       758       765
 -1       600    1    0    1
 -2       737       730       731       738       853       804       811       846
 -1       601    1    0    1
 -2       853       804       811       846       854       805       812       847
 -1       602    1    0    1
 -2       854       805       812       847       855       806       813       848
 -1       603    1    0    1
 -2       855       806       813       848       856       807       814       849
 -1       604    1    0    1
 -2       856       807       814       849       857       808       815       850
 -1       605    1    0    1
 -2       857       808       815       850       858       809       816       851
 -1       606    1    0    1
 -2       858       809       816       851       859       810       817       852
 -1       607    1    0    1
 -2       859       810       817       852       765       758       757       764
 -1       608    1    0    1
 -2       738       731       732       739       846       811       818       839
 -1       609    1    0    1
 -2       846       811       818       839       847       812       819       840
 -1       610    1    0    1
 -2       847       812       819       840       848       813       820       841
 -1       611    1    0    1
 -2       848       813       820       841       849       814       821       842
 -1       612    1    0    1
 -2       849       814       821       842       850       815       822       843
 -1       613    1    0    1
 -2       850       815       822       843       851       816       823       844
 -1       614    1    0    1
 -2       851       816       823       844       852       817       824       845
 -1       615    1    0    1
 -2       852       817       824       845       764       757       756       763
 -1       616    1    0    1
 -2       739       732       733       740       839       818       825       832
 -1       617    1    0    1
 -2       839       818       825       832       840       819       826       833
 -1       618    1    0    1
 -2       840       819       826       833       841       820       827       834
 -1       619    1    0    1
 -2       841       820       827       834       842       821       828       835
 -1       620    1    0    1
 -2       842       821       828       835       843       822       829       836
 -1       621    1    0    1
 -2       843       822       829       836       844       823       830       837
 -1       622    1    0    1
 -2       844       823       830       837       845       824       831       838
 -1       623    1    0    1
 -2       845       824       831       838       763       756       755       762
 -1       624    1    0    1
 -2       740       733       721       722       832       825       769       776
 -1       625    1    0    1
 -2       832       825       769       776       833       826       770       777
 -1       626    1    0    1
 -2       833       826       770       777       834       827       771       778
 -1       627    1    0    1
 -2       834       827       771       778       835       828       772       779
 -1       628    1    0    1
 -2       835       828       772       779       836       829       773       780
 -1       629    1    0    1
 -2       836       829       773       780       837       830       774       781
 -1       630    1    0    1
 -2       837       830       774       781       838       831       775       782
 -1       631    1    0    1
 -2       838       831       775       782       762       755       725       726
 -3
    1PSTEP                         1           1           1          
  100CL  101 1.000000000         162                     0    1           1
 -4  DISP        4    1
 -5  D1          1    2    1    0
 -5  D2          1    2    2    0
 -5  D3          1    2    3    0
 -5  ALL         1    2    0    0    1ALL
 -1       719-5.48036E+00 2.72312E+01 0.00000E+00
 -1       720-5.48036E+00 2.72312E+01 0.00000E+00
 -1       721 0.00000E+00 0.00000E+00 0.00000E+00
 -1       722 0.00000E+00 0.00000E+00 0.00000E+00
 -1       723-2.06341E+01 2.87825E+01 0.00000E+00
 -1       724-2.06341E+01 2.87825E+01 0.00000E+00
 -1       725 0.00000E+00 0.00000E+00 0.00000E+00
 -1       726 0.00000E+00 0.00000E+00 0.00000E+00
 -1       727-1.57949E+00 2.04641E+01 0.00000E+00
 -1       728 7.69732E-01 1.45543E+01 0.00000E+00
 -1       729 1.87840E+00 9.77148E+00 0.00000E+00
 -1       730 2.02659E+00 6.14739E+00 0.00000E+00
 -1       731 1.55366E+00 3.63343E+00 0.00000E+00
 -1       732 8.64387E-01 2.02531E+00 0.00000E+00
 -1       733 3.03977E-01 9.13014E-01 0.00000E+00
 -1       734-1.57949E+00 2.04641E+01 0.00000E+00
 -1       735 7.69732E-01 1.45543E+01 0.00000E+00
 -1       736 1.87840E+00 9.77148E+00 0.00000E+00
 -1       737 2.02659E+00 6.14739E+00 0.00000E+00
 -1       738 1.55366E+00 3.63343E+00 0.00000E+00
 -1       739 8.64387E-01 2.02531E+00 0.00000E+00
 -1       740 3.03977E-01 9.13014E-01 0.00000E+00
 -1       741-1.82549E+01 2.87067E+01 0.00000E+00
 -1       742-1.60831E+01 2.85300E+01 0.00000E+00
 -1       743-1.40825E+01 2.82980E+01 0.00000E+00
 -1       744-1.22208E+01 2.80423E+01 0.00000E+00
 -1       745-1.04661E+01 2.77863E+01 0.00000E+00
 -1       746-8.78469E+00 2.75497E+01 0.00000E+00
 -1       747-7.13824E+00 2.73542E+01 0.00000E+00
 -1       748-1.82549E+01 2.87067E+01 0.00000E+00
 -1       749-1.60831E+01 2.85300E+01 0.00000E+00
 -1       750-1.40825E+01 2.82980E+01 0.00000E+00
 -1       751-1.22208E+01 2.80423E+01 0.00000E+00
 -1       752-1.04661E+01 2.77863E+01 0.00000E+00
 -1       753-8.78469E+00 2.75497E+01 0.00000E+00
 -1       754-7.13824E+00 2.73542E+01 0.00000E+00
 -1       755-2.50672E+00 1.13052E+00 0.00000E+00
 -1       756-4.85265E+00 2.49733E+00 0.00000E+00
 -1       757-7.20731E+00 4.59485E+00 0.00000E+00
 -1       758-9.72567E+00 7.45560E+00 0.00000E+00
 -1       759-1.24037E+01 1.12052E+01 0.00000E+00
 -1       760-1.51819E+01 1.59228E+01 0.00000E+00
 -1       761-1.79957E+01 2.16658E+01 0.00000E+00
 -1       762-2.50672E+00 1.13052E+00 0.00000E+00
 -1       763-4.85265E+00 2.49733E+00 0.00000E+00
 -1       764-7.20731E+00 4.59485E+00 0.00000E+00
 -1       765-9.72567E+00 7.45560E+00 0.00000E+00
 -1       766-1.24037E+01 1.12052E+01 0.00000E+00
 -1       767-1.51819E+01 1.59228E+01 0.00000E+00
 -1       768-1.79957E+01 2.16658E+01 0.00000E+00
 -1       769 0.00000E+00 0.00000E+00 0.00000E+00
 -1       770 0.00000E+00 0.00000E+00 0.00000E+00
 -1       771 0.00000E+00 0.00000E+00 0.00000E+00
 -1       772 0.00000E+00 0.00000E+00 0.00000E+00
 -1       773 0.00000E+00 0.00000E+00 0.00000E+00
 -1       774 0.00000E+00 0.00000E+00 0.00000E+00
 -1       775 0.00000E+00 0.00000E+00 0.00000E+00
 -1       776 0.00000E+00 0.00000E+00 0.00000E+00
 -1       777 0.00000E+00 0.00000E+00 0.00000E+00
 -1       778 0.00000E+00 0.00000E+00 0.00000E+00
 -1       779 0.00000E+00 0.00000E+00 0.00000E+00
 -1       780 0.00000E+00 0.00000E+00 0.00000E+00
 -1       781 0.00000E+00 0.00000E+00 0.00000E+00
 -1       782 0.00000E+00 0.00000E+00 0.00000E+00
 -1       783-3.25490E+00 2.06001E+01 0.00000E+00
 -1       784-4.99815E+00 2.07710E+01 0.00000E+00
 -1       785-6.80954E+00 2.09602E+01 0.00000E+00
 -1       786-8.71173E+00 2.11497E+01 0.00000E+00
 -1       787-1.07392E+01 2.13238E+01 0.00000E+00
 -1       788-1.29330E+01 2.14706E+01 0.00000E+00
 -1       789-1.53369E+01 2.15836E+01 0.00000E+00
 -1       790-5.33043E-01 1.47112E+01 0.00000E+00
 -1       791-2.06828E+00 1.48758E+01 0.00000E+00
 -1       792-3.78831E+00 1.50568E+01 0.00000E+00
 -1       793-5.67453E+00 1.52463E+01 0.00000E+00
 -1       794-7.73201E+00 1.54325E+01 0.00000E+00
 -1       795-9.98240E+00 1.56063E+01 0.00000E+00
 -1       796-1.24565E+01 1.57665E+01 0.00000E+00
 -1       797 1.03277E+00 9.94262E+00 0.00000E+00
 -1       798-1.03876E-01 1.00948E+01 0.00000E+00
 -1       799-1.51884E+00 1.02490E+01 0.00000E+00
 -1       800-3.19195E+00 1.04169E+01 0.00000E+00
 -1       801-5.11148E+00 1.05985E+01 0.00000E+00
 -1       802-7.27765E+00 1.07900E+01 0.00000E+00
 -1       803-9.70132E+00 1.09903E+01 0.00000E+00
 -1       804 1.65360E+00 6.30470E+00 0.00000E+00
 -1       805 9.62986E-01 6.41467E+00 0.00000E+00
 -1       806-3.75759E-02 6.51419E+00 0.00000E+00
 -1       807-1.34726E+00 6.63171E+00 0.00000E+00
 -1       808-2.96991E+00 6.78269E+00 0.00000E+00
 -1       809-4.90839E+00 6.96926E+00 0.00000E+00
 -1       810-7.16129E+00 7.19193E+00 0.00000E+00
 -1       811 1.55907E+00 3.74763E+00 0.00000E+00
 -1       812 1.27315E+00 3.77578E+00 0.00000E+00
 -1       813 6.99123E-01 3.77513E+00 0.00000E+00
 -1       814-1.70477E-01 3.79553E+00 0.00000E+00
 -1       815-1.35966E+00 3.87828E+00 0.00000E+00
 -1       816-2.91763E+00 4.04455E+00 0.00000E+00
 -1       817-4.87356E+00 4.28320E+00 0.00000E+00
 -1       818 1.04702E+00 2.09099E+00 0.00000E+00
 -1       819 1.02831E+00 2.04227E+00 0.00000E+00
 -1       820 7.97357E-01 1.93387E+00 0.00000E+00
 -1       821 3.45818E-01 1.82571E+00 0.00000E+00
 -1       822-3.50019E-01 1.78193E+00 0.00000E+00
 -1       823-1.34938E+00 1.87333E+00 0.00000E+00
 -1       824-2.82340E+00 2.14355E+00 0.00000E+00
 -1       825 4.52907E-01 9.79588E-01 0.00000E+00
 -1       826 5.12260E-01 9.29554E-01 0.00000E+00
 -1       827 4.68508E-01 8.02024E-01 0.00000E+00
 -1       828 3.14636E-01 6.41419E-01 0.00000E+00
 -1       829 4.12384E-02 4.97802E-01 0.00000E+00
 -1       830-3.81346E-01 4.36718E-01 0.00000E+00
 -1       831-1.03059E+00 5.87782E-01 0.00000E+00
 -1       832 4.52907E-01 9.79588E-01 0.00000E+00
 -1       833 5.12260E-01 9.29554E-01 0.00000E+00
 -1       834 4.68508E-01 8.02024E-01 0.00000E+00
 -1       835 3.14636E-01 6.41419E-01 0.00000E+00
 -1       836 4.12384E-02 4.97802E-01 0.00000E+00
 -1       837-3.81346E-01 4.36718E-01 0.00000E+00
 -1       838-1.03059E+00 5.87782E-01 0.00000E+00
 -1       839 1.04702E+00 2.09099E+00 0.00000E+00
 -1       840 1.02831E+00 2.04227E+00 0.00000E+00
 -1       841 7.97357E-01 1.93387E+00 0.00000E+00
 -1       842 3.45818E-01 1.82571E+00 0.00000E+00
 -1       843-3.50019E-01 1.78193E+00 0.00000E+00
 -1       844-1.34938E+00 1.87333E+00 0.00000E+00
 -1       845-2.82340E+00 2.14355E+00 0.00000E+00
 -1       846 1.55907E+00 3.74763E+00 0.00000E+00
 -1       847 1.27315E+00 3.77578E+00 0.00000E+00
 -1       848 6.99123E-01 3.77513E+00 0.00000E+00
 -1       849-1.70477E-01 3.79553E+00 0.00000E+00
 -1       850-1.35966E+00 3.87828E+00 0.00000E+00
 -1       851-2.91763E+00 4.04455E+00 0.00000E+00
 -1       852-4.87356E+00 4.28320E+00 0.00000E+00
 -1       853 1.65360E+00 6.30470E+00 0.00000E+00
 -1       854 9.62986E-01 6.41467E+00 0.00000E+00
 -1       855-3.75759E-02 6.51419E+00 0.00000E+00
 -1       856-1.34726E+00 6.63171E+00 0.00000E+00
 -1       857-2.96991E+00 6.78269E+00 0.00000E+00
 -1       858-4.90839E+00 6.96926E+00 0.00000E+00
 -1       859-7.16129E+00 7.19193E+00 0.00000E+00
 -1       860 1.03277E+00 9.94262E+00 0.00000E+00
 -1       861-1.03876E-01 1.00948E+01 0.00000E+00
 -1       862-1.51884E+00 1.02490E+01 0.00000E+00
 -1       863-3.19195E+00 1.04169E+01 0.00000E+00
 -1       864-5.11148E+00 1.05985E+01 0.00000E+00
 -1       865-7.27765E+00 1.07900E+01 0.00000E+00
 -1       866-9.70132E+00 1.09903E+01 0.00000E+00
 -1       867-5.33043E-01 1.47112E+01 0.00000E+00
 -1       868-2.06828E+00 1.48758E+01 0.00000E+00
 -1       869-3.78831E+00 1.50568E+01 0.00000E+00
 -1       870-5.67453E+00 1.52463E+01 0.00000E+00
 -1       871-7.73201E+00 1.54325E+01 0.00000E+00
 -1       872-9.98240E+00 1.56063E+01 0.00000E+00
 -1       873-1.24565E+01 1.57665E+01 0.00000E+00
 -1       874-3.25490E+00 2.06001E+01 0.00000E+00
 -1       875-4.99815E+00 2.07710E+01 0.00000E+00
 -1       876-6.80954E+00 2.09602E+01 0.00000E+00
 -1       877-8.71173E+00 2.11497E+01 0.00000E+00
 -1       878-1.07392E+01 2.13238E+01 0.00000E+00
 -1       879-1.29330E+01 2.14706E+01 0.00000E+00
 -1       880-1.53369E+01 2.15836E+01 0.00000E+00
 -3
    1PSTEP                         2           1           1          
  100CL  101 1.000000000         162                     0    1           1
 -4  STRESS      6    1
 -5  SXX         1    4    1    1
 -5  SYY         1    4    2    2
 -5  SZZ         1    4    3    3
 -5  SXY         1    4    1    2
 -5  SYZ         1    4    2    3
 -5  SZX         1    4    3    1
 -1       719 1.40236E+01 1.17239E+01 8.49668E+00 6.52161E+00-2.04237E-14-5.52182E-14
 -1       720 1.40236E+01 1.17239E+01 8.49668E+00 6.52161E+00-2.04237E-14-5.52182E-14
 -1       721 5.28242E+00 2.58809E+00 2.59727E+00 3.99822E+00-1.72822E-16-4.45909E-18
 -1       722 5.28242E+00 2.58809E+00 2.59727E+00 3.99822E+00 1.22263E-16-4.45909E-18
 -1       723-2.67655E+00 1.64585E+00-3.40129E-01-3.28208E-01-3.09557E-13 2.51876E-13
 -1       724-2.67655E+00 1.64585E+00-3.40129E-01-3.28208E-01-3.19000E-13 2.51876E-13
 -1       725-4.35358E+01-2.15546E+01-2.14798E+01 5.07247E+00-2.12695E-17-9.67072E-18
 -1       726-4.35358E+01-2.15546E+01-2.14798E+01 5.07247E+00-2.12695E-17-9.67072E-18
 -1       727 1.36425E+01 1.10957E+01 8.16363E+00 8.51502E+00 9.12663E-16-3.35875E-14
 -1       728 1.54605E+01 1.18975E+01 9.02813E+00 1.03520E+01-1.65262E-13-6.45745E-14
 -1       729 1.56702E+01 1.17655E+01 9.05376E+00 1.05769E+01 4.80880E-14 4.38465E-14
 -1       730 1.41567E+01 1.02493E+01 8.05400E+00 9.90204E+00 7.86578E-16 2.35972E-15
 -1       731 1.11877E+01 7.63358E+00 6.21102E+00 8.45303E+00 4.36396E-15 5.35760E-15
 -1       732 7.74509E+00 4.92155E+00 4.17999E+00 6.67067E+00-9.11725E-15-2.97860E-15
 -1       733 5.36728E+00 3.66855E+00 2.98182E+00 4.89320E+00-4.84913E-15-3.02931E-15
 -1       734 1.36425E+01 1.10957E+01 8.16363E+00 8.51502E+00 9.12663E-16-3.34294E-14
 -1       735 1.54605E+01 1.18975E+01 9.02813E+00 1.03520E+01-1.66945E-13-6.54809E-14
 -1       736 1.56702E+01 1.17655E+01 9.05376E+00 1.05769E+01 4.58515E-14 4.50268E-14
 -1       737 1.41567E+01 1.02493E+01 8.05400E+00 9.90204E+00 1.02944E-15 1.74837E-15
 -1       738 1.11877E+01 7.63358E+00 6.21102E+00 8.45303E+00 5.70319E-15 6.70176E-15
 -1       739 7.74509E+00 4.92155E+00 4.17999E+00 6.67067E+00-9.98982E-15-3.29487E-15
 -1       740 5.36728E+00 3.66855E+00 2.98182E+00 4.89320E+00-4.88866E-15-3.02931E-15
 -1       741 5.29068E-01 5.15353E+00 1.87526E+00 7.29281E-01-3.73131E-13 1.16327E-13
 -1       742 2.33632E+00 9.03737E+00 3.75332E+00 2.34102E+00-4.25994E-13-2.30925E-16
 -1       743 3.41423E+00 1.10981E+01 4.78907E+00 3.53210E+00-1.88658E-13-7.43037E-14
 -1       744 4.15462E+00 1.19438E+01 5.31249E+00 4.45974E+00-2.29818E-13-6.79768E-15
 -1       745 4.92466E+00 1.19701E+01 5.57527E+00 5.19392E+00-5.14565E-14 7.56574E-14
 -1       746 6.21637E+00 1.14488E+01 5.82952E+00 5.76936E+00 3.16605E-14-1.15808E-13
 -1       747 8.80442E+00 1.05442E+01 6.38504E+00 6.24827E+00 4.95986E-15 4.19854E-15
 -1       748 5.29068E-01 5.15353E+00 1.87526E+00 7.29281E-01-3.72205E-13 1.16327E-13
 -1       749 2.33632E+00 9.03737E+00 3.75332E+00 2.34102E+00-4.24390E-13-2.30925E-16
 -1       750 3.41423E+00 1.10981E+01 4.78907E+00 3.53210E+00-1.89923E-13-7.41342E-14
 -1       751 4.15462E+00 1.19438E+01 5.31249E+00 4.45974E+00-2.29818E-13-7.43021E-15
 -1       752 4.92466E+00 1.19701E+01 5.57527E+00 5.19392E+00-5.14565E-14 7.56574E-14
 -1       753 6.21637E+00 1.14488E+01 5.82952E+00 5.76936E+00 3.63818E-14-1.14627E-13
 -1       754 8.80442E+00 1.05442E+01 6.38504E+00 6.24827E+00 3.69479E-15 3.88228E-15
 -1       755-2.65205E+01-4.68416E+00-1.02975E+01-3.04901E+00 6.35486E-16 6.27678E-16
 -1       756-2.16093E+01-4.61450E+00-8.65385E+00-4.56704E+00 1.74729E-15-7.75841E-16
 -1       757-1.91184E+01-3.56627E+00-7.48593E+00-4.38981E+00 1.23199E-14-2.88699E-14
 -1       758-1.77603E+01-3.21731E+00-6.92263E+00-4.05078E+00 6.01590E-14 7.79513E-15
 -1       759-1.57315E+01-2.63968E+00-6.06249E+00-3.39437E+00-5.57816E-14 9.19428E-15
 -1       760-1.28805E+01-2.04329E+00-4.92484E+00-2.39587E+00 1.52361E-13-1.31822E-14
 -1       761-7.80159E+00-1.17523E+00-2.96235E+00-7.07145E-01 1.20206E-13 1.55301E-14
 -1       762-2.65205E+01-4.68416E+00-1.02975E+01-3.04901E+00 5.56419E-16 6.27678E-16
 -1       763-2.16093E+01-4.61450E+00-8.65385E+00-4.56704E+00-3.18309E-16-7.75841E-16
 -1       764-1.91184E+01-3.56627E+00-7.48593E+00-4.38981E+00 1.26362E-14-2.88699E-14
 -1       765-1.77603E+01-3.21731E+00-6.92263E+00-4.05078E+00 5.66180E-14 7.79513E-15
 -1       766-1.57315E+01-2.63968E+00-6.06249E+00-3.39437E+00-4.76040E-14-2.48456E-16
 -1       767-1.28805E+01-2.04329E+00-4.92484E+00-2.39587E+00 1.50508E-13-1.06520E-14
 -1       768-7.80159E+00-1.17523E+00-2.96235E+00-7.07145E-01 1.21471E-13 1.55301E-14
 -1       769 7.85134E+00 3.86538E+00 3.86652E+00 4.28957E+00 8.52060E-17-3.30291E-17
 -1       770 8.86803E+00 4.38610E+00 4.37386E+00 4.07158E+00-2.78716E-17-3.48497E-17
 -1       771 8.09881E+00 4.01860E+00 3.99874E+00 3.51739E+00 4.96447E-18 1.84104E-17
 -1       772 5.42264E+00 2.70215E+00 2.68118E+00 2.82130E+00 3.37929E-17 1.70690E-17
 -1       773 6.74344E-01 3.53197E-01 3.39088E-01 2.20334E+00-4.28057E-17 1.97639E-17
 -1       774-6.66737E+00-3.29319E+00-3.28698E+00 1.95377E+00-2.20437E-17 3.03907E-17
 -1       775-1.79776E+01-8.92599E+00-8.87817E+00 2.66083E+00 8.54252E-17-1.45136E-16
 -1       776 7.85134E+00 3.86538E+00 3.86652E+00 4.28957E+00 8.80437E-17-3.30291E-17
 -1       777 8.86803E+00 4.38610E+00 4.37386E+00 4.07158E+00-3.84626E-17-3.48497E-17
 -1       778 8.09881E+00 4.01860E+00 3.99874E+00 3.51739E+00-7.14547E-17 3.81771E-17
 -1       779 5.42264E+00 2.70215E+00 2.68118E+00 2.82130E+00 4.36763E-17-5.67024E-17
 -1       780 6.74344E-01 3.53197E-01 3.39088E-01 2.20334E+00-4.28057E-17 1.32101E-18
 -1       781-6.66737E+00-3.29319E+00-3.28698E+00 1.95377E+00-2.20437E-17 3.53324E-17
 -1       782-1.79776E+01-8.92599E+00-8.87817E+00 2.66083E+00 8.54252E-17-1.45136E-16
 -1       783 7.04361E+00 8.38625E+00 5.09185E+00 8.01168E+00 5.48425E-14 8.72712E-15
 -1       784 3.66497E+00 7.55115E+00 3.70132E+00 7.22525E+00 1.11700E-13 3.33423E-14
 -1       785 1.09838E+00 6.57523E+00 2.53229E+00 6.54890E+00-3.53210E-15-9.06026E-14
 -1       786-7.74357E-01 5.40379E+00 1.52771E+00 5.72233E+00 9.64433E-14 5.44578E-16
 -1       787-2.17236E+00 4.03155E+00 6.13532E-01 4.56797E+00 2.18411E-14-1.85383E-14
 -1       788-3.33224E+00 2.49383E+00-2.76677E-01 2.94526E+00 2.78048E-13-1.10271E-13
 -1       789-4.46599E+00 9.35672E-01-1.16500E+00 7.13073E-01 2.42193E-13 1.74717E-14
 -1       790 8.53660E+00 8.58308E+00 5.64949E+00 9.27874E+00-6.62853E-14 2.44222E-15
 -1       791 5.66475E+00 7.48389E+00 4.33905E+00 7.41637E+00-8.22152E-14-3.61107E-14
 -1       792 2.67302E+00 6.34926E+00 2.97735E+00 5.90626E+00-1.01606E-15 4.37341E-14
 -1       793-1.40327E-01 5.04210E+00 1.61758E+00 4.50522E+00 2.03488E-14-1.80832E-14
 -1       794-2.72965E+00 3.56438E+00 2.75463E-01 2.97950E+00 5.53751E-14 1.03318E-14
 -1       795-5.23090E+00 1.99287E+00-1.06855E+00 1.14985E+00 2.98082E-14 6.64804E-14
 -1       796-7.92171E+00 4.44274E-01-2.46755E+00-1.06902E+00 4.92262E-14-2.54140E-14
 -1       797 9.42811E+00 8.45926E+00 5.90283E+00 9.58392E+00-5.88088E-14-2.32681E-14
 -1       798 6.63780E+00 6.87438E+00 4.45902E+00 7.58675E+00-5.06938E-15 1.04136E-14
 -1       799 3.53319E+00 5.52914E+00 2.99057E+00 5.67334E+00-1.16172E-14-1.03342E-14
 -1       800 2.20292E-01 4.22698E+00 1.46760E+00 3.84368E+00 1.69668E-14 4.53419E-14
 -1       801-3.15143E+00 2.85620E+00-9.74242E-02 2.00347E+00-4.79288E-14-4.85575E-15
 -1       802-6.54804E+00 1.41736E+00-1.69312E+00 3.98804E-02-4.54861E-14 1.03501E-14
 -1       803-1.00787E+01-3.29990E-02-3.33686E+00-2.15306E+00 3.73549E-14 2.77729E-14
 -1       804 9.44007E+00 7.42471E+00 5.56538E+00 9.13661E+00 1.61558E-14-4.48122E-15
 -1       805 7.31192E+00 5.76274E+00 4.31463E+00 7.43715E+00 1.78459E-14 2.36474E-15
 -1       806 4.37605E+00 4.39331E+00 2.89389E+00 5.64246E+00 8.06646E-15 1.13869E-14
 -1       807 8.51926E-01 3.20095E+00 1.33745E+00 3.72479E+00 1.67040E-14-1.31605E-14
 -1       808-3.11335E+00 1.98163E+00-3.73467E-01 1.66564E+00 2.65448E-14-1.93429E-14
 -1       809-7.25969E+00 7.02292E-01-2.16394E+00-5.30919E-01 3.77099E-14 4.39868E-14
 -1       810-1.14554E+01-5.46219E-01-3.96052E+00-2.82086E+00-1.26683E-14-3.49331E-14
 -1       811 8.90521E+00 5.69820E+00 4.81913E+00 8.02446E+00-1.41278E-14-1.14752E-15
 -1       812 7.65398E+00 3.99716E+00 3.84488E+00 6.87294E+00-7.75818E-15-9.10860E-15
 -1       813 5.21056E+00 2.71592E+00 2.61574E+00 5.52683E+00 3.05498E-16-2.43145E-15
 -1       814 1.75723E+00 1.79738E+00 1.17302E+00 3.93619E+00-2.45770E-14-8.65445E-15
 -1       815-2.50524E+00 1.07445E+00-4.72159E-01 1.97418E+00-1.43417E-14-1.49306E-14
 -1       816-7.57150E+00 5.80110E-02-2.47945E+00-4.07333E-01-3.91056E-15-5.80760E-15
 -1       817-1.26491E+01-1.06697E+00-4.52631E+00-3.05025E+00 1.48937E-14 1.10173E-14
 -1       818 8.05960E+00 4.10416E+00 4.01404E+00 6.50953E+00-4.59449E-15-1.75763E-16
 -1       819 7.79213E+00 2.49073E+00 3.39334E+00 5.90070E+00-1.14806E-14-3.40712E-15
 -1       820 6.03821E+00 1.11596E+00 2.36088E+00 5.04423E+00-5.16060E-15-2.57085E-15
 -1       821 2.88761E+00 1.05771E-01 9.87816E-01 3.97036E+00 4.85897E-15-4.75750E-15
 -1       822-1.48809E+00-3.59441E-01-6.09686E-01 2.57510E+00 3.53417E-15 6.76249E-16
 -1       823-6.77357E+00-2.89739E-01-2.33089E+00 4.51170E-01 4.92596E-15 6.31952E-16
 -1       824-1.39095E+01-1.55019E+00-5.10169E+00-2.52134E+00 6.14021E-15 4.54074E-15
 -1       825 7.34279E+00 3.74388E+00 3.65860E+00 5.08733E+00-3.13894E-15 1.00958E-16
 -1       826 7.85892E+00 2.50283E+00 3.41937E+00 4.87740E+00 4.54725E-15 1.06388E-15
 -1       827 6.82051E+00 1.13717E+00 2.62603E+00 4.26067E+00 7.71296E-16 1.06970E-15
 -1       828 4.13746E+00-3.13101E-01 1.26204E+00 3.40884E+00-1.28132E-15 1.79410E-15
 -1       829-1.99386E-01-1.68925E+00-6.23250E-01 2.42769E+00 2.34390E-16-3.07351E-16
 -1       830-6.05744E+00-2.30753E+00-2.76044E+00 1.26444E+00-4.43624E-17 7.46992E-16
 -1       831-1.21965E+01-6.62644E-01-4.24351E+00-1.47893E+00-3.71323E-15 6.82200E-15
 -1       832 7.34279E+00 3.74388E+00 3.65860E+00 5.08733E+00-3.21271E-15 1.00958E-16
 -1       833 7.85892E+00 2.50283E+00 3.41937E+00 4.87740E+00 4.82256E-15 1.12460E-15
 -1       834 6.82051E+00 1.13717E+00 2.62603E+00 4.26067E+00 7.81534E-16 9.87984E-16
 -1       835 4.13746E+00-3.13101E-01 1.26204E+00 3.40884E+00-1.28264E-15 1.76478E-15
 -1       836-1.99386E-01-1.68925E+00-6.23250E-01 2.42769E+00 1.18628E-16-2.66582E-16
 -1       837-6.05744E+00-2.30753E+00-2.76044E+00 1.26444E+00-7.53829E-17 7.35737E-16
 -1       838-1.21965E+01-6.62644E-01-4.24351E+00-1.47893E+00-4.01891E-15 6.82200E-15
 -1       839 8.05960E+00 4.10416E+00 4.01404E+00 6.50953E+00-3.46673E-15 4.53942E-16
 -1       840 7.79213E+00 2.49073E+00 3.39334E+00 5.90070E+00-1.14382E-14-3.58644E-15
 -1       841 6.03821E+00 1.11596E+00 2.36088E+00 5.04423E+00-5.16060E-15-2.00045E-15
 -1       842 2.88761E+00 1.05771E-01 9.87816E-01 3.97036E+00 4.84838E-15-4.78238E-15
 -1       843-1.48809E+00-3.59441E-01-6.09686E-01 2.57510E+00 3.92668E-15 3.85776E-16
 -1       844-6.77357E+00-2.89739E-01-2.33089E+00 4.51170E-01 5.35800E-15 8.09853E-16
 -1       845-1.39095E+01-1.55019E+00-5.10169E+00-2.52134E+00 7.55492E-15 4.66180E-15
 -1       846 8.90521E+00 5.69820E+00 4.81913E+00 8.02446E+00-1.42111E-14-1.62193E-15
 -1       847 7.65398E+00 3.99716E+00 3.84488E+00 6.87294E+00-6.41970E-15-9.63805E-15
 -1       848 5.21056E+00 2.71592E+00 2.61574E+00 5.52683E+00-1.19111E-15-2.27861E-15
 -1       849 1.75723E+00 1.79738E+00 1.17302E+00 3.93619E+00-2.57545E-14-8.44761E-15
 -1       850-2.50524E+00 1.07445E+00-4.72159E-01 1.97418E+00-1.33823E-14-1.55180E-14
 -1       851-7.57150E+00 5.80110E-02-2.47945E+00-4.07333E-01-6.27125E-15-6.24493E-15
 -1       852-1.26491E+01-1.06697E+00-4.52631E+00-3.05025E+00 1.26488E-14 1.11133E-14
 -1       853 9.44007E+00 7.42471E+00 5.56538E+00 9.13661E+00 1.36413E-14-4.39932E-15
 -1       854 7.31192E+00 5.76274E+00 4.31463E+00 7.43715E+00 1.90989E-14 2.52814E-15
 -1       855 4.37605E+00 4.39331E+00 2.89389E+00 5.64246E+00 3.34793E-15 1.14138E-14
 -1       856 8.51926E-01 3.20095E+00 1.33745E+00 3.72479E+00 1.79063E-14-1.29316E-14
 -1       857-3.11335E+00 1.98163E+00-3.73467E-01 1.66564E+00 2.62482E-14-1.91847E-14
 -1       858-7.25969E+00 7.02292E-01-2.16394E+00-5.30919E-01 3.79725E-14 4.40080E-14
 -1       859-1.14554E+01-5.46219E-01-3.96052E+00-2.82086E+00-1.13185E-14-3.50178E-14
 -1       860 9.42811E+00 8.45926E+00 5.90283E+00 9.58392E+00-5.56680E-14-2.34262E-14
 -1       861 6.63780E+00 6.87438E+00 4.45902E+00 7.58675E+00 3.84807E-15 1.04111E-14
 -1       862 3.53319E+00 5.52914E+00 2.99057E+00 5.67334E+00-1.01312E-14-1.06566E-14
 -1       863 2.20292E-01 4.22698E+00 1.46760E+00 3.84368E+00 2.04880E-14 4.54308E-14
 -1       864-3.15143E+00 2.85620E+00-9.74242E-02 2.00347E+00-4.86348E-14-5.48828E-15
 -1       865-6.54804E+00 1.41736E+00-1.69312E+00 3.98804E-02-4.37042E-14 1.15304E-14
 -1       866-1.00787E+01-3.29990E-02-3.33686E+00-2.15306E+00 3.46976E-14 2.93543E-14
 -1       867 8.53660E+00 8.58308E+00 5.64949E+00 9.27874E+00-6.72342E-14 2.87992E-15
 -1       868 5.66475E+00 7.48389E+00 4.33905E+00 7.41637E+00-8.47453E-14-3.69748E-14
 -1       869 2.67302E+00 6.34926E+00 2.97735E+00 5.90626E+00 4.51868E-15 4.25143E-14
 -1       870-1.40327E-01 5.04210E+00 1.61758E+00 4.50522E+00 1.92729E-14-1.92530E-14
 -1       871-2.72965E+00 3.56438E+00 2.75463E-01 2.97950E+00 6.08818E-14 1.07329E-14
 -1       872-5.23090E+00 1.99287E+00-1.06855E+00 1.14985E+00 2.18168E-14 6.61641E-14
 -1       873-7.92171E+00 4.44274E-01-2.46755E+00-1.06902E+00 5.07455E-14-2.57530E-14
 -1       874 7.04361E+00 8.38625E+00 5.09185E+00 8.01168E+00 5.50120E-14 8.66356E-15
 -1       875 3.66497E+00 7.55115E+00 3.70132E+00 7.22525E+00 1.11407E-13 3.34157E-14
 -1       876 1.09838E+00 6.57523E+00 2.53229E+00 6.54890E+00-6.56768E-15-9.01388E-14
 -1       877-7.74357E-01 5.40379E+00 1.52771E+00 5.72233E+00 9.69177E-14 2.00165E-15
 -1       878-2.17236E+00 4.03155E+00 6.13532E-01 4.56797E+00 2.00676E-14-1.86231E-14
 -1       879-3.33224E+00 2.49383E+00-2.76677E-01 2.94526E+00 2.86101E-13-1.11451E-13
 -1       880-4.46599E+00 9.35672E-01-1.16500E+00 7.13073E-01 2.42656E-13 1.74717E-14
 -3
    1PSTEP                         3           1           1          
  100CL  101 1.000000000         162                     0    1           1
 -4  TOSTRAIN    6    1
 -5  EXX         1    4    1    1
 -5  EYY         1    4    2    2
 -5  EZZ         1    4    3    3
 -5  EXY         1    4    1    2
 -5  EYZ         1    4    2    3
 -5  EZX         1    4    3    1
 -1       719 1.05012E-01 6.13164E-02 0.00000E+00 1.23911E-01-3.88050E-16-1.04915E-15
 -1       720 1.05012E-01 6.13164E-02 0.00000E+00 1.23911E-01-3.88050E-16-1.04915E-15
 -1       721 5.10179E-02-1.74358E-04 0.00000E+00 7.59663E-02-3.28362E-18-8.47227E-20
 -1       722 5.10179E-02-1.74358E-04 0.00000E+00 7.59663E-02 2.32301E-18-8.47227E-20
 -1       723-4.43919E-02 3.77337E-02 0.00000E+00-6.23596E-03-5.88159E-15 4.78564E-15
 -1       724-4.43919E-02 3.77337E-02 0.00000E+00-6.23596E-03-6.06100E-15 4.78564E-15
 -1       725-4.19063E-01-1.42144E-03 0.00000E+00 9.63770E-02-4.04121E-19-1.83744E-19
 -1       726-4.19063E-01-1.42144E-03 0.00000E+00 9.63770E-02-4.04121E-19-1.83744E-19
 -1       727 1.04099E-01 5.57101E-02 0.00000E+00 1.61785E-01 1.73406E-17-6.38163E-16
 -1       728 1.22214E-01 5.45185E-02 0.00000E+00 1.96688E-01-3.13998E-15-1.22692E-15
 -1       729 1.25712E-01 5.15222E-02 0.00000E+00 2.00962E-01 9.13673E-16 8.33083E-16
 -1       730 1.15952E-01 4.17110E-02 0.00000E+00 1.88139E-01 1.49450E-17 4.48347E-17
 -1       731 9.45570E-02 2.70285E-02 0.00000E+00 1.60607E-01 8.29153E-17 1.01794E-16
 -1       732 6.77368E-02 1.40896E-02 0.00000E+00 1.26743E-01-1.73228E-16-5.65934E-17
 -1       733 4.53236E-02 1.30478E-02 0.00000E+00 9.29709E-02-9.21334E-17-5.75569E-17
 -1       734 1.04099E-01 5.57101E-02 0.00000E+00 1.61785E-01 1.73406E-17-6.35159E-16
 -1       735 1.22214E-01 5.45185E-02 0.00000E+00 1.96688E-01-3.17196E-15-1.24414E-15
 -1       736 1.25712E-01 5.15222E-02 0.00000E+00 2.00962E-01 8.71178E-16 8.55510E-16
 -1       737 1.15952E-01 4.17110E-02 0.00000E+00 1.88139E-01 1.95593E-17 3.32189E-17
 -1       738 9.45570E-02 2.70285E-02 0.00000E+00 1.60607E-01 1.08361E-16 1.27333E-16
 -1       739 6.77368E-02 1.40896E-02 0.00000E+00 1.26743E-01-1.89807E-16-6.26025E-17
 -1       740 4.53236E-02 1.30478E-02 0.00000E+00 9.29709E-02-9.28845E-17-5.75569E-17
 -1       741-2.55776E-02 6.22871E-02 0.00000E+00 1.38563E-02-7.08949E-15 2.21022E-15
 -1       742-2.69229E-02 1.00397E-01 0.00000E+00 4.44794E-02-8.09389E-15-4.38757E-18
 -1       743-2.61220E-02 1.19872E-01 0.00000E+00 6.71100E-02-3.58449E-15-1.41177E-15
 -1       744-2.19994E-02 1.25995E-01 0.00000E+00 8.47350E-02-4.36654E-15-1.29156E-16
 -1       745-1.23616E-02 1.21502E-01 0.00000E+00 9.86844E-02-9.77673E-16 1.43749E-15
 -1       746 7.35025E-03 1.06767E-01 0.00000E+00 1.09618E-01 6.01549E-16-2.20035E-15
 -1       747 4.59683E-02 7.90237E-02 0.00000E+00 1.18717E-01 9.42374E-17 7.97723E-17
 -1       748-2.55776E-02 6.22871E-02 0.00000E+00 1.38563E-02-7.07190E-15 2.21022E-15
 -1       749-2.69229E-02 1.00397E-01 0.00000E+00 4.44794E-02-8.06341E-15-4.38757E-18
 -1       750-2.61220E-02 1.19872E-01 0.00000E+00 6.71100E-02-3.60853E-15-1.40855E-15
 -1       751-2.19994E-02 1.25995E-01 0.00000E+00 8.47350E-02-4.36654E-15-1.41174E-16
 -1       752-1.23616E-02 1.21502E-01 0.00000E+00 9.86844E-02-9.77673E-16 1.43749E-15
 -1       753 7.35025E-03 1.06767E-01 0.00000E+00 1.09618E-01 6.91255E-16-2.17792E-15
 -1       754 4.59683E-02 7.90237E-02 0.00000E+00 1.18717E-01 7.02010E-17 7.37632E-17
 -1       755-3.08236E-01 1.06654E-01 0.00000E+00-5.79312E-02 1.20742E-17 1.19259E-17
 -1       756-2.46153E-01 7.67476E-02 0.00000E+00-8.67738E-02 3.31985E-17-1.47410E-17
 -1       757-2.21016E-01 7.44736E-02 0.00000E+00-8.34064E-02 2.34079E-16-5.48527E-16
 -1       758-2.05917E-01 7.04011E-02 0.00000E+00-7.69647E-02 1.14302E-15 1.48108E-16
 -1       759-1.83711E-01 6.50335E-02 0.00000E+00-6.44929E-02-1.05985E-15 1.74691E-16
 -1       760-1.51157E-01 5.47494E-02 0.00000E+00-4.55215E-02 2.89485E-15-2.50461E-16
 -1       761-9.19456E-02 3.39553E-02 0.00000E+00-1.34358E-02 2.28390E-15 2.95072E-16
 -1       762-3.08236E-01 1.06654E-01 0.00000E+00-5.79312E-02 1.05720E-17 1.19259E-17
 -1       763-2.46153E-01 7.67476E-02 0.00000E+00-8.67738E-02-6.04788E-18-1.47410E-17
 -1       764-2.21016E-01 7.44736E-02 0.00000E+00-8.34064E-02 2.40088E-16-5.48527E-16
 -1       765-2.05917E-01 7.04011E-02 0.00000E+00-7.69647E-02 1.07574E-15 1.48108E-16
 -1       766-1.83711E-01 6.50335E-02 0.00000E+00-6.44929E-02-9.04476E-16-4.72067E-18
 -1       767-1.51157E-01 5.47494E-02 0.00000E+00-4.55215E-02 2.85966E-15-2.02388E-16
 -1       768-9.19456E-02 3.39553E-02 0.00000E+00-1.34358E-02 2.30794E-15 2.95072E-16
 -1       769 7.57117E-02-2.16588E-05 0.00000E+00 8.15019E-02 1.61891E-18-6.27553E-19
 -1       770 8.53892E-02 2.32521E-04 0.00000E+00 7.73599E-02-5.29561E-19-6.62145E-19
 -1       771 7.79011E-02 3.77314E-04 0.00000E+00 6.68304E-02 9.43250E-20 3.49798E-19
 -1       772 5.20877E-02 3.98382E-04 0.00000E+00 5.36047E-02 6.42065E-19 3.24311E-19
 -1       773 6.36985E-03 2.68058E-04 0.00000E+00 4.18635E-02-8.13308E-19 3.75513E-19
 -1       774-6.42274E-02-1.17830E-04 0.00000E+00 3.71216E-02-4.18831E-19 5.77423E-19
 -1       775-1.72888E-01-9.08541E-04 0.00000E+00 5.05557E-02 1.62308E-18-2.75759E-18
 -1       776 7.57117E-02-2.16588E-05 0.00000E+00 8.15019E-02 1.67283E-18-6.27553E-19
 -1       777 8.53892E-02 2.32521E-04 0.00000E+00 7.73599E-02-7.30789E-19-6.62145E-19
 -1       778 7.79011E-02 3.77314E-04 0.00000E+00 6.68304E-02-1.35764E-18 7.25365E-19
 -1       779 5.20877E-02 3.98382E-04 0.00000E+00 5.36047E-02 8.29849E-19-1.07735E-18
 -1       780 6.36985E-03 2.68058E-04 0.00000E+00 4.18635E-02-8.13308E-19 2.50991E-20
 -1       781-6.42274E-02-1.17830E-04 0.00000E+00 3.71216E-02-4.18831E-19 6.71315E-19
 -1       782-1.72888E-01-9.08541E-04 0.00000E+00 5.05557E-02 1.62308E-18-2.75759E-18
 -1       783 3.70834E-02 6.25935E-02 0.00000E+00 1.52222E-01 1.04201E-15 1.65815E-16
 -1       784-6.90574E-04 7.31467E-02 0.00000E+00 1.37280E-01 2.12230E-15 6.33504E-16
 -1       785-2.72443E-02 7.68158E-02 0.00000E+00 1.24429E-01-6.71098E-17-1.72145E-15
 -1       786-4.37393E-02 7.36455E-02 0.00000E+00 1.08724E-01 1.83242E-15 1.03470E-17
 -1       787-5.29320E-02 6.49424E-02 0.00000E+00 8.67915E-02 4.14981E-16-3.52228E-16
 -1       788-5.80558E-02 5.26396E-02 0.00000E+00 5.59600E-02 5.28291E-15-2.09515E-15
 -1       789-6.27187E-02 3.99128E-02 0.00000E+00 1.35484E-02 4.60166E-15 3.31962E-16
 -1       790 5.48550E-02 5.57382E-02 0.00000E+00 1.76296E-01-1.25942E-15 4.64021E-17
 -1       791 2.51883E-02 5.97519E-02 0.00000E+00 1.40911E-01-1.56209E-15-6.86104E-16
 -1       792-5.78228E-03 6.40662E-02 0.00000E+00 1.12219E-01-1.93051E-17 8.30948E-16
 -1       793-3.34003E-02 6.50657E-02 0.00000E+00 8.55991E-02 3.86627E-16-3.43581E-16
 -1       794-5.70971E-02 6.24895E-02 0.00000E+00 5.66106E-02 1.05213E-15 1.96305E-16
 -1       795-7.90846E-02 5.81670E-02 0.00000E+00 2.18471E-02 5.66357E-16 1.26313E-15
 -1       796-1.03629E-01 5.53247E-02 0.00000E+00-2.03114E-02 9.35298E-16-4.82866E-16
 -1       797 6.69803E-02 4.85721E-02 0.00000E+00 1.82095E-01-1.11737E-15-4.42094E-16
 -1       798 4.13968E-02 4.58919E-02 0.00000E+00 1.44148E-01-9.63183E-17 1.97859E-16
 -1       799 1.03099E-02 4.82328E-02 0.00000E+00 1.07793E-01-2.20726E-16-1.96349E-16
 -1       800-2.36989E-02 5.24282E-02 0.00000E+00 7.30300E-02 3.22369E-16 8.61495E-16
 -1       801-5.80261E-02 5.61189E-02 0.00000E+00 3.80659E-02-9.10648E-16-9.22592E-17
 -1       802-9.22433E-02 5.90991E-02 0.00000E+00 7.57728E-04-8.64235E-16 1.96651E-16
 -1       803-1.28095E-01 6.27733E-02 0.00000E+00-4.09082E-02 7.09743E-16 5.27686E-16
 -1       804 7.36192E-02 3.53273E-02 0.00000E+00 1.73596E-01 3.06960E-16-8.51433E-17
 -1       805 5.69483E-02 2.75139E-02 0.00000E+00 1.41306E-01 3.39073E-16 4.49300E-17
 -1       806 2.81611E-02 2.84889E-02 0.00000E+00 1.07207E-01 1.53263E-16 2.16351E-16
 -1       807-9.22490E-03 3.54065E-02 0.00000E+00 7.07710E-02 3.17376E-16-2.50049E-16
 -1       808-5.20578E-02 4.47469E-02 0.00000E+00 3.16472E-02 5.04352E-16-3.67515E-16
 -1       809-9.68192E-02 5.44584E-02 0.00000E+00-1.00875E-02 7.16488E-16 8.35750E-16
 -1       810-1.42402E-01 6.48717E-02 0.00000E+00-5.35964E-02-2.40698E-16-6.63728E-16
 -1       811 7.76356E-02 1.67025E-02 0.00000E+00 1.52465E-01-2.68428E-16-2.18030E-17
 -1       812 7.23730E-02 2.89342E-03 0.00000E+00 1.30586E-01-1.47405E-16-1.73063E-16
 -1       813 4.93016E-02 1.90347E-03 0.00000E+00 1.05010E-01 5.80446E-18-4.61976E-17
 -1       814 1.11000E-02 1.18628E-02 0.00000E+00 7.47875E-02-4.66963E-16-1.64435E-16
 -1       815-3.86285E-02 2.93856E-02 0.00000E+00 3.75094E-02-2.72493E-16-2.83682E-16
 -1       816-9.67489E-02 4.82118E-02 0.00000E+00-7.73933E-03-7.43006E-17-1.10344E-16
 -1       817-1.54334E-01 6.57275E-02 0.00000E+00-5.79548E-02 2.82980E-16 2.09330E-16
 -1       818 7.68657E-02 1.71218E-03 0.00000E+00 1.23681E-01-8.72953E-17-3.33950E-18
 -1       819 8.35770E-02-1.71497E-02 0.00000E+00 1.12113E-01-2.18131E-16-6.47353E-17
 -1       820 6.98693E-02-2.36534E-02 0.00000E+00 9.58404E-02-9.80514E-17-4.88461E-17
 -1       821 3.60961E-02-1.67588E-02 0.00000E+00 7.54369E-02 9.23204E-17-9.03925E-17
 -1       822-1.66897E-02 4.75466E-03 0.00000E+00 4.89269E-02 6.71493E-17 1.28487E-17
 -1       823-8.44109E-02 3.87819E-02 0.00000E+00 8.57223E-03 9.35932E-17 1.20071E-17
 -1       824-1.67348E-01 6.74785E-02 0.00000E+00-4.79054E-02 1.16664E-16 8.62740E-17
 -1       825 6.99996E-02 1.62031E-03 0.00000E+00 9.66592E-02-5.96398E-17 1.91820E-18
 -1       826 8.43513E-02-1.74144E-02 0.00000E+00 9.26706E-02 8.63977E-17 2.02138E-17
 -1       827 7.96950E-02-2.82884E-02 0.00000E+00 8.09528E-02 1.46546E-17 2.03243E-17
 -1       828 5.46330E-02-2.99277E-02 0.00000E+00 6.47679E-02-2.43450E-17 3.40879E-17
 -1       829 8.05342E-03-2.02540E-02 0.00000E+00 4.61260E-02 4.45342E-18-5.83967E-18
 -1       830-6.26429E-02 8.60526E-03 0.00000E+00 2.40245E-02-8.42886E-19 1.41928E-17
 -1       831-1.51106E-01 6.80364E-02 0.00000E+00-2.80997E-02-7.05514E-17 1.29618E-16
 -1       832 6.99996E-02 1.62031E-03 0.00000E+00 9.66592E-02-6.10414E-17 1.91820E-18
 -1       833 8.43513E-02-1.74144E-02 0.00000E+00 9.26706E-02 9.16287E-17 2.13674E-17
 -1       834 7.96950E-02-2.82884E-02 0.00000E+00 8.09528E-02 1.48492E-17 1.87717E-17
 -1       835 5.46330E-02-2.99277E-02 0.00000E+00 6.47679E-02-2.43702E-17 3.35309E-17
 -1       836 8.05342E-03-2.02540E-02 0.00000E+00 4.61260E-02 2.25393E-18-5.06507E-18
 -1       837-6.26429E-02 8.60526E-03 0.00000E+00 2.40245E-02-1.43228E-18 1.39790E-17
 -1       838-1.51106E-01 6.80364E-02 0.00000E+00-2.80997E-02-7.63593E-17 1.29618E-16
 -1       839 7.68657E-02 1.71218E-03 0.00000E+00 1.23681E-01-6.58679E-17 8.62489E-18
 -1       840 8.35770E-02-1.71497E-02 0.00000E+00 1.12113E-01-2.17326E-16-6.81424E-17
 -1       841 6.98693E-02-2.36534E-02 0.00000E+00 9.58404E-02-9.80514E-17-3.80085E-17
 -1       842 3.60961E-02-1.67588E-02 0.00000E+00 7.54369E-02 9.21192E-17-9.08652E-17
 -1       843-1.66897E-02 4.75466E-03 0.00000E+00 4.89269E-02 7.46068E-17 7.32974E-18
 -1       844-8.44109E-02 3.87819E-02 0.00000E+00 8.57223E-03 1.01802E-16 1.53872E-17
 -1       845-1.67348E-01 6.74785E-02 0.00000E+00-4.79054E-02 1.43543E-16 8.85742E-17
 -1       846 7.76356E-02 1.67025E-02 0.00000E+00 1.52465E-01-2.70011E-16-3.08166E-17
 -1       847 7.23730E-02 2.89342E-03 0.00000E+00 1.30586E-01-1.21974E-16-1.83123E-16
 -1       848 4.93016E-02 1.90347E-03 0.00000E+00 1.05010E-01-2.26311E-17-4.32937E-17
 -1       849 1.11000E-02 1.18628E-02 0.00000E+00 7.47875E-02-4.89335E-16-1.60505E-16
 -1       850-3.86285E-02 2.93856E-02 0.00000E+00 3.75094E-02-2.54265E-16-2.94842E-16
 -1       851-9.67489E-02 4.82118E-02 0.00000E+00-7.73933E-03-1.19154E-16-1.18654E-16
 -1       852-1.54334E-01 6.57275E-02 0.00000E+00-5.79548E-02 2.40326E-16 2.11154E-16
 -1       853 7.36192E-02 3.53273E-02 0.00000E+00 1.73596E-01 2.59185E-16-8.35871E-17
 -1       854 5.69483E-02 2.75139E-02 0.00000E+00 1.41306E-01 3.62880E-16 4.80347E-17
 -1       855 2.81611E-02 2.84889E-02 0.00000E+00 1.07207E-01 6.36107E-17 2.16862E-16
 -1       856-9.22490E-03 3.54065E-02 0.00000E+00 7.07710E-02 3.40219E-16-2.45700E-16
 -1       857-5.20578E-02 4.47469E-02 0.00000E+00 3.16472E-02 4.98716E-16-3.64510E-16
 -1       858-9.68192E-02 5.44584E-02 0.00000E+00-1.00875E-02 7.21477E-16 8.36152E-16
 -1       859-1.42402E-01 6.48717E-02 0.00000E+00-5.35964E-02-2.15052E-16-6.65338E-16
 -1       860 6.69803E-02 4.85721E-02 0.00000E+00 1.82095E-01-1.05769E-15-4.45098E-16
 -1       861 4.13968E-02 4.58919E-02 0.00000E+00 1.44148E-01 7.31133E-17 1.97811E-16
 -1       862 1.03099E-02 4.82328E-02 0.00000E+00 1.07793E-01-1.92492E-16-2.02475E-16
 -1       863-2.36989E-02 5.24282E-02 0.00000E+00 7.30300E-02 3.89271E-16 8.63185E-16
 -1       864-5.80261E-02 5.61189E-02 0.00000E+00 3.80659E-02-9.24061E-16-1.04277E-16
 -1       865-9.22433E-02 5.90991E-02 0.00000E+00 7.57728E-04-8.30380E-16 2.19078E-16
 -1       866-1.28095E-01 6.27733E-02 0.00000E+00-4.09082E-02 6.59255E-16 5.57731E-16
 -1       867 5.48550E-02 5.57382E-02 0.00000E+00 1.76296E-01-1.27745E-15 5.47185E-17
 -1       868 2.51883E-02 5.97519E-02 0.00000E+00 1.40911E-01-1.61016E-15-7.02522E-16
 -1       869-5.78228E-03 6.40662E-02 0.00000E+00 1.12219E-01 8.58549E-17 8.07771E-16
 -1       870-3.34003E-02 6.50657E-02 0.00000E+00 8.55991E-02 3.66185E-16-3.65807E-16
 -1       871-5.70971E-02 6.24895E-02 0.00000E+00 5.66106E-02 1.15675E-15 2.03924E-16
 -1       872-7.90846E-02 5.81670E-02 0.00000E+00 2.18471E-02 4.14519E-16 1.25712E-15
 -1       873-1.03629E-01 5.53247E-02 0.00000E+00-2.03114E-02 9.64165E-16-4.89306E-16
 -1       874 3.70834E-02 6.25935E-02 0.00000E+00 1.52222E-01 1.04523E-15 1.64608E-16
 -1       875-6.90574E-04 7.31467E-02 0.00000E+00 1.37280E-01 2.11673E-15 6.34899E-16
 -1       876-2.72443E-02 7.68158E-02 0.00000E+00 1.24429E-01-1.24786E-16-1.71264E-15
 -1       877-4.37393E-02 7.36455E-02 0.00000E+00 1.08724E-01 1.84144E-15 3.80314E-17
 -1       878-5.29320E-02 6.49424E-02 0.00000E+00 8.67915E-02 3.81285E-16-3.53839E-16
 -1       879-5.80558E-02 5.26396E-02 0.00000E+00 5.59600E-02 5.43593E-15-2.11757E-15
 -1       880-6.27187E-02 3.99128E-02 0.00000E+00 1.35484E-02 4.61046E-15 3.31962E-16
 -3
    1PSTEP                         4           1           1          
  100CL  101 1.000000000         162                     0    1           1
 -4  FORC        4    1
 -5  F1          1    2    1    0
 -5  F2          1    2    2    0
 -5  F3          1    2    3    0
 -5  ALL         1    2    0    0    1ALL
 -1       719 1.05971E-12 1.56250E+01-1.67817E+01
 -1       720 6.28271E-13 1.56250E+01 1.67817E+01
 -1       721-2.73034E+01-2.44376E+01-2.24856E+01
 -1       722-2.73034E+01-2.44376E+01 2.24856E+01
 -1       723 5.70846E-13 1.56250E+01 1.13375E+00
 -1       724 4.08149E-13 1.56250E+01-1.13375E+00
 -1       725 2.54539E+02-7.57028E+01 1.10412E+02
 -1       726 2.54539E+02-7.57028E+01-1.10412E+02
 -1       727 2.23551E-12 4.67399E-13-4.56813E+01
 -1       728 2.61260E-13 1.65128E-12-6.52521E+01
 -1       729-2.49929E-13-1.49516E-12-7.62994E+01
 -1       730-3.54270E-14-5.95610E-13-7.96979E+01
 -1       731 6.58361E-14-2.56907E-13-7.39843E+01
 -1       732 8.93531E-14 3.55940E-13-6.20376E+01
 -1       733 2.22293E-14 5.74198E-14-5.01534E+01
 -1       734 7.47217E-13-2.83990E-13 4.56813E+01
 -1       735-9.40273E-13-1.11626E-12 6.52521E+01
 -1       736 3.93814E-13-5.83508E-13 7.62994E+01
 -1       737 1.05815E-13-2.34725E-13 7.96979E+01
 -1       738 1.74306E-14 1.51991E-13 7.39843E+01
 -1       739 6.88537E-14 1.49766E-13 6.20376E+01
 -1       740-5.80895E-14-7.41842E-14 5.01534E+01
 -1       741-3.47670E-12 3.12500E+01-4.95029E+00
 -1       742-1.08832E-13 3.12500E+01-1.32760E+01
 -1       743 7.07627E-13 3.12500E+01-1.82934E+01
 -1       744 2.40969E-12 3.12500E+01-2.12512E+01
 -1       745-8.95254E-13 3.12500E+01-2.31422E+01
 -1       746 2.01605E-12 3.12500E+01-2.49766E+01
 -1       747-2.07324E-12 3.12500E+01-2.80634E+01
 -1       748-2.33110E-12 3.12500E+01 4.95029E+00
 -1       749 5.42152E-13 3.12500E+01 1.32760E+01
 -1       750-9.07801E-13 3.12500E+01 1.82934E+01
 -1       751 1.76297E-12 3.12500E+01 2.12512E+01
 -1       752 2.36586E-12 3.12500E+01 2.31422E+01
 -1       753-3.34099E-12 3.12500E+01 2.49766E+01
 -1       754-3.04194E-13 3.12500E+01 2.80634E+01
 -1       755-2.15852E-13 7.81597E-14 1.32772E+02
 -1       756-3.21096E-13 9.54792E-14 9.36706E+01
 -1       757 2.93422E-13-1.02847E-13 7.58650E+01
 -1       758-3.27202E-13-3.02901E-13 6.25308E+01
 -1       759-7.32969E-13 1.04957E-12 4.85498E+01
 -1       760 8.24320E-13-2.59748E-12 3.36177E+01
 -1       761 7.79717E-14-3.62866E-12 1.54067E+01
 -1       762 1.35528E-13 1.02141E-14-1.32772E+02
 -1       763-1.50860E-13-7.53841E-14-9.36706E+01
 -1       764 2.19924E-14-1.36406E-13-7.58650E+01
 -1       765-5.62197E-13 7.59980E-13-6.25308E+01
 -1       766 6.30829E-13-5.03507E-13-4.85498E+01
 -1       767 8.23695E-13-5.86864E-13-3.36177E+01
 -1       768 5.31458E-13-5.06905E-12-1.54067E+01
 -1       769-8.05755E+01-6.36982E+01-5.57737E+01
 -1       770-1.04802E+02-5.91511E+01-6.27976E+01
 -1       771-1.07527E+02-4.59735E+01-5.76560E+01
 -1       772-8.59423E+01-2.77099E+01-3.92800E+01
 -1       773-3.86598E+01-7.52781E+00-6.73234E+00
 -1       774 3.65638E+01 1.10854E+01 4.20418E+01
 -1       775 1.53707E+02 4.31155E+01 1.20524E+02
 -1       776-8.05755E+01-6.36982E+01 5.57737E+01
 -1       777-1.04802E+02-5.91511E+01 6.27976E+01
 -1       778-1.07527E+02-4.59735E+01 5.76560E+01
 -1       779-8.59423E+01-2.77099E+01 3.92800E+01
 -1       780-3.86598E+01-7.52781E+00 6.73234E+00
 -1       781 3.65638E+01 1.10854E+01-4.20418E+01
 -1       782 1.53707E+02 4.31155E+01-1.20524E+02
 -1       783-2.54313E-12-6.06811E-13-7.01519E+01
 -1       784 8.67070E-13-4.02502E-12-5.25446E+01
 -1       785 4.16212E-13 1.48276E-12-3.83175E+01
 -1       786 6.00409E-13-4.88245E-12-2.58279E+01
 -1       787-2.04277E-12 5.41303E-12-1.35694E+01
 -1       788 3.55792E-12-5.92889E-12-1.71402E-01
 -1       789-1.19650E-12 1.53868E-12 1.55739E+01
 -1       790-4.36634E-13 8.11837E-13-1.01304E+02
 -1       791-4.53938E-13 7.09139E-13-7.49996E+01
 -1       792-1.21415E-12 3.42243E-13-4.98620E+01
 -1       793 3.46519E-13-1.81554E-12-2.60849E+01
 -1       794-1.43830E-12 2.90514E-12-3.07531E+00
 -1       795-6.23727E-13-3.90192E-12 2.01216E+01
 -1       796 1.86775E-13 4.19664E-13 4.45597E+01
 -1       797 3.40882E-13-1.71604E-13-1.21662E+02
 -1       798-2.12144E-13-1.44689E-12-9.14218E+01
 -1       799-4.00575E-14 8.01449E-14-6.02297E+01
 -1       800-3.34121E-13-1.74662E-12-2.86730E+01
 -1       801 1.46605E-12 2.80278E-12 2.95961E+00
 -1       802-3.64471E-15-4.40450E-13 3.48986E+01
 -1       803 3.10418E-13-1.15022E-12 6.77804E+01
 -1       804 2.48603E-13 5.47540E-13-1.30728E+02
 -1       805 6.32533E-13-8.52852E-13-1.00212E+02
 -1       806-1.05991E-12 1.61603E-12-6.61985E+01
 -1       807 6.13070E-13-1.22935E-12-2.95416E+01
 -1       808 3.41949E-13-1.16969E-12 9.01187E+00
 -1       809-1.32046E-12-8.03449E-13 4.86000E+01
 -1       810 1.56027E-12 7.45041E-13 8.90575E+01
 -1       811-6.02519E-13 8.35996E-13-1.28648E+02
 -1       812 3.28181E-13-4.20970E-13-1.02349E+02
 -1       813 7.85390E-15-2.44805E-13-6.87133E+01
 -1       814 8.31862E-13-2.89770E-14-2.90659E+01
 -1       815-1.35225E-13 4.71734E-13 1.52178E+01
 -1       816 2.64206E-13 2.13608E-13 6.30597E+01
 -1       817 1.24344E-13-1.08424E-12 1.11177E+02
 -1       818-2.14939E-13-1.89346E-14-1.19472E+02
 -1       819 2.33974E-13 5.33018E-13-1.02862E+02
 -1       820 8.03194E-14 3.29292E-13-7.33017E+01
 -1       821 1.54987E-13-2.05765E-13-3.21762E+01
 -1       822-3.20960E-14 2.11643E-14 1.84731E+01
 -1       823 1.66793E-13-1.91664E-13 7.57235E+01
 -1       824-1.38355E-13-1.29008E-13 1.38743E+02
 -1       825-3.11193E-14 2.05498E-13-1.10822E+02
 -1       826 3.95546E-15-8.75352E-14-1.09526E+02
 -1       827-2.95273E-15-3.66043E-14-8.97469E+01
 -1       828-1.17470E-13-5.86032E-14-5.06988E+01
 -1       829 6.31174E-15-4.28546E-14 7.28171E+00
 -1       830 2.99996E-14 1.16621E-14 8.21984E+01
 -1       831-1.39732E-13 6.39488E-14 1.65900E+02
 -1       832 7.78597E-14 2.98697E-14 1.10822E+02
 -1       833-2.52717E-14 1.32610E-13 1.09526E+02
 -1       834 3.82578E-14-6.22611E-14 8.97469E+01
 -1       835-5.77788E-14-8.46849E-14 5.06988E+01
 -1       836 2.62556E-15-2.83662E-14-7.28171E+00
 -1       837 1.46868E-14 2.67516E-14-8.21984E+01
 -1       838 2.10494E-14 8.88178E-16-1.65900E+02
 -1       839-2.36366E-13-2.45854E-13 1.19472E+02
 -1       840 7.72213E-14 1.25011E-13 1.02862E+02
 -1       841 9.20983E-14 1.96815E-13 7.33017E+01
 -1       842-6.98330E-14-1.32742E-13 3.21762E+01
 -1       843 5.30792E-14 1.18093E-14-1.84731E+01
 -1       844 2.45045E-13-2.14987E-14-7.57235E+01
 -1       845 3.87679E-14 4.61298E-13-1.38743E+02
 -1       846-4.95936E-13 2.49414E-13 1.28648E+02
 -1       847-5.92854E-14-5.72617E-13 1.02349E+02
 -1       848-8.45703E-14-3.83304E-13 6.87133E+01
 -1       849 3.42754E-13-9.51072E-13 2.90659E+01
 -1       850-4.55857E-13-1.28564E-13-1.52178E+01
 -1       851-2.23515E-15 5.57886E-13-6.30597E+01
 -1       852 7.00556E-14-6.16175E-13-1.11177E+02
 -1       853-1.08271E-13 4.00757E-13 1.30728E+02
 -1       854 3.41132E-13 3.30714E-13 1.00212E+02
 -1       855-2.52147E-13 1.15190E-12 6.61985E+01
 -1       856 1.05792E-16-3.33458E-13 2.95416E+01
 -1       857-9.72444E-13 1.45840E-13-9.01187E+00
 -1       858 7.63318E-13-3.33641E-13-4.86000E+01
 -1       859 2.56278E-13 2.28291E-13-8.90575E+01
 -1       860 2.98829E-13-3.36590E-12 1.21662E+02
 -1       861-5.88105E-13-1.10251E-12 9.14218E+01
 -1       862-5.54356E-13 2.56253E-13 6.02297E+01
 -1       863 7.36022E-13-4.71159E-13 2.86730E+01
 -1       864 1.23612E-12 1.73483E-12-2.95961E+00
 -1       865 1.71528E-12-3.47209E-12-3.48986E+01
 -1       866-6.69853E-13 2.61982E-12-6.77804E+01
 -1       867 1.08234E-12-8.82337E-13 1.01304E+02
 -1       868-2.38024E-12-9.58273E-13 7.49996E+01
 -1       869 3.87926E-13-4.77559E-14 4.98620E+01
 -1       870-8.76317E-13 4.12861E-13 2.60849E+01
 -1       871-1.64707E-12 3.55767E-12 3.07531E+00
 -1       872 1.69147E-12-2.08912E-12-2.01216E+01
 -1       873-2.88194E-13 2.60447E-12-4.45597E+01
 -1       874-1.37529E-12 9.39986E-14 7.01519E+01
 -1       875-4.51402E-13 2.92324E-12 5.25446E+01
 -1       876 1.42809E-12-3.85419E-12 3.83175E+01
 -1       877-7.16205E-13-2.17966E-13 2.58279E+01
 -1       878 1.21365E-12-1.80597E-12 1.35694E+01
 -1       879-1.31438E-12 5.28156E-12 1.71402E-01
 -1       880-2.01023E-13 7.14793E-12-1.55739E+01
 -3
 9999
