    1C
    1UHash: PXJD0WWr, Date: 03/11/2021, Unit system: MM_TON_S_C         
    1UUSER                                                              
    1UDATE              13.march.2021                                   
    1UTIME              18:37:32                                        
    1UHOST                                                              
    1UPGM               CalculiX                                        
    1UVERSION           Version 2.17                             
    1UCOMPILETIME       Thu Jul 23 21:43:50 CEST 2020                    
    1UDIR                                                               
    1UDBN                                                               
    1UMAT    1RUBBER                                                    
    2C                          8053                                     1
 -1     20407 4.80000E+01 4.40000E+01 0.00000E+00
 -1     20408 4.80000E+01 4.40000E+01 5.00000E+00
 -1     20409 0.00000E+00 0.00000E+00 0.00000E+00
 -1     20410 0.00000E+00 0.00000E+00 5.00000E+00
 -1     20411 4.80000E+01 6.00000E+01 0.00000E+00
 -1     20412 4.80000E+01 6.00000E+01 5.00000E+00
 -1     20413 0.00000E+00 4.40000E+01 0.00000E+00
 -1     20414 0.00000E+00 4.40000E+01 5.00000E+00
 -1     20415 4.65455E+01 4.26667E+01 0.00000E+00
 -1     20416 4.50909E+01 4.13333E+01 0.00000E+00
 -1     20417 4.36364E+01 4.00000E+01 0.00000E+00
 -1     20418 4.21818E+01 3.86667E+01 0.00000E+00
 -1     20419 4.07273E+01 3.73333E+01 0.00000E+00
 -1     20420 3.92727E+01 3.60000E+01 0.00000E+00
 -1     20421 3.78182E+01 3.46667E+01 0.00000E+00
 -1     20422 3.63636E+01 3.33333E+01 0.00000E+00
 -1     20423 3.49091E+01 3.20000E+01 0.00000E+00
 -1     20424 3.34545E+01 3.06667E+01 0.00000E+00
 -1     20425 3.20000E+01 2.93333E+01 0.00000E+00
 -1     20426 3.05455E+01 2.80000E+01 0.00000E+00
 -1     20427 2.90909E+01 2.66667E+01 0.00000E+00
 -1     20428 2.76364E+01 2.53333E+01 0.00000E+00
 -1     20429 2.61818E+01 2.40000E+01 0.00000E+00
 -1     20430 2.47273E+01 2.26667E+01 0.00000E+00
 -1     20431 2.32727E+01 2.13333E+01 0.00000E+00
 -1     20432 2.18182E+01 2.00000E+01 0.00000E+00
 -1     20433 2.03636E+01 1.86667E+01 0.00000E+00
 -1     20434 1.89091E+01 1.73333E+01 0.00000E+00
 -1     20435 1.74545E+01 1.60000E+01 0.00000E+00
 -1     20436 1.60000E+01 1.46667E+01 0.00000E+00
 -1     20437 1.45455E+01 1.33333E+01 0.00000E+00
 -1     20438 1.30909E+01 1.20000E+01 0.00000E+00
 -1     20439 1.16364E+01 1.06667E+01 0.00000E+00
 -1     20440 1.01818E+01 9.33333E+00 0.00000E+00
 -1     20441 8.72727E+00 8.00000E+00 0.00000E+00
 -1     20442 7.27273E+00 6.66667E+00 0.00000E+00
 -1     20443 5.81818E+00 5.33333E+00 0.00000E+00
 -1     20444 4.36364E+00 4.00000E+00 0.00000E+00
 -1     20445 2.90909E+00 2.66667E+00 0.00000E+00
 -1     20446 1.45455E+00 1.33333E+00 0.00000E+00
 -1     20447 4.65455E+01 4.26667E+01 5.00000E+00
 -1     20448 4.50909E+01 4.13333E+01 5.00000E+00
 -1     20449 4.36364E+01 4.00000E+01 5.00000E+00
 -1     20450 4.21818E+01 3.86667E+01 5.00000E+00
 -1     20451 4.07273E+01 3.73333E+01 5.00000E+00
 -1     20452 3.92727E+01 3.60000E+01 5.00000E+00
 -1     20453 3.78182E+01 3.46667E+01 5.00000E+00
 -1     20454 3.63636E+01 3.33333E+01 5.00000E+00
 -1     20455 3.49091E+01 3.20000E+01 5.00000E+00
 -1     20456 3.34545E+01 3.06667E+01 5.00000E+00
 -1     20457 3.20000E+01 2.93333E+01 5.00000E+00
 -1     20458 3.05455E+01 2.80000E+01 5.00000E+00
 -1     20459 2.90909E+01 2.66667E+01 5.00000E+00
 -1     20460 2.76364E+01 2.53333E+01 5.00000E+00
 -1     20461 2.61818E+01 2.40000E+01 5.00000E+00
 -1     20462 2.47273E+01 2.26667E+01 5.00000E+00
 -1     20463 2.32727E+01 2.13333E+01 5.00000E+00
 -1     20464 2.18182E+01 2.00000E+01 5.00000E+00
 -1     20465 2.03636E+01 1.86667E+01 5.00000E+00
 -1     20466 1.89091E+01 1.73333E+01 5.00000E+00
 -1     20467 1.74545E+01 1.60000E+01 5.00000E+00
 -1     20468 1.60000E+01 1.46667E+01 5.00000E+00
 -1     20469 1.45455E+01 1.33333E+01 5.00000E+00
 -1     20470 1.30909E+01 1.20000E+01 5.00000E+00
 -1     20471 1.16364E+01 1.06667E+01 5.00000E+00
 -1     20472 1.01818E+01 9.33333E+00 5.00000E+00
 -1     20473 8.72727E+00 8.00000E+00 5.00000E+00
 -1     20474 7.27273E+00 6.66667E+00 5.00000E+00
 -1     20475 5.81818E+00 5.33333E+00 5.00000E+00
 -1     20476 4.36364E+00 4.00000E+00 5.00000E+00
 -1     20477 2.90909E+00 2.66667E+00 5.00000E+00
 -1     20478 1.45455E+00 1.33333E+00 5.00000E+00
 -1     20479 4.80000E+01 5.80000E+01 0.00000E+00
 -1     20480 4.80000E+01 5.60000E+01 0.00000E+00
 -1     20481 4.80000E+01 5.40000E+01 0.00000E+00
 -1     20482 4.80000E+01 5.20000E+01 0.00000E+00
 -1     20483 4.80000E+01 5.00000E+01 0.00000E+00
 -1     20484 4.80000E+01 4.80000E+01 0.00000E+00
 -1     20485 4.80000E+01 4.60000E+01 0.00000E+00
 -1     20486 4.80000E+01 5.80000E+01 5.00000E+00
 -1     20487 4.80000E+01 5.60000E+01 5.00000E+00
 -1     20488 4.80000E+01 5.40000E+01 5.00000E+00
 -1     20489 4.80000E+01 5.20000E+01 5.00000E+00
 -1     20490 4.80000E+01 5.00000E+01 5.00000E+00
 -1     20491 4.80000E+01 4.80000E+01 5.00000E+00
 -1     20492 4.80000E+01 4.60000E+01 5.00000E+00
 -1     20493 1.84615E+00 4.46154E+01 0.00000E+00
 -1     20494 3.69231E+00 4.52308E+01 0.00000E+00
 -1     20495 5.53846E+00 4.58462E+01 0.00000E+00
 -1     20496 7.38462E+00 4.64615E+01 0.00000E+00
 -1     20497 9.23077E+00 4.70769E+01 0.00000E+00
 -1     20498 1.10769E+01 4.76923E+01 0.00000E+00
 -1     20499 1.29231E+01 4.83077E+01 0.00000E+00
 -1     20500 1.47692E+01 4.89231E+01 0.00000E+00
 -1     20501 1.66154E+01 4.95385E+01 0.00000E+00
 -1     20502 1.84615E+01 5.01538E+01 0.00000E+00
 -1     20503 2.03077E+01 5.07692E+01 0.00000E+00
 -1     20504 2.21538E+01 5.13846E+01 0.00000E+00
 -1     20505 2.40000E+01 5.20000E+01 0.00000E+00
 -1     20506 2.58462E+01 5.26154E+01 0.00000E+00
 -1     20507 2.76923E+01 5.32308E+01 0.00000E+00
 -1     20508 2.95385E+01 5.38462E+01 0.00000E+00
 -1     20509 3.13846E+01 5.44615E+01 0.00000E+00
 -1     20510 3.32308E+01 5.50769E+01 0.00000E+00
 -1     20511 3.50769E+01 5.56923E+01 0.00000E+00
 -1     20512 3.69231E+01 5.63077E+01 0.00000E+00
 -1     20513 3.87692E+01 5.69231E+01 0.00000E+00
 -1     20514 4.06154E+01 5.75385E+01 0.00000E+00
 -1     20515 4.24615E+01 5.81538E+01 0.00000E+00
 -1     20516 4.43077E+01 5.87692E+01 0.00000E+00
 -1     20517 4.61538E+01 5.93846E+01 0.00000E+00
 -1     20518 1.84615E+00 4.46154E+01 5.00000E+00
 -1     20519 3.69231E+00 4.52308E+01 5.00000E+00
 -1     20520 5.53846E+00 4.58462E+01 5.00000E+00
 -1     20521 7.38462E+00 4.64615E+01 5.00000E+00
 -1     20522 9.23077E+00 4.70769E+01 5.00000E+00
 -1     20523 1.10769E+01 4.76923E+01 5.00000E+00
 -1     20524 1.29231E+01 4.83077E+01 5.00000E+00
 -1     20525 1.47692E+01 4.89231E+01 5.00000E+00
 -1     20526 1.66154E+01 4.95385E+01 5.00000E+00
 -1     20527 1.84615E+01 5.01538E+01 5.00000E+00
 -1     20528 2.03077E+01 5.07692E+01 5.00000E+00
 -1     20529 2.21538E+01 5.13846E+01 5.00000E+00
 -1     20530 2.40000E+01 5.20000E+01 5.00000E+00
 -1     20531 2.58462E+01 5.26154E+01 5.00000E+00
 -1     20532 2.76923E+01 5.32308E+01 5.00000E+00
 -1     20533 2.95385E+01 5.38462E+01 5.00000E+00
 -1     20534 3.13846E+01 5.44615E+01 5.00000E+00
 -1     20535 3.32308E+01 5.50769E+01 5.00000E+00
 -1     20536 3.50769E+01 5.56923E+01 5.00000E+00
 -1     20537 3.69231E+01 5.63077E+01 5.00000E+00
 -1     20538 3.87692E+01 5.69231E+01 5.00000E+00
 -1     20539 4.06154E+01 5.75385E+01 5.00000E+00
 -1     20540 4.24615E+01 5.81538E+01 5.00000E+00
 -1     20541 4.43077E+01 5.87692E+01 5.00000E+00
 -1     20542 4.61538E+01 5.93846E+01 5.00000E+00
 -1     20543 0.00000E+00 2.00000E+00 0.00000E+00
 -1     20544 0.00000E+00 4.00000E+00 0.00000E+00
 -1     20545 0.00000E+00 6.00000E+00 0.00000E+00
 -1     20546 0.00000E+00 8.00000E+00 0.00000E+00
 -1     20547 0.00000E+00 1.00000E+01 0.00000E+00
 -1     20548 0.00000E+00 1.20000E+01 0.00000E+00
 -1     20549 0.00000E+00 1.40000E+01 0.00000E+00
 -1     20550 0.00000E+00 1.60000E+01 0.00000E+00
 -1     20551 0.00000E+00 1.80000E+01 0.00000E+00
 -1     20552 0.00000E+00 2.00000E+01 0.00000E+00
 -1     20553 0.00000E+00 2.20000E+01 0.00000E+00
 -1     20554 0.00000E+00 2.40000E+01 0.00000E+00
 -1     20555 0.00000E+00 2.60000E+01 0.00000E+00
 -1     20556 0.00000E+00 2.80000E+01 0.00000E+00
 -1     20557 0.00000E+00 3.00000E+01 0.00000E+00
 -1     20558 0.00000E+00 3.20000E+01 0.00000E+00
 -1     20559 0.00000E+00 3.40000E+01 0.00000E+00
 -1     20560 0.00000E+00 3.60000E+01 0.00000E+00
 -1     20561 0.00000E+00 3.80000E+01 0.00000E+00
 -1     20562 0.00000E+00 4.00000E+01 0.00000E+00
 -1     20563 0.00000E+00 4.20000E+01 0.00000E+00
 -1     20564 0.00000E+00 2.00000E+00 5.00000E+00
 -1     20565 0.00000E+00 4.00000E+00 5.00000E+00
 -1     20566 0.00000E+00 6.00000E+00 5.00000E+00
 -1     20567 0.00000E+00 8.00000E+00 5.00000E+00
 -1     20568 0.00000E+00 1.00000E+01 5.00000E+00
 -1     20569 0.00000E+00 1.20000E+01 5.00000E+00
 -1     20570 0.00000E+00 1.40000E+01 5.00000E+00
 -1     20571 0.00000E+00 1.60000E+01 5.00000E+00
 -1     20572 0.00000E+00 1.80000E+01 5.00000E+00
 -1     20573 0.00000E+00 2.00000E+01 5.00000E+00
 -1     20574 0.00000E+00 2.20000E+01 5.00000E+00
 -1     20575 0.00000E+00 2.40000E+01 5.00000E+00
 -1     20576 0.00000E+00 2.60000E+01 5.00000E+00
 -1     20577 0.00000E+00 2.80000E+01 5.00000E+00
 -1     20578 0.00000E+00 3.00000E+01 5.00000E+00
 -1     20579 0.00000E+00 3.20000E+01 5.00000E+00
 -1     20580 0.00000E+00 3.40000E+01 5.00000E+00
 -1     20581 0.00000E+00 3.60000E+01 5.00000E+00
 -1     20582 0.00000E+00 3.80000E+01 5.00000E+00
 -1     20583 0.00000E+00 4.00000E+01 5.00000E+00
 -1     20584 0.00000E+00 4.20000E+01 5.00000E+00
 -1     20585 4.63320E+01 4.47368E+01 0.00000E+00
 -1     20586 4.32728E+01 4.20495E+01 0.00000E+00
 -1     20587 4.03161E+01 3.93251E+01 0.00000E+00
 -1     20588 3.73859E+01 3.66183E+01 0.00000E+00
 -1     20589 3.44645E+01 3.39511E+01 0.00000E+00
 -1     20590 3.15624E+01 3.12777E+01 0.00000E+00
 -1     20591 2.86659E+01 2.85967E+01 0.00000E+00
 -1     20592 2.57644E+01 2.59213E+01 0.00000E+00
 -1     20593 2.28569E+01 2.32545E+01 0.00000E+00
 -1     20594 1.99454E+01 2.05948E+01 0.00000E+00
 -1     20595 1.70362E+01 1.79395E+01 0.00000E+00
 -1     20596 1.41395E+01 1.52780E+01 0.00000E+00
 -1     20597 1.12709E+01 1.26036E+01 0.00000E+00
 -1     20598 8.40519E+00 9.92046E+00 0.00000E+00
 -1     20599 5.40435E+00 7.33386E+00 0.00000E+00
 -1     20600 2.06979E+00 4.73219E+00 0.00000E+00
 -1     20601 1.73229E+00 9.01806E+00 0.00000E+00
 -1     20602 1.61593E+00 1.30314E+01 0.00000E+00
 -1     20603 1.65277E+00 1.70098E+01 0.00000E+00
 -1     20604 1.68373E+00 2.09923E+01 0.00000E+00
 -1     20605 1.70772E+00 2.49863E+01 0.00000E+00
 -1     20606 1.69938E+00 2.89780E+01 0.00000E+00
 -1     20607 1.66539E+00 3.29456E+01 0.00000E+00
 -1     20608 1.61117E+00 3.68783E+01 0.00000E+00
 -1     20609 1.63442E+00 4.07944E+01 0.00000E+00
 -1     20610 1.70372E+00 4.27287E+01 0.00000E+00
 -1     20611 5.26445E+00 4.40306E+01 0.00000E+00
 -1     20612 8.89510E+00 4.52155E+01 0.00000E+00
 -1     20613 1.25514E+01 4.64069E+01 0.00000E+00
 -1     20614 1.62310E+01 4.76205E+01 0.00000E+00
 -1     20615 1.99268E+01 4.88420E+01 0.00000E+00
 -1     20616 2.36229E+01 5.00642E+01 0.00000E+00
 -1     20617 2.73121E+01 5.12946E+01 0.00000E+00
 -1     20618 3.09884E+01 5.25384E+01 0.00000E+00
 -1     20619 3.46653E+01 5.37936E+01 0.00000E+00
 -1     20620 3.84272E+01 5.49161E+01 0.00000E+00
 -1     20621 4.22739E+01 5.60156E+01 0.00000E+00
 -1     20622 4.61044E+01 5.73290E+01 0.00000E+00
 -1     20623 4.59409E+01 5.31180E+01 0.00000E+00
 -1     20624 4.61459E+01 4.88635E+01 0.00000E+00
 -1     20625 4.47830E+01 4.34036E+01 0.00000E+00
 -1     20626 4.17873E+01 4.06885E+01 0.00000E+00
 -1     20627 3.88511E+01 3.79665E+01 0.00000E+00
 -1     20628 3.59226E+01 3.52830E+01 0.00000E+00
 -1     20629 3.30118E+01 3.26161E+01 0.00000E+00
 -1     20630 3.01145E+01 2.99372E+01 0.00000E+00
 -1     20631 2.72161E+01 2.72578E+01 0.00000E+00
 -1     20632 2.43114E+01 2.45871E+01 0.00000E+00
 -1     20633 2.14021E+01 2.19237E+01 0.00000E+00
 -1     20634 1.84892E+01 1.92675E+01 0.00000E+00
 -1     20635 1.55875E+01 1.66109E+01 0.00000E+00
 -1     20636 1.26978E+01 1.39445E+01 0.00000E+00
 -1     20637 9.84988E+00 1.12563E+01 0.00000E+00
 -1     20638 6.92456E+00 8.61560E+00 0.00000E+00
 -1     20639 3.81852E+00 6.05412E+00 0.00000E+00
 -1     20640 1.30969E+00 2.99715E+00 0.00000E+00
 -1     20641 1.85660E+00 6.95530E+00 0.00000E+00
 -1     20642 1.65249E+00 1.10311E+01 0.00000E+00
 -1     20643 1.62402E+00 1.50259E+01 0.00000E+00
 -1     20644 1.67207E+00 1.89958E+01 0.00000E+00
 -1     20645 1.69710E+00 2.29897E+01 0.00000E+00
 -1     20646 1.70797E+00 2.69834E+01 0.00000E+00
 -1     20647 1.68647E+00 3.09687E+01 0.00000E+00
 -1     20648 1.63712E+00 3.49140E+01 0.00000E+00
 -1     20649 1.60614E+00 3.88414E+01 0.00000E+00
 -1     20650 1.07200E+01 4.58042E+01 0.00000E+00
 -1     20651 3.47033E+00 4.33957E+01 0.00000E+00
 -1     20652 7.07612E+00 4.46330E+01 0.00000E+00
 -1     20653 1.43861E+01 4.70095E+01 0.00000E+00
 -1     20654 1.80798E+01 4.82287E+01 0.00000E+00
 -1     20655 2.17748E+01 4.94534E+01 0.00000E+00
 -1     20656 2.54699E+01 5.06820E+01 0.00000E+00
 -1     20657 2.91547E+01 5.19115E+01 0.00000E+00
 -1     20658 3.28200E+01 5.31717E+01 0.00000E+00
 -1     20659 3.65380E+01 5.43774E+01 0.00000E+00
 -1     20660 4.03442E+01 5.54523E+01 0.00000E+00
 -1     20661 4.41959E+01 5.66529E+01 0.00000E+00
 -1     20662 4.60304E+01 5.52438E+01 0.00000E+00
 -1     20663 4.60022E+01 5.09835E+01 0.00000E+00
 -1     20664 4.62296E+01 4.67915E+01 0.00000E+00
 -1     20665 3.84377E+01 3.99428E+01 0.00000E+00
 -1     20666 3.54895E+01 3.72302E+01 0.00000E+00
 -1     20667 4.45590E+01 4.54866E+01 0.00000E+00
 -1     20668 3.25631E+01 3.45714E+01 0.00000E+00
 -1     20669 3.69645E+01 3.85679E+01 0.00000E+00
 -1     20670 2.96737E+01 3.18814E+01 0.00000E+00
 -1     20671 2.67906E+01 2.91844E+01 0.00000E+00
 -1     20672 2.38948E+01 2.65071E+01 0.00000E+00
 -1     20673 2.09886E+01 2.38445E+01 0.00000E+00
 -1     20674 1.80721E+01 2.11979E+01 0.00000E+00
 -1     20675 1.51670E+01 1.85560E+01 0.00000E+00
 -1     20676 1.22823E+01 1.58893E+01 0.00000E+00
 -1     20677 9.47385E+00 1.31923E+01 0.00000E+00
 -1     20678 6.64287E+00 1.05268E+01 0.00000E+00
 -1     20679 3.35962E+00 1.01151E+01 0.00000E+00
 -1     20680 3.21418E+00 1.40619E+01 0.00000E+00
 -1     20681 3.54133E+00 8.11098E+00 0.00000E+00
 -1     20682 3.41214E+00 2.39703E+01 0.00000E+00
 -1     20683 3.34067E+00 1.79849E+01 0.00000E+00
 -1     20684 5.03332E+00 4.22096E+01 0.00000E+00
 -1     20685 3.37922E+00 2.19768E+01 0.00000E+00
 -1     20686 3.28504E+00 1.60266E+01 0.00000E+00
 -1     20687 3.41126E+00 2.79667E+01 0.00000E+00
 -1     20688 3.36373E+00 3.19363E+01 0.00000E+00
 -1     20689 3.25321E+00 3.58071E+01 0.00000E+00
 -1     20690 3.22131E+00 3.96427E+01 0.00000E+00
 -1     20691 8.57511E+00 4.33725E+01 0.00000E+00
 -1     20692 3.31213E+00 4.15345E+01 0.00000E+00
 -1     20693 1.95453E+01 4.69118E+01 0.00000E+00
 -1     20694 1.40070E+01 4.50951E+01 0.00000E+00
 -1     20695 2.32439E+01 4.81272E+01 0.00000E+00
 -1     20696 1.21813E+01 4.44983E+01 0.00000E+00
 -1     20697 2.13951E+01 4.75187E+01 0.00000E+00
 -1     20698 2.69416E+01 4.93513E+01 0.00000E+00
 -1     20699 3.06223E+01 5.05882E+01 0.00000E+00
 -1     20700 3.42353E+01 5.19079E+01 0.00000E+00
 -1     20701 3.79858E+01 5.29825E+01 0.00000E+00
 -1     20702 4.19631E+01 5.38749E+01 0.00000E+00
 -1     20703 4.40209E+01 5.44729E+01 0.00000E+00
 -1     20704 4.37383E+01 5.20815E+01 0.00000E+00
 -1     20705 3.99164E+01 4.13399E+01 0.00000E+00
 -1     20706 4.44005E+01 4.75832E+01 0.00000E+00
 -1     20707 3.35182E+00 1.99760E+01 0.00000E+00
 -1     20708 3.40200E+01 3.59051E+01 0.00000E+00
 -1     20709 3.11156E+01 3.32289E+01 0.00000E+00
 -1     20710 1.76933E+01 4.63069E+01 0.00000E+00
 -1     20711 4.14193E+01 4.27359E+01 0.00000E+00
 -1     20712 1.95315E+01 2.25187E+01 0.00000E+00
 -1     20713 2.53437E+01 2.78428E+01 0.00000E+00
 -1     20714 2.82337E+01 3.05316E+01 0.00000E+00
 -1     20715 2.24432E+01 2.51748E+01 0.00000E+00
 -1     20716 1.66138E+01 1.98775E+01 0.00000E+00
 -1     20717 1.37250E+01 1.72249E+01 0.00000E+00
 -1     20718 1.08507E+01 1.45528E+01 0.00000E+00
 -1     20719 8.09354E+00 1.18256E+01 0.00000E+00
 -1     20720 3.42377E+00 2.59668E+01 0.00000E+00
 -1     20721 5.12524E+00 9.30607E+00 0.00000E+00
 -1     20722 3.23551E+00 1.20862E+01 0.00000E+00
 -1     20723 3.39062E+00 2.99599E+01 0.00000E+00
 -1     20724 6.79318E+00 4.28185E+01 0.00000E+00
 -1     20725 3.31775E+00 3.38826E+01 0.00000E+00
 -1     20726 3.20647E+00 3.77284E+01 0.00000E+00
 -1     20727 1.03709E+01 4.39224E+01 0.00000E+00
 -1     20728 1.58460E+01 4.57004E+01 0.00000E+00
 -1     20729 2.87882E+01 4.99628E+01 0.00000E+00
 -1     20730 2.50928E+01 4.87396E+01 0.00000E+00
 -1     20731 3.24343E+01 5.12408E+01 0.00000E+00
 -1     20732 3.60826E+01 5.25074E+01 0.00000E+00
 -1     20733 3.99261E+01 5.34190E+01 0.00000E+00
 -1     20734 4.42652E+01 4.97096E+01 0.00000E+00
 -1     20735 4.29637E+01 4.41235E+01 0.00000E+00
 -1     20736 2.77889E+01 3.24746E+01 0.00000E+00
 -1     20737 1.18741E+01 1.78422E+01 0.00000E+00
 -1     20738 2.34767E+01 2.84238E+01 0.00000E+00
 -1     20739 1.47386E+01 2.05050E+01 0.00000E+00
 -1     20740 1.76639E+01 2.31230E+01 0.00000E+00
 -1     20741 8.97197E+00 1.51598E+01 0.00000E+00
 -1     20742 2.05832E+01 2.57637E+01 0.00000E+00
 -1     20743 1.33038E+01 1.91827E+01 0.00000E+00
 -1     20744 1.04222E+01 1.65013E+01 0.00000E+00
 -1     20745 4.74524E+00 1.31180E+01 0.00000E+00
 -1     20746 5.15012E+00 2.49358E+01 0.00000E+00
 -1     20747 4.77152E+00 3.85412E+01 0.00000E+00
 -1     20748 1.61974E+01 2.18143E+01 0.00000E+00
 -1     20749 4.95207E+00 3.48107E+01 0.00000E+00
 -1     20750 4.90974E+00 1.12336E+01 0.00000E+00
 -1     20751 5.10172E+00 2.89594E+01 0.00000E+00
 -1     20752 4.83148E+00 3.66765E+01 0.00000E+00
 -1     20753 5.10255E+00 2.29461E+01 0.00000E+00
 -1     20754 3.21038E+01 4.92720E+01 0.00000E+00
 -1     20755 6.53348E+00 4.10378E+01 0.00000E+00
 -1     20756 2.65651E+01 4.74114E+01 0.00000E+00
 -1     20757 2.20307E+01 2.70932E+01 0.00000E+00
 -1     20758 4.84993E+00 4.03898E+01 0.00000E+00
 -1     20759 1.54525E+01 4.37807E+01 0.00000E+00
 -1     20760 1.91572E+01 4.49874E+01 0.00000E+00
 -1     20761 2.47150E+01 4.67972E+01 0.00000E+00
 -1     20762 2.28677E+01 4.61856E+01 0.00000E+00
 -1     20763 4.24811E+01 5.03069E+01 0.00000E+00
 -1     20764 5.13307E+00 2.69514E+01 0.00000E+00
 -1     20765 2.10149E+01 4.55843E+01 0.00000E+00
 -1     20766 3.02785E+01 4.86224E+01 0.00000E+00
 -1     20767 1.73006E+01 4.43872E+01 0.00000E+00
 -1     20768 3.80226E+01 4.19440E+01 0.00000E+00
 -1     20769 1.91290E+01 2.44393E+01 0.00000E+00
 -1     20770 4.27209E+01 4.62299E+01 0.00000E+00
 -1     20771 1.00274E+01 4.20503E+01 0.00000E+00
 -1     20772 2.49226E+01 2.97615E+01 0.00000E+00
 -1     20773 6.38904E+00 1.23675E+01 0.00000E+00
 -1     20774 3.95256E+01 4.33831E+01 0.00000E+00
 -1     20775 1.36201E+01 4.31759E+01 0.00000E+00
 -1     20776 4.10994E+01 4.48191E+01 0.00000E+00
 -1     20777 5.03369E+00 3.29060E+01 0.00000E+00
 -1     20778 1.18080E+01 4.25867E+01 0.00000E+00
 -1     20779 5.07287E+00 3.09503E+01 0.00000E+00
 -1     20780 2.92191E+01 3.38343E+01 0.00000E+00
 -1     20781 5.01000E+00 1.89447E+01 0.00000E+00
 -1     20782 3.06575E+01 3.51923E+01 0.00000E+00
 -1     20783 3.65564E+01 4.05191E+01 0.00000E+00
 -1     20784 4.25265E+01 4.83515E+01 0.00000E+00
 -1     20785 4.13324E+01 5.18203E+01 0.00000E+00
 -1     20786 2.63602E+01 3.11144E+01 0.00000E+00
 -1     20787 4.85136E+00 1.50528E+01 0.00000E+00
 -1     20788 8.26993E+00 4.15673E+01 0.00000E+00
 -1     20789 3.38753E+01 4.99780E+01 0.00000E+00
 -1     20790 3.21074E+01 3.65389E+01 0.00000E+00
 -1     20791 7.72891E+00 1.37343E+01 0.00000E+00
 -1     20792 3.35785E+01 3.78669E+01 0.00000E+00
 -1     20793 5.04043E+00 1.69532E+01 0.00000E+00
 -1     20794 2.84232E+01 4.80147E+01 0.00000E+00
 -1     20795 3.74342E+01 5.11760E+01 0.00000E+00
 -1     20796 3.55953E+01 5.07022E+01 0.00000E+00
 -1     20797 5.02167E+00 2.09502E+01 0.00000E+00
 -1     20798 3.93511E+01 5.13967E+01 0.00000E+00
 -1     20799 4.08406E+01 4.69780E+01 0.00000E+00
 -1     20800 6.88484E+00 1.57620E+01 0.00000E+00
 -1     20801 1.87401E+01 2.63553E+01 0.00000E+00
 -1     20802 6.30150E+00 3.93061E+01 0.00000E+00
 -1     20803 2.44985E+01 3.16735E+01 0.00000E+00
 -1     20804 6.90999E+00 2.38598E+01 0.00000E+00
 -1     20805 3.50721E+01 3.91671E+01 0.00000E+00
 -1     20806 8.54139E+00 1.71219E+01 0.00000E+00
 -1     20807 3.36376E+01 4.79887E+01 0.00000E+00
 -1     20808 2.61834E+01 4.54710E+01 0.00000E+00
 -1     20809 3.18054E+01 4.72698E+01 0.00000E+00
 -1     20810 2.43491E+01 4.48408E+01 0.00000E+00
 -1     20811 2.59131E+01 3.30538E+01 0.00000E+00
 -1     20812 1.14184E+01 4.06601E+01 0.00000E+00
 -1     20813 2.99255E+01 4.66560E+01 0.00000E+00
 -1     20814 9.66522E+00 4.01866E+01 0.00000E+00
 -1     20815 1.00490E+01 1.84541E+01 0.00000E+00
 -1     20816 3.75538E+01 4.39858E+01 0.00000E+00
 -1     20817 2.80422E+01 4.60805E+01 0.00000E+00
 -1     20818 1.50459E+01 4.18589E+01 0.00000E+00
 -1     20819 3.91967E+01 4.54477E+01 0.00000E+00
 -1     20820 6.70207E+00 3.38984E+01 0.00000E+00
 -1     20821 1.32172E+01 4.12442E+01 0.00000E+00
 -1     20822 6.13363E+00 1.40371E+01 0.00000E+00
 -1     20823 3.31616E+01 3.98391E+01 0.00000E+00
 -1     20824 6.81511E+00 2.79571E+01 0.00000E+00
 -1     20825 2.73203E+01 3.44268E+01 0.00000E+00
 -1     20826 1.68951E+01 4.24707E+01 0.00000E+00
 -1     20827 1.72770E+01 2.50411E+01 0.00000E+00
 -1     20828 3.68153E+01 4.96196E+01 0.00000E+00
 -1     20829 2.01807E+01 2.76822E+01 0.00000E+00
 -1     20830 1.43227E+01 2.24602E+01 0.00000E+00
 -1     20831 1.14605E+01 1.98187E+01 0.00000E+00
 -1     20832 6.59567E+00 1.99128E+01 0.00000E+00
 -1     20833 3.16460E+01 3.85375E+01 0.00000E+00
 -1     20834 2.30622E+01 3.03303E+01 0.00000E+00
 -1     20835 1.28602E+01 2.11610E+01 0.00000E+00
 -1     20836 2.24951E+01 4.42393E+01 0.00000E+00
 -1     20837 6.87191E+00 2.59127E+01 0.00000E+00
 -1     20838 6.77623E+00 2.99756E+01 0.00000E+00
 -1     20839 1.57994E+01 2.37442E+01 0.00000E+00
 -1     20840 3.46918E+01 4.10610E+01 0.00000E+00
 -1     20841 4.05717E+01 4.94178E+01 0.00000E+00
 -1     20842 6.31824E+00 3.75154E+01 0.00000E+00
 -1     20843 6.56112E+00 3.57532E+01 0.00000E+00
 -1     20844 7.96212E+00 3.98514E+01 0.00000E+00
 -1     20845 2.06269E+01 4.36546E+01 0.00000E+00
 -1     20846 3.53427E+01 4.87987E+01 0.00000E+00
 -1     20847 2.16199E+01 2.90092E+01 0.00000E+00
 -1     20848 3.61334E+01 4.24878E+01 0.00000E+00
 -1     20849 1.87574E+01 4.30689E+01 0.00000E+00
 -1     20850 3.84939E+01 4.95054E+01 0.00000E+00
 -1     20851 6.72281E+00 2.19010E+01 0.00000E+00
 -1     20852 6.75219E+00 3.19613E+01 0.00000E+00
 -1     20853 2.87464E+01 3.58000E+01 0.00000E+00
 -1     20854 3.89449E+01 4.75302E+01 0.00000E+00
 -1     20855 2.12070E+01 3.09172E+01 0.00000E+00
 -1     20856 3.01843E+01 3.71812E+01 0.00000E+00
 -1     20857 2.82615E+01 3.77922E+01 0.00000E+00
 -1     20858 9.18631E+00 3.83493E+01 0.00000E+00
 -1     20859 1.69198E+01 2.69500E+01 0.00000E+00
 -1     20860 6.72836E+00 1.79317E+01 0.00000E+00
 -1     20861 7.59583E+00 3.83444E+01 0.00000E+00
 -1     20862 2.58471E+01 4.34897E+01 0.00000E+00
 -1     20863 2.40647E+01 3.35730E+01 0.00000E+00
 -1     20864 3.14428E+01 4.52292E+01 0.00000E+00
 -1     20865 1.46189E+01 3.99303E+01 0.00000E+00
 -1     20866 1.27795E+01 3.92792E+01 0.00000E+00
 -1     20867 1.24347E+01 2.31506E+01 0.00000E+00
 -1     20868 2.26506E+01 3.22084E+01 0.00000E+00
 -1     20869 8.28535E+00 1.90648E+01 0.00000E+00
 -1     20870 8.03949E+00 2.08073E+01 0.00000E+00
 -1     20871 3.28291E+01 4.18456E+01 0.00000E+00
 -1     20872 1.83583E+01 2.82694E+01 0.00000E+00
 -1     20873 2.96628E+01 3.92138E+01 0.00000E+00
 -1     20874 8.53666E+00 2.69503E+01 0.00000E+00
 -1     20875 2.68183E+01 3.63732E+01 0.00000E+00
 -1     20876 8.65482E+00 2.48459E+01 0.00000E+00
 -1     20877 8.39523E+00 3.49838E+01 0.00000E+00
 -1     20878 3.12343E+01 4.05995E+01 0.00000E+00
 -1     20879 2.40002E+01 4.28684E+01 0.00000E+00
 -1     20880 1.39431E+01 2.44090E+01 0.00000E+00
 -1     20881 2.76303E+01 4.41792E+01 0.00000E+00
 -1     20882 1.54394E+01 2.56639E+01 0.00000E+00
 -1     20883 2.21105E+01 4.22989E+01 0.00000E+00
 -1     20884 1.97794E+01 2.96042E+01 0.00000E+00
 -1     20885 1.64713E+01 4.05601E+01 0.00000E+00
 -1     20886 3.70703E+01 4.79613E+01 0.00000E+00
 -1     20887 3.34302E+01 4.59455E+01 0.00000E+00
 -1     20888 3.53399E+01 4.68278E+01 0.00000E+00
 -1     20889 9.67625E+00 2.04315E+01 0.00000E+00
 -1     20890 1.09539E+01 3.86702E+01 0.00000E+00
 -1     20891 8.81456E+00 2.25659E+01 0.00000E+00
 -1     20892 2.54166E+01 3.50320E+01 0.00000E+00
 -1     20893 2.95301E+01 4.47211E+01 0.00000E+00
 -1     20894 2.02175E+01 4.17347E+01 0.00000E+00
 -1     20895 3.72380E+01 4.60147E+01 0.00000E+00
 -1     20896 8.43964E+00 3.30164E+01 0.00000E+00
 -1     20897 8.46419E+00 2.90002E+01 0.00000E+00
 -1     20898 3.53078E+01 4.45973E+01 0.00000E+00
 -1     20899 1.83362E+01 4.11588E+01 0.00000E+00
 -1     20900 1.02888E+01 2.59909E+01 0.00000E+00
 -1     20901 2.08062E+01 3.28091E+01 0.00000E+00
 -1     20902 1.09470E+01 2.18510E+01 0.00000E+00
 -1     20903 8.44123E+00 3.10197E+01 0.00000E+00
 -1     20904 1.41758E+01 3.79875E+01 0.00000E+00
 -1     20905 8.10219E+00 3.68003E+01 0.00000E+00
 -1     20906 1.01862E+01 3.64522E+01 0.00000E+00
 -1     20907 1.05132E+01 2.39060E+01 0.00000E+00
 -1     20908 3.29897E+01 4.39301E+01 0.00000E+00
 -1     20909 1.22959E+01 3.72418E+01 0.00000E+00
 -1     20910 3.43811E+01 4.27990E+01 0.00000E+00
 -1     20911 2.22540E+01 3.40100E+01 0.00000E+00
 -1     20912 1.65827E+01 2.88464E+01 0.00000E+00
 -1     20913 2.55718E+01 4.14596E+01 0.00000E+00
 -1     20914 2.74163E+01 3.99550E+01 0.00000E+00
 -1     20915 1.93599E+01 3.15364E+01 0.00000E+00
 -1     20916 3.09384E+01 4.29264E+01 0.00000E+00
 -1     20917 1.20956E+01 2.51439E+01 0.00000E+00
 -1     20918 2.36198E+01 4.09070E+01 0.00000E+00
 -1     20919 2.35696E+01 3.54560E+01 0.00000E+00
 -1     20920 1.51299E+01 2.75612E+01 0.00000E+00
 -1     20921 1.01628E+01 3.41566E+01 0.00000E+00
 -1     20922 2.16866E+01 4.03764E+01 0.00000E+00
 -1     20923 2.64626E+01 3.81772E+01 0.00000E+00
 -1     20924 2.74077E+01 4.21634E+01 0.00000E+00
 -1     20925 1.01457E+01 2.80386E+01 0.00000E+00
 -1     20926 1.60321E+01 3.86632E+01 0.00000E+00
 -1     20927 1.19705E+01 3.51744E+01 0.00000E+00
 -1     20928 1.36265E+01 2.63491E+01 0.00000E+00
 -1     20929 2.51369E+01 3.94764E+01 0.00000E+00
 -1     20930 1.79703E+01 3.01936E+01 0.00000E+00
 -1     20931 2.92835E+01 4.12290E+01 0.00000E+00
 -1     20932 2.04683E+01 3.47028E+01 0.00000E+00
 -1     20933 2.89834E+01 4.30252E+01 0.00000E+00
 -1     20934 2.47226E+01 3.72276E+01 0.00000E+00
 -1     20935 1.89836E+01 3.35039E+01 0.00000E+00
 -1     20936 1.38275E+01 3.60042E+01 0.00000E+00
 -1     20937 1.01097E+01 3.20923E+01 0.00000E+00
 -1     20938 1.00890E+01 3.00673E+01 0.00000E+00
 -1     20939 1.48628E+01 2.93955E+01 0.00000E+00
 -1     20940 2.31780E+01 3.89538E+01 0.00000E+00
 -1     20941 1.62185E+01 3.07426E+01 0.00000E+00
 -1     20942 2.18936E+01 3.56121E+01 0.00000E+00
 -1     20943 1.18200E+01 3.31288E+01 0.00000E+00
 -1     20944 1.18598E+01 2.71401E+01 0.00000E+00
 -1     20945 1.97660E+01 3.98279E+01 0.00000E+00
 -1     20946 1.78894E+01 3.92585E+01 0.00000E+00
 -1     20947 1.55886E+01 3.68028E+01 0.00000E+00
 -1     20948 1.75049E+01 3.21439E+01 0.00000E+00
 -1     20949 1.33847E+01 2.82712E+01 0.00000E+00
 -1     20950 1.36414E+01 3.40049E+01 0.00000E+00
 -1     20951 1.17042E+01 3.11239E+01 0.00000E+00
 -1     20952 1.32197E+01 3.01625E+01 0.00000E+00
 -1     20953 1.87281E+01 3.57078E+01 0.00000E+00
 -1     20954 2.06140E+01 3.66569E+01 0.00000E+00
 -1     20955 2.25731E+01 3.71532E+01 0.00000E+00
 -1     20956 1.17104E+01 2.91248E+01 0.00000E+00
 -1     20957 1.71674E+01 3.40516E+01 0.00000E+00
 -1     20958 1.53885E+01 3.48499E+01 0.00000E+00
 -1     20959 1.33674E+01 3.21066E+01 0.00000E+00
 -1     20960 2.11815E+01 3.85015E+01 0.00000E+00
 -1     20961 1.46206E+01 3.10635E+01 0.00000E+00
 -1     20962 1.54337E+01 3.27547E+01 0.00000E+00
 -1     20963 1.74381E+01 3.73897E+01 0.00000E+00
 -1     20964 1.92623E+01 3.79015E+01 0.00000E+00
 -1     20965 1.68937E+01 3.57516E+01 0.00000E+00
 -1     20966 2.06324E+00 4.71166E+00 5.00000E+00
 -1     20967 5.36988E+00 7.19754E+00 5.00000E+00
 -1     20968 8.10216E+00 1.00115E+01 5.00000E+00
 -1     20969 1.11372E+01 1.26496E+01 5.00000E+00
 -1     20970 1.40992E+01 1.52948E+01 5.00000E+00
 -1     20971 1.70199E+01 1.79416E+01 5.00000E+00
 -1     20972 1.99360E+01 2.05958E+01 5.00000E+00
 -1     20973 2.28419E+01 2.32652E+01 5.00000E+00
 -1     20974 2.57417E+01 2.59384E+01 5.00000E+00
 -1     20975 2.86493E+01 2.86031E+01 5.00000E+00
 -1     20976 3.15664E+01 3.12708E+01 5.00000E+00
 -1     20977 3.44787E+01 3.39532E+01 5.00000E+00
 -1     20978 3.73876E+01 3.66341E+01 5.00000E+00
 -1     20979 4.03130E+01 3.93029E+01 5.00000E+00
 -1     20980 4.32319E+01 4.20732E+01 5.00000E+00
 -1     20981 4.62459E+01 4.48186E+01 5.00000E+00
 -1     20982 4.60953E+01 4.69375E+01 5.00000E+00
 -1     20983 4.60478E+01 5.11590E+01 5.00000E+00
 -1     20984 4.61027E+01 5.53019E+01 5.00000E+00
 -1     20985 4.42570E+01 5.66921E+01 5.00000E+00
 -1     20986 4.04991E+01 5.53811E+01 5.00000E+00
 -1     20987 3.67023E+01 5.41943E+01 5.00000E+00
 -1     20988 3.28805E+01 5.30947E+01 5.00000E+00
 -1     20989 2.91567E+01 5.18929E+01 5.00000E+00
 -1     20990 2.54643E+01 5.06818E+01 5.00000E+00
 -1     20991 2.17660E+01 4.94670E+01 5.00000E+00
 -1     20992 1.80757E+01 4.82408E+01 5.00000E+00
 -1     20993 1.43960E+01 4.70239E+01 5.00000E+00
 -1     20994 1.07318E+01 4.58283E+01 5.00000E+00
 -1     20995 7.08121E+00 4.46424E+01 5.00000E+00
 -1     20996 3.47907E+00 4.33852E+01 5.00000E+00
 -1     20997 1.71135E+00 4.27183E+01 5.00000E+00
 -1     20998 1.63321E+00 3.88207E+01 5.00000E+00
 -1     20999 1.66982E+00 3.48972E+01 5.00000E+00
 -1     21000 1.70403E+00 3.09501E+01 5.00000E+00
 -1     21001 1.72748E+00 2.69619E+01 5.00000E+00
 -1     21002 1.73111E+00 2.29599E+01 5.00000E+00
 -1     21003 1.69572E+00 1.89620E+01 5.00000E+00
 -1     21004 1.77045E+00 1.49552E+01 5.00000E+00
 -1     21005 1.80662E+00 1.09709E+01 5.00000E+00
 -1     21006 1.84675E+00 6.90610E+00 5.00000E+00
 -1     21007 4.61297E+01 5.73520E+01 5.00000E+00
 -1     21008 1.30805E+00 2.99286E+00 5.00000E+00
 -1     21009 3.80187E+00 5.98594E+00 5.00000E+00
 -1     21010 6.77151E+00 8.59791E+00 5.00000E+00
 -1     21011 9.62169E+00 1.13338E+01 5.00000E+00
 -1     21012 1.26284E+01 1.39698E+01 5.00000E+00
 -1     21013 1.55609E+01 1.66180E+01 5.00000E+00
 -1     21014 1.84787E+01 1.92664E+01 5.00000E+00
 -1     21015 2.13903E+01 2.19290E+01 5.00000E+00
 -1     21016 2.42920E+01 2.46021E+01 5.00000E+00
 -1     21017 2.71941E+01 2.72715E+01 5.00000E+00
 -1     21018 3.01078E+01 2.99347E+01 5.00000E+00
 -1     21019 3.30236E+01 3.26100E+01 5.00000E+00
 -1     21020 3.59324E+01 3.52948E+01 5.00000E+00
 -1     21021 3.88465E+01 3.79671E+01 5.00000E+00
 -1     21022 4.17777E+01 4.06633E+01 5.00000E+00
 -1     21023 4.46954E+01 4.34850E+01 5.00000E+00
 -1     21024 4.60396E+01 4.90546E+01 5.00000E+00
 -1     21025 4.60733E+01 5.32394E+01 5.00000E+00
 -1     21026 4.23817E+01 5.60290E+01 5.00000E+00
 -1     21027 3.86055E+01 5.47585E+01 5.00000E+00
 -1     21028 3.47840E+01 5.36545E+01 5.00000E+00
 -1     21029 3.10090E+01 5.25003E+01 5.00000E+00
 -1     21030 2.73080E+01 5.12861E+01 5.00000E+00
 -1     21031 2.36155E+01 5.00720E+01 5.00000E+00
 -1     21032 1.99190E+01 4.88564E+01 5.00000E+00
 -1     21033 1.62352E+01 4.76324E+01 5.00000E+00
 -1     21034 1.25625E+01 4.64261E+01 5.00000E+00
 -1     21035 8.90128E+00 4.52346E+01 5.00000E+00
 -1     21036 5.26970E+00 4.40269E+01 5.00000E+00
 -1     21037 1.69104E+00 3.29321E+01 5.00000E+00
 -1     21038 1.65164E+00 4.07772E+01 5.00000E+00
 -1     21039 1.64538E+00 3.68609E+01 5.00000E+00
 -1     21040 1.71570E+00 2.89606E+01 5.00000E+00
 -1     21041 1.73737E+00 2.49581E+01 5.00000E+00
 -1     21042 1.70799E+00 2.09649E+01 5.00000E+00
 -1     21043 1.71953E+00 1.69572E+01 5.00000E+00
 -1     21044 1.81583E+00 1.29564E+01 5.00000E+00
 -1     21045 1.78118E+00 8.96380E+00 5.00000E+00
 -1     21046 1.95310E+01 4.69397E+01 5.00000E+00
 -1     21047 5.77081E+00 1.06814E+01 5.00000E+00
 -1     21048 9.16783E+00 1.33290E+01 5.00000E+00
 -1     21049 1.22016E+01 1.59402E+01 5.00000E+00
 -1     21050 1.51287E+01 1.85654E+01 5.00000E+00
 -1     21051 1.80538E+01 2.11938E+01 5.00000E+00
 -1     21052 2.09596E+01 2.38586E+01 5.00000E+00
 -1     21053 2.38487E+01 2.65414E+01 5.00000E+00
 -1     21054 2.67486E+01 2.92096E+01 5.00000E+00
 -1     21055 2.96751E+01 3.18684E+01 5.00000E+00
 -1     21056 3.25947E+01 3.45613E+01 5.00000E+00
 -1     21057 3.55005E+01 3.72651E+01 5.00000E+00
 -1     21058 3.84300E+01 3.99346E+01 5.00000E+00
 -1     21059 4.13719E+01 4.26776E+01 5.00000E+00
 -1     21060 4.43031E+01 4.57162E+01 5.00000E+00
 -1     21061 4.41395E+01 5.24521E+01 5.00000E+00
 -1     21062 1.58641E+01 4.57227E+01 5.00000E+00
 -1     21063 4.03552E+01 5.31929E+01 5.00000E+00
 -1     21064 4.40962E+01 5.02645E+01 5.00000E+00
 -1     21065 2.32241E+01 4.81512E+01 5.00000E+00
 -1     21066 3.63737E+01 5.21411E+01 5.00000E+00
 -1     21067 3.24684E+01 5.11426E+01 5.00000E+00
 -1     21068 3.26819E+00 3.96068E+01 5.00000E+00
 -1     21069 2.87736E+01 4.99341E+01 5.00000E+00
 -1     21070 3.83879E+01 5.25709E+01 5.00000E+00
 -1     21071 2.50754E+01 4.87462E+01 5.00000E+00
 -1     21072 3.06168E+01 5.05387E+01 5.00000E+00
 -1     21073 2.13749E+01 4.75503E+01 5.00000E+00
 -1     21074 2.69254E+01 4.93393E+01 5.00000E+00
 -1     21075 1.76936E+01 4.63263E+01 5.00000E+00
 -1     21076 4.41995E+01 5.45871E+01 5.00000E+00
 -1     21077 1.22126E+01 4.45486E+01 5.00000E+00
 -1     21078 8.58915E+00 4.34091E+01 5.00000E+00
 -1     21079 5.05593E+00 4.21951E+01 5.00000E+00
 -1     21080 3.32841E+00 3.57712E+01 5.00000E+00
 -1     21081 3.33426E+00 4.15086E+01 5.00000E+00
 -1     21082 3.48712E+00 2.39047E+01 5.00000E+00
 -1     21083 3.42162E+00 2.99260E+01 5.00000E+00
 -1     21084 3.37948E+00 1.99230E+01 5.00000E+00
 -1     21085 3.40415E+00 3.18952E+01 5.00000E+00
 -1     21086 3.44794E+00 2.19148E+01 5.00000E+00
 -1     21087 3.48517E+00 1.59337E+01 5.00000E+00
 -1     21088 3.69332E+00 1.19042E+01 5.00000E+00
 -1     21089 3.51582E+00 7.96015E+00 5.00000E+00
 -1     21090 4.40884E+01 4.79971E+01 5.00000E+00
 -1     21091 5.01057E+00 8.91540E+00 5.00000E+00
 -1     21092 3.46843E+00 2.59178E+01 5.00000E+00
 -1     21093 4.22871E+01 5.38740E+01 5.00000E+00
 -1     21094 3.40471E+01 3.59148E+01 5.00000E+00
 -1     21095 7.54992E+00 1.20346E+01 5.00000E+00
 -1     21096 1.07104E+01 1.46260E+01 5.00000E+00
 -1     21097 1.36678E+01 1.72534E+01 5.00000E+00
 -1     21098 1.65919E+01 1.98758E+01 5.00000E+00
 -1     21099 1.95102E+01 2.25224E+01 5.00000E+00
 -1     21100 2.24048E+01 2.51997E+01 5.00000E+00
 -1     21101 2.52946E+01 2.78793E+01 5.00000E+00
 -1     21102 2.82106E+01 3.05364E+01 5.00000E+00
 -1     21103 3.11377E+01 3.32099E+01 5.00000E+00
 -1     21104 3.69617E+01 3.86115E+01 5.00000E+00
 -1     21105 3.99113E+01 4.12574E+01 5.00000E+00
 -1     21106 4.27849E+01 4.42404E+01 5.00000E+00
 -1     21107 3.43693E+01 5.17019E+01 5.00000E+00
 -1     21108 3.37814E+00 3.38494E+01 5.00000E+00
 -1     21109 3.60469E+00 1.39264E+01 5.00000E+00
 -1     21110 6.80970E+00 4.28278E+01 5.00000E+00
 -1     21111 1.40333E+01 4.51267E+01 5.00000E+00
 -1     21112 1.03941E+01 4.39754E+01 5.00000E+00
 -1     21113 3.27555E+00 3.76927E+01 5.00000E+00
 -1     21114 3.44208E+00 2.79263E+01 5.00000E+00
 -1     21115 3.38581E+00 1.79237E+01 5.00000E+00
 -1     21116 3.56074E+00 9.95830E+00 5.00000E+00
 -1     21117 4.96373E+00 3.66187E+01 5.00000E+00
 -1     21118 3.95259E+01 4.31449E+01 5.00000E+00
 -1     21119 5.10938E+00 3.28297E+01 5.00000E+00
 -1     21120 4.20583E+01 4.67476E+01 5.00000E+00
 -1     21121 4.08853E+01 4.46954E+01 5.00000E+00
 -1     21122 1.17815E+01 1.79185E+01 5.00000E+00
 -1     21123 4.97961E+00 1.88730E+01 5.00000E+00
 -1     21124 1.47020E+01 2.05041E+01 5.00000E+00
 -1     21125 1.76344E+01 2.31150E+01 5.00000E+00
 -1     21126 1.18682E+01 4.26898E+01 5.00000E+00
 -1     21127 3.38798E+01 4.97861E+01 5.00000E+00
 -1     21128 2.28258E+01 4.62410E+01 5.00000E+00
 -1     21129 2.48373E+01 2.98249E+01 5.00000E+00
 -1     21130 2.77765E+01 3.24672E+01 5.00000E+00
 -1     21131 3.36147E+01 3.78961E+01 5.00000E+00
 -1     21132 7.21796E+00 1.40826E+01 5.00000E+00
 -1     21133 3.65475E+01 4.06118E+01 5.00000E+00
 -1     21134 3.80307E+01 4.19041E+01 5.00000E+00
 -1     21135 1.03218E+01 1.66074E+01 5.00000E+00
 -1     21136 1.91446E+01 4.50224E+01 5.00000E+00
 -1     21137 5.17762E+00 2.68896E+01 5.00000E+00
 -1     21138 2.33922E+01 2.84880E+01 5.00000E+00
 -1     21139 3.50759E+01 3.92602E+01 5.00000E+00
 -1     21140 3.57901E+01 5.02897E+01 5.00000E+00
 -1     21141 2.46784E+01 4.68231E+01 5.00000E+00
 -1     21142 1.55042E+01 4.38184E+01 5.00000E+00
 -1     21143 1.32351E+01 1.92155E+01 5.00000E+00
 -1     21144 6.58265E+00 4.10352E+01 5.00000E+00
 -1     21145 5.14382E+00 2.89014E+01 5.00000E+00
 -1     21146 4.90593E+00 4.03550E+01 5.00000E+00
 -1     21147 5.31820E+00 1.49585E+01 5.00000E+00
 -1     21148 2.05194E+01 2.57902E+01 5.00000E+00
 -1     21149 1.36791E+01 4.32426E+01 5.00000E+00
 -1     21150 8.80982E+00 1.53218E+01 5.00000E+00
 -1     21151 8.31041E+00 4.16194E+01 5.00000E+00
 -1     21152 5.52653E+00 1.29023E+01 5.00000E+00
 -1     21153 4.21328E+01 4.93630E+01 5.00000E+00
 -1     21154 3.07132E+01 3.51570E+01 5.00000E+00
 -1     21155 4.02008E+01 5.09444E+01 5.00000E+00
 -1     21156 3.21636E+01 3.65247E+01 5.00000E+00
 -1     21157 5.12651E+00 3.08820E+01 5.00000E+00
 -1     21158 5.06967E+00 3.47423E+01 5.00000E+00
 -1     21159 3.80892E+01 5.02709E+01 5.00000E+00
 -1     21160 1.73228E+01 4.44095E+01 5.00000E+00
 -1     21161 2.09782E+01 4.56398E+01 5.00000E+00
 -1     21162 2.19556E+01 2.71398E+01 5.00000E+00
 -1     21163 4.87509E+00 3.84890E+01 5.00000E+00
 -1     21164 4.21912E+01 5.16675E+01 5.00000E+00
 -1     21165 3.20559E+01 4.91720E+01 5.00000E+00
 -1     21166 5.12935E+00 1.69412E+01 5.00000E+00
 -1     21167 1.61733E+01 2.18014E+01 5.00000E+00
 -1     21168 1.90818E+01 2.44468E+01 5.00000E+00
 -1     21169 2.63012E+01 3.11468E+01 5.00000E+00
 -1     21170 1.00689E+01 4.21450E+01 5.00000E+00
 -1     21171 5.23197E+00 2.48500E+01 5.00000E+00
 -1     21172 2.92508E+01 3.38023E+01 5.00000E+00
 -1     21173 2.65311E+01 4.73995E+01 5.00000E+00
 -1     21174 5.10191E+00 2.08467E+01 5.00000E+00
 -1     21175 2.83857E+01 4.79776E+01 5.00000E+00
 -1     21176 5.27260E+00 2.27983E+01 5.00000E+00
 -1     21177 2.58578E+01 3.30789E+01 5.00000E+00
 -1     21178 4.01516E+01 4.86478E+01 5.00000E+00
 -1     21179 3.02348E+01 4.85561E+01 5.00000E+00
 -1     21180 1.57677E+01 2.37122E+01 5.00000E+00
 -1     21181 6.94673E+00 1.60750E+01 5.00000E+00
 -1     21182 1.87768E+01 4.30956E+01 5.00000E+00
 -1     21183 1.13339E+01 1.99121E+01 5.00000E+00
 -1     21184 3.31869E+01 3.99083E+01 5.00000E+00
 -1     21185 2.29133E+01 3.04494E+01 5.00000E+00
 -1     21186 9.91551E+00 1.86078E+01 5.00000E+00
 -1     21187 2.00590E+01 2.77241E+01 5.00000E+00
 -1     21188 1.15193E+01 4.08533E+01 5.00000E+00
 -1     21189 3.61582E+01 4.26759E+01 5.00000E+00
 -1     21190 6.41636E+00 3.92651E+01 5.00000E+00
 -1     21191 2.43695E+01 3.17762E+01 5.00000E+00
 -1     21192 3.46684E+01 4.12903E+01 5.00000E+00
 -1     21193 3.51934E+01 4.84658E+01 5.00000E+00
 -1     21194 2.42727E+01 4.49170E+01 5.00000E+00
 -1     21195 1.51558E+01 4.19279E+01 5.00000E+00
 -1     21196 6.69337E+00 1.79889E+01 5.00000E+00
 -1     21197 1.69714E+01 4.24908E+01 5.00000E+00
 -1     21198 1.33296E+01 4.13850E+01 5.00000E+00
 -1     21199 6.86525E+00 2.78737E+01 5.00000E+00
 -1     21200 1.86384E+01 2.63696E+01 5.00000E+00
 -1     21201 1.42918E+01 2.24301E+01 5.00000E+00
 -1     21202 2.88353E+01 3.57387E+01 5.00000E+00
 -1     21203 8.05682E+00 3.98949E+01 5.00000E+00
 -1     21204 2.73567E+01 3.43889E+01 5.00000E+00
 -1     21205 2.14849E+01 2.90908E+01 5.00000E+00
 -1     21206 2.98418E+01 4.65812E+01 5.00000E+00
 -1     21207 3.17171E+01 4.71288E+01 5.00000E+00
 -1     21208 1.72135E+01 2.50292E+01 5.00000E+00
 -1     21209 3.91660E+01 4.48214E+01 5.00000E+00
 -1     21210 3.98155E+01 4.65119E+01 5.00000E+00
 -1     21211 7.04323E+00 2.37335E+01 5.00000E+00
 -1     21212 6.84098E+00 3.18231E+01 5.00000E+00
 -1     21213 2.24149E+01 4.43504E+01 5.00000E+00
 -1     21214 3.34584E+01 4.78185E+01 5.00000E+00
 -1     21215 2.61226E+01 4.54675E+01 5.00000E+00
 -1     21216 6.78309E+00 3.56459E+01 5.00000E+00
 -1     21217 6.83265E+00 3.37486E+01 5.00000E+00
 -1     21218 9.76050E+00 4.03491E+01 5.00000E+00
 -1     21219 6.44269E+00 1.97243E+01 5.00000E+00
 -1     21220 2.79765E+01 4.60251E+01 5.00000E+00
 -1     21221 3.68329E+01 4.88455E+01 5.00000E+00
 -1     21222 8.47984E+00 1.73005E+01 5.00000E+00
 -1     21223 6.84433E+00 2.98691E+01 5.00000E+00
 -1     21224 3.17277E+01 3.85221E+01 5.00000E+00
 -1     21225 6.92716E+00 2.58415E+01 5.00000E+00
 -1     21226 1.28056E+01 2.11740E+01 5.00000E+00
 -1     21227 3.02864E+01 3.71190E+01 5.00000E+00
 -1     21228 3.76852E+01 4.38770E+01 5.00000E+00
 -1     21229 2.05833E+01 4.37303E+01 5.00000E+00
 -1     21230 6.52713E+00 3.74367E+01 5.00000E+00
 -1     21231 1.48024E+01 4.00684E+01 5.00000E+00
 -1     21232 3.58239E+01 4.49832E+01 5.00000E+00
 -1     21233 1.24096E+01 2.31193E+01 5.00000E+00
 -1     21234 3.83209E+01 4.78772E+01 5.00000E+00
 -1     21235 9.40075E+00 3.85576E+01 5.00000E+00
 -1     21236 1.95716E+01 2.96597E+01 5.00000E+00
 -1     21237 8.58251E+00 2.68650E+01 5.00000E+00
 -1     21238 7.22244E+00 2.14574E+01 5.00000E+00
 -1     21239 2.94165E+01 4.46254E+01 5.00000E+00
 -1     21240 9.39468E+00 2.06607E+01 5.00000E+00
 -1     21241 1.53689E+01 2.56030E+01 5.00000E+00
 -1     21242 1.84462E+01 4.11494E+01 5.00000E+00
 -1     21243 3.27787E+01 4.19238E+01 5.00000E+00
 -1     21244 1.11509E+01 3.90476E+01 5.00000E+00
 -1     21245 1.81568E+01 2.82836E+01 5.00000E+00
 -1     21246 1.66401E+01 4.05793E+01 5.00000E+00
 -1     21247 7.81185E+00 3.83251E+01 5.00000E+00
 -1     21248 3.42889E+01 4.33859E+01 5.00000E+00
 -1     21249 1.08898E+01 2.19091E+01 5.00000E+00
 -1     21250 1.29593E+01 3.95635E+01 5.00000E+00
 -1     21251 1.39141E+01 2.43259E+01 5.00000E+00
 -1     21252 1.67652E+01 2.69375E+01 5.00000E+00
 -1     21253 3.78534E+01 4.58858E+01 5.00000E+00
 -1     21254 8.54873E+00 2.88626E+01 5.00000E+00
 -1     21255 8.93442E+00 2.27313E+01 5.00000E+00
 -1     21256 3.48642E+01 4.67351E+01 5.00000E+00
 -1     21257 2.75296E+01 4.40802E+01 5.00000E+00
 -1     21258 8.56441E+00 3.08151E+01 5.00000E+00
 -1     21259 2.54462E+01 3.49924E+01 5.00000E+00
 -1     21260 2.39038E+01 3.37311E+01 5.00000E+00
 -1     21261 2.24040E+01 3.24391E+01 5.00000E+00
 -1     21262 8.10193E+00 1.92903E+01 5.00000E+00
 -1     21263 3.12713E+01 4.51257E+01 5.00000E+00
 -1     21264 8.57960E+00 3.27249E+01 5.00000E+00
 -1     21265 2.38323E+01 4.30671E+01 5.00000E+00
 -1     21266 8.70452E+00 2.48201E+01 5.00000E+00
 -1     21267 8.58746E+00 3.46554E+01 5.00000E+00
 -1     21268 2.09721E+01 3.10685E+01 5.00000E+00
 -1     21269 3.12747E+01 4.05771E+01 5.00000E+00
 -1     21270 2.84207E+01 3.76850E+01 5.00000E+00
 -1     21271 2.02233E+01 4.17965E+01 5.00000E+00
 -1     21272 8.60925E+00 3.66825E+01 5.00000E+00
 -1     21273 2.69630E+01 3.62988E+01 5.00000E+00
 -1     21274 1.20773E+01 2.50375E+01 5.00000E+00
 -1     21275 3.34029E+01 4.55537E+01 5.00000E+00
 -1     21276 1.81520E+01 3.91801E+01 5.00000E+00
 -1     21277 3.65298E+01 4.71097E+01 5.00000E+00
 -1     21278 1.05331E+01 2.39065E+01 5.00000E+00
 -1     21279 2.03801E+01 3.31190E+01 5.00000E+00
 -1     21280 3.25056E+01 4.37722E+01 5.00000E+00
 -1     21281 2.19974E+01 4.24755E+01 5.00000E+00
 -1     21282 1.03022E+01 2.58966E+01 5.00000E+00
 -1     21283 2.57206E+01 4.35294E+01 5.00000E+00
 -1     21284 1.06898E+01 3.72388E+01 5.00000E+00
 -1     21285 1.90323E+01 3.16055E+01 5.00000E+00
 -1     21286 1.76539E+01 3.01647E+01 5.00000E+00
 -1     21287 2.98421E+01 3.91133E+01 5.00000E+00
 -1     21288 2.51988E+01 4.17379E+01 5.00000E+00
 -1     21289 2.72478E+01 4.18563E+01 5.00000E+00
 -1     21290 1.02230E+01 2.78752E+01 5.00000E+00
 -1     21291 3.07942E+01 4.28417E+01 5.00000E+00
 -1     21292 1.62956E+01 3.86940E+01 5.00000E+00
 -1     21293 2.33477E+01 4.12928E+01 5.00000E+00
 -1     21294 2.88776E+01 4.28872E+01 5.00000E+00
 -1     21295 1.25525E+01 3.77994E+01 5.00000E+00
 -1     21296 1.02678E+01 2.98075E+01 5.00000E+00
 -1     21297 1.44180E+01 3.82767E+01 5.00000E+00
 -1     21298 1.49299E+01 2.74842E+01 5.00000E+00
 -1     21299 2.50951E+01 3.68632E+01 5.00000E+00
 -1     21300 2.35062E+01 3.56703E+01 5.00000E+00
 -1     21301 2.18741E+01 3.44786E+01 5.00000E+00
 -1     21302 1.03354E+01 3.35571E+01 5.00000E+00
 -1     21303 1.35728E+01 2.61514E+01 5.00000E+00
 -1     21304 1.03305E+01 3.16937E+01 5.00000E+00
 -1     21305 2.79589E+01 3.96764E+01 5.00000E+00
 -1     21306 1.99420E+01 3.98118E+01 5.00000E+00
 -1     21307 1.62124E+01 2.88291E+01 5.00000E+00
 -1     21308 1.03856E+01 3.54185E+01 5.00000E+00
 -1     21309 1.95784E+01 3.54239E+01 5.00000E+00
 -1     21310 2.65881E+01 3.81903E+01 5.00000E+00
 -1     21311 2.93491E+01 4.11147E+01 5.00000E+00
 -1     21312 1.18384E+01 2.69176E+01 5.00000E+00
 -1     21313 1.71371E+01 3.19950E+01 5.00000E+00
 -1     21314 1.78335E+01 3.72008E+01 5.00000E+00
 -1     21315 1.83281E+01 3.35704E+01 5.00000E+00
 -1     21316 2.16647E+01 4.05554E+01 5.00000E+00
 -1     21317 2.61520E+01 4.00570E+01 5.00000E+00
 -1     21318 2.48072E+01 3.86444E+01 5.00000E+00
 -1     21319 1.21609E+01 3.60888E+01 5.00000E+00
 -1     21320 1.19082E+01 2.88247E+01 5.00000E+00
 -1     21321 2.15417E+01 3.65357E+01 5.00000E+00
 -1     21322 2.32425E+01 3.75718E+01 5.00000E+00
 -1     21323 1.58595E+01 3.68827E+01 5.00000E+00
 -1     21324 1.20918E+01 3.06507E+01 5.00000E+00
 -1     21325 1.32637E+01 2.78058E+01 5.00000E+00
 -1     21326 2.45355E+01 4.02298E+01 5.00000E+00
 -1     21327 1.97490E+01 3.77425E+01 5.00000E+00
 -1     21328 1.57167E+01 3.06346E+01 5.00000E+00
 -1     21329 1.40198E+01 2.94502E+01 5.00000E+00
 -1     21330 1.21372E+01 3.25318E+01 5.00000E+00
 -1     21331 1.20588E+01 3.43100E+01 5.00000E+00
 -1     21332 1.39831E+01 3.65981E+01 5.00000E+00
 -1     21333 1.72354E+01 3.53444E+01 5.00000E+00
 -1     21334 2.31216E+01 3.94304E+01 5.00000E+00
 -1     21335 1.54141E+01 3.22831E+01 5.00000E+00
 -1     21336 1.38642E+01 3.14839E+01 5.00000E+00
 -1     21337 1.62902E+01 3.37094E+01 5.00000E+00
 -1     21338 2.15119E+01 3.85715E+01 5.00000E+00
 -1     21339 1.40713E+01 3.34851E+01 5.00000E+00
 -1     21340 1.52309E+01 3.51721E+01 5.00000E+00
 -1     21341 1.35197E+01 3.50950E+01 5.00000E+00
 -1     21342 4.80000E+01 4.40000E+01 1.66667E+00
 -1     21343 4.80000E+01 4.40000E+01 3.33333E+00
 -1     21344 0.00000E+00 0.00000E+00 1.66667E+00
 -1     21345 0.00000E+00 0.00000E+00 3.33333E+00
 -1     21346 4.80000E+01 6.00000E+01 1.66667E+00
 -1     21347 4.80000E+01 6.00000E+01 3.33333E+00
 -1     21348 0.00000E+00 4.40000E+01 1.66667E+00
 -1     21349 0.00000E+00 4.40000E+01 3.33333E+00
 -1     21350 4.68428E+01 4.29393E+01 2.17826E+00
 -1     21351 4.69770E+01 4.30622E+01 3.74340E+00
 -1     21352 4.41215E+01 4.04447E+01 3.32588E+00
 -1     21353 4.14488E+01 3.79948E+01 3.68457E+00
 -1     21354 3.87387E+01 3.55105E+01 3.30819E+00
 -1     21355 3.54470E+01 3.24931E+01 3.29837E+00
 -1     21356 3.24902E+01 2.97827E+01 3.34231E+00
 -1     21357 2.98199E+01 2.73349E+01 3.68692E+00
 -1     21358 2.71536E+01 2.48908E+01 3.34370E+00
 -1     21359 2.42438E+01 2.22235E+01 3.33354E+00
 -1     21360 2.13329E+01 1.95552E+01 3.33323E+00
 -1     21361 1.84234E+01 1.68881E+01 3.33325E+00
 -1     21362 1.55141E+01 1.42213E+01 3.33312E+00
 -1     21363 1.25953E+01 1.15457E+01 3.32721E+00
 -1     21364 9.47319E+00 8.68375E+00 3.10521E+00
 -1     21365 6.57609E+00 6.02808E+00 3.52224E+00
 -1     21366 3.62500E+00 3.32292E+00 2.50781E+00
 -1     21367 1.17216E+00 1.07448E+00 2.50072E+00
 -1     21368 2.30223E+00 2.11037E+00 1.63900E+00
 -1     21369 6.80083E+00 6.23410E+00 1.79253E+00
 -1     21370 9.46184E+00 8.67335E+00 1.31591E+00
 -1     21371 1.21235E+01 1.11132E+01 1.65596E+00
 -1     21372 1.50294E+01 1.37770E+01 1.66638E+00
 -1     21373 1.79384E+01 1.64435E+01 1.66647E+00
 -1     21374 2.08476E+01 1.91103E+01 1.66655E+00
 -1     21375 2.37589E+01 2.17790E+01 1.66692E+00
 -1     21376 2.66809E+01 2.44575E+01 1.67302E+00
 -1     21377 2.98202E+01 2.73352E+01 1.89826E+00
 -1     21378 3.29613E+01 3.02145E+01 1.67082E+00
 -1     21379 3.58517E+01 3.28640E+01 1.60482E+00
 -1     21380 3.83479E+01 3.51523E+01 1.61070E+00
 -1     21381 4.14484E+01 3.79944E+01 1.89642E+00
 -1     21382 4.45090E+01 4.07999E+01 1.63051E+00
 -1     21383 4.26929E+01 3.91352E+01 3.39291E+00
 -1     21384 4.01985E+01 3.68486E+01 3.38946E+00
 -1     21385 4.56451E+01 4.18413E+01 3.23733E+00
 -1     21386 3.70946E+01 3.40034E+01 3.10365E+00
 -1     21387 3.39529E+01 3.11235E+01 3.32830E+00
 -1     21388 3.10641E+01 2.84754E+01 3.39561E+00
 -1     21389 2.85775E+01 2.61960E+01 3.39571E+00
 -1     21390 2.57000E+01 2.35583E+01 3.33499E+00
 -1     21391 2.27883E+01 2.08892E+01 3.33332E+00
 -1     21392 1.98783E+01 1.82218E+01 3.33328E+00
 -1     21393 1.69687E+01 1.55546E+01 3.33315E+00
 -1     21394 1.40575E+01 1.28861E+01 3.33220E+00
 -1     21395 1.11060E+01 1.01805E+01 3.29789E+00
 -1     21396 7.88523E+00 7.22813E+00 3.34127E+00
 -1     21397 5.26568E+00 4.82687E+00 2.54568E+00
 -1     21398 2.30194E+00 2.11012E+00 3.36518E+00
 -1     21399 8.22580E+00 7.54031E+00 1.62653E+00
 -1     21400 1.07029E+01 9.81096E+00 1.60325E+00
 -1     21401 1.35747E+01 1.24435E+01 1.66499E+00
 -1     21402 1.64839E+01 1.51103E+01 1.66650E+00
 -1     21403 1.93932E+01 1.77771E+01 1.66656E+00
 -1     21404 2.23030E+01 2.04444E+01 1.66674E+00
 -1     21405 2.52164E+01 2.31151E+01 1.66790E+00
 -1     21406 2.81736E+01 2.58258E+01 1.70196E+00
 -1     21407 3.14676E+01 2.88453E+01 1.70149E+00
 -1     21408 3.44243E+01 3.15556E+01 1.65694E+00
 -1     21409 3.70966E+01 3.40053E+01 1.31543E+00
 -1     21410 3.98078E+01 3.64905E+01 1.69179E+00
 -1     21411 4.30787E+01 3.94888E+01 1.69527E+00
 -1     21412 4.57367E+01 4.19253E+01 1.42166E+00
 -1     21413 4.80000E+01 5.84028E+01 2.22717E+00
 -1     21414 4.80000E+01 5.86831E+01 3.79413E+00
 -1     21415 4.80000E+01 5.51135E+01 3.30044E+00
 -1     21416 4.80000E+01 5.07434E+01 2.62082E+00
 -1     21417 4.80000E+01 4.72347E+01 3.36477E+00
 -1     21418 4.80000E+01 4.54380E+01 3.27457E+00
 -1     21419 4.80000E+01 4.65166E+01 1.67005E+00
 -1     21420 4.80000E+01 4.86164E+01 1.80439E+00
 -1     21421 4.80000E+01 5.43552E+01 1.56720E+00
 -1     21422 4.80000E+01 5.29775E+01 2.97244E+00
 -1     21423 4.80000E+01 4.89666E+01 3.54067E+00
 -1     21424 4.80000E+01 5.70473E+01 3.49239E+00
 -1     21425 4.80000E+01 5.64961E+01 1.75249E+00
 -1     21426 1.44076E+00 4.44803E+01 2.18947E+00
 -1     21427 1.27893E+00 4.44263E+01 3.75072E+00
 -1     21428 4.92207E+00 4.56407E+01 3.32616E+00
 -1     21429 8.33094E+00 4.67770E+01 3.67884E+00
 -1     21430 1.19975E+01 4.79992E+01 3.10690E+00
 -1     21431 1.59813E+01 4.93271E+01 3.32673E+00
 -1     21432 1.96896E+01 5.05632E+01 3.34442E+00
 -1     21433 2.30761E+01 5.16921E+01 3.69139E+00
 -1     21434 2.64606E+01 5.28202E+01 3.34462E+00
 -1     21435 3.01510E+01 5.40503E+01 3.33342E+00
 -1     21436 3.38379E+01 5.52793E+01 3.32848E+00
 -1     21437 3.75343E+01 5.65114E+01 3.19351E+00
 -1     21438 4.17148E+01 5.79049E+01 2.54047E+00
 -1     21439 4.49897E+01 5.89966E+01 3.36683E+00
 -1     21440 4.66366E+01 5.95455E+01 3.29579E+00
 -1     21441 4.56294E+01 5.92098E+01 1.67340E+00
 -1     21442 4.37134E+01 5.85711E+01 1.79624E+00
 -1     21443 3.78397E+01 5.66132E+01 1.46758E+00
 -1     21444 3.44351E+01 5.54784E+01 1.65579E+00
 -1     21445 3.07652E+01 5.42551E+01 1.66639E+00
 -1     21446 2.70592E+01 5.30197E+01 1.67328E+00
 -1     21447 2.30757E+01 5.16919E+01 1.90457E+00
 -1     21448 1.90906E+01 5.03635E+01 1.67300E+00
 -1     21449 1.53814E+01 4.91271E+01 1.65585E+00
 -1     21450 1.19791E+01 4.79930E+01 1.32108E+00
 -1     21451 8.31612E+00 4.67720E+01 1.89337E+00
 -1     21452 4.42940E+00 4.54765E+01 1.63083E+00
 -1     21453 6.74013E+00 4.62467E+01 3.39359E+00
 -1     21454 9.95364E+00 4.73179E+01 3.36017E+00
 -1     21455 2.98029E+00 4.49934E+01 3.23752E+00
 -1     21456 1.40862E+01 4.86954E+01 3.29728E+00
 -1     21457 1.78417E+01 4.99472E+01 3.33361E+00
 -1     21458 2.14969E+01 5.11656E+01 3.39930E+00
 -1     21459 2.46546E+01 5.22182E+01 3.39883E+00
 -1     21460 2.83043E+01 5.34348E+01 3.33502E+00
 -1     21461 3.19964E+01 5.46655E+01 3.33254E+00
 -1     21462 3.56766E+01 5.58922E+01 3.30704E+00
 -1     21463 3.95187E+01 5.71729E+01 2.45404E+00
 -1     21464 4.33882E+01 5.84627E+01 3.52644E+00
 -1     21465 2.89172E+01 5.36391E+01 1.66784E+00
 -1     21466 3.62170E+01 5.60723E+01 1.61771E+00
 -1     21467 3.26072E+01 5.48691E+01 1.66437E+00
 -1     21468 2.51646E+01 5.23882E+01 1.70430E+00
 -1     21469 2.09867E+01 5.09956E+01 1.70431E+00
 -1     21470 1.72299E+01 4.97433E+01 1.66575E+00
 -1     21471 1.35712E+01 4.85237E+01 1.60397E+00
 -1     21472 1.03565E+01 4.74522E+01 1.64048E+00
 -1     21473 6.24805E+00 4.60827E+01 1.69631E+00
 -1     21474 2.86356E+00 4.49545E+01 1.42383E+00
 -1     21475 0.00000E+00 1.59180E+00 2.24513E+00
 -1     21476 0.00000E+00 1.30653E+00 3.81125E+00
 -1     21477 0.00000E+00 4.75410E+00 3.37848E+00
 -1     21478 0.00000E+00 8.74377E+00 3.30197E+00
 -1     21479 0.00000E+00 1.32649E+01 3.30007E+00
 -1     21480 0.00000E+00 1.73272E+01 3.33245E+00
 -1     21481 0.00000E+00 2.13319E+01 3.33324E+00
 -1     21482 0.00000E+00 2.53323E+01 3.33466E+00
 -1     21483 0.00000E+00 2.92759E+01 3.39165E+00
 -1     21484 0.00000E+00 3.27023E+01 3.26846E+00
 -1     21485 0.00000E+00 3.71928E+01 2.53877E+00
 -1     21486 0.00000E+00 4.07374E+01 3.36378E+00
 -1     21487 0.00000E+00 4.25267E+01 3.28896E+00
 -1     21488 0.00000E+00 4.14284E+01 1.66967E+00
 -1     21489 0.00000E+00 3.93548E+01 1.79002E+00
 -1     21490 0.00000E+00 3.29106E+01 1.52662E+00
 -1     21491 0.00000E+00 2.87147E+01 1.69782E+00
 -1     21492 0.00000E+00 2.46677E+01 1.66727E+00
 -1     21493 0.00000E+00 2.06648E+01 1.66659E+00
 -1     21494 0.00000E+00 1.66629E+01 1.66533E+00
 -1     21495 0.00000E+00 1.27081E+01 1.60651E+00
 -1     21496 0.00000E+00 9.29677E+00 1.60705E+00
 -1     21497 0.00000E+00 5.37378E+00 1.68883E+00
 -1     21498 0.00000E+00 6.71117E+00 3.33826E+00
 -1     21499 0.00000E+00 1.10016E+01 3.10669E+00
 -1     21500 0.00000E+00 2.91334E+00 3.51532E+00
 -1     21501 0.00000E+00 1.53154E+01 3.32756E+00
 -1     21502 0.00000E+00 1.93304E+01 3.33315E+00
 -1     21503 0.00000E+00 2.33328E+01 3.33347E+00
 -1     21504 0.00000E+00 2.73257E+01 3.34256E+00
 -1     21505 0.00000E+00 3.09881E+01 3.66021E+00
 -1     21506 0.00000E+00 3.47945E+01 2.47740E+00
 -1     21507 0.00000E+00 3.90044E+01 3.52429E+00
 -1     21508 0.00000E+00 3.09185E+01 1.86846E+00
 -1     21509 0.00000E+00 2.66758E+01 1.67130E+00
 -1     21510 0.00000E+00 2.26660E+01 1.66674E+00
 -1     21511 0.00000E+00 1.86639E+01 1.66653E+00
 -1     21512 0.00000E+00 1.46655E+01 1.65702E+00
 -1     21513 0.00000E+00 1.10013E+01 1.31605E+00
 -1     21514 0.00000E+00 7.34816E+00 1.66157E+00
 -1     21515 0.00000E+00 3.42853E+00 1.78279E+00
 -1     21516 4.56789E+01 4.71817E+01 2.38243E+00
 -1     21517 4.64413E+01 5.69427E+01 2.88818E+00
 -1     21518 1.90913E+01 4.73012E+01 2.62828E+00
 -1     21519 1.23679E+01 1.55870E+01 2.54695E+00
 -1     21520 3.02083E+01 3.02560E+01 2.48691E+00
 -1     21521 3.29963E+01 3.42004E+01 3.06130E+00
 -1     21522 1.51503E+01 4.65511E+01 2.59134E+00
 -1     21523 2.23259E+01 4.89789E+01 2.76577E+00
 -1     21524 2.59206E+01 4.97870E+01 2.62790E+00
 -1     21525 3.01430E+01 5.15975E+01 2.41311E+00
 -1     21526 2.78401E+00 2.36503E+01 2.51249E+00
 -1     21527 3.39749E+00 2.04392E+01 2.38376E+00
 -1     21528 1.90968E+00 7.02899E+00 2.51247E+00
 -1     21529 3.43412E+01 3.55261E+01 2.30370E+00
 -1     21530 1.72902E+01 1.93174E+01 2.53167E+00
 -1     21531 1.97739E+01 2.20620E+01 2.50234E+00
 -1     21532 2.27120E+01 2.46231E+01 2.68044E+00
 -1     21533 2.63187E+01 2.71169E+01 2.69471E+00
 -1     21534 3.13555E+01 3.26614E+01 2.45440E+00
 -1     21535 7.36990E+00 4.38708E+01 2.39738E+00
 -1     21536 3.54338E+00 9.30157E+00 2.37605E+00
 -1     21537 3.98477E+01 3.96579E+01 2.33113E+00
 -1     21538 5.24580E+00 4.08176E+01 2.70857E+00
 -1     21539 3.91834E+01 4.34957E+01 2.72007E+00
 -1     21540 7.32952E+00 1.69597E+01 2.45589E+00
 -1     21541 7.31780E+00 3.86959E+01 2.54374E+00
 -1     21542 3.39685E+01 4.76190E+01 2.65750E+00
 -1     21543 1.13177E+01 3.88441E+01 2.47674E+00
 -1     21544 1.12416E+01 2.30075E+01 2.48340E+00
 -1     21545 1.32662E+01 2.73316E+01 2.51916E+00
 -1     21546 1.17953E+01 3.54135E+01 2.72862E+00
 -1     21547 2.43067E+01 4.02145E+01 2.58538E+00
 -1     21548 2.18478E+01 4.02035E+01 2.52832E+00
 -1     21549 1.64155E+01 3.22458E+01 2.62021E+00
 -1     21550 1.50414E+01 3.60522E+01 2.55026E+00
 -1     21551 4.62495E+01 5.14849E+01 3.10044E+00
 -1     21552 4.67704E+01 5.85818E+01 4.02091E+00
 -1     21553 3.22895E+01 3.11117E+01 3.72755E+00
 -1     21554 1.25301E+01 1.27399E+01 3.74197E+00
 -1     21555 1.42584E+00 9.48394E+00 1.55136E+00
 -1     21556 1.76239E+01 4.82908E+01 1.13162E+00
 -1     21557 3.65562E+01 3.51463E+01 1.57961E+00
 -1     21558 8.54906E+00 4.63911E+01 4.66255E+00
 -1     21559 4.47797E+01 4.24605E+01 3.02504E+00
 -1     21560 1.77116E+01 1.75515E+01 3.92038E+00
 -1     21561 1.64862E+00 1.36445E+01 3.14559E+00
 -1     21562 1.09911E+00 3.63766E+01 1.16156E+00
 -1     21563 9.53119E-01 2.76289E+01 3.05636E+00
 -1     21564 2.72974E+01 2.62629E+01 9.78758E-01
 -1     21565 2.26521E+01 2.26248E+01 1.67692E+00
 -1     21566 4.21392E+01 4.06272E+01 1.25556E+00
 -1     21567 4.62158E+01 5.81916E+01 1.32464E+00
 -1     21568 1.17681E+00 2.89997E+00 8.93365E-01
 -1     21569 9.45030E+00 9.85152E+00 1.35008E+00
 -1     21570 1.46383E+01 1.48433E+01 3.37952E+00
 -1     21571 1.97668E+01 1.99108E+01 1.62366E+00
 -1     21572 4.33484E-01 3.27392E+01 4.05041E-01
 -1     21573 1.04411E+01 4.57712E+01 2.15820E+00
 -1     21574 6.72185E-01 4.34692E+01 7.85768E-01
 -1     21575 1.95593E+01 4.92624E+01 3.50430E+00
 -1     21576 3.62327E+01 5.55371E+01 5.84985E-01
 -1     21577 4.63067E+01 4.46008E+01 3.06183E+00
 -1     21578 1.71300E+01 1.71562E+01 1.65768E+00
 -1     21579 2.09228E+01 2.06219E+01 4.03386E+00
 -1     21580 6.99435E+00 7.74632E+00 9.62335E-01
 -1     21581 2.38378E+01 2.32982E+01 4.06234E+00
 -1     21582 5.41122E+00 4.40791E+01 3.59386E+00
 -1     21583 3.19266E+01 3.05567E+01 1.01459E+00
 -1     21584 2.91020E+01 5.27638E+01 9.05701E-01
 -1     21585 2.52871E+01 2.50074E+01 3.78149E+00
 -1     21586 8.00044E-01 1.46196E+01 6.06646E-01
 -1     21587 4.70432E+01 4.73720E+01 9.46060E-01
 -1     21588 4.98523E+00 6.71738E+00 3.72315E+00
 -1     21589 4.36955E+01 5.78162E+01 3.53325E+00
 -1     21590 1.34479E+01 4.76188E+01 9.58308E-01
 -1     21591 9.32076E-01 4.07143E+01 3.96274E+00
 -1     21592 1.30401E+00 2.47849E+01 1.39921E+00
 -1     21593 1.62245E+00 1.78432E+01 2.42918E+00
 -1     21594 7.67674E-01 1.60635E+00 4.06407E+00
 -1     21595 1.62230E+00 2.00225E+01 9.22498E-01
 -1     21596 1.42907E+01 4.78190E+01 4.06478E+00
 -1     21597 2.49437E+01 5.13435E+01 9.61471E-01
 -1     21598 3.92984E+01 3.71112E+01 5.92601E-01
 -1     21599 1.35921E+01 1.49852E+01 9.42888E-01
 -1     21600 6.62423E+00 4.52545E+01 8.08077E-01
 -1     21601 3.01984E+01 2.87522E+01 3.97913E+00
 -1     21602 3.97415E+01 5.62086E+01 3.06289E+00
 -1     21603 8.48987E+00 9.19168E+00 2.75084E+00
 -1     21604 3.31614E+00 4.46305E+01 5.14748E-01
 -1     21605 2.16850E+01 5.03032E+01 9.99026E-01
 -1     21606 1.38530E+00 2.39474E+01 3.95980E+00
 -1     21607 3.75991E+01 3.56513E+01 3.20201E+00
 -1     21608 4.71740E+01 5.46786E+01 3.67171E+00
 -1     21609 1.28716E+00 9.41837E+00 3.41850E+00
 -1     21610 3.16399E+01 5.31025E+01 3.13955E+00
 -1     21611 3.50875E+01 3.39707E+01 3.85043E+00
 -1     21612 7.10019E-01 2.88507E+01 5.59674E-01
 -1     21613 4.67974E+01 4.57652E+01 1.23324E+00
 -1     21614 4.05364E+01 3.84286E+01 4.18124E+00
 -1     21615 2.83696E+01 5.21198E+01 3.56429E+00
 -1     21616 5.52101E-01 3.15181E+01 4.08616E+00
 -1     21617 1.35729E+01 1.39256E+01 4.14177E+00
 -1     21618 3.36821E+01 3.28261E+01 1.06523E+00
 -1     21619 7.88782E-01 1.45763E+01 3.70305E+00
 -1     21620 1.23768E+00 3.84618E+01 1.36613E+00
 -1     21621 4.27773E+01 4.10451E+01 2.83259E+00
 -1     21622 8.23008E+00 4.52256E+01 1.13457E+00
 -1     21623 6.58275E-01 1.38978E+00 1.07049E+00
 -1     21624 4.65934E+01 4.42364E+01 1.05952E+00
 -1     21625 1.13910E+01 1.15265E+01 3.41822E+00
 -1     21626 1.85379E+01 1.84114E+01 9.74002E-01
 -1     21627 1.12044E+00 3.44155E+01 1.21162E+00
 -1     21628 2.57758E+01 2.52656E+01 9.32438E-01
 -1     21629 1.13650E+01 4.70634E+01 8.20586E-01
 -1     21630 3.83444E+01 3.60808E+01 1.02909E+00
 -1     21631 4.64321E+01 4.90288E+01 3.45623E+00
 -1     21632 2.90421E+01 2.74448E+01 4.02341E+00
 -1     21633 4.59155E+01 4.32910E+01 4.02976E+00
 -1     21634 3.47766E+01 5.47199E+01 6.80753E-01
 -1     21635 1.92807E+01 1.95986E+01 3.71737E+00
 -1     21636 9.41018E-01 3.06227E+01 9.93243E-01
 -1     21637 6.79000E+00 4.54377E+01 4.35513E+00
 -1     21638 5.31216E+00 7.26345E+00 1.31213E+00
 -1     21639 6.48059E+00 7.58214E+00 3.40011E+00
 -1     21640 4.25051E+01 5.71860E+01 3.37274E+00
 -1     21641 3.72483E+01 5.57658E+01 9.11384E-01
 -1     21642 3.12140E+01 5.34966E+01 1.04950E+00
 -1     21643 4.71914E+01 5.69637E+01 1.04081E+00
 -1     21644 2.42724E+00 4.40869E+01 7.54430E-01
 -1     21645 4.95364E+00 4.48473E+01 6.66120E-01
 -1     21646 3.04951E+01 2.90428E+01 9.19093E-01
 -1     21647 1.68496E+01 4.81338E+01 3.67429E+00
 -1     21648 1.87109E+00 1.15951E+01 2.89926E+00
 -1     21649 2.22103E+01 2.23157E+01 3.74772E+00
 -1     21650 3.96934E+01 5.63700E+01 9.89057E-01
 -1     21651 1.00850E+00 2.63474E+01 1.21266E+00
 -1     21652 1.24335E+00 3.26561E+01 2.88113E+00
 -1     21653 1.97379E+01 4.94653E+01 1.06107E+00
 -1     21654 7.15172E-01 1.21066E+01 1.34783E+00
 -1     21655 2.33967E+01 5.06474E+01 1.21309E+00
 -1     21656 1.18656E+00 4.13951E+01 7.77745E-01
 -1     21657 3.57479E+01 5.44151E+01 2.18375E+00
 -1     21658 1.63932E+01 1.62859E+01 3.33526E+00
 -1     21659 1.32435E+01 1.34615E+01 1.64672E+00
 -1     21660 4.64368E+01 5.32544E+01 3.45362E+00
 -1     21661 9.02775E-01 1.68479E+01 7.16781E-01
 -1     21662 1.37976E+00 2.19886E+01 1.26081E+00
 -1     21663 1.27440E+00 3.21278E+00 4.21407E+00
 -1     21664 3.02858E+01 5.31070E+01 4.15859E+00
 -1     21665 2.50456E+00 4.40897E+00 1.63020E+00
 -1     21666 1.02211E+01 4.60684E+01 3.98283E+00
 -1     21667 3.37312E+01 3.25230E+01 3.84204E+00
 -1     21668 3.92121E+01 3.67338E+01 4.14858E+00
 -1     21669 1.53929E+00 1.95021E+01 3.52266E+00
 -1     21670 3.65069E+01 3.51034E+01 3.89756E+00
 -1     21671 1.50118E+00 2.18949E+01 3.94870E+00
 -1     21672 4.57250E+01 4.28695E+01 1.51527E+00
 -1     21673 9.54026E+00 1.05300E+01 2.80080E+00
 -1     21674 2.42395E+01 2.44751E+01 1.13411E+00
 -1     21675 4.66740E+01 5.48417E+01 1.58801E+00
 -1     21676 3.84230E+01 5.58993E+01 1.24735E+00
 -1     21677 1.17557E+01 1.17842E+01 1.54501E+00
 -1     21678 6.74387E-01 1.46384E+00 2.76129E+00
 -1     21679 3.57551E+00 4.39545E+01 2.31546E+00
 -1     21680 4.69011E+01 5.86856E+01 2.69760E+00
 -1     21681 4.45531E+01 4.18548E+01 1.33570E+00
 -1     21682 6.88375E-01 3.91698E+01 4.02581E+00
 -1     21683 1.18276E+01 4.71581E+01 4.34333E+00
 -1     21684 2.13813E+01 2.11048E+01 9.60853E-01
 -1     21685 1.50551E+01 1.57655E+01 1.38172E+00
 -1     21686 8.18015E-01 3.01603E+01 4.13872E+00
 -1     21687 8.21992E+00 8.58003E+00 1.05808E+00
 -1     21688 5.68842E-01 1.05355E+01 8.50841E-01
 -1     21689 4.67014E+01 4.90058E+01 1.16961E+00
 -1     21690 4.20116E+01 3.98804E+01 3.80623E+00
 -1     21691 5.99025E-01 1.38092E+01 1.09339E+00
 -1     21692 7.57320E-01 4.20238E+01 3.89052E+00
 -1     21693 9.68162E-01 4.81845E+00 8.04504E-01
 -1     21694 4.12291E+01 5.67811E+01 1.71102E+00
 -1     21695 2.67368E+01 5.18210E+01 1.02381E+00
 -1     21696 7.18801E-01 1.57501E+01 1.13327E+00
 -1     21697 1.82759E+01 4.89589E+01 4.11310E+00
 -1     21698 1.51841E+00 3.51098E+01 3.05903E+00
 -1     21699 4.50609E+01 5.78149E+01 3.88500E+00
 -1     21700 2.89824E+01 2.77010E+01 1.15377E+00
 -1     21701 4.73449E-01 2.76199E+01 1.26954E+00
 -1     21702 3.54958E+01 5.50276E+01 8.18506E-01
 -1     21703 5.10871E-01 4.21398E+01 4.61108E-01
 -1     21704 2.45867E+00 4.39251E+01 4.11586E+00
 -1     21705 9.57739E-01 3.72101E+01 3.23003E+00
 -1     21706 8.56801E-01 2.92140E+01 3.24089E+00
 -1     21707 1.09010E+01 1.09201E+01 9.44198E-01
 -1     21708 3.66577E+01 5.51985E+01 3.51925E+00
 -1     21709 2.67573E+00 4.83834E+00 3.45922E+00
 -1     21710 5.33001E-01 3.98412E+01 5.91113E-01
 -1     21711 4.30671E+01 5.76743E+01 1.27159E+00
 -1     21712 4.66620E+01 5.02289E+01 1.72358E+00
 -1     21713 3.41936E+01 5.40695E+01 2.60299E+00
 -1     21714 1.57273E+00 1.53838E+01 2.55301E+00
 -1     21715 1.04758E+00 2.56791E+01 3.68730E+00
 -1     21716 3.31871E+01 5.40862E+01 1.17750E+00
 -1     21717 1.38719E+00 1.83837E+01 9.43013E-01
 -1     21718 1.10870E+00 4.34469E+01 4.07966E+00
 -1     21719 3.82393E+01 5.55775E+01 3.39504E+00
 -1     21720 4.72921E+01 5.88743E+01 7.38108E-01
 -1     21721 4.34312E+01 4.08385E+01 1.22740E+00
 -1     21722 4.70677E+01 5.26114E+01 1.35607E+00
 -1     21723 3.26554E+01 5.43369E+01 4.08517E+00
 -1     21724 8.62539E-01 1.67015E+01 3.48548E+00
 -1     21725 9.00397E-01 5.39679E+00 3.83062E+00
 -1     21726 6.68066E+00 8.61011E+00 1.78744E+00
 -1     21727 1.62946E+00 4.29795E+01 2.95807E+00
 -1     21728 4.10337E+01 5.68603E+01 3.72699E+00
 -1     21729 3.37842E+01 5.46679E+01 1.16437E+00
 -1     21730 3.91146E+01 5.51440E+01 1.39542E+00
 -1     21731 4.43993E+01 5.74357E+01 1.93528E+00
 -1     21732 3.79156E+01 4.17843E+01 2.35700E+00
 -1     21733 2.59353E+01 4.18208E+01 2.18616E+00
 -1     21734 3.43267E+01 4.99238E+01 2.65395E+00
 -1     21735 1.49523E+00 4.18748E+01 2.03711E+00
 -1     21736 1.25132E+00 3.94891E+01 2.84794E+00
 -1     21737 1.24029E+00 2.82521E+01 1.89700E+00
 -1     21738 4.80000E+01 4.40000E+01 8.33333E-01
 -1     21739 4.80000E+01 4.40000E+01 2.50000E+00
 -1     21740 4.80000E+01 4.40000E+01 4.16667E+00
 -1     21741 0.00000E+00 0.00000E+00 8.33333E-01
 -1     21742 0.00000E+00 0.00000E+00 2.50000E+00
 -1     21743 0.00000E+00 0.00000E+00 4.16667E+00
 -1     21744 4.72727E+01 4.33333E+01 0.00000E+00
 -1     21745 4.58182E+01 4.20000E+01 0.00000E+00
 -1     21746 4.43636E+01 4.06667E+01 0.00000E+00
 -1     21747 4.29091E+01 3.93333E+01 0.00000E+00
 -1     21748 4.14545E+01 3.80000E+01 0.00000E+00
 -1     21749 4.00000E+01 3.66667E+01 0.00000E+00
 -1     21750 3.85455E+01 3.53333E+01 0.00000E+00
 -1     21751 3.70909E+01 3.40000E+01 0.00000E+00
 -1     21752 3.56364E+01 3.26667E+01 0.00000E+00
 -1     21753 3.41818E+01 3.13333E+01 0.00000E+00
 -1     21754 3.27273E+01 3.00000E+01 0.00000E+00
 -1     21755 3.12727E+01 2.86667E+01 0.00000E+00
 -1     21756 2.98182E+01 2.73333E+01 0.00000E+00
 -1     21757 2.83636E+01 2.60000E+01 0.00000E+00
 -1     21758 2.69091E+01 2.46667E+01 0.00000E+00
 -1     21759 2.54545E+01 2.33333E+01 0.00000E+00
 -1     21760 2.40000E+01 2.20000E+01 0.00000E+00
 -1     21761 2.25455E+01 2.06667E+01 0.00000E+00
 -1     21762 2.10909E+01 1.93333E+01 0.00000E+00
 -1     21763 1.96364E+01 1.80000E+01 0.00000E+00
 -1     21764 1.81818E+01 1.66667E+01 0.00000E+00
 -1     21765 1.67273E+01 1.53333E+01 0.00000E+00
 -1     21766 1.52727E+01 1.40000E+01 0.00000E+00
 -1     21767 1.38182E+01 1.26667E+01 0.00000E+00
 -1     21768 1.23636E+01 1.13333E+01 0.00000E+00
 -1     21769 1.09091E+01 1.00000E+01 0.00000E+00
 -1     21770 9.45455E+00 8.66667E+00 0.00000E+00
 -1     21771 8.00000E+00 7.33333E+00 0.00000E+00
 -1     21772 6.54545E+00 6.00000E+00 0.00000E+00
 -1     21773 5.09091E+00 4.66667E+00 0.00000E+00
 -1     21774 3.63636E+00 3.33333E+00 0.00000E+00
 -1     21775 2.18182E+00 2.00000E+00 0.00000E+00
 -1     21776 7.27273E-01 6.66667E-01 0.00000E+00
 -1     21777 4.72727E+01 4.33333E+01 5.00000E+00
 -1     21778 4.58182E+01 4.20000E+01 5.00000E+00
 -1     21779 4.43636E+01 4.06667E+01 5.00000E+00
 -1     21780 4.29091E+01 3.93333E+01 5.00000E+00
 -1     21781 4.14545E+01 3.80000E+01 5.00000E+00
 -1     21782 4.00000E+01 3.66667E+01 5.00000E+00
 -1     21783 3.85455E+01 3.53333E+01 5.00000E+00
 -1     21784 3.70909E+01 3.40000E+01 5.00000E+00
 -1     21785 3.56364E+01 3.26667E+01 5.00000E+00
 -1     21786 3.41818E+01 3.13333E+01 5.00000E+00
 -1     21787 3.27273E+01 3.00000E+01 5.00000E+00
 -1     21788 3.12727E+01 2.86667E+01 5.00000E+00
 -1     21789 2.98182E+01 2.73333E+01 5.00000E+00
 -1     21790 2.83636E+01 2.60000E+01 5.00000E+00
 -1     21791 2.69091E+01 2.46667E+01 5.00000E+00
 -1     21792 2.54545E+01 2.33333E+01 5.00000E+00
 -1     21793 2.40000E+01 2.20000E+01 5.00000E+00
 -1     21794 2.25455E+01 2.06667E+01 5.00000E+00
 -1     21795 2.10909E+01 1.93333E+01 5.00000E+00
 -1     21796 1.96364E+01 1.80000E+01 5.00000E+00
 -1     21797 1.81818E+01 1.66667E+01 5.00000E+00
 -1     21798 1.67273E+01 1.53333E+01 5.00000E+00
 -1     21799 1.52727E+01 1.40000E+01 5.00000E+00
 -1     21800 1.38182E+01 1.26667E+01 5.00000E+00
 -1     21801 1.23636E+01 1.13333E+01 5.00000E+00
 -1     21802 1.09091E+01 1.00000E+01 5.00000E+00
 -1     21803 9.45455E+00 8.66667E+00 5.00000E+00
 -1     21804 8.00000E+00 7.33333E+00 5.00000E+00
 -1     21805 6.54545E+00 6.00000E+00 5.00000E+00
 -1     21806 5.09091E+00 4.66667E+00 5.00000E+00
 -1     21807 3.63636E+00 3.33333E+00 5.00000E+00
 -1     21808 2.18182E+00 2.00000E+00 5.00000E+00
 -1     21809 7.27273E-01 6.66667E-01 5.00000E+00
 -1     21810 4.80000E+01 6.00000E+01 8.33333E-01
 -1     21811 4.80000E+01 6.00000E+01 2.50000E+00
 -1     21812 4.80000E+01 6.00000E+01 4.16667E+00
 -1     21813 4.80000E+01 5.90000E+01 0.00000E+00
 -1     21814 4.80000E+01 5.70000E+01 0.00000E+00
 -1     21815 4.80000E+01 5.50000E+01 0.00000E+00
 -1     21816 4.80000E+01 5.30000E+01 0.00000E+00
 -1     21817 4.80000E+01 5.10000E+01 0.00000E+00
 -1     21818 4.80000E+01 4.90000E+01 0.00000E+00
 -1     21819 4.80000E+01 4.70000E+01 0.00000E+00
 -1     21820 4.80000E+01 4.50000E+01 0.00000E+00
 -1     21821 4.80000E+01 5.90000E+01 5.00000E+00
 -1     21822 4.80000E+01 5.70000E+01 5.00000E+00
 -1     21823 4.80000E+01 5.50000E+01 5.00000E+00
 -1     21824 4.80000E+01 5.30000E+01 5.00000E+00
 -1     21825 4.80000E+01 5.10000E+01 5.00000E+00
 -1     21826 4.80000E+01 4.90000E+01 5.00000E+00
 -1     21827 4.80000E+01 4.70000E+01 5.00000E+00
 -1     21828 4.80000E+01 4.50000E+01 5.00000E+00
 -1     21829 0.00000E+00 4.40000E+01 8.33333E-01
 -1     21830 0.00000E+00 4.40000E+01 2.50000E+00
 -1     21831 0.00000E+00 4.40000E+01 4.16667E+00
 -1     21832 9.23077E-01 4.43077E+01 0.00000E+00
 -1     21833 2.76923E+00 4.49231E+01 0.00000E+00
 -1     21834 4.61538E+00 4.55385E+01 0.00000E+00
 -1     21835 6.46154E+00 4.61538E+01 0.00000E+00
 -1     21836 8.30769E+00 4.67692E+01 0.00000E+00
 -1     21837 1.01538E+01 4.73846E+01 0.00000E+00
 -1     21838 1.20000E+01 4.80000E+01 0.00000E+00
 -1     21839 1.38462E+01 4.86154E+01 0.00000E+00
 -1     21840 1.56923E+01 4.92308E+01 0.00000E+00
 -1     21841 1.75385E+01 4.98462E+01 0.00000E+00
 -1     21842 1.93846E+01 5.04615E+01 0.00000E+00
 -1     21843 2.12308E+01 5.10769E+01 0.00000E+00
 -1     21844 2.30769E+01 5.16923E+01 0.00000E+00
 -1     21845 2.49231E+01 5.23077E+01 0.00000E+00
 -1     21846 2.67692E+01 5.29231E+01 0.00000E+00
 -1     21847 2.86154E+01 5.35385E+01 0.00000E+00
 -1     21848 3.04615E+01 5.41538E+01 0.00000E+00
 -1     21849 3.23077E+01 5.47692E+01 0.00000E+00
 -1     21850 3.41538E+01 5.53846E+01 0.00000E+00
 -1     21851 3.60000E+01 5.60000E+01 0.00000E+00
 -1     21852 3.78462E+01 5.66154E+01 0.00000E+00
 -1     21853 3.96923E+01 5.72308E+01 0.00000E+00
 -1     21854 4.15385E+01 5.78462E+01 0.00000E+00
 -1     21855 4.33846E+01 5.84615E+01 0.00000E+00
 -1     21856 4.52308E+01 5.90769E+01 0.00000E+00
 -1     21857 4.70769E+01 5.96923E+01 0.00000E+00
 -1     21858 9.23077E-01 4.43077E+01 5.00000E+00
 -1     21859 2.76923E+00 4.49231E+01 5.00000E+00
 -1     21860 4.61538E+00 4.55385E+01 5.00000E+00
 -1     21861 6.46154E+00 4.61538E+01 5.00000E+00
 -1     21862 8.30769E+00 4.67692E+01 5.00000E+00
 -1     21863 1.01538E+01 4.73846E+01 5.00000E+00
 -1     21864 1.20000E+01 4.80000E+01 5.00000E+00
 -1     21865 1.38462E+01 4.86154E+01 5.00000E+00
 -1     21866 1.56923E+01 4.92308E+01 5.00000E+00
 -1     21867 1.75385E+01 4.98462E+01 5.00000E+00
 -1     21868 1.93846E+01 5.04615E+01 5.00000E+00
 -1     21869 2.12308E+01 5.10769E+01 5.00000E+00
 -1     21870 2.30769E+01 5.16923E+01 5.00000E+00
 -1     21871 2.49231E+01 5.23077E+01 5.00000E+00
 -1     21872 2.67692E+01 5.29231E+01 5.00000E+00
 -1     21873 2.86154E+01 5.35385E+01 5.00000E+00
 -1     21874 3.04615E+01 5.41538E+01 5.00000E+00
 -1     21875 3.23077E+01 5.47692E+01 5.00000E+00
 -1     21876 3.41538E+01 5.53846E+01 5.00000E+00
 -1     21877 3.60000E+01 5.60000E+01 5.00000E+00
 -1     21878 3.78462E+01 5.66154E+01 5.00000E+00
 -1     21879 3.96923E+01 5.72308E+01 5.00000E+00
 -1     21880 4.15385E+01 5.78462E+01 5.00000E+00
 -1     21881 4.33846E+01 5.84615E+01 5.00000E+00
 -1     21882 4.52308E+01 5.90769E+01 5.00000E+00
 -1     21883 4.70769E+01 5.96923E+01 5.00000E+00
 -1     21884 0.00000E+00 1.00000E+00 0.00000E+00
 -1     21885 0.00000E+00 3.00000E+00 0.00000E+00
 -1     21886 0.00000E+00 5.00000E+00 0.00000E+00
 -1     21887 0.00000E+00 7.00000E+00 0.00000E+00
 -1     21888 0.00000E+00 9.00000E+00 0.00000E+00
 -1     21889 0.00000E+00 1.10000E+01 0.00000E+00
 -1     21890 0.00000E+00 1.30000E+01 0.00000E+00
 -1     21891 0.00000E+00 1.50000E+01 0.00000E+00
 -1     21892 0.00000E+00 1.70000E+01 0.00000E+00
 -1     21893 0.00000E+00 1.90000E+01 0.00000E+00
 -1     21894 0.00000E+00 2.10000E+01 0.00000E+00
 -1     21895 0.00000E+00 2.30000E+01 0.00000E+00
 -1     21896 0.00000E+00 2.50000E+01 0.00000E+00
 -1     21897 0.00000E+00 2.70000E+01 0.00000E+00
 -1     21898 0.00000E+00 2.90000E+01 0.00000E+00
 -1     21899 0.00000E+00 3.10000E+01 0.00000E+00
 -1     21900 0.00000E+00 3.30000E+01 0.00000E+00
 -1     21901 0.00000E+00 3.50000E+01 0.00000E+00
 -1     21902 0.00000E+00 3.70000E+01 0.00000E+00
 -1     21903 0.00000E+00 3.90000E+01 0.00000E+00
 -1     21904 0.00000E+00 4.10000E+01 0.00000E+00
 -1     21905 0.00000E+00 4.30000E+01 0.00000E+00
 -1     21906 0.00000E+00 1.00000E+00 5.00000E+00
 -1     21907 0.00000E+00 3.00000E+00 5.00000E+00
 -1     21908 0.00000E+00 5.00000E+00 5.00000E+00
 -1     21909 0.00000E+00 7.00000E+00 5.00000E+00
 -1     21910 0.00000E+00 9.00000E+00 5.00000E+00
 -1     21911 0.00000E+00 1.10000E+01 5.00000E+00
 -1     21912 0.00000E+00 1.30000E+01 5.00000E+00
 -1     21913 0.00000E+00 1.50000E+01 5.00000E+00
 -1     21914 0.00000E+00 1.70000E+01 5.00000E+00
 -1     21915 0.00000E+00 1.90000E+01 5.00000E+00
 -1     21916 0.00000E+00 2.10000E+01 5.00000E+00
 -1     21917 0.00000E+00 2.30000E+01 5.00000E+00
 -1     21918 0.00000E+00 2.50000E+01 5.00000E+00
 -1     21919 0.00000E+00 2.70000E+01 5.00000E+00
 -1     21920 0.00000E+00 2.90000E+01 5.00000E+00
 -1     21921 0.00000E+00 3.10000E+01 5.00000E+00
 -1     21922 0.00000E+00 3.30000E+01 5.00000E+00
 -1     21923 0.00000E+00 3.50000E+01 5.00000E+00
 -1     21924 0.00000E+00 3.70000E+01 5.00000E+00
 -1     21925 0.00000E+00 3.90000E+01 5.00000E+00
 -1     21926 0.00000E+00 4.10000E+01 5.00000E+00
 -1     21927 0.00000E+00 4.30000E+01 5.00000E+00
 -1     21928 4.72727E+01 4.33333E+01 8.33333E-01
 -1     21929 4.74214E+01 4.34696E+01 2.75580E+00
 -1     21930 4.74214E+01 4.34696E+01 1.92246E+00
 -1     21931 4.74885E+01 4.35311E+01 4.37170E+00
 -1     21932 4.74885E+01 4.35311E+01 3.53837E+00
 -1     21933 4.69099E+01 4.30007E+01 2.96083E+00
 -1     21934 4.67612E+01 4.28644E+01 4.37170E+00
 -1     21935 4.38789E+01 4.02223E+01 4.16294E+00
 -1     21936 4.46062E+01 4.08890E+01 4.16294E+00
 -1     21937 4.10880E+01 3.76640E+01 4.34228E+00
 -1     21938 4.18153E+01 3.83307E+01 4.34228E+00
 -1     21939 3.82784E+01 3.50886E+01 4.15410E+00
 -1     21940 3.90057E+01 3.57552E+01 4.15410E+00
 -1     21941 3.51781E+01 3.22466E+01 4.14918E+00
 -1     21942 3.59053E+01 3.29132E+01 4.14918E+00
 -1     21943 3.22451E+01 2.95580E+01 4.17116E+00
 -1     21944 3.29724E+01 3.02247E+01 4.17116E+00
 -1     21945 2.94554E+01 2.70008E+01 4.34346E+00
 -1     21946 3.01827E+01 2.76674E+01 4.34346E+00
 -1     21947 2.66677E+01 2.44454E+01 4.17185E+00
 -1     21948 2.73950E+01 2.51121E+01 4.17185E+00
 -1     21949 2.37583E+01 2.17784E+01 4.16677E+00
 -1     21950 2.44855E+01 2.24451E+01 4.16677E+00
 -1     21951 2.08483E+01 1.91109E+01 4.16662E+00
 -1     21952 2.15756E+01 1.97776E+01 4.16662E+00
 -1     21953 1.79390E+01 1.64441E+01 4.16662E+00
 -1     21954 1.86662E+01 1.71107E+01 4.16662E+00
 -1     21955 1.50298E+01 1.37773E+01 4.16656E+00
 -1     21956 1.57571E+01 1.44440E+01 4.16656E+00
 -1     21957 1.21158E+01 1.11062E+01 4.16361E+00
 -1     21958 1.28431E+01 1.17729E+01 4.16361E+00
 -1     21959 9.10023E+00 8.34188E+00 4.05260E+00
 -1     21960 9.82750E+00 9.00854E+00 4.05260E+00
 -1     21961 6.19714E+00 5.68071E+00 4.26112E+00
 -1     21962 6.92441E+00 6.34738E+00 4.26112E+00
 -1     21963 3.26705E+00 2.99479E+00 3.75390E+00
 -1     21964 3.99432E+00 3.66146E+00 3.75390E+00
 -1     21965 7.27273E-01 6.66667E-01 4.16667E+00
 -1     21966 5.86082E-01 5.37242E-01 2.08369E+00
 -1     21967 5.86082E-01 5.37242E-01 2.91703E+00
 -1     21968 7.27273E-01 6.66667E-01 8.33333E-01
 -1     21969 2.60566E+00 2.38852E+00 8.19498E-01
 -1     21970 1.87839E+00 1.72185E+00 8.19498E-01
 -1     21971 3.99432E+00 3.66146E+00 1.25390E+00
 -1     21972 3.26705E+00 2.99479E+00 1.25390E+00
 -1     21973 7.03678E+00 6.45038E+00 8.96265E-01
 -1     21974 6.30951E+00 5.78372E+00 8.96265E-01
 -1     21975 9.82183E+00 9.00334E+00 6.57953E-01
 -1     21976 9.09455E+00 8.33667E+00 6.57953E-01
 -1     21977 1.26072E+01 1.15566E+01 8.27979E-01
 -1     21978 1.18799E+01 1.08899E+01 8.27979E-01
 -1     21979 1.55147E+01 1.42218E+01 8.33191E-01
 -1     21980 1.47874E+01 1.35552E+01 8.33191E-01
 -1     21981 1.84237E+01 1.68884E+01 8.33233E-01
 -1     21982 1.76965E+01 1.62218E+01 8.33233E-01
 -1     21983 2.13329E+01 1.95552E+01 8.33275E-01
 -1     21984 2.06056E+01 1.88885E+01 8.33275E-01
 -1     21985 2.42431E+01 2.22228E+01 8.33461E-01
 -1     21986 2.35158E+01 2.15561E+01 8.33461E-01
 -1     21987 2.71586E+01 2.48954E+01 8.36509E-01
 -1     21988 2.64313E+01 2.42287E+01 8.36509E-01
 -1     21989 3.01828E+01 2.76676E+01 9.49129E-01
 -1     21990 2.94555E+01 2.70009E+01 9.49129E-01
 -1     21991 3.32079E+01 3.04406E+01 8.35412E-01
 -1     21992 3.24806E+01 2.97739E+01 8.35412E-01
 -1     21993 3.61077E+01 3.30987E+01 8.02408E-01
 -1     21994 3.53804E+01 3.24320E+01 8.02408E-01
 -1     21995 3.88103E+01 3.55761E+01 8.05350E-01
 -1     21996 3.80830E+01 3.49095E+01 8.05350E-01
 -1     21997 4.18151E+01 3.83305E+01 9.48208E-01
 -1     21998 4.10879E+01 3.76639E+01 9.48208E-01
 -1     21999 4.47999E+01 4.10666E+01 8.15255E-01
 -1     22000 4.40727E+01 4.03999E+01 8.15255E-01
 -1     22001 4.66941E+01 4.28030E+01 1.08913E+00
 -1     22002 1.31335E+00 1.20391E+00 3.75036E+00
 -1     22003 1.31335E+00 1.20391E+00 1.25036E+00
 -1     22004 4.31646E+01 3.95676E+01 4.19646E+00
 -1     22005 4.34072E+01 3.97899E+01 3.35940E+00
 -1     22006 4.24374E+01 3.89009E+01 4.19646E+00
 -1     22007 4.04629E+01 3.70910E+01 4.19473E+00
 -1     22008 4.08236E+01 3.74217E+01 3.53701E+00
 -1     22009 3.97356E+01 3.64243E+01 4.19473E+00
 -1     22010 4.53680E+01 4.15873E+01 4.11867E+00
 -1     22011 4.60953E+01 4.22540E+01 4.11867E+00
 -1     22012 4.20709E+01 3.85650E+01 3.53874E+00
 -1     22013 3.94686E+01 3.61795E+01 3.34882E+00
 -1     22014 4.63110E+01 4.24518E+01 3.49037E+00
 -1     22015 3.67291E+01 3.36684E+01 4.05183E+00
 -1     22016 3.74564E+01 3.43350E+01 4.05183E+00
 -1     22017 3.37037E+01 3.08951E+01 4.16415E+00
 -1     22018 3.44310E+01 3.15618E+01 4.16415E+00
 -1     22019 3.08048E+01 2.82377E+01 4.19780E+00
 -1     22020 3.15320E+01 2.89044E+01 4.19780E+00
 -1     22021 2.81069E+01 2.57647E+01 4.19786E+00
 -1     22022 2.88342E+01 2.64313E+01 4.19786E+00
 -1     22023 2.52136E+01 2.31125E+01 4.16750E+00
 -1     22024 2.59409E+01 2.37792E+01 4.16750E+00
 -1     22025 2.23032E+01 2.04446E+01 4.16666E+00
 -1     22026 2.30305E+01 2.11113E+01 4.16666E+00
 -1     22027 1.93937E+01 1.77775E+01 4.16664E+00
 -1     22028 2.01210E+01 1.84442E+01 4.16664E+00
 -1     22029 1.64843E+01 1.51107E+01 4.16657E+00
 -1     22030 1.72116E+01 1.57773E+01 4.16657E+00
 -1     22031 1.35742E+01 1.24430E+01 4.16610E+00
 -1     22032 1.43015E+01 1.31097E+01 4.16610E+00
 -1     22033 1.06439E+01 9.75690E+00 4.14895E+00
 -1     22034 1.13712E+01 1.04236E+01 4.14895E+00
 -1     22035 7.57898E+00 6.94740E+00 4.17064E+00
 -1     22036 8.30625E+00 7.61406E+00 4.17064E+00
 -1     22037 4.44534E+00 4.07490E+00 2.52674E+00
 -1     22038 4.81466E+00 4.41344E+00 3.77284E+00
 -1     22039 5.54193E+00 5.08010E+00 3.77284E+00
 -1     22040 4.81466E+00 4.41344E+00 1.27284E+00
 -1     22041 2.78655E+01 2.55434E+01 3.36971E+00
 -1     22042 1.87824E+00 1.72172E+00 4.18259E+00
 -1     22043 2.60552E+00 2.38839E+00 4.18259E+00
 -1     22044 1.73720E+00 1.59243E+00 2.06986E+00
 -1     22045 6.03326E+00 5.53049E+00 2.16910E+00
 -1     22046 5.54193E+00 5.08010E+00 1.27284E+00
 -1     22047 8.47653E+00 7.77016E+00 8.13267E-01
 -1     22048 7.74926E+00 7.10349E+00 8.13267E-01
 -1     22049 1.11696E+01 1.02388E+01 8.01623E-01
 -1     22050 1.04423E+01 9.57215E+00 8.01623E-01
 -1     22051 1.40601E+01 1.28884E+01 8.32493E-01
 -1     22052 1.33328E+01 1.22217E+01 8.32493E-01
 -1     22053 1.69692E+01 1.55551E+01 8.33248E-01
 -1     22054 1.62420E+01 1.48885E+01 8.33248E-01
 -1     22055 1.98784E+01 1.82219E+01 8.33278E-01
 -1     22056 1.91511E+01 1.75552E+01 8.33278E-01
 -1     22057 2.27879E+01 2.08889E+01 8.33369E-01
 -1     22058 2.20606E+01 2.02222E+01 8.33369E-01
 -1     22059 2.56991E+01 2.35575E+01 8.33949E-01
 -1     22060 2.49718E+01 2.28909E+01 8.33949E-01
 -1     22061 2.86323E+01 2.62462E+01 8.50981E-01
 -1     22062 2.79050E+01 2.55796E+01 8.50981E-01
 -1     22063 3.17338E+01 2.90893E+01 8.50743E-01
 -1     22064 3.10065E+01 2.84226E+01 8.50743E-01
 -1     22065 3.46667E+01 3.17778E+01 8.28471E-01
 -1     22066 3.39394E+01 3.11111E+01 8.28471E-01
 -1     22067 3.74574E+01 3.43360E+01 6.57714E-01
 -1     22068 3.67301E+01 3.36693E+01 6.57714E-01
 -1     22069 4.02676E+01 3.69119E+01 8.45897E-01
 -1     22070 3.95403E+01 3.62453E+01 8.45897E-01
 -1     22071 4.33576E+01 3.97444E+01 8.47635E-01
 -1     22072 4.26303E+01 3.90778E+01 8.47635E-01
 -1     22073 4.61411E+01 4.22960E+01 7.10832E-01
 -1     22074 4.54138E+01 4.16293E+01 7.10832E-01
 -1     22075 2.49719E+01 2.28909E+01 3.33427E+00
 -1     22076 3.79166E+01 3.47569E+01 3.20592E+00
 -1     22077 3.47000E+01 3.18083E+01 3.31333E+00
 -1     22078 3.17771E+01 2.91290E+01 3.36896E+00
 -1     22079 2.91987E+01 2.67655E+01 3.54132E+00
 -1     22080 2.64268E+01 2.42245E+01 3.33935E+00
 -1     22081 2.35160E+01 2.15564E+01 3.33343E+00
 -1     22082 2.06056E+01 1.88885E+01 3.33326E+00
 -1     22083 1.76960E+01 1.62214E+01 3.33320E+00
 -1     22084 1.47858E+01 1.35537E+01 3.33266E+00
 -1     22085 1.18506E+01 1.08631E+01 3.31255E+00
 -1     22086 8.67921E+00 7.95594E+00 3.22324E+00
 -1     22087 2.96347E+00 2.71652E+00 2.93650E+00
 -1     22088 7.51332E+00 6.88721E+00 1.70953E+00
 -1     22089 1.00824E+01 9.24216E+00 1.45958E+00
 -1     22090 1.28491E+01 1.17783E+01 1.66047E+00
 -1     22091 1.57567E+01 1.44436E+01 1.66644E+00
 -1     22092 1.86658E+01 1.71103E+01 1.66651E+00
 -1     22093 2.15753E+01 1.97774E+01 1.66664E+00
 -1     22094 2.44876E+01 2.24470E+01 1.66741E+00
 -1     22095 2.74272E+01 2.51416E+01 1.68749E+00
 -1     22096 3.06439E+01 2.80902E+01 1.79987E+00
 -1     22097 3.36928E+01 3.08851E+01 1.66388E+00
 -1     22098 3.64742E+01 3.34346E+01 1.46012E+00
 -1     22099 3.90779E+01 3.58214E+01 1.65125E+00
 -1     22100 4.22636E+01 3.87416E+01 1.79584E+00
 -1     22101 4.51228E+01 4.13626E+01 1.52609E+00
 -1     22102 2.20606E+01 2.02222E+01 3.33328E+00
 -1     22103 1.91508E+01 1.75549E+01 3.33326E+00
 -1     22104 1.62414E+01 1.48880E+01 3.33313E+00
 -1     22105 1.33264E+01 1.22159E+01 3.32971E+00
 -1     22106 1.02896E+01 9.43211E+00 3.20155E+00
 -1     22107 7.23066E+00 6.62811E+00 3.43175E+00
 -1     22108 2.30309E+01 2.11117E+01 1.66683E+00
 -1     22109 2.59486E+01 2.37863E+01 1.67046E+00
 -1     22110 2.89969E+01 2.65805E+01 1.80011E+00
 -1     22111 3.22144E+01 2.95299E+01 1.68616E+00
 -1     22112 3.51380E+01 3.22098E+01 1.63088E+00
 -1     22113 3.77223E+01 3.45788E+01 1.46306E+00
 -1     22114 4.06281E+01 3.72425E+01 1.79410E+00
 -1     22115 4.37939E+01 4.01444E+01 1.66289E+00
 -1     22116 4.62898E+01 4.24323E+01 1.79996E+00
 -1     22117 4.48833E+01 4.11430E+01 3.28161E+00
 -1     22118 3.04420E+01 2.79051E+01 3.54126E+00
 -1     22119 3.32216E+01 3.04531E+01 3.33531E+00
 -1     22120 3.62708E+01 3.32482E+01 3.20101E+00
 -1     22121 2.01204E+01 1.84437E+01 1.66655E+00
 -1     22122 1.72112E+01 1.57769E+01 1.66648E+00
 -1     22123 8.84382E+00 8.10683E+00 1.47122E+00
 -1     22124 1.43021E+01 1.31102E+01 1.66568E+00
 -1     22125 1.14132E+01 1.04621E+01 1.62960E+00
 -1     22126 4.62439E+01 4.23903E+01 2.70780E+00
 -1     22127 2.98200E+01 2.73350E+01 2.79259E+00
 -1     22128 3.04421E+01 2.79053E+01 2.64693E+00
 -1     22129 4.14486E+01 3.79946E+01 2.79049E+00
 -1     22130 4.20707E+01 3.85648E+01 2.64466E+00
 -1     22131 4.08235E+01 3.74215E+01 2.64294E+00
 -1     22132 2.03629E+01 1.86660E+01 2.49991E+00
 -1     22133 1.96357E+01 1.79994E+01 2.49992E+00
 -1     22134 3.12658E+01 2.86603E+01 2.54855E+00
 -1     22135 3.19789E+01 2.93140E+01 2.52190E+00
 -1     22136 3.56493E+01 3.26786E+01 2.45159E+00
 -1     22137 3.64731E+01 3.34337E+01 2.35423E+00
 -1     22138 2.91988E+01 2.67656E+01 2.64699E+00
 -1     22139 3.27257E+01 2.99986E+01 2.50657E+00
 -1     22140 3.34571E+01 3.06690E+01 2.49956E+00
 -1     22141 2.61904E+01 2.40079E+01 2.50400E+00
 -1     22142 2.54582E+01 2.33367E+01 2.50145E+00
 -1     22143 8.05551E+00 7.38422E+00 2.48390E+00
 -1     22144 7.34303E+00 6.73111E+00 2.56690E+00
 -1     22145 2.32736E+01 2.13341E+01 2.50012E+00
 -1     22146 2.40013E+01 2.20012E+01 2.50023E+00
 -1     22147 3.77213E+01 3.45778E+01 2.35718E+00
 -1     22148 3.85433E+01 3.53314E+01 2.45945E+00
 -1     22149 2.10903E+01 1.93327E+01 2.49989E+00
 -1     22150 1.89083E+01 1.73326E+01 2.49990E+00
 -1     22151 1.74535E+01 1.59991E+01 2.49981E+00
 -1     22152 1.81809E+01 1.66658E+01 2.49986E+00
 -1     22153 1.59990E+01 1.46658E+01 2.49981E+00
 -1     22154 1.52718E+01 1.39991E+01 2.49975E+00
 -1     22155 1.45435E+01 1.33315E+01 2.49929E+00
 -1     22156 1.30850E+01 1.19946E+01 2.49610E+00
 -1     22157 1.38161E+01 1.26648E+01 2.49860E+00
 -1     22158 1.16147E+01 1.06468E+01 2.47692E+00
 -1     22159 1.09044E+01 9.99572E+00 2.45057E+00
 -1     22160 1.00880E+01 9.24736E+00 2.35423E+00
 -1     22161 8.84949E+00 8.11203E+00 2.36587E+00
 -1     22162 6.68846E+00 6.13109E+00 2.65738E+00
 -1     22163 2.25456E+01 2.06668E+01 2.50003E+00
 -1     22164 5.92089E+00 5.42748E+00 3.03396E+00
 -1     22165 2.47301E+01 2.26693E+01 2.50072E+00
 -1     22166 1.73705E+00 1.59230E+00 2.93295E+00
 -1     22167 2.30209E+00 2.11024E+00 2.50209E+00
 -1     22168 4.28858E+01 3.93120E+01 2.54409E+00
 -1     22169 4.36001E+01 3.99668E+01 2.51058E+00
 -1     22170 3.92733E+01 3.60005E+01 2.49999E+00
 -1     22171 2.96362E+00 2.71665E+00 2.07340E+00
 -1     22172 3.41886E+01 3.13395E+01 2.49262E+00
 -1     22173 3.49356E+01 3.20243E+01 2.47765E+00
 -1     22174 4.56909E+01 4.18833E+01 2.32950E+00
 -1     22175 2.18180E+01 1.99998E+01 2.49999E+00
 -1     22176 2.69172E+01 2.46741E+01 2.50836E+00
 -1     22177 2.76636E+01 2.53583E+01 2.52283E+00
 -1     22178 2.83755E+01 2.60109E+01 2.54884E+00
 -1     22179 4.43152E+01 4.06223E+01 2.47820E+00
 -1     22180 4.50770E+01 4.13206E+01 2.43392E+00
 -1     22181 4.00032E+01 3.66696E+01 2.54062E+00
 -1     22182 9.46751E+00 8.67855E+00 2.21056E+00
 -1     22183 3.70956E+01 3.40043E+01 2.20954E+00
 -1     22184 1.67263E+01 1.53325E+01 2.49982E+00
 -1     22185 1.23594E+01 1.13295E+01 2.49159E+00
 -1     22186 4.80000E+01 5.90000E+01 8.33333E-01
 -1     22187 4.80000E+01 5.92014E+01 2.78025E+00
 -1     22188 4.80000E+01 5.92014E+01 1.94692E+00
 -1     22189 4.80000E+01 5.93415E+01 4.39706E+00
 -1     22190 4.80000E+01 5.93415E+01 3.56373E+00
 -1     22191 4.80000E+01 5.85429E+01 3.01065E+00
 -1     22192 4.80000E+01 5.83415E+01 4.39706E+00
 -1     22193 4.80000E+01 5.45568E+01 4.15022E+00
 -1     22194 4.80000E+01 5.55568E+01 4.15022E+00
 -1     22195 4.80000E+01 5.03717E+01 3.81041E+00
 -1     22196 4.80000E+01 5.13717E+01 3.81041E+00
 -1     22197 4.80000E+01 4.66174E+01 4.18239E+00
 -1     22198 4.80000E+01 4.76174E+01 4.18239E+00
 -1     22199 4.80000E+01 4.47190E+01 4.13728E+00
 -1     22200 4.80000E+01 4.57190E+01 4.13728E+00
 -1     22201 4.80000E+01 4.63363E+01 3.31967E+00
 -1     22202 4.80000E+01 4.47190E+01 3.30395E+00
 -1     22203 4.80000E+01 4.47190E+01 2.47062E+00
 -1     22204 4.80000E+01 4.50000E+01 8.33333E-01
 -1     22205 4.80000E+01 4.52583E+01 1.66836E+00
 -1     22206 4.80000E+01 4.59773E+01 2.47231E+00
 -1     22207 4.80000E+01 4.62583E+01 8.35023E-01
 -1     22208 4.80000E+01 4.72583E+01 8.35023E-01
 -1     22209 4.80000E+01 4.93082E+01 9.02197E-01
 -1     22210 4.80000E+01 4.83082E+01 9.02197E-01
 -1     22211 4.80000E+01 5.13717E+01 1.31041E+00
 -1     22212 4.80000E+01 5.03717E+01 1.31041E+00
 -1     22213 4.80000E+01 5.51776E+01 7.83601E-01
 -1     22214 4.80000E+01 5.41776E+01 7.83601E-01
 -1     22215 4.80000E+01 5.82014E+01 1.11358E+00
 -1     22216 4.80000E+01 5.34888E+01 3.98622E+00
 -1     22217 4.80000E+01 5.40455E+01 3.13644E+00
 -1     22218 4.80000E+01 5.24888E+01 3.98622E+00
 -1     22219 4.80000E+01 4.94833E+01 4.27034E+00
 -1     22220 4.80000E+01 4.98550E+01 3.08075E+00
 -1     22221 4.80000E+01 4.84833E+01 4.27034E+00
 -1     22222 4.80000E+01 5.65237E+01 4.24619E+00
 -1     22223 4.80000E+01 5.75237E+01 4.24619E+00
 -1     22224 4.80000E+01 5.18604E+01 2.79663E+00
 -1     22225 4.80000E+01 4.81007E+01 3.45272E+00
 -1     22226 4.80000E+01 5.78652E+01 3.64326E+00
 -1     22227 4.80000E+01 5.24888E+01 1.48622E+00
 -1     22228 4.80000E+01 4.75665E+01 1.73722E+00
 -1     22229 4.80000E+01 5.31776E+01 7.83601E-01
 -1     22230 4.80000E+01 5.72481E+01 8.76243E-01
 -1     22231 4.80000E+01 5.62481E+01 8.76243E-01
 -1     22232 4.80000E+01 5.54257E+01 1.65984E+00
 -1     22233 4.80000E+01 5.60804E+01 3.39641E+00
 -1     22234 4.80000E+01 5.74495E+01 1.98983E+00
 -1     22235 4.80000E+01 5.77250E+01 2.85978E+00
 -1     22236 4.80000E+01 5.67717E+01 2.62244E+00
 -1     22237 4.80000E+01 4.68756E+01 2.51741E+00
 -1     22238 4.80000E+01 5.58048E+01 2.52646E+00
 -1     22239 4.80000E+01 5.36664E+01 2.26982E+00
 -1     22240 4.80000E+01 4.96799E+01 2.21261E+00
 -1     22241 4.80000E+01 4.87915E+01 2.67253E+00
 -1     22242 4.80000E+01 5.47344E+01 2.43382E+00
 -1     22243 4.80000E+01 4.79255E+01 2.58458E+00
 -1     22244 9.23077E-01 4.43077E+01 8.33333E-01
 -1     22245 7.20380E-01 4.42401E+01 2.76140E+00
 -1     22246 7.20380E-01 4.42401E+01 1.92807E+00
 -1     22247 6.39466E-01 4.42132E+01 4.37536E+00
 -1     22248 6.39466E-01 4.42132E+01 3.54203E+00
 -1     22249 1.35985E+00 4.44533E+01 2.97010E+00
 -1     22250 1.56254E+00 4.45208E+01 4.37536E+00
 -1     22251 5.23027E+00 4.57434E+01 4.16308E+00
 -1     22252 4.30719E+00 4.54357E+01 4.16308E+00
 -1     22253 8.78085E+00 4.69270E+01 4.33942E+00
 -1     22254 7.85778E+00 4.66193E+01 4.33942E+00
 -1     22255 1.24603E+01 4.81534E+01 4.05345E+00
 -1     22256 1.15372E+01 4.78457E+01 4.05345E+00
 -1     22257 1.62984E+01 4.94328E+01 4.16337E+00
 -1     22258 1.53753E+01 4.91251E+01 4.16337E+00
 -1     22259 1.99986E+01 5.06662E+01 4.17221E+00
 -1     22260 1.90756E+01 5.03585E+01 4.17221E+00
 -1     22261 2.35381E+01 5.18460E+01 4.34570E+00
 -1     22262 2.26150E+01 5.15383E+01 4.34570E+00
 -1     22263 2.70765E+01 5.30255E+01 4.17231E+00
 -1     22264 2.61534E+01 5.27178E+01 4.17231E+00
 -1     22265 3.07678E+01 5.42559E+01 4.16671E+00
 -1     22266 2.98447E+01 5.39482E+01 4.16671E+00
 -1     22267 3.44574E+01 5.54858E+01 4.16424E+00
 -1     22268 3.35343E+01 5.51781E+01 4.16424E+00
 -1     22269 3.81518E+01 5.67173E+01 4.09676E+00
 -1     22270 3.72287E+01 5.64096E+01 4.09676E+00
 -1     22271 4.20882E+01 5.80294E+01 3.77024E+00
 -1     22272 4.11651E+01 5.77217E+01 3.77024E+00
 -1     22273 4.55718E+01 5.91906E+01 4.18342E+00
 -1     22274 4.46487E+01 5.88829E+01 4.18342E+00
 -1     22275 4.73183E+01 5.97728E+01 4.14789E+00
 -1     22276 4.63952E+01 5.94651E+01 4.14789E+00
 -1     22277 4.58131E+01 5.92710E+01 3.33131E+00
 -1     22278 4.73183E+01 5.97728E+01 3.31456E+00
 -1     22279 4.73183E+01 5.97728E+01 2.48123E+00
 -1     22280 4.70769E+01 5.96923E+01 8.33333E-01
 -1     22281 4.68147E+01 5.96049E+01 1.67004E+00
 -1     22282 4.61330E+01 5.93777E+01 2.48460E+00
 -1     22283 4.58916E+01 5.92972E+01 8.36702E-01
 -1     22284 4.49686E+01 5.89895E+01 8.36702E-01
 -1     22285 4.30875E+01 5.83625E+01 8.98120E-01
 -1     22286 4.40105E+01 5.86702E+01 8.98120E-01
 -1     22287 4.11651E+01 5.77217E+01 1.27024E+00
 -1     22288 4.20882E+01 5.80294E+01 1.27024E+00
 -1     22289 3.73814E+01 5.64605E+01 7.33792E-01
 -1     22290 3.83045E+01 5.67682E+01 7.33792E-01
 -1     22291 3.38329E+01 5.52776E+01 8.27896E-01
 -1     22292 3.47560E+01 5.55853E+01 8.27896E-01
 -1     22293 3.01518E+01 5.40506E+01 8.33196E-01
 -1     22294 3.10749E+01 5.43583E+01 8.33196E-01
 -1     22295 2.64527E+01 5.28176E+01 8.36642E-01
 -1     22296 2.73758E+01 5.31253E+01 8.36642E-01
 -1     22297 2.26148E+01 5.15383E+01 9.52284E-01
 -1     22298 2.35378E+01 5.18459E+01 9.52284E-01
 -1     22299 1.87761E+01 5.02587E+01 8.36502E-01
 -1     22300 1.96991E+01 5.05664E+01 8.36502E-01
 -1     22301 1.50753E+01 4.90251E+01 8.27923E-01
 -1     22302 1.59984E+01 4.93328E+01 8.27923E-01
 -1     22303 1.15280E+01 4.78427E+01 6.60541E-01
 -1     22304 1.24511E+01 4.81504E+01 6.60541E-01
 -1     22305 7.85037E+00 4.66168E+01 9.46683E-01
 -1     22306 8.77345E+00 4.69245E+01 9.46683E-01
 -1     22307 4.06085E+00 4.53536E+01 8.15416E-01
 -1     22308 4.98393E+00 4.56613E+01 8.15416E-01
 -1     22309 1.64346E+00 4.45478E+01 1.09474E+00
 -1     22310 6.13930E+00 4.60464E+01 4.19680E+00
 -1     22311 5.83110E+00 4.59437E+01 3.35987E+00
 -1     22312 7.06237E+00 4.63541E+01 4.19680E+00
 -1     22313 9.59221E+00 4.71974E+01 4.18009E+00
 -1     22314 9.14229E+00 4.70474E+01 3.51951E+00
 -1     22315 1.05153E+01 4.75051E+01 4.18009E+00
 -1     22316 3.33630E+00 4.51121E+01 4.11876E+00
 -1     22317 2.41322E+00 4.48044E+01 4.11876E+00
 -1     22318 7.53554E+00 4.65118E+01 3.53621E+00
 -1     22319 1.09756E+01 4.76585E+01 3.23354E+00
 -1     22320 2.12961E+00 4.47099E+01 3.49412E+00
 -1     22321 1.44277E+01 4.88092E+01 4.14864E+00
 -1     22322 1.35047E+01 4.85016E+01 4.14864E+00
 -1     22323 1.81516E+01 5.00505E+01 4.16681E+00
 -1     22324 1.72285E+01 4.97428E+01 4.16681E+00
 -1     22325 2.18254E+01 5.12751E+01 4.19965E+00
 -1     22326 2.09023E+01 5.09674E+01 4.19965E+00
 -1     22327 2.52504E+01 5.24168E+01 4.19942E+00
 -1     22328 2.43273E+01 5.21091E+01 4.19942E+00
 -1     22329 2.89214E+01 5.36405E+01 4.16751E+00
 -1     22330 2.79983E+01 5.33328E+01 4.16751E+00
 -1     22331 3.26136E+01 5.48712E+01 4.16627E+00
 -1     22332 3.16905E+01 5.45635E+01 4.16627E+00
 -1     22333 3.62998E+01 5.60999E+01 4.15352E+00
 -1     22334 3.53768E+01 5.57923E+01 4.15352E+00
 -1     22335 4.06167E+01 5.75389E+01 2.49726E+00
 -1     22336 4.00670E+01 5.73557E+01 3.72702E+00
 -1     22337 3.91440E+01 5.70480E+01 3.72702E+00
 -1     22338 4.00670E+01 5.73557E+01 1.22702E+00
 -1     22339 4.38479E+01 5.86160E+01 4.26322E+00
 -1     22340 4.29249E+01 5.83083E+01 4.26322E+00
 -1     22341 2.92278E+01 5.37426E+01 8.33918E-01
 -1     22342 2.98412E+01 5.39471E+01 1.66711E+00
 -1     22343 2.83047E+01 5.34349E+01 8.33918E-01
 -1     22344 4.25515E+01 5.81838E+01 3.03346E+00
 -1     22345 4.46714E+01 5.88905E+01 1.73482E+00
 -1     22346 3.65700E+01 5.61900E+01 8.08857E-01
 -1     22347 3.70283E+01 5.63428E+01 1.54265E+00
 -1     22348 3.56469E+01 5.58823E+01 8.08857E-01
 -1     22349 3.86792E+01 5.68931E+01 1.96081E+00
 -1     22350 3.91440E+01 5.70480E+01 1.22702E+00
 -1     22351 3.53260E+01 5.57753E+01 1.63675E+00
 -1     22352 3.19959E+01 5.46653E+01 8.32185E-01
 -1     22353 3.29190E+01 5.49730E+01 8.32185E-01
 -1     22354 2.79882E+01 5.33294E+01 1.67056E+00
 -1     22355 2.45823E+01 5.21941E+01 8.52151E-01
 -1     22356 2.55054E+01 5.25018E+01 8.52151E-01
 -1     22357 2.06472E+01 5.08824E+01 8.52157E-01
 -1     22358 2.15703E+01 5.11901E+01 8.52157E-01
 -1     22359 1.69227E+01 4.96409E+01 8.32874E-01
 -1     22360 1.78457E+01 4.99486E+01 8.32874E-01
 -1     22361 1.32471E+01 4.84157E+01 8.01983E-01
 -1     22362 1.41702E+01 4.87234E+01 8.01983E-01
 -1     22363 9.79363E+00 4.72645E+01 8.20239E-01
 -1     22364 1.07167E+01 4.75722E+01 8.20239E-01
 -1     22365 5.89325E+00 4.59644E+01 8.48155E-01
 -1     22366 6.81633E+00 4.62721E+01 8.48155E-01
 -1     22367 2.35485E+00 4.47850E+01 7.11917E-01
 -1     22368 3.27793E+00 4.50926E+01 7.11917E-01
 -1     22369 1.30419E+01 4.83473E+01 3.20209E+00
 -1     22370 1.69115E+01 4.96372E+01 3.33017E+00
 -1     22371 2.05933E+01 5.08644E+01 3.37186E+00
 -1     22372 2.38654E+01 5.19551E+01 3.54511E+00
 -1     22373 2.73824E+01 5.31275E+01 3.33982E+00
 -1     22374 3.10737E+01 5.43579E+01 3.33298E+00
 -1     22375 3.47572E+01 5.55857E+01 3.31776E+00
 -1     22376 3.35212E+01 5.51737E+01 1.66008E+00
 -1     22377 2.61119E+01 5.27040E+01 1.68879E+00
 -1     22378 2.20312E+01 5.13437E+01 1.80444E+00
 -1     22379 1.81602E+01 5.00534E+01 1.66938E+00
 -1     22380 1.44763E+01 4.88254E+01 1.62991E+00
 -1     22381 1.11678E+01 4.77226E+01 1.48078E+00
 -1     22382 7.28209E+00 4.64274E+01 1.79484E+00
 -1     22383 3.64648E+00 4.52155E+01 1.52733E+00
 -1     22384 2.55576E+01 5.25192E+01 3.37173E+00
 -1     22385 2.92276E+01 5.37425E+01 3.33422E+00
 -1     22386 3.29171E+01 5.49724E+01 3.33051E+00
 -1     22387 3.66054E+01 5.62018E+01 3.25027E+00
 -1     22388 2.15216E+00 4.47174E+01 1.80665E+00
 -1     22389 3.95118E+00 4.53171E+01 3.28184E+00
 -1     22390 2.22865E+01 5.14288E+01 3.54535E+00
 -1     22391 1.87656E+01 5.02552E+01 3.33902E+00
 -1     22392 1.50338E+01 4.90113E+01 3.31201E+00
 -1     22393 4.41889E+01 5.87296E+01 3.44664E+00
 -1     22394 5.33872E+00 4.57796E+01 1.66357E+00
 -1     22395 9.33631E+00 4.71121E+01 1.76692E+00
 -1     22396 1.27751E+01 4.82584E+01 1.46252E+00
 -1     22397 1.63057E+01 4.94352E+01 1.66080E+00
 -1     22398 3.16862E+01 5.45621E+01 1.66538E+00
 -1     22399 2.00386E+01 5.06795E+01 1.68866E+00
 -1     22400 2.41201E+01 5.20400E+01 1.80443E+00
 -1     22401 2.21053E+00 4.47368E+01 2.71350E+00
 -1     22402 2.30759E+01 5.16920E+01 2.79798E+00
 -1     22403 2.22863E+01 5.14288E+01 2.65193E+00
 -1     22404 8.32353E+00 4.67745E+01 2.78610E+00
 -1     22405 7.52813E+00 4.65094E+01 2.64348E+00
 -1     22406 9.13488E+00 4.70450E+01 2.62677E+00
 -1     22407 2.12418E+01 5.10806E+01 2.55181E+00
 -1     22408 2.03381E+01 5.07794E+01 2.52437E+00
 -1     22409 1.56814E+01 4.92271E+01 2.49129E+00
 -1     22410 1.47338E+01 4.89113E+01 2.47656E+00
 -1     22411 2.38652E+01 5.19551E+01 2.65170E+00
 -1     22412 1.93901E+01 5.04634E+01 2.50871E+00
 -1     22413 1.84661E+01 5.01554E+01 2.50331E+00
 -1     22414 2.76817E+01 5.32272E+01 2.50415E+00
 -1     22415 2.67599E+01 5.29200E+01 2.50895E+00
 -1     22416 2.95341E+01 5.38447E+01 2.50063E+00
 -1     22417 3.04581E+01 5.41527E+01 2.49991E+00
 -1     22418 3.13808E+01 5.44603E+01 2.49947E+00
 -1     22419 3.32225E+01 5.50742E+01 2.49643E+00
 -1     22420 3.41365E+01 5.53788E+01 2.49214E+00
 -1     22421 3.50559E+01 5.56853E+01 2.48141E+00
 -1     22422 3.68756E+01 5.62919E+01 2.40561E+00
 -1     22423 3.59468E+01 5.59823E+01 2.46238E+00
 -1     22424 2.92192E+00 4.49740E+01 2.33068E+00
 -1     22425 3.85265E+01 5.68422E+01 2.82378E+00
 -1     22426 4.67574E+00 4.55586E+01 2.47849E+00
 -1     22427 5.58506E+00 4.58617E+01 2.51123E+00
 -1     22428 4.53096E+01 5.91032E+01 2.52012E+00
 -1     22429 2.58126E+01 5.26042E+01 2.52446E+00
 -1     22430 3.76870E+01 5.65623E+01 2.33055E+00
 -1     22431 4.27141E+01 5.82380E+01 2.16836E+00
 -1     22432 1.75358E+01 4.98453E+01 2.49968E+00
 -1     22433 1.66056E+01 4.95352E+01 2.49624E+00
 -1     22434 4.35508E+01 5.85169E+01 2.66134E+00
 -1     22435 2.49096E+01 5.23032E+01 2.55157E+00
 -1     22436 1.38287E+01 4.86096E+01 2.45062E+00
 -1     22437 1.11770E+01 4.77257E+01 2.37369E+00
 -1     22438 1.19883E+01 4.79961E+01 2.21399E+00
 -1     22439 6.49409E+00 4.61647E+01 2.54495E+00
 -1     22440 1.27844E+01 4.82615E+01 2.35544E+00
 -1     22441 3.70485E+00 4.52349E+01 2.43418E+00
 -1     22442 1.01551E+01 4.73850E+01 2.50033E+00
 -1     22443 4.43515E+01 5.87838E+01 2.58154E+00
 -1     22444 2.86107E+01 5.35369E+01 2.50143E+00
 -1     22445 3.23018E+01 5.47673E+01 2.49846E+00
 -1     22446 0.00000E+00 1.00000E+00 8.33333E-01
 -1     22447 0.00000E+00 7.95901E-01 2.78923E+00
 -1     22448 0.00000E+00 7.95901E-01 1.95590E+00
 -1     22449 0.00000E+00 6.53265E-01 4.40563E+00
 -1     22450 0.00000E+00 6.53265E-01 3.57229E+00
 -1     22451 0.00000E+00 1.44917E+00 3.02819E+00
 -1     22452 0.00000E+00 1.65326E+00 4.40563E+00
 -1     22453 0.00000E+00 5.37705E+00 4.18924E+00
 -1     22454 0.00000E+00 4.37705E+00 4.18924E+00
 -1     22455 0.00000E+00 9.37189E+00 4.15098E+00
 -1     22456 0.00000E+00 8.37189E+00 4.15098E+00
 -1     22457 0.00000E+00 1.36325E+01 4.15003E+00
 -1     22458 0.00000E+00 1.26325E+01 4.15003E+00
 -1     22459 0.00000E+00 1.76636E+01 4.16623E+00
 -1     22460 0.00000E+00 1.66636E+01 4.16623E+00
 -1     22461 0.00000E+00 2.16660E+01 4.16662E+00
 -1     22462 0.00000E+00 2.06660E+01 4.16662E+00
 -1     22463 0.00000E+00 2.56662E+01 4.16733E+00
 -1     22464 0.00000E+00 2.46662E+01 4.16733E+00
 -1     22465 0.00000E+00 2.96379E+01 4.19582E+00
 -1     22466 0.00000E+00 2.86379E+01 4.19582E+00
 -1     22467 0.00000E+00 3.33511E+01 4.13423E+00
 -1     22468 0.00000E+00 3.23511E+01 4.13423E+00
 -1     22469 0.00000E+00 3.75964E+01 3.76939E+00
 -1     22470 0.00000E+00 3.65964E+01 3.76939E+00
 -1     22471 0.00000E+00 4.13687E+01 4.18189E+00
 -1     22472 0.00000E+00 4.03687E+01 4.18189E+00
 -1     22473 0.00000E+00 4.32634E+01 4.14448E+00
 -1     22474 0.00000E+00 4.22634E+01 4.14448E+00
 -1     22475 0.00000E+00 4.16320E+01 3.32637E+00
 -1     22476 0.00000E+00 4.32634E+01 3.31115E+00
 -1     22477 0.00000E+00 4.32634E+01 2.47781E+00
 -1     22478 0.00000E+00 4.30000E+01 8.33333E-01
 -1     22479 0.00000E+00 4.27142E+01 1.66817E+00
 -1     22480 0.00000E+00 4.19775E+01 2.47931E+00
 -1     22481 0.00000E+00 4.17142E+01 8.34835E-01
 -1     22482 0.00000E+00 4.07142E+01 8.34835E-01
 -1     22483 0.00000E+00 3.86774E+01 8.95008E-01
 -1     22484 0.00000E+00 3.96774E+01 8.95008E-01
 -1     22485 0.00000E+00 3.65964E+01 1.26939E+00
 -1     22486 0.00000E+00 3.75964E+01 1.26939E+00
 -1     22487 0.00000E+00 3.24553E+01 7.63310E-01
 -1     22488 0.00000E+00 3.34553E+01 7.63310E-01
 -1     22489 0.00000E+00 2.83574E+01 8.48910E-01
 -1     22490 0.00000E+00 2.93574E+01 8.48910E-01
 -1     22491 0.00000E+00 2.43339E+01 8.33635E-01
 -1     22492 0.00000E+00 2.53339E+01 8.33635E-01
 -1     22493 0.00000E+00 2.03324E+01 8.33293E-01
 -1     22494 0.00000E+00 2.13324E+01 8.33293E-01
 -1     22495 0.00000E+00 1.63315E+01 8.32664E-01
 -1     22496 0.00000E+00 1.73315E+01 8.32664E-01
 -1     22497 0.00000E+00 1.23541E+01 8.03257E-01
 -1     22498 0.00000E+00 1.33541E+01 8.03257E-01
 -1     22499 0.00000E+00 8.64839E+00 8.03524E-01
 -1     22500 0.00000E+00 9.64839E+00 8.03524E-01
 -1     22501 0.00000E+00 4.68689E+00 8.44416E-01
 -1     22502 0.00000E+00 5.68689E+00 8.44416E-01
 -1     22503 0.00000E+00 1.79590E+00 1.12257E+00
 -1     22504 0.00000E+00 6.35559E+00 4.16913E+00
 -1     22505 0.00000E+00 5.73264E+00 3.35837E+00
 -1     22506 0.00000E+00 7.35559E+00 4.16913E+00
 -1     22507 0.00000E+00 1.05008E+01 4.05334E+00
 -1     22508 0.00000E+00 9.87269E+00 3.20433E+00
 -1     22509 0.00000E+00 1.15008E+01 4.05334E+00
 -1     22510 0.00000E+00 3.45667E+00 4.25766E+00
 -1     22511 0.00000E+00 2.45667E+00 4.25766E+00
 -1     22512 0.00000E+00 7.72747E+00 3.32012E+00
 -1     22513 0.00000E+00 1.21333E+01 3.20338E+00
 -1     22514 0.00000E+00 2.10994E+00 3.66329E+00
 -1     22515 0.00000E+00 1.56577E+01 4.16378E+00
 -1     22516 0.00000E+00 1.46577E+01 4.16378E+00
 -1     22517 0.00000E+00 1.96652E+01 4.16658E+00
 -1     22518 0.00000E+00 1.86652E+01 4.16658E+00
 -1     22519 0.00000E+00 2.36664E+01 4.16674E+00
 -1     22520 0.00000E+00 2.26664E+01 4.16674E+00
 -1     22521 0.00000E+00 2.76628E+01 4.17128E+00
 -1     22522 0.00000E+00 2.66628E+01 4.17128E+00
 -1     22523 0.00000E+00 3.14940E+01 4.33011E+00
 -1     22524 0.00000E+00 3.04940E+01 4.33011E+00
 -1     22525 0.00000E+00 3.59937E+01 2.50809E+00
 -1     22526 0.00000E+00 3.53972E+01 3.73870E+00
 -1     22527 0.00000E+00 3.43972E+01 3.73870E+00
 -1     22528 0.00000E+00 3.53972E+01 1.23870E+00
 -1     22529 0.00000E+00 3.95022E+01 4.26214E+00
 -1     22530 0.00000E+00 3.85022E+01 4.26214E+00
 -1     22531 0.00000E+00 3.80986E+01 3.03153E+00
 -1     22532 0.00000E+00 4.03916E+01 1.72984E+00
 -1     22533 0.00000E+00 3.38526E+01 2.00201E+00
 -1     22534 0.00000E+00 3.43972E+01 1.23870E+00
 -1     22535 0.00000E+00 3.04593E+01 9.34229E-01
 -1     22536 0.00000E+00 3.14593E+01 9.34229E-01
 -1     22537 0.00000E+00 2.63379E+01 8.35649E-01
 -1     22538 0.00000E+00 2.73379E+01 8.35649E-01
 -1     22539 0.00000E+00 2.23330E+01 8.33368E-01
 -1     22540 0.00000E+00 2.33330E+01 8.33368E-01
 -1     22541 0.00000E+00 1.83320E+01 8.33263E-01
 -1     22542 0.00000E+00 1.93320E+01 8.33263E-01
 -1     22543 0.00000E+00 1.43327E+01 8.28512E-01
 -1     22544 0.00000E+00 1.53327E+01 8.28512E-01
 -1     22545 0.00000E+00 1.05007E+01 6.58026E-01
 -1     22546 0.00000E+00 1.15007E+01 6.58026E-01
 -1     22547 0.00000E+00 6.67408E+00 8.30786E-01
 -1     22548 0.00000E+00 7.67408E+00 8.30786E-01
 -1     22549 0.00000E+00 2.71427E+00 8.91395E-01
 -1     22550 0.00000E+00 3.71427E+00 8.91395E-01
 -1     22551 0.00000E+00 1.42902E+01 3.31382E+00
 -1     22552 0.00000E+00 1.83288E+01 3.33280E+00
 -1     22553 0.00000E+00 2.23323E+01 3.33336E+00
 -1     22554 0.00000E+00 2.63290E+01 3.33861E+00
 -1     22555 0.00000E+00 3.01320E+01 3.52593E+00
 -1     22556 0.00000E+00 2.76952E+01 1.68456E+00
 -1     22557 0.00000E+00 1.96644E+01 1.66656E+00
 -1     22558 0.00000E+00 1.56642E+01 1.66118E+00
 -1     22559 0.00000E+00 1.18547E+01 1.46128E+00
 -1     22560 0.00000E+00 8.32247E+00 1.63431E+00
 -1     22561 0.00000E+00 4.40116E+00 1.73581E+00
 -1     22562 0.00000E+00 2.83008E+01 3.36711E+00
 -1     22563 0.00000E+00 3.18452E+01 3.46433E+00
 -1     22564 0.00000E+00 3.19146E+01 1.69754E+00
 -1     22565 0.00000E+00 1.01491E+01 1.46155E+00
 -1     22566 0.00000E+00 6.36097E+00 1.67520E+00
 -1     22567 0.00000E+00 2.51017E+00 2.01396E+00
 -1     22568 0.00000E+00 3.83372E+00 3.44690E+00
 -1     22569 0.00000E+00 2.43325E+01 3.33407E+00
 -1     22570 0.00000E+00 2.03312E+01 3.33320E+00
 -1     22571 0.00000E+00 1.63213E+01 3.33001E+00
 -1     22572 0.00000E+00 1.36868E+01 1.63177E+00
 -1     22573 0.00000E+00 3.98709E+01 3.44403E+00
 -1     22574 0.00000E+00 1.76634E+01 1.66593E+00
 -1     22575 0.00000E+00 2.98166E+01 1.78314E+00
 -1     22576 0.00000E+00 2.16654E+01 1.66666E+00
 -1     22577 0.00000E+00 2.56717E+01 1.66928E+00
 -1     22578 0.00000E+00 2.36668E+01 1.66700E+00
 -1     22579 0.00000E+00 2.25257E+00 2.88023E+00
 -1     22580 0.00000E+00 2.50000E+01 2.50096E+00
 -1     22581 0.00000E+00 2.40003E+01 2.50037E+00
 -1     22582 0.00000E+00 8.04597E+00 2.48177E+00
 -1     22583 0.00000E+00 9.02027E+00 2.45451E+00
 -1     22584 0.00000E+00 1.01492E+01 2.35687E+00
 -1     22585 0.00000E+00 1.29865E+01 2.45329E+00
 -1     22586 0.00000E+00 1.39652E+01 2.47854E+00
 -1     22587 0.00000E+00 2.29994E+01 2.50010E+00
 -1     22588 0.00000E+00 2.19989E+01 2.49999E+00
 -1     22589 0.00000E+00 1.69951E+01 2.49889E+00
 -1     22590 0.00000E+00 1.59892E+01 2.49645E+00
 -1     22591 0.00000E+00 2.70007E+01 2.50693E+00
 -1     22592 0.00000E+00 2.60040E+01 2.50298E+00
 -1     22593 0.00000E+00 2.09984E+01 2.49991E+00
 -1     22594 0.00000E+00 1.99976E+01 2.49987E+00
 -1     22595 0.00000E+00 3.09533E+01 2.76434E+00
 -1     22596 0.00000E+00 3.00972E+01 2.63005E+00
 -1     22597 0.00000E+00 3.18104E+01 2.56846E+00
 -1     22598 0.00000E+00 3.28064E+01 2.39754E+00
 -1     22599 0.00000E+00 3.37484E+01 2.87293E+00
 -1     22600 0.00000E+00 1.79956E+01 2.49949E+00
 -1     22601 0.00000E+00 3.91796E+01 2.65715E+00
 -1     22602 0.00000E+00 3.82738E+01 2.16440E+00
 -1     22603 0.00000E+00 4.10829E+01 2.51672E+00
 -1     22604 0.00000E+00 3.17094E+00 2.64906E+00
 -1     22605 0.00000E+00 1.10015E+01 2.21137E+00
 -1     22606 0.00000E+00 1.89972E+01 2.49984E+00
 -1     22607 0.00000E+00 1.49905E+01 2.49229E+00
 -1     22608 0.00000E+00 2.89953E+01 2.54473E+00
 -1     22609 0.00000E+00 1.18549E+01 2.35660E+00
 -1     22610 0.00000E+00 4.00461E+01 2.57690E+00
 -1     22611 0.00000E+00 7.02967E+00 2.49992E+00
 -1     22612 0.00000E+00 6.04247E+00 2.51355E+00
 -1     22613 0.00000E+00 4.09132E+00 2.58064E+00
 -1     22614 0.00000E+00 2.80202E+01 2.52019E+00
 -1     22615 0.00000E+00 5.06394E+00 2.53366E+00
 -1     22616 4.64387E+01 4.37017E+01 0.00000E+00
 -1     22617 4.71660E+01 4.43684E+01 0.00000E+00
 -1     22618 4.34546E+01 4.10247E+01 0.00000E+00
 -1     22619 4.41818E+01 4.16914E+01 0.00000E+00
 -1     22620 4.05217E+01 3.83292E+01 0.00000E+00
 -1     22621 4.12490E+01 3.89959E+01 0.00000E+00
 -1     22622 3.76021E+01 3.56425E+01 0.00000E+00
 -1     22623 3.83293E+01 3.63091E+01 0.00000E+00
 -1     22624 3.46868E+01 3.29755E+01 0.00000E+00
 -1     22625 3.54141E+01 3.36422E+01 0.00000E+00
 -1     22626 3.17812E+01 3.03055E+01 0.00000E+00
 -1     22627 3.25085E+01 3.09722E+01 0.00000E+00
 -1     22628 2.88784E+01 2.76317E+01 0.00000E+00
 -1     22629 2.96057E+01 2.82984E+01 0.00000E+00
 -1     22630 2.59731E+01 2.49606E+01 0.00000E+00
 -1     22631 2.67004E+01 2.56273E+01 0.00000E+00
 -1     22632 2.30648E+01 2.22939E+01 0.00000E+00
 -1     22633 2.37921E+01 2.29606E+01 0.00000E+00
 -1     22634 2.01545E+01 1.96307E+01 0.00000E+00
 -1     22635 2.08818E+01 2.02974E+01 0.00000E+00
 -1     22636 1.72454E+01 1.69698E+01 0.00000E+00
 -1     22637 1.79726E+01 1.76364E+01 0.00000E+00
 -1     22638 1.43425E+01 1.43056E+01 0.00000E+00
 -1     22639 1.50698E+01 1.49723E+01 0.00000E+00
 -1     22640 1.14536E+01 1.16351E+01 0.00000E+00
 -1     22641 1.21809E+01 1.23018E+01 0.00000E+00
 -1     22642 8.56623E+00 8.96023E+00 0.00000E+00
 -1     22643 9.29350E+00 9.62690E+00 0.00000E+00
 -1     22644 5.61127E+00 6.33360E+00 0.00000E+00
 -1     22645 6.33854E+00 7.00026E+00 0.00000E+00
 -1     22646 2.48944E+00 3.69943E+00 0.00000E+00
 -1     22647 3.21671E+00 4.36609E+00 0.00000E+00
 -1     22648 7.27273E-01 1.66667E+00 0.00000E+00
 -1     22649 1.03489E+00 5.36609E+00 0.00000E+00
 -1     22650 1.03489E+00 4.36609E+00 0.00000E+00
 -1     22651 8.66145E-01 9.50903E+00 0.00000E+00
 -1     22652 8.66145E-01 8.50903E+00 0.00000E+00
 -1     22653 8.07963E-01 1.35157E+01 0.00000E+00
 -1     22654 8.07963E-01 1.25157E+01 0.00000E+00
 -1     22655 8.26384E-01 1.75049E+01 0.00000E+00
 -1     22656 8.26384E-01 1.65049E+01 0.00000E+00
 -1     22657 8.41867E-01 2.14962E+01 0.00000E+00
 -1     22658 8.41867E-01 2.04962E+01 0.00000E+00
 -1     22659 8.53862E-01 2.54932E+01 0.00000E+00
 -1     22660 8.53862E-01 2.44932E+01 0.00000E+00
 -1     22661 8.49689E-01 2.94890E+01 0.00000E+00
 -1     22662 8.49689E-01 2.84890E+01 0.00000E+00
 -1     22663 8.32697E-01 3.34728E+01 0.00000E+00
 -1     22664 8.32697E-01 3.24728E+01 0.00000E+00
 -1     22665 8.05585E-01 3.74391E+01 0.00000E+00
 -1     22666 8.05585E-01 3.64391E+01 0.00000E+00
 -1     22667 8.17211E-01 4.13972E+01 0.00000E+00
 -1     22668 8.17211E-01 4.03972E+01 0.00000E+00
 -1     22669 8.51859E-01 4.33643E+01 0.00000E+00
 -1     22670 8.51859E-01 4.23643E+01 0.00000E+00
 -1     22671 1.66907E+00 4.17615E+01 0.00000E+00
 -1     22672 1.77494E+00 4.36720E+01 0.00000E+00
 -1     22673 5.40146E+00 4.49384E+01 0.00000E+00
 -1     22674 4.47838E+00 4.46307E+01 0.00000E+00
 -1     22675 9.06293E+00 4.61462E+01 0.00000E+00
 -1     22676 8.13986E+00 4.58385E+01 0.00000E+00
 -1     22677 1.27372E+01 4.73573E+01 0.00000E+00
 -1     22678 1.18142E+01 4.70496E+01 0.00000E+00
 -1     22679 1.64232E+01 4.85795E+01 0.00000E+00
 -1     22680 1.55001E+01 4.82718E+01 0.00000E+00
 -1     22681 2.01172E+01 4.98056E+01 0.00000E+00
 -1     22682 1.91942E+01 4.94979E+01 0.00000E+00
 -1     22683 2.38114E+01 5.10321E+01 0.00000E+00
 -1     22684 2.28884E+01 5.07244E+01 0.00000E+00
 -1     22685 2.75022E+01 5.22627E+01 0.00000E+00
 -1     22686 2.65791E+01 5.19550E+01 0.00000E+00
 -1     22687 3.11865E+01 5.35000E+01 0.00000E+00
 -1     22688 3.02635E+01 5.31923E+01 0.00000E+00
 -1     22689 3.48711E+01 5.47429E+01 0.00000E+00
 -1     22690 3.39480E+01 5.44352E+01 0.00000E+00
 -1     22691 3.85982E+01 5.59196E+01 0.00000E+00
 -1     22692 3.76752E+01 5.56119E+01 0.00000E+00
 -1     22693 4.23677E+01 5.70847E+01 0.00000E+00
 -1     22694 4.14446E+01 5.67770E+01 0.00000E+00
 -1     22695 4.61291E+01 5.83568E+01 0.00000E+00
 -1     22696 4.52061E+01 5.80491E+01 0.00000E+00
 -1     22697 4.70769E+01 5.86923E+01 0.00000E+00
 -1     22698 4.70522E+01 5.66645E+01 0.00000E+00
 -1     22699 4.70522E+01 5.76645E+01 0.00000E+00
 -1     22700 4.69705E+01 5.25590E+01 0.00000E+00
 -1     22701 4.69705E+01 5.35590E+01 0.00000E+00
 -1     22702 4.70730E+01 4.84318E+01 0.00000E+00
 -1     22703 4.70730E+01 4.94318E+01 0.00000E+00
 -1     22704 4.71660E+01 4.53684E+01 0.00000E+00
 -1     22705 4.49370E+01 4.23685E+01 0.00000E+00
 -1     22706 4.56642E+01 4.30351E+01 0.00000E+00
 -1     22707 4.19846E+01 3.96776E+01 0.00000E+00
 -1     22708 4.27118E+01 4.03442E+01 0.00000E+00
 -1     22709 3.90619E+01 3.69833E+01 0.00000E+00
 -1     22710 3.97892E+01 3.76499E+01 0.00000E+00
 -1     22711 3.61431E+01 3.43082E+01 0.00000E+00
 -1     22712 3.68704E+01 3.49748E+01 0.00000E+00
 -1     22713 3.32332E+01 3.16414E+01 0.00000E+00
 -1     22714 3.39604E+01 3.23080E+01 0.00000E+00
 -1     22715 3.03300E+01 2.89686E+01 0.00000E+00
 -1     22716 3.10572E+01 2.96353E+01 0.00000E+00
 -1     22717 2.74262E+01 2.62956E+01 0.00000E+00
 -1     22718 2.81535E+01 2.69622E+01 0.00000E+00
 -1     22719 2.45193E+01 2.36269E+01 0.00000E+00
 -1     22720 2.52466E+01 2.42935E+01 0.00000E+00
 -1     22721 2.16101E+01 2.09618E+01 0.00000E+00
 -1     22722 2.23374E+01 2.16285E+01 0.00000E+00
 -1     22723 1.86992E+01 1.83004E+01 0.00000E+00
 -1     22724 1.94264E+01 1.89671E+01 0.00000E+00
 -1     22725 1.57937E+01 1.56388E+01 0.00000E+00
 -1     22726 1.65210E+01 1.63054E+01 0.00000E+00
 -1     22727 1.28944E+01 1.29723E+01 0.00000E+00
 -1     22728 1.36216E+01 1.36389E+01 0.00000E+00
 -1     22729 1.00158E+01 1.02948E+01 0.00000E+00
 -1     22730 1.07431E+01 1.09615E+01 0.00000E+00
 -1     22731 7.09864E+00 7.64113E+00 0.00000E+00
 -1     22732 7.82592E+00 8.30780E+00 0.00000E+00
 -1     22733 4.09108E+00 5.02706E+00 0.00000E+00
 -1     22734 4.81835E+00 5.69373E+00 0.00000E+00
 -1     22735 6.54847E-01 2.49857E+00 0.00000E+00
 -1     22736 1.38212E+00 2.16524E+00 0.00000E+00
 -1     22737 2.10939E+00 2.83191E+00 0.00000E+00
 -1     22738 9.28300E-01 6.47765E+00 0.00000E+00
 -1     22739 1.96319E+00 5.84374E+00 0.00000E+00
 -1     22740 6.54847E-01 3.49857E+00 0.00000E+00
 -1     22741 1.79445E+00 7.98668E+00 0.00000E+00
 -1     22742 9.28300E-01 7.47765E+00 0.00000E+00
 -1     22743 8.26245E-01 1.15156E+01 0.00000E+00
 -1     22744 8.26245E-01 1.05156E+01 0.00000E+00
 -1     22745 8.12011E-01 1.55130E+01 0.00000E+00
 -1     22746 8.12011E-01 1.45130E+01 0.00000E+00
 -1     22747 8.36036E-01 1.94979E+01 0.00000E+00
 -1     22748 8.36036E-01 1.84979E+01 0.00000E+00
 -1     22749 8.48552E-01 2.34949E+01 0.00000E+00
 -1     22750 8.48552E-01 2.24949E+01 0.00000E+00
 -1     22751 8.53985E-01 2.74917E+01 0.00000E+00
 -1     22752 8.53985E-01 2.64917E+01 0.00000E+00
 -1     22753 8.43237E-01 3.14844E+01 0.00000E+00
 -1     22754 8.43237E-01 3.04844E+01 0.00000E+00
 -1     22755 8.18561E-01 3.54570E+01 0.00000E+00
 -1     22756 8.18561E-01 3.44570E+01 0.00000E+00
 -1     22757 8.03068E-01 3.94207E+01 0.00000E+00
 -1     22758 8.03068E-01 3.84207E+01 0.00000E+00
 -1     22759 9.97536E+00 4.64406E+01 0.00000E+00
 -1     22760 9.80753E+00 4.55099E+01 0.00000E+00
 -1     22761 1.08984E+01 4.67483E+01 0.00000E+00
 -1     22762 3.58132E+00 4.43133E+01 0.00000E+00
 -1     22763 2.65824E+00 4.40056E+01 0.00000E+00
 -1     22764 7.23037E+00 4.55473E+01 0.00000E+00
 -1     22765 6.30729E+00 4.52396E+01 0.00000E+00
 -1     22766 1.16357E+01 4.61056E+01 0.00000E+00
 -1     22767 2.58702E+00 4.30622E+01 0.00000E+00
 -1     22768 1.45777E+01 4.79663E+01 0.00000E+00
 -1     22769 1.36546E+01 4.76586E+01 0.00000E+00
 -1     22770 1.82707E+01 4.91913E+01 0.00000E+00
 -1     22771 1.73476E+01 4.88836E+01 0.00000E+00
 -1     22772 2.19643E+01 5.04190E+01 0.00000E+00
 -1     22773 2.10412E+01 5.01113E+01 0.00000E+00
 -1     22774 2.56580E+01 5.16487E+01 0.00000E+00
 -1     22775 2.47350E+01 5.13410E+01 0.00000E+00
 -1     22776 2.93466E+01 5.28788E+01 0.00000E+00
 -1     22777 2.84235E+01 5.25711E+01 0.00000E+00
 -1     22778 3.30254E+01 5.41243E+01 0.00000E+00
 -1     22779 3.21023E+01 5.38166E+01 0.00000E+00
 -1     22780 3.67306E+01 5.53425E+01 0.00000E+00
 -1     22781 3.58075E+01 5.50349E+01 0.00000E+00
 -1     22782 4.04798E+01 5.64954E+01 0.00000E+00
 -1     22783 3.95567E+01 5.61877E+01 0.00000E+00
 -1     22784 4.42518E+01 5.77111E+01 0.00000E+00
 -1     22785 4.33287E+01 5.74034E+01 0.00000E+00
 -1     22786 4.10517E+01 4.00068E+01 0.00000E+00
 -1     22787 4.70152E+01 5.56219E+01 0.00000E+00
 -1     22788 4.60674E+01 5.62864E+01 0.00000E+00
 -1     22789 4.40279E+01 4.27265E+01 0.00000E+00
 -1     22790 4.59856E+01 5.41809E+01 0.00000E+00
 -1     22791 4.70152E+01 5.46219E+01 0.00000E+00
 -1     22792 4.70011E+01 5.04918E+01 0.00000E+00
 -1     22793 4.70011E+01 5.14918E+01 0.00000E+00
 -1     22794 4.62808E+01 4.57641E+01 0.00000E+00
 -1     22795 4.71148E+01 4.63957E+01 0.00000E+00
 -1     22796 4.71148E+01 4.73957E+01 0.00000E+00
 -1     22797 3.51936E+01 3.46171E+01 0.00000E+00
 -1     22798 3.81185E+01 3.72924E+01 0.00000E+00
 -1     22799 4.55575E+01 4.40702E+01 0.00000E+00
 -1     22800 4.25300E+01 4.13690E+01 0.00000E+00
 -1     22801 3.95836E+01 3.86458E+01 0.00000E+00
 -1     22802 3.66543E+01 3.59507E+01 0.00000E+00
 -1     22803 3.37382E+01 3.32836E+01 0.00000E+00
 -1     22804 3.08384E+01 3.06075E+01 0.00000E+00
 -1     22805 2.79410E+01 2.79272E+01 0.00000E+00
 -1     22806 2.50379E+01 2.52542E+01 0.00000E+00
 -1     22807 2.21295E+01 2.25891E+01 0.00000E+00
 -1     22808 1.92173E+01 1.99311E+01 0.00000E+00
 -1     22809 1.63118E+01 1.72752E+01 0.00000E+00
 -1     22810 1.34187E+01 1.46112E+01 0.00000E+00
 -1     22811 1.05604E+01 1.19299E+01 0.00000E+00
 -1     22812 7.66487E+00 9.26803E+00 0.00000E+00
 -1     22813 4.61143E+00 6.69399E+00 0.00000E+00
 -1     22814 1.69239E+00 1.00246E+01 0.00000E+00
 -1     22815 1.61997E+00 1.40287E+01 0.00000E+00
 -1     22816 1.66242E+00 1.80028E+01 0.00000E+00
 -1     22817 1.69042E+00 2.19910E+01 0.00000E+00
 -1     22818 1.70785E+00 2.59849E+01 0.00000E+00
 -1     22819 1.69293E+00 2.99734E+01 0.00000E+00
 -1     22820 1.65126E+00 3.39298E+01 0.00000E+00
 -1     22821 1.60865E+00 3.78598E+01 0.00000E+00
 -1     22822 6.17029E+00 4.43318E+01 0.00000E+00
 -1     22823 1.34688E+01 4.67082E+01 0.00000E+00
 -1     22824 1.71554E+01 4.79246E+01 0.00000E+00
 -1     22825 2.08508E+01 4.91477E+01 0.00000E+00
 -1     22826 2.45464E+01 5.03731E+01 0.00000E+00
 -1     22827 2.82334E+01 5.16030E+01 0.00000E+00
 -1     22828 3.19042E+01 5.28550E+01 0.00000E+00
 -1     22829 3.56017E+01 5.40855E+01 0.00000E+00
 -1     22830 3.93857E+01 5.51842E+01 0.00000E+00
 -1     22831 4.32349E+01 5.63342E+01 0.00000E+00
 -1     22832 4.59716E+01 5.20508E+01 0.00000E+00
 -1     22833 4.61878E+01 4.78275E+01 0.00000E+00
 -1     22834 3.22871E+01 3.19469E+01 0.00000E+00
 -1     22835 2.93902E+01 2.92670E+01 0.00000E+00
 -1     22836 2.64902E+01 2.65895E+01 0.00000E+00
 -1     22837 2.35841E+01 2.39208E+01 0.00000E+00
 -1     22838 2.06738E+01 2.12592E+01 0.00000E+00
 -1     22839 1.77627E+01 1.86035E+01 0.00000E+00
 -1     22840 1.48635E+01 1.59444E+01 0.00000E+00
 -1     22841 1.19844E+01 1.32741E+01 0.00000E+00
 -1     22842 9.12753E+00 1.05884E+01 0.00000E+00
 -1     22843 6.16445E+00 7.97473E+00 0.00000E+00
 -1     22844 2.94415E+00 5.39315E+00 0.00000E+00
 -1     22845 1.63421E+00 1.20313E+01 0.00000E+00
 -1     22846 1.70241E+00 2.39880E+01 0.00000E+00
 -1     22847 1.70367E+00 2.79807E+01 0.00000E+00
 -1     22848 1.67593E+00 3.19572E+01 0.00000E+00
 -1     22849 1.62415E+00 3.58961E+01 0.00000E+00
 -1     22850 1.62028E+00 3.98179E+01 0.00000E+00
 -1     22851 7.98561E+00 4.49243E+01 0.00000E+00
 -1     22852 2.26988E+01 4.97588E+01 0.00000E+00
 -1     22853 2.63910E+01 5.09883E+01 0.00000E+00
 -1     22854 3.00716E+01 5.22249E+01 0.00000E+00
 -1     22855 3.37427E+01 5.34826E+01 0.00000E+00
 -1     22856 3.74826E+01 5.46468E+01 0.00000E+00
 -1     22857 4.13090E+01 5.57340E+01 0.00000E+00
 -1     22858 4.51502E+01 5.69910E+01 0.00000E+00
 -1     22859 4.60741E+01 4.99235E+01 0.00000E+00
 -1     22860 1.67790E+00 1.99941E+01 0.00000E+00
 -1     22861 1.63839E+00 1.60178E+01 0.00000E+00
 -1     22862 4.36739E+00 4.37132E+01 0.00000E+00
 -1     22863 1.90033E+01 4.85354E+01 0.00000E+00
 -1     22864 1.53086E+01 4.73150E+01 0.00000E+00
 -1     22865 3.86444E+01 3.89547E+01 0.00000E+00
 -1     22866 3.93769E+01 3.96339E+01 0.00000E+00
 -1     22867 4.51131E+01 5.59484E+01 0.00000E+00
 -1     22868 3.57060E+01 3.62566E+01 0.00000E+00
 -1     22869 3.64377E+01 3.69242E+01 0.00000E+00
 -1     22870 4.46710E+01 4.44451E+01 0.00000E+00
 -1     22871 4.54455E+01 4.51117E+01 0.00000E+00
 -1     22872 3.27875E+01 3.35937E+01 0.00000E+00
 -1     22873 3.35138E+01 3.42612E+01 0.00000E+00
 -1     22874 3.71752E+01 3.75931E+01 0.00000E+00
 -1     22875 3.79078E+01 3.82672E+01 0.00000E+00
 -1     22876 3.77011E+01 3.92554E+01 0.00000E+00
 -1     22877 3.62270E+01 3.78991E+01 0.00000E+00
 -1     22878 2.98941E+01 3.09093E+01 0.00000E+00
 -1     22879 3.06181E+01 3.15795E+01 0.00000E+00
 -1     22880 2.70033E+01 2.82211E+01 0.00000E+00
 -1     22881 2.77282E+01 2.88906E+01 0.00000E+00
 -1     22882 2.41031E+01 2.55471E+01 0.00000E+00
 -1     22883 2.48296E+01 2.62142E+01 0.00000E+00
 -1     22884 2.11954E+01 2.28841E+01 0.00000E+00
 -1     22885 2.19228E+01 2.35495E+01 0.00000E+00
 -1     22886 1.82807E+01 2.02327E+01 0.00000E+00
 -1     22887 1.90087E+01 2.08964E+01 0.00000E+00
 -1     22888 1.53772E+01 1.75834E+01 0.00000E+00
 -1     22889 1.61016E+01 1.82478E+01 0.00000E+00
 -1     22890 1.24900E+01 1.49169E+01 0.00000E+00
 -1     22891 1.32109E+01 1.55836E+01 0.00000E+00
 -1     22892 9.66186E+00 1.22243E+01 0.00000E+00
 -1     22893 1.03724E+01 1.28979E+01 0.00000E+00
 -1     22894 6.78372E+00 9.57120E+00 0.00000E+00
 -1     22895 7.52403E+00 1.02236E+01 0.00000E+00
 -1     22896 2.83756E+00 6.50471E+00 0.00000E+00
 -1     22897 2.50605E+00 1.05731E+01 0.00000E+00
 -1     22898 2.54595E+00 9.56661E+00 0.00000E+00
 -1     22899 1.68974E+00 3.86467E+00 0.00000E+00
 -1     22900 2.41910E+00 1.45439E+01 0.00000E+00
 -1     22901 2.41505E+00 1.35467E+01 0.00000E+00
 -1     22902 2.63681E+00 8.56452E+00 0.00000E+00
 -1     22903 2.69897E+00 7.53314E+00 0.00000E+00
 -1     22904 3.67992E+00 7.08255E+00 0.00000E+00
 -1     22905 3.45047E+00 9.11307E+00 0.00000E+00
 -1     22906 2.55993E+00 2.44783E+01 0.00000E+00
 -1     22907 2.55462E+00 2.34800E+01 0.00000E+00
 -1     22908 2.50637E+00 1.84904E+01 0.00000E+00
 -1     22909 2.49672E+00 1.74974E+01 0.00000E+00
 -1     22910 5.14889E+00 4.31201E+01 0.00000E+00
 -1     22911 4.25182E+00 4.28026E+01 0.00000E+00
 -1     22912 2.53816E+00 2.24833E+01 0.00000E+00
 -1     22913 2.53148E+00 2.14846E+01 0.00000E+00
 -1     22914 3.39568E+00 2.29736E+01 0.00000E+00
 -1     22915 2.46891E+00 1.65182E+01 0.00000E+00
 -1     22916 2.45453E+00 1.55263E+01 0.00000E+00
 -1     22917 3.24961E+00 1.50443E+01 0.00000E+00
 -1     22918 3.31286E+00 1.70058E+01 0.00000E+00
 -1     22919 2.55532E+00 2.84723E+01 0.00000E+00
 -1     22920 2.55962E+00 2.74751E+01 0.00000E+00
 -1     22921 2.51456E+00 3.24410E+01 0.00000E+00
 -1     22922 2.52510E+00 3.14525E+01 0.00000E+00
 -1     22923 2.43219E+00 3.63427E+01 0.00000E+00
 -1     22924 2.44517E+00 3.53605E+01 0.00000E+00
 -1     22925 2.42787E+00 4.02186E+01 0.00000E+00
 -1     22926 2.41372E+00 3.92421E+01 0.00000E+00
 -1     22927 8.73510E+00 4.42940E+01 0.00000E+00
 -1     22928 7.82562E+00 4.40028E+01 0.00000E+00
 -1     22929 2.50792E+00 4.21316E+01 0.00000E+00
 -1     22930 2.47328E+00 4.11645E+01 0.00000E+00
 -1     22931 3.26672E+00 4.05886E+01 0.00000E+00
 -1     22932 3.39123E+00 4.24651E+01 0.00000E+00
 -1     22933 1.97361E+01 4.78769E+01 0.00000E+00
 -1     22934 1.88126E+01 4.75703E+01 0.00000E+00
 -1     22935 1.41966E+01 4.60523E+01 0.00000E+00
 -1     22936 1.32792E+01 4.57510E+01 0.00000E+00
 -1     22937 2.34334E+01 4.90957E+01 0.00000E+00
 -1     22938 2.25093E+01 4.87903E+01 0.00000E+00
 -1     22939 1.23664E+01 4.54526E+01 0.00000E+00
 -1     22940 1.14506E+01 4.51512E+01 0.00000E+00
 -1     22941 1.30942E+01 4.47967E+01 0.00000E+00
 -1     22942 2.15849E+01 4.84860E+01 0.00000E+00
 -1     22943 2.06610E+01 4.81804E+01 0.00000E+00
 -1     22944 2.23195E+01 4.78230E+01 0.00000E+00
 -1     22945 2.71269E+01 5.03230E+01 0.00000E+00
 -1     22946 2.62058E+01 5.00167E+01 0.00000E+00
 -1     22947 3.08054E+01 5.15633E+01 0.00000E+00
 -1     22948 2.98885E+01 5.12498E+01 0.00000E+00
 -1     22949 3.44503E+01 5.28507E+01 0.00000E+00
 -1     22950 3.35276E+01 5.25398E+01 0.00000E+00
 -1     22951 3.82065E+01 5.39493E+01 0.00000E+00
 -1     22952 3.72619E+01 5.36799E+01 0.00000E+00
 -1     22953 4.21185E+01 5.49452E+01 0.00000E+00
 -1     22954 4.11537E+01 5.46636E+01 0.00000E+00
 -1     22955 4.41084E+01 5.55629E+01 0.00000E+00
 -1     22956 4.31474E+01 5.52442E+01 0.00000E+00
 -1     22957 4.29920E+01 5.41739E+01 0.00000E+00
 -1     22958 4.50256E+01 5.48583E+01 0.00000E+00
 -1     22959 4.48703E+01 5.15325E+01 0.00000E+00
 -1     22960 4.48396E+01 5.25998E+01 0.00000E+00
 -1     22961 4.01162E+01 4.03325E+01 0.00000E+00
 -1     22962 4.08518E+01 4.10142E+01 0.00000E+00
 -1     22963 3.91771E+01 4.06413E+01 0.00000E+00
 -1     22964 4.53150E+01 4.71873E+01 0.00000E+00
 -1     22965 4.52732E+01 4.82233E+01 0.00000E+00
 -1     22966 4.49809E+01 5.37954E+01 0.00000E+00
 -1     22967 4.53943E+01 4.61391E+01 0.00000E+00
 -1     22968 2.51778E+00 2.04842E+01 0.00000E+00
 -1     22969 2.51195E+00 1.94859E+01 0.00000E+00
 -1     22970 3.34625E+00 1.89805E+01 0.00000E+00
 -1     22971 3.36552E+00 2.09764E+01 0.00000E+00
 -1     22972 3.42423E+01 3.49281E+01 0.00000E+00
 -1     22973 3.49713E+01 3.55941E+01 0.00000E+00
 -1     22974 3.47548E+01 3.65677E+01 0.00000E+00
 -1     22975 3.32916E+01 3.52382E+01 0.00000E+00
 -1     22976 3.13390E+01 3.22533E+01 0.00000E+00
 -1     22977 3.20637E+01 3.29225E+01 0.00000E+00
 -1     22978 3.18393E+01 3.39001E+01 0.00000E+00
 -1     22979 3.03946E+01 3.25551E+01 0.00000E+00
 -1     22980 1.78866E+01 4.72678E+01 0.00000E+00
 -1     22981 1.69622E+01 4.69637E+01 0.00000E+00
 -1     22982 1.86193E+01 4.66094E+01 0.00000E+00
 -1     22983 4.16033E+01 4.17122E+01 0.00000E+00
 -1     22984 4.23460E+01 4.23927E+01 0.00000E+00
 -1     22985 4.06678E+01 4.20379E+01 0.00000E+00
 -1     22986 2.04668E+01 2.22212E+01 0.00000E+00
 -1     22987 2.02601E+01 2.31816E+01 0.00000E+00
 -1     22988 1.97385E+01 2.15567E+01 0.00000E+00
 -1     22989 4.38796E+01 5.32772E+01 0.00000E+00
 -1     22990 2.62799E+01 2.75503E+01 0.00000E+00
 -1     22991 2.60672E+01 2.85136E+01 0.00000E+00
 -1     22992 2.55541E+01 2.68820E+01 0.00000E+00
 -1     22993 2.84498E+01 2.95641E+01 0.00000E+00
 -1     22994 2.91741E+01 3.02344E+01 0.00000E+00
 -1     22995 2.46193E+01 2.71749E+01 0.00000E+00
 -1     22996 2.89537E+01 3.12065E+01 0.00000E+00
 -1     22997 2.26500E+01 2.42146E+01 0.00000E+00
 -1     22998 2.33773E+01 2.48809E+01 0.00000E+00
 -1     22999 1.88018E+01 2.18583E+01 0.00000E+00
 -1     23000 1.68250E+01 1.89085E+01 0.00000E+00
 -1     23001 1.75515E+01 1.95725E+01 0.00000E+00
 -1     23002 1.39323E+01 1.62514E+01 0.00000E+00
 -1     23003 1.46562E+01 1.69179E+01 0.00000E+00
 -1     23004 1.10608E+01 1.35782E+01 0.00000E+00
 -1     23005 1.17743E+01 1.42487E+01 0.00000E+00
 -1     23006 8.24936E+00 1.08730E+01 0.00000E+00
 -1     23007 8.97171E+00 1.15410E+01 0.00000E+00
 -1     23008 2.56575E+00 2.54766E+01 0.00000E+00
 -1     23009 3.41795E+00 2.49686E+01 0.00000E+00
 -1     23010 2.56587E+00 2.64751E+01 0.00000E+00
 -1     23011 5.26480E+00 8.31996E+00 0.00000E+00
 -1     23012 6.02490E+00 8.96083E+00 0.00000E+00
 -1     23013 4.47284E+00 7.72242E+00 0.00000E+00
 -1     23014 2.44400E+00 1.15587E+01 0.00000E+00
 -1     23015 3.29756E+00 1.11007E+01 0.00000E+00
 -1     23016 2.42572E+00 1.25588E+01 0.00000E+00
 -1     23017 2.54500E+00 2.94689E+01 0.00000E+00
 -1     23018 3.40094E+00 2.89633E+01 0.00000E+00
 -1     23019 2.53854E+00 3.04643E+01 0.00000E+00
 -1     23020 6.02882E+00 4.34245E+01 0.00000E+00
 -1     23021 5.91325E+00 4.25140E+01 0.00000E+00
 -1     23022 6.93465E+00 4.37258E+01 0.00000E+00
 -1     23023 2.31690E+01 2.58409E+01 0.00000E+00
 -1     23024 3.41751E+00 2.69668E+01 0.00000E+00
 -1     23025 4.17273E+00 4.18720E+01 0.00000E+00
 -1     23026 2.49157E+00 3.34141E+01 0.00000E+00
 -1     23027 3.34074E+00 3.29095E+01 0.00000E+00
 -1     23028 2.47744E+00 3.43983E+01 0.00000E+00
 -1     23029 5.88406E+00 9.91643E+00 0.00000E+00
 -1     23030 3.37717E+00 3.09481E+01 0.00000E+00
 -1     23031 3.28548E+00 3.48449E+01 0.00000E+00
 -1     23032 2.40630E+00 3.82849E+01 0.00000E+00
 -1     23033 2.40882E+00 3.73034E+01 0.00000E+00
 -1     23034 7.68415E+00 4.30955E+01 0.00000E+00
 -1     23035 1.05454E+01 4.48633E+01 0.00000E+00
 -1     23036 9.63302E+00 4.45690E+01 0.00000E+00
 -1     23037 1.51161E+01 4.63550E+01 0.00000E+00
 -1     23038 1.49265E+01 4.53978E+01 0.00000E+00
 -1     23039 1.60385E+01 4.66605E+01 0.00000E+00
 -1     23040 2.04702E+01 4.72153E+01 0.00000E+00
 -1     23041 1.12761E+01 4.42104E+01 0.00000E+00
 -1     23042 2.80502E+01 5.06287E+01 0.00000E+00
 -1     23043 2.78649E+01 4.96570E+01 0.00000E+00
 -1     23044 2.89714E+01 5.09371E+01 0.00000E+00
 -1     23045 2.52814E+01 4.97108E+01 0.00000E+00
 -1     23046 2.43579E+01 4.94019E+01 0.00000E+00
 -1     23047 2.97052E+01 5.02755E+01 0.00000E+00
 -1     23048 2.41683E+01 4.84334E+01 0.00000E+00
 -1     23049 3.26272E+01 5.22062E+01 0.00000E+00
 -1     23050 3.17114E+01 5.18896E+01 0.00000E+00
 -1     23051 3.63103E+01 5.34424E+01 0.00000E+00
 -1     23052 3.53740E+01 5.31505E+01 0.00000E+00
 -1     23053 3.51590E+01 5.22077E+01 0.00000E+00
 -1     23054 3.70342E+01 5.27449E+01 0.00000E+00
 -1     23055 4.01352E+01 5.44357E+01 0.00000E+00
 -1     23056 3.91767E+01 5.41676E+01 0.00000E+00
 -1     23057 3.89560E+01 5.32007E+01 0.00000E+00
 -1     23058 4.09446E+01 5.36470E+01 0.00000E+00
 -1     23059 1.67697E+01 4.60037E+01 0.00000E+00
 -1     23060 4.52055E+01 4.92866E+01 0.00000E+00
 -1     23061 4.51337E+01 5.03466E+01 0.00000E+00
 -1     23062 4.44798E+01 4.65349E+01 0.00000E+00
 -1     23063 4.31182E+01 4.30865E+01 0.00000E+00
 -1     23064 4.38734E+01 4.37635E+01 0.00000E+00
 -1     23065 7.36821E+00 1.11762E+01 0.00000E+00
 -1     23066 3.22485E+00 1.30741E+01 0.00000E+00
 -1     23067 1.73429E+01 2.05377E+01 0.00000E+00
 -1     23068 4.37614E+01 4.48051E+01 0.00000E+00
 -1     23069 4.40017E+01 5.08956E+01 0.00000E+00
 -1     23070 3.15283E+01 5.09145E+01 0.00000E+00
 -1     23071 4.21915E+01 4.34297E+01 0.00000E+00
 -1     23072 9.47303E+00 4.36475E+01 0.00000E+00
 -1     23073 3.22984E+00 3.67678E+01 0.00000E+00
 -1     23074 8.78369E+00 1.25090E+01 0.00000E+00
 -1     23075 1.15665E+01 1.52211E+01 0.00000E+00
 -1     23076 1.44460E+01 1.78905E+01 0.00000E+00
 -1     23077 1.01623E+01 1.38726E+01 0.00000E+00
 -1     23078 2.75121E+01 2.98580E+01 0.00000E+00
 -1     23079 1.30036E+01 1.65571E+01 0.00000E+00
 -1     23080 2.17159E+01 2.45096E+01 0.00000E+00
 -1     23081 1.58904E+01 1.92168E+01 0.00000E+00
 -1     23082 4.33329E+00 8.70852E+00 0.00000E+00
 -1     23083 3.21389E+00 3.86856E+01 0.00000E+00
 -1     23084 2.60172E+01 4.90455E+01 0.00000E+00
 -1     23085 3.33348E+01 5.15744E+01 0.00000E+00
 -1     23086 4.43328E+01 4.86464E+01 0.00000E+00
 -1     23087 2.80113E+01 3.15031E+01 0.00000E+00
 -1     23088 2.87313E+01 3.21780E+01 0.00000E+00
 -1     23089 1.20782E+01 1.68658E+01 0.00000E+00
 -1     23090 1.27996E+01 1.75335E+01 0.00000E+00
 -1     23091 2.36858E+01 2.74655E+01 0.00000E+00
 -1     23092 2.44102E+01 2.81333E+01 0.00000E+00
 -1     23093 1.49528E+01 1.95305E+01 0.00000E+00
 -1     23094 1.56762E+01 2.01912E+01 0.00000E+00
 -1     23095 1.78680E+01 2.21604E+01 0.00000E+00
 -1     23096 1.85977E+01 2.28208E+01 0.00000E+00
 -1     23097 4.28507E+01 5.29782E+01 0.00000E+00
 -1     23098 4.24243E+00 9.71061E+00 0.00000E+00
 -1     23099 9.22291E+00 1.41761E+01 0.00000E+00
 -1     23100 9.91135E+00 1.48563E+01 0.00000E+00
 -1     23101 2.07859E+01 2.48041E+01 0.00000E+00
 -1     23102 2.15132E+01 2.54692E+01 0.00000E+00
 -1     23103 1.35144E+01 1.82038E+01 0.00000E+00
 -1     23104 1.42354E+01 1.88694E+01 0.00000E+00
 -1     23105 1.40212E+01 1.98439E+01 0.00000E+00
 -1     23106 1.25890E+01 1.85125E+01 0.00000E+00
 -1     23107 1.06365E+01 1.55271E+01 0.00000E+00
 -1     23108 1.13522E+01 1.61953E+01 0.00000E+00
 -1     23109 9.69710E+00 1.58305E+01 0.00000E+00
 -1     23110 3.97971E+00 1.35900E+01 0.00000E+00
 -1     23111 3.99038E+00 1.26021E+01 0.00000E+00
 -1     23112 4.28694E+00 2.54513E+01 0.00000E+00
 -1     23113 4.28113E+00 2.44531E+01 0.00000E+00
 -1     23114 3.99642E+00 3.90919E+01 0.00000E+00
 -1     23115 3.98900E+00 3.81348E+01 0.00000E+00
 -1     23116 1.64056E+01 2.08459E+01 0.00000E+00
 -1     23117 1.71347E+01 2.15061E+01 0.00000E+00
 -1     23118 1.69306E+01 2.24686E+01 0.00000E+00
 -1     23119 1.54680E+01 2.11596E+01 0.00000E+00
 -1     23120 4.10264E+00 3.53089E+01 0.00000E+00
 -1     23121 4.13491E+00 3.43466E+01 0.00000E+00
 -1     23122 4.07262E+00 1.16599E+01 0.00000E+00
 -1     23123 4.13468E+00 1.06744E+01 0.00000E+00
 -1     23124 5.01749E+00 1.02699E+01 0.00000E+00
 -1     23125 4.82749E+00 1.21758E+01 0.00000E+00
 -1     23126 4.24617E+00 2.94596E+01 0.00000E+00
 -1     23127 4.25649E+00 2.84630E+01 0.00000E+00
 -1     23128 4.01898E+00 3.72025E+01 0.00000E+00
 -1     23129 4.04234E+00 3.62418E+01 0.00000E+00
 -1     23130 4.89177E+00 3.57436E+01 0.00000E+00
 -1     23131 4.80150E+00 3.76088E+01 0.00000E+00
 -1     23132 4.25734E+00 2.34582E+01 0.00000E+00
 -1     23133 4.24089E+00 2.24615E+01 0.00000E+00
 -1     23134 5.12633E+00 2.39410E+01 0.00000E+00
 -1     23135 3.22691E+01 5.02564E+01 0.00000E+00
 -1     23136 3.13631E+01 4.99301E+01 0.00000E+00
 -1     23137 6.66333E+00 4.19282E+01 0.00000E+00
 -1     23138 5.78340E+00 4.16237E+01 0.00000E+00
 -1     23139 5.77630E+00 1.08802E+01 0.00000E+00
 -1     23140 2.67534E+01 4.83813E+01 0.00000E+00
 -1     23141 2.58290E+01 4.80755E+01 0.00000E+00
 -1     23142 2.22370E+01 2.61340E+01 0.00000E+00
 -1     23143 2.29628E+01 2.68002E+01 0.00000E+00
 -1     23144 2.27537E+01 2.77585E+01 0.00000E+00
 -1     23145 2.13070E+01 2.64284E+01 0.00000E+00
 -1     23146 4.08103E+00 4.09622E+01 0.00000E+00
 -1     23147 4.03562E+00 4.00162E+01 0.00000E+00
 -1     23148 4.81072E+00 3.94655E+01 0.00000E+00
 -1     23149 4.94162E+00 4.12997E+01 0.00000E+00
 -1     23150 1.56493E+01 4.47406E+01 0.00000E+00
 -1     23151 1.47298E+01 4.44379E+01 0.00000E+00
 -1     23152 1.93513E+01 4.59496E+01 0.00000E+00
 -1     23153 1.84252E+01 4.56471E+01 0.00000E+00
 -1     23154 2.49039E+01 4.77684E+01 0.00000E+00
 -1     23155 2.39794E+01 4.74622E+01 0.00000E+00
 -1     23156 2.56401E+01 4.71043E+01 0.00000E+00
 -1     23157 2.30558E+01 4.71564E+01 0.00000E+00
 -1     23158 2.21314E+01 4.68521E+01 0.00000E+00
 -1     23159 2.37914E+01 4.64914E+01 0.00000E+00
 -1     23160 4.33731E+01 5.00082E+01 0.00000E+00
 -1     23161 4.31097E+01 5.11942E+01 0.00000E+00
 -1     23162 4.27216E+00 2.74591E+01 0.00000E+00
 -1     23163 4.27842E+00 2.64591E+01 0.00000E+00
 -1     23164 5.14159E+00 2.59436E+01 0.00000E+00
 -1     23165 5.11739E+00 2.79554E+01 0.00000E+00
 -1     23166 2.12050E+01 4.65515E+01 0.00000E+00
 -1     23167 2.02801E+01 4.62481E+01 0.00000E+00
 -1     23168 2.00860E+01 4.52859E+01 0.00000E+00
 -1     23169 2.19413E+01 4.58849E+01 0.00000E+00
 -1     23170 3.04504E+01 4.96053E+01 0.00000E+00
 -1     23171 2.95333E+01 4.92926E+01 0.00000E+00
 -1     23172 3.11912E+01 4.89472E+01 0.00000E+00
 -1     23173 1.74970E+01 4.53470E+01 0.00000E+00
 -1     23174 1.65733E+01 4.50438E+01 0.00000E+00
 -1     23175 1.63765E+01 4.40839E+01 0.00000E+00
 -1     23176 1.82289E+01 4.46873E+01 0.00000E+00
 -1     23177 3.82302E+01 4.09434E+01 0.00000E+00
 -1     23178 3.89695E+01 4.16419E+01 0.00000E+00
 -1     23179 1.93302E+01 2.34790E+01 0.00000E+00
 -1     23180 2.00588E+01 2.41419E+01 0.00000E+00
 -1     23181 1.83964E+01 2.37811E+01 0.00000E+00
 -1     23182 4.36399E+01 4.58583E+01 0.00000E+00
 -1     23183 4.35607E+01 4.69066E+01 0.00000E+00
 -1     23184 1.01992E+01 4.29864E+01 0.00000E+00
 -1     23185 9.30125E+00 4.27114E+01 0.00000E+00
 -1     23186 2.51332E+01 2.88021E+01 0.00000E+00
 -1     23187 2.58566E+01 2.94730E+01 0.00000E+00
 -1     23188 2.41996E+01 2.90927E+01 0.00000E+00
 -1     23189 6.51596E+00 1.14472E+01 0.00000E+00
 -1     23190 7.24129E+00 1.20966E+01 0.00000E+00
 -1     23191 5.64939E+00 1.18006E+01 0.00000E+00
 -1     23192 3.97210E+01 4.23615E+01 0.00000E+00
 -1     23193 4.04725E+01 4.30595E+01 0.00000E+00
 -1     23194 3.87741E+01 4.26636E+01 0.00000E+00
 -1     23195 1.38136E+01 4.41355E+01 0.00000E+00
 -1     23196 1.29007E+01 4.38371E+01 0.00000E+00
 -1     23197 1.45363E+01 4.34783E+01 0.00000E+00
 -1     23198 4.12594E+01 4.37775E+01 0.00000E+00
 -1     23199 4.20316E+01 4.44713E+01 0.00000E+00
 -1     23200 4.03125E+01 4.41011E+01 0.00000E+00
 -1     23201 4.17572E+00 3.33943E+01 0.00000E+00
 -1     23202 4.19871E+00 3.24212E+01 0.00000E+00
 -1     23203 4.99288E+00 3.38583E+01 0.00000E+00
 -1     23204 1.19946E+01 4.35425E+01 0.00000E+00
 -1     23205 1.10895E+01 4.32546E+01 0.00000E+00
 -1     23206 1.27141E+01 4.28813E+01 0.00000E+00
 -1     23207 4.21830E+00 3.14433E+01 0.00000E+00
 -1     23208 4.23174E+00 3.04551E+01 0.00000E+00
 -1     23209 5.08730E+00 2.99548E+01 0.00000E+00
 -1     23210 5.05328E+00 3.19282E+01 0.00000E+00
 -1     23211 4.28423E+01 4.51767E+01 0.00000E+00
 -1     23212 1.11482E+01 1.71717E+01 0.00000E+00
 -1     23213 2.94464E+01 3.28579E+01 0.00000E+00
 -1     23214 3.01673E+01 3.35316E+01 0.00000E+00
 -1     23215 2.85040E+01 3.31545E+01 0.00000E+00
 -1     23216 4.18091E+00 1.94604E+01 0.00000E+00
 -1     23217 4.17533E+00 1.84648E+01 0.00000E+00
 -1     23218 3.08865E+01 3.42106E+01 0.00000E+00
 -1     23219 3.16103E+01 3.48818E+01 0.00000E+00
 -1     23220 2.99383E+01 3.45133E+01 0.00000E+00
 -1     23221 1.09177E+01 4.23185E+01 0.00000E+00
 -1     23222 3.74970E+01 4.02310E+01 0.00000E+00
 -1     23223 3.72895E+01 4.12316E+01 0.00000E+00
 -1     23224 3.67604E+01 3.95435E+01 0.00000E+00
 -1     23225 4.26237E+01 4.72907E+01 0.00000E+00
 -1     23226 4.34635E+01 4.79673E+01 0.00000E+00
 -1     23227 4.25353E+01 5.19509E+01 0.00000E+00
 -1     23228 4.16478E+01 5.28476E+01 0.00000E+00
 -1     23229 1.98561E+01 2.51015E+01 0.00000E+00
 -1     23230 2.65754E+01 3.01494E+01 0.00000E+00
 -1     23231 2.72969E+01 3.08230E+01 0.00000E+00
 -1     23232 4.03277E+00 1.45574E+01 0.00000E+00
 -1     23233 4.79830E+00 1.40854E+01 0.00000E+00
 -1     23234 4.06820E+00 1.55397E+01 0.00000E+00
 -1     23235 7.53156E+00 4.21929E+01 0.00000E+00
 -1     23236 7.40171E+00 4.13026E+01 0.00000E+00
 -1     23237 8.42252E+00 4.24699E+01 0.00000E+00
 -1     23238 3.31548E+01 5.06094E+01 0.00000E+00
 -1     23239 3.29896E+01 4.96250E+01 0.00000E+00
 -1     23240 3.40553E+01 5.09430E+01 0.00000E+00
 -1     23241 3.23353E+01 3.55551E+01 0.00000E+00
 -1     23242 3.30637E+01 3.62220E+01 0.00000E+00
 -1     23243 3.13825E+01 3.58656E+01 0.00000E+00
 -1     23244 7.91123E+00 1.27799E+01 0.00000E+00
 -1     23245 8.60138E+00 1.34633E+01 0.00000E+00
 -1     23246 3.37993E+01 3.68860E+01 0.00000E+00
 -1     23247 3.45340E+01 3.75485E+01 0.00000E+00
 -1     23248 3.28430E+01 3.72029E+01 0.00000E+00
 -1     23249 4.19055E+00 1.74691E+01 0.00000E+00
 -1     23250 4.16274E+00 1.64899E+01 0.00000E+00
 -1     23251 4.94590E+00 1.60030E+01 0.00000E+00
 -1     23252 5.02521E+00 1.79490E+01 0.00000E+00
 -1     23253 5.69170E+00 4.07138E+01 0.00000E+00
 -1     23254 4.19101E+01 4.55245E+01 0.00000E+00
 -1     23255 2.76824E+01 4.86830E+01 0.00000E+00
 -1     23256 2.74942E+01 4.77130E+01 0.00000E+00
 -1     23257 2.86057E+01 4.89887E+01 0.00000E+00
 -1     23258 4.33958E+01 4.90306E+01 0.00000E+00
 -1     23259 4.25038E+01 4.93292E+01 0.00000E+00
 -1     23260 3.77100E+01 5.20792E+01 0.00000E+00
 -1     23261 3.67584E+01 5.18417E+01 0.00000E+00
 -1     23262 3.58390E+01 5.16048E+01 0.00000E+00
 -1     23263 3.49153E+01 5.13051E+01 0.00000E+00
 -1     23264 3.47353E+01 5.03401E+01 0.00000E+00
 -1     23265 3.65148E+01 5.09391E+01 0.00000E+00
 -1     23266 2.70745E+01 3.17945E+01 0.00000E+00
 -1     23267 9.14866E+00 4.18088E+01 0.00000E+00
 -1     23268 2.56414E+01 3.04380E+01 0.00000E+00
 -1     23269 4.20045E+00 2.14635E+01 0.00000E+00
 -1     23270 4.18675E+00 2.04631E+01 0.00000E+00
 -1     23271 5.01583E+00 1.99475E+01 0.00000E+00
 -1     23272 5.06211E+00 2.19482E+01 0.00000E+00
 -1     23273 4.06293E+01 5.26196E+01 0.00000E+00
 -1     23274 8.35044E+00 1.44470E+01 0.00000E+00
 -1     23275 7.05898E+00 1.30509E+01 0.00000E+00
 -1     23276 3.86684E+01 5.21896E+01 0.00000E+00
 -1     23277 3.83927E+01 5.12864E+01 0.00000E+00
 -1     23278 3.96386E+01 5.24079E+01 0.00000E+00
 -1     23279 2.93509E+01 4.83185E+01 0.00000E+00
 -1     23280 4.17808E+01 4.66040E+01 0.00000E+00
 -1     23281 4.16836E+01 4.76648E+01 0.00000E+00
 -1     23282 7.30688E+00 1.47481E+01 0.00000E+00
 -1     23283 7.92841E+00 1.54609E+01 0.00000E+00
 -1     23284 1.89346E+01 2.53973E+01 0.00000E+00
 -1     23285 1.96617E+01 2.60595E+01 0.00000E+00
 -1     23286 5.57571E+00 3.98480E+01 0.00000E+00
 -1     23287 5.53651E+00 3.89236E+01 0.00000E+00
 -1     23288 6.41749E+00 4.01720E+01 0.00000E+00
 -1     23289 2.47106E+01 3.07175E+01 0.00000E+00
 -1     23290 2.54293E+01 3.13940E+01 0.00000E+00
 -1     23291 4.03417E+01 5.16085E+01 0.00000E+00
 -1     23292 6.03005E+00 2.43978E+01 0.00000E+00
 -1     23293 6.00627E+00 2.34030E+01 0.00000E+00
 -1     23294 5.56714E+00 1.27428E+01 0.00000E+00
 -1     23295 3.52808E+01 3.81987E+01 0.00000E+00
 -1     23296 3.60183E+01 3.88675E+01 0.00000E+00
 -1     23297 3.43253E+01 3.85170E+01 0.00000E+00
 -1     23298 8.75668E+00 1.61409E+01 0.00000E+00
 -1     23299 9.48181E+00 1.68116E+01 0.00000E+00
 -1     23300 7.71312E+00 1.64420E+01 0.00000E+00
 -1     23301 3.37565E+01 4.89834E+01 0.00000E+00
 -1     23302 3.28707E+01 4.86304E+01 0.00000E+00
 -1     23303 2.63743E+01 4.64412E+01 0.00000E+00
 -1     23304 2.54492E+01 4.61341E+01 0.00000E+00
 -1     23305 3.19546E+01 4.82709E+01 0.00000E+00
 -1     23306 3.10420E+01 4.79461E+01 0.00000E+00
 -1     23307 3.27215E+01 4.76293E+01 0.00000E+00
 -1     23308 2.45320E+01 4.58190E+01 0.00000E+00
 -1     23309 2.36084E+01 4.55132E+01 0.00000E+00
 -1     23310 2.52662E+01 4.51559E+01 0.00000E+00
 -1     23311 2.61366E+01 3.20841E+01 0.00000E+00
 -1     23312 2.68510E+01 3.27642E+01 0.00000E+00
 -1     23313 2.52058E+01 3.23637E+01 0.00000E+00
 -1     23314 4.09700E+01 4.58986E+01 0.00000E+00
 -1     23315 1.16132E+01 4.16234E+01 0.00000E+00
 -1     23316 1.07229E+01 4.13552E+01 0.00000E+00
 -1     23317 3.01020E+01 4.76392E+01 0.00000E+00
 -1     23318 2.91744E+01 4.73354E+01 0.00000E+00
 -1     23319 3.08655E+01 4.69629E+01 0.00000E+00
 -1     23320 9.84631E+00 4.11185E+01 0.00000E+00
 -1     23321 8.96758E+00 4.08770E+01 0.00000E+00
 -1     23322 1.05418E+01 4.04234E+01 0.00000E+00
 -1     23323 1.02356E+01 1.74777E+01 0.00000E+00
 -1     23324 1.09616E+01 1.81481E+01 0.00000E+00
 -1     23325 9.29519E+00 1.77880E+01 0.00000E+00
 -1     23326 3.58143E+01 3.98431E+01 0.00000E+00
 -1     23327 3.77882E+01 4.29649E+01 0.00000E+00
 -1     23328 3.85397E+01 4.36845E+01 0.00000E+00
 -1     23329 2.82327E+01 4.70476E+01 0.00000E+00
 -1     23330 2.73037E+01 4.67459E+01 0.00000E+00
 -1     23331 2.71128E+01 4.57758E+01 0.00000E+00
 -1     23332 2.89839E+01 4.63683E+01 0.00000E+00
 -1     23333 1.52492E+01 4.28198E+01 0.00000E+00
 -1     23334 1.43330E+01 4.25174E+01 0.00000E+00
 -1     23335 3.93612E+01 4.44154E+01 0.00000E+00
 -1     23336 4.01481E+01 4.51334E+01 0.00000E+00
 -1     23337 3.83753E+01 4.47167E+01 0.00000E+00
 -1     23338 5.82707E+00 3.43545E+01 0.00000E+00
 -1     23339 5.86788E+00 3.34022E+01 0.00000E+00
 -1     23340 1.34187E+01 4.22100E+01 0.00000E+00
 -1     23341 1.25126E+01 4.19155E+01 0.00000E+00
 -1     23342 1.41316E+01 4.15516E+01 0.00000E+00
 -1     23343 5.43944E+00 1.35775E+01 0.00000E+00
 -1     23344 6.26134E+00 1.32023E+01 0.00000E+00
 -1     23345 6.93127E+00 1.38857E+01 0.00000E+00
 -1     23346 5.49250E+00 1.45450E+01 0.00000E+00
 -1     23347 3.33701E+01 3.88530E+01 0.00000E+00
 -1     23348 3.41169E+01 3.95031E+01 0.00000E+00
 -1     23349 5.95841E+00 2.84582E+01 0.00000E+00
 -1     23350 5.97409E+00 2.74543E+01 0.00000E+00
 -1     23351 2.75546E+01 3.34507E+01 0.00000E+00
 -1     23352 2.82697E+01 3.41306E+01 0.00000E+00
 -1     23353 2.66167E+01 3.37403E+01 0.00000E+00
 -1     23354 1.61738E+01 4.31257E+01 0.00000E+00
 -1     23355 1.59705E+01 4.21648E+01 0.00000E+00
 -1     23356 1.70978E+01 4.34289E+01 0.00000E+00
 -1     23357 1.82030E+01 2.47402E+01 0.00000E+00
 -1     23358 1.80086E+01 2.56982E+01 0.00000E+00
 -1     23359 1.74704E+01 2.40820E+01 0.00000E+00
 -1     23360 4.19067E+01 5.10636E+01 0.00000E+00
 -1     23361 3.71248E+01 5.03978E+01 0.00000E+00
 -1     23362 3.62053E+01 5.01609E+01 0.00000E+00
 -1     23363 2.03820E+01 2.67229E+01 0.00000E+00
 -1     23364 2.11057E+01 2.73877E+01 0.00000E+00
 -1     23365 1.94604E+01 2.70188E+01 0.00000E+00
 -1     23366 1.45307E+01 2.14826E+01 0.00000E+00
 -1     23367 1.52600E+01 2.21372E+01 0.00000E+00
 -1     23368 1.16673E+01 1.88304E+01 0.00000E+00
 -1     23369 1.23822E+01 1.95007E+01 0.00000E+00
 -1     23370 1.07547E+01 1.91364E+01 0.00000E+00
 -1     23371 5.80867E+00 2.04315E+01 0.00000E+00
 -1     23372 5.80283E+00 1.94288E+01 0.00000E+00
 -1     23373 3.26123E+01 3.82022E+01 0.00000E+00
 -1     23374 3.24038E+01 3.91883E+01 0.00000E+00
 -1     23375 3.18767E+01 3.75382E+01 0.00000E+00
 -1     23376 2.39924E+01 3.00459E+01 0.00000E+00
 -1     23377 2.37803E+01 3.10019E+01 0.00000E+00
 -1     23378 2.32694E+01 2.93771E+01 0.00000E+00
 -1     23379 1.30820E+01 2.01719E+01 0.00000E+00
 -1     23380 1.37994E+01 2.08330E+01 0.00000E+00
 -1     23381 1.21603E+01 2.04898E+01 0.00000E+00
 -1     23382 2.26814E+01 4.52124E+01 0.00000E+00
 -1     23383 2.17550E+01 4.49118E+01 0.00000E+00
 -1     23384 2.34221E+01 4.45401E+01 0.00000E+00
 -1     23385 6.01101E+00 2.54243E+01 0.00000E+00
 -1     23386 6.89095E+00 2.48862E+01 0.00000E+00
 -1     23387 6.00249E+00 2.64321E+01 0.00000E+00
 -1     23388 5.93897E+00 2.94675E+01 0.00000E+00
 -1     23389 6.79567E+00 2.89663E+01 0.00000E+00
 -1     23390 5.92455E+00 3.04630E+01 0.00000E+00
 -1     23391 1.59984E+01 2.27792E+01 0.00000E+00
 -1     23392 1.67316E+01 2.34336E+01 0.00000E+00
 -1     23393 1.65382E+01 2.43927E+01 0.00000E+00
 -1     23394 1.50610E+01 2.31022E+01 0.00000E+00
 -1     23395 3.48820E+01 4.01140E+01 0.00000E+00
 -1     23396 3.56241E+01 4.07900E+01 0.00000E+00
 -1     23397 3.39267E+01 4.04501E+01 0.00000E+00
 -1     23398 4.07062E+01 4.81979E+01 0.00000E+00
 -1     23399 4.15491E+01 4.88846E+01 0.00000E+00
 -1     23400 5.54488E+00 3.80283E+01 0.00000E+00
 -1     23401 5.57486E+00 3.70959E+01 0.00000E+00
 -1     23402 6.30987E+00 3.84108E+01 0.00000E+00
 -1     23403 5.69630E+00 3.62149E+01 0.00000E+00
 -1     23404 5.75659E+00 3.52820E+01 0.00000E+00
 -1     23405 6.63160E+00 3.48258E+01 0.00000E+00
 -1     23406 6.43968E+00 3.66343E+01 0.00000E+00
 -1     23407 8.11602E+00 4.07094E+01 0.00000E+00
 -1     23408 7.24780E+00 4.04446E+01 0.00000E+00
 -1     23409 2.08209E+01 4.46194E+01 0.00000E+00
 -1     23410 1.98921E+01 4.43210E+01 0.00000E+00
 -1     23411 2.15610E+01 4.39470E+01 0.00000E+00
 -1     23412 6.50924E+00 1.48995E+01 0.00000E+00
 -1     23413 3.46090E+01 4.93883E+01 0.00000E+00
 -1     23414 3.44902E+01 4.83937E+01 0.00000E+00
 -1     23415 3.54690E+01 4.97504E+01 0.00000E+00
 -1     23416 2.18253E+01 2.80512E+01 0.00000E+00
 -1     23417 2.25483E+01 2.87165E+01 0.00000E+00
 -1     23418 2.09003E+01 2.83457E+01 0.00000E+00
 -1     23419 4.15264E+01 4.98623E+01 0.00000E+00
 -1     23420 8.81367E+00 4.00190E+01 0.00000E+00
 -1     23421 1.35914E+01 2.18106E+01 0.00000E+00
 -1     23422 4.00187E+01 4.62128E+01 0.00000E+00
 -1     23423 1.23178E+01 4.09521E+01 0.00000E+00
 -1     23424 3.63449E+01 4.15035E+01 0.00000E+00
 -1     23425 3.70780E+01 4.22159E+01 0.00000E+00
 -1     23426 3.68436E+01 4.32368E+01 0.00000E+00
 -1     23427 3.54126E+01 4.17744E+01 0.00000E+00
 -1     23428 1.89573E+01 4.40281E+01 0.00000E+00
 -1     23429 1.80290E+01 4.37280E+01 0.00000E+00
 -1     23430 1.96922E+01 4.33617E+01 0.00000E+00
 -1     23431 3.79640E+01 5.03407E+01 0.00000E+00
 -1     23432 3.76546E+01 4.95625E+01 0.00000E+00
 -1     23433 3.89225E+01 5.04510E+01 0.00000E+00
 -1     23434 2.23410E+01 2.96698E+01 0.00000E+00
 -1     23435 7.13181E+00 3.95788E+01 0.00000E+00
 -1     23436 4.09520E+01 5.06190E+01 0.00000E+00
 -1     23437 5.91268E+00 2.24236E+01 0.00000E+00
 -1     23438 5.87224E+00 2.14256E+01 0.00000E+00
 -1     23439 6.65924E+00 2.09069E+01 0.00000E+00
 -1     23440 6.81640E+00 2.28804E+01 0.00000E+00
 -1     23441 3.99614E+01 5.04072E+01 0.00000E+00
 -1     23442 5.89294E+00 3.24336E+01 0.00000E+00
 -1     23443 5.91253E+00 3.14558E+01 0.00000E+00
 -1     23444 6.76421E+00 3.09685E+01 0.00000E+00
 -1     23445 6.72713E+00 3.29299E+01 0.00000E+00
 -1     23446 2.89828E+01 3.48172E+01 0.00000E+00
 -1     23447 2.97020E+01 3.54962E+01 0.00000E+00
 -1     23448 2.80334E+01 3.51134E+01 0.00000E+00
 -1     23449 3.90708E+01 4.64889E+01 0.00000E+00
 -1     23450 3.98928E+01 4.72541E+01 0.00000E+00
 -1     23451 2.14134E+01 2.99632E+01 0.00000E+00
 -1     23452 2.21346E+01 3.06238E+01 0.00000E+00
 -1     23453 2.94654E+01 3.64906E+01 0.00000E+00
 -1     23454 3.04209E+01 3.61868E+01 0.00000E+00
 -1     23455 5.86810E+00 1.54074E+01 0.00000E+00
 -1     23456 2.85040E+01 3.67961E+01 0.00000E+00
 -1     23457 2.92229E+01 3.74867E+01 0.00000E+00
 -1     23458 9.42576E+00 3.92680E+01 0.00000E+00
 -1     23459 8.57421E+00 3.91004E+01 0.00000E+00
 -1     23460 1.70984E+01 2.59955E+01 0.00000E+00
 -1     23461 1.78300E+01 2.66527E+01 0.00000E+00
 -1     23462 3.97583E+01 4.84740E+01 0.00000E+00
 -1     23463 3.11458E+01 3.68601E+01 0.00000E+00
 -1     23464 6.84351E+00 2.69349E+01 0.00000E+00
 -1     23465 6.80660E+00 1.68468E+01 0.00000E+00
 -1     23466 7.63487E+00 1.75268E+01 0.00000E+00
 -1     23467 5.86918E+00 1.84382E+01 0.00000E+00
 -1     23468 5.88440E+00 1.74424E+01 0.00000E+00
 -1     23469 6.66201E+00 1.89223E+01 0.00000E+00
 -1     23470 7.77897E+00 3.90979E+01 0.00000E+00
 -1     23471 6.94866E+00 3.88253E+01 0.00000E+00
 -1     23472 6.95704E+00 3.79299E+01 0.00000E+00
 -1     23473 8.39107E+00 3.83468E+01 0.00000E+00
 -1     23474 2.60152E+01 4.44804E+01 0.00000E+00
 -1     23475 2.50981E+01 4.41652E+01 0.00000E+00
 -1     23476 3.60790E+01 4.92091E+01 0.00000E+00
 -1     23477 5.96264E+00 1.63576E+01 0.00000E+00
 -1     23478 2.42816E+01 3.26233E+01 0.00000E+00
 -1     23479 2.49889E+01 3.33134E+01 0.00000E+00
 -1     23480 3.16241E+01 4.62495E+01 0.00000E+00
 -1     23481 3.06841E+01 4.59426E+01 0.00000E+00
 -1     23482 1.48324E+01 4.08946E+01 0.00000E+00
 -1     23483 1.39180E+01 4.05872E+01 0.00000E+00
 -1     23484 1.29984E+01 4.02617E+01 0.00000E+00
 -1     23485 1.20989E+01 3.99697E+01 0.00000E+00
 -1     23486 1.36992E+01 3.96047E+01 0.00000E+00
 -1     23487 1.26474E+01 2.21558E+01 0.00000E+00
 -1     23488 1.33787E+01 2.28054E+01 0.00000E+00
 -1     23489 2.28564E+01 3.12693E+01 0.00000E+00
 -1     23490 2.35745E+01 3.19410E+01 0.00000E+00
 -1     23491 2.19288E+01 3.15628E+01 0.00000E+00
 -1     23492 3.09151E+01 3.78594E+01 0.00000E+00
 -1     23493 7.50686E+00 1.84983E+01 0.00000E+00
 -1     23494 8.41337E+00 1.80934E+01 0.00000E+00
 -1     23495 9.16717E+00 1.87594E+01 0.00000E+00
 -1     23496 7.44051E+00 1.94888E+01 0.00000E+00
 -1     23497 7.31758E+00 2.03601E+01 0.00000E+00
 -1     23498 8.16242E+00 1.99361E+01 0.00000E+00
 -1     23499 7.38115E+00 2.13542E+01 0.00000E+00
 -1     23500 1.78263E+01 4.27698E+01 0.00000E+00
 -1     23501 3.29953E+01 4.08424E+01 0.00000E+00
 -1     23502 3.37604E+01 4.14533E+01 0.00000E+00
 -1     23503 1.85492E+01 2.73124E+01 0.00000E+00
 -1     23504 1.92695E+01 2.79758E+01 0.00000E+00
 -1     23505 1.76391E+01 2.76097E+01 0.00000E+00
 -1     23506 2.99235E+01 3.81975E+01 0.00000E+00
 -1     23507 3.06544E+01 3.88756E+01 0.00000E+00
 -1     23508 2.89622E+01 3.85030E+01 0.00000E+00
 -1     23509 7.67589E+00 2.74537E+01 0.00000E+00
 -1     23510 7.70429E+00 2.64315E+01 0.00000E+00
 -1     23511 2.77824E+01 3.60866E+01 0.00000E+00
 -1     23512 2.75399E+01 3.70827E+01 0.00000E+00
 -1     23513 2.70693E+01 3.54000E+01 0.00000E+00
 -1     23514 7.76337E+00 2.53793E+01 0.00000E+00
 -1     23515 7.78240E+00 2.43528E+01 0.00000E+00
 -1     23516 8.59574E+00 2.58981E+01 0.00000E+00
 -1     23517 7.47818E+00 3.53685E+01 0.00000E+00
 -1     23518 7.54865E+00 3.44411E+01 0.00000E+00
 -1     23519 3.14401E+01 3.95685E+01 0.00000E+00
 -1     23520 3.21979E+01 4.02193E+01 0.00000E+00
 -1     23521 3.20317E+01 4.12226E+01 0.00000E+00
 -1     23522 3.04485E+01 3.99067E+01 0.00000E+00
 -1     23523 2.41747E+01 4.38546E+01 0.00000E+00
 -1     23524 2.32477E+01 4.35538E+01 0.00000E+00
 -1     23525 2.49237E+01 4.31790E+01 0.00000E+00
 -1     23526 1.41329E+01 2.34346E+01 0.00000E+00
 -1     23527 1.48712E+01 2.40766E+01 0.00000E+00
 -1     23528 1.31889E+01 2.37798E+01 0.00000E+00
 -1     23529 2.69068E+01 4.48251E+01 0.00000E+00
 -1     23530 2.67387E+01 4.38344E+01 0.00000E+00
 -1     23531 2.78362E+01 4.51298E+01 0.00000E+00
 -1     23532 1.63582E+01 2.53525E+01 0.00000E+00
 -1     23533 1.61796E+01 2.63069E+01 0.00000E+00
 -1     23534 1.56194E+01 2.47041E+01 0.00000E+00
 -1     23535 2.23028E+01 4.32691E+01 0.00000E+00
 -1     23536 2.13687E+01 4.29767E+01 0.00000E+00
 -1     23537 2.30554E+01 4.25836E+01 0.00000E+00
 -1     23538 3.95328E+01 4.94616E+01 0.00000E+00
 -1     23539 1.99801E+01 2.86432E+01 0.00000E+00
 -1     23540 2.06997E+01 2.93067E+01 0.00000E+00
 -1     23541 2.04932E+01 3.02607E+01 0.00000E+00
 -1     23542 1.90689E+01 2.89368E+01 0.00000E+00
 -1     23543 1.57586E+01 4.12095E+01 0.00000E+00
 -1     23544 1.55451E+01 4.02452E+01 0.00000E+00
 -1     23545 1.66832E+01 4.15154E+01 0.00000E+00
 -1     23546 3.69428E+01 4.87904E+01 0.00000E+00
 -1     23547 3.62065E+01 4.83800E+01 0.00000E+00
 -1     23548 3.26178E+01 4.66077E+01 0.00000E+00
 -1     23549 3.24365E+01 4.55873E+01 0.00000E+00
 -1     23550 3.35339E+01 4.69671E+01 0.00000E+00
 -1     23551 2.33577E+01 3.28907E+01 0.00000E+00
 -1     23552 3.53413E+01 4.78132E+01 0.00000E+00
 -1     23553 3.44887E+01 4.74083E+01 0.00000E+00
 -1     23554 3.43850E+01 4.63867E+01 0.00000E+00
 -1     23555 3.62051E+01 4.73945E+01 0.00000E+00
 -1     23556 8.98080E+00 1.97482E+01 0.00000E+00
 -1     23557 9.86262E+00 1.94428E+01 0.00000E+00
 -1     23558 1.05684E+01 2.01251E+01 0.00000E+00
 -1     23559 8.85787E+00 2.06194E+01 0.00000E+00
 -1     23560 1.11862E+01 3.96651E+01 0.00000E+00
 -1     23561 1.03096E+01 3.94284E+01 0.00000E+00
 -1     23562 7.86228E+00 2.32129E+01 0.00000E+00
 -1     23563 7.76869E+00 2.22335E+01 0.00000E+00
 -1     23564 8.42703E+00 2.16866E+01 0.00000E+00
 -1     23565 8.73469E+00 2.37059E+01 0.00000E+00
 -1     23566 2.56648E+01 3.40429E+01 0.00000E+00
 -1     23567 2.63685E+01 3.47294E+01 0.00000E+00
 -1     23568 2.47407E+01 3.43025E+01 0.00000E+00
 -1     23569 2.97278E+01 4.56885E+01 0.00000E+00
 -1     23570 2.87861E+01 4.54008E+01 0.00000E+00
 -1     23571 3.04864E+01 4.49751E+01 0.00000E+00
 -1     23572 1.18667E+01 3.89747E+01 0.00000E+00
 -1     23573 1.00701E+01 3.85097E+01 0.00000E+00
 -1     23574 2.04222E+01 4.26946E+01 0.00000E+00
 -1     23575 1.94874E+01 4.24018E+01 0.00000E+00
 -1     23576 2.11640E+01 4.20168E+01 0.00000E+00
 -1     23577 3.73959E+01 4.50002E+01 0.00000E+00
 -1     23578 3.82174E+01 4.57312E+01 0.00000E+00
 -1     23579 7.57085E+00 3.34574E+01 0.00000E+00
 -1     23580 7.59591E+00 3.24888E+01 0.00000E+00
 -1     23581 8.41743E+00 3.40001E+01 0.00000E+00
 -1     23582 3.80914E+01 4.67724E+01 0.00000E+00
 -1     23583 7.63965E+00 2.84787E+01 0.00000E+00
 -1     23584 8.50042E+00 2.79752E+01 0.00000E+00
 -1     23585 7.62021E+00 2.94879E+01 0.00000E+00
 -1     23586 3.64308E+01 4.42915E+01 0.00000E+00
 -1     23587 3.62729E+01 4.53060E+01 0.00000E+00
 -1     23588 3.57206E+01 4.35425E+01 0.00000E+00
 -1     23589 1.85468E+01 4.21139E+01 0.00000E+00
 -1     23590 1.76157E+01 4.18148E+01 0.00000E+00
 -1     23591 1.74037E+01 4.08595E+01 0.00000E+00
 -1     23592 1.92768E+01 4.14468E+01 0.00000E+00
 -1     23593 9.41275E+00 2.64706E+01 0.00000E+00
 -1     23594 9.47183E+00 2.54184E+01 0.00000E+00
 -1     23595 2.10066E+01 3.18632E+01 0.00000E+00
 -1     23596 2.17284E+01 3.25088E+01 0.00000E+00
 -1     23597 1.12038E+01 2.08349E+01 0.00000E+00
 -1     23598 1.19036E+01 2.15060E+01 0.00000E+00
 -1     23599 3.87194E+01 4.85178E+01 0.00000E+00
 -1     23600 7.59671E+00 3.14905E+01 0.00000E+00
 -1     23601 7.60873E+00 3.04977E+01 0.00000E+00
 -1     23602 8.45271E+00 3.00100E+01 0.00000E+00
 -1     23603 8.44043E+00 3.20180E+01 0.00000E+00
 -1     23604 1.43973E+01 3.89589E+01 0.00000E+00
 -1     23605 1.34776E+01 3.86333E+01 0.00000E+00
 -1     23606 7.21022E+00 3.71579E+01 0.00000E+00
 -1     23607 7.33166E+00 3.62768E+01 0.00000E+00
 -1     23608 8.24871E+00 3.58921E+01 0.00000E+00
 -1     23609 7.84901E+00 3.75724E+01 0.00000E+00
 -1     23610 3.80076E+01 4.77457E+01 0.00000E+00
 -1     23611 3.77821E+01 4.87333E+01 0.00000E+00
 -1     23612 1.05701E+01 3.75612E+01 0.00000E+00
 -1     23613 9.68628E+00 3.74008E+01 0.00000E+00
 -1     23614 1.16909E+01 2.25008E+01 0.00000E+00
 -1     23615 1.07301E+01 2.28785E+01 0.00000E+00
 -1     23616 1.14740E+01 2.35283E+01 0.00000E+00
 -1     23617 3.32100E+01 4.49378E+01 0.00000E+00
 -1     23618 3.22163E+01 4.45796E+01 0.00000E+00
 -1     23619 1.25377E+01 3.82605E+01 0.00000E+00
 -1     23620 1.16249E+01 3.79560E+01 0.00000E+00
 -1     23621 1.32358E+01 3.76146E+01 0.00000E+00
 -1     23622 3.45364E+01 4.19300E+01 0.00000E+00
 -1     23623 3.52573E+01 4.26434E+01 0.00000E+00
 -1     23624 3.36051E+01 4.23223E+01 0.00000E+00
 -1     23625 2.24523E+01 3.31092E+01 0.00000E+00
 -1     23626 2.31594E+01 3.37915E+01 0.00000E+00
 -1     23627 2.15301E+01 3.34096E+01 0.00000E+00
 -1     23628 1.03116E+01 2.11413E+01 0.00000E+00
 -1     23629 3.71541E+01 4.69880E+01 0.00000E+00
 -1     23630 3.62889E+01 4.64212E+01 0.00000E+00
 -1     23631 1.67513E+01 2.78982E+01 0.00000E+00
 -1     23632 1.74705E+01 2.85579E+01 0.00000E+00
 -1     23633 2.57095E+01 4.24746E+01 0.00000E+00
 -1     23634 2.47860E+01 4.21640E+01 0.00000E+00
 -1     23635 2.78389E+01 3.88736E+01 0.00000E+00
 -1     23636 2.85395E+01 3.95844E+01 0.00000E+00
 -1     23637 2.02834E+01 3.12268E+01 0.00000E+00
 -1     23638 2.00830E+01 3.21728E+01 0.00000E+00
 -1     23639 1.95697E+01 3.05703E+01 0.00000E+00
 -1     23640 3.48444E+01 4.36982E+01 0.00000E+00
 -1     23641 2.85802E+01 4.44501E+01 0.00000E+00
 -1     23642 3.10863E+01 4.17630E+01 0.00000E+00
 -1     23643 3.18837E+01 4.23860E+01 0.00000E+00
 -1     23644 1.46913E+01 2.50365E+01 0.00000E+00
 -1     23645 9.88079E+00 2.22085E+01 0.00000E+00
 -1     23646 9.66389E+00 2.32359E+01 0.00000E+00
 -1     23647 1.22651E+01 2.41473E+01 0.00000E+00
 -1     23648 1.30193E+01 2.47765E+01 0.00000E+00
 -1     23649 1.13044E+01 2.45249E+01 0.00000E+00
 -1     23650 2.61174E+01 3.57026E+01 0.00000E+00
 -1     23651 3.19641E+01 4.34282E+01 0.00000E+00
 -1     23652 3.29094E+01 4.28878E+01 0.00000E+00
 -1     23653 2.38100E+01 4.18877E+01 0.00000E+00
 -1     23654 2.28652E+01 4.16029E+01 0.00000E+00
 -1     23655 2.45958E+01 4.11833E+01 0.00000E+00
 -1     23656 1.12411E+01 3.68470E+01 0.00000E+00
 -1     23657 3.53238E+01 4.57125E+01 0.00000E+00
 -1     23658 3.36854E+01 4.33645E+01 0.00000E+00
 -1     23659 1.04010E+01 2.49484E+01 0.00000E+00
 -1     23660 9.58401E+00 2.43759E+01 0.00000E+00
 -1     23661 2.38172E+01 3.45145E+01 0.00000E+00
 -1     23662 2.44931E+01 3.52440E+01 0.00000E+00
 -1     23663 2.29118E+01 3.47330E+01 0.00000E+00
 -1     23664 8.64425E+00 3.75748E+01 0.00000E+00
 -1     23665 3.11906E+01 4.40778E+01 0.00000E+00
 -1     23666 1.60248E+01 2.72556E+01 0.00000E+00
 -1     23667 1.58563E+01 2.82038E+01 0.00000E+00
 -1     23668 1.52847E+01 2.66125E+01 0.00000E+00
 -1     23669 3.02342E+01 4.38237E+01 0.00000E+00
 -1     23670 9.27902E+00 3.45702E+01 0.00000E+00
 -1     23671 9.30122E+00 3.35865E+01 0.00000E+00
 -1     23672 2.18986E+01 4.13377E+01 0.00000E+00
 -1     23673 2.09521E+01 4.10556E+01 0.00000E+00
 -1     23674 2.26532E+01 4.06417E+01 0.00000E+00
 -1     23675 2.73621E+01 3.79847E+01 0.00000E+00
 -1     23676 2.69394E+01 3.90661E+01 0.00000E+00
 -1     23677 2.66404E+01 3.72752E+01 0.00000E+00
 -1     23678 3.43690E+01 4.52714E+01 0.00000E+00
 -1     23679 2.66274E+01 4.28265E+01 0.00000E+00
 -1     23680 2.64897E+01 4.18115E+01 0.00000E+00
 -1     23681 2.75190E+01 4.31713E+01 0.00000E+00
 -1     23682 9.34116E+00 2.74944E+01 0.00000E+00
 -1     23683 1.02173E+01 2.70147E+01 0.00000E+00
 -1     23684 9.30492E+00 2.85194E+01 0.00000E+00
 -1     23685 1.53255E+01 3.92968E+01 0.00000E+00
 -1     23686 1.51039E+01 3.83254E+01 0.00000E+00
 -1     23687 1.62517E+01 3.96117E+01 0.00000E+00
 -1     23688 9.14422E+00 3.66263E+01 0.00000E+00
 -1     23689 1.21332E+01 3.62081E+01 0.00000E+00
 -1     23690 1.10784E+01 3.58133E+01 0.00000E+00
 -1     23691 3.41487E+01 4.42637E+01 0.00000E+00
 -1     23692 9.24541E+00 2.14987E+01 0.00000E+00
 -1     23693 1.37848E+01 2.53791E+01 0.00000E+00
 -1     23694 1.45329E+01 2.60065E+01 0.00000E+00
 -1     23695 1.28610E+01 2.57465E+01 0.00000E+00
 -1     23696 2.53543E+01 4.04680E+01 0.00000E+00
 -1     23697 2.43783E+01 4.01917E+01 0.00000E+00
 -1     23698 9.29073E+00 3.57180E+01 0.00000E+00
 -1     23699 1.81643E+01 2.92315E+01 0.00000E+00
 -1     23700 1.88748E+01 2.98989E+01 0.00000E+00
 -1     23701 1.86651E+01 3.08650E+01 0.00000E+00
 -1     23702 1.72765E+01 2.95200E+01 0.00000E+00
 -1     23703 1.11922E+01 2.55674E+01 0.00000E+00
 -1     23704 2.94731E+01 4.02214E+01 0.00000E+00
 -1     23705 3.02589E+01 4.09143E+01 0.00000E+00
 -1     23706 3.01109E+01 4.20777E+01 0.00000E+00
 -1     23707 2.83499E+01 4.05920E+01 0.00000E+00
 -1     23708 2.06372E+01 3.37559E+01 0.00000E+00
 -1     23709 2.13612E+01 3.43564E+01 0.00000E+00
 -1     23710 2.99609E+01 4.29758E+01 0.00000E+00
 -1     23711 2.92567E+01 4.38731E+01 0.00000E+00
 -1     23712 2.83068E+01 4.36022E+01 0.00000E+00
 -1     23713 2.91334E+01 4.21271E+01 0.00000E+00
 -1     23714 1.01745E+01 3.53044E+01 0.00000E+00
 -1     23715 2.50696E+01 3.61298E+01 0.00000E+00
 -1     23716 2.57704E+01 3.68004E+01 0.00000E+00
 -1     23717 2.55926E+01 3.77024E+01 0.00000E+00
 -1     23718 2.41461E+01 3.63418E+01 0.00000E+00
 -1     23719 1.10667E+01 3.46655E+01 0.00000E+00
 -1     23720 1.98949E+01 3.31565E+01 0.00000E+00
 -1     23721 1.97259E+01 3.41033E+01 0.00000E+00
 -1     23722 1.91717E+01 3.25202E+01 0.00000E+00
 -1     23723 1.40016E+01 3.69958E+01 0.00000E+00
 -1     23724 1.30617E+01 3.66230E+01 0.00000E+00
 -1     23725 1.28990E+01 3.55893E+01 0.00000E+00
 -1     23726 1.43782E+01 2.69551E+01 0.00000E+00
 -1     23727 9.27466E+00 3.25543E+01 0.00000E+00
 -1     23728 9.27545E+00 3.15560E+01 0.00000E+00
 -1     23729 1.01362E+01 3.31244E+01 0.00000E+00
 -1     23730 9.26511E+00 3.05435E+01 0.00000E+00
 -1     23731 9.27659E+00 2.95338E+01 0.00000E+00
 -1     23732 1.01173E+01 2.90529E+01 0.00000E+00
 -1     23733 1.00993E+01 3.10798E+01 0.00000E+00
 -1     23734 1.49963E+01 2.84783E+01 0.00000E+00
 -1     23735 1.57228E+01 2.91210E+01 0.00000E+00
 -1     23736 2.57997E+01 3.88268E+01 0.00000E+00
 -1     23737 2.62766E+01 3.97157E+01 0.00000E+00
 -1     23738 2.33989E+01 3.99304E+01 0.00000E+00
 -1     23739 2.24323E+01 3.96651E+01 0.00000E+00
 -1     23740 2.41575E+01 3.92151E+01 0.00000E+00
 -1     23741 1.64006E+01 2.97945E+01 0.00000E+00
 -1     23742 1.70944E+01 3.04681E+01 0.00000E+00
 -1     23743 1.55407E+01 3.00690E+01 0.00000E+00
 -1     23744 2.20738E+01 3.48111E+01 0.00000E+00
 -1     23745 2.27316E+01 3.55341E+01 0.00000E+00
 -1     23746 2.11809E+01 3.51574E+01 0.00000E+00
 -1     23747 1.18953E+01 3.41516E+01 0.00000E+00
 -1     23748 1.09914E+01 3.36427E+01 0.00000E+00
 -1     23749 1.10743E+01 2.65655E+01 0.00000E+00
 -1     23750 1.19777E+01 2.61420E+01 0.00000E+00
 -1     23751 1.27431E+01 2.67446E+01 0.00000E+00
 -1     23752 1.10027E+01 2.75893E+01 0.00000E+00
 -1     23753 2.81955E+01 4.25943E+01 0.00000E+00
 -1     23754 1.09648E+01 3.26105E+01 0.00000E+00
 -1     23755 1.99917E+01 4.07813E+01 0.00000E+00
 -1     23756 1.90511E+01 4.04934E+01 0.00000E+00
 -1     23757 2.07263E+01 4.01022E+01 0.00000E+00
 -1     23758 1.81128E+01 4.02087E+01 0.00000E+00
 -1     23759 1.71803E+01 3.99093E+01 0.00000E+00
 -1     23760 1.69607E+01 3.89609E+01 0.00000E+00
 -1     23761 1.88277E+01 3.95432E+01 0.00000E+00
 -1     23762 1.48822E+01 3.73952E+01 0.00000E+00
 -1     23763 1.47080E+01 3.64035E+01 0.00000E+00
 -1     23764 1.58103E+01 3.77330E+01 0.00000E+00
 -1     23765 2.64940E+01 4.07073E+01 0.00000E+00
 -1     23766 2.74120E+01 4.10592E+01 0.00000E+00
 -1     23767 1.77376E+01 3.11688E+01 0.00000E+00
 -1     23768 1.84324E+01 3.18401E+01 0.00000E+00
 -1     23769 1.68617E+01 3.14432E+01 0.00000E+00
 -1     23770 1.35056E+01 2.73102E+01 0.00000E+00
 -1     23771 1.42573E+01 2.79162E+01 0.00000E+00
 -1     23772 1.41238E+01 2.88333E+01 0.00000E+00
 -1     23773 1.26222E+01 2.77057E+01 0.00000E+00
 -1     23774 2.83456E+01 4.16962E+01 0.00000E+00
 -1     23775 2.49297E+01 3.83520E+01 0.00000E+00
 -1     23776 1.28060E+01 3.45897E+01 0.00000E+00
 -1     23777 1.27307E+01 3.35668E+01 0.00000E+00
 -1     23778 1.37345E+01 3.50046E+01 0.00000E+00
 -1     23779 1.17621E+01 3.21263E+01 0.00000E+00
 -1     23780 1.09070E+01 3.16081E+01 0.00000E+00
 -1     23781 1.82442E+01 3.28239E+01 0.00000E+00
 -1     23782 2.39503E+01 3.80907E+01 0.00000E+00
 -1     23783 1.33022E+01 2.92168E+01 0.00000E+00
 -1     23784 1.40412E+01 2.97790E+01 0.00000E+00
 -1     23785 1.88558E+01 3.46059E+01 0.00000E+00
 -1     23786 1.95982E+01 3.52053E+01 0.00000E+00
 -1     23787 1.08966E+01 3.05956E+01 0.00000E+00
 -1     23788 2.05411E+01 3.56798E+01 0.00000E+00
 -1     23789 2.12538E+01 3.61345E+01 0.00000E+00
 -1     23790 1.96710E+01 3.61824E+01 0.00000E+00
 -1     23791 2.30714E+01 3.63046E+01 0.00000E+00
 -1     23792 2.36479E+01 3.71904E+01 0.00000E+00
 -1     23793 2.28756E+01 3.80535E+01 0.00000E+00
 -1     23794 2.22334E+01 3.63827E+01 0.00000E+00
 -1     23795 1.09280E+01 2.85817E+01 0.00000E+00
 -1     23796 1.17851E+01 2.81325E+01 0.00000E+00
 -1     23797 1.25476E+01 2.86980E+01 0.00000E+00
 -1     23798 1.08997E+01 2.95961E+01 0.00000E+00
 -1     23799 1.80755E+01 3.37777E+01 0.00000E+00
 -1     23800 1.79478E+01 3.48797E+01 0.00000E+00
 -1     23801 1.73361E+01 3.30977E+01 0.00000E+00
 -1     23802 1.24650E+01 2.96436E+01 0.00000E+00
 -1     23803 1.54885E+01 3.58264E+01 0.00000E+00
 -1     23804 1.46080E+01 3.54271E+01 0.00000E+00
 -1     23805 1.17073E+01 3.01243E+01 0.00000E+00
 -1     23806 1.35044E+01 3.30558E+01 0.00000E+00
 -1     23807 1.25937E+01 3.26177E+01 0.00000E+00
 -1     23808 1.45149E+01 3.44274E+01 0.00000E+00
 -1     23809 2.21798E+01 3.87277E+01 0.00000E+00
 -1     23810 2.14341E+01 3.94390E+01 0.00000E+00
 -1     23811 1.47417E+01 3.02295E+01 0.00000E+00
 -1     23812 1.54196E+01 3.09030E+01 0.00000E+00
 -1     23813 1.39202E+01 3.06130E+01 0.00000E+00
 -1     23814 1.25358E+01 3.16152E+01 0.00000E+00
 -1     23815 2.04738E+01 3.91647E+01 0.00000E+00
 -1     23816 2.18773E+01 3.78274E+01 0.00000E+00
 -1     23817 1.58261E+01 3.17487E+01 0.00000E+00
 -1     23818 1.64693E+01 3.24493E+01 0.00000E+00
 -1     23819 1.63006E+01 3.34031E+01 0.00000E+00
 -1     23820 1.50272E+01 3.19091E+01 0.00000E+00
 -1     23821 1.76637E+01 3.83241E+01 0.00000E+00
 -1     23822 1.67351E+01 3.80265E+01 0.00000E+00
 -1     23823 1.95142E+01 3.88647E+01 0.00000E+00
 -1     23824 1.85759E+01 3.85800E+01 0.00000E+00
 -1     23825 1.83502E+01 3.76456E+01 0.00000E+00
 -1     23826 2.02219E+01 3.82015E+01 0.00000E+00
 -1     23827 1.65133E+01 3.70963E+01 0.00000E+00
 -1     23828 1.32935E+01 3.11345E+01 0.00000E+00
 -1     23829 1.24619E+01 3.06432E+01 0.00000E+00
 -1     23830 1.62411E+01 3.62772E+01 0.00000E+00
 -1     23831 1.61411E+01 3.53008E+01 0.00000E+00
 -1     23832 1.54111E+01 3.38023E+01 0.00000E+00
 -1     23833 1.45376E+01 3.33798E+01 0.00000E+00
 -1     23834 1.71659E+01 3.65707E+01 0.00000E+00
 -1     23835 2.08977E+01 3.75792E+01 0.00000E+00
 -1     23836 1.99381E+01 3.72792E+01 0.00000E+00
 -1     23837 2.15935E+01 3.69051E+01 0.00000E+00
 -1     23838 1.89952E+01 3.68047E+01 0.00000E+00
 -1     23839 1.80831E+01 3.65488E+01 0.00000E+00
 -1     23840 1.70305E+01 3.49016E+01 0.00000E+00
 -1     23841 1.62779E+01 3.44507E+01 0.00000E+00
 -1     23842 1.44006E+01 3.24306E+01 0.00000E+00
 -1     23843 1.78109E+01 3.57297E+01 0.00000E+00
 -1     23844 1.39940E+01 3.15850E+01 0.00000E+00
 -1     23845 7.27273E-01 1.66667E+00 5.00000E+00
 -1     23846 3.21344E+00 4.35583E+00 5.00000E+00
 -1     23847 2.48616E+00 3.68916E+00 5.00000E+00
 -1     23848 6.32131E+00 6.93210E+00 5.00000E+00
 -1     23849 5.59403E+00 6.26544E+00 5.00000E+00
 -1     23850 9.14199E+00 9.67244E+00 5.00000E+00
 -1     23851 8.41472E+00 9.00577E+00 5.00000E+00
 -1     23852 1.21140E+01 1.23248E+01 5.00000E+00
 -1     23853 1.13868E+01 1.16581E+01 5.00000E+00
 -1     23854 1.50496E+01 1.49807E+01 5.00000E+00
 -1     23855 1.43223E+01 1.43141E+01 5.00000E+00
 -1     23856 1.79645E+01 1.76375E+01 5.00000E+00
 -1     23857 1.72372E+01 1.69708E+01 5.00000E+00
 -1     23858 2.08771E+01 2.02979E+01 5.00000E+00
 -1     23859 2.01498E+01 1.96312E+01 5.00000E+00
 -1     23860 2.37846E+01 2.29659E+01 5.00000E+00
 -1     23861 2.30573E+01 2.22993E+01 5.00000E+00
 -1     23862 2.66890E+01 2.56359E+01 5.00000E+00
 -1     23863 2.59617E+01 2.49692E+01 5.00000E+00
 -1     23864 2.95974E+01 2.83016E+01 5.00000E+00
 -1     23865 2.88701E+01 2.76349E+01 5.00000E+00
 -1     23866 3.25105E+01 3.09687E+01 5.00000E+00
 -1     23867 3.17832E+01 3.03021E+01 5.00000E+00
 -1     23868 3.54212E+01 3.36433E+01 5.00000E+00
 -1     23869 3.46939E+01 3.29766E+01 5.00000E+00
 -1     23870 3.83302E+01 3.63171E+01 5.00000E+00
 -1     23871 3.76029E+01 3.56504E+01 5.00000E+00
 -1     23872 4.12474E+01 3.89848E+01 5.00000E+00
 -1     23873 4.05201E+01 3.83181E+01 5.00000E+00
 -1     23874 4.41614E+01 4.17033E+01 5.00000E+00
 -1     23875 4.34341E+01 4.10366E+01 5.00000E+00
 -1     23876 4.71229E+01 4.44093E+01 5.00000E+00
 -1     23877 4.63957E+01 4.37426E+01 5.00000E+00
 -1     23878 4.71229E+01 4.54093E+01 5.00000E+00
 -1     23879 4.70477E+01 4.74688E+01 5.00000E+00
 -1     23880 4.70477E+01 4.64688E+01 5.00000E+00
 -1     23881 4.70239E+01 5.15795E+01 5.00000E+00
 -1     23882 4.70239E+01 5.05795E+01 5.00000E+00
 -1     23883 4.70513E+01 5.56510E+01 5.00000E+00
 -1     23884 4.70513E+01 5.46510E+01 5.00000E+00
 -1     23885 4.70769E+01 5.86923E+01 5.00000E+00
 -1     23886 4.33593E+01 5.74230E+01 5.00000E+00
 -1     23887 4.42823E+01 5.77307E+01 5.00000E+00
 -1     23888 3.96342E+01 5.61521E+01 5.00000E+00
 -1     23889 4.05572E+01 5.64598E+01 5.00000E+00
 -1     23890 3.58896E+01 5.49433E+01 5.00000E+00
 -1     23891 3.68127E+01 5.52510E+01 5.00000E+00
 -1     23892 3.21325E+01 5.37781E+01 5.00000E+00
 -1     23893 3.30556E+01 5.40858E+01 5.00000E+00
 -1     23894 2.84245E+01 5.25618E+01 5.00000E+00
 -1     23895 2.93476E+01 5.28695E+01 5.00000E+00
 -1     23896 2.47321E+01 5.13409E+01 5.00000E+00
 -1     23897 2.56552E+01 5.16486E+01 5.00000E+00
 -1     23898 2.10368E+01 5.01181E+01 5.00000E+00
 -1     23899 2.19599E+01 5.04258E+01 5.00000E+00
 -1     23900 1.73455E+01 4.88896E+01 5.00000E+00
 -1     23901 1.82686E+01 4.91973E+01 5.00000E+00
 -1     23902 1.36595E+01 4.76658E+01 5.00000E+00
 -1     23903 1.45826E+01 4.79735E+01 5.00000E+00
 -1     23904 9.98127E+00 4.64526E+01 5.00000E+00
 -1     23905 1.09044E+01 4.67603E+01 5.00000E+00
 -1     23906 6.30983E+00 4.52443E+01 5.00000E+00
 -1     23907 7.23291E+00 4.55519E+01 5.00000E+00
 -1     23908 2.66261E+00 4.40003E+01 5.00000E+00
 -1     23909 3.58569E+00 4.43080E+01 5.00000E+00
 -1     23910 8.55677E-01 4.33591E+01 5.00000E+00
 -1     23911 1.77875E+00 4.36668E+01 5.00000E+00
 -1     23912 2.59521E+00 4.30518E+01 5.00000E+00
 -1     23913 8.55677E-01 4.23591E+01 5.00000E+00
 -1     23914 8.16603E-01 3.84104E+01 5.00000E+00
 -1     23915 8.16603E-01 3.94104E+01 5.00000E+00
 -1     23916 8.34910E-01 3.44486E+01 5.00000E+00
 -1     23917 8.34910E-01 3.54486E+01 5.00000E+00
 -1     23918 8.52013E-01 3.04750E+01 5.00000E+00
 -1     23919 8.52013E-01 3.14750E+01 5.00000E+00
 -1     23920 8.63739E-01 2.64810E+01 5.00000E+00
 -1     23921 8.63739E-01 2.74810E+01 5.00000E+00
 -1     23922 8.65555E-01 2.24799E+01 5.00000E+00
 -1     23923 8.65555E-01 2.34799E+01 5.00000E+00
 -1     23924 8.47862E-01 1.84810E+01 5.00000E+00
 -1     23925 8.47862E-01 1.94810E+01 5.00000E+00
 -1     23926 8.85226E-01 1.44776E+01 5.00000E+00
 -1     23927 8.85226E-01 1.54776E+01 5.00000E+00
 -1     23928 9.03309E-01 1.04854E+01 5.00000E+00
 -1     23929 9.03309E-01 1.14854E+01 5.00000E+00
 -1     23930 9.23373E-01 6.45305E+00 5.00000E+00
 -1     23931 9.23373E-01 7.45305E+00 5.00000E+00
 -1     23932 1.03162E+00 4.35583E+00 5.00000E+00
 -1     23933 1.03162E+00 5.35583E+00 5.00000E+00
 -1     23934 4.61418E+01 5.83683E+01 5.00000E+00
 -1     23935 4.70649E+01 5.76760E+01 5.00000E+00
 -1     23936 2.10857E+00 2.82976E+00 5.00000E+00
 -1     23937 1.38130E+00 2.16309E+00 5.00000E+00
 -1     23938 4.81002E+00 5.65964E+00 5.00000E+00
 -1     23939 4.08275E+00 4.99297E+00 5.00000E+00
 -1     23940 7.74939E+00 8.29895E+00 5.00000E+00
 -1     23941 7.02212E+00 7.63229E+00 5.00000E+00
 -1     23942 1.06290E+01 1.10002E+01 5.00000E+00
 -1     23943 9.90176E+00 1.03336E+01 5.00000E+00
 -1     23944 1.35869E+01 1.36516E+01 5.00000E+00
 -1     23945 1.28596E+01 1.29849E+01 5.00000E+00
 -1     23946 1.65077E+01 1.63090E+01 5.00000E+00
 -1     23947 1.57805E+01 1.56423E+01 5.00000E+00
 -1     23948 1.94211E+01 1.89665E+01 5.00000E+00
 -1     23949 1.86939E+01 1.82999E+01 5.00000E+00
 -1     23950 2.23315E+01 2.16312E+01 5.00000E+00
 -1     23951 2.16042E+01 2.09645E+01 5.00000E+00
 -1     23952 2.52369E+01 2.43010E+01 5.00000E+00
 -1     23953 2.45097E+01 2.36344E+01 5.00000E+00
 -1     23954 2.81425E+01 2.69691E+01 5.00000E+00
 -1     23955 2.74152E+01 2.63024E+01 5.00000E+00
 -1     23956 3.10539E+01 2.96340E+01 5.00000E+00
 -1     23957 3.03267E+01 2.89673E+01 5.00000E+00
 -1     23958 3.39663E+01 3.23050E+01 5.00000E+00
 -1     23959 3.32391E+01 3.16383E+01 5.00000E+00
 -1     23960 3.68753E+01 3.49807E+01 5.00000E+00
 -1     23961 3.61480E+01 3.43140E+01 5.00000E+00
 -1     23962 3.97869E+01 3.76502E+01 5.00000E+00
 -1     23963 3.90596E+01 3.69835E+01 5.00000E+00
 -1     23964 4.27070E+01 4.03316E+01 5.00000E+00
 -1     23965 4.19798E+01 3.96650E+01 5.00000E+00
 -1     23966 4.56204E+01 4.30758E+01 5.00000E+00
 -1     23967 4.48931E+01 4.24092E+01 5.00000E+00
 -1     23968 4.61706E+01 4.58781E+01 5.00000E+00
 -1     23969 4.70198E+01 4.85273E+01 5.00000E+00
 -1     23970 4.60675E+01 4.79961E+01 5.00000E+00
 -1     23971 4.70198E+01 4.95273E+01 5.00000E+00
 -1     23972 4.60437E+01 5.01068E+01 5.00000E+00
 -1     23973 4.70367E+01 5.36197E+01 5.00000E+00
 -1     23974 4.70367E+01 5.26197E+01 5.00000E+00
 -1     23975 6.54024E-01 2.49643E+00 5.00000E+00
 -1     23976 4.70649E+01 5.66760E+01 5.00000E+00
 -1     23977 4.24216E+01 5.70914E+01 5.00000E+00
 -1     23978 4.33194E+01 5.63605E+01 5.00000E+00
 -1     23979 4.14986E+01 5.67837E+01 5.00000E+00
 -1     23980 4.51933E+01 5.70221E+01 5.00000E+00
 -1     23981 4.52187E+01 5.80606E+01 5.00000E+00
 -1     23982 4.14404E+01 5.57051E+01 5.00000E+00
 -1     23983 3.77643E+01 5.55331E+01 5.00000E+00
 -1     23984 3.86873E+01 5.58408E+01 5.00000E+00
 -1     23985 3.40074E+01 5.43657E+01 5.00000E+00
 -1     23986 3.49304E+01 5.46734E+01 5.00000E+00
 -1     23987 3.02737E+01 5.31732E+01 5.00000E+00
 -1     23988 3.11968E+01 5.34809E+01 5.00000E+00
 -1     23989 2.65771E+01 5.19508E+01 5.00000E+00
 -1     23990 2.75001E+01 5.22584E+01 5.00000E+00
 -1     23991 2.28847E+01 5.07283E+01 5.00000E+00
 -1     23992 2.38077E+01 5.10360E+01 5.00000E+00
 -1     23993 1.91903E+01 4.95051E+01 5.00000E+00
 -1     23994 2.01133E+01 4.98128E+01 5.00000E+00
 -1     23995 1.55022E+01 4.82778E+01 5.00000E+00
 -1     23996 1.64253E+01 4.85855E+01 5.00000E+00
 -1     23997 1.18197E+01 4.70592E+01 5.00000E+00
 -1     23998 1.27428E+01 4.73669E+01 5.00000E+00
 -1     23999 8.14295E+00 4.58481E+01 5.00000E+00
 -1     24000 9.06602E+00 4.61557E+01 5.00000E+00
 -1     24001 4.48100E+00 4.46288E+01 5.00000E+00
 -1     24002 5.40408E+00 4.49365E+01 5.00000E+00
 -1     24003 8.45519E-01 3.34661E+01 5.00000E+00
 -1     24004 1.68043E+00 3.39147E+01 5.00000E+00
 -1     24005 8.45519E-01 3.24661E+01 5.00000E+00
 -1     24006 8.25819E-01 4.03886E+01 5.00000E+00
 -1     24007 8.25819E-01 4.13886E+01 5.00000E+00
 -1     24008 8.22691E-01 3.64304E+01 5.00000E+00
 -1     24009 8.22691E-01 3.74304E+01 5.00000E+00
 -1     24010 1.69753E+00 3.19411E+01 5.00000E+00
 -1     24011 1.68150E+00 4.17477E+01 5.00000E+00
 -1     24012 8.57852E-01 2.84803E+01 5.00000E+00
 -1     24013 8.57852E-01 2.94803E+01 5.00000E+00
 -1     24014 8.68685E-01 2.44790E+01 5.00000E+00
 -1     24015 8.68685E-01 2.54790E+01 5.00000E+00
 -1     24016 8.53994E-01 2.04824E+01 5.00000E+00
 -1     24017 8.53994E-01 2.14824E+01 5.00000E+00
 -1     24018 8.59766E-01 1.64786E+01 5.00000E+00
 -1     24019 8.59766E-01 1.74786E+01 5.00000E+00
 -1     24020 9.07915E-01 1.24782E+01 5.00000E+00
 -1     24021 9.07915E-01 1.34782E+01 5.00000E+00
 -1     24022 8.90591E-01 8.48190E+00 5.00000E+00
 -1     24023 8.90591E-01 9.48190E+00 5.00000E+00
 -1     24024 1.95499E+00 5.80888E+00 5.00000E+00
 -1     24025 6.54024E-01 3.49643E+00 5.00000E+00
 -1     24026 4.61162E+01 5.63270E+01 5.00000E+00
 -1     24027 6.07070E+00 7.89772E+00 5.00000E+00
 -1     24028 8.86193E+00 1.06727E+01 5.00000E+00
 -1     24029 1.18828E+01 1.33097E+01 5.00000E+00
 -1     24030 1.48301E+01 1.59564E+01 5.00000E+00
 -1     24031 1.77493E+01 1.86040E+01 5.00000E+00
 -1     24032 2.06631E+01 2.12624E+01 5.00000E+00
 -1     24033 2.35669E+01 2.39336E+01 5.00000E+00
 -1     24034 2.64679E+01 2.66049E+01 5.00000E+00
 -1     24035 2.93786E+01 2.92689E+01 5.00000E+00
 -1     24036 3.22950E+01 3.19404E+01 5.00000E+00
 -1     24037 3.52056E+01 3.46240E+01 5.00000E+00
 -1     24038 3.81171E+01 3.73006E+01 5.00000E+00
 -1     24039 4.10453E+01 3.99831E+01 5.00000E+00
 -1     24040 4.39636E+01 4.27791E+01 5.00000E+00
 -1     24041 4.60606E+01 5.21992E+01 5.00000E+00
 -1     24042 3.95523E+01 5.50698E+01 5.00000E+00
 -1     24043 3.57432E+01 5.39244E+01 5.00000E+00
 -1     24044 3.19447E+01 5.27975E+01 5.00000E+00
 -1     24045 2.82323E+01 5.15895E+01 5.00000E+00
 -1     24046 2.45399E+01 5.03769E+01 5.00000E+00
 -1     24047 2.08425E+01 4.91617E+01 5.00000E+00
 -1     24048 1.71554E+01 4.79366E+01 5.00000E+00
 -1     24049 1.34792E+01 4.67250E+01 5.00000E+00
 -1     24050 9.81653E+00 4.55314E+01 5.00000E+00
 -1     24051 6.17545E+00 4.43346E+01 5.00000E+00
 -1     24052 1.63929E+00 3.78408E+01 5.00000E+00
 -1     24053 1.70986E+00 2.99554E+01 5.00000E+00
 -1     24054 1.73242E+00 2.59600E+01 5.00000E+00
 -1     24055 1.71955E+00 2.19624E+01 5.00000E+00
 -1     24056 1.70763E+00 1.79596E+01 5.00000E+00
 -1     24057 1.79314E+00 1.39558E+01 5.00000E+00
 -1     24058 1.79390E+00 9.96733E+00 5.00000E+00
 -1     24059 4.58588E+00 6.59174E+00 5.00000E+00
 -1     24060 7.43684E+00 9.30473E+00 5.00000E+00
 -1     24061 1.03794E+01 1.19917E+01 5.00000E+00
 -1     24062 1.33638E+01 1.46323E+01 5.00000E+00
 -1     24063 1.62904E+01 1.72798E+01 5.00000E+00
 -1     24064 1.92073E+01 1.99311E+01 5.00000E+00
 -1     24065 2.21161E+01 2.25971E+01 5.00000E+00
 -1     24066 2.50168E+01 2.52702E+01 5.00000E+00
 -1     24067 2.79217E+01 2.79373E+01 5.00000E+00
 -1     24068 3.08371E+01 3.06027E+01 5.00000E+00
 -1     24069 3.37512E+01 3.32816E+01 5.00000E+00
 -1     24070 3.66600E+01 3.59645E+01 5.00000E+00
 -1     24071 3.95798E+01 3.86350E+01 5.00000E+00
 -1     24072 4.25048E+01 4.13683E+01 5.00000E+00
 -1     24073 4.54706E+01 4.41518E+01 5.00000E+00
 -1     24074 1.53156E+01 4.73282E+01 5.00000E+00
 -1     24075 1.16471E+01 4.61272E+01 5.00000E+00
 -1     24076 7.99124E+00 4.49385E+01 5.00000E+00
 -1     24077 4.37439E+00 4.37061E+01 5.00000E+00
 -1     24078 1.65760E+00 3.58791E+01 5.00000E+00
 -1     24079 1.70186E+00 1.99634E+01 5.00000E+00
 -1     24080 1.74499E+00 1.59562E+01 5.00000E+00
 -1     24081 1.81122E+00 1.19636E+01 5.00000E+00
 -1     24082 1.81396E+00 7.93495E+00 5.00000E+00
 -1     24083 2.93255E+00 5.34880E+00 5.00000E+00
 -1     24084 1.89973E+01 4.85486E+01 5.00000E+00
 -1     24085 4.60880E+01 5.42707E+01 5.00000E+00
 -1     24086 2.26907E+01 4.97695E+01 5.00000E+00
 -1     24087 2.63861E+01 5.09840E+01 5.00000E+00
 -1     24088 3.00829E+01 5.21966E+01 5.00000E+00
 -1     24089 3.76539E+01 5.44764E+01 5.00000E+00
 -1     24090 3.38322E+01 5.33746E+01 5.00000E+00
 -1     24091 1.64242E+00 3.97990E+01 5.00000E+00
 -1     24092 1.73424E+00 2.39590E+01 5.00000E+00
 -1     24093 1.72159E+00 2.79613E+01 5.00000E+00
 -1     24094 1.88033E+01 4.75902E+01 5.00000E+00
 -1     24095 1.97250E+01 4.78980E+01 5.00000E+00
 -1     24096 6.93649E+00 1.03465E+01 5.00000E+00
 -1     24097 6.27116E+00 9.63967E+00 5.00000E+00
 -1     24098 1.01525E+01 1.29893E+01 5.00000E+00
 -1     24099 9.39476E+00 1.23314E+01 5.00000E+00
 -1     24100 1.31504E+01 1.56175E+01 5.00000E+00
 -1     24101 1.24150E+01 1.49550E+01 5.00000E+00
 -1     24102 1.60743E+01 1.82535E+01 5.00000E+00
 -1     24103 1.53448E+01 1.75917E+01 5.00000E+00
 -1     24104 1.89949E+01 2.08948E+01 5.00000E+00
 -1     24105 1.82663E+01 2.02301E+01 5.00000E+00
 -1     24106 2.19007E+01 2.35619E+01 5.00000E+00
 -1     24107 2.11749E+01 2.28938E+01 5.00000E+00
 -1     24108 2.47952E+01 2.62399E+01 5.00000E+00
 -1     24109 2.40704E+01 2.55717E+01 5.00000E+00
 -1     24110 2.76989E+01 2.89063E+01 5.00000E+00
 -1     24111 2.69713E+01 2.82405E+01 5.00000E+00
 -1     24112 3.06208E+01 3.15696E+01 5.00000E+00
 -1     24113 2.98915E+01 3.09016E+01 5.00000E+00
 -1     24114 3.35367E+01 3.42572E+01 5.00000E+00
 -1     24115 3.28092E+01 3.35856E+01 5.00000E+00
 -1     24116 3.64441E+01 3.69496E+01 5.00000E+00
 -1     24117 3.57165E+01 3.62799E+01 5.00000E+00
 -1     24118 3.93715E+01 3.96188E+01 5.00000E+00
 -1     24119 3.86383E+01 3.89508E+01 5.00000E+00
 -1     24120 4.23019E+01 4.23754E+01 5.00000E+00
 -1     24121 4.15748E+01 4.16705E+01 5.00000E+00
 -1     24122 4.52745E+01 4.52674E+01 5.00000E+00
 -1     24123 4.44992E+01 4.46006E+01 5.00000E+00
 -1     24124 4.51064E+01 5.28458E+01 5.00000E+00
 -1     24125 4.50937E+01 5.18055E+01 5.00000E+00
 -1     24126 1.51300E+01 4.63733E+01 5.00000E+00
 -1     24127 1.60496E+01 4.66776E+01 5.00000E+00
 -1     24128 4.51992E+01 4.63268E+01 5.00000E+00
 -1     24129 3.94803E+01 5.39757E+01 5.00000E+00
 -1     24130 4.04271E+01 5.42870E+01 5.00000E+00
 -1     24131 4.50720E+01 5.07118E+01 5.00000E+00
 -1     24132 4.50679E+01 4.96596E+01 5.00000E+00
 -1     24133 4.41179E+01 5.13583E+01 5.00000E+00
 -1     24134 2.24950E+01 4.88091E+01 5.00000E+00
 -1     24135 2.34198E+01 4.91116E+01 5.00000E+00
 -1     24136 4.51798E+01 5.59970E+01 5.00000E+00
 -1     24137 3.55788E+01 5.28978E+01 5.00000E+00
 -1     24138 3.65380E+01 5.31677E+01 5.00000E+00
 -1     24139 3.17387E+01 5.18215E+01 5.00000E+00
 -1     24140 3.26745E+01 5.21187E+01 5.00000E+00
 -1     24141 2.45070E+00 3.92138E+01 5.00000E+00
 -1     24142 2.45991E+00 4.01920E+01 5.00000E+00
 -1     24143 2.80408E+01 5.06101E+01 5.00000E+00
 -1     24144 2.89651E+01 5.09135E+01 5.00000E+00
 -1     24145 3.75451E+01 5.33826E+01 5.00000E+00
 -1     24146 3.84967E+01 5.36647E+01 5.00000E+00
 -1     24147 3.73808E+01 5.23560E+01 5.00000E+00
 -1     24148 2.43454E+01 4.94091E+01 5.00000E+00
 -1     24149 2.52698E+01 4.97140E+01 5.00000E+00
 -1     24150 2.41497E+01 4.84487E+01 5.00000E+00
 -1     24151 2.98868E+01 5.12158E+01 5.00000E+00
 -1     24152 3.08129E+01 5.15195E+01 5.00000E+00
 -1     24153 3.15426E+01 5.08407E+01 5.00000E+00
 -1     24154 2.96952E+01 5.02364E+01 5.00000E+00
 -1     24155 2.06469E+01 4.82033E+01 5.00000E+00
 -1     24156 2.15704E+01 4.85087E+01 5.00000E+00
 -1     24157 2.04529E+01 4.72450E+01 5.00000E+00
 -1     24158 2.61948E+01 5.00105E+01 5.00000E+00
 -1     24159 2.71167E+01 5.03127E+01 5.00000E+00
 -1     24160 2.78495E+01 4.96367E+01 5.00000E+00
 -1     24161 2.60004E+01 4.90427E+01 5.00000E+00
 -1     24162 1.69644E+01 4.69794E+01 5.00000E+00
 -1     24163 1.78847E+01 4.72836E+01 5.00000E+00
 -1     24164 1.67789E+01 4.60245E+01 5.00000E+00
 -1     24165 4.51511E+01 5.49445E+01 5.00000E+00
 -1     24166 4.51364E+01 5.39133E+01 5.00000E+00
 -1     24167 4.41695E+01 5.35196E+01 5.00000E+00
 -1     24168 4.42282E+01 5.56396E+01 5.00000E+00
 -1     24169 1.14722E+01 4.51884E+01 5.00000E+00
 -1     24170 1.23875E+01 4.54873E+01 5.00000E+00
 -1     24171 7.83518E+00 4.40257E+01 5.00000E+00
 -1     24172 8.74521E+00 4.43218E+01 5.00000E+00
 -1     24173 4.26750E+00 4.27902E+01 5.00000E+00
 -1     24174 5.16282E+00 4.31110E+01 5.00000E+00
 -1     24175 2.49911E+00 3.53342E+01 5.00000E+00
 -1     24176 2.48690E+00 3.63160E+01 5.00000E+00
 -1     24177 2.52280E+00 4.21134E+01 5.00000E+00
 -1     24178 3.40667E+00 4.24469E+01 5.00000E+00
 -1     24179 4.19509E+00 4.18519E+01 5.00000E+00
 -1     24180 2.49295E+00 4.11429E+01 5.00000E+00
 -1     24181 2.60911E+00 2.34323E+01 5.00000E+00
 -1     24182 2.61224E+00 2.44314E+01 5.00000E+00
 -1     24183 2.56866E+00 2.94433E+01 5.00000E+00
 -1     24184 2.56282E+00 3.04381E+01 5.00000E+00
 -1     24185 2.53760E+00 1.94425E+01 5.00000E+00
 -1     24186 2.54373E+00 2.04439E+01 5.00000E+00
 -1     24187 2.55409E+00 3.14227E+01 5.00000E+00
 -1     24188 2.54759E+00 3.24137E+01 5.00000E+00
 -1     24189 3.41288E+00 3.09106E+01 5.00000E+00
 -1     24190 2.57797E+00 2.14398E+01 5.00000E+00
 -1     24191 2.58953E+00 2.24373E+01 5.00000E+00
 -1     24192 3.46753E+00 2.29097E+01 5.00000E+00
 -1     24193 3.41371E+00 2.09189E+01 5.00000E+00
 -1     24194 2.62781E+00 1.54444E+01 5.00000E+00
 -1     24195 2.60235E+00 1.64455E+01 5.00000E+00
 -1     24196 2.74997E+00 1.14375E+01 5.00000E+00
 -1     24197 2.75458E+00 1.24303E+01 5.00000E+00
 -1     24198 2.68128E+00 7.43312E+00 5.00000E+00
 -1     24199 2.64850E+00 8.46197E+00 5.00000E+00
 -1     24200 4.44285E+00 7.57884E+00 5.00000E+00
 -1     24201 3.65884E+00 6.97304E+00 5.00000E+00
 -1     24202 2.82431E+00 6.44602E+00 5.00000E+00
 -1     24203 4.32906E+01 5.53081E+01 5.00000E+00
 -1     24204 1.68564E+00 3.85226E+00 5.00000E+00
 -1     24205 4.50640E+01 4.85258E+01 5.00000E+00
 -1     24206 4.50919E+01 4.74673E+01 5.00000E+00
 -1     24207 4.40923E+01 4.91308E+01 5.00000E+00
 -1     24208 5.89104E+00 8.75666E+00 5.00000E+00
 -1     24209 5.19023E+00 8.05647E+00 5.00000E+00
 -1     24210 4.26319E+00 8.43778E+00 5.00000E+00
 -1     24211 5.39069E+00 9.79841E+00 5.00000E+00
 -1     24212 2.60290E+00 2.54379E+01 5.00000E+00
 -1     24213 2.59795E+00 2.64398E+01 5.00000E+00
 -1     24214 3.47777E+00 2.49112E+01 5.00000E+00
 -1     24215 4.13931E+01 5.46275E+01 5.00000E+00
 -1     24216 4.23344E+01 5.49515E+01 5.00000E+00
 -1     24217 4.13211E+01 5.35334E+01 5.00000E+00
 -1     24218 3.42629E+01 3.49340E+01 5.00000E+00
 -1     24219 3.33209E+01 3.52380E+01 5.00000E+00
 -1     24220 3.49898E+01 3.56048E+01 5.00000E+00
 -1     24221 8.58581E+00 1.16842E+01 5.00000E+00
 -1     24222 7.82604E+00 1.10231E+01 5.00000E+00
 -1     24223 1.16694E+01 1.42979E+01 5.00000E+00
 -1     24224 1.09238E+01 1.36378E+01 5.00000E+00
 -1     24225 1.46144E+01 1.69357E+01 5.00000E+00
 -1     24226 1.38835E+01 1.62741E+01 5.00000E+00
 -1     24227 1.75353E+01 1.95711E+01 5.00000E+00
 -1     24228 1.68059E+01 1.89087E+01 5.00000E+00
 -1     24229 2.04502E+01 2.22257E+01 5.00000E+00
 -1     24230 1.97231E+01 2.15591E+01 5.00000E+00
 -1     24231 2.33484E+01 2.49009E+01 5.00000E+00
 -1     24232 2.26233E+01 2.42325E+01 5.00000E+00
 -1     24233 2.62443E+01 2.75754E+01 5.00000E+00
 -1     24234 2.55181E+01 2.69088E+01 5.00000E+00
 -1     24235 2.91592E+01 3.02356E+01 5.00000E+00
 -1     24236 2.84300E+01 2.95698E+01 5.00000E+00
 -1     24237 3.20806E+01 3.29099E+01 5.00000E+00
 -1     24238 3.13520E+01 3.22404E+01 5.00000E+00
 -1     24239 3.47738E+01 3.65900E+01 5.00000E+00
 -1     24240 6.66037E+00 1.13580E+01 5.00000E+00
 -1     24241 3.79041E+01 3.82893E+01 5.00000E+00
 -1     24242 3.71747E+01 3.76228E+01 5.00000E+00
 -1     24243 4.08445E+01 4.09603E+01 5.00000E+00
 -1     24244 4.01121E+01 4.02802E+01 5.00000E+00
 -1     24245 4.37401E+01 4.38627E+01 5.00000E+00
 -1     24246 4.30084E+01 4.31568E+01 5.00000E+00
 -1     24247 4.41958E+01 4.68566E+01 5.00000E+00
 -1     24248 3.93716E+01 5.28819E+01 5.00000E+00
 -1     24249 3.04064E+01 3.25392E+01 5.00000E+00
 -1     24250 2.74796E+01 2.98730E+01 5.00000E+00
 -1     24251 2.22995E+01 4.78508E+01 5.00000E+00
 -1     24252 3.45766E+01 5.26782E+01 5.00000E+00
 -1     24253 3.53715E+01 5.19215E+01 5.00000E+00
 -1     24254 3.36249E+01 5.23983E+01 5.00000E+00
 -1     24255 2.45716E+01 2.72103E+01 5.00000E+00
 -1     24256 3.34189E+01 5.14223E+01 5.00000E+00
 -1     24257 1.86123E+01 4.66330E+01 5.00000E+00
 -1     24258 2.16822E+01 2.45292E+01 5.00000E+00
 -1     24259 1.87820E+01 2.18581E+01 5.00000E+00
 -1     24260 1.58603E+01 1.92206E+01 5.00000E+00
 -1     24261 1.29347E+01 1.65968E+01 5.00000E+00
 -1     24262 3.30122E+00 4.05577E+01 5.00000E+00
 -1     24263 2.52398E+00 3.43733E+01 5.00000E+00
 -1     24264 3.35328E+00 3.48103E+01 5.00000E+00
 -1     24265 2.53459E+00 3.33908E+01 5.00000E+00
 -1     24266 2.68757E+00 1.44408E+01 5.00000E+00
 -1     24267 3.54493E+00 1.49300E+01 5.00000E+00
 -1     24268 2.71026E+00 1.34414E+01 5.00000E+00
 -1     24269 6.94545E+00 4.37351E+01 5.00000E+00
 -1     24270 7.69943E+00 4.31185E+01 5.00000E+00
 -1     24271 6.03970E+00 4.34273E+01 5.00000E+00
 -1     24272 1.32979E+01 4.57764E+01 5.00000E+00
 -1     24273 1.42147E+01 4.60753E+01 5.00000E+00
 -1     24274 9.64768E+00 4.46050E+01 5.00000E+00
 -1     24275 1.05629E+01 4.49019E+01 5.00000E+00
 -1     24276 5.93282E+00 4.25115E+01 5.00000E+00
 -1     24277 1.49487E+01 4.54247E+01 5.00000E+00
 -1     24278 2.46047E+00 3.72768E+01 5.00000E+00
 -1     24279 2.45438E+00 3.82567E+01 5.00000E+00
 -1     24280 2.57889E+00 2.84435E+01 5.00000E+00
 -1     24281 3.43185E+00 2.89262E+01 5.00000E+00
 -1     24282 2.58478E+00 2.74441E+01 5.00000E+00
 -1     24283 9.93913E+00 1.39775E+01 5.00000E+00
 -1     24284 3.39114E+00 3.28723E+01 5.00000E+00
 -1     24285 3.62311E+01 3.79383E+01 5.00000E+00
 -1     24286 2.55267E+00 1.74405E+01 5.00000E+00
 -1     24287 2.54077E+00 1.84428E+01 5.00000E+00
 -1     24288 3.64901E+00 1.29153E+01 5.00000E+00
 -1     24289 3.53828E+00 8.95922E+00 5.00000E+00
 -1     24290 2.67096E+00 9.46105E+00 5.00000E+00
 -1     24291 2.68368E+00 1.04646E+01 5.00000E+00
 -1     24292 4.28566E+00 9.43685E+00 5.00000E+00
 -1     24293 1.14560E+01 1.52831E+01 5.00000E+00
 -1     24294 4.35440E+01 4.49783E+01 5.00000E+00
 -1     24295 4.32433E+01 5.42306E+01 5.00000E+00
 -1     24296 3.18662E+01 3.38856E+01 5.00000E+00
 -1     24297 2.89429E+01 3.12024E+01 5.00000E+00
 -1     24298 2.60216E+01 2.85444E+01 5.00000E+00
 -1     24299 2.02349E+01 2.31905E+01 5.00000E+00
 -1     24300 1.73229E+01 2.05348E+01 5.00000E+00
 -1     24301 3.38264E+00 1.89233E+01 5.00000E+00
 -1     24302 3.27187E+00 3.86498E+01 5.00000E+00
 -1     24303 2.31268E+01 2.58706E+01 5.00000E+00
 -1     24304 1.13033E+01 4.42620E+01 5.00000E+00
 -1     24305 1.43982E+01 1.79094E+01 5.00000E+00
 -1     24306 4.20784E+01 4.34590E+01 5.00000E+00
 -1     24307 3.91706E+01 4.05960E+01 5.00000E+00
 -1     24308 8.35888E+00 1.26818E+01 5.00000E+00
 -1     24309 4.06416E+01 4.19675E+01 5.00000E+00
 -1     24310 3.76959E+01 3.92730E+01 5.00000E+00
 -1     24311 9.49162E+00 4.36923E+01 5.00000E+00
 -1     24312 3.62703E+00 1.09313E+01 5.00000E+00
 -1     24313 1.31229E+01 4.48376E+01 5.00000E+00
 -1     24314 3.45525E+00 2.69221E+01 5.00000E+00
 -1     24315 3.30198E+00 3.67320E+01 5.00000E+00
 -1     24316 3.43549E+00 1.69287E+01 5.00000E+00
 -1     24317 4.14607E+00 3.61950E+01 5.00000E+00
 -1     24318 4.11964E+00 3.71557E+01 5.00000E+00
 -1     24319 4.04489E+01 4.29113E+01 5.00000E+00
 -1     24320 3.97186E+01 4.22012E+01 5.00000E+00
 -1     24321 4.25676E+00 3.23624E+01 5.00000E+00
 -1     24322 4.24376E+00 3.33395E+01 5.00000E+00
 -1     24323 4.31807E+01 4.62319E+01 5.00000E+00
 -1     24324 4.24216E+01 4.54940E+01 5.00000E+00
 -1     24325 4.18351E+01 4.44679E+01 5.00000E+00
 -1     24326 4.11286E+01 4.36865E+01 5.00000E+00
 -1     24327 4.02056E+01 4.39201E+01 5.00000E+00
 -1     24328 4.14718E+01 4.57215E+01 5.00000E+00
 -1     24329 1.27246E+01 1.75860E+01 5.00000E+00
 -1     24330 1.19916E+01 1.69294E+01 5.00000E+00
 -1     24331 4.18271E+00 1.83983E+01 5.00000E+00
 -1     24332 4.17954E+00 1.93980E+01 5.00000E+00
 -1     24333 1.56470E+01 2.01900E+01 5.00000E+00
 -1     24334 1.49154E+01 1.95347E+01 5.00000E+00
 -1     24335 1.85723E+01 2.28187E+01 5.00000E+00
 -1     24336 1.78441E+01 2.21544E+01 5.00000E+00
 -1     24337 1.11311E+01 4.33326E+01 5.00000E+00
 -1     24338 1.20404E+01 4.36192E+01 5.00000E+00
 -1     24339 3.31741E+01 5.04644E+01 5.00000E+00
 -1     24340 3.41246E+01 5.07440E+01 5.00000E+00
 -1     24341 2.21003E+01 4.68957E+01 5.00000E+00
 -1     24342 2.30249E+01 4.71961E+01 5.00000E+00
 -1     24343 2.57930E+01 2.95172E+01 5.00000E+00
 -1     24344 2.50659E+01 2.88521E+01 5.00000E+00
 -1     24345 2.87258E+01 3.21678E+01 5.00000E+00
 -1     24346 2.79936E+01 3.15018E+01 5.00000E+00
 -1     24347 3.45576E+01 3.75806E+01 5.00000E+00
 -1     24348 3.38309E+01 3.69055E+01 5.00000E+00
 -1     24349 8.19289E+00 1.37058E+01 5.00000E+00
 -1     24350 7.38394E+00 1.30586E+01 5.00000E+00
 -1     24351 3.74887E+01 4.02732E+01 5.00000E+00
 -1     24352 3.67546E+01 3.96116E+01 5.00000E+00
 -1     24353 3.89710E+01 4.15807E+01 5.00000E+00
 -1     24354 3.82303E+01 4.09193E+01 5.00000E+00
 -1     24355 3.87783E+01 4.25245E+01 5.00000E+00
 -1     24356 4.32133E+01 5.31630E+01 5.00000E+00
 -1     24357 4.30734E+01 4.73723E+01 5.00000E+00
 -1     24358 1.12617E+01 1.62738E+01 5.00000E+00
 -1     24359 1.05161E+01 1.56167E+01 5.00000E+00
 -1     24360 1.10517E+01 1.72630E+01 5.00000E+00
 -1     24361 1.84191E+01 4.56744E+01 5.00000E+00
 -1     24362 1.93378E+01 4.59810E+01 5.00000E+00
 -1     24363 4.32302E+00 2.64037E+01 5.00000E+00
 -1     24364 4.30984E+00 2.74079E+01 5.00000E+00
 -1     24365 2.43434E+01 2.81837E+01 5.00000E+00
 -1     24366 2.36205E+01 2.75147E+01 5.00000E+00
 -1     24367 2.41148E+01 2.91565E+01 5.00000E+00
 -1     24368 3.60188E+01 3.89359E+01 5.00000E+00
 -1     24369 3.52882E+01 3.82627E+01 5.00000E+00
 -1     24370 3.58117E+01 3.99360E+01 5.00000E+00
 -1     24371 3.50797E+01 5.09958E+01 5.00000E+00
 -1     24372 3.60819E+01 5.12154E+01 5.00000E+00
 -1     24373 3.48349E+01 5.00379E+01 5.00000E+00
 -1     24374 2.39512E+01 4.74872E+01 5.00000E+00
 -1     24375 2.48769E+01 4.77846E+01 5.00000E+00
 -1     24376 2.37521E+01 4.65320E+01 5.00000E+00
 -1     24377 1.47688E+01 4.44726E+01 5.00000E+00
 -1     24378 1.56842E+01 4.47706E+01 5.00000E+00
 -1     24379 1.41819E+01 1.88904E+01 5.00000E+00
 -1     24380 1.34514E+01 1.82345E+01 5.00000E+00
 -1     24381 1.39685E+01 1.98598E+01 5.00000E+00
 -1     24382 5.81929E+00 4.16151E+01 5.00000E+00
 -1     24383 6.69618E+00 4.19315E+01 5.00000E+00
 -1     24384 4.29295E+00 2.84139E+01 5.00000E+00
 -1     24385 4.28272E+00 2.94137E+01 5.00000E+00
 -1     24386 5.16072E+00 2.78955E+01 5.00000E+00
 -1     24387 4.12009E+00 4.09318E+01 5.00000E+00
 -1     24388 4.98093E+00 4.12751E+01 5.00000E+00
 -1     24389 5.74429E+00 4.06951E+01 5.00000E+00
 -1     24390 4.08706E+00 3.99809E+01 5.00000E+00
 -1     24391 4.46144E+00 1.44424E+01 5.00000E+00
 -1     24392 4.40168E+00 1.54461E+01 5.00000E+00
 -1     24393 2.14621E+01 2.54950E+01 5.00000E+00
 -1     24394 2.07395E+01 2.48244E+01 5.00000E+00
 -1     24395 1.29458E+01 4.38956E+01 5.00000E+00
 -1     24396 1.38562E+01 4.41846E+01 5.00000E+00
 -1     24397 1.27736E+01 4.29662E+01 5.00000E+00
 -1     24398 9.76013E+00 1.49739E+01 5.00000E+00
 -1     24399 8.98883E+00 1.43254E+01 5.00000E+00
 -1     24400 8.01389E+00 1.47022E+01 5.00000E+00
 -1     24401 9.56581E+00 1.59646E+01 5.00000E+00
 -1     24402 7.56006E+00 4.22236E+01 5.00000E+00
 -1     24403 8.44978E+00 4.25142E+01 5.00000E+00
 -1     24404 7.44653E+00 4.13273E+01 5.00000E+00
 -1     24405 6.53823E+00 1.24684E+01 5.00000E+00
 -1     24406 5.64867E+00 1.17919E+01 5.00000E+00
 -1     24407 6.37224E+00 1.34924E+01 5.00000E+00
 -1     24408 4.31145E+01 4.98138E+01 5.00000E+00
 -1     24409 4.31106E+01 4.86800E+01 5.00000E+00
 -1     24410 3.16539E+01 3.48591E+01 5.00000E+00
 -1     24411 3.09254E+01 3.41834E+01 5.00000E+00
 -1     24412 3.92944E+01 5.17576E+01 5.00000E+00
 -1     24413 4.02780E+01 5.20686E+01 5.00000E+00
 -1     24414 3.31053E+01 3.62197E+01 5.00000E+00
 -1     24415 3.23792E+01 3.55430E+01 5.00000E+00
 -1     24416 3.14384E+01 3.58408E+01 5.00000E+00
 -1     24417 3.28892E+01 3.72104E+01 5.00000E+00
 -1     24418 4.27406E+00 3.04040E+01 5.00000E+00
 -1     24419 4.26533E+00 3.13886E+01 5.00000E+00
 -1     24420 5.11794E+00 3.18558E+01 5.00000E+00
 -1     24421 5.13516E+00 2.98917E+01 5.00000E+00
 -1     24422 4.22391E+00 3.42959E+01 5.00000E+00
 -1     24423 4.19904E+00 3.52568E+01 5.00000E+00
 -1     24424 5.01670E+00 3.56805E+01 5.00000E+00
 -1     24425 5.08953E+00 3.37860E+01 5.00000E+00
 -1     24426 3.72314E+01 5.12060E+01 5.00000E+00
 -1     24427 3.82386E+01 5.14209E+01 5.00000E+00
 -1     24428 3.91450E+01 5.06077E+01 5.00000E+00
 -1     24429 3.69396E+01 5.02803E+01 5.00000E+00
 -1     24430 1.65935E+01 4.50661E+01 5.00000E+00
 -1     24431 1.75082E+01 4.53679E+01 5.00000E+00
 -1     24432 1.64135E+01 4.41140E+01 5.00000E+00
 -1     24433 2.02546E+01 4.62897E+01 5.00000E+00
 -1     24434 2.11765E+01 4.65951E+01 5.00000E+00
 -1     24435 2.19020E+01 4.59404E+01 5.00000E+00
 -1     24436 2.00614E+01 4.53311E+01 5.00000E+00
 -1     24437 2.29022E+01 2.68406E+01 5.00000E+00
 -1     24438 2.21802E+01 2.61697E+01 5.00000E+00
 -1     24439 2.26739E+01 2.78139E+01 5.00000E+00
 -1     24440 4.07532E+00 3.80909E+01 5.00000E+00
 -1     24441 4.07164E+00 3.90479E+01 5.00000E+00
 -1     24442 4.89051E+00 3.94220E+01 5.00000E+00
 -1     24443 4.91941E+00 3.75539E+01 5.00000E+00
 -1     24444 4.22391E+01 5.27707E+01 5.00000E+00
 -1     24445 4.31654E+01 5.20598E+01 5.00000E+00
 -1     24446 3.22622E+01 5.01573E+01 5.00000E+00
 -1     24447 3.29679E+01 4.94791E+01 5.00000E+00
 -1     24448 3.13364E+01 4.98553E+01 5.00000E+00
 -1     24449 2.12375E+01 2.64650E+01 5.00000E+00
 -1     24450 4.25758E+00 1.74325E+01 5.00000E+00
 -1     24451 5.05448E+00 1.79071E+01 5.00000E+00
 -1     24452 4.30726E+00 1.64374E+01 5.00000E+00
 -1     24453 4.60993E+00 1.24033E+01 5.00000E+00
 -1     24454 4.73207E+00 1.12928E+01 5.00000E+00
 -1     24455 1.71135E+01 2.14976E+01 5.00000E+00
 -1     24456 1.63826E+01 2.08386E+01 5.00000E+00
 -1     24457 2.00207E+01 2.41527E+01 5.00000E+00
 -1     24458 1.92960E+01 2.34846E+01 5.00000E+00
 -1     24459 3.43453E+01 3.85782E+01 5.00000E+00
 -1     24460 2.72559E+01 3.08416E+01 5.00000E+00
 -1     24461 2.65249E+01 3.01782E+01 5.00000E+00
 -1     24462 4.20956E+01 4.80553E+01 5.00000E+00
 -1     24463 1.02315E+01 4.30602E+01 5.00000E+00
 -1     24464 1.09685E+01 4.24174E+01 5.00000E+00
 -1     24465 9.32905E+00 4.27770E+01 5.00000E+00
 -1     24466 1.83581E+01 2.37809E+01 5.00000E+00
 -1     24467 1.82337E+01 4.47159E+01 5.00000E+00
 -1     24468 3.72891E+01 4.12579E+01 5.00000E+00
 -1     24469 4.35020E+00 2.53839E+01 5.00000E+00
 -1     24470 5.20479E+00 2.58698E+01 5.00000E+00
 -1     24471 4.35954E+00 2.43774E+01 5.00000E+00
 -1     24472 1.54376E+01 2.11528E+01 5.00000E+00
 -1     24473 3.01942E+01 3.35061E+01 5.00000E+00
 -1     24474 2.94630E+01 3.28354E+01 5.00000E+00
 -1     24475 1.45916E+01 4.35305E+01 5.00000E+00
 -1     24476 2.58033E+01 4.80728E+01 5.00000E+00
 -1     24477 2.67283E+01 4.83694E+01 5.00000E+00
 -1     24478 2.56048E+01 4.71113E+01 5.00000E+00
 -1     24479 1.25083E+01 1.85670E+01 5.00000E+00
 -1     24480 4.12732E+01 5.24302E+01 5.00000E+00
 -1     24481 9.18968E+00 4.18822E+01 5.00000E+00
 -1     24482 4.66577E+00 1.03199E+01 5.00000E+00
 -1     24483 4.11960E+01 5.13059E+01 5.00000E+00
 -1     24484 1.98006E+01 2.51185E+01 5.00000E+00
 -1     24485 4.31437E+01 5.09660E+01 5.00000E+00
 -1     24486 4.24069E+00 2.03848E+01 5.00000E+00
 -1     24487 4.27493E+00 2.13807E+01 5.00000E+00
 -1     24488 5.04076E+00 1.98598E+01 5.00000E+00
 -1     24489 2.76556E+01 4.86585E+01 5.00000E+00
 -1     24490 2.85797E+01 4.89559E+01 5.00000E+00
 -1     24491 2.74584E+01 4.76886E+01 5.00000E+00
 -1     24492 4.56561E+00 1.34143E+01 5.00000E+00
 -1     24493 4.21620E+01 5.05153E+01 5.00000E+00
 -1     24494 2.99820E+01 3.44796E+01 5.00000E+00
 -1     24495 2.55692E+01 3.04858E+01 5.00000E+00
 -1     24496 2.85136E+01 3.31347E+01 5.00000E+00
 -1     24497 1.69038E+01 2.24582E+01 5.00000E+00
 -1     24498 5.22377E+00 1.59499E+01 5.00000E+00
 -1     24499 2.70388E+01 3.18070E+01 5.00000E+00
 -1     24500 4.37986E+00 2.33515E+01 5.00000E+00
 -1     24501 5.25228E+00 2.38242E+01 5.00000E+00
 -1     24502 4.36027E+00 2.23565E+01 5.00000E+00
 -1     24503 5.42236E+00 1.39304E+01 5.00000E+00
 -1     24504 2.68172E+01 3.27730E+01 5.00000E+00
 -1     24505 2.60795E+01 3.21129E+01 5.00000E+00
 -1     24506 4.11668E+01 5.01537E+01 5.00000E+00
 -1     24507 4.11422E+01 4.90054E+01 5.00000E+00
 -1     24508 4.01762E+01 4.97961E+01 5.00000E+00
 -1     24509 2.93103E+01 4.82669E+01 5.00000E+00
 -1     24510 2.95042E+01 4.92451E+01 5.00000E+00
 -1     24511 1.67010E+01 2.34136E+01 5.00000E+00
 -1     24512 1.59705E+01 2.27568E+01 5.00000E+00
 -1     24513 6.13246E+00 1.55167E+01 5.00000E+00
 -1     24514 6.03804E+00 1.65081E+01 5.00000E+00
 -1     24515 1.80498E+01 4.37526E+01 5.00000E+00
 -1     24516 1.89607E+01 4.40590E+01 5.00000E+00
 -1     24517 1.22845E+01 1.95638E+01 5.00000E+00
 -1     24518 1.15577E+01 1.89153E+01 5.00000E+00
 -1     24519 3.41314E+01 3.95843E+01 5.00000E+00
 -1     24520 3.34008E+01 3.89022E+01 5.00000E+00
 -1     24521 4.11049E+01 4.76977E+01 5.00000E+00
 -1     24522 2.38753E+01 3.01372E+01 5.00000E+00
 -1     24523 2.31528E+01 2.94687E+01 5.00000E+00
 -1     24524 1.08485E+01 1.82632E+01 5.00000E+00
 -1     24525 1.01187E+01 1.76076E+01 5.00000E+00
 -1     24526 1.06247E+01 1.92599E+01 5.00000E+00
 -1     24527 2.10073E+01 2.74319E+01 5.00000E+00
 -1     24528 2.02892E+01 2.67572E+01 5.00000E+00
 -1     24529 1.07941E+01 4.14991E+01 5.00000E+00
 -1     24530 1.16937E+01 4.17715E+01 5.00000E+00
 -1     24531 3.70945E+01 4.22900E+01 5.00000E+00
 -1     24532 3.63529E+01 4.16438E+01 5.00000E+00
 -1     24533 5.66114E+00 3.98101E+01 5.00000E+00
 -1     24534 6.49950E+00 4.01501E+01 5.00000E+00
 -1     24535 5.64572E+00 3.88771E+01 5.00000E+00
 -1     24536 2.53353E+01 3.14615E+01 5.00000E+00
 -1     24537 2.46034E+01 3.08005E+01 5.00000E+00
 -1     24538 2.36414E+01 3.11128E+01 5.00000E+00
 -1     24539 2.51137E+01 3.24276E+01 5.00000E+00
 -1     24540 3.56079E+01 4.09511E+01 5.00000E+00
 -1     24541 3.48721E+01 4.02753E+01 5.00000E+00
 -1     24542 3.54133E+01 4.19831E+01 5.00000E+00
 -1     24543 3.45366E+01 4.91260E+01 5.00000E+00
 -1     24544 3.54917E+01 4.93777E+01 5.00000E+00
 -1     24545 2.35493E+01 4.55790E+01 5.00000E+00
 -1     24546 2.44756E+01 4.58700E+01 5.00000E+00
 -1     24547 1.44174E+01 4.25852E+01 5.00000E+00
 -1     24548 1.53300E+01 4.28732E+01 5.00000E+00
 -1     24549 3.04258E+01 4.95474E+01 5.00000E+00
 -1     24550 5.91136E+00 1.74651E+01 5.00000E+00
 -1     24551 5.83649E+00 1.84309E+01 5.00000E+00
 -1     24552 6.82005E+00 1.70319E+01 5.00000E+00
 -1     24553 6.26808E+00 1.45206E+01 5.00000E+00
 -1     24554 1.62378E+01 4.31546E+01 5.00000E+00
 -1     24555 1.71471E+01 4.34502E+01 5.00000E+00
 -1     24556 1.60636E+01 4.22094E+01 5.00000E+00
 -1     24557 1.25989E+01 4.20374E+01 5.00000E+00
 -1     24558 1.35043E+01 4.23138E+01 5.00000E+00
 -1     24559 1.24244E+01 4.11192E+01 5.00000E+00
 -1     24560 6.02143E+00 2.73816E+01 5.00000E+00
 -1     24561 6.00453E+00 2.83876E+01 5.00000E+00
 -1     24562 1.95789E+01 2.60799E+01 5.00000E+00
 -1     24563 1.88601E+01 2.54082E+01 5.00000E+00
 -1     24564 1.93487E+01 2.70468E+01 5.00000E+00
 -1     24565 1.52325E+01 2.21157E+01 5.00000E+00
 -1     24566 1.44969E+01 2.14671E+01 5.00000E+00
 -1     24567 1.50297E+01 2.30711E+01 5.00000E+00
 -1     24568 2.97742E+01 3.54478E+01 5.00000E+00
 -1     24569 2.90430E+01 3.47705E+01 5.00000E+00
 -1     24570 7.31974E+00 4.04650E+01 5.00000E+00
 -1     24571 8.18361E+00 4.07571E+01 5.00000E+00
 -1     24572 7.23659E+00 3.95800E+01 5.00000E+00
 -1     24573 2.83037E+01 3.40956E+01 5.00000E+00
 -1     24574 2.75666E+01 3.34280E+01 5.00000E+00
 -1     24575 2.66072E+01 3.37339E+01 5.00000E+00
 -1     24576 2.80960E+01 3.50638E+01 5.00000E+00
 -1     24577 2.24385E+01 2.87894E+01 5.00000E+00
 -1     24578 2.17202E+01 2.81153E+01 5.00000E+00
 -1     24579 2.21991E+01 2.97701E+01 5.00000E+00
 -1     24580 2.91138E+01 4.72794E+01 5.00000E+00
 -1     24581 3.00383E+01 4.75687E+01 5.00000E+00
 -1     24582 7.08234E+00 1.50788E+01 5.00000E+00
 -1     24583 3.11454E+01 4.88640E+01 5.00000E+00
 -1     24584 3.09759E+01 4.78424E+01 5.00000E+00
 -1     24585 3.18865E+01 4.81504E+01 5.00000E+00
 -1     24586 3.07795E+01 4.68550E+01 5.00000E+00
 -1     24587 3.91204E+01 4.94593E+01 5.00000E+00
 -1     24588 1.74239E+01 2.40721E+01 5.00000E+00
 -1     24589 1.64906E+01 2.43707E+01 5.00000E+00
 -1     24590 1.81476E+01 2.47380E+01 5.00000E+00
 -1     24591 4.00257E+01 4.47584E+01 5.00000E+00
 -1     24592 3.93460E+01 4.39832E+01 5.00000E+00
 -1     24593 7.87828E+00 1.56984E+01 5.00000E+00
 -1     24594 2.07719E+01 2.84075E+01 5.00000E+00
 -1     24595 3.99835E+01 4.75798E+01 5.00000E+00
 -1     24596 4.09369E+01 4.66298E+01 5.00000E+00
 -1     24597 5.18725E+00 2.18225E+01 5.00000E+00
 -1     24598 6.15792E+00 2.32659E+01 5.00000E+00
 -1     24599 6.13760E+00 2.42918E+01 5.00000E+00
 -1     24600 5.98374E+00 3.13525E+01 5.00000E+00
 -1     24601 5.97518E+00 3.23264E+01 5.00000E+00
 -1     24602 4.03504E+01 4.56036E+01 5.00000E+00
 -1     24603 2.26204E+01 4.52957E+01 5.00000E+00
 -1     24604 2.33438E+01 4.46337E+01 5.00000E+00
 -1     24605 2.16966E+01 4.49951E+01 5.00000E+00
 -1     24606 3.36691E+01 4.88023E+01 5.00000E+00
 -1     24607 3.43259E+01 4.81422E+01 5.00000E+00
 -1     24608 3.27572E+01 4.84953E+01 5.00000E+00
 -1     24609 1.42427E+01 4.16564E+01 5.00000E+00
 -1     24610 2.54005E+01 4.61453E+01 5.00000E+00
 -1     24611 2.63269E+01 4.64335E+01 5.00000E+00
 -1     24612 2.51977E+01 4.51922E+01 5.00000E+00
 -1     24613 3.39276E+01 4.05993E+01 5.00000E+00
 -1     24614 5.92638E+00 3.51941E+01 5.00000E+00
 -1     24615 5.87341E+00 3.61323E+01 5.00000E+00
 -1     24616 5.97101E+00 3.32891E+01 5.00000E+00
 -1     24617 5.95116E+00 3.42455E+01 5.00000E+00
 -1     24618 6.80787E+00 3.46973E+01 5.00000E+00
 -1     24619 6.83681E+00 3.27858E+01 5.00000E+00
 -1     24620 9.03546E+00 4.09842E+01 5.00000E+00
 -1     24621 9.91472E+00 4.12470E+01 5.00000E+00
 -1     24622 5.71115E+00 1.92986E+01 5.00000E+00
 -1     24623 5.77230E+00 2.02855E+01 5.00000E+00
 -1     24624 6.56803E+00 1.88566E+01 5.00000E+00
 -1     24625 2.72538E+01 4.67123E+01 5.00000E+00
 -1     24626 2.81811E+01 4.70014E+01 5.00000E+00
 -1     24627 2.70496E+01 4.57463E+01 5.00000E+00
 -1     24628 3.63115E+01 4.95676E+01 5.00000E+00
 -1     24629 3.74610E+01 4.95582E+01 5.00000E+00
 -1     24630 3.60132E+01 4.86557E+01 5.00000E+00
 -1     24631 9.40082E+00 1.69540E+01 5.00000E+00
 -1     24632 8.64483E+00 1.63112E+01 5.00000E+00
 -1     24633 7.71329E+00 1.66877E+01 5.00000E+00
 -1     24634 9.19768E+00 1.79542E+01 5.00000E+00
 -1     24635 5.99407E+00 2.93853E+01 5.00000E+00
 -1     24636 5.98542E+00 3.03755E+01 5.00000E+00
 -1     24637 6.84265E+00 3.08461E+01 5.00000E+00
 -1     24638 6.85479E+00 2.88714E+01 5.00000E+00
 -1     24639 1.78741E+01 4.27932E+01 5.00000E+00
 -1     24640 3.26712E+01 3.82091E+01 5.00000E+00
 -1     24641 3.19456E+01 3.75234E+01 5.00000E+00
 -1     24642 3.24573E+01 3.92152E+01 5.00000E+00
 -1     24643 6.05239E+00 2.63655E+01 5.00000E+00
 -1     24644 6.89620E+00 2.68576E+01 5.00000E+00
 -1     24645 6.07956E+00 2.53457E+01 5.00000E+00
 -1     24646 1.79259E+01 2.56994E+01 5.00000E+00
 -1     24647 1.37538E+01 2.08391E+01 5.00000E+00
 -1     24648 1.30203E+01 2.01947E+01 5.00000E+00
 -1     24649 3.12250E+01 3.68218E+01 5.00000E+00
 -1     24650 3.04998E+01 3.61380E+01 5.00000E+00
 -1     24651 2.95608E+01 3.64288E+01 5.00000E+00
 -1     24652 3.10070E+01 3.78206E+01 5.00000E+00
 -1     24653 3.86056E+01 4.35110E+01 5.00000E+00
 -1     24654 3.78580E+01 4.28906E+01 5.00000E+00
 -1     24655 1.98640E+01 4.43763E+01 5.00000E+00
 -1     24656 2.07807E+01 4.46851E+01 5.00000E+00
 -1     24657 1.96800E+01 4.34129E+01 5.00000E+00
 -1     24658 8.90866E+00 4.01220E+01 5.00000E+00
 -1     24659 6.98520E+00 2.47875E+01 5.00000E+00
 -1     24660 5.74543E+00 3.70277E+01 5.00000E+00
 -1     24661 5.70111E+00 3.79629E+01 5.00000E+00
 -1     24662 6.47174E+00 3.83509E+01 5.00000E+00
 -1     24663 6.65511E+00 3.65413E+01 5.00000E+00
 -1     24664 1.20697E+01 2.05430E+01 5.00000E+00
 -1     24665 3.69217E+01 4.32765E+01 5.00000E+00
 -1     24666 2.89092E+01 4.63032E+01 5.00000E+00
 -1     24667 1.06399E+01 4.06012E+01 5.00000E+00
 -1     24668 1.35487E+01 2.18020E+01 5.00000E+00
 -1     24669 3.84256E+01 4.43492E+01 5.00000E+00
 -1     24670 1.40660E+01 4.07267E+01 5.00000E+00
 -1     24671 1.49791E+01 4.09982E+01 5.00000E+00
 -1     24672 3.67546E+01 4.44301E+01 5.00000E+00
 -1     24673 3.59911E+01 4.38296E+01 5.00000E+00
 -1     24674 3.94907E+01 4.56666E+01 5.00000E+00
 -1     24675 1.33507E+01 2.27747E+01 5.00000E+00
 -1     24676 1.26076E+01 2.21466E+01 5.00000E+00
 -1     24677 3.92363E+01 4.82625E+01 5.00000E+00
 -1     24678 3.90682E+01 4.71945E+01 5.00000E+00
 -1     24679 8.72879E+00 3.92262E+01 5.00000E+00
 -1     24680 9.58063E+00 3.94533E+01 5.00000E+00
 -1     24681 2.05282E+01 2.93752E+01 5.00000E+00
 -1     24682 1.98153E+01 2.86919E+01 5.00000E+00
 -1     24683 7.75484E+00 2.63532E+01 5.00000E+00
 -1     24684 7.72388E+00 2.73693E+01 5.00000E+00
 -1     24685 6.16218E+00 2.11520E+01 5.00000E+00
 -1     24686 6.24752E+00 2.21278E+01 5.00000E+00
 -1     24687 7.13284E+00 2.25955E+01 5.00000E+00
 -1     24688 6.83256E+00 2.05908E+01 5.00000E+00
 -1     24689 2.86965E+01 4.53252E+01 5.00000E+00
 -1     24690 2.96292E+01 4.56033E+01 5.00000E+00
 -1     24691 1.03643E+01 2.02864E+01 5.00000E+00
 -1     24692 9.65510E+00 1.96343E+01 5.00000E+00
 -1     24693 1.62912E+01 2.53161E+01 5.00000E+00
 -1     24694 1.55683E+01 2.46576E+01 5.00000E+00
 -1     24695 1.77088E+01 4.18201E+01 5.00000E+00
 -1     24696 1.86115E+01 4.21225E+01 5.00000E+00
 -1     24697 3.37235E+01 4.16071E+01 5.00000E+00
 -1     24698 3.29828E+01 4.09161E+01 5.00000E+00
 -1     24699 7.58661E+00 1.76447E+01 5.00000E+00
 -1     24700 1.04557E+01 3.96983E+01 5.00000E+00
 -1     24701 1.13351E+01 3.99505E+01 5.00000E+00
 -1     24702 1.02759E+01 3.88026E+01 5.00000E+00
 -1     24703 1.91079E+01 2.80038E+01 5.00000E+00
 -1     24704 1.83976E+01 2.73266E+01 5.00000E+00
 -1     24705 1.88642E+01 2.89716E+01 5.00000E+00
 -1     24706 1.58979E+01 4.12536E+01 5.00000E+00
 -1     24707 1.68057E+01 4.15351E+01 5.00000E+00
 -1     24708 1.57212E+01 4.03239E+01 5.00000E+00
 -1     24709 7.11410E+00 3.87951E+01 5.00000E+00
 -1     24710 7.93434E+00 3.91100E+01 5.00000E+00
 -1     24711 8.60630E+00 3.84414E+01 5.00000E+00
 -1     24712 7.16949E+00 3.78809E+01 5.00000E+00
 -1     24713 3.52236E+01 4.30309E+01 5.00000E+00
 -1     24714 3.44786E+01 4.23381E+01 5.00000E+00
 -1     24715 3.50564E+01 4.41845E+01 5.00000E+00
 -1     24716 1.18477E+01 2.15415E+01 5.00000E+00
 -1     24717 1.11119E+01 2.09106E+01 5.00000E+00
 -1     24718 1.01423E+01 2.12849E+01 5.00000E+00
 -1     24719 1.16497E+01 2.25142E+01 5.00000E+00
 -1     24720 1.22393E+01 4.02084E+01 5.00000E+00
 -1     24721 1.31445E+01 4.04742E+01 5.00000E+00
 -1     24722 1.38808E+01 3.98160E+01 5.00000E+00
 -1     24723 1.20551E+01 3.93055E+01 5.00000E+00
 -1     24724 1.48409E+01 2.40190E+01 5.00000E+00
 -1     24725 1.41030E+01 2.33780E+01 5.00000E+00
 -1     24726 1.46415E+01 2.49645E+01 5.00000E+00
 -1     24727 1.77018E+01 2.66535E+01 5.00000E+00
 -1     24728 1.69893E+01 2.59833E+01 5.00000E+00
 -1     24729 1.60670E+01 2.62703E+01 5.00000E+00
 -1     24730 1.74610E+01 2.76105E+01 5.00000E+00
 -1     24731 3.88344E+01 4.61989E+01 5.00000E+00
 -1     24732 3.85097E+01 4.53536E+01 5.00000E+00
 -1     24733 3.80872E+01 4.68815E+01 5.00000E+00
 -1     24734 1.31618E+01 2.37226E+01 5.00000E+00
 -1     24735 7.70699E+00 2.83682E+01 5.00000E+00
 -1     24736 7.69653E+00 2.93659E+01 5.00000E+00
 -1     24737 8.56562E+00 2.78638E+01 5.00000E+00
 -1     24738 3.77693E+01 4.48814E+01 5.00000E+00
 -1     24739 1.75431E+01 4.08643E+01 5.00000E+00
 -1     24740 3.68387E+01 4.54345E+01 5.00000E+00
 -1     24741 8.07843E+00 2.20943E+01 5.00000E+00
 -1     24742 7.98882E+00 2.32324E+01 5.00000E+00
 -1     24743 3.41613E+01 4.72768E+01 5.00000E+00
 -1     24744 3.50288E+01 4.76005E+01 5.00000E+00
 -1     24745 2.77531E+01 4.50527E+01 5.00000E+00
 -1     24746 2.84730E+01 4.43528E+01 5.00000E+00
 -1     24747 2.68261E+01 4.47739E+01 5.00000E+00
 -1     24748 7.70437E+00 3.03421E+01 5.00000E+00
 -1     24749 7.70270E+00 3.13191E+01 5.00000E+00
 -1     24750 8.55657E+00 2.98389E+01 5.00000E+00
 -1     24751 2.14991E+01 4.40403E+01 5.00000E+00
 -1     24752 2.64014E+01 3.46906E+01 5.00000E+00
 -1     24753 2.56520E+01 3.40357E+01 5.00000E+00
 -1     24754 2.48808E+01 3.34050E+01 5.00000E+00
 -1     24755 2.41367E+01 3.27536E+01 5.00000E+00
 -1     24756 2.46750E+01 3.43617E+01 5.00000E+00
 -1     24757 2.33868E+01 3.21077E+01 5.00000E+00
 -1     24758 2.26587E+01 3.14443E+01 5.00000E+00
 -1     24759 2.31539E+01 3.30851E+01 5.00000E+00
 -1     24760 3.25878E+01 4.74737E+01 5.00000E+00
 -1     24761 8.29088E+00 1.82954E+01 5.00000E+00
 -1     24762 7.39765E+00 1.86396E+01 5.00000E+00
 -1     24763 7.27231E+00 1.95073E+01 5.00000E+00
 -1     24764 9.00872E+00 1.89491E+01 5.00000E+00
 -1     24765 3.05566E+01 4.58535E+01 5.00000E+00
 -1     24766 3.14942E+01 4.61272E+01 5.00000E+00
 -1     24767 3.03439E+01 4.48755E+01 5.00000E+00
 -1     24768 7.71029E+00 3.22740E+01 5.00000E+00
 -1     24769 7.70612E+00 3.32368E+01 5.00000E+00
 -1     24770 8.57201E+00 3.17700E+01 5.00000E+00
 -1     24771 2.31236E+01 4.37088E+01 5.00000E+00
 -1     24772 2.40525E+01 4.39921E+01 5.00000E+00
 -1     24773 7.87388E+00 2.42768E+01 5.00000E+00
 -1     24774 7.81584E+00 2.53308E+01 5.00000E+00
 -1     24775 7.71005E+00 3.42020E+01 5.00000E+00
 -1     24776 7.68527E+00 3.51507E+01 5.00000E+00
 -1     24777 8.58353E+00 3.36902E+01 5.00000E+00
 -1     24778 2.19427E+01 3.07590E+01 5.00000E+00
 -1     24779 2.12285E+01 3.00797E+01 5.00000E+00
 -1     24780 3.22308E+01 4.02427E+01 5.00000E+00
 -1     24781 3.15012E+01 3.95496E+01 5.00000E+00
 -1     24782 3.20267E+01 4.12504E+01 5.00000E+00
 -1     24783 3.35338E+01 4.26548E+01 5.00000E+00
 -1     24784 3.82051E+01 4.90741E+01 5.00000E+00
 -1     24785 8.81947E+00 2.37757E+01 5.00000E+00
 -1     24786 2.93535E+01 3.74020E+01 5.00000E+00
 -1     24787 2.86280E+01 3.67118E+01 5.00000E+00
 -1     24788 1.95000E+01 4.24460E+01 5.00000E+00
 -1     24789 2.04033E+01 4.27634E+01 5.00000E+00
 -1     24790 1.93347E+01 4.14729E+01 5.00000E+00
 -1     24791 2.16880E+01 3.17538E+01 5.00000E+00
 -1     24792 7.69617E+00 3.61642E+01 5.00000E+00
 -1     24793 7.56819E+00 3.70596E+01 5.00000E+00
 -1     24794 8.21055E+00 3.75038E+01 5.00000E+00
 -1     24795 8.59835E+00 3.56690E+01 5.00000E+00
 -1     24796 2.78991E+01 3.60187E+01 5.00000E+00
 -1     24797 2.71598E+01 3.53438E+01 5.00000E+00
 -1     24798 2.76918E+01 3.69919E+01 5.00000E+00
 -1     24799 8.64351E+00 2.58425E+01 5.00000E+00
 -1     24800 2.02718E+01 3.03641E+01 5.00000E+00
 -1     24801 8.74830E+00 1.99755E+01 5.00000E+00
 -1     24802 1.29957E+01 2.46817E+01 5.00000E+00
 -1     24803 1.22435E+01 2.40784E+01 5.00000E+00
 -1     24804 3.34306E+01 4.66861E+01 5.00000E+00
 -1     24805 3.41335E+01 4.61444E+01 5.00000E+00
 -1     24806 3.25600E+01 4.63413E+01 5.00000E+00
 -1     24807 1.73960E+01 3.98797E+01 5.00000E+00
 -1     24808 1.82991E+01 4.01647E+01 5.00000E+00
 -1     24809 8.30856E+00 2.10590E+01 5.00000E+00
 -1     24810 9.16455E+00 2.16960E+01 5.00000E+00
 -1     24811 3.56970E+01 4.69224E+01 5.00000E+00
 -1     24812 3.58616E+01 4.77878E+01 5.00000E+00
 -1     24813 9.73376E+00 2.33189E+01 5.00000E+00
 -1     24814 9.61881E+00 2.43633E+01 5.00000E+00
 -1     24815 2.13920E+01 3.27791E+01 5.00000E+00
 -1     24816 2.06761E+01 3.20938E+01 5.00000E+00
 -1     24817 2.62046E+01 3.56456E+01 5.00000E+00
 -1     24818 3.33972E+01 4.35790E+01 5.00000E+00
 -1     24819 3.26421E+01 4.28480E+01 5.00000E+00
 -1     24820 2.12903E+01 4.31029E+01 5.00000E+00
 -1     24821 2.22062E+01 4.34130E+01 5.00000E+00
 -1     24822 2.29149E+01 4.27713E+01 5.00000E+00
 -1     24823 2.11103E+01 4.21360E+01 5.00000E+00
 -1     24824 9.50338E+00 2.53583E+01 5.00000E+00
 -1     24825 9.44237E+00 2.63808E+01 5.00000E+00
 -1     24826 1.04177E+01 2.49015E+01 5.00000E+00
 -1     24827 2.49967E+01 4.42232E+01 5.00000E+00
 -1     24828 2.59216E+01 4.44984E+01 5.00000E+00
 -1     24829 1.00453E+01 3.78982E+01 5.00000E+00
 -1     24830 1.09204E+01 3.81432E+01 5.00000E+00
 -1     24831 2.00022E+01 3.13370E+01 5.00000E+00
 -1     24832 1.93020E+01 3.06326E+01 5.00000E+00
 -1     24833 1.97062E+01 3.23623E+01 5.00000E+00
 -1     24834 1.86128E+01 2.99122E+01 5.00000E+00
 -1     24835 1.79054E+01 2.92241E+01 5.00000E+00
 -1     24836 1.83431E+01 3.08851E+01 5.00000E+00
 -1     24837 2.47765E+01 4.32982E+01 5.00000E+00
 -1     24838 3.66814E+01 4.79776E+01 5.00000E+00
 -1     24839 3.07849E+01 3.88177E+01 5.00000E+00
 -1     24840 3.00643E+01 3.81161E+01 5.00000E+00
 -1     24841 3.05584E+01 3.98452E+01 5.00000E+00
 -1     24842 2.91314E+01 3.83991E+01 5.00000E+00
 -1     24843 3.74254E+01 4.74935E+01 5.00000E+00
 -1     24844 3.71916E+01 4.64978E+01 5.00000E+00
 -1     24845 3.46134E+01 4.52685E+01 5.00000E+00
 -1     24846 3.38459E+01 4.44698E+01 5.00000E+00
 -1     24847 9.91213E+00 2.23202E+01 5.00000E+00
 -1     24848 2.66251E+01 4.38048E+01 5.00000E+00
 -1     24849 2.45155E+01 4.24025E+01 5.00000E+00
 -1     24850 2.54597E+01 4.26336E+01 5.00000E+00
 -1     24851 2.64842E+01 4.26928E+01 5.00000E+00
 -1     24852 2.73887E+01 4.29683E+01 5.00000E+00
 -1     24853 2.62233E+01 4.17971E+01 5.00000E+00
 -1     24854 9.40274E+00 2.73701E+01 5.00000E+00
 -1     24855 9.38584E+00 2.83689E+01 5.00000E+00
 -1     24856 1.02626E+01 2.68859E+01 5.00000E+00
 -1     24857 3.17864E+01 4.23828E+01 5.00000E+00
 -1     24858 3.10345E+01 4.17094E+01 5.00000E+00
 -1     24859 3.16499E+01 4.33070E+01 5.00000E+00
 -1     24860 1.64678E+01 3.96366E+01 5.00000E+00
 -1     24861 1.72238E+01 3.89370E+01 5.00000E+00
 -1     24862 1.55490E+01 3.93812E+01 5.00000E+00
 -1     24863 2.35900E+01 4.21800E+01 5.00000E+00
 -1     24864 2.42733E+01 4.15154E+01 5.00000E+00
 -1     24865 2.26726E+01 4.18842E+01 5.00000E+00
 -1     24866 2.82036E+01 4.34837E+01 5.00000E+00
 -1     24867 2.91470E+01 4.37563E+01 5.00000E+00
 -1     24868 2.80627E+01 4.23717E+01 5.00000E+00
 -1     24869 1.18517E+01 3.84235E+01 5.00000E+00
 -1     24870 1.27559E+01 3.86814E+01 5.00000E+00
 -1     24871 1.16212E+01 3.75191E+01 5.00000E+00
 -1     24872 9.40828E+00 2.93351E+01 5.00000E+00
 -1     24873 9.41612E+00 3.03113E+01 5.00000E+00
 -1     24874 1.02454E+01 2.88413E+01 5.00000E+00
 -1     24875 1.13052E+01 2.44720E+01 5.00000E+00
 -1     24876 1.14714E+01 2.35129E+01 5.00000E+00
 -1     24877 1.36886E+01 3.89201E+01 5.00000E+00
 -1     24878 1.46102E+01 3.91726E+01 5.00000E+00
 -1     24879 1.53568E+01 3.84853E+01 5.00000E+00
 -1     24880 1.34852E+01 3.80380E+01 5.00000E+00
 -1     24881 1.58475E+01 2.72109E+01 5.00000E+00
 -1     24882 1.51494E+01 2.65436E+01 5.00000E+00
 -1     24883 9.00500E+00 3.76201E+01 5.00000E+00
 -1     24884 2.60291E+01 3.65810E+01 5.00000E+00
 -1     24885 2.52707E+01 3.59278E+01 5.00000E+00
 -1     24886 2.44762E+01 3.53314E+01 5.00000E+00
 -1     24887 2.37050E+01 3.47007E+01 5.00000E+00
 -1     24888 2.43007E+01 3.62668E+01 5.00000E+00
 -1     24889 3.29542E+01 4.46630E+01 5.00000E+00
 -1     24890 2.98359E+01 4.28644E+01 5.00000E+00
 -1     24891 3.01053E+01 4.37336E+01 5.00000E+00
 -1     24892 9.64954E+00 3.69607E+01 5.00000E+00
 -1     24893 2.28889E+01 3.41048E+01 5.00000E+00
 -1     24894 2.21390E+01 3.34589E+01 5.00000E+00
 -1     24895 2.26901E+01 3.50744E+01 5.00000E+00
 -1     24896 9.45752E+00 3.31410E+01 5.00000E+00
 -1     24897 9.46144E+00 3.41063E+01 5.00000E+00
 -1     24898 1.37434E+01 2.52386E+01 5.00000E+00
 -1     24899 1.28251E+01 2.55945E+01 5.00000E+00
 -1     24900 1.44708E+01 2.58772E+01 5.00000E+00
 -1     24901 3.75769E+01 4.83613E+01 5.00000E+00
 -1     24902 9.44748E+00 3.12544E+01 5.00000E+00
 -1     24903 9.45507E+00 3.22094E+01 5.00000E+00
 -1     24904 1.03330E+01 3.26254E+01 5.00000E+00
 -1     24905 1.02992E+01 3.07506E+01 5.00000E+00
 -1     24906 1.42513E+01 2.68178E+01 5.00000E+00
 -1     24907 3.10328E+01 4.39837E+01 5.00000E+00
 -1     24908 7.66219E+00 2.03738E+01 5.00000E+00
 -1     24909 3.23371E+01 4.53397E+01 5.00000E+00
 -1     24910 2.89005E+01 3.93948E+01 5.00000E+00
 -1     24911 2.81898E+01 3.86807E+01 5.00000E+00
 -1     24912 1.07115E+01 2.29078E+01 5.00000E+00
 -1     24913 1.91941E+01 4.04806E+01 5.00000E+00
 -1     24914 2.00826E+01 4.08042E+01 5.00000E+00
 -1     24915 1.90470E+01 3.94960E+01 5.00000E+00
 -1     24916 1.71846E+01 2.85563E+01 5.00000E+00
 -1     24917 1.64888E+01 2.78833E+01 5.00000E+00
 -1     24918 1.69331E+01 2.94969E+01 5.00000E+00
 -1     24919 2.11271E+01 3.37988E+01 5.00000E+00
 -1     24920 9.48654E+00 3.50370E+01 5.00000E+00
 -1     24921 9.49743E+00 3.60505E+01 5.00000E+00
 -1     24922 1.05377E+01 3.63287E+01 5.00000E+00
 -1     24923 1.03605E+01 3.44878E+01 5.00000E+00
 -1     24924 3.53440E+01 4.58592E+01 5.00000E+00
 -1     24925 3.61769E+01 4.60465E+01 5.00000E+00
 -1     24926 1.55711E+01 2.81567E+01 5.00000E+00
 -1     24927 1.11898E+01 2.54671E+01 5.00000E+00
 -1     24928 2.07262E+01 3.49512E+01 5.00000E+00
 -1     24929 1.99792E+01 3.42715E+01 5.00000E+00
 -1     24930 2.67756E+01 3.72446E+01 5.00000E+00
 -1     24931 2.58416E+01 3.75267E+01 5.00000E+00
 -1     24932 2.75044E+01 3.79376E+01 5.00000E+00
 -1     24933 2.91133E+01 4.20009E+01 5.00000E+00
 -1     24934 3.00717E+01 4.19782E+01 5.00000E+00
 -1     24935 3.03119E+01 4.08459E+01 5.00000E+00
 -1     24936 2.82985E+01 4.14855E+01 5.00000E+00
 -1     24937 1.19579E+01 2.59775E+01 5.00000E+00
 -1     24938 1.10703E+01 2.64071E+01 5.00000E+00
 -1     24939 1.10307E+01 2.73964E+01 5.00000E+00
 -1     24940 1.27056E+01 2.65345E+01 5.00000E+00
 -1     24941 1.80847E+01 3.18003E+01 5.00000E+00
 -1     24942 1.73955E+01 3.10799E+01 5.00000E+00
 -1     24943 1.70646E+01 3.79474E+01 5.00000E+00
 -1     24944 1.79927E+01 3.81904E+01 5.00000E+00
 -1     24945 3.18884E+01 4.44490E+01 5.00000E+00
 -1     24946 2.95956E+01 4.01140E+01 5.00000E+00
 -1     24947 2.86540E+01 4.03955E+01 5.00000E+00
 -1     24948 1.93541E+01 3.33447E+01 5.00000E+00
 -1     24949 1.86802E+01 3.25880E+01 5.00000E+00
 -1     24950 1.77326E+01 3.27827E+01 5.00000E+00
 -1     24951 1.89532E+01 3.44971E+01 5.00000E+00
 -1     24952 2.09440E+01 4.11760E+01 5.00000E+00
 -1     24953 2.18311E+01 4.15155E+01 5.00000E+00
 -1     24954 2.25062E+01 4.09241E+01 5.00000E+00
 -1     24955 2.08033E+01 4.01836E+01 5.00000E+00
 -1     24956 2.72735E+01 3.89333E+01 5.00000E+00
 -1     24957 2.70554E+01 3.98667E+01 5.00000E+00
 -1     24958 2.63700E+01 3.91237E+01 5.00000E+00
 -1     24959 2.56976E+01 3.84174E+01 5.00000E+00
 -1     24960 2.49511E+01 3.77538E+01 5.00000E+00
 -1     24961 2.54796E+01 3.93507E+01 5.00000E+00
 -1     24962 2.56754E+01 4.08975E+01 5.00000E+00
 -1     24963 2.66999E+01 4.09567E+01 5.00000E+00
 -1     24964 1.14253E+01 3.66638E+01 5.00000E+00
 -1     24965 1.23567E+01 3.69441E+01 5.00000E+00
 -1     24966 1.12732E+01 3.57536E+01 5.00000E+00
 -1     24967 1.10656E+01 2.83499E+01 5.00000E+00
 -1     24968 1.10880E+01 2.93161E+01 5.00000E+00
 -1     24969 1.18733E+01 2.78711E+01 5.00000E+00
 -1     24970 2.17079E+01 3.55071E+01 5.00000E+00
 -1     24971 2.05600E+01 3.59798E+01 5.00000E+00
 -1     24972 2.25239E+01 3.61030E+01 5.00000E+00
 -1     24973 2.41688E+01 3.72175E+01 5.00000E+00
 -1     24974 2.33743E+01 3.66211E+01 5.00000E+00
 -1     24975 2.40248E+01 3.81081E+01 5.00000E+00
 -1     24976 1.60776E+01 3.77884E+01 5.00000E+00
 -1     24977 1.68465E+01 3.70417E+01 5.00000E+00
 -1     24978 1.51387E+01 3.75797E+01 5.00000E+00
 -1     24979 1.11798E+01 3.02291E+01 5.00000E+00
 -1     24980 1.12112E+01 3.11722E+01 5.00000E+00
 -1     24981 1.20000E+01 2.97377E+01 5.00000E+00
 -1     24982 1.40968E+01 2.76450E+01 5.00000E+00
 -1     24983 1.34183E+01 2.69786E+01 5.00000E+00
 -1     24984 2.48671E+01 4.09839E+01 5.00000E+00
 -1     24985 2.53437E+01 4.01434E+01 5.00000E+00
 -1     24986 2.46713E+01 3.94371E+01 5.00000E+00
 -1     24987 2.39416E+01 4.07613E+01 5.00000E+00
 -1     24988 2.76033E+01 4.07663E+01 5.00000E+00
 -1     24989 1.89505E+01 3.84613E+01 5.00000E+00
 -1     24990 1.98455E+01 3.87772E+01 5.00000E+00
 -1     24991 1.87913E+01 3.74716E+01 5.00000E+00
 -1     24992 1.66853E+01 3.03997E+01 5.00000E+00
 -1     24993 1.59645E+01 2.97319E+01 5.00000E+00
 -1     24994 1.64269E+01 3.13148E+01 5.00000E+00
 -1     24995 1.51161E+01 2.91396E+01 5.00000E+00
 -1     24996 1.44748E+01 2.84672E+01 5.00000E+00
 -1     24997 1.48682E+01 3.00424E+01 5.00000E+00
 -1     24998 1.12339E+01 3.21128E+01 5.00000E+00
 -1     24999 1.12363E+01 3.30445E+01 5.00000E+00
 -1     25000 1.21145E+01 3.15912E+01 5.00000E+00
 -1     25001 1.25511E+01 2.73617E+01 5.00000E+00
 -1     25002 1.11971E+01 3.39336E+01 5.00000E+00
 -1     25003 1.12222E+01 3.48642E+01 5.00000E+00
 -1     25004 1.21098E+01 3.51994E+01 5.00000E+00
 -1     25005 1.20980E+01 3.34209E+01 5.00000E+00
 -1     25006 1.36417E+01 2.86280E+01 5.00000E+00
 -1     25007 1.25860E+01 2.83153E+01 5.00000E+00
 -1     25008 1.29640E+01 2.91374E+01 5.00000E+00
 -1     25009 1.32678E+01 3.71987E+01 5.00000E+00
 -1     25010 1.42005E+01 3.74374E+01 5.00000E+00
 -1     25011 1.49213E+01 3.67404E+01 5.00000E+00
 -1     25012 1.30720E+01 3.63434E+01 5.00000E+00
 -1     25013 1.30558E+01 3.00504E+01 5.00000E+00
 -1     25014 1.65475E+01 3.61136E+01 5.00000E+00
 -1     25015 1.75345E+01 3.62726E+01 5.00000E+00
 -1     25016 2.32347E+01 4.03616E+01 5.00000E+00
 -1     25017 2.38286E+01 3.98301E+01 5.00000E+00
 -1     25018 2.23932E+01 3.99929E+01 5.00000E+00
 -1     25019 2.06453E+01 3.71391E+01 5.00000E+00
 -1     25020 1.96637E+01 3.65832E+01 5.00000E+00
 -1     25021 2.23921E+01 3.70537E+01 5.00000E+00
 -1     25022 1.62756E+01 3.21391E+01 5.00000E+00
 -1     25023 1.55654E+01 3.14589E+01 5.00000E+00
 -1     25024 1.47904E+01 3.10593E+01 5.00000E+00
 -1     25025 1.39420E+01 3.04670E+01 5.00000E+00
 -1     25026 1.29780E+01 3.10673E+01 5.00000E+00
 -1     25027 1.46391E+01 3.18835E+01 5.00000E+00
 -1     25028 1.30007E+01 3.20078E+01 5.00000E+00
 -1     25029 1.84069E+01 3.53841E+01 5.00000E+00
 -1     25030 1.77817E+01 3.44574E+01 5.00000E+00
 -1     25031 1.73091E+01 3.36399E+01 5.00000E+00
 -1     25032 1.67137E+01 3.28522E+01 5.00000E+00
 -1     25033 1.58522E+01 3.29963E+01 5.00000E+00
 -1     25034 1.67628E+01 3.45269E+01 5.00000E+00
 -1     25035 2.07269E+01 3.91917E+01 5.00000E+00
 -1     25036 2.15883E+01 3.95635E+01 5.00000E+00
 -1     25037 2.23167E+01 3.90009E+01 5.00000E+00
 -1     25038 2.06305E+01 3.81570E+01 5.00000E+00
 -1     25039 1.39677E+01 3.24845E+01 5.00000E+00
 -1     25040 1.31042E+01 3.30084E+01 5.00000E+00
 -1     25041 1.30650E+01 3.38975E+01 5.00000E+00
 -1     25042 1.47427E+01 3.28841E+01 5.00000E+00
 -1     25043 2.15268E+01 3.75536E+01 5.00000E+00
 -1     25044 2.23772E+01 3.80717E+01 5.00000E+00
 -1     25045 2.39644E+01 3.90374E+01 5.00000E+00
 -1     25046 2.31820E+01 3.85011E+01 5.00000E+00
 -1     25047 1.55452E+01 3.60274E+01 5.00000E+00
 -1     25048 1.62331E+01 3.52582E+01 5.00000E+00
 -1     25049 1.57606E+01 3.44408E+01 5.00000E+00
 -1     25050 1.46070E+01 3.58851E+01 5.00000E+00
 -1     25051 1.27892E+01 3.47025E+01 5.00000E+00
 -1     25052 1.28403E+01 3.55919E+01 5.00000E+00
 -1     25053 1.37514E+01 3.58466E+01 5.00000E+00
 -1     25054 1.37955E+01 3.42901E+01 5.00000E+00
 -1     25055 1.87060E+01 3.63123E+01 5.00000E+00
 -1     25056 1.51808E+01 3.35973E+01 5.00000E+00
 -1     25057 1.43753E+01 3.51336E+01 5.00000E+00
 -1     25058 1.46511E+01 3.43286E+01 5.00000E+00
 -1     25059 2.00234E+01 3.50633E+01 2.50000E+00
 -1     25060 2.11712E+01 3.45907E+01 2.50000E+00
 -1     25061 2.10050E+01 3.56192E+01 2.50000E+00
 -1     25062 1.89088E+01 4.88470E+01 5.30536E-01
 -1     25063 1.94146E+01 4.83832E+01 1.84468E+00
 -1     25064 1.85856E+01 4.77649E+01 1.31414E+00
 -1     25065 1.78518E+01 4.82597E+01 5.65810E-01
 -1     25066 1.86809E+01 4.88780E+01 1.09635E+00
 -1     25067 1.83576E+01 4.77960E+01 1.87995E+00
 -1     25068 1.43073E+01 2.24451E+01 2.50000E+00
 -1     25069 1.52480E+01 2.21308E+01 2.50000E+00
 -1     25070 1.50452E+01 2.30862E+01 2.50000E+00
 -1     25071 1.27821E+01 2.27338E+01 1.24170E+00
 -1     25072 1.27667E+01 2.27188E+01 3.74170E+00
 -1     25073 1.35760E+01 2.17955E+01 2.50000E+00
 -1     25074 1.20509E+01 2.20842E+01 1.24170E+00
 -1     25075 2.66228E+00 9.13268E+00 3.68802E+00
 -1     25076 3.55206E+00 9.62993E+00 3.68802E+00
 -1     25077 2.67500E+00 1.01362E+01 3.68802E+00
 -1     25078 2.06321E+01 2.93475E+01 2.50000E+00
 -1     25079 2.03757E+01 3.03363E+01 2.50000E+00
 -1     25080 1.96755E+01 2.96319E+01 2.50000E+00
 -1     25081 2.64311E+01 4.95692E+01 1.31395E+00
 -1     25082 2.62428E+01 4.85992E+01 1.31395E+00
 -1     25083 2.55067E+01 4.92633E+01 1.31395E+00
 -1     25084 5.17932E+00 1.59558E+01 2.50000E+00
 -1     25085 4.26280E+00 1.64434E+01 2.50000E+00
 -1     25086 5.08489E+00 1.69472E+01 2.50000E+00
 -1     25087 4.21896E+00 1.86962E+01 1.19188E+00
 -1     25088 4.20374E+00 1.96920E+01 1.19188E+00
 -1     25089 5.01002E+00 1.79131E+01 2.50000E+00
 -1     25090 4.18855E+00 1.96561E+01 3.69188E+00
 -1     25091 4.99480E+00 1.89089E+01 2.50000E+00
 -1     25092 4.71247E+01 5.17425E+01 4.05022E+00
 -1     25093 4.71247E+01 5.07425E+01 4.05022E+00
 -1     25094 4.71247E+01 5.11142E+01 2.86063E+00
 -1     25095 2.16520E+01 4.73093E+01 3.88289E+00
 -1     25096 2.18504E+01 4.82646E+01 3.88289E+00
 -1     25097 2.25759E+01 4.76099E+01 3.88289E+00
 -1     25098 1.60661E+01 3.14402E+01 3.81011E+00
 -1     25099 1.67763E+01 3.21204E+01 3.81011E+00
 -1     25100 1.59148E+01 3.22645E+01 3.81011E+00
 -1     25101 5.93078E+00 3.23955E+01 2.50000E+00
 -1     25102 5.90573E+00 3.33640E+01 2.50000E+00
 -1     25103 6.79242E+00 3.28550E+01 2.50000E+00
 -1     25104 6.76736E+00 3.38235E+01 2.50000E+00
 -1     25105 2.21105E+01 4.68798E+01 2.50000E+00
 -1     25106 2.11867E+01 4.65793E+01 2.50000E+00
 -1     25107 2.19204E+01 4.59126E+01 2.50000E+00
 -1     25108 2.09965E+01 4.56121E+01 2.50000E+00
 -1     25109 3.52960E+00 8.63086E+00 3.68802E+00
 -1     25110 1.84543E+00 7.99640E+00 3.75624E+00
 -1     25111 2.71275E+00 7.49457E+00 3.75624E+00
 -1     25112 2.72653E+00 8.16528E+00 2.44426E+00
 -1     25113 4.55432E+01 4.35306E+01 3.04343E+00
 -1     25114 4.52523E+01 4.26650E+01 2.27016E+00
 -1     25115 4.60159E+01 4.37352E+01 2.28855E+00
 -1     25116 4.55449E+01 4.40022E+01 1.53092E+00
 -1     25117 4.47814E+01 4.29320E+01 1.51252E+00
 -1     25118 4.52540E+01 4.31366E+01 7.57637E-01
 -1     25119 9.33008E-01 4.27353E+01 3.98509E+00
 -1     25120 1.23434E+00 4.23710E+01 4.44526E+00
 -1     25121 1.41002E+00 4.30826E+01 4.53983E+00
 -1     25122 1.36908E+00 4.32132E+01 3.51886E+00
 -1     25123 1.19339E+00 4.25017E+01 3.42429E+00
 -1     25124 1.67041E+00 4.28489E+01 3.97903E+00
 -1     25125 7.80744E+00 1.80123E+01 1.22794E+00
 -1     25126 7.02894E+00 1.74457E+01 1.22794E+00
 -1     25127 6.96259E+00 1.84363E+01 1.22794E+00
 -1     25128 4.74506E+01 5.86843E+01 3.24586E+00
 -1     25129 4.74506E+01 5.93428E+01 3.01547E+00
 -1     25130 4.73852E+01 5.86324E+01 3.90752E+00
 -1     25131 4.68358E+01 5.86337E+01 3.35925E+00
 -1     25132 4.73852E+01 5.92909E+01 3.67712E+00
 -1     25133 1.10657E+01 2.24583E+01 3.74170E+00
 -1     25134 1.08874E+01 2.34570E+01 3.74170E+00
 -1     25135 1.00880E+01 2.28694E+01 3.74170E+00
 -1     25136 1.61853E+01 2.18079E+01 2.50000E+00
 -1     25137 1.59825E+01 2.27632E+01 2.50000E+00
 -1     25138 6.97661E+00 2.37966E+01 2.50000E+00
 -1     25139 6.09129E+00 2.33290E+01 2.50000E+00
 -1     25140 6.88302E+00 2.28173E+01 2.50000E+00
 -1     25141 5.99770E+00 2.23497E+01 2.50000E+00
 -1     25142 3.23899E+01 3.04472E+01 3.53493E+00
 -1     25143 3.31212E+01 3.11176E+01 3.52792E+00
 -1     25144 3.28720E+01 3.08892E+01 4.36377E+00
 -1     25145 2.89420E+01 4.63309E+01 2.50000E+00
 -1     25146 2.87293E+01 4.53529E+01 2.50000E+00
 -1     25147 2.80094E+01 4.60528E+01 2.50000E+00
 -1     25148 1.56658E+01 3.48808E+01 3.77513E+00
 -1     25149 1.61384E+01 3.56983E+01 3.77513E+00
 -1     25150 1.57285E+01 3.41490E+01 2.58524E+00
 -1     25151 1.63529E+01 3.29776E+01 3.81011E+00
 -1     25152 1.68255E+01 3.37951E+01 3.81011E+00
 -1     25153 4.75216E+01 4.69443E+01 1.30805E+00
 -1     25154 4.73987E+01 4.61409E+01 1.45165E+00
 -1     25155 4.69203E+01 4.65686E+01 1.08965E+00
 -1     25156 4.63611E+01 4.72768E+01 1.66425E+00
 -1     25157 4.68395E+01 4.68491E+01 2.02624E+00
 -1     25158 4.62382E+01 4.64734E+01 1.80784E+00
 -1     25159 2.30397E+01 3.64118E+01 2.50000E+00
 -1     25160 2.29078E+01 3.73625E+01 2.50000E+00
 -1     25161 2.20574E+01 3.68445E+01 2.50000E+00
 -1     25162 3.72804E+01 3.71314E+01 4.10100E+00
 -1     25163 3.83848E+01 3.75510E+01 3.34590E+00
 -1     25164 3.87035E+01 3.60709E+01 2.44690E+00
 -1     25165 3.74933E+01 3.61427E+01 4.10100E+00
 -1     25166 3.85977E+01 3.65623E+01 3.34590E+00
 -1     25167 1.81678E+01 4.02039E+01 2.50000E+00
 -1     25168 1.91061E+01 4.04886E+01 2.50000E+00
 -1     25169 1.80207E+01 3.92193E+01 2.50000E+00
 -1     25170 1.89590E+01 3.95040E+01 2.50000E+00
 -1     25171 3.61458E+01 4.25819E+01 2.50000E+00
 -1     25172 3.63405E+01 4.15498E+01 2.50000E+00
 -1     25173 3.70369E+01 4.22301E+01 3.67850E+00
 -1     25174 3.70245E+01 4.21361E+01 1.17850E+00
 -1     25175 3.72315E+01 4.11981E+01 3.67850E+00
 -1     25176 2.95059E+01 4.01642E+01 2.50000E+00
 -1     25177 2.83827E+01 4.05348E+01 2.50000E+00
 -1     25178 2.88108E+01 3.94451E+01 2.50000E+00
 -1     25179 2.76876E+01 3.98157E+01 2.50000E+00
 -1     25180 2.63073E+01 3.91171E+01 2.50000E+00
 -1     25181 2.56349E+01 3.84108E+01 2.50000E+00
 -1     25182 2.53847E+01 3.91959E+01 1.29269E+00
 -1     25183 2.52293E+01 4.01358E+01 3.79269E+00
 -1     25184 2.45569E+01 3.94295E+01 3.79269E+00
 -1     25185 2.59520E+01 4.45002E+01 2.50000E+00
 -1     25186 2.68565E+01 4.47756E+01 2.50000E+00
 -1     25187 2.61530E+01 4.54693E+01 2.50000E+00
 -1     25188 8.29170E+00 1.05086E+01 1.37542E+00
 -1     25189 9.01506E+00 9.86084E+00 2.77582E+00
 -1     25190 8.81690E+00 1.11778E+01 1.40040E+00
 -1     25191 8.77192E+00 1.08386E+01 6.75038E-01
 -1     25192 8.97008E+00 9.52160E+00 2.05046E+00
 -1     25193 9.49528E+00 1.01908E+01 2.07544E+00
 -1     25194 7.10718E+00 1.63608E+01 1.22794E+00
 -1     25195 7.93545E+00 1.70408E+01 1.22794E+00
 -1     25196 8.15074E+00 1.60597E+01 1.22794E+00
 -1     25197 2.19226E+01 4.13395E+01 3.76416E+00
 -1     25198 2.28401E+01 4.16353E+01 3.76416E+00
 -1     25199 2.29714E+01 4.26830E+01 2.50000E+00
 -1     25200 2.20540E+01 4.23872E+01 2.50000E+00
 -1     25201 2.19792E+01 4.12512E+01 1.26416E+00
 -1     25202 3.31226E+01 3.36987E+01 5.32616E-01
 -1     25203 3.25188E+01 3.27437E+01 1.75982E+00
 -1     25204 3.19593E+01 3.36164E+01 1.22720E+00
 -1     25205 3.27797E+01 3.43859E+01 1.53065E+00
 -1     25206 3.33392E+01 3.35132E+01 2.06326E+00
 -1     25207 3.21759E+01 3.34309E+01 2.75785E+00
 -1     25208 1.32938E+01 1.28130E+01 3.53709E+00
 -1     25209 1.28105E+01 1.23699E+01 4.37098E+00
 -1     25210 1.30515E+01 1.33327E+01 3.94187E+00
 -1     25211 1.38152E+01 1.34058E+01 3.73699E+00
 -1     25212 1.33319E+01 1.29628E+01 4.57088E+00
 -1     25213 1.76179E+00 1.13131E+01 1.44963E+00
 -1     25214 1.74351E+00 1.23133E+01 1.44963E+00
 -1     25215 1.29313E+00 1.18509E+01 2.12354E+00
 -1     25216 1.18383E+00 1.15689E+01 6.73913E-01
 -1     25217 1.16555E+00 1.25690E+01 6.73913E-01
 -1     25218 1.59961E+01 1.99108E+01 3.76584E+00
 -1     25219 1.62094E+01 1.89414E+01 3.76584E+00
 -1     25220 1.69411E+01 1.95966E+01 3.76584E+00
 -1     25221 2.05821E+01 2.19955E+01 3.75117E+00
 -1     25222 1.96420E+01 2.22922E+01 3.75117E+00
 -1     25223 2.03668E+01 2.29603E+01 3.75117E+00
 -1     25224 3.01774E+01 4.37759E+01 2.50000E+00
 -1     25225 2.91999E+01 4.38253E+01 2.50000E+00
 -1     25226 3.08663E+01 4.28841E+01 2.50000E+00
 -1     25227 2.98888E+01 4.29335E+01 2.50000E+00
 -1     25228 1.69159E+01 2.24647E+01 2.50000E+00
 -1     25229 2.55330E+00 1.18406E+01 1.44963E+00
 -1     25230 4.50397E+01 4.73824E+01 1.19122E+00
 -1     25231 4.59542E+01 4.69866E+01 1.19122E+00
 -1     25232 4.51190E+01 4.63342E+01 1.19122E+00
 -1     25233 9.54839E-01 7.51450E+00 1.25624E+00
 -1     25234 9.54839E-01 8.16288E+00 2.05976E+00
 -1     25235 7.12921E-01 9.39036E+00 1.57920E+00
 -1     25236 7.12921E-01 8.74197E+00 7.75679E-01
 -1     25237 1.66776E+00 8.25647E+00 2.03192E+00
 -1     25238 2.35021E+01 4.79010E+01 3.88289E+00
 -1     25239 2.27750E+01 4.85651E+01 3.88289E+00
 -1     25240 9.47853E+00 2.53713E+01 2.50000E+00
 -1     25241 8.61866E+00 2.58554E+01 2.50000E+00
 -1     25242 8.67967E+00 2.48330E+01 2.50000E+00
 -1     25243 1.87821E+00 6.96754E+00 3.75624E+00
 -1     25244 9.54839E-01 7.51450E+00 3.75624E+00
 -1     25245 1.81794E+01 2.47440E+01 2.50000E+00
 -1     25246 1.89110E+01 2.54011E+01 2.50000E+00
 -1     25247 1.91054E+01 2.44430E+01 2.50000E+00
 -1     25248 1.37115E+01 1.56762E+01 1.96434E+00
 -1     25249 1.29800E+01 1.52861E+01 1.74492E+00
 -1     25250 1.43236E+01 1.53753E+01 1.16231E+00
 -1     25251 1.43900E+01 1.64952E+01 6.90862E-01
 -1     25252 1.30465E+01 1.64059E+01 1.27348E+00
 -1     25253 1.36585E+01 1.61050E+01 4.71444E-01
 -1     25254 1.06914E+01 1.91831E+01 2.50000E+00
 -1     25255 9.98225E+00 1.85310E+01 2.50000E+00
 -1     25256 1.09152E+01 1.81863E+01 2.50000E+00
 -1     25257 1.13972E+01 1.98654E+01 2.50000E+00
 -1     25258 1.16210E+01 1.88686E+01 2.50000E+00
 -1     25259 1.58828E+01 4.80448E+01 1.29567E+00
 -1     25260 1.61901E+01 4.81472E+01 2.12854E+00
 -1     25261 1.71196E+01 4.89146E+01 5.65810E-01
 -1     25262 1.63871E+01 4.74209E+01 1.86148E+00
 -1     25263 1.74269E+01 4.90171E+01 1.39868E+00
 -1     25264 3.54696E+01 3.34174E+01 2.72762E+00
 -1     25265 3.47144E+01 3.47484E+01 3.07706E+00
 -1     25266 3.50965E+01 3.41950E+01 1.95426E+00
 -1     25267 3.60911E+01 3.39871E+01 3.47704E+00
 -1     25268 3.57179E+01 3.47647E+01 2.70368E+00
 -1     25269 1.67317E+01 2.05594E+01 3.76584E+00
 -1     25270 1.64055E+00 4.18784E+01 3.97903E+00
 -1     25271 1.20448E+00 4.14005E+01 4.44526E+00
 -1     25272 3.62040E+01 3.40052E+01 1.59221E+00
 -1     25273 3.64599E+01 3.42398E+01 7.89805E-01
 -1     25274 3.54487E+01 3.53362E+01 1.94166E+00
 -1     25275 3.53524E+01 3.44297E+01 1.15185E+00
 -1     25276 2.50997E+00 1.91412E+01 2.40647E+00
 -1     25277 3.39165E+00 1.91815E+01 3.69188E+00
 -1     25278 2.50413E+00 1.78835E+01 3.71459E+00
 -1     25279 1.58087E+00 1.86727E+01 2.97592E+00
 -1     25280 2.46839E+00 1.99707E+01 2.95321E+00
 -1     25281 2.46255E+00 1.87129E+01 4.26133E+00
 -1     25282 3.10065E+01 3.39268E+01 1.22720E+00
 -1     25283 3.18269E+01 3.46963E+01 1.53065E+00
 -1     25284 4.03739E+01 5.69770E+01 2.08253E+00
 -1     25285 4.04613E+01 5.65755E+01 1.35004E+00
 -1     25286 3.96061E+01 5.67714E+01 1.72155E+00
 -1     25287 3.96301E+01 5.66908E+01 2.75847E+00
 -1     25288 4.04853E+01 5.64949E+01 2.38696E+00
 -1     25289 3.97174E+01 5.62893E+01 2.02597E+00
 -1     25290 3.97760E+01 5.11705E+01 2.50000E+00
 -1     25291 3.88695E+01 5.19838E+01 2.50000E+00
 -1     25292 3.87201E+01 5.08338E+01 2.50000E+00
 -1     25293 5.18758E+00 2.28722E+01 2.50000E+00
 -1     25294 3.33217E+01 3.15203E+01 1.36803E+00
 -1     25295 3.24440E+01 3.03856E+01 1.34271E+00
 -1     25296 3.28043E+01 3.16914E+01 1.03991E+00
 -1     25297 3.21584E+01 3.14379E+01 2.06261E+00
 -1     25298 3.16411E+01 3.16090E+01 1.73450E+00
 -1     25299 6.07098E+00 2.43549E+01 2.50000E+00
 -1     25300 4.02830E+00 2.32243E+01 3.75624E+00
 -1     25301 4.84700E+00 2.37550E+01 1.25624E+00
 -1     25302 4.00799E+00 2.42502E+01 3.75624E+00
 -1     25303 4.27529E+01 4.52352E+01 2.50000E+00
 -1     25304 4.23896E+01 4.64888E+01 2.50000E+00
 -1     25305 4.35120E+01 4.59731E+01 2.50000E+00
 -1     25306 2.99513E-01 1.32586E+01 1.34995E+00
 -1     25307 6.57098E-01 1.29579E+01 1.22061E+00
 -1     25308 3.57586E-01 1.24074E+01 1.47717E+00
 -1     25309 2.99513E-01 1.35370E+01 2.19673E+00
 -1     25310 3.57586E-01 1.26858E+01 2.32395E+00
 -1     25311 3.40532E+01 3.21909E+01 1.36109E+00
 -1     25312 3.28899E+01 3.21085E+01 2.05567E+00
 -1     25313 3.37103E+01 3.28780E+01 2.35912E+00
 -1     25314 1.12382E+00 1.37268E+01 2.11949E+00
 -1     25315 1.10748E+00 1.34203E+01 5.46693E-01
 -1     25316 1.63227E+00 1.33380E+01 1.57279E+00
 -1     25317 2.43140E+00 1.38532E+01 1.57279E+00
 -1     25318 1.90660E+00 1.39355E+01 5.46693E-01
 -1     25319 2.00962E+01 3.60404E+01 2.50000E+00
 -1     25320 2.10778E+01 3.65963E+01 2.50000E+00
 -1     25321 2.63307E+01 3.11306E+01 2.50000E+00
 -1     25322 2.56119E+01 3.04541E+01 2.50000E+00
 -1     25323 2.53998E+01 3.14101E+01 2.50000E+00
 -1     25324 2.16947E+01 3.83696E+01 3.76416E+00
 -1     25325 2.16799E+01 3.93875E+01 3.76416E+00
 -1     25326 2.25451E+01 3.88877E+01 3.76416E+00
 -1     25327 4.22924E+01 4.75496E+01 2.50000E+00
 -1     25328 4.33074E+01 4.81743E+01 2.50000E+00
 -1     25329 4.23297E+01 4.88572E+01 2.50000E+00
 -1     25330 4.43871E+01 5.81930E+01 2.84062E+00
 -1     25331 4.43782E+01 5.78156E+01 3.70913E+00
 -1     25332 4.37044E+01 5.81937E+01 2.66474E+00
 -1     25333 4.50253E+01 5.84057E+01 3.62592E+00
 -1     25334 4.43426E+01 5.84064E+01 3.45004E+00
 -1     25335 2.07984E+01 3.89730E+01 3.76416E+00
 -1     25336 2.32272E+01 2.94092E+01 2.50000E+00
 -1     25337 2.29877E+01 3.03899E+01 2.50000E+00
 -1     25338 2.22666E+01 2.97293E+01 2.50000E+00
 -1     25339 2.25060E+01 2.87486E+01 2.50000E+00
 -1     25340 1.74881E+01 4.08691E+01 2.50000E+00
 -1     25341 1.76538E+01 4.18248E+01 2.50000E+00
 -1     25342 1.83912E+01 4.11541E+01 2.50000E+00
 -1     25343 2.39633E+01 4.05608E+01 1.29269E+00
 -1     25344 2.37424E+01 3.95842E+01 1.29269E+00
 -1     25345 2.27338E+01 4.05553E+01 1.26416E+00
 -1     25346 2.30773E+01 4.02090E+01 2.55685E+00
 -1     25347 2.25129E+01 3.95787E+01 1.26416E+00
 -1     25348 1.96021E+01 3.88567E+01 2.50000E+00
 -1     25349 1.87071E+01 3.85408E+01 2.50000E+00
 -1     25350 1.95057E+01 3.78220E+01 2.50000E+00
 -1     25351 1.59020E+01 3.35479E+01 1.31011E+00
 -1     25352 1.59246E+01 3.25002E+01 1.31011E+00
 -1     25353 1.50285E+01 3.31254E+01 1.31011E+00
 -1     25354 2.56231E+01 4.70984E+01 2.50000E+00
 -1     25355 2.62258E+01 4.85933E+01 3.81395E+00
 -1     25356 2.53178E+01 4.82921E+01 1.31395E+00
 -1     25357 2.63573E+01 4.64353E+01 2.50000E+00
 -1     25358 2.60520E+01 4.76290E+01 1.31395E+00
 -1     25359 2.50348E+01 4.41851E+01 2.50000E+00
 -1     25360 2.57838E+01 4.35095E+01 2.50000E+00
 -1     25361 2.48604E+01 4.31989E+01 2.50000E+00
 -1     25362 1.86893E+01 2.63625E+01 2.50000E+00
 -1     25363 1.84984E+01 2.73195E+01 2.50000E+00
 -1     25364 1.92087E+01 2.79968E+01 2.50000E+00
 -1     25365 1.93996E+01 2.70397E+01 2.50000E+00
 -1     25366 1.17446E+01 2.76034E+01 3.75958E+00
 -1     25367 1.25872E+01 2.80782E+01 3.75958E+00
 -1     25368 1.17670E+01 2.85696E+01 3.75958E+00
 -1     25369 9.25135E+00 4.68545E+01 4.01136E+00
 -1     25370 8.44000E+00 4.65840E+01 4.17069E+00
 -1     25371 8.88992E+00 4.67340E+01 4.83127E+00
 -1     25372 4.55032E+01 4.23122E+01 4.51488E+00
 -1     25373 4.57803E+01 4.25661E+01 3.63355E+00
 -1     25374 4.53476E+01 4.28757E+01 3.52740E+00
 -1     25375 4.49353E+01 4.18969E+01 4.01252E+00
 -1     25376 4.52124E+01 4.21509E+01 3.13119E+00
 -1     25377 4.54833E+01 4.93577E+01 5.84806E-01
 -1     25378 4.49720E+01 4.84456E+01 1.19122E+00
 -1     25379 4.61902E+01 4.80937E+01 1.77602E+00
 -1     25380 4.64237E+01 4.89347E+01 5.84806E-01
 -1     25381 4.59124E+01 4.80226E+01 1.19122E+00
 -1     25382 2.20601E+01 3.06833E+01 2.50000E+00
 -1     25383 2.13459E+01 3.00040E+01 2.50000E+00
 -1     25384 2.15524E+01 2.90500E+01 2.50000E+00
 -1     25385 1.75831E+01 1.67758E+01 4.46019E+00
 -1     25386 1.80675E+01 1.72198E+01 3.62681E+00
 -1     25387 1.73402E+01 1.65531E+01 3.62676E+00
 -1     25388 3.78660E-01 4.30119E+01 4.44526E+00
 -1     25389 5.54348E-01 4.37235E+01 4.53983E+00
 -1     25390 1.63834E+01 3.96271E+01 2.50000E+00
 -1     25391 1.61638E+01 3.86786E+01 2.50000E+00
 -1     25392 1.54172E+01 3.93658E+01 2.50000E+00
 -1     25393 1.56368E+01 4.03143E+01 2.50000E+00
 -1     25394 3.98821E+01 4.04989E+01 1.16557E+00
 -1     25395 4.06335E+01 4.11969E+01 1.16557E+00
 -1     25396 4.08175E+01 4.01732E+01 1.16557E+00
 -1     25397 1.36496E+01 4.32092E+01 2.50000E+00
 -1     25398 1.43625E+01 4.25508E+01 2.50000E+00
 -1     25399 1.45658E+01 4.35116E+01 2.50000E+00
 -1     25400 1.30600E+01 3.94563E+01 3.73837E+00
 -1     25401 1.21385E+01 3.92038E+01 3.73837E+00
 -1     25402 1.23237E+01 4.01145E+01 3.73837E+00
 -1     25403 5.11202E+00 8.95584E+00 2.08174E+00
 -1     25404 5.84562E+00 8.76276E+00 3.39372E+00
 -1     25405 4.27698E+00 9.10849E+00 3.68802E+00
 -1     25406 5.09313E+00 9.91418E+00 1.18802E+00
 -1     25407 6.66177E+00 9.56845E+00 8.93721E-01
 -1     25408 5.82672E+00 9.72110E+00 2.50000E+00
 -1     25409 1.07719E+01 2.44520E+01 3.74170E+00
 -1     25410 9.97307E+00 2.39138E+01 3.74170E+00
 -1     25411 3.36688E+01 3.48632E+01 2.68250E+00
 -1     25412 3.32243E+01 3.60325E+01 1.15185E+00
 -1     25413 3.25519E+01 3.53696E+01 1.53065E+00
 -1     25414 3.34522E+01 3.50487E+01 1.15185E+00
 -1     25415 6.82972E+00 2.89131E+01 2.50000E+00
 -1     25416 7.68192E+00 2.84099E+01 2.50000E+00
 -1     25417 6.84018E+00 2.79154E+01 2.50000E+00
 -1     25418 2.95660E+01 3.25643E+01 3.72720E+00
 -1     25419 3.05153E+01 3.22649E+01 3.72720E+00
 -1     25420 3.07819E+01 3.14587E+01 2.47066E+00
 -1     25421 2.89924E+01 3.13616E+01 3.74346E+00
 -1     25422 2.99417E+01 3.10622E+01 3.74346E+00
 -1     25423 5.97946E+00 2.84293E+01 2.50000E+00
 -1     25424 5.96002E+00 2.94385E+01 2.50000E+00
 -1     25425 6.81028E+00 2.99224E+01 2.50000E+00
 -1     25426 2.20459E+01 4.92229E+01 3.88289E+00
 -1     25427 7.65426E+00 2.94347E+01 2.50000E+00
 -1     25428 1.54505E+01 3.64674E+01 3.77513E+00
 -1     25429 1.45122E+01 3.63251E+01 3.77513E+00
 -1     25430 1.47297E+01 3.71644E+01 3.77513E+00
 -1     25431 1.51009E+01 4.18934E+01 2.50000E+00
 -1     25432 1.41878E+01 4.16220E+01 2.50000E+00
 -1     25433 1.49241E+01 4.09637E+01 2.50000E+00
 -1     25434 1.65557E+01 4.05697E+01 2.50000E+00
 -1     25435 1.58135E+01 4.12440E+01 2.50000E+00
 -1     25436 3.94391E-01 1.39206E+01 3.50156E+00
 -1     25437 1.21870E+00 1.41104E+01 3.42432E+00
 -1     25438 8.24312E-01 1.34547E+01 3.22283E+00
 -1     25439 3.94391E-01 1.42882E+01 4.35153E+00
 -1     25440 8.24312E-01 1.38222E+01 4.07279E+00
 -1     25441 3.91427E+01 3.98004E+01 1.16557E+00
 -1     25442 3.82020E+01 4.00885E+01 1.16557E+00
 -1     25443 3.89352E+01 4.08010E+01 1.16557E+00
 -1     25444 3.57586E-01 1.15541E+01 2.22726E+00
 -1     25445 9.35546E-01 1.12983E+01 3.00297E+00
 -1     25446 9.35546E-01 1.24300E+01 3.09966E+00
 -1     25447 1.16840E+00 3.74192E+01 1.26384E+00
 -1     25448 6.18839E-01 3.78273E+01 1.95245E+00
 -1     25449 5.49557E-01 3.67847E+01 1.85017E+00
 -1     25450 5.49557E-01 3.71883E+01 5.80778E-01
 -1     25451 6.18839E-01 3.82309E+01 6.83066E-01
 -1     25452 1.19270E+01 3.48618E+01 3.86431E+00
 -1     25453 1.26575E+01 3.52543E+01 3.86431E+00
 -1     25454 1.19781E+01 3.57512E+01 3.86431E+00
 -1     25455 6.20684E+00 1.06041E+01 2.50000E+00
 -1     25456 7.37252E+00 1.02692E+01 2.50000E+00
 -1     25457 7.09640E+00 1.12807E+01 2.50000E+00
 -1     25458 3.05657E+01 5.20680E+01 1.20656E+00
 -1     25459 3.12887E+01 5.14192E+01 1.20656E+00
 -1     25460 3.03827E+01 5.10929E+01 1.20656E+00
 -1     25461 2.44340E+01 3.17248E+01 2.50000E+00
 -1     25462 2.35100E+01 3.19923E+01 2.50000E+00
 -1     25463 2.37158E+01 3.10532E+01 2.50000E+00
 -1     25464 3.57586E-01 1.15540E+01 1.33194E+00
 -1     25465 6.42007E-01 1.13211E+01 1.09933E+00
 -1     25466 2.84421E-01 1.07684E+01 1.08345E+00
 -1     25467 2.84421E-01 1.07686E+01 1.97876E+00
 -1     25468 3.50740E+01 3.92137E+01 2.50000E+00
 -1     25469 3.48838E+01 4.01606E+01 2.50000E+00
 -1     25470 3.41187E+01 3.95497E+01 2.50000E+00
 -1     25471 5.93935E+00 3.14216E+01 2.50000E+00
 -1     25472 6.79658E+00 3.18922E+01 2.50000E+00
 -1     25473 1.61066E+00 3.94987E+01 8.95008E-01
 -1     25474 1.61066E+00 4.01900E+01 1.68189E+00
 -1     25475 2.66500E-01 3.95980E+01 1.19056E+00
 -1     25476 1.87716E+00 3.97420E+01 2.95557E-01
 -1     25477 2.66500E-01 4.02893E+01 1.97745E+00
 -1     25478 7.69643E-01 2.00835E+01 2.59462E+00
 -1     25479 7.69643E-01 1.90830E+01 2.59459E+00
 -1     25480 1.69874E+00 2.05520E+01 2.02517E+00
 -1     25481 1.69874E+00 1.95516E+01 2.02514E+00
 -1     25482 6.89880E-01 2.16603E+01 2.29703E+00
 -1     25483 2.38863E+00 2.12139E+01 1.82228E+00
 -1     25484 1.69874E+00 2.08856E+01 2.85850E+00
 -1     25485 1.39200E+00 2.24911E+01 2.92287E+00
 -1     25486 2.08188E+00 2.28195E+01 1.88665E+00
 -1     25487 3.09075E+00 2.20448E+01 2.44812E+00
 -1     25488 8.87588E+00 1.67305E+01 1.22794E+00
 -1     25489 8.68925E+00 1.77069E+01 1.22794E+00
 -1     25490 7.64278E+00 3.04444E+01 2.50000E+00
 -1     25491 8.50282E+00 3.09174E+01 2.50000E+00
 -1     25492 7.64110E+00 3.14214E+01 2.50000E+00
 -1     25493 3.83686E+01 4.37407E+01 1.36003E+00
 -1     25494 3.91901E+01 4.44717E+01 1.36003E+00
 -1     25495 3.82107E+01 4.47552E+01 1.36003E+00
 -1     25496 1.98225E+01 1.90663E+01 2.47847E+00
 -1     25497 1.85285E+01 1.96141E+01 2.07766E+00
 -1     25498 1.85842E+01 1.87696E+01 2.93248E+00
 -1     25499 1.95800E+01 1.88439E+01 1.64511E+00
 -1     25500 1.83417E+01 1.85472E+01 2.09911E+00
 -1     25501 1.80635E+01 2.92386E+01 2.50000E+00
 -1     25502 1.78121E+01 3.01792E+01 2.50000E+00
 -1     25503 1.87709E+01 2.99267E+01 2.50000E+00
 -1     25504 1.69362E+01 3.04537E+01 2.50000E+00
 -1     25505 1.70347E+01 3.12052E+01 3.81011E+00
 -1     25506 1.63170E+01 3.14942E+01 1.31011E+00
 -1     25507 1.71929E+01 3.12197E+01 1.31011E+00
 -1     25508 2.25584E+01 2.49114E+01 3.84022E+00
 -1     25509 2.23338E+01 2.58814E+01 3.84022E+00
 -1     25510 2.16157E+01 2.52067E+01 3.84022E+00
 -1     25511 1.69602E+01 3.21948E+01 1.31011E+00
 -1     25512 1.79736E+01 2.19317E+01 3.75117E+00
 -1     25513 1.79856E+01 2.19382E+01 1.25117E+00
 -1     25514 1.85320E+01 2.06897E+01 2.51701E+00
 -1     25515 1.67438E+01 2.05658E+01 1.26584E+00
 -1     25516 1.20970E+01 2.05365E+01 2.50000E+00
 -1     25517 1.30476E+01 2.01882E+01 2.50000E+00
 -1     25518 1.28329E+01 2.11675E+01 2.50000E+00
 -1     25519 1.38563E+01 3.37450E+01 2.50000E+00
 -1     25520 1.45563E+01 3.47686E+01 3.77513E+00
 -1     25521 1.43414E+01 3.50285E+01 1.27513E+00
 -1     25522 1.52434E+01 3.28654E+01 3.81011E+00
 -1     25523 1.47393E+01 2.80803E+01 3.75958E+00
 -1     25524 1.40981E+01 2.74079E+01 3.75958E+00
 -1     25525 1.36430E+01 2.83909E+01 3.75958E+00
 -1     25526 1.32429E+01 2.87470E+01 1.25958E+00
 -1     25527 1.40645E+01 2.83635E+01 1.25958E+00
 -1     25528 1.36197E+01 2.98063E+01 2.50000E+00
 -1     25529 1.44413E+01 2.94228E+01 2.50000E+00
 -1     25530 1.23478E+01 1.95171E+01 2.50000E+00
 -1     25531 6.58275E+00 2.08127E+01 2.50000E+00
 -1     25532 7.24109E+00 2.02658E+01 2.50000E+00
 -1     25533 6.97263E+00 2.16792E+01 2.50000E+00
 -1     25534 7.63097E+00 2.11323E+01 2.50000E+00
 -1     25535 1.02491E+01 3.38569E+01 2.50000E+00
 -1     25536 1.10777E+01 3.33429E+01 2.50000E+00
 -1     25537 1.10653E+01 3.44853E+01 3.86431E+00
 -1     25538 1.09790E+01 3.47851E+01 1.36431E+00
 -1     25539 1.18076E+01 3.42712E+01 1.36431E+00
 -1     25540 5.30997E+00 2.09483E+01 3.69188E+00
 -1     25541 4.24970E+00 2.06430E+01 3.69188E+00
 -1     25542 4.92009E+00 2.00818E+01 3.69188E+00
 -1     25543 2.95805E+01 2.88197E+01 4.59547E-01
 -1     25544 2.97388E+01 2.83719E+01 1.03643E+00
 -1     25545 2.88242E+01 2.81488E+01 5.76887E-01
 -1     25546 2.94371E+01 2.94264E+01 1.24346E+00
 -1     25547 3.03517E+01 2.96494E+01 1.70300E+00
 -1     25548 2.95954E+01 2.89785E+01 1.82034E+00
 -1     25549 2.73789E+00 1.27607E+01 3.94963E+00
 -1     25550 1.84346E+00 1.22758E+01 3.94963E+00
 -1     25551 2.78221E+00 1.17497E+01 3.94963E+00
 -1     25552 1.48817E+00 1.78698E+00 3.06324E+00
 -1     25553 1.48831E+00 1.78711E+00 2.20014E+00
 -1     25554 1.15097E+00 2.51173E+00 3.44025E+00
 -1     25555 3.37194E-01 2.18859E+00 3.13831E+00
 -1     25556 1.15111E+00 2.51186E+00 2.57716E+00
 -1     25557 1.73698E+01 2.85650E+01 2.50000E+00
 -1     25558 1.71183E+01 2.95056E+01 2.50000E+00
 -1     25559 7.82861E+00 2.23161E+01 2.50000E+00
 -1     25560 8.48695E+00 2.17693E+01 2.50000E+00
 -1     25561 2.65336E+01 2.81632E+01 3.84735E+00
 -1     25562 2.58066E+01 2.74981E+01 3.84735E+00
 -1     25563 2.55780E+01 2.84709E+01 3.84735E+00
 -1     25564 7.12921E-01 1.02428E+01 2.32902E+00
 -1     25565 1.53917E+00 1.02575E+01 7.75679E-01
 -1     25566 8.26245E-01 1.10164E+01 1.55334E+00
 -1     25567 9.97342E-01 1.00097E+01 1.20110E+00
 -1     25568 1.11067E+00 1.07833E+01 4.25420E-01
 -1     25569 1.18278E+01 1.78804E+01 2.50000E+00
 -1     25570 2.57535E+01 4.16402E+01 1.09308E+00
 -1     25571 2.66715E+01 4.19921E+01 1.09308E+00
 -1     25572 2.58912E+01 4.26553E+01 1.09308E+00
 -1     25573 1.81606E+01 4.85223E+01 2.14702E+00
 -1     25574 1.90909E+01 4.88324E+01 2.15064E+00
 -1     25575 1.83572E+01 4.93272E+01 1.40231E+00
 -1     25576 2.84421E-01 9.91615E+00 1.22894E+00
 -1     25577 4.72206E+01 5.74714E+01 3.94409E+00
 -1     25578 4.73852E+01 5.82909E+01 4.51045E+00
 -1     25579 4.66059E+01 5.77623E+01 3.45454E+00
 -1     25580 4.72206E+01 5.78129E+01 3.34115E+00
 -1     25581 2.84421E-01 1.02678E+01 4.25420E-01
 -1     25582 7.12921E-01 9.74197E+00 7.75679E-01
 -1     25583 3.26566E+01 3.18608E+01 4.36377E+00
 -1     25584 3.19280E+01 3.11913E+01 4.36377E+00
 -1     25585 2.81942E+01 2.64648E+01 4.89379E-01
 -1     25586 2.77355E+01 2.60444E+01 1.34036E+00
 -1     25587 2.74669E+01 2.57981E+01 4.89379E-01
 -1     25588 3.95473E+01 4.23765E+01 3.86003E+00
 -1     25589 3.98795E+01 4.04577E+01 3.66557E+00
 -1     25590 3.95156E+01 4.15768E+01 2.52560E+00
 -1     25591 3.86070E+01 4.26999E+01 3.86003E+00
 -1     25592 3.89392E+01 4.07810E+01 3.66557E+00
 -1     25593 3.60608E+01 5.32781E+01 3.59187E+00
 -1     25594 3.62251E+01 5.43047E+01 3.59187E+00
 -1     25595 3.52659E+01 5.40348E+01 3.59187E+00
 -1     25596 1.19351E+01 3.83217E+01 3.73837E+00
 -1     25597 1.28678E+01 3.85604E+01 3.73837E+00
 -1     25598 1.82098E+00 8.02353E+00 1.25624E+00
 -1     25599 1.57907E+00 9.25100E+00 7.75679E-01
 -1     25600 2.36901E+01 3.78988E+01 2.50000E+00
 -1     25601 2.38341E+01 3.70082E+01 2.50000E+00
 -1     25602 3.90761E+01 3.62857E+01 1.36044E+00
 -1     25603 3.88214E+01 3.65960E+01 8.10843E-01
 -1     25604 3.95531E+01 3.68008E+01 1.14220E+00
 -1     25605 3.83862E+01 3.75292E+01 8.45897E-01
 -1     25606 3.76544E+01 3.73244E+01 5.14543E-01
 -1     25607 3.81314E+01 3.78395E+01 2.96300E-01
 -1     25608 2.03072E+01 1.95105E+01 1.64510E+00
 -1     25609 3.78660E-01 4.20119E+01 4.44526E+00
 -1     25610 2.72107E+01 3.89268E+01 2.50000E+00
 -1     25611 2.65253E+01 3.81838E+01 2.50000E+00
 -1     25612 2.84421E-01 1.12678E+01 4.25420E-01
 -1     25613 2.18204E+01 2.32347E+01 8.38461E-01
 -1     25614 2.26821E+01 2.36240E+01 2.17868E+00
 -1     25615 2.18503E+01 2.42338E+01 1.34022E+00
 -1     25616 2.27545E+01 2.29397E+01 8.38461E-01
 -1     25617 2.27845E+01 2.39388E+01 1.34022E+00
 -1     25618 2.67841E+01 4.00060E+01 2.50000E+00
 -1     25619 2.80778E+01 3.50827E+01 2.50000E+00
 -1     25620 2.73385E+01 3.44078E+01 2.50000E+00
 -1     25621 2.90272E+01 3.47865E+01 2.50000E+00
 -1     25622 2.82879E+01 3.41116E+01 2.50000E+00
 -1     25623 2.26999E+01 3.56412E+01 2.50000E+00
 -1     25624 2.28801E+01 3.48402E+01 2.50000E+00
 -1     25625 2.18838E+01 3.50453E+01 2.50000E+00
 -1     25626 2.20640E+01 3.42443E+01 2.50000E+00
 -1     25627 4.24725E+00 3.04382E+01 2.50000E+00
 -1     25628 4.26167E+00 2.94427E+01 2.50000E+00
 -1     25629 5.09969E+00 3.09161E+01 2.50000E+00
 -1     25630 5.11411E+00 2.99207E+01 2.50000E+00
 -1     25631 1.06933E+01 4.04945E+01 3.73837E+00
 -1     25632 1.05391E+01 3.95966E+01 3.73837E+00
 -1     25633 9.81407E+00 4.02317E+01 3.73837E+00
 -1     25634 1.26504E+01 3.77211E+01 3.73837E+00
 -1     25635 3.65498E+01 3.64582E+01 4.10100E+00
 -1     25636 4.32068E+01 4.05225E+01 3.91629E+00
 -1     25637 4.34494E+01 4.07449E+01 3.07923E+00
 -1     25638 4.39341E+01 4.11892E+01 3.91629E+00
 -1     25639 1.29683E+01 3.93872E+01 1.23837E+00
 -1     25640 1.47106E+01 3.99994E+01 2.50000E+00
 -1     25641 1.39743E+01 4.06576E+01 2.50000E+00
 -1     25642 2.56796E+01 3.40231E+01 2.50000E+00
 -1     25643 2.58854E+01 3.30664E+01 2.50000E+00
 -1     25644 2.47555E+01 3.42827E+01 2.50000E+00
 -1     25645 2.49613E+01 3.33260E+01 2.50000E+00
 -1     25646 9.32671E+00 3.04412E+01 2.50000E+00
 -1     25647 9.33705E+00 3.14537E+01 2.50000E+00
 -1     25648 1.02098E+01 3.08805E+01 2.50000E+00
 -1     25649 1.02201E+01 3.18930E+01 2.50000E+00
 -1     25650 2.54314E+01 3.50122E+01 2.50000E+00
 -1     25651 3.05203E+01 2.85214E+01 4.59547E-01
 -1     25652 2.97639E+01 2.78505E+01 5.76887E-01
 -1     25653 1.29372E+01 1.54373E+01 4.71444E-01
 -1     25654 1.23251E+01 1.57382E+01 1.27348E+00
 -1     25655 3.12622E+00 2.47840E+01 3.75624E+00
 -1     25656 3.13556E+00 2.37775E+01 3.75624E+00
 -1     25657 1.01784E+01 2.99374E+01 2.50000E+00
 -1     25658 5.83108E+00 4.00414E+01 3.85428E+00
 -1     25659 5.07587E+00 4.05863E+01 3.85428E+00
 -1     25660 5.06045E+00 3.96533E+01 3.85428E+00
 -1     25661 8.50646E+00 2.89314E+01 2.50000E+00
 -1     25662 8.51430E+00 2.99077E+01 2.50000E+00
 -1     25663 1.52250E+01 3.84700E+01 2.50000E+00
 -1     25664 1.45184E+01 3.91035E+01 2.50000E+00
 -1     25665 4.14867E+01 4.81705E+01 2.50000E+00
 -1     25666 4.04961E+01 4.78129E+01 2.50000E+00
 -1     25667 4.13523E+01 4.93904E+01 2.50000E+00
 -1     25668 4.03616E+01 4.90328E+01 2.50000E+00
 -1     25669 3.94280E+01 5.56763E+01 2.22915E+00
 -1     25670 3.88600E+01 5.49512E+01 3.19771E+00
 -1     25671 3.91735E+01 5.54835E+01 4.03145E+00
 -1     25672 3.98338E+01 5.48138E+01 1.53145E+00
 -1     25673 3.95204E+01 5.42815E+01 6.97709E-01
 -1     25674 3.92658E+01 5.40888E+01 2.50000E+00
 -1     25675 4.67230E+01 5.91295E+01 3.69054E-01
 -1     25676 4.76461E+01 5.94371E+01 1.20239E+00
 -1     25677 4.76461E+01 5.94371E+01 3.69054E-01
 -1     25678 2.51210E+01 4.10177E+01 2.38577E+00
 -1     25679 2.41535E+01 4.15414E+01 1.29269E+00
 -1     25680 2.49678E+01 4.23446E+01 1.09308E+00
 -1     25681 2.55670E+01 4.17794E+01 3.59308E+00
 -1     25682 2.47527E+01 4.09762E+01 3.79269E+00
 -1     25683 2.45995E+01 4.23031E+01 2.50000E+00
 -1     25684 1.52658E+01 4.78391E+01 2.12359E+00
 -1     25685 9.36601E+00 2.94039E+01 2.50000E+00
 -1     25686 6.80860E+00 3.08993E+01 2.50000E+00
 -1     25687 3.01576E+01 2.81890E+01 1.40868E+00
 -1     25688 3.00142E+01 2.87956E+01 2.19258E+00
 -1     25689 3.09813E+01 2.89440E+01 1.31029E+00
 -1     25690 3.08379E+01 2.95507E+01 2.09420E+00
 -1     25691 1.90997E+01 4.98096E+01 5.30536E-01
 -1     25692 1.80427E+01 4.92223E+01 5.65810E-01
 -1     25693 2.05551E+01 3.90525E+01 1.26416E+00
 -1     25694 2.08069E+01 4.00157E+01 1.26416E+00
 -1     25695 2.08949E+01 4.00077E+01 3.76416E+00
 -1     25696 1.98540E+01 3.98199E+01 2.50000E+00
 -1     25697 1.82226E+01 4.47048E+01 2.50000E+00
 -1     25698 1.73117E+01 4.43983E+01 2.50000E+00
 -1     25699 1.81959E+01 4.58442E+01 1.31414E+00
 -1     25700 1.91180E+01 4.61618E+01 3.81414E+00
 -1     25701 1.82071E+01 4.58554E+01 3.81414E+00
 -1     25702 3.32185E+01 4.93808E+01 3.82875E+00
 -1     25703 3.30122E+01 4.83955E+01 3.82875E+00
 -1     25704 3.39242E+01 4.87026E+01 3.82875E+00
 -1     25705 1.19125E+01 4.75787E+01 3.72512E+00
 -1     25706 1.21050E+01 4.62739E+01 4.05345E+00
 -1     25707 1.20201E+01 4.58534E+01 4.67166E+00
 -1     25708 1.34889E+01 4.68546E+01 3.46733E+00
 -1     25709 1.35739E+01 4.72751E+01 2.84912E+00
 -1     25710 1.36814E+01 4.55498E+01 3.79567E+00
 -1     25711 1.30023E+01 4.65471E+01 1.55345E+00
 -1     25712 1.31098E+01 4.48218E+01 2.50000E+00
 -1     25713 1.45786E+01 4.58231E+01 1.29567E+00
 -1     25714 1.37274E+01 4.63570E+01 4.79154E-01
 -1     25715 1.42991E+01 4.70850E+01 1.77482E+00
 -1     25716 1.27227E+01 4.78090E+01 2.03261E+00
 -1     25717 1.34195E+01 2.67415E+01 3.75958E+00
 -1     25718 1.25523E+01 2.71246E+01 3.75958E+00
 -1     25719 1.26718E+01 2.61846E+01 3.75958E+00
 -1     25720 9.37981E+00 2.74127E+01 2.50000E+00
 -1     25721 8.55959E+00 2.69076E+01 2.50000E+00
 -1     25722 1.02559E+01 2.69330E+01 2.50000E+00
 -1     25723 9.43568E+00 2.64279E+01 2.50000E+00
 -1     25724 3.79735E+01 3.54018E+01 2.40635E+00
 -1     25725 3.83462E+01 3.56165E+01 1.31989E+00
 -1     25726 3.79717E+01 3.58660E+01 2.11555E+00
 -1     25727 1.26790E+01 2.89911E+01 3.75958E+00
 -1     25728 1.09891E+01 2.94662E+01 2.50000E+00
 -1     25729 1.24883E+01 2.82282E+01 1.25958E+00
 -1     25730 1.19011E+01 2.98877E+01 2.50000E+00
 -1     25731 1.85254E+01 2.35516E+01 1.25117E+00
 -1     25732 1.94278E+01 2.32544E+01 3.75117E+00
 -1     25733 1.94514E+01 2.32507E+01 1.25117E+00
 -1     25734 3.00093E+01 2.80437E+01 2.93869E+00
 -1     25735 2.92347E+01 2.79691E+01 3.44913E+00
 -1     25736 2.94238E+01 2.86776E+01 4.48956E+00
 -1     25737 2.96203E+01 2.80985E+01 4.00127E+00
 -1     25738 2.94312E+01 2.73900E+01 2.96083E+00
 -1     25739 2.88457E+01 2.80240E+01 4.51171E+00
 -1     25740 1.72716E+01 4.72301E+01 4.33714E+00
 -1     25741 1.59999E+01 4.73424E+01 3.13281E+00
 -1     25742 1.64220E+01 4.64387E+01 3.79567E+00
 -1     25743 1.83925E+01 4.68138E+01 3.81414E+00
 -1     25744 1.79704E+01 4.77175E+01 3.15129E+00
 -1     25745 1.71208E+01 4.69261E+01 2.60981E+00
 -1     25746 3.36904E+01 5.40778E+01 1.89024E+00
 -1     25747 3.42144E+01 5.29887E+01 1.30150E+00
 -1     25748 3.37112E+01 5.29971E+01 5.88750E-01
 -1     25749 3.30338E+01 5.35904E+01 3.08875E+00
 -1     25750 3.35370E+01 5.35821E+01 3.80150E+00
 -1     25751 3.35579E+01 5.25013E+01 2.50000E+00
 -1     25752 5.13589E+00 1.30101E+01 2.50000E+00
 -1     25753 4.17496E+00 1.35222E+01 2.50000E+00
 -1     25754 5.03172E+00 1.40383E+01 2.50000E+00
 -1     25755 9.83593E+00 4.64241E+01 1.07910E+00
 -1     25756 9.37861E+00 4.62716E+01 2.02578E+00
 -1     25757 9.33559E+00 4.54984E+01 1.64638E+00
 -1     25758 8.73043E+00 4.61513E+01 5.67283E-01
 -1     25759 8.27310E+00 4.59988E+01 1.51397E+00
 -1     25760 4.21605E+01 3.96469E+01 6.27781E-01
 -1     25761 4.28878E+01 4.03136E+01 6.27781E-01
 -1     25762 4.26090E+01 4.00580E+01 1.47542E+00
 -1     25763 1.12168E+01 4.53085E+01 4.49142E+00
 -1     25764 1.03076E+01 4.50219E+01 4.49142E+00
 -1     25765 1.13268E+01 4.51599E+01 3.57910E+00
 -1     25766 1.03311E+01 4.59198E+01 3.07051E+00
 -1     25767 1.04176E+01 4.48733E+01 3.57910E+00
 -1     25768 6.18498E+00 1.69564E+01 1.22794E+00
 -1     25769 1.20486E+01 3.90616E+01 1.23837E+00
 -1     25770 1.18068E+01 3.80429E+01 1.23837E+00
 -1     25771 1.11358E+01 3.87571E+01 1.23837E+00
 -1     25772 1.12193E+01 4.68852E+01 2.63255E+00
 -1     25773 1.20894E+01 4.62487E+01 1.55345E+00
 -1     25774 1.13112E+01 4.51347E+01 1.07910E+00
 -1     25775 1.21969E+01 4.45234E+01 2.50000E+00
 -1     25776 1.07520E+01 3.76482E+01 1.23837E+00
 -1     25777 1.11343E+01 4.64647E+01 3.25076E+00
 -1     25778 1.10243E+01 4.66133E+01 4.16308E+00
 -1     25779 4.52617E+01 5.84804E+01 6.62320E-01
 -1     25780 4.59226E+01 5.87007E+01 1.49902E+00
 -1     25781 4.61848E+01 5.87881E+01 6.62320E-01
 -1     25782 1.46086E+01 3.70198E+01 1.27513E+00
 -1     25783 1.44344E+01 3.60282E+01 1.27513E+00
 -1     25784 1.53150E+01 3.64275E+01 1.27513E+00
 -1     25785 2.29397E+01 2.68173E+01 2.50000E+00
 -1     25786 2.27115E+01 2.77906E+01 2.50000E+00
 -1     25787 2.19931E+01 2.71165E+01 2.50000E+00
 -1     25788 3.12466E+01 3.29356E+01 3.72720E+00
 -1     25789 3.03032E+01 3.32318E+01 3.72720E+00
 -1     25790 2.80993E+01 2.74794E+01 5.76887E-01
 -1     25791 2.72568E+01 2.67604E+01 4.89379E-01
 -1     25792 2.81399E+01 2.69819E+01 1.06627E+00
 -1     25793 2.90367E+01 2.71838E+01 5.76887E-01
 -1     25794 9.30051E+00 4.45740E+01 5.67283E-01
 -1     25795 1.04060E+01 4.48468E+01 1.07910E+00
 -1     25796 8.56259E+00 4.52206E+01 5.67283E-01
 -1     25797 9.66809E+00 4.54934E+01 1.07910E+00
 -1     25798 1.98325E+01 2.51052E+01 2.50000E+00
 -1     25799 2.05513E+01 2.57770E+01 2.50000E+00
 -1     25800 2.16476E+01 2.51934E+01 1.34022E+00
 -1     25801 2.08969E+01 2.45349E+01 3.84022E+00
 -1     25802 3.29137E-01 6.94891E-01 1.36858E+00
 -1     25803 3.29137E-01 1.69489E+00 5.35244E-01
 -1     25804 3.29137E-01 6.94891E-01 5.35244E-01
 -1     25805 1.44269E+01 1.78951E+01 2.50000E+00
 -1     25806 1.42163E+01 1.88740E+01 2.50000E+00
 -1     25807 1.36964E+01 1.72392E+01 2.50000E+00
 -1     25808 1.34858E+01 1.82181E+01 2.50000E+00
 -1     25809 9.54839E-01 6.51450E+00 1.25624E+00
 -1     25810 9.54839E-01 7.18858E+00 2.08702E+00
 -1     25811 4.67181E+01 4.35878E+01 1.61889E+00
 -1     25812 4.65694E+01 4.34515E+01 5.29760E-01
 -1     25813 4.61592E+01 4.35529E+01 1.28740E+00
 -1     25814 4.62839E+01 4.29044E+01 1.84677E+00
 -1     25815 4.61352E+01 4.27681E+01 7.57637E-01
 -1     25816 1.48915E+01 3.21762E+01 1.31011E+00
 -1     25817 1.55181E+01 3.16546E+01 1.31011E+00
 -1     25818 5.88403E-01 3.16425E+00 1.33808E+00
 -1     25819 5.88403E-01 2.44998E+00 4.46682E-01
 -1     25820 5.88403E-01 3.44998E+00 4.46682E-01
 -1     25821 1.01974E+01 4.65445E+01 2.75919E+00
 -1     25822 1.08906E+01 4.72380E+01 3.85175E+00
 -1     25823 1.00874E+01 4.66932E+01 3.67150E+00
 -1     25824 2.89305E+01 4.29562E+01 2.50000E+00
 -1     25825 1.12485E+01 1.08535E+01 3.35805E+00
 -1     25826 1.15137E+01 1.10966E+01 4.20911E+00
 -1     25827 1.05883E+01 1.05983E+01 3.90040E+00
 -1     25828 1.03231E+01 1.03552E+01 3.04934E+00
 -1     25829 1.04656E+01 1.10282E+01 3.10951E+00
 -1     25830 1.59675E+01 3.59019E+01 1.27513E+00
 -1     25831 1.52149E+01 3.54510E+01 1.27513E+00
 -1     25832 1.61044E+01 3.50519E+01 1.27513E+00
 -1     25833 5.21813E+00 1.20680E+01 2.50000E+00
 -1     25834 4.30153E+00 1.15689E+01 2.50000E+00
 -1     25835 4.21928E+00 1.25111E+01 2.50000E+00
 -1     25836 6.72609E+00 8.60401E+00 3.39372E+00
 -1     25837 6.70719E+00 9.56235E+00 2.50000E+00
 -1     25838 1.03592E+01 3.87008E+01 3.73837E+00
 -1     25839 1.12343E+01 3.89458E+01 3.73837E+00
 -1     25840 1.18829E+01 3.52940E+01 1.36431E+00
 -1     25841 1.27183E+01 3.47092E+01 1.36431E+00
 -1     25842 8.82121E+00 1.02708E+01 3.90040E+00
 -1     25843 8.29602E+00 9.60161E+00 3.87542E+00
 -1     25844 8.09785E+00 1.09186E+01 2.50000E+00
 -1     25845 2.39343E+01 2.28700E+01 1.67241E+00
 -1     25846 2.32055E+01 2.22019E+01 1.67192E+00
 -1     25847 2.36897E+01 2.26458E+01 8.38461E-01
 -1     25848 1.02804E+00 2.60132E+01 2.44998E+00
 -1     25849 1.38753E+00 2.63205E+01 4.34365E+00
 -1     25850 1.36799E+00 2.66546E+01 3.10633E+00
 -1     25851 2.21613E+00 2.61571E+01 6.06330E-01
 -1     25852 2.23567E+00 2.58230E+01 1.84365E+00
 -1     25853 2.57562E+00 2.64644E+01 2.50000E+00
 -1     25854 1.45437E+00 3.28009E+01 1.44056E+00
 -1     25855 2.30354E+00 3.22962E+01 1.44056E+00
 -1     25856 2.28055E+00 3.32694E+01 1.44056E+00
 -1     25857 4.34522E+01 5.73108E+01 2.65401E+00
 -1     25858 4.27861E+01 5.74302E+01 2.32217E+00
 -1     25859 4.37332E+01 5.75550E+01 1.60343E+00
 -1     25860 4.40474E+01 5.76259E+01 2.73426E+00
 -1     25861 4.31003E+01 5.75011E+01 3.45299E+00
 -1     25862 4.33813E+01 5.77453E+01 2.40242E+00
 -1     25863 1.45919E+01 1.40883E+01 4.18976E+00
 -1     25864 1.50762E+01 1.45323E+01 3.35632E+00
 -1     25865 1.43479E+01 1.38647E+01 3.35586E+00
 -1     25866 5.34027E+00 1.09575E+01 2.50000E+00
 -1     25867 4.65710E+00 9.99150E+00 3.68802E+00
 -1     25868 4.22656E+00 1.02676E+01 1.18802E+00
 -1     25869 3.61835E+00 1.06029E+01 3.68802E+00
 -1     25870 3.40778E+01 3.20393E+01 2.74949E+00
 -1     25871 3.33638E+01 3.33617E+01 3.45167E+00
 -1     25872 3.45891E+01 3.25080E+01 3.57021E+00
 -1     25873 3.42217E+01 3.33467E+01 3.17983E+00
 -1     25874 1.87041E+01 2.25885E+01 3.75117E+00
 -1     25875 1.89139E+01 2.16279E+01 3.75117E+00
 -1     25876 2.50439E+00 3.34074E+01 2.50000E+00
 -1     25877 2.52738E+00 3.24342E+01 2.50000E+00
 -1     25878 1.46719E+00 3.27941E+01 3.94056E+00
 -1     25879 2.00652E+01 1.92887E+01 8.11828E-01
 -1     25880 1.91523E+01 1.91611E+01 1.29883E+00
 -1     25881 1.89656E+01 1.80943E+01 1.32028E+00
 -1     25882 1.94508E+01 1.85391E+01 4.87001E-01
 -1     25883 7.82173E+00 1.19301E+01 2.50000E+00
 -1     25884 8.85762E+00 1.15797E+01 2.50000E+00
 -1     25885 2.35379E+01 3.55632E+01 2.50000E+00
 -1     25886 2.45079E+01 3.52242E+01 2.50000E+00
 -1     25887 2.37367E+01 3.45936E+01 2.50000E+00
 -1     25888 5.60218E-01 3.36631E+01 1.36912E+00
 -1     25889 2.16742E-01 3.28249E+01 9.65830E-01
 -1     25890 7.76959E-01 3.35773E+01 8.08330E-01
 -1     25891 5.60218E-01 3.42077E+01 6.05810E-01
 -1     25892 2.16742E-01 3.33696E+01 2.02520E-01
 -1     25893 1.09940E+01 1.36012E+01 2.50000E+00
 -1     25894 1.12040E+01 1.26266E+01 2.50000E+00
 -1     25895 1.03055E+01 1.29210E+01 2.50000E+00
 -1     25896 2.02204E+01 4.17656E+01 2.50000E+00
 -1     25897 1.94903E+01 4.24327E+01 2.50000E+00
 -1     25898 2.04251E+01 4.27255E+01 2.50000E+00
 -1     25899 5.60218E-01 3.46050E+01 1.84451E+00
 -1     25900 1.02226E+01 3.28247E+01 2.50000E+00
 -1     25901 7.72721E+00 2.63888E+01 2.50000E+00
 -1     25902 6.89954E+00 2.58771E+01 2.50000E+00
 -1     25903 7.79099E+00 2.53437E+01 2.50000E+00
 -1     25904 2.85234E+01 4.44023E+01 2.50000E+00
 -1     25905 2.78034E+01 4.51021E+01 2.50000E+00
 -1     25906 2.29707E+01 4.95254E+01 3.88289E+00
 -1     25907 2.37006E+01 4.88625E+01 3.88289E+00
 -1     25908 2.44827E+00 3.44796E+01 4.02952E+00
 -1     25909 2.42341E+00 3.54405E+01 4.02952E+00
 -1     25910 1.59411E+00 3.50035E+01 4.02952E+00
 -1     25911 2.69891E+01 2.53602E+01 1.32589E+00
 -1     25912 2.65366E+01 2.57643E+01 9.55598E-01
 -1     25913 2.62284E+01 2.48615E+01 1.30273E+00
 -1     25914 2.67061E+01 2.52995E+01 4.66219E-01
 -1     25915 3.98532E+01 5.22948E+01 2.50000E+00
 -1     25916 1.02979E+01 4.70702E+01 4.10293E-01
 -1     25917 1.08607E+01 4.72578E+01 1.23053E+00
 -1     25918 1.09030E+01 4.64173E+01 1.48939E+00
 -1     25919 1.03988E+01 4.66117E+01 1.89934E+00
 -1     25920 1.70666E+01 2.59896E+01 2.50000E+00
 -1     25921 1.63264E+01 2.53466E+01 2.50000E+00
 -1     25922 1.61023E+01 2.63007E+01 2.50000E+00
 -1     25923 1.68425E+01 2.69437E+01 2.50000E+00
 -1     25924 3.36092E-01 4.27346E+01 3.92884E-01
 -1     25925 3.36092E-01 4.37346E+01 1.22622E+00
 -1     25926 3.36092E-01 4.24488E+01 1.22772E+00
 -1     25927 3.28039E+01 4.18847E+01 2.50000E+00
 -1     25928 3.30080E+01 4.08770E+01 2.50000E+00
 -1     25929 3.20519E+01 4.12113E+01 2.50000E+00
 -1     25930 1.02843E+00 3.67933E+01 2.19579E+00
 -1     25931 1.30876E+00 3.57432E+01 2.11029E+00
 -1     25932 1.23807E+00 3.61599E+01 3.14453E+00
 -1     25933 2.08211E+00 3.74693E+01 1.61502E+00
 -1     25934 2.15279E+00 3.70525E+01 5.80778E-01
 -1     25935 2.36244E+00 3.64191E+01 1.52952E+00
 -1     25936 1.10977E+00 3.53960E+01 1.18659E+00
 -1     25937 1.31942E+00 3.47626E+01 2.13533E+00
 -1     25938 2.38581E+00 3.54584E+01 1.52952E+00
 -1     25939 2.17616E+00 3.60918E+01 5.80778E-01
 -1     25940 2.18682E+00 3.51113E+01 6.05810E-01
 -1     25941 3.28428E+01 4.73739E+01 3.82875E+00
 -1     25942 3.17612E+01 4.71993E+01 2.50000E+00
 -1     25943 3.28870E+01 4.74444E+01 1.32875E+00
 -1     25944 3.19307E+01 4.82209E+01 2.50000E+00
 -1     25945 5.88587E+00 3.43204E+01 2.50000E+00
 -1     25946 6.74258E+00 3.47722E+01 2.50000E+00
 -1     25947 2.13168E+01 4.98740E+01 3.88289E+00
 -1     25948 2.10078E+01 4.97710E+01 3.05509E+00
 -1     25949 1.99335E+01 5.00158E+01 4.25215E+00
 -1     25950 2.09426E+01 4.91206E+01 3.13504E+00
 -1     25951 1.96244E+01 4.99128E+01 3.42436E+00
 -1     25952 3.94391E-01 1.49459E+01 3.51531E+00
 -1     25953 3.94391E-01 1.46209E+01 2.68004E+00
 -1     25954 2.58279E+01 4.26751E+01 3.59308E+00
 -1     25955 2.22399E+01 5.01817E+01 3.88289E+00
 -1     25956 6.95023E+00 3.98655E+01 3.77187E+00
 -1     25957 7.81410E+00 4.01576E+01 3.77187E+00
 -1     25958 5.91423E+00 4.09264E+01 3.85428E+00
 -1     25959 6.28180E+00 3.97568E+01 2.62615E+00
 -1     25960 6.77811E+00 4.12185E+01 3.85428E+00
 -1     25961 2.25293E+00 3.90343E+01 3.18307E+00
 -1     25962 3.23733E+00 3.86676E+01 2.50000E+00
 -1     25963 2.22208E+00 3.80951E+01 6.83066E-01
 -1     25964 1.43544E+00 3.86413E+01 3.18307E+00
 -1     25965 2.41984E+00 3.82746E+01 2.50000E+00
 -1     25966 2.31630E+01 5.04894E+01 3.88289E+00
 -1     25967 2.27010E+01 5.03355E+01 3.22858E+00
 -1     25968 3.65519E+01 4.05654E+01 2.50000E+00
 -1     25969 3.56196E+01 4.08364E+01 2.50000E+00
 -1     25970 1.10904E+01 3.54160E+01 3.86431E+00
 -1     25971 3.52112E+01 4.29368E+01 2.50000E+00
 -1     25972 3.47983E+01 4.39916E+01 2.50000E+00
 -1     25973 3.57330E+01 4.36366E+01 2.50000E+00
 -1     25974 3.88086E+01 3.60404E+01 5.14543E-01
 -1     25975 1.29302E+01 4.38704E+01 2.50000E+00
 -1     25976 1.38430E+01 4.41688E+01 2.50000E+00
 -1     25977 3.55658E+01 4.47902E+01 2.50000E+00
 -1     25978 5.95137E+00 3.04288E+01 2.50000E+00
 -1     25979 2.67325E+01 4.29505E+01 3.59308E+00
 -1     25980 2.65915E+01 4.18386E+01 3.59308E+00
 -1     25981 3.07441E+01 3.88254E+01 2.50000E+00
 -1     25982 2.97525E+01 3.91635E+01 2.50000E+00
 -1     25983 3.00132E+01 3.81473E+01 2.50000E+00
 -1     25984 3.43553E+01 4.50755E+01 2.50000E+00
 -1     25985 1.33255E+01 2.78014E+01 1.25958E+00
 -1     25986 1.41981E+01 2.74464E+01 1.25958E+00
 -1     25987 3.34795E+00 3.38660E+01 2.50000E+00
 -1     25988 3.37094E+00 3.28929E+01 2.50000E+00
 -1     25989 2.19114E+01 5.00723E+01 3.08254E+00
 -1     25990 3.71014E+01 5.45274E+01 8.08857E-01
 -1     25991 3.67326E+01 5.59191E+01 1.26455E+00
 -1     25992 3.76170E+01 5.43741E+01 4.55692E-01
 -1     25993 3.77600E+01 5.47469E+01 1.59676E+00
 -1     25994 3.73913E+01 5.61386E+01 2.05245E+00
 -1     25995 4.16511E+00 3.43300E+01 2.50000E+00
 -1     25996 4.20592E+00 3.33777E+01 2.50000E+00
 -1     25997 3.31742E+01 3.98737E+01 2.50000E+00
 -1     25998 3.22182E+01 4.02081E+01 2.50000E+00
 -1     25999 3.18117E+01 4.23437E+01 2.50000E+00
 -1     26000 3.12545E+01 4.05883E+01 2.50000E+00
 -1     26001 3.10142E+01 4.17206E+01 2.50000E+00
 -1     26002 2.57773E+01 4.10354E+01 3.79269E+00
 -1     26003 2.73320E+01 4.09056E+01 2.50000E+00
 -1     26004 2.58615E+01 4.00848E+01 1.29269E+00
 -1     26005 3.62248E+01 5.58047E+01 1.10135E+00
 -1     26006 3.56548E+01 5.56147E+01 2.92493E-01
 -1     26007 3.53339E+01 5.55077E+01 1.12039E+00
 -1     26008 2.47456E+00 2.19049E+01 4.47435E+00
 -1     26009 2.44933E+00 2.11671E+01 3.16623E+00
 -1     26010 3.42272E+00 2.11770E+01 3.69188E+00
 -1     26011 3.11598E+00 2.27825E+01 3.75624E+00
 -1     26012 2.14259E+00 2.27726E+01 3.23059E+00
 -1     26013 7.44264E+00 3.62231E+01 2.50000E+00
 -1     26014 7.71000E+00 3.77481E+01 1.27187E+00
 -1     26015 7.05044E+00 3.71709E+01 3.77187E+00
 -1     26016 6.67211E+00 3.56996E+01 2.50000E+00
 -1     26017 6.93946E+00 3.72246E+01 1.27187E+00
 -1     26018 6.11046E+00 4.34534E+01 4.29693E+00
 -1     26019 7.08980E+00 4.33493E+01 3.69869E+00
 -1     26020 6.39056E+00 4.39749E+01 2.99562E+00
 -1     26021 5.23358E+00 4.31371E+01 4.29693E+00
 -1     26022 6.21292E+00 4.30330E+01 3.69869E+00
 -1     26023 6.52003E-01 2.40588E+01 2.36634E+00
 -1     26024 2.04401E+00 2.42176E+01 1.95585E+00
 -1     26025 1.39200E+00 2.34915E+01 2.92298E+00
 -1     26026 6.52003E-01 2.50586E+01 2.36694E+00
 -1     26027 1.39200E+00 2.44913E+01 2.92357E+00
 -1     26028 7.22555E+00 4.42566E+01 3.69869E+00
 -1     26029 7.97953E+00 4.36400E+01 3.69869E+00
 -1     26030 3.50229E+01 3.30797E+01 5.32616E-01
 -1     26031 3.40117E+01 3.41761E+01 1.68447E+00
 -1     26032 3.47669E+01 3.28451E+01 1.33502E+00
 -1     26033 2.32804E+01 2.55822E+01 3.84022E+00
 -1     26034 2.23714E+01 2.58581E+01 1.34022E+00
 -1     26035 9.70996E+00 3.78222E+01 1.23837E+00
 -1     26036 9.31776E+00 3.87700E+01 2.51024E+00
 -1     26037 9.96349E+00 3.77633E+01 3.73837E+00
 -1     26038 8.35572E+00 3.67414E+01 2.50000E+00
 -1     26039 7.96352E+00 3.76892E+01 3.77187E+00
 -1     26040 3.24446E+01 3.91806E+01 2.50000E+00
 -1     26041 7.68731E+00 3.92954E+01 3.77187E+00
 -1     26042 6.86708E+00 3.89805E+01 3.77187E+00
 -1     26043 7.56482E+00 3.85105E+01 3.77187E+00
 -1     26044 7.50589E-01 2.16134E+01 3.64097E+00
 -1     26045 1.53080E+01 1.61918E+01 3.19086E+00
 -1     26046 1.39644E+01 1.61025E+01 3.77348E+00
 -1     26047 1.46430E+01 1.69215E+01 2.50000E+00
 -1     26048 3.21448E+01 3.02225E+01 4.36377E+00
 -1     26049 3.13492E+01 3.00194E+01 2.91461E+00
 -1     26050 3.12489E+01 3.06839E+01 3.10723E+00
 -1     26051 3.11041E+01 2.97947E+01 3.74346E+00
 -1     26052 4.12682E+01 4.63709E+01 2.50000E+00
 -1     26053 4.18031E+01 4.54627E+01 2.50000E+00
 -1     26054 4.73370E+01 5.56689E+01 1.67025E+00
 -1     26055 4.72206E+01 5.67194E+01 2.32033E+00
 -1     26056 4.65576E+01 5.58922E+01 2.23809E+00
 -1     26057 4.69327E+01 5.59027E+01 1.31441E+00
 -1     26058 4.75957E+01 5.67299E+01 1.39665E+00
 -1     26059 4.68163E+01 5.69532E+01 1.96449E+00
 -1     26060 1.59536E+01 1.52536E+01 3.33419E+00
 -1     26061 1.64386E+01 1.56981E+01 2.50088E+00
 -1     26062 1.66809E+01 1.59203E+01 3.33420E+00
 -1     26063 4.72161E+01 4.98861E+01 3.03852E+00
 -1     26064 4.72161E+01 4.95144E+01 4.22812E+00
 -1     26065 4.63408E+01 5.02569E+01 3.27834E+00
 -1     26066 4.38717E+01 4.32920E+01 1.51252E+00
 -1     26067 4.40262E+01 4.22550E+01 1.51252E+00
 -1     26068 2.76506E+01 2.74089E+01 1.92424E+00
 -1     26069 2.74923E+01 2.78568E+01 1.34735E+00
 -1     26070 2.86576E+01 2.85999E+01 2.50000E+00
 -1     26071 2.88159E+01 2.81520E+01 3.07689E+00
 -1     26072 2.74840E+01 2.78600E+01 3.84735E+00
 -1     26073 4.71534E+01 4.43004E+01 3.19758E+00
 -1     26074 4.71534E+01 4.43004E+01 2.36425E+00
 -1     26075 4.65748E+01 4.37700E+01 2.62005E+00
 -1     26076 1.82576E+01 2.82765E+01 2.50000E+00
 -1     26077 1.99192E+01 2.86641E+01 2.50000E+00
 -1     26078 4.43535E+01 5.81025E+01 9.67640E-01
 -1     26079 4.36874E+01 5.82218E+01 6.35794E-01
 -1     26080 4.42976E+01 5.70443E+01 9.67640E-01
 -1     26081 4.36315E+01 5.71636E+01 6.35794E-01
 -1     26082 5.73291E+00 7.14976E+00 3.56163E+00
 -1     26083 4.26430E+00 8.00947E+00 3.04960E+00
 -1     26084 5.01199E+00 8.44185E+00 2.88808E+00
 -1     26085 5.74558E+00 8.24877E+00 4.20005E+00
 -1     26086 4.99790E+00 7.81639E+00 4.36158E+00
 -1     26087 1.48467E+01 1.53044E+01 2.38062E+00
 -1     26088 1.50996E+01 1.57307E+01 4.18976E+00
 -1     26089 1.59771E+01 1.64520E+01 4.16763E+00
 -1     26090 1.57241E+01 1.60257E+01 2.35849E+00
 -1     26091 1.55158E+01 1.55646E+01 3.35739E+00
 -1     26092 2.70683E+01 3.17908E+01 2.50000E+00
 -1     26093 2.68448E+01 3.27605E+01 2.50000E+00
 -1     26094 2.77827E+01 3.24709E+01 2.50000E+00
 -1     26095 4.39389E+01 5.22668E+01 2.50000E+00
 -1     26096 4.40802E+01 5.34625E+01 2.50000E+00
 -1     26097 4.30127E+01 5.29777E+01 2.50000E+00
 -1     26098 4.31540E+01 5.41734E+01 2.50000E+00
 -1     26099 1.96527E+01 2.22903E+01 1.25117E+00
 -1     26100 1.89230E+01 2.16300E+01 1.25117E+00
 -1     26101 1.87189E+01 2.25925E+01 1.25117E+00
 -1     26102 4.71534E+01 4.50194E+01 3.16820E+00
 -1     26103 4.71534E+01 4.53004E+01 4.03092E+00
 -1     26104 4.71534E+01 4.43004E+01 4.03092E+00
 -1     26105 4.62637E+01 4.79832E+01 4.22812E+00
 -1     26106 4.58871E+01 4.70596E+01 3.69122E+00
 -1     26107 4.60555E+01 4.81052E+01 2.91933E+00
 -1     26108 4.52603E+01 4.85129E+01 4.22812E+00
 -1     26109 4.48837E+01 4.75894E+01 3.69122E+00
 -1     26110 3.06362E+01 2.93657E+01 2.94126E+00
 -1     26111 3.06312E+01 2.86138E+01 3.68737E+00
 -1     26112 3.02033E+01 2.95041E+01 3.23302E+00
 -1     26113 3.10992E+01 2.90427E+01 4.48956E+00
 -1     26114 3.97053E+01 3.67912E+01 3.76902E+00
 -1     26115 3.95100E+01 3.66121E+01 2.92019E+00
 -1     26116 3.98278E+01 3.80742E+01 2.01146E+00
 -1     26117 4.00231E+01 3.82533E+01 2.86030E+00
 -1     26118 3.95299E+01 3.81959E+01 3.23986E+00
 -1     26119 2.37142E+01 3.98224E+01 3.79269E+00
 -1     26120 2.44211E+01 4.02222E+01 3.79269E+00
 -1     26121 2.38272E+01 4.07537E+01 3.79269E+00
 -1     26122 2.27769E+01 2.39441E+01 3.84022E+00
 -1     26123 2.35020E+01 2.46126E+01 3.84022E+00
 -1     26124 4.40563E+01 5.80034E+01 1.86576E+00
 -1     26125 4.33903E+01 5.81227E+01 1.53391E+00
 -1     26126 1.75342E+01 1.67999E+01 1.66207E+00
 -1     26127 1.72923E+01 1.65781E+01 8.28840E-01
 -1     26128 1.80195E+01 1.72448E+01 8.28840E-01
 -1     26129 8.61611E+00 4.60058E+01 4.33942E+00
 -1     26130 8.72517E+00 4.58128E+01 4.83127E+00
 -1     26131 7.82070E+00 4.57406E+01 4.19680E+00
 -1     26132 7.64460E+00 4.63189E+01 4.02807E+00
 -1     26133 3.30362E+01 4.84455E+01 1.32875E+00
 -1     26134 3.20799E+01 4.92220E+01 2.50000E+00
 -1     26135 7.85042E+00 4.53239E+01 3.03811E+00
 -1     26136 7.05502E+00 4.50588E+01 2.89548E+00
 -1     26137 8.13559E+00 4.45527E+01 3.69869E+00
 -1     26138 2.93163E+01 4.11719E+01 2.50000E+00
 -1     26139 1.07437E+01 4.14025E+01 2.50000E+00
 -1     26140 1.14688E+01 4.07567E+01 2.50000E+00
 -1     26141 1.09385E+01 4.23659E+01 2.50000E+00
 -1     26142 1.16636E+01 4.17200E+01 2.50000E+00
 -1     26143 8.88199E+00 4.39231E+01 3.69869E+00
 -1     26144 1.86672E+01 2.03962E+01 4.35868E+00
 -1     26145 1.95273E+01 2.08303E+01 3.10985E+00
 -1     26146 1.76720E+01 2.02556E+01 3.76584E+00
 -1     26147 1.82854E+01 1.94580E+01 3.12452E+00
 -1     26148 1.82808E+01 3.64543E+01 2.50000E+00
 -1     26149 1.79818E+01 3.55261E+01 2.50000E+00
 -1     26150 1.91533E+01 3.55659E+01 2.50000E+00
 -1     26151 1.85835E+01 4.77710E+01 3.81414E+00
 -1     26152 1.93111E+01 4.71204E+01 3.81414E+00
 -1     26153 1.95052E+01 4.80788E+01 3.81414E+00
 -1     26154 9.04960E-01 2.84214E+01 3.14862E+00
 -1     26155 1.28625E+00 2.90873E+01 4.12045E+00
 -1     26156 1.33441E+00 2.82948E+01 4.02818E+00
 -1     26157 4.76559E-01 2.78145E+01 4.02818E+00
 -1     26158 4.28400E-01 2.86070E+01 4.12045E+00
 -1     26159 1.30178E+01 1.64202E+01 3.77348E+00
 -1     26160 5.07154E+00 3.28678E+01 2.50000E+00
 -1     26161 2.03068E+01 1.95769E+01 3.52530E+00
 -1     26162 2.01017E+01 2.01102E+01 3.87561E+00
 -1     26163 2.11278E+01 2.00885E+01 3.68354E+00
 -1     26164 1.98221E+01 1.91326E+01 4.35868E+00
 -1     26165 2.06432E+01 1.96443E+01 4.51693E+00
 -1     26166 4.64462E+01 4.31766E+01 3.88658E+00
 -1     26167 4.69577E+01 4.36455E+01 4.51488E+00
 -1     26168 4.62305E+01 4.29788E+01 4.51488E+00
 -1     26169 7.13354E+00 7.20649E+00 4.81167E-01
 -1     26170 7.61007E+00 7.64331E+00 1.29443E+00
 -1     26171 6.89759E+00 6.99021E+00 1.37743E+00
 -1     26172 3.52673E+01 3.32319E+01 3.57440E+00
 -1     26173 3.44094E+01 3.32469E+01 3.84623E+00
 -1     26174 3.40419E+01 3.40855E+01 3.45586E+00
 -1     26175 9.39774E+00 3.65674E+01 2.50000E+00
 -1     26176 1.09907E+01 3.59329E+01 1.36431E+00
 -1     26177 1.02022E+01 3.60480E+01 3.86431E+00
 -1     26178 1.15565E+01 3.71288E+01 2.60268E+00
 -1     26179 3.00954E+01 3.42000E+01 3.72720E+00
 -1     26180 3.02873E+01 3.32479E+01 1.22720E+00
 -1     26181 2.92350E+01 3.38183E+01 2.50000E+00
 -1     26182 4.66418E+01 4.38315E+01 3.40262E+00
 -1     26183 4.61111E+01 4.39459E+01 3.54580E+00
 -1     26184 3.93471E+01 3.88125E+01 3.66557E+00
 -1     26185 3.91388E+01 3.97963E+01 3.66557E+00
 -1     26186 3.84047E+01 3.91347E+01 3.66557E+00
 -1     26187 3.60169E+01 3.88893E+01 2.50000E+00
 -1     26188 3.52863E+01 3.82161E+01 2.50000E+00
 -1     26189 3.93494E+01 3.88122E+01 1.16557E+00
 -1     26190 4.02875E+01 3.84956E+01 1.16557E+00
 -1     26191 4.00128E+01 3.72222E+01 2.96300E-01
 -1     26192 3.90747E+01 3.75388E+01 2.96300E-01
 -1     26193 3.95730E+01 3.83846E+01 1.46187E+00
 -1     26194 3.52864E+01 5.53599E+01 4.09253E-01
 -1     26195 3.49654E+01 5.52530E+01 1.23715E+00
 -1     26196 3.58643E+01 5.52823E+01 7.01746E-01
 -1     26197 4.52519E+01 5.73824E+01 9.67640E-01
 -1     26198 4.62729E+01 5.71359E+01 1.44409E+00
 -1     26199 4.54203E+01 5.71892E+01 2.41173E+00
 -1     26200 4.53075E+01 5.78137E+01 1.62996E+00
 -1     26201 4.61601E+01 5.77603E+01 6.62320E-01
 -1     26202 4.63285E+01 5.75672E+01 2.10641E+00
 -1     26203 3.73468E+01 3.48273E+01 3.15283E+00
 -1     26204 3.81689E+01 3.55809E+01 3.25510E+00
 -1     26205 1.27467E+01 3.84158E+01 1.23837E+00
 -1     26206 1.42969E+01 3.81321E+01 2.50000E+00
 -1     26207 2.40408E+01 2.27608E+01 3.69794E+00
 -1     26208 2.42825E+01 2.29824E+01 4.53117E+00
 -1     26209 2.35553E+01 2.23157E+01 4.53117E+00
 -1     26210 1.51361E+01 3.56121E+01 3.77513E+00
 -1     26211 1.42805E+01 3.55736E+01 3.77513E+00
 -1     26212 4.49910E+01 4.64489E+01 3.69122E+00
 -1     26213 3.97294E+01 5.52982E+01 6.97709E-01
 -1     26214 4.00428E+01 5.58305E+01 1.53145E+00
 -1     26215 3.94040E+01 5.57570E+01 1.19224E+00
 -1     26216 4.00188E+01 5.59112E+01 4.94529E-01
 -1     26217 4.24879E+00 4.47976E+01 2.82081E+00
 -1     26218 4.00246E+00 4.47155E+01 1.97315E+00
 -1     26219 4.49337E+00 4.40168E+01 2.95466E+00
 -1     26220 5.16665E+00 4.48599E+01 3.46001E+00
 -1     26221 4.92031E+00 4.47778E+01 2.61235E+00
 -1     26222 3.85502E+01 5.40632E+01 6.97709E-01
 -1     26223 3.82956E+01 5.38705E+01 2.50000E+00
 -1     26224 3.81125E+01 5.42800E+01 1.69752E+00
 -1     26225 3.86770E+01 5.53607E+01 2.39523E+00
 -1     26226 3.84224E+01 5.51680E+01 4.19752E+00
 -1     26227 2.25776E+01 2.48989E+01 1.34022E+00
 -1     26228 5.22227E+00 4.31443E+01 1.79693E+00
 -1     26229 4.44515E+00 4.37321E+01 4.29693E+00
 -1     26230 4.25620E+00 4.27974E+01 2.50000E+00
 -1     26231 4.30442E+00 4.30820E+01 1.15773E+00
 -1     26232 3.52729E+00 4.36699E+01 3.65773E+00
 -1     26233 4.14024E+00 3.52909E+01 2.50000E+00
 -1     26234 4.07994E+00 3.62238E+01 2.50000E+00
 -1     26235 3.29081E+00 3.57891E+01 2.50000E+00
 -1     26236 4.73136E+00 4.38430E+01 8.15416E-01
 -1     26237 2.47280E+01 2.37951E+01 1.40100E+00
 -1     26238 2.44834E+01 2.35709E+01 5.67054E-01
 -1     26239 2.52107E+01 2.42376E+01 5.67054E-01
 -1     26240 3.20670E+01 3.37051E+01 4.03065E+00
 -1     26241 3.30100E+01 3.34052E+01 4.03065E+00
 -1     26242 3.21896E+01 3.26357E+01 3.72720E+00
 -1     26243 4.36652E+01 4.14500E+01 2.08414E+00
 -1     26244 4.30250E+01 4.15473E+01 1.41629E+00
 -1     26245 4.39129E+01 4.19521E+01 6.67850E-01
 -1     26246 4.46664E+01 4.21577E+01 2.18037E+00
 -1     26247 4.37785E+01 4.17528E+01 2.92881E+00
 -1     26248 2.16742E-01 3.18289E+01 1.13675E+00
 -1     26249 2.16742E-01 3.23696E+01 2.02520E-01
 -1     26250 4.70509E-01 3.07706E+01 1.43085E+00
 -1     26251 6.87251E-01 3.16810E+01 6.99142E-01
 -1     26252 4.70509E-01 3.13114E+01 4.96622E-01
 -1     26253 5.85603E+00 4.55392E+01 3.84064E+00
 -1     26254 6.16423E+00 4.56419E+01 4.67756E+00
 -1     26255 6.10061E+00 4.47584E+01 3.97449E+00
 -1     26256 5.47484E+00 4.49626E+01 4.29693E+00
 -1     26257 2.80051E+01 3.14994E+01 2.50000E+00
 -1     26258 2.82222E+01 3.05340E+01 2.50000E+00
 -1     26259 2.72854E+01 3.08254E+01 2.50000E+00
 -1     26260 2.39843E+01 3.36520E+01 2.50000E+00
 -1     26261 3.35683E+01 3.17464E+01 5.32616E-01
 -1     26262 3.03048E+01 2.94900E+01 4.59547E-01
 -1     26263 3.01614E+01 3.00966E+01 1.24346E+00
 -1     26264 3.00091E+01 2.80435E+01 3.83302E+00
 -1     26265 2.94310E+01 2.73899E+01 3.85516E+00
 -1     26266 2.94288E+01 2.94296E+01 3.74346E+00
 -1     26267 7.56637E+00 9.85924E+00 1.37542E+00
 -1     26268 7.63069E+00 8.89479E+00 3.87542E+00
 -1     26269 4.63518E+01 4.99947E+01 5.84806E-01
 -1     26270 2.90096E+01 5.32015E+01 1.28677E+00
 -1     26271 2.83972E+01 5.29973E+01 4.52851E-01
 -1     26272 2.80806E+01 5.28918E+01 1.28949E+00
 -1     26273 3.93167E+01 5.61585E+01 1.92473E+00
 -1     26274 3.89904E+01 5.58930E+01 3.22897E+00
 -1     26275 3.88790E+01 5.63752E+01 2.92454E+00
 -1     26276 2.74754E+01 4.76945E+01 2.50000E+00
 -1     26277 2.71531E+01 4.88823E+01 3.81395E+00
 -1     26278 2.72708E+01 4.67182E+01 2.50000E+00
 -1     26279 2.69485E+01 4.79061E+01 3.81395E+00
 -1     26280 3.68254E+01 3.45748E+01 2.34163E+00
 -1     26281 2.56207E+01 2.84392E+01 1.34735E+00
 -1     26282 2.48800E+01 2.97932E+01 2.50000E+00
 -1     26283 2.48977E+01 2.77704E+01 1.34735E+00
 -1     26284 2.41570E+01 2.91244E+01 2.50000E+00
 -1     26285 1.87949E+01 1.78867E+01 3.62683E+00
 -1     26286 1.83104E+01 1.74424E+01 4.46019E+00
 -1     26287 1.84961E+01 1.85750E+01 3.81887E+00
 -1     26288 1.95795E+01 1.89102E+01 3.52532E+00
 -1     26289 1.90949E+01 1.84659E+01 4.35868E+00
 -1     26290 3.95499E+01 4.24178E+01 1.36003E+00
 -1     26291 4.03014E+01 4.31158E+01 1.36003E+00
 -1     26292 3.93545E+01 4.34394E+01 1.36003E+00
 -1     26293 2.34344E+01 2.84559E+01 2.50000E+00
 -1     26294 2.39498E+01 3.00776E+01 2.50000E+00
 -1     26295 3.37352E+01 4.14924E+01 2.50000E+00
 -1     26296 3.35799E+01 4.23614E+01 2.50000E+00
 -1     26297 3.46801E+01 4.11756E+01 2.50000E+00
 -1     26298 3.45248E+01 4.20447E+01 2.50000E+00
 -1     26299 2.46679E+01 3.07492E+01 2.50000E+00
 -1     26300 1.23682E+01 4.10487E+01 2.50000E+00
 -1     26301 1.76811E+01 2.02576E+01 1.26584E+00
 -1     26302 1.78897E+01 1.92924E+01 1.26584E+00
 -1     26303 1.69520E+01 1.95974E+01 1.26584E+00
 -1     26304 1.79577E+01 2.57053E+01 2.50000E+00
 -1     26305 3.44872E+00 4.07974E+01 3.85428E+00
 -1     26306 4.25700E+00 4.02122E+01 3.85428E+00
 -1     26307 4.29003E+00 4.11631E+01 3.85428E+00
 -1     26308 1.62397E+01 3.67209E+01 1.27513E+00
 -1     26309 1.77871E+01 1.81755E+01 4.87001E-01
 -1     26310 1.87235E+01 1.78724E+01 4.87001E-01
 -1     26311 1.70831E+01 1.75479E+01 8.28840E-01
 -1     26312 1.78339E+01 1.77838E+01 1.31584E+00
 -1     26313 1.24490E+01 1.41634E+01 3.14446E+00
 -1     26314 1.32127E+01 1.42365E+01 2.93958E+00
 -1     26315 1.29704E+01 1.47563E+01 3.34436E+00
 -1     26316 1.04764E+01 4.59483E+01 4.49142E+00
 -1     26317 4.65471E+01 4.96289E+01 2.58991E+00
 -1     26318 4.54636E+01 4.99693E+01 8.61790E-01
 -1     26319 4.53487E+01 4.93692E+01 1.72812E+00
 -1     26320 4.65668E+01 4.90173E+01 2.31292E+00
 -1     26321 4.66817E+01 4.96174E+01 1.44660E+00
 -1     26322 4.46589E+01 5.72535E+01 4.44250E+00
 -1     26323 4.46843E+01 5.82921E+01 4.44250E+00
 -1     26324 4.39762E+01 5.72541E+01 4.26662E+00
 -1     26325 4.40016E+01 5.82927E+01 4.26662E+00
 -1     26326 7.60393E+00 7.79107E+00 4.20005E+00
 -1     26327 6.87666E+00 7.12440E+00 4.20005E+00
 -1     26328 7.18291E+00 7.40513E+00 3.37069E+00
 -1     26329 1.29333E+01 3.44493E+01 3.86431E+00
 -1     26330 1.11546E+01 4.42305E+01 3.57910E+00
 -1     26331 1.11195E+01 4.33061E+01 2.50000E+00
 -1     26332 1.03825E+01 4.39489E+01 2.50000E+00
 -1     26333 1.05805E+01 4.57877E+01 1.07910E+00
 -1     26334 2.62203E+01 2.49491E+01 3.56260E+00
 -1     26335 2.54935E+01 2.42829E+01 3.55824E+00
 -1     26336 2.57345E+01 2.45037E+01 4.39075E+00
 -1     26337 2.27202E+01 2.17570E+01 2.50512E+00
 -1     26338 2.12130E+01 2.23434E+01 2.08963E+00
 -1     26339 2.12811E+01 2.14756E+01 2.91783E+00
 -1     26340 2.24776E+01 2.15346E+01 1.67183E+00
 -1     26341 2.10384E+01 2.12532E+01 2.08454E+00
 -1     26342 1.89194E+01 2.05543E+01 8.11828E-01
 -1     26343 1.97703E+01 2.09864E+01 2.06300E+00
 -1     26344 1.74208E+01 1.73539E+01 2.78903E+00
 -1     26345 1.77767E+01 1.70222E+01 2.49546E+00
 -1     26346 1.75009E+01 1.84345E+01 3.22602E+00
 -1     26347 1.72101E+01 1.82368E+01 2.09468E+00
 -1     26348 1.78568E+01 1.81027E+01 2.93246E+00
 -1     26349 2.64617E+01 2.51704E+01 4.39075E+00
 -1     26350 1.54042E+01 2.56335E+01 2.50000E+00
 -1     26351 2.92210E+01 3.03938E+01 1.24346E+00
 -1     26352 2.89986E+01 3.13653E+01 1.24346E+00
 -1     26353 4.36244E+00 4.21014E+01 3.85428E+00
 -1     26354 5.15087E+00 4.15064E+01 3.85428E+00
 -1     26355 1.64374E+01 3.66265E+01 3.77513E+00
 -1     26356 4.00022E-01 1.43098E+01 3.03323E-01
 -1     26357 4.00022E-01 1.46425E+01 1.13183E+00
 -1     26358 4.00022E-01 1.53098E+01 3.03323E-01
 -1     26359 8.11226E-01 1.82536E+01 2.04785E+00
 -1     26360 4.71079E+01 5.80958E+01 6.62320E-01
 -1     26361 4.67036E+01 5.75777E+01 1.18273E+00
 -1     26362 4.75957E+01 5.74819E+01 5.20405E-01
 -1     26363 4.66479E+01 5.71464E+01 5.20405E-01
 -1     26364 2.45938E+00 1.97126E+01 4.26133E+00
 -1     26365 3.38848E+00 2.01811E+01 3.69188E+00
 -1     26366 4.72161E+01 4.89977E+01 3.49845E+00
 -1     26367 4.75870E+01 5.38280E+01 3.32207E+00
 -1     26368 4.68054E+01 5.39665E+01 3.56267E+00
 -1     26369 4.72184E+01 5.31160E+01 3.21303E+00
 -1     26370 4.75870E+01 5.45169E+01 2.61946E+00
 -1     26371 4.72184E+01 5.38048E+01 2.51041E+00
 -1     26372 1.39286E+01 2.43675E+01 2.50000E+00
 -1     26373 1.36047E+01 2.58703E+01 1.25958E+00
 -1     26374 1.35901E+01 2.58287E+01 3.75958E+00
 -1     26375 1.25778E+01 2.36667E+01 3.74170E+00
 -1     26376 1.25924E+01 2.37083E+01 1.24170E+00
 -1     26377 1.22539E+01 2.51695E+01 2.50128E+00
 -1     26378 5.49557E-01 3.61883E+01 5.80778E-01
 -1     26379 5.49557E-01 3.55855E+01 1.81948E+00
 -1     26380 1.98549E+01 2.13289E+01 3.75117E+00
 -1     26381 1.64847E+00 1.05395E+01 2.22531E+00
 -1     26382 2.48461E+00 9.39275E+00 1.96370E+00
 -1     26383 2.70724E+00 1.04483E+01 2.63765E+00
 -1     26384 2.59794E+00 1.01664E+01 1.18802E+00
 -1     26385 8.97585E+00 8.93252E+00 2.03337E+00
 -1     26386 8.35489E+00 8.88586E+00 1.90446E+00
 -1     26387 8.84088E+00 8.62669E+00 1.18699E+00
 -1     26388 9.45607E+00 9.26244E+00 1.33299E+00
 -1     26389 8.83511E+00 9.21578E+00 1.20408E+00
 -1     26390 4.73507E+01 4.88111E+01 1.48700E+00
 -1     26391 4.68395E+01 4.78990E+01 2.09341E+00
 -1     26392 4.75216E+01 4.79942E+01 1.37523E+00
 -1     26393 4.68723E+01 4.81889E+01 1.05784E+00
 -1     26394 4.73507E+01 4.85029E+01 5.84806E-01
 -1     26395 4.75216E+01 4.76860E+01 4.73030E-01
 -1     26396 6.20161E+00 4.30402E+01 1.19869E+00
 -1     26397 6.31718E+00 4.39507E+01 1.19869E+00
 -1     26398 7.08154E+00 4.33447E+01 1.19869E+00
 -1     26399 1.67169E+01 2.34296E+01 2.50000E+00
 -1     26400 1.57835E+01 2.37282E+01 2.50000E+00
 -1     26401 2.67361E+01 2.60038E+01 3.01920E+00
 -1     26402 2.64998E+01 2.57872E+01 2.18386E+00
 -1     26403 2.72462E+01 2.64713E+01 2.19833E+00
 -1     26404 2.95722E+01 3.25680E+01 1.22720E+00
 -1     26405 1.67066E+01 1.71138E+01 4.16763E+00
 -1     26406 1.70524E+01 1.69187E+01 3.62782E+00
 -1     26407 1.73658E+01 1.77466E+01 4.46019E+00
 -1     26408 1.71551E+01 1.86295E+01 3.76584E+00
 -1     26409 1.68417E+01 1.78016E+01 2.93347E+00
 -1     26410 4.28757E+00 2.74389E+01 2.50000E+00
 -1     26411 4.27190E+00 2.84428E+01 2.50000E+00
 -1     26412 5.12277E+00 2.89304E+01 2.50000E+00
 -1     26413 5.13844E+00 2.79264E+01 2.50000E+00
 -1     26414 6.80261E+00 8.61285E+00 8.93721E-01
 -1     26415 7.54292E+00 9.26528E+00 8.93721E-01
 -1     26416 5.15534E+00 2.69205E+01 2.50000E+00
 -1     26417 5.99636E+00 2.74233E+01 2.50000E+00
 -1     26418 4.02776E+01 4.30867E+01 3.86003E+00
 -1     26419 4.09841E+01 4.38680E+01 3.86003E+00
 -1     26420 4.00344E+01 4.40955E+01 3.86003E+00
 -1     26421 2.74481E+01 2.66565E+01 3.04521E+00
 -1     26422 1.68070E+01 1.61332E+01 1.66209E+00
 -1     26423 1.67616E+01 1.67210E+01 2.49647E+00
 -1     26424 1.57695E+01 1.54379E+01 1.52411E+00
 -1     26425 1.60925E+01 1.64608E+01 1.51970E+00
 -1     26426 6.52834E+00 6.80511E+00 3.46117E+00
 -1     26427 5.78066E+00 6.37273E+00 3.62269E+00
 -1     26428 6.12898E+00 6.69202E+00 4.36158E+00
 -1     26429 7.65310E+00 4.49293E+01 5.67283E-01
 -1     26430 7.42716E+00 4.52400E+01 9.71322E-01
 -1     26431 6.85018E+00 4.49437E+01 4.04039E-01
 -1     26432 7.80735E+00 4.58436E+01 5.67283E-01
 -1     26433 7.00442E+00 4.58580E+01 4.04039E-01
 -1     26434 1.01843E+01 2.79569E+01 2.50000E+00
 -1     26435 4.23523E+01 3.95078E+01 3.59957E+00
 -1     26436 4.25452E+01 3.96846E+01 2.75075E+00
 -1     26437 4.30665E+01 4.01625E+01 3.56605E+00
 -1     26438 5.09113E+00 3.18900E+01 2.50000E+00
 -1     26439 1.47203E+01 2.05046E+01 2.50000E+00
 -1     26440 1.54559E+01 2.11532E+01 2.50000E+00
 -1     26441 1.45152E+01 2.14675E+01 2.50000E+00
 -1     26442 8.09496E+00 1.46212E+01 2.50000E+00
 -1     26443 7.27374E+00 1.55212E+01 3.72794E+00
 -1     26444 8.89090E+00 1.52408E+01 2.50000E+00
 -1     26445 8.06967E+00 1.61408E+01 3.72794E+00
 -1     26446 4.30785E+01 5.79850E+01 4.26662E+00
 -1     26447 4.27051E+01 5.78606E+01 3.03686E+00
 -1     26448 4.24833E+01 5.76699E+01 4.18637E+00
 -1     26449 4.21099E+01 5.75455E+01 2.95661E+00
 -1     26450 6.16976E+00 1.79522E+01 1.22794E+00
 -1     26451 6.88610E+00 1.83420E+01 3.72794E+00
 -1     26452 5.72634E+00 1.93345E+01 2.50000E+00
 -1     26453 6.51918E+00 1.98186E+01 2.50000E+00
 -1     26454 2.30789E+01 3.38706E+01 2.50000E+00
 -1     26455 3.70857E+01 5.60368E+01 4.55692E-01
 -1     26456 3.75440E+01 5.61895E+01 1.18948E+00
 -1     26457 3.95061E+01 4.59798E+01 2.50000E+00
 -1     26458 4.04574E+01 4.56655E+01 2.50000E+00
 -1     26459 3.94994E+01 4.50038E+01 3.86003E+00
 -1     26460 4.01414E+01 4.41574E+01 1.36003E+00
 -1     26461 7.07995E+00 4.46543E+01 3.37625E+00
 -1     26462 6.14598E+00 4.47558E+01 2.86177E+00
 -1     26463 6.92564E+00 3.98668E+01 1.27187E+00
 -1     26464 5.88964E+00 4.09277E+01 1.35428E+00
 -1     26465 7.79387E+00 4.01316E+01 1.27187E+00
 -1     26466 6.75787E+00 4.11925E+01 1.35428E+00
 -1     26467 1.52177E+01 3.08480E+01 3.81011E+00
 -1     26468 1.63139E+01 3.05374E+01 3.81011E+00
 -1     26469 2.01660E+01 3.13025E+01 2.50000E+00
 -1     26470 2.10895E+01 3.09929E+01 2.50000E+00
 -1     26471 4.35418E+01 5.81395E+01 3.52984E+00
 -1     26472 4.58801E+01 5.87892E+01 3.69387E+00
 -1     26473 4.57155E+01 5.79697E+01 3.12750E+00
 -1     26474 4.59156E+01 5.81984E+01 3.95296E+00
 -1     26475 4.57511E+01 5.73788E+01 3.38659E+00
 -1     26476 4.15602E+01 5.73622E+01 4.18637E+00
 -1     26477 4.14495E+01 4.68628E+01 2.50000E+00
 -1     26478 3.93227E+01 4.90766E+01 2.50000E+00
 -1     26479 3.95482E+01 4.80890E+01 2.50000E+00
 -1     26480 2.99336E+01 5.35095E+01 1.28605E+00
 -1     26481 2.93202E+01 5.33050E+01 4.52851E-01
 -1     26482 3.01580E+01 5.31302E+01 9.77603E-01
 -1     26483 3.09896E+01 5.38758E+01 1.35795E+00
 -1     26484 3.03762E+01 5.36714E+01 5.24752E-01
 -1     26485 3.84343E+01 4.36864E+01 3.86003E+00
 -1     26486 3.76708E+01 4.30858E+01 3.86003E+00
 -1     26487 4.22802E+00 1.44896E+01 2.50000E+00
 -1     26488 3.40943E+00 1.39941E+01 2.50000E+00
 -1     26489 2.87908E+01 3.57693E+01 2.50000E+00
 -1     26490 3.15799E+01 4.61790E+01 2.50000E+00
 -1     26491 3.08213E+01 4.68924E+01 2.50000E+00
 -1     26492 2.25261E+01 2.27904E+01 4.37386E+00
 -1     26493 2.27415E+01 2.18245E+01 4.37386E+00
 -1     26494 2.33398E+01 2.32817E+01 4.53117E+00
 -1     26495 2.30240E+01 2.28069E+01 3.90503E+00
 -1     26496 4.03281E+01 4.67450E+01 2.50000E+00
 -1     26497 1.31855E+01 4.79633E+01 4.79154E-01
 -1     26498 1.35095E+01 4.80713E+01 1.28114E+00
 -1     26499 1.41086E+01 4.82710E+01 4.79154E-01
 -1     26500 3.00138E+00 4.40207E+01 1.53495E+00
 -1     26501 3.44382E+00 4.27445E+01 1.15773E+00
 -1     26502 2.86968E+00 4.28107E+01 3.77215E-01
 -1     26503 1.93400E+00 4.42836E+01 1.47195E+00
 -1     26504 2.50814E+00 4.42174E+01 2.25247E+00
 -1     26505 2.37644E+00 4.30074E+01 1.09474E+00
 -1     26506 1.43607E+01 4.75374E+01 2.09765E+00
 -1     26507 1.46183E+01 4.76232E+01 2.94431E+00
 -1     26508 3.93547E+01 4.33203E+01 3.86003E+00
 -1     26509 4.73370E+01 5.54208E+01 7.94003E-01
 -1     26510 4.75957E+01 5.64819E+01 5.20405E-01
 -1     26511 3.77347E+01 4.28851E+01 1.17850E+00
 -1     26512 3.85495E+01 4.26400E+01 2.53854E+00
 -1     26513 3.68560E+01 4.33308E+01 2.50000E+00
 -1     26514 2.61898E+01 3.56654E+01 2.50000E+00
 -1     26515 2.71417E+01 3.53628E+01 2.50000E+00
 -1     26516 2.63833E+01 3.47096E+01 2.50000E+00
 -1     26517 8.90549E+00 4.48210E+01 2.27779E+00
 -1     26518 8.87042E+00 4.38966E+01 1.19869E+00
 -1     26519 3.34004E+01 5.44693E+01 2.13368E+00
 -1     26520 3.26313E+01 5.46030E+01 2.87477E+00
 -1     26521 3.34245E+01 5.42032E+01 3.34408E+00
 -1     26522 3.27438E+01 5.39819E+01 3.33219E+00
 -1     26523 3.27679E+01 5.37158E+01 4.54258E+00
 -1     26524 1.73456E+01 4.90405E+01 3.50395E+00
 -1     26525 1.84665E+01 4.86242E+01 2.98095E+00
 -1     26526 1.75627E+01 4.85463E+01 3.89369E+00
 -1     26527 1.80588E+01 4.94531E+01 3.72336E+00
 -1     26528 1.86836E+01 4.81301E+01 3.37069E+00
 -1     26529 3.88817E+01 4.07211E+01 2.34407E+00
 -1     26530 3.79731E+01 4.18442E+01 3.67850E+00
 -1     26531 3.43763E+00 4.18986E+01 2.83332E+00
 -1     26532 2.48186E+00 4.22441E+01 3.97903E+00
 -1     26533 1.77791E+01 2.66598E+01 2.50000E+00
 -1     26534 5.14869E+00 6.99042E+00 2.51764E+00
 -1     26535 4.42777E+00 8.28251E+00 1.84409E+00
 -1     26536 5.12545E+00 5.77213E+00 3.13441E+00
 -1     26537 5.28892E+00 6.04516E+00 1.92890E+00
 -1     26538 4.40453E+00 7.06422E+00 2.46086E+00
 -1     26539 3.44583E+00 4.42925E+01 1.41511E+00
 -1     26540 3.87277E+00 4.50535E+01 1.07279E+00
 -1     26541 3.39323E+00 4.40131E+01 2.57374E-01
 -1     26542 3.52292E+00 4.36751E+01 1.15773E+00
 -1     26543 3.94986E+00 4.44361E+01 8.15416E-01
 -1     26544 3.79691E+01 4.18642E+01 1.17850E+00
 -1     26545 1.88314E+00 6.99214E+00 1.25624E+00
 -1     26546 6.64071E+00 6.90812E+00 2.59632E+00
 -1     26547 8.88909E+00 1.98609E+01 2.50000E+00
 -1     26548 9.79588E+00 1.95197E+01 2.50000E+00
 -1     26549 9.53547E+00 2.05461E+01 2.50000E+00
 -1     26550 3.76730E+01 5.61035E+01 6.23673E-01
 -1     26551 3.81313E+01 5.62563E+01 1.35746E+00
 -1     26552 3.85961E+01 5.64112E+01 6.23673E-01
 -1     26553 2.18555E+01 2.07556E+01 3.68359E+00
 -1     26554 2.24993E+01 2.16025E+01 3.54052E+00
 -1     26555 2.15665E+01 2.14688E+01 3.89079E+00
 -1     26556 2.03483E+01 2.13420E+01 3.26810E+00
 -1     26557 2.09921E+01 2.21889E+01 3.12503E+00
 -1     26558 1.75383E+01 2.76168E+01 2.50000E+00
 -1     26559 2.64540E+00 4.45207E+01 1.08913E+00
 -1     26560 2.13670E+00 4.43511E+01 3.77215E-01
 -1     26561 2.87169E+00 4.43587E+01 6.34589E-01
 -1     26562 3.08985E+00 4.47925E+01 9.69291E-01
 -1     26563 2.58115E+00 4.46229E+01 2.57374E-01
 -1     26564 1.51898E+00 4.77532E+00 4.02252E-01
 -1     26565 2.28718E+00 4.57058E+00 8.15100E-01
 -1     26566 1.73636E+00 4.61371E+00 1.21735E+00
 -1     26567 1.43892E+00 5.92372E+00 1.65849E+00
 -1     26568 1.98973E+00 5.88059E+00 1.25624E+00
 -1     26569 2.20712E+00 5.71898E+00 2.07134E+00
 -1     26570 1.25917E+00 4.40423E+01 3.92884E-01
 -1     26571 1.05647E+00 4.39747E+01 1.48762E+00
 -1     26572 1.17001E+00 3.99735E+01 4.51291E+00
 -1     26573 1.97828E+00 3.93883E+01 4.51291E+00
 -1     26574 1.29186E+00 4.07458E+01 4.48137E+00
 -1     26575 8.10226E-01 3.99420E+01 3.99428E+00
 -1     26576 2.10013E+00 4.01606E+01 4.48137E+00
 -1     26577 3.77795E+01 4.69459E+01 2.50000E+00
 -1     26578 3.68839E+01 4.65622E+01 2.50000E+00
 -1     26579 3.75457E+01 4.59502E+01 2.50000E+00
 -1     26580 2.66758E+01 4.08879E+01 1.09308E+00
 -1     26581 1.54981E+01 4.61258E+01 1.29567E+00
 -1     26582 1.47682E+01 4.67803E+01 1.29567E+00
 -1     26583 1.56906E+01 4.70858E+01 1.29567E+00
 -1     26584 4.84081E-01 5.40922E+00 4.02252E-01
 -1     26585 1.16812E+01 4.75313E+01 1.96375E+00
 -1     26586 1.16720E+01 4.75282E+01 1.07083E+00
 -1     26587 3.02917E+01 4.08571E+01 2.50000E+00
 -1     26588 3.00389E+01 4.20354E+01 2.50000E+00
 -1     26589 2.39234E+00 1.94115E+01 1.66338E+00
 -1     26590 3.36908E+00 1.92121E+01 1.19188E+00
 -1     26591 2.36393E+00 1.81843E+01 4.71507E-01
 -1     26592 1.50482E+00 1.81135E+01 1.68610E+00
 -1     26593 2.48156E+00 1.79141E+01 1.21459E+00
 -1     26594 3.44610E+00 2.59423E+01 2.50000E+00
 -1     26595 2.25801E+00 2.57985E+01 4.34365E+00
 -1     26596 1.72452E+01 2.50352E+01 2.50000E+00
 -1     26597 4.68395E+01 4.65908E+01 3.69122E+00
 -1     26598 4.68395E+01 4.75908E+01 3.69122E+00
 -1     26599 3.72360E+01 4.11517E+01 1.17850E+00
 -1     26600 3.81976E+01 4.01349E+01 3.66557E+00
 -1     26601 6.89880E-01 2.23273E+01 1.46377E+00
 -1     26602 1.39200E+00 2.31581E+01 2.08961E+00
 -1     26603 2.12374E+01 4.19291E+01 1.26416E+00
 -1     26604 2.13122E+01 4.30650E+01 2.50000E+00
 -1     26605 2.10356E+01 4.10000E+01 3.76416E+00
 -1     26606 1.91579E+00 2.46647E+01 3.09990E+00
 -1     26607 3.10389E+00 2.48086E+01 1.25624E+00
 -1     26608 2.27008E+01 5.03354E+01 2.33517E+00
 -1     26609 2.16563E+01 4.99872E+01 2.23504E+00
 -1     26610 1.15625E+00 2.55661E+01 1.30594E+00
 -1     26611 1.17579E+00 2.52320E+01 2.54326E+00
 -1     26612 2.36389E+00 2.53758E+01 6.99606E-01
 -1     26613 4.66038E-01 4.03571E+01 4.48137E+00
 -1     26614 4.66038E-01 4.13571E+01 4.48137E+00
 -1     26615 4.66038E-01 4.07258E+01 3.66326E+00
 -1     26616 6.22943E+00 1.69505E+01 3.72794E+00
 -1     26617 7.01145E+00 1.74743E+01 3.72794E+00
 -1     26618 6.15456E+00 1.79163E+01 3.72794E+00
 -1     26619 2.48884E+00 3.47423E+00 3.41220E+00
 -1     26620 1.97506E+00 4.02556E+00 3.83664E+00
 -1     26621 1.78817E+00 2.66145E+00 3.78963E+00
 -1     26622 1.15097E+00 3.43211E+00 3.37183E+00
 -1     26623 1.33786E+00 4.79622E+00 3.41885E+00
 -1     26624 6.37200E-01 3.98344E+00 3.79627E+00
 -1     26625 4.23851E+00 3.14228E+01 2.50000E+00
 -1     26626 4.21892E+00 3.24006E+01 2.50000E+00
 -1     26627 6.52003E-01 2.43924E+01 6.99606E-01
 -1     26628 6.52003E-01 2.53924E+01 6.99606E-01
 -1     26629 6.52003E-01 2.47263E+01 1.53324E+00
 -1     26630 1.08774E+01 2.34567E+01 1.24170E+00
 -1     26631 1.00281E+01 2.27867E+01 1.24170E+00
 -1     26632 9.94822E+00 2.39267E+01 1.24170E+00
 -1     26633 3.33519E+01 5.15253E+01 2.50000E+00
 -1     26634 3.43023E+01 5.18049E+01 2.50000E+00
 -1     26635 2.60249E+00 4.34670E+01 2.63677E+00
 -1     26636 2.55427E+00 4.31824E+01 3.97903E+00
 -1     26637 2.47080E+00 4.22570E+01 1.47903E+00
 -1     26638 3.39560E+00 4.24599E+01 2.50000E+00
 -1     26639 2.43323E+01 3.61596E+01 2.50000E+00
 -1     26640 2.52559E+01 3.59476E+01 2.50000E+00
 -1     26641 9.64055E+00 2.19074E+01 1.24170E+00
 -1     26642 8.87449E+00 2.26486E+01 2.50000E+00
 -1     26643 4.27897E+00 4.11761E+01 1.35428E+00
 -1     26644 2.48188E+00 4.11559E+01 2.50000E+00
 -1     26645 2.29624E+01 2.19791E+01 8.38461E-01
 -1     26646 3.10201E+01 4.79130E+01 2.50000E+00
 -1     26647 3.00801E+01 4.76061E+01 2.50000E+00
 -1     26648 3.02566E+01 4.85892E+01 2.50000E+00
 -1     26649 1.07652E+01 2.44992E+01 1.24170E+00
 -1     26650 2.99410E+01 3.10687E+01 1.24346E+00
 -1     26651 7.57224E+00 8.59782E+00 5.29040E-01
 -1     26652 7.45029E+00 8.59507E+00 1.42276E+00
 -1     26653 8.31255E+00 9.25025E+00 5.29040E-01
 -1     26654 3.43480E+01 5.08128E+01 3.82698E+00
 -1     26655 3.41033E+01 4.98550E+01 3.82698E+00
 -1     26656 3.50584E+01 5.01067E+01 3.82698E+00
 -1     26657 9.06990E+00 1.42444E+01 2.50000E+00
 -1     26658 6.89880E-01 2.13267E+01 1.46370E+00
 -1     26659 2.59840E+01 2.47324E+01 2.72725E+00
 -1     26660 2.39996E+01 2.48153E+01 3.23097E+00
 -1     26661 2.46964E+01 2.45403E+01 2.17673E+00
 -1     26662 2.58029E+01 2.60622E+01 3.23810E+00
 -1     26663 2.45154E+01 2.58700E+01 2.68757E+00
 -1     26664 6.32386E+00 1.59591E+01 3.72794E+00
 -1     26665 7.13812E+00 1.65173E+01 3.72794E+00
 -1     26666 1.66659E+00 4.28541E+01 1.47903E+00
 -1     26667 1.53511E+00 4.37299E+01 2.57377E+00
 -1     26668 1.57224E+00 4.36045E+01 1.09474E+00
 -1     26669 1.21755E+01 1.16650E+01 2.43611E+00
 -1     26670 1.19396E+01 1.14487E+01 1.60049E+00
 -1     26671 1.26652E+01 1.21138E+01 1.60500E+00
 -1     26672 2.24550E+01 4.42949E+01 2.50000E+00
 -1     26673 2.17149E+01 4.49674E+01 2.50000E+00
 -1     26674 2.15209E+01 4.40025E+01 2.50000E+00
 -1     26675 7.63996E+00 3.92737E+01 1.27187E+00
 -1     26676 7.45682E+00 3.85201E+01 1.27187E+00
 -1     26677 6.80965E+00 3.90010E+01 1.27187E+00
 -1     26678 1.41184E+01 2.33930E+01 2.50000E+00
 -1     26679 1.18256E+01 2.30634E+01 3.74170E+00
 -1     26680 3.47067E+01 3.73466E+01 1.15185E+00
 -1     26681 3.49209E+01 3.63956E+01 3.65185E+00
 -1     26682 3.39780E+01 3.67111E+01 3.65185E+00
 -1     26683 3.43434E+01 3.85316E+01 2.50000E+00
 -1     26684 3.43292E+00 2.69466E+01 2.50000E+00
 -1     26685 1.98596E+01 2.13284E+01 1.25117E+00
 -1     26686 2.05880E+01 2.19929E+01 1.25117E+00
 -1     26687 3.26254E+01 3.06631E+01 2.69919E+00
 -1     26688 3.18225E+01 3.18865E+01 3.09097E+00
 -1     26689 3.26542E+01 3.18924E+01 2.89135E+00
 -1     26690 1.20236E+01 2.20907E+01 3.74170E+00
 -1     26691 1.56685E+01 3.73731E+01 3.77513E+00
 -1     26692 1.34749E+01 4.22804E+01 2.50000E+00
 -1     26693 1.27441E+01 4.29328E+01 2.50000E+00
 -1     26694 4.76559E-01 2.71523E+01 2.36383E+00
 -1     26695 7.13284E-01 2.76244E+01 2.16295E+00
 -1     26696 2.36725E-01 2.71478E+01 1.47042E+00
 -1     26697 5.04250E-01 2.65116E+01 1.44198E+00
 -1     26698 9.80810E-01 2.69881E+01 2.13451E+00
 -1     26699 7.40975E-01 2.69836E+01 1.24110E+00
 -1     26700 1.10425E+01 4.64338E+01 4.10293E-01
 -1     26701 2.18605E+01 4.82488E+01 1.38289E+00
 -1     26702 3.09807E+00 2.38103E+01 1.25624E+00
 -1     26703 3.94328E+00 2.32982E+01 1.25624E+00
 -1     26704 3.08161E+00 2.28135E+01 1.25624E+00
 -1     26705 4.28400E-01 2.92449E+01 3.31627E+00
 -1     26706 4.28400E-01 2.89643E+01 2.46935E+00
 -1     26707 7.83410E-01 2.90323E+01 1.90028E+00
 -1     26708 3.55009E-01 2.90633E+01 1.97566E+00
 -1     26709 3.55009E-01 2.87827E+01 1.12875E+00
 -1     26710 7.90468E+00 1.71301E+01 3.72794E+00
 -1     26711 1.20747E+01 1.67528E+01 3.77348E+00
 -1     26712 1.22848E+01 1.57636E+01 3.77348E+00
 -1     26713 5.01087E+00 3.47765E+01 2.50000E+00
 -1     26714 4.95790E+00 3.57147E+01 2.50000E+00
 -1     26715 1.55367E+01 3.73577E+01 1.27513E+00
 -1     26716 8.11226E-01 1.85868E+01 2.88117E+00
 -1     26717 7.69643E-01 1.94163E+01 3.42791E+00
 -1     26718 1.47413E+00 2.76178E+01 9.48501E-01
 -1     26719 1.09670E+00 2.79405E+01 2.47668E+00
 -1     26720 1.33054E+00 2.73062E+01 1.52818E+00
 -1     26721 1.09071E+00 2.73016E+01 6.34768E-01
 -1     26722 8.56870E-01 2.79360E+01 1.58327E+00
 -1     26723 3.21953E+00 4.44545E+01 1.86965E+00
 -1     26724 1.24233E+01 1.18921E+01 7.72506E-01
 -1     26725 1.16960E+01 1.12254E+01 7.72506E-01
 -1     26726 9.63027E-01 3.88158E+01 2.69597E+00
 -1     26727 1.16079E+00 3.89953E+01 4.51291E+00
 -1     26728 3.34791E+01 4.57746E+01 1.32875E+00
 -1     26729 3.46381E+01 4.61082E+01 1.32875E+00
 -1     26730 3.31963E+01 4.47419E+01 2.50000E+00
 -1     26731 3.36857E+01 4.65864E+01 3.82875E+00
 -1     26732 3.44240E+01 3.35322E+01 2.33306E+00
 -1     26733 3.19633E+01 2.99450E+01 5.07296E-01
 -1     26734 3.16971E+01 2.97010E+01 1.35804E+00
 -1     26735 4.23356E+00 4.02302E+01 1.35428E+00
 -1     26736 5.04786E+00 4.06037E+01 1.35428E+00
 -1     26737 7.21031E-01 1.53509E+00 3.41268E+00
 -1     26738 3.83837E-01 8.03176E-01 3.69870E+00
 -1     26739 3.37194E-01 7.31918E-01 3.04731E+00
 -1     26740 3.37194E-01 1.38518E+00 3.28627E+00
 -1     26741 3.83837E-01 1.45644E+00 3.93766E+00
 -1     26742 8.71708E+00 2.07340E+01 2.50000E+00
 -1     26743 8.98153E+00 8.93772E+00 2.92802E+00
 -1     26744 9.46174E+00 9.26764E+00 2.22764E+00
 -1     26745 3.45150E+00 9.70836E+00 1.18802E+00
 -1     26746 2.63784E+00 9.15981E+00 1.18802E+00
 -1     26747 3.54236E+00 8.70627E+00 1.18802E+00
 -1     26748 1.04589E+01 2.17195E+01 1.24170E+00
 -1     26749 2.58871E+00 1.46551E+01 3.77650E+00
 -1     26750 2.52895E+00 1.56587E+01 3.77650E+00
 -1     26751 1.67159E+00 1.51695E+01 3.77650E+00
 -1     26752 6.91857E+00 2.48506E+01 2.50000E+00
 -1     26753 7.84902E+00 2.42897E+01 2.50000E+00
 -1     26754 1.73952E+00 2.50517E+00 1.26618E+00
 -1     26755 1.15111E+00 1.85109E+00 1.94206E+00
 -1     26756 5.88403E-01 2.24589E+00 1.56925E+00
 -1     26757 1.15111E+00 2.76945E+00 1.71089E+00
 -1     26758 8.98909E-01 2.99183E+01 2.11707E+00
 -1     26759 2.12371E+00 2.95869E+01 1.62045E+00
 -1     26760 2.16582E+00 3.02913E+01 4.96622E-01
 -1     26761 1.32020E+00 2.98004E+01 4.96622E-01
 -1     26762 1.27809E+00 2.90960E+01 1.62045E+00
 -1     26763 7.92220E+00 2.32955E+01 2.50000E+00
 -1     26764 8.79462E+00 2.37886E+01 2.50000E+00
 -1     26765 2.17176E+01 3.60739E+01 2.50000E+00
 -1     26766 3.33976E+01 5.05332E+01 3.82698E+00
 -1     26767 4.55177E+00 4.46549E+01 4.29693E+00
 -1     26768 3.24514E+01 5.11917E+01 2.50000E+00
 -1     26769 3.13057E+01 5.13701E+01 3.70656E+00
 -1     26770 3.26574E+01 5.21678E+01 2.50000E+00
 -1     26771 3.15117E+01 5.23461E+01 3.70656E+00
 -1     26772 6.02775E+00 4.18227E+01 3.85428E+00
 -1     26773 5.60084E+00 4.54650E+01 1.18122E+00
 -1     26774 5.24605E+00 4.53467E+01 3.33060E-01
 -1     26775 5.78894E+00 4.50509E+01 7.37099E-01
 -1     26776 6.43614E+00 4.56686E+01 1.25219E+00
 -1     26777 6.08135E+00 4.55503E+01 4.04039E-01
 -1     26778 3.55819E+01 4.59055E+01 2.50000E+00
 -1     26779 3.59348E+01 4.69688E+01 2.50000E+00
 -1     26780 3.48962E+01 4.63011E+01 3.82875E+00
 -1     26781 3.46542E+01 4.72234E+01 1.32875E+00
 -1     26782 3.52492E+01 4.73644E+01 3.82875E+00
 -1     26783 3.41644E+00 2.89464E+01 2.50000E+00
 -1     26784 3.40612E+00 2.99430E+01 2.50000E+00
 -1     26785 3.27057E+01 4.64241E+01 1.32875E+00
 -1     26786 3.76956E+01 4.79192E+01 2.50000E+00
 -1     26787 3.68001E+01 4.75355E+01 2.50000E+00
 -1     26788 4.32297E+00 4.50390E+01 3.33060E-01
 -1     26789 4.69152E+00 4.51619E+01 1.14848E+00
 -1     26790 4.72206E+01 5.69950E+01 3.19028E+00
 -1     26791 4.41768E+01 4.88533E+01 2.50000E+00
 -1     26792 2.56924E+01 5.02344E+01 3.81395E+00
 -1     26793 2.64230E+01 4.95632E+01 3.81395E+00
 -1     26794 2.66143E+01 5.05366E+01 3.81395E+00
 -1     26795 5.13956E+00 4.15136E+01 1.35428E+00
 -1     26796 4.84081E-01 4.40922E+00 4.02252E-01
 -1     26797 3.42667E+00 2.79465E+01 2.50000E+00
 -1     26798 3.45810E+01 4.80424E+01 3.82875E+00
 -1     26799 3.54007E+01 4.82323E+01 3.82875E+00
 -1     26800 3.44164E+01 4.71771E+01 3.82875E+00
 -1     26801 2.33414E+01 2.48250E+01 5.67054E-01
 -1     26802 2.35482E+01 2.38648E+01 5.67054E-01
 -1     26803 2.34758E+01 2.45491E+01 1.90728E+00
 -1     26804 2.34480E+01 2.24242E+01 2.50523E+00
 -1     26805 2.34779E+01 2.34233E+01 3.00699E+00
 -1     26806 2.39642E+01 2.38691E+01 2.17417E+00
 -1     26807 5.00866E+00 3.96794E+01 1.35428E+00
 -1     26808 1.93249E+01 4.98130E+01 2.58865E+00
 -1     26809 1.93253E+01 4.82818E+01 3.06629E+00
 -1     26810 1.87005E+01 4.96048E+01 3.41896E+00
 -1     26811 4.31269E-01 1.73508E+01 4.24274E+00
 -1     26812 4.31269E-01 1.70144E+01 3.40897E+00
 -1     26813 1.24250E+00 1.72724E+01 2.95733E+00
 -1     26814 8.11226E-01 1.79216E+01 3.71459E+00
 -1     26815 8.11226E-01 1.75852E+01 2.88082E+00
 -1     26816 2.54188E+01 4.61324E+01 2.50000E+00
 -1     26817 2.52359E+01 4.51542E+01 2.50000E+00
 -1     26818 2.29744E+01 4.95215E+01 1.38289E+00
 -1     26819 2.27849E+01 4.85530E+01 1.38289E+00
 -1     26820 2.20503E+01 4.92161E+01 1.38289E+00
 -1     26821 2.40695E+01 4.16408E+01 3.79269E+00
 -1     26822 2.39163E+01 4.29677E+01 2.50000E+00
 -1     26823 2.34458E+01 2.35500E+01 1.40551E+00
 -1     26824 2.07082E+01 4.96712E+01 2.21939E+00
 -1     26825 3.07549E+00 4.45779E+01 4.55793E+00
 -1     26826 3.01709E+00 4.39398E+01 3.21566E+00
 -1     26827 3.63391E+00 4.45926E+01 3.65773E+00
 -1     26828 2.71948E+00 4.44593E+01 3.67669E+00
 -1     26829 3.27790E+00 4.44740E+01 2.77649E+00
 -1     26830 2.68906E+01 3.63360E+01 2.50000E+00
 -1     26831 2.67032E+01 3.72817E+01 2.50000E+00
 -1     26832 2.59567E+01 3.66182E+01 2.50000E+00
 -1     26833 1.47742E+00 4.40311E+01 4.53983E+00
 -1     26834 1.19381E+00 4.39366E+01 3.91519E+00
 -1     26835 1.78368E+00 4.36860E+01 4.09776E+00
 -1     26836 2.15241E+00 4.42702E+01 4.55793E+00
 -1     26837 1.86880E+00 4.41757E+01 3.93329E+00
 -1     26838 4.74506E+01 5.93428E+01 2.18213E+00
 -1     26839 4.74506E+01 5.85442E+01 2.46239E+00
 -1     26840 4.19421E+01 4.45298E+01 2.50000E+00
 -1     26841 4.09924E+01 4.47572E+01 2.50000E+00
 -1     26842 4.56074E+01 5.85998E+01 4.44250E+00
 -1     26843 4.55953E+01 5.75835E+01 4.44250E+00
 -1     26844 1.73636E+01 3.64762E+01 2.50000E+00
 -1     26845 1.70646E+01 3.55480E+01 2.50000E+00
 -1     26846 1.11111E+00 1.46984E+00 4.53203E+00
 -1     26847 3.83837E-01 1.80318E+00 4.53203E+00
 -1     26848 3.83837E-01 8.03176E-01 4.53203E+00
 -1     26849 3.42248E+01 5.42307E+01 5.82183E-01
 -1     26850 3.35075E+01 5.48724E+01 5.82183E-01
 -1     26851 3.40037E+01 5.48984E+01 3.40377E-01
 -1     26852 3.47210E+01 5.42567E+01 3.40377E-01
 -1     26853 3.42804E+01 5.46939E+01 9.22560E-01
 -1     26854 2.35702E+01 4.55513E+01 2.50000E+00
 -1     26855 2.44939E+01 4.58571E+01 2.50000E+00
 -1     26856 2.43109E+01 4.48789E+01 2.50000E+00
 -1     26857 2.74248E+01 3.79912E+01 2.50000E+00
 -1     26858 2.81102E+01 3.87343E+01 2.50000E+00
 -1     26859 3.41476E+01 4.87714E+01 2.65573E+00
 -1     26860 3.48793E+01 4.89543E+01 3.82875E+00
 -1     26861 9.58098E+00 1.09319E+01 3.90040E+00
 -1     26862 2.23290E+01 3.32246E+01 2.50000E+00
 -1     26863 2.32772E+01 3.29697E+01 2.50000E+00
 -1     26864 2.25273E+01 3.23238E+01 2.50000E+00
 -1     26865 2.13401E+01 3.36438E+01 2.50000E+00
 -1     26866 2.05931E+01 3.29641E+01 2.50000E+00
 -1     26867 2.16051E+01 3.26241E+01 2.50000E+00
 -1     26868 1.24981E+01 1.47784E+01 3.77348E+00
 -1     26869 1.15392E+01 1.51065E+01 3.77348E+00
 -1     26870 6.30785E+00 4.23442E+01 2.55297E+00
 -1     26871 7.81991E+00 4.27191E+01 1.19869E+00
 -1     26872 7.84015E+00 4.27451E+01 3.69869E+00
 -1     26873 8.29017E+00 4.15934E+01 2.50000E+00
 -1     26874 1.04324E+01 1.23594E+01 1.70911E+00
 -1     26875 9.54777E+00 1.22631E+01 2.50000E+00
 -1     26876 1.05063E+01 1.14301E+01 4.20911E+00
 -1     26877 9.50705E+00 1.18612E+01 1.40040E+00
 -1     26878 8.11151E-01 2.00112E+01 4.61249E-01
 -1     26879 8.11151E-01 1.93432E+01 1.29451E+00
 -1     26880 8.11151E-01 2.03437E+01 1.29454E+00
 -1     26881 1.37811E+01 2.08326E+01 2.50000E+00
 -1     26882 4.42610E+01 4.10859E+01 6.13698E-01
 -1     26883 4.39921E+01 4.13466E+01 1.28155E+00
 -1     26884 4.48220E+01 4.15941E+01 6.67850E-01
 -1     26885 4.39701E+01 4.08192E+01 1.42895E+00
 -1     26886 4.45310E+01 4.13274E+01 1.48311E+00
 -1     26887 1.89650E+01 2.89645E+01 2.50000E+00
 -1     26888 5.06015E+00 2.11701E+01 1.19188E+00
 -1     26889 4.64621E+01 5.89832E+01 4.51045E+00
 -1     26890 4.64501E+01 5.79669E+01 4.51045E+00
 -1     26891 9.81606E+00 9.59243E+00 6.75038E-01
 -1     26892 1.00766E+01 9.83124E+00 1.47666E+00
 -1     26893 4.35338E+01 4.04192E+01 6.13698E-01
 -1     26894 3.28972E+01 5.44776E+01 1.42093E+00
 -1     26895 1.79140E+01 1.88644E+01 1.75284E+00
 -1     26896 1.51360E+01 4.85731E+01 3.69576E+00
 -1     26897 1.64155E+01 4.87304E+01 3.50051E+00
 -1     26898 1.55701E+01 4.79764E+01 3.86953E+00
 -1     26899 1.45299E+01 4.83710E+01 4.53239E+00
 -1     26900 1.58094E+01 4.85284E+01 4.33714E+00
 -1     26901 2.53388E+00 3.14432E+01 2.50000E+00
 -1     26902 1.47369E+00 3.18031E+01 3.94056E+00
 -1     26903 3.12355E+01 3.29451E+01 1.22720E+00
 -1     26904 2.47218E+01 3.98455E+01 1.29269E+00
 -1     26905 7.63614E+00 3.33825E+01 2.50000E+00
 -1     26906 7.61394E+00 3.43662E+01 2.50000E+00
 -1     26907 8.49134E+00 3.48196E+01 2.50000E+00
 -1     26908 8.51355E+00 3.38359E+01 2.50000E+00
 -1     26909 2.42593E+00 3.72946E+01 2.50000E+00
 -1     26910 1.58189E+00 3.59853E+01 4.02952E+00
 -1     26911 1.30156E+00 3.70355E+01 4.11502E+00
 -1     26912 1.21739E+01 3.66065E+01 3.86431E+00
 -1     26913 1.12425E+01 3.63262E+01 3.86431E+00
 -1     26914 1.10038E+01 3.80415E+01 3.73837E+00
 -1     26915 3.11411E+01 5.38862E+01 3.74557E+00
 -1     26916 3.10697E+01 5.31315E+01 2.87283E+00
 -1     26917 3.02144E+01 5.23523E+01 3.28585E+00
 -1     26918 3.09628E+01 5.31048E+01 3.64907E+00
 -1     26919 3.18181E+01 5.38840E+01 3.23604E+00
 -1     26920 3.08914E+01 5.23500E+01 2.77633E+00
 -1     26921 3.14815E+01 5.23846E+01 1.20656E+00
 -1     26922 3.28502E+01 5.31332E+01 2.50000E+00
 -1     26923 4.41977E+01 5.56200E+01 2.50000E+00
 -1     26924 4.32888E+01 5.63410E+01 2.50000E+00
 -1     26925 4.32013E+01 5.52509E+01 2.50000E+00
 -1     26926 4.41102E+01 5.45300E+01 2.50000E+00
 -1     26927 2.35827E+00 4.07588E+01 1.01856E+00
 -1     26928 1.57344E+00 4.13260E+01 3.51856E+00
 -1     26929 2.43647E+00 4.02100E+01 2.50000E+00
 -1     26930 2.07669E+00 4.01785E+01 1.98137E+00
 -1     26931 1.21366E+00 4.12945E+01 2.99993E+00
 -1     26932 2.90417E+01 3.84494E+01 2.50000E+00
 -1     26933 3.39889E+01 5.43687E+01 1.88368E+00
 -1     26934 3.44851E+01 5.43947E+01 1.64187E+00
 -1     26935 3.44295E+01 5.39315E+01 1.30150E+00
 -1     26936 2.33839E+01 4.45782E+01 2.50000E+00
 -1     26937 3.11234E+01 5.04348E+01 1.20656E+00
 -1     26938 3.02108E+01 5.01099E+01 1.20656E+00
 -1     26939 2.86434E+01 5.28794E+01 2.61606E+00
 -1     26940 2.92603E+01 5.30851E+01 3.44886E+00
 -1     26941 2.95301E+01 5.26183E+01 2.04047E+00
 -1     26942 2.92563E+01 5.18587E+01 2.98870E+00
 -1     26943 3.01470E+01 5.28239E+01 2.87327E+00
 -1     26944 1.31796E+01 3.74481E+01 2.51350E+00
 -1     26945 1.34183E+01 3.57328E+01 2.63944E+00
 -1     26946 1.28892E+01 3.60058E+01 3.86431E+00
 -1     26947 2.13616E+01 3.75186E+01 2.50000E+00
 -1     26948 1.13681E+01 3.97521E+01 1.23837E+00
 -1     26949 1.14185E+01 3.98487E+01 3.73837E+00
 -1     26950 1.22675E+01 4.00441E+01 1.23837E+00
 -1     26951 3.09662E+01 3.78282E+01 2.50000E+00
 -1     26952 3.02353E+01 3.71501E+01 2.50000E+00
 -1     26953 4.23278E+01 5.60223E+01 2.50000E+00
 -1     26954 3.39262E+01 5.39399E+01 5.88750E-01
 -1     26955 3.32089E+01 5.45815E+01 5.88750E-01
 -1     26956 3.34857E+01 5.43770E+01 1.17093E+00
 -1     26957 4.50773E+01 5.77569E+01 2.34221E+00
 -1     26958 3.42810E+01 5.09159E+01 1.32698E+00
 -1     26959 1.91509E+01 4.50049E+01 2.50000E+00
 -1     26960 1.91242E+01 4.61443E+01 1.31414E+00
 -1     26961 3.27477E+01 4.38511E+01 2.50000E+00
 -1     26962 3.19742E+01 4.45007E+01 2.50000E+00
 -1     26963 3.24228E+01 4.53915E+01 2.50000E+00
 -1     26964 1.43202E+01 3.02568E+01 2.50000E+00
 -1     26965 4.00804E+01 3.94804E+01 3.66557E+00
 -1     26966 4.08127E+01 4.01606E+01 3.66557E+00
 -1     26967 1.45918E+01 4.58389E+01 3.79567E+00
 -1     26968 1.44147E+01 4.48968E+01 3.79567E+00
 -1     26969 1.53273E+01 4.51847E+01 3.79567E+00
 -1     26970 1.11460E+01 1.12233E+01 2.18121E+00
 -1     26971 1.01874E+01 1.20562E+01 4.72099E-01
 -1     26972 1.10035E+01 1.05503E+01 2.12104E+00
 -1     26973 1.02899E+01 1.16864E+01 1.64895E+00
 -1     26974 2.83411E+01 3.77386E+01 2.50000E+00
 -1     26975 1.62366E+01 4.54803E+01 3.79567E+00
 -1     26976 1.83923E+01 4.68040E+01 1.31414E+00
 -1     26977 4.36719E+01 4.48635E+01 2.50000E+00
 -1     26978 4.44311E+01 4.56014E+01 2.50000E+00
 -1     26979 4.73987E+01 4.48826E+01 1.44995E+00
 -1     26980 4.73987E+01 4.56016E+01 2.25390E+00
 -1     26981 1.49598E+01 4.77371E+01 1.29567E+00
 -1     26982 1.39170E+01 4.73142E+01 4.79154E-01
 -1     26983 1.40029E+01 1.98434E+01 2.50000E+00
 -1     26984 1.49337E+01 1.95352E+01 2.50000E+00
 -1     26985 9.54839E-01 7.88638E+00 2.90722E+00
 -1     26986 1.61068E+00 1.45141E+01 2.84930E+00
 -1     26987 1.18076E+00 1.49801E+01 3.12803E+00
 -1     26988 8.24312E-01 1.41550E+01 2.40131E+00
 -1     26989 7.86366E-01 1.50246E+01 2.10502E+00
 -1     26990 4.33431E+00 9.30382E+00 1.18802E+00
 -1     26991 5.90295E+00 8.95809E+00 8.93721E-01
 -1     26992 2.55274E+00 2.07021E+01 3.69188E+00
 -1     26993 1.73223E+00 1.33005E+01 4.07279E+00
 -1     26994 8.24312E-01 1.28222E+01 4.07279E+00
 -1     26995 9.35546E-01 1.17975E+01 3.94963E+00
 -1     26996 1.75986E+00 1.26198E+01 3.02242E+00
 -1     26997 3.38945E+00 1.06939E+01 1.18802E+00
 -1     26998 3.46442E+00 1.19952E+01 2.50000E+00
 -1     26999 7.86081E+00 7.87316E+00 4.81167E-01
 -1     27000 4.62358E+01 5.60933E+01 1.44409E+00
 -1     27001 4.53186E+01 5.67978E+01 1.44409E+00
 -1     27002 7.58527E+00 8.90090E+00 2.26914E+00
 -1     27003 4.73370E+01 5.45984E+01 1.57760E+00
 -1     27004 9.54839E-01 6.87008E+00 2.92537E+00
 -1     27005 4.53054E+01 4.33880E+01 4.51488E+00
 -1     27006 4.47375E+01 4.29727E+01 4.01252E+00
 -1     27007 4.55010E+01 4.40429E+01 4.03092E+00
 -1     27008 5.92524E+00 7.38984E+00 4.20005E+00
 -1     27009 5.17756E+00 6.95746E+00 4.36158E+00
 -1     27010 3.82915E+01 4.98881E+01 2.50000E+00
 -1     27011 3.77617E+01 5.07235E+01 2.50000E+00
 -1     27012 2.20142E+01 2.11578E+01 4.37386E+00
 -1     27013 1.70493E+01 1.63554E+01 2.49541E+00
 -1     27014 3.54009E+01 4.18891E+01 2.50000E+00
 -1     27015 3.90603E+01 5.56431E+01 4.94529E-01
 -1     27016 3.87709E+01 5.50301E+01 6.97709E-01
 -1     27017 3.84251E+01 5.54077E+01 6.23673E-01
 -1     27018 3.90582E+01 5.61346E+01 1.11820E+00
 -1     27019 3.87688E+01 5.55217E+01 1.32138E+00
 -1     27020 8.47359E+00 8.29002E+00 5.29040E-01
 -1     27021 9.08878E+00 8.92576E+00 6.75038E-01
 -1     27022 1.64256E+01 1.79677E+01 3.76584E+00
 -1     27023 1.62286E+01 1.89367E+01 1.26584E+00
 -1     27024 1.53640E+01 1.75870E+01 2.50000E+00
 -1     27025 1.57801E+01 1.74210E+01 1.66763E+00
 -1     27026 8.63068E+00 1.25773E+01 2.50000E+00
 -1     27027 3.52260E+01 5.21046E+01 2.50000E+00
 -1     27028 3.49823E+01 5.12020E+01 2.50000E+00
 -1     27029 1.28359E+01 1.73849E+01 1.27348E+00
 -1     27030 1.51478E+01 1.85607E+01 2.50000E+00
 -1     27031 4.27060E+01 4.13383E+01 6.27781E-01
 -1     27032 4.24583E+01 4.08361E+01 2.04408E+00
 -1     27033 4.31043E+01 4.09418E+01 2.02999E+00
 -1     27034 4.33520E+01 4.14440E+01 6.13698E-01
 -1     27035 4.27852E+01 4.07328E+01 1.24148E+00
 -1     27036 1.71632E+01 1.86284E+01 1.26584E+00
 -1     27037 1.13449E+01 1.60972E+01 3.77348E+00
 -1     27038 1.61485E+01 1.78561E+01 8.28840E-01
 -1     27039 1.60144E+01 1.99112E+01 1.26584E+00
 -1     27040 3.37135E+01 4.77188E+01 3.82875E+00
 -1     27041 3.43144E+01 5.47740E+01 2.12939E+00
 -1     27042 3.31957E+01 5.47685E+01 1.41437E+00
 -1     27043 3.41097E+01 5.50732E+01 1.41008E+00
 -1     27044 2.95260E+01 4.92782E+01 2.50000E+00
 -1     27045 2.85984E+01 4.89744E+01 2.50000E+00
 -1     27046 2.93290E+01 4.82854E+01 2.50000E+00
 -1     27047 1.18382E+01 2.30791E+01 1.24170E+00
 -1     27048 9.32084E+00 1.32607E+01 2.50000E+00
 -1     27049 1.00921E+01 1.39092E+01 2.50000E+00
 -1     27050 4.50199E-01 6.05398E+00 3.58444E+00
 -1     27051 4.50199E-01 5.38528E+00 2.75973E+00
 -1     27052 1.40504E+00 6.21289E+00 3.17155E+00
 -1     27053 9.54839E-01 6.20139E+00 2.10065E+00
 -1     27054 4.50199E-01 5.69839E+00 4.41531E+00
 -1     27055 9.54839E-01 6.51450E+00 3.75624E+00
 -1     27056 8.25206E+00 3.85226E+01 1.27187E+00
 -1     27057 1.02520E+01 3.85967E+01 1.23837E+00
 -1     27058 3.48347E+01 4.93612E+01 1.32698E+00
 -1     27059 3.55664E+01 4.95442E+01 2.50000E+00
 -1     27060 3.46556E+01 4.82089E+01 1.32875E+00
 -1     27061 1.80387E+01 4.37414E+01 2.50000E+00
 -1     27062 1.89670E+01 4.40415E+01 2.50000E+00
 -1     27063 4.64557E+01 5.08569E+01 2.41201E+00
 -1     27064 4.53791E+01 5.02467E+01 3.36179E+00
 -1     27065 4.51729E+01 5.08747E+01 4.05022E+00
 -1     27066 4.52642E+01 4.96467E+01 4.22812E+00
 -1     27067 4.89761E+00 3.66476E+01 2.50000E+00
 -1     27068 1.62941E+00 1.82297E+01 4.26133E+00
 -1     27069 7.69643E-01 1.87511E+01 4.26133E+00
 -1     27070 1.67099E+00 1.74002E+01 3.71459E+00
 -1     27071 4.13125E+01 4.03515E+01 2.58186E+00
 -1     27072 4.20983E+01 4.18905E+01 1.41629E+00
 -1     27073 4.09935E+01 4.01426E+01 1.79335E+00
 -1     27074 4.17793E+01 4.16816E+01 6.27781E-01
 -1     27075 4.01986E+00 3.90740E+01 2.50000E+00
 -1     27076 4.82331E+00 3.85151E+01 2.50000E+00
 -1     27077 4.06098E+01 4.11678E+01 3.66557E+00
 -1     27078 4.10148E+01 3.91623E+01 1.16557E+00
 -1     27079 4.19633E+01 4.06578E+01 6.27781E-01
 -1     27080 1.16686E+01 2.40757E+01 1.24170E+00
 -1     27081 1.26809E+01 2.62377E+01 1.25958E+00
 -1     27082 4.73852E+01 5.92909E+01 4.51045E+00
 -1     27083 1.25630E+01 2.72359E+01 1.25958E+00
 -1     27084 1.34463E+01 2.68403E+01 1.25958E+00
 -1     27085 4.01784E+01 5.68735E+01 4.03145E+00
 -1     27086 4.01203E+01 5.57949E+01 4.03145E+00
 -1     27087 4.08245E+01 5.71994E+01 4.36350E+00
 -1     27088 4.03876E+01 5.65344E+01 3.39494E+00
 -1     27089 4.07664E+01 5.61207E+01 4.36350E+00
 -1     27090 4.22805E+01 5.49448E+01 2.50000E+00
 -1     27091 4.13865E+01 5.56984E+01 2.50000E+00
 -1     27092 4.21251E+01 5.38744E+01 2.50000E+00
 -1     27093 4.12311E+01 5.46280E+01 2.50000E+00
 -1     27094 1.17775E+01 2.66612E+01 1.25958E+00
 -1     27095 2.48706E+00 1.99993E+01 4.61249E-01
 -1     27096 2.50990E+00 2.02309E+01 1.65313E+00
 -1     27097 3.37466E+00 2.02076E+01 1.19188E+00
 -1     27098 2.48149E+00 1.90037E+01 4.61249E-01
 -1     27099 3.27955E+01 3.43808E+01 4.03065E+00
 -1     27100 3.18548E+01 3.46787E+01 4.03065E+00
 -1     27101 3.25800E+01 3.53625E+01 4.03065E+00
 -1     27102 1.70398E+01 4.89385E+01 2.67002E+00
 -1     27103 2.84994E+01 2.97202E+01 1.24346E+00
 -1     27104 2.77199E+01 2.88938E+01 2.50000E+00
 -1     27105 3.44188E-01 3.95849E+01 4.51291E+00
 -1     27106 3.44188E-01 3.85849E+01 4.51291E+00
 -1     27107 3.44188E-01 3.90871E+01 3.77505E+00
 -1     27108 2.36725E-01 2.78099E+01 6.34768E-01
 -1     27109 5.04250E-01 2.71737E+01 6.06330E-01
 -1     27110 3.38031E+01 4.78039E+01 1.32875E+00
 -1     27111 3.36994E+01 4.67823E+01 1.32875E+00
 -1     27112 1.05932E+00 4.10547E+01 2.37024E+00
 -1     27113 1.34090E+00 4.16350E+01 1.40743E+00
 -1     27114 7.47617E-01 4.16516E+01 1.85339E+00
 -1     27115 4.66038E-01 4.10713E+01 2.81621E+00
 -1     27116 5.93281E-01 4.14118E+01 1.22371E+00
 -1     27117 3.11048E+01 4.40261E+01 2.50000E+00
 -1     27118 4.11314E+01 5.68207E+01 2.71901E+00
 -1     27119 4.08641E+01 5.60811E+01 3.35551E+00
 -1     27120 4.71079E+01 5.82972E+01 1.77591E+00
 -1     27121 4.67540E+01 5.85330E+01 1.03137E+00
 -1     27122 4.76461E+01 5.84371E+01 3.69054E-01
 -1     27123 4.76461E+01 5.86385E+01 1.48264E+00
 -1     27124 4.50402E+01 5.27851E+01 2.50000E+00
 -1     27125 4.50702E+01 5.38526E+01 2.50000E+00
 -1     27126 6.21674E-01 3.17873E+01 2.37479E+00
 -1     27127 8.52013E-01 3.09343E+01 3.43423E+00
 -1     27128 2.76050E-01 3.12183E+01 2.97731E+00
 -1     27129 8.97725E-01 3.20871E+01 3.48365E+00
 -1     27130 1.12806E+00 3.12341E+01 4.54308E+00
 -1     27131 7.59203E-01 3.49521E+01 2.76822E+00
 -1     27132 2.92095E+01 3.03962E+01 3.74346E+00
 -1     27133 2.75006E+01 2.98604E+01 2.50000E+00
 -1     27134 3.05382E+01 3.98564E+01 2.50000E+00
 -1     27135 8.32697E-01 3.29281E+01 7.63310E-01
 -1     27136 1.04944E+00 3.28424E+01 2.02520E-01
 -1     27137 1.39291E+00 3.36806E+01 6.05810E-01
 -1     27138 4.73310E+01 4.94227E+01 1.76399E+00
 -1     27139 4.72161E+01 4.88226E+01 2.63031E+00
 -1     27140 4.46272E+01 4.44858E+01 2.50000E+00
 -1     27141 4.72206E+01 5.60281E+01 3.09431E+00
 -1     27142 3.54333E+01 5.30810E+01 2.50000E+00
 -1     27143 3.62282E+01 5.23242E+01 2.50000E+00
 -1     27144 1.10943E+01 2.24293E+01 1.24170E+00
 -1     27145 2.56952E+01 5.02345E+01 1.31395E+00
 -1     27146 2.66163E+01 5.05408E+01 1.31395E+00
 -1     27147 3.21235E+01 5.39858E+01 2.40196E+00
 -1     27148 3.19106E+01 5.41828E+01 1.35694E+00
 -1     27149 3.14269E+01 5.32995E+01 2.09453E+00
 -1     27150 3.24135E+01 5.35943E+01 2.15852E+00
 -1     27151 3.22006E+01 5.37914E+01 1.11350E+00
 -1     27152 3.04541E+01 5.29263E+01 2.03975E+00
 -1     27153 2.52876E+01 5.10026E+01 3.01337E+00
 -1     27154 2.58834E+01 5.12012E+01 3.81395E+00
 -1     27155 2.61906E+01 5.13036E+01 2.98626E+00
 -1     27156 4.72161E+01 4.81317E+01 3.41050E+00
 -1     27157 4.68395E+01 4.72082E+01 2.87360E+00
 -1     27158 4.73310E+01 5.04862E+01 2.17220E+00
 -1     27159 4.41807E+01 4.99871E+01 2.50000E+00
 -1     27160 4.53182E+01 5.39208E+01 4.22681E+00
 -1     27161 4.61889E+01 5.31862E+01 1.72681E+00
 -1     27162 4.65554E+01 5.40480E+01 2.52082E+00
 -1     27163 4.54368E+01 5.47144E+01 3.29400E+00
 -1     27164 4.63075E+01 5.39799E+01 7.94003E-01
 -1     27165 4.49939E+01 5.17832E+01 1.55022E+00
 -1     27166 4.51945E+01 5.19685E+01 4.05022E+00
 -1     27167 4.60952E+01 5.23015E+01 1.55022E+00
 -1     27168 1.71360E+01 4.34390E+01 2.50000E+00
 -1     27169 1.64024E+01 4.41028E+01 2.50000E+00
 -1     27170 9.67118E+00 4.55029E+01 3.57910E+00
 -1     27171 3.24475E+00 3.96248E+01 2.50000E+00
 -1     27172 1.26686E+00 2.95605E+01 4.56936E+00
 -1     27173 2.11982E+00 3.00432E+01 4.56936E+00
 -1     27174 1.26102E+00 3.05552E+01 4.56936E+00
 -1     27175 3.15848E+01 3.02353E+01 2.07887E+00
 -1     27176 3.10675E+01 3.04064E+01 1.75075E+00
 -1     27177 3.10205E+01 3.02469E+01 5.07296E-01
 -1     27178 3.17445E+01 3.09172E+01 5.07296E-01
 -1     27179 3.08853E+01 3.07669E+01 1.24346E+00
 -1     27180 4.52573E+01 5.05973E+01 1.55022E+00
 -1     27181 4.39173E+01 5.11730E+01 2.50000E+00
 -1     27182 4.33114E+01 4.93080E+01 2.50000E+00
 -1     27183 4.32887E+01 5.02857E+01 2.50000E+00
 -1     27184 4.23070E+01 4.98349E+01 2.50000E+00
 -1     27185 3.16868E+01 3.85298E+01 2.50000E+00
 -1     27186 3.26531E+01 3.81945E+01 2.50000E+00
 -1     27187 3.19175E+01 3.75305E+01 2.50000E+00
 -1     27188 1.00482E+01 4.20976E+01 2.50000E+00
 -1     27189 3.69039E+01 5.16586E+01 2.50000E+00
 -1     27190 3.71797E+01 5.25618E+01 2.50000E+00
 -1     27191 3.81869E+01 5.27767E+01 2.50000E+00
 -1     27192 3.79111E+01 5.18735E+01 2.50000E+00
 -1     27193 2.85835E+01 3.67425E+01 2.50000E+00
 -1     27194 2.78547E+01 3.60494E+01 2.50000E+00
 -1     27195 1.44514E+00 4.20619E+01 3.88873E-01
 -1     27196 1.59948E+00 4.23017E+01 1.01856E+00
 -1     27197 8.51859E-01 4.20785E+01 8.34835E-01
 -1     27198 2.45147E+01 3.87211E+01 1.29269E+00
 -1     27199 2.18844E+00 2.67979E+01 1.52818E+00
 -1     27200 2.19760E+00 2.77776E+01 4.02818E+00
 -1     27201 1.34030E+00 2.72954E+01 4.02818E+00
 -1     27202 2.85577E+00 6.50747E+00 3.75624E+00
 -1     27203 2.76050E-01 3.07590E+01 4.54308E+00
 -1     27204 2.76050E-01 3.17590E+01 4.54308E+00
 -1     27205 3.38920E+01 4.41764E+01 2.50000E+00
 -1     27206 3.43350E+01 4.30924E+01 2.50000E+00
 -1     27207 3.96915E+01 3.81979E+01 4.59062E+00
 -1     27208 4.04247E+01 3.88658E+01 4.59062E+00
 -1     27209 4.01921E+01 3.90433E+01 3.25619E+00
 -1     27210 4.30075E+00 2.64346E+01 2.50000E+00
 -1     27211 4.30927E+00 2.54268E+01 2.50000E+00
 -1     27212 2.20394E+00 4.05189E+01 3.88873E-01
 -1     27213 5.93281E-01 4.10662E+01 2.07076E+00
 -1     27214 4.51149E+01 5.49155E+01 2.50000E+00
 -1     27215 4.53204E+01 5.57649E+01 3.94409E+00
 -1     27216 1.18189E+00 3.35358E+01 2.04637E+00
 -1     27217 2.21909E+00 3.41491E+01 6.05810E-01
 -1     27218 2.35807E+00 2.43776E+01 6.99606E-01
 -1     27219 3.11969E+01 3.68289E+01 2.50000E+00
 -1     27220 3.21837E+01 3.26387E+01 1.22720E+00
 -1     27221 2.49393E+01 4.08371E+01 1.29269E+00
 -1     27222 1.15111E+00 3.43224E+00 2.50874E+00
 -1     27223 2.37746E+01 3.88932E+01 3.79269E+00
 -1     27224 2.34399E+01 3.86839E+01 1.29269E+00
 -1     27225 2.22105E+01 3.86784E+01 1.26416E+00
 -1     27226 7.28295E+00 7.91912E+00 2.56436E+00
 -1     27227 8.18755E+00 8.20990E+00 3.04605E+00
 -1     27228 6.58063E+00 8.09612E+00 2.59378E+00
 -1     27229 7.48523E+00 8.38691E+00 3.07547E+00
 -1     27230 1.38088E+00 3.38829E+01 2.97008E+00
 -1     27231 2.41808E+00 3.44962E+01 1.52952E+00
 -1     27232 4.41027E+01 4.77666E+01 1.19122E+00
 -1     27233 3.69516E+01 4.84034E+01 2.50000E+00
 -1     27234 3.55194E+01 4.77902E+01 1.32875E+00
 -1     27235 2.82656E+01 4.15427E+01 2.50000E+00
 -1     27236 3.60229E+01 3.61883E+01 7.89805E-01
 -1     27237 3.49154E+01 3.63781E+01 1.15185E+00
 -1     27238 3.54950E+01 3.72477E+01 2.50000E+00
 -1     27239 3.60284E+01 3.62057E+01 3.28981E+00
 -1     27240 3.01581E+01 3.00954E+01 3.74346E+00
 -1     27241 2.88098E+01 2.68204E+01 3.70956E+00
 -1     27242 2.76804E+01 2.72809E+01 3.35906E+00
 -1     27243 2.90665E+01 2.70558E+01 4.51171E+00
 -1     27244 2.77048E+01 2.68918E+01 3.84735E+00
 -1     27245 6.02476E+00 2.64011E+01 2.50000E+00
 -1     27246 6.86858E+00 2.68932E+01 2.50000E+00
 -1     27247 7.70096E+00 2.74120E+01 2.50000E+00
 -1     27248 8.54270E+00 2.79064E+01 2.50000E+00
 -1     27249 4.15021E+01 5.62836E+01 4.18637E+00
 -1     27250 4.17694E+01 5.70231E+01 3.54987E+00
 -1     27251 6.21674E-01 3.23280E+01 3.94056E+00
 -1     27252 1.98646E+00 5.87033E+00 3.75624E+00
 -1     27253 3.44188E-01 3.99536E+01 3.69480E+00
 -1     27254 4.99348E+00 4.35284E+01 3.33060E-01
 -1     27255 6.16177E+00 4.43590E+01 1.53175E+00
 -1     27256 5.89965E+00 4.46736E+01 2.01410E+00
 -1     27257 1.60472E+00 3.40210E+01 4.02952E+00
 -1     27258 6.09645E+00 3.85925E+01 3.77187E+00
 -1     27259 8.14731E-01 4.34898E+01 3.14570E+00
 -1     27260 8.14731E-01 4.34898E+01 2.31237E+00
 -1     27261 2.51781E+01 3.23762E+01 2.50000E+00
 -1     27262 1.45420E+00 4.37029E+01 3.35439E+00
 -1     27263 5.54348E-01 4.37235E+01 3.70650E+00
 -1     27264 1.98373E+01 4.55157E+01 3.81414E+00
 -1     27265 2.00347E+01 4.64705E+01 3.81414E+00
 -1     27266 2.44719E+01 5.16718E+01 4.80735E-01
 -1     27267 2.40097E+01 5.15177E+01 1.43302E+00
 -1     27268 2.50541E+01 5.18659E+01 1.33289E+00
 -1     27269 5.60218E-01 3.35589E+01 2.24004E+00
 -1     27270 1.93183E+01 4.71065E+01 1.31414E+00
 -1     27271 2.00531E+01 4.64428E+01 1.31414E+00
 -1     27272 6.07993E+00 1.15245E+01 2.50000E+00
 -1     27273 5.95779E+00 1.26349E+01 2.50000E+00
 -1     27274 1.34266E+01 4.71226E+01 4.53239E+00
 -1     27275 1.43433E+01 4.74214E+01 4.53239E+00
 -1     27276 1.36069E+01 4.80634E+01 4.53239E+00
 -1     27277 2.04295E+00 2.78332E+00 4.46682E-01
 -1     27278 1.31568E+00 2.11665E+00 4.46682E-01
 -1     27279 1.61750E+00 1.92320E+01 4.26133E+00
 -1     27280 3.92855E+01 3.65556E+01 2.96300E-01
 -1     27281 3.86030E+01 4.27198E+01 1.36003E+00
 -1     27282 3.65315E+01 3.51249E+01 2.73858E+00
 -1     27283 3.60037E+01 3.61843E+01 4.44878E+00
 -1     27284 3.54240E+01 3.53147E+01 3.10063E+00
 -1     27285 5.08478E+00 1.50057E+01 2.50000E+00
 -1     27286 1.32695E+01 1.91991E+01 2.50000E+00
 -1     27287 6.52003E-01 2.37254E+01 1.53297E+00
 -1     27288 1.55658E+01 4.79391E+01 2.95904E+00
 -1     27289 2.18219E+00 2.77978E+01 1.52818E+00
 -1     27290 1.48003E+01 1.45494E+01 6.90862E-01
 -1     27291 1.50423E+01 1.47712E+01 1.52405E+00
 -1     27292 1.40688E+01 1.41593E+01 4.71444E-01
 -1     27293 1.43107E+01 1.43811E+01 1.30463E+00
 -1     27294 2.20271E+01 2.22743E+01 8.38461E-01
 -1     27295 8.32697E-01 3.28239E+01 1.63423E+00
 -1     27296 2.44981E+01 5.07395E+01 2.26623E+00
 -1     27297 2.41232E+01 4.93830E+01 2.69684E+00
 -1     27298 2.44984E+01 5.07395E+01 3.15964E+00
 -1     27299 1.35811E+00 2.56668E+01 6.06330E-01
 -1     27300 1.50586E+00 2.48856E+01 6.99606E-01
 -1     27301 5.04250E-01 2.61737E+01 6.06330E-01
 -1     27302 3.66121E+01 5.07328E+01 2.50000E+00
 -1     27303 3.56927E+01 5.04959E+01 2.50000E+00
 -1     27304 3.59845E+01 5.14216E+01 2.50000E+00
 -1     27305 1.28868E+01 1.31007E+01 2.69434E+00
 -1     27306 1.28057E+01 1.45242E+01 2.09684E+00
 -1     27307 1.36505E+01 1.31738E+01 2.48946E+00
 -1     27308 2.68080E+01 2.66899E+01 1.83673E+00
 -1     27309 2.60473E+01 2.61913E+01 1.81357E+00
 -1     27310 2.75728E+01 3.34317E+01 2.50000E+00
 -1     27311 2.66349E+01 3.37213E+01 2.50000E+00
 -1     27312 4.70509E-01 3.03114E+01 4.96622E-01
 -1     27313 5.23789E-01 2.68396E+01 4.34365E+00
 -1     27314 1.00035E+00 2.66540E+01 3.37183E+00
 -1     27315 5.23789E-01 2.65024E+01 3.51493E+00
 -1     27316 4.76559E-01 2.74773E+01 3.19946E+00
 -1     27317 2.14464E+01 2.61526E+01 1.34022E+00
 -1     27318 2.10681E+01 2.74110E+01 2.50000E+00
 -1     27319 2.03500E+01 2.67362E+01 2.50000E+00
 -1     27320 4.18671E+01 5.69836E+01 2.54188E+00
 -1     27321 1.56392E+01 3.08206E+01 1.31011E+00
 -1     27322 1.55376E+01 2.91123E+01 2.50000E+00
 -1     27323 3.06785E+01 5.25471E+01 1.73131E+00
 -1     27324 3.16052E+01 5.40810E+01 2.19102E+00
 -1     27325 2.49603E+01 5.08935E+01 3.81395E+00
 -1     27326 2.71719E+01 4.89009E+01 1.31395E+00
 -1     27327 2.73544E+01 4.98749E+01 1.31395E+00
 -1     27328 5.56517E+00 6.29839E+00 6.56066E-01
 -1     27329 6.05650E+00 6.74878E+00 1.55233E+00
 -1     27330 1.32650E+01 2.75687E+01 3.75958E+00
 -1     27331 1.36158E+01 3.17952E+01 2.50000E+00
 -1     27332 1.35419E+01 3.08232E+01 2.50000E+00
 -1     27333 1.42424E+01 3.12737E+01 2.50000E+00
 -1     27334 1.51398E+01 3.18648E+01 3.81011E+00
 -1     27335 3.38836E+00 2.12080E+01 1.19188E+00
 -1     27336 2.54061E+00 2.07158E+01 1.19188E+00
 -1     27337 3.51319E+01 3.54045E+01 1.15185E+00
 -1     27338 3.41806E+01 3.57156E+01 1.15185E+00
 -1     27339 1.94142E+01 4.99144E+01 1.36704E+00
 -1     27340 2.00228E+01 5.01173E+01 5.30536E-01
 -1     27341 1.76358E+01 3.72952E+01 2.50000E+00
 -1     27342 3.39599E+01 3.66965E+01 1.15185E+00
 -1     27343 5.32851E+00 4.24483E+01 3.15121E+00
 -1     27344 6.80897E+00 4.49768E+01 2.04684E+00
 -1     27345 6.99707E+00 4.45626E+01 1.60273E+00
 -1     27346 1.70925E+01 3.89762E+01 2.50000E+00
 -1     27347 1.68668E+01 3.80418E+01 2.50000E+00
 -1     27348 1.77950E+01 3.82849E+01 2.50000E+00
 -1     27349 1.02199E+01 4.30337E+01 2.50000E+00
 -1     27350 2.17563E+01 4.03795E+01 3.76416E+00
 -1     27351 3.03719E+01 2.83761E+01 4.48956E+00
 -1     27352 2.47689E+01 2.34282E+01 3.69867E+00
 -1     27353 2.45625E+01 2.41528E+01 3.92191E+00
 -1     27354 2.50072E+01 2.38370E+01 4.39075E+00
 -1     27355 3.13570E+01 4.51774E+01 2.50000E+00
 -1     27356 3.04007E+01 4.49234E+01 2.50000E+00
 -1     27357 3.05984E+01 4.58909E+01 2.50000E+00
 -1     27358 2.38718E+01 2.65242E+01 2.50000E+00
 -1     27359 2.33034E+01 2.55651E+01 1.34022E+00
 -1     27360 2.50837E+01 2.68291E+01 3.84735E+00
 -1     27361 2.51068E+01 2.68120E+01 1.34735E+00
 -1     27362 2.97938E+01 2.77224E+01 4.51171E+00
 -1     27363 3.24101E+00 3.77106E+01 2.50000E+00
 -1     27364 4.02354E+00 3.81169E+01 2.50000E+00
 -1     27365 8.79516E-01 3.03915E+01 2.56598E+00
 -1     27366 4.09007E-01 3.05394E+01 3.00359E+00
 -1     27367 4.09007E-01 2.97181E+01 3.76519E+00
 -1     27368 4.70509E-01 2.99493E+01 2.19245E+00
 -1     27369 8.82566E+00 1.67836E+01 3.72794E+00
 -1     27370 8.62251E+00 1.77838E+01 3.72794E+00
 -1     27371 1.01854E+01 1.75307E+01 2.50000E+00
 -1     27372 3.73218E+01 5.40905E+01 1.75962E+00
 -1     27373 3.74485E+01 5.53880E+01 3.45715E+00
 -1     27374 3.70960E+01 5.58550E+01 3.35638E+00
 -1     27375 3.78868E+01 5.60445E+01 3.29428E+00
 -1     27376 3.64374E+01 5.56354E+01 2.56848E+00
 -1     27377 1.34188E+00 2.33867E+01 1.33001E+00
 -1     27378 4.02126E+01 5.44001E+01 2.50000E+00
 -1     27379 4.01407E+01 5.33060E+01 2.50000E+00
 -1     27380 4.85329E+00 3.75828E+01 2.50000E+00
 -1     27381 6.07464E+00 3.76862E+01 1.27187E+00
 -1     27382 6.04466E+00 3.86185E+01 1.27187E+00
 -1     27383 4.05352E+00 3.71846E+01 2.50000E+00
 -1     27384 2.61071E+01 3.21003E+01 2.50000E+00
 -1     27385 4.07281E+01 5.70568E+01 2.80168E+00
 -1     27386 4.66712E+01 5.78142E+01 2.79289E+00
 -1     27387 5.54348E-01 4.29868E+01 3.68431E+00
 -1     27388 6.80350E+00 1.32251E+01 2.50000E+00
 -1     27389 6.96948E+00 1.22011E+01 2.50000E+00
 -1     27390 2.99513E-01 1.29046E+01 5.46693E-01
 -1     27391 3.57586E-01 1.20533E+01 6.73913E-01
 -1     27392 2.96225E+01 5.21807E+01 1.65941E+00
 -1     27393 3.12993E+01 5.39790E+01 5.24752E-01
 -1     27394 9.34719E+00 2.84506E+01 2.50000E+00
 -1     27395 1.02067E+01 2.89230E+01 2.50000E+00
 -1     27396 4.51387E-01 1.77559E+01 1.19165E+00
 -1     27397 1.26261E+00 1.73455E+01 1.57298E+00
 -1     27398 6.93596E-01 1.85238E+01 1.30477E+00
 -1     27399 1.14498E+00 1.76158E+01 8.29897E-01
 -1     27400 1.92810E+01 3.44639E+01 2.50000E+00
 -1     27401 6.67579E+00 1.40598E+01 2.50000E+00
 -1     27402 7.47343E+00 1.39085E+01 2.50000E+00
 -1     27403 3.79786E+01 5.62054E+01 2.22043E+00
 -1     27404 3.89708E+01 5.65361E+01 1.85069E+00
 -1     27405 3.83311E+01 5.57384E+01 2.32119E+00
 -1     27406 2.76123E+01 3.70455E+01 2.50000E+00
 -1     27407 2.23632E+00 3.95659E+01 1.42397E+00
 -1     27408 6.25661E-01 3.94220E+01 2.31898E+00
 -1     27409 6.25661E-01 4.01132E+01 3.10586E+00
 -1     27410 5.83008E+00 1.34697E+01 2.50000E+00
 -1     27411 3.08873E+01 3.07634E+01 3.74346E+00
 -1     27412 3.14610E+01 3.19661E+01 3.72720E+00
 -1     27413 1.25546E+01 1.85288E+01 2.50000E+00
 -1     27414 8.50224E+00 3.58332E+01 2.50000E+00
 -1     27415 1.00952E+01 3.51987E+01 1.36431E+00
 -1     27416 2.97464E+01 3.54655E+01 2.50000E+00
 -1     27417 2.95098E+01 3.64599E+01 2.50000E+00
 -1     27418 3.03799E+01 5.10681E+01 3.70656E+00
 -1     27419 3.05760E+01 5.20489E+01 3.70656E+00
 -1     27420 9.10043E+00 1.88363E+01 2.50000E+00
 -1     27421 2.96489E+01 5.17545E+01 1.20656E+00
 -1     27422 2.94656E+01 5.07802E+01 1.20656E+00
 -1     27423 2.87276E+01 5.14461E+01 1.20656E+00
 -1     27424 1.28015E+01 1.74012E+01 3.77348E+00
 -1     27425 3.05146E+01 3.22714E+01 1.22720E+00
 -1     27426 9.38601E+00 4.62741E+01 2.91852E+00
 -1     27427 4.09007E-01 3.05742E+01 3.89947E+00
 -1     27428 6.85058E-01 3.08392E+01 4.11244E+00
 -1     27429 2.76050E-01 3.12531E+01 3.87319E+00
 -1     27430 7.84564E+00 4.53361E+01 4.67756E+00
 -1     27431 6.76507E+00 4.58422E+01 3.87436E+00
 -1     27432 8.14731E-01 4.22040E+01 2.31387E+00
 -1     27433 1.15082E+00 4.32244E+01 1.87192E+00
 -1     27434 1.18795E+00 4.30989E+01 3.92884E-01
 -1     27435 2.94878E+00 4.37413E+01 3.77215E-01
 -1     27436 7.59203E-01 3.45549E+01 4.02952E+00
 -1     27437 6.18839E-01 3.89083E+01 1.57807E+00
 -1     27438 2.22949E+00 3.90522E+01 6.83066E-01
 -1     27439 8.85339E-01 3.91515E+01 9.78622E-01
 -1     27440 1.95237E+01 1.97547E+01 2.67051E+00
 -1     27441 2.05498E+01 1.97330E+01 2.47844E+00
 -1     27442 2.05534E+01 2.08086E+01 2.91779E+00
 -1     27443 3.42010E+00 1.30063E+01 2.50000E+00
 -1     27444 1.29194E+01 1.25036E+01 2.48697E+00
 -1     27445 1.25627E+01 1.21428E+01 3.53459E+00
 -1     27446 4.25002E+00 2.16927E+01 1.19188E+00
 -1     27447 4.33505E+00 2.16188E+01 3.69188E+00
 -1     27448 7.96684E+00 4.64263E+01 4.83127E+00
 -1     27449 7.66953E+00 4.59144E+01 4.50884E+00
 -1     27450 7.08731E+00 4.59496E+01 4.67756E+00
 -1     27451 2.03812E+01 2.29533E+01 1.25117E+00
 -1     27452 2.24312E+01 2.24703E+01 2.71232E+00
 -1     27453 2.24611E+01 2.34694E+01 3.21408E+00
 -1     27454 2.12429E+01 2.33426E+01 2.59139E+00
 -1     27455 2.32362E+01 5.11697E+01 1.55883E+00
 -1     27456 2.36984E+01 5.13237E+01 6.06545E-01
 -1     27457 2.27753E+01 5.10160E+01 6.06545E-01
 -1     27458 2.23270E+01 2.12191E+01 4.80426E-01
 -1     27459 2.18422E+01 2.07746E+01 1.31380E+00
 -1     27460 2.15997E+01 2.05524E+01 4.80426E-01
 -1     27461 3.91570E+01 5.29950E+01 2.50000E+00
 -1     27462 1.27135E+01 4.78059E+01 1.13970E+00
 -1     27463 2.74687E+01 4.31218E+01 2.50000E+00
 -1     27464 2.73277E+01 4.20098E+01 2.50000E+00
 -1     27465 1.47731E+01 4.67875E+01 3.79567E+00
 -1     27466 1.55072E+01 4.61369E+01 3.79567E+00
 -1     27467 1.56927E+01 4.70918E+01 3.79567E+00
 -1     27468 1.43176E+01 2.64673E+01 3.75958E+00
 -1     27469 1.38564E+01 4.64886E+01 3.79567E+00
 -1     27470 2.54602E+01 2.44663E+01 1.40356E+00
 -1     27471 5.72591E+00 1.44978E+01 2.50000E+00
 -1     27472 1.90104E+01 4.97081E+01 4.25215E+00
 -1     27473 1.10174E+01 3.14088E+01 2.50000E+00
 -1     27474 1.19207E+01 3.18278E+01 2.50000E+00
 -1     27475 1.18980E+01 3.08873E+01 2.50000E+00
 -1     27476 2.02432E+01 4.74100E+01 1.31414E+00
 -1     27477 2.85198E+01 3.31384E+01 2.50000E+00
 -1     27478 3.14590E+01 3.19695E+01 1.22720E+00
 -1     27479 2.26539E+01 5.01837E+01 4.99513E-01
 -1     27480 2.20055E+01 4.96411E+01 1.88240E+00
 -1     27481 2.17299E+01 4.98783E+01 4.99513E-01
 -1     27482 3.45673E+01 3.49428E+01 4.42521E+00
 -1     27483 3.41942E+01 3.57204E+01 3.65185E+00
 -1     27484 3.35217E+01 3.50576E+01 4.03065E+00
 -1     27485 2.03623E+01 5.02304E+01 1.38269E+00
 -1     27486 2.07114E+01 4.98843E+01 1.03005E+00
 -1     27487 2.13358E+01 5.06494E+01 1.35167E+00
 -1     27488 2.09963E+01 5.05362E+01 4.99513E-01
 -1     27489 2.07086E+01 4.81400E+01 2.69703E+00
 -1     27490 4.20958E+00 2.06947E+01 1.19188E+00
 -1     27491 4.99658E+00 2.01760E+01 1.19188E+00
 -1     27492 2.50229E+00 1.64919E+01 2.50000E+00
 -1     27493 3.38511E+00 1.59802E+01 2.50000E+00
 -1     27494 3.33543E+00 1.69752E+01 2.50000E+00
 -1     27495 4.62359E+01 4.90417E+01 4.22812E+00
 -1     27496 3.46059E+01 5.50991E+01 1.16827E+00
 -1     27497 4.43281E+01 5.70639E+01 3.46764E+00
 -1     27498 4.33810E+01 5.69390E+01 4.18637E+00
 -1     27499 4.14720E+01 5.73430E+01 2.12575E+00
 -1     27500 4.21481E+01 5.72277E+01 1.49131E+00
 -1     27501 4.23910E+01 5.77896E+01 1.90603E+00
 -1     27502 1.72647E+01 3.99189E+01 2.50000E+00
 -1     27503 6.73158E+00 1.54984E+01 1.22794E+00
 -1     27504 7.52921E+00 1.53470E+01 1.22794E+00
 -1     27505 1.10729E+00 4.24343E+01 2.30554E-01
 -1     27506 2.55435E-01 4.20699E+01 2.30554E-01
 -1     27507 5.91528E-01 4.28045E+01 6.23438E-01
 -1     27508 1.55841E+01 2.46736E+01 2.50000E+00
 -1     27509 1.65064E+01 2.43867E+01 2.50000E+00
 -1     27510 9.33584E+00 9.26251E+00 3.87542E+00
 -1     27511 8.60857E+00 8.59584E+00 3.87542E+00
 -1     27512 4.62010E+01 4.57691E+01 4.03092E+00
 -1     27513 4.59928E+01 4.58912E+01 2.72213E+00
 -1     27514 4.53049E+01 4.51585E+01 4.03092E+00
 -1     27515 1.45973E+01 1.55217E+01 6.90862E-01
 -1     27516 1.38658E+01 1.51316E+01 4.71444E-01
 -1     27517 9.17540E-01 2.14488E+00 9.81926E-01
 -1     27518 1.05641E+00 1.36156E+00 5.35244E-01
 -1     27519 2.17877E+01 2.80745E+01 2.50000E+00
 -1     27520 2.36627E+01 2.74826E+01 2.50000E+00
 -1     27521 2.48555E+01 2.78025E+01 3.84735E+00
 -1     27522 4.09007E-01 3.00802E+01 4.56936E+00
 -1     27523 3.91747E+01 4.41585E+01 3.86003E+00
 -1     27524 3.78660E-01 4.22752E+01 3.58974E+00
 -1     27525 8.14731E-01 4.27531E+01 3.12351E+00
 -1     27526 3.31719E+01 5.05603E+01 2.50000E+00
 -1     27527 4.72161E+01 4.85144E+01 4.22812E+00
 -1     27528 3.50423E+00 4.49306E+01 2.57374E-01
 -1     27529 7.59203E-01 3.61513E+01 2.79890E+00
 -1     27530 7.59203E-01 3.55549E+01 4.02952E+00
 -1     27531 4.78870E-01 3.72015E+01 2.88440E+00
 -1     27532 4.78870E-01 3.66050E+01 4.11502E+00
 -1     27533 2.26413E+01 4.52680E+01 2.50000E+00
 -1     27534 2.28468E+01 4.62133E+01 2.50000E+00
 -1     27535 2.13705E+01 2.03109E+01 4.51693E+00
 -1     27536 1.21210E+01 1.67146E+01 1.27348E+00
 -1     27537 1.69239E+01 1.61429E+01 4.16763E+00
 -1     27538 1.61966E+01 1.54763E+01 4.16763E+00
 -1     27539 3.72818E+01 3.71096E+01 1.60100E+00
 -1     27540 3.69631E+01 3.85897E+01 2.50000E+00
 -1     27541 3.62325E+01 3.79165E+01 2.50000E+00
 -1     27542 3.93802E+01 4.70210E+01 2.50000E+00
 -1     27543 3.86329E+01 4.77037E+01 2.50000E+00
 -1     27544 2.46967E+01 4.68101E+01 2.50000E+00
 -1     27545 2.10319E+01 4.92221E+01 1.91342E+00
 -1     27546 3.35966E+01 3.78815E+01 2.50000E+00
 -1     27547 3.33881E+01 3.88676E+01 2.50000E+00
 -1     27548 3.75037E+01 4.42394E+01 3.86003E+00
 -1     27549 3.01889E+01 5.00768E+01 3.70656E+00
 -1     27550 3.10995E+01 5.03848E+01 3.70656E+00
 -1     27551 7.63942E+00 1.28845E+01 2.50000E+00
 -1     27552 4.13956E+01 4.27068E+01 2.50000E+00
 -1     27553 4.20746E+01 4.18614E+01 3.91629E+00
 -1     27554 3.16414E+01 3.56597E+01 4.03065E+00
 -1     27555 3.04720E+01 3.61556E+01 2.50000E+00
 -1     27556 3.06854E+01 3.51746E+01 2.50000E+00
 -1     27557 3.96706E+00 2.42931E+01 1.25624E+00
 -1     27558 4.21198E+00 4.41215E+01 3.33060E-01
 -1     27559 4.13489E+00 4.47389E+01 5.90434E-01
 -1     27560 7.22301E+00 4.42519E+01 1.19869E+00
 -1     27561 7.97251E+00 4.36217E+01 1.19869E+00
 -1     27562 1.53042E+01 4.28543E+01 2.50000E+00
 -1     27563 1.54784E+01 4.37996E+01 2.50000E+00
 -1     27564 8.44837E+00 1.35317E+01 2.50000E+00
 -1     27565 1.41364E+01 1.36192E+01 1.65655E+00
 -1     27566 1.34178E+01 1.42233E+01 1.29480E+00
 -1     27567 1.38945E+01 1.33974E+01 8.23360E-01
 -1     27568 1.12085E+01 1.70205E+01 1.27348E+00
 -1     27569 1.13951E+01 1.60441E+01 1.27348E+00
 -1     27570 4.38686E+01 4.69646E+01 3.69122E+00
 -1     27571 3.68264E+01 3.45758E+01 1.44752E+00
 -1     27572 3.71872E+01 3.49065E+01 7.89805E-01
 -1     27573 4.72184E+01 5.26272E+01 4.22681E+00
 -1     27574 4.72184E+01 5.36272E+01 4.22681E+00
 -1     27575 4.28400E-01 2.96070E+01 4.12045E+00
 -1     27576 5.77365E+00 4.00619E+01 1.35428E+00
 -1     27577 2.37094E+01 4.88592E+01 1.38289E+00
 -1     27578 2.47717E+01 4.99256E+01 1.31395E+00
 -1     27579 3.39393E+01 4.04846E+01 2.50000E+00
 -1     27580 2.07991E+01 4.46573E+01 2.50000E+00
 -1     27581 2.65546E+01 2.81507E+01 1.34735E+00
 -1     27582 2.58312E+01 2.74798E+01 1.34735E+00
 -1     27583 2.67674E+01 2.71873E+01 1.34735E+00
 -1     27584 3.21355E+01 3.65318E+01 2.50000E+00
 -1     27585 3.01531E+01 2.93434E+01 4.48956E+00
 -1     27586 2.87809E+01 4.99484E+01 2.50000E+00
 -1     27587 1.36687E+01 3.66470E+01 1.27513E+00
 -1     27588 2.81426E+01 4.25253E+01 2.50000E+00
 -1     27589 2.90805E+01 4.20581E+01 2.50000E+00
 -1     27590 2.91325E+01 4.72980E+01 2.50000E+00
 -1     27591 2.84045E+01 4.79962E+01 2.50000E+00
 -1     27592 9.61603E+00 1.59116E+01 2.50000E+00
 -1     27593 1.03720E+01 1.65543E+01 2.50000E+00
 -1     27594 1.72014E+01 3.46980E+01 2.50000E+00
 -1     27595 2.98837E+01 4.66186E+01 2.50000E+00
 -1     27596 8.22286E+00 8.06017E+00 1.34231E+00
 -1     27597 2.08891E+01 3.19388E+01 2.50000E+00
 -1     27598 2.24847E+01 3.98170E+01 3.76416E+00
 -1     27599 2.25978E+01 4.07482E+01 3.76416E+00
 -1     27600 3.11672E+01 4.88972E+01 2.50000E+00
 -1     27601 1.16595E+01 2.40225E+01 3.74170E+00
 -1     27602 2.42833E+01 5.07039E+01 4.80735E-01
 -1     27603 2.52068E+01 5.10128E+01 4.80735E-01
 -1     27604 2.54321E+01 5.05653E+01 1.79469E+00
 -1     27605 3.66889E+01 4.44845E+01 2.50000E+00
 -1     27606 3.22861E+01 5.02073E+01 2.50000E+00
 -1     27607 3.34434E+01 4.32856E+01 2.50000E+00
 -1     27608 1.50056E+00 2.38873E+01 6.99606E-01
 -1     27609 2.24056E+00 2.33200E+01 1.25624E+00
 -1     27610 7.50589E-01 2.26138E+01 3.64109E+00
 -1     27611 7.50589E-01 2.19475E+01 4.47435E+00
 -1     27612 6.92650E-01 2.36401E+01 3.64663E+00
 -1     27613 1.44324E+00 2.29212E+01 3.95425E+00
 -1     27614 6.92650E-01 2.29737E+01 4.47990E+00
 -1     27615 1.62155E+01 2.97859E+01 2.50000E+00
 -1     27616 7.36402E+00 1.93946E+01 2.50000E+00
 -1     27617 8.19364E+00 1.91776E+01 2.50000E+00
 -1     27618 8.07071E+00 2.00488E+01 2.50000E+00
 -1     27619 1.25688E+01 4.19859E+01 2.50000E+00
 -1     27620 1.18381E+01 4.26383E+01 2.50000E+00
 -1     27621 1.50157E+01 2.71345E+01 3.75958E+00
 -1     27622 3.10343E+01 3.39092E+01 3.72720E+00
 -1     27623 2.01199E+01 2.77032E+01 2.50000E+00
 -1     27624 1.96298E+01 2.60728E+01 2.50000E+00
 -1     27625 1.10753E+01 3.24113E+01 2.50000E+00
 -1     27626 1.19786E+01 3.28303E+01 2.50000E+00
 -1     27627 4.51387E-01 1.74239E+01 3.58391E-01
 -1     27628 4.51387E-01 1.64239E+01 3.58391E-01
 -1     27629 4.51387E-01 1.67554E+01 1.19105E+00
 -1     27630 2.49089E+01 3.70454E+01 2.50000E+00
 -1     27631 3.44029E+01 3.47386E+01 1.15185E+00
 -1     27632 2.31637E+01 4.36532E+01 2.50000E+00
 -1     27633 2.40907E+01 4.39540E+01 2.50000E+00
 -1     27634 6.93596E-01 1.81919E+01 4.71507E-01
 -1     27635 1.87671E+01 4.30823E+01 2.50000E+00
 -1     27636 7.71572E+00 1.81250E+01 3.72794E+00
 -1     27637 3.37375E+01 3.40768E+01 4.03065E+00
 -1     27638 2.22463E+01 4.33574E+01 2.50000E+00
 -1     27639 5.19104E+00 2.48929E+01 2.50000E+00
 -1     27640 1.83978E+01 3.26824E+01 3.81011E+00
 -1     27641 1.73718E+01 3.29081E+01 3.81011E+00
 -1     27642 1.77239E+01 3.19257E+01 3.81011E+00
 -1     27643 1.82616E+01 1.74667E+01 1.66212E+00
 -1     27644 1.17059E+01 2.76851E+01 1.25958E+00
 -1     27645 1.26557E+01 3.04066E+01 2.50000E+00
 -1     27646 2.01815E+01 3.71997E+01 2.50000E+00
 -1     27647 1.03181E+01 2.18341E+01 3.74170E+00
 -1     27648 1.97019E+01 4.33751E+01 2.50000E+00
 -1     27649 2.06051E+01 4.36924E+01 2.50000E+00
 -1     27650 1.98702E+01 4.43588E+01 2.50000E+00
 -1     27651 9.34464E+00 3.24086E+01 2.50000E+00
 -1     27652 2.47649E+01 3.79360E+01 2.50000E+00
 -1     27653 2.57788E+01 3.75202E+01 2.50000E+00
 -1     27654 2.66884E+01 4.37850E+01 2.50000E+00
 -1     27655 2.75800E+01 4.41297E+01 2.50000E+00
 -1     27656 2.15147E+01 3.93525E+01 1.26416E+00
 -1     27657 2.17672E+01 4.02900E+01 1.26416E+00
 -1     27658 1.06726E+01 4.04472E+01 1.23837E+00
 -1     27659 9.16890E+00 4.18349E+01 2.50000E+00
 -1     27660 1.86018E+01 4.21091E+01 2.50000E+00
 -1     27661 1.12687E+01 1.07934E+01 4.72099E-01
 -1     27662 1.13283E+01 1.13522E+01 1.24460E+00
 -1     27663 1.15122E+01 1.10167E+01 1.30008E+00
 -1     27664 3.82999E+01 3.66840E+01 4.57429E+00
 -1     27665 3.92424E+01 3.63669E+01 4.57429E+00
 -1     27666 3.84056E+01 3.61925E+01 3.67530E+00
 -1     27667 3.84359E+01 3.58256E+01 4.10100E+00
 -1     27668 2.65544E+01 3.01620E+01 2.50000E+00
 -1     27669 2.67696E+01 2.91970E+01 2.50000E+00
 -1     27670 2.69775E+01 2.62251E+01 3.84735E+00
 -1     27671 1.12877E+01 2.14598E+01 3.74170E+00
 -1     27672 2.82140E+01 4.70291E+01 2.50000E+00
 -1     27673 1.54689E+00 1.01946E+01 4.20925E+00
 -1     27674 1.53417E+00 9.19108E+00 4.20925E+00
 -1     27675 2.41527E+00 9.35997E+00 2.89728E+00
 -1     27676 3.67904E+01 5.57531E+01 4.25962E+00
 -1     27677 3.75812E+01 5.59426E+01 4.19752E+00
 -1     27678 1.35650E+00 9.45116E+00 2.48493E+00
 -1     27679 1.57913E+00 1.05067E+01 3.15888E+00
 -1     27680 7.23906E+00 4.56541E+01 1.41544E+00
 -1     27681 1.37193E+01 3.27958E+01 2.50000E+00
 -1     27682 1.25813E+01 3.37601E+01 1.36431E+00
 -1     27683 1.27523E+01 3.23192E+01 2.50000E+00
 -1     27684 1.19662E+01 3.39727E+01 3.86431E+00
 -1     27685 1.98700E+01 3.23277E+01 2.50000E+00
 -1     27686 1.78877E+01 3.18911E+01 1.31011E+00
 -1     27687 1.91961E+01 3.15710E+01 2.50000E+00
 -1     27688 6.89880E-01 2.29943E+01 6.30406E-01
 -1     27689 8.51041E+00 3.18723E+01 2.50000E+00
 -1     27690 2.37949E+00 2.19827E+01 6.30406E-01
 -1     27691 2.15850E+01 2.30872E+01 4.37386E+00
 -1     27692 2.18358E+01 2.42408E+01 3.84022E+00
 -1     27693 1.32734E+01 4.13146E+01 2.50000E+00
 -1     27694 2.70800E+01 4.57481E+01 2.50000E+00
 -1     27695 6.81802E+00 3.81057E+01 1.27187E+00
 -1     27696 2.94583E+01 5.07658E+01 3.70656E+00
 -1     27697 2.96498E+01 5.17452E+01 3.70656E+00
 -1     27698 3.52066E+01 5.41043E+01 1.09187E+00
 -1     27699 3.61430E+01 5.43962E+01 1.09187E+00
 -1     27700 3.52623E+01 5.45675E+01 1.43225E+00
 -1     27701 3.56573E+01 5.45486E+01 3.40377E-01
 -1     27702 3.14604E+01 3.95573E+01 2.50000E+00
 -1     27703 5.76243E+00 3.61860E+01 2.50000E+00
 -1     27704 5.81540E+00 3.52478E+01 2.50000E+00
 -1     27705 3.67591E+01 3.95653E+01 2.50000E+00
 -1     27706 1.62254E+01 4.54691E+01 1.29567E+00
 -1     27707 1.64218E+01 4.64290E+01 1.29567E+00
 -1     27708 1.77477E+01 3.38110E+01 2.50000E+00
 -1     27709 1.86558E+01 3.35371E+01 2.50000E+00
 -1     27710 1.76995E+01 3.28748E+01 1.31011E+00
 -1     27711 1.67915E+01 3.31487E+01 1.31011E+00
 -1     27712 4.65946E+01 4.81178E+01 4.73030E-01
 -1     27713 4.49646E+01 5.83814E+01 1.56044E+00
 -1     27714 8.69865E+00 4.29606E+01 1.19869E+00
 -1     27715 4.75957E+01 5.76833E+01 1.63399E+00
 -1     27716 4.06481E+01 3.88262E+01 2.11377E+00
 -1     27717 4.75870E+01 5.48960E+01 3.48607E+00
 -1     27718 4.68076E+01 5.58106E+01 3.27994E+00
 -1     27719 4.72206E+01 5.56490E+01 2.22769E+00
 -1     27720 1.50930E+01 2.71408E+01 1.25958E+00
 -1     27721 1.65661E+01 2.78895E+01 2.50000E+00
 -1     27722 4.56027E+01 5.85941E+01 2.34574E+00
 -1     27723 4.59454E+01 5.88411E+01 3.03222E+00
 -1     27724 4.65585E+01 5.84386E+01 2.01112E+00
 -1     27725 2.94013E+01 2.75181E+01 1.52602E+00
 -1     27726 1.16093E+01 1.50699E+01 1.27348E+00
 -1     27727 1.25329E+01 1.47658E+01 1.27348E+00
 -1     27728 2.67564E+01 2.71942E+01 3.84735E+00
 -1     27729 6.19935E+00 7.54009E+00 4.81167E-01
 -1     27730 6.05980E+00 8.52619E+00 4.81167E-01
 -1     27731 6.15325E+00 7.50488E+00 1.13723E+00
 -1     27732 5.35825E+00 7.29866E+00 6.56066E-01
 -1     27733 5.21870E+00 8.28476E+00 6.56066E-01
 -1     27734 2.93025E+01 3.74331E+01 2.50000E+00
 -1     27735 8.44753E+00 9.55607E+00 1.37542E+00
 -1     27736 8.40260E+00 4.42990E+01 5.67283E-01
 -1     27737 7.79999E+00 4.45482E+01 1.76597E+00
 -1     27738 7.43979E+00 7.48722E+00 2.15180E+00
 -1     27739 8.35783E+00 8.36600E+00 2.18868E+00
 -1     27740 7.45323E+00 8.07521E+00 1.70699E+00
 -1     27741 3.83837E-01 2.25985E+00 3.78970E+00
 -1     27742 8.98781E+00 4.09030E+01 2.50000E+00
 -1     27743 1.04915E+01 3.95153E+01 1.23837E+00
 -1     27744 8.49151E+00 3.94413E+01 1.27187E+00
 -1     27745 1.53481E+00 1.85823E+00 3.71463E+00
 -1     27746 9.69919E-01 1.34042E+00 3.28239E+00
 -1     27747 3.47929E+01 5.48472E+01 2.75611E+00
 -1     27748 3.49708E+01 5.42423E+01 2.39337E+00
 -1     27749 3.40157E+01 5.46744E+01 2.96574E+00
 -1     27750 3.54124E+01 5.50537E+01 3.59187E+00
 -1     27751 3.46353E+01 5.48809E+01 3.80150E+00
 -1     27752 5.89303E+00 6.47574E+00 2.75784E+00
 -1     27753 5.40170E+00 6.02536E+00 4.36158E+00
 -1     27754 3.65309E+01 4.54989E+01 2.50000E+00
 -1     27755 1.56235E+00 4.24272E+01 2.49759E+00
 -1     27756 1.98561E+01 2.02528E+01 8.11828E-01
 -1     27757 3.41010E+01 4.99509E+01 1.32698E+00
 -1     27758 3.39219E+01 4.87985E+01 1.32875E+00
 -1     27759 4.23945E+01 4.04627E+01 3.31941E+00
 -1     27760 4.09297E+01 3.97692E+01 3.06868E+00
 -1     27761 4.22775E+01 4.08542E+01 3.91629E+00
 -1     27762 4.18946E+01 4.02718E+01 4.40311E+00
 -1     27763 2.27819E+01 3.13289E+01 2.50000E+00
 -1     27764 4.44506E+01 4.14526E+01 3.17546E+00
 -1     27765 4.43373E+01 4.11497E+01 2.33079E+00
 -1     27766 4.50991E+01 4.18481E+01 2.28652E+00
 -1     27767 1.67325E+01 4.88361E+01 4.33714E+00
 -1     27768 4.46681E+01 4.26292E+01 6.67850E-01
 -1     27769 2.40339E+00 3.25967E+00 1.63460E+00
 -1     27770 1.84068E+00 3.65447E+00 1.26178E+00
 -1     27771 2.70683E+00 3.53782E+00 8.15100E-01
 -1     27772 1.36447E+00 2.27306E+00 4.60703E+00
 -1     27773 6.37200E-01 2.60639E+00 4.60703E+00
 -1     27774 1.02104E+00 2.40957E+00 4.13907E+00
 -1     27775 2.39698E+00 3.64013E+01 4.02952E+00
 -1     27776 2.04242E+01 3.39109E+01 2.50000E+00
 -1     27777 1.96818E+01 3.33115E+01 2.50000E+00
 -1     27778 1.05414E+01 1.01267E+01 4.72099E-01
 -1     27779 1.01756E+01 1.03858E+01 1.14714E+00
 -1     27780 1.08019E+01 1.03656E+01 1.27372E+00
 -1     27781 4.75339E+01 5.33057E+01 6.78033E-01
 -1     27782 4.68709E+01 5.37265E+01 1.47204E+00
 -1     27783 4.73370E+01 5.44208E+01 7.94003E-01
 -1     27784 4.75339E+01 5.34833E+01 1.46163E+00
 -1     27785 2.10349E+01 2.01776E+01 1.64520E+00
 -1     27786 2.07925E+01 1.99554E+01 8.11828E-01
 -1     27787 2.06548E+00 4.34078E+01 3.77215E-01
 -1     27788 2.06634E+01 2.08498E+01 4.80426E-01
 -1     27789 2.05740E+01 2.05078E+01 1.29225E+00
 -1     27790 2.05776E+01 2.15834E+01 1.73160E+00
 -1     27791 2.43621E+00 2.39261E+01 4.47990E+00
 -1     27792 2.08465E+00 2.37989E+01 3.23614E+00
 -1     27793 2.42687E+00 2.49326E+01 4.47990E+00
 -1     27794 4.76559E-01 2.81718E+01 2.37709E+00
 -1     27795 2.36725E-01 2.81673E+01 1.48368E+00
 -1     27796 3.59153E+01 5.34612E+01 1.09187E+00
 -1     27797 2.32270E+01 2.22696E+01 3.54063E+00
 -1     27798 2.59788E+01 2.46328E+01 4.66219E-01
 -1     27799 1.49245E+01 2.80890E+01 1.25958E+00
 -1     27800 1.63976E+01 2.88378E+01 2.50000E+00
 -1     27801 3.84061E+01 3.91129E+01 1.16557E+00
 -1     27802 2.50077E+01 2.48704E+01 1.03327E+00
 -1     27803 1.65302E+00 2.05074E+01 4.61249E-01
 -1     27804 1.64719E+00 1.95091E+01 4.61249E-01
 -1     27805 1.40592E+01 1.36295E+01 4.57088E+00
 -1     27806 1.32336E+01 1.54409E+01 3.77348E+00
 -1     27807 1.50103E+00 2.10056E+01 1.09165E+00
 -1     27808 6.89880E-01 2.09943E+01 6.30406E-01
 -1     27809 1.78644E+01 4.27799E+01 2.50000E+00
 -1     27810 4.25052E+00 7.33876E+00 4.36158E+00
 -1     27811 1.48339E+01 1.43102E+01 2.52295E+00
 -1     27812 1.36987E+01 1.46820E+01 2.10667E+00
 -1     27813 1.35031E+01 1.52152E+01 2.96324E+00
 -1     27814 4.64501E+01 4.44186E+01 2.06068E+00
 -1     27815 4.56882E+01 4.38200E+01 5.29760E-01
 -1     27816 1.20832E+01 1.17033E+01 4.37098E+00
 -1     27817 1.19605E+01 1.21332E+01 3.58009E+00
 -1     27818 1.19932E+01 1.15361E+01 3.37272E+00
 -1     27819 1.34091E+01 1.29525E+01 1.65585E+00
 -1     27820 3.50915E+01 5.49467E+01 1.91977E+00
 -1     27821 1.05889E+01 1.54544E+01 3.77348E+00
 -1     27822 1.06699E+01 1.53734E+01 1.27348E+00
 -1     27823 9.84121E+00 1.48929E+01 2.50000E+00
 -1     27824 1.53014E+01 4.51659E+01 1.29567E+00
 -1     27825 4.63792E+01 4.31151E+01 3.10401E+00
 -1     27826 4.58113E+01 4.26999E+01 2.60165E+00
 -1     27827 3.85043E+01 5.62503E+01 4.19752E+00
 -1     27828 3.92553E+01 5.65658E+01 4.03145E+00
 -1     27829 1.81250E+00 4.03851E+00 2.94315E+00
 -1     27830 3.15037E+00 4.08063E+00 2.98351E+00
 -1     27831 3.26906E+01 3.06117E+01 5.07296E-01
 -1     27832 3.42956E+01 3.24131E+01 5.32616E-01
 -1     27833 2.32578E+00 2.81094E+01 9.48501E-01
 -1     27834 4.57308E+01 4.23974E+01 1.46847E+00
 -1     27835 4.56850E+01 4.23554E+01 2.37630E+00
 -1     27836 4.28240E+01 3.99402E+01 4.40311E+00
 -1     27837 3.51968E+00 4.41917E+00 4.22961E+00
 -1     27838 2.79241E+00 3.75250E+00 4.22961E+00
 -1     27839 4.75339E+01 5.23057E+01 6.78033E-01
 -1     27840 9.35546E-01 1.07975E+01 3.94963E+00
 -1     27841 4.13742E+01 5.73826E+01 3.13373E+00
 -1     27842 1.36812E+00 3.56453E+01 5.80778E-01
 -1     27843 1.35514E+00 3.66274E+01 5.80778E-01
 -1     27844 2.99513E-01 1.42373E+01 1.37520E+00
 -1     27845 4.28743E+01 4.41819E+01 2.50000E+00
 -1     27846 4.38295E+01 4.38042E+01 2.50000E+00
 -1     27847 1.46983E+00 2.86150E+01 9.48501E-01
 -1     27848 1.47800E+00 2.86064E+01 3.44850E+00
 -1     27849 1.70754E+00 2.89693E+01 2.50000E+00
 -1     27850 2.56348E+00 2.84637E+01 2.50000E+00
 -1     27851 3.36092E-01 4.37346E+01 3.92884E-01
 -1     27852 2.66500E-01 4.06348E+01 1.13039E+00
 -1     27853 8.59781E-01 4.06182E+01 6.84429E-01
 -1     27854 2.13921E+00 2.95700E+01 4.12045E+00
 -1     27855 2.56050E+00 2.94520E+01 2.50000E+00
 -1     27856 3.78660E-01 4.13806E+01 3.62715E+00
 -1     27857 3.78660E-01 4.17261E+01 2.78009E+00
 -1     27858 8.44698E-01 4.13690E+01 3.92663E+00
 -1     27859 1.27296E+01 3.13786E+01 2.50000E+00
 -1     27860 8.71942E+00 4.30079E+01 3.69869E+00
 -1     27861 5.60218E-01 3.52077E+01 6.05810E-01
 -1     27862 6.43581E-01 1.02100E+01 3.26260E+00
 -1     27863 4.71079E+01 5.90958E+01 1.49565E+00
 -1     27864 3.32308E+00 3.48269E+01 2.50000E+00
 -1     27865 6.43581E-01 9.08107E+00 3.36024E+00
 -1     27866 6.43581E-01 9.70919E+00 4.20925E+00
 -1     27867 6.43581E-01 8.70919E+00 4.20925E+00
 -1     27868 4.21021E+01 4.34882E+01 2.50000E+00
 -1     27869 2.08328E+01 2.83865E+01 2.50000E+00
 -1     27870 4.30978E+01 4.30983E+01 2.50000E+00
 -1     27871 4.23256E+01 4.24046E+01 2.50000E+00
 -1     27872 3.23259E+01 5.45012E+01 3.70886E+00
 -1     27873 3.21476E+01 5.37197E+01 3.61236E+00
 -1     27874 6.09044E+00 1.60063E+01 1.22794E+00
 -1     27875 3.08352E+01 5.37843E+01 4.57929E+00
 -1     27876 3.15122E+01 5.37820E+01 4.06977E+00
 -1     27877 3.55009E-01 2.84254E+01 2.79837E-01
 -1     27878 1.20899E+00 2.79171E+01 2.79837E-01
 -1     27879 5.91734E-01 2.82353E+01 9.14605E-01
 -1     27880 3.20200E+01 5.43992E+01 4.54258E+00
 -1     27881 5.99641E+00 7.93678E+00 1.54979E+00
 -1     27882 5.89637E+00 7.42279E+00 2.35612E+00
 -1     27883 3.02184E+01 5.35787E+01 3.74601E+00
 -1     27884 3.22299E+01 5.31371E+01 1.56977E+00
 -1     27885 3.20170E+01 5.33341E+01 5.24752E-01
 -1     27886 2.18055E+01 3.16782E+01 2.50000E+00
 -1     27887 2.99121E+01 5.34766E+01 4.57929E+00
 -1     27888 3.26438E+00 3.67499E+01 2.50000E+00
 -1     27889 2.01470E+01 4.06765E+01 3.76416E+00
 -1     27890 3.56219E+01 5.47213E+01 1.50113E+00
 -1     27891 3.60169E+01 5.47025E+01 4.09253E-01
 -1     27892 3.59903E+01 5.49761E+01 1.38437E+00
 -1     27893 3.63854E+01 5.49573E+01 2.92493E-01
 -1     27894 3.06478E+00 3.86594E+00 2.06901E+00
 -1     27895 3.57123E+01 5.51536E+01 2.74539E+00
 -1     27896 1.51110E+01 1.71608E+01 6.90862E-01
 -1     27897 4.12703E+01 3.93966E+01 2.86202E+00
 -1     27898 4.14632E+01 3.95734E+01 2.01320E+00
 -1     27899 4.31269E-01 1.66822E+01 2.57541E+00
 -1     27900 8.11226E-01 1.72531E+01 2.04726E+00
 -1     27901 3.80869E+01 3.76726E+01 4.57429E+00
 -1     27902 3.90293E+01 3.73504E+01 4.57429E+00
 -1     27903 3.49610E+01 5.03130E+01 1.32698E+00
 -1     27904 3.22859E+01 5.42738E+01 5.88750E-01
 -1     27905 1.52023E+00 2.06985E+01 3.73568E+00
 -1     27906 1.60458E+00 2.14299E+01 4.47435E+00
 -1     27907 1.62364E+00 2.02335E+01 4.26133E+00
 -1     27908 7.69643E-01 1.97511E+01 4.26133E+00
 -1     27909 7.50589E-01 2.09475E+01 4.47435E+00
 -1     27910 4.62763E+01 4.47097E+01 4.03092E+00
 -1     27911 1.38361E+01 1.46102E+01 4.57088E+00
 -1     27912 1.41056E+01 1.43845E+01 3.76064E+00
 -1     27913 1.43688E+01 1.50691E+01 4.18976E+00
 -1     27914 4.69240E+01 5.47601E+01 2.62986E+00
 -1     27915 4.66383E+01 5.49902E+01 4.33585E+00
 -1     27916 4.63883E+01 5.50718E+01 3.29400E+00
 -1     27917 4.62720E+01 5.61223E+01 3.94409E+00
 -1     27918 1.74626E+01 4.81873E+01 4.33714E+00
 -1     27919 4.51390E+01 4.23622E+01 1.42549E+00
 -1     27920 4.28705E+01 4.25843E+01 1.41629E+00
 -1     27921 4.30046E+01 4.15592E+01 3.91629E+00
 -1     27922 3.62394E+01 3.52147E+01 7.89805E-01
 -1     27923 1.53213E+01 1.61882E+01 6.90862E-01
 -1     27924 1.62548E+01 1.58827E+01 6.90862E-01
 -1     27925 1.55275E+01 1.52161E+01 6.90862E-01
 -1     27926 1.76491E+01 2.31190E+01 2.50000E+00
 -1     27927 2.42060E+01 2.40907E+01 3.00772E+00
 -1     27928 8.25518E-01 2.97367E+01 7.76459E-01
 -1     27929 1.20470E+00 2.89143E+01 2.79837E-01
 -1     27930 1.05051E+01 2.01718E+01 2.50000E+00
 -1     27931 3.40733E+01 3.33886E+01 5.32616E-01
 -1     27932 3.57256E+01 3.36520E+01 4.42521E+00
 -1     27933 1.55611E+01 1.49768E+01 2.52301E+00
 -1     27934 6.83750E+00 8.17821E+00 1.37489E+00
 -1     27935 6.95945E+00 8.18096E+00 4.81167E-01
 -1     27936 9.15219E-01 1.23213E+00 1.78560E+00
 -1     27937 6.99535E-01 1.42144E+01 8.50016E-01
 -1     27938 2.99513E-01 1.39046E+01 5.46693E-01
 -1     27939 6.73747E+00 7.66423E+00 2.18122E+00
 -1     27940 4.52882E+01 5.28533E+01 4.22681E+00
 -1     27941 4.62551E+01 5.32469E+01 4.22681E+00
 -1     27942 1.14963E+01 4.60891E+01 1.07910E+00
 -1     27943 1.22745E+01 4.72030E+01 1.55345E+00
 -1     27944 1.19582E+01 4.67352E+01 4.10293E-01
 -1     27945 1.53192E+01 1.47550E+01 4.18976E+00
 -1     27946 1.06490E+01 4.68804E+01 4.49142E+00
 -1     27947 9.72594E+00 4.65727E+01 4.49142E+00
 -1     27948 4.70509E-01 2.96687E+01 1.34553E+00
 -1     27949 9.27603E+00 4.64227E+01 3.83083E+00
 -1     27950 9.38509E+00 4.62298E+01 4.32269E+00
 -1     27951 9.56120E+00 4.56515E+01 4.49142E+00
 -1     27952 2.80694E+01 2.72260E+01 2.29648E+00
 -1     27953 4.23362E+01 5.09872E+01 2.50000E+00
 -1     27954 3.38421E+01 3.18232E+01 3.58517E+00
 -1     27955 3.32524E+01 3.60254E+01 3.65185E+00
 -1     27956 3.25434E+01 3.25922E+01 3.14822E+00
 -1     27957 4.00819E+01 3.94915E+01 1.16557E+00
 -1     27958 3.99697E+01 3.70336E+01 4.57429E+00
 -1     27959 1.24996E+01 1.26228E+01 1.59587E+00
 -1     27960 1.21429E+01 1.22620E+01 2.64349E+00
 -1     27961 3.98743E+01 3.75812E+01 4.16491E+00
 -1     27962 4.03675E+01 3.76386E+01 3.78535E+00
 -1     27963 2.96860E+01 4.56511E+01 2.50000E+00
 -1     27964 1.69333E+01 4.24808E+01 2.50000E+00
 -1     27965 1.66882E+00 3.96222E+00 4.60703E+00
 -1     27966 1.08740E+00 4.30479E+00 4.02234E+00
 -1     27967 1.48182E+00 5.05422E+00 4.41531E+00
 -1     27968 6.37200E-01 3.60639E+00 4.60703E+00
 -1     27969 4.50199E-01 4.69839E+00 4.41531E+00
 -1     27970 1.61997E+01 4.31446E+01 2.50000E+00
 -1     27971 2.25756E+00 2.33051E+01 3.75624E+00
 -1     27972 7.60713E+00 8.16317E+00 1.01021E+00
 -1     27973 9.86104E+00 9.93167E+00 3.90040E+00
 -1     27974 9.50672E+00 9.60688E+00 2.95300E+00
 -1     27975 3.45096E+01 5.27812E+01 2.50000E+00
 -1     27976 3.44888E+01 5.38620E+01 3.80150E+00
 -1     27977 4.29280E+01 4.02670E+01 2.26393E+00
 -1     27978 2.73471E+01 4.98606E+01 3.81395E+00
 -1     27979 8.92774E+00 9.88599E+00 6.75038E-01
 -1     27980 3.65779E+01 5.59224E+01 2.92493E-01
 -1     27981 3.67405E+01 5.56515E+01 7.48185E-01
 -1     27982 2.94733E+01 4.46732E+01 2.50000E+00
 -1     27983 1.07806E+01 1.45894E+01 2.50000E+00
 -1     27984 5.05168E+00 3.38242E+01 2.50000E+00
 -1     27985 3.43202E+01 3.22615E+01 4.42102E+00
 -1     27986 3.35929E+01 3.15948E+01 4.42102E+00
 -1     27987 1.25228E+00 3.91875E+00 1.70650E+00
 -1     27988 4.84081E-01 4.12349E+00 1.29365E+00
 -1     27989 1.07248E+00 3.85921E+00 8.48934E-01
 -1     27990 2.85780E+01 2.67634E+01 1.42787E+00
 -1     27991 6.29244E+00 6.96506E+00 6.56066E-01
 -1     27992 1.09771E+00 3.78359E+01 2.29808E+00
 -1     27993 1.29547E+00 3.80154E+01 4.11502E+00
 -1     27994 4.72206E+01 5.64714E+01 3.94409E+00
 -1     27995 8.23057E-01 3.81899E+01 3.62792E+00
 -1     27996 3.44188E-01 3.81813E+01 3.28229E+00
 -1     27997 4.68395E+01 4.63098E+01 2.82850E+00
 -1     27998 3.39738E+00 3.09276E+01 2.50000E+00
 -1     27999 3.38394E+00 3.19158E+01 2.50000E+00
 -1     28000 9.37514E+00 3.44060E+01 2.50000E+00
 -1     28001 1.60254E+01 4.21993E+01 2.50000E+00
 -1     28002 8.07963E-01 1.31482E+01 1.65003E+00
 -1     28003 4.72206E+01 5.76728E+01 2.55767E+00
 -1     28004 4.62423E+01 5.22067E+01 4.22681E+00
 -1     28005 8.53915E+00 3.95225E+01 3.77187E+00
 -1     28006 2.36948E+00 4.77500E+00 4.22961E+00
 -1     28007 1.78806E+00 5.11756E+00 3.64492E+00
 -1     28008 1.01914E+01 3.50345E+01 3.86431E+00
 -1     28009 3.58161E+01 3.98897E+01 2.50000E+00
 -1     28010 2.10326E+01 4.09691E+01 1.26416E+00
 -1     28011 7.69643E-01 2.04170E+01 3.42795E+00
 -1     28012 1.41885E+01 4.82572E+01 3.68103E+00
 -1     28013 2.53949E+01 5.19795E+01 4.80735E-01
 -1     28014 2.93277E+01 5.26134E+01 3.86144E+00
 -1     28015 2.89540E+01 5.29830E+01 4.28215E+00
 -1     28016 2.80310E+01 5.26753E+01 4.28215E+00
 -1     28017 2.74151E+01 5.24700E+01 3.45446E+00
 -1     28018 2.71079E+01 5.23676E+01 4.28215E+00
 -1     28019 2.54980E+01 4.92666E+01 3.81395E+00
 -1     28020 4.84081E-01 5.09611E+00 1.24667E+00
 -1     28021 4.27643E+01 5.79141E+01 6.35794E-01
 -1     28022 4.18453E+01 5.74675E+01 8.55511E-01
 -1     28023 2.59507E+01 5.21046E+01 1.36406E+00
 -1     28024 2.58402E+01 5.15823E+01 9.92640E-01
 -1     28025 2.62915E+01 5.22182E+01 5.11905E-01
 -1     28026 2.45679E+01 2.57744E+01 4.39075E+00
 -1     28027 1.09170E+00 4.01017E+01 3.40534E+00
 -1     28028 2.29270E+00 5.93367E+00 2.98585E+00
 -1     28029 1.93318E+01 4.14420E+01 2.50000E+00
 -1     28030 4.42264E+01 5.66725E+01 2.50000E+00
 -1     28031 4.53491E+01 5.68174E+01 3.94409E+00
 -1     28032 4.78870E-01 3.76050E+01 4.11502E+00
 -1     28033 2.80318E+01 5.06923E+01 2.52051E+00
 -1     28034 2.55426E+01 5.10876E+01 2.16610E+00
 -1     28035 2.64899E+01 5.14034E+01 2.15059E+00
 -1     28036 3.83992E+01 4.67080E+01 2.50000E+00
 -1     28037 4.72967E+01 4.41182E+01 5.29760E-01
 -1     28038 4.66954E+01 4.50008E+01 1.14638E+00
 -1     28039 4.73987E+01 4.48826E+01 6.16622E-01
 -1     28040 4.72967E+01 4.41182E+01 1.36309E+00
 -1     28041 1.33786E+00 5.10606E+00 2.57402E+00
 -1     28042 4.32550E+01 4.01637E+01 1.46133E+00
 -1     28043 2.68980E+01 5.24204E+01 1.34855E+00
 -1     28044 1.83886E+00 1.12830E+01 3.94963E+00
 -1     28045 6.89880E-01 2.19943E+01 6.30406E-01
 -1     28046 4.65521E+01 4.51830E+01 2.14754E+00
 -1     28047 4.56782E+01 4.56259E+01 6.16622E-01
 -1     28048 4.54329E+01 4.50437E+01 1.53092E+00
 -1     28049 4.55762E+01 4.48615E+01 5.29760E-01
 -1     28050 2.87631E+01 5.20063E+01 4.28215E+00
 -1     28051 2.78388E+01 5.17030E+01 4.28215E+00
 -1     28052 4.41999E+01 4.67058E+01 1.19122E+00
 -1     28053 3.71093E+01 5.42598E+01 2.92493E-01
 -1     28054 1.21440E+01 4.76856E+01 4.10293E-01
 -1     28055 1.12209E+01 4.73779E+01 4.10293E-01
 -1     28056 3.59824E+01 5.52437E+01 1.90073E+00
 -1     28057 1.48025E+00 1.75008E+00 1.35474E+00
 -1     28058 1.63587E+01 1.68835E+01 8.28840E-01
 -1     28059 3.37194E-01 7.31918E-01 2.21398E+00
 -1     28060 9.23275E-01 1.26916E+00 2.63101E+00
 -1     28061 4.75339E+01 5.16774E+01 1.98844E+00
 -1     28062 4.75339E+01 5.27944E+01 2.16425E+00
 -1     28063 4.66586E+01 5.20481E+01 2.22825E+00
 -1     28064 4.71247E+01 5.22312E+01 3.03644E+00
 -1     28065 3.85251E+01 4.56667E+01 2.50000E+00
 -1     28066 3.85184E+01 4.46907E+01 3.86003E+00
 -1     28067 1.29996E+01 4.70129E+01 4.79154E-01
 -1     28068 1.24064E+01 4.73411E+01 8.89447E-01
 -1     28069 8.32697E-01 3.19321E+01 9.34229E-01
 -1     28070 6.21674E-01 3.26792E+01 3.07479E+00
 -1     28071 2.76050E-01 3.21102E+01 3.67731E+00
 -1     28072 1.67676E+01 4.15250E+01 2.50000E+00
 -1     28073 6.20145E-01 2.84834E+01 1.79741E+00
 -1     28074 3.68669E+01 5.36988E+01 1.09187E+00
 -1     28075 1.63761E+00 1.74265E+01 1.21459E+00
 -1     28076 1.51998E+00 1.76967E+01 4.71507E-01
 -1     28077 1.27777E+00 1.69288E+01 3.58391E-01
 -1     28078 3.59401E-01 1.52078E+01 1.39515E+00
 -1     28079 3.59401E-01 1.58751E+01 5.66634E-01
 -1     28080 7.59423E-01 1.51849E+01 8.69957E-01
 -1     28081 6.92650E-01 2.39737E+01 4.47990E+00
 -1     28082 5.34046E+00 4.40530E+01 4.29693E+00
 -1     28083 4.06319E+01 3.78810E+01 4.59062E+00
 -1     28084 4.09926E+01 3.82117E+01 3.93291E+00
 -1     28085 1.04855E+00 2.87330E+01 2.56895E+00
 -1     28086 4.73987E+01 4.58826E+01 6.16622E-01
 -1     28087 1.14577E+00 1.55670E+01 1.84314E+00
 -1     28088 1.18639E+00 1.50017E+01 1.57983E+00
 -1     28089 3.58673E+01 5.54454E+01 4.25962E+00
 -1     28090 3.61672E+01 5.55453E+01 3.41314E+00
 -1     28091 3.62028E+01 5.48068E+01 2.85150E+00
 -1     28092 2.86410E+00 6.54156E+00 1.25624E+00
 -1     28093 2.72551E+00 7.56999E+00 1.25624E+00
 -1     28094 1.59842E+00 8.22368E+00 2.96549E+00
 -1     28095 1.23775E+00 1.61158E+01 1.63490E+00
 -1     28096 2.42889E+00 1.57052E+01 1.27650E+00
 -1     28097 2.09391E+00 1.64372E+01 3.58391E-01
 -1     28098 8.10788E-01 1.62990E+01 9.25024E-01
 -1     28099 2.00192E+00 1.58884E+01 5.66634E-01
 -1     28100 7.64031E+00 3.24197E+01 2.50000E+00
 -1     28101 8.50962E+00 3.28707E+01 2.50000E+00
 -1     28102 4.75216E+01 4.66860E+01 4.73030E-01
 -1     28103 1.74557E+01 2.40781E+01 2.50000E+00
 -1     28104 4.67523E+01 5.29329E+01 2.40484E+00
 -1     28105 4.65043E+01 5.28647E+01 6.78033E-01
 -1     28106 7.86366E-01 1.60233E+01 2.10917E+00
 -1     28107 3.59401E-01 1.62065E+01 1.39930E+00
 -1     28108 1.21764E+00 1.60427E+01 3.01925E+00
 -1     28109 7.86366E-01 1.53496E+01 2.94029E+00
 -1     28110 4.31269E-01 1.60085E+01 3.40652E+00
 -1     28111 4.68649E+01 5.14202E+01 1.53982E+00
 -1     28112 4.73310E+01 5.11145E+01 8.61790E-01
 -1     28113 4.47392E+01 4.34443E+01 2.50000E+00
 -1     28114 1.31672E+01 1.27307E+01 8.23360E-01
 -1     28115 1.09860E+01 3.04657E+01 2.50000E+00
 -1     28116 4.33505E+01 5.69195E+01 1.68637E+00
 -1     28117 2.62666E+00 1.37854E+01 4.07279E+00
 -1     28118 1.70954E+00 1.42998E+01 4.07279E+00
 -1     28119 2.46586E+01 5.02172E+01 1.92049E+00
 -1     28120 2.28613E+01 4.98131E+01 1.98943E+00
 -1     28121 7.58916E+00 3.53149E+01 2.50000E+00
 -1     28122 6.14077E+00 3.76573E+01 3.77187E+00
 -1     28123 3.55009E-01 2.94254E+01 2.79837E-01
 -1     28124 2.85716E+01 5.10270E+01 4.28215E+00
 -1     28125 2.41702E+01 5.09955E+01 1.08728E+00
 -1     28126 8.37408E-01 2.96871E+01 3.68981E+00
 -1     28127 2.10432E+00 3.00601E+01 2.06936E+00
 -1     28128 1.20456E+01 3.63277E+01 1.36431E+00
 -1     28129 3.44745E+00 6.87319E+00 3.11781E+00
 -1     28130 2.59014E+00 4.62365E+00 2.54471E+00
 -1     28131 1.25228E+00 4.89137E+00 1.65952E+00
 -1     28132 1.74456E+01 4.92487E+01 4.55655E+00
 -1     28133 1.83687E+01 4.95564E+01 4.55655E+00
 -1     28134 1.88797E+01 1.94325E+01 4.35868E+00
 -1     28135 1.78844E+01 1.92919E+01 3.76584E+00
 -1     28136 3.80813E+01 3.53737E+01 5.14543E-01
 -1     28137 3.74503E+01 3.56136E+01 1.30435E+00
 -1     28138 3.74521E+01 3.51493E+01 1.59516E+00
 -1     28139 4.75870E+01 5.53393E+01 4.33585E+00
 -1     28140 4.75870E+01 5.43393E+01 4.33585E+00
 -1     28141 4.39355E+00 6.35166E+00 4.36158E+00
 -1     28142 1.08588E+00 1.45965E+01 1.82320E+00
 -1     28143 2.39346E+00 1.47229E+01 1.27650E+00
 -1     28144 3.58768E+00 5.92793E+00 2.52908E+00
 -1     28145 1.29104E+00 1.68294E+01 4.24274E+00
 -1     28146 1.28114E+01 3.57089E+01 1.36431E+00
 -1     28147 5.23789E-01 2.61774E+01 2.67930E+00
 -1     28148 6.52003E-01 2.57303E+01 1.53525E+00
 -1     28149 3.74925E+01 3.61348E+01 1.60100E+00
 -1     28150 3.78652E+01 3.63496E+01 5.14543E-01
 -1     28151 4.65135E+01 4.62784E+01 6.16622E-01
 -1     28152 2.40672E+01 2.54911E+01 5.67054E-01
 -1     28153 2.60415E+01 2.65191E+01 1.34735E+00
 -1     28154 1.17842E+01 2.66141E+01 3.75958E+00
 -1     28155 1.43528E+01 2.64977E+01 1.25958E+00
 -1     28156 2.19194E+01 5.08439E+01 4.99513E-01
 -1     28157 9.69849E-01 3.93295E+01 3.43688E+00
 -1     28158 3.65443E+01 3.64407E+01 1.60100E+00
 -1     28159 3.70777E+01 3.53988E+01 2.39081E+00
 -1     28160 3.68007E+01 3.45534E+01 3.50061E+00
 -1     28161 2.30488E+00 4.39865E+01 3.09780E+00
 -1     28162 2.04407E+00 4.34523E+01 3.53696E+00
 -1     28163 2.83369E+01 5.27773E+01 3.44966E+00
 -1     28164 1.30591E+01 4.74886E+01 4.20405E+00
 -1     28165 1.23753E+01 4.77329E+01 4.67166E+00
 -1     28166 1.31441E+01 4.79091E+01 3.58584E+00
 -1     28167 4.03862E+01 5.01811E+01 2.50000E+00
 -1     28168 4.13410E+01 5.06256E+01 2.50000E+00
 -1     28169 4.07666E+01 5.13823E+01 2.50000E+00
 -1     28170 1.59759E+00 1.66135E+01 2.49110E+00
 -1     28171 2.45375E+00 1.69349E+01 1.21459E+00
 -1     28172 3.44188E-01 3.92623E+01 2.90791E+00
 -1     28173 4.17618E+01 5.17439E+01 2.50000E+00
 -1     28174 4.08438E+01 5.25066E+01 2.50000E+00
 -1     28175 4.20772E+01 5.27712E+01 2.50000E+00
 -1     28176 4.29647E+01 5.18745E+01 2.50000E+00
 -1     28177 4.62653E+01 5.89477E+01 2.18550E+00
 -1     28178 2.52791E+01 2.57960E+01 1.91441E+00
 -1     28179 4.47301E+01 5.76253E+01 2.91014E+00
 -1     28180 2.48353E+01 2.58864E+01 4.66219E-01
 -1     28181 3.77086E+01 3.51590E+01 4.10100E+00
 -1     28182 4.09223E+01 5.71598E+01 8.55511E-01
 -1     28183 2.02331E+01 4.74258E+01 3.81414E+00
 -1     28184 4.13591E+01 3.85477E+01 4.59062E+00
 -1     28185 4.21312E+00 1.74384E+01 2.50000E+00
 -1     28186 4.17302E+01 3.89376E+01 3.74540E+00
 -1     28187 4.06483E+01 3.88263E+01 3.00785E+00
 -1     28188 4.12740E+01 3.91545E+01 3.99374E+00
 -1     28189 8.35928E+00 3.86268E+01 3.77187E+00
 -1     28190 4.31269E-01 1.63508E+01 4.24274E+00
 -1     28191 3.51381E+01 5.32885E+01 1.30150E+00
 -1     28192 9.75155E-01 2.85514E+01 1.22834E+00
 -1     28193 2.06064E+00 2.84087E+01 2.79837E-01
 -1     28194 1.85281E+01 3.46391E+01 2.50000E+00
 -1     28195 3.97070E+00 4.83261E+00 3.00245E+00
 -1     28196 3.83048E+00 5.77786E+00 3.59118E+00
 -1     28197 4.67443E+00 5.35869E+00 4.36158E+00
 -1     28198 1.17141E+00 1.53880E+01 5.66634E-01
 -1     28199 1.59838E+00 1.52049E+01 1.27650E+00
 -1     28200 3.68241E+01 4.92325E+01 2.50000E+00
 -1     28201 3.63027E+01 4.99546E+01 2.50000E+00
 -1     28202 3.60878E+01 4.88221E+01 2.50000E+00
 -1     28203 3.36324E+00 1.79543E+01 2.50000E+00
 -1     28204 6.92650E-01 2.46399E+01 3.64723E+00
 -1     28205 3.37122E+01 5.45732E+01 3.80150E+00
 -1     28206 1.85479E+01 3.75511E+01 2.50000E+00
 -1     28207 7.86366E-01 1.56919E+01 3.77650E+00
 -1     28208 1.64613E+00 1.61705E+01 3.77650E+00
 -1     28209 6.01949E+00 4.18181E+01 1.35428E+00
 -1     28210 3.70530E+01 3.53773E+01 3.54978E+00
 -1     28211 3.69472E+01 3.58688E+01 4.44878E+00
 -1     28212 1.24450E+00 3.89755E+01 2.10704E+00
 -1     28213 2.25976E+00 3.95480E+01 3.92397E+00
 -1     28214 2.58356E+01 2.94855E+01 2.50000E+00
 -1     28215 3.84074E+01 4.86913E+01 2.50000E+00
 -1     28216 3.76634E+01 4.91754E+01 2.50000E+00
 -1     28217 3.88512E+00 4.61792E+00 2.08794E+00
 -1     28218 3.43410E+00 4.20448E+00 8.15100E-01
 -1     28219 1.15733E+01 1.16553E+01 2.48162E+00
 -1     28220 2.09175E+00 2.93973E+00 4.60703E+00
 -1     28221 4.20967E+01 3.92735E+01 4.40311E+00
 -1     28222 6.37200E-01 3.06306E+00 3.86470E+00
 -1     28223 2.60302E+01 2.65276E+01 3.84735E+00
 -1     28224 4.04216E+01 5.54167E+01 2.50000E+00
 -1     28225 2.09205E+01 2.45312E+01 1.34022E+00
 -1     28226 3.64352E+01 3.42184E+01 4.44878E+00
 -1     28227 3.71625E+01 3.48850E+01 4.44878E+00
 -1     28228 1.13511E+01 2.14131E+01 1.24170E+00
 -1     28229 1.46560E+01 2.50060E+01 2.50000E+00
 -1     28230 3.30104E+01 3.18173E+01 3.78480E+00
 -1     28231 1.02955E+01 2.59438E+01 2.50000E+00
 -1     28232 2.20167E+01 2.18648E+01 1.31889E+00
 -1     28233 2.13917E+01 2.15142E+01 4.80426E-01
 -1     28234 4.62698E+01 5.42782E+01 4.22681E+00
 -1     28235 4.73310E+01 5.01145E+01 8.61790E-01
 -1     28236 3.74523E+01 4.99453E+01 2.50000E+00
 -1     28237 2.29240E+01 4.15359E+01 1.26416E+00
 -1     28238 2.97212E+01 5.24999E+01 4.57929E+00
 -1     28239 1.29122E+00 3.10282E+00 4.60703E+00
 -1     28240 3.22602E+01 5.30986E+01 4.06977E+00
 -1     28241 4.11592E+01 5.35339E+01 2.50000E+00
 -1     28242 1.76586E+01 4.72988E+01 5.65810E-01
 -1     28243 2.63287E+01 5.08040E+01 1.82585E+00
 -1     28244 1.92386E+01 3.67252E+01 2.50000E+00
 -1     28245 2.77144E+01 5.25698E+01 2.61879E+00
 -1     28246 2.86011E+01 5.23086E+01 2.04320E+00
 -1     28247 6.43581E-01 9.35757E+00 2.51278E+00
 -1     28248 2.82071E+01 5.20292E+01 4.52851E-01
 -1     28249 2.91284E+01 5.23377E+01 4.52851E-01
 -1     28250 3.29431E+01 5.47069E+01 4.54258E+00
 -1     28251 3.32466E+01 5.48081E+01 3.70683E+00
 -1     28252 4.26705E+01 5.68449E+01 6.35794E-01
 -1     28253 4.23895E+01 5.66008E+01 1.68637E+00
 -1     28254 1.06957E+00 3.93413E+01 2.95557E-01
 -1     28255 1.42191E+00 3.86516E+01 6.83066E-01
 -1     28256 2.66500E-01 3.89206E+01 2.95557E-01
 -1     28257 2.66500E-01 3.99206E+01 2.95557E-01
 -1     28258 3.23880E+00 5.41214E+00 4.22961E+00
 -1     28259 1.53175E+00 2.14905E+01 6.30406E-01
 -1     28260 5.23789E-01 2.55057E+01 3.51098E+00
 -1     28261 2.47680E+01 4.99295E+01 3.81395E+00
 -1     28262 2.25968E+01 4.75822E+01 1.38289E+00
 -1     28263 1.90975E+01 4.89076E+01 4.55655E+00
 -1     28264 1.97391E+01 4.90594E+01 4.25215E+00
 -1     28265 1.89176E+01 4.91107E+01 3.80870E+00
 -1     28266 2.71451E+01 5.09534E+01 3.09610E+00
 -1     28267 6.05194E+00 2.53814E+01 2.50000E+00
 -1     28268 1.17572E+01 1.13198E+01 2.53709E+00
 -1     28269 1.12628E+00 4.19493E+01 2.96381E+00
 -1     28270 4.01544E+01 5.69542E+01 4.94529E-01
 -1     28271 4.07867E+01 5.61167E+01 8.55511E-01
 -1     28272 2.84399E+01 5.17093E+01 1.71846E+00
 -1     28273 2.11225E+01 4.89176E+01 3.88289E+00
 -1     28274 1.95091E+01 4.80716E+01 1.31414E+00
 -1     28275 3.30345E+01 3.70241E+01 3.65185E+00
 -1     28276 1.69274E+01 4.79557E+01 5.65810E-01
 -1     28277 2.11264E+01 4.89104E+01 1.38289E+00
 -1     28278 1.08371E+00 4.03178E+01 2.95557E-01
 -1     28279 5.23789E-01 2.48396E+01 4.34365E+00
 -1     28280 1.21644E+00 2.48133E+01 3.82355E+00
 -1     28281 1.39247E+00 2.53186E+01 4.34365E+00
 -1     28282 1.56134E+00 2.44528E+01 4.47990E+00
 -1     28283 2.08501E+00 4.33217E+01 4.55793E+00
 -1     28284 5.16387E+00 2.59127E+01 2.50000E+00
 -1     28285 1.48554E+01 2.40606E+01 2.50000E+00
 -1     28286 3.34967E+00 1.49978E+01 2.50000E+00
 -1     28287 4.16826E+00 1.54933E+01 2.50000E+00
 -1     28288 1.21950E+01 4.67921E+01 4.67166E+00
 -1     28289 1.47205E+01 4.71850E+01 3.32806E+00
 -1     28290 3.93473E+01 5.02249E+01 2.50000E+00
 -1     28291 3.69711E+01 3.58823E+01 7.89805E-01
 -1     28292 4.65350E+01 5.17975E+01 6.78033E-01
 -1     28293 4.63321E+01 5.06062E+01 8.61790E-01
 -1     28294 9.37121E+00 3.34408E+01 2.50000E+00
 -1     28295 4.61259E+01 5.12342E+01 1.55022E+00
 -1     28296 1.50475E+00 1.92031E+01 9.32755E-01
 -1     28297 2.54732E+00 3.04550E+01 2.50000E+00
 -1     28298 4.65647E+01 4.52510E+01 6.16622E-01
 -1     28299 1.14522E+01 4.74252E+01 4.67166E+00
 -1     28300 4.64627E+01 4.44866E+01 5.29760E-01
 -1     28301 1.09218E+00 3.16394E+01 1.93719E+00
 -1     28302 2.15237E+00 3.12795E+01 4.96622E-01
 -1     28303 1.32252E+00 3.07864E+01 2.99662E+00
 -1     28304 2.35205E+01 4.78881E+01 1.38289E+00
 -1     28305 4.61487E+01 5.13220E+01 4.05022E+00
 -1     28306 4.63432E+01 5.23697E+01 3.27703E+00
 -1     28307 3.17220E+01 4.33493E+01 2.50000E+00
 -1     28308 1.02781E+01 1.00160E+01 2.32398E+00
 -1     28309 1.21203E+00 1.48227E+01 3.03323E-01
 -1     28310 1.12797E+01 4.64932E+01 4.67166E+00
 -1     28311 2.23803E+01 5.09976E+01 1.45180E+00
 -1     28312 1.20247E+01 4.35940E+01 2.50000E+00
 -1     28313 1.30321E+00 3.17842E+01 4.96622E-01
 -1     28314 6.92246E+00 3.80663E+01 3.77187E+00
 -1     28315 3.47831E+01 3.39620E+01 4.42521E+00
 -1     28316 3.49983E+01 3.29854E+01 4.42521E+00
 -1     28317 2.32749E+01 2.39606E+01 3.37139E+00
 -1     28318 2.47896E+01 2.48048E+01 4.39075E+00
 -1     28319 3.66800E+01 5.46964E+01 4.25962E+00
 -1     28320 3.73441E+01 5.35884E+01 2.50000E+00
 -1     28321 2.96887E+00 4.36552E+01 4.55793E+00
 -1     28322 1.94658E+01 3.05980E+01 2.50000E+00
 -1     28323 1.35824E+00 2.66654E+01 6.06330E-01
 -1     28324 1.17525E+01 1.41183E+01 3.77348E+00
 -1     28325 1.25228E+00 4.58153E+00 2.50434E+00
 -1     28326 2.37704E+01 4.65191E+01 2.50000E+00
 -1     28327 4.50199E-01 5.07544E+00 3.60455E+00
 -1     28328 3.49268E+01 5.52061E+01 3.40377E-01
 -1     28329 3.51362E+01 5.48737E+01 7.49630E-01
 -1     28330 1.61614E+00 2.24274E+01 4.47435E+00
 -1     28331 4.16137E+00 4.87115E+00 8.15100E-01
 -1     28332 3.89754E+01 3.61221E+01 3.72839E+00
 -1     28333 3.55100E+01 3.46328E+01 4.42521E+00
 -1     28334 1.06148E+01 1.24883E+01 7.72506E-01
 -1     28335 1.14464E+01 1.22169E+01 3.27251E+00
 -1     28336 1.12641E+01 1.20880E+01 4.20911E+00
 -1     28337 1.22268E+01 1.28644E+01 7.72506E-01
 -1     28338 1.29706E+01 1.37030E+01 8.23360E-01
 -1     28339 4.37763E+01 4.06416E+01 2.27664E+00
 -1     28340 4.67035E+01 5.90637E+01 3.65835E+00
 -1     28341 1.20618E+01 1.36856E+01 2.04598E+00
 -1     28342 2.82539E+01 4.35332E+01 2.50000E+00
 -1     28343 3.41050E+01 3.32381E+01 4.42102E+00
 -1     28344 3.94391E-01 1.52882E+01 4.35153E+00
 -1     28345 2.52995E+01 4.83050E+01 3.81395E+00
 -1     28346 3.51368E+01 3.54104E+01 3.65185E+00
 -1     28347 1.79936E+01 3.09527E+01 3.81011E+00
 -1     28348 3.57972E+01 3.45371E+01 3.87399E+00
 -1     28349 1.18336E+01 1.26947E+01 4.37098E+00
 -1     28350 1.02206E+01 1.07251E+01 1.87250E+00
 -1     28351 9.69507E+00 1.08932E+01 1.40040E+00
 -1     28352 1.03754E+01 1.10882E+01 4.72099E-01
 -1     28353 1.81758E+01 4.85998E+01 4.55655E+00
 -1     28354 3.13244E+01 5.28014E+01 4.06977E+00
 -1     28355 3.26673E+01 4.28089E+01 2.50000E+00
 -1     28356 2.40368E+00 4.17047E+01 1.01856E+00
 -1     28357 3.12476E+01 2.91881E+01 4.59547E-01
 -1     28358 8.17211E-01 4.07659E+01 1.68189E+00
 -1     28359 1.41049E+00 4.10948E+01 3.88873E-01
 -1     28360 7.84301E+00 4.53214E+01 2.14537E+00
 -1     28361 2.79194E+01 5.22924E+01 9.64755E-01
 -1     28362 4.66364E+01 4.70818E+01 4.73030E-01
 -1     28363 2.24935E+00 4.14648E+01 3.88873E-01
 -1     28364 4.56534E+00 6.65878E+00 6.56066E-01
 -1     28365 3.61092E+00 7.14622E+00 1.91230E+00
 -1     28366 3.90836E+00 5.83621E+00 1.47117E+00
 -1     28367 3.16154E+00 5.23154E+00 8.15100E-01
 -1     28368 4.11623E+01 3.95917E+01 4.40311E+00
 -1     28369 2.42755E+01 2.45311E+01 5.67054E-01
 -1     28370 2.50436E+01 2.49264E+01 4.66219E-01
 -1     28371 1.18194E+01 1.40953E+01 1.27348E+00
 -1     28372 3.82044E+01 5.44409E+01 6.23673E-01
 -1     28373 4.62400E+01 5.00939E+01 4.22812E+00
 -1     28374 1.26340E+00 1.59369E+01 3.58391E-01
 -1     28375 6.93596E-01 1.91919E+01 4.71507E-01
 -1     28376 7.59203E-01 3.39060E+01 3.16375E+00
 -1     28377 6.21674E-01 3.33280E+01 3.94056E+00
 -1     28378 3.92313E+01 5.66465E+01 4.94529E-01
 -1     28379 4.42674E+00 7.68722E+00 6.56066E-01
 -1     28380 2.42171E+01 3.26746E+01 2.50000E+00
 -1     28381 2.04653E+01 3.81220E+01 2.50000E+00
 -1     28382 5.93281E-01 4.16976E+01 3.88873E-01
 -1     28383 5.93281E-01 4.06976E+01 3.88873E-01
 -1     28384 2.72145E+01 5.25259E+01 5.11905E-01
 -1     28385 2.70245E+01 5.15578E+01 5.11905E-01
 -1     28386 4.62855E+01 5.71474E+01 3.94409E+00
 -1     28387 4.55493E+01 4.22607E+01 6.67850E-01
 -1     28388 4.51449E+01 4.18901E+01 1.37868E+00
 -1     28389 2.00711E+00 1.43407E+01 3.03323E-01
 -1     28390 1.62330E+00 3.81608E+00 4.46682E-01
 -1     28391 4.63522E+01 5.50427E+01 7.94003E-01
 -1     28392 2.44207E+00 1.28653E+01 1.57279E+00
 -1     28393 1.20799E+00 1.38255E+01 3.03323E-01
 -1     28394 2.61033E+01 5.12515E+01 5.11905E-01
 -1     28395 3.76316E+01 5.49785E+01 4.25962E+00
 -1     28396 6.24621E+00 4.43607E+01 4.29693E+00
 -1     28397 9.65009E+00 1.05539E+01 6.75038E-01
 -1     28398 1.25792E+01 1.33548E+01 4.37098E+00
 -1     28399 1.15133E+01 1.21939E+01 7.72506E-01
 -1     28400 1.10859E+01 1.17619E+01 4.72099E-01
 -1     28401 4.40058E+01 4.22669E+01 4.01252E+00
 -1     28402 1.80951E+01 1.84090E+01 4.46019E+00
 -1     28403 1.42442E+00 3.76700E+01 6.83066E-01
 -1     28404 4.76559E-01 2.84524E+01 3.22400E+00
 -1     28405 5.23789E-01 2.58396E+01 4.34365E+00
 -1     28406 2.65309E+01 2.60921E+01 4.89379E-01
 -1     28407 1.55821E+00 2.34537E+01 4.47990E+00
 -1     28408 1.24325E+00 2.94856E+00 4.46682E-01
 -1     28409 1.31006E+01 1.39477E+01 4.57088E+00
 -1     28410 1.91280E+01 1.95891E+01 8.11828E-01
 -1     28411 2.55435E-01 4.17841E+01 1.06539E+00
 -1     28412 1.54971E+00 4.37780E+01 7.70099E-01
 -1     28413 3.73300E+01 5.52266E+01 2.92493E-01
 -1     28414 4.60807E+01 4.40548E+01 4.51488E+00
 -1     28415 2.25409E+01 5.04753E+01 1.10606E+00
 -1     28416 2.11565E+01 2.12754E+01 4.51693E+00
 -1     28417 2.04294E+01 2.06088E+01 4.51693E+00
 -1     28418 2.40649E+01 2.39501E+01 4.53117E+00
 -1     28419 3.24692E+01 3.15864E+01 5.07296E-01
 -1     28420 3.12109E+01 2.97997E+01 9.66843E-01
 -1     28421 3.00452E+01 5.26511E+01 4.52851E-01
 -1     28422 2.55144E+01 2.54729E+01 4.39075E+00
 -1     28423 4.73507E+01 4.95029E+01 5.84806E-01
 -1     28424 2.08059E+01 4.95726E+01 4.99513E-01
 -1     28425 4.17515E+01 5.63983E+01 8.55511E-01
 -1     28426 1.52963E+00 1.86898E+01 4.71507E-01
 -1     28427 1.52629E+01 4.77257E+01 4.53239E+00
 -1     28428 3.83421E+01 3.68647E+01 2.96300E-01
 -1     28429 1.31449E+01 1.44649E+01 4.71444E-01
 -1     28430 5.94434E+00 4.46425E+01 4.04039E-01
 -1     28431 3.33469E+01 3.27211E+01 5.32616E-01
 -1     28432 1.27962E+00 1.47658E+01 4.35153E+00
 -1     28433 3.29137E-01 1.49079E+00 1.65781E+00
 -1     28434 6.66331E-01 1.42681E+00 1.91589E+00
 -1     28435 3.30036E+01 5.36289E+01 5.88750E-01
 -1     28436 1.85136E+01 1.88395E+01 4.87001E-01
 -1     28437 1.37878E+00 3.46647E+01 6.05810E-01
 -1     28438 2.57701E+01 2.55934E+01 4.66219E-01
 -1     28439 3.37194E-01 1.52782E+00 2.50321E+00
 -1     28440 1.96083E+01 2.00972E+01 4.35868E+00
 -1     28441 1.31375E+00 3.07957E+01 4.96622E-01
 -1     28442 6.93560E+00 4.50400E+01 4.67756E+00
 -1     28443 6.62605E+00 8.09002E+00 4.20005E+00
 -1     28444 4.24434E+01 5.66075E+01 4.18637E+00
 -1     28445 3.78356E+01 5.58326E+01 1.07937E+00
 -1     28446 3.78377E+01 5.53410E+01 4.55692E-01
 -1     28447 3.11012E+01 5.30175E+01 5.24752E-01
 -1     28448 4.66109E+01 5.61038E+01 5.20405E-01
 -1     28449 5.10905E+00 4.44389E+01 3.33060E-01
 -1     28450 1.65424E+01 4.78831E+01 4.33714E+00
 -1     28451 2.18003E+01 2.21223E+01 4.37386E+00
 -1     28452 1.98323E+01 4.91537E+01 5.30536E-01
 -1     28453 2.35098E+01 5.03558E+01 6.06545E-01
 -1     28454 1.53843E+00 2.24892E+01 6.30406E-01
 -1     28455 4.67689E+01 5.91156E+01 2.99669E+00
 -1     28456 3.06474E+01 5.28037E+01 4.57929E+00
 -1     28457 3.33774E+01 3.25665E+01 4.42102E+00
 -1     28458 3.62196E+01 3.51991E+01 4.44878E+00
 -1     28459 8.48716E-01 4.17675E+01 6.19427E-01
 -3
    3C                          4285                                     1
 -1      5206    6    0    1
 -2     21309     21301     20932     21321     24928     25060     25059     24971     24970     25061
 -1      5207    6    0    1
 -2     20654     21518     21653     21556     25064     25063     25062     25065     25067     25066
 -1      5208    6    0    1
 -2     21201     21167     20830     21180     24565     25069     25068     24567     24512     25070
 -1      5209    6    0    1
 -2     21201     21544     20830     20835     25072     25071     25068     25073     25074     23421
 -1      5210    6    0    1
 -2     21045     21005     21116     21536     24058     24291     24290     25075     25077     25076
 -1      5211    6    0    1
 -2     21268     20884     21205     21236     25079     25078     24779     24800     25080     24681
 -1      5212    6    0    1
 -2     20756     21524     20698     20730     25082     25081     23140     23141     25083     23084
 -1      5213    6    0    1
 -2     20793     21087     21147     21166     25085     24392     25084     25086     24452     24498
 -1      5214    6    0    1
 -2     20793     20781     21527     21123     23252     25088     25087     25089     25091     25090
 -1      5215    6    0    1
 -2     20489     21416     20490     21551     22196     22195     21825     25092     25094     25093
 -1      5216    6    0    1
 -2     21523     21073     21161     21128     25096     24434     25095     25097     24341     24435
 -1      5217    6    0    1
 -2     21328     21335     21313     21549     25023     25022     24994     25098     25100     25099
 -1      5218    6    0    1
 -2     20852     20820     21119     21217     23445     25102     25101     25103     25104     24616
 -1      5219    6    0    1
 -2     21128     21161     20697     20765     24435     25106     25105     25107     25108     23166
 -1      5220    6    0    1
 -2     21045     21536     21089     21528     25075     25109     24199     25110     25112     25111
 -1      5221    6    0    1
 -2     21577     21672     21559     20625     25115     25114     25113     25116     25118     25117
 -1      5222    6    0    1
 -2     21718     20997     21692     21727     25121     25120     25119     25122     25124     25123
 -1      5223    6    0    1
 -2     20860     21540     20869     20832     25126     25125     23493     23469     25127     23496
 -1      5224    6    0    1
 -2     21414     21347     21680     21552     22190     25129     25128     25130     25132     25131
 -1      5225    6    0    1
 -2     21249     21255     21278     21544     24847     24813     24912     25133     25135     25134
 -1      5226    6    0    1
 -2     20830     21167     20748     21180     25069     25136     23367     25070     24512     25137
 -1      5227    6    0    1
 -2     21211     21176     20804     20851     24598     25139     25138     25140     25141     23440
 -1      5228    6    0    1
 -2     21356     21387     21553     20456     22119     25143     25142     21944     22017     25144
 -1      5229    6    0    1
 -2     20817     21239     21206     21220     25146     24690     25145     25147     24689     24666
 -1      5230    6    0    1
 -2     21550     21333     21337     21549     25149     25034     25148     25150     25152     25151
 -1      5231    6    0    1
 -2     21587     21613     21419     21516     25155     25154     25153     25156     25158     25157
 -1      5232    6    0    1
 -2     21300     21321     21322     20955     24972     25021     24974     25159     25161     25160
 -1      5233    6    0    1
 -2     21607     21410     21104     20978     25164     25163     25162     25165     25166     24242
 -1      5234    6    0    1
 -2     20946     20945     21242     21276     23761     25168     25167     25169     25170     24808
 -1      5235    6    0    1
 -2     21189     21133     20848     21732     24532     25172     25171     25173     25175     25174
 -1      5236    6    0    1
 -2     21311     20914     20873     21305     25177     23636     25176     24947     25179     25178
 -1      5237    6    0    1
 -2     20923     21318     21317     21547     25181     24961     25180     25182     25184     25183
 -1      5238    6    0    1
 -2     21283     21257     20808     21215     24848     25186     25185     24828     24747     25187
 -1      5239    6    0    1
 -2     20719     21673     21603     21569     25190     25189     25188     25191     25193     25192
 -1      5240    6    0    1
 -2     20806     21540     20800     20741     25195     25194     23300     23298     25196     23283
 -1      5241    6    0    1
 -2     21265     21548     21281     20883     25198     25197     24822     25199     25201     25200
 -1      5242    6    0    1
 -2     20668     21534     21618     21521     25204     25203     25202     25205     25207     25206
 -1      5243    6    0    1
 -2     21554     20470     21394     21617     25209     22031     25208     25210     25212     25211
 -1      5244    6    0    1
 -2     21648     20602     20642     21654     25214     22845     25213     25215     25217     25216
 -1      5245    6    0    1
 -2     21050     21530     21124     21098     25219     25218     24334     24260     25220     24333
 -1      5246    6    0    1
 -2     21531     21099     21015     21052     25222     24229     25221     25223     24299     24107
 -1      5247    6    0    1
 -2     21239     20933     20916     21291     25225     23710     25224     24891     25227     25226
 -1      5248    6    0    1
 -2     21125     21180     20748     21167     24511     25137     25228     24497     24512     25136
 -1      5249    6    0    1
 -2     20602     21648     20642     20722     25214     25213     22845     23016     25229     23014
 -1      5250    6    0    1
 -2     20706     20664     21516     20667     22964     25231     25230     23062     22967     25232
 -1      5251    6    0    1
 -2     21496     21528     20546     21555     25234     25233     22499     25235     25237     25236
 -1      5252    6    0    1
 -2     21141     21523     21128     21065     25238     25097     24376     24374     25239     24342
 -1      5253    6    0    1
 -2     21282     21237     20876     21266     24825     25241     25240     24824     24799     25242
 -1      5254    6    0    1
 -2     21045     21528     21006     20567     25110     25243     24082     24022     25244     23931
 -1      5255    6    0    1
 -2     20827     20801     21168     20769     23358     25246     25245     23357     23284     25247
 -1      5256    6    0    1
 -2     21685     21599     21519     20717     25250     25249     25248     25251     25253     25252
 -1      5257    6    0    1
 -2     21183     21186     20815     21122     24526     25255     25254     24518     24524     25256
 -1      5258    6    0    1
 -2     21183     21122     20815     20831     24518     25256     25254     25257     25258     23370
 -1      5259    6    0    1
 -2     20501     21470     21522     21556     22359     25260     25259     25261     25263     25262
 -1      5260    6    0    1
 -2     21379     21529     21611     21386     25266     25265     25264     22137     25268     25267
 -1      5261    6    0    1
 -2     21530     21167     21124     21098     25269     24472     25218     25220     24456     24333
 -1      5262    6    0    1
 -2     21727     21038     20997     21692     25270     24011     25124     25123     25271     25120
 -1      5263    6    0    1
 -2     21557     20422     21379     21529     25273     21993     25272     25274     25275     25266
 -1      5264    6    0    1
 -2     21593     21115     21527     21669     25278     25277     25276     25279     25281     25280
 -1      5265    6    0    1
 -2     21534     21521     20668     20782     25207     25205     25204     25282     25283     23219
 -1      5266    6    0    1
 -2     21463     21650     21694     21602     25286     25285     25284     25287     25289     25288
 -1      5267    6    0    1
 -2     21155     21159     21070     20798     24428     24427     24412     25290     25292     25291
 -1      5268    6    0    1
 -2     20804     21176     20753     20851     25139     25293     23293     23440     25141     23437
 -1      5269    6    0    1
 -2     21618     21583     21378     21534     25296     25295     25294     25203     25298     25297
 -1      5270    6    0    1
 -2     21176     21171     20804     21526     24501     25299     25139     25300     25302     25301
 -1      5271    6    0    1
 -2     20770     21120     21106     21060     25304     24324     25303     25305     24323     24294
 -1      5272    6    0    1
 -2     21495     21654     21691     21479     25308     25307     25306     22585     25310     25309
 -1      5273    6    0    1
 -2     21618     21534     21378     21408     25203     25297     25294     25311     25312     22097
 -1      5274    6    0    1
 -2     21618     21408     21521     21534     25311     25313     25206     25203     25312     25207
 -1      5275    6    0    1
 -2     21561     20602     21691     20680     25316     25315     25314     25317     22901     25318
 -1      5276    6    0    1
 -2     20954     21309     20932     21321     25319     25059     23788     25320     24971     25061
 -1      5277    6    0    1
 -2     20786     20803     20772     21169     23290     23289     23268     25321     25323     25322
 -1      5278    6    0    1
 -2     21548     21338     21321     21322     25325     25043     25324     25326     25044     25021
 -1      5279    6    0    1
 -2     21120     21090     20784     21153     24357     25328     25327     24462     24409     25329
 -1      5280    6    0    1
 -2     21442     21589     21699     21439     25332     25331     25330     22443     25334     25333
 -1      5281    6    0    1
 -2     21327     21321     21548     21338     25019     25324     25335     25038     25043     25325
 -1      5282    6    0    1
 -2     21185     20834     21138     20847     25337     25336     24523     25338     23434     25339
 -1      5283    6    0    1
 -2     20899     21197     21246     21242     25341     24707     25340     25342     24695     24739
 -1      5284    6    0    1
 -2     20918     20940     21547     21548     23738     25344     25343     25345     25347     25346
 -1      5285    6    0    1
 -2     21306     21276     20964     21327     24915     25349     25348     24990     24989     25350
 -1      5286    6    0    1
 -2     20958     20950     20962     21549     23808     23833     23832     25351     25353     25352
 -1      5287    6    0    1
 -2     20761     21524     21173     20808     25356     25355     25354     23304     25358     25357
 -1      5288    6    0    1
 -2     20810     20879     20862     21283     23523     23525     23475     25359     25361     25360
 -1      5289    6    0    1
 -2     20872     21200     20801     21187     25363     25362     23503     25364     24564     25365
 -1      5290    6    0    1
 -2     21320     21545     21290     21296     25367     25366     24967     24968     25368     24874
 -1      5291    6    0    1
 -2     21454     20522     21429     21558     22313     22253     22314     25369     25371     25370
 -1      5292    6    0    1
 -2     21633     21385     20448     21559     25373     22010     25372     25374     25376     25375
 -1      5293    6    0    1
 -2     21689     21516     20734     20624     25379     25378     25377     25380     25381     23060
 -1      5294    6    0    1
 -2     21185     21205     20855     20847     24579     25383     25382     25338     25384     23451
 -1      5295    6    0    1
 -2     21560     21361     20467     21393     25386     21953     25385     25387     22083     22030
 -1      5296    6    0    1
 -2     21692     21718     20414     20997     25119     25389     25388     25120     25121     23910
 -1      5297    6    0    1
 -2     20926     21292     20885     21231     25391     25390     23687     25392     24862     25393
 -1      5298    6    0    1
 -2     20711     21537     20705     20626     25395     25394     22985     22983     25396     22962
 -1      5299    6    0    1
 -2     21149     20818     20775     20759     25398     23334     25397     25399     23333     23197
 -1      5300    6    0    1
 -2     21543     21250     21231     21198     25401     24722     25400     25402     24721     24670
 -1      5301    6    0    1
 -2     21536     21091     21726     20678     25405     25404     25403     25406     25408     25407
 -1      5302    6    0    1
 -2     21282     21544     21278     21266     25409     25134     24826     24824     25410     24814
 -1      5303    6    0    1
 -2     21521     20790     21529     20668     25413     25412     25411     25205     23241     25414
 -1      5304    6    0    1
 -2     20824     21254     21223     21199     25416     24736     25415     25417     24735     24638
 -1      5305    6    0    1
 -2     21534     21055     21130     21520     25419     24345     25418     25420     25422     25421
 -1      5306    6    0    1
 -2     20838     21145     20824     21223     25424     25423     23389     25425     24635     25415
 -1      5307    6    0    1
 -2     21073     20991     21065     21523     24156     24134     24251     25096     25426     25239
 -1      5308    6    0    1
 -2     20838     20897     21223     20824     23585     25427     25425     23389     23583     25415
 -1      5309    6    0    1
 -2     21550     21332     21323     21297     25429     25011     25428     25430     25010     24978
 -1      5310    6    0    1
 -2     21195     21198     20818     21231     24609     25432     25431     24671     24670     25433
 -1      5311    6    0    1
 -2     20885     21231     21246     21195     25393     24708     25434     25435     24671     24706
 -1      5312    6    0    1
 -2     21479     21561     21619     20570     25438     25437     25436     22457     25440     25439
 -1      5313    6    0    1
 -2     20783     21537     20665     20768     25442     25441     23222     23223     25443     23177
 -1      5314    6    0    1
 -2     21654     21479     21499     21648     25310     22513     25444     25215     25446     25445
 -1      5315    6    0    1
 -2     21562     21485     21620     20561     25449     25448     25447     25450     22486     25451
 -1      5316    6    0    1
 -2     21331     21341     21546     21319     25051     25453     25452     25004     25052     25454
 -1      5317    6    0    1
 -2     21047     21095     20968     20678     24240     24222     24096     25455     25457     25456
 -1      5318    6    0    1
 -2     20618     20699     20731     21525     22947     23070     23050     25458     25460     25459
 -1      5319    6    0    1
 -2     21191     20868     20803     20834     25462     23490     25461     25463     23489     23377
 -1      5320    6    0    1
 -2     21654     21499     21513     21688     25444     22605     25464     25465     25467     25466
 -1      5321    6    0    1
 -2     21139     20840     20805     20823     25469     23395     25468     25470     23397     23348
 -1      5322    6    0    1
 -2     21212     20852     21157     21119     25472     25471     24600     24601     25101     24420
 -1      5323    6    0    1
 -2     21489     21486     20690     21710     22610     25474     25473     25475     25477     25476
 -1      5324    6    0    1
 -2     21669     21511     21493     21527     25479     22557     25478     25280     25481     25480
 -1      5325    6    0    1
 -2     21481     21527     21662     21526     25484     25483     25482     25485     25487     25486
 -1      5326    6    0    1
 -2     21540     20744     20806     20815     25488     23299     25195     25489     23323     23325
 -1      5327    6    0    1
 -2     21223     21258     20903     21212     24748     25491     25490     24637     24749     25492
 -1      5328    6    0    1
 -2     21539     20819     20816     20895     25494     23337     25493     25495     23578     23577
 -1      5329    6    0    1
 -2     21392     21530     21571     21403     25498     25497     25496     22133     25500     25499
 -1      5330    6    0    1
 -2     20930     21286     21245     21236     25502     24835     25501     25503     24834     24705
 -1      5331    6    0    1
 -2     21286     20930     20941     21549     25502     23742     25504     25505     25507     25506
 -1      5332    6    0    1
 -2     21100     21162     21532     21148     24438     25509     25508     24393     24449     25510
 -1      5333    6    0    1
 -2     20948     21549     20962     20941     25511     25352     23818     23769     25506     23817
 -1      5334    6    0    1
 -2     21167     20748     21531     21530     25136     25513     25512     25269     25515     25514
 -1      5335    6    0    1
 -2     21183     21143     20835     21226     24517     25517     25516     24664     24648     25518
 -1      5336    6    0    1
 -2     20950     21550     21339     21549     25521     25520     25519     25353     25150     25522
 -1      5337    6    0    1
 -2     21545     21298     21307     21329     25524     24926     25523     25525     24996     24995
 -1      5338    6    0    1
 -2     21545     20939     20952     21329     25527     23784     25526     25525     25529     25528
 -1      5339    6    0    1
 -2     20831     21183     21122     21143     25257     24518     25258     25530     24517     24479
 -1      5340    6    0    1
 -2     21219     20870     20851     21238     25532     23499     25531     24688     25534     25533
 -1      5341    6    0    1
 -2     21302     20943     20921     21546     25536     23748     25535     25537     25539     25538
 -1      5342    6    0    1
 -2     21238     21174     21527     21219     24685     25541     25540     24688     24623     25542
 -1      5343    6    0    1
 -2     20591     21700     21646     21520     25545     25544     25543     25546     25548     25547
 -1      5344    6    0    1
 -2     21109     21044     21648     21088     24268     25550     25549     24288     24197     25551
 -1      5345    6    0    1
 -2     21398     21368     21678     21500     22167     25553     25552     25554     25556     25555
 -1      5346    6    0    1
 -2     21245     21286     20930     20912     24835     25502     25501     25557     25558     23702
 -1      5347    6    0    1
 -2     20851     20870     21255     21238     23499     25560     25559     25533     25534     24741
 -1      5348    6    0    1
 -2     21533     21101     21054     21129     25562     24298     25561     25563     24344     24343
 -1      5349    6    0    1
 -2     20624     20734     20706     21516     23060     23086     22965     25381     25378     25230
 -1      5350    6    0    1
 -2     21499     20642     21555     21688     25566     25565     25564     25467     25568     25567
 -1      5351    6    0    1
 -2     20737     20815     21122     20831     23324     25256     25569     23368     23370     25258
 -1      5352    6    0    1
 -2     21733     20924     20913     20862     25571     23680     25570     25572     23679     23633
 -1      5353    6    0    1
 -2     21470     21448     21518     21556     22379     25574     25573     25263     25575     25067
 -1      5354    6    0    1
 -2     21688     21499     21496     21555     25467     22584     25576     25567     25564     25235
 -1      5355    6    0    1
 -2     21517     21552     20486     21414     25579     25578     25577     25580     25130     22192
 -1      5356    6    0    1
 -2     21688     21555     21496     20547     25567     25235     25576     25581     25582     22500
 -1      5357    6    0    1
 -2     21019     20976     21553     20456     24036     25584     25583     23959     23866     25144
 -1      5358    6    0    1
 -2     21406     21564     20427     20428     25586     25585     22061     22062     25587     21757
 -1      5359    6    0    1
 -2     21539     21537     21105     21134     25590     25589     25588     25591     25592     24353
 -1      5360    6    0    1
 -2     21066     20987     21657     21028     24138     25594     25593     24137     24043     25595
 -1      5361    6    0    1
 -2     21295     21543     21250     21297     25596     25401     24870     24880     25597     24877
 -1      5362    6    0    1
 -2     20546     21528     20601     21555     25233     25598     22652     25236     25237     25599
 -1      5363    6    0    1
 -2     20955     21299     21318     21322     25601     24960     25600     25160     24973     24975
 -1      5364    6    0    1
 -2     21410     21598     21630     20669     25604     25603     25602     25605     25607     25606
 -1      5365    6    0    1
 -2     21392     21403     21571     21374     22133     25499     25496     22132     22121     25608
 -1      5366    6    0    1
 -2     20414     20584     21692     20997     21927     25609     25388     23910     23913     25120
 -1      5367    6    0    1
 -2     21317     20923     21305     21310     25180     25610     24957     24958     25611     24956
 -1      5368    6    0    1
 -2     20548     21688     20547     20642     25612     25581     21889     22743     25568     22744
 -1      5369    6    0    1
 -2     20673     21532     21565     20593     25615     25614     25613     22885     25617     25616
 -1      5370    6    0    1
 -2     20923     21317     21305     20914     25180     24957     25610     23676     25618     25179
 -1      5371    6    0    1
 -2     21202     21204     20825     20780     24576     25620     25619     25621     25622     23352
 -1      5372    6    0    1
 -2     20942     20911     21300     21301     23744     25624     25623     25625     25626     24895
 -1      5373    6    0    1
 -2     21083     20751     20779     21157     25628     23209     25627     24418     25630     25629
 -1      5374    6    0    1
 -2     21543     21218     21170     21151     25632     24621     25631     25633     24620     24481
 -1      5375    6    0    1
 -2     21332     21543     21295     21297     25634     25596     25009     25010     25597     24880
 -1      5376    6    0    1
 -2     21607     20978     21104     21057     25165     24242     25162     25635     24116     24285
 -1      5377    6    0    1
 -2     20449     20448     21352     21621     21779     21936     21935     25636     25638     25637
 -1      5378    6    0    1
 -2     21543     21198     21231     20865     25402     24670     25400     25639     25641     25640
 -1      5379    6    0    1
 -2     20811     21177     21259     20863     25643     24753     25642     23479     25645     25644
 -1      5380    6    0    1
 -2     20938     20937     21258     21304     23733     25647     25646     25648     25649     24902
 -1      5381    6    0    1
 -2     20811     20863     21259     20892     23479     25644     25642     23566     23568     25650
 -1      5382    6    0    1
 -2     20591     20426     21646     21700     22629     25651     25543     25545     25652     25544
 -1      5383    6    0    1
 -2     20676     21519     21599     20717     25654     25249     25653     23079     25252     25253
 -1      5384    6    0    1
 -2     21171     21082     21092     21526     24471     24214     24469     25302     25656     25655
 -1      5385    6    0    1
 -2     21304     21258     20938     21296     24902     25646     25648     24905     24873     25657
 -1      5386    6    0    1
 -2     21190     21163     21146     21538     24535     24442     24533     25658     25660     25659
 -1      5387    6    0    1
 -2     21223     21258     21254     20897     24748     24750     24736     25427     25662     25661
 -1      5388    6    0    1
 -2     20865     21297     20926     21231     25664     25663     23685     25640     24878     25392
 -1      5389    6    0    1
 -2     20799     21178     21153     20841     25666     24507     25665     23398     25668     25667
 -1      5390    6    0    1
 -2     20869     21540     20806     20815     25125     25195     23494     23495     25489     23325
 -1      5391    6    0    1
 -2     21602     21027     21730     20733     25671     25670     25669     25672     25674     25673
 -1      5392    6    0    1
 -2     21346     21720     20517     20411     25676     25675     22280     21810     25677     21857
 -1      5393    6    0    1
 -2     21733     20879     21547     21288     25680     25679     25678     25681     25683     25682
 -1      5394    6    0    1
 -2     21470     20501     21522     21449     22359     25259     25260     22397     22302     25684
 -1      5395    6    0    1
 -2     20897     21296     21258     21254     25685     24873     25662     25661     24872     24750
 -1      5396    6    0    1
 -2     21223     21212     20903     20838     24637     25492     25490     25425     25686     23601
 -1      5397    6    0    1
 -2     21646     21520     21377     21407     25547     25688     25687     25689     25690     22096
 -1      5398    6    0    1
 -2     20654     21556     21653     20502     25065     25066     25062     22770     25692     25691
 -1      5399    6    0    1
 -2     21548     20945     20964     21306     25694     23823     25693     25695     25696     25348
 -1      5400    6    0    1
 -2     20767     21160     21136     21518     25698     24467     25697     25699     25701     25700
 -1      5401    6    0    1
 -2     21067     21165     21542     21127     24446     25703     25702     24339     24447     25704
 -1      5402    6    0    1
 -2     21683     21077     21430     21522     25707     25706     25705     25708     25710     25709
 -1      5403    6    0    1
 -2     21430     21077     20694     21522     25706     25712     25711     25709     25710     25713
 -1      5404    6    0    1
 -2     20694     21522     21590     21430     25713     25715     25714     25711     25709     25716
 -1      5405    6    0    1
 -2     21303     21274     21312     21545     24899     24937     24940     25717     25719     25718
 -1      5406    6    0    1
 -2     21290     21237     20874     20900     24854     25721     25720     25722     25723     23593
 -1      5407    6    0    1
 -2     21380     21607     21410     21630     25724     25164     22099     25725     25726     25602
 -1      5408    6    0    1
 -2     21324     21296     21545     21320     24979     25368     25727     24981     24968     25367
 -1      5409    6    0    1
 -2     21296     21324     21545     20956     24979     25727     25368     25728     25730     25729
 -1      5410    6    0    1
 -2     20827     21168     21531     20769     25245     25732     25731     23357     25247     25733
 -1      5411    6    0    1
 -2     21601     20975     21377     21632     25736     25735     25734     25737     25739     25738
 -1      5412    6    0    1
 -2     21075     21522     21647     21518     25742     25741     25740     25743     25745     25744
 -1      5413    6    0    1
 -2     21716     20700     21713     20988     25748     25747     25746     25749     25751     25750
 -1      5414    6    0    1
 -2     20745     21109     21152     21147     25753     24492     25752     25754     24391     24503
 -1      5415    6    0    1
 -2     21573     21451     20497     21622     25756     22306     25755     25757     25759     25758
 -1      5416    6    0    1
 -2     20417     21566     20418     21411     25761     25760     21747     22071     25762     22072
 -1      5417    6    0    1
 -2     21077     21112     21666     21573     24304     25764     25763     25765     25767     25766
 -1      5418    6    0    1
 -2     20800     21540     20860     20793     25194     25126     23465     23477     25768     23468
 -1      5419    6    0    1
 -2     20866     20890     20909     21543     23572     23620     23619     25769     25771     25770
 -1      5420    6    0    1
 -2     21573     20696     21430     21077     25774     25773     25772     25765     25775     25706
 -1      5421    6    0    1
 -2     20906     20890     21543     20909     23612     25771     25776     23656     23620     25770
 -1      5422    6    0    1
 -2     21573     21077     21683     21666     25765     25707     25777     25766     25763     25778
 -1      5423    6    0    1
 -2     20516     20517     21441     21567     21856     22283     22284     25779     25781     25780
 -1      5424    6    0    1
 -2     21550     20936     20904     20947     25783     23723     25782     25784     23763     23762
 -1      5425    6    0    1
 -2     21053     21162     21138     20757     24437     24439     24366     25785     25787     25786
 -1      5426    6    0    1
 -2     21103     21055     21172     21534     24249     24474     24473     25788     25419     25789
 -1      5427    6    0    1
 -2     21700     21564     20631     20427     25792     25791     25790     25793     25585     22718
 -1      5428    6    0    1
 -2     21622     21573     20727     20612     25757     25795     25794     25796     25797     23036
 -1      5429    6    0    1
 -2     20742     21148     21168     21532     25799     24484     25798     25800     25510     25801
 -1      5430    6    0    1
 -2     21344     20409     20543     21623     21741     21884     22446     25802     25804     25803
 -1      5431    6    0    1
 -2     21050     20743     20717     21097     25806     23103     25805     24305     25808     25807
 -1      5432    6    0    1
 -2     20545     20546     21514     21528     21887     22548     22547     25809     25233     25810
 -1      5433    6    0    1
 -2     21624     20415     21350     21672     25812     22001     25811     25813     25815     25814
 -1      5434    6    0    1
 -2     20962     21549     20959     20961     25352     25816     23842     23820     25817     23844
 -1      5435    6    0    1
 -2     21568     20543     21515     20544     25819     22549     25818     25820     21885     22550
 -1      5436    6    0    1
 -2     21683     21454     21573     21666     25822     25821     25777     25778     25823     25766
 -1      5437    6    0    1
 -2     20933     21294     21291     21239     25824     24890     25227     25225     24867     24891
 -1      5438    6    0    1
 -2     20471     21625     21395     21673     25826     25825     22034     25827     25829     25828
 -1      5439    6    0    1
 -2     21550     20958     20965     20957     25831     23831     25830     25832     23841     23840
 -1      5440    6    0    1
 -2     20750     21152     20745     21088     25833     25752     23125     25834     24453     25835
 -1      5441    6    0    1
 -2     21306     20945     20964     21276     25696     23823     25348     24915     25170     25349
 -1      5442    6    0    1
 -2     21688     20642     21555     20547     25568     25565     25567     25581     22744     25582
 -1      5443    6    0    1
 -2     21726     20678     21091     21010     25407     25408     25404     25836     25837     24208
 -1      5444    6    0    1
 -2     21235     21543     21218     21244     25838     25632     24680     24702     25839     24700
 -1      5445    6    0    1
 -2     20943     20950     20927     21546     23777     23776     23747     25539     25841     25840
 -1      5446    6    0    1
 -2     21673     21603     20968     20719     25189     25843     25842     25190     25188     25844
 -1      5447    6    0    1
 -2     21375     21565     21405     20430     25846     25845     22094     21985     25847     22060
 -1      5448    6    0    1
 -2     20426     21700     20591     20427     25652     25545     22629     21756     25793     22628
 -1      5449    6    0    1
 -2     21651     21001     21715     20720     25850     25849     25848     25851     25853     25852
 -1      5450    6    0    1
 -2     21652     20688     20607     20725     25855     22921     25854     25856     23027     23026
 -1      5451    6    0    1
 -2     21731     21711     21640     21589     25859     25858     25857     25860     25862     25861
 -1      5452    6    0    1
 -2     21570     21362     20469     21394     25864     21955     25863     25865     22084     22032
 -1      5453    6    0    1
 -2     20750     21536     21047     21088     25868     25867     25866     25834     25869     24454
 -1      5454    6    0    1
 -2     21408     21521     21667     21355     25313     25871     25870     22173     25873     25872
 -1      5455    6    0    1
 -2     21047     21152     20750     21088     24406     25833     25866     24454     24453     25834
 -1      5456    6    0    1
 -2     21125     21099     21051     21531     24335     24259     24336     25874     25222     25875
 -1      5457    6    0    1
 -2     20725     21652     20688     21037     25856     25855     23027     25876     25878     25877
 -1      5458    6    0    1
 -2     21700     20427     20631     20591     25793     22718     25790     25545     22628     22805
 -1      5459    6    0    1
 -2     21571     20433     21403     21626     25879     22055     25499     25880     25882     25881
 -1      5460    6    0    1
 -2     20968     20719     21095     21011     25844     25883     24222     24028     25884     24221
 -1      5461    6    0    1
 -2     20911     20942     21300     20919     23744     25623     25624     23663     23745     25885
 -1      5462    6    0    1
 -2     21259     21300     20919     21260     24886     25885     25886     24756     24887     25887
 -1      5463    6    0    1
 -2     21627     21572     21490     20559     25890     25889     25888     25891     25892     22488
 -1      5464    6    0    1
 -2     20718     20677     20597     20969     23077     22893     23004     25893     25895     25894
 -1      5465    6    0    1
 -2     20894     20845     20849     21271     23574     23430     23575     25896     25898     25897
 -1      5466    6    0    1
 -2     21627     20559     21490     21506     25891     22488     25888     25899     22534     22533
 -1      5467    6    0    1
 -2     20943     21302     20921     20937     25536     25535     23748     23754     25900     23729
 -1      5468    6    0    1
 -2     21237     21225     20837     20876     24683     25902     25901     25241     25903     23514
 -1      5469    6    0    1
 -2     20881     21239     20817     21220     25904     25146     23531     25905     24689     25147
 -1      5470    6    0    1
 -2     21065     21523     21031     21071     25239     25906     24135     24150     25907     24148
 -1      5471    6    0    1
 -2     21108     21080     21698     20999     24264     25909     25908     24263     24175     25910
 -1      5472    6    0    1
 -2     21564     20428     21376     21628     25587     21987     25911     25912     25914     25913
 -1      5473    6    0    1
 -2     21070     21063     21155     20798     24248     24413     24412     25291     25915     25290
 -1      5474    6    0    1
 -2     21629     21472     20497     21573     25917     22363     25916     25918     25919     25755
 -1      5475    6    0    1
 -2     20882     21208     20859     21252     25921     25920     23533     25922     24728     25923
 -1      5476    6    0    1
 -2     21574     21348     20563     21488     25925     22478     25924     25926     22479     22481
 -1      5477    6    0    1
 -2     20871     21184     21243     21269     25928     24698     25927     25929     24780     24782
 -1      5478    6    0    1
 -2     21705     21698     21562     20726     25932     25931     25930     25933     25935     25934
 -1      5479    6    0    1
 -2     21698     21627     21562     20689     25937     25936     25931     25938     25940     25939
 -1      5480    6    0    1
 -2     21207     21165     21542     20809     24585     25703     25941     25942     25944     25943
 -1      5481    6    0    1
 -2     21158     21217     20820     21216     24617     25104     25945     24614     24618     25946
 -1      5482    6    0    1
 -2     20528     21432     21523     21575     22259     25948     25947     25949     25951     25950
 -1      5483    6    0    1
 -2     21479     21501     21619     21512     22551     25952     25436     22586     22607     25953
 -1      5484    6    0    1
 -2     20879     21288     21733     21283     25683     25681     25680     25361     24850     25954
 -1      5485    6    0    1
 -2     20991     21031     21523     20529     24086     25906     25426     23899     23991     25955
 -1      5486    6    0    1
 -2     21144     21151     21541     21538     24404     25957     25956     25958     25960     25959
 -1      5487    6    0    1
 -2     21620     20726     21068     20998     25963     25962     25961     25964     25965     24141
 -1      5488    6    0    1
 -2     21523     20529     20530     21433     25955     21870     25966     25967     22262     22261
 -1      5489    6    0    1
 -2     21133     20848     20783     20840     25172     23424     25968     25969     23427     23396
 -1      5490    6    0    1
 -2     21546     21308     21331     21319     25970     25003     25452     25454     24966     25004
 -1      5491    6    0    1
 -2     20848     20898     21248     21189     23588     25972     25971     25171     25973     24713
 -1      5492    6    0    1
 -2     21410     21380     21630     20420     22099     25725     25602     22070     21995     25974
 -1      5493    6    0    1
 -2     21149     20694     20696     21077     25976     22941     25975     24395     25712     25775
 -1      5494    6    0    1
 -2     21232     21189     21248     20898     24673     24713     24715     25977     25973     25972
 -1      5495    6    0    1
 -2     21157     21223     20838     21212     24636     25425     25978     24600     24637     25686
 -1      5496    6    0    1
 -2     21257     21283     21733     21289     24848     25954     25979     24852     24851     25980
 -1      5497    6    0    1
 -2     21287     20873     20833     20856     25982     23507     25981     25983     23506     23492
 -1      5498    6    0    1
 -2     21254     20824     21223     20897     25416     25415     24736     25661     23583     25427
 -1      5499    6    0    1
 -2     21248     21275     21232     20898     24846     24845     24715     25972     25984     25977
 -1      5500    6    0    1
 -2     21545     20949     20939     20920     25985     23772     25527     25986     23771     23734
 -1      5501    6    0    1
 -2     21037     20725     21108     20688     25876     25987     24265     25877     23027     25988
 -1      5502    6    0    1
 -2     20528     21523     21458     20529     25947     25989     22326     21869     25955     22325
 -1      5503    6    0    1
 -2     20701     21641     21466     21437     25992     25991     25990     25993     25994     22422
 -1      5504    6    0    1
 -2     21108     20725     20749     20777     25987     23121     25995     25996     23201     23203
 -1      5505    6    0    1
 -2     20823     21184     20871     21269     25997     25928     23501     25998     24780     25929
 -1      5506    6    0    1
 -2     21269     21291     20871     20878     24858     25999     25929     26000     26001     23521
 -1      5507    6    0    1
 -2     21289     21317     21547     20914     24963     25183     26002     26003     25618     26004
 -1      5508    6    0    1
 -2     20511     21576     21466     21444     26006     26005     22348     22292     26007     22351
 -1      5509    6    0    1
 -2     21086     21527     21671     21526     26010     26009     26008     26011     25487     26012
 -1      5510    6    0    1
 -2     21216     21541     20905     20843     26015     26014     26013     26016     26017     23607
 -1      5511    6    0    1
 -2     21582     21535     21110     21079     26020     26019     26018     26021     26022     24276
 -1      5512    6    0    1
 -2     21503     21526     21592     21482     26025     26024     26023     22569     26027     26026
 -1      5513    6    0    1
 -2     21535     21078     20995     21110     26029     24171     26028     26019     24270     24269
 -1      5514    6    0    1
 -2     20422     21529     21618     21379     25275     26031     26030     21993     25266     26032
 -1      5515    6    0    1
 -2     21532     21162     21053     20757     25509     24437     26033     26034     25787     25785
 -1      5516    6    0    1
 -2     21543     21541     20905     21272     26036     26014     26035     26037     26039     26038
 -1      5517    6    0    1
 -2     21224     21184     20823     21269     24642     25997     26040     24781     24780     25998
 -1      5518    6    0    1
 -2     21190     21541     21203     21247     26042     26041     24572     24709     26043     24710
 -1      5519    6    0    1
 -2     21481     21671     21527     21526     26044     26009     25484     25485     26012     25487
 -1      5520    6    0    1
 -2     21685     20717     21519     21013     25251     25252     25248     26045     26047     26046
 -1      5521    6    0    1
 -2     21356     20457     21553     21520     21943     26048     25142     26049     26051     26050
 -1      5522    6    0    1
 -2     20770     21120     21210     21121     25304     24596     26052     26053     24328     24602
 -1      5523    6    0    1
 -2     21050     21097     20717     21013     24305     25807     25805     24103     24225     26047
 -1      5524    6    0    1
 -2     21675     21517     21425     21643     26056     26055     26054     26057     26059     26058
 -1      5525    6    0    1
 -2     21402     21658     21362     21393     26061     26060     22153     22184     26062     22104
 -1      5526    6    0    1
 -2     21631     20490     21416     21551     26064     22195     26063     26065     25093     25094
 -1      5527    6    0    1
 -2     21559     20735     20625     20586     26066     23064     25117     26067     23063     22789
 -1      5528    6    0    1
 -2     20591     21533     21700     20975     26069     26068     25545     26070     26072     26071
 -1      5529    6    0    1
 -2     21577     21342     21343     21350     26074     21739     26073     26075     21930     21929
 -1      5530    6    0    1
 -2     21245     20930     20872     20912     25501     23699     26076     25557     23702     23632
 -1      5531    6    0    1
 -2     21205     21236     20884     21187     24681     25080     25078     24594     24682     26077
 -1      5532    6    0    1
 -2     21731     21711     20516     20661     25859     26079     26078     26080     26081     22784
 -1      5533    6    0    1
 -2     21639     21536     21588     21091     26084     26083     26082     26085     25405     26086
 -1      5534    6    0    1
 -2     21013     21570     21685     21658     26088     26087     26045     26089     26091     26090
 -1      5535    6    0    1
 -2     20786     20736     20811     21130     23266     23312     23311     26092     26094     26093
 -1      5536    6    0    1
 -2     21061     20703     20704     21093     26096     22989     26095     24356     26098     26097
 -1      5537    6    0    1
 -2     20712     20740     20674     21531     23096     23095     22999     26099     26101     26100
 -1      5538    6    0    1
 -2     21418     20492     21577     20408     22200     26103     26102     22199     21828     26104
 -1      5539    6    0    1
 -2     21631     21516     20982     21090     26107     26106     26105     26108     26109     24206
 -1      5540    6    0    1
 -2     21388     20457     21520     21601     22020     26051     26110     26111     26113     26112
 -1      5541    6    0    1
 -2     21410     21668     21384     21537     26115     26114     22181     26116     26118     26117
 -1      5542    6    0    1
 -2     21343     21418     21577     20408     22202     26102     26073     21740     22199     26104
 -1      5543    6    0    1
 -2     21334     21326     21547     21293     25017     26120     26119     25016     24987     26121
 -1      5544    6    0    1
 -2     20973     21016     21532     21100     24033     26123     26122     24232     24231     25508
 -1      5545    6    0    1
 -2     21442     21711     21731     21589     26125     25859     26124     25332     25862     25860
 -1      5546    6    0    1
 -2     21149     21198     20818     21195     24558     25432     25398     24547     24609     25431
 -1      5547    6    0    1
 -2     21373     20434     20435     21578     21981     21764     21982     26126     26128     26127
 -1      5548    6    0    1
 -2     21035     21558     21429     21453     26130     25370     26129     26131     26132     22318
 -1      5549    6    0    1
 -2     21542     21165     20754     20809     25703     26134     26133     25943     25944     23305
 -1      5550    6    0    1
 -2     21429     21453     21535     21035     22318     26136     26135     26129     26131     26137
 -1      5551    6    0    1
 -2     20914     21311     20873     20931     25177     25176     23636     23707     26138     23704
 -1      5552    6    0    1
 -2     21170     21188     20812     20778     24529     26140     26139     26141     26142     23315
 -1      5553    6    0    1
 -2     21078     21112     21535     21035     24311     26143     26029     24172     24274     26137
 -1      5554    6    0    1
 -2     21051     21531     21635     21530     25875     26145     26144     26146     25514     26147
 -1      5555    6    0    1
 -2     21314     21309     21333     20953     25055     25029     25015     26148     26150     26149
 -1      5556    6    0    1
 -2     20992     21046     21518     21032     24094     26152     26151     24084     24095     26153
 -1      5557    6    0    1
 -2     21563     21040     21706     20577     26156     26155     26154     26157     24012     26158
 -1      5558    6    0    1
 -2     21097     21519     20717     21013     26159     25252     25807     24225     26046     26047
 -1      5559    6    0    1
 -2     21119     20820     20852     20777     25102     23445     25101     26160     23339     23442
 -1      5560    6    0    1
 -2     21360     21579     21635     20465     26163     26162     26161     21951     26165     26164
 -1      5561    6    0    1
 -2     21351     20408     21633     20447     21931     26167     26166     21934     21777     26168
 -1      5562    6    0    1
 -2     21399     21580     20442     21369     26170     26169     22048     22088     26171     21973
 -1      5563    6    0    1
 -2     21667     21611     21355     21521     26173     26172     25872     25871     26174     25873
 -1      5564    6    0    1
 -2     20906     21543     21272     21546     25776     26037     26175     26176     26178     26177
 -1      5565    6    0    1
 -2     21534     21172     21202     20780     25789     24569     26179     26180     26181     25621
 -1      5566    6    0    1
 -2     20408     21577     21351     21633     26104     26182     21931     26167     26183     26166
 -1      5567    6    0    1
 -2     21058     21537     21021     21104     26185     26184     24119     24310     26186     24241
 -1      5568    6    0    1
 -2     20805     21104     21139     21057     26187     24368     25468     26188     24285     24369
 -1      5569    6    0    1
 -2     20419     21537     20627     21598     26190     26189     22710     26191     26193     26192
 -1      5570    6    0    1
 -2     20511     21576     21444     21702     26006     26007     22292     26194     26196     26195
 -1      5571    6    0    1
 -2     21731     21517     20622     21567     26199     26198     26197     26200     26202     26201
 -1      5572    6    0    1
 -2     21386     21354     21380     21607     22076     22148     22147     26203     26204     25724
 -1      5573    6    0    1
 -2     20865     21543     20904     21297     25639     26205     23604     25664     25597     26206
 -1      5574    6    0    1
 -2     21359     20462     21581     20463     21950     26208     26207     21949     21793     26209
 -1      5575    6    0    1
 -2     20926     20865     20904     21297     23685     23604     23686     25663     25664     26206
 -1      5576    6    0    1
 -2     21550     21341     21340     21332     26211     25057     26210     25429     25053     25050
 -1      5577    6    0    1
 -2     21190     21538     21146     21144     25658     25659     24533     24534     25958     24389
 -1      5578    6    0    1
 -2     21331     21308     21546     21302     25003     25970     25452     25002     24923     25537
 -1      5579    6    0    1
 -2     21516     21060     20982     21090     26212     24128     26106     26109     24247     24206
 -1      5580    6    0    1
 -2     21730     21602     20660     21650     25669     26214     26213     26215     25289     26216
 -1      5581    6    0    1
 -2     21679     21452     21428     21582     26218     22426     26217     26219     26221     26220
 -1      5582    6    0    1
 -2     20701     21027     21730     21719     26223     25670     26222     26224     26226     26225
 -1      5583    6    0    1
 -2     21532     20593     20673     20715     25617     22885     25615     26227     22997     23080
 -1      5584    6    0    1
 -2     20684     20996     21582     21679     26230     26229     26228     26231     26232     26219
 -1      5585    6    0    1
 -2     21080     20752     20749     20689     26234     23130     26233     26235     23129     23120
 -1      5586    6    0    1
 -2     21452     21582     21679     20684     26221     26219     26218     26236     26228     26231
 -1      5587    6    0    1
 -2     21405     20430     21674     20429     22060     26238     26237     22059     21759     26239
 -1      5588    6    0    1
 -2     21521     21019     21103     21534     26241     24237     26240     25207     26242     25788
 -1      5589    6    0    1
 -2     21681     20586     21621     21559     26245     26244     26243     26246     26067     26247
 -1      5590    6    0    1
 -2     21508     20558     21572     21636     22536     26249     26248     26250     26252     26251
 -1      5591    6    0    1
 -2     21637     20520     21428     21582     26254     22251     26253     26255     26256     26220
 -1      5592    6    0    1
 -2     20714     21102     21130     20786     26258     24346     26257     23231     26259     26092
 -1      5593    6    0    1
 -2     20919     21260     20863     21259     25887     26260     23661     25886     24756     25644
 -1      5594    6    0    1
 -2     21618     21408     21378     20424     25311     22097     25294     26261     22066     21991
 -1      5595    6    0    1
 -2     20591     21520     21646     20630     25546     25547     25543     22835     26263     26262
 -1      5596    6    0    1
 -2     21601     21632     21377     21357     25737     25738     25734     26264     26265     22127
 -1      5597    6    0    1
 -2     21700     21520     20591     20975     25548     25546     25545     26071     26266     26070
 -1      5598    6    0    1
 -2     21010     21603     20678     20968     26268     26267     25837     24060     25843     25456
 -1      5599    6    0    1
 -2     20734     21689     20624     20663     25377     25380     23060     23061     26269     22859
 -1      5600    6    0    1
 -2     21465     21446     20507     21584     22354     22296     22343     26270     26272     26271
 -1      5601    6    0    1
 -2     21602     21463     21730     21719     25287     26273     25669     26274     26275     26225
 -1      5602    6    0    1
 -2     21175     21524     20756     21220     26277     25082     26276     24626     26279     26278
 -1      5603    6    0    1
 -2     21557     21529     21379     21386     25274     25266     25272     26280     25268     22137
 -1      5604    6    0    1
 -2     21533     21129     20772     20738     25563     26282     26281     26283     26284     23188
 -1      5605    6    0    1
 -2     21560     20466     21392     21635     26286     22027     26285     26287     26289     26288
 -1      5606    6    0    1
 -2     21539     20711     20705     20774     26291     22985     26290     26292     23193     23192
 -1      5607    6    0    1
 -2     21138     20738     20834     21129     26293     23378     25336     24367     26284     26294
 -1      5608    6    0    1
 -2     20840     20910     21243     21192     23622     26296     26295     26297     26298     24697
 -1      5609    6    0    1
 -2     20772     21169     20803     21129     25322     25323     23289     26282     24495     26299
 -1      5610    6    0    1
 -2     20778     20821     21188     20812     23341     26300     26142     23315     23423     26140
 -1      5611    6    0    1
 -2     20714     20786     21130     20736     23231     26092     26257     23087     23266     26094
 -1      5612    6    0    1
 -2     20674     20634     21530     20716     22886     26302     26301     23067     23001     26303
 -1      5613    6    0    1
 -2     20827     21200     21168     20801     26304     24563     25245     23358     25362     25246
 -1      5614    6    0    1
 -2     21038     21068     21538     21081     24142     26306     26305     24180     24262     26307
 -1      5615    6    0    1
 -2     21550     20963     20965     20947     26308     23834     25830     25784     23827     23830
 -1      5616    6    0    1
 -2     20595     20434     21626     21578     22637     26310     26309     26311     26128     26312
 -1      5617    6    0    1
 -2     21554     21617     21394     21519     25210     25211     25208     26313     26315     26314
 -1      5618    6    0    1
 -2     21430     21454     21573     21683     22319     25821     25772     25705     25822     25777
 -1      5619    6    0    1
 -2     21112     21077     21666     20994     24304     25763     25764     24275     24169     26316
 -1      5620    6    0    1
 -2     21631     20734     21712     21689     26319     26318     26317     26320     25377     26321
 -1      5621    6    0    1
 -2     20985     20541     21699     21589     23887     26323     26322     26324     26325     25331
 -1      5622    6    0    1
 -2     20473     21396     20474     21639     22036     22035     21804     26326     26328     26327
 -1      5623    6    0    1
 -2     21331     21341     21339     21546     25051     25054     25041     25452     25453     26329
 -1      5624    6    0    1
 -2     21573     20727     21126     21112     25795     26331     26330     25767     26332     24337
 -1      5625    6    0    1
 -2     20696     20727     21573     20650     23041     25795     25774     22940     23035     26333
 -1      5626    6    0    1
 -2     21585     21390     21358     20461     26335     22080     26334     26336     22024     21947
 -1      5627    6    0    1
 -2     20701     20733     21730     21027     23057     25673     26222     26223     25674     25670
 -1      5628    6    0    1
 -2     21391     21531     21565     21404     26339     26338     26337     22163     26341     26340
 -1      5629    6    0    1
 -2     20674     21530     21571     21531     26301     25497     26342     26100     25514     26343
 -1      5630    6    0    1
 -2     21560     21361     21578     21530     25386     26345     26344     26346     26348     26347
 -1      5631    6    0    1
 -2     20460     21585     21358     20461     26349     26334     21948     21791     26336     21947
 -1      5632    6    0    1
 -2     20882     21241     21208     21252     26350     24693     25921     25922     24729     24728
 -1      5633    6    0    1
 -2     20714     20736     21130     21520     23087     26094     26257     26351     26352     25421
 -1      5634    6    0    1
 -2     20996     21081     21538     21079     24178     26307     26353     24173     24179     26354
 -1      5635    6    0    1
 -2     21314     21550     21333     21323     26355     25149     25015     24977     25428     25014
 -1      5636    6    0    1
 -2     20549     21512     21586     20550     22543     26357     26356     21891     22544     26358
 -1      5637    6    0    1
 -2     21593     21669     21527     21511     25279     25280     25276     26359     25479     25481
 -1      5638    6    0    1
 -2     21567     20622     20479     21643     26201     22699     26360     26361     26363     26362
 -1      5639    6    0    1
 -2     21669     21527     21084     21115     25280     26365     26364     25281     25277     24301
 -1      5640    6    0    1
 -2     20490     21631     21416     21423     26064     26063     22195     22219     26366     22220
 -1      5641    6    0    1
 -2     21422     21660     21608     21421     26369     26368     26367     22239     26371     26370
 -1      5642    6    0    1
 -2     21567     21517     20622     21643     26202     26198     26201     26361     26059     26363
 -1      5643    6    0    1
 -2     21251     21545     20880     21544     26374     26373     26372     26375     26377     26376
 -1      5644    6    0    1
 -2     20560     21485     21506     21562     22485     22525     22528     26378     25449     26379
 -1      5645    6    0    1
 -2     20972     21099     21015     21531     24230     24229     24032     26380     25222     25221
 -1      5646    6    0    1
 -2     21555     20642     21648     21536     25565     25213     26381     26382     26384     26383
 -1      5647    6    0    1
 -2     21370     21687     21603     21569     26387     26386     26385     26388     26389     25192
 -1      5648    6    0    1
 -2     21420     21516     21689     21587     26391     25379     26390     26392     25156     26393
 -1      5649    6    0    1
 -2     20484     21420     21689     21587     22210     26390     26394     26395     26392     26393
 -1      5650    6    0    1
 -2     21157     21145     20838     21223     24421     25424     25978     24636     24635     25425
 -1      5651    6    0    1
 -2     20684     20611     21535     20724     22910     26397     26396     23021     23020     26398
 -1      5652    6    0    1
 -2     20748     21125     20839     21180     25228     26399     23391     25137     24511     26400
 -1      5653    6    0    1
 -2     21358     21406     21376     21533     22177     22095     22176     26401     26403     26402
 -1      5654    6    0    1
 -2     21534     21130     20736     21520     25418     26094     26404     25420     25421     26352
 -1      5655    6    0    1
 -2     20971     21560     21658     21530     26407     26406     26405     26408     26346     26409
 -1      5656    6    0    1
 -2     20751     21114     20764     21145     26411     26410     23165     26412     24384     26413
 -1      5657    6    0    1
 -2     20638     20678     21726     20598     22894     25407     26414     22812     22895     26415
 -1      5658    6    0    1
 -2     20764     20824     21145     21137     23350     25423     26413     26416     26417     24386
 -1      5659    6    0    1
 -2     21059     21106     21539     21121     24306     26419     26418     24326     24325     26420
 -1      5660    6    0    1
 -2     21389     21406     21358     21533     22178     22177     22041     26421     26403     26401
 -1      5661    6    0    1
 -2     21402     21658     21578     21685     26061     26423     26422     26424     26090     26425
 -1      5662    6    0    1
 -2     21639     21588     21365     20474     26082     26427     26426     26327     26428     21962
 -1      5663    6    0    1
 -2     20652     21600     21622     20496     26431     26430     26429     22764     26433     26432
 -1      5664    6    0    1
 -2     21290     20900     20874     20925     25722     23593     25720     26434     23683     23682
 -1      5665    6    0    1
 -2     21639     20474     21365     21396     26327     21962     26426     26328     22035     22107
 -1      5666    6    0    1
 -2     21383     21352     21411     21690     22005     22169     22168     26435     26437     26436
 -1      5667    6    0    1
 -2     20852     20779     21157     21119     23443     25629     25471     25101     26438     24420
 -1      5668    6    0    1
 -2     21560     21635     21392     21530     26287     26288     26285     26346     26147     25498
 -1      5669    6    0    1
 -2     21379     21386     21611     21355     22137     25267     25264     22136     22120     26172
 -1      5670    6    0    1
 -2     21124     21167     20739     21201     24472     26440     26439     24566     24565     26441
 -1      5671    6    0    1
 -2     20741     21540     21132     21150     25196     26443     26442     26444     26445     24400
 -1      5672    6    0    1
 -2     20540     21438     21589     21640     22271     26447     26446     26448     26449     25861
 -1      5673    6    0    1
 -2     20739     20748     20830     21167     23119     23367     23366     26440     25136     25069
 -1      5674    6    0    1
 -2     20781     21219     21540     20832     26452     26451     26450     23372     26453     25127
 -1      5675    6    0    1
 -2     20919     20911     20863     21260     23663     23626     23661     25887     26454     26260
 -1      5676    6    0    1
 -2     20739     20830     21201     21167     23366     25068     26441     26440     25069     24565
 -1      5677    6    0    1
 -2     21466     21641     20512     21443     25991     26455     22346     22347     26456     22289
 -1      5678    6    0    1
 -2     20819     20776     21210     21539     23336     26458     26457     25494     26460     26459
 -1      5679    6    0    1
 -2     21637     21582     21428     21535     26255     26220     26253     26461     26020     26462
 -1      5680    6    0    1
 -2     20799     20841     21153     20784     23398     25667     25665     23281     23399     25329
 -1      5681    6    0    1
 -2     20755     21538     21541     20788     26464     25959     26463     23236     26466     26465
 -1      5682    6    0    1
 -2     21307     21549     21329     21328     26468     26467     24995     24993     25098     24997
 -1      5683    6    0    1
 -2     20855     21268     20915     20884     26470     26469     23637     23541     25079     23639
 -1      5684    6    0    1
 -2     21438     20540     21589     21464     22271     26446     26447     22344     22340     26471
 -1      5685    6    0    1
 -2     21439     21517     21552     21699     26473     25579     26472     25333     26475     26474
 -1      5686    6    0    1
 -2     21640     21438     20539     20540     26449     22272     26476     26448     22271     21880
 -1      5687    6    0    1
 -2     20799     20784     21153     21120     23281     25329     25665     26477     25327     24462
 -1      5688    6    0    1
 -2     21106     21120     20770     21121     24324     25304     25303     24325     24328     26053
 -1      5689    6    0    1
 -2     20841     21178     20850     20854     25668     26478     23538     23462     26479     23599
 -1      5690    6    0    1
 -2     21584     20508     21445     21642     26481     22293     26480     26482     26484     26483
 -1      5691    6    0    1
 -2     21134     21228     21539     21189     24654     26485     25591     24531     24665     26486
 -1      5692    6    0    1
 -2     21465     21584     20507     20508     26270     26271     22343     22341     26481     21847
 -1      5693    6    0    1
 -2     20787     20680     20745     21109     23232     23110     23233     26487     26488     25753
 -1      5694    6    0    1
 -2     20467     21361     21560     20466     21953     25386     25385     21797     21954     26286
 -1      5695    6    0    1
 -2     21202     20780     20825     20853     25621     23352     25619     26489     23446     23448
 -1      5696    6    0    1
 -2     20809     20864     21207     20813     23480     26490     25942     23319     23481     26491
 -1      5697    6    0    1
 -2     20973     20463     21649     21581     23861     26493     26492     26494     26209     26495
 -1      5698    6    0    1
 -2     20770     20799     21210     21120     23280     26496     26052     25304     26477     24596
 -1      5699    6    0    1
 -2     20499     20500     21471     21590     21839     22362     22361     26497     26499     26498
 -1      5700    6    0    1
 -2     21644     20692     21679     21426     26502     26501     26500     26503     26505     26504
 -1      5701    6    0    1
 -2     21471     21522     21449     21456     26506     25684     22380     22436     26507     22410
 -1      5702    6    0    1
 -2     21539     21118     21059     21121     26508     24319     26418     26420     24327     24326
 -1      5703    6    0    1
 -2     21675     21643     21425     20480     26057     26058     26054     26509     26510     22231
 -1      5704    6    0    1
 -2     21732     21539     20816     21189     26512     25493     26511     25173     26486     26513
 -1      5705    6    0    1
 -2     21273     21259     20892     20825     24817     25650     26514     26515     26516     23567
 -1      5706    6    0    1
 -2     21535     20727     21573     21112     26518     25795     26517     26143     26332     25767
 -1      5707    6    0    1
 -2     21713     21723     21467     20988     26521     26520     26519     25750     26523     26522
 -1      5708    6    0    1
 -2     21732     21189     20816     20848     25173     26513     26511     25174     25171     23426
 -1      5709    6    0    1
 -2     21647     21518     21457     21697     25744     26525     26524     26526     26528     26527
 -1      5710    6    0    1
 -2     21732     21134     21537     21539     26530     25592     26529     26512     25591     25590
 -1      5711    6    0    1
 -2     21538     21081     21727     21038     26307     26532     26531     26305     24180     25270
 -1      5712    6    0    1
 -2     20801     21200     20872     20859     25362     25363     23503     23461     26533     23505
 -1      5713    6    0    1
 -2     21588     21536     21638     21397     26083     26535     26534     26536     26538     26537
 -1      5714    6    0    1
 -2     21604     21452     21679     20651     26540     26218     26539     26541     26543     26542
 -1      5715    6    0    1
 -2     21732     20848     20816     20768     25174     23426     26511     26544     23425     23327
 -1      5716    6    0    1
 -2     21528     20546     20601     20641     25233     22652     25598     26545     22742     22741
 -1      5717    6    0    1
 -2     21639     21396     21365     21369     26328     22107     26426     26546     22144     22162
 -1      5718    6    0    1
 -2     21262     21186     20889     21240     24764     26548     26547     24801     24692     26549
 -1      5719    6    0    1
 -2     20512     20513     21443     21676     21852     22290     22289     26550     26552     26551
 -1      5720    6    0    1
 -2     21579     21649     21391     21531     26555     26554     26553     26556     26557     26339
 -1      5721    6    0    1
 -2     20872     21200     21245     20859     25363     24704     26076     23505     26533     26558
 -1      5722    6    0    1
 -2     21644     20493     21474     21604     26560     22367     26559     26561     26563     26562
 -1      5723    6    0    1
 -2     21693     21665     20600     21528     26566     26565     26564     26567     26569     26568
 -1      5724    6    0    1
 -2     20493     21348     21574     21426     22244     25925     26570     22309     22246     26571
 -1      5725    6    0    1
 -2     21038     21068     21682     21591     24142     26573     26572     26574     26576     26575
 -1      5726    6    0    1
 -2     21234     21253     21277     20895     24733     24844     24843     26577     26579     26578
 -1      5727    6    0    1
 -2     20914     21289     21733     21547     26003     25980     26580     26004     26002     25678
 -1      5728    6    0    1
 -2     20728     20653     21522     20614     23037     26582     26581     23039     22864     26583
 -1      5729    6    0    1
 -2     21693     20600     20545     21528     26564     22649     26584     26567     26568     25809
 -1      5730    6    0    1
 -2     21430     21450     21629     21472     22438     26586     26585     22437     22381     25917
 -1      5731    6    0    1
 -2     21252     21200     21208     20859     24727     24646     24728     25923     26533     25920
 -1      5732    6    0    1
 -2     21269     21243     20871     21291     24782     25927     25929     24858     24857     25999
 -1      5733    6    0    1
 -2     20878     20931     21311     21291     23705     26138     26587     26001     26588     24934
 -1      5734    6    0    1
 -2     21717     20683     21527     21593     26591     26590     26589     26592     26593     25276
 -1      5735    6    0    1
 -2     21245     21200     21252     20859     24704     24727     24730     26558     26533     25923
 -1      5736    6    0    1
 -2     20720     21001     21715     21092     25853     25849     25852     26594     24213     26595
 -1      5737    6    0    1
 -2     21208     21200     20827     20859     24646     26304     26596     25920     26533     23460
 -1      5738    6    0    1
 -2     20491     21516     20492     20982     26598     26597     21827     23879     26106     23880
 -1      5739    6    0    1
 -2     20783     21537     21732     21133     25442     26529     26599     25968     26600     25175
 -1      5740    6    0    1
 -2     21539     20774     20819     20776     26292     23335     25494     26460     23200     23336
 -1      5741    6    0    1
 -2     21481     21526     21662     21510     25485     25486     25482     22588     26602     26601
 -1      5742    6    0    1
 -2     21548     21281     20845     21271     25197     26604     26603     26605     24823     25898
 -1      5743    6    0    1
 -2     21715     21092     21526     20720     26595     25655     26606     25852     26594     26607
 -1      5744    6    0    1
 -2     21447     21523     21458     21469     26608     25989     22403     22378     26609     22407
 -1      5745    6    0    1
 -2     21651     20720     21715     21592     25851     25852     25848     26610     26612     26611
 -1      5746    6    0    1
 -2     20827     21200     20801     20859     26304     25362     23358     23460     26533     23461
 -1      5747    6    0    1
 -2     20583     21486     20584     21591     22472     22471     21926     26613     26615     26614
 -1      5748    6    0    1
 -2     21167     21530     21531     21051     25269     25514     25512     24455     26146     25875
 -1      5749    6    0    1
 -2     21196     21540     21166     21123     26617     26616     24550     24551     26618     24451
 -1      5750    6    0    1
 -2     21398     21663     21709     21477     26621     26620     26619     26622     26624     26623
 -1      5751    6    0    1
 -2     21266     21225     21237     20876     24774     24683     24799     25242     25903     25241
 -1      5752    6    0    1
 -2     20688     20725     21108     20777     23027     25987     25988     23202     23201     25996
 -1      5753    6    0    1
 -2     20779     21085     21119     20777     26625     24321     26438     23210     26626     26160
 -1      5754    6    0    1
 -2     21592     20555     20554     21492     26628     21896     26627     26629     22492     22491
 -1      5755    6    0    1
 -2     20907     20876     20891     21544     23660     23565     23646     26630     26632     26631
 -1      5756    6    0    1
 -2     21067     20700     20988     21107     26633     25751     24140     24256     26634     24254
 -1      5757    6    0    1
 -2     21679     20996     21727     20692     26232     26636     26635     26501     26638     26637
 -1      5758    6    0    1
 -2     21259     20892     20919     21299     25650     23662     25886     24885     26640     26639
 -1      5759    6    0    1
 -2     20870     21255     21544     20891     25560     25135     26641     23564     26642     26631
 -1      5760    6    0    1
 -2     21538     21038     21727     20692     26305     25270     26531     26643     26644     26637
 -1      5761    6    0    1
 -2     20431     21565     21375     20430     26645     25846     21986     21760     25847     21985
 -1      5762    6    0    1
 -2     20809     20813     21179     20766     23319     26647     26646     23306     23317     26648
 -1      5763    6    0    1
 -2     20900     20876     20907     21544     23594     23660     23659     26649     26632     26630
 -1      5764    6    0    1
 -2     21520     20736     20670     20714     26352     23088     26650     26351     23087     22996
 -1      5765    6    0    1
 -2     20638     21726     21687     20598     26414     26652     26651     22812     26415     26653
 -1      5766    6    0    1
 -2     21107     21127     21734     21140     24340     26655     26654     24371     24373     26656
 -1      5767    6    0    1
 -2     20741     21150     21132     21048     26444     24400     26442     26657     24399     24349
 -1      5768    6    0    1
 -2     21481     21510     21662     21493     22588     26601     25482     22593     22576     26658
 -1      5769    6    0    1
 -2     21376     21532     21585     21533     26661     26660     26659     26402     26663     26662
 -1      5770    6    0    1
 -2     21147     21540     21166     21181     26664     26616     24498     24513     26665     24514
 -1      5771    6    0    1
 -2     21727     20692     20610     21426     26637     22929     26666     26667     26505     26668
 -1      5772    6    0    1
 -2     21363     21371     21677     21401     22185     26670     26669     22156     22090     26671
 -1      5773    6    0    1
 -2     21213     20765     20836     20845     26673     23383     26672     26674     23409     23411
 -1      5774    6    0    1
 -2     20844     20802     20861     21541     23435     23471     23470     26675     26677     26676
 -1      5775    6    0    1
 -2     20830     21251     21201     21180     26678     24725     25068     25070     24724     24567
 -1      5776    6    0    1
 -2     21251     21544     21201     21233     26375     25072     24725     24734     26679     24675
 -1      5777    6    0    1
 -2     21529     21057     20805     21131     26681     26188     26680     26682     24347     26683
 -1      5778    6    0    1
 -2     20720     21114     21001     21092     26684     24282     25853     26594     24314     24213
 -1      5779    6    0    1
 -2     20594     20633     20712     21531     22838     22986     22988     26685     26686     26099
 -1      5780    6    0    1
 -2     21378     21534     21553     21387     25297     26688     26687     22140     26689     25143
 -1      5781    6    0    1
 -2     21560     21530     21578     21658     26346     26347     26344     26406     26409     26423
 -1      5782    6    0    1
 -2     21201     21544     21226     21233     25072     26690     24668     24675     26679     24676
 -1      5783    6    0    1
 -2     21535     21035     20995     21078     26137     24076     26028     26029     24172     24171
 -1      5784    6    0    1
 -2     21550     21323     21292     21297     25428     24976     26691     25430     24978     24879
 -1      5785    6    0    1
 -2     20775     21198     21149     21126     26692     24558     25397     26693     24557     24397
 -1      5786    6    0    1
 -2     21509     21701     21563     21651     26696     26695     26694     26697     26699     26698
 -1      5787    6    0    1
 -2     21629     21573     20497     20650     25918     25755     25916     26700     26333     22759
 -1      5788    6    0    1
 -2     20818     21198     20865     21231     25432     25641     23482     25433     24670     25640
 -1      5789    6    0    1
 -2     21523     21128     21161     20697     25097     24435     25095     26701     25105     25106
 -1      5790    6    0    1
 -2     20753     21526     20682     20685     26703     26702     23132     23133     26704     22914
 -1      5791    6    0    1
 -2     21706     21491     21483     21612     26706     22608     26705     26707     26709     26708
 -1      5792    6    0    1
 -2     21540     21222     21196     21181     26710     24699     26617     26665     24633     24552
 -1      5793    6    0    1
 -2     21097     21049     21122     21519     24261     24330     24329     26159     26712     26711
 -1      5794    6    0    1
 -2     21158     20749     21080     21117     26713     26233     24423     24424     26714     24317
 -1      5795    6    0    1
 -2     20926     21297     20904     21550     25663     26206     23686     26715     25430     25782
 -1      5796    6    0    1
 -2     21593     21511     21502     21669     26359     22606     26716     25279     25479     26717
 -1      5797    6    0    1
 -2     20646     21563     21737     21701     26720     26719     26718     26721     26695     26722
 -1      5798    6    0    1
 -2     21426     21474     21679     21644     22388     26723     26504     26503     26559     26500
 -1      5799    6    0    1
 -2     21677     21371     20438     21401     26670     21977     26724     26671     22090     22052
 -1      5800    6    0    1
 -2     21677     21371     20439     20438     26670     21978     26725     26724     21977     21768
 -1      5801    6    0    1
 -2     21620     21068     21682     20998     25961     26573     26726     25964     24141     26727
 -1      5802    6    0    1
 -2     20908     20898     21542     21275     23691     26729     26728     26730     25984     26731
 -1      5803    6    0    1
 -2     21618     21521     21379     21529     25206     26732     26032     26031     25411     25266
 -1      5804    6    0    1
 -2     21378     21583     20425     21407     25295     26733     21992     22111     26734     22063
 -1      5805    6    0    1
 -2     21538     20758     20690     20692     26736     23147     26735     26643     23146     22931
 -1      5806    6    0    1
 -2     20851     21238     21255     21211     25533     24741     25559     25140     24687     24742
 -1      5807    6    0    1
 -2     21678     21345     21594     21476     26739     26738     26737     26740     22450     26741
 -1      5808    6    0    1
 -2     21238     21255     21240     20870     24741     24810     24809     25534     25560     26742
 -1      5809    6    0    1
 -2     21370     21569     21603     21364     26388     25192     26385     22182     26744     26743
 -1      5810    6    0    1
 -2     21536     20601     20679     20681     26746     22898     26745     26747     22902     22905
 -1      5811    6    0    1
 -2     20870     20891     21544     20889     23564     26631     26641     23559     23692     26748
 -1      5812    6    0    1
 -2     21109     21087     21714     21004     24267     26750     26749     24266     24194     26751
 -1      5813    6    0    1
 -2     20804     21225     21211     20876     26752     24659     25138     23515     25903     26753
 -1      5814    6    0    1
 -2     20837     21225     20804     20876     25902     26752     23386     23514     25903     23515
 -1      5815    6    0    1
 -2     21568     21475     21368     21515     26756     26755     26754     25818     22567     26757
 -1      5816    6    0    1
 -2     21636     20723     21706     20606     26760     26759     26758     26761     23017     26762
 -1      5817    6    0    1
 -2     20804     21211     21255     20876     25138     24742     26763     23515     26753     26764
 -1      5818    6    0    1
 -2     20955     20942     21300     21321     23794     25623     25159     25161     26765     24972
 -1      5819    6    0    1
 -2     21067     21127     21734     21107     24339     26655     26766     24256     24340     26654
 -1      5820    6    0    1
 -2     21211     21225     21266     20876     24659     24774     24773     26753     25903     25242
 -1      5821    6    0    1
 -2     21582     20520     21428     20519     26256     22251     26220     26767     21860     22252
 -1      5822    6    0    1
 -2     20731     21525     21067     20988     25459     26769     26768     26770     26771     24140
 -1      5823    6    0    1
 -2     21110     21144     21538     21151     24383     25958     26772     24402     24404     25960
 -1      5824    6    0    1
 -2     20923     20914     21547     21317     23676     26004     25182     25180     25618     25183
 -1      5825    6    0    1
 -2     21645     20495     21473     21600     26774     22365     26773     26775     26777     26776
 -1      5826    6    0    1
 -2     21232     21277     20888     21542     24925     26779     26778     26780     26782     26781
 -1      5827    6    0    1
 -2     20687     20723     21083     20751     23018     26784     26783     23127     23126     25628
 -1      5828    6    0    1
 -2     21207     20809     21542     20864     25942     25943     25941     26490     23480     26785
 -1      5829    6    0    1
 -2     21377     21407     20426     21646     22096     22064     21989     25687     25689     25651
 -1      5830    6    0    1
 -2     21234     21277     20886     20895     24843     26787     26786     26577     26578     23629
 -1      5831    6    0    1
 -2     20494     20495     21452     21645     21834     22308     22307     26788     26774     26789
 -1      5832    6    0    1
 -2     21517     21414     20486     21424     25580     22192     25577     26790     22226     22223
 -1      5833    6    0    1
 -2     21631     21516     21090     20734     26107     26109     26108     26319     25378     26791
 -1      5834    6    0    1
 -2     20990     21074     21524     21030     24158     26793     26792     24087     24159     26794
 -1      5835    6    0    1
 -2     20684     20758     21538     20692     23149     26736     26795     23025     23146     26643
 -1      5836    6    0    1
 -2     20545     20600     21693     20544     22649     26564     26584     21886     22650     26796
 -1      5837    6    0    1
 -2     21538     20758     20684     20755     26736     23149     26795     26464     23253     23138
 -1      5838    6    0    1
 -2     20687     21114     20720     20764     26797     26684     23024     23162     26410     23163
 -1      5839    6    0    1
 -2     21542     21221     21193     21277     26799     24630     26798     26782     24838     24812
 -1      5840    6    0    1
 -2     21256     21542     21193     21277     26800     26798     24744     24811     26782     24812
 -1      5841    6    0    1
 -2     20715     20593     21674     21532     22997     26802     26801     26227     25617     26803
 -1      5842    6    0    1
 -2     20879     21283     21733     20862     25361     25954     25680     23525     25360     25572
 -1      5843    6    0    1
 -2     21565     21532     21359     21405     25614     26805     26804     25845     26806     22165
 -1      5844    6    0    1
 -2     20690     20758     21538     20747     23147     26736     26735     23114     23148     26807
 -1      5845    6    0    1
 -2     21448     21518     21575     21457     25574     26809     26808     22413     26525     26810
 -1      5846    6    0    1
 -2     20781     21123     21540     21219     25091     26618     26450     26452     24622     26451
 -1      5847    6    0    1
 -2     21724     21480     20572     21593     26812     22459     26811     26813     26815     26814
 -1      5848    6    0    1
 -2     20761     20810     20808     21215     23308     23310     23304     26816     26817     25187
 -1      5849    6    0    1
 -2     20616     20655     20695     21523     22852     22938     22937     26818     26820     26819
 -1      5850    6    0    1
 -2     21547     20879     21265     21288     25679     26822     26821     25682     25683     24849
 -1      5851    6    0    1
 -2     20593     21565     21674     21532     25616     26823     26802     25617     25614     26803
 -1      5852    6    0    1
 -2     21432     21523     21448     21469     25948     26824     22412     22408     26609     22399
 -1      5853    6    0    1
 -2     20519     21679     21704     21455     26827     26826     26825     22316     26829     26828
 -1      5854    6    0    1
 -2     21273     21310     20875     21299     24930     26831     26830     24884     24931     26832
 -1      5855    6    0    1
 -2     21718     21427     20518     21704     26834     22250     26833     26835     26837     26836
 -1      5856    6    0    1
 -2     21680     21346     21347     21413     26838     21811     25129     26839     22188     22187
 -1      5857    6    0    1
 -2     20776     21106     20770     21121     26840     25303     23254     26841     24325     26053
 -1      5858    6    0    1
 -2     21699     20542     20541     21007     26842     21882     26323     26843     23934     23981
 -1      5859    6    0    1
 -2     21333     20965     21314     20953     26845     26844     25015     26149     23843     26148
 -1      5860    6    0    1
 -2     21299     21322     20955     21300     24973     25160     25601     24888     24974     25159
 -1      5861    6    0    1
 -2     20478     20564     21594     20410     23845     26847     26846     21809     21906     26848
 -1      5862    6    0    1
 -2     21550     21549     21337     21339     25150     25151     25148     25520     25522     25056
 -1      5863    6    0    1
 -2     20510     21729     20619     21634     26850     26849     22690     26851     26853     26852
 -1      5864    6    0    1
 -2     20761     21194     20762     20810     26855     26854     23159     23308     26856     23309
 -1      5865    6    0    1
 -2     21305     20857     21310     20923     26858     26857     24956     25610     23675     25611
 -1      5866    6    0    1
 -2     21542     21734     21127     21140     26859     26655     25704     26860     26656     24373
 -1      5867    6    0    1
 -2     21673     20719     20968     21011     25190     25844     25842     26861     25884     24028
 -1      5868    6    0    1
 -2     21260     21261     20911     20868     24759     26862     26454     26863     26864     23625
 -1      5869    6    0    1
 -2     21279     20901     21301     21261     26866     26865     24919     24815     26867     24894
 -1      5870    6    0    1
 -2     21519     21096     21012     21049     26869     24223     26868     26712     24293     24101
 -1      5871    6    0    1
 -2     21083     21114     20687     20751     24281     26797     26783     25628     26411     23127
 -1      5872    6    0    1
 -2     21538     20788     21535     21151     26466     26871     26870     25960     26873     26872
 -1      5873    6    0    1
 -2     21625     21011     20677     21673     26876     26875     26874     25829     26861     26877
 -1      5874    6    0    1
 -2     20552     21493     21511     21595     22493     22557     22542     26878     26880     26879
 -1      5875    6    0    1
 -2     21124     21226     21201     20835     24647     24668     24566     26881     25518     25073
 -1      5876    6    0    1
 -2     20416     21681     21721     21382     26884     26883     26882     21999     26886     26885
 -1      5877    6    0    1
 -2     20872     21236     21245     21187     26887     24705     26076     25364     24682     24703
 -1      5878    6    0    1
 -2     21238     21219     21527     20851     24688     25542     25540     25533     25531     26888
 -1      5879    6    0    1
 -2     21552     20542     21699     21007     26889     26842     26474     26890     23934     26843
 -1      5880    6    0    1
 -2     20440     21370     21400     21569     21975     22089     22050     26891     26388     26892
 -1      5881    6    0    1
 -2     20416     21382     21721     20417     21999     26885     26882     21746     22000     26893
 -1      5882    6    0    1
 -2     21716     20988     21713     21467     25749     25750     25746     26894     26522     26519
 -1      5883    6    0    1
 -2     20932     20942     20954     21321     23746     23789     23788     25061     26765     25320
 -1      5884    6    0    1
 -2     21571     21626     21403     21530     25880     25881     25499     25497     26895     25500
 -1      5885    6    0    1
 -2     21067     21542     21734     21127     25702     26859     26766     24339     25704     26655
 -1      5886    6    0    1
 -2     20770     21121     21210     20776     26053     24602     26052     23254     26841     26458
 -1      5887    6    0    1
 -2     21596     21647     21431     20525     26898     26897     26896     26899     26900     22258
 -1      5888    6    0    1
 -2     21000     21037     20688     21652     24010     25877     26901     26902     25878     25855
 -1      5889    6    0    1
 -2     20558     21508     21572     21490     22536     26248     26249     22487     22564     25889
 -1      5890    6    0    1
 -2     21534     20782     20668     20709     25282     23219     25204     26903     23218     22978
 -1      5891    6    0    1
 -2     21547     20940     20918     20929     25344     23738     25343     26904     23740     23697
 -1      5892    6    0    1
 -2     21119     20779     21157     21085     26438     25629     24420     24321     26625     24419
 -1      5893    6    0    1
 -2     21273     20825     20892     20875     26515     23567     26514     26830     23513     23650
 -1      5894    6    0    1
 -2     20877     21217     20896     21267     26906     26905     23581     26907     24775     26908
 -1      5895    6    0    1
 -2     20726     21705     21698     21039     25933     25932     25935     26909     26911     26910
 -1      5896    6    0    1
 -2     21560     21530     21392     21361     26346     25498     26285     25386     26348     22103
 -1      5897    6    0    1
 -2     21295     21543     21546     21284     25596     26178     26912     24871     26914     26913
 -1      5898    6    0    1
 -2     21664     21525     21461     21610     26917     26916     26915     26918     26920     26919
 -1      5899    6    0    1
 -2     20658     21525     20731     20988     26921     25459     23049     26922     26771     26770
 -1      5900    6    0    1
 -2     21026     20661     21076     20703     26924     26923     24203     26925     22955     26926
 -1      5901    6    0    1
 -2     20690     21038     21735     21591     26929     26928     26927     26930     26574     26931
 -1      5902    6    0    1
 -2     21287     20873     21270     21305     25982     26932     24842     24910     25178     24911
 -1      5903    6    0    1
 -2     21634     21713     21729     20619     26934     26933     26853     26852     26935     26849
 -1      5904    6    0    1
 -2     20762     21194     20836     20810     26854     26936     23382     23309     26856     23384
 -1      5905    6    0    1
 -2     20699     20766     20754     21525     23170     23172     23136     25460     26938     26937
 -1      5906    6    0    1
 -2     20943     20927     20921     21546     23747     23719     23748     25539     25840     25538
 -1      5907    6    0    1
 -2     21465     21435     21615     21525     22416     26940     26939     26941     26943     26942
 -1      5908    6    0    1
 -2     21543     21546     21550     21332     26178     26945     26944     25634     26946     25429
 -1      5909    6    0    1
 -2     20960     21321     20954     20955     26947     25320     23835     23816     25161     23837
 -1      5910    6    0    1
 -2     21188     21543     20812     20821     26949     26948     26140     26300     26950     23423
 -1      5911    6    0    1
 -2     21572     20559     20558     21490     25892     21900     26249     25889     22488     22487
 -1      5912    6    0    1
 -2     20833     21227     21287     20856     26951     24840     25981     23492     26952     25983
 -1      5913    6    0    1
 -2     20621     20661     21026     20703     22831     26924     26953     22956     22955     26925
 -1      5914    6    0    1
 -2     20619     21729     20510     21716     26849     26850     22690     26954     26956     26955
 -1      5915    6    0    1
 -2     21442     21439     21699     21517     22443     25333     25330     26957     26473     26475
 -1      5916    6    0    1
 -2     20700     21067     21734     21107     26633     26766     26958     26634     24256     26654
 -1      5917    6    0    1
 -2     20767     21518     21136     20760     25699     25700     25697     23176     26960     26959
 -1      5918    6    0    1
 -2     20864     21280     20908     21275     26962     26961     23618     26963     24889     26730
 -1      5919    6    0    1
 -2     20952     20961     21329     20939     23813     26964     25528     23784     23811     25529
 -1      5920    6    0    1
 -2     21105     21022     20979     21537     24243     24039     24244     25589     26966     26965
 -1      5921    6    0    1
 -2     21149     21522     21111     21142     26968     26967     24396     24475     26969     24377
 -1      5922    6    0    1
 -2     21625     20677     21707     21395     26874     26971     26970     25825     26973     26972
 -1      5923    6    0    1
 -2     21270     20857     21310     21305     26974     26857     24932     24911     26858     24956
 -1      5924    6    0    1
 -2     20955     21321     20954     20942     25161     25320     23837     23794     26765     23789
 -1      5925    6    0    1
 -2     21518     21522     21160     21075     25745     26975     25701     25743     25742     24431
 -1      5926    6    0    1
 -2     20761     20808     21173     21215     23304     25357     25354     26816     25187     24611
 -1      5927    6    0    1
 -2     21518     20760     20767     20710     26960     23176     25699     26976     23153     23173
 -1      5928    6    0    1
 -2     20667     20770     21106     21060     23182     25303     26977     26978     25305     24294
 -1      5929    6    0    1
 -2     20873     20857     21270     21305     23508     26974     26932     25178     26858     24911
 -1      5930    6    0    1
 -2     20855     20884     20847     21205     23541     23540     23451     25383     25078     25384
 -1      5931    6    0    1
 -2     21613     21342     21419     21418     26979     22205     25154     26980     22203     22206
 -1      5932    6    0    1
 -2     21076     21093     21026     20703     24295     24216     24203     26926     26098     26925
 -1      5933    6    0    1
 -2     21522     20500     20653     21590     26981     22768     26582     25715     26499     26982
 -1      5934    6    0    1
 -2     21124     20743     20739     21050     26983     23105     26439     24334     25806     26984
 -1      5935    6    0    1
 -2     21478     21514     21496     21528     22582     22560     22583     26985     25810     25234
 -1      5936    6    0    1
 -2     21561     21619     21714     21512     25437     26987     26986     26988     25953     26989
 -1      5937    6    0    1
 -2     21536     20678     21726     20721     25406     25407     25403     26990     23029     26991
 -1      5938    6    0    1
 -2     21042     21527     21086     21084     26992     26010     24190     24186     26365     24193
 -1      5939    6    0    1
 -2     20569     21561     21044     21648     26994     26993     24020     26995     26996     25550
 -1      5940    6    0    1
 -2     20750     20722     21536     21088     23122     26997     25868     25834     26998     25869
 -1      5941    6    0    1
 -2     21716     21713     20619     21729     25746     26935     26954     26956     26933     26849
 -1      5942    6    0    1
 -2     21399     21580     20441     20442     26170     26999     22047     22048     26169     21771
 -1      5943    6    0    1
 -2     20662     21517     20622     20661     27000     26198     22788     22867     27001     22858
 -1      5944    6    0    1
 -2     21726     21010     21603     20678     25836     26268     27002     25407     25837     26267
 -1      5945    6    0    1
 -2     21675     20480     21425     21421     26509     22231     26054     27003     22213     22232
 -1      5946    6    0    1
 -2     21478     21498     21514     21528     22512     22611     22582     26985     27004     25810
 -1      5947    6    0    1
 -2     21633     21577     21559     21023     26183     25113     25374     27005     27007     27006
 -1      5948    6    0    1
 -2     20967     21091     21639     21588     24209     26085     27008     27009     26086     26082
 -1      5949    6    0    1
 -2     20795     21159     20850     20798     27011     27010     23431     23277     25292     23433
 -1      5950    6    0    1
 -2     21649     20464     21391     20463     27012     22025     26554     26493     21794     22026
 -1      5951    6    0    1
 -2     21560     21658     21578     21393     26406     26423     26344     25387     26062     27013
 -1      5952    6    0    1
 -2     21133     21189     20848     21192     24532     25171     25172     24540     24542     27014
 -1      5953    6    0    1
 -2     20620     21730     21650     21676     27016     26215     27015     27017     27019     27018
 -1      5954    6    0    1
 -2     21687     21370     20441     21569     26387     21976     27020     26389     26388     27021
 -1      5955    6    0    1
 -2     21731     21567     20622     20516     26200     26201     26197     26078     25779     22696
 -1      5956    6    0    1
 -2     21530     21658     21013     20675     26409     26089     27022     27023     27025     27024
 -1      5957    6    0    1
 -2     21095     20719     21048     21011     25883     27026     24308     24221     25884     24099
 -1      5958    6    0    1
 -2     20732     20700     20796     21107     23053     23263     23262     27027     26634     27028
 -1      5959    6    0    1
 -2     20717     21519     21097     20743     25252     26159     25807     23103     27029     25808
 -1      5960    6    0    1
 -2     20717     20743     21050     20675     23103     25806     25805     23076     23104     27030
 -1      5961    6    0    1
 -2     20985     21007     21699     20541     23980     26843     26322     23887     23981     26323
 -1      5962    6    0    1
 -2     21361     21393     21578     21373     22083     27013     26345     22152     22151     26126
 -1      5963    6    0    1
 -2     21621     21566     20586     21721     27032     27031     26244     27033     27035     27034
 -1      5964    6    0    1
 -2     21530     20716     20595     20675     26303     23000     27036     27023     23081     22889
 -1      5965    6    0    1
 -2     20886     21277     20888     20895     26787     26779     23555     23629     26578     23630
 -1      5966    6    0    1
 -2     21167     21051     21531     21125     24455     25875     25512     24497     24336     25874
 -1      5967    6    0    1
 -2     21135     21096     21519     21049     24359     26869     27037     24358     24293     26712
 -1      5968    6    0    1
 -2     21658     21530     21578     20675     26409     26347     26423     27025     27023     27038
 -1      5969    6    0    1
 -2     20739     21530     21050     20675     27039     25219     26984     23093     27023     27030
 -1      5970    6    0    1
 -2     20717     20675     21050     21013     23076     27030     25805     26047     27024     24103
 -1      5971    6    0    1
 -2     21207     21214     21542     21165     24760     27040     25941     24585     24608     25703
 -1      5972    6    0    1
 -2     21467     21444     21713     21729     22376     27041     26519     27042     27043     26933
 -1      5973    6    0    1
 -2     20766     21179     21069     20794     26648     24510     27044     23279     27046     27045
 -1      5974    6    0    1
 -2     20830     21544     20867     20835     25071     27047     23488     23421     25074     23487
 -1      5975    6    0    1
 -2     20677     21096     21048     20969     27049     24283     27048     25895     24224     24098
 -1      5976    6    0    1
 -2     21725     21497     21498     21528     27051     22612     27050     27052     27053     27004
 -1      5977    6    0    1
 -2     21725     21528     21498     20566     27052     27004     27050     27054     27055     22504
 -1      5978    6    0    1
 -2     20858     21541     20844     20861     27056     26675     23459     23473     26676     23470
 -1      5979    6    0    1
 -2     20858     21541     20905     21543     27056     26014     23664     27057     26036     26035
 -1      5980    6    0    1
 -2     20846     21140     21734     21542     27059     26656     27058     27060     26860     26859
 -1      5981    6    0    1
 -2     21536     20722     20679     20642     26997     23015     26745     26384     23014     22897
 -1      5982    6    0    1
 -2     21565     21405     21359     21375     25845     22165     26804     25846     22094     22146
 -1      5983    6    0    1
 -2     20767     20760     21136     21182     23176     26959     25697     27061     27062     24516
 -1      5984    6    0    1
 -2     21712     21631     21551     21064     26317     26065     27063     27064     27066     27065
 -1      5985    6    0    1
 -2     21117     20749     21080     20752     26714     26233     24317     27067     23130     26234
 -1      5986    6    0    1
 -2     21439     21699     21552     20542     25333     26474     26472     22273     26842     26889
 -1      5987    6    0    1
 -2     21043     20572     21669     21593     24019     27069     27068     27070     26814     25279
 -1      5988    6    0    1
 -2     21537     20711     21621     21566     25395     27072     27071     27073     27074     27032
 -1      5989    6    0    1
 -2     21163     20747     21068     21538     27076     27075     24441     25660     26807     26306
 -1      5990    6    0    1
 -2     21105     21537     21059     21022     25589     27077     24309     24243     26966     24121
 -1      5991    6    0    1
 -2     20626     21537     20418     21566     25396     27078     22707     27079     27073     25760
 -1      5992    6    0    1
 -2     20431     21404     21375     21565     22057     22108     21986     26645     26340     25846
 -1      5993    6    0    1
 -2     21544     20880     20917     21545     26376     23648     27080     26377     26373     27081
 -1      5994    6    0    1
 -2     21347     21552     21414     20412     25132     25130     22190     21812     27082     22189
 -1      5995    6    0    1
 -2     20944     21545     20917     20928     27083     27081     23750     23751     27084     23695
 -1      5996    6    0    1
 -2     20539     20986     21602     21728     23889     27086     27085     27087     27089     27088
 -1      5997    6    0    1
 -2     20888     21232     21542     20898     26778     26780     26781     23657     25977     26729
 -1      5998    6    0    1
 -2     20880     21544     20917     20867     26376     27080     23648     23528     27047     23647
 -1      5999    6    0    1
 -2     21110     21151     21538     21535     24402     25960     26772     26019     26872     26870
 -1      6000    6    0    1
 -2     21146     21079     21144     21538     24388     24382     24389     25659     26354     25958
 -1      6001    6    0    1
 -2     21093     20986     20621     20702     24215     27091     27090     27092     27093     22953
 -1      6002    6    0    1
 -2     21544     20917     20900     21545     27080     23703     26649     26377     27081     27094
 -1      6003    6    0    1
 -2     20707     21527     21595     20683     27097     27096     27095     22970     26590     27098
 -1      6004    6    0    1
 -2     21521     21154     21056     21156     27100     24410     27099     27101     24416     24415
 -1      6005    6    0    1
 -2     21093     20702     20621     20703     27092     22953     27090     26098     22957     22956
 -1      6006    6    0    1
 -2     21470     21457     21647     21518     22432     26524     27102     25573     26525     25744
 -1      6007    6    0    1
 -2     21520     20975     20671     20591     26266     27104     27103     25546     26070     22881
 -1      6008    6    0    1
 -2     21520     20591     20671     20714     25546     22881     27103     26351     22993     23078
 -1      6009    6    0    1
 -2     21682     20582     20583     21507     27106     21925     27105     27107     22530     22529
 -1      6010    6    0    1
 -2     21509     20556     21701     21651     22538     27108     26696     26697     27109     26699
 -1      6011    6    0    1
 -2     20809     20807     21542     20887     23307     27110     25943     23548     23550     27111
 -1      6012    6    0    1
 -2     21735     21656     21591     21488     27113     27112     26931     27114     27116     27115
 -1      6013    6    0    1
 -2     21679     21582     21428     20519     26219     26220     26217     26827     26767     22252
 -1      6014    6    0    1
 -2     21239     21291     20916     21263     24891     25226     25224     24767     24907     27117
 -1      6015    6    0    1
 -2     21694     21728     21602     20986     27118     27088     25288     27119     27089     27086
 -1      6016    6    0    1
 -2     21567     21413     20479     21720     27120     22215     26360     27121     27123     27122
 -1      6017    6    0    1
 -2     21076     20623     21061     20703     27125     27124     24167     26926     22966     26096
 -1      6018    6    0    1
 -2     21508     21000     21652     21616     27127     26902     27126     27128     27130     27129
 -1      6019    6    0    1
 -2     21627     21698     21562     21506     25937     25931     25936     25899     27131     26379
 -1      6020    6    0    1
 -2     21520     20714     20671     21102     26351     23078     27103     27132     26258     27133
 -1      6021    6    0    1
 -2     20878     21311     21287     21269     26587     24946     27134     26000     24935     24841
 -1      6022    6    0    1
 -2     20607     21572     21490     21627     27136     25889     27135     27137     25890     25888
 -1      6023    6    0    1
 -2     21080     21158     21108     20749     24423     24422     24264     26233     26713     25995
 -1      6024    6    0    1
 -2     21712     21689     21420     21631     26321     26390     27138     26317     26320     27139
 -1      6025    6    0    1
 -2     20667     21060     21106     21023     26978     24294     26977     27140     24123     24245
 -1      6026    6    0    1
 -2     21424     21517     21425     21415     26790     26055     22236     22233     27141     22238
 -1      6027    6    0    1
 -2     20732     21066     21028     21107     27143     24137     27142     27027     24253     24252
 -1      6028    6    0    1
 -2     20902     20835     20867     21544     23598     23487     23614     27144     25074     27047
 -1      6029    6    0    1
 -2     20739     20835     21201     20830     23380     25073     26441     23366     23421     25068
 -1      6030    6    0    1
 -2     20698     20656     21524     20617     22946     27145     25081     22945     22853     27146
 -1      6031    6    0    1
 -2     21610     21642     21467     21716     27149     27148     27147     27150     27151     26894
 -1      6032    6    0    1
 -2     21631     21689     21420     21516     26320     26390     27139     26107     25379     26391
 -1      6033    6    0    1
 -2     21525     21445     21435     21461     27152     22417     26943     26916     22418     22374
 -1      6034    6    0    1
 -2     21459     20531     21524     21434     22327     27154     27153     22384     22264     27155
 -1      6035    6    0    1
 -2     21631     21420     21417     21516     27139     22243     27156     26107     26391     27157
 -1      6036    6    0    1
 -2     21081     21538     21146     21068     26307     25659     24387     24262     26306     24390
 -1      6037    6    0    1
 -2     21631     21712     21551     21416     26317     27063     26065     26063     27158     25094
 -1      6038    6    0    1
 -2     21631     21064     21712     20734     27066     27064     26317     26319     27159     26318
 -1      6039    6    0    1
 -2     21660     20623     21076     21675     27161     27125     27160     27162     27164     27163
 -1      6040    6    0    1
 -2     20704     21061     21551     20623     26095     27166     27165     22960     27124     27167
 -1      6041    6    0    1
 -2     20767     21197     21160     21142     27168     24555     25698     27169     24554     24432
 -1      6042    6    0    1
 -2     21035     21535     21573     21112     26137     26517     27170     24274     26143     25767
 -1      6043    6    0    1
 -2     21038     20692     21538     20690     26644     26643     26305     26929     22931     26735
 -1      6044    6    0    1
 -2     20690     21068     20726     20747     27171     25962     23083     23114     27075     23115
 -1      6045    6    0    1
 -2     21083     21686     21040     21000     27173     27172     24183     24184     27174     24053
 -1      6046    6    0    1
 -2     20701     20733     20620     21730     23057     23056     22951     26222     25673     27016
 -1      6047    6    0    1
 -2     21520     21583     21378     21407     27176     25295     27175     25690     26734     22111
 -1      6048    6    0    1
 -2     20630     21520     21583     20590     26263     27176     27177     22804     27179     27178
 -1      6049    6    0    1
 -2     20734     21064     21551     20704     27159     27065     27180     23069     27181     27165
 -1      6050    6    0    1
 -2     21064     20763     20784     21153     27183     23259     27182     24408     27184     25329
 -1      6051    6    0    1
 -2     21408     21534     21378     21387     25312     25297     22097     22172     26689     22140
 -1      6052    6    0    1
 -2     20833     20790     20792     21224     23375     23248     23373     27185     27187     27186
 -1      6053    6    0    1
 -2     21170     20778     20812     20771     26141     23315     26139     27188     23221     23316
 -1      6054    6    0    1
 -2     20701     21066     20795     21070     27190     27189     23260     27191     24147     27192
 -1      6055    6    0    1
 -2     21273     20853     21270     21202     27194     27193     24798     24796     26489     24787
 -1      6056    6    0    1
 -2     21454     21430     21573     21472     22319     25772     25821     22442     22437     25919
 -1      6057    6    0    1
 -2     21656     21735     20610     21488     27113     27196     27195     27116     27114     27197
 -1      6058    6    0    1
 -2     21547     20940     20929     20934     25344     23740     26904     27198     23782     23775
 -1      6059    6    0    1
 -2     20919     21259     20863     20892     25886     25644     23661     23662     25650     23568
 -1      6060    6    0    1
 -2     21114     21563     20720     21001     27200     27199     26684     24282     27201     25853
 -1      6061    6    0    1
 -2     21006     21089     21009     21528     24198     24201     24202     25243     25111     27202
 -1      6062    6    0    1
 -2     20578     21000     21616     20579     23918     27130     27203     21921     23919     27204
 -1      6063    6    0    1
 -2     21202     20853     20825     21273     26489     23448     25619     24796     27194     26515
 -1      6064    6    0    1
 -2     21202     21273     20825     21204     24796     26515     25619     24576     24797     25620
 -1      6065    6    0    1
 -2     20910     20898     21275     21248     23640     25984     27205     27206     25972     24846
 -1      6066    6    0    1
 -2     21356     21407     21388     21520     22135     22134     22078     26049     25690     26110
 -1      6067    6    0    1
 -2     21021     20979     21614     21537     24071     27208     27207     26184     26965     27209
 -1      6068    6    0    1
 -2     20720     20746     20764     21092     23112     23164     23163     26594     27211     27210
 -1      6069    6    0    1
 -2     20852     20779     21119     20777     23443     26438     25101     23442     23210     26160
 -1      6070    6    0    1
 -2     20816     20898     20848     21189     23586     23588     23426     26513     25973     25171
 -1      6071    6    0    1
 -2     20794     20766     21179     20813     23279     26648     27046     23318     23317     26647
 -1      6072    6    0    1
 -2     20690     21591     21656     21486     26930     27112     27212     25474     26615     27213
 -1      6073    6    0    1
 -2     20661     21076     20662     21517     26923     27214     22867     27001     27215     27000
 -1      6074    6    0    1
 -2     21652     20607     21627     20725     25854     27137     27216     25856     23026     27217
 -1      6075    6    0    1
 -2     21317     21326     21547     21318     24985     26120     25183     24961     24986     25184
 -1      6076    6    0    1
 -2     20682     20720     21592     21526     23009     26612     27218     26702     26607     26024
 -1      6077    6    0    1
 -2     20833     20790     21227     20856     23375     27219     26951     23492     23463     26952
 -1      6078    6    0    1
 -2     21534     20709     20668     20629     26903     22978     25204     27220     22977     22872
 -1      6079    6    0    1
 -2     21547     20914     20929     20913     26004     23737     26904     27221     23765     23696
 -1      6080    6    0    1
 -2     21477     21515     21368     21500     22613     26757     27222     22568     22604     25556
 -1      6081    6    0    1
 -2     21547     20955     21322     21548     27224     25160     27223     25346     27225     25326
 -1      6082    6    0    1
 -2     21396     21603     21726     21639     27227     27002     27226     26328     27229     27228
 -1      6083    6    0    1
 -2     21652     20725     21627     21698     25856     27217     27216     27230     27231     25937
 -1      6084    6    0    1
 -2     20784     21090     21516     20734     25328     26109     27232     23258     26791     25378
 -1      6085    6    0    1
 -2     21299     21300     20955     20919     24888     25159     25601     26639     25885     23791
 -1      6086    6    0    1
 -2     21221     20886     21234     21277     27233     26786     24901     24838     26787     24843
 -1      6087    6    0    1
 -2     21256     21232     21542     21277     24924     26780     26800     24811     24925     26782
 -1      6088    6    0    1
 -2     21542     21277     20888     20886     26782     26779     26781     27234     26787     23555
 -1      6089    6    0    1
 -2     21627     20689     21698     20725     25940     25938     25937     27217     23031     27231
 -1      6090    6    0    1
 -2     21503     21482     21592     21492     22569     26026     26023     22581     22580     26629
 -1      6091    6    0    1
 -2     21145     20838     20824     20751     25424     23389     25423     26412     23388     23349
 -1      6092    6    0    1
 -2     21379     21355     21611     21521     22136     26172     25264     26732     25873     26174
 -1      6093    6    0    1
 -2     21289     20931     21311     20914     27235     26138     24936     26003     23707     25177
 -1      6094    6    0    1
 -2     20666     21529     21557     21057     27237     25274     27236     27238     26681     27239
 -1      6095    6    0    1
 -2     21018     21520     21102     21055     27240     27132     24235     24113     25422     24297
 -1      6096    6    0    1
 -2     21632     21533     21389     20459     27242     26421     27241     27243     27244     22022
 -1      6097    6    0    1
 -2     21137     20837     20824     21199     27245     23464     26417     24560     27246     25417
 -1      6098    6    0    1
 -2     20478     21594     21345     20410     26846     26738     21965     21809     26848     21743
 -1      6099    6    0    1
 -2     21199     21254     20874     20824     24735     27248     27247     25417     25416     23509
 -1      6100    6    0    1
 -2     20764     20824     20751     21145     23350     23349     23165     26413     25423     26412
 -1      6101    6    0    1
 -2     21640     20986     20539     21728     27249     23889     26476     27250     27089     27087
 -1      6102    6    0    1
 -2     21000     21616     20579     21652     27130     27204     23919     26902     27129     27251
 -1      6103    6    0    1
 -2     21223     20824     21199     21145     25415     25417     24638     24635     25423     24561
 -1      6104    6    0    1
 -2     21006     21528     21009     20966     25243     27202     24202     24024     27252     24083
 -1      6105    6    0    1
 -2     21486     20583     21682     21591     22472     27105     27253     26615     26613     26575
 -1      6106    6    0    1
 -2     21535     21645     20684     21452     27255     27254     26396     27256     26789     26236
 -1      6107    6    0    1
 -2     21108     20999     21698     21037     24263     25910     25908     24265     24004     27257
 -1      6108    6    0    1
 -2     20837     21137     20824     20764     27245     26417     23464     23387     26416     23350
 -1      6109    6    0    1
 -2     21323     21332     21550     21340     25011     25429     25428     25047     25050     26210
 -1      6110    6    0    1
 -2     21163     21538     21190     21541     25660     25658     24535     27258     25959     26042
 -1      6111    6    0    1
 -2     20848     21189     21248     21192     25171     24713     25971     27014     24542     24714
 -1      6112    6    0    1
 -2     20841     20799     21178     20854     23398     25666     25668     23462     23450     26479
 -1      6113    6    0    1
 -2     21349     21426     21727     21348     22245     26667     27259     21830     22246     27260
 -1      6114    6    0    1
 -2     21542     20809     20754     20807     25943     23305     26133     27110     23307     23302
 -1      6115    6    0    1
 -2     21177     21191     20803     21169     24539     25461     27261     24505     24536     25323
 -1      6116    6    0    1
 -2     21727     21718     21427     21349     25122     26834     27262     27259     27263     22248
 -1      6117    6    0    1
 -2     21275     20864     21207     21542     26963     26490     24806     26731     26785     25941
 -1      6118    6    0    1
 -2     21518     21136     21229     21161     25700     24655     27264     27265     24436     24656
 -1      6119    6    0    1
 -2     20505     21468     21447     21597     22355     22400     22298     27266     27268     27267
 -1      6120    6    0    1
 -2     21627     21506     21490     21484     25899     22533     25888     27269     22599     22598
 -1      6121    6    0    1
 -2     20693     20765     21518     20760     23167     27271     27270     23152     23168     26960
 -1      6122    6    0    1
 -2     20750     21152     21047     20773     25833     24406     25866     23191     27273     27272
 -1      6123    6    0    1
 -2     21542     21214     21207     21275     27040     24760     25941     26731     24804     24806
 -1      6124    6    0    1
 -2     21034     20993     21596     20524     24049     27275     27274     23998     23902     27276
 -1      6125    6    0    1
 -2     21568     20445     21368     20446     27277     21969     26754     27278     21775     21970
 -1      6126    6    0    1
 -2     21043     21003     21669     20572     24056     27279     27068     24019     23924     27069
 -1      6127    6    0    1
 -2     21518     21046     20992     21075     26152     24094     26151     25743     24257     24163
 -1      6128    6    0    1
 -2     21410     20420     21630     21598     22070     25974     25602     25604     27280     25603
 -1      6129    6    0    1
 -2     21732     21539     21537     20768     26512     25590     26529     26544     27281     25443
 -1      6130    6    0    1
 -2     21670     21057     21557     21529     27283     27239     27282     27284     26681     25274
 -1      6131    6    0    1
 -2     21147     20787     20745     21109     27285     23233     25754     24391     26487     25753
 -1      6132    6    0    1
 -2     20955     21322     21318     21547     25160     24975     25600     27224     27223     25184
 -1      6133    6    0    1
 -2     20743     20835     20831     21143     23379     23381     23369     27286     25517     25530
 -1      6134    6    0    1
 -2     21503     21492     21592     21510     22581     26629     26023     22587     22578     27287
 -1      6135    6    0    1
 -2     21449     21522     21431     21456     25684     27288     22409     22410     26507     22392
 -1      6136    6    0    1
 -2     21563     21114     20720     20687     27200     26684     27199     27289     26797     23024
 -1      6137    6    0    1
 -2     20811     20892     21259     20825     23566     25650     25642     23353     23567     26516
 -1      6138    6    0    1
 -2     21273     20875     20892     21299     26830     23650     26514     24884     26832     26640
 -1      6139    6    0    1
 -2     20437     21372     21685     21599     21980     27291     27290     27292     27293     25250
 -1      6140    6    0    1
 -2     20673     20593     21565     20633     22885     25616     25613     22884     22807     27294
 -1      6141    6    0    1
 -2     20607     21627     21490     21484     27137     25888     27135     27295     27269     22598
 -1      6142    6    0    1
 -2     21093     20703     20621     21026     26098     22956     27090     24216     26925     26953
 -1      6143    6    0    1
 -2     21447     21523     21524     21433     26608     27297     27296     22402     25967     27298
 -1      6144    6    0    1
 -2     20605     21592     21651     20555     27300     26610     27299     22659     26628     27301
 -1      6145    6    0    1
 -2     20796     21140     20795     21066     27303     27302     23265     27304     24372     27189
 -1      6146    6    0    1
 -2     20541     21464     21439     21589     22339     22393     22274     26325     26471     25334
 -1      6147    6    0    1
 -2     21659     21519     21554     21394     27306     26313     27305     27307     26314     25208
 -1      6148    6    0    1
 -2     21564     21628     21376     21533     25912     25913     25911     27308     27309     26402
 -1      6149    6    0    1
 -2     20736     21130     21204     20811     26094     24574     27310     23312     26093     27311
 -1      6150    6    0    1
 -2     20558     21636     21508     20557     26252     26250     22536     21899     27312     22535
 -1      6151    6    0    1
 -2     20577     21563     21715     21504     26157     27314     27313     22521     27316     27315
 -1      6152    6    0    1
 -2     20770     20776     21210     20799     23254     26458     26052     23280     23314     26496
 -1      6153    6    0    1
 -2     21540     21123     21196     21219     26618     24551     26617     26451     24622     24624
 -1      6154    6    0    1
 -2     21532     21162     20829     21148     25509     27318     27317     25510     24449     27319
 -1      6155    6    0    1
 -2     21640     21728     21694     20986     27250     27118     27320     27249     27089     27119
 -1      6156    6    0    1
 -2     21549     21307     21329     20939     26468     24995     26467     27321     27322     25529
 -1      6157    6    0    1
 -2     21642     21445     21525     21461     26483     27152     27323     27324     22418     26916
 -1      6158    6    0    1
 -2     20530     21524     21459     20531     27325     27153     22328     21871     27154     22327
 -1      6159    6    0    1
 -2     20794     20729     20698     21524     23257     23043     23255     27326     27327     25081
 -1      6160    6    0    1
 -2     21564     21533     21376     21406     27308     26402     25911     25586     26403     22095
 -1      6161    6    0    1
 -2     21397     20443     21638     21369     22046     27328     26537     22045     21974     27329
 -1      6162    6    0    1
 -2     20709     21534     20782     20780     26903     25282     23218     23214     26180     23220
 -1      6163    6    0    1
 -2     21202     21172     21204     20780     24569     24573     24576     25621     26181     25622
 -1      6164    6    0    1
 -2     21325     21329     21298     21545     25006     24996     24982     27330     25525     25524
 -1      6165    6    0    1
 -2     21336     20952     20959     20961     27332     23828     27331     27333     23813     23844
 -1      6166    6    0    1
 -2     21053     21162     21532     21100     24437     25509     26033     24303     24438     25508
 -1      6167    6    0    1
 -2     21339     21335     21336     21549     25042     25027     25039     25522     25100     27334
 -1      6168    6    0    1
 -2     21527     20604     20685     20707     27336     22913     27335     27097     22968     22971
 -1      6169    6    0    1
 -2     20666     20628     21529     20708     22868     27337     27237     22974     22973     27338
 -1      6170    6    0    1
 -2     21320     21545     21325     21312     25367     27330     25007     24969     25718     25001
 -1      6171    6    0    1
 -2     21168     21099     21531     21052     24458     25222     25732     24457     24299     25223
 -1      6172    6    0    1
 -2     21550     20958     20936     20947     25831     23804     25783     25784     23803     23763
 -1      6173    6    0    1
 -2     20503     21653     21448     20502     27340     27339     22300     21842     25691     22299
 -1      6174    6    0    1
 -2     21651     20605     20720     21592     27299     23008     25851     26610     27300     26612
 -1      6175    6    0    1
 -2     21550     20963     21314     20965     26308     27341     26355     25830     23834     26844
 -1      6176    6    0    1
 -2     21529     20708     20792     20666     27338     23246     27342     27237     22974     23247
 -1      6177    6    0    1
 -2     21582     21079     21538     21535     26021     26354     27343     26020     26022     26870
 -1      6178    6    0    1
 -2     21645     21600     21473     21535     26775     26776     26773     27255     27345     27344
 -1      6179    6    0    1
 -2     20946     21276     21292     20963     25169     24861     27346     23821     27348     27347
 -1      6180    6    0    1
 -2     21430     21590     21471     21522     25716     26498     22440     25709     25715     26506
 -1      6181    6    0    1
 -2     21292     21276     21314     20963     24861     24944     24943     27347     27348     27341
 -1      6182    6    0    1
 -2     21112     21170     20727     21126     24463     27349     26332     24337     24464     26331
 -1      6183    6    0    1
 -2     21314     21550     21292     20963     26355     26691     24943     27341     26308     27347
 -1      6184    6    0    1
 -2     21548     21271     21306     21316     26605     24914     25695     27350     24952     24955
 -1      6185    6    0    1
 -2     21357     21388     21601     20458     22118     26111     26264     21946     22019     27351
 -1      6186    6    0    1
 -2     21581     20462     21390     21585     26208     22023     27352     27353     27354     26335
 -1      6187    6    0    1
 -2     20893     21263     20864     20813     27356     27355     23571     23569     27357     23481
 -1      6188    6    0    1
 -2     21532     20672     21053     21533     27359     27358     26033     26663     27361     27360
 -1      6189    6    0    1
 -2     21357     20459     20458     21632     21945     21789     21946     26265     27243     27362
 -1      6190    6    0    1
 -2     21292     21550     20926     20963     26691     26715     25391     27347     26308     23822
 -1      6191    6    0    1
 -2     20726     21068     21113     20747     25962     24302     27363     23115     27075     27364
 -1      6192    6    0    1
 -2     21686     21508     21636     21483     27366     26250     27365     27367     22596     27368
 -1      6193    6    0    1
 -2     21376     21533     21585     21358     26402     26662     26659     22176     26401     26334
 -1      6194    6    0    1
 -2     21540     21186     21135     20815     27370     24525     27369     25489     25255     27371
 -1      6195    6    0    1
 -2     21708     21719     20701     21437     27373     26224     27372     27374     27375     25993
 -1      6196    6    0    1
 -2     20701     21466     21708     21437     25990     27376     27372     25993     22422     27374
 -1      6197    6    0    1
 -2     21592     21526     21510     21662     26024     26602     27287     27377     25486     26601
 -1      6198    6    0    1
 -2     21376     21358     21585     21390     22176     26334     26659     22141     22080     26335
 -1      6199    6    0    1
 -2     20733     20986     21027     21063     27378     24042     25674     27379     24130     24129
 -1      6200    6    0    1
 -2     20864     21275     21207     21263     26963     24806     26490     27355     24909     24766
 -1      6201    6    0    1
 -2     21163     21541     20752     20747     27258     27381     27380     27076     27382     23131
 -1      6202    6    0    1
 -2     21538     21541     21163     20747     25959     27258     25660     26807     27382     27076
 -1      6203    6    0    1
 -2     20726     20747     21113     20752     23115     27364     27363     23128     23131     27383
 -1      6204    6    0    1
 -2     21177     21169     20803     20811     24505     25323     27261     25643     27384     23313
 -1      6205    6    0    1
 -2     21113     20747     21163     20752     27364     27076     24440     27383     23131     27380
 -1      6206    6    0    1
 -2     20539     21602     21463     21438     27085     25287     22336     22272     27385     22335
 -1      6207    6    0    1
 -2     21414     21552     21680     21517     25130     25131     25128     25580     25579     27386
 -1      6208    6    0    1
 -2     21727     21349     21427     21426     27259     22248     27262     26667     22245     22249
 -1      6209    6    0    1
 -2     20747     21163     21068     21113     27076     24441     27075     27364     24440     24302
 -1      6210    6    0    1
 -2     21349     21487     21718     20414     22476     27387     27263     21831     22473     25389
 -1      6211    6    0    1
 -2     21732     20768     20816     21539     26544     23327     26511     26512     27281     25493
 -1      6212    6    0    1
 -2     20773     21132     21152     21095     27388     24407     27273     27389     24350     24405
 -1      6213    6    0    1
 -2     20548     21654     21691     21495     27391     25307     27390     22497     25308     25306
 -1      6214    6    0    1
 -2     21584     21642     21445     21525     26482     26483     26480     27392     27323     27152
 -1      6215    6    0    1
 -2     21642     21445     20509     20508     26483     22294     27393     26484     22293     21848
 -1      6216    6    0    1
 -2     21254     21296     21290     20925     24872     24874     24855     27394     27395     26434
 -1      6217    6    0    1
 -2     21511     21593     21661     21717     26359     27397     27396     27398     26592     27399
 -1      6218    6    0    1
 -2     20932     20953     20935     21309     23786     23785     23721     25059     26150     27400
 -1      6219    6    0    1
 -2     20822     21132     20773     20791     27401     27388     23344     23345     27402     23275
 -1      6220    6    0    1
 -2     21676     21463     21437     21719     27404     22425     27403     27405     26275     27375
 -1      6221    6    0    1
 -2     21698     20999     21080     21039     25910     24175     25909     26910     24078     24176
 -1      6222    6    0    1
 -2     21107     21140     20796     21066     24371     27303     27028     24253     24372     27304
 -1      6223    6    0    1
 -2     21582     21535     21538     20684     26020     26870     27343     26228     26396     26795
 -1      6224    6    0    1
 -2     21273     20857     20875     21310     27406     23512     26830     24930     26857     26831
 -1      6225    6    0    1
 -2     21130     21055     21102     21520     24345     24297     24346     25421     25422     27132
 -1      6226    6    0    1
 -2     20690     21486     21489     21736     25474     22610     25473     27407     27409     27408
 -1      6227    6    0    1
 -2     20822     21132     21152     20773     27401     24407     27410     23344     27388     27273
 -1      6228    6    0    1
 -2     20976     21534     21520     21055     27412     25420     27411     24112     25419     25422
 -1      6229    6    0    1
 -2     20737     21143     20743     20831     27413     27286     23106     23368     25530     23369
 -1      6230    6    0    1
 -2     20906     21546     21272     20877     26176     26177     26175     23698     27415     27414
 -1      6231    6    0    1
 -2     21527     21123     20781     21219     25090     25091     25088     25542     24622     26452
 -1      6232    6    0    1
 -2     21601     21357     21377     21388     26264     22127     25734     26111     22118     22128
 -1      6233    6    0    1
 -2     21122     21143     20737     20831     24479     27413     25569     25258     25530     23368
 -1      6234    6    0    1
 -2     21202     20782     20853     20856     27416     23447     26489     27417     23454     23453
 -1      6235    6    0    1
 -2     20618     21525     20731     20658     25458     25459     23050     22828     26921     23049
 -1      6236    6    0    1
 -2     21432     20528     21523     21458     22259     25947     25948     22371     22326     25989
 -1      6237    6    0    1
 -2     21072     21029     21067     21525     24152     24139     24153     27418     27419     26769
 -1      6238    6    0    1
 -2     20869     21186     21540     20815     27420     27370     25125     23495     25255     25489
 -1      6239    6    0    1
 -2     20657     20617     20729     21525     22827     23042     23044     27421     27423     27422
 -1      6240    6    0    1
 -2     21097     20743     21519     21143     25808     27029     26159     24380     27286     27424
 -1      6241    6    0    1
 -2     21534     21520     20736     20670     25420     26352     26404     27425     26650     23088
 -1      6242    6    0    1
 -2     21318     20923     21317     21310     25181     25180     24961     24959     25611     24958
 -1      6243    6    0    1
 -2     21429     21535     21573     21035     26135     26517     27426     26129     26137     27170
 -1      6244    6    0    1
 -2     21505     21616     21686     21508     27429     27428     27427     22595     27128     27366
 -1      6245    6    0    1
 -2     21637     21035     21535     21453     27430     26137     26461     27431     26131     26136
 -1      6246    6    0    1
 -2     21574     21727     21488     20610     27433     27432     25926     27434     26666     27197
 -1      6247    6    0    1
 -2     21604     20651     21679     21644     26541     26542     26539     26561     27435     26500
 -1      6248    6    0    1
 -2     21698     20580     21037     20999     27436     24003     27257     25910     23916     24004
 -1      6249    6    0    1
 -2     20690     21620     21489     21710     27438     27437     25473     25476     27439     25475
 -1      6250    6    0    1
 -2     21571     21531     21635     21360     26343     26145     27440     27441     27442     26161
 -1      6251    6    0    1
 -2     21109     20722     20745     21088     27443     23111     25753     24288     26998     25835
 -1      6252    6    0    1
 -2     21659     21394     21554     21363     27307     25208     27305     27444     22105     27445
 -1      6253    6    0    1
 -2     20753     21526     21527     21176     26703     25487     27446     25293     25300     27447
 -1      6254    6    0    1
 -2     21558     20521     21453     21637     27448     22312     26132     27449     27450     27431
 -1      6255    6    0    1
 -2     20712     20633     20673     21531     22986     22884     22987     26099     26686     27451
 -1      6256    6    0    1
 -2     20748     20839     20830     21180     23391     23394     23367     25137     26400     25070
 -1      6257    6    0    1
 -2     20914     20923     21547     20929     23676     25182     26004     23737     23736     26904
 -1      6258    6    0    1
 -2     21649     21532     21565     21531     27453     25614     27452     26557     27454     26338
 -1      6259    6    0    1
 -2     20914     21547     21733     20913     26004     25678     26580     23765     27221     25570
 -1      6260    6    0    1
 -2     20505     21655     21447     20504     27456     27455     22298     21844     27457     22297
 -1      6261    6    0    1
 -2     20431     21404     21684     20432     22057     27459     27458     21761     22058     27460
 -1      6262    6    0    1
 -2     21273     21299     20892     21259     24884     26640     26514     24817     24885     25650
 -1      6263    6    0    1
 -2     21534     20670     20736     20780     27425     23088     26404     26180     23213     23215
 -1      6264    6    0    1
 -2     21579     21531     21391     21360     26556     26339     26553     26163     27442     22102
 -1      6265    6    0    1
 -2     20742     20757     21532     20715     23145     26034     25800     23102     23142     26227
 -1      6266    6    0    1
 -2     21070     20733     21027     21063     27461     25674     24146     24248     27379     24129
 -1      6267    6    0    1
 -2     21590     21430     21471     21450     25716     22440     26498     27462     22438     22396
 -1      6268    6    0    1
 -2     21470     21518     21522     21556     25573     25745     25260     25263     25067     25262
 -1      6269    6    0    1
 -2     21257     21289     21733     20924     24852     25980     25979     27463     27464     25571
 -1      6270    6    0    1
 -2     21471     20500     21522     21590     22362     26981     26506     26498     26499     25715
 -1      6271    6    0    1
 -2     20940     20955     21547     21548     23793     27224     25344     25347     27225     25346
 -1      6272    6    0    1
 -2     20709     20670     21534     20780     22979     27425     26903     23214     23213     26180
 -1      6273    6    0    1
 -2     21062     21522     20993     21033     27466     27465     24126     24127     27467     24074
 -1      6274    6    0    1
 -2     21303     21241     21251     21545     24900     24726     24898     25717     27468     26374
 -1      6275    6    0    1
 -2     21111     21522     20993     21062     26967     27465     24273     24277     27466     24126
 -1      6276    6    0    1
 -2     21034     21522     21111     21077     27469     26967     24272     24170     25710     24313
 -1      6277    6    0    1
 -2     21674     21376     21405     20429     27470     22109     26237     26239     21988     22059
 -1      6278    6    0    1
 -2     20745     21152     20822     21147     25752     27410     23343     25754     24503     27471
 -1      6279    6    0    1
 -2     21457     21575     21432     20527     26810     25951     22391     22323     27472     22260
 -1      6280    6    0    1
 -2     20951     21330     21304     21324     27474     24998     27473     27475     25000     24980
 -1      6281    6    0    1
 -2     21518     20765     20693     20697     27271     23167     27270     27476     23166     23040
 -1      6282    6    0    1
 -2     21141     21523     21065     21071     25238     25239     24374     24375     25907     24150
 -1      6283    6    0    1
 -2     20736     21534     21172     21130     26404     25789     27477     26094     25418     24496
 -1      6284    6    0    1
 -2     21520     21534     20590     20670     25420     27478     27179     26650     27425     22879
 -1      6285    6    0    1
 -2     20616     21523     21605     20655     26818     27480     27479     22852     26820     27481
 -1      6286    6    0    1
 -2     21094     21529     21611     21521     27483     25265     27482     27484     25411     26174
 -1      6287    6    0    1
 -2     21653     20503     21469     21605     27340     22357     27485     27486     27488     27487
 -1      6288    6    0    1
 -2     21523     20697     21161     21518     26701     25106     25095     27489     27476     27265
 -1      6289    6    0    1
 -2     20797     21527     20781     20832     27490     25088     23271     23371     27491     23372
 -1      6290    6    0    1
 -2     21043     21115     21087     20686     24286     24316     24195     27492     27494     27493
 -1      6291    6    0    1
 -2     21631     21090     20982     21024     26108     24206     26105     27495     24205     23970
 -1      6292    6    0    1
 -2     21713     21729     21444     21634     26933     27043     27041     26934     26853     27496
 -1      6293    6    0    1
 -2     21731     21589     21640     20985     25860     25861     25857     27497     26324     27498
 -1      6294    6    0    1
 -2     21083     21114     20751     21145     24281     26411     25628     24385     24384     26412
 -1      6295    6    0    1
 -2     21694     21438     21640     21711     27499     26449     27320     27500     27501     25858
 -1      6296    6    0    1
 -2     21292     20946     20885     21246     27346     23759     25390     24860     27502     25434
 -1      6297    6    0    1
 -2     21438     21442     21589     21711     22431     25332     26447     27501     26125     25862
 -1      6298    6    0    1
 -2     20800     21540     20822     20791     25194     27503     23412     23282     27504     23345
 -1      6299    6    0    1
 -2     20610     21574     20563     21703     27434     25924     22670     27505     27507     27506
 -1      6300    6    0    1
 -2     20677     21011     21048     20719     26875     24099     27048     23074     25884     27026
 -1      6301    6    0    1
 -2     20882     21241     20839     21208     26350     27508     23534     25921     24693     27509
 -1      6302    6    0    1
 -2     20677     21625     21673     21395     26874     25829     26877     26973     25825     25828
 -1      6303    6    0    1
 -2     21514     21498     21497     21528     22611     22612     22566     25810     27004     27053
 -1      6304    6    0    1
 -2     21095     20719     20968     20678     25883     25844     24222     25457     23065     25456
 -1      6305    6    0    1
 -2     20472     20473     21603     21364     21803     27511     27510     21960     21959     26743
 -1      6306    6    0    1
 -2     21536     21005     21116     21088     25077     24291     25076     25869     24196     24312
 -1      6307    6    0    1
 -2     20642     20722     21648     21536     23014     25229     25213     26384     26997     26383
 -1      6308    6    0    1
 -2     20982     21516     21577     21060     26106     27513     27512     24128     26212     27514
 -1      6309    6    0    1
 -2     21568     20543     21475     21515     25819     22503     26756     25818     22549     22567
 -1      6310    6    0    1
 -2     20437     21599     21685     20596     27292     25250     27290     22638     27516     27515
 -1      6311    6    0    1
 -2     20543     20446     21568     21623     22648     27278     25819     25803     27518     27517
 -1      6312    6    0    1
 -2     20786     21130     20811     21169     26092     26093     23311     25321     24499     27384
 -1      6313    6    0    1
 -2     20847     21162     21138     21205     27519     24439     25339     25384     24578     24577
 -1      6314    6    0    1
 -2     21053     20738     21138     21533     27520     26293     24366     27360     26283     27521
 -1      6315    6    0    1
 -2     21040     21686     20578     21000     27172     27522     24013     24053     27174     23918
 -1      6316    6    0    1
 -2     21210     21209     21539     21121     24674     27523     26459     24602     24591     26420
 -1      6317    6    0    1
 -2     21718     21692     21487     21727     25119     27524     27387     25122     25123     27525
 -1      6318    6    0    1
 -2     20700     20789     21067     20731     23240     27526     26633     23085     23238     26768
 -1      6319    6    0    1
 -2     21631     21024     20982     20491     27495     23970     26105     27527     23969     23879
 -1      6320    6    0    1
 -2     21505     21508     21686     21483     22595     27366     27427     22555     22596     27367
 -1      6321    6    0    1
 -2     20736     21130     21172     21204     26094     24496     27477     27310     24574     24573
 -1      6322    6    0    1
 -2     20494     21474     21604     21452     22368     26562     27528     22307     22383     26540
 -1      6323    6    0    1
 -2     21485     20581     21698     21705     22470     27530     27529     27531     27532     25932
 -1      6324    6    0    1
 -2     21097     21519     21122     21143     26159     26711     24329     24380     27424     24479
 -1      6325    6    0    1
 -2     21213     21128     20762     20765     24603     27534     27533     26673     25107     23169
 -1      6326    6    0    1
 -2     21579     21360     21391     20464     26163     22102     26553     27535     21952     22025
 -1      6327    6    0    1
 -2     21447     21523     21433     21458     26608     25967     22402     22403     25989     22390
 -1      6328    6    0    1
 -2     20695     21523     20655     20697     26819     26820     22938     22944     26701     22942
 -1      6329    6    0    1
 -2     21519     20743     20737     21143     27029     23106     27536     27424     27286     27413
 -1      6330    6    0    1
 -2     21658     21393     20467     20468     26062     22030     27537     27538     22029     21798
 -1      6331    6    0    1
 -2     21607     21057     21104     20669     25635     24285     25162     27539     27541     27540
 -1      6332    6    0    1
 -2     20819     20854     21210     20799     23449     27542     26457     23422     23450     26496
 -1      6333    6    0    1
 -2     21210     20854     21234     21178     27542     27543     24678     24595     26479     24677
 -1      6334    6    0    1
 -2     20761     21194     21215     21141     26855     24612     26816     27544     24546     24610
 -1      6335    6    0    1
 -2     21653     21605     21469     21523     27486     27487     27485     27545     27480     26609
 -1      6336    6    0    1
 -2     21433     21458     21523     20529     22390     25989     25967     22262     22325     25955
 -1      6337    6    0    1
 -2     21224     21131     20792     20823     24640     27546     27186     26040     27547     23347
 -1      6338    6    0    1
 -2     21189     21539     21232     21228     26486     27548     24673     24665     26485     24672
 -1      6339    6    0    1
 -2     21072     21165     21179     21525     24448     24583     24549     27418     27550     27549
 -1      6340    6    0    1
 -2     20848     21192     20910     20840     27014     26298     23623     23427     26297     23622
 -1      6341    6    0    1
 -2     21122     21519     20737     21143     26711     27536     25569     24479     27424     27413
 -1      6342    6    0    1
 -2     20773     21132     21095     20791     27388     24350     27389     23275     27402     27551
 -1      6343    6    0    1
 -2     20711     21537     21621     21059     25395     27071     27072     27552     27077     27553
 -1      6344    6    0    1
 -2     21410     21537     20419     21598     26116     26190     22069     25604     26193     26191
 -1      6345    6    0    1
 -2     20764     21114     20720     21092     26410     26684     23163     27210     24314     26594
 -1      6346    6    0    1
 -2     21521     21156     21227     21154     27101     24649     27554     27100     24416     24650
 -1      6347    6    0    1
 -2     21521     21154     21227     20782     27100     24650     27554     25283     27556     27555
 -1      6348    6    0    1
 -2     20720     21526     20682     20746     26607     26702     23009     23112     27557     23113
 -1      6349    6    0    1
 -2     20494     21604     20651     21645     27528     26541     22762     26788     27559     27558
 -1      6350    6    0    1
 -2     20652     20691     21535     20724     22928     27561     27560     23022     23034     26398
 -1      6351    6    0    1
 -2     21149     21195     20759     21142     24547     27562     25399     24475     24548     27563
 -1      6352    6    0    1
 -2     21616     21686     21508     21000     27428     27366     27128     27130     27174     27127
 -1      6353    6    0    1
 -2     20783     21133     21732     20848     25968     25175     26599     23424     25172     25174
 -1      6354    6    0    1
 -2     20741     21048     21132     20791     26657     24349     26442     23274     27564     27402
 -1      6355    6    0    1
 -2     21659     21599     21372     20437     27566     27293     27565     27567     27292     21980
 -1      6356    6    0    1
 -2     21519     20815     20737     20744     27568     23324     27536     27569     23323     23212
 -1      6357    6    0    1
 -2     21207     20809     21179     21165     25942     26646     24584     24585     25944     24583
 -1      6358    6    0    1
 -2     21048     20719     21095     20791     27026     25883     24308     27564     23244     27551
 -1      6359    6    0    1
 -2     21516     21090     21120     21060     26109     24357     27570     26212     24247     24323
 -1      6360    6    0    1
 -2     20422     21557     21409     20421     25273     27571     22068     21751     27572     22067
 -1      6361    6    0    1
 -2     21660     20488     20489     21422     27574     21824     27573     26369     22216     22218
 -1      6362    6    0    1
 -2     21150     21181     21540     21132     24593     26665     26445     24400     24582     26443
 -1      6363    6    0    1
 -2     21633     21559     20448     21023     25374     25375     25372     27005     27006     23967
 -1      6364    6    0    1
 -2     20578     21483     21706     20577     22465     26705     27575     21920     22466     26158
 -1      6365    6    0    1
 -2     21538     20758     20755     20802     26736     23253     26464     27576     23286     23288
 -1      6366    6    0    1
 -2     21213     21128     20765     21161     24603     25107     26673     24605     24435     25108
 -1      6367    6    0    1
 -2     21523     21524     20730     20616     27297     25083     27577     26818     27578     23046
 -1      6368    6    0    1
 -2     20840     21184     21139     21192     27579     24519     25469     26297     24613     24541
 -1      6369    6    0    1
 -2     21521     20782     21227     20790     25283     27555     27554     25413     23243     27219
 -1      6370    6    0    1
 -2     21213     20765     21229     21161     26673     27580     24751     24605     25108     24656
 -1      6371    6    0    1
 -2     21356     20456     21553     20457     21944     25144     25142     21943     21787     26048
 -1      6372    6    0    1
 -2     21533     20713     20671     20631     27582     22991     27581     27583     22990     22880
 -1      6373    6    0    1
 -2     20767     21182     21136     21160     27061     24516     25697     25698     24515     24467
 -1      6374    6    0    1
 -2     21521     20790     21227     21156     25413     27219     27554     27101     27584     24649
 -1      6375    6    0    1
 -2     21520     21601     20457     21018     26112     26113     26051     27240     27585     23956
 -1      6376    6    0    1
 -2     21038     21727     20997     21081     25270     25124     24011     24180     26532     24177
 -1      6377    6    0    1
 -2     21532     21405     21674     21376     26806     26237     26803     26661     22109     27470
 -1      6378    6    0    1
 -2     21591     21488     21656     21486     27115     27116     27112     26615     22603     27213
 -1      6379    6    0    1
 -2     21232     21275     21542     20898     24845     26731     26780     25977     25984     26729
 -1      6380    6    0    1
 -2     20766     20794     21069     20729     23279     27045     27044     23171     23257     27586
 -1      6381    6    0    1
 -2     21550     21543     20904     20909     26944     26205     25782     27587     25770     23621
 -1      6382    6    0    1
 -2     20924     20931     20933     21294     23774     23713     23753     27588     27589     25824
 -1      6383    6    0    1
 -2     21206     21179     20794     21175     24581     27046     27590     24580     24509     27591
 -1      6384    6    0    1
 -2     20744     21540     21150     21135     25488     26445     27592     27593     27369     24401
 -1      6385    6    0    1
 -2     20794     21524     20698     20756     27326     25081     23255     23256     25082     23140
 -1      6386    6    0    1
 -2     21333     20957     20965     20953     27594     23840     26845     26149     23800     23843
 -1      6387    6    0    1
 -2     21179     21206     20794     20813     24581     27590     27046     26647     27595     23318
 -1      6388    6    0    1
 -2     21399     21370     20441     21687     22123     21976     22047     27596     26387     27020
 -1      6389    6    0    1
 -2     21268     20901     21279     21261     27597     26866     24816     24791     26867     24815
 -1      6390    6    0    1
 -2     21547     21548     21334     21293     25346     27598     26119     26121     27599     25016
 -1      6391    6    0    1
 -2     20804     20876     21255     20891     23515     26764     26763     23562     23565     26642
 -1      6392    6    0    1
 -2     21525     20766     20754     21165     26938     23172     26937     27550     27600     26134
 -1      6393    6    0    1
 -2     21539     21134     21105     21118     25591     24353     25588     26508     24355     24320
 -1      6394    6    0    1
 -2     21292     21276     20946     21246     24861     25169     27346     24860     24807     27502
 -1      6395    6    0    1
 -2     21282     21274     21278     21544     24927     24875     24826     25409     27601     25134
 -1      6396    6    0    1
 -2     20616     20656     21597     21524     22826     27603     27602     27578     27145     27604
 -1      6397    6    0    1
 -2     21244     21543     21188     21250     25839     26949     24701     24723     25401     24720
 -1      6398    6    0    1
 -2     21300     20942     21301     21321     25623     25625     24895     24972     26765     24970
 -1      6399    6    0    1
 -2     20952     20961     21336     21329     23813     27333     27332     25528     26964     25025
 -1      6400    6    0    1
 -2     20869     20815     20889     21186     23495     23557     23556     27420     25255     26548
 -1      6401    6    0    1
 -2     20809     21165     20754     20766     25944     26134     23305     23306     27600     23172
 -1      6402    6    0    1
 -2     21251     21274     21303     21545     24802     24899     24898     26374     25719     25717
 -1      6403    6    0    1
 -2     20706     20664     20624     21516     22964     22833     22965     25230     25231     25381
 -1      6404    6    0    1
 -2     21539     21189     21232     20816     26486     24673     27548     25493     26513     27605
 -1      6405    6    0    1
 -2     21378     21387     21553     21356     22140     25143     26687     22139     22119     25142
 -1      6406    6    0    1
 -2     21283     21215     20808     20810     24828     25187     25185     25359     26817     23310
 -1      6407    6    0    1
 -2     21524     20730     20616     20656     25083     23046     27578     27145     23045     22826
 -1      6408    6    0    1
 -2     21733     21288     21547     21289     25681     25682     25678     25980     24853     26002
 -1      6409    6    0    1
 -2     20918     20879     21547     20913     23653     25679     25343     23655     23634     27221
 -1      6410    6    0    1
 -2     21130     21177     20811     21169     24504     25643     26093     24499     24505     27384
 -1      6411    6    0    1
 -2     21061     20623     20704     20703     27124     22960     26095     26096     22966     22989
 -1      6412    6    0    1
 -2     20698     20617     21524     20729     22945     27146     25081     23043     23042     27327
 -1      6413    6    0    1
 -2     21067     21525     20754     21165     26769     26937     27606     24446     27550     26134
 -1      6414    6    0    1
 -2     21579     20464     21391     21649     27535     22025     26553     26555     27012     26554
 -1      6415    6    0    1
 -2     20910     21248     21275     21280     27206     24846     27205     27607     24818     24889
 -1      6416    6    0    1
 -2     20682     21526     21592     20645     26702     26024     27218     22907     27609     27608
 -1      6417    6    0    1
 -2     21249     21544     21278     21233     25133     25134     24912     24719     26679     24876
 -1      6418    6    0    1
 -2     21530     21098     21051     21167     25220     24300     26146     25269     24456     24455
 -1      6419    6    0    1
 -2     20698     20730     21524     20656     23084     25083     25081     22946     23045     27145
 -1      6420    6    0    1
 -2     21698     21652     20725     21037     27230     25856     27231     27257     25878     25876
 -1      6421    6    0    1
 -2     21145     20824     21199     21137     25423     25417     24561     24386     26417     24560
 -1      6422    6    0    1
 -2     21503     20574     21671     21606     22520     27611     27610     27612     27614     27613
 -1      6423    6    0    1
 -2     21307     20939     21549     20941     27322     27321     26468     27615     23743     25506
 -1      6424    6    0    1
 -2     21168     21200     20827     21208     24563     26304     25245     24590     24646     26596
 -1      6425    6    0    1
 -2     20907     21544     20902     20867     26630     27144     23615     23616     27047     23614
 -1      6426    6    0    1
 -2     20869     20870     21219     21262     23498     25532     27616     27617     27618     24763
 -1      6427    6    0    1
 -2     21171     21176     20804     21211     24501     25139     25299     24599     24598     25138
 -1      6428    6    0    1
 -2     20778     21198     20775     21126     27619     26692     23206     27620     24557     26693
 -1      6429    6    0    1
 -2     21542     20886     21221     21277     27234     27233     26799     26782     26787     24838
 -1      6430    6    0    1
 -2     21545     21241     21252     21298     27468     24729     27621     25524     24882     24881
 -1      6431    6    0    1
 -2     20690     21538     21068     20747     26735     26306     27171     23114     26807     27075
 -1      6432    6    0    1
 -2     21521     21534     21103     21154     25207     25788     26240     27100     27622     24411
 -1      6433    6    0    1
 -2     20829     21187     20801     21148     27623     25365     23365     27319     24528     27624
 -1      6434    6    0    1
 -2     21304     21330     20943     21302     24998     27626     27625     24904     24999     25536
 -1      6435    6    0    1
 -2     21289     21305     21317     20914     24988     24957     24963     26003     25179     25618
 -1      6436    6    0    1
 -2     20684     21679     20692     20996     26231     26501     23025     26230     26232     26638
 -1      6437    6    0    1
 -2     20551     21494     20550     21661     22496     22495     21892     27627     27629     27628
 -1      6438    6    0    1
 -2     21299     20919     20955     20934     26639     23791     25601     27630     23718     23792
 -1      6439    6    0    1
 -2     21700     20591     20631     21533     25545     22805     25790     26068     26069     27583
 -1      6440    6    0    1
 -2     20630     20590     21583     20425     22804     27178     27177     22716     22626     26733
 -1      6441    6    0    1
 -2     20668     21618     21529     21521     25202     26031     25414     25205     25206     25411
 -1      6442    6    0    1
 -2     21529     20628     20589     20708     27337     22797     27631     27338     22973     22972
 -1      6443    6    0    1
 -2     21265     20879     20836     20810     26822     23524     27632     27633     23523     23384
 -1      6444    6    0    1
 -2     20924     21257     21289     21294     27463     24852     27464     27588     24866     24868
 -1      6445    6    0    1
 -2     20833     20790     21224     21227     23375     27187     27185     26951     27219     24652
 -1      6446    6    0    1
 -2     21227     20790     21224     21156     27219     27187     24652     24649     27584     24641
 -1      6447    6    0    1
 -2     21073     21065     21128     21523     24251     24342     24341     25096     25239     25097
 -1      6448    6    0    1
 -2     21511     21717     21661     20551     27398     27399     27396     22541     27634     27627
 -1      6449    6    0    1
 -2     20836     21194     20762     21213     26936     26854     23382     26672     24604     27533
 -1      6450    6    0    1
 -2     21182     20760     20849     20767     27062     23428     27635     27061     23176     23429
 -1      6451    6    0    1
 -2     21518     21161     21229     20765     27265     24656     27264     27271     25108     27580
 -1      6452    6    0    1
 -2     20804     20891     21255     20851     23562     26642     26763     23440     23563     25559
 -1      6453    6    0    1
 -2     20869     21262     21219     21540     27617     24763     27616     25125     27636     26451
 -1      6454    6    0    1
 -2     21521     20977     21094     21056     27637     24218     27484     27099     24114     24219
 -1      6455    6    0    1
 -2     21527     21176     20851     20753     27447     25141     26888     27446     25293     23437
 -1      6456    6    0    1
 -2     21281     21213     20836     20845     24821     26672     27638     26604     26674     23411
 -1      6457    6    0    1
 -2     21092     20746     21171     21526     27211     27639     24469     25655     27557     25302
 -1      6458    6    0    1
 -2     21279     21315     21549     21285     24948     27641     27640     24833     24949     27642
 -1      6459    6    0    1
 -2     20781     21540     20860     20832     26450     25126     23467     23372     25127     23469
 -1      6460    6    0    1
 -2     20801     21187     21200     21148     25365     24564     25362     27624     24528     24562
 -1      6461    6    0    1
 -2     21361     21373     21578     21403     22152     26126     26345     22150     22092     27643
 -1      6462    6    0    1
 -2     20884     21236     20872     21187     25080     26887     23542     26077     24682     25364
 -1      6463    6    0    1
 -2     20830     21544     21251     20880     25071     26375     26678     23526     26376     26372
 -1      6464    6    0    1
 -2     20944     20925     20900     21545     23752     23683     23749     27083     27644     27094
 -1      6465    6    0    1
 -2     21545     20952     21324     21329     25526     27645     25727     25525     25528     25013
 -1      6466    6    0    1
 -2     20954     21327     21309     21321     27646     25020     25319     25320     25019     24971
 -1      6467    6    0    1
 -2     21124     21201     20739     20835     24566     26441     26439     26881     25073     23380
 -1      6468    6    0    1
 -2     21550     20950     20936     20958     25521     23778     25783     25831     23808     23804
 -1      6469    6    0    1
 -2     20870     20889     21544     21240     23559     26748     26641     26742     26549     27647
 -1      6470    6    0    1
 -2     20845     20760     21182     21229     23410     27062     27648     27649     27650     24657
 -1      6471    6    0    1
 -2     20919     21299     20892     20934     26639     26640     23662     23718     27630     23715
 -1      6472    6    0    1
 -2     20937     21264     21304     21302     27651     24903     25649     25900     24896     24904
 -1      6473    6    0    1
 -2     20875     20923     21310     20857     23677     25611     26831     23512     23675     26857
 -1      6474    6    0    1
 -2     20955     21547     21318     20934     27224     25184     25600     23792     27198     27652
 -1      6475    6    0    1
 -2     21299     21310     20875     20923     24931     26831     26832     27653     25611     23677
 -1      6476    6    0    1
 -2     20916     21291     20933     20931     25226     25227     23710     23706     26588     23713
 -1      6477    6    0    1
 -2     21299     20934     21318     20923     27630     27652     24960     27653     23717     25181
 -1      6478    6    0    1
 -2     21276     21242     20946     21246     24808     25167     25169     24807     24739     27502
 -1      6479    6    0    1
 -2     21257     20862     20808     20881     27654     23474     25186     27655     23530     23529
 -1      6480    6    0    1
 -2     20960     20945     21548     20922     23815     25694     27656     23810     23757     27657
 -1      6481    6    0    1
 -2     21543     21151     21170     20771     25633     24481     25631     27658     27659     27188
 -1      6482    6    0    1
 -2     20829     20884     20872     21187     23539     23542     23504     27623     26077     25364
 -1      6483    6    0    1
 -2     21158     21217     21119     20820     24617     24616     24425     25945     25104     25102
 -1      6484    6    0    1
 -2     20849     21271     21182     21242     25897     24788     27635     27660     24790     24696
 -1      6485    6    0    1
 -2     21688     20547     21496     21513     25581     22500     25576     25466     22545     22565
 -1      6486    6    0    1
 -2     21607     20669     21104     21410     27539     27540     25162     25164     25605     25163
 -1      6487    6    0    1
 -2     21677     21707     20439     21371     27662     27661     26725     26670     27663     21978
 -1      6488    6    0    1
 -2     21240     20870     21262     21238     26742     27618     24801     24809     25534     24908
 -1      6489    6    0    1
 -2     21668     20452     20978     21607     27665     23870     27664     27666     27667     25165
 -1      6490    6    0    1
 -2     20891     20902     20907     21544     23645     23615     23646     26631     27144     26630
 -1      6491    6    0    1
 -2     20548     21513     20547     21688     22546     22545     21889     25612     25466     25581
 -1      6492    6    0    1
 -2     20786     20671     21102     21054     23230     27133     26259     27668     27669     24250
 -1      6493    6    0    1
 -2     20460     21533     21358     21585     27670     26401     21948     26349     26662     26334
 -1      6494    6    0    1
 -2     21226     21544     21201     20835     26690     25072     24668     25518     25074     25073
 -1      6495    6    0    1
 -2     20682     20645     20685     21526     22907     22912     22914     26702     27609     26704
 -1      6496    6    0    1
 -2     21183     21249     21226     21544     24717     24716     24664     27671     25133     26690
 -1      6497    6    0    1
 -2     21175     21220     20756     20817     24626     26278     26276     27672     25147     23330
 -1      6498    6    0    1
 -2     21005     21045     21609     21536     24058     27674     27673     25077     25075     27675
 -1      6499    6    0    1
 -2     21708     21437     20537     21719     27374     22270     27676     27373     27375     27677
 -1      6500    6    0    1
 -2     21548     21293     21281     21316     27599     24865     25197     27350     24954     24953
 -1      6501    6    0    1
 -2     21555     21536     21648     21609     26382     26383     26381     27678     27675     27679
 -1      6502    6    0    1
 -2     21281     21271     21548     21316     24823     26605     25197     24953     24952     27350
 -1      6503    6    0    1
 -2     20783     20848     21732     20768     23424     25174     26599     23223     23425     26544
 -1      6504    6    0    1
 -2     21473     20496     21622     21600     22366     26432     27680     26776     26433     26430
 -1      6505    6    0    1
 -2     20578     21686     21616     21000     27522     27428     27203     23918     27174     27130
 -1      6506    6    0    1
 -2     21451     21573     20497     21472     25756     25755     22306     22395     25919     22363
 -1      6507    6    0    1
 -2     21339     21546     20959     21330     26329     27682     27681     25040     27684     27683
 -1      6508    6    0    1
 -2     21279     21285     21549     20915     24833     27642     27640     27685     27687     27686
 -1      6509    6    0    1
 -2     21295     21284     21546     21319     24871     26913     26912     24965     24964     25454
 -1      6510    6    0    1
 -2     21592     21662     21510     20554     27377     26601     27287     26627     27688     22540
 -1      6511    6    0    1
 -2     21503     21526     21481     21510     26025     25485     22553     22587     26602     22588
 -1      6512    6    0    1
 -2     20903     21264     21212     21258     27689     24768     25492     25491     24770     24749
 -1      6513    6    0    1
 -2     20685     21526     21662     21527     26704     25486     27690     27335     25487     25483
 -1      6514    6    0    1
 -2     21339     21340     21550     21341     25058     26210     25520     25054     25057     26211
 -1      6515    6    0    1
 -2     21052     20973     21649     21532     24106     26492     27691     27692     26122     27453
 -1      6516    6    0    1
 -2     21313     21335     21337     21549     25022     25033     25032     25099     25100     25151
 -1      6517    6    0    1
 -2     20818     21198     20821     20865     25432     27693     23342     23482     25641     23483
 -1      6518    6    0    1
 -2     21337     21335     21339     21549     25033     25042     25056     25151     25100     25522
 -1      6519    6    0    1
 -2     21550     21340     21337     21333     26210     25049     25148     25149     25048     25034
 -1      6520    6    0    1
 -2     21727     21488     21348     21574     27432     22479     27260     27433     25926     25925
 -1      6521    6    0    1
 -2     20865     21198     20821     21543     25641     27693     23483     25639     25402     26950
 -1      6522    6    0    1
 -2     21265     21293     21547     21288     24863     26121     26821     24849     24864     25682
 -1      6523    6    0    1
 -2     21257     20881     20808     21220     27655     23529     25186     24745     25905     27694
 -1      6524    6    0    1
 -2     21547     20929     20918     20913     26904     23697     25343     27221     23696     23655
 -1      6525    6    0    1
 -2     20905     21541     20842     20843     26014     27695     23606     23607     26017     23406
 -1      6526    6    0    1
 -2     20879     20862     21733     20913     23525     25572     25680     23634     23633     25570
 -1      6527    6    0    1
 -2     21069     20989     21072     21525     24144     24151     24154     27696     27697     27418
 -1      6528    6    0    1
 -2     21657     20659     20619     21634     27699     22829     27698     27700     27701     26852
 -1      6529    6    0    1
 -2     20914     20913     21733     20924     23765     25570     26580     23766     23680     25571
 -1      6530    6    0    1
 -2     20941     20961     20939     21549     23812     23811     23743     25506     25817     27321
 -1      6531    6    0    1
 -2     21292     20963     20926     20946     27347     23822     25391     27346     23821     23760
 -1      6532    6    0    1
 -2     20833     21269     20823     20878     27702     25998     23374     23519     26000     23520
 -1      6533    6    0    1
 -2     21329     20961     21336     21549     26964     27333     25025     26467     25817     27334
 -1      6534    6    0    1
 -2     21117     21216     21158     20843     24615     24614     24424     27703     26016     27704
 -1      6535    6    0    1
 -2     21039     20999     20581     21698     24078     23917     24008     26910     25910     27530
 -1      6536    6    0    1
 -2     20962     20961     20941     21549     23820     23812     23817     25352     25817     25506
 -1      6537    6    0    1
 -2     21133     21104     20783     21537     24352     27705     25968     26600     26186     25442
 -1      6538    6    0    1
 -2     21546     21341     21550     21332     25453     26211     26945     26946     25053     25429
 -1      6539    6    0    1
 -2     21168     21531     21532     21052     25732     27454     25801     24457     25223     27692
 -1      6540    6    0    1
 -2     21518     20710     20767     21522     26976     23173     25699     25745     27707     27706
 -1      6541    6    0    1
 -2     20952     21329     21336     21324     25528     25025     27332     27645     25013     25026
 -1      6542    6    0    1
 -2     20767     20710     20728     21522     23173     23059     23174     27706     27707     26581
 -1      6543    6    0    1
 -2     21075     21522     21160     21062     25742     26975     24431     24164     27466     24430
 -1      6544    6    0    1
 -2     21539     21537     20768     20705     25590     25443     27281     26290     25394     23178
 -1      6545    6    0    1
 -2     20935     21315     20957     21549     27709     27708     23799     27710     27641     27711
 -1      6546    6    0    1
 -2     21518     21522     20767     21160     25745     27706     25699     25701     26975     25698
 -1      6547    6    0    1
 -2     21171     21211     20804     21225     24599     25138     25299     24645     24659     26752
 -1      6548    6    0    1
 -2     20743     21143     21124     20835     27286     24381     26983     23379     25517     26881
 -1      6549    6    0    1
 -2     20484     21587     21689     20624     26395     26393     26394     22702     27712     25380
 -1      6550    6    0    1
 -2     21532     21148     20829     20742     25510     27319     27317     25800     25799     23363
 -1      6551    6    0    1
 -2     21058     21104     21133     21537     24310     24352     24351     26185     26186     26600
 -1      6552    6    0    1
 -2     21058     21537     21105     20979     26185     25589     24307     24118     26965     24244
 -1      6553    6    0    1
 -2     20590     21534     20709     20670     27478     26903     22976     22879     27425     22979
 -1      6554    6    0    1
 -2     21731     21517     21567     21442     26199     26202     26200     26124     26957     27713
 -1      6555    6    0    1
 -2     21535     20788     20691     20771     26871     23237     27561     27714     23267     23185
 -1      6556    6    0    1
 -2     21425     20479     21643     21413     22230     26362     26058     22234     22215     27715
 -1      6557    6    0    1
 -2     21535     20788     20771     21151     26871     23267     27714     26872     26873     27659
 -1      6558    6    0    1
 -2     20419     21381     20418     21537     21998     21997     21748     26190     27716     27078
 -1      6559    6    0    1
 -2     21608     21415     21421     21517     27717     22242     26370     27718     27141     27719
 -1      6560    6    0    1
 -2     21632     20459     21389     21357     27243     22022     27241     26265     21945     22079
 -1      6561    6    0    1
 -2     21545     21252     20859     21307     27621     25923     27720     25523     24917     27721
 -1      6562    6    0    1
 -2     21263     21206     21207     20813     24765     24586     24766     27357     27595     26491
 -1      6563    6    0    1
 -2     20521     21558     21429     20522     27448     25370     22254     21862     25371     22253
 -1      6564    6    0    1
 -2     21488     21727     21348     21487     27432     27260     22479     22480     27525     22477
 -1      6565    6    0    1
 -2     21632     21357     21389     21377     26265     22079     27241     25738     22127     22138
 -1      6566    6    0    1
 -2     21546     21302     20943     21330     25537     25536     25539     27684     24999     27626
 -1      6567    6    0    1
 -2     21422     21421     21608     21415     22239     26370     26367     22217     22242     27717
 -1      6568    6    0    1
 -2     21439     21517     21567     21680     26473     26202     27722     27723     27386     27724
 -1      6569    6    0    1
 -2     20530     21433     21459     21524     22261     22372     22328     27325     27298     27153
 -1      6570    6    0    1
 -2     21339     21330     20959     21336     25040     27683     27681     25039     25028     27331
 -1      6571    6    0    1
 -2     21289     20931     20924     21294     27235     23774     27464     24868     27589     27588
 -1      6572    6    0    1
 -2     21377     21520     21700     20975     25688     25548     27725     25735     26266     26071
 -1      6573    6    0    1
 -2     20676     21519     20718     20636     25654     27726     23075     22890     27727     23005
 -1      6574    6    0    1
 -2     21179     21165     20809     20766     24583     25944     26646     26648     27600     23306
 -1      6575    6    0    1
 -2     21349     21727     21718     21487     27259     25122     27263     22476     27525     27387
 -1      6576    6    0    1
 -2     20943     21330     20959     21546     27626     27683     23807     25539     27684     27682
 -1      6577    6    0    1
 -2     21533     21054     21017     20975     25561     24111     27728     26072     24110     24067
 -1      6578    6    0    1
 -2     21635     21392     20465     20466     26288     22028     26164     26289     22027     21796
 -1      6579    6    0    1
 -2     21542     20886     20888     20846     27234     23555     26781     27060     23547     23552
 -1      6580    6    0    1
 -2     21580     20721     20599     21638     27730     23011     27729     27731     27733     27732
 -1      6581    6    0    1
 -2     21631     21423     21420     21416     26366     22241     27139     26063     22220     22240
 -1      6582    6    0    1
 -2     20736     21204     21172     20780     27310     24573     27477     23215     25622     26181
 -1      6583    6    0    1
 -2     21349     21727     21487     21348     27259     27525     22476     21830     27260     22477
 -1      6584    6    0    1
 -2     21295     21319     21546     21332     24965     25454     26912     25009     25012     26946
 -1      6585    6    0    1
 -2     21270     20856     20853     20857     27734     23453     27193     26974     23457     23456
 -1      6586    6    0    1
 -2     21273     20857     20853     20875     27406     23456     27194     26830     23512     23511
 -1      6587    6    0    1
 -2     21093     21026     20621     20986     24216     26953     27090     24215     23982     27091
 -1      6588    6    0    1
 -2     21273     20857     21270     20853     27406     26974     24798     27194     23456     27193
 -1      6589    6    0    1
 -2     21726     21687     20598     21603     26652     26653     26415     27002     26386     27735
 -1      6590    6    0    1
 -2     21295     21332     21546     21543     25009     26946     26912     25596     25634     26178
 -1      6591    6    0    1
 -2     20691     21535     21622     20652     27561     27737     27736     22928     27560     26429
 -1      6592    6    0    1
 -2     21473     21600     21622     21535     26776     26430     27680     27344     27345     27737
 -1      6593    6    0    1
 -2     21580     21369     21399     21396     26171     22088     26170     27738     22144     22143
 -1      6594    6    0    1
 -2     21603     21396     21726     21399     27227     27226     27002     27739     22143     27740
 -1      6595    6    0    1
 -2     21529     21131     20805     20792     26682     26683     26680     27342     27546     23297
 -1      6596    6    0    1
 -2     21678     21476     21594     21500     26740     26741     26737     25555     22514     27741
 -1      6597    6    0    1
 -2     21245     20859     21252     21307     26558     25923     24730     24916     27721     24917
 -1      6598    6    0    1
 -2     20814     21543     21151     21541     27743     25633     27742     27744     26036     25957
 -1      6599    6    0    1
 -2     21398     21500     21678     21594     25554     25555     25552     27745     27741     26737
 -1      6600    6    0    1
 -2     21594     21398     20478     21367     27745     22042     26846     27746     22166     22002
 -1      6601    6    0    1
 -2     20773     21095     21047     20678     27389     24240     27272     23189     25457     25455
 -1      6602    6    0    1
 -2     21436     21713     21657     20536     27749     27748     27747     22267     27751     27750
 -1      6603    6    0    1
 -2     21588     21397     21638     21369     26536     26537     26534     27752     22045     27329
 -1      6604    6    0    1
 -2     20474     21365     20475     21588     21962     21961     21805     26428     26427     27753
 -1      6605    6    0    1
 -2     20441     21370     20440     21569     21976     21975     21770     27021     26388     26891
 -1      6606    6    0    1
 -2     20816     21232     21539     20895     27605     27548     25493     23577     27754     25495
 -1      6607    6    0    1
 -2     21727     21735     21488     20610     27755     27114     27432     26666     27196     27197
 -1      6608    6    0    1
 -2     21345     21594     20478     21367     26738     26846     21965     21967     27746     22002
 -1      6609    6    0    1
 -2     21277     21253     21232     20895     24844     24740     24925     26578     26579     27754
 -1      6610    6    0    1
 -2     20674     21531     21571     20594     26100     26343     26342     22887     26685     27756
 -1      6611    6    0    1
 -2     20846     21542     21734     20789     27060     26859     27058     23413     27758     27757
 -1      6612    6    0    1
 -2     21621     21537     21690     21022     27071     27760     27759     27761     26966     27762
 -1      6613    6    0    1
 -2     20855     20868     21185     20834     23491     27763     25382     23452     23489     25337
 -1      6614    6    0    1
 -2     21539     20705     20768     20774     26290     23178     27281     26292     23192     23194
 -1      6615    6    0    1
 -2     21352     21559     21385     21681     27764     25376     22117     27765     26246     27766
 -1      6616    6    0    1
 -2     21265     20810     20836     21194     27633     23384     27632     24772     26856     26936
 -1      6617    6    0    1
 -2     20525     21647     21431     20526     26900     26897     22258     21866     27767     22257
 -1      6618    6    0    1
 -2     20625     20586     21681     21559     22789     26245     27768     25117     26067     26246
 -1      6619    6    0    1
 -2     21368     20445     21568     21665     21969     27277     26754     27769     27771     27770
 -1      6620    6    0    1
 -2     21260     21261     21301     20911     24759     24894     24893     26454     26862     25626
 -1      6621    6    0    1
 -2     20564     21663     20478     21594     27773     27772     23845     26847     27774     26846
 -1      6622    6    0    1
 -2     21698     21039     21113     20726     26910     24278     27775     25935     26909     27363
 -1      6623    6    0    1
 -2     21148     21162     20829     21187     24449     27318     27319     24528     24527     27623
 -1      6624    6    0    1
 -2     20932     21309     20935     21279     25059     27400     23721     27776     24929     27777
 -1      6625    6    0    1
 -2     21707     21569     20440     21400     27779     26891     27778     27780     26892     22050
 -1      6626    6    0    1
 -2     21521     21355     21408     21379     25873     22173     25313     26732     22136     22112
 -1      6627    6    0    1
 -2     20481     21675     21722     21421     27783     27782     27781     22214     27003     27784
 -1      6628    6    0    1
 -2     20959     20950     20943     21546     23806     23777     23807     27682     25841     25539
 -1      6629    6    0    1
 -2     20932     20911     21301     20901     23709     25626     25060     23708     23627     26865
 -1      6630    6    0    1
 -2     20808     20881     20817     21220     23529     23531     23331     27694     25905     25147
 -1      6631    6    0    1
 -2     21571     21404     21374     20432     27785     22093     25608     27786     22058     21983
 -1      6632    6    0    1
 -2     20610     20692     21644     21426     22929     26502     27787     26668     26505     26503
 -1      6633    6    0    1
 -2     20594     21571     21684     21531     27756     27789     27788     26685     26343     27790
 -1      6634    6    0    1
 -2     21082     21526     21606     21092     25656     27792     27791     24214     25655     27793
 -1      6635    6    0    1
 -2     21509     21491     21563     21701     22556     27794     26694     26696     27795     26695
 -1      6636    6    0    1
 -2     21571     21531     21360     21404     26343     27442     27441     27785     26341     22175
 -1      6637    6    0    1
 -2     21391     21404     21565     21375     22163     26340     26337     22145     22108     25846
 -1      6638    6    0    1
 -2     21179     20766     21525     21165     26648     26938     27549     24583     27600     27550
 -1      6639    6    0    1
 -2     21571     21404     21360     21374     27785     22175     27441     25608     22093     22149
 -1      6640    6    0    1
 -2     21378     21407     21356     21520     22111     22135     22139     27175     25690     26049
 -1      6641    6    0    1
 -2     21191     20868     21185     21261     25462     27763     24538     24757     26864     24758
 -1      6642    6    0    1
 -2     20704     20703     20702     21093     22989     22957     23097     26097     26098     27092
 -1      6643    6    0    1
 -2     21657     20732     20619     20659     27796     23052     27698     27699     23051     22829
 -1      6644    6    0    1
 -2     21359     21581     21649     20463     26207     26495     27797     21949     26209     26493
 -1      6645    6    0    1
 -2     21376     20428     20429     21628     21987     21758     21988     25913     25914     27798
 -1      6646    6    0    1
 -2     21377     21520     21388     21407     25688     26110     22128     22096     25690     22134
 -1      6647    6    0    1
 -2     20912     21307     21545     20859     27800     25523     27799     23631     27721     27720
 -1      6648    6    0    1
 -2     21293     21326     21547     21288     24987     26120     26121     24864     24984     25682
 -1      6649    6    0    1
 -2     20627     21537     20665     20669     26189     25441     22865     22875     27801     22876
 -1      6650    6    0    1
 -2     21359     20463     21649     21391     21949     26493     27797     22081     22026     26554
 -1      6651    6    0    1
 -2     21674     21628     21376     20429     27802     25913     27470     26239     27798     21988
 -1      6652    6    0    1
 -2     21185     20868     21191     20834     27763     25462     24538     25337     23489     25463
 -1      6653    6    0    1
 -2     21257     21220     20808     21215     24745     27694     25186     24747     24627     25187
 -1      6654    6    0    1
 -2     21524     21173     20808     21220     25355     25357     25358     26279     24625     27694
 -1      6655    6    0    1
 -2     20604     20644     21595     20552     22860     27804     27803     22658     22747     26878
 -1      6656    6    0    1
 -2     21175     20817     20756     20794     27672     23330     26276     27591     23329     23256
 -1      6657    6    0    1
 -2     21394     20470     20469     21617     22031     21800     22032     25211     25212     27805
 -1      6658    6    0    1
 -2     20970     21519     21012     21049     27806     26868     24062     24100     26712     24101
 -1      6659    6    0    1
 -2     21662     20552     21595     21493     27808     26878     27807     26658     22493     26880
 -1      6660    6    0    1
 -2     21197     21242     20849     21182     24695     27660     27809     24639     24696     27635
 -1      6661    6    0    1
 -2     21091     21536     21588     21089     25405     26083     26086     24210     25109     27810
 -1      6662    6    0    1
 -2     20756     21220     20808     20817     26278     27694     23303     23330     25147     23331
 -1      6663    6    0    1
 -2     20814     20812     21543     20890     23322     26948     27743     23561     23560     25771
 -1      6664    6    0    1
 -2     20814     21543     20858     20890     27743     27057     23458     23561     25771     23573
 -1      6665    6    0    1
 -2     21075     21136     21518     21046     24361     25700     25743     24257     24362     26152
 -1      6666    6    0    1
 -2     21570     21519     21372     21394     27813     27812     27811     25865     26314     22155
 -1      6667    6    0    1
 -2     21588     21397     21369     21365     26536     22045     27752     26427     22164     22162
 -1      6668    6    0    1
 -2     21577     21672     20625     21624     25115     25118     25116     27814     25813     27815
 -1      6669    6    0    1
 -2     20478     21398     21594     21663     22042     27745     26846     27772     26621     27774
 -1      6670    6    0    1
 -2     21182     20767     20849     21197     27061     23429     27635     24639     27168     27809
 -1      6671    6    0    1
 -2     21570     21394     21372     21362     25865     22155     27811     25864     22084     22154
 -1      6672    6    0    1
 -2     21554     21363     20471     21625     27445     21957     27816     27817     27818     25826
 -1      6673    6    0    1
 -2     21659     20437     21372     21401     27567     21980     27565     27819     22051     22124
 -1      6674    6    0    1
 -2     21108     21037     21698     20725     24265     27257     25908     25987     25876     27231
 -1      6675    6    0    1
 -2     21713     21657     21634     21444     27748     27700     26934     27041     27820     27496
 -1      6676    6    0    1
 -2     21519     21096     21150     20741     26869     24398     27821     27822     27823     26444
 -1      6677    6    0    1
 -2     20581     20999     20580     21698     23917     23916     21923     27530     25910     27436
 -1      6678    6    0    1
 -2     21111     21522     21062     21142     26967     27466     24277     24377     26969     24378
 -1      6679    6    0    1
 -2     21168     21099     21125     21531     24458     24335     24466     25732     25222     25874
 -1      6680    6    0    1
 -2     20759     21522     21149     21142     27824     26968     25399     27563     26969     24475
 -1      6681    6    0    1
 -2     21685     21599     21372     21519     25250     27293     27291     25248     25249     27812
 -1      6682    6    0    1
 -2     21385     21559     21633     21350     25376     25374     25373     22126     27826     27825
 -1      6683    6    0    1
 -2     20538     21719     21463     21602     27827     26275     22337     27828     26274     25287
 -1      6684    6    0    1
 -2     21477     21500     21368     21398     22568     25556     27222     26622     25554     22167
 -1      6685    6    0    1
 -2     20792     21131     20805     20823     27546     26683     23297     23347     27547     23348
 -1      6686    6    0    1
 -2     21477     21398     21368     21366     26622     22167     27222     27829     22087     22171
 -1      6687    6    0    1
 -2     21398     21477     21709     21366     26622     26623     26619     22087     27829     27830
 -1      6688    6    0    1
 -2     21618     20424     21378     21583     26261     21991     25294     25296     27831     25295
 -1      6689    6    0    1
 -2     20422     21379     21618     20423     21993     26032     26030     21752     21994     27832
 -1      6690    6    0    1
 -2     20750     21536     20721     20678     25868     26990     23124     23139     25406     23029
 -1      6691    6    0    1
 -2     20646     20687     21737     21563     22920     27833     26718     26720     27289     26719
 -1      6692    6    0    1
 -2     21672     21412     21350     21385     27834     22116     25814     27835     22174     22126
 -1      6693    6    0    1
 -2     20678     21536     21091     21047     25406     25405     25408     25455     25867     24211
 -1      6694    6    0    1
 -2     21383     21690     20449     21352     26435     27836     22004     22005     26437     21935
 -1      6695    6    0    1
 -2     21047     21536     20750     20678     25867     25868     25866     25455     25406     23139
 -1      6696    6    0    1
 -2     20781     20793     20860     21540     23252     23468     23467     26450     25768     25126
 -1      6697    6    0    1
 -2     21122     20815     20737     21519     25256     23324     25569     26711     27568     27536
 -1      6698    6    0    1
 -2     20477     21709     20476     21366     27838     27837     21807     21963     27830     21964
 -1      6699    6    0    1
 -2     20866     21543     20812     20890     25769     26948     23485     23572     25771     23560
 -1      6700    6    0    1
 -2     20481     21421     21722     20482     22214     27784     27781     21816     22229     27839
 -1      6701    6    0    1
 -2     20479     21720     21346     20411     27122     25676     22186     21813     25677     21810
 -1      6702    6    0    1
 -2     20915     20901     20935     21279     23638     23720     23722     27685     26866     27777
 -1      6703    6    0    1
 -2     20568     21499     20569     21648     22507     22509     21911     27840     25445     26995
 -1      6704    6    0    1
 -2     21565     21375     21359     21391     25846     22146     26804     26337     22145     22081
 -1      6705    6    0    1
 -2     21640     21438     21694     21728     26449     27499     27320     27250     27841     27118
 -1      6706    6    0    1
 -2     21152     21132     20822     21147     24407     27401     27410     24503     24553     27471
 -1      6707    6    0    1
 -2     20648     20608     21562     20689     22849     27843     27842     22924     22923     25939
 -1      6708    6    0    1
 -2     21495     21479     21691     21512     22585     25309     25306     22572     22586     27844
 -1      6709    6    0    1
 -2     20667     21023     21106     20735     27140     24245     26977     23068     27846     27845
 -1      6710    6    0    1
 -2     20935     20901     20932     21279     23720     23708     23721     27777     26866     27776
 -1      6711    6    0    1
 -2     21712     21631     21420     21416     26317     27139     27138     27158     26063     22240
 -1      6712    6    0    1
 -2     20606     21040     21737     20687     27849     27848     27847     22919     27850     27833
 -1      6713    6    0    1
 -2     20784     20734     21516     20706     23258     25378     27232     23226     23086     25230
 -1      6714    6    0    1
 -2     20808     21220     20756     21524     27694     26278     23303     25358     26279     25082
 -1      6715    6    0    1
 -2     21590     21450     21471     20499     27462     22396     26498     26497     22304     22361
 -1      6716    6    0    1
 -2     21574     21348     20413     20563     25925     21829     27851     25924     22478     21905
 -1      6717    6    0    1
 -2     21488     21486     21710     21656     22603     25477     27852     27116     27213     27853
 -1      6718    6    0    1
 -2     21706     20606     20723     21083     26762     23017     26759     27854     27855     26784
 -1      6719    6    0    1
 -2     21486     21488     21692     21591     22603     27857     27856     26615     27115     27858
 -1      6720    6    0    1
 -2     20959     21330     20951     21324     27683     27474     23814     27859     25000     27475
 -1      6721    6    0    1
 -2     21651     21509     20556     20555     26697     22538     27109     27301     22537     21897
 -1      6722    6    0    1
 -2     21394     21363     21659     21401     22105     27444     27307     22157     22156     27819
 -1      6723    6    0    1
 -2     21182     21136     21229     20760     24516     24655     24657     27062     26959     27650
 -1      6724    6    0    1
 -2     21257     20862     21733     21283     27654     25572     25979     24848     25360     25954
 -1      6725    6    0    1
 -2     21535     21112     21078     21170     26143     24311     26029     27860     24463     24465
 -1      6726    6    0    1
 -2     21506     20559     20560     21627     22534     21901     22528     25899     25891     27861
 -1      6727    6    0    1
 -2     21716     21467     21713     21729     26894     26519     25746     26956     27042     26933
 -1      6728    6    0    1
 -2     21076     20661     20662     20703     26923     22867     27214     26926     22955     22958
 -1      6729    6    0    1
 -2     21394     21401     21659     21372     22157     27819     27307     22155     22124     27565
 -1      6730    6    0    1
 -2     21555     21609     21648     21499     27678     27679     26381     25564     27862     25445
 -1      6731    6    0    1
 -2     21288     21283     21289     21733     24850     24851     24853     25681     25954     25980
 -1      6732    6    0    1
 -2     20701     21070     20795     20798     27191     27192     23260     23276     25291     23277
 -1      6733    6    0    1
 -2     21070     20733     20701     21027     27461     23057     27191     24146     25674     26223
 -1      6734    6    0    1
 -2     21441     21567     21442     20516     25780     27713     22345     22284     25779     22286
 -1      6735    6    0    1
 -2     21659     21519     21372     21599     27306     27812     27565     27566     25249     27293
 -1      6736    6    0    1
 -2     21567     21346     21680     21413     27863     26838     27724     27120     22188     26839
 -1      6737    6    0    1
 -2     20500     21522     20653     20614     26981     26582     22768     22680     26583     22864
 -1      6738    6    0    1
 -2     20872     20859     21245     20912     23505     26558     26076     23632     23631     25557
 -1      6739    6    0    1
 -2     21459     21433     21447     21524     22372     22402     22411     27153     27298     27296
 -1      6740    6    0    1
 -2     21108     20725     21698     21080     25987     27231     25908     24264     27864     25909
 -1      6741    6    0    1
 -2     21069     21072     21179     21525     24154     24549     24510     27696     27418     27549
 -1      6742    6    0    1
 -2     21170     20771     20812     21543     27188     23316     26139     25631     27658     26948
 -1      6743    6    0    1
 -2     21609     20568     21478     20567     27866     22455     27865     27867     21910     22456
 -1      6744    6    0    1
 -2     20878     21269     21287     20833     26000     24841     27134     23519     27702     25981
 -1      6745    6    0    1
 -2     20818     21231     20885     21195     25433     25393     23543     25431     24671     25435
 -1      6746    6    0    1
 -2     21505     21483     21686     20578     22555     27367     27427     22524     22465     27522
 -1      6747    6    0    1
 -2     20883     20922     20918     21548     23672     23674     23654     25201     27657     25345
 -1      6748    6    0    1
 -2     21539     20774     20776     20711     26292     23200     26460     26291     23193     23198
 -1      6749    6    0    1
 -2     21284     21308     21546     21319     24922     25970     26913     24964     24966     25454
 -1      6750    6    0    1
 -2     20711     21106     20776     21539     27868     26840     23198     26291     26419     26460
 -1      6751    6    0    1
 -2     20496     21600     21473     20495     26433     26776     22366     21835     26777     22365
 -1      6752    6    0    1
 -2     20940     20922     20960     21548     23739     23810     23809     25347     27657     27656
 -1      6753    6    0    1
 -2     21548     21306     20964     21327     25695     25348     25693     25335     24990     25350
 -1      6754    6    0    1
 -2     20944     20928     20949     21545     23751     23770     23773     27083     27084     25985
 -1      6755    6    0    1
 -2     20729     20699     20657     21525     23047     22948     23044     27422     25460     27421
 -1      6756    6    0    1
 -2     21545     21252     21307     21298     27621     24917     25523     25524     24881     24926
 -1      6757    6    0    1
 -2     21733     20913     21547     20879     25570     27221     25678     25680     23634     25679
 -1      6758    6    0    1
 -2     21205     20884     20829     21187     25078     23539     27869     24594     26077     27623
 -1      6759    6    0    1
 -2     21413     21720     21346     20479     27123     25676     22188     22215     27122     22186
 -1      6760    6    0    1
 -2     21106     20711     20735     20980     27868     23071     27845     24246     27871     27870
 -1      6761    6    0    1
 -2     21059     20711     21106     20980     27552     27868     24306     24120     27871     24246
 -1      6762    6    0    1
 -2     21461     21467     21723     21610     22445     26520     27872     26919     27147     27873
 -1      6763    6    0    1
 -2     21285     21286     21313     21549     24836     24942     24941     27642     25505     25099
 -1      6764    6    0    1
 -2     20912     20859     21545     20920     23631     27720     27799     23667     23666     25986
 -1      6765    6    0    1
 -2     21086     21176     21174     21527     24502     24597     24487     26010     27447     25541
 -1      6766    6    0    1
 -2     21147     21540     20822     20787     26664     27503     27471     27285     27874     23346
 -1      6767    6    0    1
 -2     21664     21610     21461     20534     26918     26919     26915     27875     27876     22332
 -1      6768    6    0    1
 -2     21257     20924     21733     20862     27463     25571     25979     27654     23679     25572
 -1      6769    6    0    1
 -2     20556     21701     20646     21612     27108     26721     22751     27877     27879     27878
 -1      6770    6    0    1
 -2     20534     21461     21723     21610     22332     27872     27880     27876     26919     27873
 -1      6771    6    0    1
 -2     21592     20554     21510     21492     26627     22540     27287     26629     22491     22578
 -1      6772    6    0    1
 -2     21726     21536     21638     21639     25403     26535     27881     27228     26084     27882
 -1      6773    6    0    1
 -2     21664     20534     21461     21435     27875     22332     26915     27883     22265     22374
 -1      6774    6    0    1
 -2     21610     21525     21642     20658     26920     27323     27149     27884     26921     27885
 -1      6775    6    0    1
 -2     21185     21261     20855     21268     24758     27886     25382     24778     24791     26470
 -1      6776    6    0    1
 -2     21573     21112     21126     21077     25767     24337     26330     25765     24304     24338
 -1      6777    6    0    1
 -2     21428     21452     21473     21535     22426     22394     22427     26462     27256     27344
 -1      6778    6    0    1
 -2     21567     21720     21346     21413     27121     25676     27863     27120     27123     22188
 -1      6779    6    0    1
 -2     21664     20533     20534     21435     27887     21874     27875     27883     22266     22265
 -1      6780    6    0    1
 -2     20885     21231     20818     20865     25393     25433     23543     23544     25640     23482
 -1      6781    6    0    1
 -2     21301     20911     21300     21260     25626     25624     24895     24893     26454     24887
 -1      6782    6    0    1
 -2     21698     20726     21113     20689     25935     27363     27775     25938     23073     27888
 -1      6783    6    0    1
 -2     20750     20722     20679     21536     23122     23015     23123     25868     26997     26745
 -1      6784    6    0    1
 -2     20874     20900     21237     20876     23593     25723     25721     23516     23594     25241
 -1      6785    6    0    1
 -2     21245     20859     21307     20912     26558     27721     24916     25557     23631     27800
 -1      6786    6    0    1
 -2     21548     21271     21242     21306     26605     24790     27889     25695     24914     24913
 -1      6787    6    0    1
 -2     20945     20946     21242     20899     23761     25167     25168     23756     23758     25342
 -1      6788    6    0    1
 -2     20912     21307     21245     21286     27800     24916     25557     25558     24918     24835
 -1      6789    6    0    1
 -2     21657     20659     21702     21576     27699     27891     27890     27892     27893     26196
 -1      6790    6    0    1
 -2     21091     21089     21116     21536     24210     24289     24292     25405     25109     25076
 -1      6791    6    0    1
 -2     20943     20959     21330     20951     23807     27683     27626     23779     23814     27474
 -1      6792    6    0    1
 -2     21475     21500     21368     21515     22579     25556     26755     22567     22604     26757
 -1      6793    6    0    1
 -2     21368     20445     21665     21366     21969     27771     27769     22171     21972     27894
 -1      6794    6    0    1
 -2     21436     20536     21657     21462     22267     27750     27747     22375     22334     27895
 -1      6795    6    0    1
 -2     20823     21131     21139     21184     27547     24459     25470     25997     24520     24519
 -1      6796    6    0    1
 -2     21685     21658     20675     21013     26090     27025     27896     26045     26089     27024
 -1      6797    6    0    1
 -2     21540     21132     20822     20791     26443     27401     27503     27504     27402     23345
 -1      6798    6    0    1
 -2     21384     21381     21410     21537     22131     22114     22181     26117     27716     26116
 -1      6799    6    0    1
 -2     21383     21690     21411     21537     26435     26436     22168     27897     27760     27898
 -1      6800    6    0    1
 -2     21480     21593     21724     21494     26815     26813     26812     22589     27900     27899
 -1      6801    6    0    1
 -2     21104     21021     21668     21537     24241     27902     27901     26186     26184     26118
 -1      6802    6    0    1
 -2     20539     21602     20538     21463     27085     27828     21879     22336     25287     22337
 -1      6803    6    0    1
 -2     21107     21140     21734     20796     24371     26656     26654     27028     27303     27903
 -1      6804    6    0    1
 -2     20900     20917     20944     21545     23703     23750     23749     27094     27081     27083
 -1      6805    6    0    1
 -2     21716     21467     20509     21642     26894     22352     27904     27151     27148     27393
 -1      6806    6    0    1
 -2     21657     21576     21702     21444     27892     26196     27890     27820     26007     26195
 -1      6807    6    0    1
 -2     21669     21042     21671     20573     27907     27906     27905     27908     24016     27909
 -1      6808    6    0    1
 -2     21730     21650     20660     20620     26215     26216     26213     27016     27015     22830
 -1      6809    6    0    1
 -2     20982     21060     21577     20981     24128     27514     27512     23968     24122     27910
 -1      6810    6    0    1
 -2     20970     21570     21617     21519     27913     27912     27911     27806     27813     26315
 -1      6811    6    0    1
 -2     21675     20984     21608     21517     27916     27915     27914     26056     27917     27718
 -1      6812    6    0    1
 -2     21075     21518     21647     20992     25743     25744     25740     24163     26151     27918
 -1      6813    6    0    1
 -2     21559     21672     21681     20625     25114     27919     26246     25117     25118     27768
 -1      6814    6    0    1
 -2     21727     20610     21574     21426     26666     27434     27433     26667     26668     26571
 -1      6815    6    0    1
 -2     21556     20501     21470     20502     25261     22359     25263     25692     21841     22360
 -1      6816    6    0    1
 -2     21379     21521     21611     21529     26732     26174     25264     25266     25411     25265
 -1      6817    6    0    1
 -2     20638     20598     21687     20441     22812     26653     26651     22732     22642     27020
 -1      6818    6    0    1
 -2     20735     20711     21621     20980     23071     27072     27920     27870     27871     27921
 -1      6819    6    0    1
 -2     21448     21556     21470     20502     25575     25263     22379     22299     25692     22360
 -1      6820    6    0    1
 -2     20628     21529     20422     21557     27337     25275     22711     27922     25274     25273
 -1      6821    6    0    1
 -2     20462     20461     21390     21585     21792     22024     22023     27354     26336     26335
 -1      6822    6    0    1
 -2     21360     20465     21635     21392     21951     26164     26161     22082     22028     26288
 -1      6823    6    0    1
 -2     20635     20435     21685     20436     22726     27924     27923     22725     21765     27925
 -1      6824    6    0    1
 -2     21373     21578     21403     20434     26126     27643     22092     21981     26128     22056
 -1      6825    6    0    1
 -2     21685     21013     20675     20717     26045     27024     27896     25251     26047     23076
 -1      6826    6    0    1
 -2     21304     21302     20943     20937     24904     25536     27625     25649     25900     23754
 -1      6827    6    0    1
 -2     20748     21125     20740     20839     25228     27926     23118     23391     26399     23392
 -1      6828    6    0    1
 -2     21303     21545     21325     21298     25717     27330     24983     24906     25524     24982
 -1      6829    6    0    1
 -2     21532     21390     21405     21376     27927     22142     26806     26661     22141     22109
 -1      6830    6    0    1
 -2     21636     21706     21612     20606     26758     26707     27928     26761     26762     27929
 -1      6831    6    0    1
 -2     21240     20889     21544     21183     26549     26748     27647     24691     27930     27671
 -1      6832    6    0    1
 -2     21376     21390     21585     21532     22141     26335     26659     26661     27927     26660
 -1      6833    6    0    1
 -2     20687     21114     21083     21040     26797     24281     26783     27850     24280     24183
 -1      6834    6    0    1
 -2     21402     21373     21578     21393     22122     26126     26422     22184     22151     27013
 -1      6835    6    0    1
 -2     20675     21685     21578     21658     27896     26425     27038     27025     26090     26423
 -1      6836    6    0    1
 -2     21069     21175     20794     21179     24490     27591     27045     24510     24509     27046
 -1      6837    6    0    1
 -2     21542     20754     20789     20807     26133     23239     27758     27110     23302     23301
 -1      6838    6    0    1
 -2     20718     20741     21519     20744     23100     27822     27726     23107     23109     27569
 -1      6839    6    0    1
 -2     21530     20675     21013     21050     27023     27024     27022     25219     27030     24103
 -1      6840    6    0    1
 -2     21396     21399     21603     21364     22143     27739     27227     22086     22161     26743
 -1      6841    6    0    1
 -2     21618     20668     21529     20589     25202     25414     26031     27931     22873     27631
 -1      6842    6    0    1
 -2     20718     21519     20676     20744     27726     25654     23075     23107     27569     23108
 -1      6843    6    0    1
 -2     21521     21056     21094     21156     27099     24219     27484     27101     24415     24414
 -1      6844    6    0    1
 -2     21386     21355     20454     21611     22120     21942     22015     25267     26172     27932
 -1      6845    6    0    1
 -2     21394     21372     21659     21519     22155     27565     27307     26314     27812     27306
 -1      6846    6    0    1
 -2     21570     21362     21372     21402     25864     22154     27811     27933     22153     22091
 -1      6847    6    0    1
 -2     20929     20923     21547     20934     23736     25182     26904     23775     23717     27198
 -1      6848    6    0    1
 -2     21528     20566     20567     21498     27055     21909     25244     27004     22504     22506
 -1      6849    6    0    1
 -2     20638     21580     21726     20721     27935     27934     26414     23012     27730     26991
 -1      6850    6    0    1
 -2     21623     21367     21344     20446     27936     21966     25802     27518     22003     21968
 -1      6851    6    0    1
 -2     21465     21435     21525     21445     22416     26943     26941     22342     22417     27152
 -1      6852    6    0    1
 -2     20549     21691     21586     21512     27938     27937     26356     22543     27844     26357
 -1      6853    6    0    1
 -2     21588     21369     21638     21639     27752     27329     26534     26082     26546     27882
 -1      6854    6    0    1
 -2     20755     20788     21541     20844     23236     26465     26463     23408     23407     26675
 -1      6855    6    0    1
 -2     21588     21639     21638     21536     26082     27882     26534     26083     26084     26535
 -1      6856    6    0    1
 -2     21642     21610     21467     21461     27149     27147     27148     27324     26919     22445
 -1      6857    6    0    1
 -2     21639     21638     21580     21369     27882     27731     27939     26546     27329     26171
 -1      6858    6    0    1
 -2     21163     21068     21146     21538     24441     24390     24442     25660     26306     25659
 -1      6859    6    0    1
 -2     21076     21061     21660     21025     24167     27940     27160     24166     24124     27941
 -1      6860    6    0    1
 -2     20752     21541     20842     20747     27381     27695     23401     23131     27382     23400
 -1      6861    6    0    1
 -2     21713     21716     20619     20700     25746     26954     26935     25747     25748     22949
 -1      6862    6    0    1
 -2     21277     21232     20888     20895     24925     26778     26779     26578     27754     23630
 -1      6863    6    0    1
 -2     21573     21472     21451     21454     25919     22395     25756     25821     22442     22406
 -1      6864    6    0    1
 -2     21685     21372     21570     21519     27291     27811     26087     25248     27812     27813
 -1      6865    6    0    1
 -2     21573     21472     21430     21629     25919     22437     25772     25918     25917     26585
 -1      6866    6    0    1
 -2     20908     21275     21542     20864     26730     26731     26728     23618     26963     26785
 -1      6867    6    0    1
 -2     21573     21430     20613     21629     25772     27943     27942     25918     26585     27944
 -1      6868    6    0    1
 -2     20739     21167     21124     21530     26440     24472     26439     27039     25269     25218
 -1      6869    6    0    1
 -2     20469     21362     21570     20468     21955     25864     25863     21799     21956     27945
 -1      6870    6    0    1
 -2     20715     20757     21532     20672     23142     26034     26227     23023     23143     27359
 -1      6871    6    0    1
 -2     20523     20522     21454     21666     21863     22313     22315     27946     27947     25823
 -1      6872    6    0    1
 -2     21296     20897     21258     20938     25685     25662     24873     25657     23731     25646
 -1      6873    6    0    1
 -2     21639     21369     21580     21396     26546     26171     27939     26328     22144     27738
 -1      6874    6    0    1
 -2     21491     21612     21636     21483     26709     27928     27948     22608     26708     27368
 -1      6875    6    0    1
 -2     21666     21558     21429     21035     27950     25370     27949     27951     26130     26129
 -1      6876    6    0    1
 -2     21377     21406     21389     21533     22110     22178     22138     27952     26403     26421
 -1      6877    6    0    1
 -2     21064     20763     21153     21164     27183     27184     24408     24485     27953     24493
 -1      6878    6    0    1
 -2     21408     21355     21667     21387     22173     25872     25870     22172     22077     27954
 -1      6879    6    0    1
 -2     21521     21156     21094     21529     27101     24414     27484     25411     27955     27483
 -1      6880    6    0    1
 -2     21538     20802     21541     20747     27576     26677     25959     26807     23287     27382
 -1      6881    6    0    1
 -2     21408     21387     21667     21534     22172     27954     25870     25312     26689     27956
 -1      6882    6    0    1
 -2     21618     20423     21379     21408     27832     21994     26032     25311     22065     22112
 -1      6883    6    0    1
 -2     20665     21537     20627     20587     25441     26189     22865     22866     27957     22801
 -1      6884    6    0    1
 -2     21687     21603     21726     21399     26386     27002     26652     27596     27739     27740
 -1      6885    6    0    1
 -2     20437     20596     21685     20436     22638     27515     27290     21766     22639     27925
 -1      6886    6    0    1
 -2     20451     21384     20452     21668     22007     22009     21782     27958     26114     27665
 -1      6887    6    0    1
 -2     21560     21361     21392     20466     25386     22103     26285     26286     21954     22027
 -1      6888    6    0    1
 -2     21659     21363     21554     21677     27444     27445     27305     27959     26669     27960
 -1      6889    6    0    1
 -2     21668     21537     21614     21384     26118     27209     27961     26114     26117     27962
 -1      6890    6    0    1
 -2     21639     21396     21580     21726     26328     27738     27939     27228     27226     27934
 -1      6891    6    0    1
 -2     21542     20807     20888     20887     27110     23553     26781     27111     23550     23554
 -1      6892    6    0    1
 -2     20864     21263     21207     20813     27355     24766     26490     23481     27357     26491
 -1      6893    6    0    1
 -2     20817     21206     20893     20813     25145     27963     23570     23332     27595     23569
 -1      6894    6    0    1
 -2     21536     21726     21638     20721     25403     27881     26535     26990     26991     27733
 -1      6895    6    0    1
 -2     21539     21228     21134     21118     26485     24654     25591     26508     24653     24355
 -1      6896    6    0    1
 -2     21318     20934     21547     20923     27652     27198     25184     25181     23717     25182
 -1      6897    6    0    1
 -2     20919     20942     21300     20955     23745     25623     25885     23791     23794     25159
 -1      6898    6    0    1
 -2     20770     21106     20776     20735     25303     26840     23254     23211     27845     23199
 -1      6899    6    0    1
 -2     20899     21197     20849     20826     25341     27809     23589     23590     27964     23500
 -1      6900    6    0    1
 -2     20966     21725     21663     20565     27967     27966     27965     23932     27969     27968
 -1      6901    6    0    1
 -2     20677     20791     21048     20741     23245     27564     27048     23099     23274     26657
 -1      6902    6    0    1
 -2     20767     21197     21142     20826     27168     24554     27169     23356     27964     27970
 -1      6903    6    0    1
 -2     21086     21526     21002     21082     26011     27971     24191     24192     25656     24181
 -1      6904    6    0    1
 -2     21122     21049     21135     21519     24330     24358     24360     26711     26712     27037
 -1      6905    6    0    1
 -2     20441     21580     21399     21687     26999     26170     22047     27020     27972     27596
 -1      6906    6    0    1
 -2     21395     21364     20472     21673     22106     21960     22033     25828     27974     27973
 -1      6907    6    0    1
 -2     20988     21028     20700     21713     24090     27975     25751     25750     27976     25747
 -1      6908    6    0    1
 -2     21537     21566     21621     21411     27073     27032     27071     27898     25762     27977
 -1      6909    6    0    1
 -2     21069     20729     20794     21524     27586     23257     27045     27978     27327     27326
 -1      6910    6    0    1
 -2     21569     21687     21603     20598     26389     26386     25192     27979     26653     27735
 -1      6911    6    0    1
 -2     20512     21641     21466     21576     26455     25991     22346     27980     27981     26005
 -1      6912    6    0    1
 -2     21664     21435     21461     21525     27883     22374     26915     26917     26943     26916
 -1      6913    6    0    1
 -2     21053     20738     21533     20672     27520     26283     27360     27358     23091     27361
 -1      6914    6    0    1
 -2     21028     20700     20732     21107     27975     23053     27142     24252     26634     27027
 -1      6915    6    0    1
 -2     21263     21206     20893     21239     24765     27963     27356     24767     24690     27982
 -1      6916    6    0    1
 -2     20718     21096     20677     20969     27983     27049     23077     25893     24224     25895
 -1      6917    6    0    1
 -2     21119     20777     21158     20820     26160     27984     24425     25102     23339     25945
 -1      6918    6    0    1
 -2     21296     21545     20925     20956     25368     27644     27395     25728     25729     23795
 -1      6919    6    0    1
 -2     20737     21519     20717     20743     27536     25252     23090     23106     27029     23103
 -1      6920    6    0    1
 -2     21540     21181     21147     21132     26665     24513     26664     26443     24582     24553
 -1      6921    6    0    1
 -2     20848     21192     21248     20910     27014     24714     25971     23623     26298     27206
 -1      6922    6    0    1
 -2     20456     21667     20455     21387     27986     27985     21786     22017     27954     22018
 -1      6923    6    0    1
 -2     21550     20958     20957     21549     25831     23841     25832     25150     25351     27711
 -1      6924    6    0    1
 -2     21564     21406     21376     20428     25586     22095     25911     25587     22062     21987
 -1      6925    6    0    1
 -2     20749     20725     21080     20689     23121     27864     26233     23120     23031     26235
 -1      6926    6    0    1
 -2     21515     21665     21568     21693     27987     27770     25818     27988     26566     27989
 -1      6927    6    0    1
 -2     21406     21564     21700     20427     25586     25792     27990     22061     25585     25793
 -1      6928    6    0    1
 -2     20442     21369     21638     20443     21973     27329     27991     21772     21974     27328
 -1      6929    6    0    1
 -2     21620     20998     21705     20726     25964     27993     27992     25963     25965     25933
 -1      6930    6    0    1
 -2     20487     21517     21424     21415     27994     26790     22222     22194     27141     22233
 -1      6931    6    0    1
 -2     21705     20726     21562     21620     25933     25934     25930     27992     25963     25447
 -1      6932    6    0    1
 -2     20726     21039     20998     21705     26909     24052     25965     25933     26911     27993
 -1      6933    6    0    1
 -2     21620     21485     21705     21682     25448     27531     27992     26726     27996     27995
 -1      6934    6    0    1
 -2     20914     20924     21733     21289     23766     25571     26580     26003     27464     25980
 -1      6935    6    0    1
 -2     21548     21306     21242     20945     25695     24913     27889     25694     25696     25168
 -1      6936    6    0    1
 -2     21239     20817     21206     20893     25146     25145     24690     27982     23570     27963
 -1      6937    6    0    1
 -2     21102     21169     20786     21054     24460     25321     26259     24250     24461     27668
 -1      6938    6    0    1
 -2     20892     21299     20875     20934     26640     26832     23650     23715     27630     23716
 -1      6939    6    0    1
 -2     21418     21417     21419     21516     22201     22237     22206     27997     27157     25157
 -1      6940    6    0    1
 -2     21108     20749     21158     20777     25995     26713     24422     25996     23203     27984
 -1      6941    6    0    1
 -2     20723     20779     20688     21085     23208     23207     23030     27998     26625     27999
 -1      6942    6    0    1
 -2     20896     20877     21267     20921     23581     26907     26908     23671     23670     28000
 -1      6943    6    0    1
 -2     21535     20611     20652     20724     26397     22822     27560     26398     23020     23022
 -1      6944    6    0    1
 -2     20951     21304     20937     20938     27473     25649     23780     23787     25648     23733
 -1      6945    6    0    1
 -2     20826     20818     20885     21195     23355     23543     23545     28001     25431     25435
 -1      6946    6    0    1
 -2     21113     20726     20998     21068     27363     25965     24279     24302     25962     24141
 -1      6947    6    0    1
 -2     21491     21483     21636     21508     22608     27368     27948     22575     22596     26250
 -1      6948    6    0    1
 -2     21479     20602     21648     21654     28002     25214     25446     25310     25217     25215
 -1      6949    6    0    1
 -2     21567     21413     21680     21517     27120     26839     27724     26202     28003     27386
 -1      6950    6    0    1
 -2     21584     21525     21445     21465     27392     27152     26480     26270     26941     22342
 -1      6951    6    0    1
 -2     21061     20983     21660     21025     24125     28004     27940     24124     24041     27941
 -1      6952    6    0    1
 -2     20673     20715     20742     21532     23080     23102     23101     25615     26227     25800
 -1      6953    6    0    1
 -2     21543     20865     21231     21297     25639     25640     25400     25597     25664     24878
 -1      6954    6    0    1
 -2     21108     21158     21119     20777     24422     24425     24322     25996     27984     26160
 -1      6955    6    0    1
 -2     21149     21198     20775     20818     24558     26692     25397     25398     25432     23334
 -1      6956    6    0    1
 -2     21402     20435     21578     21373     22053     26127     26422     22122     21982     26126
 -1      6957    6    0    1
 -2     21543     21297     21231     21250     25597     24878     25400     25401     24877     24722
 -1      6958    6    0    1
 -2     21218     21543     21541     21151     25632     26036     28005     24620     25633     25957
 -1      6959    6    0    1
 -2     20966     21663     21725     21709     27965     27966     27967     28006     26620     28007
 -1      6960    6    0    1
 -2     20897     21258     20938     20903     25662     25646     23731     23602     25491     23730
 -1      6961    6    0    1
 -2     20877     21272     21267     21546     27414     24795     26907     27415     26177     28008
 -1      6962    6    0    1
 -2     21133     20840     20783     21139     25969     23396     25968     24370     25469     28009
 -1      6963    6    0    1
 -2     21299     20923     20875     20934     27653     23677     26832     27630     23717     23716
 -1      6964    6    0    1
 -2     21679     20519     21428     21455     26827     22252     26217     26829     22316     22389
 -1      6965    6    0    1
 -2     21111     21522     21034     20993     26967     27469     24272     24273     27465     24049
 -1      6966    6    0    1
 -2     21685     20717     20675     20635     25251     23076     27896     27923     23003     22888
 -1      6967    6    0    1
 -2     20883     21548     20894     20922     25201     28010     23576     23672     27657     23673
 -1      6968    6    0    1
 -2     20767     20826     20849     21197     23356     23500     23429     27168     27964     27809
 -1      6969    6    0    1
 -2     21548     21271     20845     20894     26605     25898     26603     28010     25896     23574
 -1      6970    6    0    1
 -2     21547     20955     20940     20934     27224     23793     25344     27198     23792     23782
 -1      6971    6    0    1
 -2     21078     21151     21535     21170     24403     26872     26029     24465     24481     27860
 -1      6972    6    0    1
 -2     21511     21493     21527     21595     22557     25480     25481     26879     26880     27096
 -1      6973    6    0    1
 -2     21207     21206     21179     20813     24586     24581     24584     26491     27595     26647
 -1      6974    6    0    1
 -2     20814     21541     21151     20788     27744     25957     27742     23321     26465     26873
 -1      6975    6    0    1
 -2     21593     21669     21502     20572     25279     26717     26716     26814     27069     22518
 -1      6976    6    0    1
 -2     20904     20865     20866     21543     23604     23486     23605     26205     25639     25769
 -1      6977    6    0    1
 -2     21669     20572     20573     21502     27069     21915     27908     26717     22518     22517
 -1      6978    6    0    1
 -2     21110     21535     21538     21079     26019     26870     26772     24276     26022     26354
 -1      6979    6    0    1
 -2     21669     21671     21481     20573     27905     26044     28011     27908     27909     22462
 -1      6980    6    0    1
 -2     21333     21550     21314     20965     25149     26355     25015     26845     25830     26844
 -1      6981    6    0    1
 -2     20525     21456     21596     20524     22321     28012     26899     21865     22322     27276
 -1      6982    6    0    1
 -2     20814     20788     21151     20771     23321     26873     27742     23320     23267     27659
 -1      6983    6    0    1
 -2     20855     21205     21185     21268     25383     24579     25382     26470     24779     24778
 -1      6984    6    0    1
 -2     20505     20506     21468     21597     21845     22356     22355     27266     28013     27268
 -1      6985    6    0    1
 -2     21546     20927     20921     20906     25840     23719     25538     26176     23690     23714
 -1      6986    6    0    1
 -2     20761     21524     20756     20730     25356     25082     23156     23154     25083     23141
 -1      6987    6    0    1
 -2     21664     21435     21615     20533     27883     26940     28014     27887     22266     28015
 -1      6988    6    0    1
 -2     21434     21615     20532     20531     28017     28016     22263     22264     28018     21872
 -1      6989    6    0    1
 -2     20990     21071     21524     21074     24149     28019     26792     24158     24161     26793
 -1      6990    6    0    1
 -2     21568     21515     21693     20544     25818     27988     27989     25820     22550     26796
 -1      6991    6    0    1
 -2     21693     21515     21497     20544     27988     22561     28020     26796     22550     22501
 -1      6992    6    0    1
 -2     21438     20515     21711     21694     22288     28021     27501     27499     28022     27500
 -1      6993    6    0    1
 -2     21438     21711     21589     21640     27501     25862     26447     26449     25858     25861
 -1      6994    6    0    1
 -2     20926     21550     20904     20947     26715     25782     23686     23764     25784     23762
 -1      6995    6    0    1
 -2     20915     21549     20948     20930     27686     25511     23768     23701     25507     23767
 -1      6996    6    0    1
 -2     20926     20963     21550     20947     23822     26308     26715     23764     23827     25784
 -1      6997    6    0    1
 -2     21336     21330     20959     21324     25028     27683     27331     25026     25000     27859
 -1      6998    6    0    1
 -2     21695     21597     21468     20506     28024     27268     28023     28025     28013     22356
 -1      6999    6    0    1
 -2     21053     21533     21585     21532     27360     26662     28026     26033     26663     26660
 -1      7000    6    0    1
 -2     20690     21486     21736     21591     25474     27409     27407     26930     26615     28027
 -1      7001    6    0    1
 -2     21709     21528     21725     20966     28028     27052     28007     28006     27252     27967
 -1      7002    6    0    1
 -2     20596     20635     21685     20436     22840     27923     27515     22639     22725     27925
 -1      7003    6    0    1
 -2     20959     21549     20962     20950     25816     25352     23842     23806     25353     23833
 -1      7004    6    0    1
 -2     20513     21676     21463     21443     26552     27404     22350     22290     26551     22349
 -1      7005    6    0    1
 -2     21066     21028     21657     20732     24137     25595     25593     27143     27142     27796
 -1      7006    6    0    1
 -2     21276     21242     21306     20945     24808     24913     24915     25170     25168     25696
 -1      7007    6    0    1
 -2     21589     21439     21442     21464     25334     22443     25332     26471     22393     22434
 -1      7008    6    0    1
 -2     21548     20945     21242     20894     25694     25168     27889     28010     23755     28029
 -1      7009    6    0    1
 -2     20566     21528     20966     21725     27055     27252     23933     27054     27052     27967
 -1      7010    6    0    1
 -2     21076     20661     20985     21517     26923     28030     24168     27215     27001     28031
 -1      7011    6    0    1
 -2     21485     21682     20582     21705     27996     27106     22469     27531     27995     28032
 -1      7012    6    0    1
 -2     21682     21485     20582     21507     27996     22469     27106     27107     22531     22530
 -1      7013    6    0    1
 -2     20729     20617     21524     21525     23042     27146     27327     27422     27423     28033
 -1      7014    6    0    1
 -2     21524     21446     21468     21434     28035     22377     28034     27155     22415     22429
 -1      7015    6    0    1
 -2     21664     21525     21615     21435     26917     26942     28014     27883     26943     26940
 -1      7016    6    0    1
 -2     20979     21021     21058     21537     24071     24119     24118     26965     26184     26185
 -1      7017    6    0    1
 -2     21537     21410     20419     21381     26116     22069     26190     27716     22114     21998
 -1      7018    6    0    1
 -2     20500     21471     21522     21449     22362     26506     26981     22301     22380     25684
 -1      7019    6    0    1
 -2     21210     21253     21234     20854     24731     24733     24678     27542     28036     27543
 -1      7020    6    0    1
 -2     20565     20966     21725     20566     23932     27967     27969     21908     23933     27054
 -1      7021    6    0    1
 -2     21411     20418     21537     21566     22072     27078     27898     25762     25760     27073
 -1      7022    6    0    1
 -2     20407     21613     21624     21342     28039     28038     28037     21738     26979     28040
 -1      7023    6    0    1
 -2     21668     21607     20978     21410     27666     25165     27664     26115     25164     25166
 -1      7024    6    0    1
 -2     20783     21104     21133     21139     27705     24352     25968     28009     24368     24370
 -1      7025    6    0    1
 -2     21528     21709     21725     21497     28028     28007     27052     27053     28041     27051
 -1      7026    6    0    1
 -2     21679     21455     21428     21452     26829     22389     26217     26218     22441     22426
 -1      7027    6    0    1
 -2     21411     21721     20417     21566     28042     26893     22071     25762     27035     25761
 -1      7028    6    0    1
 -2     21069     21074     21524     21175     24160     26793     27978     24490     24489     26277
 -1      7029    6    0    1
 -2     21695     20506     21468     21446     28025     22356     28023     28043     22295     22377
 -1      7030    6    0    1
 -2     21524     21074     21069     21030     26793     24160     27978     26794     24159     24143
 -1      7031    6    0    1
 -2     21282     21266     20876     21544     24824     25242     25240     25409     25410     26632
 -1      7032    6    0    1
 -2     21598     20669     21410     21537     25607     25605     25604     26193     27801     26116
 -1      7033    6    0    1
 -2     21088     21044     21648     21005     24197     25550     25551     24196     24081     28044
 -1      7034    6    0    1
 -2     20553     21493     20552     21662     22494     22493     21894     28045     26658     27808
 -1      7035    6    0    1
 -2     21544     21255     21278     21266     25135     24813     25134     25410     24785     24814
 -1      7036    6    0    1
 -2     21632     21377     21389     21533     25738     22138     27241     27242     27952     26421
 -1      7037    6    0    1
 -2     21452     20684     21679     20651     26236     26231     26218     26543     22911     26542
 -1      7038    6    0    1
 -2     21674     21532     21565     21405     26803     25614     26823     26237     26806     25845
 -1      7039    6    0    1
 -2     21604     21644     21679     21474     26561     26500     26539     26562     26559     26723
 -1      7040    6    0    1
 -2     21577     20667     21613     21624     28048     28047     28046     27814     28049     28038
 -1      7041    6    0    1
 -2     20669     21104     21410     21537     27540     25163     25605     27801     26186     26116
 -1      7042    6    0    1
 -2     21444     21467     21713     21436     22376     26519     27041     22420     22419     27749
 -1      7043    6    0    1
 -2     21615     20989     20532     21030     28050     23894     28016     28051     24045     23990
 -1      7044    6    0    1
 -2     21516     21060     20770     20667     26212     25305     28052     25232     26978     23182
 -1      7045    6    0    1
 -2     20511     21576     20512     21466     26006     27980     21851     22348     26005     22346
 -1      7046    6    0    1
 -2     20545     20600     20641     21528     22649     22739     22738     25809     26568     26545
 -1      7047    6    0    1
 -2     21466     21641     20701     21576     25991     25992     25990     26005     27981     28053
 -1      7048    6    0    1
 -2     20499     20498     21629     21450     21838     28055     28054     22304     22303     26586
 -1      7049    6    0    1
 -2     21657     21444     21466     21576     27820     22351     28056     27892     26007     26005
 -1      7050    6    0    1
 -2     21400     21370     21364     21569     22089     22182     22160     26892     26388     26744
 -1      7051    6    0    1
 -2     20869     21186     21262     21540     27420     24764     27617     25125     27370     27636
 -1      7052    6    0    1
 -2     20899     20945     20894     21242     23756     23755     23592     25342     25168     28029
 -1      7053    6    0    1
 -2     21538     20692     21727     20996     26643     26637     26531     26353     26638     26636
 -1      7054    6    0    1
 -2     21368     21367     21623     20446     22044     27936     28057     21970     22003     27518
 -1      7055    6    0    1
 -2     21685     20675     21578     20635     27896     27038     26425     27923     22888     28058
 -1      7056    6    0    1
 -2     21345     21344     21678     21367     21742     28059     26739     21967     21966     28060
 -1      7057    6    0    1
 -2     21416     21422     21722     21551     22224     28062     28061     25094     28064     28063
 -1      7058    6    0    1
 -2     21262     21240     20889     20870     24801     26549     26547     27618     26742     23559
 -1      7059    6    0    1
 -2     20682     20645     21592     20605     22907     27608     27218     22906     22846     27300
 -1      7060    6    0    1
 -2     20819     20895     21539     21253     23578     25495     25494     28065     26579     28066
 -1      7061    6    0    1
 -2     21548     20945     20894     20922     25694     23755     28010     27657     23757     23673
 -1      7062    6    0    1
 -2     21548     20894     21242     21271     28010     28029     27889     26605     25896     24790
 -1      7063    6    0    1
 -2     21479     20570     21619     21501     22457     25439     25436     22551     22516     25952
 -1      7064    6    0    1
 -2     21250     21543     21188     21198     25401     26949     24720     24721     25402     24559
 -1      7065    6    0    1
 -2     20688     21085     20779     20777     27999     26625     23207     23202     26626     23210
 -1      7066    6    0    1
 -2     20775     21198     20778     20821     26692     27619     23206     23340     27693     23341
 -1      7067    6    0    1
 -2     21083     21157     20779     21085     24418     25629     25627     24189     24419     26625
 -1      7068    6    0    1
 -2     21304     20937     20943     20951     25649     23754     27625     27473     23780     23779
 -1      7069    6    0    1
 -2     20874     21199     21237     21254     27247     24684     25721     27248     24735     24737
 -1      7070    6    0    1
 -2     21479     21654     21499     21495     25310     25444     22513     22585     25308     22609
 -1      7071    6    0    1
 -2     21430     21590     20613     21629     25716     28067     27943     26585     28068     27944
 -1      7072    6    0    1
 -2     20921     20906     20877     21546     23714     23698     23670     25538     26176     27415
 -1      7073    6    0    1
 -2     21657     20619     21713     21634     27698     26935     27748     27700     26852     26934
 -1      7074    6    0    1
 -2     20607     21484     21490     21508     27295     22598     27135     28069     22597     22564
 -1      7075    6    0    1
 -2     21508     21616     21652     21484     27128     27129     27126     22597     28071     28070
 -1      7076    6    0    1
 -2     21246     20826     20885     21195     28072     23545     25434     24706     28001     25435
 -1      7077    6    0    1
 -2     21309     21279     20932     21301     24929     27776     25059     24928     24919     25060
 -1      7078    6    0    1
 -2     20915     21268     20855     20901     26469     26470     23637     23638     27597     23595
 -1      7079    6    0    1
 -2     20671     21533     20772     20713     27581     26281     23187     22991     27582     23186
 -1      7080    6    0    1
 -2     20658     20988     20731     20700     26922     26770     23049     22950     25751     23085
 -1      7081    6    0    1
 -2     21563     21737     21701     21491     26719     26722     26695     27794     28073     27795
 -1      7082    6    0    1
 -2     20778     21198     21188     20821     27619     24559     26142     23341     27693     26300
 -1      7083    6    0    1
 -2     21604     21474     21679     21452     26562     26723     26539     26540     22383     26218
 -1      7084    6    0    1
 -2     21539     21210     20819     21253     26459     26457     25494     28066     24731     28065
 -1      7085    6    0    1
 -2     20701     21657     21466     21576     28074     28056     25990     28053     27892     26005
 -1      7086    6    0    1
 -2     21491     21509     21563     21504     22556     26694     27794     22614     22591     27316
 -1      7087    6    0    1
 -2     21561     21619     21512     21479     25437     25953     26988     25438     25436     22586
 -1      7088    6    0    1
 -2     20687     21040     21563     21114     27850     26156     27289     26797     24280     27200
 -1      7089    6    0    1
 -2     21593     21661     21717     20603     27397     27399     26592     28075     28077     28076
 -1      7090    6    0    1
 -2     21512     20550     21696     21586     22544     28079     28078     26357     26358     28080
 -1      7091    6    0    1
 -2     21503     20575     20574     21606     22519     21917     22520     27612     28081     27614
 -1      7092    6    0    1
 -2     20745     21152     20750     20773     25752     25833     23125     23294     27273     23191
 -1      7093    6    0    1
 -2     21631     21516     21417     20491     26107     27157     27156     27527     26598     22198
 -1      7094    6    0    1
 -2     21582     21079     21110     21036     26021     24276     26018     28082     24174     24271
 -1      7095    6    0    1
 -2     21238     20851     21527     21176     25533     26888     25540     24686     25141     27447
 -1      7096    6    0    1
 -2     21652     21484     20607     21508     28070     27295     25854     27126     22597     28069
 -1      7097    6    0    1
 -2     20451     21384     21614     21353     22007     27962     28083     21937     22008     28084
 -1      7098    6    0    1
 -2     21737     21040     21706     21563     27848     26155     28085     26719     26156     26154
 -1      7099    6    0    1
 -2     20499     20613     21629     20498     22677     27944     28054     21838     22678     28055
 -1      7100    6    0    1
 -2     20781     20683     21527     20707     23217     26590     25088     23216     22970     27097
 -1      7101    6    0    1
 -2     20745     21109     20680     20722     25753     26488     23110     23111     27443     23066
 -1      7102    6    0    1
 -2     20851     21219     21527     20832     25531     25542     26888     23439     26453     27491
 -1      7103    6    0    1
 -2     20694     20653     21590     21522     22935     26982     25714     25713     26582     25715
 -1      7104    6    0    1
 -2     21287     21227     21270     20856     24840     24786     24842     25983     26952     27734
 -1      7105    6    0    1
 -2     21613     20485     21342     20407     28086     22204     26979     28039     21820     21738
 -1      7106    6    0    1
 -2     20532     20989     21615     20533     23894     28050     28016     21873     23895     28015
 -1      7107    6    0    1
 -2     21609     21499     21478     20568     27862     22508     27865     27866     22507     22455
 -1      7108    6    0    1
 -2     21687     21399     21726     21580     27596     27740     26652     27972     26170     27934
 -1      7109    6    0    1
 -2     21512     21696     21714     21586     28078     28087     26989     26357     28080     28088
 -1      7110    6    0    1
 -2     20548     21688     20642     21654     25612     25568     22743     27391     25465     25216
 -1      7111    6    0    1
 -2     21135     21186     21540     21222     24525     27370     27369     24631     24634     26710
 -1      7112    6    0    1
 -2     21086     21527     21174     21084     26010     25541     24487     24193     26365     24486
 -1      7113    6    0    1
 -2     20860     20806     20869     21540     23466     23494     23493     25126     25195     25125
 -1      7114    6    0    1
 -2     20541     21464     21589     20540     22339     26471     26325     21881     22340     26446
 -1      7115    6    0    1
 -2     20569     21561     21479     20570     26994     25438     22458     21912     25440     22457
 -1      7116    6    0    1
 -2     21219     20832     20851     20870     26453     23439     25531     25532     23497     23499
 -1      7117    6    0    1
 -2     21536     20642     20679     20601     26384     22897     26745     26746     22814     22898
 -1      7118    6    0    1
 -2     20536     21462     21708     21657     22334     28090     28089     27750     27895     28091
 -1      7119    6    0    1
 -2     20641     21528     20639     20681     26545     28092     22896     22903     28093     22904
 -1      7120    6    0    1
 -2     20493     21474     21604     20494     22367     26562     26563     21833     22368     27528
 -1      7121    6    0    1
 -2     21555     21536     21609     21528     26382     27675     27678     25237     25112     28094
 -1      7122    6    0    1
 -2     20866     20865     20821     21543     23486     23483     23484     25769     25639     26950
 -1      7123    6    0    1
 -2     20727     21170     20778     21126     27349     26141     23205     26331     24464     27620
 -1      7124    6    0    1
 -2     21550     21340     21333     21323     26210     25048     25149     25428     25047     25014
 -1      7125    6    0    1
 -2     21307     21549     21328     21286     26468     25098     24993     24918     25505     24992
 -1      7126    6    0    1
 -2     21419     21417     21420     21516     22237     22243     22228     25157     27157     26391
 -1      7127    6    0    1
 -2     21265     21194     20836     21213     24772     26936     27632     24771     24604     26672
 -1      7128    6    0    1
 -2     20895     21253     20819     20854     26579     28065     23578     23582     28036     23449
 -1      7129    6    0    1
 -2     21550     21339     21337     21340     25520     25056     25148     26210     25058     25049
 -1      7130    6    0    1
 -2     21292     21246     20885     21231     24860     25434     25390     24862     24708     25393
 -1      7131    6    0    1
 -2     21065     20991     21031     21523     24134     24086     24135     25239     25426     25906
 -1      7132    6    0    1
 -2     21661     20686     21714     21696     28097     28096     28095     28098     28099     28087
 -1      7133    6    0    1
 -2     20836     21265     21281     20883     27632     24822     27638     23535     25199     25200
 -1      7134    6    0    1
 -2     21040     20687     21563     21737     27850     27289     26156     27848     27833     26719
 -1      7135    6    0    1
 -2     20819     21253     21210     20854     28065     24731     26457     23449     28036     27542
 -1      7136    6    0    1
 -2     21138     20757     20847     20738     25786     23416     25339     26293     23144     23417
 -1      7137    6    0    1
 -2     21212     21264     20896     21217     24768     28101     28100     24619     24769     26905
 -1      7138    6    0    1
 -2     20886     20854     21234     20895     23610     27543     26786     23629     23582     26577
 -1      7139    6    0    1
 -2     20485     21419     21587     21613     22207     25153     28102     28086     25154     25155
 -1      7140    6    0    1
 -2     20591     21533     20671     20631     26069     27581     22881     22805     27583     22880
 -1      7141    6    0    1
 -2     20827     21125     21168     21208     28103     24466     25245     26596     24588     24590
 -1      7142    6    0    1
 -2     20712     20674     20594     21531     22999     22887     22988     26099     26100     26685
 -1      7143    6    0    1
 -2     21610     21461     21642     21525     26919     27324     27149     26920     26916     27323
 -1      7144    6    0    1
 -2     21527     21219     20781     20832     25542     26452     25088     27491     26453     23372
 -1      7145    6    0    1
 -2     20741     20791     21132     21540     23274     27402     26442     25196     27504     26443
 -1      7146    6    0    1
 -2     21722     20482     21421     21422     27839     22229     27784     28062     22227     22239
 -1      7147    6    0    1
 -2     21660     21675     21722     20623     27162     27782     28104     27161     27164     28105
 -1      7148    6    0    1
 -2     21661     21696     21714     21494     28098     28087     28095     27629     28107     28106
 -1      7149    6    0    1
 -2     20550     21494     21696     21661     22495     28107     28079     27628     27629     28098
 -1      7150    6    0    1
 -2     21259     21273     21204     20825     24817     24797     24752     26516     26515     25620
 -1      7151    6    0    1
 -2     21281     21548     21265     21293     25197     25198     24822     24865     27599     24863
 -1      7152    6    0    1
 -2     20805     21131     21139     20823     26683     24459     25468     23348     27547     25470
 -1      7153    6    0    1
 -2     21512     21494     21714     21696     22558     28106     26989     28078     28107     28087
 -1      7154    6    0    1
 -2     21270     20857     21273     21310     26974     27406     24798     24932     26857     24930
 -1      7155    6    0    1
 -2     21714     21724     21494     21501     28108     27899     28106     28109     28110     22590
 -1      7156    6    0    1
 -2     21416     21551     21722     21712     25094     28063     28061     27158     27063     28111
 -1      7157    6    0    1
 -2     20932     21309     20954     20953     25059     25319     23788     23786     26150     23790
 -1      7158    6    0    1
 -2     20481     20482     21722     20623     21816     27839     27781     22701     22700     28105
 -1      7159    6    0    1
 -2     21416     21712     21722     20482     27158     28111     28061     22211     28112     27839
 -1      7160    6    0    1
 -2     20804     20851     21255     21211     23440     25559     26763     25138     25140     24742
 -1      7161    6    0    1
 -2     21292     21550     21314     21323     26691     26355     24943     24976     25428     24977
 -1      7162    6    0    1
 -2     21550     21546     21339     21341     26945     26329     25520     26211     25453     25054
 -1      7163    6    0    1
 -2     21544     20876     21255     21266     26632     26764     25135     25410     25242     24785
 -1      7164    6    0    1
 -2     20625     20735     21023     20667     23064     27846     28113     22870     23068     27140
 -1      7165    6    0    1
 -2     21197     21195     21142     20826     24556     24548     24554     27964     28001     27970
 -1      7166    6    0    1
 -2     21295     21543     21284     21244     25596     26914     24871     24869     25839     24830
 -1      7167    6    0    1
 -2     20799     21120     21153     21178     26477     24462     25665     25666     24521     24507
 -1      7168    6    0    1
 -2     21160     20767     21182     21197     25698     27061     24515     24555     27168     24639
 -1      7169    6    0    1
 -2     21327     21338     21548     21306     25038     25325     25335     24990     25035     25695
 -1      7170    6    0    1
 -2     20924     20862     21257     20881     23679     27654     27463     23681     23530     27655
 -1      7171    6    0    1
 -2     21518     20765     21229     20760     27271     27580     27264     26960     23168     27650
 -1      7172    6    0    1
 -2     20885     21292     20926     20946     25390     25391     23687     23759     27346     23760
 -1      7173    6    0    1
 -2     21229     20765     21213     20845     27580     26673     24751     27649     23409     26674
 -1      7174    6    0    1
 -2     21106     20711     20776     20735     27868     23198     26840     27845     23071     23199
 -1      7175    6    0    1
 -2     21685     21402     21570     21372     26424     27933     26087     27291     22091     27811
 -1      7176    6    0    1
 -2     21539     21106     21059     20711     26419     24306     26418     26291     27868     27552
 -1      7177    6    0    1
 -2     21544     20876     20891     21255     26632     23565     26631     25135     26764     26642
 -1      7178    6    0    1
 -2     20976     21520     21018     21055     27411     27240     24068     24112     25422     24113
 -1      7179    6    0    1
 -2     21554     21363     21394     20470     27445     22105     25208     25209     21958     22031
 -1      7180    6    0    1
 -2     20437     21659     20438     21401     27567     28114     21767     22051     27819     22052
 -1      7181    6    0    1
 -2     20951     21296     20938     20956     28115     25657     23787     23805     25728     23798
 -1      7182    6    0    1
 -2     21731     20985     21640     20661     27497     27498     25857     26080     28030     28116
 -1      7183    6    0    1
 -2     21109     21004     21714     21561     24266     26751     26749     28117     28118     26986
 -1      7184    6    0    1
 -2     21138     21205     21185     20847     24577     24579     24523     25339     25384     25338
 -1      7185    6    0    1
 -2     21731     20516     20622     20661     26078     22696     26197     26080     22784     22858
 -1      7186    6    0    1
 -2     21524     21523     21447     21655     27297     26608     27296     28119     28120     27455
 -1      7187    6    0    1
 -2     20765     21128     20762     20697     25107     27534     23169     23166     25105     23158
 -1      7188    6    0    1
 -2     20905     21216     20877     21272     26013     28121     23608     26038     24792     27414
 -1      7189    6    0    1
 -2     21645     21535     21473     21452     27255     27344     26773     26789     27256     22394
 -1      7190    6    0    1
 -2     21216     20843     21117     21541     26016     27703     24615     26015     26017     28122
 -1      7191    6    0    1
 -2     21239     21263     20916     20893     24767     27117     25224     27982     27356     23669
 -1      7192    6    0    1
 -2     20794     21175     21069     21524     27591     24490     27045     27326     26277     27978
 -1      7193    6    0    1
 -2     20761     21524     20808     20756     25356     25358     23304     23156     25082     23303
 -1      7194    6    0    1
 -2     20556     20557     21491     21612     21898     22490     22489     27877     28123     26709
 -1      7195    6    0    1
 -2     21615     20989     21069     21525     28050     24144     28124     26942     27697     27696
 -1      7196    6    0    1
 -2     21737     21563     21706     21491     26719     26154     28085     28073     27794     26706
 -1      7197    6    0    1
 -2     21655     21524     21597     21447     28119     27604     28125     27455     27296     27267
 -1      7198    6    0    1
 -2     20700     21107     21734     20796     26634     26654     26958     23263     27028     27903
 -1      7199    6    0    1
 -2     21458     21523     21432     21469     25989     25948     22371     22407     26609     22408
 -1      7200    6    0    1
 -2     21459     21524     21447     21468     27153     27296     22411     22435     28034     22400
 -1      7201    6    0    1
 -2     20809     20887     21542     20864     23548     27111     25943     23480     23549     26785
 -1      7202    6    0    1
 -2     21637     21535     21428     21453     26461     26462     26253     27431     26136     22311
 -1      7203    6    0    1
 -2     20651     21452     20684     21645     26543     26236     22911     27558     26789     27254
 -1      7204    6    0    1
 -2     21706     21083     20723     21686     27854     26784     26759     28126     27173     28127
 -1      7205    6    0    1
 -2     21069     20729     21524     21525     27586     27327     27978     27696     27422     28033
 -1      7206    6    0    1
 -2     21336     21335     21328     21549     25027     25023     25024     27334     25100     25098
 -1      7207    6    0    1
 -2     21546     20906     21543     20909     26176     25776     26178     28128     23656     25770
 -1      7208    6    0    1
 -2     21516     20491     20492     21417     26598     21827     26597     27157     22198     22197
 -1      7209    6    0    1
 -2     21091     21089     21588     20967     24210     27810     26086     24209     24200     27009
 -1      7210    6    0    1
 -2     21089     21536     21588     21528     25109     26083     27810     25111     25112     28129
 -1      7211    6    0    1
 -2     20805     21104     20783     21139     26187     27705     23326     25468     24368     28009
 -1      7212    6    0    1
 -2     21402     21685     21578     20435     26424     26425     26422     22053     27924     26127
 -1      7213    6    0    1
 -2     21665     21497     21709     21528     28131     28041     28130     26569     27053     28028
 -1      7214    6    0    1
 -2     20908     20864     21542     20887     23618     26785     26728     23617     23549     27111
 -1      7215    6    0    1
 -2     21457     20526     21697     20527     22324     28132     26527     22323     21867     28133
 -1      7216    6    0    1
 -2     21647     21697     21457     20526     26526     26527     26524     27767     28132     22324
 -1      7217    6    0    1
 -2     21051     21530     21635     21014     26146     26147     26144     24105     28135     28134
 -1      7218    6    0    1
 -2     21262     20870     20889     20869     27618     23559     26547     27617     23498     23556
 -1      7219    6    0    1
 -2     20985     20661     21731     21517     28030     26080     27497     28031     27001     26199
 -1      7220    6    0    1
 -2     21685     20435     21402     20436     27924     22053     26424     27925     21765     22054
 -1      7221    6    0    1
 -2     20677     20719     21048     20791     23074     27026     27048     23245     23244     27564
 -1      7222    6    0    1
 -2     20421     21380     21630     21557     21996     25725     28136     27572     28138     28137
 -1      7223    6    0    1
 -2     21608     21415     20487     20488     27717     22194     28139     28140     22193     21823
 -1      7224    6    0    1
 -2     21413     21424     21414     21517     22235     22226     22191     28003     26790     25580
 -1      7225    6    0    1
 -2     20800     20741     21540     20791     23283     25196     25194     23282     23274     27504
 -1      7226    6    0    1
 -2     21089     21528     21588     21009     25111     28129     27810     24201     27202     28141
 -1      7227    6    0    1
 -2     21691     20680     21714     21561     25318     28143     28142     25314     25317     26986
 -1      7228    6    0    1
 -2     21561     21512     21691     21479     26988     27844     25314     25438     22586     25309
 -1      7229    6    0    1
 -2     21691     21561     21714     21512     25314     26986     28142     27844     26988     26989
 -1      7230    6    0    1
 -2     21691     21512     21714     21586     27844     26989     28142     27937     26357     28088
 -1      7231    6    0    1
 -2     21075     21522     21062     21033     25742     27466     24164     24162     27467     24127
 -1      7232    6    0    1
 -2     21400     20439     21707     21371     22049     27661     27780     22125     21978     27663
 -1      7233    6    0    1
 -2     20471     21395     20472     21673     22034     22033     21802     25827     25828     27973
 -1      7234    6    0    1
 -2     21536     21528     21397     21588     25112     28144     26538     26083     28129     26536
 -1      7235    6    0    1
 -2     21397     21588     20475     21365     26536     27753     22039     22164     26427     21961
 -1      7236    6    0    1
 -2     21684     21531     21571     21404     27790     26343     27789     27459     26341     27785
 -1      7237    6    0    1
 -2     21724     21593     20572     21043     26813     26814     26811     28145     27070     24019
 -1      7238    6    0    1
 -2     21711     20515     20516     20661     28021     21855     26079     26081     22785     22784
 -1      7239    6    0    1
 -2     21546     20936     20927     20909     28146     23725     25840     28128     23724     23689
 -1      7240    6    0    1
 -2     20952     21545     21324     20956     25526     25727     27645     23802     25729     25730
 -1      7241    6    0    1
 -2     21169     21191     20803     21129     24536     25461     25323     24495     24537     26299
 -1      7242    6    0    1
 -2     21666     21035     21429     21573     27951     26129     27949     25766     27170     27426
 -1      7243    6    0    1
 -2     21651     21592     21715     21509     26610     26611     25848     26697     28148     28147
 -1      7244    6    0    1
 -2     21607     20669     21630     20588     27539     25606     25726     28149     22874     28150
 -1      7245    6    0    1
 -2     20863     21177     21259     21260     25645     24753     25644     26260     24754     24756
 -1      7246    6    0    1
 -2     21416     20482     21722     21422     22211     27839     28061     22224     22227     28062
 -1      7247    6    0    1
 -2     20817     21206     20794     21175     25145     27590     23329     27672     24580     27591
 -1      7248    6    0    1
 -2     21613     20664     20667     21516     28151     22967     28047     25158     25231     25232
 -1      7249    6    0    1
 -2     21550     21546     21543     20909     26945     26178     26944     27587     28128     25770
 -1      7250    6    0    1
 -2     21026     20661     20985     21076     26924     28030     23978     24203     26923     24168
 -1      7251    6    0    1
 -2     21550     20936     21546     20909     25783     28146     26945     27587     23724     28128
 -1      7252    6    0    1
 -2     20715     21532     21674     20672     26227     26803     26801     23023     27359     28152
 -1      7253    6    0    1
 -2     21533     20713     20592     20672     27582     22992     28153     27361     22995     22883
 -1      7254    6    0    1
 -2     21731     21567     20516     21442     26200     25779     26078     26124     27713     22286
 -1      7255    6    0    1
 -2     20750     20773     21047     20678     23191     27272     25866     23139     23189     25455
 -1      7256    6    0    1
 -2     21095     20719     20773     20791     25883     23190     27389     27551     23244     23275
 -1      7257    6    0    1
 -2     21282     21545     21312     21274     28154     25718     24938     24927     25719     24937
 -1      7258    6    0    1
 -2     21545     20882     21252     21241     28155     25922     27621     27468     26350     24729
 -1      7259    6    0    1
 -2     21146     21538     21081     21079     25659     26307     24387     24388     26354     24179
 -1      7260    6    0    1
 -2     21322     21334     21547     21548     25046     26119     27223     25326     27598     25346
 -1      7261    6    0    1
 -2     20616     20655     21605     20504     22852     27481     27479     22684     22772     28156
 -1      7262    6    0    1
 -2     21486     21591     21682     21736     26615     26575     27253     27409     28027     28157
 -1      7263    6    0    1
 -2     21582     20684     21538     20996     26228     26795     27343     26229     26230     26353
 -1      7264    6    0    1
 -2     21038     20690     21538     21068     26929     26735     26305     24142     27171     26306
 -1      7265    6    0    1
 -2     20653     20613     21590     20499     22823     28067     26982     22769     22677     26497
 -1      7266    6    0    1
 -2     21607     21057     20666     21557     25635     27238     28158     28159     27239     27236
 -1      7267    6    0    1
 -2     21516     21060     21120     20770     26212     24323     27570     28052     25305     25304
 -1      7268    6    0    1
 -2     20728     21522     20710     20614     26581     27707     23059     23039     26583     22981
 -1      7269    6    0    1
 -2     21218     21151     21541     21203     24620     25957     28005     24658     24571     26041
 -1      7270    6    0    1
 -2     21144     21538     21541     21190     25958     25959     25956     24534     25658     26042
 -1      7271    6    0    1
 -2     21163     21117     21113     20752     24443     24318     24440     27380     27067     27383
 -1      7272    6    0    1
 -2     21541     20802     20842     20747     26677     23402     27695     27382     23287     23400
 -1      7273    6    0    1
 -2     21670     21529     21557     21386     27284     25274     27282     28160     25268     26280
 -1      7274    6    0    1
 -2     21455     21704     21727     21679     26828     28162     28161     26829     26826     26635
 -1      7275    6    0    1
 -2     20996     20684     21538     20692     26230     26795     26353     26638     23025     26643
 -1      7276    6    0    1
 -2     21470     21457     21518     21448     22432     26525     25573     22379     22413     25574
 -1      7277    6    0    1
 -2     21523     20616     20730     20695     26818     23046     27577     26819     22937     23048
 -1      7278    6    0    1
 -2     20755     20844     21541     20802     23408     26675     26463     23288     23435     26677
 -1      7279    6    0    1
 -2     21035     21112     21573     21666     24274     25767     27170     27951     25764     25766
 -1      7280    6    0    1
 -2     21615     20532     21460     21434     28016     22330     28163     28017     22263     22373
 -1      7281    6    0    1
 -2     21683     20524     21596     21430     28165     27276     28164     25705     22255     28166
 -1      7282    6    0    1
 -2     21072     20989     21029     21525     24151     24088     24152     27418     27697     27419
 -1      7283    6    0    1
 -2     21155     20763     20841     20785     28168     23419     28167     28169     23360     23436
 -1      7284    6    0    1
 -2     21714     21661     21593     20686     28095     27397     28170     28096     28097     28171
 -1      7285    6    0    1
 -2     21682     21507     21489     21485     27107     22601     28172     27996     22531     22602
 -1      7286    6    0    1
 -2     21155     21063     21164     20785     24413     24480     24483     28169     28174     28173
 -1      7287    6    0    1
 -2     21164     20704     20702     21093     28176     23097     28175     24444     26097     27092
 -1      7288    6    0    1
 -2     21164     20763     21155     20785     27953     28168     24483     28173     23360     28169
 -1      7289    6    0    1
 -2     21439     21680     21567     21441     27723     27724     27722     22428     28177     25780
 -1      7290    6    0    1
 -2     21674     21532     21533     20672     26803     26663     28178     28152     27359     27361
 -1      7291    6    0    1
 -2     21675     21421     21425     21517     27003     22232     26054     26056     27719     26055
 -1      7292    6    0    1
 -2     21731     21442     21699     21517     26124     25330     28179     26199     26957     26475
 -1      7293    6    0    1
 -2     21631     20734     21090     21064     26319     26791     26108     27066     27159     24207
 -1      7294    6    0    1
 -2     21021     20451     21614     20979     23962     28083     27207     24071     23873     27208
 -1      7295    6    0    1
 -2     21138     20738     20847     20834     26293     23417     25339     25336     23378     23434
 -1      7296    6    0    1
 -2     21613     21342     21577     21624     26979     26074     28046     28038     28040     27814
 -1      7297    6    0    1
 -2     21532     20757     21053     20672     26034     25785     26033     27359     23143     27358
 -1      7298    6    0    1
 -2     21674     20672     21533     21628     28152     27361     28178     27802     28180     27309
 -1      7299    6    0    1
 -2     21674     21628     21533     21376     27802     27309     28178     27470     25913     26402
 -1      7300    6    0    1
 -2     21136     21161     21518     21046     24436     27265     25700     24362     24433     26152
 -1      7301    6    0    1
 -2     21653     21523     21469     21448     27545     26609     27485     27339     26824     22399
 -1      7302    6    0    1
 -2     20453     21354     21386     21607     21939     22076     22016     28181     26204     26203
 -1      7303    6    0    1
 -2     20514     21438     21694     20515     22287     27499     28182     21854     22288     28022
 -1      7304    6    0    1
 -2     21301     20942     20932     21321     25625     23746     25060     24970     26765     25061
 -1      7305    6    0    1
 -2     21653     21448     21469     20503     27339     22399     27485     27340     22300     22357
 -1      7306    6    0    1
 -2     20878     20833     21287     20873     23519     25981     27134     23522     23507     25982
 -1      7307    6    0    1
 -2     20932     20942     21301     20911     23746     25625     25060     23709     23744     25626
 -1      7308    6    0    1
 -2     21523     21518     21161     21073     27489     27265     25095     25096     28183     24434
 -1      7309    6    0    1
 -2     21614     21353     20450     20451     28084     21938     28184     28083     21937     21781
 -1      7310    6    0    1
 -2     21463     21602     21694     21438     25287     25288     25284     22335     27385     27499
 -1      7311    6    0    1
 -2     21083     21085     20779     20723     24189     26625     25627     26784     27998     23208
 -1      7312    6    0    1
 -2     21157     20779     20838     20751     25629     23390     25978     25630     23209     23388
 -1      7313    6    0    1
 -2     20793     21123     21527     21115     25089     25090     25087     28185     24331     25277
 -1      7314    6    0    1
 -2     20852     21157     20838     21212     25471     25978     23444     25472     24600     25686
 -1      7315    6    0    1
 -2     21157     20852     20838     20779     25471     23444     25978     25629     23443     23390
 -1      7316    6    0    1
 -2     21496     20546     20547     21555     22499     21888     22500     25235     25236     25582
 -1      7317    6    0    1
 -2     21690     21537     21353     21614     27760     28187     28186     28188     27209     28084
 -1      7318    6    0    1
 -2     20937     21264     20903     21258     27651     27689     23728     25647     24770     25491
 -1      7319    6    0    1
 -2     21541     21543     21235     21272     26036     25838     28189     26039     26037     24883
 -1      7320    6    0    1
 -2     20925     21545     20944     20956     27644     27083     23752     23795     25729     23796
 -1      7321    6    0    1
 -2     21724     21043     20572     20571     28145     24019     26811     28190     24018     21914
 -1      7322    6    0    1
 -2     20732     21028     21713     20700     27142     27976     28191     23053     27975     25747
 -1      7323    6    0    1
 -2     20646     21612     21737     20687     27878     28192     26718     22920     28193     27833
 -1      7324    6    0    1
 -2     21333     20953     21309     21315     26149     26150     25029     25030     28194     24951
 -1      7325    6    0    1
 -2     21056     21154     21521     21103     24410     27100     27099     24296     24411     26240
 -1      7326    6    0    1
 -2     21309     20953     20935     21315     26150     23785     27400     24951     28194     27709
 -1      7327    6    0    1
 -2     21067     20700     20731     20988     26633     23085     26768     24140     25751     26770
 -1      7328    6    0    1
 -2     20739     20743     21124     20835     23105     26983     26439     23380     23379     26881
 -1      7329    6    0    1
 -2     21709     20476     21397     21588     27837     22038     28195     28196     28197     26536
 -1      7330    6    0    1
 -2     21658     21402     21578     21393     26061     26422     26423     26062     22184     27013
 -1      7331    6    0    1
 -2     21333     21315     20957     20953     25030     27708     27594     26149     28194     23800
 -1      7332    6    0    1
 -2     21124     21143     21226     20835     24381     24648     24647     26881     25517     25518
 -1      7333    6    0    1
 -2     21542     20807     20789     20846     27110     23301     27758     27060     23414     23413
 -1      7334    6    0    1
 -2     20842     21541     20752     20843     27695     27381     23401     23406     26017     23403
 -1      7335    6    0    1
 -2     20888     20807     21542     20846     23553     27110     26781     23552     23414     27060
 -1      7336    6    0    1
 -2     21696     20686     21714     20643     28099     28096     28087     28198     22916     28199
 -1      7337    6    0    1
 -2     21115     21593     20686     21043     25278     28171     27494     24286     27070     27492
 -1      7338    6    0    1
 -2     21221     21140     20828     20846     24628     28201     28200     28202     27059     23476
 -1      7339    6    0    1
 -2     20793     21115     21527     20683     28185     25277     25087     23249     28203     26590
 -1      7340    6    0    1
 -2     20781     20793     21540     21123     23252     25768     26450     25091     25089     26618
 -1      7341    6    0    1
 -2     21482     21526     21606     21503     26027     27792     28204     22569     26025     27612
 -1      7342    6    0    1
 -2     20957     21315     20935     20953     27708     27709     23799     23800     28194     23785
 -1      7343    6    0    1
 -2     21713     21436     20535     20536     27749     22268     28205     27751     22267     21876
 -1      7344    6    0    1
 -2     21276     21327     21314     20964     24989     24991     24944     25349     25350     28206
 -1      7345    6    0    1
 -2     21188     21543     20821     21198     26949     26950     26300     24559     25402     27693
 -1      7346    6    0    1
 -2     20752     21541     21117     20843     27381     28122     27067     23403     26017     27703
 -1      7347    6    0    1
 -2     21158     20843     20820     20749     27704     23405     25945     26713     23404     23338
 -1      7348    6    0    1
 -2     21584     21465     21445     20508     26270     22342     26480     26481     22341     22293
 -1      7349    6    0    1
 -2     20571     21043     21714     21724     24018     28208     28207     28190     28145     28108
 -1      7350    6    0    1
 -2     21538     21535     20724     20684     26870     26398     28209     26795     26396     23021
 -1      7351    6    0    1
 -2     21057     21670     21607     20978     27283     28210     25635     24116     28211     25165
 -1      7352    6    0    1
 -2     20926     21297     21292     21231     25663     24879     25391     25392     24878     24862
 -1      7353    6    0    1
 -2     20452     21354     20453     21607     21940     21939     21783     27667     26204     28181
 -1      7354    6    0    1
 -2     21620     20690     21736     21068     27438     27407     28212     25961     27171     28213
 -1      7355    6    0    1
 -2     20818     21198     20775     20821     25432     26692     23334     23342     27693     23340
 -1      7356    6    0    1
 -2     21117     20843     20749     20752     27703     23404     26714     27067     23403     23130
 -1      7357    6    0    1
 -2     21700     21533     21377     20975     26068     27952     27725     26071     26072     25735
 -1      7358    6    0    1
 -2     21287     21305     21311     20873     24910     24947     24946     25982     25178     25176
 -1      7359    6    0    1
 -2     20924     20931     21289     20914     23774     27235     27464     23766     23707     26003
 -1      7360    6    0    1
 -2     21239     20893     20916     20933     27982     23669     25224     25225     23711     23710
 -1      7361    6    0    1
 -2     20762     21128     21213     21194     27534     24603     27533     26854     24545     24604
 -1      7362    6    0    1
 -2     21102     21054     20671     20975     24250     27669     27133     24236     24110     27104
 -1      7363    6    0    1
 -2     21448     21457     21575     21432     22413     26810     26808     22412     22391     25951
 -1      7364    6    0    1
 -2     21518     20760     21229     21136     26960     27650     27264     25700     26959     24655
 -1      7365    6    0    1
 -2     21518     21075     21160     21136     25743     24431     25701     25700     24361     24467
 -1      7366    6    0    1
 -2     21263     21280     20864     21275     24945     26962     27355     24909     24889     26963
 -1      7367    6    0    1
 -2     20911     20868     21261     20901     23625     26864     26862     23627     23596     26867
 -1      7368    6    0    1
 -2     20932     21301     21279     20901     25060     24919     27776     23708     26865     26866
 -1      7369    6    0    1
 -2     21546     21308     21267     21302     25970     24920     28008     25537     24923     24897
 -1      7370    6    0    1
 -2     21300     20911     20919     21260     25624     23663     25885     24887     26454     25887
 -1      7371    6    0    1
 -2     20772     21054     21169     21129     28214     24461     25322     26282     24343     24495
 -1      7372    6    0    1
 -2     21221     20850     21234     20886     28216     28215     24901     27233     23611     26786
 -1      7373    6    0    1
 -2     20976     20457     21018     21520     23867     23956     24068     27411     26051     27240
 -1      7374    6    0    1
 -2     20847     20829     21205     20884     23418     27869     25384     23540     23539     25078
 -1      7375    6    0    1
 -2     20946     20964     21276     20963     23824     25349     25169     23821     23825     27348
 -1      7376    6    0    1
 -2     20666     20669     20805     21057     22877     23296     23295     27238     27541     26188
 -1      7377    6    0    1
 -2     21534     20780     21202     20782     26180     25621     26179     25282     23220     27416
 -1      7378    6    0    1
 -2     21268     20884     20855     21205     25079     23541     26470     24779     25078     25383
 -1      7379    6    0    1
 -2     20630     20714     21520     20670     22994     26351     26263     22878     22996     26650
 -1      7380    6    0    1
 -2     20973     21100     21532     21052     24232     25508     26122     24106     24258     27692
 -1      7381    6    0    1
 -2     21548     20894     20845     20883     28010     23574     26603     25201     23576     23536
 -1      7382    6    0    1
 -2     21548     20883     20845     21281     25201     23536     26603     25197     25200     26604
 -1      7383    6    0    1
 -2     21229     20845     21281     21271     27649     26604     24820     24789     25898     24823
 -1      7384    6    0    1
 -2     20678     21047     21091     21010     25455     24211     25408     25837     24097     24208
 -1      7385    6    0    1
 -2     21617     21519     21570     21394     26315     27813     27912     25211     26314     25865
 -1      7386    6    0    1
 -2     21665     20444     21397     21366     28218     22040     28217     27894     21971     22037
 -1      7387    6    0    1
 -2     21363     21677     21625     21554     26669     28219     27818     27445     27960     27817
 -1      7388    6    0    1
 -2     20845     21229     21182     21271     27649     24657     27648     25898     24789     24788
 -1      7389    6    0    1
 -2     21362     21393     21658     20468     22104     26062     26060     21956     22029     27538
 -1      7390    6    0    1
 -2     20845     21271     21182     20849     25898     24788     27648     23430     25897     27635
 -1      7391    6    0    1
 -2     20477     21398     20478     21663     22043     22042     21808     28220     26621     27772
 -1      7392    6    0    1
 -2     21690     21614     21353     20450     28188     28084     28186     28221     28184     21938
 -1      7393    6    0    1
 -2     20671     21054     21533     20975     27669     25561     27581     27104     24110     26072
 -1      7394    6    0    1
 -2     21202     20856     21270     21227     27417     27734     24787     24651     26952     24786
 -1      7395    6    0    1
 -2     21570     21013     21685     21519     26088     26045     26087     27813     26046     25248
 -1      7396    6    0    1
 -2     21500     21663     21594     21398     28222     27774     27741     25554     26621     27745
 -1      7397    6    0    1
 -2     21500     21663     20565     20564     28222     27968     22510     22511     27773     21907
 -1      7398    6    0    1
 -2     21270     20856     21202     20853     27734     27417     24787     27193     23453     26489
 -1      7399    6    0    1
 -2     21408     21534     21667     21521     25312     27956     25870     25313     25207     25871
 -1      7400    6    0    1
 -2     20912     20920     21545     20939     23667     25986     27799     23735     23734     25527
 -1      7401    6    0    1
 -2     21521     20790     20668     20782     25413     23241     25205     25283     23243     23219
 -1      7402    6    0    1
 -2     21017     21533     20974     21101     27728     28223     24034     24233     25562     24234
 -1      7403    6    0    1
 -2     20671     21533     20591     20975     27581     26069     22881     27104     26072     26070
 -1      7404    6    0    1
 -2     20532     21615     21460     20533     28016     28163     22330     21873     28015     22329
 -1      7405    6    0    1
 -2     20660     20733     20702     20986     23055     23058     22954     28224     27378     27093
 -1      7406    6    0    1
 -2     21357     20458     21601     21632     21946     27351     26264     26265     27362     25737
 -1      7407    6    0    1
 -2     20742     21532     21168     20769     25800     25801     25798     23229     28225     25247
 -1      7408    6    0    1
 -2     21053     20757     21138     20738     25785     25786     24366     27520     23144     26293
 -1      7409    6    0    1
 -2     21577     21418     21613     21516     26102     26980     28046     27513     27997     25158
 -1      7410    6    0    1
 -2     20591     20630     21646     20426     22835     26262     25543     22629     22715     25651
 -1      7411    6    0    1
 -2     21352     21690     20449     21621     26437     27836     21935     25637     27759     25636
 -1      7412    6    0    1
 -2     20907     21544     20867     20917     26630     27047     23616     23649     27080     23647
 -1      7413    6    0    1
 -2     20621     20986     20660     20702     27091     28224     22857     22953     27093     22954
 -1      7414    6    0    1
 -2     21455     21679     21727     21426     26829     26635     28161     22401     26504     26667
 -1      7415    6    0    1
 -2     21670     20453     20454     21386     28227     21784     28226     28160     22016     22015
 -1      7416    6    0    1
 -2     20910     21280     21275     20908     27607     24889     27205     23658     26961     26730
 -1      7417    6    0    1
 -2     20831     21544     20889     21183     28228     26748     23558     25257     27671     27930
 -1      7418    6    0    1
 -2     21183     21186     21240     20889     24526     24692     24691     27930     26548     26549
 -1      7419    6    0    1
 -2     20709     20590     20629     21534     22976     22834     22977     26903     27478     27220
 -1      7420    6    0    1
 -2     21588     20475     20476     21397     27753     21806     28197     26536     22039     22038
 -1      7421    6    0    1
 -2     21240     21183     21544     21249     24691     27671     27647     24718     24717     25133
 -1      7422    6    0    1
 -2     20952     21324     20951     20956     27645     27475     23829     23802     25730     23805
 -1      7423    6    0    1
 -2     20979     21614     20450     20451     27208     28184     23872     23873     28083     21781
 -1      7424    6    0    1
 -2     20880     21241     20882     21545     28229     26350     23644     26373     27468     28155
 -1      7425    6    0    1
 -2     21183     20831     20815     20889     25257     23370     25254     27930     23558     23557
 -1      7426    6    0    1
 -2     21667     20456     21553     21387     27986     25144     28230     27954     22017     25143
 -1      7427    6    0    1
 -2     21540     21186     21262     21222     27370     24764     27636     26710     24634     24761
 -1      7428    6    0    1
 -2     21668     21384     21614     20451     26114     27962     27961     27958     22007     28083
 -1      7429    6    0    1
 -2     21425     20479     20480     21643     22230     21814     22231     26058     26362     26510
 -1      7430    6    0    1
 -2     20412     20542     21552     20486     21883     26889     27082     21821     23885     25578
 -1      7431    6    0    1
 -2     20869     21540     21219     20832     25125     26451     27616     23496     25127     26453
 -1      7432    6    0    1
 -2     21237     20900     21290     21282     25723     25722     24854     24825     28231     24856
 -1      7433    6    0    1
 -2     20407     21342     21624     20415     21738     28040     28037     21744     21928     25812
 -1      7434    6    0    1
 -2     21164     20785     20704     20763     28173     23227     28176     27953     23360     23161
 -1      7435    6    0    1
 -2     21278     21544     21274     21233     25134     27601     24875     24876     26679     24803
 -1      7436    6    0    1
 -2     20900     20925     21290     21545     23683     26434     25722     27094     27644     25366
 -1      7437    6    0    1
 -2     21517     21424     20486     20487     26790     22223     25577     27994     22222     21822
 -1      7438    6    0    1
 -2     21565     21531     20633     21684     26338     26686     27294     28232     27790     28233
 -1      7439    6    0    1
 -2     21076     21025     21660     20984     24166     27941     27160     24165     24085     28234
 -1      7440    6    0    1
 -2     20869     20832     21219     20870     23496     26453     27616     23498     23497     25532
 -1      7441    6    0    1
 -2     21577     21350     21343     21351     26075     21929     26073     26182     21933     21932
 -1      7442    6    0    1
 -2     21349     20414     21718     21427     21831     25389     27263     22248     22247     26834
 -1      7443    6    0    1
 -2     21418     21417     21516     20492     22201     27157     27997     22200     22197     26597
 -1      7444    6    0    1
 -2     21631     20491     21417     21423     27527     22198     27156     26366     22221     22225
 -1      7445    6    0    1
 -2     20431     21684     21565     20633     27458     28232     26645     22722     28233     27294
 -1      7446    6    0    1
 -2     21712     20483     20482     21416     28235     21817     28112     27158     22212     22211
 -1      7447    6    0    1
 -2     21155     21164     21153     20763     24483     24493     24506     28168     27953     27184
 -1      7448    6    0    1
 -2     20828     20850     20795     21159     23432     23431     23361     28236     27010     27011
 -1      7449    6    0    1
 -2     21692     21487     21727     21488     27524     27525     25123     27857     22480     27432
 -1      7450    6    0    1
 -2     20736     20811     21204     20825     23312     27311     27310     23351     23353     25620
 -1      7451    6    0    1
 -2     21527     20753     20851     20797     27446     23437     26888     27490     23272     23438
 -1      7452    6    0    1
 -2     21474     21426     21679     21455     22388     26504     26723     22424     22401     26829
 -1      7453    6    0    1
 -2     20414     20584     21487     21692     21927     22474     22473     25388     25609     27524
 -1      7454    6    0    1
 -2     21582     21452     21428     21535     26221     22426     26220     26020     27256     26462
 -1      7455    6    0    1
 -2     21647     20526     21457     21431     27767     22324     26524     26897     22257     22370
 -1      7456    6    0    1
 -2     21301     20901     20911     21261     26865     23627     25626     24894     26867     26862
 -1      7457    6    0    1
 -2     21547     21548     21265     20879     25346     25198     26821     25679     28237     26822
 -1      7458    6    0    1
 -2     21265     21548     20883     20879     25198     25201     25199     26822     28237     23537
 -1      7459    6    0    1
 -2     20989     20533     21664     21615     23895     27887     28238     28050     28015     28014
 -1      7460    6    0    1
 -2     21732     21133     21537     21134     25175     26600     26529     26530     24468     25592
 -1      7461    6    0    1
 -2     21288     20879     21265     21283     25683     26822     24849     24850     25361     24837
 -1      7462    6    0    1
 -2     21298     21241     21303     21545     24882     24900     24906     25524     27468     25717
 -1      7463    6    0    1
 -2     21640     21728     20539     21438     27250     27087     26476     26449     27841     22272
 -1      7464    6    0    1
 -2     20989     21615     21664     21525     28050     28014     28238     27697     26942     26917
 -1      7465    6    0    1
 -2     20618     21525     20657     20699     25458     27421     22854     22947     25460     22948
 -1      7466    6    0    1
 -2     21714     20686     21043     21087     28096     27492     28208     26750     27493     24195
 -1      7467    6    0    1
 -2     21242     21197     20849     20899     24695     27809     27660     25342     25341     23589
 -1      7468    6    0    1
 -2     20914     20857     21305     20923     23635     26858     25179     23676     23675     25610
 -1      7469    6    0    1
 -2     20537     21437     20538     21719     22270     22269     21878     27677     27375     27827
 -1      7470    6    0    1
 -2     21732     21189     21133     21134     25173     24532     25175     26530     24531     24468
 -1      7471    6    0    1
 -2     20966     20565     21663     21008     23932     27968     27965     24204     24025     28239
 -1      7472    6    0    1
 -2     21477     20565     21500     21663     22454     22510     22568     26624     27968     28222
 -1      7473    6    0    1
 -2     20594     20432     21684     21571     22635     27460     27788     27756     27786     27789
 -1      7474    6    0    1
 -2     21723     21467     20988     21610     26520     26522     26523     27873     27147     28240
 -1      7475    6    0    1
 -2     20702     21063     21093     20986     28241     24217     27092     27093     24130     24215
 -1      7476    6    0    1
 -2     21470     21518     21647     21522     25573     25744     27102     25260     25745     25741
 -1      7477    6    0    1
 -2     20916     20931     20878     21291     23706     23705     23642     25226     26588     26001
 -1      7478    6    0    1
 -2     20710     21518     21556     21522     26976     25067     28242     27707     25745     25262
 -1      7479    6    0    1
 -2     21732     21134     21539     21189     26530     25591     26512     25173     24531     26486
 -1      7480    6    0    1
 -2     20496     20497     21451     21622     21836     22306     22305     26432     25758     25759
 -1      7481    6    0    1
 -2     21629     20498     21472     21450     28055     22364     25917     26586     22303     22381
 -1      7482    6    0    1
 -2     21311     20931     20878     20873     26138     23705     26587     25176     23704     23522
 -1      7483    6    0    1
 -2     21695     21446     21468     21524     28043     22377     28023     28243     28035     28034
 -1      7484    6    0    1
 -2     20900     21545     21282     21544     27094     28154     28231     26649     26377     25409
 -1      7485    6    0    1
 -2     21311     21294     21291     20931     24933     24890     24934     26138     27589     26588
 -1      7486    6    0    1
 -2     21500     21398     21477     21663     25554     26622     22568     28222     26621     26624
 -1      7487    6    0    1
 -2     20673     20769     20712     21531     23180     23179     22987     27451     25733     26099
 -1      7488    6    0    1
 -2     21254     20925     20874     20897     27394     23682     27248     25661     23684     23584
 -1      7489    6    0    1
 -2     20534     21610     21723     20988     27876     27873     27880     23892     28240     26523
 -1      7490    6    0    1
 -2     21314     21327     21309     20953     24991     25020     25055     26148     28244     26150
 -1      7491    6    0    1
 -2     21620     21489     21736     20690     27437     27408     28212     27438     25473     27407
 -1      7492    6    0    1
 -2     21056     21019     21521     20977     24115     26241     27099     24114     24069     27637
 -1      7493    6    0    1
 -2     21334     21548     21322     21338     27598     25326     25046     25037     25325     25044
 -1      7494    6    0    1
 -2     21314     21327     20953     20964     24991     28244     26148     28206     25350     23838
 -1      7495    6    0    1
 -2     21521     21019     21056     21103     26241     24115     27099     26240     24237     24296
 -1      7496    6    0    1
 -2     21262     21219     21238     20870     24763     24688     24908     27618     25532     25534
 -1      7497    6    0    1
 -2     21493     21510     21662     20553     22576     26601     26658     22494     22539     28045
 -1      7498    6    0    1
 -2     21196     21219     21262     21540     24624     24763     24762     26617     26451     27636
 -1      7499    6    0    1
 -2     21465     21525     21615     21446     26941     26942     26939     22354     28246     28245
 -1      7500    6    0    1
 -2     21665     21528     21709     21397     26569     28028     28130     28217     28144     28195
 -1      7501    6    0    1
 -2     20721     21536     20679     20681     26990     26745     23098     23082     26747     22905
 -1      7502    6    0    1
 -2     20581     21698     20580     21506     27530     27436     21923     22526     27131     22527
 -1      7503    6    0    1
 -2     20594     20633     21684     20432     22838     28233     27788     22635     22721     27460
 -1      7504    6    0    1
 -2     21609     21499     21496     21478     27862     22584     28247     27865     22508     22583
 -1      7505    6    0    1
 -2     21505     20578     21686     21616     22524     27522     27427     27429     27203     27428
 -1      7506    6    0    1
 -2     20617     20657     21584     21525     22827     28249     28248     27423     27421     27392
 -1      7507    6    0    1
 -2     21232     21253     21539     20895     24740     28066     27548     27754     26579     25495
 -1      7508    6    0    1
 -2     20782     21534     21521     21154     25282     25207     25283     27556     27622     27100
 -1      7509    6    0    1
 -2     20850     21178     21234     20854     26478     24677     28215     23599     26479     27543
 -1      7510    6    0    1
 -2     21713     20988     20535     21723     25750     23893     28205     26521     26523     28250
 -1      7511    6    0    1
 -2     21491     21508     21636     20557     22575     26250     27948     22490     22535     27312
 -1      7512    6    0    1
 -2     21030     20990     20531     21524     24087     23897     23989     26794     26792     27154
 -1      7513    6    0    1
 -2     21103     21534     21172     21154     25788     25789     24473     24411     27622     24494
 -1      7514    6    0    1
 -2     21713     21723     20535     21436     26521     28250     28205     27749     28251     22268
 -1      7515    6    0    1
 -2     21221     20850     20828     21159     28216     23432     28200     24629     27010     28236
 -1      7516    6    0    1
 -2     21465     21446     21584     21525     22354     26272     26270     26941     28246     27392
 -1      7517    6    0    1
 -2     20621     20661     21711     21640     22831     26081     28252     28253     28116     25858
 -1      7518    6    0    1
 -2     21592     21509     21651     20555     28148     26697     26610     26628     22537     27301
 -1      7519    6    0    1
 -2     21527     21123     21084     21115     25090     24332     26365     25277     24331     24301
 -1      7520    6    0    1
 -2     21070     21066     20795     21159     24147     27189     27192     24427     24426     27011
 -1      7521    6    0    1
 -2     20732     20796     20795     21066     23262     23265     23261     27143     27304     27189
 -1      7522    6    0    1
 -2     21088     21005     21648     21536     24196     28044     25551     25869     25077     26383
 -1      7523    6    0    1
 -2     21497     20545     21514     21528     22502     22547     22566     27053     25809     25810
 -1      7524    6    0    1
 -2     20906     20877     21272     20905     23698     27414     26175     23688     23608     26038
 -1      7525    6    0    1
 -2     20649     21620     21710     20561     28255     27439     28254     22758     25451     28256
 -1      7526    6    0    1
 -2     20905     20906     20858     21543     23688     23613     23664     26035     25776     27057
 -1      7527    6    0    1
 -2     20562     20649     21710     20561     22757     28254     28257     21903     22758     28256
 -1      7528    6    0    1
 -2     21113     20689     20726     20752     27888     23073     27363     27383     23129     23128
 -1      7529    6    0    1
 -2     21709     21009     21588     21528     28258     28141     28196     28028     27202     28129
 -1      7530    6    0    1
 -2     21009     20475     20476     21588     23938     21806     23939     28141     27753     28197
 -1      7531    6    0    1
 -2     21593     20572     21502     21480     26814     22518     26716     26815     22459     22552
 -1      7532    6    0    1
 -2     20685     21527     21662     20604     27335     25483     27690     22913     27336     28259
 -1      7533    6    0    1
 -2     20838     21145     21157     20751     25424     24421     25978     23388     26412     25630
 -1      7534    6    0    1
 -2     20431     21684     20633     20432     27458     28233     22722     21761     27460     22721
 -1      7535    6    0    1
 -2     21045     21536     21116     21089     25075     25076     24290     24199     25109     24289
 -1      7536    6    0    1
 -2     21654     21688     21513     20548     25465     25466     25464     27391     25612     22546
 -1      7537    6    0    1
 -2     21726     21603     20598     20678     27002     27735     26415     25407     26267     22895
 -1      7538    6    0    1
 -2     21624     20415     21342     21350     25812     21928     28040     25811     22001     21930
 -1      7539    6    0    1
 -2     20669     21104     20805     21057     27540     26187     23296     27541     24285     26188
 -1      7540    6    0    1
 -2     20827     20769     21531     20740     23357     25733     25731     23359     23181     26101
 -1      7541    6    0    1
 -2     20665     20587     20705     21537     22866     22961     22963     25441     27957     25394
 -1      7542    6    0    1
 -2     21058     21537     21133     21134     26185     26600     24351     24354     25592     24468
 -1      7543    6    0    1
 -2     21571     21360     21635     21392     27441     26161     27440     25496     22082     26288
 -1      7544    6    0    1
 -2     20595     21578     21626     21530     26311     26312     26309     27036     26347     26895
 -1      7545    6    0    1
 -2     21058     21134     21105     21537     24354     24353     24307     26185     25592     25589
 -1      7546    6    0    1
 -2     21715     21509     21592     21482     28147     28148     26611     28260     22592     26026
 -1      7547    6    0    1
 -2     20748     21167     20739     21530     25136     26440     23119     25515     25269     27039
 -1      7548    6    0    1
 -2     21709     20476     21588     21009     27837     28197     28196     28258     23939     28141
 -1      7549    6    0    1
 -2     20687     21114     20764     20751     26797     26410     23162     23127     26411     23165
 -1      7550    6    0    1
 -2     21031     21523     21524     21071     25906     27297     28261     24148     25907     28019
 -1      7551    6    0    1
 -2     20762     20697     21128     21523     23158     25105     27534     28262     26701     25097
 -1      7552    6    0    1
 -2     21448     21432     21575     21523     22412     25951     26808     26824     25948     25950
 -1      7553    6    0    1
 -2     21032     21518     21697     21575     26153     26528     28263     28264     26809     28265
 -1      7554    6    0    1
 -2     21470     21522     21647     21431     25260     25741     27102     22433     27288     26897
 -1      7555    6    0    1
 -2     21447     21468     21524     21597     22400     28034     27296     27267     27268     27604
 -1      7556    6    0    1
 -2     20419     20420     21410     21598     21749     22070     22069     26191     27280     25604
 -1      7557    6    0    1
 -2     21615     21434     21460     21446     28017     22373     28163     28245     22415     22414
 -1      7558    6    0    1
 -2     20571     21724     21714     21501     28190     28108     28207     22515     28110     28109
 -1      7559    6    0    1
 -2     21529     20790     20792     20708     25412     23248     27342     27338     23242     23246
 -1      7560    6    0    1
 -2     21672     20415     21350     21412     25815     22001     25814     27834     22073     22116
 -1      7561    6    0    1
 -2     20421     20420     21630     21380     21750     25974     28136     21996     21995     25725
 -1      7562    6    0    1
 -2     21615     21525     21069     21524     26942     27696     28124     28266     28033     27978
 -1      7563    6    0    1
 -2     21545     20920     20859     20882     25986     23666     27720     28155     23668     23533
 -1      7564    6    0    1
 -2     20773     20719     21095     20678     23190     25883     27389     23189     23065     25457
 -1      7565    6    0    1
 -2     20837     21137     21171     21225     27245     24470     28267     25902     24643     24645
 -1      7566    6    0    1
 -2     20745     20722     20750     21088     23111     23122     23125     25835     26998     25834
 -1      7567    6    0    1
 -2     21625     21395     21707     21371     25825     26972     26970     28268     22158     27663
 -1      7568    6    0    1
 -2     20793     21166     21147     21540     25086     24498     25084     25768     26616     26664
 -1      7569    6    0    1
 -2     20820     20843     21158     21216     23405     27704     25945     25946     26016     24614
 -1      7570    6    0    1
 -2     21705     21485     20581     20582     27531     22470     27532     28032     22469     21924
 -1      7571    6    0    1
 -2     21735     21727     21692     21038     27755     25123     28269     26928     25270     25271
 -1      7572    6    0    1
 -2     21486     21591     21692     20584     26615     27858     27856     22471     26614     25609
 -1      7573    6    0    1
 -2     20660     20514     21650     21694     22782     28270     26216     28271     28182     25285
 -1      7574    6    0    1
 -2     20834     20738     20772     21129     23378     23188     23376     26294     26284     26282
 -1      7575    6    0    1
 -2     20786     21169     20772     21054     25321     25322     23268     27668     24461     28214
 -1      7576    6    0    1
 -2     20772     20671     20786     21054     23187     23230     23268     28214     27669     27668
 -1      7577    6    0    1
 -2     21525     21695     21524     21446     28272     28243     28033     28246     28043     28035
 -1      7578    6    0    1
 -2     21086     21526     21082     21176     26011     25656     24192     24502     25300     24500
 -1      7579    6    0    1
 -2     20974     21533     21053     21101     28223     27360     24108     24234     25562     24255
 -1      7580    6    0    1
 -2     21442     20515     20516     21711     22285     21855     22286     26125     28021     26079
 -1      7581    6    0    1
 -2     21449     20500     20501     21522     22301     21840     22302     25684     26981     25259
 -1      7582    6    0    1
 -2     21076     20703     21061     21093     26926     26096     24167     24295     26098     24356
 -1      7583    6    0    1
 -2     20882     20928     20880     21545     23694     23693     23644     28155     27084     26373
 -1      7584    6    0    1
 -2     21251     21241     20880     21545     24726     28229     26372     26374     27468     26373
 -1      7585    6    0    1
 -2     21406     20427     21700     21377     22061     25793     27990     22110     21990     27725
 -1      7586    6    0    1
 -2     21102     21130     20786     21169     24346     26092     26259     24460     24499     25321
 -1      7587    6    0    1
 -2     21073     21523     21518     21032     25096     27489     28183     24155     28273     26153
 -1      7588    6    0    1
 -2     21448     21523     21575     21518     26824     25950     26808     25574     27489     26809
 -1      7589    6    0    1
 -2     21378     21583     20424     20425     25295     27831     21991     21992     26733     21754
 -1      7590    6    0    1
 -2     20660     21694     21650     21602     28271     25285     26216     26214     25288     25289
 -1      7591    6    0    1
 -2     21518     20693     20654     20615     27270     22934     25064     28274     22933     22863
 -1      7592    6    0    1
 -2     21224     21156     21529     21131     24641     27955     28275     24640     24417     26682
 -1      7593    6    0    1
 -2     21064     21164     21061     20704     24485     24445     24133     27181     28176     26095
 -1      7594    6    0    1
 -2     21509     20555     21592     21492     22537     26628     28148     22577     22492     26629
 -1      7595    6    0    1
 -2     21267     21308     21546     21272     24920     25970     28008     24795     24921     26177
 -1      7596    6    0    1
 -2     21251     21544     21274     21545     26375     27601     24802     26374     26377     25719
 -1      7597    6    0    1
 -2     20762     20765     20836     21213     23169     23383     23382     27533     26673     26672
 -1      7598    6    0    1
 -2     20487     21415     21608     21517     22194     27717     28139     27994     27141     27718
 -1      7599    6    0    1
 -2     20654     20693     21518     20710     22934     27270     25064     22980     22982     26976
 -1      7600    6    0    1
 -2     20710     21522     21556     20614     27707     25262     28242     22981     26583     28276
 -1      7601    6    0    1
 -2     20655     20615     20697     21523     22825     22943     22942     26820     28277     26701
 -1      7602    6    0    1
 -2     21715     21482     21592     21526     28260     26026     26611     26606     26027     26024
 -1      7603    6    0    1
 -2     20489     21416     21551     21422     22196     25094     25092     22218     22224     28064
 -1      7604    6    0    1
 -2     20804     21526     20753     21176     25301     26703     23293     25139     25300     25293
 -1      7605    6    0    1
 -2     21710     20649     20562     20609     28254     22757     28257     28278     22850     22668
 -1      7606    6    0    1
 -2     21546     21308     21284     21272     25970     24922     26913     26177     24921     24892
 -1      7607    6    0    1
 -2     21593     21714     21494     21661     28170     28106     27900     27397     28095     27629
 -1      7608    6    0    1
 -2     21631     21423     21417     21420     26366     22225     27156     27139     22241     22243
 -1      7609    6    0    1
 -2     20575     21482     21715     21606     22464     28260     28279     28081     28204     28280
 -1      7610    6    0    1
 -2     21389     21533     21358     20460     26421     26401     22041     22021     27670     21948
 -1      7611    6    0    1
 -2     20935     20957     20948     21549     23799     23801     23781     27710     27711     25511
 -1      7612    6    0    1
 -2     21208     20882     20859     20827     25921     23533     25920     26596     23532     23460
 -1      7613    6    0    1
 -2     21017     21533     20460     20974     27728     27670     23955     24034     28223     23862
 -1      7614    6    0    1
 -2     20575     21606     21715     21041     28081     28280     28279     24014     28282     28281
 -1      7615    6    0    1
 -2     21705     21620     21562     21485     27992     25447     25930     27531     25448     25449
 -1      7616    6    0    1
 -2     21717     21593     21527     21511     26592     25276     26589     27398     26359     25481
 -1      7617    6    0    1
 -2     20646     21701     21737     21612     26721     26722     26718     27878     27879     28192
 -1      7618    6    0    1
 -2     21718     21704     20518     20997     26835     26836     26833     25121     28283     23911
 -1      7619    6    0    1
 -2     21698     21485     21562     21506     27529     25449     25931     27131     22525     26379
 -1      7620    6    0    1
 -2     21705     21485     21562     21698     27531     25449     25930     25932     27529     25931
 -1      7621    6    0    1
 -2     21092     20746     20764     21137     27211     23164     27210     24363     28284     26416
 -1      7622    6    0    1
 -2     21620     21485     21489     20561     25448     22602     27437     25451     22486     22483
 -1      7623    6    0    1
 -2     21286     21549     20941     21307     25505     25506     25504     24918     26468     27615
 -1      7624    6    0    1
 -2     21014     21051     21530     21098     24105     26146     28135     24227     24300     25220
 -1      7625    6    0    1
 -2     21545     20882     20859     21252     28155     23533     27720     27621     25922     25923
 -1      7626    6    0    1
 -2     21296     21545     21290     20925     25368     25366     24874     27395     27644     26434
 -1      7627    6    0    1
 -2     20912     20939     21545     21307     23735     25527     27799     27800     27322     25523
 -1      7628    6    0    1
 -2     21050     21098     20971     21530     24260     24228     24102     25219     25220     26408
 -1      7629    6    0    1
 -2     20971     21098     21014     21530     24228     24227     24031     26408     25220     28135
 -1      7630    6    0    1
 -2     21180     20880     20830     21251     28285     23526     25070     24724     26372     26678
 -1      7631    6    0    1
 -2     20680     21109     20787     21087     26488     26487     23232     28286     24267     28287
 -1      7632    6    0    1
 -2     21282     21544     20876     20900     25409     26632     25240     28231     26649     23594
 -1      7633    6    0    1
 -2     20787     21109     21147     21087     26487     24391     27285     28287     24267     24392
 -1      7634    6    0    1
 -2     21688     21513     21496     21499     25466     22565     25576     25467     22605     22584
 -1      7635    6    0    1
 -2     20679     20721     20750     21536     23098     23124     23123     26745     26990     25868
 -1      7636    6    0    1
 -2     20660     21694     21602     20986     28271     25288     26214     28224     27119     27086
 -1      7637    6    0    1
 -2     21478     21528     21609     20567     26985     28094     27865     22456     25244     27867
 -1      7638    6    0    1
 -2     21064     21153     20784     21090     24408     25329     27182     24207     24409     25328
 -1      7639    6    0    1
 -2     20899     20894     20849     21242     23592     23575     23589     25342     28029     27660
 -1      7640    6    0    1
 -2     21064     21090     20784     20734     24207     25328     27182     27159     26791     23258
 -1      7641    6    0    1
 -2     21034     21683     21596     21522     28288     28164     27274     27469     25708     28289
 -1      7642    6    0    1
 -2     20784     20706     21516     20770     23226     25230     27232     23225     23183     28052
 -1      7643    6    0    1
 -2     21539     21106     20776     21121     26419     26840     26460     26420     24325     26841
 -1      7644    6    0    1
 -2     21524     21446     21434     21615     28035     22415     27155     28266     28245     28017
 -1      7645    6    0    1
 -2     21100     21148     21532     21052     24393     25510     25508     24258     24394     27692
 -1      7646    6    0    1
 -2     21631     20491     20982     21516     27527     23879     26105     26107     26598     26106
 -1      7647    6    0    1
 -2     21238     21176     21211     20851     24686     24598     24687     25533     25141     25140
 -1      7648    6    0    1
 -2     21155     20850     20841     21178     28290     23538     28167     24508     26478     25668
 -1      7649    6    0    1
 -2     21532     21148     21168     21052     25510     24484     25801     27692     24394     24457
 -1      7650    6    0    1
 -2     20744     21135     21150     21519     27593     24401     27592     27569     27037     27821
 -1      7651    6    0    1
 -2     20785     21063     20702     20733     28174     28241     23228     23273     27379     23058
 -1      7652    6    0    1
 -2     21097     21519     20970     21049     26159     27806     24226     24261     26712     24100
 -1      7653    6    0    1
 -2     21370     21364     21603     21399     22182     26743     26385     22123     22161     27739
 -1      7654    6    0    1
 -2     21607     21557     20666     20588     28159     27236     28158     28149     28291     22869
 -1      7655    6    0    1
 -2     21164     21093     20702     21063     24444     27092     28175     24480     24217     28241
 -1      7656    6    0    1
 -2     20798     21063     20785     20733     25915     28174     23291     23278     27379     23273
 -1      7657    6    0    1
 -2     21537     21621     21690     21411     27071     27759     27760     27898     27977     26436
 -1      7658    6    0    1
 -2     20795     21066     20701     20732     27189     27190     23260     23261     27143     23054
 -1      7659    6    0    1
 -2     20784     20799     20770     21120     23281     23280     23225     25327     26477     25304
 -1      7660    6    0    1
 -2     20418     21411     21537     21381     22072     27898     27078     21997     22100     27716
 -1      7661    6    0    1
 -2     20811     21130     21204     21177     26093     24574     27311     25643     24504     24575
 -1      7662    6    0    1
 -2     21529     21131     21094     21057     26682     24348     27483     26681     24347     24239
 -1      7663    6    0    1
 -2     21202     20782     21227     21154     27416     27555     24651     24568     27556     24650
 -1      7664    6    0    1
 -2     20811     20803     20786     21169     23313     23290     23311     27384     25323     25321
 -1      7665    6    0    1
 -2     20811     21177     21204     21259     25643     24575     27311     25642     24753     24752
 -1      7666    6    0    1
 -2     21163     21541     21117     20752     27258     28122     24443     27380     27381     27067
 -1      7667    6    0    1
 -2     20848     20910     21248     20898     23623     27206     25971     23588     23640     25972
 -1      7668    6    0    1
 -2     21529     20790     21521     21156     25412     25413     25411     27955     27584     27101
 -1      7669    6    0    1
 -2     20801     20829     20872     21187     23365     23504     23503     25365     27623     25364
 -1      7670    6    0    1
 -2     20851     20891     21255     20870     23563     26642     25559     23499     23564     25560
 -1      7671    6    0    1
 -2     20927     20906     21546     20909     23690     26176     25840     23689     23656     28128
 -1      7672    6    0    1
 -2     20833     21269     21287     21224     27702     24841     25981     27185     24781     24839
 -1      7673    6    0    1
 -2     21534     20782     21202     21154     25282     27416     26179     27622     27556     24568
 -1      7674    6    0    1
 -2     21202     20780     20853     20782     25621     23446     26489     27416     23220     23447
 -1      7675    6    0    1
 -2     20798     21063     21155     20785     25915     24413     25290     23291     28174     28169
 -1      7676    6    0    1
 -2     21265     21548     21547     21293     25198     25346     26821     24863     27599     26121
 -1      7677    6    0    1
 -2     21630     21557     21607     20588     28137     28159     25726     28150     28291     28149
 -1      7678    6    0    1
 -2     20766     20729     21069     21525     23171     27586     27044     26938     27422     27696
 -1      7679    6    0    1
 -2     20482     21722     20663     21712     27839     28292     22793     28112     28111     28293
 -1      7680    6    0    1
 -2     20946     21242     20899     21246     25167     25342     23758     27502     24739     25340
 -1      7681    6    0    1
 -2     21545     21307     20939     21329     25523     27322     25527     25525     24995     25529
 -1      7682    6    0    1
 -2     21674     21376     21533     21532     27470     26402     28178     26803     26661     26663
 -1      7683    6    0    1
 -2     20833     21269     21224     20823     27702     24781     27185     23374     25998     26040
 -1      7684    6    0    1
 -2     21406     21377     21700     21533     22110     27725     27990     26403     27952     26068
 -1      7685    6    0    1
 -2     20761     21215     21173     21141     26816     24611     25354     27544     24610     24478
 -1      7686    6    0    1
 -2     20877     20843     20820     21216     23517     23405     23518     28121     26016     25946
 -1      7687    6    0    1
 -2     21083     20723     20779     20751     26784     23208     25627     25628     23126     23209
 -1      7688    6    0    1
 -2     20894     21271     20849     21242     25896     25897     23575     28029     24790     27660
 -1      7689    6    0    1
 -2     20690     20649     21620     21710     22926     28255     27438     25476     28254     27439
 -1      7690    6    0    1
 -2     21460     21615     21435     20533     28163     26940     22385     22329     28015     22266
 -1      7691    6    0    1
 -2     20759     21142     20767     21522     27563     27169     23175     27824     26969     27706
 -1      7692    6    0    1
 -2     20822     21540     20800     20787     27503     25194     23412     23346     27874     23455
 -1      7693    6    0    1
 -2     21135     21186     21122     20815     24525     24524     24360     27371     25255     25256
 -1      7694    6    0    1
 -2     20767     21142     21160     21522     27169     24432     25698     27706     26969     26975
 -1      7695    6    0    1
 -2     21465     21446     21615     21460     22354     28245     26939     22444     22414     28163
 -1      7696    6    0    1
 -2     20841     21153     20784     20763     25667     25329     23399     23419     27184     23259
 -1      7697    6    0    1
 -2     21175     21074     21524     21173     24489     26793     26277     24491     24477     25355
 -1      7698    6    0    1
 -2     21530     21392     21361     21403     25498     22103     26348     25500     22133     22150
 -1      7699    6    0    1
 -2     21706     21483     20578     21686     26705     22465     27575     28126     27367     27522
 -1      7700    6    0    1
 -2     20921     21267     21264     21302     28000     24777     28294     25535     24897     24896
 -1      7701    6    0    1
 -2     20827     20740     21531     21125     23359     26101     25731     28103     27926     25874
 -1      7702    6    0    1
 -2     21249     21233     21226     21544     24719     24676     24716     25133     26679     26690
 -1      7703    6    0    1
 -2     20830     21544     21201     21251     25071     25072     25068     26678     26375     24725
 -1      7704    6    0    1
 -2     21571     21392     21635     21530     25496     26288     27440     25497     25498     26147
 -1      7705    6    0    1
 -2     21183     21226     20835     21544     24664     25518     25516     27671     26690     25074
 -1      7706    6    0    1
 -2     20663     21722     21551     21712     28292     28063     28295     28293     28111     27063
 -1      7707    6    0    1
 -2     21237     20876     20837     20874     25241     23514     25901     25721     23516     23510
 -1      7708    6    0    1
 -2     21051     21099     20972     21531     24259     24230     24104     25875     25222     26380
 -1      7709    6    0    1
 -2     21312     21282     21290     21545     24938     24856     24939     25718     28154     25366
 -1      7710    6    0    1
 -2     21717     21511     21527     21595     27398     25481     26589     28296     26879     27096
 -1      7711    6    0    1
 -2     20830     21544     20880     20867     25071     26376     23526     23488     27047     23528
 -1      7712    6    0    1
 -2     21167     21125     21531     20748     24497     25874     25512     25136     25228     25513
 -1      7713    6    0    1
 -2     20723     21000     21083     21085     28297     24184     26784     27998     24187     24189
 -1      7714    6    0    1
 -2     21097     21143     21050     20743     24380     24379     24305     25808     27286     25806
 -1      7715    6    0    1
 -2     21706     21636     21612     21483     26758     27928     26707     26705     27368     26708
 -1      7716    6    0    1
 -2     21670     21386     21557     21607     28160     26280     27282     28210     26203     28159
 -1      7717    6    0    1
 -2     21311     21305     21289     20914     24947     24988     24936     25177     25179     26003
 -1      7718    6    0    1
 -2     20704     20763     21064     21164     23161     27183     27181     28176     27953     24485
 -1      7719    6    0    1
 -2     20690     20649     21710     20609     22926     28254     25476     22925     22850     28278
 -1      7720    6    0    1
 -2     20585     20485     21613     20407     22704     28086     28298     22617     21820     28039
 -1      7721    6    0    1
 -2     21034     20524     21683     20523     23998     28165     28288     23997     21864     28299
 -1      7722    6    0    1
 -2     20407     20415     21624     20585     21744     25812     28037     22617     22616     28300
 -1      7723    6    0    1
 -2     21636     20688     21652     21000     28302     25855     28301     28303     26901     26902
 -1      7724    6    0    1
 -2     21289     21288     21547     21317     24853     25682     26002     24963     24962     25183
 -1      7725    6    0    1
 -2     21164     20785     20702     20704     28173     23228     28175     28176     23227     23097
 -1      7726    6    0    1
 -2     21224     21131     21529     20792     24640     26682     28275     27186     27546     27342
 -1      7727    6    0    1
 -2     21164     21063     20702     20785     24480     28241     28175     28173     28174     23228
 -1      7728    6    0    1
 -2     20914     20857     20873     21305     23635     23508     23636     25179     26858     25178
 -1      7729    6    0    1
 -2     21523     20695     20730     20761     26819     23048     27577     28304     23155     23154
 -1      7730    6    0    1
 -2     21260     20911     20863     20868     26454     23626     26260     26863     23625     23551
 -1      7731    6    0    1
 -2     21175     20794     20756     21524     27591     23256     26276     26277     27326     25082
 -1      7732    6    0    1
 -2     21636     21000     21652     21508     28303     26902     28301     26250     27127     27126
 -1      7733    6    0    1
 -2     21061     20983     21551     21660     24125     28305     27166     27940     28004     28306
 -1      7734    6    0    1
 -2     21263     21291     20916     21280     24907     25226     27117     24945     24859     28307
 -1      7735    6    0    1
 -2     20623     21660     21076     21061     27161     27160     27125     27124     27940     24167
 -1      7736    6    0    1
 -2     21229     21213     21281     20845     24751     24821     24820     27649     26674     26604
 -1      7737    6    0    1
 -2     21095     21132     21048     20791     24350     24349     24308     27551     27402     27564
 -1      7738    6    0    1
 -2     21196     21540     21262     21222     26617     27636     24762     24699     26710     24761
 -1      7739    6    0    1
 -2     20621     20515     21711     20661     22693     28021     28252     22831     22785     26081
 -1      7740    6    0    1
 -2     21736     21591     21682     21068     28027     26575     28157     28213     26576     26573
 -1      7741    6    0    1
 -2     21034     20524     21596     21683     23998     27276     27274     28288     28165     28164
 -1      7742    6    0    1
 -2     21550     20950     21546     20936     25521     25841     26945     25783     23778     28146
 -1      7743    6    0    1
 -2     21550     20965     21333     20957     25830     26845     25149     25832     23840     27594
 -1      7744    6    0    1
 -2     20935     21279     21309     21315     27777     24929     27400     27709     24948     24951
 -1      7745    6    0    1
 -2     20822     21152     20745     20773     27410     25752     23343     23344     27273     23294
 -1      7746    6    0    1
 -2     21183     20889     20815     21186     27930     23557     25254     24526     26548     25255
 -1      7747    6    0    1
 -2     21625     21371     21707     21677     28268     27663     26970     28219     26670     27662
 -1      7748    6    0    1
 -2     21569     21364     21395     21673     26744     22106     28308     25193     27974     25828
 -1      7749    6    0    1
 -2     21135     20815     21122     21519     27371     25256     24360     27037     27568     26711
 -1      7750    6    0    1
 -2     21370     21399     21603     21687     22123     27739     26385     26387     27596     26386
 -1      7751    6    0    1
 -2     21714     21586     21696     20643     28088     28080     28087     28199     28309     28198
 -1      7752    6    0    1
 -2     21624     21350     21342     21577     25811     21930     28040     27814     26075     26074
 -1      7753    6    0    1
 -2     20579     21616     21484     21652     27204     28071     22468     27251     27129     28070
 -1      7754    6    0    1
 -2     21529     20792     20805     20666     27342     23297     26680     27237     23247     23295
 -1      7755    6    0    1
 -2     20578     21616     21505     20579     27203     27429     22524     21921     27204     22523
 -1      7756    6    0    1
 -2     20767     21142     20759     20826     27169     27563     23175     23356     27970     23354
 -1      7757    6    0    1
 -2     21246     21197     20899     20826     24707     25341     25340     28072     27964     23590
 -1      7758    6    0    1
 -2     20530     20990     21031     21524     23896     24046     23992     27325     26792     28261
 -1      7759    6    0    1
 -2     21034     20523     21683     20994     23997     28299     28288     24075     23905     28310
 -1      7760    6    0    1
 -2     20839     21180     21125     21208     26400     24511     26399     27509     24589     24588
 -1      7761    6    0    1
 -2     21605     21523     21447     21469     27480     26608     28311     27487     26609     22378
 -1      7762    6    0    1
 -2     21523     20761     20730     21524     28304     23154     27577     27297     25356     25083
 -1      7763    6    0    1
 -2     21149     21077     20696     21126     24395     25775     25975     24397     24338     28312
 -1      7764    6    0    1
 -2     21636     21508     21652     20607     26250     27126     28301     28313     28069     25854
 -1      7765    6    0    1
 -2     21083     21040     20606     20687     24183     27849     27855     26783     27850     22919
 -1      7766    6    0    1
 -2     20882     20839     20827     21208     23534     23393     23532     25921     27509     26596
 -1      7767    6    0    1
 -2     21125     20827     20839     21208     28103     23393     26399     24588     26596     27509
 -1      7768    6    0    1
 -2     20962     21549     20948     20957     25352     25511     23818     23819     27711     23801
 -1      7769    6    0    1
 -2     20739     20716     20748     21530     23094     23116     23119     27039     26303     25515
 -1      7770    6    0    1
 -2     20827     21125     20839     20740     28103     26399     23393     23359     27926     23392
 -1      7771    6    0    1
 -2     20646     21612     20687     20606     27878     28193     22920     22847     27929     22919
 -1      7772    6    0    1
 -2     20718     21096     21519     20741     27983     26869     27726     23100     27823     27822
 -1      7773    6    0    1
 -2     21174     21123     21527     21219     24488     25090     25541     24623     24622     25542
 -1      7774    6    0    1
 -2     21677     21363     21625     21371     26669     27818     28219     26670     22185     28268
 -1      7775    6    0    1
 -2     21147     21132     20822     21540     24553     27401     27471     26664     26443     27503
 -1      7776    6    0    1
 -2     20755     20802     21541     21538     23288     26677     26463     26464     27576     25959
 -1      7777    6    0    1
 -2     21117     21230     21216     21541     24660     24663     24615     28122     28314     26015
 -1      7778    6    0    1
 -2     20885     21246     20899     20826     25434     25340     23591     23545     28072     23590
 -1      7779    6    0    1
 -2     21048     20741     21150     21096     26657     26444     24399     24283     27823     24398
 -1      7780    6    0    1
 -2     20718     20741     20677     21096     23100     23099     23077     27983     27823     27049
 -1      7781    6    0    1
 -2     20759     21195     21149     20818     27562     24547     25399     23333     25431     25398
 -1      7782    6    0    1
 -2     20677     20741     21048     21096     23099     26657     27048     27049     27823     24283
 -1      7783    6    0    1
 -2     21149     21126     20696     20775     24397     28312     25975     25397     26693     23196
 -1      7784    6    0    1
 -2     20852     21119     21212     21217     25101     24601     25472     25103     24616     24619
 -1      7785    6    0    1
 -2     21541     20788     20814     20844     26465     23321     27744     26675     23407     23420
 -1      7786    6    0    1
 -2     21230     21541     21190     21247     28314     26042     24662     24712     26043     24709
 -1      7787    6    0    1
 -2     20641     20601     21528     20681     22741     25598     26545     22903     22902     28093
 -1      7788    6    0    1
 -2     20882     21241     20880     20839     26350     28229     23644     23534     27508     23527
 -1      7789    6    0    1
 -2     21609     21478     21496     21528     27865     22583     28247     28094     26985     25234
 -1      7790    6    0    1
 -2     21150     21222     21540     21181     24632     26710     26445     24593     24633     26665
 -1      7791    6    0    1
 -2     20880     21241     21251     21180     28229     24726     26372     28285     24694     24724
 -1      7792    6    0    1
 -2     21103     21534     20976     21055     25788     27412     24238     24249     25419     24112
 -1      7793    6    0    1
 -2     21667     21387     21355     20455     27954     22077     25872     27985     22018     21941
 -1      7794    6    0    1
 -2     21094     21521     21611     20977     27484     26174     27482     24218     27637     28315
 -1      7795    6    0    1
 -2     21667     20455     21355     21611     27985     21941     25872     26173     28316     26172
 -1      7796    6    0    1
 -2     21542     21214     21127     21165     27040     24606     25704     25703     24608     24447
 -1      7797    6    0    1
 -2     20917     21545     20880     20928     27081     26373     23648     23695     27084     23693
 -1      7798    6    0    1
 -2     21544     21251     21274     21233     26375     24802     27601     26679     24734     24803
 -1      7799    6    0    1
 -2     20828     20886     21221     20846     23546     27233     28200     23476     23547     28202
 -1      7800    6    0    1
 -2     21545     20956     20952     20949     25729     23802     25526     25985     23797     23783
 -1      7801    6    0    1
 -2     20731     20754     20789     21067     23135     23239     23238     26768     27606     27526
 -1      7802    6    0    1
 -2     21067     20789     21542     20754     27526     27758     25702     27606     23239     26133
 -1      7803    6    0    1
 -2     20795     21140     20828     21159     27302     28201     23361     27011     24429     28236
 -1      7804    6    0    1
 -2     21439     21441     21567     21442     22428     25780     27722     22443     22345     27713
 -1      7805    6    0    1
 -2     20732     21107     20796     21066     27027     27028     23262     27143     24253     27304
 -1      7806    6    0    1
 -2     20941     20912     21307     20939     23741     27800     27615     23743     23735     27322
 -1      7807    6    0    1
 -2     20949     20920     21545     20928     23771     25986     25985     23770     23726     27084
 -1      7808    6    0    1
 -2     20908     20887     21542     20898     23617     27111     26728     23691     23678     26729
 -1      7809    6    0    1
 -2     21429     21454     21573     21451     22314     25821     27426     22404     22406     25756
 -1      7810    6    0    1
 -2     20778     21170     20727     20771     26141     27349     23205     23221     27188     23184
 -1      7811    6    0    1
 -2     21280     21243     20910     21248     24819     26296     27607     24818     24783     27206
 -1      7812    6    0    1
 -2     21047     21536     21091     21116     25867     25405     24211     24482     25076     24292
 -1      7813    6    0    1
 -2     21256     21275     21542     21232     24805     26731     26800     24924     24845     26780
 -1      7814    6    0    1
 -2     21441     20517     21346     21567     22283     22280     22281     25780     25781     27863
 -1      7815    6    0    1
 -2     21581     21585     21390     21532     27353     26335     27352     28317     26660     27927
 -1      7816    6    0    1
 -2     21052     21532     21649     21531     27692     27453     27691     25223     27454     26557
 -1      7817    6    0    1
 -2     21282     20900     20876     21237     28231     23594     25240     24825     25723     25241
 -1      7818    6    0    1
 -2     21581     21532     21390     21359     28317     27927     27352     26207     26805     22075
 -1      7819    6    0    1
 -2     21518     20710     20693     20760     26976     22982     27270     26960     23153     23152
 -1      7820    6    0    1
 -2     21470     21449     21522     21431     22397     25684     25260     22433     22409     27288
 -1      7821    6    0    1
 -2     21290     21545     21320     21312     25366     25367     24967     24939     25718     24969
 -1      7822    6    0    1
 -2     21573     21077     21126     20696     25765     24338     26330     25774     25775     28312
 -1      7823    6    0    1
 -2     21543     20812     20814     20771     26948     23322     27743     27658     23316     23320
 -1      7824    6    0    1
 -2     21149     20775     20696     20694     25397     23196     25975     25976     23195     22941
 -1      7825    6    0    1
 -2     21053     21532     21585     21016     26033     26660     28026     24109     26123     28318
 -1      7826    6    0    1
 -2     21545     20949     20952     20939     25985     23783     25526     25527     23772     23784
 -1      7827    6    0    1
 -2     20744     21519     21150     20741     27569     27821     27592     23109     27822     26444
 -1      7828    6    0    1
 -2     21532     21016     21053     21100     26123     24109     26033     25508     24231     24303
 -1      7829    6    0    1
 -2     20536     21657     21708     20987     27750     28091     28089     23890     25594     28319
 -1      7830    6    0    1
 -2     21328     21549     21313     21286     25098     25099     24994     24992     25505     24942
 -1      7831    6    0    1
 -2     21540     21150     21135     21222     26445     24401     27369     26710     24632     24631
 -1      7832    6    0    1
 -2     20987     21070     20701     21027     24145     27191     28320     24089     24146     26223
 -1      7833    6    0    1
 -2     21286     21307     20941     20912     24918     27615     25504     25558     27800     23741
 -1      7834    6    0    1
 -2     21542     20887     20888     20898     27111     23554     26781     26729     23678     23657
 -1      7835    6    0    1
 -2     20666     20588     21557     20628     22869     28291     27236     22868     22802     27922
 -1      7836    6    0    1
 -2     21730     21463     21676     21719     26273     27404     27019     26225     26275     27405
 -1      7837    6    0    1
 -2     20838     20852     21212     20903     23444     25472     25686     23601     23600     25492
 -1      7838    6    0    1
 -2     21541     21272     21235     21247     26039     24883     28189     26043     24794     24711
 -1      7839    6    0    1
 -2     20951     21304     20938     21296     27473     25648     23787     28115     24905     25657
 -1      7840    6    0    1
 -2     20944     21545     20949     20956     27083     25985     23773     23796     25729     23797
 -1      7841    6    0    1
 -2     21066     20732     21657     20701     27143     27796     25593     27190     23054     28074
 -1      7842    6    0    1
 -2     21290     20925     20874     21254     26434     23682     25720     24855     27394     27248
 -1      7843    6    0    1
 -2     21290     21254     20874     21237     24855     27248     25720     24854     24737     25721
 -1      7844    6    0    1
 -2     20556     21612     20646     20606     27877     27878     22751     22662     27929     22847
 -1      7845    6    0    1
 -2     21286     20912     20941     20930     25558     23741     25504     25502     23702     23742
 -1      7846    6    0    1
 -2     21535     20771     20727     21170     27714     23184     26518     27860     27188     27349
 -1      7847    6    0    1
 -2     21636     21483     21706     21686     27368     26705     26758     27365     27367     28126
 -1      7848    6    0    1
 -2     20538     21437     21463     21719     22269     22425     22337     27827     27375     26275
 -1      7849    6    0    1
 -2     21516     20770     21120     20784     28052     25304     27570     27232     23225     25327
 -1      7850    6    0    1
 -2     20841     20850     21155     20798     23538     28290     28167     23441     23433     25290
 -1      7851    6    0    1
 -2     21730     21602     21650     21463     25669     25289     26215     26273     25287     25286
 -1      7852    6    0    1
 -2     21463     21676     21437     21443     27404     27403     22425     22349     26551     22430
 -1      7853    6    0    1
 -2     21717     21595     21527     20683     28296     27096     26589     26591     27098     26590
 -1      7854    6    0    1
 -2     21727     21426     21574     21348     26667     26571     27433     27260     22246     25925
 -1      7855    6    0    1
 -2     21441     21346     21680     21567     22281     26838     28177     25780     27863     27724
 -1      7856    6    0    1
 -2     21547     21326     21334     21318     26120     25017     26119     25184     24986     25045
 -1      7857    6    0    1
 -2     21547     21334     21322     21318     26119     25046     27223     25184     25045     24975
 -1      7858    6    0    1
 -2     21727     21081     20996     20997     26532     24178     26636     25124     24177     23912
 -1      7859    6    0    1
 -2     21727     20996     21704     20997     26636     28321     28162     25124     23912     28283
 -1      7860    6    0    1
 -2     21138     21101     21533     21129     24365     25562     27521     24367     24344     25563
 -1      7861    6    0    1
 -2     21259     21299     20919     21300     24885     26639     25886     24886     24888     25885
 -1      7862    6    0    1
 -2     20606     20687     21737     21612     22919     27833     27847     27929     28193     28192
 -1      7863    6    0    1
 -2     21268     21236     20915     20884     24800     28322     26469     25079     25080     23639
 -1      7864    6    0    1
 -2     21533     21054     20772     21129     25561     28214     26281     25563     24343     26282
 -1      7865    6    0    1
 -2     21138     21129     21533     20738     24367     25563     27521     26293     26284     26283
 -1      7866    6    0    1
 -2     21270     20873     20856     20857     26932     23506     27734     26974     23508     23457
 -1      7867    6    0    1
 -2     21282     21545     21274     21544     28154     25719     24927     25409     26377     27601
 -1      7868    6    0    1
 -2     20885     20946     20899     21246     23759     23758     23591     25434     27502     25340
 -1      7869    6    0    1
 -2     21282     20900     21290     21545     28231     25722     24856     28154     27094     25366
 -1      7870    6    0    1
 -2     21144     21190     21541     21203     24534     26042     25956     24570     24572     26041
 -1      7871    6    0    1
 -2     20747     20758     21538     20802     23148     26736     26807     23287     23286     27576
 -1      7872    6    0    1
 -2     21284     21543     21235     21244     26914     25838     24829     24830     25839     24702
 -1      7873    6    0    1
 -2     20646     21701     20556     21651     26721     27108     22751     28323     26699     27109
 -1      7874    6    0    1
 -2     20937     20938     21258     20903     23733     25646     25647     23728     23730     25491
 -1      7875    6    0    1
 -2     21546     21330     21331     21302     27684     25005     25452     25537     24999     25002
 -1      7876    6    0    1
 -2     21455     21426     21727     21427     22401     26667     28161     22320     22249     27262
 -1      7877    6    0    1
 -2     20556     20557     21612     20606     21898     28123     27877     22662     22661     27929
 -1      7878    6    0    1
 -2     21537     20419     20627     20587     26190     22710     26189     27957     22620     22801
 -1      7879    6    0    1
 -2     21234     20886     20850     20854     26786     23611     28215     27543     23610     23599
 -1      7880    6    0    1
 -2     21546     21341     21332     21319     25453     25053     26946     25454     25052     25012
 -1      7881    6    0    1
 -2     20734     20763     21064     20704     23160     27183     27159     23069     23161     27181
 -1      7882    6    0    1
 -2     21551     21722     20623     21660     28063     28105     27167     28306     28104     27161
 -1      7883    6    0    1
 -2     21519     21096     21135     21150     26869     24359     27037     27821     24398     24401
 -1      7884    6    0    1
 -2     21519     21096     20718     20969     26869     27983     27726     28324     24224     25893
 -1      7885    6    0    1
 -2     21232     20898     20888     20895     25977     23657     26778     27754     23587     23630
 -1      7886    6    0    1
 -2     21368     21477     21665     21515     27222     28325     27769     26757     22613     27987
 -1      7887    6    0    1
 -2     21210     20854     21178     20799     27542     26479     24595     26496     23450     25666
 -1      7888    6    0    1
 -2     21012     21096     21519     20969     24223     26869     26868     24029     24224     28324
 -1      7889    6    0    1
 -2     21654     20548     21513     21495     27391     22546     25464     25308     22497     22559
 -1      7890    6    0    1
 -2     20828     20850     21221     20886     23432     28216     28200     23546     23611     27233
 -1      7891    6    0    1
 -2     21555     21499     21648     20642     25564     25445     26381     25565     25566     25213
 -1      7892    6    0    1
 -2     20910     20908     21275     20898     23658     26730     27205     23640     23691     25984
 -1      7893    6    0    1
 -2     21224     20792     21529     20790     27186     27342     28275     27187     23248     25412
 -1      7894    6    0    1
 -2     21287     21227     20833     21224     24840     26951     25981     24839     24652     27185
 -1      7895    6    0    1
 -2     20987     21066     20701     21070     24138     27190     28320     24145     24147     27191
 -1      7896    6    0    1
 -2     20833     21224     20792     20823     27185     27186     23373     23374     26040     23347
 -1      7897    6    0    1
 -2     20982     20981     21577     20492     23968     27910     27512     23880     23878     26103
 -1      7898    6    0    1
 -2     21159     21066     20795     21140     24426     27189     27011     24429     24372     27302
 -1      7899    6    0    1
 -2     21333     21549     20957     21315     25152     27711     27594     25030     27641     27708
 -1      7900    6    0    1
 -2     21577     20981     21060     21023     27910     24122     27514     27007     24073     24123
 -1      7901    6    0    1
 -2     21080     20689     21113     20752     26235     27888     24315     26234     23129     27383
 -1      7902    6    0    1
 -2     21518     21161     21073     21046     27265     24434     28183     26152     24433     24157
 -1      7903    6    0    1
 -2     20761     21141     21128     21194     27544     24376     28326     26855     24546     24545
 -1      7904    6    0    1
 -2     21240     21249     21544     21255     24718     25133     27647     24810     24847     25135
 -1      7905    6    0    1
 -2     21544     20831     20889     20902     28228     23558     26748     27144     23597     23628
 -1      7906    6    0    1
 -2     21183     21544     20835     20831     27671     25074     25516     25257     28228     23381
 -1      7907    6    0    1
 -2     20761     21194     21128     20762     26855     24545     28326     23159     26854     27534
 -1      7908    6    0    1
 -2     20477     21663     20966     21709     28220     27965     23847     27838     26620     28006
 -1      7909    6    0    1
 -2     21183     20831     20835     21143     25257     23381     25516     24517     25530     25517
 -1      7910    6    0    1
 -2     20870     21240     21544     21255     26742     27647     26641     25560     24810     25135
 -1      7911    6    0    1
 -2     20891     20889     20902     21544     23692     23628     23645     26631     26748     27144
 -1      7912    6    0    1
 -2     21725     21663     21477     21709     27966     26624     28327     28007     26620     26623
 -1      7913    6    0    1
 -2     21577     21023     21060     20667     27007     24123     27514     28048     27140     26978
 -1      7914    6    0    1
 -2     20557     21612     20606     21636     28123     27929     22661     27312     27928     26761
 -1      7915    6    0    1
 -2     21062     21522     21160     21142     27466     26975     24430     24378     26969     24432
 -1      7916    6    0    1
 -2     21491     20557     21636     21612     22490     27312     27948     26709     28123     27928
 -1      7917    6    0    1
 -2     20955     20934     21318     21299     23792     27652     25600     25601     27630     24960
 -1      7918    6    0    1
 -2     21139     21192     21133     20840     24541     24540     24370     25469     26297     25969
 -1      7919    6    0    1
 -2     21273     20853     20825     20875     27194     23448     26515     26830     23511     23513
 -1      7920    6    0    1
 -2     20783     20768     21732     21537     23223     26544     26599     25442     25443     26529
 -1      7921    6    0    1
 -2     21318     21310     21299     20923     24959     24931     24960     25181     25611     27653
 -1      7922    6    0    1
 -2     20783     21104     20805     20669     27705     26187     23326     23224     27540     23296
 -1      7923    6    0    1
 -2     21672     21624     21577     21350     25813     27814     25115     25814     25811     26075
 -1      7924    6    0    1
 -2     21073     21523     21032     20991     25096     28273     24155     24156     25426     24047
 -1      7925    6    0    1
 -2     20927     20936     21546     20950     23725     28146     25840     23776     23778     25841
 -1      7926    6    0    1
 -2     21238     21176     21527     21174     24686     27447     25540     24685     24597     25541
 -1      7927    6    0    1
 -2     21444     21657     21466     21462     27820     28056     22351     22421     27895     22423
 -1      7928    6    0    1
 -2     21621     21411     21566     21721     27977     25762     27032     27033     28042     27035
 -1      7929    6    0    1
 -2     21053     20672     20757     20738     27358     23143     25785     27520     23091     23144
 -1      7930    6    0    1
 -2     21497     21725     21477     21709     27051     28327     22615     28041     28007     26623
 -1      7931    6    0    1
 -2     20511     21702     21444     21634     26194     26195     22292     28328     28329     27496
 -1      7932    6    0    1
 -2     21314     20953     20965     20963     26148     23843     26844     27341     23839     23834
 -1      7933    6    0    1
 -2     21471     21456     21430     21522     22436     22369     22440     26506     26507     25709
 -1      7934    6    0    1
 -2     21031     21071     21524     20990     24148     28019     28261     24046     24149     26792
 -1      7935    6    0    1
 -2     21503     21510     21592     21526     22587     27287     26023     26025     26602     26024
 -1      7936    6    0    1
 -2     20882     20920     20928     21545     23668     23726     23694     28155     25986     27084
 -1      7937    6    0    1
 -2     21503     21606     21671     21526     27612     27613     27610     26025     27792     26012
 -1      7938    6    0    1
 -2     21268     21279     20915     21285     24816     27685     26469     24831     24833     27687
 -1      7939    6    0    1
 -2     21296     20925     20938     20956     27395     23732     25657     25728     23795     23798
 -1      7940    6    0    1
 -2     20897     21296     21254     20925     25685     24872     25661     23684     27395     27394
 -1      7941    6    0    1
 -2     20828     21140     21221     21159     28201     24628     28200     28236     24429     24629
 -1      7942    6    0    1
 -2     21715     21482     21526     21606     28260     26027     26606     28280     28204     27792
 -1      7943    6    0    1
 -2     21133     21192     20848     20840     24540     27014     25172     25969     26297     23427
 -1      7944    6    0    1
 -2     21092     21526     20720     20746     25655     26607     26594     27211     27557     23112
 -1      7945    6    0    1
 -2     21320     21324     21329     21545     24981     25013     25008     25367     25727     25525
 -1      7946    6    0    1
 -2     21482     21503     21606     20575     22569     27612     28204     22464     22519     28081
 -1      7947    6    0    1
 -2     21593     21480     21502     21511     26815     22552     26716     26359     22600     22606
 -1      7948    6    0    1
 -2     21587     21516     21419     21420     25156     25157     25153     26392     26391     22228
 -1      7949    6    0    1
 -2     20753     20804     20746     21526     23293     23292     23134     26703     25301     27557
 -1      7950    6    0    1
 -2     21602     21719     21730     21027     26274     26225     25669     25671     26226     25670
 -1      7951    6    0    1
 -2     21152     21109     20745     21088     24492     25753     25752     24453     24288     25835
 -1      7952    6    0    1
 -2     21596     21456     21430     20524     28012     22369     28166     27276     22322     22255
 -1      7953    6    0    1
 -2     21587     21420     21419     20484     26392     22228     25153     26395     22210     22208
 -1      7954    6    0    1
 -2     21430     21456     21596     21522     22369     28012     28166     25709     26507     28289
 -1      7955    6    0    1
 -2     21419     21516     21613     21418     25157     25158     25154     22206     27997     26980
 -1      7956    6    0    1
 -2     21255     20876     21211     21266     26764     26753     24742     24785     25242     24773
 -1      7957    6    0    1
 -2     21482     21509     21592     21492     22592     28148     26026     22580     22577     26629
 -1      7958    6    0    1
 -2     20663     21722     20482     20623     28292     27839     22793     22832     28105     22700
 -1      7959    6    0    1
 -2     20797     21527     20753     20685     27490     27446     23272     23269     27335     23133
 -1      7960    6    0    1
 -2     21715     21606     21526     21092     28280     27792     26606     26595     27793     25655
 -1      7961    6    0    1
 -2     21009     21709     20966     21528     28258     28006     24083     27202     28028     27252
 -1      7962    6    0    1
 -2     21444     21634     21729     20510     27496     26853     27043     22291     26851     26850
 -1      7963    6    0    1
 -2     21086     21526     21671     21002     26011     26012     26008     24191     27971     28330
 -1      7964    6    0    1
 -2     21070     21063     20798     20733     24248     25915     25291     27461     27379     23278
 -1      7965    6    0    1
 -2     21551     21660     20623     21061     28306     27161     27167     27166     27940     27124
 -1      7966    6    0    1
 -2     20733     21063     20702     20986     27379     28241     23058     27378     24130     27093
 -1      7967    6    0    1
 -2     21461     21467     21642     21445     22445     27148     27324     22418     22398     26483
 -1      7968    6    0    1
 -2     21067     21525     20731     20754     26769     25459     26768     27606     26937     23135
 -1      7969    6    0    1
 -2     20893     21206     21263     20813     27963     24765     27356     23569     27595     27357
 -1      7970    6    0    1
 -2     20515     21438     21711     21442     22288     27501     28021     22285     22431     26125
 -1      7971    6    0    1
 -2     20731     21525     20699     20754     25459     25460     23070     23135     26937     23136
 -1      7972    6    0    1
 -2     21528     21496     20546     21514     25234     22499     25233     25810     22560     22548
 -1      7973    6    0    1
 -2     21267     20921     20877     21546     28000     23670     26907     28008     25538     27415
 -1      7974    6    0    1
 -2     21315     21313     21337     21549     24950     25032     25031     27641     25099     25151
 -1      7975    6    0    1
 -2     21541     21247     21235     21203     26043     24711     28189     26041     24710     24679
 -1      7976    6    0    1
 -2     21698     20689     21080     20725     25938     26235     25909     27231     23031     27864
 -1      7977    6    0    1
 -2     21539     20776     21210     21121     26460     26458     26459     26420     26841     24602
 -1      7978    6    0    1
 -2     21397     20443     20444     21665     22046     21773     22040     28217     28331     28218
 -1      7979    6    0    1
 -2     20937     21264     20896     20903     27651     28101     23727     23728     27689     23603
 -1      7980    6    0    1
 -2     21550     20950     20958     21549     25521     23808     25831     25150     25353     25351
 -1      7981    6    0    1
 -2     20768     21537     20665     20705     25443     25441     23177     23178     25394     22963
 -1      7982    6    0    1
 -2     20452     21668     21384     21354     27665     26114     22009     21940     28332     22013
 -1      7983    6    0    1
 -2     21666     21573     21429     21454     25766     27426     27949     25823     25821     22314
 -1      7984    6    0    1
 -2     21528     20601     21536     20681     25598     26746     25112     28093     22902     26747
 -1      7985    6    0    1
 -2     21020     20977     21611     20454     24037     28315     28333     23961     23868     27932
 -1      7986    6    0    1
 -2     21378     21356     21553     21520     22139     25142     26687     27175     26049     26050
 -1      7987    6    0    1
 -2     21618     21408     21379     21521     25311     22112     26032     25206     25313     26732
 -1      7988    6    0    1
 -2     21683     21077     21034     20994     25707     24170     28288     28310     24169     24075
 -1      7989    6    0    1
 -2     21566     21621     20586     20711     27032     26244     27031     27074     27072     22984
 -1      7990    6    0    1
 -2     21353     21537     21383     21381     28187     27897     22012     22129     27716     22130
 -1      7991    6    0    1
 -2     20454     21355     20455     21611     21942     21941     21785     27932     26172     28316
 -1      7992    6    0    1
 -2     21690     20450     21353     21383     28221     21938     28186     26435     22006     22012
 -1      7993    6    0    1
 -2     21675     20481     20480     21421     27783     21815     26509     27003     22214     22213
 -1      7994    6    0    1
 -2     21411     21381     21383     21537     22100     22130     22168     27898     27716     27897
 -1      7995    6    0    1
 -2     21103     21019     20976     21534     24237     24036     24238     25788     26242     27412
 -1      7996    6    0    1
 -2     21607     21630     21380     21557     25726     25725     25724     28159     28137     28138
 -1      7997    6    0    1
 -2     20803     21129     21191     20834     26299     24537     25461     23377     26294     25463
 -1      7998    6    0    1
 -2     20880     21180     20830     20839     28285     25070     23526     23527     26400     23394
 -1      7999    6    0    1
 -2     20772     21129     20803     20834     26282     26299     23289     23376     26294     23377
 -1      8000    6    0    1
 -2     20793     20683     21527     20781     23249     26590     25087     23252     23217     25088
 -1      8001    6    0    1
 -2     20793     21115     21166     21123     28185     24450     25086     25089     24331     24451
 -1      8002    6    0    1
 -2     21087     21115     21166     20793     24316     24450     24452     25085     28185     25086
 -1      8003    6    0    1
 -2     20683     20686     20793     21115     22918     23250     23249     28203     27494     28185
 -1      8004    6    0    1
 -2     21364     21569     21395     21400     26744     28308     22106     22160     26892     22159
 -1      8005    6    0    1
 -2     20793     20686     21087     21115     23250     27493     25085     28185     27494     24316
 -1      8006    6    0    1
 -2     21009     21709     20476     20966     28258     27837     23939     24083     28006     23846
 -1      8007    6    0    1
 -2     21573     20696     21126     20727     25774     28312     26330     25795     23041     26331
 -1      8008    6    0    1
 -2     20778     21126     20696     20727     27620     28312     23204     23205     26331     23041
 -1      8009    6    0    1
 -2     20778     21126     20775     20696     27620     26693     23206     23204     28312     23196
 -1      8010    6    0    1
 -2     21077     21149     21522     21111     24395     26968     25710     24313     24396     26967
 -1      8011    6    0    1
 -2     21191     21129     21185     20834     24537     24522     24538     25463     26294     25337
 -1      8012    6    0    1
 -2     21714     20686     21593     21043     28096     28171     28170     28208     27492     27070
 -1      8013    6    0    1
 -2     21527     21123     21174     21084     25090     24488     25541     26365     24332     24486
 -1      8014    6    0    1
 -2     20477     20966     20476     21709     23847     23846     21807     27838     28006     27837
 -1      8015    6    0    1
 -2     20690     21736     21068     21591     27407     28213     27171     26930     28027     26576
 -1      8016    6    0    1
 -2     21511     20551     21661     21494     22541     27627     27396     22574     22496     27629
 -1      8017    6    0    1
 -2     20707     20683     21595     20644     22970     27098     27095     22969     22908     27804
 -1      8018    6    0    1
 -2     21494     21593     21511     21480     27900     26359     22574     22589     26815     22600
 -1      8019    6    0    1
 -2     21477     21497     21665     21515     22615     28131     28325     22613     22561     27987
 -1      8020    6    0    1
 -2     20764     21145     21114     21137     26413     24384     26410     26416     24386     24364
 -1      8021    6    0    1
 -2     20764     21114     21092     21137     26410     24314     27210     26416     24364     24363
 -1      8022    6    0    1
 -2     21171     20837     20746     21137     28267     23385     27639     24470     27245     28284
 -1      8023    6    0    1
 -2     20746     20837     20764     21137     23385     23387     23164     28284     27245     26416
 -1      8024    6    0    1
 -2     21677     20677     21625     20969     28334     26874     28219     28335     25895     28336
 -1      8025    6    0    1
 -2     20744     20741     21150     21540     23109     26444     27592     25488     25196     26445
 -1      8026    6    0    1
 -2     20910     21192     21248     21243     26298     24714     27206     26296     24697     24783
 -1      8027    6    0    1
 -2     20742     20829     20801     21148     23363     23365     23285     25799     27319     27624
 -1      8028    6    0    1
 -2     21138     20834     21185     21129     25336     25337     24523     24367     26294     24522
 -1      8029    6    0    1
 -2     21352     21681     21385     21382     27765     27766     22117     22179     26886     22180
 -1      8030    6    0    1
 -2     21677     20438     20636     21659     26724     22727     28337     27959     28114     28338
 -1      8031    6    0    1
 -2     21621     21411     21721     21352     27977     28042     27033     25637     22169     28339
 -1      8032    6    0    1
 -2     20521     21558     21453     21429     27448     26132     22312     22254     25370     22318
 -1      8033    6    0    1
 -2     21193     21542     21127     21140     26798     25704     24543     24544     26860     24373
 -1      8034    6    0    1
 -2     21168     21148     20801     21200     24484     27624     25246     24563     24562     25362
 -1      8035    6    0    1
 -2     21439     20542     21552     21440     22273     26889     26472     22277     22276     28340
 -1      8036    6    0    1
 -2     20846     20789     21734     20796     23413     27757     27058     23415     23264     27903
 -1      8037    6    0    1
 -2     20916     20864     20893     21263     23665     23571     23669     27117     27355     27356
 -1      8038    6    0    1
 -2     20828     21140     20795     20796     28201     27302     23361     23362     27303     23265
 -1      8039    6    0    1
 -2     20454     21611     20455     20977     27932     28316     21785     23868     28315     23869
 -1      8040    6    0    1
 -2     20700     20796     21734     20789     23263     27903     26958     23240     23264     27757
 -1      8041    6    0    1
 -2     21067     20789     21734     21542     27526     27757     26766     25702     27758     26859
 -1      8042    6    0    1
 -2     20951     21324     21296     20956     27475     24979     28115     23805     25730     25728
 -1      8043    6    0    1
 -2     21155     21159     20850     21178     24428     27010     28290     24508     24587     26478
 -1      8044    6    0    1
 -2     20850     21159     21234     21178     27010     24784     28215     26478     24587     24677
 -1      8045    6    0    1
 -2     21615     21524     21069     21030     28266     27978     28124     28051     26794     24143
 -1      8046    6    0    1
 -2     21110     21079     21538     21144     24276     26354     26772     24383     24382     25958
 -1      8047    6    0    1
 -2     20771     21170     21535     21151     27188     27860     27714     27659     24481     26872
 -1      8048    6    0    1
 -2     20761     20762     21128     21523     23159     27534     28326     28304     28262     25097
 -1      8049    6    0    1
 -2     21541     20788     21538     21151     26465     26466     25959     25957     26873     25960
 -1      8050    6    0    1
 -2     21677     21659     20636     21519     27959     28338     28337     28341     27306     27727
 -1      8051    6    0    1
 -2     21144     21203     21541     21151     24570     26041     25956     24404     24571     25957
 -1      8052    6    0    1
 -2     21166     21540     21196     21181     26616     26617     24550     24514     26665     24552
 -1      8053    6    0    1
 -2     21518     20697     20693     20615     27476     23040     27270     28274     22943     22933
 -1      8054    6    0    1
 -2     20761     21523     20695     20762     28304     26819     23155     23159     28262     23157
 -1      8055    6    0    1
 -2     20814     20771     21151     21543     23320     27659     27742     27743     27658     25633
 -1      8056    6    0    1
 -2     21239     20881     21294     21257     25904     28342     24867     24746     27655     24866
 -1      8057    6    0    1
 -2     21218     21203     21541     21235     24658     26041     28005     24680     24679     28189
 -1      8058    6    0    1
 -2     21486     21736     21682     21489     27409     28157     27253     22610     27408     28172
 -1      8059    6    0    1
 -2     20697     20615     21518     21523     22943     28274     27476     26701     28277     27489
 -1      8060    6    0    1
 -2     20761     20810     21215     21194     23308     26817     26816     26855     26856     24612
 -1      8061    6    0    1
 -2     21522     20653     20728     20694     26582     23037     26581     25713     22935     23038
 -1      8062    6    0    1
 -2     21645     21452     21473     20495     26789     22394     26773     26774     22308     22365
 -1      8063    6    0    1
 -2     20694     21149     20759     21522     25976     25399     23151     25713     26968     27824
 -1      8064    6    0    1
 -2     21532     20742     20829     20757     25800     23363     27317     26034     23145     23364
 -1      8065    6    0    1
 -2     20840     21192     21243     21184     26297     24697     26295     27579     24613     24698
 -1      8066    6    0    1
 -2     20874     20837     21199     20824     23510     27246     27247     23509     23464     25417
 -1      8067    6    0    1
 -2     21083     20751     21157     21145     25628     25630     24418     24385     26412     24421
 -1      8068    6    0    1
 -2     20772     20713     21533     20738     23186     27582     26281     23188     23092     26283
 -1      8069    6    0    1
 -2     21171     20746     21092     21137     27639     27211     24469     24470     28284     24363
 -1      8070    6    0    1
 -2     21532     20757     20829     21162     26034     23364     27317     25509     25787     27318
 -1      8071    6    0    1
 -2     20757     21162     20847     20829     25787     27519     23416     23364     27318     23418
 -1      8072    6    0    1
 -2     20878     20873     21287     21311     23522     25982     27134     26587     25176     24946
 -1      8073    6    0    1
 -2     21262     20869     20889     21186     27617     23556     26547     24764     27420     26548
 -1      8074    6    0    1
 -2     21082     21092     21606     21041     24214     27793     27791     24182     24212     28282
 -1      8075    6    0    1
 -2     20977     20455     21667     21611     23869     27985     28343     28315     28316     26173
 -1      8076    6    0    1
 -2     20571     21714     21619     21501     28207     26987     28344     22515     28109     25952
 -1      8077    6    0    1
 -2     21291     21294     20933     20931     24890     25824     25227     26588     27589     23713
 -1      8078    6    0    1
 -2     21082     21526     21171     21176     25656     25302     24471     24500     25300     24501
 -1      8079    6    0    1
 -2     21527     21526     20753     20685     25487     26703     27446     27335     26704     23133
 -1      8080    6    0    1
 -2     21681     21559     21621     21352     26246     26247     26243     27765     27764     25637
 -1      8081    6    0    1
 -2     21094     20977     21611     21020     24218     28315     27482     24220     24037     28333
 -1      8082    6    0    1
 -2     21686     21083     20723     21000     27173     26784     28127     27174     24184     28297
 -1      8083    6    0    1
 -2     20847     21162     21205     20829     27519     24578     25384     23418     27318     27869
 -1      8084    6    0    1
 -2     21729     21467     20510     21716     27042     22353     26850     26956     26894     26955
 -1      8085    6    0    1
 -2     20694     21430     21590     20613     25711     25716     25714     22936     27943     28067
 -1      8086    6    0    1
 -2     21524     21074     21071     21173     26793     24161     28019     25355     24477     24476
 -1      8087    6    0    1
 -2     21698     20689     21113     21080     25938     27888     27775     25909     26235     24315
 -1      8088    6    0    1
 -2     20902     21544     20831     20835     27144     28228     23597     23598     25074     23381
 -1      8089    6    0    1
 -2     21524     21071     21141     21173     28019     24375     28345     25355     24476     24478
 -1      8090    6    0    1
 -2     21113     21117     21080     20752     24318     24317     24315     27383     27067     26234
 -1      8091    6    0    1
 -2     20858     20890     21543     20906     23573     25771     27057     23613     23612     25776
 -1      8092    6    0    1
 -2     20416     20417     21721     20586     21746     26893     26882     22619     22618     27034
 -1      8093    6    0    1
 -2     21538     20684     20724     20755     26795     23021     28209     26464     23138     23137
 -1      8094    6    0    1
 -2     21292     21297     20926     21550     24879     25663     25391     26691     25430     26715
 -1      8095    6    0    1
 -2     20727     21112     21535     21170     26332     26143     26518     27349     24463     27860
 -1      8096    6    0    1
 -2     21686     21000     20723     21636     27174     28297     28127     27365     28303     26760
 -1      8097    6    0    1
 -2     21538     20755     20724     20788     26464     23137     28209     26466     23236     23235
 -1      8098    6    0    1
 -2     21256     21214     21193     21542     24743     24607     24744     26800     27040     26798
 -1      8099    6    0    1
 -2     21094     21020     21611     21529     24220     28333     27482     27483     28346     25265
 -1      8100    6    0    1
 -2     21034     21077     21683     21522     24170     25707     28288     27469     25710     25708
 -1      8101    6    0    1
 -2     20562     21710     21489     20561     28257     25475     22484     21903     28256     22483
 -1      8102    6    0    1
 -2     21193     21214     21127     21542     24607     24606     24543     26798     27040     25704
 -1      8103    6    0    1
 -2     21072     21525     21067     21165     27418     26769     24153     24448     27550     24446
 -1      8104    6    0    1
 -2     21067     20754     21542     21165     27606     26133     25702     24446     26134     25703
 -1      8105    6    0    1
 -2     20804     20837     21171     21225     23386     28267     25299     26752     25902     24645
 -1      8106    6    0    1
 -2     20808     21173     21215     21220     25357     24611     25187     27694     24625     24627
 -1      8107    6    0    1
 -2     21695     21524     21468     21597     28243     28034     28023     28024     27604     27268
 -1      8108    6    0    1
 -2     21199     21137     20837     21225     24560     27245     27246     24644     24643     25902
 -1      8109    6    0    1
 -2     21607     20588     20666     20669     28149     22869     28158     27539     22874     22877
 -1      8110    6    0    1
 -2     20783     20840     20805     21139     23396     23395     23326     28009     25469     25468
 -1      8111    6    0    1
 -2     20678     21603     20719     20968     26267     25188     23065     25456     25843     25844
 -1      8112    6    0    1
 -2     20968     21010     21047     20678     24060     24097     24096     25456     25837     25455
 -1      8113    6    0    1
 -2     21237     20874     20837     21199     25721     23510     25901     24684     27247     27246
 -1      8114    6    0    1
 -2     21038     20998     21682     21068     24091     26727     26572     24142     24141     26573
 -1      8115    6    0    1
 -2     21485     21506     21698     20581     22525     27131     27529     22470     22526     27530
 -1      8116    6    0    1
 -2     21620     21682     21736     21489     26726     28157     28212     27437     28172     27408
 -1      8117    6    0    1
 -2     21237     21199     20837     21225     24684     27246     25901     24683     24644     25902
 -1      8118    6    0    1
 -2     20915     21236     21268     21285     28322     24800     26469     27687     24832     24831
 -1      8119    6    0    1
 -2     21642     21467     20509     21445     27148     22352     27393     26483     22398     22294
 -1      8120    6    0    1
 -2     21038     20583     21682     20998     24006     27105     26572     24091     23915     26727
 -1      8121    6    0    1
 -2     20761     21141     21173     21524     27544     24478     25354     25356     28345     25355
 -1      8122    6    0    1
 -2     20787     20686     20680     21087     23234     22917     23232     28287     27493     28286
 -1      8123    6    0    1
 -2     20787     20686     21087     20793     23234     27493     28287     23251     23250     25085
 -1      8124    6    0    1
 -2     20872     20884     20930     21236     23542     23700     23699     26887     25080     25503
 -1      8125    6    0    1
 -2     20872     20930     21245     21236     23699     25501     26076     26887     25503     24705
 -1      8126    6    0    1
 -2     21135     20815     21519     20744     27371     27568     27037     27593     23323     27569
 -1      8127    6    0    1
 -2     20915     21236     20930     20884     28322     25503     23701     23639     25080     23700
 -1      8128    6    0    1
 -2     21581     21359     21390     20462     26207     22075     27352     26208     21950     22023
 -1      8129    6    0    1
 -2     21102     21520     21018     20975     27132     27240     24235     24236     26266     24035
 -1      8130    6    0    1
 -2     21593     21115     20686     20683     25278     27494     28171     26593     28203     22918
 -1      8131    6    0    1
 -2     21236     20915     21549     21285     28322     27686     28347     24832     27687     27642
 -1      8132    6    0    1
 -2     20906     20905     21272     21543     23688     26038     26175     25776     26035     26037
 -1      8133    6    0    1
 -2     21543     21546     21284     21272     26178     26913     26914     26037     26177     24892
 -1      8134    6    0    1
 -2     20973     21581     21649     21532     26494     26495     26492     26122     28317     27453
 -1      8135    6    0    1
 -2     21270     20873     21287     20856     26932     25982     24842     27734     23506     25983
 -1      8136    6    0    1
 -2     20840     21184     21243     20871     27579     24698     26295     23502     25928     25927
 -1      8137    6    0    1
 -2     20858     21541     20861     20905     27056     26676     23473     23664     26014     23609
 -1      8138    6    0    1
 -2     21681     21352     21621     21721     27765     25637     26243     26883     28339     27033
 -1      8139    6    0    1
 -2     21190     21230     21163     21541     24662     24661     24535     26042     28314     27258
 -1      8140    6    0    1
 -2     20905     21541     20861     20842     26014     26676     23609     23606     27695     23472
 -1      8141    6    0    1
 -2     20840     20871     21243     20910     23502     25927     26295     23622     23624     26296
 -1      8142    6    0    1
 -2     21223     20838     20903     20897     25425     23601     25490     25427     23585     23602
 -1      8143    6    0    1
 -2     21670     21386     21611     21529     28160     25267     28348     27284     25268     25265
 -1      8144    6    0    1
 -2     21223     20897     20903     21258     25427     23602     25490     24748     25662     25491
 -1      8145    6    0    1
 -2     21659     21677     21554     21519     27959     27960     27305     27306     28341     26313
 -1      8146    6    0    1
 -2     20921     21302     21264     20937     25535     24896     28294     23729     25900     27651
 -1      8147    6    0    1
 -2     20921     20937     21264     20896     23729     27651     28294     23671     23727     28101
 -1      8148    6    0    1
 -2     21391     21404     21360     21531     22163     22175     22102     26339     26341     27442
 -1      8149    6    0    1
 -2     20871     20878     20823     21269     23521     23520     23501     25929     26000     25998
 -1      8150    6    0    1
 -2     21382     21681     21721     21352     26886     26883     26885     22179     27765     28339
 -1      8151    6    0    1
 -2     20977     21611     21667     21521     28315     26173     28343     27637     26174     25871
 -1      8152    6    0    1
 -2     21607     20669     20666     21057     27539     22877     28158     25635     27541     27238
 -1      8153    6    0    1
 -2     20421     20588     21630     20420     22622     28150     28136     21750     22623     25974
 -1      8154    6    0    1
 -2     20740     21531     20712     20769     26101     26099     23096     23181     25733     23179
 -1      8155    6    0    1
 -2     20871     21184     20823     20840     25928     25997     23501     23502     27579     23397
 -1      8156    6    0    1
 -2     21520     21534     21378     21583     25420     25297     27175     27176     25298     25295
 -1      8157    6    0    1
 -2     20823     21184     21139     20840     25997     24519     25470     23397     27579     25469
 -1      8158    6    0    1
 -2     20458     20457     21388     21601     21788     22020     22019     27351     26113     26111
 -1      8159    6    0    1
 -2     20457     21388     21520     21356     22020     26110     26051     21943     22078     26049
 -1      8160    6    0    1
 -2     21210     21253     21539     21209     24731     28066     26459     24674     24732     27523
 -1      8161    6    0    1
 -2     21224     21131     20823     21184     24640     27547     26040     24642     24520     25997
 -1      8162    6    0    1
 -2     21554     21625     20471     20969     27817     25826     27816     28349     28336     23853
 -1      8163    6    0    1
 -2     21673     20677     21707     20637     26877     26971     28350     28351     22892     28352
 -1      8164    6    0    1
 -2     21532     21359     21405     21390     26805     22165     26806     27927     22075     22142
 -1      8165    6    0    1
 -2     20719     21011     21673     20677     25884     26861     25190     23074     26875     26877
 -1      8166    6    0    1
 -2     21017     21054     21533     21101     24111     25561     27728     24233     24298     25562
 -1      8167    6    0    1
 -2     20459     21533     21389     20460     27244     26421     22022     21790     27670     22021
 -1      8168    6    0    1
 -2     21032     20992     21697     21518     24084     28353     28263     26153     26151     26528
 -1      8169    6    0    1
 -2     20826     21195     20759     20818     28001     27562     23354     23355     25431     23333
 -1      8170    6    0    1
 -2     21539     21209     21118     21121     27523     24592     26508     26420     24591     24327
 -1      8171    6    0    1
 -2     21152     21095     21047     20773     24405     24240     24406     27273     27389     27272
 -1      8172    6    0    1
 -2     21707     21400     20440     20439     27780     22050     27778     27661     22049     21769
 -1      8173    6    0    1
 -2     21032     20527     21697     20992     23993     28133     28263     24084     23901     28353
 -1      8174    6    0    1
 -2     21709     21588     21397     21528     28196     26536     28195     28028     28129     28144
 -1      8175    6    0    1
 -2     21670     20454     21611     21386     28226     27932     28348     28160     22015     25267
 -1      8176    6    0    1
 -2     21142     21195     20759     20826     24548     27562     27563     27970     28001     23354
 -1      8177    6    0    1
 -2     21256     21214     21542     21275     24743     27040     26800     24805     24804     26731
 -1      8178    6    0    1
 -2     20705     20711     21539     21537     22985     26291     26290     25394     25395     25590
 -1      8179    6    0    1
 -2     21539     20768     20816     20774     27281     23327     25493     26292     23194     23328
 -1      8180    6    0    1
 -2     21690     21383     21353     21537     26435     22012     28186     27760     27897     28187
 -1      8181    6    0    1
 -2     20534     20988     21723     20535     23892     26523     27880     21875     23893     28250
 -1      8182    6    0    1
 -2     20864     21263     20916     21280     27355     27117     23665     26962     24945     28307
 -1      8183    6    0    1
 -2     21647     20992     21697     20526     27918     28353     26526     27767     23900     28132
 -1      8184    6    0    1
 -2     20916     20908     20864     21280     23651     23618     23665     28307     26961     26962
 -1      8185    6    0    1
 -2     20534     20988     21029     21610     23892     24044     23988     27876     28240     28354
 -1      8186    6    0    1
 -2     21603     21364     20473     21396     26743     21959     27511     27227     22086     22036
 -1      8187    6    0    1
 -2     20473     21603     21010     20968     27511     26268     23940     23851     25843     24060
 -1      8188    6    0    1
 -2     20916     21280     20871     20908     28307     28355     23643     23651     26961     23652
 -1      8189    6    0    1
 -2     21280     20908     20910     20871     26961     23658     27607     28355     23652     23624
 -1      8190    6    0    1
 -2     20871     21243     21280     21291     25927     24819     28355     25999     24857     24859
 -1      8191    6    0    1
 -2     21419     21342     21613     20485     22205     26979     25154     22207     22204     28086
 -1      8192    6    0    1
 -2     20871     21291     21280     20916     25999     24859     28355     23643     25226     28307
 -1      8193    6    0    1
 -2     20426     21377     21700     20427     21989     27725     25652     21756     21990     25793
 -1      8194    6    0    1
 -2     20592     20713     21533     20631     22992     27582     28153     22836     22990     27583
 -1      8195    6    0    1
 -2     21530     20634     20595     20716     26302     22839     27036     26303     23001     23000
 -1      8196    6    0    1
 -2     21607     21380     21410     21354     25724     22099     25164     26204     22148     22170
 -1      8197    6    0    1
 -2     21094     21020     21529     21057     24220     28346     27483     24239     24117     26681
 -1      8198    6    0    1
 -2     21428     21535     21473     21453     26462     27344     22427     22311     26136     22439
 -1      8199    6    0    1
 -2     21637     20520     20521     21453     26254     21861     27450     27431     22310     22312
 -1      8200    6    0    1
 -2     21637     21453     21428     20520     27431     22311     26253     26254     22310     22251
 -1      8201    6    0    1
 -2     21311     21269     20878     21291     24935     26000     26587     24934     24858     26001
 -1      8202    6    0    1
 -2     21523     21433     20530     21524     25967     22261     25966     27297     27298     27325
 -1      8203    6    0    1
 -2     20805     21057     21139     21131     26188     24369     25468     26683     24347     24459
 -1      8204    6    0    1
 -2     21727     20692     21038     21735     26637     26644     25270     27755     28356     26928
 -1      8205    6    0    1
 -2     20499     21450     21629     21590     22304     26586     28054     26497     27462     28068
 -1      8206    6    0    1
 -2     21524     21523     21141     21071     27297     25238     28345     28019     25907     24375
 -1      8207    6    0    1
 -2     21721     20586     20417     21566     27034     22618     26893     27035     27031     25761
 -1      8208    6    0    1
 -2     20695     20697     20762     21523     22944     23158     23157     26819     26701     28262
 -1      8209    6    0    1
 -2     21384     21668     21410     21354     26114     26115     22181     22013     28332     22170
 -1      8210    6    0    1
 -2     21620     21068     21736     21682     25961     28213     28212     26726     26573     28157
 -1      8211    6    0    1
 -2     21646     21407     20426     20425     25689     22064     25651     28357     22063     21755
 -1      8212    6    0    1
 -2     21550     21543     21332     21297     26944     25634     25429     25430     25597     25010
 -1      8213    6    0    1
 -2     20424     20423     21618     21408     21753     27832     26261     22066     22065     25311
 -1      8214    6    0    1
 -2     21697     20526     20992     20527     28132     23900     28353     28133     21867     23901
 -1      8215    6    0    1
 -2     20871     21291     20916     20878     25999     25226     23643     23521     26001     23642
 -1      8216    6    0    1
 -2     21710     21486     20609     21656     25477     28358     28278     27853     27213     28359
 -1      8217    6    0    1
 -2     20921     21546     21267     21302     25538     28008     28000     25535     25537     24897
 -1      8218    6    0    1
 -2     21665     21397     21709     21366     28217     28195     28130     27894     22037     27830
 -1      8219    6    0    1
 -2     21221     20886     21542     20846     27233     27234     26799     28202     23547     27060
 -1      8220    6    0    1
 -2     21542     21140     21193     21221     26860     24544     26798     26799     24628     24630
 -1      8221    6    0    1
 -2     20700     20789     21734     21067     23240     27757     26958     26633     27526     26766
 -1      8222    6    0    1
 -2     21542     21140     21221     20846     26860     24628     26799     27060     27059     28202
 -1      8223    6    0    1
 -2     21629     20650     20497     20498     26700     22759     25916     28055     22761     21837
 -1      8224    6    0    1
 -2     21683     20524     21430     20523     28165     22255     25705     28299     21864     22256
 -1      8225    6    0    1
 -2     21518     21653     21448     21523     25063     27339     25574     27489     27545     26824
 -1      8226    6    0    1
 -2     21477     21368     21665     21366     27222     27769     28325     27829     22171     27894
 -1      8227    6    0    1
 -2     21304     21264     20937     21258     24903     27651     25649     24902     24770     25647
 -1      8228    6    0    1
 -2     21398     21594     21678     21367     27745     26737     25552     22166     27746     28060
 -1      8229    6    0    1
 -2     21709     21366     21397     20476     27830     22037     28195     27837     21964     22038
 -1      8230    6    0    1
 -2     21683     21430     21454     20523     25705     22319     25822     28299     22256     22315
 -1      8231    6    0    1
 -2     21473     21535     21622     21451     27344     27737     27680     22382     28360     25759
 -1      8232    6    0    1
 -2     21477     21366     21665     21709     27829     27894     28325     26623     27830     28130
 -1      8233    6    0    1
 -2     20588     20421     21557     20628     22622     27572     28291     22802     22712     27922
 -1      8234    6    0    1
 -2     21557     21386     21379     21409     26280     22137     25272     27571     22183     22098
 -1      8235    6    0    1
 -2     20921     20896     21264     21267     23671     28101     28294     28000     26908     24777
 -1      8236    6    0    1
 -2     21695     21525     21584     21446     28272     27392     28361     28043     28246     26272
 -1      8237    6    0    1
 -2     21524     21468     21459     21434     28034     22435     27153     27155     22429     22384
 -1      8238    6    0    1
 -2     21429     21451     21573     21535     22404     25756     27426     26135     28360     26517
 -1      8239    6    0    1
 -2     20866     20909     20904     21543     23619     23621     23605     25769     25770     26205
 -1      8240    6    0    1
 -2     20412     20486     21552     21414     21821     25578     27082     22189     22192     25130
 -1      8241    6    0    1
 -2     21032     21575     21697     20527     28264     28265     28263     23993     27472     28133
 -1      8242    6    0    1
 -2     21439     20542     20541     21699     22273     21882     22274     25333     26842     26323
 -1      8243    6    0    1
 -2     20728     20759     20767     21522     23150     23175     23174     26581     27824     27706
 -1      8244    6    0    1
 -2     21477     21709     21665     21497     26623     28130     28325     22615     28041     28131
 -1      8245    6    0    1
 -2     21647     21518     21697     20992     25744     26528     26526     27918     26151     28353
 -1      8246    6    0    1
 -2     20485     21613     21587     20664     28086     25155     28102     22795     28151     28362
 -1      8247    6    0    1
 -2     21633     21023     20448     20447     27005     23967     25372     26168     23966     21778
 -1      8248    6    0    1
 -2     20658     21525     20988     21610     26921     26771     26922     27884     26920     28240
 -1      8249    6    0    1
 -2     21478     21528     20567     21498     26985     25244     22456     22512     27004     22506
 -1      8250    6    0    1
 -2     21731     20661     21640     21711     26080     28116     25857     25859     26081     25858
 -1      8251    6    0    1
 -2     21671     20573     20574     21481     27909     21916     27611     26044     22462     22461
 -1      8252    6    0    1
 -2     21342     21613     21577     21418     26979     28046     26074     22203     26980     26102
 -1      8253    6    0    1
 -2     21304     20951     20943     21330     27473     23779     27625     24998     27474     27626
 -1      8254    6    0    1
 -2     21669     20573     21481     21502     27908     22462     28011     26717     22517     22570
 -1      8255    6    0    1
 -2     21188     21198     20778     21126     24559     27619     26142     24530     24557     27620
 -1      8256    6    0    1
 -2     20560     21485     21562     20561     22485     25449     26378     21902     22486     25450
 -1      8257    6    0    1
 -2     21076     21675     21517     20984     27163     26056     27215     24165     27916     27917
 -1      8258    6    0    1
 -2     21727     20692     21735     20610     26637     28356     27755     26666     22929     27196
 -1      8259    6    0    1
 -2     21439     21442     21567     21517     22443     27713     27722     26473     26957     26202
 -1      8260    6    0    1
 -2     21574     21348     20493     20413     25925     22244     26570     27851     21829     21832
 -1      8261    6    0    1
 -2     21731     21517     21699     20985     26199     26475     28179     27497     28031     26322
 -1      8262    6    0    1
 -2     20984     21076     20985     21517     24165     24168     24136     27917     27215     28031
 -1      8263    6    0    1
 -2     21643     21517     21425     21413     26059     26055     26058     27715     28003     22234
 -1      8264    6    0    1
 -2     21656     20692     20610     21735     28363     22929     27195     27113     28356     27196
 -1      8265    6    0    1
 -2     21413     21517     21425     21424     28003     26055     22234     22235     26790     22236
 -1      8266    6    0    1
 -2     21638     21528     20639     21665     28365     28092     28364     28366     26569     28367
 -1      8267    6    0    1
 -2     21665     20445     20444     21366     27771     21774     28218     27894     21972     21971
 -1      8268    6    0    1
 -2     21710     21486     20690     20609     25477     25474     25476     28278     28358     22925
 -1      8269    6    0    1
 -2     20545     21693     21497     20544     26584     28020     22502     21886     26796     22501
 -1      8270    6    0    1
 -2     20690     21591     21735     21656     26930     26931     26927     27212     27112     27113
 -1      8271    6    0    1
 -2     20510     21467     20509     21716     22353     22352     21849     26955     26894     27904
 -1      8272    6    0    1
 -2     21236     21285     21549     21286     24832     27642     28347     24834     24836     25505
 -1      8273    6    0    1
 -2     20905     20843     20877     21216     23607     23517     23608     26013     26016     28121
 -1      8274    6    0    1
 -2     21108     21085     21037     20688     24284     24188     24265     25988     27999     25877
 -1      8275    6    0    1
 -2     21108     20725     21080     20749     25987     27864     24264     25995     23121     26233
 -1      8276    6    0    1
 -2     20534     20535     21723     21461     21875     28250     27880     22332     22331     27872
 -1      8277    6    0    1
 -2     21105     21059     21539     21118     24309     26418     25588     24320     24319     26508
 -1      8278    6    0    1
 -2     21692     20997     20584     21038     25120     23913     25609     25271     24011     24007
 -1      8279    6    0    1
 -2     20794     21206     20817     20813     27590     25145     23329     23318     27595     23332
 -1      8280    6    0    1
 -2     21473     21453     21535     21451     22439     26136     27344     22382     22405     28360
 -1      8281    6    0    1
 -2     20979     21537     21690     21614     26965     27760     28368     27208     27209     28188
 -1      8282    6    0    1
 -2     21674     21628     20632     20672     27802     28370     28369     28152     28180     22882
 -1      8283    6    0    1
 -2     21432     21575     20528     20527     25951     25949     22259     22260     27472     21868
 -1      8284    6    0    1
 -2     20643     21696     20550     21586     28198     28079     22745     28309     28080     26358
 -1      8285    6    0    1
 -2     21328     21329     21336     21549     24997     25025     25024     25098     26467     27334
 -1      8286    6    0    1
 -2     20950     21549     21339     20959     25353     25522     25519     23806     25816     27681
 -1      8287    6    0    1
 -2     21207     20813     21179     20809     26491     26647     24584     25942     23319     26646
 -1      8288    6    0    1
 -2     20715     20672     21674     20632     23023     28152     26801     22998     22882     28369
 -1      8289    6    0    1
 -2     20597     21519     20718     20969     28371     27726     23004     25894     28324     25893
 -1      8290    6    0    1
 -2     20688     21000     20723     21085     26901     28297     23030     27999     24187     27998
 -1      8291    6    0    1
 -2     21339     21330     21331     21546     25040     25005     25041     26329     27684     25452
 -1      8292    6    0    1
 -2     20688     21636     20723     21000     28302     26760     23030     26901     28303     28297
 -1      8293    6    0    1
 -2     20959     20952     21336     21324     23828     27332     27331     27859     27645     25026
 -1      8294    6    0    1
 -2     21461     20535     21723     21436     22331     28250     27872     22386     22268     28251
 -1      8295    6    0    1
 -2     20951     20952     20959     21324     23829     23828     23814     27475     27645     27859
 -1      8296    6    0    1
 -2     21339     21336     20959     21549     25039     27331     27681     25522     27334     25816
 -1      8297    6    0    1
 -2     20877     21217     21267     21216     26906     24775     26907     28121     24618     24776
 -1      8298    6    0    1
 -2     21713     21436     21467     21723     27749     22419     26519     26521     28251     26520
 -1      8299    6    0    1
 -2     21236     21286     21549     20930     24834     25505     28347     25503     25502     25507
 -1      8300    6    0    1
 -2     20959     21549     21336     20961     25816     27334     27331     23844     25817     27333
 -1      8301    6    0    1
 -2     21285     21313     21315     21549     24941     24950     24949     27642     25099     27641
 -1      8302    6    0    1
 -2     21378     21520     21553     21534     27175     26050     26687     25297     25420     26688
 -1      8303    6    0    1
 -2     21534     21172     21130     21055     25789     24496     25418     25419     24474     24345
 -1      8304    6    0    1
 -2     21520     21102     20671     20975     27132     27133     27103     26266     24236     27104
 -1      8305    6    0    1
 -2     21333     21549     21315     21337     25152     27641     25030     25034     25151     25031
 -1      8306    6    0    1
 -2     21534     21154     21202     21172     27622     24568     26179     25789     24494     24569
 -1      8307    6    0    1
 -2     21601     21388     21377     21520     26111     22128     25734     26112     26110     25688
 -1      8308    6    0    1
 -2     20701     21730     21676     21719     26222     27019     28372     26224     26225     27405
 -1      8309    6    0    1
 -2     21567     21643     20479     21413     26361     26362     26360     27120     27715     22215
 -1      8310    6    0    1
 -2     20543     20409     20446     21623     21884     21776     22648     25803     25804     27518
 -1      8311    6    0    1
 -2     21735     21038     21692     21591     26928     25271     28269     26931     26574     27858
 -1      8312    6    0    1
 -2     20950     20959     21339     21546     23806     27681     25519     25841     27682     26329
 -1      8313    6    0    1
 -2     21045     21089     21006     21528     24199     24198     24082     25110     25111     25243
 -1      8314    6    0    1
 -2     21076     20703     20662     20623     26926     22958     27214     27125     22966     22790
 -1      8315    6    0    1
 -2     21466     21641     21443     21437     25991     26456     22347     22422     25994     22430
 -1      8316    6    0    1
 -2     21430     20613     20694     20696     27943     22936     25711     25773     22939     22941
 -1      8317    6    0    1
 -2     20778     21170     21188     21126     26141     24529     26142     27620     24464     24530
 -1      8318    6    0    1
 -2     20759     21522     20728     20694     27824     26581     23150     23151     25713     23038
 -1      8319    6    0    1
 -2     21462     20537     21708     21437     22333     27676     28090     22387     22270     27374
 -1      8320    6    0    1
 -2     20704     20623     21551     20663     22960     27167     27165     22959     22832     28295
 -1      8321    6    0    1
 -2     21422     21415     21608     20488     22217     27717     26367     22216     22193     28140
 -1      8322    6    0    1
 -2     20983     20490     21631     21551     23882     26064     28373     28305     25093     26065
 -1      8323    6    0    1
 -2     21050     20743     20739     20675     25806     23105     26984     27030     23104     23093
 -1      8324    6    0    1
 -2     20786     20714     21102     20671     23231     26258     26259     23230     23078     27133
 -1      8325    6    0    1
 -2     21124     21050     20739     21530     24334     26984     26439     25218     25219     27039
 -1      8326    6    0    1
 -2     21361     21403     21578     21530     22150     27643     26345     26348     25500     26347
 -1      8327    6    0    1
 -2     21217     20877     20896     20820     26906     23581     26905     25104     23518     23579
 -1      8328    6    0    1
 -2     21520     20590     20630     20670     27179     22804     26263     26650     22879     22878
 -1      8329    6    0    1
 -2     20988     21525     21029     21610     26771     27419     24044     28240     26920     28354
 -1      8330    6    0    1
 -2     21669     21115     21084     21003     25281     24301     26364     27279     24287     24185
 -1      8331    6    0    1
 -2     20896     21264     21267     21217     28101     24777     26908     26905     24769     24775
 -1      8332    6    0    1
 -2     20630     20714     20591     21520     22994     22993     22835     26263     26351     25546
 -1      8333    6    0    1
 -2     20896     20820     20852     21217     23579     23445     23580     26905     25104     25103
 -1      8334    6    0    1
 -2     20822     20787     20745     21147     23346     23233     23343     27471     27285     25754
 -1      8335    6    0    1
 -2     21212     20896     20852     21217     28100     23580     25472     24619     26905     25103
 -1      8336    6    0    1
 -2     20905     21541     21216     21272     26014     26015     26013     26038     26039     24792
 -1      8337    6    0    1
 -2     20550     21696     20643     21661     28079     28198     22745     27628     28098     28374
 -1      8338    6    0    1
 -2     21149     20694     20759     20775     25976     23151     25399     25397     23195     23197
 -1      8339    6    0    1
 -2     21284     21272     21235     21543     24892     24883     24829     26914     26037     25838
 -1      8340    6    0    1
 -2     21149     21077     21522     20694     24395     25710     26968     25976     25712     25713
 -1      8341    6    0    1
 -2     21461     21436     21723     21467     22386     28251     27872     22445     22419     26520
 -1      8342    6    0    1
 -2     21234     21253     20895     20854     24733     26579     26577     27543     28036     23582
 -1      8343    6    0    1
 -2     21247     21272     21230     21541     24794     24793     24712     26043     26039     28314
 -1      8344    6    0    1
 -2     20896     21212     20903     21264     28100     25492     23603     28101     24768     27689
 -1      8345    6    0    1
 -2     21717     21595     20552     21511     28296     26878     28375     27398     26879     22542
 -1      8346    6    0    1
 -2     21527     20685     20797     20707     27335     23269     27490     27097     22971     23270
 -1      8347    6    0    1
 -2     20781     21527     20797     20707     25088     27490     23271     23216     27097     23270
 -1      8348    6    0    1
 -2     21717     21511     20552     20551     27398     22542     28375     27634     22541     21893
 -1      8349    6    0    1
 -2     21605     20504     20503     21469     28156     21843     27488     27487     22358     22357
 -1      8350    6    0    1
 -2     21518     21161     20765     20697     27265     25108     27271     27476     25106     23166
 -1      8351    6    0    1
 -2     20761     21523     21141     21524     28304     25238     27544     25356     27297     28345
 -1      8352    6    0    1
 -2     21447     20504     21605     21469     22297     28156     28311     22378     22358     27487
 -1      8353    6    0    1
 -2     21333     21549     21550     20957     25152     25150     25149     27594     27711     25832
 -1      8354    6    0    1
 -2     20676     20717     21599     20596     23079     25253     25653     22891     23002     27516
 -1      8355    6    0    1
 -2     21279     20915     21549     20935     27685     27686     27640     27777     23722     27710
 -1      8356    6    0    1
 -2     20800     20806     20860     21540     23300     23466     23465     25194     25195     25126
 -1      8357    6    0    1
 -2     21212     20896     20903     20852     28100     23603     25492     25472     23580     23600
 -1      8358    6    0    1
 -2     21236     20930     21549     20915     25503     25507     28347     28322     23701     27686
 -1      8359    6    0    1
 -2     21279     20935     21549     21315     27777     27710     27640     24948     27709     27641
 -1      8360    6    0    1
 -2     20915     20935     20948     21549     23722     23781     23768     27686     27710     25511
 -1      8361    6    0    1
 -2     21067     21525     21029     20988     26769     27419     24139     24140     26771     24044
 -1      8362    6    0    1
 -2     21725     20566     21498     21477     27054     22504     27050     28327     22453     22505
 -1      8363    6    0    1
 -2     20766     21525     21069     21179     26938     27696     27044     26648     27549     24510
 -1      8364    6    0    1
 -2     20565     21725     21477     20566     27969     28327     22454     21908     27054     22453
 -1      8365    6    0    1
 -2     20966     21528     20566     21006     27252     27055     23933     24024     25243     23930
 -1      8366    6    0    1
 -2     21171     20804     20746     20837     25299     23292     27639     28267     23386     23385
 -1      8367    6    0    1
 -2     21384     21537     21614     21353     26117     27209     27962     22008     28187     28084
 -1      8368    6    0    1
 -2     20465     20464     21360     21579     21795     21952     21951     26165     27535     26163
 -1      8369    6    0    1
 -2     21527     20797     20851     20832     27490     23438     26888     27491     23371     23439
 -1      8370    6    0    1
 -2     21118     21209     21539     21228     24592     27523     26508     24653     24669     26485
 -1      8371    6    0    1
 -2     21254     20897     20874     20824     25661     23584     27248     25416     23583     23509
 -1      8372    6    0    1
 -2     20988     21467     21716     21610     26522     26894     25749     28240     27147     27150
 -1      8373    6    0    1
 -2     21609     21528     21045     20567     28094     25110     27674     27867     25244     24022
 -1      8374    6    0    1
 -2     21669     21527     21493     21481     25280     25480     25478     28011     25484     22593
 -1      8375    6    0    1
 -2     20881     21239     21294     20933     25904     24867     28342     23712     25225     25824
 -1      8376    6    0    1
 -2     21669     21527     21481     21671     25280     25484     28011     27905     26009     26044
 -1      8377    6    0    1
 -2     20845     20849     21182     20760     23430     27635     27648     23410     23428     27062
 -1      8378    6    0    1
 -2     21384     21537     21353     21381     26117     28187     22008     22131     27716     22129
 -1      8379    6    0    1
 -2     21265     20879     20810     21283     26822     23523     27633     24837     25361     25359
 -1      8380    6    0    1
 -2     20933     21239     20893     20881     25225     27982     23711     23712     25904     23641
 -1      8381    6    0    1
 -2     21484     21652     21698     20580     28070     27230     28376     22467     28377     27436
 -1      8382    6    0    1
 -2     21484     20580     21698     21506     22467     27436     28376     22599     22527     27131
 -1      8383    6    0    1
 -2     21609     21536     21045     21528     27675     25075     27674     28094     25112     25110
 -1      8384    6    0    1
 -2     20548     21495     21691     20549     22497     25306     27390     21890     22498     27938
 -1      8385    6    0    1
 -2     21524     21220     21175     21173     26279     24626     26277     25355     24625     24491
 -1      8386    6    0    1
 -2     20776     20819     21210     20799     23336     26457     26458     23314     23422     26496
 -1      8387    6    0    1
 -2     21175     21220     20817     21206     24626     25147     27672     24580     24666     25145
 -1      8388    6    0    1
 -2     21463     20514     21650     20513     22338     28270     25286     22350     21853     28378
 -1      8389    6    0    1
 -2     21730     21463     21650     21676     26273     25286     26215     27019     27404     27018
 -1      8390    6    0    1
 -2     21669     21481     21493     21502     28011     22593     25478     26717     22570     22594
 -1      8391    6    0    1
 -2     20753     20746     20682     21526     23134     23113     23132     26703     27557     26702
 -1      8392    6    0    1
 -2     21713     21028     21657     20536     27976     25595     27748     27751     23986     27750
 -1      8393    6    0    1
 -2     20850     21159     21155     20798     27010     24428     28290     23433     25292     25290
 -1      8394    6    0    1
 -2     20746     20804     21171     21526     23292     25299     27639     27557     25301     25302
 -1      8395    6    0    1
 -2     20510     21634     20511     21444     26851     28328     21850     22291     27496     22292
 -1      8396    6    0    1
 -2     20806     20744     21540     20741     23299     25488     25195     23298     23109     25196
 -1      8397    6    0    1
 -2     21685     21402     21372     20436     26424     22091     27291     27925     22054     21979
 -1      8398    6    0    1
 -2     20676     21519     20717     20737     25654     25252     23079     23089     27536     23090
 -1      8399    6    0    1
 -2     20737     20744     20676     21519     23212     23108     23089     27536     27569     25654
 -1      8400    6    0    1
 -2     21135     20744     21540     20815     27593     25488     27369     27371     23323     25489
 -1      8401    6    0    1
 -2     20554     21510     20553     21662     22540     22539     21895     27688     26601     28045
 -1      8402    6    0    1
 -2     20893     21239     20817     20881     27982     25146     23570     23641     25904     23531
 -1      8403    6    0    1
 -2     20699     21525     20729     20766     25460     27422     23047     23170     26938     23171
 -1      8404    6    0    1
 -2     21280     20871     20910     21243     28355     23624     27607     24819     25927     26296
 -1      8405    6    0    1
 -2     21481     21493     21662     21527     22593     26658     25482     25484     25480     25483
 -1      8406    6    0    1
 -2     21228     21209     21539     21253     24669     27523     26485     24738     24732     28066
 -1      8407    6    0    1
 -2     21669     21502     21493     21511     26717     22594     25478     25479     22606     22557
 -1      8408    6    0    1
 -2     21155     21178     20841     21153     24508     25668     28167     24506     24507     25667
 -1      8409    6    0    1
 -2     21221     21159     21234     20850     24629     24784     24901     28216     27010     28215
 -1      8410    6    0    1
 -2     20841     20798     21155     20785     23441     25290     28167     23436     23291     28169
 -1      8411    6    0    1
 -2     21555     21528     21609     21496     25237     28094     27678     25235     25234     28247
 -1      8412    6    0    1
 -2     21528     21638     20681     21536     28365     28379     28093     25112     26535     26747
 -1      8413    6    0    1
 -2     21638     21528     20681     20639     28365     28093     28379     28364     28092     22904
 -1      8414    6    0    1
 -2     20632     21628     21674     20429     28370     27802     28369     22720     27798     26239
 -1      8415    6    0    1
 -2     21685     20635     21578     20435     27923     28058     26425     27924     22726     26127
 -1      8416    6    0    1
 -2     21504     21563     21715     21509     27316     27314     27315     22591     26694     28147
 -1      8417    6    0    1
 -2     21539     21253     21232     21228     28066     24740     27548     26485     24738     24672
 -1      8418    6    0    1
 -2     21504     21509     21715     21482     22591     28147     27315     22554     22592     28260
 -1      8419    6    0    1
 -2     20828     21140     20796     20846     28201     27303     23362     23476     27059     23415
 -1      8420    6    0    1
 -2     20979     21614     21690     20450     27208     28188     28368     23872     28184     28221
 -1      8421    6    0    1
 -2     21698     21080     21113     21039     25909     24315     27775     26910     24176     24278
 -1      8422    6    0    1
 -2     20885     20865     20926     21231     23544     23685     23687     25393     25640     25392
 -1      8423    6    0    1
 -2     21636     21686     21706     20723     27365     28126     26758     26760     28127     26759
 -1      8424    6    0    1
 -2     21383     21690     20450     20449     26435     28221     22006     22004     27836     21780
 -1      8425    6    0    1
 -2     21168     20769     21532     21531     25247     28225     25801     25732     25733     27454
 -1      8426    6    0    1
 -2     20812     21543     20866     20821     26948     25769     23485     23423     26950     23484
 -1      8427    6    0    1
 -2     20829     21162     21205     21187     27318     24578     27869     27623     24527     24594
 -1      8428    6    0    1
 -2     21244     21250     21295     21543     24723     24870     24869     25839     25401     25596
 -1      8429    6    0    1
 -2     21191     21260     20863     20868     24755     26260     28380     25462     26863     23551
 -1      8430    6    0    1
 -2     21005     20568     21609     21045     23928     27866     27673     24058     24023     27674
 -1      8431    6    0    1
 -2     20803     21191     20863     20868     25461     28380     23478     23490     25462     23551
 -1      8432    6    0    1
 -2     21547     21326     21317     21288     26120     24985     25183     25682     24984     24962
 -1      8433    6    0    1
 -2     21548     21327     20964     20960     25335     25350     25693     27656     28381     23826
 -1      8434    6    0    1
 -2     21547     20879     20918     21548     25679     23653     25343     25346     28237     25345
 -1      8435    6    0    1
 -2     21185     20868     20855     21261     27763     23491     25382     24758     26864     27886
 -1      8436    6    0    1
 -2     21548     20960     20964     20945     27656     23826     25693     25694     23815     23823
 -1      8437    6    0    1
 -2     21560     21393     21578     21361     25387     27013     26344     25386     22083     26345
 -1      8438    6    0    1
 -2     21260     20863     21177     21191     26260     25645     24754     24755     28380     24539
 -1      8439    6    0    1
 -2     21276     20964     21314     20963     25349     28206     24944     27348     23825     27341
 -1      8440    6    0    1
 -2     21314     20953     20963     20964     26148     23839     27341     28206     23838     23825
 -1      8441    6    0    1
 -2     20904     20936     21550     20909     23723     25783     25782     23621     23724     27587
 -1      8442    6    0    1
 -2     20742     20769     20673     21532     23229     23180     23101     25800     28225     25615
 -1      8443    6    0    1
 -2     20965     20958     21550     20947     23831     25831     25830     23830     23803     25784
 -1      8444    6    0    1
 -2     20748     20716     20674     21530     23116     23067     23117     25515     26303     26301
 -1      8445    6    0    1
 -2     21541     20844     20814     20858     26675     23420     27744     27056     23459     23458
 -1      8446    6    0    1
 -2     21403     21626     20433     20434     25881     25882     22055     22056     26310     21763
 -1      8447    6    0    1
 -2     20846     20796     21734     21140     23415     27903     27058     27059     27303     26656
 -1      8448    6    0    1
 -2     21232     20898     20816     21189     25977     23586     27605     24673     25973     26513
 -1      8449    6    0    1
 -2     20816     20898     21232     20895     23586     25977     27605     23577     23587     27754
 -1      8450    6    0    1
 -2     21571     21374     21403     20433     25608     22121     25499     25879     21984     22055
 -1      8451    6    0    1
 -2     21227     20782     21202     20856     27555     27416     24651     26952     23454     27417
 -1      8452    6    0    1
 -2     20580     21484     21652     20579     22467     28070     28377     21922     22468     27251
 -1      8453    6    0    1
 -2     21083     20687     20606     20723     26783     22919     27855     26784     23018     23017
 -1      8454    6    0    1
 -2     21538     20788     20724     21535     26466     23235     28209     26870     26871     26398
 -1      8455    6    0    1
 -2     21538     20996     21727     21081     26353     26636     26531     26307     24178     26532
 -1      8456    6    0    1
 -2     20950     21546     21339     21550     25841     26329     25519     25521     26945     25520
 -1      8457    6    0    1
 -2     20556     21491     21701     21612     22489     27795     27108     27877     26709     27879
 -1      8458    6    0    1
 -2     21701     21491     21737     21612     27795     28073     26722     27879     26709     28192
 -1      8459    6    0    1
 -2     20957     20958     20962     21549     23841     23832     23819     27711     25351     25352
 -1      8460    6    0    1
 -2     21191     21261     21260     20868     24757     24759     24755     25462     26864     26863
 -1      8461    6    0    1
 -2     20877     21216     21267     21272     28121     24776     26907     27414     24792     24795
 -1      8462    6    0    1
 -2     21567     20517     21346     21720     25781     22280     27863     27121     25675     25676
 -1      8463    6    0    1
 -2     21484     21616     20579     21505     28071     27204     22468     22563     27429     22523
 -1      8464    6    0    1
 -2     20951     21324     21304     21296     27475     24980     27473     28115     24979     24905
 -1      8465    6    0    1
 -2     20563     21488     20562     21656     22481     22482     21904     28382     27116     28383
 -1      8466    6    0    1
 -2     21320     21329     21325     21545     25008     25006     25007     25367     25525     27330
 -1      8467    6    0    1
 -2     20506     21695     20507     21446     28025     28384     21846     22295     28043     22296
 -1      8468    6    0    1
 -2     21494     21512     21714     21501     22558     26989     28106     22590     22607     28109
 -1      8469    6    0    1
 -2     21050     21143     21124     20743     24379     24381     24334     25806     27286     26983
 -1      8470    6    0    1
 -2     21325     21545     21303     21312     27330     25717     24983     25001     25718     24940
 -1      8471    6    0    1
 -2     20517     21720     20479     20411     25675     27122     22697     21857     25677     21813
 -1      8472    6    0    1
 -2     21529     20589     20668     20708     27631     22873     25414     27338     22972     22975
 -1      8473    6    0    1
 -2     20918     20922     20940     21548     23674     23739     23738     25345     27657     25347
 -1      8474    6    0    1
 -2     20668     20790     21529     20708     23241     25412     25414     22975     23242     27338
 -1      8475    6    0    1
 -2     21276     20964     20946     20945     25349     23824     25169     25170     23823     23761
 -1      8476    6    0    1
 -2     21557     21409     21379     20422     27571     22098     25272     25273     22068     21993
 -1      8477    6    0    1
 -2     21097     21013     20970     21519     24225     24030     24226     26159     26046     27806
 -1      8478    6    0    1
 -2     20666     20628     21557     21529     22868     27922     27236     27237     27337     25274
 -1      8479    6    0    1
 -2     21531     21530     20748     20674     25514     25515     25513     26100     26301     23117
 -1      8480    6    0    1
 -2     21531     20674     20748     20740     26100     23117     25513     26101     23095     23118
 -1      8481    6    0    1
 -2     21649     21531     21565     21391     26557     26338     27452     26554     26339     26337
 -1      8482    6    0    1
 -2     21409     20421     21557     21380     22067     27572     27571     22113     21996     28138
 -1      8483    6    0    1
 -2     21670     21607     21557     21057     28210     28159     27282     27283     25635     27239
 -1      8484    6    0    1
 -2     21064     20734     20784     20763     27159     23258     27182     27183     23160     23259
 -1      8485    6    0    1
 -2     21516     20492     21577     21418     26597     26103     27513     27997     22200     26102
 -1      8486    6    0    1
 -2     21045     20568     21609     20567     24023     27866     27674     24022     21910     27867
 -1      8487    6    0    1
 -2     21497     21693     20545     21528     28020     26584     22502     27053     26567     25809
 -1      8488    6    0    1
 -2     21488     21656     21710     20562     27116     27853     27852     22482     28383     28257
 -1      8489    6    0    1
 -2     21411     21352     21621     21690     22169     25637     27977     26436     26437     27759
 -1      8490    6    0    1
 -2     20681     21536     21638     20721     26747     26535     28379     23082     26990     27733
 -1      8491    6    0    1
 -2     21528     21665     21638     21397     26569     28366     28365     28144     28217     26537
 -1      8492    6    0    1
 -2     21528     21397     21638     21536     28144     26537     28365     25112     26538     26535
 -1      8493    6    0    1
 -2     21197     20826     21246     21195     27964     28072     24707     24556     28001     24706
 -1      8494    6    0    1
 -2     20643     20686     21661     21696     22916     28097     28374     28198     28099     28098
 -1      8495    6    0    1
 -2     20600     20639     20641     21528     22844     22896     22739     26568     28092     26545
 -1      8496    6    0    1
 -2     20793     21540     21147     20787     25768     26664     25084     23251     27874     27285
 -1      8497    6    0    1
 -2     21047     21536     21116     21088     25867     25076     24482     24454     25869     24312
 -1      8498    6    0    1
 -2     21567     20517     20479     20622     25781     22697     26360     26201     22695     22699
 -1      8499    6    0    1
 -2     21535     20724     20691     20788     26398     23034     27561     26871     23235     23237
 -1      8500    6    0    1
 -2     21649     21391     21565     21359     26554     26337     27452     27797     22081     26804
 -1      8501    6    0    1
 -2     21571     21374     21360     21392     25608     22149     27441     25496     22132     22082
 -1      8502    6    0    1
 -2     21571     20432     21374     20433     27786     21983     25608     25879     21762     21984
 -1      8503    6    0    1
 -2     21531     20740     20748     21125     26101     23118     25513     25874     27926     25228
 -1      8504    6    0    1
 -2     21194     20810     21215     21283     26856     26817     24612     24827     25359     24828
 -1      8505    6    0    1
 -2     20617     21695     21584     20507     28385     28361     28248     22685     28384     26271
 -1      8506    6    0    1
 -2     21070     21159     20795     20798     24427     27011     27192     25291     25292     23277
 -1      8507    6    0    1
 -2     21070     20798     20701     20733     25291     23276     27191     27461     23278     23057
 -1      8508    6    0    1
 -2     20918     20879     20883     21548     23653     23537     23654     25345     28237     25201
 -1      8509    6    0    1
 -2     20691     20652     21622     20612     22928     26429     27736     22927     22851     25796
 -1      8510    6    0    1
 -2     21265     20810     21194     21283     27633     26856     24772     24837     25359     24827
 -1      8511    6    0    1
 -2     20667     20735     21106     20770     23068     27845     26977     23182     23211     25303
 -1      8512    6    0    1
 -2     21283     20810     20808     20862     25359     23310     25185     25360     23475     23474
 -1      8513    6    0    1
 -2     21648     21499     21609     20568     25445     27862     27679     27840     22507     27866
 -1      8514    6    0    1
 -2     20984     21517     20985     21007     27917     28031     24136     24026     28386     23980
 -1      8515    6    0    1
 -2     21517     20487     20486     21007     27994     21822     25577     28386     23976     23935
 -1      8516    6    0    1
 -2     20984     20488     21660     21608     23884     27574     28234     27915     28140     26368
 -1      8517    6    0    1
 -2     21425     21517     21421     21415     26055     27719     22232     22238     27141     22242
 -1      8518    6    0    1
 -2     20487     21517     20984     21007     27994     27917     23883     23976     28386     24026
 -1      8519    6    0    1
 -2     20487     21608     20984     21517     28139     27915     23883     27994     27718     27917
 -1      8520    6    0    1
 -2     21283     20862     20808     21257     25360     23474     25185     24848     27654     25186
 -1      8521    6    0    1
 -2     20506     20617     20507     21695     22686     22685     21846     28025     28385     28384
 -1      8522    6    0    1
 -2     21722     21422     21421     21660     28062     22239     27784     28104     26369     26371
 -1      8523    6    0    1
 -2     21422     20488     21608     21660     22216     28140     26367     26369     27574     26368
 -1      8524    6    0    1
 -2     20416     20415     21681     21412     21745     28387     26884     22074     22073     28388
 -1      8525    6    0    1
 -2     21105     21537     21539     21059     25589     25590     25588     24309     27077     26418
 -1      8526    6    0    1
 -2     21382     20416     21681     21412     21999     26884     26886     22101     22074     28388
 -1      8527    6    0    1
 -2     21559     21672     21350     21385     25114     25814     27826     25376     27835     22126
 -1      8528    6    0    1
 -2     20984     21608     20487     20488     27915     28139     23883     23884     28140     21823
 -1      8529    6    0    1
 -2     20488     20984     21660     21025     23884     28234     27574     23973     24085     27941
 -1      8530    6    0    1
 -2     21675     21517     21608     21421     26056     27718     27914     27003     27719     26370
 -1      8531    6    0    1
 -2     21311     20931     21289     21294     26138     27235     24936     24933     27589     24868
 -1      8532    6    0    1
 -2     20924     21294     20933     20881     27588     25824     23753     23681     28342     23712
 -1      8533    6    0    1
 -2     21061     21093     20704     21164     24356     26097     26095     24445     24444     28176
 -1      8534    6    0    1
 -2     21386     21557     21607     21380     26280     28159     26203     22147     28138     25724
 -1      8535    6    0    1
 -2     21257     21294     20924     20881     24866     27588     27463     27655     28342     23681
 -1      8536    6    0    1
 -2     21076     20984     21660     21675     24165     28234     27160     27163     27916     27162
 -1      8537    6    0    1
 -2     20617     21525     21584     21695     27423     27392     28248     28385     28272     28361
 -1      8538    6    0    1
 -2     21535     21151     21078     21110     26872     24403     26029     26019     24402     24270
 -1      8539    6    0    1
 -2     20582     21682     20998     21705     27106     26727     23914     28032     27995     27993
 -1      8540    6    0    1
 -2     21038     21591     21682     20583     26574     26575     26572     24006     26613     27105
 -1      8541    6    0    1
 -2     20800     20787     21540     20793     23455     27874     25194     23477     23251     25768
 -1      8542    6    0    1
 -2     21596     20525     21431     21456     26899     22258     26896     28012     22321     22392
 -1      8543    6    0    1
 -2     21691     21586     21714     20680     27937     28088     28142     25318     28389     28143
 -1      8544    6    0    1
 -2     21568     21693     21665     20600     27989     26566     27770     28390     26564     26565
 -1      8545    6    0    1
 -2     21596     21456     21431     21522     28012     22392     26896     28289     26507     27288
 -1      8546    6    0    1
 -2     21527     21526     21086     21176     25487     26011     26010     27447     25300     24502
 -1      8547    6    0    1
 -2     20452     21607     20453     20978     27667     28181     21783     23870     25165     23871
 -1      8548    6    0    1
 -2     21596     21522     21431     21647     28289     27288     26896     26898     25741     26897
 -1      8549    6    0    1
 -2     21537     20626     20418     20587     25396     22707     27078     27957     22786     22621
 -1      8550    6    0    1
 -2     21654     21648     21499     20642     25215     25445     25444     25216     25213     25566
 -1      8551    6    0    1
 -2     21334     21293     21548     21316     25016     27599     27598     25018     24954     27350
 -1      8552    6    0    1
 -2     21505     21616     21508     21484     27429     27128     22595     22563     28071     22597
 -1      8553    6    0    1
 -2     21654     20642     21499     21688     25216     25566     25444     25465     25568     25467
 -1      8554    6    0    1
 -2     21109     21088     21648     20722     24288     25551     25549     27443     26998     25229
 -1      8555    6    0    1
 -2     21108     21085     20688     20777     24284     27999     25988     25996     26626     23202
 -1      8556    6    0    1
 -2     21722     21660     21421     21675     28104     26371     27784     27782     27162     27003
 -1      8557    6    0    1
 -2     21119     21085     21108     20777     24321     24284     24322     26160     26626     25996
 -1      8558    6    0    1
 -2     21675     21076     20662     20623     27163     27214     28391     27164     27125     22790
 -1      8559    6    0    1
 -2     20978     21607     20453     21670     25165     28181     23871     28211     28210     28227
 -1      8560    6    0    1
 -2     20839     21241     21180     21208     27508     24694     26400     27509     24693     24589
 -1      8561    6    0    1
 -2     20827     21125     21531     21168     28103     25874     25731     25245     24466     25732
 -1      8562    6    0    1
 -2     20722     20680     21561     21109     23066     25317     28392     27443     26488     28117
 -1      8563    6    0    1
 -2     20836     20883     21281     20845     23535     25200     27638     23411     23536     26604
 -1      8564    6    0    1
 -2     21470     21431     21647     21457     22433     26897     27102     22432     22370     26524
 -1      8565    6    0    1
 -2     21479     21691     20602     21654     25309     25315     28002     25310     25307     25217
 -1      8566    6    0    1
 -2     20783     21104     20669     21537     27705     27540     23224     25442     26186     27801
 -1      8567    6    0    1
 -2     20793     20787     21147     21087     23251     27285     25084     25085     28287     24392
 -1      8568    6    0    1
 -2     21540     20793     21166     21123     25768     25086     26616     26618     25089     24451
 -1      8569    6    0    1
 -2     21327     20960     21548     21321     28381     27656     25335     25019     26947     25324
 -1      8570    6    0    1
 -2     20481     20623     21722     21675     22701     28105     27781     27783     27164     27782
 -1      8571    6    0    1
 -2     21586     21691     20602     20680     27937     25315     28393     28389     25318     22901
 -1      8572    6    0    1
 -2     21158     20749     21117     20843     26713     26714     24424     27704     23404     27703
 -1      8573    6    0    1
 -2     20587     20626     20705     21537     22786     22962     22961     27957     25396     25394
 -1      8574    6    0    1
 -2     21687     21569     20441     20598     26389     27021     27020     26653     27979     22642
 -1      8575    6    0    1
 -2     20671     21054     20772     21533     27669     28214     23187     27581     25561     26281
 -1      8576    6    0    1
 -2     21539     20774     20816     20819     26292     23328     25493     25494     23335     23337
 -1      8577    6    0    1
 -2     21053     21533     21138     21101     27360     27521     24366     24255     25562     24365
 -1      8578    6    0    1
 -2     21533     20738     20713     20672     26283     23092     27582     27361     23091     22995
 -1      8579    6    0    1
 -2     21120     20799     21210     21178     26477     26496     24596     24521     25666     24595
 -1      8580    6    0    1
 -2     20839     21241     20880     21180     27508     28229     23527     26400     24694     28285
 -1      8581    6    0    1
 -2     21665     20443     20444     20639     28331     21773     28218     28367     22734     22733
 -1      8582    6    0    1
 -2     21104     21537     21668     21410     26186     26118     27901     25163     26116     26115
 -1      8583    6    0    1
 -2     20783     20669     20665     21537     23224     22876     23222     25442     27801     25441
 -1      8584    6    0    1
 -2     21669     21003     21084     21042     27279     24185     26364     27907     24079     24186
 -1      8585    6    0    1
 -2     21532     20769     20673     21531     28225     23180     25615     27454     25733     27451
 -1      8586    6    0    1
 -2     20742     20769     21168     20801     23229     25247     25798     23285     23284     25246
 -1      8587    6    0    1
 -2     21555     21496     21609     21499     25235     28247     27678     25564     22584     27862
 -1      8588    6    0    1
 -2     21177     20811     20803     20863     25643     23313     27261     25645     23479     23478
 -1      8589    6    0    1
 -2     21177     20863     20803     21191     25645     23478     27261     24539     28380     25461
 -1      8590    6    0    1
 -2     20855     20834     21185     20847     23452     25337     25382     23451     23434     25338
 -1      8591    6    0    1
 -2     20742     20801     21168     21148     23285     25246     25798     25799     27624     24484
 -1      8592    6    0    1
 -2     20681     20721     21638     20599     23082     27733     28379     23013     23011     27732
 -1      8593    6    0    1
 -2     20739     20716     21530     20675     23094     26303     27039     23093     23081     27023
 -1      8594    6    0    1
 -2     20960     20964     20954     21327     23826     23836     23835     28381     25350     27646
 -1      8595    6    0    1
 -2     21138     21162     20847     20757     24439     27519     25339     25786     25787     23416
 -1      8596    6    0    1
 -2     20441     21569     20440     20598     27021     26891     21770     22642     27979     22643
 -1      8597    6    0    1
 -2     21170     21543     20812     21188     25631     26948     26139     24529     26949     26140
 -1      8598    6    0    1
 -2     21543     21188     21170     21218     26949     24529     25631     25632     24667     24621
 -1      8599    6    0    1
 -2     21539     20711     21059     21537     26291     27552     26418     25590     25395     27077
 -1      8600    6    0    1
 -2     20536     20987     21708     20537     23890     28319     28089     21877     23891     27676
 -1      8601    6    0    1
 -2     20691     20727     21535     20771     23072     26518     27561     23185     23184     27714
 -1      8602    6    0    1
 -2     21227     20856     20790     20782     26952     23463     27219     27555     23454     23243
 -1      8603    6    0    1
 -2     20953     21327     20954     20964     28244     27646     23790     23838     25350     23836
 -1      8604    6    0    1
 -2     20836     20879     21265     20883     23524     26822     27632     23535     23537     25199
 -1      8605    6    0    1
 -2     21155     21153     20841     20763     24506     25667     28167     28168     27184     23419
 -1      8606    6    0    1
 -2     21577     20667     21060     21516     28048     26978     27514     27513     25232     26212
 -1      8607    6    0    1
 -2     21430     20696     20694     21077     25773     22941     25711     25706     25775     25712
 -1      8608    6    0    1
 -2     21518     21046     21073     21032     26152     24157     28183     26153     24095     24155
 -1      8609    6    0    1
 -2     20836     21213     21281     21265     26672     24821     27638     27632     24771     24822
 -1      8610    6    0    1
 -2     21229     20760     20765     20845     27650     23168     27580     27649     23410     23409
 -1      8611    6    0    1
 -2     21516     20667     20770     20706     25232     23182     28052     25230     23062     23183
 -1      8612    6    0    1
 -2     21695     21597     20656     21524     28024     27603     28394     28243     27604     27145
 -1      8613    6    0    1
 -2     21529     21156     21094     21131     27955     24414     27483     26682     24417     24348
 -1      8614    6    0    1
 -2     21529     20666     20805     21057     27237     23295     26680     26681     27238     26188
 -1      8615    6    0    1
 -2     21224     20790     21529     21156     27187     25412     28275     24641     27584     27955
 -1      8616    6    0    1
 -2     20861     20802     20842     21541     23471     23402     23472     26676     26677     27695
 -1      8617    6    0    1
 -2     21541     20858     20814     21543     27056     23458     27744     26036     27057     27743
 -1      8618    6    0    1
 -2     21163     21230     21117     21541     24661     24660     24443     27258     28314     28122
 -1      8619    6    0    1
 -2     21230     21272     21216     21541     24793     24792     24663     28314     26039     26015
 -1      8620    6    0    1
 -2     21218     21543     21188     21244     25632     26949     24667     24700     25839     24701
 -1      8621    6    0    1
 -2     21218     21235     21541     21543     24680     28189     28005     25632     25838     26036
 -1      8622    6    0    1
 -2     20987     21708     20537     21027     28319     27676     23891     24089     28395     23983
 -1      8623    6    0    1
 -2     21516     20784     21120     21090     27232     25327     27570     26109     25328     24357
 -1      8624    6    0    1
 -2     21550     21297     20904     21543     25430     26206     25782     26944     25597     26205
 -1      8625    6    0    1
 -2     21309     21327     20954     20953     25020     27646     25319     26150     28244     23790
 -1      8626    6    0    1
 -2     21665     20445     21568     20600     27771     27277     27770     26565     22646     28390
 -1      8627    6    0    1
 -2     21104     20978     21668     21021     24242     27664     27901     24241     24038     27902
 -1      8628    6    0    1
 -2     20761     21523     21128     21141     28304     25097     28326     27544     25238     24376
 -1      8629    6    0    1
 -2     20960     21321     21327     20954     26947     25019     28381     23835     25320     27646
 -1      8630    6    0    1
 -2     20820     20777     21158     20749     23339     27984     25945     23338     23203     26713
 -1      8631    6    0    1
 -2     21708     20701     21657     21466     27372     28074     28091     27376     25990     28056
 -1      8632    6    0    1
 -2     21257     21239     20881     21220     24746     25904     27655     24745     24689     25905
 -1      8633    6    0    1
 -2     21548     21322     21321     20955     25326     25021     25324     27225     25160     25161
 -1      8634    6    0    1
 -2     21261     20868     20855     20901     26864     23491     27886     26867     23596     23595
 -1      8635    6    0    1
 -2     21245     21200     20872     21187     24704     25363     26076     24703     24564     25364
 -1      8636    6    0    1
 -2     20987     21027     20701     21708     24089     26223     28320     28319     28395     27372
 -1      8637    6    0    1
 -2     20820     21217     20877     21216     25104     26906     23518     25946     24618     28121
 -1      8638    6    0    1
 -2     21582     21036     21110     20995     28082     24271     26018     28396     24051     24269
 -1      8639    6    0    1
 -2     20855     20901     21268     21261     23595     27597     26470     27886     26867     24791
 -1      8640    6    0    1
 -2     20915     21279     21268     20901     27685     24816     26469     23638     26866     27597
 -1      8641    6    0    1
 -2     20930     21549     20948     20941     25507     25511     23767     23742     25506     23769
 -1      8642    6    0    1
 -2     20939     20961     21329     21549     23811     26964     25529     27321     25817     26467
 -1      8643    6    0    1
 -2     20938     21296     20897     20925     25657     25685     23731     23732     27395     23684
 -1      8644    6    0    1
 -2     21673     20637     21707     21569     28351     28352     28350     25193     28397     27779
 -1      8645    6    0    1
 -2     20907     20917     20900     21544     23649     23703     23659     26630     27080     26649
 -1      8646    6    0    1
 -2     21548     20955     21321     20960     27225     25161     25324     27656     23816     26947
 -1      8647    6    0    1
 -2     21730     20701     21676     20620     26222     28372     27019     27016     22951     27017
 -1      8648    6    0    1
 -2     21306     21338     21548     21316     25035     25325     25695     24955     25036     27350
 -1      8649    6    0    1
 -2     21548     21338     21334     21316     25325     25037     27598     27350     25036     25018
 -1      8650    6    0    1
 -2     20714     21520     21130     21102     26351     25421     26257     26258     27132     24346
 -1      8651    6    0    1
 -2     20736     20825     21204     20780     23351     25620     27310     23215     23352     25622
 -1      8652    6    0    1
 -2     20960     20955     20940     21548     23816     23793     23809     27656     27225     25347
 -1      8653    6    0    1
 -2     20489     21551     20490     20983     25092     25093     21825     23881     28305     23882
 -1      8654    6    0    1
 -2     21707     20439     20440     20637     27661     21769     27778     28352     22730     22729
 -1      8655    6    0    1
 -2     21668     21021     20978     20452     27902     24038     27664     27665     23963     23870
 -1      8656    6    0    1
 -2     20734     20704     21551     20663     23069     27165     27180     23061     22959     28295
 -1      8657    6    0    1
 -2     20983     21551     21631     21064     28305     26065     28373     24131     27065     27066
 -1      8658    6    0    1
 -2     21722     21422     21660     21551     28062     26369     28104     28063     28064     28306
 -1      8659    6    0    1
 -2     20489     21551     21660     21422     25092     28306     27573     22218     28064     26369
 -1      8660    6    0    1
 -2     21414     21517     21680     21413     25580     27386     25128     22191     28003     26839
 -1      8661    6    0    1
 -2     21440     20542     21552     20412     22276     26889     28340     22275     21883     27082
 -1      8662    6    0    1
 -2     21347     21440     21552     20412     22278     28340     25132     21812     22275     27082
 -1      8663    6    0    1
 -2     21414     21413     21680     21347     22191     26839     25128     22190     22187     25129
 -1      8664    6    0    1
 -2     20519     20996     21704     21679     23909     28321     26825     26827     26232     26826
 -1      8665    6    0    1
 -2     21561     21479     21691     20602     25438     25309     25314     25316     28002     25315
 -1      8666    6    0    1
 -2     21667     21387     21553     21534     27954     25143     28230     27956     26689     26688
 -1      8667    6    0    1
 -2     21553     20457     20976     21520     26048     23867     25584     26050     26051     27411
 -1      8668    6    0    1
 -2     21553     20456     20976     20457     25144     23866     25584     26048     21787     23867
 -1      8669    6    0    1
 -2     20976     21534     21553     21520     27412     26688     25584     27411     25420     26050
 -1      8670    6    0    1
 -2     21019     21534     21553     20976     26242     26688     25583     24036     27412     25584
 -1      8671    6    0    1
 -2     21012     20969     21554     20470     24029     28349     28398     23945     23852     25209
 -1      8672    6    0    1
 -2     21519     21554     21012     20969     26313     28398     26868     28324     28349     24029
 -1      8673    6    0    1
 -2     21677     21519     20636     20597     28341     27727     28337     28399     28371     22841
 -1      8674    6    0    1
 -2     21554     20969     20471     20470     28349     23853     27816     25209     23852     21801
 -1      8675    6    0    1
 -2     21363     20471     21625     21395     21957     25826     27818     22085     22034     25825
 -1      8676    6    0    1
 -2     21677     20969     21625     21554     28335     28336     28219     27960     28349     27817
 -1      8677    6    0    1
 -2     21363     21395     21625     21371     22085     25825     27818     22185     22158     28268
 -1      8678    6    0    1
 -2     21027     21719     20538     21602     26226     27827     23984     25671     26274     27828
 -1      8679    6    0    1
 -2     21555     20601     21536     21528     25599     26746     26382     25237     25598     25112
 -1      8680    6    0    1
 -2     21555     20546     20547     20601     25236     21888     25582     25599     22652     22651
 -1      8681    6    0    1
 -2     20547     20642     21555     20601     22744     25565     25582     22651     22814     25599
 -1      8682    6    0    1
 -2     21673     21569     21707     21395     25193     27779     28350     25828     28308     26972
 -1      8683    6    0    1
 -2     21555     20642     21536     20601     25565     26384     26382     25599     22814     26746
 -1      8684    6    0    1
 -2     20654     20614     21556     20501     22824     28276     25065     22771     22679     25261
 -1      8685    6    0    1
 -2     21653     20502     21556     21448     25691     25692     25066     27339     22299     25575
 -1      8686    6    0    1
 -2     20654     20501     21556     20502     22771     25261     25065     22770     21841     25692
 -1      8687    6    0    1
 -2     21653     21448     21556     21518     27339     25575     25066     25063     25574     25067
 -1      8688    6    0    1
 -2     20710     20614     21556     20654     22981     28276     28242     22980     22824     25065
 -1      8689    6    0    1
 -2     20537     21719     20538     21027     27677     27827     21878     23983     26226     23984
 -1      8690    6    0    1
 -2     21529     20628     20422     20589     27337     22711     25275     27631     22797     22625
 -1      8691    6    0    1
 -2     21409     21380     21557     21386     22113     28138     27571     22183     22147     26280
 -1      8692    6    0    1
 -2     20422     20628     21557     20421     22711     27922     25273     21751     22712     27572
 -1      8693    6    0    1
 -2     21707     21677     20597     20677     27662     28399     28400     26971     28334     22893
 -1      8694    6    0    1
 -2     20998     20582     20583     21682     23914     21925     23915     26727     27106     27105
 -1      8695    6    0    1
 -2     21035     21558     20522     21666     26130     25371     24000     27951     27950     27947
 -1      8696    6    0    1
 -2     21429     21451     21535     21453     22404     28360     26135     22318     22405     26136
 -1      8697    6    0    1
 -2     21666     21454     21429     21558     25823     22314     27949     27950     25369     25370
 -1      8698    6    0    1
 -2     21707     20677     20597     20637     26971     22893     28400     28352     22892     22811
 -1      8699    6    0    1
 -2     21558     21035     21637     21453     26130     27430     27449     26132     26131     27431
 -1      8700    6    0    1
 -2     20521     21035     21558     20522     23999     26130     27448     21862     24000     25371
 -1      8701    6    0    1
 -2     21035     21637     20521     21558     27430     27450     23999     26130     27449     27448
 -1      8702    6    0    1
 -2     21385     21350     21633     21351     22126     27825     25373     22014     21933     26166
 -1      8703    6    0    1
 -2     21023     20448     20980     21559     23967     23874     24040     27006     25375     28401
 -1      8704    6    0    1
 -2     21023     20735     20625     21559     27846     23064     28113     27006     26066     25117
 -1      8705    6    0    1
 -2     21385     21351     21633     20447     22014     26166     25373     22011     21934     26168
 -1      8706    6    0    1
 -2     20980     20735     21023     21559     27870     27846     24040     28401     26066     27006
 -1      8707    6    0    1
 -2     20735     20980     21023     21106     27870     24040     27846     27845     24246     24245
 -1      8708    6    0    1
 -2     21633     20447     20448     21385     26168     21778     25372     25373     22011     22010
 -1      8709    6    0    1
 -2     21577     20625     21559     21023     25116     25117     25113     27007     28113     27006
 -1      8710    6    0    1
 -2     21658     21393     21560     20467     26062     25387     26406     27537     22030     25385
 -1      8711    6    0    1
 -2     20971     21560     21014     20466     26407     28402     24031     23856     26286     23949
 -1      8712    6    0    1
 -2     21530     21050     21013     20971     25219     24103     27022     26408     24102     24063
 -1      8713    6    0    1
 -2     20467     21560     20971     20466     25385     26407     23857     21797     26286     23856
 -1      8714    6    0    1
 -2     20971     21530     21014     21560     26408     28135     24031     26407     26346     28402
 -1      8715    6    0    1
 -2     20722     21109     21561     21648     27443     28117     28392     25229     25549     26996
 -1      8716    6    0    1
 -2     21561     21044     21004     20570     26993     24057     28118     25440     24021     23926
 -1      8717    6    0    1
 -2     21455     21427     21704     20518     22320     26837     26828     22317     22250     26836
 -1      8718    6    0    1
 -2     21479     21499     21648     20569     22513     25445     25446     22458     22509     26995
 -1      8719    6    0    1
 -2     21561     21109     21004     21044     28117     24266     28118     26993     24268     24057
 -1      8720    6    0    1
 -2     21737     21491     21706     21612     28073     26706     28085     28192     26709     26707
 -1      8721    6    0    1
 -2     20569     21044     21561     20570     24020     26993     26994     21912     24021     25440
 -1      8722    6    0    1
 -2     21561     21648     21109     21044     26996     25549     28117     26993     25550     24268
 -1      8723    6    0    1
 -2     20608     21562     21620     20561     27843     25447     28403     22665     25450     25451
 -1      8724    6    0    1
 -2     21627     21506     21562     20560     25899     26379     25936     27861     22528     26378
 -1      8725    6    0    1
 -2     20648     20560     21562     20608     22755     26378     27842     22849     22666     27843
 -1      8726    6    0    1
 -2     20608     20561     21620     20649     22665     25451     28403     22821     22758     28255
 -1      8727    6    0    1
 -2     21562     20726     20689     20608     25934     23073     25939     27843     23033     22923
 -1      8728    6    0    1
 -2     20560     21562     20608     20561     26378     27843     22666     21902     25450     22665
 -1      8729    6    0    1
 -2     21563     21491     21483     21706     27794     22608     28404     26154     26706     26705
 -1      8730    6    0    1
 -2     21040     21563     21001     20577     26156     27201     24093     24012     26157     23921
 -1      8731    6    0    1
 -2     21114     21563     21001     21040     27200     27201     24282     24280     26156     24093
 -1      8732    6    0    1
 -2     21563     21715     21651     21001     27314     25848     26698     27201     25849     25850
 -1      8733    6    0    1
 -2     21042     20573     20574     21671     24016     21916     24017     27906     27909     27611
 -1      8734    6    0    1
 -2     20577     21504     21715     20576     22521     27315     27313     21919     22522     28405
 -1      8735    6    0    1
 -2     21563     20687     20720     20646     27289     23024     27199     26720     22920     23010
 -1      8736    6    0    1
 -2     21504     21482     21715     20576     22554     28260     27315     22522     22463     28405
 -1      8737    6    0    1
 -2     20577     20576     21715     21001     21919     28405     27313     23921     23920     25849
 -1      8738    6    0    1
 -2     21564     20631     20427     20428     25791     22718     25585     25587     22717     21757
 -1      8739    6    0    1
 -2     20592     20631     21564     20428     22836     25791     28406     22631     22717     25587
 -1      8740    6    0    1
 -2     21564     20592     21533     20631     28406     28153     27308     25791     22836     27583
 -1      8741    6    0    1
 -2     21406     21533     21700     21564     26403     26068     27990     25586     27308     25792
 -1      8742    6    0    1
 -2     21700     21533     20631     21564     26068     27583     25790     25792     27308     25791
 -1      8743    6    0    1
 -2     21565     20593     20431     20633     25616     22632     26645     27294     22807     22722
 -1      8744    6    0    1
 -2     20673     20633     21565     21531     22884     27294     25613     27451     26686     26338
 -1      8745    6    0    1
 -2     21674     21405     21565     20430     26237     25845     26823     26238     22060     25847
 -1      8746    6    0    1
 -2     20431     20593     21565     20430     22632     25616     26645     21760     22633     25847
 -1      8747    6    0    1
 -2     20715     20632     21674     20593     22998     28369     26801     22997     22837     26802
 -1      8748    6    0    1
 -2     20417     20626     20418     21566     22708     22707     21747     25761     27079     25760
 -1      8749    6    0    1
 -2     21566     21537     20711     20626     27073     25395     27074     27079     25396     22983
 -1      8750    6    0    1
 -2     21708     21719     20537     21027     27373     27677     27676     28395     26226     23983
 -1      8751    6    0    1
 -2     21566     20586     20417     20626     27031     22618     25761     27079     22800     22708
 -1      8752    6    0    1
 -2     21083     21706     21040     21686     27854     26155     24183     27173     28126     27172
 -1      8753    6    0    1
 -2     20549     20602     21586     21691     22653     28393     26356     27938     25315     27937
 -1      8754    6    0    1
 -2     21566     20711     20586     20626     27074     22984     27031     27079     22983     22800
 -1      8755    6    0    1
 -2     21002     21041     21606     20575     24092     28282     28407     23923     24014     28081
 -1      8756    6    0    1
 -2     20606     21612     21737     21706     27929     28192     27847     26762     26707     28085
 -1      8757    6    0    1
 -2     20516     20517     21567     20622     21856     25781     25779     22696     22695     26201
 -1      8758    6    0    1
 -2     21567     21720     20479     20517     27121     27122     26360     25781     25675     22697
 -1      8759    6    0    1
 -2     21503     21526     21671     21481     26025     26012     27610     22553     25485     26044
 -1      8760    6    0    1
 -2     21731     21442     20516     21711     26124     22286     26078     25859     26125     26079
 -1      8761    6    0    1
 -2     21731     20661     20622     21517     26080     22858     26197     26199     27001     26198
 -1      8762    6    0    1
 -2     21567     21517     21643     21413     26202     26059     26361     27120     28003     27715
 -1      8763    6    0    1
 -2     20640     20543     21568     20544     22735     25819     28408     22740     21885     25820
 -1      8764    6    0    1
 -2     21568     21368     21623     20446     26754     28057     27517     27278     21970     27518
 -1      8765    6    0    1
 -2     20446     20543     21568     20640     22648     25819     27278     22736     22735     28408
 -1      8766    6    0    1
 -2     21040     21706     20578     21686     26155     27575     24013     27172     28126     27522
 -1      8767    6    0    1
 -2     20640     21568     20600     20544     28408     28390     22899     22740     25820     22650
 -1      8768    6    0    1
 -2     20719     20677     21673     20637     23074     26877     25190     23007     22892     28351
 -1      8769    6    0    1
 -2     20598     20719     21569     20637     23006     25191     27979     22842     23007     28397
 -1      8770    6    0    1
 -2     20440     20598     21569     20637     22643     27979     26891     22729     22842     28397
 -1      8771    6    0    1
 -2     21400     21371     21707     21395     22125     27663     27780     22159     22158     26972
 -1      8772    6    0    1
 -2     21400     21395     21707     21569     22159     26972     27780     26892     28308     27779
 -1      8773    6    0    1
 -2     21673     21395     21707     20677     25828     26972     28350     26877     26973     26971
 -1      8774    6    0    1
 -2     21707     20637     20440     21569     28352     22729     27778     27779     28397     26891
 -1      8775    6    0    1
 -2     21617     21394     21570     20469     25211     25865     27912     27805     22032     25863
 -1      8776    6    0    1
 -2     21519     21013     20970     21570     26046     24030     27806     27813     26088     27913
 -1      8777    6    0    1
 -2     20970     21519     21617     21012     27806     26315     27911     24062     26868     28409
 -1      8778    6    0    1
 -2     20469     21570     20970     20468     25863     27913     23855     21799     27945     23854
 -1      8779    6    0    1
 -2     21570     21013     20970     20468     26088     24030     27913     27945     23947     23854
 -1      8780    6    0    1
 -2     20594     20433     21571     20634     22634     25879     27756     22808     22724     28410
 -1      8781    6    0    1
 -2     20674     20594     21571     20634     22887     27756     26342     22886     22808     28410
 -1      8782    6    0    1
 -2     21684     21404     21571     20432     27459     27785     27789     27460     22058     27786
 -1      8783    6    0    1
 -2     20594     21531     21684     20633     26685     27790     27788     22838     26686     28233
 -1      8784    6    0    1
 -2     20674     20634     21571     21530     22886     28410     26342     26301     26302     25497
 -1      8785    6    0    1
 -2     20594     20432     21571     20433     22635     27786     27756     22634     21762     25879
 -1      8786    6    0    1
 -2     20607     21572     21627     20559     27136     25890     27137     22663     25892     25891
 -1      8787    6    0    1
 -2     21652     21698     21627     21484     27230     25937     27216     28070     28376     27269
 -1      8788    6    0    1
 -2     21508     21572     20607     21636     26248     27136     28069     26250     26251     28313
 -1      8789    6    0    1
 -2     20607     20559     20558     21572     22663     21900     22664     27136     25892     26249
 -1      8790    6    0    1
 -2     21652     21484     21627     20607     28070     27269     27216     25854     27295     27137
 -1      8791    6    0    1
 -2     21083     21706     20606     21040     27854     26762     27855     24183     26155     27849
 -1      8792    6    0    1
 -2     20607     21508     21490     21572     28069     22564     27135     27136     26248     25889
 -1      8793    6    0    1
 -2     20558     21636     20607     21572     26252     28313     22664     26249     26251     27136
 -1      8794    6    0    1
 -2     20489     21551     20983     21660     25092     28305     23881     27573     28306     28004
 -1      8795    6    0    1
 -2     21061     21064     21551     20983     24133     27065     27166     24125     24131     28305
 -1      8796    6    0    1
 -2     21082     21041     21606     21002     24182     28282     27791     24181     24092     28407
 -1      8797    6    0    1
 -2     20650     21573     20497     20612     26333     25755     22759     22760     25797     22675
 -1      8798    6    0    1
 -2     21726     21580     21638     20721     27934     27731     27881     26991     27730     27733
 -1      8799    6    0    1
 -2     20650     20498     21629     20613     22761     28055     26700     22766     22678     27944
 -1      8800    6    0    1
 -2     21606     20575     20574     21002     28081     21917     27614     28407     23923     23922
 -1      8801    6    0    1
 -2     21573     21535     21451     21622     26517     28360     25756     25757     27737     25759
 -1      8802    6    0    1
 -2     21629     20498     20497     21472     28055     21837     25916     25917     22364     22363
 -1      8803    6    0    1
 -2     21535     21622     21573     20727     27737     25757     26517     26518     25794     25795
 -1      8804    6    0    1
 -2     20563     21574     21488     21703     25924     25926     22481     27506     27507     28411
 -1      8805    6    0    1
 -2     20493     21644     21426     21574     26560     26503     22309     26570     28412     26571
 -1      8806    6    0    1
 -2     20610     21574     20413     20563     27434     27851     22669     22670     25924     21905
 -1      8807    6    0    1
 -2     21679     20684     20692     20651     26231     23025     26501     26542     22911     22932
 -1      8808    6    0    1
 -2     20610     21574     20493     20413     27434     26570     22672     22669     27851     21832
 -1      8809    6    0    1
 -2     20528     21523     21032     21575     25947     28273     23994     25949     25950     28264
 -1      8810    6    0    1
 -2     21697     20527     21575     21457     28133     27472     28265     26527     22323     26810
 -1      8811    6    0    1
 -2     21697     21457     21575     21518     26527     26810     28265     26528     26525     26809
 -1      8812    6    0    1
 -2     21518     21523     21575     21032     27489     25950     26809     26153     28273     28264
 -1      8813    6    0    1
 -2     21523     20528     21032     20991     25947     23994     28273     25426     23898     24047
 -1      8814    6    0    1
 -2     21575     21032     20528     20527     28264     23994     25949     27472     23993     21868
 -1      8815    6    0    1
 -2     21031     20529     20530     21523     23991     21870     23992     25906     25955     25966
 -1      8816    6    0    1
 -2     21708     21027     20701     21719     28395     26223     27372     27373     26226     26224
 -1      8817    6    0    1
 -2     21727     20997     21704     21718     25124     28283     28162     25122     25121     26835
 -1      8818    6    0    1
 -2     21718     20997     20518     20414     25121     23911     26833     25389     23910     21858
 -1      8819    6    0    1
 -2     21031     21523     20530     21524     25906     25966     23992     28261     27297     27325
 -1      8820    6    0    1
 -2     21657     21444     21702     21634     27820     26195     27890     27700     27496     28329
 -1      8821    6    0    1
 -2     20512     20620     21576     20659     22692     28413     27980     22780     22856     27893
 -1      8822    6    0    1
 -2     20511     20659     20512     21576     22781     22780     21851     26006     27893     27980
 -1      8823    6    0    1
 -2     21576     20620     20701     20659     28413     22951     28053     27893     22856     22952
 -1      8824    6    0    1
 -2     20704     21064     21551     21061     27181     27065     27165     26095     24133     27166
 -1      8825    6    0    1
 -2     20701     20732     21657     20659     23054     27796     28074     22952     23051     27699
 -1      8826    6    0    1
 -2     21570     21658     21013     20468     26091     26089     26088     27945     27538     23947
 -1      8827    6    0    1
 -2     21577     20492     20981     20408     26103     23878     27910     26104     21828     23876
 -1      8828    6    0    1
 -2     21577     20408     21351     21343     26104     21931     26182     26073     21740     21932
 -1      8829    6    0    1
 -2     21577     21633     21559     21350     26183     25374     25113     26075     27825     27826
 -1      8830    6    0    1
 -2     20982     20492     21577     21516     23880     26103     27512     26106     26597     27513
 -1      8831    6    0    1
 -2     21023     21633     21577     20981     27005     26183     27007     24073     28414     27910
 -1      8832    6    0    1
 -2     21503     21481     21671     20574     22553     26044     27610     22520     22461     27611
 -1      8833    6    0    1
 -2     21351     21350     21633     21577     21933     27825     26166     26182     26075     26183
 -1      8834    6    0    1
 -2     21655     21447     21605     21523     27455     28311     28415     28120     26608     27480
 -1      8835    6    0    1
 -2     21487     21718     20414     21692     27387     25389     22473     27524     25119     25388
 -1      8836    6    0    1
 -2     21727     21704     21427     21718     28162     26837     27262     25122     26835     26834
 -1      8837    6    0    1
 -2     21017     20975     20459     21533     24067     23865     23954     27728     26072     27244
 -1      8838    6    0    1
 -2     21017     21533     20459     20460     27728     27244     23954     23955     27670     21790
 -1      8839    6    0    1
 -2     21578     20434     20435     20595     26128     21764     26127     26311     22637     22636
 -1      8840    6    0    1
 -2     21578     20595     20635     20675     26311     22809     28058     27038     22889     22888
 -1      8841    6    0    1
 -2     21626     21530     21578     21403     26895     26347     26312     25881     25500     27643
 -1      8842    6    0    1
 -2     21530     20595     21578     20675     27036     26311     26347     27023     22889     27038
 -1      8843    6    0    1
 -2     21578     20435     20635     20595     26127     22726     28058     26311     22636     22809
 -1      8844    6    0    1
 -2     21626     21403     21578     20434     25881     27643     26312     26310     22056     26128
 -1      8845    6    0    1
 -2     21571     21530     21635     21531     25497     26147     27440     26343     25514     26145
 -1      8846    6    0    1
 -2     21579     20972     21015     21531     28417     24032     28416     26556     26380     25221
 -1      8847    6    0    1
 -2     21579     20464     21015     20972     27535     23951     28416     28417     23858     24032
 -1      8848    6    0    1
 -2     21360     21531     21635     21579     27442     26145     26161     26163     26556     26162
 -1      8849    6    0    1
 -2     20465     20464     21579     20972     21795     27535     26165     23859     23858     28417
 -1      8850    6    0    1
 -2     21580     21638     20599     20442     27731     27732     27729     26169     27991     22645
 -1      8851    6    0    1
 -2     21580     20638     20441     20442     27935     22732     26999     26169     22731     21771
 -1      8852    6    0    1
 -2     21690     21022     20450     20449     27762     23965     28221     27836     23964     21780
 -1      8853    6    0    1
 -2     21396     21580     21726     21399     27738     27934     27226     22143     26170     27740
 -1      8854    6    0    1
 -2     21639     21726     21580     21638     27228     27934     27939     27882     27881     27731
 -1      8855    6    0    1
 -2     20638     20441     21687     21580     22732     27020     26651     27935     26999     27972
 -1      8856    6    0    1
 -2     20638     20721     21726     20678     23012     26991     26414     22894     23029     25407
 -1      8857    6    0    1
 -2     21581     20462     20973     20463     26208     23860     26494     26209     21793     23861
 -1      8858    6    0    1
 -2     20973     20462     21581     21016     23860     26208     26494     24033     23953     28418
 -1      8859    6    0    1
 -2     21649     21359     21565     21532     27797     26804     27452     27453     26805     25614
 -1      8860    6    0    1
 -2     21359     21532     21649     21581     26805     27453     27797     26207     28317     26495
 -1      8861    6    0    1
 -2     20973     21581     21532     21016     26494     28317     26122     24033     28418     26123
 -1      8862    6    0    1
 -2     21582     20520     21036     20995     26256     24002     28082     28396     23906     24051
 -1      8863    6    0    1
 -2     21036     20520     21582     20519     24002     26256     28082     24001     21860     26767
 -1      8864    6    0    1
 -2     21525     20617     21524     21695     27423     27146     28033     28272     28385     28243
 -1      8865    6    0    1
 -2     20663     20483     20482     21712     22792     21817     22793     28293     28235     28112
 -1      8866    6    0    1
 -2     21582     20995     21110     21535     28396     24269     26018     26020     26028     26019
 -1      8867    6    0    1
 -2     21582     21535     20684     21452     26020     26396     26228     26221     27256     26236
 -1      8868    6    0    1
 -2     20629     20590     21583     21534     22834     27178     28419     27220     27478     25298
 -1      8869    6    0    1
 -2     20424     21583     20629     20590     27831     28419     22713     22627     27178     22834
 -1      8870    6    0    1
 -2     21646     20425     21583     21407     28357     26733     28420     25689     22063     26734
 -1      8871    6    0    1
 -2     21646     21407     21583     21520     25689     26734     28420     25547     25690     27176
 -1      8872    6    0    1
 -2     21583     20590     20424     20425     27178     22627     27831     26733     22626     21754
 -1      8873    6    0    1
 -2     21520     21534     21583     20590     25420     25298     27176     27179     27478     27178
 -1      8874    6    0    1
 -2     21695     21446     21584     20507     28043     26272     28361     28384     22296     26271
 -1      8875    6    0    1
 -2     20618     20657     21584     20508     22854     28249     28421     22688     22776     26481
 -1      8876    6    0    1
 -2     21584     20657     20507     20508     28249     22777     26271     26481     22776     21847
 -1      8877    6    0    1
 -2     20618     21525     21584     20657     25458     27392     28421     22854     27421     28249
 -1      8878    6    0    1
 -2     20617     20507     21584     20657     22685     26271     28248     22827     22777     28249
 -1      8879    6    0    1
 -2     21718     20414     20518     21427     25389     21858     26833     26834     22247     22250
 -1      8880    6    0    1
 -2     20460     20974     21585     20461     23862     28422     26349     21791     23863     26336
 -1      8881    6    0    1
 -2     21638     21665     20639     20443     28366     28367     28364     27328     28331     22734
 -1      8882    6    0    1
 -2     20460     21533     21585     20974     27670     26662     26349     23862     28223     28422
 -1      8883    6    0    1
 -2     20549     21586     20643     20550     26356     28309     22746     21891     26358     22745
 -1      8884    6    0    1
 -2     20549     20602     20643     21586     22653     22815     22746     26356     28393     28309
 -1      8885    6    0    1
 -2     20996     21079     21582     21036     24173     26021     26229     24077     24174     28082
 -1      8886    6    0    1
 -2     20979     21022     21690     21537     24039     27762     28368     26965     26966     27760
 -1      8887    6    0    1
 -2     21512     21494     21696     20550     22558     28107     28078     22544     22495     28079
 -1      8888    6    0    1
 -2     20680     21586     21714     20643     28389     28088     28143     22900     28309     28199
 -1      8889    6    0    1
 -2     20643     21586     20602     20680     28309     28393     22815     22900     28389     22901
 -1      8890    6    0    1
 -2     20624     20664     21587     21516     22833     28362     27712     25381     25231     25156
 -1      8891    6    0    1
 -2     21712     21416     21420     20483     27158     22240     27138     28235     22212     22209
 -1      8892    6    0    1
 -2     20484     20624     21689     20483     22702     25380     26394     21818     22703     28423
 -1      8893    6    0    1
 -2     21712     20483     21420     21689     28235     22209     27138     26321     28423     26390
 -1      8894    6    0    1
 -2     20574     21671     21606     21002     27611     27613     27614     23922     28330     28407
 -1      8895    6    0    1
 -2     21587     20664     20624     20484     28362     22833     27712     26395     22796     22702
 -1      8896    6    0    1
 -2     20979     20450     21690     21022     23872     28221     28368     24039     23965     27762
 -1      8897    6    0    1
 -2     20967     21588     21639     20474     27009     26082     27008     23848     26428     26327
 -1      8898    6    0    1
 -2     21639     21369     21365     21588     26546     22162     26426     26082     27752     26427
 -1      8899    6    0    1
 -2     20655     20504     20503     21605     22772     21843     22773     27481     28156     27488
 -1      8900    6    0    1
 -2     21620     21682     21705     20998     26726     27995     27992     25964     26727     27993
 -1      8901    6    0    1
 -2     20474     21588     20475     20967     26428     27753     21805     23848     27009     23849
 -1      8902    6    0    1
 -2     21620     21485     21682     21489     25448     27996     26726     27437     22602     28172
 -1      8903    6    0    1
 -2     21655     20504     21605     21447     27457     28156     28415     27455     22297     28311
 -1      8904    6    0    1
 -2     21606     21002     21671     21526     28407     28330     27613     27792     27971     26012
 -1      8905    6    0    1
 -2     20985     21640     20540     21589     27498     26448     23886     26324     25861     26446
 -1      8906    6    0    1
 -2     21438     21464     21589     21442     22344     26471     26447     22431     22434     25332
 -1      8907    6    0    1
 -2     21699     21439     21589     20541     25333     25334     25331     26323     22274     26325
 -1      8908    6    0    1
 -2     21731     20985     21699     21589     27497     26322     28179     25860     26324     25331
 -1      8909    6    0    1
 -2     20985     21517     21699     21007     28031     26475     26322     23980     28386     26843
 -1      8910    6    0    1
 -2     20541     21589     20985     20540     26325     26324     23887     21881     26446     23886
 -1      8911    6    0    1
 -2     20578     21706     21040     20577     27575     26155     24013     21920     26158     24012
 -1      8912    6    0    1
 -2     21731     21589     21699     21442     25860     25331     28179     26124     25332     25330
 -1      8913    6    0    1
 -2     21695     21524     20656     20617     28243     27145     28394     28385     27146     22853
 -1      8914    6    0    1
 -2     20499     20500     21590     20653     21839     26499     26497     22769     22768     26982
 -1      8915    6    0    1
 -2     20606     21706     21737     21040     26762     28085     27847     27849     26155     27848
 -1      8916    6    0    1
 -2     21710     20609     20562     21656     28278     22668     28257     27853     28359     28383
 -1      8917    6    0    1
 -2     20694     20613     21590     20653     22936     28067     25714     22935     22823     26982
 -1      8918    6    0    1
 -2     21615     21524     20531     21434     28266     27154     28018     28017     27155     22264
 -1      8919    6    0    1
 -2     20484     20483     21689     21420     21818     28423     26394     22210     22209     26390
 -1      8920    6    0    1
 -2     21673     20472     21603     21364     27973     27510     25189     27974     21960     26743
 -1      8921    6    0    1
 -2     20530     21524     20531     20990     27325     27154     21871     23896     26792     23897
 -1      8922    6    0    1
 -2     21605     20615     20655     21523     28424     22825     27481     27480     28277     26820
 -1      8923    6    0    1
 -2     21382     21411     21721     20417     22115     28042     26885     22000     22071     26893
 -1      8924    6    0    1
 -2     21006     20566     20567     21528     23930     21909     23931     25243     27055     25244
 -1      8925    6    0    1
 -2     20503     20615     20655     21605     22681     22825     22773     27488     28424     27481
 -1      8926    6    0    1
 -2     20625     20415     21672     21681     22706     25815     25118     27768     28387     27919
 -1      8927    6    0    1
 -2     20583     21591     20584     21038     26613     26614     21926     24006     26574     24007
 -1      8928    6    0    1
 -2     20690     21486     21656     20609     25474     27213     27212     22925     28358     28359
 -1      8929    6    0    1
 -2     21486     21489     21682     21507     22610     28172     27253     22573     22601     27107
 -1      8930    6    0    1
 -2     21735     21591     21692     21488     26931     27858     28269     27114     27115     27857
 -1      8931    6    0    1
 -2     21486     20584     21692     21487     22471     25609     27856     22475     22474     27524
 -1      8932    6    0    1
 -2     20690     21591     21068     21038     26930     26576     27171     26929     26574     24142
 -1      8933    6    0    1
 -2     21486     21507     21682     20583     22573     27107     27253     22472     22529     27105
 -1      8934    6    0    1
 -2     21486     21487     21692     21488     22475     27524     27856     22603     22480     27857
 -1      8935    6    0    1
 -2     20605     20555     20554     21592     22659     21896     22660     27300     26628     26627
 -1      8936    6    0    1
 -2     21715     21526     21592     20720     26606     26024     26611     25852     26607     26612
 -1      8937    6    0    1
 -2     20682     20605     21592     20720     22906     27300     27218     23009     23008     26612
 -1      8938    6    0    1
 -2     20554     20645     20605     21592     22749     22846     22660     26627     27608     27300
 -1      8939    6    0    1
 -2     20621     20514     20660     21694     22694     22782     22857     28425     28182     28271
 -1      8940    6    0    1
 -2     20514     21694     20621     20515     28182     28425     22694     21854     28022     22693
 -1      8941    6    0    1
 -2     20519     20518     21704     20996     21859     26836     26825     23909     23908     28321
 -1      8942    6    0    1
 -2     21043     21593     21669     21115     27070     25279     27068     24286     25278     25281
 -1      8943    6    0    1
 -2     21480     21494     21724     21501     22589     27899     26812     22571     22590     28110
 -1      8944    6    0    1
 -2     21714     21043     21593     21724     28208     27070     28170     28108     28145     26813
 -1      8945    6    0    1
 -2     21480     21501     21724     20571     22571     28110     26812     22460     22515     28190
 -1      8946    6    0    1
 -2     21724     20571     20572     21480     28190     21914     26811     26812     22460     22459
 -1      8947    6    0    1
 -2     21043     21115     21669     21003     24286     25281     27068     24056     24287     27279
 -1      8948    6    0    1
 -2     21714     21593     21494     21724     28170     27900     28106     28108     26813     27899
 -1      8949    6    0    1
 -2     21594     20564     21476     20410     26847     22452     26741     26848     21906     22449
 -1      8950    6    0    1
 -2     21594     21476     21345     20410     26741     22450     26738     26848     22449     21743
 -1      8951    6    0    1
 -2     21398     21367     21678     21368     22166     28060     25552     22167     22044     25553
 -1      8952    6    0    1
 -2     21678     21367     21594     21345     28060     27746     26737     26739     21967     26738
 -1      8953    6    0    1
 -2     21500     21476     21594     20564     22514     26741     27741     22511     22452     26847
 -1      8954    6    0    1
 -2     21500     20564     21594     21663     22511     26847     27741     28222     27773     27774
 -1      8955    6    0    1
 -2     21662     21493     21595     21527     26658     26880     27807     25483     25480     27096
 -1      8956    6    0    1
 -2     20707     20644     21595     20604     22969     27804     27095     22968     22860     27803
 -1      8957    6    0    1
 -2     20707     20604     21595     21527     22968     27803     27095     27097     27336     27096
 -1      8958    6    0    1
 -2     20644     21595     21717     20683     27804     28296     28426     22908     27098     26591
 -1      8959    6    0    1
 -2     20644     20683     21717     20603     22908     26591     28426     22816     22909     28076
 -1      8960    6    0    1
 -2     21717     20551     20552     20644     27634     21893     28375     28426     22748     22747
 -1      8961    6    0    1
 -2     20993     21596     20525     21033     27275     26899     23903     24074     28427     23995
 -1      8962    6    0    1
 -2     20525     21596     20993     20524     26899     27275     23903     21865     27276     23902
 -1      8963    6    0    1
 -2     21683     21430     21596     21522     25705     28166     28164     25708     25709     28289
 -1      8964    6    0    1
 -2     21034     21522     21596     20993     27469     28289     27274     24049     27465     27275
 -1      8965    6    0    1
 -2     21522     21596     20993     21033     28289     27275     27465     27467     28427     24074
 -1      8966    6    0    1
 -2     21655     21447     21597     20505     27455     27267     28125     27456     22298     27266
 -1      8967    6    0    1
 -2     20505     20506     21597     20656     21845     28013     27266     22775     22774     27603
 -1      8968    6    0    1
 -2     21695     20617     20656     20506     28385     22853     28394     28025     22686     22774
 -1      8969    6    0    1
 -2     20616     20505     21597     20656     22683     27266     27602     22826     22775     27603
 -1      8970    6    0    1
 -2     21695     20506     20656     21597     28025     22774     28394     28024     28013     27603
 -1      8971    6    0    1
 -2     21598     20627     20588     20669     26192     22798     28428     25607     22875     22874
 -1      8972    6    0    1
 -2     21598     20420     20588     20627     27280     22623     28428     26192     22709     22798
 -1      8973    6    0    1
 -2     21672     21559     21681     21385     25114     26246     27919     27835     25376     27766
 -1      8974    6    0    1
 -2     20726     20689     21698     21562     23073     25938     25935     25934     25939     25931
 -1      8975    6    0    1
 -2     20627     20669     21598     21537     22875     25607     26192     26189     27801     26193
 -1      8976    6    0    1
 -2     20419     20420     21598     20627     21749     27280     26191     22710     22709     26192
 -1      8977    6    0    1
 -2     20437     20436     21685     21372     21766     27925     27290     21980     21979     27291
 -1      8978    6    0    1
 -2     20437     21599     20596     20636     27292     27516     22638     22728     28429     22810
 -1      8979    6    0    1
 -2     21681     21721     21621     20586     26883     27033     26243     26245     27034     26244
 -1      8980    6    0    1
 -2     20676     20596     21599     20636     22891     27516     25653     22890     22810     28429
 -1      8981    6    0    1
 -2     20416     20415     20625     21681     21745     22706     22705     26884     28387     27768
 -1      8982    6    0    1
 -2     20652     20611     21600     20495     22822     28430     26431     22765     22673     26777
 -1      8983    6    0    1
 -2     21473     21451     21622     20496     22382     25759     27680     22366     22305     26432
 -1      8984    6    0    1
 -2     20496     20652     21600     20495     22764     26431     26433     21835     22765     26777
 -1      8985    6    0    1
 -2     21535     20611     21600     20652     26397     28430     27345     27560     22822     26431
 -1      8986    6    0    1
 -2     20652     20496     21622     20612     22764     26432     26429     22851     22676     25796
 -1      8987    6    0    1
 -2     21039     21705     20581     20582     26911     27532     24008     24009     28032     21924
 -1      8988    6    0    1
 -2     21601     20975     20458     21018     25736     23864     27351     27585     24035     23957
 -1      8989    6    0    1
 -2     21018     21520     21601     20975     27240     26112     27585     24035     26266     25736
 -1      8990    6    0    1
 -2     20458     20457     21601     21018     21788     26113     27351     23957     23956     27585
 -1      8991    6    0    1
 -2     21644     21426     21474     20493     26503     22388     26559     26560     22309     22367
 -1      8992    6    0    1
 -2     21694     21438     21602     21728     27499     27385     25288     27118     27841     27088
 -1      8993    6    0    1
 -2     21027     20733     21602     20986     25674     25672     25671     24042     27378     27086
 -1      8994    6    0    1
 -2     20539     21728     21602     21438     27087     27088     27085     22272     27841     27385
 -1      8995    6    0    1
 -2     20539     20986     20538     21602     23889     23888     21879     27085     27086     27828
 -1      8996    6    0    1
 -2     21602     20733     20660     20986     25672     23055     26214     27086     27378     28224
 -1      8997    6    0    1
 -2     21602     20986     20538     21027     27086     23888     27828     25671     24042     23984
 -1      8998    6    0    1
 -2     21603     20678     20719     20598     26267     23065     25188     27735     22895     23006
 -1      8999    6    0    1
 -2     20472     20473     20968     21603     21803     23851     23850     27510     27511     25843
 -1      9000    6    0    1
 -2     20638     21580     21687     21726     27935     27972     26651     26414     27934     26652
 -1      9001    6    0    1
 -2     21673     21011     20968     20472     26861     24028     25842     27973     23943     23850
 -1      9002    6    0    1
 -2     21705     20998     20582     21039     27993     23914     28032     26911     24052     24009
 -1      9003    6    0    1
 -2     21039     20726     20998     21113     26909     25965     24052     24278     27363     24279
 -1      9004    6    0    1
 -2     20624     21516     21587     21689     25381     25156     27712     25380     25379     26393
 -1      9005    6    0    1
 -2     21603     20473     21639     21396     27511     26326     27229     27227     22036     26328
 -1      9006    6    0    1
 -2     20493     21604     20651     20494     26563     26541     22763     21833     27528     22762
 -1      9007    6    0    1
 -2     21679     21452     21474     21455     26218     22383     26723     26829     22441     22424
 -1      9008    6    0    1
 -2     20651     21604     21452     21645     26541     26540     26543     27558     27559     26789
 -1      9009    6    0    1
 -2     21426     21644     20610     21574     26503     27787     26668     26571     28412     27434
 -1      9010    6    0    1
 -2     21554     20470     21617     21012     25209     25212     25210     28398     23945     28409
 -1      9011    6    0    1
 -2     21554     21012     21617     21519     28398     28409     25210     26313     26868     26315
 -1      9012    6    0    1
 -2     21617     20470     20469     21012     25212     21800     27805     28409     23945     23944
 -1      9013    6    0    1
 -2     20970     21012     21617     20469     24062     28409     27911     23855     23944     27805
 -1      9014    6    0    1
 -2     20970     20469     21617     21570     23855     27805     27911     27913     25863     27912
 -1      9015    6    0    1
 -2     21556     20614     21522     20501     28276     26583     25262     25261     22679     25259
 -1      9016    6    0    1
 -2     21382     21412     21681     21385     22101     28388     26886     22180     22174     27766
 -1      9017    6    0    1
 -2     21522     20500     20501     20614     26981     21840     25259     26583     22680     22679
 -1      9018    6    0    1
 -2     20710     20654     21556     21518     22980     25065     28242     26976     25064     25067
 -1      9019    6    0    1
 -2     21679     21704     21727     20996     26826     28162     26635     26232     28321     26636
 -1      9020    6    0    1
 -2     21705     20581     21698     21039     27532     27530     25932     26911     24008     26910
 -1      9021    6    0    1
 -2     21583     21534     21618     20629     25298     25203     25296     28419     27220     28431
 -1      9022    6    0    1
 -2     21583     20629     21618     20424     28419     28431     25296     27831     22713     26261
 -1      9023    6    0    1
 -2     20668     20589     21618     20629     22873     27931     25202     22872     22803     28431
 -1      9024    6    0    1
 -2     20668     20629     21618     21534     22872     28431     25202     25204     27220     25203
 -1      9025    6    0    1
 -2     20629     20589     21618     20423     22803     27931     28431     22714     22624     27832
 -1      9026    6    0    1
 -2     20424     20423     20629     21618     21753     22714     22713     26261     27832     28431
 -1      9027    6    0    1
 -2     21619     21561     21004     20570     25437     28118     28432     25439     25440     23926
 -1      9028    6    0    1
 -2     21619     21501     21714     21512     25952     28109     26987     25953     22607     26989
 -1      9029    6    0    1
 -2     21109     21561     21714     20680     28117     26986     26749     26488     25317     28143
 -1      9030    6    0    1
 -2     20571     21501     21619     20570     22515     25952     28344     21913     22516     25439
 -1      9031    6    0    1
 -2     21638     20443     20639     20599     27328     22734     28364     27732     22644     22813
 -1      9032    6    0    1
 -2     21109     20680     21714     21087     26488     28143     26749     24267     28286     26750
 -1      9033    6    0    1
 -2     20608     20649     21620     20726     22821     28255     28403     23033     23032     25963
 -1      9034    6    0    1
 -2     20690     20726     21620     20649     23083     25963     27438     22926     23032     28255
 -1      9035    6    0    1
 -2     21620     20690     21068     20726     27438     27171     25961     25963     23083     25962
 -1      9036    6    0    1
 -2     20608     20726     21620     21562     23033     25963     28403     27843     25934     25447
 -1      9037    6    0    1
 -2     21710     21620     21489     20561     27439     27437     25475     28256     25451     22483
 -1      9038    6    0    1
 -2     21563     21706     21483     20577     26154     26705     28404     26157     26158     22466
 -1      9039    6    0    1
 -2     21735     21488     21692     21727     27114     27857     28269     27755     27432     25123
 -1      9040    6    0    1
 -2     21563     20577     21483     21504     26157     22466     28404     27316     22521     22562
 -1      9041    6    0    1
 -2     21563     21504     21483     21491     27316     22562     28404     27794     22614     22608
 -1      9042    6    0    1
 -2     21568     20445     20640     20600     27277     22737     28408     28390     22646     22899
 -1      9043    6    0    1
 -2     21517     21007     20486     21552     28386     23935     25577     25579     26890     25578
 -1      9044    6    0    1
 -2     21552     21007     21699     21517     26890     26843     26474     25579     28386     26475
 -1      9045    6    0    1
 -2     21007     20486     21552     20542     23935     25578     26890     23934     23885     26889
 -1      9046    6    0    1
 -2     21439     21517     21680     21552     26473     27386     27723     26472     25579     25131
 -1      9047    6    0    1
 -2     21717     21661     20551     20603     27399     27627     27634     28076     28077     22655
 -1      9048    6    0    1
 -2     20644     20603     21717     20551     22816     28076     28426     22748     22655     27634
 -1      9049    6    0    1
 -2     20431     21404     21565     21684     22057     26340     26645     27458     27459     28232
 -1      9050    6    0    1
 -2     21565     21531     21684     21404     26338     27790     28232     26340     26341     27459
 -1      9051    6    0    1
 -2     20673     21531     21565     21532     27451     26338     25613     25615     27454     25614
 -1      9052    6    0    1
 -2     21352     21385     21559     20448     22117     25376     27764     21936     22010     25375
 -1      9053    6    0    1
 -2     20449     20448     21621     20980     21779     25638     25636     23875     23874     27921
 -1      9054    6    0    1
 -2     20735     20980     21621     21559     27870     27921     27920     26066     28401     26247
 -1      9055    6    0    1
 -2     21059     21022     21621     20980     24121     27761     27553     24120     24072     27921
 -1      9056    6    0    1
 -2     21621     21022     20449     20980     27761     23964     25636     27921     24072     23875
 -1      9057    6    0    1
 -2     21352     20448     21559     21621     21936     25375     27764     25637     25638     26247
 -1      9058    6    0    1
 -2     20624     21689     20483     20663     25380     28423     22703     22859     26269     22792
 -1      9059    6    0    1
 -2     21621     20711     21059     20980     27072     27552     27553     27921     27871     24120
 -1      9060    6    0    1
 -2     20497     21573     21622     20612     25755     25757     25758     22675     25797     25796
 -1      9061    6    0    1
 -2     20727     20612     21573     20650     23036     25797     25795     23035     22760     26333
 -1      9062    6    0    1
 -2     20691     20612     21622     20727     22927     25796     27736     23072     23036     25794
 -1      9063    6    0    1
 -2     20691     20727     21622     21535     23072     25794     27736     27561     26518     27737
 -1      9064    6    0    1
 -2     20496     20497     21622     20612     21836     25758     26432     22676     22675     25796
 -1      9065    6    0    1
 -2     20584     21591     21692     21038     26614     27858     25609     24007     26574     25271
 -1      9066    6    0    1
 -2     20652     21535     21622     21600     27560     27737     26429     26431     27345     26430
 -1      9067    6    0    1
 -2     21344     20543     21475     21623     22446     22503     22448     25802     25803     28433
 -1      9068    6    0    1
 -2     21623     21475     21568     20543     28433     26756     27517     25803     22503     25819
 -1      9069    6    0    1
 -2     21678     21367     21344     21623     28060     21966     28059     28434     27936     25802
 -1      9070    6    0    1
 -2     21368     21367     21678     21623     22044     28060     25553     28057     27936     28434
 -1      9071    6    0    1
 -2     21623     21368     21568     21475     28057     26754     27517     28433     26755     26756
 -1      9072    6    0    1
 -2     20545     20546     21528     20641     21887     25233     25809     22738     22742     26545
 -1      9073    6    0    1
 -2     21717     20644     20552     21595     28426     22747     28375     28296     27804     26878
 -1      9074    6    0    1
 -2     21593     20603     21717     20683     28075     28076     26592     26593     22909     26591
 -1      9075    6    0    1
 -2     20658     21716     20509     21642     28435     27904     22779     27885     27151     27393
 -1      9076    6    0    1
 -2     20734     20663     21551     21712     23061     28295     27180     26318     28293     27063
 -1      9077    6    0    1
 -2     20585     20415     21624     20625     22616     25812     28300     22799     22706     27815
 -1      9078    6    0    1
 -2     21577     21516     21613     20667     27513     25158     28046     28048     25232     28047
 -1      9079    6    0    1
 -2     20407     20585     21624     21613     22617     28300     28037     28039     28298     28038
 -1      9080    6    0    1
 -2     21681     20625     20416     20586     27768     22705     26884     26245     22789     22619
 -1      9081    6    0    1
 -2     20585     20625     21624     20667     22799     27815     28300     22871     22870     28049
 -1      9082    6    0    1
 -2     20471     20969     21625     21011     23853     28336     25826     23942     24061     26876
 -1      9083    6    0    1
 -2     21011     20677     20969     21625     26875     25895     24061     26876     26874     28336
 -1      9084    6    0    1
 -2     21582     20996     21538     21079     26229     26353     27343     26021     24173     26354
 -1      9085    6    0    1
 -2     20677     21011     20969     21048     26875     24061     25895     27048     24099     24098
 -1      9086    6    0    1
 -2     21625     21677     21707     20677     28219     27662     26970     26874     28334     26971
 -1      9087    6    0    1
 -2     21554     20470     20471     21363     25209     21801     27816     27445     21958     21957
 -1      9088    6    0    1
 -2     21569     20598     21603     20719     27979     27735     25192     25191     23006     25188
 -1      9089    6    0    1
 -2     20621     21694     20660     20986     28425     28271     22857     27091     27119     28224
 -1      9090    6    0    1
 -2     20640     20445     21568     20446     22737     27277     28408     22736     21775     27278
 -1      9091    6    0    1
 -2     21610     20658     21642     21716     27884     27885     27149     27150     28435     27151
 -1      9092    6    0    1
 -2     20988     21716     20658     21610     25749     28435     26922     28240     27150     27884
 -1      9093    6    0    1
 -2     20510     21716     20509     20658     26955     27904     21849     22778     28435     22779
 -1      9094    6    0    1
 -2     20619     21716     20510     20658     26954     26955     22690     22855     28435     22778
 -1      9095    6    0    1
 -2     21725     21477     21498     21497     28327     22505     27050     27051     22615     22612
 -1      9096    6    0    1
 -2     20658     20700     20619     21716     22950     22949     22855     28435     25748     26954
 -1      9097    6    0    1
 -2     21571     20433     21626     20634     25879     25882     25880     28410     22724     28436
 -1      9098    6    0    1
 -2     21571     20634     21626     21530     28410     28436     25880     25497     26302     26895
 -1      9099    6    0    1
 -2     21626     20634     20433     20434     28436     22724     25882     26310     22723     21763
 -1      9100    6    0    1
 -2     20595     21530     21626     20634     27036     26895     26309     22839     26302     28436
 -1      9101    6    0    1
 -2     20595     20634     21626     20434     22839     28436     26309     22637     22723     26310
 -1      9102    6    0    1
 -2     20607     20559     21627     20648     22663     25891     27137     22820     22756     28437
 -1      9103    6    0    1
 -2     21627     20689     20725     20648     25940     23031     27217     28437     22924     23028
 -1      9104    6    0    1
 -2     20607     20648     21627     20725     22820     28437     27137     23026     23028     27217
 -1      9105    6    0    1
 -2     20621     21694     21711     20515     28425     27500     28252     22693     28022     28021
 -1      9106    6    0    1
 -2     20648     20689     21562     21627     22924     25939     27842     28437     25940     25936
 -1      9107    6    0    1
 -2     21627     20559     20560     20648     25891     21901     27861     28437     22756     22755
 -1      9108    6    0    1
 -2     20648     21627     21562     20560     28437     25936     27842     22755     27861     26378
 -1      9109    6    0    1
 -2     21640     21694     20621     20986     27320     28425     28253     27249     27119     27091
 -1      9110    6    0    1
 -2     21564     20428     21628     20592     25587     25914     25912     28406     22631     28438
 -1      9111    6    0    1
 -2     21564     20592     21628     21533     28406     28438     25912     27308     28153     27309
 -1      9112    6    0    1
 -2     21628     20428     20429     20592     25914     21758     27798     28438     22631     22630
 -1      9113    6    0    1
 -2     20632     20592     21628     20429     22806     28438     28370     22720     22630     27798
 -1      9114    6    0    1
 -2     21628     20592     20632     20672     28438     22806     28370     28180     22883     22882
 -1      9115    6    0    1
 -2     21533     20592     21628     20672     28153     28438     27309     27361     22883     28180
 -1      9116    6    0    1
 -2     21573     21629     20613     20650     25918     27944     27942     26333     26700     22766
 -1      9117    6    0    1
 -2     21430     21450     21590     21629     22438     27462     25716     26585     26586     28068
 -1      9118    6    0    1
 -2     21573     20650     20613     20696     26333     22766     27942     25774     22940     22939
 -1      9119    6    0    1
 -2     21573     20696     20613     21430     25774     22939     27942     25772     25773     27943
 -1      9120    6    0    1
 -2     20499     21590     21629     20613     26497     28068     28054     22677     28067     27944
 -1      9121    6    0    1
 -2     20996     20519     21582     21679     23909     26767     26229     26232     26827     26219
 -1      9122    6    0    1
 -2     20528     20991     21523     20529     23898     25426     25947     21869     23899     25955
 -1      9123    6    0    1
 -2     20604     21662     21595     21527     28259     27807     27803     27336     25483     27096
 -1      9124    6    0    1
 -2     20988     20700     20658     21716     25751     22950     26922     25749     25748     28435
 -1      9125    6    0    1
 -2     20577     21001     21715     21563     23921     25849     27313     26157     27201     27314
 -1      9126    6    0    1
 -2     21630     21598     20588     20669     25603     28428     28150     25606     25607     22874
 -1      9127    6    0    1
 -2     20659     21702     20511     21634     27891     26194     22781     27701     28329     28328
 -1      9128    6    0    1
 -2     20421     21557     21630     20588     27572     28137     28136     22622     28291     28150
 -1      9129    6    0    1
 -2     21630     20420     20588     21598     25974     22623     28150     25603     27280     28428
 -1      9130    6    0    1
 -2     21607     21410     21630     20669     25164     25602     25726     27539     25605     25606
 -1      9131    6    0    1
 -2     20983     21064     21631     21024     24131     27066     28373     23972     24132     27495
 -1      9132    6    0    1
 -2     21516     21689     20734     21631     25379     25377     25378     26107     26320     26319
 -1      9133    6    0    1
 -2     20491     21423     21631     20490     22221     26366     27527     21826     22219     26064
 -1      9134    6    0    1
 -2     20621     21640     21711     21694     28253     25858     28252     28425     27320     27500
 -1      9135    6    0    1
 -2     20491     20490     21631     21024     21826     26064     27527     23969     23971     27495
 -1      9136    6    0    1
 -2     21631     21064     21090     21024     27066     24207     26108     27495     24132     24205
 -1      9137    6    0    1
 -2     20983     21024     21631     20490     23972     27495     28373     23882     23971     26064
 -1      9138    6    0    1
 -2     20975     21601     21377     21520     25736     25734     25735     26266     26112     25688
 -1      9139    6    0    1
 -2     21715     21563     21651     21509     27314     26698     25848     28147     26694     26697
 -1      9140    6    0    1
 -2     20459     20975     21632     21533     23865     25739     27243     27244     26072     27242
 -1      9141    6    0    1
 -2     21632     20459     20458     20975     27243     21789     27362     25739     23865     23864
 -1      9142    6    0    1
 -2     21377     21533     21632     20975     27952     27242     25738     25735     26072     25739
 -1      9143    6    0    1
 -2     21632     20458     21601     20975     27362     27351     25737     25739     23864     25736
 -1      9144    6    0    1
 -2     20996     21036     21582     20519     24077     28082     26229     23909     24001     26767
 -1      9145    6    0    1
 -2     21633     20408     20981     20447     26167     23876     28414     26168     21777     23877
 -1      9146    6    0    1
 -2     20408     21577     21633     20981     26104     26183     26167     23876     27910     28414
 -1      9147    6    0    1
 -2     20519     21455     21704     20518     22316     26828     26825     21859     22317     26836
 -1      9148    6    0    1
 -2     20981     21023     21633     20447     24073     27005     28414     23877     23966     26168
 -1      9149    6    0    1
 -2     21368     21678     21475     21623     25553     28439     26755     28057     28434     28433
 -1      9150    6    0    1
 -2     20619     20659     20511     21634     22829     22781     22689     26852     27701     28328
 -1      9151    6    0    1
 -2     20553     21662     20552     20604     28045     27808     21894     22657     28259     22658
 -1      9152    6    0    1
 -2     20732     20700     21713     20619     23053     25747     28191     23052     22949     26935
 -1      9153    6    0    1
 -2     21444     20510     21729     21467     22291     26850     27043     22376     22353     27042
 -1      9154    6    0    1
 -2     20732     20619     21713     21657     23052     26935     28191     27796     27698     27748
 -1      9155    6    0    1
 -2     21475     21678     21344     21623     28439     28059     22448     28433     28434     25802
 -1      9156    6    0    1
 -2     20510     20619     20511     21634     22690     22689     21850     26851     26852     28328
 -1      9157    6    0    1
 -2     21014     20972     20465     21635     24064     23859     23948     28134     28440     26164
 -1      9158    6    0    1
 -2     21560     20466     21635     21014     26286     26289     26287     28402     23949     28134
 -1      9159    6    0    1
 -2     21051     21014     21635     20972     24105     28134     26144     24104     24064     28440
 -1      9160    6    0    1
 -2     21560     21014     21635     21530     28402     28134     26287     26346     28135     26147
 -1      9161    6    0    1
 -2     21014     21635     20465     20466     28134     26164     23948     23949     26289     21796
 -1      9162    6    0    1
 -2     21636     20558     20607     20647     26252     22664     28313     28441     22753     22848
 -1      9163    6    0    1
 -2     21636     20647     20723     20606     28441     23019     26760     26761     22819     23017
 -1      9164    6    0    1
 -2     20558     20647     21636     20557     22753     28441     26252     21899     22754     27312
 -1      9165    6    0    1
 -2     21636     20557     20647     20606     27312     22754     28441     26761     22661     22819
 -1      9166    6    0    1
 -2     21636     20688     20723     20647     28302     23030     26760     28441     22922     23019
 -1      9167    6    0    1
 -2     20607     20688     21636     20647     22921     28302     28313     22848     22922     28441
 -1      9168    6    0    1
 -2     21679     20692     21727     21426     26501     26637     26635     26504     26505     26667
 -1      9169    6    0    1
 -2     21455     21427     21727     21704     22320     27262     28161     26828     26837     28162
 -1      9170    6    0    1
 -2     21582     20995     21637     20520     28396     28442     26255     26256     23906     26254
 -1      9171    6    0    1
 -2     20995     21035     21535     21637     24076     26137     26028     28442     27430     26461
 -1      9172    6    0    1
 -2     21637     21035     20521     20995     27430     23999     27450     28442     24076     23907
 -1      9173    6    0    1
 -2     20995     20520     20521     21637     23906     21861     23907     28442     26254     27450
 -1      9174    6    0    1
 -2     21582     21535     21637     20995     26020     26461     26255     28396     26028     28442
 -1      9175    6    0    1
 -2     20996     20518     21704     20997     23908     26836     28321     23912     23911     28283
 -1      9176    6    0    1
 -2     21585     20461     20974     21016     26336     23863     28422     28318     23952     24066
 -1      9177    6    0    1
 -2     21053     21016     21585     20974     24109     28318     28026     24108     24066     28422
 -1      9178    6    0    1
 -2     21053     20974     21585     21533     24108     28422     28026     27360     28223     26662
 -1      9179    6    0    1
 -2     21715     21092     21041     21606     26595     24212     28281     28280     27793     28282
 -1      9180    6    0    1
 -2     20575     21041     21715     20576     24014     28281     28279     21918     24015     28405
 -1      9181    6    0    1
 -2     21580     20442     20599     20638     26169     22645     27729     27935     22731     22843
 -1      9182    6    0    1
 -2     21397     21638     20443     21665     26537     27328     22046     28217     28366     28331
 -1      9183    6    0    1
 -2     21368     21500     21475     21678     25556     22579     26755     25553     25555     28439
 -1      9184    6    0    1
 -2     21580     20638     20599     20721     27935     22843     27729     27730     23012     23011
 -1      9185    6    0    1
 -2     20442     21638     20599     20443     27991     27732     22645     21772     27328     22644
 -1      9186    6    0    1
 -2     20681     20599     21638     20639     23013     27732     28379     22904     22813     28364
 -1      9187    6    0    1
 -2     20473     21639     20474     21010     26326     26327     21804     23940     28443     23941
 -1      9188    6    0    1
 -2     20967     20474     21639     21010     23848     26327     27008     24027     23941     28443
 -1      9189    6    0    1
 -2     20604     20552     21595     21662     22658     26878     27803     28259     27808     27807
 -1      9190    6    0    1
 -2     21726     21639     21603     21010     27228     27229     27002     25836     28443     26268
 -1      9191    6    0    1
 -2     21726     21010     21091     21639     25836     24208     25404     27228     28443     26085
 -1      9192    6    0    1
 -2     20735     21559     21621     20586     26066     26247     27920     23063     26067     26244
 -1      9193    6    0    1
 -2     21345     21344     21475     21678     21742     22448     22447     26739     28059     28439
 -1      9194    6    0    1
 -2     21536     21639     21726     21091     26084     27228     25403     25405     26085     25404
 -1      9195    6    0    1
 -2     20967     21010     21639     21091     24027     28443     27008     24209     24208     26085
 -1      9196    6    0    1
 -2     21603     20473     21010     21639     27511     23940     26268     27229     26326     28443
 -1      9197    6    0    1
 -2     21640     20985     20540     21026     27498     23886     26448     28444     23978     23977
 -1      9198    6    0    1
 -2     21026     21640     20539     20540     28444     26476     23979     23977     26448     21880
 -1      9199    6    0    1
 -2     21026     21640     20985     20661     28444     27498     23978     26924     28116     28030
 -1      9200    6    0    1
 -2     20621     21640     21026     20661     28253     28444     26953     22831     28116     26924
 -1      9201    6    0    1
 -2     21026     21640     20621     20986     28444     28253     26953     23982     27249     27091
 -1      9202    6    0    1
 -2     21026     20986     20539     21640     23982     23889     23979     28444     27249     26476
 -1      9203    6    0    1
 -2     20980     20448     21621     21559     23874     25638     27921     28401     25375     26247
 -1      9204    6    0    1
 -2     20701     21719     21676     21437     26224     27405     28372     25993     27375     27403
 -1      9205    6    0    1
 -2     21641     21676     20512     21443     28445     26550     26455     26456     26551     22289
 -1      9206    6    0    1
 -2     20512     20620     21641     21576     22692     28446     26455     27980     28413     27981
 -1      9207    6    0    1
 -2     21641     20620     20701     21576     28446     22951     25992     27981     28413     28053
 -1      9208    6    0    1
 -2     21641     21676     21443     21437     28445     26551     26456     25994     27403     22430
 -1      9209    6    0    1
 -2     20658     21642     20618     21525     27885     28447     22828     26921     27323     25458
 -1      9210    6    0    1
 -2     21584     20508     21642     20618     26481     26484     26482     28421     22688     28447
 -1      9211    6    0    1
 -2     21584     20618     21642     21525     28421     28447     26482     27392     25458     27323
 -1      9212    6    0    1
 -2     20618     21642     20509     20508     28447     27393     22687     22688     26484     21848
 -1      9213    6    0    1
 -2     20509     21642     20618     20658     27393     28447     22687     22779     27885     22828
 -1      9214    6    0    1
 -2     20662     20622     21643     20480     22788     26363     28448     22787     22698     26510
 -1      9215    6    0    1
 -2     20662     21517     21643     20622     27000     26059     28448     22788     26198     26363
 -1      9216    6    0    1
 -2     21500     21476     21475     21678     22514     22451     22579     25555     26740     28439
 -1      9217    6    0    1
 -2     21643     20479     20480     20622     26362     21814     26510     26363     22699     22698
 -1      9218    6    0    1
 -2     20571     20570     21619     21004     21913     25439     28344     23927     23926     28432
 -1      9219    6    0    1
 -2     21644     20651     21679     20692     27435     26542     26500     26502     22932     26501
 -1      9220    6    0    1
 -2     21644     20651     20493     21604     27435     22763     26560     26561     26541     26563
 -1      9221    6    0    1
 -2     20610     20692     20651     21644     22929     22932     22767     27787     26502     27435
 -1      9222    6    0    1
 -2     21475     21476     21345     21678     22451     22450     22447     28439     26740     26739
 -1      9223    6    0    1
 -2     20651     21644     20493     20610     27435     26560     22763     22767     27787     22672
 -1      9224    6    0    1
 -2     21645     20495     21600     20611     26774     26777     26775     28449     22673     28430
 -1      9225    6    0    1
 -2     20494     20495     21645     20611     21834     26774     26788     22674     22673     28449
 -1      9226    6    0    1
 -2     21535     20611     20684     21645     26397     22910     26396     27255     28449     27254
 -1      9227    6    0    1
 -2     21645     20611     21600     21535     28449     28430     26775     27255     26397     27345
 -1      9228    6    0    1
 -2     20494     21645     20651     20611     26788     27558     22762     22674     28449     22862
 -1      9229    6    0    1
 -2     20651     21645     20684     20611     27558     27254     22911     22862     28449     22910
 -1      9230    6    0    1
 -2     21700     20426     21646     21377     25652     25651     25544     27725     21989     25687
 -1      9231    6    0    1
 -2     21700     21377     21646     21520     27725     25687     25544     25548     25688     25547
 -1      9232    6    0    1
 -2     20630     21646     20426     20425     26262     25651     22715     22716     28357     21755
 -1      9233    6    0    1
 -2     20630     20425     21583     21646     22716     26733     27177     26262     28357     28420
 -1      9234    6    0    1
 -2     20630     21646     21583     21520     26262     28420     27177     26263     25547     27176
 -1      9235    6    0    1
 -2     21075     20992     21647     21033     24163     27918     25740     24162     24048     28450
 -1      9236    6    0    1
 -2     21596     21033     21647     20525     28427     28450     26898     26899     23995     26900
 -1      9237    6    0    1
 -2     20525     21033     21647     20526     23995     28450     26900     21866     23996     27767
 -1      9238    6    0    1
 -2     21647     21033     20992     20526     28450     24048     27918     27767     23996     23900
 -1      9239    6    0    1
 -2     21075     21033     21647     21522     24162     28450     25740     25742     27467     25741
 -1      9240    6    0    1
 -2     21596     21522     21647     21033     28289     25741     26898     28427     27467     28450
 -1      9241    6    0    1
 -2     20569     21044     21005     21648     24020     24081     23929     26995     25550     28044
 -1      9242    6    0    1
 -2     20568     21648     20569     21005     27840     26995     21911     23928     28044     23929
 -1      9243    6    0    1
 -2     21005     21536     21609     21648     25077     27675     27673     28044     26383     27679
 -1      9244    6    0    1
 -2     21088     21536     21648     20722     25869     26383     25551     26998     26997     25229
 -1      9245    6    0    1
 -2     21005     21648     21609     20568     28044     27679     27673     23928     27840     27866
 -1      9246    6    0    1
 -2     20722     21648     21561     20602     25229     26996     28392     23016     25214     25316
 -1      9247    6    0    1
 -2     21579     21015     21649     21531     28416     28451     26555     26556     25221     26557
 -1      9248    6    0    1
 -2     21015     20464     21649     20463     23951     27012     28451     23950     21794     26493
 -1      9249    6    0    1
 -2     21052     21531     21649     21015     25223     26557     27691     24107     25221     28451
 -1      9250    6    0    1
 -2     21579     20464     21649     21015     27535     27012     26555     28416     23951     28451
 -1      9251    6    0    1
 -2     21052     21015     21649     20973     24107     28451     27691     24106     24065     26492
 -1      9252    6    0    1
 -2     20973     21015     21649     20463     24065     28451     26492     23861     23950     26493
 -1      9253    6    0    1
 -2     21463     21438     21694     20514     22335     27499     25284     22338     22287     28182
 -1      9254    6    0    1
 -2     20620     20513     21650     20660     22691     28378     27015     22830     22783     26216
 -1      9255    6    0    1
 -2     21730     20620     20660     20733     27016     22830     26213     25673     23056     23055
 -1      9256    6    0    1
 -2     21463     20514     21694     21650     22338     28182     25284     25286     28270     25285
 -1      9257    6    0    1
 -2     21730     20733     20660     21602     25673     23055     26213     25669     25672     26214
 -1      9258    6    0    1
 -2     21650     20514     20660     20513     28270     22782     26216     28378     21853     22783
 -1      9259    6    0    1
 -2     21563     20646     20720     21651     26720     23010     27199     26698     28323     25851
 -1      9260    6    0    1
 -2     20646     20605     20720     21651     22818     23008     23010     28323     27299     25851
 -1      9261    6    0    1
 -2     21651     21701     21563     20646     26699     26695     26698     28323     26721     26720
 -1      9262    6    0    1
 -2     20732     21657     21713     21028     27796     27748     28191     27142     25595     27976
 -1      9263    6    0    1
 -2     20646     21651     20556     20555     28323     27109     22751     22752     27301     21897
 -1      9264    6    0    1
 -2     21509     21491     21701     20556     22556     27795     26696     22538     22489     27108
 -1      9265    6    0    1
 -2     20605     21651     20646     20555     27299     28323     22818     22659     27301     22752
 -1      9266    6    0    1
 -2     21563     21651     20720     21001     26698     25851     27199     27201     25850     25853
 -1      9267    6    0    1
 -2     21028     21713     20535     20536     27976     28205     23985     23986     27751     21876
 -1      9268    6    0    1
 -2     21037     21000     20688     21085     24010     26901     25877     24188     24187     27999
 -1      9269    6    0    1
 -2     21519     20969     21677     21554     28324     28335     28341     26313     28349     27960
 -1      9270    6    0    1
 -2     21398     20477     21709     21663     22043     27838     26619     26621     28220     26620
 -1      9271    6    0    1
 -2     21000     21652     20579     21037     26902     27251     23919     24010     25878     24005
 -1      9272    6    0    1
 -2     20597     20969     20677     21677     25894     25895     22893     28399     28335     28334
 -1      9273    6    0    1
 -2     21037     21652     20580     21698     25878     28377     24003     27257     27230     27436
 -1      9274    6    0    1
 -2     20580     21652     21037     20579     28377     25878     24003     21922     27251     24005
 -1      9275    6    0    1
 -2     20503     20615     21653     20502     22681     28452     27340     21842     22682     25691
 -1      9276    6    0    1
 -2     21653     20503     21605     20615     27340     27488     27486     28452     22681     28424
 -1      9277    6    0    1
 -2     21653     20615     21605     21523     28452     28424     27486     27545     28277     27480
 -1      9278    6    0    1
 -2     21518     20615     21653     21523     28274     28452     25063     27489     28277     27545
 -1      9279    6    0    1
 -2     20654     20502     21653     20615     22770     25691     25062     22863     22682     28452
 -1      9280    6    0    1
 -2     20654     20615     21653     21518     22863     28452     25062     25064     28274     25063
 -1      9281    6    0    1
 -2     21519     20597     21677     20969     28371     28399     28341     28324     25894     28335
 -1      9282    6    0    1
 -2     21495     21512     21691     20549     22572     27844     25306     22498     22543     27938
 -1      9283    6    0    1
 -2     20602     21479     21648     21561     28002     25446     25214     25316     25438     26996
 -1      9284    6    0    1
 -2     20548     20549     21691     20602     21890     27938     27390     22654     22653     25315
 -1      9285    6    0    1
 -2     20548     20602     21691     21654     22654     25315     27390     27391     25217     25307
 -1      9286    6    0    1
 -2     20548     20642     20602     21654     22743     22845     22654     27391     25216     25217
 -1      9287    6    0    1
 -2     20722     20602     21561     20680     23016     25316     28392     23066     22901     25317
 -1      9288    6    0    1
 -2     21707     20439     20597     21677     27661     22640     28400     27662     26725     28399
 -1      9289    6    0    1
 -2     20505     20616     21655     20504     22683     28453     27456     21844     22684     27457
 -1      9290    6    0    1
 -2     21524     21523     21655     20616     27297     28120     28119     27578     26818     28453
 -1      9291    6    0    1
 -2     20616     21524     21597     21655     27578     27604     27602     28453     28119     28125
 -1      9292    6    0    1
 -2     20616     21655     21605     21523     28453     28415     27479     26818     28120     27480
 -1      9293    6    0    1
 -2     20616     20504     21605     21655     22684     28156     27479     28453     27457     28415
 -1      9294    6    0    1
 -2     20616     21655     21597     20505     28453     28125     27602     22683     27456     27266
 -1      9295    6    0    1
 -2     20690     20609     21656     20692     22925     28359     27212     22931     22930     28363
 -1      9296    6    0    1
 -2     20609     20692     20610     21656     22930     22929     22671     28359     28363     27195
 -1      9297    6    0    1
 -2     20610     21656     20563     20609     27195     28382     22670     22671     28359     22667
 -1      9298    6    0    1
 -2     20690     20692     21735     21038     22931     28356     26927     26929     26644     26928
 -1      9299    6    0    1
 -2     21488     20562     21710     21489     22482     28257     27852     22532     22484     25475
 -1      9300    6    0    1
 -2     20563     21656     20562     20609     28382     28383     21904     22667     28359     22668
 -1      9301    6    0    1
 -2     21488     21489     21710     21486     22532     25475     27852     22603     22610     25477
 -1      9302    6    0    1
 -2     20690     21656     21735     20692     27212     27113     26927     22931     28363     28356
 -1      9303    6    0    1
 -2     20596     21599     21685     20717     27516     25250     27515     23002     25253     25251
 -1      9304    6    0    1
 -2     20596     20717     21685     20635     23002     25251     27515     22840     23003     27923
 -1      9305    6    0    1
 -2     20676     20636     21599     21519     22890     28429     25653     25654     27727     25249
 -1      9306    6    0    1
 -2     21561     21004     21714     21619     28118     26751     26986     25437     28432     26987
 -1      9307    6    0    1
 -2     20680     20686     21714     21087     22917     28096     28143     28286     27493     26750
 -1      9308    6    0    1
 -2     21028     20987     21657     20536     24043     25594     25595     23986     23890     27750
 -1      9309    6    0    1
 -2     20701     20659     21657     21576     22952     27699     28074     28053     27893     27892
 -1      9310    6    0    1
 -2     20701     21708     21657     20987     27372     28091     28074     28320     28319     25594
 -1      9311    6    0    1
 -2     20536     20537     21708     21462     21877     27676     28089     22334     22333     28090
 -1      9312    6    0    1
 -2     21462     21437     21708     21466     22387     27374     28090     22423     22422     27376
 -1      9313    6    0    1
 -2     21462     21466     21708     21657     22423     27376     28090     27895     28056     28091
 -1      9314    6    0    1
 -2     21066     20701     21657     20987     27190     28074     25593     24138     28320     25594
 -1      9315    6    0    1
 -2     21028     20988     20535     21713     24090     23893     23985     27976     25750     28205
 -1      9316    6    0    1
 -2     21402     21570     21362     21658     27933     25864     22153     26061     26091     26060
 -1      9317    6    0    1
 -2     20971     21013     21658     20467     24063     26089     26405     23857     23946     27537
 -1      9318    6    0    1
 -2     21382     21352     21721     21411     22179     28339     26885     22115     22169     28042
 -1      9319    6    0    1
 -2     21530     20971     21013     21658     26408     24063     27022     26409     26405     26089
 -1      9320    6    0    1
 -2     21013     21658     20467     20468     26089     27537     23946     23947     27538     21798
 -1      9321    6    0    1
 -2     21707     20637     20597     20439     28352     22811     28400     27661     22730     22640
 -1      9322    6    0    1
 -2     21685     21658     21570     21402     26090     26091     26087     26424     26061     27933
 -1      9323    6    0    1
 -2     21362     21658     21570     20468     26060     26091     25864     21956     27538     27945
 -1      9324    6    0    1
 -2     20971     20467     21658     21560     23857     27537     26405     26407     25385     26406
 -1      9325    6    0    1
 -2     21599     20437     21659     20636     27292     27567     27566     28429     22728     28338
 -1      9326    6    0    1
 -2     21599     20636     21659     21519     28429     28338     27566     25249     27727     27306
 -1      9327    6    0    1
 -2     20636     20597     21519     20718     22841     28371     27727     23005     23004     27726
 -1      9328    6    0    1
 -2     21677     20597     20636     20438     28399     22841     28337     26724     22641     22727
 -1      9329    6    0    1
 -2     20437     20636     20438     21659     22728     22727     21767     27567     28338     28114
 -1      9330    6    0    1
 -2     21398     21366     21709     20477     22087     27830     26619     22043     21963     27838
 -1      9331    6    0    1
 -2     21675     21421     21608     21660     27003     26370     27914     27162     26371     26368
 -1      9332    6    0    1
 -2     21025     20488     20489     21660     23973     21824     23974     27941     27574     27573
 -1      9333    6    0    1
 -2     20489     20983     21025     21660     23881     24041     23974     27573     28004     27941
 -1      9334    6    0    1
 -2     21551     20663     20623     21722     28295     22832     27167     28063     28292     28105
 -1      9335    6    0    1
 -2     21675     21660     21608     20984     27162     26368     27914     27916     28234     27915
 -1      9336    6    0    1
 -2     20735     20586     21621     20711     23063     26244     27920     23071     22984     27072
 -1      9337    6    0    1
 -2     20551     21661     20550     20603     27627     27628     21892     22655     28077     22656
 -1      9338    6    0    1
 -2     20416     20586     21721     21681     22619     27034     26882     26884     26245     26883
 -1      9339    6    0    1
 -2     20643     20686     20603     21661     22916     22915     22861     28374     28097     28077
 -1      9340    6    0    1
 -2     20550     21661     20643     20603     27628     28374     22745     22656     28077     22861
 -1      9341    6    0    1
 -2     20686     21661     21593     20603     28097     27397     28171     22915     28077     28075
 -1      9342    6    0    1
 -2     21511     21494     21661     21593     22574     27629     27396     26359     27900     27397
 -1      9343    6    0    1
 -2     20597     21677     20439     20438     28399     26725     22640     22641     26724     21768
 -1      9344    6    0    1
 -2     20686     20603     21593     20683     22915     28075     28171     22918     22909     26593
 -1      9345    6    0    1
 -2     20685     20604     21662     20645     22913     28259     27690     22912     22817     28454
 -1      9346    6    0    1
 -2     20685     20645     21662     21526     22912     28454     27690     26704     27609     25486
 -1      9347    6    0    1
 -2     21592     21526     21662     20645     26024     25486     27377     27608     27609     28454
 -1      9348    6    0    1
 -2     21592     20645     21662     20554     27608     28454     27377     26627     22749     27688
 -1      9349    6    0    1
 -2     21662     20604     20553     20645     28259     22657     28045     28454     22817     22750
 -1      9350    6    0    1
 -2     20554     21662     20553     20645     27688     28045     21895     22749     28454     22750
 -1      9351    6    0    1
 -2     20419     21537     20418     20587     26190     27078     21748     22620     27957     22621
 -1      9352    6    0    1
 -2     20571     21004     21619     21714     23927     28432     28344     28207     26751     26987
 -1      9353    6    0    1
 -2     20734     21712     21689     20663     26318     26321     25377     23061     28293     26269
 -1      9354    6    0    1
 -2     20686     20680     21714     20643     22917     28143     28096     22916     22900     28199
 -1      9355    6    0    1
 -2     21613     21624     20667     20585     28038     28049     28047     28298     28300     22871
 -1      9356    6    0    1
 -2     20966     21663     20477     21008     27965     28220     23847     24204     28239     23936
 -1      9357    6    0    1
 -2     21663     20564     20478     21008     27773     23845     27772     28239     23975     23937
 -1      9358    6    0    1
 -2     20477     21663     20478     21008     28220     27772     21808     23936     28239     23937
 -1      9359    6    0    1
 -2     21659     21677     20438     21401     27959     26724     28114     27819     26671     22052
 -1      9360    6    0    1
 -2     20571     21043     21004     21714     24018     24080     23927     28207     28208     26751
 -1      9361    6    0    1
 -2     20967     21588     20475     21009     27009     27753     23849     24059     28141     23938
 -1      9362    6    0    1
 -2     21439     21440     21680     21441     22277     28455     27723     22428     22282     28177
 -1      9363    6    0    1
 -2     21615     21030     20532     20531     28051     23990     28016     28018     23989     21872
 -1      9364    6    0    1
 -2     21714     21043     21004     21087     28208     24080     26751     26750     24195     24194
 -1      9365    6    0    1
 -2     21615     21030     21069     20989     28051     24143     28124     28050     24045     24144
 -1      9366    6    0    1
 -2     21465     21460     21615     21435     22444     28163     26939     22416     22385     26940
 -1      9367    6    0    1
 -2     21615     21446     21525     21524     28245     28246     26942     28266     28035     28033
 -1      9368    6    0    1
 -2     21030     21524     20531     21615     26794     27154     23989     28051     28266     28018
 -1      9369    6    0    1
 -2     21689     21712     20483     20663     26321     28235     28423     26269     28293     22792
 -1      9370    6    0    1
 -2     21664     21525     21610     21029     26917     26920     26918     28456     27419     28354
 -1      9371    6    0    1
 -2     21664     21029     21610     20534     28456     28354     26918     27875     23988     27876
 -1      9372    6    0    1
 -2     21029     20533     20534     21664     23987     21874     23988     28456     27887     27875
 -1      9373    6    0    1
 -2     20989     21525     21664     21029     27697     26917     28238     24088     27419     28456
 -1      9374    6    0    1
 -2     20989     21029     21664     20533     24088     28456     28238     23895     23987     27887
 -1      9375    6    0    1
 -2     21552     21440     21347     21680     28340     22278     25132     25131     28455     25129
 -1      9376    6    0    1
 -2     20600     21665     20639     21528     26565     28367     22844     26568     26569     28092
 -1      9377    6    0    1
 -2     20444     20639     20600     21665     22733     22844     22647     28218     28367     26565
 -1      9378    6    0    1
 -2     21497     21665     21693     21528     28131     26566     28020     27053     26569     26567
 -1      9379    6    0    1
 -2     21665     21515     21568     21368     27987     25818     27770     27769     26757     26754
 -1      9380    6    0    1
 -2     21497     21515     21693     21665     22561     27988     28020     28131     27987     26566
 -1      9381    6    0    1
 -2     20600     20445     20444     21665     22646     21774     22647     26565     27771     28218
 -1      9382    6    0    1
 -2     20736     20780     21172     21534     23215     26181     27477     26404     26180     25789
 -1      9383    6    0    1
 -2     21568     21693     20600     20544     27989     26564     28390     25820     26796     22650
 -1      9384    6    0    1
 -2     21657     21634     21702     20659     27700     28329     27890     27699     27701     27891
 -1      9385    6    0    1
 -2     20811     21259     21204     20825     25642     24752     27311     23353     26516     25620
 -1      9386    6    0    1
 -2     20523     20522     21666     20994     21863     27947     27946     23905     23904     26316
 -1      9387    6    0    1
 -2     21666     20522     21035     20994     27947     24000     27951     26316     23904     24050
 -1      9388    6    0    1
 -2     21035     21112     21666     20994     24274     25764     27951     24050     24275     26316
 -1      9389    6    0    1
 -2     21573     21430     21683     21077     25772     25705     25777     25765     25706     25707
 -1      9390    6    0    1
 -2     21077     21683     21666     20994     25707     25778     25763     24169     28310     26316
 -1      9391    6    0    1
 -2     20994     21666     20523     21683     26316     27946     23905     28310     25778     28299
 -1      9392    6    0    1
 -2     20734     21712     21551     21064     26318     27063     27180     27159     27064     27065
 -1      9393    6    0    1
 -2     21439     21552     21680     21440     26472     25131     27723     22277     28340     28455
 -1      9394    6    0    1
 -2     20977     21521     21667     21019     27637     25871     28343     24069     26241     28457
 -1      9395    6    0    1
 -2     20977     21019     21667     20455     24069     28457     28343     23869     23958     27985
 -1      9396    6    0    1
 -2     20456     21019     20455     21667     23959     23958     21786     27986     28457     27985
 -1      9397    6    0    1
 -2     21521     21534     21667     21019     25207     27956     25871     26241     26242     28457
 -1      9398    6    0    1
 -2     21019     20456     21553     21667     23959     25144     25583     28457     27986     28230
 -1      9399    6    0    1
 -2     21019     21667     21553     21534     28457     28230     25583     26242     27956     26688
 -1      9400    6    0    1
 -2     21104     21410     21668     20978     25163     26115     27901     24242     25166     27664
 -1      9401    6    0    1
 -2     20451     21668     20452     21021     27958     27665     21782     23962     27902     23963
 -1      9402    6    0    1
 -2     21021     21537     21614     21668     26184     27209     27207     27902     26118     27961
 -1      9403    6    0    1
 -2     21021     21668     21614     20451     27902     27961     27207     23962     27958     28083
 -1      9404    6    0    1
 -2     20452     21668     21354     21607     27665     28332     21940     27667     27666     26204
 -1      9405    6    0    1
 -2     21410     21668     21607     21354     26115     27666     25164     22170     28332     26204
 -1      9406    6    0    1
 -2     21593     20683     21527     21115     26593     26590     25276     25278     28203     25277
 -1      9407    6    0    1
 -2     21363     21677     21659     21401     26669     27959     27444     22156     26671     27819
 -1      9408    6    0    1
 -2     21003     20572     20573     21669     23924     21915     23925     27279     27069     27908
 -1      9409    6    0    1
 -2     21003     20573     21042     21669     23925     24016     24079     27279     27908     27907
 -1      9410    6    0    1
 -2     21669     21527     21671     21042     25280     26009     27905     27907     26992     27906
 -1      9411    6    0    1
 -2     21669     21042     21084     21527     27907     24186     26364     25280     26992     26365
 -1      9412    6    0    1
 -2     21587     20664     21613     21516     28362     28151     25155     25156     25231     25158
 -1      9413    6    0    1
 -2     20485     20664     21587     20484     22795     28362     28102     21819     22796     26395
 -1      9414    6    0    1
 -2     21613     20485     20585     20664     28086     22704     28298     28151     22795     22794
 -1      9415    6    0    1
 -2     21613     20585     20667     20664     28298     22871     28047     28151     22794     22967
 -1      9416    6    0    1
 -2     20485     20484     21587     21419     21819     26395     28102     22207     22208     25153
 -1      9417    6    0    1
 -2     21089     21009     21588     20967     24201     28141     27810     24200     24059     27009
 -1      9418    6    0    1
 -2     21529     21057     21020     21670     26681     24117     28346     27284     27283     28458
 -1      9419    6    0    1
 -2     21020     20453     21670     20978     23960     28227     28458     24070     23871     28211
 -1      9420    6    0    1
 -2     21020     20453     20454     21670     23960     21784     23961     28458     28227     28226
 -1      9421    6    0    1
 -2     21020     21670     21611     21529     28458     28348     28333     28346     27284     25265
 -1      9422    6    0    1
 -2     21020     20454     21611     21670     23961     27932     28333     28458     28226     28348
 -1      9423    6    0    1
 -2     21670     21057     21020     20978     27283     24117     28458     28211     24116     24070
 -1      9424    6    0    1
 -2     21690     21022     20449     21621     27762     23964     27836     27759     27761     25636
 -1      9425    6    0    1
 -2     20575     20576     21715     21482     21918     28405     28279     22464     22463     28260
 -1      9426    6    0    1
 -2     21715     20576     21041     21001     28405     24015     28281     25849     23920     24054
 -1      9427    6    0    1
 -2     21715     21001     21041     21092     25849     24054     28281     26595     24213     24212
 -1      9428    6    0    1
 -2     21537     21022     21621     21059     26966     27761     27071     27077     24121     27553
 -1      9429    6    0    1
 -2     21082     21002     21606     21526     24181     28407     27791     25656     27971     27792
 -1      9430    6    0    1
 -2     21086     21002     21671     21042     24191     28330     26008     24190     24055     27906
 -1      9431    6    0    1
 -2     21086     21042     21671     21527     24190     27906     26008     26010     26992     26009
 -1      9432    6    0    1
 -2     21042     21671     20574     21002     27906     27611     24017     24055     28330     23922
 -1      9433    6    0    1
 -2     20446     20409     21344     21623     21776     21741     21968     27518     25804     25802
 -1      9434    6    0    1
 -2     20659     21576     20511     21702     27893     26006     22781     27891     26196     26194
 -1      9435    6    0    1
 -2     20442     21580     21638     21369     26169     27731     27991     21973     26171     27329
 -1      9436    6    0    1
 -2     21479     20569     21648     21561     22458     26995     25446     25438     26994     26996
 -1      9437    6    0    1
 -2     21636     20607     21652     20688     28313     25854     28301     28302     22921     25855
 -1      9438    6    0    1
 -2     21488     21574     20610     21703     25926     27434     27197     28411     27507     27505
 -1      9439    6    0    1
 -2     21452     21604     20494     21645     26540     27528     22307     26789     27559     26788
 -1      9440    6    0    1
 -2     21488     21703     20610     21656     28411     27505     27197     27116     28459     27195
 -1      9441    6    0    1
 -2     20522     21558     21454     21666     25371     25369     22313     27947     27950     25823
 -1      9442    6    0    1
 -2     20453     21607     21386     21670     28181     26203     22016     28227     28210     28160
 -1      9443    6    0    1
 -2     21686     21000     21636     21508     27174     28303     27365     27366     27127     26250
 -1      9444    6    0    1
 -2     20610     21644     20493     21574     27787     26560     22672     27434     28412     26570
 -1      9445    6    0    1
 -2     21577     21624     20625     20667     27814     27815     25116     28048     28049     22870
 -1      9446    6    0    1
 -2     21624     20415     21672     20625     25812     25815     25813     27815     22706     25118
 -1      9447    6    0    1
 -2     21681     21412     21672     21385     28388     27834     27919     27766     22174     27835
 -1      9448    6    0    1
 -2     21681     20415     21672     21412     28387     25815     27919     28388     22073     27834
 -1      9449    6    0    1
 -2     21577     20667     20625     21023     28048     22870     25116     27007     27140     28113
 -1      9450    6    0    1
 -2     20701     21641     21676     20620     25992     28445     28372     22951     28446     27017
 -1      9451    6    0    1
 -2     21577     21350     21559     21672     26075     27826     25113     25115     25814     25114
 -1      9452    6    0    1
 -2     20471     21625     21673     21011     25826     25829     25827     23942     26876     26861
 -1      9453    6    0    1
 -2     21441     21346     21440     21680     22281     22279     22282     28177     26838     28455
 -1      9454    6    0    1
 -2     21673     21364     21603     21569     27974     26743     25189     25193     26744     25192
 -1      9455    6    0    1
 -2     20471     21673     20472     21011     25827     27973     21802     23942     26861     23943
 -1      9456    6    0    1
 -2     21418     21342     21343     21577     22203     21739     22202     26102     26074     26073
 -1      9457    6    0    1
 -2     21627     21484     21698     21506     27269     28376     25937     25899     22599     27131
 -1      9458    6    0    1
 -2     21673     20472     20968     21603     27973     23850     25842     25189     27510     25843
 -1      9459    6    0    1
 -2     20719     20637     21673     21569     23007     28351     25190     25191     28397     25193
 -1      9460    6    0    1
 -2     21641     20620     20512     21676     28446     22692     26455     28445     27017     26550
 -1      9461    6    0    1
 -2     20422     20423     21618     20589     21752     27832     26030     22625     22624     27931
 -1      9462    6    0    1
 -2     21463     21676     20513     21650     27404     26552     22350     25286     27018     28378
 -1      9463    6    0    1
 -2     20422     20589     21618     21529     22625     27931     26030     25275     27631     26031
 -1      9464    6    0    1
 -2     21654     21495     21513     21499     25308     22559     25464     25444     22609     22605
 -1      9465    6    0    1
 -2     21683     20523     21454     21666     28299     22315     25822     25778     27946     25823
 -1      9466    6    0    1
 -2     21725     21477     21663     20565     28327     26624     27966     27969     22454     27968
 -1      9467    6    0    1
 -2     20513     21676     20620     21650     26552     27017     22691     28378     27018     27015
 -1      9468    6    0    1
 -2     21663     21008     20565     20564     28239     24025     27968     27773     23975     21907
 -1      9469    6    0    1
 -2     21051     20972     21635     21531     24104     28440     26144     25875     26380     26145
 -1      9470    6    0    1
 -2     20465     20972     21579     21635     23859     28417     26165     26164     28440     26162
 -1      9471    6    0    1
 -2     21635     20972     21579     21531     28440     28417     26162     26145     26380     26556
 -1      9472    6    0    1
 -2     21674     20430     20632     20429     26238     22719     28369     26239     21759     22720
 -1      9473    6    0    1
 -2     21436     21462     21657     21444     22375     27895     27747     22420     22421     27820
 -1      9474    6    0    1
 -2     21436     21444     21657     21713     22420     27820     27747     27749     27041     27748
 -1      9475    6    0    1
 -2     20593     20632     21674     20430     22837     28369     26802     22633     22719     26238
 -1      9476    6    0    1
 -2     20593     20430     21674     21565     22633     26238     26802     25616     25847     26823
 -1      9477    6    0    1
 -2     20701     21437     21676     21641     25993     27403     28372     25992     25994     28445
 -1      9478    6    0    1
 -2     21581     20462     21585     21016     26208     27354     27353     28418     23953     28318
 -1      9479    6    0    1
 -2     21028     20988     20700     21107     24090     25751     27975     24252     24254     26634
 -1      9480    6    0    1
 -2     20462     20461     21585     21016     21792     26336     27354     23953     23952     28318
 -1      9481    6    0    1
 -2     21581     21016     21585     21532     28418     28318     27353     28317     26123     26660
 -1      9482    6    0    1
 -2     21675     21517     21643     20662     26056     26059     26057     28391     27000     28448
 -1      9483    6    0    1
 -2     21675     20662     21643     20480     28391     28448     26057     26509     22787     26510
 -1      9484    6    0    1
 -2     21675     21076     21517     20662     27163     27215     26056     28391     27214     27000
 -1      9485    6    0    1
 -2     20563     21703     21488     21656     27506     28411     22481     28382     28459     27116
 -1      9486    6    0    1
 -2     21675     20623     20662     20481     27164     22790     28391     27783     22701     22791
 -1      9487    6    0    1
 -2     21440     21346     21347     21680     22279     21811     22278     28455     26838     25129
 -1      9488    6    0    1
 -2     20610     21703     20563     21656     27505     27506     22670     27195     28459     28382
 -1      9489    6    0    1
 -2     20662     20481     20480     21675     22791     21815     22787     28391     27783     26509
 -1      9490    6    0    1
 -2     20512     20513     21676     20620     21852     26552     26550     22692     22691     27017
 -3
    1PSTEP                         1           1           1          
  100CL  101 1.000000000        8053                     0    1           1
 -4  DISP        4    1
 -5  D1          1    2    1    0
 -5  D2          1    2    2    0
 -5  D3          1    2    3    0
 -5  ALL         1    2    0    0    1ALL
 -1     20407-5.53082E+00 2.55294E+01 0.00000E+00
 -1     20408-5.53419E+00 2.55258E+01 0.00000E+00
 -1     20409 0.00000E+00 0.00000E+00 0.00000E+00
 -1     20410 0.00000E+00 0.00000E+00 0.00000E+00
 -1     20411-1.98383E+01 2.75575E+01 0.00000E+00
 -1     20412-1.98134E+01 2.75210E+01 0.00000E+00
 -1     20413 0.00000E+00 0.00000E+00 0.00000E+00
 -1     20414 0.00000E+00 0.00000E+00 0.00000E+00
 -1     20415-4.44391E+00 2.39661E+01 0.00000E+00
 -1     20416-3.52076E+00 2.24080E+01 0.00000E+00
 -1     20417-2.69831E+00 2.08868E+01 0.00000E+00
 -1     20418-1.97709E+00 1.94185E+01 0.00000E+00
 -1     20419-1.33534E+00 1.80043E+01 0.00000E+00
 -1     20420-7.75728E-01 1.66519E+01 0.00000E+00
 -1     20421-2.88450E-01 1.53571E+01 0.00000E+00
 -1     20422 1.31754E-01 1.41243E+01 0.00000E+00
 -1     20423 4.81420E-01 1.29549E+01 0.00000E+00
 -1     20424 7.67628E-01 1.18470E+01 0.00000E+00
 -1     20425 9.94629E-01 1.08034E+01 0.00000E+00
 -1     20426 1.16450E+00 9.82263E+00 0.00000E+00
 -1     20427 1.27930E+00 8.90522E+00 0.00000E+00
 -1     20428 1.34269E+00 8.04874E+00 0.00000E+00
 -1     20429 1.35891E+00 7.25962E+00 0.00000E+00
 -1     20430 1.33323E+00 6.53096E+00 0.00000E+00
 -1     20431 1.26868E+00 5.86557E+00 0.00000E+00
 -1     20432 1.17306E+00 5.26602E+00 0.00000E+00
 -1     20433 1.05259E+00 4.72140E+00 0.00000E+00
 -1     20434 9.14076E-01 4.23982E+00 0.00000E+00
 -1     20435 7.66081E-01 3.80576E+00 0.00000E+00
 -1     20436 6.16717E-01 3.42370E+00 0.00000E+00
 -1     20437 4.74096E-01 3.07774E+00 0.00000E+00
 -1     20438 3.42969E-01 2.76751E+00 0.00000E+00
 -1     20439 2.32902E-01 2.47699E+00 0.00000E+00
 -1     20440 1.45661E-01 2.20076E+00 0.00000E+00
 -1     20441 8.31396E-02 1.92736E+00 0.00000E+00
 -1     20442 4.48639E-02 1.64721E+00 0.00000E+00
 -1     20443 2.38954E-02 1.35082E+00 0.00000E+00
 -1     20444 1.49192E-02 1.03792E+00 0.00000E+00
 -1     20445 1.24306E-02 7.08449E-01 0.00000E+00
 -1     20446 8.93142E-03 3.65260E-01 0.00000E+00
 -1     20447-4.44698E+00 2.39570E+01 0.00000E+00
 -1     20448-3.52579E+00 2.24085E+01 0.00000E+00
 -1     20449-2.69617E+00 2.08894E+01 0.00000E+00
 -1     20450-1.97627E+00 1.94188E+01 0.00000E+00
 -1     20451-1.33468E+00 1.80057E+01 0.00000E+00
 -1     20452-7.75145E-01 1.66512E+01 0.00000E+00
 -1     20453-2.86283E-01 1.53562E+01 0.00000E+00
 -1     20454 1.31101E-01 1.41226E+01 0.00000E+00
 -1     20455 4.80972E-01 1.29546E+01 0.00000E+00
 -1     20456 7.68235E-01 1.18469E+01 0.00000E+00
 -1     20457 9.95492E-01 1.08031E+01 0.00000E+00
 -1     20458 1.16517E+00 9.82203E+00 0.00000E+00
 -1     20459 1.27867E+00 8.90364E+00 0.00000E+00
 -1     20460 1.34366E+00 8.04892E+00 0.00000E+00
 -1     20461 1.35970E+00 7.25844E+00 0.00000E+00
 -1     20462 1.33221E+00 6.53132E+00 0.00000E+00
 -1     20463 1.26926E+00 5.86740E+00 0.00000E+00
 -1     20464 1.17229E+00 5.26417E+00 0.00000E+00
 -1     20465 1.05198E+00 4.72382E+00 0.00000E+00
 -1     20466 9.13711E-01 4.23915E+00 0.00000E+00
 -1     20467 7.66439E-01 3.80776E+00 0.00000E+00
 -1     20468 6.16990E-01 3.42369E+00 0.00000E+00
 -1     20469 4.75964E-01 3.07923E+00 0.00000E+00
 -1     20470 3.44261E-01 2.76802E+00 0.00000E+00
 -1     20471 2.33981E-01 2.47892E+00 0.00000E+00
 -1     20472 1.47600E-01 2.20104E+00 0.00000E+00
 -1     20473 8.04755E-02 1.92701E+00 0.00000E+00
 -1     20474 4.07114E-02 1.64698E+00 0.00000E+00
 -1     20475 2.37527E-02 1.35207E+00 0.00000E+00
 -1     20476 1.66120E-02 1.03726E+00 0.00000E+00
 -1     20477 1.36099E-02 7.08083E-01 0.00000E+00
 -1     20478 8.43750E-03 3.64632E-01 0.00000E+00
 -1     20479-1.72336E+01 2.73156E+01 0.00000E+00
 -1     20480-1.51255E+01 2.69862E+01 0.00000E+00
 -1     20481-1.32853E+01 2.66622E+01 0.00000E+00
 -1     20482-1.15963E+01 2.63501E+01 0.00000E+00
 -1     20483-1.00328E+01 2.60572E+01 0.00000E+00
 -1     20484-8.53689E+00 2.58224E+01 0.00000E+00
 -1     20485-7.09072E+00 2.56454E+01 0.00000E+00
 -1     20486-1.72156E+01 2.73044E+01 0.00000E+00
 -1     20487-1.51248E+01 2.70066E+01 0.00000E+00
 -1     20488-1.32768E+01 2.66541E+01 0.00000E+00
 -1     20489-1.15906E+01 2.63542E+01 0.00000E+00
 -1     20490-1.00307E+01 2.60653E+01 0.00000E+00
 -1     20491-8.54108E+00 2.58266E+01 0.00000E+00
 -1     20492-7.08932E+00 2.56417E+01 0.00000E+00
 -1     20493-1.10797E+00 9.96557E-01 0.00000E+00
 -1     20494-1.61242E+00 1.34655E+00 0.00000E+00
 -1     20495-2.23891E+00 1.66567E+00 0.00000E+00
 -1     20496-2.84997E+00 1.98257E+00 0.00000E+00
 -1     20497-3.45871E+00 2.33531E+00 0.00000E+00
 -1     20498-4.07721E+00 2.74159E+00 0.00000E+00
 -1     20499-4.70988E+00 3.20296E+00 0.00000E+00
 -1     20500-5.35588E+00 3.72383E+00 0.00000E+00
 -1     20501-6.01880E+00 4.30599E+00 0.00000E+00
 -1     20502-6.70075E+00 4.95550E+00 0.00000E+00
 -1     20503-7.40136E+00 5.67528E+00 0.00000E+00
 -1     20504-8.12193E+00 6.46783E+00 0.00000E+00
 -1     20505-8.86254E+00 7.33768E+00 0.00000E+00
 -1     20506-9.62213E+00 8.28914E+00 0.00000E+00
 -1     20507-1.03992E+01 9.32400E+00 0.00000E+00
 -1     20508-1.11910E+01 1.04451E+01 0.00000E+00
 -1     20509-1.19963E+01 1.16542E+01 0.00000E+00
 -1     20510-1.28112E+01 1.29555E+01 0.00000E+00
 -1     20511-1.36345E+01 1.43495E+01 0.00000E+00
 -1     20512-1.44636E+01 1.58335E+01 0.00000E+00
 -1     20513-1.52978E+01 1.74089E+01 0.00000E+00
 -1     20514-1.61441E+01 1.90896E+01 0.00000E+00
 -1     20515-1.70000E+01 2.08733E+01 0.00000E+00
 -1     20516-1.78824E+01 2.28029E+01 0.00000E+00
 -1     20517-1.88344E+01 2.49250E+01 0.00000E+00
 -1     20518-9.87074E-01 1.03307E+00 0.00000E+00
 -1     20519-1.61883E+00 1.33266E+00 0.00000E+00
 -1     20520-2.25106E+00 1.65053E+00 0.00000E+00
 -1     20521-2.85085E+00 1.97243E+00 0.00000E+00
 -1     20522-3.46123E+00 2.33595E+00 0.00000E+00
 -1     20523-4.07824E+00 2.74189E+00 0.00000E+00
 -1     20524-4.70958E+00 3.20326E+00 0.00000E+00
 -1     20525-5.35579E+00 3.72341E+00 0.00000E+00
 -1     20526-6.01877E+00 4.30654E+00 0.00000E+00
 -1     20527-6.70018E+00 4.95511E+00 0.00000E+00
 -1     20528-7.40183E+00 5.67456E+00 0.00000E+00
 -1     20529-8.12271E+00 6.46776E+00 0.00000E+00
 -1     20530-8.86264E+00 7.33875E+00 0.00000E+00
 -1     20531-9.62101E+00 8.28928E+00 0.00000E+00
 -1     20532-1.03990E+01 9.32377E+00 0.00000E+00
 -1     20533-1.11922E+01 1.04433E+01 0.00000E+00
 -1     20534-1.19979E+01 1.16533E+01 0.00000E+00
 -1     20535-1.28158E+01 1.29557E+01 0.00000E+00
 -1     20536-1.36388E+01 1.43471E+01 0.00000E+00
 -1     20537-1.44654E+01 1.58320E+01 0.00000E+00
 -1     20538-1.52928E+01 1.74089E+01 0.00000E+00
 -1     20539-1.61377E+01 1.90908E+01 0.00000E+00
 -1     20540-1.69814E+01 2.08681E+01 0.00000E+00
 -1     20541-1.78759E+01 2.27942E+01 0.00000E+00
 -1     20542-1.88227E+01 2.49290E+01 0.00000E+00
 -1     20543 0.00000E+00 0.00000E+00 0.00000E+00
 -1     20544 0.00000E+00 0.00000E+00 0.00000E+00
 -1     20545 0.00000E+00 0.00000E+00 0.00000E+00
 -1     20546 0.00000E+00 0.00000E+00 0.00000E+00
 -1     20547 0.00000E+00 0.00000E+00 0.00000E+00
 -1     20548 0.00000E+00 0.00000E+00 0.00000E+00
 -1     20549 0.00000E+00 0.00000E+00 0.00000E+00
 -1     20550 0.00000E+00 0.00000E+00 0.00000E+00
 -1     20551 0.00000E+00 0.00000E+00 0.00000E+00
 -1     20552 0.00000E+00 0.00000E+00 0.00000E+00
 -1     20553 0.00000E+00 0.00000E+00 0.00000E+00
 -1     20554 0.00000E+00 0.00000E+00 0.00000E+00
 -1     20555 0.00000E+00 0.00000E+00 0.00000E+00
 -1     20556 0.00000E+00 0.00000E+00 0.00000E+00
 -1     20557 0.00000E+00 0.00000E+00 0.00000E+00
 -1     20558 0.00000E+00 0.00000E+00 0.00000E+00
 -1     20559 0.00000E+00 0.00000E+00 0.00000E+00
 -1     20560 0.00000E+00 0.00000E+00 0.00000E+00
 -1     20561 0.00000E+00 0.00000E+00 0.00000E+00
 -1     20562 0.00000E+00 0.00000E+00 0.00000E+00
 -1     20563 0.00000E+00 0.00000E+00 0.00000E+00
 -1     20564 0.00000E+00 0.00000E+00 0.00000E+00
 -1     20565 0.00000E+00 0.00000E+00 0.00000E+00
 -1     20566 0.00000E+00 0.00000E+00 0.00000E+00
 -1     20567 0.00000E+00 0.00000E+00 0.00000E+00
 -1     20568 0.00000E+00 0.00000E+00 0.00000E+00
 -1     20569 0.00000E+00 0.00000E+00 0.00000E+00
 -1     20570 0.00000E+00 0.00000E+00 0.00000E+00
 -1     20571 0.00000E+00 0.00000E+00 0.00000E+00
 -1     20572 0.00000E+00 0.00000E+00 0.00000E+00
 -1     20573 0.00000E+00 0.00000E+00 0.00000E+00
 -1     20574 0.00000E+00 0.00000E+00 0.00000E+00
 -1     20575 0.00000E+00 0.00000E+00 0.00000E+00
 -1     20576 0.00000E+00 0.00000E+00 0.00000E+00
 -1     20577 0.00000E+00 0.00000E+00 0.00000E+00
 -1     20578 0.00000E+00 0.00000E+00 0.00000E+00
 -1     20579 0.00000E+00 0.00000E+00 0.00000E+00
 -1     20580 0.00000E+00 0.00000E+00 0.00000E+00
 -1     20581 0.00000E+00 0.00000E+00 0.00000E+00
 -1     20582 0.00000E+00 0.00000E+00 0.00000E+00
 -1     20583 0.00000E+00 0.00000E+00 0.00000E+00
 -1     20584 0.00000E+00 0.00000E+00 0.00000E+00
 -1     20585-6.02165E+00 2.37974E+01 0.00000E+00
 -1     20586-3.98914E+00 2.05166E+01 0.00000E+00
 -1     20587-2.34411E+00 1.75920E+01 0.00000E+00
 -1     20588-1.06559E+00 1.49470E+01 0.00000E+00
 -1     20589-1.04769E-01 1.25644E+01 0.00000E+00
 -1     20590 5.89634E-01 1.04512E+01 0.00000E+00
 -1     20591 1.03679E+00 8.59460E+00 0.00000E+00
 -1     20592 1.25604E+00 6.98592E+00 0.00000E+00
 -1     20593 1.27989E+00 5.62609E+00 0.00000E+00
 -1     20594 1.14489E+00 4.51240E+00 0.00000E+00
 -1     20595 9.03362E-01 3.62498E+00 0.00000E+00
 -1     20596 6.14762E-01 2.92664E+00 0.00000E+00
 -1     20597 3.42040E-01 2.35560E+00 0.00000E+00
 -1     20598 1.38175E-01 1.83037E+00 0.00000E+00
 -1     20599 3.15402E-02 1.24177E+00 0.00000E+00
 -1     20600 7.93524E-04 4.95991E-01 0.00000E+00
 -1     20601 4.66193E-03 4.05270E-01 0.00000E+00
 -1     20602 1.17990E-02 3.35154E-01 0.00000E+00
 -1     20603 2.01211E-02 2.64596E-01 0.00000E+00
 -1     20604 2.93037E-02 1.65479E-01 0.00000E+00
 -1     20605 2.42483E-02 5.38468E-02 0.00000E+00
 -1     20606 1.94769E-02-4.01360E-02 0.00000E+00
 -1     20607 7.29325E-03-1.02335E-01 0.00000E+00
 -1     20608-1.56126E-02-9.17610E-02 0.00000E+00
 -1     20609-8.82985E-02 1.02568E-01 0.00000E+00
 -1     20610-1.77521E-01 3.88767E-01 0.00000E+00
 -1     20611-1.50046E+00 1.25270E+00 0.00000E+00
 -1     20612-2.63480E+00 1.94292E+00 0.00000E+00
 -1     20613-3.76340E+00 2.79117E+00 0.00000E+00
 -1     20614-4.94365E+00 3.87226E+00 0.00000E+00
 -1     20615-6.18856E+00 5.21943E+00 0.00000E+00
 -1     20616-7.50294E+00 6.86053E+00 0.00000E+00
 -1     20617-8.89103E+00 8.82214E+00 0.00000E+00
 -1     20618-1.03502E+01 1.11289E+01 0.00000E+00
 -1     20619-1.18666E+01 1.38036E+01 0.00000E+00
 -1     20620-1.33011E+01 1.69099E+01 0.00000E+00
 -1     20621-1.46986E+01 2.05201E+01 0.00000E+00
 -1     20622-1.63152E+01 2.47515E+01 0.00000E+00
 -1     20623-1.22648E+01 2.42089E+01 0.00000E+00
 -1     20624-8.97287E+00 2.39926E+01 0.00000E+00
 -1     20625-4.95522E+00 2.21129E+01 0.00000E+00
 -1     20626-3.12240E+00 1.90200E+01 0.00000E+00
 -1     20627-1.66225E+00 1.62367E+01 0.00000E+00
 -1     20628-5.48534E-01 1.37205E+01 0.00000E+00
 -1     20629 2.75285E-01 1.14762E+01 0.00000E+00
 -1     20630 8.42596E-01 9.49055E+00 0.00000E+00
 -1     20631 1.17349E+00 7.75774E+00 0.00000E+00
 -1     20632 1.29204E+00 6.27519E+00 0.00000E+00
 -1     20633 1.22994E+00 5.04008E+00 0.00000E+00
 -1     20634 1.03441E+00 4.04168E+00 0.00000E+00
 -1     20635 7.61254E-01 3.25597E+00 0.00000E+00
 -1     20636 4.71152E-01 2.63173E+00 0.00000E+00
 -1     20637 2.28873E-01 2.09440E+00 0.00000E+00
 -1     20638 7.24396E-02 1.54825E+00 0.00000E+00
 -1     20639 9.25433E-03 8.98726E-01 0.00000E+00
 -1     20640 2.09936E-03 3.18021E-01 0.00000E+00
 -1     20641 2.27369E-03 4.41259E-01 0.00000E+00
 -1     20642 8.73753E-03 3.70456E-01 0.00000E+00
 -1     20643 1.89822E-02 2.99984E-01 0.00000E+00
 -1     20644 2.22220E-02 2.18558E-01 0.00000E+00
 -1     20645 2.41605E-02 1.09355E-01 0.00000E+00
 -1     20646 2.15625E-02 4.90114E-03 0.00000E+00
 -1     20647 1.24751E-02-7.76821E-02 0.00000E+00
 -1     20648-1.95431E-03-1.13107E-01 0.00000E+00
 -1     20649-3.48376E-02-1.73598E-02 0.00000E+00
 -1     20650-3.19418E+00 2.33951E+00 0.00000E+00
 -1     20651-8.69534E-01 9.24724E-01 0.00000E+00
 -1     20652-2.07694E+00 1.58881E+00 0.00000E+00
 -1     20653-4.34476E+00 3.29999E+00 0.00000E+00
 -1     20654-5.55685E+00 4.51178E+00 0.00000E+00
 -1     20655-6.83700E+00 6.00021E+00 0.00000E+00
 -1     20656-8.19008E+00 7.79962E+00 0.00000E+00
 -1     20657-9.61009E+00 9.93056E+00 0.00000E+00
 -1     20658-1.11073E+01 1.24152E+01 0.00000E+00
 -1     20659-1.26053E+01 1.53012E+01 0.00000E+00
 -1     20660-1.39875E+01 1.86502E+01 0.00000E+00
 -1     20661-1.54812E+01 2.25360E+01 0.00000E+00
 -1     20662-1.41737E+01 2.45181E+01 0.00000E+00
 -1     20663-1.05492E+01 2.40601E+01 0.00000E+00
 -1     20664-7.50175E+00 2.38744E+01 0.00000E+00
 -1     20665-2.65762E+00 1.58795E+01 0.00000E+00
 -1     20666-1.33176E+00 1.33579E+01 0.00000E+00
 -1     20667-6.42328E+00 2.20151E+01 0.00000E+00
 -1     20668-3.26856E-01 1.11215E+01 0.00000E+00
 -1     20669-1.94528E+00 1.45846E+01 0.00000E+00
 -1     20670 4.14419E-01 9.16794E+00 0.00000E+00
 -1     20671 9.02824E-01 7.46866E+00 0.00000E+00
 -1     20672 1.15400E+00 6.01066E+00 0.00000E+00
 -1     20673 1.19921E+00 4.79524E+00 0.00000E+00
 -1     20674 1.07904E+00 3.81310E+00 0.00000E+00
 -1     20675 8.44883E-01 3.04582E+00 0.00000E+00
 -1     20676 5.63146E-01 2.44403E+00 0.00000E+00
 -1     20677 3.02168E-01 1.94661E+00 0.00000E+00
 -1     20678 1.10451E-01 1.44632E+00 0.00000E+00
 -1     20679 2.73530E-02 7.51344E-01 0.00000E+00
 -1     20680 5.40602E-02 6.28970E-01 0.00000E+00
 -1     20681 1.47488E-02 8.19023E-01 0.00000E+00
 -1     20682 9.33345E-02 2.37531E-01 0.00000E+00
 -1     20683 7.76813E-02 5.06666E-01 0.00000E+00
 -1     20684-8.78013E-01 8.58784E-01 0.00000E+00
 -1     20685 8.90926E-02 3.29178E-01 0.00000E+00
 -1     20686 6.80103E-02 5.74422E-01 0.00000E+00
 -1     20687 7.58025E-02 5.66596E-02 0.00000E+00
 -1     20688 4.03337E-02-6.28200E-02 0.00000E+00
 -1     20689-3.29921E-02-6.77647E-02 0.00000E+00
 -1     20690-1.77813E-01 1.45814E-01 0.00000E+00
 -1     20691-1.90122E+00 1.56892E+00 0.00000E+00
 -1     20692-4.03126E-01 4.73526E-01 0.00000E+00
 -1     20693-5.07047E+00 4.80315E+00 0.00000E+00
 -1     20694-3.42302E+00 2.91071E+00 0.00000E+00
 -1     20695-6.24601E+00 6.42166E+00 0.00000E+00
 -1     20696-2.90217E+00 2.40767E+00 0.00000E+00
 -1     20697-5.65043E+00 5.57448E+00 0.00000E+00
 -1     20698-7.49311E+00 8.36355E+00 0.00000E+00
 -1     20699-8.81157E+00 1.06485E+01 0.00000E+00
 -1     20700-1.02450E+01 1.32655E+01 0.00000E+00
 -1     20701-1.15267E+01 1.63470E+01 0.00000E+00
 -1     20702-1.26384E+01 2.00692E+01 0.00000E+00
 -1     20703-1.33188E+01 2.22263E+01 0.00000E+00
 -1     20704-1.12148E+01 2.17540E+01 0.00000E+00
 -1     20705-3.46758E+00 1.72478E+01 0.00000E+00
 -1     20706-7.88242E+00 2.20448E+01 0.00000E+00
 -1     20707 8.42667E-02 4.17935E-01 0.00000E+00
 -1     20708-7.95355E-01 1.22025E+01 0.00000E+00
 -1     20709 7.68409E-02 1.01105E+01 0.00000E+00
 -1     20710-4.50646E+00 4.10482E+00 0.00000E+00
 -1     20711-4.36643E+00 1.87155E+01 0.00000E+00
 -1     20712 1.15701E+00 4.27420E+00 0.00000E+00
 -1     20713 1.05573E+00 6.70910E+00 0.00000E+00
 -1     20714 6.89317E-01 8.28856E+00 0.00000E+00
 -1     20715 1.19987E+00 5.37188E+00 0.00000E+00
 -1     20716 9.72004E-01 3.40333E+00 0.00000E+00
 -1     20717 7.07633E-01 2.72959E+00 0.00000E+00
 -1     20718 4.25482E-01 2.18327E+00 0.00000E+00
 -1     20719 1.94089E-01 1.70929E+00 0.00000E+00
 -1     20720 8.53662E-02 1.44415E-01 0.00000E+00
 -1     20721 5.16361E-02 1.15070E+00 0.00000E+00
 -1     20722 4.15065E-02 6.88843E-01 0.00000E+00
 -1     20723 5.86933E-02-9.98822E-03 0.00000E+00
 -1     20724-1.39697E+00 1.20909E+00 0.00000E+00
 -1     20725 5.13812E-03-8.32813E-02 0.00000E+00
 -1     20726-8.88598E-02-5.50536E-03 0.00000E+00
 -1     20727-2.39808E+00 1.96061E+00 0.00000E+00
 -1     20728-3.95734E+00 3.47452E+00 0.00000E+00
 -1     20729-8.14190E+00 9.46307E+00 0.00000E+00
 -1     20730-6.86208E+00 7.34975E+00 0.00000E+00
 -1     20731-9.51702E+00 1.19154E+01 0.00000E+00
 -1     20732-1.09358E+01 1.47385E+01 0.00000E+00
 -1     20733-1.20749E+01 1.80936E+01 0.00000E+00
 -1     20734-9.41157E+00 2.21061E+01 0.00000E+00
 -1     20735-5.36147E+00 2.02996E+01 0.00000E+00
 -1     20736 2.43117E-01 7.99158E+00 0.00000E+00
 -1     20737 6.17514E-01 2.22852E+00 0.00000E+00
 -1     20738 9.29797E-01 5.74787E+00 0.00000E+00
 -1     20739 8.75968E-01 2.80607E+00 0.00000E+00
 -1     20740 1.05550E+00 3.56858E+00 0.00000E+00
 -1     20741 3.47244E-01 1.73914E+00 0.00000E+00
 -1     20742 1.09100E+00 4.54582E+00 0.00000E+00
 -1     20743 7.52789E-01 2.49796E+00 0.00000E+00
 -1     20744 4.77332E-01 1.97757E+00 0.00000E+00
 -1     20745 9.71378E-02 9.65330E-01 0.00000E+00
 -1     20746 1.81800E-01 3.89619E-01 0.00000E+00
 -1     20747-2.66180E-01 2.49103E-01 0.00000E+00
 -1     20748 9.79249E-01 3.16098E+00 0.00000E+00
 -1     20749-3.42626E-02 6.55647E-02 0.00000E+00
 -1     20750 7.68285E-02 1.05916E+00 0.00000E+00
 -1     20751 1.34436E-01 1.76899E-01 0.00000E+00
 -1     20752-1.27124E-01 1.11193E-01 0.00000E+00
 -1     20753 1.85426E-01 5.04817E-01 0.00000E+00
 -1     20754-8.02541E+00 1.14741E+01 0.00000E+00
 -1     20755-8.87515E-01 8.58979E-01 0.00000E+00
 -1     20756-6.20780E+00 7.93699E+00 0.00000E+00
 -1     20757 1.03599E+00 5.11774E+00 0.00000E+00
 -1     20758-5.04795E-01 5.07508E-01 0.00000E+00
 -1     20759-3.06315E+00 3.10852E+00 0.00000E+00
 -1     20760-4.05051E+00 4.42313E+00 0.00000E+00
 -1     20761-5.64006E+00 6.93736E+00 0.00000E+00
 -1     20762-5.09121E+00 6.02151E+00 0.00000E+00
 -1     20763-9.71458E+00 2.03238E+01 0.00000E+00
 -1     20764 1.63323E-01 2.75170E-01 0.00000E+00
 -1     20765-4.56304E+00 5.18539E+00 0.00000E+00
 -1     20766-7.38506E+00 1.02114E+01 0.00000E+00
 -1     20767-3.55160E+00 3.73260E+00 0.00000E+00
 -1     20768-3.75328E+00 1.55715E+01 0.00000E+00
 -1     20769 1.09507E+00 4.03150E+00 0.00000E+00
 -1     20770-6.78530E+00 2.02196E+01 0.00000E+00
 -1     20771-1.70277E+00 1.61063E+00 0.00000E+00
 -1     20772 7.64475E-01 6.43910E+00 0.00000E+00
 -1     20773 1.44877E-01 1.33620E+00 0.00000E+00
 -1     20774-4.68465E+00 1.69725E+01 0.00000E+00
 -1     20775-2.58839E+00 2.55005E+00 0.00000E+00
 -1     20776-5.70338E+00 1.85223E+01 0.00000E+00
 -1     20777 3.58187E-02 6.42503E-02 0.00000E+00
 -1     20778-2.13124E+00 2.05092E+00 0.00000E+00
 -1     20779 9.31394E-02 1.02577E-01 0.00000E+00
 -1     20780-1.15938E-01 8.85810E+00 0.00000E+00
 -1     20781 1.68661E-01 7.31316E-01 0.00000E+00
 -1     20782-5.42642E-01 9.79104E+00 0.00000E+00
 -1     20783-2.91953E+00 1.42796E+01 0.00000E+00
 -1     20784-8.26298E+00 2.02098E+01 0.00000E+00
 -1     20785-1.08224E+01 1.93051E+01 0.00000E+00
 -1     20786 5.36417E-01 7.18861E+00 0.00000E+00
 -1     20787 1.26239E-01 9.09205E-01 0.00000E+00
 -1     20788-1.29755E+00 1.21766E+00 0.00000E+00
 -1     20789-8.71681E+00 1.27992E+01 0.00000E+00
 -1     20790-1.03477E+00 1.07938E+01 0.00000E+00
 -1     20791 2.40241E-01 1.55163E+00 0.00000E+00
 -1     20792-1.59008E+00 1.18786E+01 0.00000E+00
 -1     20793 1.55341E-01 8.48488E-01 0.00000E+00
 -1     20794-6.78784E+00 9.03023E+00 0.00000E+00
 -1     20795-9.97864E+00 1.57163E+01 0.00000E+00
 -1     20796-9.43483E+00 1.41757E+01 0.00000E+00
 -1     20797 1.76058E-01 6.12399E-01 0.00000E+00
 -1     20798-1.03240E+01 1.74101E+01 0.00000E+00
 -1     20799-7.15013E+00 1.84415E+01 0.00000E+00
 -1     20800 2.41164E-01 1.27325E+00 0.00000E+00
 -1     20801 9.65664E-01 3.79171E+00 0.00000E+00
 -1     20802-5.21952E-01 5.65960E-01 0.00000E+00
 -1     20803 3.88825E-01 6.18504E+00 0.00000E+00
 -1     20804 3.01709E-01 7.28768E-01 0.00000E+00
 -1     20805-2.20487E+00 1.30474E+01 0.00000E+00
 -1     20806 3.75432E-01 1.52546E+00 0.00000E+00
 -1     20807-7.27298E+00 1.24385E+01 0.00000E+00
 -1     20808-5.03049E+00 7.54377E+00 0.00000E+00
 -1     20809-6.62896E+00 1.10812E+01 0.00000E+00
 -1     20810-4.51691E+00 6.56303E+00 0.00000E+00
 -1     20811 7.92396E-02 6.91866E+00 0.00000E+00
 -1     20812-1.46918E+00 1.72128E+00 0.00000E+00
 -1     20813-6.07111E+00 9.80143E+00 0.00000E+00
 -1     20814-1.13333E+00 1.29011E+00 0.00000E+00
 -1     20815 5.07200E-01 1.76068E+00 0.00000E+00
 -1     20816-4.94839E+00 1.52647E+01 0.00000E+00
 -1     20817-5.55044E+00 8.62076E+00 0.00000E+00
 -1     20818-2.26713E+00 2.77142E+00 0.00000E+00
 -1     20819-5.98491E+00 1.68021E+01 0.00000E+00
 -1     20820-1.22238E-02 2.91020E-01 0.00000E+00
 -1     20821-1.85404E+00 2.21602E+00 0.00000E+00
 -1     20822 1.70719E-01 1.21083E+00 0.00000E+00
 -1     20823-2.48336E+00 1.16091E+01 0.00000E+00
 -1     20824 2.32732E-01 4.58644E-01 0.00000E+00
 -1     20825-2.96995E-01 7.70520E+00 0.00000E+00
 -1     20826-2.69387E+00 3.39048E+00 0.00000E+00
 -1     20827 9.70663E-01 3.32763E+00 0.00000E+00
 -1     20828-8.72377E+00 1.50620E+01 0.00000E+00
 -1     20829 9.07275E-01 4.30131E+00 0.00000E+00
 -1     20830 8.54930E-01 2.55382E+00 0.00000E+00
 -1     20831 6.35504E-01 1.98886E+00 0.00000E+00
 -1     20832 2.77995E-01 9.52815E-01 0.00000E+00
 -1     20833-1.84951E+00 1.04979E+01 0.00000E+00
 -1     20834 6.24271E-01 5.50090E+00 0.00000E+00
 -1     20835 7.50709E-01 2.24438E+00 0.00000E+00
 -1     20836-4.03596E+00 5.65876E+00 0.00000E+00
 -1     20837 2.76347E-01 5.87257E-01 0.00000E+00
 -1     20838 1.74838E-01 3.62455E-01 0.00000E+00
 -1     20839 9.32658E-01 2.91612E+00 0.00000E+00
 -1     20840-3.14611E+00 1.28008E+01 0.00000E+00
 -1     20841-8.88650E+00 1.83824E+01 0.00000E+00
 -1     20842-2.97382E-01 3.80526E-01 0.00000E+00
 -1     20843-1.41686E-01 3.14843E-01 0.00000E+00
 -1     20844-8.46392E-01 9.24788E-01 0.00000E+00
 -1     20845-3.57657E+00 4.82968E+00 0.00000E+00
 -1     20846-7.99262E+00 1.38009E+01 0.00000E+00
 -1     20847 7.94711E-01 4.87136E+00 0.00000E+00
 -1     20848-3.98660E+00 1.40034E+01 0.00000E+00
 -1     20849-3.13152E+00 4.07456E+00 0.00000E+00
 -1     20850-8.78000E+00 1.64879E+01 0.00000E+00
 -1     20851 2.93480E-01 8.35312E-01 0.00000E+00
 -1     20852 9.44964E-02 3.05088E-01 0.00000E+00
 -1     20853-7.44569E-01 8.56387E+00 0.00000E+00
 -1     20854-7.38445E+00 1.67295E+01 0.00000E+00
 -1     20855 4.81319E-01 4.64144E+00 0.00000E+00
 -1     20856-1.26456E+00 9.49140E+00 0.00000E+00
 -1     20857-1.46951E+00 8.29692E+00 0.00000E+00
 -1     20858-6.76150E-01 9.92682E-01 0.00000E+00
 -1     20859 8.32375E-01 3.10452E+00 0.00000E+00
 -1     20860 2.65937E-01 1.10711E+00 0.00000E+00
 -1     20861-5.17968E-01 6.80722E-01 0.00000E+00
 -1     20862-3.93699E+00 7.20245E+00 0.00000E+00
 -1     20863-6.40888E-02 5.94874E+00 0.00000E+00
 -1     20864-5.31638E+00 1.06730E+01 0.00000E+00
 -1     20865-1.57281E+00 2.46419E+00 0.00000E+00
 -1     20866-1.22280E+00 1.90884E+00 0.00000E+00
 -1     20867 7.14535E-01 1.98567E+00 0.00000E+00
 -1     20868 2.49083E-01 5.27387E+00 0.00000E+00
 -1     20869 3.88572E-01 1.33731E+00 0.00000E+00
 -1     20870 3.87679E-01 1.15925E+00 0.00000E+00
 -1     20871-3.48477E+00 1.14405E+01 0.00000E+00
 -1     20872 7.74307E-01 3.56447E+00 0.00000E+00
 -1     20873-2.09537E+00 9.19924E+00 0.00000E+00
 -1     20874 3.55602E-01 8.22775E-01 0.00000E+00
 -1     20875-9.21732E-01 7.43098E+00 0.00000E+00
 -1     20876 4.11727E-01 9.85141E-01 0.00000E+00
 -1     20877-1.35617E-01 6.17362E-01 0.00000E+00
 -1     20878-2.78751E+00 1.02760E+01 0.00000E+00
 -1     20879-3.49091E+00 6.23191E+00 0.00000E+00
 -1     20880 7.93042E-01 2.31281E+00 0.00000E+00
 -1     20881-4.43364E+00 8.22861E+00 0.00000E+00
 -1     20882 8.34339E-01 2.68629E+00 0.00000E+00
 -1     20883-3.08336E+00 5.32702E+00 0.00000E+00
 -1     20884 6.55622E-01 4.07196E+00 0.00000E+00
 -1     20885-1.93883E+00 3.07787E+00 0.00000E+00
 -1     20886-7.53990E+00 1.51347E+01 0.00000E+00
 -1     20887-5.90612E+00 1.21202E+01 0.00000E+00
 -1     20888-6.62695E+00 1.36373E+01 0.00000E+00
 -1     20889 5.08609E-01 1.53185E+00 0.00000E+00
 -1     20890-9.06644E-01 1.40745E+00 0.00000E+00
 -1     20891 4.46674E-01 1.18502E+00 0.00000E+00
 -1     20892-4.73636E-01 6.64944E+00 0.00000E+00
 -1     20893-4.87803E+00 9.39834E+00 0.00000E+00
 -1     20894-2.69303E+00 4.50161E+00 0.00000E+00
 -1     20895-6.22564E+00 1.51283E+01 0.00000E+00
 -1     20896 4.14860E-02 5.95958E-01 0.00000E+00
 -1     20897 2.78911E-01 6.99295E-01 0.00000E+00
 -1     20898-5.19159E+00 1.34560E+01 0.00000E+00
 -1     20899-2.31361E+00 3.75360E+00 0.00000E+00
 -1     20900 4.94940E-01 1.25763E+00 0.00000E+00
 -1     20901 1.02288E-01 4.44220E+00 0.00000E+00
 -1     20902 6.10127E-01 1.71332E+00 0.00000E+00
 -1     20903 1.78382E-01 6.22346E-01 0.00000E+00
 -1     20904-9.85984E-01 2.19051E+00 0.00000E+00
 -1     20905-3.39079E-01 6.53855E-01 0.00000E+00
 -1     20906-4.15469E-01 1.06946E+00 0.00000E+00
 -1     20907 5.61073E-01 1.45565E+00 0.00000E+00
 -1     20908-4.65054E+00 1.16659E+01 0.00000E+00
 -1     20909-6.88481E-01 1.63082E+00 0.00000E+00
 -1     20910-4.07932E+00 1.26365E+01 0.00000E+00
 -1     20911-1.77493E-01 5.08105E+00 0.00000E+00
 -1     20912 6.41874E-01 2.90423E+00 0.00000E+00
 -1     20913-2.93119E+00 6.92630E+00 0.00000E+00
 -1     20914-2.34273E+00 7.86592E+00 0.00000E+00
 -1     20915 3.37088E-01 3.85734E+00 0.00000E+00
 -1     20916-3.96802E+00 1.01870E+01 0.00000E+00
 -1     20917 6.43424E-01 1.75749E+00 0.00000E+00
 -1     20918-2.57309E+00 5.92073E+00 0.00000E+00
 -1     20919-5.85985E-01 5.71139E+00 0.00000E+00
 -1     20920 6.94864E-01 2.48346E+00 0.00000E+00
 -1     20921-8.82555E-02 9.76946E-01 0.00000E+00
 -1     20922-2.23968E+00 5.01343E+00 0.00000E+00
 -1     20923-1.57569E+00 7.26847E+00 0.00000E+00
 -1     20924-3.37221E+00 7.96804E+00 0.00000E+00
 -1     20925 4.05101E-01 1.10272E+00 0.00000E+00
 -1     20926-1.29302E+00 2.79843E+00 0.00000E+00
 -1     20927-2.80077E-01 1.44920E+00 0.00000E+00
 -1     20928 6.90482E-01 2.09716E+00 0.00000E+00
 -1     20929-2.04758E+00 6.60352E+00 0.00000E+00
 -1     20930 5.20315E-01 3.35490E+00 0.00000E+00
 -1     20931-3.01215E+00 9.03715E+00 0.00000E+00
 -1     20932-3.43673E-01 4.30158E+00 0.00000E+00
 -1     20933-3.90616E+00 8.94776E+00 0.00000E+00
 -1     20934-1.18110E+00 6.31723E+00 0.00000E+00
 -1     20935-5.43543E-02 3.69429E+00 0.00000E+00
 -1     20936-5.03228E-01 1.98708E+00 0.00000E+00
 -1     20937 1.29500E-01 9.57698E-01 0.00000E+00
 -1     20938 2.87630E-01 9.99828E-01 0.00000E+00
 -1     20939 5.17179E-01 2.31934E+00 0.00000E+00
 -1     20940-1.76115E+00 5.61514E+00 0.00000E+00
 -1     20941 3.98111E-01 2.72030E+00 0.00000E+00
 -1     20942-6.09172E-01 4.93094E+00 0.00000E+00
 -1     20943 2.24345E-02 1.37423E+00 0.00000E+00
 -1     20944 5.45038E-01 1.56993E+00 0.00000E+00
 -1     20945-1.91430E+00 4.19257E+00 0.00000E+00
 -1     20946-1.59844E+00 3.45862E+00 0.00000E+00
 -1     20947-7.58422E-01 2.55608E+00 0.00000E+00
 -1     20948 2.03387E-01 3.14471E+00 0.00000E+00
 -1     20949 5.54804E-01 1.92411E+00 0.00000E+00
 -1     20950-1.20672E-01 1.88299E+00 0.00000E+00
 -1     20951 2.46627E-01 1.36344E+00 0.00000E+00
 -1     20952 3.82331E-01 1.80134E+00 0.00000E+00
 -1     20953-5.77509E-01 3.62006E+00 0.00000E+00
 -1     20954-8.91649E-01 4.39783E+00 0.00000E+00
 -1     20955-1.10151E+00 5.27213E+00 0.00000E+00
 -1     20956 4.15281E-01 1.43028E+00 0.00000E+00
 -1     20957-1.63960E-01 3.02074E+00 0.00000E+00
 -1     20958-3.06923E-01 2.43159E+00 0.00000E+00
 -1     20959 1.61618E-01 1.80219E+00 0.00000E+00
 -1     20960-1.51168E+00 4.70139E+00 0.00000E+00
 -1     20961 3.18474E-01 2.19446E+00 0.00000E+00
 -1     20962 8.13676E-02 2.43122E+00 0.00000E+00
 -1     20963-9.94783E-01 3.20137E+00 0.00000E+00
 -1     20964-1.22808E+00 3.89659E+00 0.00000E+00
 -1     20965-5.45373E-01 2.95394E+00 0.00000E+00
 -1     20966 2.12764E-04 4.95618E-01 0.00000E+00
 -1     20967 2.95877E-02 1.23347E+00 0.00000E+00
 -1     20968 1.34614E-01 1.76656E+00 0.00000E+00
 -1     20969 3.39718E-01 2.32773E+00 0.00000E+00
 -1     20970 6.14364E-01 2.91804E+00 0.00000E+00
 -1     20971 9.02992E-01 3.62123E+00 0.00000E+00
 -1     20972 1.14510E+00 4.50953E+00 0.00000E+00
 -1     20973 1.27955E+00 5.61946E+00 0.00000E+00
 -1     20974 1.25423E+00 6.97355E+00 0.00000E+00
 -1     20975 1.03551E+00 8.58283E+00 0.00000E+00
 -1     20976 5.91331E-01 1.04540E+01 0.00000E+00
 -1     20977-1.04711E-01 1.25752E+01 0.00000E+00
 -1     20978-1.07126E+00 1.49473E+01 0.00000E+00
 -1     20979-2.33505E+00 1.75896E+01 0.00000E+00
 -1     20980-4.00557E+00 2.04825E+01 0.00000E+00
 -1     20981-6.08172E+00 2.37185E+01 0.00000E+00
 -1     20982-7.58668E+00 2.37496E+01 0.00000E+00
 -1     20983-1.06842E+01 2.41264E+01 0.00000E+00
 -1     20984-1.42379E+01 2.46055E+01 0.00000E+00
 -1     20985-1.55190E+01 2.26084E+01 0.00000E+00
 -1     20986-1.39347E+01 1.87827E+01 0.00000E+00
 -1     20987-1.24569E+01 1.54098E+01 0.00000E+00
 -1     20988-1.10556E+01 1.24453E+01 0.00000E+00
 -1     20989-9.59634E+00 9.93157E+00 0.00000E+00
 -1     20990-8.18970E+00 7.79629E+00 0.00000E+00
 -1     20991-6.84411E+00 5.99859E+00 0.00000E+00
 -1     20992-5.56273E+00 4.51169E+00 0.00000E+00
 -1     20993-4.35293E+00 3.30481E+00 0.00000E+00
 -1     20994-3.20330E+00 2.34867E+00 0.00000E+00
 -1     20995-2.07537E+00 1.59279E+00 0.00000E+00
 -1     20996-8.61352E-01 8.95959E-01 0.00000E+00
 -1     20997-1.89806E-01 3.91001E-01 0.00000E+00
 -1     20998-4.29379E-02-2.47832E-02 0.00000E+00
 -1     20999 1.03166E-02-1.08674E-01 0.00000E+00
 -1     21000 1.38522E-02-7.94769E-02 0.00000E+00
 -1     21001 2.36251E-02 7.74538E-03 0.00000E+00
 -1     21002 2.76272E-02 1.16313E-01 0.00000E+00
 -1     21003 2.26497E-02 2.23323E-01 0.00000E+00
 -1     21004 2.00183E-02 3.30354E-01 0.00000E+00
 -1     21005 1.08298E-02 4.03540E-01 0.00000E+00
 -1     21006 2.46448E-03 4.39653E-01 0.00000E+00
 -1     21007-1.63314E+01 2.47910E+01 0.00000E+00
 -1     21008 2.73167E-03 3.17602E-01 0.00000E+00
 -1     21009 7.90374E-03 8.95033E-01 0.00000E+00
 -1     21010 6.83045E-02 1.51370E+00 0.00000E+00
 -1     21011 2.26979E-01 2.04545E+00 0.00000E+00
 -1     21012 4.72311E-01 2.61359E+00 0.00000E+00
 -1     21013 7.60189E-01 3.24953E+00 0.00000E+00
 -1     21014 1.03466E+00 4.03917E+00 0.00000E+00
 -1     21015 1.22944E+00 5.03573E+00 0.00000E+00
 -1     21016 1.28876E+00 6.26451E+00 0.00000E+00
 -1     21017 1.17109E+00 7.74317E+00 0.00000E+00
 -1     21018 8.42918E-01 9.48649E+00 0.00000E+00
 -1     21019 2.77005E-01 1.14842E+01 0.00000E+00
 -1     21020-5.52793E-01 1.37292E+01 0.00000E+00
 -1     21021-1.66199E+00 1.62325E+01 0.00000E+00
 -1     21022-3.10734E+00 1.90077E+01 0.00000E+00
 -1     21023-5.01056E+00 2.20243E+01 0.00000E+00
 -1     21024-9.09980E+00 2.39046E+01 0.00000E+00
 -1     21025-1.23752E+01 2.43793E+01 0.00000E+00
 -1     21026-1.47132E+01 2.06298E+01 0.00000E+00
 -1     21027-1.31789E+01 1.70447E+01 0.00000E+00
 -1     21028-1.17656E+01 1.38710E+01 0.00000E+00
 -1     21029-1.03219E+01 1.11346E+01 0.00000E+00
 -1     21030-8.88416E+00 8.81902E+00 0.00000E+00
 -1     21031-7.50687E+00 6.85877E+00 0.00000E+00
 -1     21032-6.19576E+00 5.21929E+00 0.00000E+00
 -1     21033-4.95083E+00 3.87545E+00 0.00000E+00
 -1     21034-3.77430E+00 2.79617E+00 0.00000E+00
 -1     21035-2.64395E+00 1.94498E+00 0.00000E+00
 -1     21036-1.47960E+00 1.24486E+00 0.00000E+00
 -1     21037 6.22547E-03-1.01931E-01 0.00000E+00
 -1     21038-8.99508E-02 1.08363E-01 0.00000E+00
 -1     21039-1.42668E-02-9.09392E-02 0.00000E+00
 -1     21040 2.20220E-02-4.13798E-02 0.00000E+00
 -1     21041 2.34627E-02 6.23511E-02 0.00000E+00
 -1     21042 2.68350E-02 1.69934E-01 0.00000E+00
 -1     21043 2.18394E-02 2.72727E-01 0.00000E+00
 -1     21044 1.74338E-02 3.75041E-01 0.00000E+00
 -1     21045 5.32158E-03 4.16025E-01 0.00000E+00
 -1     21046-5.08282E+00 4.80245E+00 0.00000E+00
 -1     21047 9.00172E-02 1.25650E+00 0.00000E+00
 -1     21048 2.92784E-01 1.87385E+00 0.00000E+00
 -1     21049 5.60814E-01 2.42313E+00 0.00000E+00
 -1     21050 8.44326E-01 3.03450E+00 0.00000E+00
 -1     21051 1.07852E+00 3.80748E+00 0.00000E+00
 -1     21052 1.19850E+00 4.78267E+00 0.00000E+00
 -1     21053 1.14883E+00 5.98560E+00 0.00000E+00
 -1     21054 8.96634E-01 7.44286E+00 0.00000E+00
 -1     21055 4.16167E-01 9.16895E+00 0.00000E+00
 -1     21056-3.24407E-01 1.11455E+01 0.00000E+00
 -1     21057-1.34534E+00 1.33681E+01 0.00000E+00
 -1     21058-2.65339E+00 1.58708E+01 0.00000E+00
 -1     21059-4.32903E+00 1.86668E+01 0.00000E+00
 -1     21060-6.56305E+00 2.17722E+01 0.00000E+00
 -1     21061-1.15564E+01 2.22071E+01 0.00000E+00
 -1     21062-3.96927E+00 3.48322E+00 0.00000E+00
 -1     21063-1.19175E+01 1.84804E+01 0.00000E+00
 -1     21064-9.81600E+00 2.19800E+01 0.00000E+00
 -1     21065-6.25790E+00 6.41582E+00 0.00000E+00
 -1     21066-1.06633E+01 1.49341E+01 0.00000E+00
 -1     21067-9.44533E+00 1.19281E+01 0.00000E+00
 -1     21068-1.92442E-01 1.67295E-01 0.00000E+00
 -1     21069-8.11969E+00 9.45051E+00 0.00000E+00
 -1     21070-1.12129E+01 1.66548E+01 0.00000E+00
 -1     21071-6.86457E+00 7.34201E+00 0.00000E+00
 -1     21072-8.77638E+00 1.06394E+01 0.00000E+00
 -1     21073-5.66558E+00 5.57066E+00 0.00000E+00
 -1     21074-7.48306E+00 8.35317E+00 0.00000E+00
 -1     21075-4.51697E+00 4.10832E+00 0.00000E+00
 -1     21076-1.34308E+01 2.24086E+01 0.00000E+00
 -1     21077-2.92569E+00 2.42216E+00 0.00000E+00
 -1     21078-1.91935E+00 1.57214E+00 0.00000E+00
 -1     21079-8.86913E-01 8.46746E-01 0.00000E+00
 -1     21080-3.31798E-02-6.02957E-02 0.00000E+00
 -1     21081-4.22412E-01 4.85047E-01 0.00000E+00
 -1     21082 9.35241E-02 2.46463E-01 0.00000E+00
 -1     21083 6.07143E-02-3.46815E-03 0.00000E+00
 -1     21084 9.01143E-02 4.21805E-01 0.00000E+00
 -1     21085 3.74623E-02-5.60777E-02 0.00000E+00
 -1     21086 9.25096E-02 3.34645E-01 0.00000E+00
 -1     21087 7.53495E-02 6.14816E-01 0.00000E+00
 -1     21088 5.15665E-02 7.89519E-01 0.00000E+00
 -1     21089 1.51235E-02 8.14849E-01 0.00000E+00
 -1     21090-8.14516E+00 2.17614E+01 0.00000E+00
 -1     21091 4.46255E-02 1.13304E+00 0.00000E+00
 -1     21092 8.75146E-02 1.49449E-01 0.00000E+00
 -1     21093-1.26629E+01 2.03891E+01 0.00000E+00
 -1     21094-7.98986E-01 1.22218E+01 0.00000E+00
 -1     21095 1.81744E-01 1.58683E+00 0.00000E+00
 -1     21096 4.21476E-01 2.14837E+00 0.00000E+00
 -1     21097 7.03810E-01 2.71393E+00 0.00000E+00
 -1     21098 9.72222E-01 3.39665E+00 0.00000E+00
 -1     21099 1.15678E+00 4.26724E+00 0.00000E+00
 -1     21100 1.19866E+00 5.35462E+00 0.00000E+00
 -1     21101 1.05082E+00 6.68225E+00 0.00000E+00
 -1     21102 6.87876E-01 8.27335E+00 0.00000E+00
 -1     21103 8.11318E-02 1.01262E+01 0.00000E+00
 -1     21104-1.96515E+00 1.45838E+01 0.00000E+00
 -1     21105-3.42049E+00 1.72432E+01 0.00000E+00
 -1     21106-5.42716E+00 2.01266E+01 0.00000E+00
 -1     21107-1.00923E+01 1.33403E+01 0.00000E+00
 -1     21108 6.47046E-03-8.35748E-02 0.00000E+00
 -1     21109 6.60749E-02 7.10229E-01 0.00000E+00
 -1     21110-1.40642E+00 1.20575E+00 0.00000E+00
 -1     21111-3.43886E+00 2.92230E+00 0.00000E+00
 -1     21112-2.41865E+00 1.97723E+00 0.00000E+00
 -1     21113-9.68050E-02 1.33186E-02 0.00000E+00
 -1     21114 7.73681E-02 6.26682E-02 0.00000E+00
 -1     21115 7.93737E-02 5.15228E-01 0.00000E+00
 -1     21116 3.09936E-02 8.00192E-01 0.00000E+00
 -1     21117-1.34334E-01 1.30126E-01 0.00000E+00
 -1     21118-4.53411E+00 1.69632E+01 0.00000E+00
 -1     21119 4.18011E-02 7.31131E-02 0.00000E+00
 -1     21120-7.08956E+00 1.95968E+01 0.00000E+00
 -1     21121-5.60567E+00 1.83140E+01 0.00000E+00
 -1     21122 6.12613E-01 2.20112E+00 0.00000E+00
 -1     21123 1.69338E-01 7.31260E-01 0.00000E+00
 -1     21124 8.74460E-01 2.79456E+00 0.00000E+00
 -1     21125 1.05436E+00 3.56034E+00 0.00000E+00
 -1     21126-2.17713E+00 2.07778E+00 0.00000E+00
 -1     21127-8.57313E+00 1.27851E+01 0.00000E+00
 -1     21128-5.11665E+00 6.00961E+00 0.00000E+00
 -1     21129 7.51400E-01 6.39217E+00 0.00000E+00
 -1     21130 2.44182E-01 7.98378E+00 0.00000E+00
 -1     21131-1.60385E+00 1.19062E+01 0.00000E+00
 -1     21132 2.23335E-01 1.42973E+00 0.00000E+00
 -1     21133-2.96852E+00 1.42739E+01 0.00000E+00
 -1     21134-3.73022E+00 1.55760E+01 0.00000E+00
 -1     21135 4.75143E-01 1.94555E+00 0.00000E+00
 -1     21136-4.06596E+00 4.42316E+00 0.00000E+00
 -1     21137 1.65815E-01 2.83572E-01 0.00000E+00
 -1     21138 9.18662E-01 5.70546E+00 0.00000E+00
 -1     21139-2.25045E+00 1.30509E+01 0.00000E+00
 -1     21140-9.13440E+00 1.42924E+01 0.00000E+00
 -1     21141-5.65166E+00 6.92180E+00 0.00000E+00
 -1     21142-3.08589E+00 3.12896E+00 0.00000E+00
 -1     21143 7.49039E-01 2.47870E+00 0.00000E+00
 -1     21144-8.93254E-01 8.66287E-01 0.00000E+00
 -1     21145 1.35199E-01 1.82505E-01 0.00000E+00
 -1     21146-4.84883E-01 5.08160E-01 0.00000E+00
 -1     21147 1.47132E-01 1.00245E+00 0.00000E+00
 -1     21148 1.08570E+00 4.51870E+00 0.00000E+00
 -1     21149-2.62373E+00 2.57260E+00 0.00000E+00
 -1     21150 3.41893E-01 1.69428E+00 0.00000E+00
 -1     21151-1.31868E+00 1.23164E+00 0.00000E+00
 -1     21152 1.25390E-01 1.13214E+00 0.00000E+00
 -1     21153-8.97347E+00 1.98940E+01 0.00000E+00
 -1     21154-5.30569E-01 9.82782E+00 0.00000E+00
 -1     21155-1.00309E+01 1.81589E+01 0.00000E+00
 -1     21156-1.02941E+00 1.08344E+01 0.00000E+00
 -1     21157 9.51490E-02 1.09977E-01 0.00000E+00
 -1     21158-3.47385E-02 7.76445E-02 0.00000E+00
 -1     21159-9.33004E+00 1.61969E+01 0.00000E+00
 -1     21160-3.56433E+00 3.74276E+00 0.00000E+00
 -1     21161-4.58654E+00 5.17817E+00 0.00000E+00
 -1     21162 1.02891E+00 5.08103E+00 0.00000E+00
 -1     21163-2.73527E-01 2.51872E-01 0.00000E+00
 -1     21164-1.07658E+01 2.01400E+01 0.00000E+00
 -1     21165-7.94858E+00 1.14329E+01 0.00000E+00
 -1     21166 1.59479E-01 8.65652E-01 0.00000E+00
 -1     21167 9.77832E-01 3.15499E+00 0.00000E+00
 -1     21168 1.09177E+00 4.01307E+00 0.00000E+00
 -1     21169 5.28496E-01 7.15378E+00 0.00000E+00
 -1     21170-1.74095E+00 1.63233E+00 0.00000E+00
 -1     21171 1.85235E-01 4.04367E-01 0.00000E+00
 -1     21172-1.06784E-01 8.87799E+00 0.00000E+00
 -1     21173-6.19799E+00 7.91755E+00 0.00000E+00
 -1     21174 1.84167E-01 6.33791E-01 0.00000E+00
 -1     21175-6.75968E+00 9.00242E+00 0.00000E+00
 -1     21176 1.97365E-01 5.38131E-01 0.00000E+00
 -1     21177 7.28738E-02 6.88718E+00 0.00000E+00
 -1     21178-8.28421E+00 1.79232E+01 0.00000E+00
 -1     21179-7.33764E+00 1.01772E+01 0.00000E+00
 -1     21180 9.31318E-01 2.90831E+00 0.00000E+00
 -1     21181 2.50837E-01 1.26769E+00 0.00000E+00
 -1     21182-3.14473E+00 4.08395E+00 0.00000E+00
 -1     21183 6.27590E-01 1.95158E+00 0.00000E+00
 -1     21184-2.51720E+00 1.16296E+01 0.00000E+00
 -1     21185 6.00200E-01 5.42662E+00 0.00000E+00
 -1     21186 5.00602E-01 1.71798E+00 0.00000E+00
 -1     21187 8.97608E-01 4.25162E+00 0.00000E+00
 -1     21188-1.53945E+00 1.76443E+00 0.00000E+00
 -1     21189-4.09418E+00 1.40323E+01 0.00000E+00
 -1     21190-5.28347E-01 5.85225E-01 0.00000E+00
 -1     21191 3.64282E-01 6.11720E+00 0.00000E+00
 -1     21192-3.26540E+00 1.27908E+01 0.00000E+00
 -1     21193-7.74071E+00 1.36547E+01 0.00000E+00
 -1     21194-4.54968E+00 6.53410E+00 0.00000E+00
 -1     21195-2.30448E+00 2.81160E+00 0.00000E+00
 -1     21196 2.67143E-01 1.09555E+00 0.00000E+00
 -1     21197-2.71026E+00 3.41578E+00 0.00000E+00
 -1     21198-1.91502E+00 2.26115E+00 0.00000E+00
 -1     21199 2.37814E-01 4.71385E-01 0.00000E+00
 -1     21200 9.60420E-01 3.75276E+00 0.00000E+00
 -1     21201 8.54081E-01 2.54847E+00 0.00000E+00
 -1     21202-7.22686E-01 8.61852E+00 0.00000E+00
 -1     21203-8.60821E-01 9.44111E-01 0.00000E+00
 -1     21204-2.85766E-01 7.72691E+00 0.00000E+00
 -1     21205 7.79576E-01 4.80823E+00 0.00000E+00
 -1     21206-6.01508E+00 9.74218E+00 0.00000E+00
 -1     21207-6.52707E+00 1.10107E+01 0.00000E+00
 -1     21208 9.67719E-01 3.30760E+00 0.00000E+00
 -1     21209-5.57472E+00 1.67311E+01 0.00000E+00
 -1     21210-6.74879E+00 1.74449E+01 0.00000E+00
 -1     21211 3.11629E-01 7.60173E-01 0.00000E+00
 -1     21212 1.01619E-01 3.21995E-01 0.00000E+00
 -1     21213-4.08271E+00 5.63589E+00 0.00000E+00
 -1     21214-7.14044E+00 1.22923E+01 0.00000E+00
 -1     21215-5.02194E+00 7.51032E+00 0.00000E+00
 -1     21216-1.45874E-01 3.48864E-01 0.00000E+00
 -1     21217-2.70399E-03 3.12205E-01 0.00000E+00
 -1     21218-1.18750E+00 1.32726E+00 0.00000E+00
 -1     21219 2.66062E-01 9.35151E-01 0.00000E+00
 -1     21220-5.51135E+00 8.57773E+00 0.00000E+00
 -1     21221-8.15387E+00 1.50078E+01 0.00000E+00
 -1     21222 3.76176E-01 1.50149E+00 0.00000E+00
 -1     21223 1.79482E-01 3.77866E-01 0.00000E+00
 -1     21224-1.84503E+00 1.05543E+01 0.00000E+00
 -1     21225 2.80855E-01 5.99653E-01 0.00000E+00
 -1     21226 7.48929E-01 2.22794E+00 0.00000E+00
 -1     21227-1.24111E+00 9.55688E+00 0.00000E+00
 -1     21228-4.89066E+00 1.53735E+01 0.00000E+00
 -1     21229-3.60758E+00 4.82036E+00 0.00000E+00
 -1     21230-3.07254E-01 4.11695E-01 0.00000E+00
 -1     21231-1.63301E+00 2.52778E+00 0.00000E+00
 -1     21232-5.46424E+00 1.38922E+01 0.00000E+00
 -1     21233 7.13250E-01 1.98166E+00 0.00000E+00
 -1     21234-7.58154E+00 1.61976E+01 0.00000E+00
 -1     21235-7.38767E-01 1.05606E+00 0.00000E+00
 -1     21236 6.43078E-01 3.98826E+00 0.00000E+00
 -1     21237 3.61392E-01 8.38214E-01 0.00000E+00
 -1     21238 3.29726E-01 9.54639E-01 0.00000E+00
 -1     21239-4.81376E+00 9.32083E+00 0.00000E+00
 -1     21240 4.88935E-01 1.45264E+00 0.00000E+00
 -1     21241 8.33296E-01 2.66631E+00 0.00000E+00
 -1     21242-2.31790E+00 3.79200E+00 0.00000E+00
 -1     21243-3.52361E+00 1.14076E+01 0.00000E+00
 -1     21244-1.01418E+00 1.48928E+00 0.00000E+00
 -1     21245 7.63548E-01 3.48889E+00 0.00000E+00
 -1     21246-1.96070E+00 3.13341E+00 0.00000E+00
 -1     21247-5.39504E-01 7.22962E-01 0.00000E+00
 -1     21248-4.40946E+00 1.25964E+01 0.00000E+00
 -1     21249 6.06951E-01 1.69581E+00 0.00000E+00
 -1     21250-1.31700E+00 1.97880E+00 0.00000E+00
 -1     21251 7.92792E-01 2.30953E+00 0.00000E+00
 -1     21252 8.24754E-01 3.05192E+00 0.00000E+00
 -1     21253-6.18320E+00 1.56447E+01 0.00000E+00
 -1     21254 2.89171E-01 7.23066E-01 0.00000E+00
 -1     21255 4.54071E-01 1.19703E+00 0.00000E+00
 -1     21256-6.52703E+00 1.32599E+01 0.00000E+00
 -1     21257-4.37181E+00 8.16496E+00 0.00000E+00
 -1     21258 1.92116E-01 6.52535E-01 0.00000E+00
 -1     21259-4.61830E-01 6.66427E+00 0.00000E+00
 -1     21260-1.04494E-01 5.86898E+00 0.00000E+00
 -1     21261 1.96623E-01 5.15653E+00 0.00000E+00
 -1     21262 3.77336E-01 1.28427E+00 0.00000E+00
 -1     21263-5.24178E+00 1.05510E+01 0.00000E+00
 -1     21264 6.51865E-02 6.24885E-01 0.00000E+00
 -1     21265-3.57405E+00 6.16760E+00 0.00000E+00
 -1     21266 4.15872E-01 9.95842E-01 0.00000E+00
 -1     21267-1.09409E-01 6.46134E-01 0.00000E+00
 -1     21268 4.49472E-01 4.53670E+00 0.00000E+00
 -1     21269-2.77787E+00 1.03027E+01 0.00000E+00
 -1     21270-1.43169E+00 8.39070E+00 0.00000E+00
 -1     21271-2.71937E+00 4.50912E+00 0.00000E+00
 -1     21272-3.53711E-01 7.42624E-01 0.00000E+00
 -1     21273-8.98038E-01 7.51200E+00 0.00000E+00
 -1     21274 6.44748E-01 1.75857E+00 0.00000E+00
 -1     21275-5.65585E+00 1.20732E+01 0.00000E+00
 -1     21276-1.58853E+00 3.54763E+00 0.00000E+00
 -1     21277-6.90695E+00 1.46189E+01 0.00000E+00
 -1     21278 5.62640E-01 1.46045E+00 0.00000E+00
 -1     21279 3.22917E-02 4.26056E+00 0.00000E+00
 -1     21280-4.53018E+00 1.13103E+01 0.00000E+00
 -1     21281-3.15426E+00 5.29242E+00 0.00000E+00
 -1     21282 4.98485E-01 1.26714E+00 0.00000E+00
 -1     21283-3.94734E+00 7.14039E+00 0.00000E+00
 -1     21284-5.82889E-01 1.23198E+00 0.00000E+00
 -1     21285 3.19337E-01 3.72841E+00 0.00000E+00
 -1     21286 5.15630E-01 3.23832E+00 0.00000E+00
 -1     21287-2.05638E+00 9.31063E+00 0.00000E+00
 -1     21288-3.03791E+00 6.74952E+00 0.00000E+00
 -1     21289-3.21324E+00 7.86092E+00 0.00000E+00
 -1     21290 4.17750E-01 1.13031E+00 0.00000E+00
 -1     21291-3.91400E+00 1.00862E+01 0.00000E+00
 -1     21292-1.31813E+00 2.88326E+00 0.00000E+00
 -1     21293-2.72338E+00 5.81578E+00 0.00000E+00
 -1     21294-3.82711E+00 8.87509E+00 0.00000E+00
 -1     21295-8.29523E-01 1.73288E+00 0.00000E+00
 -1     21296 3.11080E-01 1.05089E+00 0.00000E+00
 -1     21297-1.07724E+00 2.27813E+00 0.00000E+00
 -1     21298 6.90774E-01 2.42413E+00 0.00000E+00
 -1     21299-1.06133E+00 6.50427E+00 0.00000E+00
 -1     21300-6.49264E-01 5.68505E+00 0.00000E+00
 -1     21301-2.96875E-01 4.90936E+00 0.00000E+00
 -1     21302-1.91152E-02 1.00971E+00 0.00000E+00
 -1     21303 6.96960E-01 2.09319E+00 0.00000E+00
 -1     21304 1.66934E-01 1.01416E+00 0.00000E+00
 -1     21305-2.24118E+00 8.17068E+00 0.00000E+00
 -1     21306-1.91902E+00 4.26022E+00 0.00000E+00
 -1     21307 6.27490E-01 2.77912E+00 0.00000E+00
 -1     21308-2.64562E-01 1.06570E+00 0.00000E+00
 -1     21309-5.19517E-01 3.94611E+00 0.00000E+00
 -1     21310-1.58372E+00 7.33871E+00 0.00000E+00
 -1     21311-2.96003E+00 9.07224E+00 0.00000E+00
 -1     21312 5.54714E-01 1.57720E+00 0.00000E+00
 -1     21313 2.23308E-01 3.01561E+00 0.00000E+00
 -1     21314-9.58732E-01 3.33365E+00 0.00000E+00
 -1     21315-6.84821E-02 3.44182E+00 0.00000E+00
 -1     21316-2.30994E+00 5.01587E+00 0.00000E+00
 -1     21317-2.33423E+00 7.16475E+00 0.00000E+00
 -1     21318-1.70447E+00 6.40375E+00 0.00000E+00
 -1     21319-4.49800E-01 1.53159E+00 0.00000E+00
 -1     21320 4.46616E-01 1.49493E+00 0.00000E+00
 -1     21321-8.78079E-01 4.79234E+00 0.00000E+00
 -1     21322-1.26110E+00 5.59805E+00 0.00000E+00
 -1     21323-7.89849E-01 2.64549E+00 0.00000E+00
 -1     21324 3.01691E-01 1.47712E+00 0.00000E+00
 -1     21325 5.82180E-01 1.91252E+00 0.00000E+00
 -1     21326-2.33348E+00 6.33246E+00 0.00000E+00
 -1     21327-1.19880E+00 4.08054E+00 0.00000E+00
 -1     21328 4.00642E-01 2.55459E+00 0.00000E+00
 -1     21329 4.80078E-01 2.05841E+00 0.00000E+00
 -1     21330 9.85138E-02 1.45715E+00 0.00000E+00
 -1     21331-1.43726E-01 1.44883E+00 0.00000E+00
 -1     21332-6.36487E-01 2.05866E+00 0.00000E+00
 -1     21333-4.53877E-01 3.06247E+00 0.00000E+00
 -1     21334-1.94212E+00 5.60918E+00 0.00000E+00
 -1     21335 1.56657E-01 2.42706E+00 0.00000E+00
 -1     21336 2.50352E-01 1.95528E+00 0.00000E+00
 -1     21337-9.09888E-02 2.71457E+00 0.00000E+00
 -1     21338-1.55104E+00 4.84670E+00 0.00000E+00
 -1     21339-3.77463E-02 2.00412E+00 0.00000E+00
 -1     21340-3.68598E-01 2.38807E+00 0.00000E+00
 -1     21341-3.07855E-01 1.86902E+00 0.00000E+00
 -1     21342-5.53532E+00 2.55346E+01-3.19782E-03
 -1     21343-5.52623E+00 2.55291E+01-1.95242E-03
 -1     21344 0.00000E+00 0.00000E+00 0.00000E+00
 -1     21345 0.00000E+00 0.00000E+00 0.00000E+00
 -1     21346-1.98301E+01 2.75398E+01 7.57098E-03
 -1     21347-1.98481E+01 2.75528E+01-4.16691E-03
 -1     21348 0.00000E+00 0.00000E+00 0.00000E+00
 -1     21349 0.00000E+00 0.00000E+00 0.00000E+00
 -1     21350-4.65437E+00 2.42818E+01-1.73605E-04
 -1     21351-4.74666E+00 2.44319E+01-4.06286E-03
 -1     21352-2.96624E+00 2.13908E+01 1.47926E-03
 -1     21353-1.64467E+00 1.86999E+01 2.64509E-04
 -1     21354-5.88488E-01 1.61684E+01 7.50073E-04
 -1     21355 3.57961E-01 1.33807E+01 5.45621E-04
 -1     21356 9.24610E-01 1.11481E+01-5.08480E-04
 -1     21357 1.22815E+00 9.35681E+00 2.18410E-04
 -1     21358 1.35297E+00 7.78036E+00-5.52381E-04
 -1     21359 1.31678E+00 6.30346E+00-8.09044E-04
 -1     21360 1.13640E+00 5.07871E+00 5.92860E-04
 -1     21361 8.66124E-01 4.09010E+00 3.08690E-04
 -1     21362 5.67023E-01 3.30419E+00-1.24857E-04
 -1     21363 3.03940E-01 2.66713E+00-4.96594E-04
 -1     21364 1.11328E-01 2.06768E+00 8.76842E-05
 -1     21365 3.39930E-02 1.50636E+00-1.09868E-04
 -1     21366 1.47511E-02 8.72625E-01 5.94699E-04
 -1     21367 7.08033E-03 2.96726E-01 6.19111E-04
 -1     21368 1.04350E-02 5.63256E-01 5.35324E-04
 -1     21369 3.56418E-02 1.55261E+00 4.70887E-04
 -1     21370 1.13057E-01 2.06472E+00 2.53867E-04
 -1     21371 2.67356E-01 2.57238E+00-1.90278E-04
 -1     21372 5.20664E-01 3.19106E+00 5.64425E-04
 -1     21373 8.15304E-01 3.94504E+00-5.49972E-04
 -1     21374 1.09330E+00 4.89719E+00-9.31971E-05
 -1     21375 1.29257E+00 6.08248E+00-2.55914E-04
 -1     21376 1.35807E+00 7.52261E+00 2.69373E-04
 -1     21377 1.22862E+00 9.35620E+00-1.18647E-04
 -1     21378 8.52228E-01 1.14869E+01-1.11332E-04
 -1     21379 2.58983E-01 1.37048E+01-2.38913E-04
 -1     21380-4.57708E-01 1.58206E+01-1.24774E-04
 -1     21381-1.64525E+00 1.87013E+01 3.60743E-05
 -1     21382-3.18379E+00 2.17945E+01-4.61936E-04
 -1     21383-2.22316E+00 1.99297E+01 9.57526E-04
 -1     21384-1.12452E+00 1.75068E+01-1.10972E-03
 -1     21385-3.86346E+00 2.29942E+01-8.12416E-04
 -1     21386-7.24332E-02 1.47363E+01-1.18974E-03
 -1     21387 6.76994E-01 1.22205E+01-4.73326E-04
 -1     21388 1.10951E+00 1.01654E+01-3.56558E-04
 -1     21389 1.30709E+00 8.59533E+00-8.18633E-04
 -1     21390 1.35429E+00 7.01183E+00 4.12312E-04
 -1     21391 1.23897E+00 5.65919E+00 4.00647E-04
 -1     21392 1.00689E+00 4.55603E+00-3.96390E-06
 -1     21393 7.15904E-01 3.67453E+00-9.17337E-05
 -1     21394 4.30003E-01 2.97230E+00 1.47262E-04
 -1     21395 2.00904E-01 2.37800E+00 8.87503E-04
 -1     21396 5.92307E-02 1.76565E+00-1.26714E-03
 -1     21397 1.79548E-02 1.23387E+00-3.24196E-04
 -1     21398 1.04832E-02 5.64520E-01 4.38128E-04
 -1     21399 6.77349E-02 1.83130E+00-2.54787E-04
 -1     21400 1.74465E-01 2.29886E+00 2.18287E-04
 -1     21401 3.85543E-01 2.86665E+00-2.62463E-04
 -1     21402 6.65680E-01 3.54574E+00 4.22013E-04
 -1     21403 9.61927E-01 4.39415E+00 7.08047E-04
 -1     21404 1.20735E+00 5.45920E+00 5.94910E-04
 -1     21405 1.34562E+00 6.77085E+00-4.37496E-04
 -1     21406 1.32370E+00 8.35845E+00 2.81411E-04
 -1     21407 1.06303E+00 1.04376E+01 1.10362E-04
 -1     21408 5.82864E-01 1.25800E+01-8.84527E-04
 -1     21409-7.29222E-02 1.47385E+01 1.97811E-04
 -1     21410-9.75741E-01 1.71403E+01-2.05109E-04
 -1     21411-2.41481E+00 2.03198E+01-6.45240E-04
 -1     21412-3.92134E+00 2.30887E+01-2.92256E-03
 -1     21413-1.77151E+01 2.73778E+01-3.50189E-03
 -1     21414-1.80441E+01 2.74131E+01-4.90949E-03
 -1     21415-1.42923E+01 2.68357E+01 3.60067E-03
 -1     21416-1.06062E+01 2.61690E+01-2.10270E-03
 -1     21417-7.98937E+00 2.57385E+01 2.19087E-03
 -1     21418-6.67099E+00 2.55953E+01 2.44025E-04
 -1     21419-7.46067E+00 2.56808E+01-1.59592E-03
 -1     21420-8.99818E+00 2.58911E+01-3.36853E-03
 -1     21421-1.36004E+01 2.67139E+01 1.57279E-03
 -1     21422-1.24031E+01 2.64939E+01-2.51331E-03
 -1     21423-9.25662E+00 2.59296E+01-2.12102E-03
 -1     21424-1.62094E+01 2.71541E+01-6.31577E-03
 -1     21425-1.56363E+01 2.70677E+01 2.93377E-03
 -1     21426-7.44446E-01 9.06616E-01 2.83416E-02
 -1     21427-7.63197E-01 7.98321E-01-4.31315E-02
 -1     21428-2.04565E+00 1.53435E+00-3.37715E-03
 -1     21429-3.16628E+00 2.15489E+00 1.57679E-03
 -1     21430-4.39450E+00 2.96344E+00 5.69916E-04
 -1     21431-5.78857E+00 4.09883E+00 1.93484E-04
 -1     21432-7.16406E+00 5.42612E+00-2.50348E-04
 -1     21433-8.48968E+00 6.89265E+00-3.77497E-04
 -1     21434-9.87849E+00 8.62444E+00-1.18925E-04
 -1     21435-1.14582E+01 1.08369E+01 1.97251E-04
 -1     21436-1.30830E+01 1.34031E+01-1.86466E-04
 -1     21437-1.47432E+01 1.63482E+01 3.77995E-04
 -1     21438-1.66390E+01 2.01392E+01 2.05470E-03
 -1     21439-1.82251E+01 2.35699E+01 4.52595E-03
 -1     21440-1.90921E+01 2.55545E+01 2.95896E-03
 -1     21441-1.85578E+01 2.43070E+01 3.09757E-03
 -1     21442-1.76040E+01 2.21596E+01-8.94465E-03
 -1     21443-1.48764E+01 1.66079E+01 7.30857E-04
 -1     21444-1.33500E+01 1.38545E+01 5.13283E-04
 -1     21445-1.17259E+01 1.12401E+01-6.45426E-04
 -1     21446-1.01300E+01 8.95875E+00-2.43859E-04
 -1     21447-8.48946E+00 6.89284E+00 9.06073E-04
 -1     21448-6.93655E+00 5.19255E+00 9.81272E-05
 -1     21449-5.57342E+00 3.90965E+00 4.63213E-05
 -1     21450-4.38504E+00 2.95965E+00-1.29887E-04
 -1     21451-3.15640E+00 2.15437E+00-4.92412E-04
 -1     21452-1.88796E+00 1.48533E+00-2.44856E-02
 -1     21453-2.64223E+00 1.86175E+00 4.52635E-03
 -1     21454-3.70322E+00 2.48804E+00-1.20816E-03
 -1     21455-1.40076E+00 1.21857E+00 1.72894E-02
 -1     21456-5.11492E+00 3.52365E+00-4.60613E-04
 -1     21457-6.46912E+00 4.72984E+00 6.69724E-05
 -1     21458-7.86369E+00 6.17796E+00-1.63661E-04
 -1     21459-9.12999E+00 7.66688E+00 2.23029E-04
 -1     21460-1.06601E+01 9.68603E+00 5.29090E-05
 -1     21461-1.22670E+01 1.20771E+01-1.14170E-04
 -1     21462-1.39050E+01 1.48217E+01-1.43927E-04
 -1     21463-1.56368E+01 1.80773E+01 1.70545E-03
 -1     21464-1.74297E+01 2.18284E+01-3.29473E-03
 -1     21465-1.09222E+01 1.00576E+01-7.14820E-04
 -1     21466-1.41480E+01 1.52550E+01-1.13912E-03
 -1     21467-1.25373E+01 1.25084E+01-6.86497E-04
 -1     21468-9.34027E+00 7.92948E+00-3.86853E-04
 -1     21469-7.66371E+00 5.95843E+00-2.09980E-04
 -1     21470-6.24305E+00 4.51475E+00 4.74331E-04
 -1     21471-4.93511E+00 3.37788E+00 1.89201E-04
 -1     21472-3.83545E+00 2.57539E+00-5.34943E-04
 -1     21473-2.47755E+00 1.77763E+00 3.60912E-03
 -1     21474-1.35820E+00 1.19950E+00-2.21584E-02
 -1     21475 0.00000E+00 0.00000E+00 0.00000E+00
 -1     21476 0.00000E+00 0.00000E+00 0.00000E+00
 -1     21477 0.00000E+00 0.00000E+00 0.00000E+00
 -1     21478 0.00000E+00 0.00000E+00 0.00000E+00
 -1     21479 0.00000E+00 0.00000E+00 0.00000E+00
 -1     21480 0.00000E+00 0.00000E+00 0.00000E+00
 -1     21481 0.00000E+00 0.00000E+00 0.00000E+00
 -1     21482 0.00000E+00 0.00000E+00 0.00000E+00
 -1     21483 0.00000E+00 0.00000E+00 0.00000E+00
 -1     21484 0.00000E+00 0.00000E+00 0.00000E+00
 -1     21485 0.00000E+00 0.00000E+00 0.00000E+00
 -1     21486 0.00000E+00 0.00000E+00 0.00000E+00
 -1     21487 0.00000E+00 0.00000E+00 0.00000E+00
 -1     21488 0.00000E+00 0.00000E+00 0.00000E+00
 -1     21489 0.00000E+00 0.00000E+00 0.00000E+00
 -1     21490 0.00000E+00 0.00000E+00 0.00000E+00
 -1     21491 0.00000E+00 0.00000E+00 0.00000E+00
 -1     21492 0.00000E+00 0.00000E+00 0.00000E+00
 -1     21493 0.00000E+00 0.00000E+00 0.00000E+00
 -1     21494 0.00000E+00 0.00000E+00 0.00000E+00
 -1     21495 0.00000E+00 0.00000E+00 0.00000E+00
 -1     21496 0.00000E+00 0.00000E+00 0.00000E+00
 -1     21497 0.00000E+00 0.00000E+00 0.00000E+00
 -1     21498 0.00000E+00 0.00000E+00 0.00000E+00
 -1     21499 0.00000E+00 0.00000E+00 0.00000E+00
 -1     21500 0.00000E+00 0.00000E+00 0.00000E+00
 -1     21501 0.00000E+00 0.00000E+00 0.00000E+00
 -1     21502 0.00000E+00 0.00000E+00 0.00000E+00
 -1     21503 0.00000E+00 0.00000E+00 0.00000E+00
 -1     21504 0.00000E+00 0.00000E+00 0.00000E+00
 -1     21505 0.00000E+00 0.00000E+00 0.00000E+00
 -1     21506 0.00000E+00 0.00000E+00 0.00000E+00
 -1     21507 0.00000E+00 0.00000E+00 0.00000E+00
 -1     21508 0.00000E+00 0.00000E+00 0.00000E+00
 -1     21509 0.00000E+00 0.00000E+00 0.00000E+00
 -1     21510 0.00000E+00 0.00000E+00 0.00000E+00
 -1     21511 0.00000E+00 0.00000E+00 0.00000E+00
 -1     21512 0.00000E+00 0.00000E+00 0.00000E+00
 -1     21513 0.00000E+00 0.00000E+00 0.00000E+00
 -1     21514 0.00000E+00 0.00000E+00 0.00000E+00
 -1     21515 0.00000E+00 0.00000E+00 0.00000E+00
 -1     21516-7.72326E+00 2.33401E+01 1.52240E-03
 -1     21517-1.59202E+01 2.51296E+01-4.31801E-03
 -1     21518-5.21326E+00 4.70043E+00-4.63194E-05
 -1     21519 5.54374E-01 2.48151E+00 1.94608E-04
 -1     21520 7.83047E-01 9.54749E+00 9.93570E-04
 -1     21521-2.02054E-01 1.14422E+01-1.66303E-05
 -1     21522-4.25116E+00 3.41587E+00-2.15896E-04
 -1     21523-6.63201E+00 6.15004E+00 4.13374E-04
 -1     21524-7.65105E+00 7.89429E+00-6.25015E-04
 -1     21525-9.50638E+00 1.04767E+01-8.62947E-04
 -1     21526 6.45284E-02 1.80884E-01-1.35519E-03
 -1     21527 9.20826E-02 4.01819E-01 7.93450E-04
 -1     21528 3.55613E-03 4.54121E-01-5.05956E-04
 -1     21529-6.53017E-01 1.24520E+01 1.54650E-03
 -1     21530 9.87434E-01 3.64582E+00-4.73312E-04
 -1     21531 1.16796E+00 4.38917E+00-3.54974E-04
 -1     21532 1.23737E+00 5.51449E+00-8.93936E-04
 -1     21533 1.16576E+00 7.25507E+00 4.43700E-04
 -1     21534 2.37964E-01 1.02847E+01 7.93422E-04
 -1     21535-1.85608E+00 1.48035E+00-5.06006E-03
 -1     21536 2.60901E-02 8.08144E-01 1.88139E-04
 -1     21537-2.52357E+00 1.71564E+01 4.64188E-04
 -1     21538-6.36789E-01 6.21200E-01-1.17266E-02
 -1     21539-4.73838E+00 1.66682E+01 1.28404E-03
 -1     21540 2.93440E-01 1.28978E+00-7.14759E-05
 -1     21541-5.41042E-01 6.74027E-01 5.71986E-04
 -1     21542-7.04782E+00 1.26519E+01-4.89353E-04
 -1     21543-9.78580E-01 1.50991E+00-1.22332E-03
 -1     21544 6.27369E-01 1.69540E+00-2.45380E-04
 -1     21545 6.14752E-01 1.93884E+00 1.30802E-04
 -1     21546-3.15120E-01 1.40892E+00 8.65399E-04
 -1     21547-2.31686E+00 6.21728E+00-8.03696E-04
 -1     21548-2.18100E+00 5.07326E+00 8.57191E-04
 -1     21549 1.74119E-01 2.76098E+00 3.29878E-04
 -1     21550-5.56667E-01 2.35607E+00-9.25286E-04
 -1     21551-1.09640E+01 2.43874E+01 3.28481E-03
 -1     21552-1.78198E+01 2.56577E+01 4.93306E-03
 -1     21553 6.43171E-01 1.09725E+01 1.09013E-06
 -1     21554 3.87607E-01 2.62982E+00 5.04843E-04
 -1     21555 3.28907E-03 3.31928E-01 1.90594E-04
 -1     21556-5.51758E+00 4.38121E+00 1.47501E-04
 -1     21557-4.88045E-01 1.42530E+01-1.56191E-05
 -1     21558-3.04440E+00 2.10700E+00-2.23591E-04
 -1     21559-4.29860E+00 2.20744E+01-4.67718E-04
 -1     21560 9.01877E-01 3.84857E+00 2.01001E-04
 -1     21561 1.47286E-02 3.31633E-01-8.25021E-04
 -1     21562-3.85160E-03-8.91799E-02 3.83853E-03
 -1     21563 8.36665E-03-1.71410E-02 3.25836E-03
 -1     21564 1.27065E+00 7.83017E+00-1.67512E-05
 -1     21565 1.27832E+00 5.55360E+00-9.46675E-04
 -1     21566-3.08776E+00 1.93642E+01 1.08831E-03
 -1     21567-1.73145E+01 2.49279E+01-1.27276E-02
 -1     21568 1.99149E-03 2.86058E-01-7.34659E-05
 -1     21569 1.57371E-01 2.04463E+00-1.60373E-04
 -1     21570 5.98989E-01 3.06753E+00 1.87416E-04
 -1     21571 1.11362E+00 4.46925E+00-7.57284E-04
 -1     21572 6.68404E-05-3.72512E-02-4.34741E-04
 -1     21573-3.13211E+00 2.28591E+00 1.18431E-04
 -1     21574-4.81027E-02 2.03374E-01 9.64498E-03
 -1     21575-6.37209E+00 5.15926E+00 5.95000E-05
 -1     21576-1.36394E+01 1.52003E+01 2.33860E-04
 -1     21577-5.91910E+00 2.37612E+01-3.31117E-04
 -1     21578 8.54689E-01 3.68186E+00-6.70049E-04
 -1     21579 1.17983E+00 4.88860E+00-1.67088E-04
 -1     21580 5.63200E-02 1.57591E+00 4.36840E-04
 -1     21581 1.30969E+00 6.08167E+00-3.36692E-04
 -1     21582-1.53745E+00 1.28552E+00-2.91294E-03
 -1     21583 7.56408E-01 1.07228E+01-8.74522E-05
 -1     21584-1.02581E+01 1.00250E+01-7.22581E-04
 -1     21585 1.30055E+00 6.75859E+00 3.03114E-04
 -1     21586 4.71669E-03 1.52163E-01 4.23130E-04
 -1     21587-7.99260E+00 2.47819E+01-3.86152E-04
 -1     21588 2.16573E-02 1.15415E+00-2.37323E-04
 -1     21589-1.67186E+01 2.20888E+01-1.99000E-03
 -1     21590-4.47466E+00 3.18993E+00 2.29669E-04
 -1     21591-3.87300E-02 3.47662E-02-2.69772E-03
 -1     21592 1.40825E-02 4.21110E-02-1.83972E-04
 -1     21593 2.20378E-02 2.40502E-01 1.23009E-03
 -1     21594 1.25199E-03 1.92950E-01 2.07470E-04
 -1     21595 2.04371E-02 1.83886E-01 5.54552E-04
 -1     21596-4.71790E+00 3.41416E+00-1.42038E-04
 -1     21597-8.56433E+00 7.65275E+00-1.88778E-04
 -1     21598-1.26057E+00 1.66550E+01 8.36740E-05
 -1     21599 5.73699E-01 2.80329E+00-3.54795E-04
 -1     21600-2.22535E+00 1.65892E+00-2.04430E-04
 -1     21601 1.04750E+00 9.57208E+00-2.53432E-04
 -1     21602-1.46835E+01 1.81737E+01 1.89988E-03
 -1     21603 1.15345E-01 1.86088E+00 6.22924E-04
 -1     21604-1.31487E+00 1.18209E+00-4.72246E-04
 -1     21605-7.34772E+00 6.10101E+00 1.33086E-06
 -1     21606 1.67984E-02 6.47039E-02-2.11114E-04
 -1     21607-6.66212E-01 1.51443E+01-2.74417E-04
 -1     21608-1.37768E+01 2.57917E+01 1.21512E-04
 -1     21609 3.68673E-03 2.99769E-01 5.40358E-04
 -1     21610-1.08953E+01 1.16217E+01-8.78108E-04
 -1     21611-1.00413E-01 1.30589E+01 2.62874E-04
 -1     21612 3.55098E-03-2.88915E-02 1.01847E-03
 -1     21613-6.81723E+00 2.43758E+01 6.58099E-04
 -1     21614-1.87765E+00 1.78054E+01-8.57611E-05
 -1     21615-9.65487E+00 9.51577E+00-2.30585E-04
 -1     21616 1.35758E-03-4.15252E-02 4.04730E-04
 -1     21617 5.00459E-01 2.83486E+00 6.80411E-04
 -1     21618 2.27079E-01 1.19755E+01-8.28574E-05
 -1     21619 3.95397E-03 1.51406E-01 7.01222E-04
 -1     21620-2.56295E-02-5.27199E-02-2.11765E-03
 -1     21621-3.34598E+00 2.00022E+01 2.30881E-03
 -1     21622-2.51529E+00 1.85111E+00 1.78025E-03
 -1     21623 1.49546E-03 1.65100E-01 3.13519E-04
 -1     21624-5.66092E+00 2.40440E+01 4.88054E-04
 -1     21625 2.82382E-01 2.41275E+00 8.30492E-04
 -1     21626 9.86958E-01 4.08786E+00 3.57484E-04
 -1     21627 2.57721E-03-8.82131E-02-8.51931E-04
 -1     21628 1.30103E+00 7.00920E+00-2.80649E-04
 -1     21629-3.84810E+00 2.67545E+00 2.07184E-04
 -1     21630-8.28459E-01 1.58003E+01-2.30516E-04
 -1     21631-9.11800E+00 2.43126E+01-3.91134E-03
 -1     21632 1.19711E+00 8.85529E+00-1.36543E-04
 -1     21633-4.91542E+00 2.32881E+01-2.44632E-03
 -1     21634-1.27030E+01 1.40024E+01-3.12017E-04
 -1     21635 1.08105E+00 4.30569E+00 3.24026E-04
 -1     21636 4.55493E-03-5.58920E-02 3.15802E-04
 -1     21637-2.32404E+00 1.70922E+00-1.18093E-03
 -1     21638 2.77675E-02 1.22243E+00-4.32635E-04
 -1     21639 4.83590E-02 1.46963E+00 1.74520E-04
 -1     21640-1.59338E+01 2.08342E+01-1.88432E-03
 -1     21641-1.39793E+01 1.60301E+01 8.11099E-04
 -1     21642-1.11590E+01 1.14039E+01 7.35921E-05
 -1     21643-1.60200E+01 2.60807E+01-3.84531E-03
 -1     21644-8.83585E-01 9.67651E-01-2.05524E-02
 -1     21645-1.73259E+00 1.39239E+00-3.90157E-03
 -1     21646 1.00859E+00 9.76409E+00 5.66919E-04
 -1     21647-5.30858E+00 4.12891E+00-2.56706E-04
 -1     21648 1.39917E-02 4.09567E-01 4.80197E-04
 -1     21649 1.26207E+00 5.36968E+00 5.16810E-04
 -1     21650-1.48364E+01 1.81528E+01 5.23402E-07
 -1     21651 8.24515E-03 3.28288E-03 1.66850E-03
 -1     21652 5.24816E-03-8.46747E-02 6.92658E-04
 -1     21653-6.51943E+00 5.25350E+00 1.30543E-04
 -1     21654 1.51996E-03 1.55096E-01 7.72314E-04
 -1     21655-7.84728E+00 6.85288E+00 4.95615E-04
 -1     21656-5.86199E-02 1.10679E-01-6.63444E-03
 -1     21657-1.25499E+01 1.46921E+01-3.14273E-03
 -1     21658 7.65838E-01 3.49446E+00 1.46152E-04
 -1     21659 4.56766E-01 2.77104E+00-8.16187E-04
 -1     21660-1.24333E+01 2.47838E+01 2.99691E-03
 -1     21661 6.76207E-03 1.44746E-01 6.40362E-04
 -1     21662 1.59584E-02 1.09926E-01-7.11478E-04
 -1     21663 2.29892E-03 3.09110E-01-3.05177E-04
 -1     21664-1.07066E+01 1.07731E+01 6.80903E-05
 -1     21665 3.93209E-03 6.01580E-01 5.23705E-04
 -1     21666-3.21515E+00 2.30312E+00 1.39707E-03
 -1     21667 3.13543E-01 1.20194E+01-6.78487E-05
 -1     21668-1.09212E+00 1.65807E+01-8.87326E-05
 -1     21669 1.98655E-02 1.85304E-01 1.67864E-03
 -1     21670-4.73712E-01 1.42109E+01-4.01854E-04
 -1     21671 1.87062E-02 1.24341E-01 8.82152E-04
 -1     21672-4.60133E+00 2.30767E+01 7.68255E-04
 -1     21673 1.88253E-01 2.04948E+00 2.81335E-04
 -1     21674 1.29338E+00 6.24313E+00-3.77951E-04
 -1     21675-1.38681E+01 2.52236E+01 2.55936E-03
 -1     21676-1.42407E+01 1.70087E+01 6.57941E-04
 -1     21677 3.04833E-01 2.48345E+00 7.21649E-05
 -1     21678 1.77417E-03 1.69552E-01 3.73361E-05
 -1     21679-1.07792E+00 1.06426E+00 3.97617E-03
 -1     21680-1.79636E+01 2.58261E+01 3.79165E-03
 -1     21681-3.87816E+00 2.18354E+01-9.40568E-04
 -1     21682-7.27450E-03-2.79775E-02-2.71797E-03
 -1     21683-3.97426E+00 2.77793E+00 3.85884E-04
 -1     21684 1.21133E+00 5.05785E+00 9.33048E-04
 -1     21685 6.81873E-01 3.14406E+00 4.96210E-04
 -1     21686 4.31891E-03-4.66297E-02 1.71670E-03
 -1     21687 9.29031E-02 1.81671E+00-8.81998E-04
 -1     21688 4.62362E-04 1.30137E-01-2.39588E-05
 -1     21689-9.13731E+00 2.45949E+01 4.69895E-04
 -1     21690-2.65177E+00 1.92340E+01 7.55703E-04
 -1     21691 2.24787E-03 1.20806E-01 6.62999E-04
 -1     21692-3.16398E-02 1.33631E-01 1.97897E-02
 -1     21693 1.34864E-04 2.34437E-01 1.92977E-04
 -1     21694-1.54016E+01 1.95794E+01-1.87308E-03
 -1     21695-9.18551E+00 8.60141E+00 2.31770E-04
 -1     21696 3.55855E-03 1.26131E-01-1.21676E-03
 -1     21697-5.98833E+00 4.69084E+00 1.33189E-05
 -1     21698 1.01460E-03-1.06326E-01 2.74669E-03
 -1     21699-1.68074E+01 2.35634E+01 1.98033E-03
 -1     21700 1.16495E+00 8.81240E+00 1.71791E-04
 -1     21701 2.15411E-03-1.22889E-02 1.08848E-03
 -1     21702-1.30743E+01 1.45757E+01-7.50653E-04
 -1     21703-4.82638E-03 7.00866E-02 4.11516E-03
 -1     21704-7.73823E-01 8.98328E-01 6.57501E-04
 -1     21705-5.51376E-03-7.03199E-02-1.60060E-04
 -1     21706 5.34621E-03-3.67928E-02-2.41945E-04
 -1     21707 2.36062E-01 2.32122E+00-9.47953E-05
 -1     21708-1.33752E+01 1.54921E+01-2.52315E-04
 -1     21709 3.56819E-03 6.39881E-01-5.75938E-05
 -1     21710-5.70849E-03-8.70038E-03 5.57405E-03
 -1     21711-1.65091E+01 2.14346E+01-3.16453E-03
 -1     21712-1.00415E+01 2.46937E+01 6.98042E-05
 -1     21713-1.20539E+01 1.34941E+01-6.27299E-04
 -1     21714 1.68708E-02 2.86139E-01-2.81585E-03
 -1     21715 9.16423E-03 1.61964E-02-1.60180E-04
 -1     21716-1.19346E+01 1.27887E+01 1.52159E-04
 -1     21717 1.36082E-02 1.92855E-01 1.16053E-03
 -1     21718-1.41341E-01 4.89222E-01-1.44270E-02
 -1     21719-1.39127E+01 1.68203E+01-1.40764E-03
 -1     21720-1.82217E+01 2.63995E+01 4.06124E-04
 -1     21721-3.21805E+00 2.06684E+01 6.51433E-04
 -1     21722-1.19660E+01 2.54164E+01 2.54803E-03
 -1     21723-1.20776E+01 1.24623E+01-4.55011E-04
 -1     21724 6.05814E-03 1.39049E-01-1.03987E-03
 -1     21725 2.49520E-04 2.17404E-01 3.61583E-04
 -1     21726 6.73843E-02 1.49716E+00-7.49744E-04
 -1     21727-2.19042E-01 4.45942E-01-8.34065E-03
 -1     21728-1.54657E+01 1.94008E+01-8.32538E-04
 -1     21729-1.25256E+01 1.32826E+01-5.87219E-05
 -1     21730-1.35838E+01 1.75268E+01-7.68508E-04
 -1     21731-1.63353E+01 2.28061E+01 1.35120E-03
 -1     21732-3.65758E+00 1.54716E+01 6.33590E-04
 -1     21733-3.12027E+00 7.13839E+00 9.08668E-05
 -1     21734-8.72060E+00 1.31291E+01 2.65860E-03
 -1     21735-1.27634E-01 2.03645E-01 9.45189E-03
 -1     21736-3.22064E-02-1.09025E-02-8.52646E-03
 -1     21737 1.03110E-02-2.84078E-02 1.30067E-03
 -1     21738-5.53346E+00 2.55326E+01-1.34031E-03
 -1     21739-5.53057E+00 2.55307E+01-3.06367E-03
 -1     21740-5.52767E+00 2.55304E+01-9.69841E-04
 -1     21741 0.00000E+00 0.00000E+00 0.00000E+00
 -1     21742 0.00000E+00 0.00000E+00 0.00000E+00
 -1     21743 0.00000E+00 0.00000E+00 0.00000E+00
 -1     21744-4.97537E+00 2.47420E+01 0.00000E+00
 -1     21745-3.97581E+00 2.31858E+01 0.00000E+00
 -1     21746-3.10123E+00 2.16432E+01 0.00000E+00
 -1     21747-2.33192E+00 2.01500E+01 0.00000E+00
 -1     21748-1.64978E+00 1.87068E+01 0.00000E+00
 -1     21749-1.04743E+00 1.73217E+01 0.00000E+00
 -1     21750-5.23967E-01 1.59981E+01 0.00000E+00
 -1     21751-7.03593E-02 1.47335E+01 0.00000E+00
 -1     21752 3.13944E-01 1.35327E+01 0.00000E+00
 -1     21753 6.31510E-01 1.23933E+01 0.00000E+00
 -1     21754 8.87159E-01 1.13183E+01 0.00000E+00
 -1     21755 1.08572E+00 1.03062E+01 0.00000E+00
 -1     21756 1.22735E+00 9.35682E+00 0.00000E+00
 -1     21757 1.31647E+00 8.46937E+00 0.00000E+00
 -1     21758 1.35673E+00 7.64697E+00 0.00000E+00
 -1     21759 1.34972E+00 6.88807E+00 0.00000E+00
 -1     21760 1.30444E+00 6.19234E+00 0.00000E+00
 -1     21761 1.22373E+00 5.55915E+00 0.00000E+00
 -1     21762 1.11498E+00 4.98724E+00 0.00000E+00
 -1     21763 9.84876E-01 4.47416E+00 0.00000E+00
 -1     21764 8.40779E-01 4.01677E+00 0.00000E+00
 -1     21765 6.90826E-01 3.60965E+00 0.00000E+00
 -1     21766 5.45125E-01 3.24631E+00 0.00000E+00
 -1     21767 4.06471E-01 2.91924E+00 0.00000E+00
 -1     21768 2.85713E-01 2.61913E+00 0.00000E+00
 -1     21769 1.86423E-01 2.33646E+00 0.00000E+00
 -1     21770 1.12377E-01 2.06177E+00 0.00000E+00
 -1     21771 6.22094E-02 1.78679E+00 0.00000E+00
 -1     21772 3.39820E-02 1.49909E+00 0.00000E+00
 -1     21773 1.86791E-02 1.19606E+00 0.00000E+00
 -1     21774 1.51631E-02 8.73547E-01 0.00000E+00
 -1     21775 1.19318E-02 5.37094E-01 0.00000E+00
 -1     21776 2.43049E-03 1.87796E-01 0.00000E+00
 -1     21777-4.97478E+00 2.47338E+01 0.00000E+00
 -1     21778-3.97471E+00 2.31841E+01 0.00000E+00
 -1     21779-3.10121E+00 2.16448E+01 0.00000E+00
 -1     21780-2.33059E+00 2.01507E+01 0.00000E+00
 -1     21781-1.64737E+00 1.87058E+01 0.00000E+00
 -1     21782-1.04665E+00 1.73207E+01 0.00000E+00
 -1     21783-5.23396E-01 1.59967E+01 0.00000E+00
 -1     21784-7.01982E-02 1.47338E+01 0.00000E+00
 -1     21785 3.13193E-01 1.35319E+01 0.00000E+00
 -1     21786 6.32164E-01 1.23937E+01 0.00000E+00
 -1     21787 8.88605E-01 1.13178E+01 0.00000E+00
 -1     21788 1.08588E+00 1.03059E+01 0.00000E+00
 -1     21789 1.22768E+00 9.35517E+00 0.00000E+00
 -1     21790 1.31682E+00 8.46959E+00 0.00000E+00
 -1     21791 1.35661E+00 7.64709E+00 0.00000E+00
 -1     21792 1.35090E+00 6.88870E+00 0.00000E+00
 -1     21793 1.30573E+00 6.19170E+00 0.00000E+00
 -1     21794 1.22307E+00 5.55985E+00 0.00000E+00
 -1     21795 1.11503E+00 4.98709E+00 0.00000E+00
 -1     21796 9.83933E-01 4.47461E+00 0.00000E+00
 -1     21797 8.40744E-01 4.01755E+00 0.00000E+00
 -1     21798 6.90925E-01 3.61135E+00 0.00000E+00
 -1     21799 5.45513E-01 3.24698E+00 0.00000E+00
 -1     21800 4.08084E-01 2.91953E+00 0.00000E+00
 -1     21801 2.86763E-01 2.62001E+00 0.00000E+00
 -1     21802 1.88970E-01 2.33803E+00 0.00000E+00
 -1     21803 1.11834E-01 2.06399E+00 0.00000E+00
 -1     21804 6.03456E-02 1.78617E+00 0.00000E+00
 -1     21805 3.31421E-02 1.49896E+00 0.00000E+00
 -1     21806 1.96939E-02 1.19565E+00 0.00000E+00
 -1     21807 1.59865E-02 8.73436E-01 0.00000E+00
 -1     21808 1.15923E-02 5.37752E-01 0.00000E+00
 -1     21809 2.50665E-03 1.86776E-01 0.00000E+00
 -1     21810-1.98467E+01 2.75283E+01-6.56812E-03
 -1     21811-1.98527E+01 2.75521E+01 2.71428E-03
 -1     21812-1.98338E+01 2.75377E+01-5.72807E-03
 -1     21813-1.84438E+01 2.74468E+01 0.00000E+00
 -1     21814-1.61536E+01 2.71474E+01 0.00000E+00
 -1     21815-1.41988E+01 2.68201E+01 0.00000E+00
 -1     21816-1.24289E+01 2.64967E+01 0.00000E+00
 -1     21817-1.08067E+01 2.61965E+01 0.00000E+00
 -1     21818-9.28281E+00 2.59361E+01 0.00000E+00
 -1     21819-7.81825E+00 2.57243E+01 0.00000E+00
 -1     21820-6.33009E+00 2.55753E+01 0.00000E+00
 -1     21821-1.84760E+01 2.74170E+01 0.00000E+00
 -1     21822-1.61672E+01 2.71531E+01 0.00000E+00
 -1     21823-1.41923E+01 2.68274E+01 0.00000E+00
 -1     21824-1.24322E+01 2.65039E+01 0.00000E+00
 -1     21825-1.08028E+01 2.62051E+01 0.00000E+00
 -1     21826-9.28392E+00 2.59410E+01 0.00000E+00
 -1     21827-7.81526E+00 2.57272E+01 0.00000E+00
 -1     21828-6.33311E+00 2.55723E+01 0.00000E+00
 -1     21829 0.00000E+00 0.00000E+00 0.00000E+00
 -1     21830 0.00000E+00 0.00000E+00 0.00000E+00
 -1     21831 0.00000E+00 0.00000E+00 0.00000E+00
 -1     21832-5.97682E-01 6.52220E-01 0.00000E+00
 -1     21833-1.33144E+00 1.17402E+00 0.00000E+00
 -1     21834-1.92747E+00 1.50087E+00 0.00000E+00
 -1     21835-2.54312E+00 1.81551E+00 0.00000E+00
 -1     21836-3.15379E+00 2.15120E+00 0.00000E+00
 -1     21837-3.76568E+00 2.53190E+00 0.00000E+00
 -1     21838-4.39213E+00 2.96456E+00 0.00000E+00
 -1     21839-5.03037E+00 3.45566E+00 0.00000E+00
 -1     21840-5.68494E+00 4.00683E+00 0.00000E+00
 -1     21841-6.35749E+00 4.62243E+00 0.00000E+00
 -1     21842-7.04887E+00 5.30706E+00 0.00000E+00
 -1     21843-7.75959E+00 6.06288E+00 0.00000E+00
 -1     21844-8.48987E+00 6.89390E+00 0.00000E+00
 -1     21845-9.24046E+00 7.80375E+00 0.00000E+00
 -1     21846-1.00085E+01 8.79731E+00 0.00000E+00
 -1     21847-1.07942E+01 9.87417E+00 0.00000E+00
 -1     21848-1.15919E+01 1.10399E+01 0.00000E+00
 -1     21849-1.24042E+01 1.22943E+01 0.00000E+00
 -1     21850-1.32244E+01 1.36421E+01 0.00000E+00
 -1     21851-1.40495E+01 1.50807E+01 0.00000E+00
 -1     21852-1.48820E+01 1.66124E+01 0.00000E+00
 -1     21853-1.57182E+01 1.82415E+01 0.00000E+00
 -1     21854-1.65696E+01 1.99703E+01 0.00000E+00
 -1     21855-1.74300E+01 2.18258E+01 0.00000E+00
 -1     21856-1.83584E+01 2.38406E+01 0.00000E+00
 -1     21857-1.93230E+01 2.61707E+01 0.00000E+00
 -1     21858-4.81605E-01 6.54881E-01 0.00000E+00
 -1     21859-1.30445E+00 1.19304E+00 0.00000E+00
 -1     21860-1.94033E+00 1.49705E+00 0.00000E+00
 -1     21861-2.54680E+00 1.81060E+00 0.00000E+00
 -1     21862-3.15600E+00 2.14768E+00 0.00000E+00
 -1     21863-3.76764E+00 2.53365E+00 0.00000E+00
 -1     21864-4.39207E+00 2.96466E+00 0.00000E+00
 -1     21865-5.03056E+00 3.45531E+00 0.00000E+00
 -1     21866-5.68456E+00 4.00657E+00 0.00000E+00
 -1     21867-6.35740E+00 4.62258E+00 0.00000E+00
 -1     21868-7.04872E+00 5.30681E+00 0.00000E+00
 -1     21869-7.75971E+00 6.06201E+00 0.00000E+00
 -1     21870-8.49044E+00 6.89435E+00 0.00000E+00
 -1     21871-9.23984E+00 7.80471E+00 0.00000E+00
 -1     21872-1.00080E+01 8.79638E+00 0.00000E+00
 -1     21873-1.07939E+01 9.87381E+00 0.00000E+00
 -1     21874-1.15934E+01 1.10391E+01 0.00000E+00
 -1     21875-1.24061E+01 1.22941E+01 0.00000E+00
 -1     21876-1.32265E+01 1.36385E+01 0.00000E+00
 -1     21877-1.40557E+01 1.50817E+01 0.00000E+00
 -1     21878-1.48792E+01 1.66120E+01 0.00000E+00
 -1     21879-1.57130E+01 1.82419E+01 0.00000E+00
 -1     21880-1.65594E+01 1.99665E+01 0.00000E+00
 -1     21881-1.74311E+01 2.18204E+01 0.00000E+00
 -1     21882-1.83379E+01 2.38448E+01 0.00000E+00
 -1     21883-1.93064E+01 2.61712E+01 0.00000E+00
 -1     21884 0.00000E+00 0.00000E+00 0.00000E+00
 -1     21885 0.00000E+00 0.00000E+00 0.00000E+00
 -1     21886 0.00000E+00 0.00000E+00 0.00000E+00
 -1     21887 0.00000E+00 0.00000E+00 0.00000E+00
 -1     21888 0.00000E+00 0.00000E+00 0.00000E+00
 -1     21889 0.00000E+00 0.00000E+00 0.00000E+00
 -1     21890 0.00000E+00 0.00000E+00 0.00000E+00
 -1     21891 0.00000E+00 0.00000E+00 0.00000E+00
 -1     21892 0.00000E+00 0.00000E+00 0.00000E+00
 -1     21893 0.00000E+00 0.00000E+00 0.00000E+00
 -1     21894 0.00000E+00 0.00000E+00 0.00000E+00
 -1     21895 0.00000E+00 0.00000E+00 0.00000E+00
 -1     21896 0.00000E+00 0.00000E+00 0.00000E+00
 -1     21897 0.00000E+00 0.00000E+00 0.00000E+00
 -1     21898 0.00000E+00 0.00000E+00 0.00000E+00
 -1     21899 0.00000E+00 0.00000E+00 0.00000E+00
 -1     21900 0.00000E+00 0.00000E+00 0.00000E+00
 -1     21901 0.00000E+00 0.00000E+00 0.00000E+00
 -1     21902 0.00000E+00 0.00000E+00 0.00000E+00
 -1     21903 0.00000E+00 0.00000E+00 0.00000E+00
 -1     21904 0.00000E+00 0.00000E+00 0.00000E+00
 -1     21905 0.00000E+00 0.00000E+00 0.00000E+00
 -1     21906 0.00000E+00 0.00000E+00 0.00000E+00
 -1     21907 0.00000E+00 0.00000E+00 0.00000E+00
 -1     21908 0.00000E+00 0.00000E+00 0.00000E+00
 -1     21909 0.00000E+00 0.00000E+00 0.00000E+00
 -1     21910 0.00000E+00 0.00000E+00 0.00000E+00
 -1     21911 0.00000E+00 0.00000E+00 0.00000E+00
 -1     21912 0.00000E+00 0.00000E+00 0.00000E+00
 -1     21913 0.00000E+00 0.00000E+00 0.00000E+00
 -1     21914 0.00000E+00 0.00000E+00 0.00000E+00
 -1     21915 0.00000E+00 0.00000E+00 0.00000E+00
 -1     21916 0.00000E+00 0.00000E+00 0.00000E+00
 -1     21917 0.00000E+00 0.00000E+00 0.00000E+00
 -1     21918 0.00000E+00 0.00000E+00 0.00000E+00
 -1     21919 0.00000E+00 0.00000E+00 0.00000E+00
 -1     21920 0.00000E+00 0.00000E+00 0.00000E+00
 -1     21921 0.00000E+00 0.00000E+00 0.00000E+00
 -1     21922 0.00000E+00 0.00000E+00 0.00000E+00
 -1     21923 0.00000E+00 0.00000E+00 0.00000E+00
 -1     21924 0.00000E+00 0.00000E+00 0.00000E+00
 -1     21925 0.00000E+00 0.00000E+00 0.00000E+00
 -1     21926 0.00000E+00 0.00000E+00 0.00000E+00
 -1     21927 0.00000E+00 0.00000E+00 0.00000E+00
 -1     21928-4.96596E+00 2.47447E+01 6.40275E-03
 -1     21929-5.07573E+00 2.49051E+01 1.40594E-03
 -1     21930-5.07875E+00 2.49027E+01 2.05734E-03
 -1     21931-5.12783E+00 2.49759E+01 1.35388E-03
 -1     21932-5.12511E+00 2.49796E+01 9.55252E-04
 -1     21933-4.70269E+00 2.43589E+01-2.50717E-03
 -1     21934-4.59789E+00 2.41901E+01-4.65609E-03
 -1     21935-2.83156E+00 2.11398E+01 9.18906E-04
 -1     21936-3.23985E+00 2.18974E+01-1.52095E-04
 -1     21937-1.48762E+00 1.83507E+01-4.89755E-06
 -1     21938-1.80864E+00 1.90581E+01 7.81392E-04
 -1     21939-4.34632E-01 1.57606E+01 8.50113E-04
 -1     21940-6.80999E-01 1.64091E+01 6.62395E-04
 -1     21941 4.19871E-01 1.31661E+01 1.60629E-04
 -1     21942 2.46788E-01 1.37494E+01 6.79060E-04
 -1     21943 9.60537E-01 1.09751E+01-2.72165E-04
 -1     21944 8.48672E-01 1.14942E+01-4.46329E-04
 -1     21945 1.25472E+00 9.12835E+00 5.52438E-05
 -1     21946 1.19725E+00 9.58733E+00 3.37040E-04
 -1     21947 1.35693E+00 7.51698E+00 5.00983E-04
 -1     21948 1.34898E+00 7.91407E+00-3.26878E-04
 -1     21949 1.29425E+00 6.08328E+00-1.63746E-04
 -1     21950 1.32448E+00 6.41703E+00-5.72546E-04
 -1     21951 1.09524E+00 4.89876E+00 2.33392E-04
 -1     21952 1.15404E+00 5.17173E+00-2.64167E-04
 -1     21953 8.16708E-01 3.94572E+00-1.05807E-04
 -1     21954 8.90284E-01 4.16364E+00 8.11343E-05
 -1     21955 5.21593E-01 3.18975E+00 5.63692E-04
 -1     21956 5.92310E-01 3.36442E+00-1.01932E-03
 -1     21957 2.68452E-01 2.57113E+00 2.60159E-04
 -1     21958 3.24850E-01 2.71694E+00-4.51587E-04
 -1     21959 9.57206E-02 1.99662E+00 1.78021E-03
 -1     21960 1.28043E-01 2.13459E+00-7.61904E-04
 -1     21961 2.93949E-02 1.42822E+00-6.25088E-04
 -1     21962 3.75758E-02 1.57702E+00 4.14296E-05
 -1     21963 1.44455E-02 7.91218E-01-3.78630E-04
 -1     21964 1.68309E-02 9.56175E-01 7.21667E-04
 -1     21965 3.17526E-03 1.89377E-01 1.12006E-04
 -1     21966 2.39373E-03 1.52549E-01 3.12829E-04
 -1     21967 2.65508E-03 1.53448E-01 2.71714E-04
 -1     21968 2.90811E-03 1.88187E-01 2.45788E-04
 -1     21969 1.16862E-02 6.36862E-01 4.24277E-04
 -1     21970 8.85523E-03 4.65036E-01 7.02300E-04
 -1     21971 1.64047E-02 9.54907E-01-9.47495E-04
 -1     21972 1.35415E-02 7.90849E-01-1.18814E-05
 -1     21973 4.06756E-02 1.59934E+00 1.52733E-04
 -1     21974 3.04458E-02 1.45153E+00-2.08847E-05
 -1     21975 1.29630E-01 2.13232E+00 5.16509E-04
 -1     21976 9.71609E-02 1.99502E+00-8.12117E-05
 -1     21977 3.04832E-01 2.66849E+00-3.27836E-04
 -1     21978 2.50685E-01 2.52396E+00 2.09725E-04
 -1     21979 5.68714E-01 3.30385E+00 6.31755E-04
 -1     21980 4.97554E-01 3.13396E+00-1.55602E-04
 -1     21981 8.64943E-01 4.08942E+00-7.58093E-05
 -1     21982 7.90734E-01 3.87480E+00-4.37111E-04
 -1     21983 1.13437E+00 5.07897E+00-3.79599E-04
 -1     21984 1.07314E+00 4.80986E+00-4.84197E-04
 -1     21985 1.31513E+00 6.30413E+00 4.97403E-04
 -1     21986 1.28096E+00 5.97440E+00-6.39812E-04
 -1     21987 1.35248E+00 7.78290E+00 2.72011E-04
 -1     21988 1.35951E+00 7.39088E+00-1.96854E-04
 -1     21989 1.19720E+00 9.58735E+00-6.80162E-05
 -1     21990 1.25449E+00 9.12886E+00-4.52016E-05
 -1     21991 8.10573E-01 1.16659E+01-2.02960E-04
 -1     21992 9.25859E-01 1.11417E+01 5.94695E-04
 -1     21993 1.96143E-01 1.39144E+01-1.38267E-04
 -1     21994 3.73271E-01 1.33280E+01-7.02084E-04
 -1     21995-6.14003E-01 1.62334E+01-6.56663E-04
 -1     21996-3.71258E-01 1.55886E+01-5.62128E-04
 -1     21997-1.80857E+00 1.90582E+01 3.19356E-04
 -1     21998-1.48895E+00 1.83511E+01 7.47746E-04
 -1     21999-3.35008E+00 2.21016E+01-4.61649E-04
 -1     22000-2.93945E+00 2.13410E+01-3.64352E-04
 -1     22001-4.54852E+00 2.41238E+01 1.36227E-03
 -1     22002 7.75864E-03 3.31329E-01 1.15052E-04
 -1     22003 8.27741E-03 3.31080E-01 4.40923E-04
 -1     22004-2.45843E+00 2.04074E+01 8.89147E-04
 -1     22005-2.58475E+00 2.06543E+01 2.97441E-04
 -1     22006-2.09988E+00 1.96731E+01 4.63673E-04
 -1     22007-1.22893E+00 1.77561E+01 5.46981E-05
 -1     22008-1.37764E+00 1.80989E+01-1.18684E-03
 -1     22009-9.47124E-01 1.70764E+01-5.47682E-04
 -1     22010-3.69364E+00 2.26980E+01-6.94530E-04
 -1     22011-4.15407E+00 2.34797E+01 7.64559E-04
 -1     22012-1.92664E+00 1.93095E+01 3.96622E-04
 -1     22013-8.48111E-01 1.68295E+01-7.88369E-04
 -1     22014-4.29466E+00 2.37126E+01 9.89380E-04
 -1     22015 3.08625E-02 1.44279E+01-1.61100E-04
 -1     22016-1.78275E-01 1.50452E+01-3.18935E-04
 -1     22017 7.23143E-01 1.20325E+01 2.41014E-04
 -1     22018 5.81436E-01 1.25838E+01-4.76288E-05
 -1     22019 1.13750E+00 9.99272E+00-2.75957E-04
 -1     22020 1.05440E+00 1.04812E+01 2.88735E-04
 -1     22021 1.32711E+00 8.32035E+00-2.71803E-04
 -1     22022 1.29355E+00 8.74862E+00-2.82809E-04
 -1     22023 1.34533E+00 6.76768E+00 7.68157E-04
 -1     22024 1.35651E+00 7.13399E+00 6.24692E-04
 -1     22025 1.20738E+00 5.45864E+00 2.79095E-04
 -1     22026 1.25312E+00 5.76462E+00-6.46844E-05
 -1     22027 9.61142E-01 4.39426E+00 1.78802E-04
 -1     22028 1.02896E+00 4.64057E+00-1.78171E-04
 -1     22029 6.66581E-01 3.54672E+00 6.48836E-06
 -1     22030 7.41459E-01 3.73992E+00 3.84779E-05
 -1     22031 3.86782E-01 2.86749E+00-2.98305E-04
 -1     22032 4.52511E-01 3.02500E+00 1.05658E-03
 -1     22033 1.72771E-01 2.28772E+00-3.04134E-06
 -1     22034 2.17753E-01 2.42785E+00 7.98861E-04
 -1     22035 5.14293E-02 1.70460E+00-8.61489E-04
 -1     22036 7.03568E-02 1.84571E+00 2.17668E-04
 -1     22037 1.77451E-02 1.05496E+00 5.61070E-05
 -1     22038 1.83951E-02 1.13751E+00 5.03021E-04
 -1     22039 2.33634E-02 1.29225E+00-6.28623E-04
 -1     22040 1.82132E-02 1.13580E+00 3.97541E-04
 -1     22041 1.33529E+00 8.18113E+00-1.19259E-04
 -1     22042 8.13390E-03 4.65491E-01-7.77049E-05
 -1     22043 1.27466E-02 6.36410E-01-3.70304E-04
 -1     22044 9.31083E-03 4.31471E-01 2.84512E-04
 -1     22045 2.63347E-02 1.39408E+00-2.94309E-04
 -1     22046 2.20959E-02 1.29247E+00-3.62951E-04
 -1     22047 7.36979E-02 1.87899E+00 4.08282E-05
 -1     22048 5.51328E-02 1.73795E+00-1.38394E-04
 -1     22049 2.03416E-01 2.38678E+00-1.56348E-04
 -1     22050 1.60448E-01 2.24895E+00 1.97448E-04
 -1     22051 4.28982E-01 2.97126E+00-1.72239E-04
 -1     22052 3.64473E-01 2.81670E+00-1.15702E-04
 -1     22053 7.15326E-01 3.67325E+00 7.71168E-04
 -1     22054 6.41106E-01 3.48319E+00 3.12839E-04
 -1     22055 1.00789E+00 4.55477E+00 2.30470E-04
 -1     22056 9.37875E-01 4.31581E+00 7.00806E-04
 -1     22057 1.23922E+00 5.65904E+00 4.44348E-04
 -1     22058 1.19029E+00 5.36185E+00 5.77342E-04
 -1     22059 1.35392E+00 7.01206E+00-4.17202E-04
 -1     22060 1.34048E+00 6.64977E+00-8.09976E-06
 -1     22061 1.30364E+00 8.62874E+00-2.67979E-04
 -1     22062 1.33391E+00 8.20306E+00 1.04602E-04
 -1     22063 1.02897E+00 1.06197E+01 2.09414E-04
 -1     22064 1.11624E+00 1.01269E+01 6.21009E-04
 -1     22065 5.31916E-01 1.27668E+01-8.96099E-04
 -1     22066 6.78545E-01 1.22094E+01-2.69383E-04
 -1     22067-1.78027E-01 1.50458E+01 6.58622E-05
 -1     22068 3.09949E-02 1.44298E+01 2.99227E-04
 -1     22069-1.15337E+00 1.75718E+01 2.05314E-04
 -1     22070-8.74782E-01 1.68954E+01-2.56323E-04
 -1     22071-2.55829E+00 2.06036E+01-9.73461E-04
 -1     22072-2.19157E+00 1.98691E+01-4.26020E-04
 -1     22073-4.17885E+00 2.35245E+01-1.07108E-03
 -1     22074-3.71722E+00 2.27513E+01-4.59559E-03
 -1     22075 1.33948E+00 6.65076E+00 1.25725E-05
 -1     22076-3.19483E-01 1.54432E+01 5.49451E-04
 -1     22077 5.25652E-01 1.27925E+01-2.31794E-04
 -1     22078 1.02318E+00 1.06494E+01 2.89250E-04
 -1     22079 1.27166E+00 8.97084E+00 1.41044E-04
 -1     22080 1.35831E+00 7.38866E+00 4.69578E-04
 -1     22081 1.28019E+00 5.97507E+00-2.36394E-04
 -1     22082 1.07325E+00 4.81069E+00-8.78874E-05
 -1     22083 7.91943E-01 3.87606E+00-1.50404E-04
 -1     22084 4.97298E-01 3.13310E+00 8.86345E-04
 -1     22085 2.50165E-01 2.51997E+00 8.82071E-04
 -1     22086 8.20285E-02 1.91680E+00 1.19550E-03
 -1     22087 1.24015E-02 7.19577E-01 5.60510E-04
 -1     22088 4.90933E-02 1.69289E+00-8.56628E-04
 -1     22089 1.42903E-01 2.18056E+00 4.71305E-04
 -1     22090 3.23587E-01 2.71687E+00-2.68362E-04
 -1     22091 5.92928E-01 3.36257E+00 5.69831E-04
 -1     22092 8.89071E-01 4.16341E+00 2.32254E-04
 -1     22093 1.15295E+00 5.17103E+00-1.41688E-04
 -1     22094 1.32385E+00 6.41900E+00 1.75169E-04
 -1     22095 1.34660E+00 7.93270E+00 3.60074E-04
 -1     22096 1.15435E+00 9.88710E+00 1.57830E-05
 -1     22097 7.25058E-01 1.20260E+01-5.10348E-04
 -1     22098 9.86890E-02 1.42171E+01 3.36624E-04
 -1     22099-7.08158E-01 1.64732E+01-9.94547E-04
 -1     22100-2.01619E+00 1.95021E+01-3.03041E-04
 -1     22101-3.54333E+00 2.24420E+01-2.31827E-03
 -1     22102 1.18996E+00 5.36270E+00-2.84660E-04
 -1     22103 9.37872E-01 4.31655E+00-1.88883E-04
 -1     22104 6.41643E-01 3.48450E+00-4.29573E-04
 -1     22105 3.65079E-01 2.81546E+00-1.29091E-04
 -1     22106 1.52700E-01 2.22111E+00 5.12562E-05
 -1     22107 4.42405E-02 1.63595E+00 2.04376E-04
 -1     22108 1.25348E+00 5.76339E+00-2.33870E-04
 -1     22109 1.35659E+00 7.13926E+00-4.79486E-04
 -1     22110 1.28402E+00 8.84793E+00-2.33943E-04
 -1     22111 9.64368E-01 1.09544E+01 2.75750E-04
 -1     22112 4.29023E-01 1.31350E+01-6.61102E-04
 -1     22113-2.58679E-01 1.52742E+01-2.02098E-04
 -1     22114-1.29895E+00 1.79121E+01-4.26360E-04
 -1     22115-2.79057E+00 2.10520E+01-3.00676E-04
 -1     22116-4.28176E+00 2.36844E+01-8.64525E-04
 -1     22117-3.40099E+00 2.21890E+01-2.13818E-03
 -1     22118 1.17378E+00 9.75510E+00-3.83843E-04
 -1     22119 8.07515E-01 1.16769E+01 8.26524E-05
 -1     22120 1.53677E-01 1.40486E+01 2.96940E-04
 -1     22121 1.02890E+00 4.63884E+00 2.30777E-05
 -1     22122 7.41136E-01 3.73909E+00 8.48008E-06
 -1     22123 8.80243E-02 1.94812E+00 3.86190E-04
 -1     22124 4.51604E-01 3.02421E+00-5.74514E-04
 -1     22125 2.18355E-01 2.43387E+00-9.16560E-05
 -1     22126-4.24822E+00 2.36354E+01 1.49273E-03
 -1     22127 1.22831E+00 9.35660E+00-1.31941E-05
 -1     22128 1.17404E+00 9.75525E+00-3.37961E-04
 -1     22129-1.64533E+00 1.87005E+01-2.62145E-04
 -1     22130-1.92633E+00 1.93103E+01-2.14901E-04
 -1     22131-1.37796E+00 1.80982E+01-1.64145E-03
 -1     22132 1.05141E+00 4.72311E+00 2.75015E-04
 -1     22133 9.83749E-01 4.47436E+00 3.34699E-04
 -1     22134 1.08668E+00 1.03007E+01-1.49713E-04
 -1     22135 9.96713E-01 1.07894E+01 1.59381E-04
 -1     22136 3.09419E-01 1.35422E+01 4.24463E-04
 -1     22137 9.89582E-02 1.42148E+01-1.95035E-04
 -1     22138 1.27153E+00 8.97070E+00-1.62990E-04
 -1     22139 8.89558E-01 1.13174E+01 1.64835E-04
 -1     22140 7.68606E-01 1.18499E+01-9.67515E-04
 -1     22141 1.35828E+00 7.26425E+00 3.08114E-04
 -1     22142 1.35029E+00 6.89098E+00-7.80980E-05
 -1     22143 6.29110E-02 1.79872E+00-5.90795E-04
 -1     22144 4.68275E-02 1.65867E+00 6.17017E-04
 -1     22145 1.26763E+00 5.86779E+00 1.55343E-04
 -1     22146 1.30489E+00 6.19275E+00-6.17005E-04
 -1     22147-2.57969E-01 1.52729E+01 5.10149E-05
 -1     22148-5.22317E-01 1.59944E+01 5.24672E-04
 -1     22149 1.11448E+00 4.98735E+00 1.54220E-04
 -1     22150 9.13591E-01 4.23911E+00 2.69430E-04
 -1     22151 7.66037E-01 3.80683E+00-8.29088E-05
 -1     22152 8.40535E-01 4.01659E+00-1.96398E-04
 -1     22153 6.16385E-01 3.42302E+00 6.19467E-04
 -1     22154 5.43688E-01 3.24644E+00 3.33560E-04
 -1     22155 4.75087E-01 3.07922E+00 1.17202E-04
 -1     22156 3.43942E-01 2.76479E+00-2.81784E-04
 -1     22157 4.07530E-01 2.91904E+00-7.30070E-04
 -1     22158 2.32839E-01 2.47385E+00 8.25819E-04
 -1     22159 1.86315E-01 2.33782E+00 7.47872E-04
 -1     22160 1.41422E-01 2.18190E+00 2.67041E-04
 -1     22161 8.74269E-02 1.94912E+00 3.10759E-04
 -1     22162 3.53757E-02 1.52963E+00 2.00944E-04
 -1     22163 1.22325E+00 5.55894E+00-8.02311E-05
 -1     22164 2.59752E-02 1.37103E+00-4.86414E-04
 -1     22165 1.33312E+00 6.53436E+00-3.00321E-04
 -1     22166 8.28098E-03 4.32194E-01 5.62228E-04
 -1     22167 1.04500E-02 5.63810E-01 3.81003E-04
 -1     22168-2.31787E+00 2.01242E+01-1.66938E-04
 -1     22169-2.68574E+00 2.08531E+01 2.49681E-04
 -1     22170-7.77185E-01 1.66504E+01-4.07568E-04
 -1     22171 1.22911E-02 7.19672E-01 5.59526E-04
 -1     22172 6.30623E-01 1.23993E+01-7.87682E-04
 -1     22173 4.74436E-01 1.29762E+01-2.90222E-04
 -1     22174-3.89218E+00 2.30429E+01-7.91748E-04
 -1     22175 1.17218E+00 5.26599E+00-1.25326E-04
 -1     22176 1.35588E+00 7.65029E+00-2.86498E-04
 -1     22177 1.34077E+00 8.06589E+00 1.80841E-04
 -1     22178 1.31598E+00 8.47683E+00-5.67226E-04
 -1     22179-3.07413E+00 2.15918E+01 1.87787E-04
 -1     22180-3.51614E+00 2.23929E+01-1.95305E-03
 -1     22181-1.04961E+00 1.73225E+01-7.14689E-04
 -1     22182 1.12424E-01 2.06610E+00-7.07976E-05
 -1     22183-7.24088E-02 1.47366E+01-5.57970E-04
 -1     22184 6.90642E-01 3.60967E+00-3.49780E-04
 -1     22185 2.85463E-01 2.61974E+00-1.00537E-04
 -1     22186-1.84558E+01 2.74450E+01 3.24578E-03
 -1     22187-1.87224E+01 2.74754E+01 1.94183E-03
 -1     22188-1.87152E+01 2.74707E+01 3.82898E-03
 -1     22189-1.88924E+01 2.74750E+01-6.60507E-03
 -1     22190-1.88983E+01 2.74918E+01-8.76410E-04
 -1     22191-1.78793E+01 2.74002E+01-6.61321E-04
 -1     22192-1.76349E+01 2.73593E+01-7.06272E-03
 -1     22193-1.37847E+01 2.67496E+01 7.46975E-03
 -1     22194-1.47093E+01 2.69085E+01 6.70394E-03
 -1     22195-1.03120E+01 2.61096E+01 1.83287E-03
 -1     22196-1.10982E+01 2.62518E+01-1.42467E-03
 -1     22197-7.53563E+00 2.56843E+01 4.03050E-03
 -1     22198-8.26645E+00 2.57812E+01-2.48564E-03
 -1     22199-6.11432E+00 2.55543E+01 1.87417E-03
 -1     22200-6.88314E+00 2.56149E+01-5.19360E-04
 -1     22201-7.33053E+00 2.56605E+01 2.60942E-03
 -1     22202-6.11627E+00 2.55541E+01 2.79853E-04
 -1     22203-6.11479E+00 2.55568E+01-9.30946E-05
 -1     22204-6.33050E+00 2.55758E+01-1.58113E-03
 -1     22205-6.52887E+00 2.55854E+01 6.86373E-05
 -1     22206-7.07008E+00 2.56380E+01-1.00907E-03
 -1     22207-7.27470E+00 2.56585E+01 4.32393E-04
 -1     22208-8.00542E+00 2.57449E+01-4.46819E-04
 -1     22209-9.50847E+00 2.59725E+01-4.32977E-03
 -1     22210-8.77313E+00 2.58548E+01 1.49055E-04
 -1     22211-1.10958E+01 2.62556E+01-4.36627E-03
 -1     22212-1.03160E+01 2.61145E+01-2.37518E-03
 -1     22213-1.43608E+01 2.68503E+01 3.04495E-03
 -1     22214-1.34395E+01 2.66896E+01 2.47893E-04
 -1     22215-1.74852E+01 2.73451E+01-2.11777E-03
 -1     22216-1.28414E+01 2.65765E+01-1.55861E-03
 -1     22217-1.33297E+01 2.66728E+01 3.60152E-03
 -1     22218-1.19941E+01 2.64188E+01-5.16828E-03
 -1     22219-9.64464E+00 2.59946E+01 8.13615E-04
 -1     22220-9.92558E+00 2.60449E+01 1.85845E-03
 -1     22221-8.89800E+00 2.58751E+01-9.95756E-04
 -1     22222-1.56587E+01 2.70744E+01-2.14041E-03
 -1     22223-1.67165E+01 2.72287E+01-3.51325E-03
 -1     22224-1.14872E+01 2.63259E+01-2.59447E-03
 -1     22225-8.61716E+00 2.58291E+01-1.51159E-03
 -1     22226-1.71037E+01 2.72829E+01-7.91281E-03
 -1     22227-1.19980E+01 2.64233E+01 1.39859E-03
 -1     22228-8.23061E+00 2.57736E+01 1.30935E-03
 -1     22229-1.25728E+01 2.65285E+01-3.11087E-03
 -1     22230-1.64274E+01 2.71922E+01-5.81169E-03
 -1     22231-1.53864E+01 2.70364E+01 3.96323E-03
 -1     22232-1.45895E+01 2.68925E+01-4.92957E-03
 -1     22233-1.52262E+01 2.69914E+01-8.03672E-04
 -1     22234-1.66426E+01 2.72149E+01-9.51440E-03
 -1     22235-1.69437E+01 2.72654E+01-9.11975E-03
 -1     22236-1.59178E+01 2.71064E+01 3.69354E-04
 -1     22237-7.72363E+00 2.57070E+01 1.64013E-03
 -1     22238-1.49546E+01 2.69504E+01-3.95428E-03
 -1     22239-1.29988E+01 2.66074E+01 5.42427E-03
 -1     22240-9.79242E+00 2.60272E+01 1.75922E-03
 -1     22241-9.12220E+00 2.59099E+01-3.06505E-03
 -1     22242-1.39443E+01 2.67772E+01 4.62265E-04
 -1     22243-8.49053E+00 2.58092E+01 1.80248E-03
 -1     22244-5.69119E-01 6.52074E-01 5.74563E-03
 -1     22245-4.09241E-01 5.57232E-01-2.20874E-02
 -1     22246-3.93654E-01 5.16561E-01-1.77135E-02
 -1     22247-4.03701E-01 4.66567E-01 3.57331E-02
 -1     22248-4.53654E-01 5.35827E-01-2.24704E-02
 -1     22249-7.28742E-01 8.62008E-01 1.47044E-02
 -1     22250-8.47583E-01 9.32450E-01-8.77642E-03
 -1     22251-2.14931E+00 1.58879E+00-6.72286E-04
 -1     22252-1.83454E+00 1.45196E+00 1.54652E-02
 -1     22253-3.31302E+00 2.23984E+00 2.36283E-03
 -1     22254-3.01013E+00 2.06039E+00 3.74624E-04
 -1     22255-4.55019E+00 3.08089E+00-1.53861E-04
 -1     22256-4.23537E+00 2.84970E+00 2.22463E-04
 -1     22257-5.90332E+00 4.20188E+00-6.84026E-05
 -1     22258-5.57106E+00 3.90707E+00-1.12853E-04
 -1     22259-7.28258E+00 5.54966E+00-1.15200E-04
 -1     22260-6.93122E+00 5.18738E+00-9.85127E-05
 -1     22261-8.67546E+00 7.11320E+00-2.71526E-04
 -1     22262-8.30614E+00 6.67824E+00-3.40252E-04
 -1     22263-1.01382E+01 8.96966E+00-5.65571E-04
 -1     22264-9.75006E+00 8.45588E+00 1.70504E-04
 -1     22265-1.17277E+01 1.12403E+01 4.34211E-04
 -1     22266-1.13250E+01 1.06390E+01 4.21329E-04
 -1     22267-1.33590E+01 1.38701E+01 7.58911E-04
 -1     22268-1.29488E+01 1.31781E+01-3.88728E-04
 -1     22269-1.50188E+01 1.68764E+01 6.14974E-04
 -1     22270-1.46040E+01 1.60898E+01-1.16298E-04
 -1     22271-1.68151E+01 2.04998E+01-1.65575E-03
 -1     22272-1.63902E+01 1.96045E+01 1.68580E-03
 -1     22273-1.85126E+01 2.42319E+01-5.93629E-03
 -1     22274-1.80521E+01 2.31794E+01 1.34276E-03
 -1     22275-1.94571E+01 2.64908E+01 6.96644E-03
 -1     22276-1.89409E+01 2.52471E+01 1.17640E-02
 -1     22277-1.86331E+01 2.45259E+01 2.54200E-03
 -1     22278-1.94792E+01 2.64834E+01 3.48850E-03
 -1     22279-1.94789E+01 2.64933E+01 3.40179E-03
 -1     22280-1.93184E+01 2.61554E+01-4.72248E-04
 -1     22281-1.91789E+01 2.58045E+01 1.62820E-03
 -1     22282-1.88170E+01 2.49170E+01-6.77052E-03
 -1     22283-1.86870E+01 2.46131E+01 5.64020E-03
 -1     22284-1.82111E+01 2.35418E+01 7.29355E-03
 -1     22285-1.72922E+01 2.15113E+01-5.65376E-03
 -1     22286-1.77350E+01 2.24821E+01-1.75477E-03
 -1     22287-1.63902E+01 1.96105E+01 2.82854E-03
 -1     22288-1.68152E+01 2.05076E+01 3.69573E-03
 -1     22289-1.46691E+01 1.62188E+01 1.66718E-04
 -1     22290-1.50860E+01 1.70076E+01 6.02468E-04
 -1     22291-1.30806E+01 1.34014E+01 9.48426E-05
 -1     22292-1.34918E+01 1.41014E+01-8.91442E-04
 -1     22293-1.14573E+01 1.08380E+01-6.42907E-04
 -1     22294-1.18605E+01 1.14459E+01-3.38222E-04
 -1     22295-9.87557E+00 8.61980E+00-2.58747E-04
 -1     22296-1.02643E+01 9.14062E+00-1.18070E-04
 -1     22297-8.30521E+00 6.67852E+00 2.31803E-04
 -1     22298-8.67580E+00 7.11346E+00 4.22054E-04
 -1     22299-6.81817E+00 5.07318E+00-1.42189E-05
 -1     22300-7.16821E+00 5.43035E+00-5.51915E-05
 -1     22301-5.46384E+00 3.81555E+00 2.63651E-05
 -1     22302-5.79468E+00 4.10455E+00 1.09940E-04
 -1     22303-4.23073E+00 2.84859E+00-1.59347E-04
 -1     22304-4.54709E+00 3.07947E+00 3.08172E-05
 -1     22305-3.00290E+00 2.06551E+00 8.52684E-04
 -1     22306-3.30751E+00 2.24275E+00 1.56435E-04
 -1     22307-1.76827E+00 1.40267E+00-9.79918E-03
 -1     22308-2.06393E+00 1.56008E+00-5.04422E-03
 -1     22309-9.41953E-01 9.56466E-01 2.87639E-02
 -1     22310-2.44794E+00 1.75031E+00 5.53733E-03
 -1     22311-2.34647E+00 1.69809E+00 9.30436E-03
 -1     22312-2.74859E+00 1.91474E+00-2.85218E-04
 -1     22313-3.58077E+00 2.40984E+00 6.53467E-04
 -1     22314-3.43359E+00 2.31622E+00 1.68796E-03
 -1     22315-3.88966E+00 2.61190E+00-3.22759E-04
 -1     22316-1.47571E+00 1.29595E+00-9.18788E-03
 -1     22317-1.17012E+00 1.15406E+00 4.97373E-02
 -1     22318-2.90266E+00 2.00432E+00 3.95493E-03
 -1     22319-4.04677E+00 2.71615E+00-8.57446E-04
 -1     22320-1.05517E+00 1.02641E+00-2.01299E-03
 -1     22321-5.23462E+00 3.62207E+00-4.08915E-04
 -1     22322-4.91160E+00 3.36015E+00-6.04788E-04
 -1     22323-6.58410E+00 4.84167E+00-1.55439E-04
 -1     22324-6.24288E+00 4.51455E+00 5.79559E-05
 -1     22325-7.99309E+00 6.32218E+00 1.63077E-04
 -1     22326-7.63147E+00 5.92255E+00 9.88015E-06
 -1     22327-9.37480E+00 7.97399E+00 1.80589E-04
 -1     22328-8.99599E+00 7.50174E+00 2.25751E-04
 -1     22329-1.09257E+01 1.00603E+01 1.14079E-04
 -1     22330-1.05299E+01 9.50360E+00-3.32723E-04
 -1     22331-1.25403E+01 1.25118E+01-6.22291E-04
 -1     22332-1.21324E+01 1.18642E+01-3.59908E-04
 -1     22333-1.41860E+01 1.53238E+01 6.90442E-04
 -1     22334-1.37719E+01 1.45844E+01 8.13248E-04
 -1     22335-1.61369E+01 1.90909E+01 1.29353E-03
 -1     22336-1.58864E+01 1.85797E+01 2.04353E-04
 -1     22337-1.54651E+01 1.77421E+01 1.19916E-03
 -1     22338-1.58860E+01 1.85845E+01 5.80944E-03
 -1     22339-1.76561E+01 2.23074E+01-5.59268E-05
 -1     22340-1.72112E+01 2.13442E+01-3.19753E-03
 -1     22341-1.10573E+01 1.02499E+01-1.02942E-03
 -1     22342-1.13230E+01 1.06381E+01-9.36734E-04
 -1     22343-1.06597E+01 9.68572E+00-5.45483E-04
 -1     22344-1.70319E+01 2.09675E+01 2.08291E-03
 -1     22345-1.80564E+01 2.31987E+01 8.01750E-03
 -1     22346-1.43054E+01 1.55441E+01-6.72784E-04
 -1     22347-1.45111E+01 1.59238E+01-2.41205E-04
 -1     22348-1.38907E+01 1.47994E+01-4.09678E-05
 -1     22349-1.52565E+01 1.73362E+01-7.65648E-06
 -1     22350-1.54644E+01 1.77464E+01-6.19648E-04
 -1     22351-1.37497E+01 1.45448E+01 1.27326E-04
 -1     22352-1.22666E+01 1.20763E+01-1.94183E-04
 -1     22353-1.26752E+01 1.27317E+01-1.28629E-03
 -1     22354-1.05237E+01 9.49740E+00-2.44779E-04
 -1     22355-9.10050E+00 7.62942E+00 4.46380E-04
 -1     22356-9.48089E+00 8.10751E+00 2.88195E-05
 -1     22357-7.53216E+00 5.81541E+00-1.67491E-04
 -1     22358-7.89210E+00 6.20922E+00-1.48291E-04
 -1     22359-6.13046E+00 4.40966E+00 2.52370E-04
 -1     22360-6.47055E+00 4.73160E+00-8.00848E-05
 -1     22361-4.82184E+00 3.28999E+00-1.81064E-04
 -1     22362-5.14417E+00 3.54755E+00 1.42581E-04
 -1     22363-3.64582E+00 2.45210E+00-3.63818E-04
 -1     22364-3.95559E+00 2.65749E+00-1.26489E-04
 -1     22365-2.36047E+00 1.71872E+00-2.89738E-03
 -1     22366-2.66244E+00 1.87591E+00 1.41867E-03
 -1     22367-1.22354E+00 1.09422E+00-3.02723E-02
 -1     22368-1.49782E+00 1.26897E+00-1.31658E-02
 -1     22369-4.75205E+00 3.23413E+00-1.84196E-04
 -1     22370-6.12630E+00 4.40628E+00 4.37046E-05
 -1     22371-7.51138E+00 5.79330E+00-1.67753E-04
 -1     22372-8.80811E+00 7.27257E+00 2.64012E-04
 -1     22373-1.02673E+01 9.14465E+00-8.62510E-04
 -1     22374-1.18615E+01 1.14458E+01 1.83025E-04
 -1     22375-1.34933E+01 1.41002E+01 5.82508E-04
 -1     22376-1.29424E+01 1.31701E+01-6.46917E-04
 -1     22377-9.73324E+00 8.43396E+00-4.31648E-04
 -1     22378-8.07333E+00 6.41368E+00-2.98953E-04
 -1     22379-6.58742E+00 4.84532E+00 1.28527E-04
 -1     22380-5.25181E+00 3.63654E+00 4.04359E-05
 -1     22381-4.10851E+00 2.76239E+00-4.11903E-04
 -1     22382-2.81572E+00 1.95875E+00 1.17116E-03
 -1     22383-1.62176E+00 1.34349E+00 2.54649E-03
 -1     22384-9.50226E+00 8.13580E+00 7.87852E-05
 -1     22385-1.10576E+01 1.02505E+01 7.94756E-05
 -1     22386-1.26750E+01 1.27303E+01-1.54290E-03
 -1     22387-1.43239E+01 1.55742E+01-4.71633E-04
 -1     22388-1.06441E+00 1.08108E+00 1.79466E-03
 -1     22389-1.72289E+00 1.39707E+00 5.90556E-03
 -1     22390-8.17532E+00 6.52880E+00 1.05988E-06
 -1     22391-6.81421E+00 5.06951E+00-1.46120E-04
 -1     22392-5.44911E+00 3.80292E+00-1.90881E-04
 -1     22393-1.78189E+01 2.26821E+01 3.00899E-03
 -1     22394-2.17905E+00 1.62747E+00-4.55806E-03
 -1     22395-3.49389E+00 2.35511E+00 1.87801E-04
 -1     22396-4.65871E+00 3.16358E+00 6.69417E-05
 -1     22397-5.90603E+00 4.20426E+00 1.58649E-04
 -1     22398-1.21301E+01 1.18615E+01-2.88443E-04
 -1     22399-7.29798E+00 5.56620E+00-4.50290E-05
 -1     22400-8.91200E+00 7.39831E+00 3.11783E-04
 -1     22401-1.05039E+00 1.10118E+00-1.03836E-02
 -1     22402-8.48924E+00 6.89207E+00 3.98346E-05
 -1     22403-8.17498E+00 6.52855E+00 6.99001E-05
 -1     22404-3.15995E+00 2.15475E+00 1.64953E-03
 -1     22405-2.89786E+00 2.00292E+00 3.09558E-03
 -1     22406-3.42786E+00 2.31281E+00 8.92145E-05
 -1     22407-7.76356E+00 6.06768E+00-3.01715E-04
 -1     22408-7.41293E+00 5.68797E+00-1.54550E-04
 -1     22409-5.68070E+00 4.00332E+00 8.12815E-05
 -1     22410-5.34283E+00 3.71288E+00 3.75850E-05
 -1     22411-8.80776E+00 7.27238E+00 5.26499E-04
 -1     22412-7.04995E+00 5.30832E+00-2.38995E-04
 -1     22413-6.70158E+00 4.95754E+00 1.61666E-04
 -1     22414-1.03940E+01 9.31839E+00-5.91509E-04
 -1     22415-1.00043E+01 8.79067E+00-4.95863E-04
 -1     22416-1.11902E+01 1.04425E+01-3.32106E-04
 -1     22417-1.15926E+01 1.10368E+01-4.22271E-04
 -1     22418-1.19964E+01 1.16527E+01-4.40659E-04
 -1     22419-1.28102E+01 1.29517E+01-1.00971E-03
 -1     22420-1.32160E+01 1.36274E+01-1.51187E-04
 -1     22421-1.36267E+01 1.43325E+01 9.45867E-04
 -1     22422-1.44442E+01 1.57963E+01-1.54692E-04
 -1     22423-1.40272E+01 1.50378E+01-1.71420E-03
 -1     22424-1.33055E+00 1.22675E+00-1.90414E-02
 -1     22425-1.51903E+01 1.72031E+01 2.81216E-03
 -1     22426-1.96760E+00 1.50985E+00-1.71506E-02
 -1     22427-2.26478E+00 1.65418E+00 7.31294E-03
 -1     22428-1.83748E+01 2.39367E+01 7.78047E-03
 -1     22429-9.60834E+00 8.27218E+00-1.88868E-04
 -1     22430-1.48087E+01 1.64790E+01 1.30553E-03
 -1     22431-1.71155E+01 2.11309E+01 1.57783E-03
 -1     22432-6.35560E+00 4.62131E+00 1.99693E-04
 -1     22433-6.01496E+00 4.30307E+00 3.50989E-04
 -1     22434-1.75078E+01 2.19946E+01-3.32974E-03
 -1     22435-9.23477E+00 7.79751E+00 4.47219E-05
 -1     22436-5.02477E+00 3.45016E+00-7.88460E-05
 -1     22437-4.11324E+00 2.76399E+00-6.07139E-04
 -1     22438-4.38996E+00 2.96116E+00-3.02380E-04
 -1     22439-2.56329E+00 1.81565E+00 6.73496E-03
 -1     22440-4.66327E+00 3.16498E+00 4.72463E-04
 -1     22441-1.64101E+00 1.36674E+00 2.75790E-02
 -1     22442-3.76851E+00 2.53191E+00-6.39080E-04
 -1     22443-1.79034E+01 2.28494E+01 4.68188E-03
 -1     22444-1.07913E+01 9.87124E+00-3.29310E-04
 -1     22445-1.24017E+01 1.22917E+01 9.56946E-05
 -1     22446 0.00000E+00 0.00000E+00 0.00000E+00
 -1     22447 0.00000E+00 0.00000E+00 0.00000E+00
 -1     22448 0.00000E+00 0.00000E+00 0.00000E+00
 -1     22449 0.00000E+00 0.00000E+00 0.00000E+00
 -1     22450 0.00000E+00 0.00000E+00 0.00000E+00
 -1     22451 0.00000E+00 0.00000E+00 0.00000E+00
 -1     22452 0.00000E+00 0.00000E+00 0.00000E+00
 -1     22453 0.00000E+00 0.00000E+00 0.00000E+00
 -1     22454 0.00000E+00 0.00000E+00 0.00000E+00
 -1     22455 0.00000E+00 0.00000E+00 0.00000E+00
 -1     22456 0.00000E+00 0.00000E+00 0.00000E+00
 -1     22457 0.00000E+00 0.00000E+00 0.00000E+00
 -1     22458 0.00000E+00 0.00000E+00 0.00000E+00
 -1     22459 0.00000E+00 0.00000E+00 0.00000E+00
 -1     22460 0.00000E+00 0.00000E+00 0.00000E+00
 -1     22461 0.00000E+00 0.00000E+00 0.00000E+00
 -1     22462 0.00000E+00 0.00000E+00 0.00000E+00
 -1     22463 0.00000E+00 0.00000E+00 0.00000E+00
 -1     22464 0.00000E+00 0.00000E+00 0.00000E+00
 -1     22465 0.00000E+00 0.00000E+00 0.00000E+00
 -1     22466 0.00000E+00 0.00000E+00 0.00000E+00
 -1     22467 0.00000E+00 0.00000E+00 0.00000E+00
 -1     22468 0.00000E+00 0.00000E+00 0.00000E+00
 -1     22469 0.00000E+00 0.00000E+00 0.00000E+00
 -1     22470 0.00000E+00 0.00000E+00 0.00000E+00
 -1     22471 0.00000E+00 0.00000E+00 0.00000E+00
 -1     22472 0.00000E+00 0.00000E+00 0.00000E+00
 -1     22473 0.00000E+00 0.00000E+00 0.00000E+00
 -1     22474 0.00000E+00 0.00000E+00 0.00000E+00
 -1     22475 0.00000E+00 0.00000E+00 0.00000E+00
 -1     22476 0.00000E+00 0.00000E+00 0.00000E+00
 -1     22477 0.00000E+00 0.00000E+00 0.00000E+00
 -1     22478 0.00000E+00 0.00000E+00 0.00000E+00
 -1     22479 0.00000E+00 0.00000E+00 0.00000E+00
 -1     22480 0.00000E+00 0.00000E+00 0.00000E+00
 -1     22481 0.00000E+00 0.00000E+00 0.00000E+00
 -1     22482 0.00000E+00 0.00000E+00 0.00000E+00
 -1     22483 0.00000E+00 0.00000E+00 0.00000E+00
 -1     22484 0.00000E+00 0.00000E+00 0.00000E+00
 -1     22485 0.00000E+00 0.00000E+00 0.00000E+00
 -1     22486 0.00000E+00 0.00000E+00 0.00000E+00
 -1     22487 0.00000E+00 0.00000E+00 0.00000E+00
 -1     22488 0.00000E+00 0.00000E+00 0.00000E+00
 -1     22489 0.00000E+00 0.00000E+00 0.00000E+00
 -1     22490 0.00000E+00 0.00000E+00 0.00000E+00
 -1     22491 0.00000E+00 0.00000E+00 0.00000E+00
 -1     22492 0.00000E+00 0.00000E+00 0.00000E+00
 -1     22493 0.00000E+00 0.00000E+00 0.00000E+00
 -1     22494 0.00000E+00 0.00000E+00 0.00000E+00
 -1     22495 0.00000E+00 0.00000E+00 0.00000E+00
 -1     22496 0.00000E+00 0.00000E+00 0.00000E+00
 -1     22497 0.00000E+00 0.00000E+00 0.00000E+00
 -1     22498 0.00000E+00 0.00000E+00 0.00000E+00
 -1     22499 0.00000E+00 0.00000E+00 0.00000E+00
 -1     22500 0.00000E+00 0.00000E+00 0.00000E+00
 -1     22501 0.00000E+00 0.00000E+00 0.00000E+00
 -1     22502 0.00000E+00 0.00000E+00 0.00000E+00
 -1     22503 0.00000E+00 0.00000E+00 0.00000E+00
 -1     22504 0.00000E+00 0.00000E+00 0.00000E+00
 -1     22505 0.00000E+00 0.00000E+00 0.00000E+00
 -1     22506 0.00000E+00 0.00000E+00 0.00000E+00
 -1     22507 0.00000E+00 0.00000E+00 0.00000E+00
 -1     22508 0.00000E+00 0.00000E+00 0.00000E+00
 -1     22509 0.00000E+00 0.00000E+00 0.00000E+00
 -1     22510 0.00000E+00 0.00000E+00 0.00000E+00
 -1     22511 0.00000E+00 0.00000E+00 0.00000E+00
 -1     22512 0.00000E+00 0.00000E+00 0.00000E+00
 -1     22513 0.00000E+00 0.00000E+00 0.00000E+00
 -1     22514 0.00000E+00 0.00000E+00 0.00000E+00
 -1     22515 0.00000E+00 0.00000E+00 0.00000E+00
 -1     22516 0.00000E+00 0.00000E+00 0.00000E+00
 -1     22517 0.00000E+00 0.00000E+00 0.00000E+00
 -1     22518 0.00000E+00 0.00000E+00 0.00000E+00
 -1     22519 0.00000E+00 0.00000E+00 0.00000E+00
 -1     22520 0.00000E+00 0.00000E+00 0.00000E+00
 -1     22521 0.00000E+00 0.00000E+00 0.00000E+00
 -1     22522 0.00000E+00 0.00000E+00 0.00000E+00
 -1     22523 0.00000E+00 0.00000E+00 0.00000E+00
 -1     22524 0.00000E+00 0.00000E+00 0.00000E+00
 -1     22525 0.00000E+00 0.00000E+00 0.00000E+00
 -1     22526 0.00000E+00 0.00000E+00 0.00000E+00
 -1     22527 0.00000E+00 0.00000E+00 0.00000E+00
 -1     22528 0.00000E+00 0.00000E+00 0.00000E+00
 -1     22529 0.00000E+00 0.00000E+00 0.00000E+00
 -1     22530 0.00000E+00 0.00000E+00 0.00000E+00
 -1     22531 0.00000E+00 0.00000E+00 0.00000E+00
 -1     22532 0.00000E+00 0.00000E+00 0.00000E+00
 -1     22533 0.00000E+00 0.00000E+00 0.00000E+00
 -1     22534 0.00000E+00 0.00000E+00 0.00000E+00
 -1     22535 0.00000E+00 0.00000E+00 0.00000E+00
 -1     22536 0.00000E+00 0.00000E+00 0.00000E+00
 -1     22537 0.00000E+00 0.00000E+00 0.00000E+00
 -1     22538 0.00000E+00 0.00000E+00 0.00000E+00
 -1     22539 0.00000E+00 0.00000E+00 0.00000E+00
 -1     22540 0.00000E+00 0.00000E+00 0.00000E+00
 -1     22541 0.00000E+00 0.00000E+00 0.00000E+00
 -1     22542 0.00000E+00 0.00000E+00 0.00000E+00
 -1     22543 0.00000E+00 0.00000E+00 0.00000E+00
 -1     22544 0.00000E+00 0.00000E+00 0.00000E+00
 -1     22545 0.00000E+00 0.00000E+00 0.00000E+00
 -1     22546 0.00000E+00 0.00000E+00 0.00000E+00
 -1     22547 0.00000E+00 0.00000E+00 0.00000E+00
 -1     22548 0.00000E+00 0.00000E+00 0.00000E+00
 -1     22549 0.00000E+00 0.00000E+00 0.00000E+00
 -1     22550 0.00000E+00 0.00000E+00 0.00000E+00
 -1     22551 0.00000E+00 0.00000E+00 0.00000E+00
 -1     22552 0.00000E+00 0.00000E+00 0.00000E+00
 -1     22553 0.00000E+00 0.00000E+00 0.00000E+00
 -1     22554 0.00000E+00 0.00000E+00 0.00000E+00
 -1     22555 0.00000E+00 0.00000E+00 0.00000E+00
 -1     22556 0.00000E+00 0.00000E+00 0.00000E+00
 -1     22557 0.00000E+00 0.00000E+00 0.00000E+00
 -1     22558 0.00000E+00 0.00000E+00 0.00000E+00
 -1     22559 0.00000E+00 0.00000E+00 0.00000E+00
 -1     22560 0.00000E+00 0.00000E+00 0.00000E+00
 -1     22561 0.00000E+00 0.00000E+00 0.00000E+00
 -1     22562 0.00000E+00 0.00000E+00 0.00000E+00
 -1     22563 0.00000E+00 0.00000E+00 0.00000E+00
 -1     22564 0.00000E+00 0.00000E+00 0.00000E+00
 -1     22565 0.00000E+00 0.00000E+00 0.00000E+00
 -1     22566 0.00000E+00 0.00000E+00 0.00000E+00
 -1     22567 0.00000E+00 0.00000E+00 0.00000E+00
 -1     22568 0.00000E+00 0.00000E+00 0.00000E+00
 -1     22569 0.00000E+00 0.00000E+00 0.00000E+00
 -1     22570 0.00000E+00 0.00000E+00 0.00000E+00
 -1     22571 0.00000E+00 0.00000E+00 0.00000E+00
 -1     22572 0.00000E+00 0.00000E+00 0.00000E+00
 -1     22573 0.00000E+00 0.00000E+00 0.00000E+00
 -1     22574 0.00000E+00 0.00000E+00 0.00000E+00
 -1     22575 0.00000E+00 0.00000E+00 0.00000E+00
 -1     22576 0.00000E+00 0.00000E+00 0.00000E+00
 -1     22577 0.00000E+00 0.00000E+00 0.00000E+00
 -1     22578 0.00000E+00 0.00000E+00 0.00000E+00
 -1     22579 0.00000E+00 0.00000E+00 0.00000E+00
 -1     22580 0.00000E+00 0.00000E+00 0.00000E+00
 -1     22581 0.00000E+00 0.00000E+00 0.00000E+00
 -1     22582 0.00000E+00 0.00000E+00 0.00000E+00
 -1     22583 0.00000E+00 0.00000E+00 0.00000E+00
 -1     22584 0.00000E+00 0.00000E+00 0.00000E+00
 -1     22585 0.00000E+00 0.00000E+00 0.00000E+00
 -1     22586 0.00000E+00 0.00000E+00 0.00000E+00
 -1     22587 0.00000E+00 0.00000E+00 0.00000E+00
 -1     22588 0.00000E+00 0.00000E+00 0.00000E+00
 -1     22589 0.00000E+00 0.00000E+00 0.00000E+00
 -1     22590 0.00000E+00 0.00000E+00 0.00000E+00
 -1     22591 0.00000E+00 0.00000E+00 0.00000E+00
 -1     22592 0.00000E+00 0.00000E+00 0.00000E+00
 -1     22593 0.00000E+00 0.00000E+00 0.00000E+00
 -1     22594 0.00000E+00 0.00000E+00 0.00000E+00
 -1     22595 0.00000E+00 0.00000E+00 0.00000E+00
 -1     22596 0.00000E+00 0.00000E+00 0.00000E+00
 -1     22597 0.00000E+00 0.00000E+00 0.00000E+00
 -1     22598 0.00000E+00 0.00000E+00 0.00000E+00
 -1     22599 0.00000E+00 0.00000E+00 0.00000E+00
 -1     22600 0.00000E+00 0.00000E+00 0.00000E+00
 -1     22601 0.00000E+00 0.00000E+00 0.00000E+00
 -1     22602 0.00000E+00 0.00000E+00 0.00000E+00
 -1     22603 0.00000E+00 0.00000E+00 0.00000E+00
 -1     22604 0.00000E+00 0.00000E+00 0.00000E+00
 -1     22605 0.00000E+00 0.00000E+00 0.00000E+00
 -1     22606 0.00000E+00 0.00000E+00 0.00000E+00
 -1     22607 0.00000E+00 0.00000E+00 0.00000E+00
 -1     22608 0.00000E+00 0.00000E+00 0.00000E+00
 -1     22609 0.00000E+00 0.00000E+00 0.00000E+00
 -1     22610 0.00000E+00 0.00000E+00 0.00000E+00
 -1     22611 0.00000E+00 0.00000E+00 0.00000E+00
 -1     22612 0.00000E+00 0.00000E+00 0.00000E+00
 -1     22613 0.00000E+00 0.00000E+00 0.00000E+00
 -1     22614 0.00000E+00 0.00000E+00 0.00000E+00
 -1     22615 0.00000E+00 0.00000E+00 0.00000E+00
 -1     22616-5.24316E+00 2.38567E+01 0.00000E+00
 -1     22617-5.79220E+00 2.46587E+01 0.00000E+00
 -1     22618-3.33859E+00 2.06896E+01 0.00000E+00
 -1     22619-3.76784E+00 2.14468E+01 0.00000E+00
 -1     22620-1.82953E+00 1.77921E+01 0.00000E+00
 -1     22621-2.16581E+00 1.84885E+01 0.00000E+00
 -1     22622-6.64442E-01 1.51475E+01 0.00000E+00
 -1     22623-9.23699E-01 1.57840E+01 0.00000E+00
 -1     22624 2.01549E-01 1.27566E+01 0.00000E+00
 -1     22625 1.14609E-02 1.33292E+01 0.00000E+00
 -1     22626 8.04917E-01 1.06250E+01 0.00000E+00
 -1     22627 6.78286E-01 1.11352E+01 0.00000E+00
 -1     22628 1.17077E+00 8.74901E+00 0.00000E+00
 -1     22629 1.10167E+00 9.19590E+00 0.00000E+00
 -1     22630 1.32085E+00 7.12385E+00 0.00000E+00
 -1     22631 1.30170E+00 7.50696E+00 0.00000E+00
 -1     22632 1.28638E+00 5.74891E+00 0.00000E+00
 -1     22633 1.31016E+00 6.06985E+00 0.00000E+00
 -1     22634 1.11014E+00 4.62190E+00 0.00000E+00
 -1     22635 1.16465E+00 4.88289E+00 0.00000E+00
 -1     22636 8.43976E-01 3.72118E+00 0.00000E+00
 -1     22637 9.15477E-01 3.92819E+00 0.00000E+00
 -1     22638 5.50895E-01 3.00810E+00 0.00000E+00
 -1     22639 6.22829E-01 3.17346E+00 0.00000E+00
 -1     22640 2.89400E-01 2.42199E+00 0.00000E+00
 -1     22641 3.48514E-01 2.56260E+00 0.00000E+00
 -1     22642 1.09847E-01 1.88149E+00 0.00000E+00
 -1     22643 1.45151E-01 2.01644E+00 0.00000E+00
 -1     22644 2.59908E-02 1.29703E+00 0.00000E+00
 -1     22645 3.87382E-02 1.44564E+00 0.00000E+00
 -1     22646 5.06442E-03 6.00718E-01 0.00000E+00
 -1     22647 6.63227E-03 7.68665E-01 0.00000E+00
 -1     22648 2.38594E-03 1.81511E-01 0.00000E+00
 -1     22649 3.70951E-04 2.49349E-01 0.00000E+00
 -1     22650 2.94754E-04 2.50413E-01 0.00000E+00
 -1     22651 1.93345E-03 2.02481E-01 0.00000E+00
 -1     22652 1.83449E-03 2.04458E-01 0.00000E+00
 -1     22653 3.26444E-03 1.64919E-01 0.00000E+00
 -1     22654 2.92366E-03 1.72678E-01 0.00000E+00
 -1     22655 5.42576E-03 1.22868E-01 0.00000E+00
 -1     22656 5.29454E-03 1.36141E-01 0.00000E+00
 -1     22657 8.45778E-03 6.72528E-02 0.00000E+00
 -1     22658 9.84001E-03 8.32039E-02 0.00000E+00
 -1     22659 7.00437E-03 1.20966E-02 0.00000E+00
 -1     22660 5.61133E-03 2.54232E-02 0.00000E+00
 -1     22661 5.07743E-03-3.98683E-02 0.00000E+00
 -1     22662 4.43387E-03-2.60281E-02 0.00000E+00
 -1     22663-1.02643E-03-6.74327E-02 0.00000E+00
 -1     22664 3.13491E-03-6.22937E-02 0.00000E+00
 -1     22665-3.15954E-03-4.89201E-02 0.00000E+00
 -1     22666-2.54360E-04-6.07105E-02 0.00000E+00
 -1     22667-2.45747E-02 7.41151E-02 0.00000E+00
 -1     22668-2.21975E-02 1.36373E-02 0.00000E+00
 -1     22669-4.14315E-02 2.46047E-01 0.00000E+00
 -1     22670-3.30729E-02 1.38324E-01 0.00000E+00
 -1     22671-1.03462E-01 2.25134E-01 0.00000E+00
 -1     22672-5.34726E-01 7.30748E-01 0.00000E+00
 -1     22673-1.85551E+00 1.45610E+00 0.00000E+00
 -1     22674-1.54886E+00 1.29080E+00 0.00000E+00
 -1     22675-3.03843E+00 2.13614E+00 0.00000E+00
 -1     22676-2.74309E+00 1.95223E+00 0.00000E+00
 -1     22677-4.22586E+00 2.99293E+00 0.00000E+00
 -1     22678-3.92161E+00 2.75615E+00 0.00000E+00
 -1     22679-5.47005E+00 4.08430E+00 0.00000E+00
 -1     22680-5.15215E+00 3.78799E+00 0.00000E+00
 -1     22681-6.78326E+00 5.44246E+00 0.00000E+00
 -1     22682-6.44714E+00 5.07665E+00 0.00000E+00
 -1     22683-8.16902E+00 7.09439E+00 0.00000E+00
 -1     22684-7.81483E+00 6.65236E+00 0.00000E+00
 -1     22685-9.63006E+00 9.06815E+00 0.00000E+00
 -1     22686-9.25800E+00 8.54353E+00 0.00000E+00
 -1     22687-1.11570E+01 1.13871E+01 0.00000E+00
 -1     22688-1.07710E+01 1.07740E+01 0.00000E+00
 -1     22689-1.27364E+01 1.40738E+01 0.00000E+00
 -1     22690-1.23395E+01 1.33659E+01 0.00000E+00
 -1     22691-1.42797E+01 1.71586E+01 0.00000E+00
 -1     22692-1.38796E+01 1.63572E+01 0.00000E+00
 -1     22693-1.58194E+01 2.06930E+01 0.00000E+00
 -1     22694-1.54150E+01 1.97850E+01 0.00000E+00
 -1     22695-1.75097E+01 2.48334E+01 0.00000E+00
 -1     22696-1.70889E+01 2.37362E+01 0.00000E+00
 -1     22697-1.79954E+01 2.60960E+01 0.00000E+00
 -1     22698-1.56855E+01 2.58783E+01 0.00000E+00
 -1     22699-1.67432E+01 2.59823E+01 0.00000E+00
 -1     22700-1.19196E+01 2.52889E+01 0.00000E+00
 -1     22701-1.27591E+01 2.54157E+01 0.00000E+00
 -1     22702-8.75587E+00 2.49128E+01 0.00000E+00
 -1     22703-9.49785E+00 2.50272E+01 0.00000E+00
 -1     22704-6.55268E+00 2.47268E+01 0.00000E+00
 -1     22705-4.23645E+00 2.22451E+01 0.00000E+00
 -1     22706-4.71635E+00 2.30201E+01 0.00000E+00
 -1     22707-2.53986E+00 1.92108E+01 0.00000E+00
 -1     22708-2.92060E+00 1.99337E+01 0.00000E+00
 -1     22709-1.20593E+00 1.64393E+01 0.00000E+00
 -1     22710-1.50264E+00 1.71048E+01 0.00000E+00
 -1     22711-1.95594E-01 1.39182E+01 0.00000E+00
 -1     22712-4.20506E-01 1.45230E+01 0.00000E+00
 -1     22713 5.34642E-01 1.16588E+01 0.00000E+00
 -1     22714 3.76658E-01 1.21998E+01 0.00000E+00
 -1     22715 1.01704E+00 9.65488E+00 0.00000E+00
 -1     22716 9.18767E-01 1.01341E+01 0.00000E+00
 -1     22717 1.27121E+00 7.90330E+00 0.00000E+00
 -1     22718 1.22814E+00 8.31933E+00 0.00000E+00
 -1     22719 1.32391E+00 6.40404E+00 0.00000E+00
 -1     22720 1.32796E+00 6.75650E+00 0.00000E+00
 -1     22721 1.21298E+00 5.15674E+00 0.00000E+00
 -1     22722 1.25356E+00 5.44535E+00 0.00000E+00
 -1     22723 9.84397E-01 4.14582E+00 0.00000E+00
 -1     22724 1.04982E+00 4.37678E+00 0.00000E+00
 -1     22725 6.96147E-01 3.34601E+00 0.00000E+00
 -1     22726 7.70567E-01 3.52830E+00 0.00000E+00
 -1     22727 4.11190E-01 2.70565E+00 0.00000E+00
 -1     22728 4.78547E-01 2.85476E+00 0.00000E+00
 -1     22729 1.87868E-01 2.15179E+00 0.00000E+00
 -1     22730 2.35946E-01 2.28710E+00 0.00000E+00
 -1     22731 5.62014E-02 1.59863E+00 0.00000E+00
 -1     22732 7.89214E-02 1.73899E+00 0.00000E+00
 -1     22733 1.04096E-02 9.67716E-01 0.00000E+00
 -1     22734 1.58819E-02 1.12686E+00 0.00000E+00
 -1     22735 8.11475E-04 1.60836E-01 0.00000E+00
 -1     22736 4.95462E-03 3.40167E-01 0.00000E+00
 -1     22737 6.40022E-03 5.13629E-01 0.00000E+00
 -1     22738-2.83477E-04 2.22275E-01 0.00000E+00
 -1     22739 1.55438E-03 4.69400E-01 0.00000E+00
 -1     22740 5.20481E-04 1.59532E-01 0.00000E+00
 -1     22741 3.72784E-03 4.23904E-01 0.00000E+00
 -1     22742 1.02019E-03 2.21033E-01 0.00000E+00
 -1     22743 1.86576E-03 1.83328E-01 0.00000E+00
 -1     22744 1.54687E-03 1.89834E-01 0.00000E+00
 -1     22745 5.45609E-03 1.44213E-01 0.00000E+00
 -1     22746 4.82110E-03 1.56526E-01 0.00000E+00
 -1     22747 6.81653E-03 9.89460E-02 0.00000E+00
 -1     22748 5.77979E-03 1.11853E-01 0.00000E+00
 -1     22749 5.07992E-03 3.91723E-02 0.00000E+00
 -1     22750 7.18995E-03 5.32503E-02 0.00000E+00
 -1     22751 5.31050E-03-1.44204E-02 0.00000E+00
 -1     22752 6.10293E-03-4.47692E-04 0.00000E+00
 -1     22753 2.81042E-03-5.55344E-02 0.00000E+00
 -1     22754 4.56142E-03-4.85836E-02 0.00000E+00
 -1     22755-3.08372E-03-7.01464E-02 0.00000E+00
 -1     22756-2.80602E-03-6.91849E-02 0.00000E+00
 -1     22757-1.19161E-02-1.47420E-02 0.00000E+00
 -1     22758-3.00988E-03-3.10167E-02 0.00000E+00
 -1     22759-3.32720E+00 2.32913E+00 0.00000E+00
 -1     22760-2.91392E+00 2.13493E+00 0.00000E+00
 -1     22761-3.62447E+00 2.53666E+00 0.00000E+00
 -1     22762-1.23106E+00 1.13246E+00 0.00000E+00
 -1     22763-9.23357E-01 1.02668E+00 0.00000E+00
 -1     22764-2.45274E+00 1.78240E+00 0.00000E+00
 -1     22765-2.15632E+00 1.61585E+00 0.00000E+00
 -1     22766-3.47702E+00 2.55810E+00 0.00000E+00
 -1     22767-5.43494E-01 7.38675E-01 0.00000E+00
 -1     22768-4.83921E+00 3.50729E+00 0.00000E+00
 -1     22769-4.52895E+00 3.24218E+00 0.00000E+00
 -1     22770-6.11705E+00 4.72864E+00 0.00000E+00
 -1     22771-5.79073E+00 4.39813E+00 0.00000E+00
 -1     22772-7.46715E+00 6.22881E+00 0.00000E+00
 -1     22773-7.12180E+00 5.82611E+00 0.00000E+00
 -1     22774-8.89230E+00 8.03987E+00 0.00000E+00
 -1     22775-8.52763E+00 7.55610E+00 0.00000E+00
 -1     22776-1.03855E+01 1.01835E+01 0.00000E+00
 -1     22777-1.00054E+01 9.61333E+00 0.00000E+00
 -1     22778-1.19450E+01 1.26827E+01 0.00000E+00
 -1     22779-1.15522E+01 1.20210E+01 0.00000E+00
 -1     22780-1.35165E+01 1.55656E+01 0.00000E+00
 -1     22781-1.31186E+01 1.48117E+01 0.00000E+00
 -1     22782-1.50389E+01 1.88662E+01 0.00000E+00
 -1     22783-1.46382E+01 1.80156E+01 0.00000E+00
 -1     22784-1.66384E+01 2.26636E+01 0.00000E+00
 -1     22785-1.62328E+01 2.16869E+01 0.00000E+00
 -1     22786-2.72243E+00 1.82972E+01 0.00000E+00
 -1     22787-1.46315E+01 2.57191E+01 0.00000E+00
 -1     22788-1.52169E+01 2.46412E+01 0.00000E+00
 -1     22789-4.45943E+00 2.13073E+01 0.00000E+00
 -1     22790-1.32015E+01 2.43659E+01 0.00000E+00
 -1     22791-1.37060E+01 2.55909E+01 0.00000E+00
 -1     22792-1.02902E+01 2.50707E+01 0.00000E+00
 -1     22793-1.10578E+01 2.51969E+01 0.00000E+00
 -1     22794-6.76916E+00 2.38306E+01 0.00000E+00
 -1     22795-7.30280E+00 2.47607E+01 0.00000E+00
 -1     22796-8.01724E+00 2.48510E+01 0.00000E+00
 -1     22797-3.17835E-01 1.31346E+01 0.00000E+00
 -1     22798-1.35461E+00 1.55848E+01 0.00000E+00
 -1     22799-5.47664E+00 2.29460E+01 0.00000E+00
 -1     22800-3.54483E+00 1.97580E+01 0.00000E+00
 -1     22801-1.99412E+00 1.69061E+01 0.00000E+00
 -1     22802-7.98968E-01 1.43259E+01 0.00000E+00
 -1     22803 9.31022E-02 1.20121E+01 0.00000E+00
 -1     22804 7.22953E-01 9.96398E+00 0.00000E+00
 -1     22805 1.11162E+00 8.16841E+00 0.00000E+00
 -1     22806 1.28003E+00 6.62328E+00 0.00000E+00
 -1     22807 1.25940E+00 5.32659E+00 0.00000E+00
 -1     22808 1.09272E+00 4.27057E+00 0.00000E+00
 -1     22809 8.33343E-01 3.43520E+00 0.00000E+00
 -1     22810 5.42297E-01 2.77606E+00 0.00000E+00
 -1     22811 2.82588E-01 2.22434E+00 0.00000E+00
 -1     22812 1.03072E-01 1.69032E+00 0.00000E+00
 -1     22813 1.86228E-02 1.07237E+00 0.00000E+00
 -1     22814 6.75991E-03 3.89374E-01 0.00000E+00
 -1     22815 1.49747E-02 3.19863E-01 0.00000E+00
 -1     22816 2.02525E-02 2.41894E-01 0.00000E+00
 -1     22817 2.64353E-02 1.36293E-01 0.00000E+00
 -1     22818 2.18015E-02 3.02063E-02 0.00000E+00
 -1     22819 1.74850E-02-6.07161E-02 0.00000E+00
 -1     22820 1.40533E-03-1.09281E-01 0.00000E+00
 -1     22821-2.44799E-02-5.88997E-02 0.00000E+00
 -1     22822-1.79221E+00 1.41929E+00 0.00000E+00
 -1     22823-4.05222E+00 3.03873E+00 0.00000E+00
 -1     22824-5.24822E+00 4.18352E+00 0.00000E+00
 -1     22825-6.51094E+00 5.60108E+00 0.00000E+00
 -1     22826-7.84446E+00 7.32003E+00 0.00000E+00
 -1     22827-9.24923E+00 9.36517E+00 0.00000E+00
 -1     22828-1.07271E+01 1.17609E+01 0.00000E+00
 -1     22829-1.22365E+01 1.45403E+01 0.00000E+00
 -1     22830-1.36456E+01 1.77715E+01 0.00000E+00
 -1     22831-1.50893E+01 2.15138E+01 0.00000E+00
 -1     22832-1.13909E+01 2.41360E+01 0.00000E+00
 -1     22833-8.23195E+00 2.39306E+01 0.00000E+00
 -1     22834 4.40173E-01 1.09561E+01 0.00000E+00
 -1     22835 9.46933E-01 9.03524E+00 0.00000E+00
 -1     22836 1.22107E+00 7.36497E+00 0.00000E+00
 -1     22837 1.29135E+00 5.94271E+00 0.00000E+00
 -1     22838 1.19205E+00 4.76894E+00 0.00000E+00
 -1     22839 9.70825E-01 3.82755E+00 0.00000E+00
 -1     22840 6.87606E-01 3.08741E+00 0.00000E+00
 -1     22841 4.04536E-01 2.49146E+00 0.00000E+00
 -1     22842 1.80642E-01 1.96240E+00 0.00000E+00
 -1     22843 4.94011E-02 1.39601E+00 0.00000E+00
 -1     22844 3.53265E-03 6.99964E-01 0.00000E+00
 -1     22845 1.04427E-02 3.53116E-01 0.00000E+00
 -1     22846 2.35985E-02 8.11237E-02 0.00000E+00
 -1     22847 1.92215E-02-1.53682E-02 0.00000E+00
 -1     22848 1.00078E-02-9.10757E-02 0.00000E+00
 -1     22849-9.25171E-03-1.08593E-01 0.00000E+00
 -1     22850-5.21694E-02 2.43483E-02 0.00000E+00
 -1     22851-2.35541E+00 1.76010E+00 0.00000E+00
 -1     22852-7.16787E+00 6.42097E+00 0.00000E+00
 -1     22853-8.53871E+00 8.30132E+00 0.00000E+00
 -1     22854-9.97882E+00 1.05199E+01 0.00000E+00
 -1     22855-1.14875E+01 1.30988E+01 0.00000E+00
 -1     22856-1.29534E+01 1.60949E+01 0.00000E+00
 -1     22857-1.43444E+01 1.95733E+01 0.00000E+00
 -1     22858-1.58969E+01 2.36144E+01 0.00000E+00
 -1     22859-9.75572E+00 2.40292E+01 0.00000E+00
 -1     22860 2.58518E-02 1.93279E-01 0.00000E+00
 -1     22861 1.78732E-02 2.84332E-01 0.00000E+00
 -1     22862-1.18928E+00 1.08242E+00 0.00000E+00
 -1     22863-5.87037E+00 4.85707E+00 0.00000E+00
 -1     22864-4.64222E+00 3.57857E+00 0.00000E+00
 -1     22865-2.14856E+00 1.60513E+01 0.00000E+00
 -1     22866-2.50490E+00 1.67178E+01 0.00000E+00
 -1     22867-1.48106E+01 2.35115E+01 0.00000E+00
 -1     22868-9.28264E-01 1.35349E+01 0.00000E+00
 -1     22869-1.20120E+00 1.41371E+01 0.00000E+00
 -1     22870-5.69402E+00 2.20509E+01 0.00000E+00
 -1     22871-6.22844E+00 2.29031E+01 0.00000E+00
 -1     22872-1.30087E-02 1.12963E+01 0.00000E+00
 -1     22873-2.17797E-01 1.18278E+01 0.00000E+00
 -1     22874-1.49306E+00 1.47611E+01 0.00000E+00
 -1     22875-1.80716E+00 1.53955E+01 0.00000E+00
 -1     22876-2.29088E+00 1.52234E+01 0.00000E+00
 -1     22877-1.62922E+00 1.39629E+01 0.00000E+00
 -1     22878 6.41468E-01 9.32744E+00 0.00000E+00
 -1     22879 5.01922E-01 9.79668E+00 0.00000E+00
 -1     22880 1.05029E+00 7.61222E+00 0.00000E+00
 -1     22881 9.70660E-01 8.01936E+00 0.00000E+00
 -1     22882 1.23455E+00 6.14364E+00 0.00000E+00
 -1     22883 1.20649E+00 6.48784E+00 0.00000E+00
 -1     22884 1.22495E+00 4.91990E+00 0.00000E+00
 -1     22885 1.24275E+00 5.20301E+00 0.00000E+00
 -1     22886 1.06545E+00 3.93066E+00 0.00000E+00
 -1     22887 1.11591E+00 4.15656E+00 0.00000E+00
 -1     22888 8.10821E-01 3.15544E+00 0.00000E+00
 -1     22889 8.79146E-01 3.33121E+00 0.00000E+00
 -1     22890 5.22502E-01 2.54316E+00 0.00000E+00
 -1     22891 5.94057E-01 2.68503E+00 0.00000E+00
 -1     22892 2.66770E-01 2.02479E+00 0.00000E+00
 -1     22893 3.26580E-01 2.15118E+00 0.00000E+00
 -1     22894 9.17848E-02 1.50033E+00 0.00000E+00
 -1     22895 1.26180E-01 1.63962E+00 0.00000E+00
 -1     22896 5.80330E-03 6.71034E-01 0.00000E+00
 -1     22897 1.83035E-02 5.60474E-01 0.00000E+00
 -1     22898 1.23866E-02 5.81702E-01 0.00000E+00
 -1     22899 1.39282E-03 4.07384E-01 0.00000E+00
 -1     22900 3.49823E-02 4.60771E-01 0.00000E+00
 -1     22901 2.89718E-02 4.85847E-01 0.00000E+00
 -1     22902 8.74346E-03 6.11846E-01 0.00000E+00
 -1     22903 6.98918E-03 6.33228E-01 0.00000E+00
 -1     22904 1.26645E-02 8.59983E-01 0.00000E+00
 -1     22905 2.09603E-02 7.87085E-01 0.00000E+00
 -1     22906 5.33424E-02 1.29339E-01 0.00000E+00
 -1     22907 5.41155E-02 1.70004E-01 0.00000E+00
 -1     22908 4.55566E-02 3.53454E-01 0.00000E+00
 -1     22909 4.38953E-02 3.88869E-01 0.00000E+00
 -1     22910-1.17009E+00 1.05228E+00 0.00000E+00
 -1     22911-8.70487E-01 8.77832E-01 0.00000E+00
 -1     22912 5.21672E-02 2.07178E-01 0.00000E+00
 -1     22913 5.60912E-02 2.46571E-01 0.00000E+00
 -1     22914 8.99849E-02 2.83002E-01 0.00000E+00
 -1     22915 3.99448E-02 4.13751E-01 0.00000E+00
 -1     22916 3.85922E-02 4.41263E-01 0.00000E+00
 -1     22917 6.07238E-02 6.03665E-01 0.00000E+00
 -1     22918 7.29098E-02 5.42429E-01 0.00000E+00
 -1     22919 4.28796E-02-8.65714E-03 0.00000E+00
 -1     22920 4.42915E-02 2.38916E-02 0.00000E+00
 -1     22921 1.91002E-02-1.03751E-01 0.00000E+00
 -1     22922 2.50559E-02-8.45065E-02 0.00000E+00
 -1     22923-2.86662E-02-8.94466E-02 0.00000E+00
 -1     22924-1.18811E-02-1.10443E-01 0.00000E+00
 -1     22925-1.32053E-01 1.29069E-01 0.00000E+00
 -1     22926-8.84163E-02 3.44616E-02 0.00000E+00
 -1     22927-2.25624E+00 1.75429E+00 0.00000E+00
 -1     22928-1.98767E+00 1.57038E+00 0.00000E+00
 -1     22929-2.80760E-01 4.46406E-01 0.00000E+00
 -1     22930-2.00564E-01 2.54531E-01 0.00000E+00
 -1     22931-2.73805E-01 2.82225E-01 0.00000E+00
 -1     22932-5.71347E-01 6.90103E-01 0.00000E+00
 -1     22933-5.61731E+00 5.00637E+00 0.00000E+00
 -1     22934-5.31552E+00 4.64702E+00 0.00000E+00
 -1     22935-3.87218E+00 3.10119E+00 0.00000E+00
 -1     22936-3.59467E+00 2.84148E+00 0.00000E+00
 -1     22937-6.86090E+00 6.63625E+00 0.00000E+00
 -1     22938-6.54287E+00 6.19948E+00 0.00000E+00
 -1     22939-3.32156E+00 2.59572E+00 0.00000E+00
 -1     22940-3.04880E+00 2.36410E+00 0.00000E+00
 -1     22941-3.16140E+00 2.65252E+00 0.00000E+00
 -1     22942-6.23066E+00 5.78267E+00 0.00000E+00
 -1     22943-5.92156E+00 5.38557E+00 0.00000E+00
 -1     22944-5.94595E+00 5.98826E+00 0.00000E+00
 -1     22945-8.17715E+00 8.58808E+00 0.00000E+00
 -1     22946-7.84243E+00 8.06980E+00 0.00000E+00
 -1     22947-9.56568E+00 1.08857E+01 0.00000E+00
 -1     22948-9.20975E+00 1.02781E+01 0.00000E+00
 -1     22949-1.10406E+01 1.35335E+01 0.00000E+00
 -1     22950-1.06753E+01 1.28287E+01 0.00000E+00
 -1     22951-1.23933E+01 1.66280E+01 0.00000E+00
 -1     22952-1.20622E+01 1.58111E+01 0.00000E+00
 -1     22953-1.36380E+01 2.02932E+01 0.00000E+00
 -1     22954-1.33013E+01 1.93414E+01 0.00000E+00
 -1     22955-1.43619E+01 2.23799E+01 0.00000E+00
 -1     22956-1.39945E+01 2.13531E+01 0.00000E+00
 -1     22957-1.29769E+01 2.11216E+01 0.00000E+00
 -1     22958-1.37371E+01 2.33423E+01 0.00000E+00
 -1     22959-1.08697E+01 2.29026E+01 0.00000E+00
 -1     22960-1.17318E+01 2.29653E+01 0.00000E+00
 -1     22961-2.89602E+00 1.74115E+01 0.00000E+00
 -1     22962-3.29998E+00 1.81172E+01 0.00000E+00
 -1     22963-3.05020E+00 1.65520E+01 0.00000E+00
 -1     22964-7.69253E+00 2.29542E+01 0.00000E+00
 -1     22965-8.42373E+00 2.30124E+01 0.00000E+00
 -1     22966-1.27719E+01 2.32121E+01 0.00000E+00
 -1     22967-6.95813E+00 2.29372E+01 0.00000E+00
 -1     22968 5.36126E-02 2.82987E-01 0.00000E+00
 -1     22969 4.92961E-02 3.19510E-01 0.00000E+00
 -1     22970 8.04861E-02 4.63655E-01 0.00000E+00
 -1     22971 8.86100E-02 3.73086E-01 0.00000E+00
 -1     22972-4.37267E-01 1.23792E+01 0.00000E+00
 -1     22973-6.73901E-01 1.29464E+01 0.00000E+00
 -1     22974-1.05486E+00 1.27719E+01 0.00000E+00
 -1     22975-5.52450E-01 1.16546E+01 0.00000E+00
 -1     22976 3.46415E-01 1.02780E+01 0.00000E+00
 -1     22977 1.75567E-01 1.07796E+01 0.00000E+00
 -1     22978-1.18239E-01 1.06088E+01 0.00000E+00
 -1     22979 2.53911E-01 9.63180E+00 0.00000E+00
 -1     22980-5.01950E+00 4.30367E+00 0.00000E+00
 -1     22981-4.72730E+00 3.97792E+00 0.00000E+00
 -1     22982-4.78648E+00 4.44596E+00 0.00000E+00
 -1     22983-3.73623E+00 1.88584E+01 0.00000E+00
 -1     22984-4.18382E+00 1.96000E+01 0.00000E+00
 -1     22985-3.90559E+00 1.79706E+01 0.00000E+00
 -1     22986 1.19787E+00 4.65036E+00 0.00000E+00
 -1     22987 1.18243E+00 4.52768E+00 0.00000E+00
 -1     22988 1.16151E+00 4.39541E+00 0.00000E+00
 -1     22989-1.22345E+01 2.19924E+01 0.00000E+00
 -1     22990 1.11591E+00 7.22319E+00 0.00000E+00
 -1     22991 9.86612E-01 7.08127E+00 0.00000E+00
 -1     22992 1.16778E+00 6.84713E+00 0.00000E+00
 -1     22993 8.75732E-01 8.43985E+00 0.00000E+00
 -1     22994 7.66644E-01 8.87770E+00 0.00000E+00
 -1     22995 1.11133E+00 6.35252E+00 0.00000E+00
 -1     22996 5.59907E-01 8.72084E+00 0.00000E+00
 -1     22997 1.25193E+00 5.50003E+00 0.00000E+00
 -1     22998 1.24909E+00 5.81391E+00 0.00000E+00
 -1     22999 1.12187E+00 4.03777E+00 0.00000E+00
 -1     23000 9.45549E-01 3.51806E+00 0.00000E+00
 -1     23001 1.00831E+00 3.71765E+00 0.00000E+00
 -1     23002 6.66802E-01 2.83325E+00 0.00000E+00
 -1     23003 7.40315E-01 2.99032E+00 0.00000E+00
 -1     23004 3.87745E-01 2.27452E+00 0.00000E+00
 -1     23005 4.53269E-01 2.40658E+00 0.00000E+00
 -1     23006 1.66024E-01 1.77307E+00 0.00000E+00
 -1     23007 2.14674E-01 1.90243E+00 0.00000E+00
 -1     23008 4.89872E-02 9.45645E-02 0.00000E+00
 -1     23009 8.72981E-02 1.89395E-01 0.00000E+00
 -1     23010 4.71691E-02 5.77695E-02 0.00000E+00
 -1     23011 4.11037E-02 1.19819E+00 0.00000E+00
 -1     23012 6.34869E-02 1.35060E+00 0.00000E+00
 -1     23013 2.40859E-02 1.03175E+00 0.00000E+00
 -1     23014 2.23661E-02 5.32480E-01 0.00000E+00
 -1     23015 3.48636E-02 7.21341E-01 0.00000E+00
 -1     23016 2.43140E-02 5.08855E-01 0.00000E+00
 -1     23017 3.87065E-02-3.63303E-02 0.00000E+00
 -1     23018 6.64498E-02 2.07000E-02 0.00000E+00
 -1     23019 3.19596E-02-6.32071E-02 0.00000E+00
 -1     23020-1.44989E+00 1.22485E+00 0.00000E+00
 -1     23021-1.13588E+00 1.03347E+00 0.00000E+00
 -1     23022-1.72685E+00 1.39805E+00 0.00000E+00
 -1     23023 1.18343E+00 5.68263E+00 0.00000E+00
 -1     23024 7.81379E-02 9.92465E-02 0.00000E+00
 -1     23025-6.35184E-01 6.70599E-01 0.00000E+00
 -1     23026 9.97598E-03-1.13072E-01 0.00000E+00
 -1     23027 1.86217E-02-7.71141E-02 0.00000E+00
 -1     23028 2.10027E-03-1.15671E-01 0.00000E+00
 -1     23029 7.81621E-02 1.30031E+00 0.00000E+00
 -1     23030 4.61908E-02-3.88841E-02 0.00000E+00
 -1     23031-1.06097E-02-7.94344E-02 0.00000E+00
 -1     23032-6.58473E-02-2.22185E-02 0.00000E+00
 -1     23033-4.64517E-02-6.19368E-02 0.00000E+00
 -1     23034-1.65048E+00 1.38555E+00 0.00000E+00
 -1     23035-2.78442E+00 2.14743E+00 0.00000E+00
 -1     23036-2.51632E+00 1.94318E+00 0.00000E+00
 -1     23037-4.15302E+00 3.37746E+00 0.00000E+00
 -1     23038-3.68867E+00 3.18593E+00 0.00000E+00
 -1     23039-4.43895E+00 3.66900E+00 0.00000E+00
 -1     23040-5.35836E+00 5.17958E+00 0.00000E+00
 -1     23041-2.64987E+00 2.17992E+00 0.00000E+00
 -1     23042-8.51611E+00 9.13005E+00 0.00000E+00
 -1     23043-7.81474E+00 8.90174E+00 0.00000E+00
 -1     23044-8.86017E+00 9.69312E+00 0.00000E+00
 -1     23045-7.51208E+00 7.57029E+00 0.00000E+00
 -1     23046-7.18370E+00 7.09328E+00 0.00000E+00
 -1     23047-8.47472E+00 1.00452E+01 0.00000E+00
 -1     23048-6.55187E+00 6.87545E+00 0.00000E+00
 -1     23049-1.02962E+01 1.21620E+01 0.00000E+00
 -1     23050-9.93258E+00 1.15102E+01 0.00000E+00
 -1     23051-1.17546E+01 1.50170E+01 0.00000E+00
 -1     23052-1.13978E+01 1.42590E+01 0.00000E+00
 -1     23053-1.05909E+01 1.39913E+01 0.00000E+00
 -1     23054-1.12326E+01 1.55324E+01 0.00000E+00
 -1     23055-1.30083E+01 1.83726E+01 0.00000E+00
 -1     23056-1.26772E+01 1.74908E+01 0.00000E+00
 -1     23057-1.18017E+01 1.72094E+01 0.00000E+00
 -1     23058-1.23591E+01 1.90647E+01 0.00000E+00
 -1     23059-4.23015E+00 3.78172E+00 0.00000E+00
 -1     23060-9.18893E+00 2.30471E+01 0.00000E+00
 -1     23061-9.97225E+00 2.30712E+01 0.00000E+00
 -1     23062-7.15268E+00 2.20278E+01 0.00000E+00
 -1     23063-4.66688E+00 2.03963E+01 0.00000E+00
 -1     23064-5.16766E+00 2.11929E+01 0.00000E+00
 -1     23065 1.48545E-01 1.57955E+00 0.00000E+00
 -1     23066 4.73118E-02 6.60548E-01 0.00000E+00
 -1     23067 1.02846E+00 3.60183E+00 0.00000E+00
 -1     23068-5.88306E+00 2.11473E+01 0.00000E+00
 -1     23069-1.02928E+01 2.19343E+01 0.00000E+00
 -1     23070-9.16286E+00 1.12710E+01 0.00000E+00
 -1     23071-4.85010E+00 1.94939E+01 0.00000E+00
 -1     23072-2.15074E+00 1.75972E+00 0.00000E+00
 -1     23073-5.72752E-02-3.90819E-02 0.00000E+00
 -1     23074 2.44860E-01 1.82805E+00 0.00000E+00
 -1     23075 4.92769E-01 2.31191E+00 0.00000E+00
 -1     23076 7.77048E-01 2.88359E+00 0.00000E+00
 -1     23077 3.61964E-01 2.06326E+00 0.00000E+00
 -1     23078 8.03538E-01 7.87073E+00 0.00000E+00
 -1     23079 6.34770E-01 2.58368E+00 0.00000E+00
 -1     23080 1.20523E+00 5.07661E+00 0.00000E+00
 -1     23081 9.10214E-01 3.21944E+00 0.00000E+00
 -1     23082 3.05505E-02 9.87706E-01 0.00000E+00
 -1     23083-1.31701E-01 5.74802E-02 0.00000E+00
 -1     23084-7.17538E+00 7.84628E+00 0.00000E+00
 -1     23085-9.87903E+00 1.25795E+01 0.00000E+00
 -1     23086-8.63898E+00 2.20749E+01 0.00000E+00
 -1     23087 4.78515E-01 8.13787E+00 0.00000E+00
 -1     23088 3.29075E-01 8.56771E+00 0.00000E+00
 -1     23089 5.94056E-01 2.33842E+00 0.00000E+00
 -1     23090 6.64711E-01 2.47439E+00 0.00000E+00
 -1     23091 1.05219E+00 5.87843E+00 0.00000E+00
 -1     23092 9.93978E-01 6.21882E+00 0.00000E+00
 -1     23093 8.65709E-01 2.92815E+00 0.00000E+00
 -1     23094 9.27083E-01 3.09937E+00 0.00000E+00
 -1     23095 1.07435E+00 3.69156E+00 0.00000E+00
 -1     23096 1.10912E+00 3.91605E+00 0.00000E+00
 -1     23097-1.19038E+01 2.08971E+01 0.00000E+00
 -1     23098 3.94347E-02 9.51304E-01 0.00000E+00
 -1     23099 3.26978E-01 1.84562E+00 0.00000E+00
 -1     23100 3.89252E-01 1.95851E+00 0.00000E+00
 -1     23101 1.15409E+00 4.67030E+00 0.00000E+00
 -1     23102 1.14744E+00 4.95172E+00 0.00000E+00
 -1     23103 7.34057E-01 2.61570E+00 0.00000E+00
 -1     23104 8.01689E-01 2.76831E+00 0.00000E+00
 -1     23105 8.15099E-01 2.64876E+00 0.00000E+00
 -1     23106 6.85281E-01 2.35973E+00 0.00000E+00
 -1     23107 4.54785E-01 2.08330E+00 0.00000E+00
 -1     23108 5.23210E-01 2.20741E+00 0.00000E+00
 -1     23109 4.10848E-01 1.85635E+00 0.00000E+00
 -1     23110 7.50357E-02 7.94635E-01 0.00000E+00
 -1     23111 6.63195E-02 8.28729E-01 0.00000E+00
 -1     23112 1.28445E-01 2.54633E-01 0.00000E+00
 -1     23113 1.36116E-01 3.09358E-01 0.00000E+00
 -1     23114-2.28703E-01 1.95406E-01 0.00000E+00
 -1     23115-1.61970E-01 1.09028E-01 0.00000E+00
 -1     23116 9.82627E-01 3.28380E+00 0.00000E+00
 -1     23117 1.03181E+00 3.47999E+00 0.00000E+00
 -1     23118 1.02073E+00 3.35785E+00 0.00000E+00
 -1     23119 9.31084E-01 2.97785E+00 0.00000E+00
 -1     23120-3.64472E-02-6.72317E-03 0.00000E+00
 -1     23121-8.33171E-03-1.71276E-02 0.00000E+00
 -1     23122 5.82529E-02 8.71494E-01 0.00000E+00
 -1     23123 4.80390E-02 9.08343E-01 0.00000E+00
 -1     23124 6.34115E-02 1.10684E+00 0.00000E+00
 -1     23125 8.64898E-02 1.01358E+00 0.00000E+00
 -1     23126 9.12284E-02 7.02686E-02 0.00000E+00
 -1     23127 1.04209E-01 1.10707E-01 0.00000E+00
 -1     23128-1.04929E-01 5.39431E-02 0.00000E+00
 -1     23129-7.16859E-02 1.11192E-02 0.00000E+00
 -1     23130-7.70841E-02 8.29298E-02 0.00000E+00
 -1     23131-1.81108E-01 1.72167E-01 0.00000E+00
 -1     23132 1.35979E-01 3.59512E-01 0.00000E+00
 -1     23133 1.33804E-01 4.13146E-01 0.00000E+00
 -1     23134 1.84672E-01 4.46714E-01 0.00000E+00
 -1     23135-8.75736E+00 1.16912E+01 0.00000E+00
 -1     23136-8.41815E+00 1.10486E+01 0.00000E+00
 -1     23137-1.12492E+00 1.02468E+00 0.00000E+00
 -1     23138-8.93389E-01 8.39143E-01 0.00000E+00
 -1     23139 9.46913E-02 1.25314E+00 0.00000E+00
 -1     23140-6.83710E+00 8.14602E+00 0.00000E+00
 -1     23141-6.53515E+00 7.63215E+00 0.00000E+00
 -1     23142 1.12881E+00 5.24478E+00 0.00000E+00
 -1     23143 1.09664E+00 5.55400E+00 0.00000E+00
 -1     23144 9.89756E-01 5.42522E+00 0.00000E+00
 -1     23145 1.07045E+00 4.82535E+00 0.00000E+00
 -1     23146-4.72772E-01 4.78612E-01 0.00000E+00
 -1     23147-3.23885E-01 3.14424E-01 0.00000E+00
 -1     23148-3.59046E-01 3.61128E-01 0.00000E+00
 -1     23149-6.76485E-01 6.68128E-01 0.00000E+00
 -1     23150-3.49818E+00 3.28783E+00 0.00000E+00
 -1     23151-3.24403E+00 3.00063E+00 0.00000E+00
 -1     23152-4.54807E+00 4.60875E+00 0.00000E+00
 -1     23153-4.27981E+00 4.25391E+00 0.00000E+00
 -1     23154-6.23717E+00 7.13883E+00 0.00000E+00
 -1     23155-5.94427E+00 6.66765E+00 0.00000E+00
 -1     23156-5.92149E+00 7.42668E+00 0.00000E+00
 -1     23157-5.65548E+00 6.21720E+00 0.00000E+00
 -1     23158-5.37212E+00 5.78678E+00 0.00000E+00
 -1     23159-5.36335E+00 6.46880E+00 0.00000E+00
 -1     23160-9.55704E+00 2.12076E+01 0.00000E+00
 -1     23161-1.04549E+01 2.10325E+01 0.00000E+00
 -1     23162 1.15178E-01 1.54276E-01 0.00000E+00
 -1     23163 1.22655E-01 2.04371E-01 0.00000E+00
 -1     23164 1.71331E-01 3.30514E-01 0.00000E+00
 -1     23165 1.46926E-01 2.24038E-01 0.00000E+00
 -1     23166-5.09414E+00 5.37533E+00 0.00000E+00
 -1     23167-4.81810E+00 4.98330E+00 0.00000E+00
 -1     23168-4.30492E+00 4.79514E+00 0.00000E+00
 -1     23169-4.82504E+00 5.59394E+00 0.00000E+00
 -1     23170-8.08456E+00 1.04262E+01 0.00000E+00
 -1     23171-7.76275E+00 9.82619E+00 0.00000E+00
 -1     23172-7.70328E+00 1.08310E+01 0.00000E+00
 -1     23173-4.01651E+00 3.91454E+00 0.00000E+00
 -1     23174-3.75559E+00 3.59330E+00 0.00000E+00
 -1     23175-3.30592E+00 3.41294E+00 0.00000E+00
 -1     23176-3.79910E+00 4.07013E+00 0.00000E+00
 -1     23177-3.19490E+00 1.57186E+01 0.00000E+00
 -1     23178-3.61271E+00 1.63937E+01 0.00000E+00
 -1     23179 1.13444E+00 4.15358E+00 0.00000E+00
 -1     23180 1.14915E+00 4.40487E+00 0.00000E+00
 -1     23181 1.08075E+00 3.79412E+00 0.00000E+00
 -1     23182-6.60452E+00 2.11105E+01 0.00000E+00
 -1     23183-7.32901E+00 2.11217E+01 0.00000E+00
 -1     23184-2.03644E+00 1.78237E+00 0.00000E+00
 -1     23185-1.80290E+00 1.57704E+00 0.00000E+00
 -1     23186 9.22029E-01 6.57302E+00 0.00000E+00
 -1     23187 8.35046E-01 6.94381E+00 0.00000E+00
 -1     23188 8.54193E-01 6.08629E+00 0.00000E+00
 -1     23189 1.28027E-01 1.39347E+00 0.00000E+00
 -1     23190 1.69953E-01 1.52113E+00 0.00000E+00
 -1     23191 1.07891E-01 1.19889E+00 0.00000E+00
 -1     23192-4.06575E+00 1.71035E+01 0.00000E+00
 -1     23193-4.52831E+00 1.78294E+01 0.00000E+00
 -1     23194-4.20660E+00 1.62593E+01 0.00000E+00
 -1     23195-2.99310E+00 2.72638E+00 0.00000E+00
 -1     23196-2.74639E+00 2.46867E+00 0.00000E+00
 -1     23197-2.82431E+00 2.82342E+00 0.00000E+00
 -1     23198-5.02660E+00 1.86124E+01 0.00000E+00
 -1     23199-5.53291E+00 1.94021E+01 0.00000E+00
 -1     23200-5.18282E+00 1.77349E+01 0.00000E+00
 -1     23201 1.67182E-02-1.74831E-02 0.00000E+00
 -1     23202 4.06268E-02-7.38413E-03 0.00000E+00
 -1     23203 2.31724E-03 5.94466E-02 0.00000E+00
 -1     23204-2.50454E+00 2.22657E+00 0.00000E+00
 -1     23205-2.26540E+00 1.99641E+00 0.00000E+00
 -1     23206-2.35978E+00 2.29498E+00 0.00000E+00
 -1     23207 6.25150E-02 9.41314E-03 0.00000E+00
 -1     23208 7.71415E-02 3.76667E-02 0.00000E+00
 -1     23209 1.12487E-01 1.36049E-01 0.00000E+00
 -1     23210 6.57363E-02 7.95508E-02 0.00000E+00
 -1     23211-6.06825E+00 2.02546E+01 0.00000E+00
 -1     23212 5.47931E-01 2.09989E+00 0.00000E+00
 -1     23213 1.62517E-01 9.01012E+00 0.00000E+00
 -1     23214-1.90956E-02 9.47165E+00 0.00000E+00
 -1     23215 7.20523E-02 8.41695E+00 0.00000E+00
 -1     23216 1.22896E-01 5.66776E-01 0.00000E+00
 -1     23217 1.18419E-01 6.18851E-01 0.00000E+00
 -1     23218-2.20844E-01 9.94780E+00 0.00000E+00
 -1     23219-4.35894E-01 1.04423E+01 0.00000E+00
 -1     23220-3.20316E-01 9.31661E+00 0.00000E+00
 -1     23221-1.91630E+00 1.82631E+00 0.00000E+00
 -1     23222-2.79211E+00 1.50649E+01 0.00000E+00
 -1     23223-3.32517E+00 1.49157E+01 0.00000E+00
 -1     23224-2.42102E+00 1.44263E+01 0.00000E+00
 -1     23225-7.51628E+00 2.02139E+01 0.00000E+00
 -1     23226-8.06944E+00 2.11181E+01 0.00000E+00
 -1     23227-1.10191E+01 2.05024E+01 0.00000E+00
 -1     23228-1.17046E+01 1.96862E+01 0.00000E+00
 -1     23229 1.09846E+00 4.28106E+00 0.00000E+00
 -1     23230 7.31662E-01 7.32707E+00 0.00000E+00
 -1     23231 6.13471E-01 7.72648E+00 0.00000E+00
 -1     23232 8.59814E-02 7.70950E-01 0.00000E+00
 -1     23233 1.10318E-01 9.39530E-01 0.00000E+00
 -1     23234 9.61230E-02 7.36949E-01 0.00000E+00
 -1     23235-1.35132E+00 1.19968E+00 0.00000E+00
 -1     23236-1.08799E+00 1.03311E+00 0.00000E+00
 -1     23237-1.58381E+00 1.39050E+00 0.00000E+00
 -1     23238-9.11674E+00 1.23451E+01 0.00000E+00
 -1     23239-8.36945E+00 1.21261E+01 0.00000E+00
 -1     23240-9.46598E+00 1.30283E+01 0.00000E+00
 -1     23241-6.68395E-01 1.09535E+01 0.00000E+00
 -1     23242-9.16494E-01 1.14840E+01 0.00000E+00
 -1     23243-7.79755E-01 1.02841E+01 0.00000E+00
 -1     23244 2.17408E-01 1.63273E+00 0.00000E+00
 -1     23245 2.72580E-01 1.74708E+00 0.00000E+00
 -1     23246-1.18094E+00 1.20357E+01 0.00000E+00
 -1     23247-1.46217E+00 1.26034E+01 0.00000E+00
 -1     23248-1.30373E+00 1.13277E+01 0.00000E+00
 -1     23249 1.14524E-01 6.70742E-01 0.00000E+00
 -1     23250 1.07073E-01 7.12709E-01 0.00000E+00
 -1     23251 1.40700E-01 8.80704E-01 0.00000E+00
 -1     23252 1.61255E-01 7.91147E-01 0.00000E+00
 -1     23253-6.84849E-01 6.70460E-01 0.00000E+00
 -1     23254-6.23492E+00 1.93585E+01 0.00000E+00
 -1     23255-7.14093E+00 8.68429E+00 0.00000E+00
 -1     23256-6.49604E+00 8.47151E+00 0.00000E+00
 -1     23257-7.44983E+00 9.24218E+00 0.00000E+00
 -1     23258-8.83283E+00 2.11472E+01 0.00000E+00
 -1     23259-8.97669E+00 2.02692E+01 0.00000E+00
 -1     23260-1.07374E+01 1.60317E+01 0.00000E+00
 -1     23261-1.04521E+01 1.52173E+01 0.00000E+00
 -1     23262-1.01715E+01 1.44556E+01 0.00000E+00
 -1     23263-9.83889E+00 1.37095E+01 0.00000E+00
 -1     23264-9.07376E+00 1.34756E+01 0.00000E+00
 -1     23265-9.70645E+00 1.49322E+01 0.00000E+00
 -1     23266 3.97974E-01 7.58211E+00 0.00000E+00
 -1     23267-1.49988E+00 1.41016E+00 0.00000E+00
 -1     23268 6.58602E-01 6.80642E+00 0.00000E+00
 -1     23269 1.29279E-01 4.61588E-01 0.00000E+00
 -1     23270 1.26921E-01 5.13245E-01 0.00000E+00
 -1     23271 1.72847E-01 6.71906E-01 0.00000E+00
 -1     23272 1.80207E-01 5.58422E-01 0.00000E+00
 -1     23273-1.14336E+01 1.86868E+01 0.00000E+00
 -1     23274 2.91263E-01 1.64654E+00 0.00000E+00
 -1     23275 1.89066E-01 1.44569E+00 0.00000E+00
 -1     23276-1.09133E+01 1.68697E+01 0.00000E+00
 -1     23277-1.01528E+01 1.65482E+01 0.00000E+00
 -1     23278-1.11761E+01 1.77517E+01 0.00000E+00
 -1     23279-7.08400E+00 9.60977E+00 0.00000E+00
 -1     23280-6.96567E+00 1.93188E+01 0.00000E+00
 -1     23281-7.70070E+00 1.93109E+01 0.00000E+00
 -1     23282 2.43551E-01 1.41429E+00 0.00000E+00
 -1     23283 2.96071E-01 1.50135E+00 0.00000E+00
 -1     23284 1.03881E+00 3.91184E+00 0.00000E+00
 -1     23285 1.03059E+00 4.16082E+00 0.00000E+00
 -1     23286-5.19529E-01 5.25117E-01 0.00000E+00
 -1     23287-3.77305E-01 3.94625E-01 0.00000E+00
 -1     23288-6.90118E-01 7.03907E-01 0.00000E+00
 -1     23289 5.87712E-01 6.30959E+00 0.00000E+00
 -1     23290 4.62606E-01 6.67609E+00 0.00000E+00
 -1     23291-1.05735E+01 1.83381E+01 0.00000E+00
 -1     23292 2.38387E-01 5.49841E-01 0.00000E+00
 -1     23293 2.42140E-01 6.12478E-01 0.00000E+00
 -1     23294 1.20621E-01 1.14839E+00 0.00000E+00
 -1     23295-1.75674E+00 1.31979E+01 0.00000E+00
 -1     23296-2.07765E+00 1.38012E+01 0.00000E+00
 -1     23297-1.88846E+00 1.24543E+01 0.00000E+00
 -1     23298 3.63615E-01 1.63359E+00 0.00000E+00
 -1     23299 4.27312E-01 1.74794E+00 0.00000E+00
 -1     23300 3.07175E-01 1.39753E+00 0.00000E+00
 -1     23301-7.98192E+00 1.26163E+01 0.00000E+00
 -1     23302-7.64819E+00 1.19449E+01 0.00000E+00
 -1     23303-5.60538E+00 7.73589E+00 0.00000E+00
 -1     23304-5.33564E+00 7.22964E+00 0.00000E+00
 -1     23305-7.31269E+00 1.12745E+01 0.00000E+00
 -1     23306-7.00580E+00 1.06343E+01 0.00000E+00
 -1     23307-6.94825E+00 1.17482E+01 0.00000E+00
 -1     23308-5.06557E+00 6.74583E+00 0.00000E+00
 -1     23309-4.80447E+00 6.28095E+00 0.00000E+00
 -1     23310-4.77118E+00 7.04295E+00 0.00000E+00
 -1     23311 3.18642E-01 7.05094E+00 0.00000E+00
 -1     23312 1.60805E-01 7.44297E+00 0.00000E+00
 -1     23313 2.42434E-01 6.54437E+00 0.00000E+00
 -1     23314-6.41504E+00 1.84804E+01 0.00000E+00
 -1     23315-1.78491E+00 1.88130E+00 0.00000E+00
 -1     23316-1.58767E+00 1.65468E+00 0.00000E+00
 -1     23317-6.71325E+00 1.00021E+01 0.00000E+00
 -1     23318-6.42837E+00 9.40438E+00 0.00000E+00
 -1     23319-6.34755E+00 1.04286E+01 0.00000E+00
 -1     23320-1.40344E+00 1.44496E+00 0.00000E+00
 -1     23321-1.21827E+00 1.24261E+00 0.00000E+00
 -1     23322-1.29934E+00 1.49909E+00 0.00000E+00
 -1     23323 4.96259E-01 1.87144E+00 0.00000E+00
 -1     23324 5.65139E-01 1.99111E+00 0.00000E+00
 -1     23325 4.39389E-01 1.64246E+00 0.00000E+00
 -1     23326-2.55204E+00 1.36542E+01 0.00000E+00
 -1     23327-4.34016E+00 1.54129E+01 0.00000E+00
 -1     23328-4.81642E+00 1.61046E+01 0.00000E+00
 -1     23329-6.15527E+00 8.82151E+00 0.00000E+00
 -1     23330-5.87909E+00 8.26665E+00 0.00000E+00
 -1     23331-5.28808E+00 8.06968E+00 0.00000E+00
 -1     23332-5.80863E+00 9.19900E+00 0.00000E+00
 -1     23333-2.65133E+00 2.93603E+00 0.00000E+00
 -1     23334-2.42827E+00 2.65172E+00 0.00000E+00
 -1     23335-5.32458E+00 1.68836E+01 0.00000E+00
 -1     23336-5.84281E+00 1.76520E+01 0.00000E+00
 -1     23337-5.45679E+00 1.60209E+01 0.00000E+00
 -1     23338-2.71882E-02 1.70568E-01 0.00000E+00
 -1     23339 1.82774E-02 1.69063E-01 0.00000E+00
 -1     23340-2.20793E+00 2.37950E+00 0.00000E+00
 -1     23341-1.99407E+00 2.12242E+00 0.00000E+00
 -1     23342-2.05953E+00 2.48848E+00 0.00000E+00
 -1     23343 1.30315E-01 1.08976E+00 0.00000E+00
 -1     23344 1.57604E-01 1.27484E+00 0.00000E+00
 -1     23345 2.05561E-01 1.37992E+00 0.00000E+00
 -1     23346 1.47712E-01 1.05588E+00 0.00000E+00
 -1     23347-2.02490E+00 1.17393E+01 0.00000E+00
 -1     23348-2.34587E+00 1.23142E+01 0.00000E+00
 -1     23349 1.79856E-01 3.08393E-01 0.00000E+00
 -1     23350 1.97851E-01 3.61589E-01 0.00000E+00
 -1     23351-1.55446E-02 7.84521E+00 0.00000E+00
 -1     23352-2.06934E-01 8.26910E+00 0.00000E+00
 -1     23353-1.00186E-01 7.30406E+00 0.00000E+00
 -1     23354-2.87919E+00 3.23951E+00 0.00000E+00
 -1     23355-2.47893E+00 3.07383E+00 0.00000E+00
 -1     23356-3.10946E+00 3.55756E+00 0.00000E+00
 -1     23357 1.03550E+00 3.67366E+00 0.00000E+00
 -1     23358 9.74050E-01 3.55297E+00 0.00000E+00
 -1     23359 1.02178E+00 3.44859E+00 0.00000E+00
 -1     23360-1.02593E+01 1.98089E+01 0.00000E+00
 -1     23361-9.34056E+00 1.53865E+01 0.00000E+00
 -1     23362-9.07849E+00 1.46103E+01 0.00000E+00
 -1     23363 1.00914E+00 4.42287E+00 0.00000E+00
 -1     23364 9.73237E-01 4.70229E+00 0.00000E+00
 -1     23365 9.43561E-01 4.03887E+00 0.00000E+00
 -1     23366 8.71059E-01 2.68032E+00 0.00000E+00
 -1     23367 9.19277E-01 2.85201E+00 0.00000E+00
 -1     23368 6.31061E-01 2.11172E+00 0.00000E+00
 -1     23369 6.97415E-01 2.23976E+00 0.00000E+00
 -1     23370 5.71006E-01 1.87191E+00 0.00000E+00
 -1     23371 2.25072E-01 7.76333E-01 0.00000E+00
 -1     23372 2.21681E-01 8.40258E-01 0.00000E+00
 -1     23373-1.72136E+00 1.11735E+01 0.00000E+00
 -1     23374-2.15731E+00 1.10441E+01 0.00000E+00
 -1     23375-1.43030E+00 1.06413E+01 0.00000E+00
 -1     23376 6.94819E-01 5.96001E+00 0.00000E+00
 -1     23377 5.15327E-01 5.83507E+00 0.00000E+00
 -1     23378 7.86809E-01 5.62265E+00 0.00000E+00
 -1     23379 7.57347E-01 2.37322E+00 0.00000E+00
 -1     23380 8.15677E-01 2.52008E+00 0.00000E+00
 -1     23381 6.94804E-01 2.11211E+00 0.00000E+00
 -1     23382-4.55018E+00 5.83576E+00 0.00000E+00
 -1     23383-4.29992E+00 5.41147E+00 0.00000E+00
 -1     23384-4.27433E+00 6.10082E+00 0.00000E+00
 -1     23385 2.28572E-01 4.82888E-01 0.00000E+00
 -1     23386 2.88698E-01 6.56491E-01 0.00000E+00
 -1     23387 2.15552E-01 4.20407E-01 0.00000E+00
 -1     23388 1.56707E-01 2.63349E-01 0.00000E+00
 -1     23389 2.04714E-01 4.07100E-01 0.00000E+00
 -1     23390 1.30029E-01 2.24449E-01 0.00000E+00
 -1     23391 9.61486E-01 3.03898E+00 0.00000E+00
 -1     23392 9.96565E-01 3.23568E+00 0.00000E+00
 -1     23393 9.56536E-01 3.11550E+00 0.00000E+00
 -1     23394 8.97299E-01 2.72921E+00 0.00000E+00
 -1     23395-2.66482E+00 1.29198E+01 0.00000E+00
 -1     23396-3.03419E+00 1.35273E+01 0.00000E+00
 -1     23397-2.80651E+00 1.21957E+01 0.00000E+00
 -1     23398-8.00168E+00 1.84126E+01 0.00000E+00
 -1     23399-8.56901E+00 1.92815E+01 0.00000E+00
 -1     23400-2.81104E-01 3.12036E-01 0.00000E+00
 -1     23401-2.01958E-01 2.38345E-01 0.00000E+00
 -1     23402-3.91095E-01 4.62120E-01 0.00000E+00
 -1     23403-1.36469E-01 2.09000E-01 0.00000E+00
 -1     23404-8.00080E-02 1.81452E-01 0.00000E+00
 -1     23405-7.28315E-02 2.96405E-01 0.00000E+00
 -1     23406-2.09947E-01 3.40178E-01 0.00000E+00
 -1     23407-1.05470E+00 1.06355E+00 0.00000E+00
 -1     23408-8.72660E-01 8.80764E-01 0.00000E+00
 -1     23409-4.05670E+00 5.00351E+00 0.00000E+00
 -1     23410-3.81422E+00 4.61556E+00 0.00000E+00
 -1     23411-3.80465E+00 5.23502E+00 0.00000E+00
 -1     23412 2.04759E-01 1.24355E+00 0.00000E+00
 -1     23413-8.35381E+00 1.32897E+01 0.00000E+00
 -1     23414-7.63016E+00 1.31101E+01 0.00000E+00
 -1     23415-8.70070E+00 1.39857E+01 0.00000E+00
 -1     23416 9.25334E-01 4.99322E+00 0.00000E+00
 -1     23417 8.63450E-01 5.30027E+00 0.00000E+00
 -1     23418 8.58244E-01 4.57975E+00 0.00000E+00
 -1     23419-9.29811E+00 1.93388E+01 0.00000E+00
 -1     23420-9.87133E-01 1.10043E+00 0.00000E+00
 -1     23421 8.06104E-01 2.39339E+00 0.00000E+00
 -1     23422-6.55711E+00 1.76093E+01 0.00000E+00
 -1     23423-1.65974E+00 1.96192E+00 0.00000E+00
 -1     23424-3.44190E+00 1.41367E+01 0.00000E+00
 -1     23425-3.87100E+00 1.47743E+01 0.00000E+00
 -1     23426-4.45644E+00 1.46244E+01 0.00000E+00
 -1     23427-3.55601E+00 1.33931E+01 0.00000E+00
 -1     23428-3.57785E+00 4.24472E+00 0.00000E+00
 -1     23429-3.34222E+00 3.89414E+00 0.00000E+00
 -1     23430-3.35228E+00 4.44285E+00 0.00000E+00
 -1     23431-9.37099E+00 1.60948E+01 0.00000E+00
 -1     23432-8.75323E+00 1.57624E+01 0.00000E+00
 -1     23433-9.53702E+00 1.69460E+01 0.00000E+00
 -1     23434 7.17114E-01 5.17796E+00 0.00000E+00
 -1     23435-6.77198E-01 7.36349E-01 0.00000E+00
 -1     23436-9.83384E+00 1.88406E+01 0.00000E+00
 -1     23437 2.36763E-01 6.62248E-01 0.00000E+00
 -1     23438 2.31964E-01 7.22056E-01 0.00000E+00
 -1     23439 2.85593E-01 8.94948E-01 0.00000E+00
 -1     23440 2.98352E-01 7.81924E-01 0.00000E+00
 -1     23441-9.58956E+00 1.78892E+01 0.00000E+00
 -1     23442 6.19742E-02 1.77739E-01 0.00000E+00
 -1     23443 9.75495E-02 1.97343E-01 0.00000E+00
 -1     23444 1.35944E-01 3.29508E-01 0.00000E+00
 -1     23445 4.40505E-02 2.92688E-01 0.00000E+00
 -1     23446-4.17710E-01 8.70719E+00 0.00000E+00
 -1     23447-6.44332E-01 9.16405E+00 0.00000E+00
 -1     23448-5.11187E-01 8.12640E+00 0.00000E+00
 -1     23449-6.67416E+00 1.67624E+01 0.00000E+00
 -1     23450-7.26661E+00 1.75732E+01 0.00000E+00
 -1     23451 6.46601E-01 4.75353E+00 0.00000E+00
 -1     23452 5.52668E-01 5.06080E+00 0.00000E+00
 -1     23453-9.94962E-01 9.01885E+00 0.00000E+00
 -1     23454-8.91861E-01 9.63699E+00 0.00000E+00
 -1     23455 1.79249E-01 1.08673E+00 0.00000E+00
 -1     23456-1.09547E+00 8.42572E+00 0.00000E+00
 -1     23457-1.36841E+00 8.87982E+00 0.00000E+00
 -1     23458-8.87156E-01 1.13447E+00 0.00000E+00
 -1     23459-7.59933E-01 9.50508E-01 0.00000E+00
 -1     23460 9.07930E-01 3.21407E+00 0.00000E+00
 -1     23461 8.99052E-01 3.44021E+00 0.00000E+00
 -1     23462-8.12502E+00 1.75458E+01 0.00000E+00
 -1     23463-1.15075E+00 1.01284E+01 0.00000E+00
 -1     23464 2.54450E-01 5.20246E-01 0.00000E+00
 -1     23465 2.57300E-01 1.19225E+00 0.00000E+00
 -1     23466 3.22111E-01 1.31085E+00 0.00000E+00
 -1     23467 2.15966E-01 9.13777E-01 0.00000E+00
 -1     23468 2.07555E-01 9.77140E-01 0.00000E+00
 -1     23469 2.72871E-01 1.02945E+00 0.00000E+00
 -1     23470-6.65778E-01 7.94797E-01 0.00000E+00
 -1     23471-5.21495E-01 6.13261E-01 0.00000E+00
 -1     23472-3.95106E-01 5.22382E-01 0.00000E+00
 -1     23473-5.98651E-01 8.34812E-01 0.00000E+00
 -1     23474-4.46992E+00 7.36866E+00 0.00000E+00
 -1     23475-4.22663E+00 6.87193E+00 0.00000E+00
 -1     23476-8.35518E+00 1.44224E+01 0.00000E+00
 -1     23477 1.99232E-01 1.05434E+00 0.00000E+00
 -1     23478 1.72347E-01 6.06386E+00 0.00000E+00
 -1     23479 6.70623E-03 6.42277E+00 0.00000E+00
 -1     23480-5.95849E+00 1.08733E+01 0.00000E+00
 -1     23481-5.69231E+00 1.02253E+01 0.00000E+00
 -1     23482-1.90638E+00 2.61381E+00 0.00000E+00
 -1     23483-1.71462E+00 2.33046E+00 0.00000E+00
 -1     23484-1.52226E+00 2.05727E+00 0.00000E+00
 -1     23485-1.34732E+00 1.80385E+00 0.00000E+00
 -1     23486-1.39478E+00 2.17977E+00 0.00000E+00
 -1     23487 7.36758E-01 2.11432E+00 0.00000E+00
 -1     23488 7.85837E-01 2.26343E+00 0.00000E+00
 -1     23489 4.46622E-01 5.38446E+00 0.00000E+00
 -1     23490 3.18763E-01 5.71935E+00 0.00000E+00
 -1     23491 3.73499E-01 4.94969E+00 0.00000E+00
 -1     23492-1.54764E+00 9.98577E+00 0.00000E+00
 -1     23493 3.26328E-01 1.21891E+00 0.00000E+00
 -1     23494 3.83698E-01 1.43233E+00 0.00000E+00
 -1     23495 4.48047E-01 1.54532E+00 0.00000E+00
 -1     23496 3.32592E-01 1.13752E+00 0.00000E+00
 -1     23497 3.31269E-01 1.05323E+00 0.00000E+00
 -1     23498 3.89497E-01 1.24840E+00 0.00000E+00
 -1     23499 3.40210E-01 9.92406E-01 0.00000E+00
 -1     23500-2.91087E+00 3.72479E+00 0.00000E+00
 -1     23501-2.97222E+00 1.15205E+01 0.00000E+00
 -1     23502-3.31657E+00 1.21071E+01 0.00000E+00
 -1     23503 8.76907E-01 3.67554E+00 0.00000E+00
 -1     23504 8.40919E-01 3.92463E+00 0.00000E+00
 -1     23505 8.10117E-01 3.32739E+00 0.00000E+00
 -1     23506-1.66828E+00 9.34018E+00 0.00000E+00
 -1     23507-1.97405E+00 9.83346E+00 0.00000E+00
 -1     23508-1.77218E+00 8.73930E+00 0.00000E+00
 -1     23509 2.91286E-01 6.32923E-01 0.00000E+00
 -1     23510 3.17451E-01 6.99442E-01 0.00000E+00
 -1     23511-8.34103E-01 7.98403E+00 0.00000E+00
 -1     23512-1.18551E+00 7.85542E+00 0.00000E+00
 -1     23513-5.98286E-01 7.56367E+00 0.00000E+00
 -1     23514 3.40894E-01 7.76638E-01 0.00000E+00
 -1     23515 3.55960E-01 8.51882E-01 0.00000E+00
 -1     23516 3.85393E-01 9.00987E-01 0.00000E+00
 -1     23517-1.42522E-01 4.59541E-01 0.00000E+00
 -1     23518-6.44426E-02 4.46299E-01 0.00000E+00
 -1     23519-2.30606E+00 1.03822E+01 0.00000E+00
 -1     23520-2.63680E+00 1.09282E+01 0.00000E+00
 -1     23521-3.12784E+00 1.08482E+01 0.00000E+00
 -1     23522-2.43131E+00 9.72750E+00 0.00000E+00
 -1     23523-3.99018E+00 6.39326E+00 0.00000E+00
 -1     23524-3.76324E+00 5.93427E+00 0.00000E+00
 -1     23525-3.71151E+00 6.70684E+00 0.00000E+00
 -1     23526 8.28767E-01 2.43243E+00 0.00000E+00
 -1     23527 8.63490E-01 2.60729E+00 0.00000E+00
 -1     23528 7.56873E-01 2.14339E+00 0.00000E+00
 -1     23529-4.73188E+00 7.87519E+00 0.00000E+00
 -1     23530-4.18237E+00 7.70509E+00 0.00000E+00
 -1     23531-4.97924E+00 8.42068E+00 0.00000E+00
 -1     23532 9.03052E-01 3.00007E+00 0.00000E+00
 -1     23533 8.39551E-01 2.88853E+00 0.00000E+00
 -1     23534 8.88916E-01 2.79959E+00 0.00000E+00
 -1     23535-3.54651E+00 5.48898E+00 0.00000E+00
 -1     23536-3.33026E+00 5.06774E+00 0.00000E+00
 -1     23537-3.28532E+00 5.76895E+00 0.00000E+00
 -1     23538-8.83347E+00 1.74183E+01 0.00000E+00
 -1     23539 7.90088E-01 4.18414E+00 0.00000E+00
 -1     23540 7.25073E-01 4.46330E+00 0.00000E+00
 -1     23541 5.76162E-01 4.34974E+00 0.00000E+00
 -1     23542 7.22413E-01 3.81130E+00 0.00000E+00
 -1     23543-2.10408E+00 2.91492E+00 0.00000E+00
 -1     23544-1.75413E+00 2.76411E+00 0.00000E+00
 -1     23545-2.30348E+00 3.23017E+00 0.00000E+00
 -1     23546-8.12388E+00 1.50963E+01 0.00000E+00
 -1     23547-7.76653E+00 1.44546E+01 0.00000E+00
 -1     23548-6.26631E+00 1.15885E+01 0.00000E+00
 -1     23549-5.60859E+00 1.13824E+01 0.00000E+00
 -1     23550-6.57565E+00 1.22761E+01 0.00000E+00
 -1     23551 1.01426E-01 5.60358E+00 0.00000E+00
 -1     23552-7.29714E+00 1.37167E+01 0.00000E+00
 -1     23553-6.94924E+00 1.30250E+01 0.00000E+00
 -1     23554-6.26207E+00 1.28649E+01 0.00000E+00
 -1     23555-7.07766E+00 1.43744E+01 0.00000E+00
 -1     23556 4.48672E-01 1.43266E+00 0.00000E+00
 -1     23557 5.09627E-01 1.64696E+00 0.00000E+00
 -1     23558 5.72404E-01 1.75461E+00 0.00000E+00
 -1     23559 4.47410E-01 1.34048E+00 0.00000E+00
 -1     23560-1.16994E+00 1.55792E+00 0.00000E+00
 -1     23561-1.01916E+00 1.33722E+00 0.00000E+00
 -1     23562 3.72312E-01 9.47162E-01 0.00000E+00
 -1     23563 3.69620E-01 1.00143E+00 0.00000E+00
 -1     23564 4.18719E-01 1.17143E+00 0.00000E+00
 -1     23565 4.30870E-01 1.08371E+00 0.00000E+00
 -1     23566-1.86968E-01 6.78009E+00 0.00000E+00
 -1     23567-3.86241E-01 7.16494E+00 0.00000E+00
 -1     23568-2.59300E-01 6.29193E+00 0.00000E+00
 -1     23569-5.46068E+00 9.59576E+00 0.00000E+00
 -1     23570-5.21373E+00 8.99799E+00 0.00000E+00
 -1     23571-5.09544E+00 1.00223E+01 0.00000E+00
 -1     23572-1.06224E+00 1.65091E+00 0.00000E+00
 -1     23573-7.91026E-01 1.19409E+00 0.00000E+00
 -1     23574-3.12177E+00 4.66153E+00 0.00000E+00
 -1     23575-2.91304E+00 4.27746E+00 0.00000E+00
 -1     23576-2.88619E+00 4.90509E+00 0.00000E+00
 -1     23577-5.57679E+00 1.51925E+01 0.00000E+00
 -1     23578-6.10603E+00 1.59499E+01 0.00000E+00
 -1     23579 1.12126E-02 4.38150E-01 0.00000E+00
 -1     23580 7.44556E-02 4.44139E-01 0.00000E+00
 -1     23581-4.12562E-02 5.99736E-01 0.00000E+00
 -1     23582-6.79492E+00 1.59146E+01 0.00000E+00
 -1     23583 2.58722E-01 5.73060E-01 0.00000E+00
 -1     23584 3.19766E-01 7.57412E-01 0.00000E+00
 -1     23585 2.24168E-01 5.24001E-01 0.00000E+00
 -1     23586-5.07156E+00 1.43414E+01 0.00000E+00
 -1     23587-5.69862E+00 1.42764E+01 0.00000E+00
 -1     23588-4.57923E+00 1.37227E+01 0.00000E+00
 -1     23589-2.70879E+00 3.90977E+00 0.00000E+00
 -1     23590-2.50453E+00 3.56223E+00 0.00000E+00
 -1     23591-2.12432E+00 3.40782E+00 0.00000E+00
 -1     23592-2.50141E+00 4.11864E+00 0.00000E+00
 -1     23593 4.23172E-01 1.03336E+00 0.00000E+00
 -1     23594 4.56136E-01 1.11579E+00 0.00000E+00
 -1     23595 3.00462E-01 4.53812E+00 0.00000E+00
 -1     23596 1.74812E-01 4.84781E+00 0.00000E+00
 -1     23597 6.25971E-01 1.85058E+00 0.00000E+00
 -1     23598 6.81173E-01 1.97148E+00 0.00000E+00
 -1     23599-8.07112E+00 1.66076E+01 0.00000E+00
 -1     23600 1.33500E-01 4.58025E-01 0.00000E+00
 -1     23601 1.80605E-01 4.86618E-01 0.00000E+00
 -1     23602 2.32121E-01 6.56807E-01 0.00000E+00
 -1     23603 1.14676E-01 6.03844E-01 0.00000E+00
 -1     23604-1.26501E+00 2.32220E+00 0.00000E+00
 -1     23605-1.10580E+00 2.04058E+00 0.00000E+00
 -1     23606-3.19849E-01 5.09532E-01 0.00000E+00
 -1     23607-2.27336E-01 4.74354E-01 0.00000E+00
 -1     23608-2.32206E-01 6.27081E-01 0.00000E+00
 -1     23609-4.23377E-01 6.61633E-01 0.00000E+00
 -1     23610-7.46176E+00 1.59179E+01 0.00000E+00
 -1     23611-8.15121E+00 1.58028E+01 0.00000E+00
 -1     23612-6.36209E-01 1.23000E+00 0.00000E+00
 -1     23613-5.41926E-01 1.01944E+00 0.00000E+00
 -1     23614 6.64936E-01 1.84416E+00 0.00000E+00
 -1     23615 5.88916E-01 1.58316E+00 0.00000E+00
 -1     23616 6.38154E-01 1.71312E+00 0.00000E+00
 -1     23617-5.26396E+00 1.18893E+01 0.00000E+00
 -1     23618-4.98254E+00 1.11581E+01 0.00000E+00
 -1     23619-9.38910E-01 1.76329E+00 0.00000E+00
 -1     23620-7.98111E-01 1.50881E+00 0.00000E+00
 -1     23621-8.33283E-01 1.90346E+00 0.00000E+00
 -1     23622-3.60424E+00 1.27153E+01 0.00000E+00
 -1     23623-4.03401E+00 1.33088E+01 0.00000E+00
 -1     23624-3.77677E+00 1.20292E+01 0.00000E+00
 -1     23625 4.42889E-02 5.17404E+00 0.00000E+00
 -1     23626-1.21854E-01 5.50450E+00 0.00000E+00
 -1     23627-2.98808E-02 4.75400E+00 0.00000E+00
 -1     23628 5.61068E-01 1.61868E+00 0.00000E+00
 -1     23629-6.87245E+00 1.51293E+01 0.00000E+00
 -1     23630-6.42666E+00 1.43687E+01 0.00000E+00
 -1     23631 7.43767E-01 3.00141E+00 0.00000E+00
 -1     23632 7.07822E-01 3.22653E+00 0.00000E+00
 -1     23633-3.41966E+00 7.05970E+00 0.00000E+00
 -1     23634-3.21085E+00 6.56762E+00 0.00000E+00
 -1     23635-1.89488E+00 8.07361E+00 0.00000E+00
 -1     23636-2.22130E+00 8.51371E+00 0.00000E+00
 -1     23637 4.08293E-01 4.24044E+00 0.00000E+00
 -1     23638 2.27676E-01 4.14277E+00 0.00000E+00
 -1     23639 5.04210E-01 3.96101E+00 0.00000E+00
 -1     23640-4.62295E+00 1.30405E+01 0.00000E+00
 -1     23641-4.65396E+00 8.80071E+00 0.00000E+00
 -1     23642-3.36205E+00 1.02256E+01 0.00000E+00
 -1     23643-3.72754E+00 1.07986E+01 0.00000E+00
 -1     23644 8.18790E-01 2.49240E+00 0.00000E+00
 -1     23645 5.27942E-01 1.43907E+00 0.00000E+00
 -1     23646 5.05492E-01 1.31479E+00 0.00000E+00
 -1     23647 6.82838E-01 1.86988E+00 0.00000E+00
 -1     23648 7.17905E-01 2.02803E+00 0.00000E+00
 -1     23649 6.06077E-01 1.59986E+00 0.00000E+00
 -1     23650-6.88340E-01 7.03222E+00 0.00000E+00
 -1     23651-4.30283E+00 1.09106E+01 0.00000E+00
 -1     23652-4.05371E+00 1.15488E+01 0.00000E+00
 -1     23653-3.01889E+00 6.07199E+00 0.00000E+00
 -1     23654-2.82878E+00 5.61278E+00 0.00000E+00
 -1     23655-2.74986E+00 6.41255E+00 0.00000E+00
 -1     23656-5.44526E-01 1.34018E+00 0.00000E+00
 -1     23657-5.89397E+00 1.35427E+01 0.00000E+00
 -1     23658-4.36457E+00 1.21420E+01 0.00000E+00
 -1     23659 5.31557E-01 1.35458E+00 0.00000E+00
 -1     23660 4.85005E-01 1.21296E+00 0.00000E+00
 -1     23661-3.16276E-01 5.82603E+00 0.00000E+00
 -1     23662-5.31345E-01 6.16899E+00 0.00000E+00
 -1     23663-3.71989E-01 5.38903E+00 0.00000E+00
 -1     23664-4.90422E-01 8.16386E-01 0.00000E+00
 -1     23665-4.62319E+00 1.04242E+01 0.00000E+00
 -1     23666 7.63530E-01 2.78736E+00 0.00000E+00
 -1     23667 6.75140E-01 2.68680E+00 0.00000E+00
 -1     23668 7.69917E-01 2.58261E+00 0.00000E+00
 -1     23669-4.41841E+00 9.78082E+00 0.00000E+00
 -1     23670-1.15736E-01 7.89860E-01 0.00000E+00
 -1     23671-1.34874E-02 7.76963E-01 0.00000E+00
 -1     23672-2.64893E+00 5.16628E+00 0.00000E+00
 -1     23673-2.46651E+00 4.74746E+00 0.00000E+00
 -1     23674-2.40515E+00 5.45642E+00 0.00000E+00
 -1     23675-1.52405E+00 7.77170E+00 0.00000E+00
 -1     23676-1.94590E+00 7.56184E+00 0.00000E+00
 -1     23677-1.23957E+00 7.34598E+00 0.00000E+00
 -1     23678-5.54752E+00 1.27723E+01 0.00000E+00
 -1     23679-3.65419E+00 7.57371E+00 0.00000E+00
 -1     23680-3.14805E+00 7.43592E+00 0.00000E+00
 -1     23681-3.88946E+00 8.09428E+00 0.00000E+00
 -1     23682 3.83884E-01 9.57268E-01 0.00000E+00
 -1     23683 4.53091E-01 1.17676E+00 0.00000E+00
 -1     23684 3.39714E-01 8.94793E-01 0.00000E+00
 -1     23685-1.43465E+00 2.62137E+00 0.00000E+00
 -1     23686-1.13632E+00 2.48661E+00 0.00000E+00
 -1     23687-1.60294E+00 2.93387E+00 0.00000E+00
 -1     23688-3.82777E-01 8.51728E-01 0.00000E+00
 -1     23689-4.69119E-01 1.53152E+00 0.00000E+00
 -1     23690-3.51983E-01 1.24867E+00 0.00000E+00
 -1     23691-4.91782E+00 1.25410E+01 0.00000E+00
 -1     23692 4.79829E-01 1.35506E+00 0.00000E+00
 -1     23693 7.46098E-01 2.20233E+00 0.00000E+00
 -1     23694 7.61936E-01 2.38472E+00 0.00000E+00
 -1     23695 6.71915E-01 1.92066E+00 0.00000E+00
 -1     23696-2.47552E+00 6.76087E+00 0.00000E+00
 -1     23697-2.30978E+00 6.25152E+00 0.00000E+00
 -1     23698-2.59413E-01 8.34466E-01 0.00000E+00
 -1     23699 6.54580E-01 3.45630E+00 0.00000E+00
 -1     23700 5.86959E-01 3.70512E+00 0.00000E+00
 -1     23701 4.36642E-01 3.59935E+00 0.00000E+00
 -1     23702 5.89069E-01 3.12235E+00 0.00000E+00
 -1     23703 5.68431E-01 1.50038E+00 0.00000E+00
 -1     23704-2.54185E+00 9.11320E+00 0.00000E+00
 -1     23705-2.90168E+00 9.64204E+00 0.00000E+00
 -1     23706-3.47583E+00 9.60046E+00 0.00000E+00
 -1     23707-2.66789E+00 8.43833E+00 0.00000E+00
 -1     23708-1.12271E-01 4.36750E+00 0.00000E+00
 -1     23709-2.62321E-01 4.68100E+00 0.00000E+00
 -1     23710-3.93844E+00 9.55343E+00 0.00000E+00
 -1     23711-4.38101E+00 9.16946E+00 0.00000E+00
 -1     23712-4.16979E+00 8.57884E+00 0.00000E+00
 -1     23713-3.45057E+00 8.98843E+00 0.00000E+00
 -1     23714-2.36715E-01 1.01362E+00 0.00000E+00
 -1     23715-8.15497E-01 6.47679E+00 0.00000E+00
 -1     23716-1.05281E+00 6.85847E+00 0.00000E+00
 -1     23717-1.37301E+00 6.78255E+00 0.00000E+00
 -1     23718-8.70348E-01 6.00786E+00 0.00000E+00
 -1     23719-1.74284E-01 1.20495E+00 0.00000E+00
 -1     23720 2.22700E-02 4.05836E+00 0.00000E+00
 -1     23721-1.91393E-01 3.99078E+00 0.00000E+00
 -1     23722 1.50186E-01 3.77104E+00 0.00000E+00
 -1     23723-7.31136E-01 2.08323E+00 0.00000E+00
 -1     23724-5.98984E-01 1.79934E+00 0.00000E+00
 -1     23725-3.84470E-01 1.70986E+00 0.00000E+00
 -1     23726 6.97962E-01 2.28383E+00 0.00000E+00
 -1     23727 8.23900E-02 7.70115E-01 0.00000E+00
 -1     23728 1.60359E-01 7.82546E-01 0.00000E+00
 -1     23729 2.89824E-02 9.60122E-01 0.00000E+00
 -1     23730 2.30533E-01 8.04885E-01 0.00000E+00
 -1     23731 2.87686E-01 8.43511E-01 0.00000E+00
 -1     23732 3.49905E-01 1.04726E+00 0.00000E+00
 -1     23733 2.14086E-01 9.73616E-01 0.00000E+00
 -1     23734 6.11734E-01 2.39819E+00 0.00000E+00
 -1     23735 5.78843E-01 2.60531E+00 0.00000E+00
 -1     23736-1.81069E+00 6.92699E+00 0.00000E+00
 -1     23737-2.19354E+00 7.21776E+00 0.00000E+00
 -1     23738-2.15414E+00 5.76369E+00 0.00000E+00
 -1     23739-2.00069E+00 5.30314E+00 0.00000E+00
 -1     23740-1.90229E+00 6.09750E+00 0.00000E+00
 -1     23741 5.26405E-01 2.80823E+00 0.00000E+00
 -1     23742 4.58007E-01 3.02977E+00 0.00000E+00
 -1     23743 4.65883E-01 2.51289E+00 0.00000E+00
 -1     23744-3.87178E-01 5.00269E+00 0.00000E+00
 -1     23745-5.98666E-01 5.31210E+00 0.00000E+00
 -1     23746-4.71723E-01 4.60977E+00 0.00000E+00
 -1     23747-1.17584E-01 1.40389E+00 0.00000E+00
 -1     23748-3.66616E-02 1.16770E+00 0.00000E+00
 -1     23749 5.24406E-01 1.40762E+00 0.00000E+00
 -1     23750 5.98737E-01 1.66089E+00 0.00000E+00
 -1     23751 6.17244E-01 1.82700E+00 0.00000E+00
 -1     23752 4.73134E-01 1.32969E+00 0.00000E+00
 -1     23753-3.63488E+00 8.44921E+00 0.00000E+00
 -1     23754 8.39491E-02 1.15789E+00 0.00000E+00
 -1     23755-2.29089E+00 4.34286E+00 0.00000E+00
 -1     23756-2.11440E+00 3.96327E+00 0.00000E+00
 -1     23757-2.07488E+00 4.59327E+00 0.00000E+00
 -1     23758-1.94297E+00 3.60205E+00 0.00000E+00
 -1     23759-1.76988E+00 3.25839E+00 0.00000E+00
 -1     23760-1.44365E+00 3.12070E+00 0.00000E+00
 -1     23761-1.75456E+00 3.81725E+00 0.00000E+00
 -1     23762-8.74835E-01 2.36464E+00 0.00000E+00
 -1     23763-6.26412E-01 2.26511E+00 0.00000E+00
 -1     23764-1.01365E+00 2.67210E+00 0.00000E+00
 -1     23765-2.63732E+00 7.38049E+00 0.00000E+00
 -1     23766-2.84241E+00 7.91155E+00 0.00000E+00
 -1     23767 3.68528E-01 3.24522E+00 0.00000E+00
 -1     23768 2.68524E-01 3.49259E+00 0.00000E+00
 -1     23769 3.09203E-01 2.92591E+00 0.00000E+00
 -1     23770 6.27537E-01 2.00775E+00 0.00000E+00
 -1     23771 6.24208E-01 2.19713E+00 0.00000E+00
 -1     23772 5.41811E-01 2.11518E+00 0.00000E+00
 -1     23773 5.54983E-01 1.74041E+00 0.00000E+00
 -1     23774-3.19424E+00 8.48783E+00 0.00000E+00
 -1     23775-1.59685E+00 6.45465E+00 0.00000E+00
 -1     23776-2.05369E-01 1.65659E+00 0.00000E+00
 -1     23777-4.19405E-02 1.62008E+00 0.00000E+00
 -1     23778-3.00216E-01 1.92779E+00 0.00000E+00
 -1     23779 1.42942E-01 1.36266E+00 0.00000E+00
 -1     23780 1.85327E-01 1.15440E+00 0.00000E+00
 -1     23781 8.42134E-02 3.41191E+00 0.00000E+00
 -1     23782-1.46817E+00 5.95387E+00 0.00000E+00
 -1     23783 4.73876E-01 1.85910E+00 0.00000E+00
 -1     23784 4.48217E-01 2.05428E+00 0.00000E+00
 -1     23785-3.04812E-01 3.65040E+00 0.00000E+00
 -1     23786-4.63489E-01 3.94981E+00 0.00000E+00
 -1     23787 2.73080E-01 1.17486E+00 0.00000E+00
 -1     23788-6.06601E-01 4.34496E+00 0.00000E+00
 -1     23789-7.51379E-01 4.65685E+00 0.00000E+00
 -1     23790-7.28870E-01 3.99899E+00 0.00000E+00
 -1     23791-8.39264E-01 5.48481E+00 0.00000E+00
 -1     23792-1.14221E+00 5.78041E+00 0.00000E+00
 -1     23793-1.41930E+00 5.43961E+00 0.00000E+00
 -1     23794-8.46189E-01 5.09765E+00 0.00000E+00
 -1     23795 4.14581E-01 1.26057E+00 0.00000E+00
 -1     23796 4.84384E-01 1.49645E+00 0.00000E+00
 -1     23797 4.83659E-01 1.67092E+00 0.00000E+00
 -1     23798 3.49301E-01 1.20889E+00 0.00000E+00
 -1     23799-1.11538E-01 3.34829E+00 0.00000E+00
 -1     23800-3.57545E-01 3.31183E+00 0.00000E+00
 -1     23801 2.73127E-02 3.07702E+00 0.00000E+00
 -1     23802 4.04412E-01 1.60945E+00 0.00000E+00
 -1     23803-5.22018E-01 2.48805E+00 0.00000E+00
 -1     23804-4.08471E-01 2.20019E+00 0.00000E+00
 -1     23805 3.36826E-01 1.39199E+00 0.00000E+00
 -1     23806 3.11582E-02 1.83625E+00 0.00000E+00
 -1     23807 8.89710E-02 1.58123E+00 0.00000E+00
 -1     23808-2.08179E-01 2.14970E+00 0.00000E+00
 -1     23809-1.63558E+00 5.14644E+00 0.00000E+00
 -1     23810-1.86330E+00 4.85309E+00 0.00000E+00
 -1     23811 4.22689E-01 2.25352E+00 0.00000E+00
 -1     23812 3.57770E-01 2.45082E+00 0.00000E+00
 -1     23813 3.55445E-01 1.99253E+00 0.00000E+00
 -1     23814 2.10912E-01 1.57557E+00 0.00000E+00
 -1     23815-1.71303E+00 4.43753E+00 0.00000E+00
 -1     23816-1.30650E+00 4.97722E+00 0.00000E+00
 -1     23817 2.44897E-01 2.56898E+00 0.00000E+00
 -1     23818 1.39946E-01 2.77587E+00 0.00000E+00
 -1     23819-3.06449E-02 2.71507E+00 0.00000E+00
 -1     23820 2.10564E-01 2.30686E+00 0.00000E+00
 -1     23821-1.28489E+00 3.32582E+00 0.00000E+00
 -1     23822-1.14614E+00 2.99033E+00 0.00000E+00
 -1     23823-1.55819E+00 4.04015E+00 0.00000E+00
 -1     23824-1.41385E+00 3.66840E+00 0.00000E+00
 -1     23825-1.10990E+00 3.54062E+00 0.00000E+00
 -1     23826-1.36751E+00 4.28961E+00 0.00000E+00
 -1     23827-8.74000E-01 2.87100E+00 0.00000E+00
 -1     23828 2.80419E-01 1.79643E+00 0.00000E+00
 -1     23829 3.12392E-01 1.57661E+00 0.00000E+00
 -1     23830-6.53566E-01 2.74791E+00 0.00000E+00
 -1     23831-4.20622E-01 2.68578E+00 0.00000E+00
 -1     23832-1.01569E-01 2.42466E+00 0.00000E+00
 -1     23833-2.27767E-02 2.14578E+00 0.00000E+00
 -1     23834-7.60010E-01 3.07389E+00 0.00000E+00
 -1     23835-1.18902E+00 4.54512E+00 0.00000E+00
 -1     23836-1.06035E+00 4.13867E+00 0.00000E+00
 -1     23837-9.94651E-01 4.82315E+00 0.00000E+00
 -1     23838-8.86562E-01 3.75227E+00 0.00000E+00
 -1     23839-7.85106E-01 3.40019E+00 0.00000E+00
 -1     23840-3.48512E-01 2.98273E+00 0.00000E+00
 -1     23841-2.38339E-01 2.71598E+00 0.00000E+00
 -1     23842 1.26616E-01 2.10482E+00 0.00000E+00
 -1     23843-5.63078E-01 3.27782E+00 0.00000E+00
 -1     23844 2.38592E-01 1.99300E+00 0.00000E+00
 -1     23845 2.47519E-03 1.82165E-01 0.00000E+00
 -1     23846 6.45661E-03 7.68606E-01 0.00000E+00
 -1     23847 5.40591E-03 6.00575E-01 0.00000E+00
 -1     23848 3.64505E-02 1.44290E+00 0.00000E+00
 -1     23849 2.54275E-02 1.29238E+00 0.00000E+00
 -1     23850 1.45501E-01 1.98621E+00 0.00000E+00
 -1     23851 1.08479E-01 1.85127E+00 0.00000E+00
 -1     23852 3.48233E-01 2.54814E+00 0.00000E+00
 -1     23853 2.89461E-01 2.40934E+00 0.00000E+00
 -1     23854 6.22994E-01 3.16915E+00 0.00000E+00
 -1     23855 5.51596E-01 3.00483E+00 0.00000E+00
 -1     23856 9.15146E-01 3.92508E+00 0.00000E+00
 -1     23857 8.43782E-01 3.71978E+00 0.00000E+00
 -1     23858 1.16461E+00 4.87990E+00 0.00000E+00
 -1     23859 1.10934E+00 4.62133E+00 0.00000E+00
 -1     23860 1.31096E+00 6.06571E+00 0.00000E+00
 -1     23861 1.28613E+00 5.74593E+00 0.00000E+00
 -1     23862 1.30152E+00 7.50061E+00 0.00000E+00
 -1     23863 1.32041E+00 7.11726E+00 0.00000E+00
 -1     23864 1.10125E+00 9.18984E+00 0.00000E+00
 -1     23865 1.17061E+00 8.74325E+00 0.00000E+00
 -1     23866 6.79688E-01 1.11366E+01 0.00000E+00
 -1     23867 8.06307E-01 1.06268E+01 0.00000E+00
 -1     23868 1.12986E-02 1.33346E+01 0.00000E+00
 -1     23869 2.02002E-01 1.27618E+01 0.00000E+00
 -1     23870-9.26628E-01 1.57825E+01 0.00000E+00
 -1     23871-6.67769E-01 1.51470E+01 0.00000E+00
 -1     23872-2.16223E+00 1.84870E+01 0.00000E+00
 -1     23873-1.82403E+00 1.77885E+01 0.00000E+00
 -1     23874-3.77760E+00 2.14251E+01 0.00000E+00
 -1     23875-3.34472E+00 2.06715E+01 0.00000E+00
 -1     23876-5.82570E+00 2.46155E+01 0.00000E+00
 -1     23877-5.27267E+00 2.38124E+01 0.00000E+00
 -1     23878-6.58466E+00 2.46813E+01 0.00000E+00
 -1     23879-8.06138E+00 2.47906E+01 0.00000E+00
 -1     23880-7.34425E+00 2.46948E+01 0.00000E+00
 -1     23881-1.11275E+01 2.52349E+01 0.00000E+00
 -1     23882-1.03522E+01 2.51063E+01 0.00000E+00
 -1     23883-1.46705E+01 2.57733E+01 0.00000E+00
 -1     23884-1.37425E+01 2.56400E+01 0.00000E+00
 -1     23885-1.79733E+01 2.60774E+01 0.00000E+00
 -1     23886-1.62470E+01 2.17069E+01 0.00000E+00
 -1     23887-1.66589E+01 2.26991E+01 0.00000E+00
 -1     23888-1.46113E+01 1.80770E+01 0.00000E+00
 -1     23889-1.50087E+01 1.89300E+01 0.00000E+00
 -1     23890-1.30464E+01 1.48616E+01 0.00000E+00
 -1     23891-1.34464E+01 1.56214E+01 0.00000E+00
 -1     23892-1.15258E+01 1.20370E+01 0.00000E+00
 -1     23893-1.19165E+01 1.26977E+01 0.00000E+00
 -1     23894-9.99932E+00 9.61441E+00 0.00000E+00
 -1     23895-1.03790E+01 1.01829E+01 0.00000E+00
 -1     23896-8.52788E+00 7.55531E+00 0.00000E+00
 -1     23897-8.89179E+00 8.03796E+00 0.00000E+00
 -1     23898-7.12536E+00 5.82547E+00 0.00000E+00
 -1     23899-7.47090E+00 6.22805E+00 0.00000E+00
 -1     23900-5.79373E+00 4.39838E+00 0.00000E+00
 -1     23901-6.12042E+00 4.72858E+00 0.00000E+00
 -1     23902-4.53334E+00 3.24462E+00 0.00000E+00
 -1     23903-4.84353E+00 3.51023E+00 0.00000E+00
 -1     23904-3.33510E+00 2.33367E+00 0.00000E+00
 -1     23905-3.63204E+00 2.54199E+00 0.00000E+00
 -1     23906-2.15536E+00 1.61554E+00 0.00000E+00
 -1     23907-2.44835E+00 1.78229E+00 0.00000E+00
 -1     23908-8.99567E-01 9.65058E-01 0.00000E+00
 -1     23909-1.23521E+00 1.11893E+00 0.00000E+00
 -1     23910-5.64800E-02 2.85175E-01 0.00000E+00
 -1     23911-4.90658E-01 6.92690E-01 0.00000E+00
 -1     23912-5.43921E-01 7.10496E-01 0.00000E+00
 -1     23913-3.82266E-02 1.58889E-01 0.00000E+00
 -1     23914-9.98631E-03-3.70170E-02 0.00000E+00
 -1     23915-1.20199E-02-8.08710E-03 0.00000E+00
 -1     23916 3.15659E-03-6.68605E-02 0.00000E+00
 -1     23917 5.75544E-03-6.95366E-02 0.00000E+00
 -1     23918 4.26323E-03-5.00286E-02 0.00000E+00
 -1     23919 3.08480E-03-5.78752E-02 0.00000E+00
 -1     23920 7.48272E-03 1.56837E-03 0.00000E+00
 -1     23921 5.67567E-03-1.30858E-02 0.00000E+00
 -1     23922 8.72037E-03 5.91758E-02 0.00000E+00
 -1     23923 6.41552E-03 4.39807E-02 0.00000E+00
 -1     23924 5.45370E-03 1.14604E-01 0.00000E+00
 -1     23925 5.20736E-03 1.01262E-01 0.00000E+00
 -1     23926 6.19548E-03 1.72614E-01 0.00000E+00
 -1     23927 6.18409E-03 1.60799E-01 0.00000E+00
 -1     23928 2.31964E-03 2.07130E-01 0.00000E+00
 -1     23929 4.30247E-03 2.01095E-01 0.00000E+00
 -1     23930 4.23872E-04 2.21553E-01 0.00000E+00
 -1     23931 1.16445E-03 2.20073E-01 0.00000E+00
 -1     23932-1.65481E-04 2.48901E-01 0.00000E+00
 -1     23933-4.07418E-05 2.48694E-01 0.00000E+00
 -1     23934-1.75194E+01 2.48574E+01 0.00000E+00
 -1     23935-1.67531E+01 2.59934E+01 0.00000E+00
 -1     23936 7.63730E-03 5.14066E-01 0.00000E+00
 -1     23937 5.01673E-03 3.40528E-01 0.00000E+00
 -1     23938 1.56114E-02 1.12402E+00 0.00000E+00
 -1     23939 1.07933E-02 9.65828E-01 0.00000E+00
 -1     23940 7.76092E-02 1.72392E+00 0.00000E+00
 -1     23941 5.50771E-02 1.58287E+00 0.00000E+00
 -1     23942 2.35458E-01 2.26412E+00 0.00000E+00
 -1     23943 1.88145E-01 2.12786E+00 0.00000E+00
 -1     23944 4.80630E-01 2.84603E+00 0.00000E+00
 -1     23945 4.12956E-01 2.69683E+00 0.00000E+00
 -1     23946 7.70393E-01 3.52602E+00 0.00000E+00
 -1     23947 6.96315E-01 3.34283E+00 0.00000E+00
 -1     23948 1.04879E+00 4.37530E+00 0.00000E+00
 -1     23949 9.83410E-01 4.14390E+00 0.00000E+00
 -1     23950 1.25264E+00 5.44330E+00 0.00000E+00
 -1     23951 1.21276E+00 5.15343E+00 0.00000E+00
 -1     23952 1.32750E+00 6.75263E+00 0.00000E+00
 -1     23953 1.32421E+00 6.39996E+00 0.00000E+00
 -1     23954 1.22725E+00 8.31258E+00 0.00000E+00
 -1     23955 1.27084E+00 7.89654E+00 0.00000E+00
 -1     23956 9.19403E-01 1.01317E+01 0.00000E+00
 -1     23957 1.01671E+00 9.65322E+00 0.00000E+00
 -1     23958 3.78370E-01 1.22047E+01 0.00000E+00
 -1     23959 5.36337E-01 1.16630E+01 0.00000E+00
 -1     23960-4.22175E-01 1.45271E+01 0.00000E+00
 -1     23961-1.97623E-01 1.39221E+01 0.00000E+00
 -1     23962-1.50339E+00 1.71005E+01 0.00000E+00
 -1     23963-1.20591E+00 1.64357E+01 0.00000E+00
 -1     23964-2.91076E+00 1.99280E+01 0.00000E+00
 -1     23965-2.53256E+00 1.92044E+01 0.00000E+00
 -1     23966-4.74779E+00 2.29704E+01 0.00000E+00
 -1     23967-4.26369E+00 2.21969E+01 0.00000E+00
 -1     23968-6.84290E+00 2.37289E+01 0.00000E+00
 -1     23969-8.82252E+00 2.48687E+01 0.00000E+00
 -1     23970-8.34251E+00 2.38250E+01 0.00000E+00
 -1     23971-9.55808E+00 2.49826E+01 0.00000E+00
 -1     23972-9.88618E+00 2.40155E+01 0.00000E+00
 -1     23973-1.28182E+01 2.55061E+01 0.00000E+00
 -1     23974-1.19702E+01 2.53714E+01 0.00000E+00
 -1     23975 6.14979E-04 1.60932E-01 0.00000E+00
 -1     23976-1.57092E+01 2.58890E+01 0.00000E+00
 -1     23977-1.58209E+01 2.07415E+01 0.00000E+00
 -1     23978-1.51145E+01 2.15983E+01 0.00000E+00
 -1     23979-1.54227E+01 1.98314E+01 0.00000E+00
 -1     23980-1.59177E+01 2.36703E+01 0.00000E+00
 -1     23981-1.70929E+01 2.37633E+01 0.00000E+00
 -1     23982-1.43218E+01 1.96923E+01 0.00000E+00
 -1     23983-1.38189E+01 1.64220E+01 0.00000E+00
 -1     23984-1.42146E+01 1.72235E+01 0.00000E+00
 -1     23985-1.22886E+01 1.33969E+01 0.00000E+00
 -1     23986-1.26825E+01 1.41056E+01 0.00000E+00
 -1     23987-1.07572E+01 1.07760E+01 0.00000E+00
 -1     23988-1.11436E+01 1.13896E+01 0.00000E+00
 -1     23989-9.25459E+00 8.54105E+00 0.00000E+00
 -1     23990-9.62660E+00 9.06645E+00 0.00000E+00
 -1     23991-7.81758E+00 6.65165E+00 0.00000E+00
 -1     23992-8.17181E+00 7.09378E+00 0.00000E+00
 -1     23993-6.45085E+00 5.07648E+00 0.00000E+00
 -1     23994-6.78680E+00 5.44205E+00 0.00000E+00
 -1     23995-5.15567E+00 3.78928E+00 0.00000E+00
 -1     23996-5.47350E+00 4.08591E+00 0.00000E+00
 -1     23997-3.92715E+00 2.75900E+00 0.00000E+00
 -1     23998-4.23128E+00 2.99632E+00 0.00000E+00
 -1     23999-2.74057E+00 1.95192E+00 0.00000E+00
 -1     24000-3.04460E+00 2.13686E+00 0.00000E+00
 -1     24001-1.54152E+00 1.28245E+00 0.00000E+00
 -1     24002-1.85553E+00 1.45346E+00 0.00000E+00
 -1     24003 7.32332E-04-6.64627E-02 0.00000E+00
 -1     24004 4.22681E-03-1.05948E-01 0.00000E+00
 -1     24005 1.23608E-03-6.31532E-02 0.00000E+00
 -1     24006-2.44411E-02 2.68090E-02 0.00000E+00
 -1     24007-3.65984E-02 7.58678E-02 0.00000E+00
 -1     24008-1.28004E-03-6.36501E-02 0.00000E+00
 -1     24009-2.63809E-03-5.43443E-02 0.00000E+00
 -1     24010 1.00848E-02-9.24036E-02 0.00000E+00
 -1     24011-1.26058E-01 2.02950E-01 0.00000E+00
 -1     24012 7.59189E-03-2.66727E-02 0.00000E+00
 -1     24013 5.35569E-03-4.04253E-02 0.00000E+00
 -1     24014 6.83850E-03 2.95390E-02 0.00000E+00
 -1     24015 7.47966E-03 1.54088E-02 0.00000E+00
 -1     24016 7.19942E-03 8.74899E-02 0.00000E+00
 -1     24017 8.30465E-03 7.24195E-02 0.00000E+00
 -1     24018 5.73899E-03 1.42445E-01 0.00000E+00
 -1     24019 6.92137E-03 1.28882E-01 0.00000E+00
 -1     24020 5.36572E-03 1.94724E-01 0.00000E+00
 -1     24021 5.94633E-03 1.85965E-01 0.00000E+00
 -1     24022 1.25812E-03 2.10582E-01 0.00000E+00
 -1     24023 1.54665E-03 2.08521E-01 0.00000E+00
 -1     24024 9.54998E-04 4.67888E-01 0.00000E+00
 -1     24025 5.43168E-04 1.58643E-01 0.00000E+00
 -1     24026-1.52665E+01 2.47007E+01 0.00000E+00
 -1     24027 4.58698E-02 1.37619E+00 0.00000E+00
 -1     24028 1.77860E-01 1.90542E+00 0.00000E+00
 -1     24029 4.04186E-01 2.46778E+00 0.00000E+00
 -1     24030 6.87250E-01 3.07954E+00 0.00000E+00
 -1     24031 9.70639E-01 3.82350E+00 0.00000E+00
 -1     24032 1.19176E+00 4.76447E+00 0.00000E+00
 -1     24033 1.29020E+00 5.93430E+00 0.00000E+00
 -1     24034 1.21859E+00 7.35145E+00 0.00000E+00
 -1     24035 9.45590E-01 9.02780E+00 0.00000E+00
 -1     24036 4.41775E-01 1.09612E+01 0.00000E+00
 -1     24037-3.20229E-01 1.31442E+01 0.00000E+00
 -1     24038-1.35652E+00 1.55827E+01 0.00000E+00
 -1     24039-2.71137E+00 1.82911E+01 0.00000E+00
 -1     24040-4.49404E+00 2.12433E+01 0.00000E+00
 -1     24041-1.15139E+01 2.42504E+01 0.00000E+00
 -1     24042-1.35574E+01 1.79052E+01 0.00000E+00
 -1     24043-1.21121E+01 1.46320E+01 0.00000E+00
 -1     24044-1.06869E+01 1.17788E+01 0.00000E+00
 -1     24045-9.23816E+00 9.36448E+00 0.00000E+00
 -1     24046-7.84637E+00 7.31754E+00 0.00000E+00
 -1     24047-6.51796E+00 5.60009E+00 0.00000E+00
 -1     24048-5.25464E+00 4.18532E+00 0.00000E+00
 -1     24049-4.06211E+00 3.04344E+00 0.00000E+00
 -1     24050-2.92244E+00 2.14149E+00 0.00000E+00
 -1     24051-1.78361E+00 1.41552E+00 0.00000E+00
 -1     24052-2.76580E-02-6.20072E-02 0.00000E+00
 -1     24053 1.77354E-02-6.36543E-02 0.00000E+00
 -1     24054 2.36366E-02 3.50368E-02 0.00000E+00
 -1     24055 2.85250E-02 1.42088E-01 0.00000E+00
 -1     24056 2.23274E-02 2.49388E-01 0.00000E+00
 -1     24057 1.82262E-02 3.53068E-01 0.00000E+00
 -1     24058 8.78371E-03 4.11307E-01 0.00000E+00
 -1     24059 1.73570E-02 1.06547E+00 0.00000E+00
 -1     24060 9.87656E-02 1.64111E+00 0.00000E+00
 -1     24061 2.80724E-01 2.18519E+00 0.00000E+00
 -1     24062 5.42625E-01 2.76208E+00 0.00000E+00
 -1     24063 8.32850E-01 3.42992E+00 0.00000E+00
 -1     24064 1.09175E+00 4.26769E+00 0.00000E+00
 -1     24065 1.25836E+00 5.32018E+00 0.00000E+00
 -1     24066 1.27775E+00 6.61164E+00 0.00000E+00
 -1     24067 1.10955E+00 8.15567E+00 0.00000E+00
 -1     24068 7.23733E-01 9.96292E+00 0.00000E+00
 -1     24069 9.46126E-02 1.20219E+01 0.00000E+00
 -1     24070-8.04225E-01 1.43309E+01 0.00000E+00
 -1     24071-1.98868E+00 1.69023E+01 0.00000E+00
 -1     24072-3.54191E+00 1.97333E+01 0.00000E+00
 -1     24073-5.53060E+00 2.28575E+01 0.00000E+00
 -1     24074-4.64997E+00 3.58222E+00 0.00000E+00
 -1     24075-3.48784E+00 2.56384E+00 0.00000E+00
 -1     24076-2.35754E+00 1.76173E+00 0.00000E+00
 -1     24077-1.17848E+00 1.07320E+00 0.00000E+00
 -1     24078-2.39165E-04-1.02234E-01 0.00000E+00
 -1     24079 2.40600E-02 1.96911E-01 0.00000E+00
 -1     24080 2.12322E-02 3.02624E-01 0.00000E+00
 -1     24081 1.49136E-02 3.90716E-01 0.00000E+00
 -1     24082 3.69236E-03 4.28504E-01 0.00000E+00
 -1     24083 2.51818E-03 6.98216E-01 0.00000E+00
 -1     24084-5.87714E+00 4.85695E+00 0.00000E+00
 -1     24085-1.32985E+01 2.44989E+01 0.00000E+00
 -1     24086-7.17338E+00 6.41929E+00 0.00000E+00
 -1     24087-8.53543E+00 8.29740E+00 0.00000E+00
 -1     24088-9.95750E+00 1.05226E+01 0.00000E+00
 -1     24089-1.28205E+01 1.62195E+01 0.00000E+00
 -1     24090-1.14113E+01 1.31458E+01 0.00000E+00
 -1     24091-5.59871E-02 3.51787E-02 0.00000E+00
 -1     24092 2.49600E-02 8.74374E-02 0.00000E+00
 -1     24093 2.34522E-02-1.82504E-02 0.00000E+00
 -1     24094-5.32471E+00 4.64653E+00 0.00000E+00
 -1     24095-5.62731E+00 5.00614E+00 0.00000E+00
 -1     24096 1.13915E-01 1.51050E+00 0.00000E+00
 -1     24097 8.14912E-02 1.38758E+00 0.00000E+00
 -1     24098 3.19748E-01 2.10045E+00 0.00000E+00
 -1     24099 2.61506E-01 1.96328E+00 0.00000E+00
 -1     24100 5.92413E-01 2.66715E+00 0.00000E+00
 -1     24101 5.20938E-01 2.52271E+00 0.00000E+00
 -1     24102 8.77874E-01 3.32322E+00 0.00000E+00
 -1     24103 8.08343E-01 3.14537E+00 0.00000E+00
 -1     24104 1.11579E+00 4.15236E+00 0.00000E+00
 -1     24105 1.06476E+00 3.92698E+00 0.00000E+00
 -1     24106 1.24231E+00 5.19329E+00 0.00000E+00
 -1     24107 1.22510E+00 4.91162E+00 0.00000E+00
 -1     24108 1.20343E+00 6.46951E+00 0.00000E+00
 -1     24109 1.23185E+00 6.12600E+00 0.00000E+00
 -1     24110 9.67110E-01 8.00030E+00 0.00000E+00
 -1     24111 1.04731E+00 7.59249E+00 0.00000E+00
 -1     24112 5.03276E-01 9.79816E+00 0.00000E+00
 -1     24113 6.41589E-01 9.32563E+00 0.00000E+00
 -1     24114-2.15325E-01 1.18461E+01 0.00000E+00
 -1     24115-1.03725E-02 1.13114E+01 0.00000E+00
 -1     24116-1.21063E+00 1.41422E+01 0.00000E+00
 -1     24117-9.36684E-01 1.35448E+01 0.00000E+00
 -1     24118-2.49767E+00 1.67139E+01 0.00000E+00
 -1     24119-2.14620E+00 1.60453E+01 0.00000E+00
 -1     24120-4.17288E+00 1.95584E+01 0.00000E+00
 -1     24121-3.70900E+00 1.88281E+01 0.00000E+00
 -1     24122-6.32778E+00 2.27397E+01 0.00000E+00
 -1     24123-5.78920E+00 2.18865E+01 0.00000E+00
 -1     24124-1.19526E+01 2.32737E+01 0.00000E+00
 -1     24125-1.11035E+01 2.31653E+01 0.00000E+00
 -1     24126-4.16309E+00 3.38339E+00 0.00000E+00
 -1     24127-4.44867E+00 3.67498E+00 0.00000E+00
 -1     24128-7.07302E+00 2.27549E+01 0.00000E+00
 -1     24129-1.25376E+01 1.77483E+01 0.00000E+00
 -1     24130-1.28981E+01 1.86317E+01 0.00000E+00
 -1     24131-1.02438E+01 2.30402E+01 0.00000E+00
 -1     24132-9.45326E+00 2.29356E+01 0.00000E+00
 -1     24133-1.06661E+01 2.20940E+01 0.00000E+00
 -1     24134-6.55226E+00 6.19629E+00 0.00000E+00
 -1     24135-6.86907E+00 6.63258E+00 0.00000E+00
 -1     24136-1.48625E+01 2.35882E+01 0.00000E+00
 -1     24137-1.12096E+01 1.43906E+01 0.00000E+00
 -1     24138-1.15406E+01 1.51721E+01 0.00000E+00
 -1     24139-9.88276E+00 1.15183E+01 0.00000E+00
 -1     24140-1.02326E+01 1.21832E+01 0.00000E+00
 -1     24141-1.00778E-01 4.55354E-02 0.00000E+00
 -1     24142-1.36576E-01 1.39602E-01 0.00000E+00
 -1     24143-8.50203E+00 9.12287E+00 0.00000E+00
 -1     24144-8.84227E+00 9.68719E+00 0.00000E+00
 -1     24145-1.18270E+01 1.60155E+01 0.00000E+00
 -1     24146-1.21704E+01 1.68497E+01 0.00000E+00
 -1     24147-1.09403E+01 1.57801E+01 0.00000E+00
 -1     24148-7.18695E+00 7.08843E+00 0.00000E+00
 -1     24149-7.51308E+00 7.56458E+00 0.00000E+00
 -1     24150-6.55920E+00 6.86875E+00 0.00000E+00
 -1     24151-9.18579E+00 1.02737E+01 0.00000E+00
 -1     24152-9.53362E+00 1.08832E+01 0.00000E+00
 -1     24153-9.10926E+00 1.12709E+01 0.00000E+00
 -1     24154-8.44635E+00 1.00347E+01 0.00000E+00
 -1     24155-5.93257E+00 5.38401E+00 0.00000E+00
 -1     24156-6.24182E+00 5.78004E+00 0.00000E+00
 -1     24157-5.37212E+00 5.17763E+00 0.00000E+00
 -1     24158-7.83727E+00 8.06238E+00 0.00000E+00
 -1     24159-8.16942E+00 8.58182E+00 0.00000E+00
 -1     24160-7.79941E+00 8.89119E+00 0.00000E+00
 -1     24161-7.17197E+00 7.83653E+00 0.00000E+00
 -1     24162-4.73586E+00 3.98150E+00 0.00000E+00
 -1     24163-5.02764E+00 4.30519E+00 0.00000E+00
 -1     24164-4.24133E+00 3.78783E+00 0.00000E+00
 -1     24165-1.38287E+01 2.34853E+01 0.00000E+00
 -1     24166-1.28900E+01 2.33936E+01 0.00000E+00
 -1     24167-1.24681E+01 2.23109E+01 0.00000E+00
 -1     24168-1.44441E+01 2.25084E+01 0.00000E+00
 -1     24169-3.06554E+00 2.37403E+00 0.00000E+00
 -1     24170-3.33953E+00 2.60513E+00 0.00000E+00
 -1     24171-1.99503E+00 1.57318E+00 0.00000E+00
 -1     24172-2.26586E+00 1.75547E+00 0.00000E+00
 -1     24173-8.77576E-01 8.49913E-01 0.00000E+00
 -1     24174-1.16198E+00 1.04483E+00 0.00000E+00
 -1     24175-2.88163E-03-1.02614E-01 0.00000E+00
 -1     24176-2.09844E-02-8.39488E-02 0.00000E+00
 -1     24177-3.38089E-01 4.49961E-01 0.00000E+00
 -1     24178-6.15913E-01 6.85009E-01 0.00000E+00
 -1     24179-6.48386E-01 6.55057E-01 0.00000E+00
 -1     24180-2.16158E-01 2.71952E-01 0.00000E+00
 -1     24181 5.70352E-02 1.78668E-01 0.00000E+00
 -1     24182 5.21956E-02 1.41404E-01 0.00000E+00
 -1     24183 4.09050E-02-3.45812E-02 0.00000E+00
 -1     24184 3.31687E-02-6.10586E-02 0.00000E+00
 -1     24185 5.14585E-02 3.25562E-01 0.00000E+00
 -1     24186 5.37198E-02 2.85729E-01 0.00000E+00
 -1     24187 2.46217E-02-8.06176E-02 0.00000E+00
 -1     24188 1.77018E-02-9.66948E-02 0.00000E+00
 -1     24189 4.80567E-02-3.12710E-02 0.00000E+00
 -1     24190 5.66348E-02 2.50928E-01 0.00000E+00
 -1     24191 5.69237E-02 2.13793E-01 0.00000E+00
 -1     24192 9.40954E-02 2.91047E-01 0.00000E+00
 -1     24193 9.18116E-02 3.77284E-01 0.00000E+00
 -1     24194 4.33579E-02 4.75133E-01 0.00000E+00
 -1     24195 4.56463E-02 4.38314E-01 0.00000E+00
 -1     24196 2.74004E-02 5.98480E-01 0.00000E+00
 -1     24197 3.31534E-02 5.80224E-01 0.00000E+00
 -1     24198 6.82049E-03 6.29835E-01 0.00000E+00
 -1     24199 9.57776E-03 6.15044E-01 0.00000E+00
 -1     24200 2.23298E-02 1.02467E+00 0.00000E+00
 -1     24201 1.06494E-02 8.55180E-01 0.00000E+00
 -1     24202 4.56882E-03 6.67841E-01 0.00000E+00
 -1     24203-1.40602E+01 2.14986E+01 0.00000E+00
 -1     24204 1.51900E-03 4.06457E-01 0.00000E+00
 -1     24205-8.61913E+00 2.28240E+01 0.00000E+00
 -1     24206-7.86726E+00 2.27476E+01 0.00000E+00
 -1     24207-8.97052E+00 2.18707E+01 0.00000E+00
 -1     24208 5.64608E-02 1.32457E+00 0.00000E+00
 -1     24209 3.64000E-02 1.18399E+00 0.00000E+00
 -1     24210 2.80029E-02 9.75792E-01 0.00000E+00
 -1     24211 6.52121E-02 1.19786E+00 0.00000E+00
 -1     24212 4.95677E-02 1.05446E-01 0.00000E+00
 -1     24213 4.99994E-02 6.27560E-02 0.00000E+00
 -1     24214 8.88151E-02 1.97203E-01 0.00000E+00
 -1     24215-1.32849E+01 1.95702E+01 0.00000E+00
 -1     24216-1.36555E+01 2.05093E+01 0.00000E+00
 -1     24217-1.22902E+01 1.94192E+01 0.00000E+00
 -1     24218-4.38478E-01 1.23951E+01 0.00000E+00
 -1     24219-5.53247E-01 1.16760E+01 0.00000E+00
 -1     24220-6.77271E-01 1.29618E+01 0.00000E+00
 -1     24221 2.06841E-01 1.81592E+00 0.00000E+00
 -1     24222 1.58708E-01 1.67959E+00 0.00000E+00
 -1     24223 4.51432E-01 2.37953E+00 0.00000E+00
 -1     24224 3.83820E-01 2.24234E+00 0.00000E+00
 -1     24225 7.36389E-01 2.97855E+00 0.00000E+00
 -1     24226 6.64358E-01 2.81946E+00 0.00000E+00
 -1     24227 1.00818E+00 3.71242E+00 0.00000E+00
 -1     24228 9.44301E-01 3.51254E+00 0.00000E+00
 -1     24229 1.19758E+00 4.64377E+00 0.00000E+00
 -1     24230 1.16094E+00 4.39064E+00 0.00000E+00
 -1     24231 1.24680E+00 5.80057E+00 0.00000E+00
 -1     24232 1.25092E+00 5.48797E+00 0.00000E+00
 -1     24233 1.11285E+00 7.20268E+00 0.00000E+00
 -1     24234 1.16403E+00 6.82781E+00 0.00000E+00
 -1     24235 7.65284E-01 8.86761E+00 0.00000E+00
 -1     24236 8.73695E-01 8.42640E+00 0.00000E+00
 -1     24237 1.78486E-01 1.07916E+01 0.00000E+00
 -1     24238 3.48563E-01 1.02873E+01 0.00000E+00
 -1     24239-1.06422E+00 1.27878E+01 0.00000E+00
 -1     24240 1.31771E-01 1.42256E+00 0.00000E+00
 -1     24241-1.81709E+00 1.53920E+01 0.00000E+00
 -1     24242-1.50544E+00 1.47601E+01 0.00000E+00
 -1     24243-3.26807E+00 1.81103E+01 0.00000E+00
 -1     24244-2.86799E+00 1.74092E+01 0.00000E+00
 -1     24245-5.22468E+00 2.10634E+01 0.00000E+00
 -1     24246-4.71119E+00 2.02929E+01 0.00000E+00
 -1     24247-7.35455E+00 2.17650E+01 0.00000E+00
 -1     24248-1.15654E+01 1.75555E+01 0.00000E+00
 -1     24249 2.56400E-01 9.63960E+00 0.00000E+00
 -1     24250 7.99708E-01 7.84967E+00 0.00000E+00
 -1     24251-5.95944E+00 5.98357E+00 0.00000E+00
 -1     24252-1.09147E+01 1.36043E+01 0.00000E+00
 -1     24253-1.03787E+01 1.41260E+01 0.00000E+00
 -1     24254-1.05718E+01 1.28793E+01 0.00000E+00
 -1     24255 1.10585E+00 6.32667E+00 0.00000E+00
 -1     24256-9.76864E+00 1.26224E+01 0.00000E+00
 -1     24257-4.79746E+00 4.44677E+00 0.00000E+00
 -1     24258 1.20502E+00 5.06135E+00 0.00000E+00
 -1     24259 1.12149E+00 4.03105E+00 0.00000E+00
 -1     24260 9.09222E-01 3.21072E+00 0.00000E+00
 -1     24261 6.32714E-01 2.56388E+00 0.00000E+00
 -1     24262-2.63810E-01 3.01486E-01 0.00000E+00
 -1     24263 8.79190E-03-1.11717E-01 0.00000E+00
 -1     24264-8.52462E-03-7.79534E-02 0.00000E+00
 -1     24265 7.30266E-03-1.06903E-01 0.00000E+00
 -1     24266 3.93636E-02 5.14747E-01 0.00000E+00
 -1     24267 7.01312E-02 6.63219E-01 0.00000E+00
 -1     24268 3.68614E-02 5.46794E-01 0.00000E+00
 -1     24269-1.72528E+00 1.39882E+00 0.00000E+00
 -1     24270-1.66611E+00 1.38906E+00 0.00000E+00
 -1     24271-1.43650E+00 1.21086E+00 0.00000E+00
 -1     24272-3.60867E+00 2.84914E+00 0.00000E+00
 -1     24273-3.88462E+00 3.10930E+00 0.00000E+00
 -1     24274-2.53125E+00 1.95287E+00 0.00000E+00
 -1     24275-2.80011E+00 2.15965E+00 0.00000E+00
 -1     24276-1.14639E+00 1.02285E+00 0.00000E+00
 -1     24277-3.70247E+00 3.19523E+00 0.00000E+00
 -1     24278-4.57935E-02-5.78581E-02 0.00000E+00
 -1     24279-6.88230E-02-1.31422E-02 0.00000E+00
 -1     24280 4.57245E-02-6.08074E-03 0.00000E+00
 -1     24281 6.89205E-02 2.75698E-02 0.00000E+00
 -1     24282 4.93252E-02 2.70607E-02 0.00000E+00
 -1     24283 3.54312E-01 2.01099E+00 0.00000E+00
 -1     24284 2.27721E-02-7.22877E-02 0.00000E+00
 -1     24285-1.64572E+00 1.39676E+01 0.00000E+00
 -1     24286 4.58130E-02 3.96650E-01 0.00000E+00
 -1     24287 4.80067E-02 3.62419E-01 0.00000E+00
 -1     24288 6.01525E-02 7.52465E-01 0.00000E+00
 -1     24289 2.23696E-02 8.09345E-01 0.00000E+00
 -1     24290 1.50811E-02 6.10571E-01 0.00000E+00
 -1     24291 2.03217E-02 6.00443E-01 0.00000E+00
 -1     24292 3.79988E-02 9.66732E-01 0.00000E+00
 -1     24293 4.90272E-01 2.28299E+00 0.00000E+00
 -1     24294-5.98409E+00 2.09379E+01 0.00000E+00
 -1     24295-1.30463E+01 2.13823E+01 0.00000E+00
 -1     24296-1.12771E-01 1.06280E+01 0.00000E+00
 -1     24297 5.59175E-01 8.71363E+00 0.00000E+00
 -1     24298 9.81334E-01 7.05535E+00 0.00000E+00
 -1     24299 1.18231E+00 4.51733E+00 0.00000E+00
 -1     24300 1.02745E+00 3.59584E+00 0.00000E+00
 -1     24301 8.42214E-02 4.70887E-01 0.00000E+00
 -1     24302-1.37994E-01 8.06618E-02 0.00000E+00
 -1     24303 1.17969E+00 5.66298E+00 0.00000E+00
 -1     24304-2.67210E+00 2.19227E+00 0.00000E+00
 -1     24305 7.74627E-01 2.87010E+00 0.00000E+00
 -1     24306-4.86532E+00 1.93861E+01 0.00000E+00
 -1     24307-3.02633E+00 1.65464E+01 0.00000E+00
 -1     24308 2.33517E-01 1.73113E+00 0.00000E+00
 -1     24309-3.86287E+00 1.79449E+01 0.00000E+00
 -1     24310-2.29973E+00 1.52189E+01 0.00000E+00
 -1     24311-2.16924E+00 1.77017E+00 0.00000E+00
 -1     24312 4.09013E-02 7.96376E-01 0.00000E+00
 -1     24313-3.18094E+00 2.66495E+00 0.00000E+00
 -1     24314 8.20880E-02 1.03569E-01 0.00000E+00
 -1     24315-6.27418E-02-2.71140E-02 0.00000E+00
 -1     24316 7.66739E-02 5.66106E-01 0.00000E+00
 -1     24317-7.65226E-02 2.25092E-02 0.00000E+00
 -1     24318-1.16649E-01 6.50118E-02 0.00000E+00
 -1     24319-4.43195E+00 1.78047E+01 0.00000E+00
 -1     24320-3.96899E+00 1.70987E+01 0.00000E+00
 -1     24321 4.31268E-02-1.25165E-03 0.00000E+00
 -1     24322 2.26794E-02-1.29865E-02 0.00000E+00
 -1     24323-6.82647E+00 2.06742E+01 0.00000E+00
 -1     24324-6.25125E+00 1.98552E+01 0.00000E+00
 -1     24325-5.51610E+00 1.92097E+01 0.00000E+00
 -1     24326-4.95958E+00 1.84860E+01 0.00000E+00
 -1     24327-5.05860E+00 1.76299E+01 0.00000E+00
 -1     24328-6.33489E+00 1.89446E+01 0.00000E+00
 -1     24329 6.61154E-01 2.45256E+00 0.00000E+00
 -1     24330 5.90392E-01 2.31426E+00 0.00000E+00
 -1     24331 1.20797E-01 6.24545E-01 0.00000E+00
 -1     24332 1.28166E-01 5.69408E-01 0.00000E+00
 -1     24333 9.26827E-01 3.09049E+00 0.00000E+00
 -1     24334 8.64503E-01 2.91687E+00 0.00000E+00
 -1     24335 1.10841E+00 3.90706E+00 0.00000E+00
 -1     24336 1.07382E+00 3.68420E+00 0.00000E+00
 -1     24337-2.29917E+00 2.01697E+00 0.00000E+00
 -1     24338-2.53905E+00 2.24685E+00 0.00000E+00
 -1     24339-9.00715E+00 1.23450E+01 0.00000E+00
 -1     24340-9.31848E+00 1.30610E+01 0.00000E+00
 -1     24341-5.39148E+00 5.77969E+00 0.00000E+00
 -1     24342-5.67409E+00 6.20829E+00 0.00000E+00
 -1     24343 8.25118E-01 6.90757E+00 0.00000E+00
 -1     24344 9.12826E-01 6.53591E+00 0.00000E+00
 -1     24345 3.29979E-01 8.56399E+00 0.00000E+00
 -1     24346 4.78122E-01 8.12657E+00 0.00000E+00
 -1     24347-1.47697E+00 1.26225E+01 0.00000E+00
 -1     24348-1.18918E+00 1.20599E+01 0.00000E+00
 -1     24349 2.59521E-01 1.64936E+00 0.00000E+00
 -1     24350 2.02421E-01 1.51061E+00 0.00000E+00
 -1     24351-2.81449E+00 1.50579E+01 0.00000E+00
 -1     24352-2.45629E+00 1.44229E+01 0.00000E+00
 -1     24353-3.57755E+00 1.63951E+01 0.00000E+00
 -1     24354-3.18216E+00 1.57166E+01 0.00000E+00
 -1     24355-4.12429E+00 1.62591E+01 0.00000E+00
 -1     24356-1.20933E+01 2.12845E+01 0.00000E+00
 -1     24357-7.61351E+00 2.06664E+01 0.00000E+00
 -1     24358 5.20344E-01 2.18090E+00 0.00000E+00
 -1     24359 4.50863E-01 2.04952E+00 0.00000E+00
 -1     24360 5.43720E-01 2.07035E+00 0.00000E+00
 -1     24361-4.29226E+00 4.25591E+00 0.00000E+00
 -1     24362-4.56144E+00 4.60851E+00 0.00000E+00
 -1     24363 1.25477E-01 2.10500E-01 0.00000E+00
 -1     24364 1.16793E-01 1.60629E-01 0.00000E+00
 -1     24365 9.85807E-01 6.18271E+00 0.00000E+00
 -1     24366 1.04457E+00 5.84452E+00 0.00000E+00
 -1     24367 8.42455E-01 6.04117E+00 0.00000E+00
 -1     24368-2.11010E+00 1.38027E+01 0.00000E+00
 -1     24369-1.78603E+00 1.32044E+01 0.00000E+00
 -1     24370-2.59992E+00 1.36534E+01 0.00000E+00
 -1     24371-9.60904E+00 1.38057E+01 0.00000E+00
 -1     24372-9.88122E+00 1.46119E+01 0.00000E+00
 -1     24373-8.85297E+00 1.35256E+01 0.00000E+00
 -1     24374-5.95545E+00 6.65733E+00 0.00000E+00
 -1     24375-6.24431E+00 7.12757E+00 0.00000E+00
 -1     24376-5.38240E+00 6.45517E+00 0.00000E+00
 -1     24377-3.26375E+00 3.01521E+00 0.00000E+00
 -1     24378-3.51521E+00 3.30220E+00 0.00000E+00
 -1     24379 7.99898E-01 2.75249E+00 0.00000E+00
 -1     24380 7.30719E-01 2.59857E+00 0.00000E+00
 -1     24381 8.12663E-01 2.63279E+00 0.00000E+00
 -1     24382-8.96168E-01 8.40372E-01 0.00000E+00
 -1     24383-1.13315E+00 1.02936E+00 0.00000E+00
 -1     24384 1.05615E-01 1.16710E-01 0.00000E+00
 -1     24385 9.34053E-02 7.74615E-02 0.00000E+00
 -1     24386 1.50395E-01 2.30776E-01 0.00000E+00
 -1     24387-4.59501E-01 4.77232E-01 0.00000E+00
 -1     24388-6.72690E-01 6.69838E-01 0.00000E+00
 -1     24389-6.83666E-01 6.78616E-01 0.00000E+00
 -1     24390-3.08936E-01 3.17649E-01 0.00000E+00
 -1     24391 1.02282E-01 8.59048E-01 0.00000E+00
 -1     24392 1.09478E-01 8.04178E-01 0.00000E+00
 -1     24393 1.14514E+00 4.92822E+00 0.00000E+00
 -1     24394 1.15260E+00 4.65006E+00 0.00000E+00
 -1     24395-2.77545E+00 2.48732E+00 0.00000E+00
 -1     24396-3.01864E+00 2.74366E+00 0.00000E+00
 -1     24397-2.39968E+00 2.31907E+00 0.00000E+00
 -1     24398 3.83738E-01 1.91847E+00 0.00000E+00
 -1     24399 3.18685E-01 1.78685E+00 0.00000E+00
 -1     24400 2.79041E-01 1.56224E+00 0.00000E+00
 -1     24401 4.07278E-01 1.81765E+00 0.00000E+00
 -1     24402-1.36503E+00 1.20891E+00 0.00000E+00
 -1     24403-1.60549E+00 1.40158E+00 0.00000E+00
 -1     24404-1.10415E+00 1.04463E+00 0.00000E+00
 -1     24405 1.54618E-01 1.35678E+00 0.00000E+00
 -1     24406 1.08051E-01 1.19697E+00 0.00000E+00
 -1     24407 1.69853E-01 1.28177E+00 0.00000E+00
 -1     24408-9.39076E+00 2.09203E+01 0.00000E+00
 -1     24409-8.55320E+00 2.08185E+01 0.00000E+00
 -1     24410-4.28248E-01 1.04737E+01 0.00000E+00
 -1     24411-2.11860E-01 9.97387E+00 0.00000E+00
 -1     24412-1.06087E+01 1.73929E+01 0.00000E+00
 -1     24413-1.09453E+01 1.83204E+01 0.00000E+00
 -1     24414-9.15259E-01 1.15147E+01 0.00000E+00
 -1     24415-6.64428E-01 1.09867E+01 0.00000E+00
 -1     24416-7.70945E-01 1.03232E+01 0.00000E+00
 -1     24417-1.30664E+00 1.13620E+01 0.00000E+00
 -1     24418 7.86930E-02 4.54245E-02 0.00000E+00
 -1     24419 6.41138E-02 1.77640E-02 0.00000E+00
 -1     24420 6.99552E-02 8.82759E-02 0.00000E+00
 -1     24421 1.15284E-01 1.43134E-01 0.00000E+00
 -1     24422-6.89600E-03-1.51949E-02 0.00000E+00
 -1     24423-3.70228E-02-1.51784E-03 0.00000E+00
 -1     24424-8.10127E-02 9.79367E-02 0.00000E+00
 -1     24425 7.68742E-03 7.05915E-02 0.00000E+00
 -1     24426-9.98232E+00 1.55492E+01 0.00000E+00
 -1     24427-1.02445E+01 1.64267E+01 0.00000E+00
 -1     24428-9.67961E+00 1.71603E+01 0.00000E+00
 -1     24429-9.23497E+00 1.52208E+01 0.00000E+00
 -1     24430-3.76796E+00 3.60264E+00 0.00000E+00
 -1     24431-4.02767E+00 3.92147E+00 0.00000E+00
 -1     24432-3.32351E+00 3.42787E+00 0.00000E+00
 -1     24433-4.83579E+00 4.97975E+00 0.00000E+00
 -1     24434-5.11296E+00 5.37013E+00 0.00000E+00
 -1     24435-4.84940E+00 5.58445E+00 0.00000E+00
 -1     24436-4.32404E+00 4.79165E+00 0.00000E+00
 -1     24437 1.09107E+00 5.52498E+00 0.00000E+00
 -1     24438 1.12436E+00 5.21797E+00 0.00000E+00
 -1     24439 9.80711E-01 5.38643E+00 0.00000E+00
 -1     24440-1.72624E-01 1.18622E-01 0.00000E+00
 -1     24441-2.33442E-01 2.05156E-01 0.00000E+00
 -1     24442-3.50701E-01 3.63037E-01 0.00000E+00
 -1     24443-1.92712E-01 1.83164E-01 0.00000E+00
 -1     24444-1.16845E+01 2.02666E+01 0.00000E+00
 -1     24445-1.11563E+01 2.11526E+01 0.00000E+00
 -1     24446-8.68200E+00 1.16769E+01 0.00000E+00
 -1     24447-8.25917E+00 1.20968E+01 0.00000E+00
 -1     24448-8.36138E+00 1.10238E+01 0.00000E+00
 -1     24449 1.06388E+00 4.79346E+00 0.00000E+00
 -1     24450 1.17524E-01 6.85471E-01 0.00000E+00
 -1     24451 1.64192E-01 7.98939E-01 0.00000E+00
 -1     24452 1.12607E-01 7.42483E-01 0.00000E+00
 -1     24453 8.43657E-02 9.63818E-01 0.00000E+00
 -1     24454 7.11208E-02 1.02228E+00 0.00000E+00
 -1     24455 1.03122E+00 3.47394E+00 0.00000E+00
 -1     24456 9.81404E-01 3.27755E+00 0.00000E+00
 -1     24457 1.14774E+00 4.38885E+00 0.00000E+00
 -1     24458 1.13296E+00 4.14072E+00 0.00000E+00
 -1     24459-1.91746E+00 1.24698E+01 0.00000E+00
 -1     24460 6.08681E-01 7.70093E+00 0.00000E+00
 -1     24461 7.24476E-01 7.29637E+00 0.00000E+00
 -1     24462-8.01283E+00 1.97462E+01 0.00000E+00
 -1     24463-2.06553E+00 1.80128E+00 0.00000E+00
 -1     24464-1.95787E+00 1.84999E+00 0.00000E+00
 -1     24465-1.83000E+00 1.59418E+00 0.00000E+00
 -1     24466 1.07800E+00 3.78085E+00 0.00000E+00
 -1     24467-3.81323E+00 4.07527E+00 0.00000E+00
 -1     24468-3.34065E+00 1.49154E+01 0.00000E+00
 -1     24469 1.31741E-01 2.65205E-01 0.00000E+00
 -1     24470 1.74974E-01 3.42535E-01 0.00000E+00
 -1     24471 1.36113E-01 3.21182E-01 0.00000E+00
 -1     24472 9.28807E-01 2.96920E+00 0.00000E+00
 -1     24473-1.31490E-02 9.48913E+00 0.00000E+00
 -1     24474 1.66679E-01 9.02058E+00 0.00000E+00
 -1     24475-2.85389E+00 2.84424E+00 0.00000E+00
 -1     24476-6.53135E+00 7.61826E+00 0.00000E+00
 -1     24477-6.82771E+00 8.13089E+00 0.00000E+00
 -1     24478-5.92274E+00 7.40945E+00 0.00000E+00
 -1     24479 6.80731E-01 2.33584E+00 0.00000E+00
 -1     24480-1.13255E+01 1.92960E+01 0.00000E+00
 -1     24481-1.53132E+00 1.43141E+00 0.00000E+00
 -1     24482 5.70336E-02 1.03163E+00 0.00000E+00
 -1     24483-1.03973E+01 1.91322E+01 0.00000E+00
 -1     24484 1.09475E+00 4.25821E+00 0.00000E+00
 -1     24485-1.02797E+01 2.10456E+01 0.00000E+00
 -1     24486 1.35061E-01 5.25189E-01 0.00000E+00
 -1     24487 1.34703E-01 4.75718E-01 0.00000E+00
 -1     24488 1.78124E-01 6.82002E-01 0.00000E+00
 -1     24489-7.12234E+00 8.66572E+00 0.00000E+00
 -1     24490-7.42564E+00 9.22216E+00 0.00000E+00
 -1     24491-6.47798E+00 8.44896E+00 0.00000E+00
 -1     24492 9.63985E-02 9.19710E-01 0.00000E+00
 -1     24493-9.84854E+00 2.00192E+01 0.00000E+00
 -1     24494-3.09571E-01 9.34461E+00 0.00000E+00
 -1     24495 6.47657E-01 6.76579E+00 0.00000E+00
 -1     24496 7.66474E-02 8.42272E+00 0.00000E+00
 -1     24497 1.01997E+00 3.35082E+00 0.00000E+00
 -1     24498 1.53017E-01 9.35434E-01 0.00000E+00
 -1     24499 3.94335E-01 7.56008E+00 0.00000E+00
 -1     24500 1.41186E-01 3.79958E-01 0.00000E+00
 -1     24501 1.90839E-01 4.70431E-01 0.00000E+00
 -1     24502 1.40211E-01 4.34083E-01 0.00000E+00
 -1     24503 1.36669E-01 1.06991E+00 0.00000E+00
 -1     24504 1.57936E-01 7.42299E+00 0.00000E+00
 -1     24505 3.11037E-01 7.01741E+00 0.00000E+00
 -1     24506-9.49079E+00 1.90108E+01 0.00000E+00
 -1     24507-8.62607E+00 1.88920E+01 0.00000E+00
 -1     24508-9.13743E+00 1.80412E+01 0.00000E+00
 -1     24509-7.04639E+00 9.57853E+00 0.00000E+00
 -1     24510-7.72751E+00 9.80273E+00 0.00000E+00
 -1     24511 9.95075E-01 3.22739E+00 0.00000E+00
 -1     24512 9.60712E-01 3.03216E+00 0.00000E+00
 -1     24513 1.94765E-01 1.13467E+00 0.00000E+00
 -1     24514 2.05032E-01 1.06143E+00 0.00000E+00
 -1     24515-3.35575E+00 3.90357E+00 0.00000E+00
 -1     24516-3.59308E+00 4.24927E+00 0.00000E+00
 -1     24517 6.91210E-01 2.21034E+00 0.00000E+00
 -1     24518 6.23941E-01 2.07877E+00 0.00000E+00
 -1     24519-2.38529E+00 1.23268E+01 0.00000E+00
 -1     24520-2.04843E+00 1.17634E+01 0.00000E+00
 -1     24521-7.67518E+00 1.87506E+01 0.00000E+00
 -1     24522 6.76126E-01 5.89864E+00 0.00000E+00
 -1     24523 7.69357E-01 5.56359E+00 0.00000E+00
 -1     24524 5.58823E-01 1.95571E+00 0.00000E+00
 -1     24525 4.91930E-01 1.83395E+00 0.00000E+00
 -1     24526 5.63573E-01 1.83222E+00 0.00000E+00
 -1     24527 9.64349E-01 4.65784E+00 0.00000E+00
 -1     24528 1.00091E+00 4.38386E+00 0.00000E+00
 -1     24529-1.64293E+00 1.68802E+00 0.00000E+00
 -1     24530-1.84514E+00 1.91674E+00 0.00000E+00
 -1     24531-3.91395E+00 1.47902E+01 0.00000E+00
 -1     24532-3.52018E+00 1.41478E+01 0.00000E+00
 -1     24533-5.14490E-01 5.30783E-01 0.00000E+00
 -1     24534-6.96409E-01 7.19560E-01 0.00000E+00
 -1     24535-3.79855E-01 4.02239E-01 0.00000E+00
 -1     24536 4.46136E-01 6.62390E+00 0.00000E+00
 -1     24537 5.69125E-01 6.25183E+00 0.00000E+00
 -1     24538 4.90836E-01 5.76386E+00 0.00000E+00
 -1     24539 2.26454E-01 6.49418E+00 0.00000E+00
 -1     24540-3.11852E+00 1.35187E+01 0.00000E+00
 -1     24541-2.74605E+00 1.29160E+01 0.00000E+00
 -1     24542-3.66987E+00 1.34021E+01 0.00000E+00
 -1     24543-8.15454E+00 1.32111E+01 0.00000E+00
 -1     24544-8.42651E+00 1.39700E+01 0.00000E+00
 -1     24545-4.83409E+00 6.26060E+00 0.00000E+00
 -1     24546-5.08832E+00 6.72377E+00 0.00000E+00
 -1     24547-2.46508E+00 2.68211E+00 0.00000E+00
 -1     24548-2.68270E+00 2.96670E+00 0.00000E+00
 -1     24549-8.04155E+00 1.04048E+01 0.00000E+00
 -1     24550 2.10528E-01 9.81105E-01 0.00000E+00
 -1     24551 2.15815E-01 9.07000E-01 0.00000E+00
 -1     24552 2.61281E-01 1.18316E+00 0.00000E+00
 -1     24553 1.86381E-01 1.21243E+00 0.00000E+00
 -1     24554-2.89892E+00 3.26234E+00 0.00000E+00
 -1     24555-3.12482E+00 3.57546E+00 0.00000E+00
 -1     24556-2.50641E+00 3.10722E+00 0.00000E+00
 -1     24557-2.04837E+00 2.15809E+00 0.00000E+00
 -1     24558-2.25602E+00 2.41245E+00 0.00000E+00
 -1     24559-1.72594E+00 2.00579E+00 0.00000E+00
 -1     24560 2.02397E-01 3.72814E-01 0.00000E+00
 -1     24561 1.83559E-01 3.19191E-01 0.00000E+00
 -1     24562 1.02488E+00 4.12684E+00 0.00000E+00
 -1     24563 1.03378E+00 3.88222E+00 0.00000E+00
 -1     24564 9.36263E-01 3.99420E+00 0.00000E+00
 -1     24565 9.18244E-01 2.84596E+00 0.00000E+00
 -1     24566 8.69312E-01 2.67221E+00 0.00000E+00
 -1     24567 8.96401E-01 2.72235E+00 0.00000E+00
 -1     24568-6.27727E-01 9.21041E+00 0.00000E+00
 -1     24569-4.03313E-01 8.74475E+00 0.00000E+00
 -1     24570-8.82565E-01 8.94495E-01 0.00000E+00
 -1     24571-1.07689E+00 1.08199E+00 0.00000E+00
 -1     24572-6.90205E-01 7.60673E-01 0.00000E+00
 -1     24573-1.96885E-01 8.28967E+00 0.00000E+00
 -1     24574-9.64762E-03 7.85247E+00 0.00000E+00
 -1     24575-9.83766E-02 7.29852E+00 0.00000E+00
 -1     24576-4.95638E-01 8.16420E+00 0.00000E+00
 -1     24577 8.49515E-01 5.24703E+00 0.00000E+00
 -1     24578 9.13832E-01 4.94255E+00 0.00000E+00
 -1     24579 6.97518E-01 5.11026E+00 0.00000E+00
 -1     24580-6.38637E+00 9.36094E+00 0.00000E+00
 -1     24581-6.66139E+00 9.95541E+00 0.00000E+00
 -1     24582 2.37757E-01 1.35137E+00 0.00000E+00
 -1     24583-7.64150E+00 1.07934E+01 0.00000E+00
 -1     24584-6.93067E+00 1.05822E+01 0.00000E+00
 -1     24585-7.22346E+00 1.12188E+01 0.00000E+00
 -1     24586-6.26900E+00 1.03642E+01 0.00000E+00
 -1     24587-8.79771E+00 1.70431E+01 0.00000E+00
 -1     24588 1.01838E+00 3.43381E+00 0.00000E+00
 -1     24589 9.54255E-01 3.10131E+00 0.00000E+00
 -1     24590 1.03168E+00 3.65410E+00 0.00000E+00
 -1     24591-5.59037E+00 1.75135E+01 0.00000E+00
 -1     24592-5.05027E+00 1.68434E+01 0.00000E+00
 -1     24593 2.97961E-01 1.47808E+00 0.00000E+00
 -1     24594 8.46623E-01 4.52252E+00 0.00000E+00
 -1     24595-7.50065E+00 1.76821E+01 0.00000E+00
 -1     24596-6.91579E+00 1.85018E+01 0.00000E+00
 -1     24597 1.88783E-01 5.86615E-01 0.00000E+00
 -1     24598 2.53323E-01 6.44871E-01 0.00000E+00
 -1     24599 2.45532E-01 5.73402E-01 0.00000E+00
 -1     24600 1.01986E-01 2.09594E-01 0.00000E+00
 -1     24601 6.90475E-02 1.90998E-01 0.00000E+00
 -1     24602-6.17445E+00 1.78726E+01 0.00000E+00
 -1     24603-4.58731E+00 5.81835E+00 0.00000E+00
 -1     24604-4.31440E+00 6.07447E+00 0.00000E+00
 -1     24605-4.33606E+00 5.39637E+00 0.00000E+00
 -1     24606-7.84286E+00 1.25355E+01 0.00000E+00
 -1     24607-7.43882E+00 1.29645E+01 0.00000E+00
 -1     24608-7.54172E+00 1.18521E+01 0.00000E+00
 -1     24609-2.10800E+00 2.52915E+00 0.00000E+00
 -1     24610-5.33714E+00 7.20558E+00 0.00000E+00
 -1     24611-5.59713E+00 7.70938E+00 0.00000E+00
 -1     24612-4.78397E+00 7.01221E+00 0.00000E+00
 -1     24613-2.88131E+00 1.22014E+01 0.00000E+00
 -1     24614-8.27023E-02 2.04673E-01 0.00000E+00
 -1     24615-1.44196E-01 2.32353E-01 0.00000E+00
 -1     24616 2.57607E-02 1.84454E-01 0.00000E+00
 -1     24617-2.11094E-02 1.88406E-01 0.00000E+00
 -1     24618-6.82251E-02 3.25025E-01 0.00000E+00
 -1     24619 5.38006E-02 3.11977E-01 0.00000E+00
 -1     24620-1.25660E+00 1.26994E+00 0.00000E+00
 -1     24621-1.45291E+00 1.47596E+00 0.00000E+00
 -1     24622 2.16074E-01 8.31448E-01 0.00000E+00
 -1     24623 2.24049E-01 7.79077E-01 0.00000E+00
 -1     24624 2.66303E-01 1.01415E+00 0.00000E+00
 -1     24625-5.85495E+00 8.23608E+00 0.00000E+00
 -1     24626-6.12175E+00 8.78600E+00 0.00000E+00
 -1     24627-5.26476E+00 8.03246E+00 0.00000E+00
 -1     24628-8.64066E+00 1.46425E+01 0.00000E+00
 -1     24629-8.73370E+00 1.55947E+01 0.00000E+00
 -1     24630-7.94682E+00 1.43224E+01 0.00000E+00
 -1     24631 4.27019E-01 1.71948E+00 0.00000E+00
 -1     24632 3.61098E-01 1.59975E+00 0.00000E+00
 -1     24633 3.12299E-01 1.38372E+00 0.00000E+00
 -1     24634 4.36637E-01 1.60897E+00 0.00000E+00
 -1     24635 1.59606E-01 2.74572E-01 0.00000E+00
 -1     24636 1.33843E-01 2.36502E-01 0.00000E+00
 -1     24637 1.43017E-01 3.45675E-01 0.00000E+00
 -1     24638 2.10402E-01 4.21525E-01 0.00000E+00
 -1     24639-2.92591E+00 3.74334E+00 0.00000E+00
 -1     24640-1.72581E+00 1.12164E+01 0.00000E+00
 -1     24641-1.42487E+00 1.06901E+01 0.00000E+00
 -1     24642-2.17114E+00 1.10830E+01 0.00000E+00
 -1     24643 2.19861E-01 4.32437E-01 0.00000E+00
 -1     24644 2.60355E-01 5.33077E-01 0.00000E+00
 -1     24645 2.32044E-01 4.98376E-01 0.00000E+00
 -1     24646 9.70083E-01 3.52374E+00 0.00000E+00
 -1     24647 8.14064E-01 2.50674E+00 0.00000E+00
 -1     24648 7.53829E-01 2.35487E+00 0.00000E+00
 -1     24649-1.13647E+00 1.01823E+01 0.00000E+00
 -1     24650-8.74032E-01 9.68850E+00 0.00000E+00
 -1     24651-9.72679E-01 9.07992E+00 0.00000E+00
 -1     24652-1.53329E+00 1.00476E+01 0.00000E+00
 -1     24653-4.71493E+00 1.61529E+01 0.00000E+00
 -1     24654-4.30094E+00 1.54692E+01 0.00000E+00
 -1     24655-3.83823E+00 4.61130E+00 0.00000E+00
 -1     24656-4.08477E+00 4.99489E+00 0.00000E+00
 -1     24657-3.37424E+00 4.44407E+00 0.00000E+00
 -1     24658-1.02249E+00 1.13155E+00 0.00000E+00
 -1     24659 2.96499E-01 6.78561E-01 0.00000E+00
 -1     24660-2.08996E-01 2.62070E-01 0.00000E+00
 -1     24661-2.91660E-01 3.29600E-01 0.00000E+00
 -1     24662-4.00549E-01 4.85070E-01 0.00000E+00
 -1     24663-2.17842E-01 3.70900E-01 0.00000E+00
 -1     24664 6.89656E-01 2.08517E+00 0.00000E+00
 -1     24665-4.48382E+00 1.46929E+01 0.00000E+00
 -1     24666-5.76130E+00 9.14767E+00 0.00000E+00
 -1     24667-1.36455E+00 1.54296E+00 0.00000E+00
 -1     24668 8.04388E-01 2.38286E+00 0.00000E+00
 -1     24669-5.22728E+00 1.60418E+01 0.00000E+00
 -1     24670-1.77512E+00 2.38473E+00 0.00000E+00
 -1     24671-1.95586E+00 2.66535E+00 0.00000E+00
 -1     24672-5.17875E+00 1.46193E+01 0.00000E+00
 -1     24673-4.76516E+00 1.39565E+01 0.00000E+00
 -1     24674-6.15360E+00 1.70839E+01 0.00000E+00
 -1     24675 7.84244E-01 2.25850E+00 0.00000E+00
 -1     24676 7.34548E-01 2.10429E+00 0.00000E+00
 -1     24677-7.93083E+00 1.70470E+01 0.00000E+00
 -1     24678-7.16010E+00 1.68117E+01 0.00000E+00
 -1     24679-8.02301E-01 9.90614E-01 0.00000E+00
 -1     24680-9.47109E-01 1.18575E+00 0.00000E+00
 -1     24681 7.11269E-01 4.38886E+00 0.00000E+00
 -1     24682 7.78661E-01 4.11701E+00 0.00000E+00
 -1     24683 3.22743E-01 7.13375E-01 0.00000E+00
 -1     24684 2.97103E-01 6.46976E-01 0.00000E+00
 -1     24685 2.53060E-01 7.88876E-01 0.00000E+00
 -1     24686 2.60691E-01 7.35961E-01 0.00000E+00
 -1     24687 3.22573E-01 8.55633E-01 0.00000E+00
 -1     24688 2.97094E-01 9.46461E-01 0.00000E+00
 -1     24689-5.16158E+00 8.93791E+00 0.00000E+00
 -1     24690-5.40054E+00 9.52723E+00 0.00000E+00
 -1     24691 5.58624E-01 1.69517E+00 0.00000E+00
 -1     24692 4.96656E-01 1.58562E+00 0.00000E+00
 -1     24693 9.01147E-01 2.97983E+00 0.00000E+00
 -1     24694 8.87072E-01 2.78604E+00 0.00000E+00
 -1     24695-2.51469E+00 3.59426E+00 0.00000E+00
 -1     24696-2.71813E+00 3.93419E+00 0.00000E+00
 -1     24697-3.39598E+00 1.20861E+01 0.00000E+00
 -1     24698-3.00896E+00 1.15139E+01 0.00000E+00
 -1     24699 3.22327E-01 1.29449E+00 0.00000E+00
 -1     24700-1.10283E+00 1.39863E+00 0.00000E+00
 -1     24701-1.26442E+00 1.62356E+00 0.00000E+00
 -1     24702-8.73028E-01 1.26640E+00 0.00000E+00
 -1     24703 8.30927E-01 3.86073E+00 0.00000E+00
 -1     24704 8.68800E-01 3.61819E+00 0.00000E+00
 -1     24705 7.11561E-01 3.73056E+00 0.00000E+00
 -1     24706-2.13411E+00 2.96171E+00 0.00000E+00
 -1     24707-2.32276E+00 3.27057E+00 0.00000E+00
 -1     24708-1.79587E+00 2.82380E+00 0.00000E+00
 -1     24709-5.38760E-01 6.44571E-01 0.00000E+00
 -1     24710-6.88107E-01 8.27953E-01 0.00000E+00
 -1     24711-6.39070E-01 8.84389E-01 0.00000E+00
 -1     24712-4.08551E-01 5.58516E-01 0.00000E+00
 -1     24713-4.25285E+00 1.33009E+01 0.00000E+00
 -1     24714-3.82493E+00 1.26888E+01 0.00000E+00
 -1     24715-4.92487E+00 1.32333E+01 0.00000E+00
 -1     24716 6.78238E-01 1.95499E+00 0.00000E+00
 -1     24717 6.19978E-01 1.82334E+00 0.00000E+00
 -1     24718 5.49287E-01 1.56986E+00 0.00000E+00
 -1     24719 6.62422E-01 1.83358E+00 0.00000E+00
 -1     24720-1.42946E+00 1.86072E+00 0.00000E+00
 -1     24721-1.60212E+00 2.11540E+00 0.00000E+00
 -1     24722-1.47384E+00 2.24697E+00 0.00000E+00
 -1     24723-1.16580E+00 1.72832E+00 0.00000E+00
 -1     24724 8.62791E-01 2.60194E+00 0.00000E+00
 -1     24725 8.27980E-01 2.42813E+00 0.00000E+00
 -1     24726 8.17437E-01 2.48161E+00 0.00000E+00
 -1     24727 8.92851E-01 3.39433E+00 0.00000E+00
 -1     24728 9.02911E-01 3.17772E+00 0.00000E+00
 -1     24729 8.35472E-01 2.85247E+00 0.00000E+00
 -1     24730 8.01102E-01 3.26347E+00 0.00000E+00
 -1     24731-6.46278E+00 1.65266E+01 0.00000E+00
 -1     24732-5.87854E+00 1.61790E+01 0.00000E+00
 -1     24733-6.86907E+00 1.59184E+01 0.00000E+00
 -1     24734 7.55949E-01 2.14017E+00 0.00000E+00
 -1     24735 2.66032E-01 5.91283E-01 0.00000E+00
 -1     24736 2.31633E-01 5.43363E-01 0.00000E+00
 -1     24737 3.28121E-01 7.77639E-01 0.00000E+00
 -1     24738-5.52504E+00 1.55051E+01 0.00000E+00
 -1     24739-2.13730E+00 3.45561E+00 0.00000E+00
 -1     24740-5.81827E+00 1.47530E+01 0.00000E+00
 -1     24741 3.93091E-01 1.07110E+00 0.00000E+00
 -1     24742 3.81702E-01 9.69845E-01 0.00000E+00
 -1     24743-6.83267E+00 1.27682E+01 0.00000E+00
 -1     24744-7.12335E+00 1.34555E+01 0.00000E+00
 -1     24745-4.92761E+00 8.36690E+00 0.00000E+00
 -1     24746-4.59063E+00 8.72980E+00 0.00000E+00
 -1     24747-4.69572E+00 7.82681E+00 0.00000E+00
 -1     24748 1.90449E-01 5.08283E-01 0.00000E+00
 -1     24749 1.43957E-01 4.81082E-01 0.00000E+00
 -1     24750 2.44840E-01 6.83562E-01 0.00000E+00
 -1     24751-3.84293E+00 5.21895E+00 0.00000E+00
 -1     24752-3.74549E-01 7.18311E+00 0.00000E+00
 -1     24753-1.83961E-01 6.77243E+00 0.00000E+00
 -1     24754-1.67063E-02 6.36573E+00 0.00000E+00
 -1     24755 1.40361E-01 5.98961E+00 0.00000E+00
 -1     24756-2.74971E-01 6.25805E+00 0.00000E+00
 -1     24757 2.80111E-01 5.62555E+00 0.00000E+00
 -1     24758 4.08715E-01 5.28792E+00 0.00000E+00
 -1     24759 5.44618E-02 5.50454E+00 0.00000E+00
 -1     24760-6.83185E+00 1.16407E+01 0.00000E+00
 -1     24761 3.78723E-01 1.39398E+00 0.00000E+00
 -1     24762 3.20978E-01 1.18886E+00 0.00000E+00
 -1     24763 3.19964E-01 1.10376E+00 0.00000E+00
 -1     24764 4.39292E-01 1.49693E+00 0.00000E+00
 -1     24765-5.62639E+00 1.01359E+01 0.00000E+00
 -1     24766-5.87002E+00 1.07767E+01 0.00000E+00
 -1     24767-5.02580E+00 9.92328E+00 0.00000E+00
 -1     24768 8.90464E-02 4.66542E-01 0.00000E+00
 -1     24769 2.75803E-02 4.61837E-01 0.00000E+00
 -1     24770 1.33398E-01 6.33971E-01 0.00000E+00
 -1     24771-3.82876E+00 5.89151E+00 0.00000E+00
 -1     24772-4.04969E+00 6.34696E+00 0.00000E+00
 -1     24773 3.63472E-01 8.73758E-01 0.00000E+00
 -1     24774 3.46322E-01 7.89618E-01 0.00000E+00
 -1     24775-4.87914E-02 4.71834E-01 0.00000E+00
 -1     24776-1.30582E-01 4.91462E-01 0.00000E+00
 -1     24777-1.53114E-02 6.29521E-01 0.00000E+00
 -1     24778 5.24580E-01 4.97098E+00 0.00000E+00
 -1     24779 6.23812E-01 4.66935E+00 0.00000E+00
 -1     24780-2.64907E+00 1.09518E+01 0.00000E+00
 -1     24781-2.29935E+00 1.04234E+01 0.00000E+00
 -1     24782-3.14145E+00 1.08456E+01 0.00000E+00
 -1     24783-3.95589E+00 1.19925E+01 0.00000E+00
 -1     24784-8.43465E+00 1.61978E+01 0.00000E+00
 -1     24785 4.36870E-01 1.09546E+00 0.00000E+00
 -1     24786-1.33763E+00 8.96136E+00 0.00000E+00
 -1     24787-1.06545E+00 8.50080E+00 0.00000E+00
 -1     24788-2.93245E+00 4.28657E+00 0.00000E+00
 -1     24789-3.15043E+00 4.66089E+00 0.00000E+00
 -1     24790-2.51652E+00 4.14279E+00 0.00000E+00
 -1     24791 3.32066E-01 4.83881E+00 0.00000E+00
 -1     24792-2.35786E-01 5.33823E-01 0.00000E+00
 -1     24793-3.37027E-01 5.67439E-01 0.00000E+00
 -1     24794-4.44130E-01 7.24478E-01 0.00000E+00
 -1     24795-2.20698E-01 6.85375E-01 0.00000E+00
 -1     24796-8.11081E-01 8.05295E+00 0.00000E+00
 -1     24797-5.81263E-01 7.61616E+00 0.00000E+00
 -1     24798-1.15494E+00 7.94303E+00 0.00000E+00
 -1     24799 3.90402E-01 9.14722E-01 0.00000E+00
 -1     24800 5.54758E-01 4.25535E+00 0.00000E+00
 -1     24801 4.33176E-01 1.36677E+00 0.00000E+00
 -1     24802 7.18808E-01 2.02778E+00 0.00000E+00
 -1     24803 6.82542E-01 1.86880E+00 0.00000E+00
 -1     24804-6.38191E+00 1.21789E+01 0.00000E+00
 -1     24805-6.08435E+00 1.26581E+01 0.00000E+00
 -1     24806-6.08974E+00 1.15265E+01 0.00000E+00
 -1     24807-1.77577E+00 3.33039E+00 0.00000E+00
 -1     24808-1.94050E+00 3.66514E+00 0.00000E+00
 -1     24809 4.07764E-01 1.19388E+00 0.00000E+00
 -1     24810 4.73820E-01 1.32343E+00 0.00000E+00
 -1     24811-6.71618E+00 1.39278E+01 0.00000E+00
 -1     24812-7.31970E+00 1.41286E+01 0.00000E+00
 -1     24813 5.10318E-01 1.32401E+00 0.00000E+00
 -1     24814 4.88602E-01 1.22158E+00 0.00000E+00
 -1     24815 1.13130E-01 4.69636E+00 0.00000E+00
 -1     24816 2.50449E-01 4.39367E+00 0.00000E+00
 -1     24817-6.71763E-01 7.07946E+00 0.00000E+00
 -1     24818-4.47129E+00 1.19416E+01 0.00000E+00
 -1     24819-4.01712E+00 1.13551E+01 0.00000E+00
 -1     24820-3.38113E+00 5.04712E+00 0.00000E+00
 -1     24821-3.60604E+00 5.46032E+00 0.00000E+00
 -1     24822-3.36228E+00 5.72010E+00 0.00000E+00
 -1     24823-2.93437E+00 4.89273E+00 0.00000E+00
 -1     24824 4.59150E-01 1.12678E+00 0.00000E+00
 -1     24825 4.28195E-01 1.04630E+00 0.00000E+00
 -1     24826 5.33729E-01 1.36232E+00 0.00000E+00
 -1     24827-4.24821E+00 6.82658E+00 0.00000E+00
 -1     24828-4.47093E+00 7.32123E+00 0.00000E+00
 -1     24829-6.60331E-01 1.13611E+00 0.00000E+00
 -1     24830-7.82564E-01 1.35484E+00 0.00000E+00
 -1     24831 3.83180E-01 4.12286E+00 0.00000E+00
 -1     24832 4.87637E-01 3.85407E+00 0.00000E+00
 -1     24833 1.86378E-01 3.98766E+00 0.00000E+00
 -1     24834 5.78527E-01 3.60328E+00 0.00000E+00
 -1     24835 6.46461E-01 3.36020E+00 0.00000E+00
 -1     24836 4.25822E-01 3.47566E+00 0.00000E+00
 -1     24837-3.75963E+00 6.64302E+00 0.00000E+00
 -1     24838-7.51859E+00 1.48125E+01 0.00000E+00
 -1     24839-1.95242E+00 9.91937E+00 0.00000E+00
 -1     24840-1.63736E+00 9.42906E+00 0.00000E+00
 -1     24841-2.40642E+00 9.79834E+00 0.00000E+00
 -1     24842-1.73346E+00 8.84196E+00 0.00000E+00
 -1     24843-7.24064E+00 1.53969E+01 0.00000E+00
 -1     24844-6.54286E+00 1.51248E+01 0.00000E+00
 -1     24845-5.56226E+00 1.29598E+01 0.00000E+00
 -1     24846-5.02241E+00 1.23270E+01 0.00000E+00
 -1     24847 5.30642E-01 1.43852E+00 0.00000E+00
 -1     24848-4.15767E+00 7.64188E+00 0.00000E+00
 -1     24849-3.30525E+00 6.44918E+00 0.00000E+00
 -1     24850-3.48073E+00 6.94134E+00 0.00000E+00
 -1     24851-3.57791E+00 7.48777E+00 0.00000E+00
 -1     24852-3.77578E+00 8.00785E+00 0.00000E+00
 -1     24853-3.12659E+00 7.29115E+00 0.00000E+00
 -1     24854 3.92830E-01 9.78611E-01 0.00000E+00
 -1     24855 3.51703E-01 9.20804E-01 0.00000E+00
 -1     24856 4.61390E-01 1.19564E+00 0.00000E+00
 -1     24857-3.72039E+00 1.07308E+01 0.00000E+00
 -1     24858-3.33201E+00 1.01882E+01 0.00000E+00
 -1     24859-4.21674E+00 1.06870E+01 0.00000E+00
 -1     24860-1.62704E+00 3.00424E+00 0.00000E+00
 -1     24861-1.45209E+00 3.20855E+00 0.00000E+00
 -1     24862-1.47695E+00 2.69516E+00 0.00000E+00
 -1     24863-3.13743E+00 5.98825E+00 0.00000E+00
 -1     24864-2.87968E+00 6.27267E+00 0.00000E+00
 -1     24865-2.93910E+00 5.54498E+00 0.00000E+00
 -1     24866-4.09906E+00 8.51052E+00 0.00000E+00
 -1     24867-4.30860E+00 9.09410E+00 0.00000E+00
 -1     24868-3.51423E+00 8.35847E+00 0.00000E+00
 -1     24869-9.24184E-01 1.60089E+00 0.00000E+00
 -1     24870-1.06319E+00 1.85255E+00 0.00000E+00
 -1     24871-7.03021E-01 1.47584E+00 0.00000E+00
 -1     24872 3.04720E-01 8.80459E-01 0.00000E+00
 -1     24873 2.48863E-01 8.45320E-01 0.00000E+00
 -1     24874 3.69726E-01 1.08693E+00 0.00000E+00
 -1     24875 6.06439E-01 1.60382E+00 0.00000E+00
 -1     24876 6.38125E-01 1.71411E+00 0.00000E+00
 -1     24877-1.19947E+00 2.11880E+00 0.00000E+00
 -1     24878-1.34265E+00 2.39826E+00 0.00000E+00
 -1     24879-1.19630E+00 2.57307E+00 0.00000E+00
 -1     24880-9.53925E-01 1.99961E+00 0.00000E+00
 -1     24881 7.57708E-01 2.73081E+00 0.00000E+00
 -1     24882 7.66906E-01 2.54262E+00 0.00000E+00
 -1     24883-5.25334E-01 8.91771E-01 0.00000E+00
 -1     24884-9.81171E-01 6.99564E+00 0.00000E+00
 -1     24885-7.52203E-01 6.58068E+00 0.00000E+00
 -1     24886-5.56986E-01 6.16250E+00 0.00000E+00
 -1     24887-3.66996E-01 5.77308E+00 0.00000E+00
 -1     24888-8.47550E-01 6.08576E+00 0.00000E+00
 -1     24889-5.08097E+00 1.16867E+01 0.00000E+00
 -1     24890-3.87148E+00 9.46717E+00 0.00000E+00
 -1     24891-4.35916E+00 9.69219E+00 0.00000E+00
 -1     24892-4.63782E-01 9.79280E-01 0.00000E+00
 -1     24893-2.01936E-01 5.37643E+00 0.00000E+00
 -1     24894-3.99527E-02 5.02828E+00 0.00000E+00
 -1     24895-4.65448E-01 5.28817E+00 0.00000E+00
 -1     24896 2.95368E-02 8.10034E-01 0.00000E+00
 -1     24897-6.82957E-02 8.20511E-01 0.00000E+00
 -1     24898 7.48496E-01 2.19936E+00 0.00000E+00
 -1     24899 6.75016E-01 1.92023E+00 0.00000E+00
 -1     24900 7.64783E-01 2.37298E+00 0.00000E+00
 -1     24901-7.86394E+00 1.55954E+01 0.00000E+00
 -1     24902 1.85017E-01 8.26115E-01 0.00000E+00
 -1     24903 1.12956E-01 8.12977E-01 0.00000E+00
 -1     24904 8.08279E-02 1.00654E+00 0.00000E+00
 -1     24905 2.44247E-01 1.02793E+00 0.00000E+00
 -1     24906 6.99900E-01 2.25239E+00 0.00000E+00
 -1     24907-4.55898E+00 1.03129E+01 0.00000E+00
 -1     24908 3.54814E-01 1.11710E+00 0.00000E+00
 -1     24909-5.44821E+00 1.12946E+01 0.00000E+00
 -1     24910-2.15023E+00 8.72758E+00 0.00000E+00
 -1     24911-1.82498E+00 8.27594E+00 0.00000E+00
 -1     24912 5.88015E-01 1.57712E+00 0.00000E+00
 -1     24913-2.11950E+00 4.01575E+00 0.00000E+00
 -1     24914-2.30655E+00 4.38044E+00 0.00000E+00
 -1     24915-1.75140E+00 3.89617E+00 0.00000E+00
 -1     24916 6.95248E-01 3.12517E+00 0.00000E+00
 -1     24917 7.32036E-01 2.91260E+00 0.00000E+00
 -1     24918 5.79712E-01 3.00129E+00 0.00000E+00
 -1     24919-1.23150E-01 4.57689E+00 0.00000E+00
 -1     24920-1.80709E-01 8.47958E-01 0.00000E+00
 -1     24921-3.14883E-01 8.93387E-01 0.00000E+00
 -1     24922-4.11476E-01 1.14226E+00 0.00000E+00
 -1     24923-1.32930E-01 1.03162E+00 0.00000E+00
 -1     24924-5.98829E+00 1.35692E+01 0.00000E+00
 -1     24925-6.16879E+00 1.42501E+01 0.00000E+00
 -1     24926 6.66005E-01 2.59575E+00 0.00000E+00
 -1     24927 5.71459E-01 1.50670E+00 0.00000E+00
 -1     24928-4.11477E-01 4.41142E+00 0.00000E+00
 -1     24929-2.33762E-01 4.09513E+00 0.00000E+00
 -1     24930-1.23056E+00 7.42130E+00 0.00000E+00
 -1     24931-1.31362E+00 6.91350E+00 0.00000E+00
 -1     24932-1.50942E+00 7.85298E+00 0.00000E+00
 -1     24933-3.38548E+00 8.96915E+00 0.00000E+00
 -1     24934-3.42304E+00 9.56969E+00 0.00000E+00
 -1     24935-2.87079E+00 9.67392E+00 0.00000E+00
 -1     24936-3.08913E+00 8.44940E+00 0.00000E+00
 -1     24937 6.04192E-01 1.66582E+00 0.00000E+00
 -1     24938 5.30122E-01 1.41646E+00 0.00000E+00
 -1     24939 4.84437E-01 1.34789E+00 0.00000E+00
 -1     24940 6.25918E-01 1.82932E+00 0.00000E+00
 -1     24941 2.70056E-01 3.36148E+00 0.00000E+00
 -1     24942 3.74690E-01 3.12254E+00 0.00000E+00
 -1     24943-1.13983E+00 3.09814E+00 0.00000E+00
 -1     24944-1.26098E+00 3.43568E+00 0.00000E+00
 -1     24945-4.88397E+00 1.09220E+01 0.00000E+00
 -1     24946-2.49682E+00 9.18649E+00 0.00000E+00
 -1     24947-2.59042E+00 8.61312E+00 0.00000E+00
 -1     24948-1.99711E-02 3.84041E+00 0.00000E+00
 -1     24949 1.32194E-01 3.57932E+00 0.00000E+00
 -1     24950 8.81740E-02 3.22178E+00 0.00000E+00
 -1     24951-2.79723E-01 3.68696E+00 0.00000E+00
 -1     24952-2.51577E+00 4.75294E+00 0.00000E+00
 -1     24953-2.71970E+00 5.15002E+00 0.00000E+00
 -1     24954-2.51322E+00 5.40701E+00 0.00000E+00
 -1     24955-2.11152E+00 4.63050E+00 0.00000E+00
 -1     24956-1.90211E+00 7.74718E+00 0.00000E+00
 -1     24957-2.28947E+00 7.65639E+00 0.00000E+00
 -1     24958-1.95027E+00 7.24724E+00 0.00000E+00
 -1     24959-1.64608E+00 6.86045E+00 0.00000E+00
 -1     24960-1.37433E+00 6.45019E+00 0.00000E+00
 -1     24961-2.01014E+00 6.77757E+00 0.00000E+00
 -1     24962-2.68121E+00 6.94999E+00 0.00000E+00
 -1     24963-2.75984E+00 7.50648E+00 0.00000E+00
 -1     24964-5.19715E-01 1.37386E+00 0.00000E+00
 -1     24965-6.28122E-01 1.62729E+00 0.00000E+00
 -1     24966-3.51576E-01 1.29051E+00 0.00000E+00
 -1     24967 4.36873E-01 1.30567E+00 0.00000E+00
 -1     24968 3.77208E-01 1.26702E+00 0.00000E+00
 -1     24969 5.06044E-01 1.53246E+00 0.00000E+00
 -1     24970-5.76714E-01 4.84561E+00 0.00000E+00
 -1     24971-6.91408E-01 4.35789E+00 0.00000E+00
 -1     24972-7.66058E-01 5.22529E+00 0.00000E+00
 -1     24973-1.16350E+00 6.03893E+00 0.00000E+00
 -1     24974-9.45729E-01 5.63702E+00 0.00000E+00
 -1     24975-1.47637E+00 5.99293E+00 0.00000E+00
 -1     24976-1.04240E+00 2.75910E+00 0.00000E+00
 -1     24977-8.73156E-01 2.98084E+00 0.00000E+00
 -1     24978-9.35544E-01 2.45216E+00 0.00000E+00
 -1     24979 3.11655E-01 1.25579E+00 0.00000E+00
 -1     24980 2.31288E-01 1.23784E+00 0.00000E+00
 -1     24981 3.80417E-01 1.48206E+00 0.00000E+00
 -1     24982 6.36162E-01 2.16187E+00 0.00000E+00
 -1     24983 6.43729E-01 2.00074E+00 0.00000E+00
 -1     24984-2.67664E+00 6.53792E+00 0.00000E+00
 -1     24985-2.33541E+00 6.73993E+00 0.00000E+00
 -1     24986-2.01296E+00 6.36473E+00 0.00000E+00
 -1     24987-2.52881E+00 6.06710E+00 0.00000E+00
 -1     24988-2.71585E+00 8.00841E+00 0.00000E+00
 -1     24989-1.39521E+00 3.80234E+00 0.00000E+00
 -1     24990-1.54590E+00 4.16504E+00 0.00000E+00
 -1     24991-1.07685E+00 3.69784E+00 0.00000E+00
 -1     24992 4.56960E-01 2.88699E+00 0.00000E+00
 -1     24993 5.19515E-01 2.66262E+00 0.00000E+00
 -1     24994 3.20329E-01 2.77766E+00 0.00000E+00
 -1     24995 5.52735E-01 2.40836E+00 0.00000E+00
 -1     24996 5.89163E-01 2.23644E+00 0.00000E+00
 -1     24997 4.48847E-01 2.29797E+00 0.00000E+00
 -1     24998 1.38970E-01 1.22744E+00 0.00000E+00
 -1     24999 3.61058E-02 1.22466E+00 0.00000E+00
 -1     25000 2.07265E-01 1.46186E+00 0.00000E+00
 -1     25001 5.72757E-01 1.73936E+00 0.00000E+00
 -1     25002-7.56481E-02 1.22217E+00 0.00000E+00
 -1     25003-2.08105E-01 1.24796E+00 0.00000E+00
 -1     25004-2.87248E-01 1.48358E+00 0.00000E+00
 -1     25005-1.59974E-02 1.44792E+00 0.00000E+00
 -1     25006 5.38487E-01 1.98088E+00 0.00000E+00
 -1     25007 5.13602E-01 1.69946E+00 0.00000E+00
 -1     25008 4.67733E-01 1.76703E+00 0.00000E+00
 -1     25009-7.36153E-01 1.88636E+00 0.00000E+00
 -1     25010-8.48244E-01 2.16494E+00 0.00000E+00
 -1     25011-7.13557E-01 2.34484E+00 0.00000E+00
 -1     25012-5.40650E-01 1.78724E+00 0.00000E+00
 -1     25013 3.88488E-01 1.75948E+00 0.00000E+00
 -1     25014-6.22216E-01 2.84524E+00 0.00000E+00
 -1     25015-6.93211E-01 3.19289E+00 0.00000E+00
 -1     25016-2.32171E+00 5.70844E+00 0.00000E+00
 -1     25017-2.13407E+00 5.96464E+00 0.00000E+00
 -1     25018-2.12725E+00 5.30238E+00 0.00000E+00
 -1     25019-1.04071E+00 4.42383E+00 0.00000E+00
 -1     25020-8.43555E-01 4.00667E+00 0.00000E+00
 -1     25021-1.06312E+00 5.18584E+00 0.00000E+00
 -1     25022 1.88066E-01 2.71293E+00 0.00000E+00
 -1     25023 2.82853E-01 2.48715E+00 0.00000E+00
 -1     25024 3.22918E-01 2.24625E+00 0.00000E+00
 -1     25025 3.72997E-01 2.00133E+00 0.00000E+00
 -1     25026 2.81949E-01 1.70852E+00 0.00000E+00
 -1     25027 2.08648E-01 2.18468E+00 0.00000E+00
 -1     25028 1.71373E-01 1.69838E+00 0.00000E+00
 -1     25029-4.88030E-01 3.49008E+00 0.00000E+00
 -1     25030-2.58285E-01 3.24400E+00 0.00000E+00
 -1     25031-8.09855E-02 3.06686E+00 0.00000E+00
 -1     25032 6.83123E-02 2.85850E+00 0.00000E+00
 -1     25033 4.06514E-02 2.56574E+00 0.00000E+00
 -1     25034-2.61634E-01 2.88292E+00 0.00000E+00
 -1     25035-1.73666E+00 4.54280E+00 0.00000E+00
 -1     25036-1.91884E+00 4.92681E+00 0.00000E+00
 -1     25037-1.74242E+00 5.21990E+00 0.00000E+00
 -1     25038-1.37056E+00 4.45485E+00 0.00000E+00
 -1     25039 1.15525E-01 1.97371E+00 0.00000E+00
 -1     25040 3.75837E-02 1.72170E+00 0.00000E+00
 -1     25041-9.55809E-02 1.71611E+00 0.00000E+00
 -1     25042 5.69128E-02 2.20857E+00 0.00000E+00
 -1     25043-1.20253E+00 4.81440E+00 0.00000E+00
 -1     25044-1.40841E+00 5.21001E+00 0.00000E+00
 -1     25045-1.82556E+00 5.99613E+00 0.00000E+00
 -1     25046-1.59260E+00 5.59944E+00 0.00000E+00
 -1     25047-5.69065E-01 2.51265E+00 0.00000E+00
 -1     25048-4.11865E-01 2.71593E+00 0.00000E+00
 -1     25049-2.29995E-01 2.54408E+00 0.00000E+00
 -1     25050-5.04233E-01 2.21441E+00 0.00000E+00
 -1     25051-2.20522E-01 1.65302E+00 0.00000E+00
 -1     25052-3.82193E-01 1.69271E+00 0.00000E+00
 -1     25053-4.64143E-01 1.95975E+00 0.00000E+00
 -1     25054-1.69583E-01 1.93097E+00 0.00000E+00
 -1     25055-7.39525E-01 3.62557E+00 0.00000E+00
 -1     25056-6.38423E-02 2.34747E+00 0.00000E+00
 -1     25057-3.38819E-01 2.12103E+00 0.00000E+00
 -1     25058-1.90175E-01 2.18924E+00 0.00000E+00
 -1     25059-4.32139E-01 4.12059E+00-7.25836E-04
 -1     25060-3.21327E-01 4.59937E+00 3.92701E-04
 -1     25061-5.97359E-01 4.54025E+00 9.21778E-04
 -1     25062-6.02952E+00 4.87529E+00 2.34834E-06
 -1     25063-5.85009E+00 4.97039E+00 3.13335E-05
 -1     25064-5.38598E+00 4.60074E+00-1.14597E-04
 -1     25065-5.53743E+00 4.44575E+00-3.04654E-05
 -1     25066-6.01020E+00 4.80587E+00-4.67817E-06
 -1     25067-5.36834E+00 4.53184E+00-2.05467E-04
 -1     25068 8.54385E-01 2.55066E+00-5.24348E-04
 -1     25069 9.18820E-01 2.84914E+00 5.83828E-05
 -1     25070 8.96645E-01 2.72553E+00-4.34859E-04
 -1     25071 7.43252E-01 2.10730E+00 1.41029E-04
 -1     25072 7.42617E-01 2.10429E+00 3.50991E-05
 -1     25073 8.05994E-01 2.39041E+00 4.87181E-04
 -1     25074 6.92354E-01 1.96564E+00 2.58083E-04
 -1     25075 1.37763E-02 6.12262E-01-5.07940E-04
 -1     25076 2.84989E-02 8.04120E-01 2.97628E-04
 -1     25077 1.87731E-02 6.02996E-01-7.86040E-04
 -1     25078 7.17592E-01 4.43364E+00 2.07751E-05
 -1     25079 5.61212E-01 4.29889E+00 1.20914E-04
 -1     25080 6.48920E-01 4.03038E+00-3.63008E-05
 -1     25081-7.57257E+00 8.12463E+00-2.62663E-04
 -1     25082-6.91573E+00 7.90593E+00-7.45828E-05
 -1     25083-7.25105E+00 7.61905E+00-6.19543E-04
 -1     25084 1.51894E-01 9.26429E-01 1.04786E-03
 -1     25085 1.11893E-01 7.33402E-01-1.19172E-03
 -1     25086 1.57347E-01 8.56912E-01 9.94692E-04
 -1     25087 1.23981E-01 6.13558E-01-2.81532E-08
 -1     25088 1.29646E-01 5.57711E-01-9.06941E-04
 -1     25089 1.62129E-01 7.90438E-01 2.02666E-03
 -1     25090 1.30553E-01 5.58912E-01-1.97812E-03
 -1     25091 1.69869E-01 7.30109E-01-1.17923E-03
 -1     25092-1.12665E+01 2.53619E+01 6.36287E-03
 -1     25093-1.04867E+01 2.52347E+01 3.44049E-03
 -1     25094-1.07791E+01 2.52859E+01 3.69628E-03
 -1     25095-5.56547E+00 5.64905E+00 9.23902E-05
 -1     25096-6.13935E+00 5.85653E+00 3.41496E-04
 -1     25097-5.85577E+00 6.06774E+00-1.60284E-04
 -1     25098 2.96241E-01 2.65305E+00 1.27542E-04
 -1     25099 1.98788E-01 2.88656E+00 5.54733E-04
 -1     25100 1.65805E-01 2.59145E+00-8.39349E-04
 -1     25101 6.53619E-02 1.80523E-01-4.02576E-04
 -1     25102 2.25810E-02 1.72471E-01 1.68899E-04
 -1     25103 4.93017E-02 3.04233E-01-3.14594E-04
 -1     25104-6.04230E-03 3.02898E-01-1.32569E-04
 -1     25105-5.38390E+00 5.78176E+00-8.21559E-04
 -1     25106-5.10537E+00 5.37175E+00 7.15532E-05
 -1     25107-4.83650E+00 5.58861E+00-5.70888E-04
 -1     25108-4.57392E+00 5.18156E+00 3.14169E-04
 -1     25109 2.07139E-02 8.12899E-01 1.33026E-03
 -1     25110 4.15488E-03 4.35388E-01-3.58902E-04
 -1     25111 7.80370E-03 6.37496E-01-4.54439E-04
 -1     25112 1.08473E-02 6.36709E-01-2.55166E-04
 -1     25113-5.08444E+00 2.29034E+01-3.06312E-03
 -1     25114-4.44728E+00 2.25752E+01 7.11013E-04
 -1     25115-5.25372E+00 2.34087E+01-1.43127E-03
 -1     25116-5.42940E+00 2.29284E+01-1.21908E-03
 -1     25117-4.62486E+00 2.20904E+01-1.71869E-03
 -1     25118-4.78161E+00 2.25909E+01-1.83438E-03
 -1     25119-6.26519E-02 2.78259E-01 1.28756E-02
 -1     25120-9.58776E-02 2.39003E-01 1.13388E-02
 -1     25121-1.77122E-01 4.25228E-01-1.76731E-02
 -1     25122-1.91627E-01 4.78170E-01-8.30657E-03
 -1     25123-1.06054E-01 2.65156E-01 1.48392E-02
 -1     25124-2.42247E-01 4.27747E-01-2.36000E-02
 -1     25125 3.39406E-01 1.31459E+00-2.82878E-04
 -1     25126 2.79302E-01 1.19610E+00-5.57352E-04
 -1     25127 2.87046E-01 1.11876E+00-1.93898E-03
 -1     25128-1.79946E+01 2.66103E+01 4.80440E-03
 -1     25129-1.88662E+01 2.66584E+01 3.30544E-03
 -1     25130-1.79238E+01 2.65074E+01 3.16480E-04
 -1     25131-1.78917E+01 2.57407E+01 4.65584E-03
 -1     25132-1.87826E+01 2.65586E+01 7.00491E-04
 -1     25133 6.17975E-01 1.69477E+00-1.69533E-04
 -1     25134 5.95133E-01 1.57651E+00-2.23395E-04
 -1     25135 5.40326E-01 1.43614E+00 1.19898E-03
 -1     25136 9.78324E-01 3.15874E+00 1.23630E-04
 -1     25137 9.60982E-01 3.03558E+00-5.42117E-04
 -1     25138 3.07215E-01 7.43720E-01 7.85658E-04
 -1     25139 2.48575E-01 6.28235E-01 1.07746E-03
 -1     25140 3.04357E-01 7.96170E-01 1.65200E-03
 -1     25141 2.44769E-01 6.78514E-01-1.18800E-03
 -1     25142 7.89432E-01 1.10596E+01-2.77731E-04
 -1     25143 6.59610E-01 1.15860E+01 3.14986E-04
 -1     25144 7.05618E-01 1.14044E+01 7.62754E-05
 -1     25145-5.78085E+00 9.17061E+00 1.44922E-04
 -1     25146-5.18042E+00 8.96040E+00-1.74448E-04
 -1     25147-5.53045E+00 8.59914E+00 2.08201E-04
 -1     25148-3.18990E-01 2.52157E+00-9.60590E-04
 -1     25149-5.10350E-01 2.69566E+00 5.69513E-04
 -1     25150-1.70009E-01 2.52954E+00-4.88800E-04
 -1     25151 4.63662E-02 2.73480E+00 5.90766E-04
 -1     25152-1.09210E-01 2.89821E+00 9.97505E-04
 -1     25153-7.73299E+00 2.52290E+01-2.66820E-04
 -1     25154-7.13777E+00 2.50318E+01 5.65643E-04
 -1     25155-7.40761E+00 2.45746E+01 2.70433E-03
 -1     25156-7.85783E+00 2.40609E+01 1.05386E-03
 -1     25157-7.60179E+00 2.45169E+01 7.64959E-04
 -1     25158-7.27684E+00 2.38518E+01 2.97471E-03
 -1     25159-8.72407E-01 5.47271E+00-1.42204E-04
 -1     25160-1.18035E+00 5.43342E+00 2.46101E-04
 -1     25161-9.87553E-01 5.02867E+00 1.18032E-04
 -1     25162-1.28711E+00 1.48525E+01 3.93971E-04
 -1     25163-1.46951E+00 1.58189E+01-3.80462E-04
 -1     25164-8.18138E-01 1.61248E+01-4.26600E-04
 -1     25165-8.65660E-01 1.50447E+01-7.54569E-05
 -1     25166-1.02783E+00 1.60209E+01-1.62650E-04
 -1     25167-1.94495E+00 3.62167E+00-4.52882E-04
 -1     25168-2.11647E+00 3.98350E+00 6.84724E-04
 -1     25169-1.59364E+00 3.50342E+00 1.67439E-05
 -1     25170-1.74902E+00 3.86374E+00-4.38083E-05
 -1     25171-4.03959E+00 1.40182E+01-7.09114E-04
 -1     25172-3.46763E+00 1.41350E+01-1.01637E-03
 -1     25173-3.87722E+00 1.47396E+01 8.71580E-05
 -1     25174-3.82287E+00 1.47256E+01-4.73964E-05
 -1     25175-3.30562E+00 1.48647E+01-6.36832E-05
 -1     25176-2.51683E+00 9.13190E+00 6.93592E-04
 -1     25177-2.64309E+00 8.45566E+00 7.52426E-05
 -1     25178-2.16939E+00 8.67406E+00-5.47524E-04
 -1     25179-2.29213E+00 8.01729E+00-1.69617E-05
 -1     25180-1.94544E+00 7.21230E+00-5.11143E-04
 -1     25181-1.64172E+00 6.82580E+00-6.56722E-04
 -1     25182-1.94438E+00 6.72047E+00-1.77065E-04
 -1     25183-2.32729E+00 6.67965E+00-2.06165E-04
 -1     25184-2.00498E+00 6.30643E+00-2.28016E-04
 -1     25185-4.47429E+00 7.33754E+00-4.79045E-04
 -1     25186-4.69957E+00 7.84398E+00-1.51529E-03
 -1     25187-5.02539E+00 7.52728E+00 9.98040E-05
 -1     25188 1.55308E-01 1.79059E+00 2.27961E-04
 -1     25189 1.49322E-01 1.95573E+00-7.51931E-05
 -1     25190 1.94687E-01 1.88158E+00-3.06166E-04
 -1     25191 1.79784E-01 1.88268E+00-8.72398E-04
 -1     25192 1.35754E-01 1.95302E+00-2.73232E-04
 -1     25193 1.71986E-01 2.04772E+00-5.47999E-04
 -1     25194 2.66191E-01 1.28088E+00-6.71347E-04
 -1     25195 3.32601E-01 1.40558E+00 7.63526E-04
 -1     25196 3.23077E-01 1.51230E+00 1.70021E-03
 -1     25197-2.65138E+00 5.17685E+00 5.69832E-04
 -1     25198-2.84087E+00 5.60428E+00 7.77104E-05
 -1     25199-3.32505E+00 5.73884E+00-4.91211E-04
 -1     25200-3.11850E+00 5.30994E+00-2.37514E-04
 -1     25201-2.61758E+00 5.19502E+00 8.41413E-04
 -1     25202-4.16213E-02 1.15407E+01 1.61564E-03
 -1     25203 2.30937E-01 1.11099E+01 4.75101E-04
 -1     25204-3.01064E-02 1.06968E+01-2.38939E-04
 -1     25205-2.64565E-01 1.12807E+01-3.60101E-05
 -1     25206 1.86657E-02 1.17056E+01 4.21487E-04
 -1     25207 2.87237E-02 1.08533E+01 3.08632E-04
 -1     25208 4.10402E-01 2.79769E+00-9.74276E-05
 -1     25209 3.67980E-01 2.69999E+00 4.21645E-04
 -1     25210 4.42859E-01 2.73032E+00 1.66243E-04
 -1     25211 4.67241E-01 2.90513E+00 4.72641E-04
 -1     25212 4.23135E-01 2.80392E+00-1.67860E-04
 -1     25213 1.13911E-02 3.89133E-01 6.63052E-04
 -1     25214 1.19459E-02 3.70757E-01 1.04040E-03
 -1     25215 6.07684E-03 2.80860E-01 9.67237E-04
 -1     25216 4.75532E-03 2.61088E-01 3.38824E-04
 -1     25217 5.56725E-03 2.47207E-01 5.03237E-04
 -1     25218 9.39520E-01 3.21152E+00-1.90076E-04
 -1     25219 9.17635E-01 3.32933E+00-5.37799E-04
 -1     25220 9.81014E-01 3.52086E+00-5.21646E-04
 -1     25221 1.20077E+00 4.70545E+00-3.52536E-05
 -1     25222 1.16290E+00 4.32806E+00-2.68731E-04
 -1     25223 1.19092E+00 4.58019E+00-2.25637E-04
 -1     25224-4.38746E+00 9.74142E+00 2.80164E-05
 -1     25225-4.35014E+00 9.13144E+00-4.90732E-05
 -1     25226-3.94070E+00 1.01369E+01 1.11436E-04
 -1     25227-3.91104E+00 9.50521E+00 2.20135E-04
 -1     25228 1.02050E+00 3.35447E+00 2.14508E-04
 -1     25229 2.57493E-02 5.50278E-01 1.06049E-04
 -1     25230-7.79964E+00 2.26874E+01 1.20998E-03
 -1     25231-7.60913E+00 2.36026E+01 1.28116E-03
 -1     25232-7.07014E+00 2.26708E+01-3.47607E-04
 -1     25233 9.08419E-04 2.27114E-01-6.68568E-04
 -1     25234 9.49746E-04 2.24891E-01-2.88399E-04
 -1     25235 8.14668E-04 1.65915E-01-3.40957E-04
 -1     25236 7.98911E-04 1.67672E-01-5.74066E-04
 -1     25237 2.74728E-03 3.93335E-01-8.15814E-05
 -1     25238-6.14446E+00 6.50574E+00 1.41810E-04
 -1     25239-6.44522E+00 6.27869E+00 1.90982E-04
 -1     25240 4.58741E-01 1.12006E+00 1.67662E-04
 -1     25241 3.89003E-01 9.08127E-01 1.36424E-04
 -1     25242 4.14823E-01 9.90248E-01 9.15044E-06
 -1     25243 2.87948E-03 4.46785E-01-5.19302E-04
 -1     25244 9.14768E-04 2.29059E-01 5.61220E-04
 -1     25245 1.03246E+00 3.66465E+00-1.03267E-03
 -1     25246 1.03635E+00 3.90191E+00 7.12080E-04
 -1     25247 1.09288E+00 4.02270E+00-4.02068E-04
 -1     25248 6.23083E-01 2.80328E+00 1.29551E-04
 -1     25249 5.66686E-01 2.64198E+00-4.61701E-05
 -1     25250 6.28041E-01 2.96969E+00-1.49185E-04
 -1     25251 7.03691E-01 2.94018E+00-9.08335E-05
 -1     25252 6.31514E-01 2.60237E+00-1.98422E-04
 -1     25253 6.45953E-01 2.77120E+00-1.77084E-04
 -1     25254 5.67367E-01 1.85337E+00-3.78513E-04
 -1     25255 5.03996E-01 1.73851E+00-1.07559E-03
 -1     25256 5.62583E-01 1.97659E+00 7.01754E-04
 -1     25257 6.31862E-01 1.96974E+00-2.75818E-04
 -1     25258 6.28175E-01 2.09681E+00 7.70088E-07
 -1     25259-5.10156E+00 3.84845E+00-2.15577E-05
 -1     25260-5.20594E+00 3.94783E+00 2.24811E-05
 -1     25261-5.76864E+00 4.33710E+00 1.93425E-04
 -1     25262-4.86842E+00 3.88347E+00-2.76656E-05
 -1     25263-5.87684E+00 4.44389E+00 2.54548E-04
 -1     25264 8.34777E-02 1.33786E+01 9.81485E-05
 -1     25265-3.69029E-01 1.27506E+01-1.85869E-05
 -1     25266-1.74151E-01 1.30626E+01-3.26597E-04
 -1     25267-8.79435E-02 1.38817E+01 1.22050E-04
 -1     25268-3.60907E-01 1.35588E+01 1.07456E-04
 -1     25269 9.96752E-01 3.40335E+00-3.78105E-04
 -1     25270-1.41338E-01 2.35943E-01-2.69211E-02
 -1     25271-6.49917E-02 1.12449E-01-7.05395E-03
 -1     25272-9.26629E-02 1.39762E+01 1.03651E-04
 -1     25273-1.65826E-01 1.41874E+01-1.22340E-04
 -1     25274-5.73391E-01 1.33324E+01 6.17378E-04
 -1     25275-2.50710E-01 1.32653E+01-3.40522E-04
 -1     25276 5.09621E-02 3.34014E-01 2.06831E-03
 -1     25277 8.73186E-02 4.60915E-01 2.33756E-03
 -1     25278 4.70769E-02 3.74994E-01-6.97065E-04
 -1     25279 2.01947E-02 2.12507E-01 1.27896E-03
 -1     25280 4.94407E-02 2.94745E-01 1.68515E-03
 -1     25281 4.66262E-02 3.38236E-01 1.09577E-03
 -1     25282-1.32881E-01 1.00311E+01 6.39426E-04
 -1     25283-3.73261E-01 1.05948E+01-5.50872E-05
 -1     25284-1.55224E+01 1.88145E+01 3.69423E-04
 -1     25285-1.51206E+01 1.88575E+01 7.59817E-05
 -1     25286-1.52336E+01 1.81148E+01 1.26999E-03
 -1     25287-1.51566E+01 1.81227E+01 1.12333E-03
 -1     25288-1.50422E+01 1.88681E+01 3.94780E-04
 -1     25289-1.47602E+01 1.81615E+01-1.41668E-03
 -1     25290-1.01770E+01 1.77812E+01 1.69308E-03
 -1     25291-1.07613E+01 1.70287E+01-2.10383E-03
 -1     25292-9.82129E+00 1.67978E+01 1.92020E-04
 -1     25293 1.91670E-01 5.19149E-01 5.75873E-04
 -1     25294 5.66321E-01 1.17279E+01-1.62074E-04
 -1     25295 8.04607E-01 1.11010E+01-1.29244E-04
 -1     25296 5.13353E-01 1.13375E+01-6.09267E-05
 -1     25297 5.62894E-01 1.08712E+01 2.39304E-04
 -1     25298 5.12351E-01 1.04994E+01 2.31496E-04
 -1     25299 2.41372E-01 5.56063E-01 1.71523E-04
 -1     25300 1.22862E-01 3.40958E-01-9.88343E-05
 -1     25301 1.69025E-01 4.18912E-01 1.83528E-04
 -1     25302 1.18791E-01 2.84549E-01 3.33244E-04
 -1     25303-6.10123E+00 2.01668E+01-2.08110E-03
 -1     25304-6.93665E+00 1.99071E+01-1.60114E-03
 -1     25305-6.67334E+00 2.09881E+01-1.62789E-03
 -1     25306 5.63081E-04 6.30106E-02 3.36683E-04
 -1     25307 2.10020E-03 1.38153E-01 6.89719E-04
 -1     25308 3.91434E-04 7.79111E-02 4.59068E-04
 -1     25309 5.74492E-04 6.11148E-02 7.07213E-04
 -1     25310 4.35330E-04 7.59197E-02 8.32221E-04
 -1     25311 4.09940E-01 1.22744E+01-4.28261E-04
 -1     25312 4.08620E-01 1.13933E+01 3.18638E-04
 -1     25313 2.12846E-01 1.19968E+01 8.74125E-05
 -1     25314 7.00660E-03 2.24736E-01 1.88626E-03
 -1     25315 6.29297E-03 2.26704E-01 5.12376E-04
 -1     25316 1.37267E-02 3.32031E-01-4.49956E-04
 -1     25317 3.13842E-02 4.81684E-01-1.28252E-04
 -1     25318 1.98485E-02 3.76530E-01 6.93971E-04
 -1     25319-6.98903E-01 4.16765E+00-5.99402E-04
 -1     25320-8.85755E-01 4.59182E+00 1.83091E-05
 -1     25321 5.32415E-01 7.17140E+00-1.45291E-05
 -1     25322 6.54587E-01 6.79019E+00-1.11614E-04
 -1     25323 4.58374E-01 6.65989E+00-7.57108E-05
 -1     25324-1.48699E+00 4.91733E+00 3.38195E-04
 -1     25325-1.85695E+00 4.95682E+00 3.60781E-04
 -1     25326-1.70975E+00 5.31920E+00-6.42900E-05
 -1     25327-7.66990E+00 1.99012E+01-1.99738E-03
 -1     25328-8.20344E+00 2.09766E+01 2.03018E-03
 -1     25329-8.61422E+00 2.00517E+01-1.62774E-03
 -1     25330-1.71970E+01 2.28460E+01 1.08457E-03
 -1     25331-1.67632E+01 2.28091E+01 1.74638E-03
 -1     25332-1.71468E+01 2.21248E+01-1.31068E-03
 -1     25333-1.74943E+01 2.35652E+01 2.91423E-03
 -1     25334-1.74476E+01 2.28135E+01 1.40941E-03
 -1     25335-1.66149E+00 4.56165E+00 4.93014E-05
 -1     25336 7.80714E-01 5.60090E+00-1.18392E-04
 -1     25337 6.12135E-01 5.46316E+00-1.61219E-04
 -1     25338 7.05544E-01 5.14228E+00 1.17470E-04
 -1     25339 8.57158E-01 5.27991E+00-1.71553E-04
 -1     25340-2.13488E+00 3.43780E+00 1.09300E-03
 -1     25341-2.51156E+00 3.57665E+00-1.82131E-06
 -1     25342-2.31547E+00 3.77335E+00-2.16053E-04
 -1     25343-2.44413E+00 6.06647E+00-4.67883E-04
 -1     25344-2.03127E+00 5.91103E+00-8.15929E-04
 -1     25345-2.37379E+00 5.48819E+00-3.10668E-05
 -1     25346-2.25098E+00 5.62740E+00-5.43984E-04
 -1     25347-1.97121E+00 5.33588E+00 1.37999E-04
 -1     25348-1.56076E+00 4.07346E+00 2.56015E-04
 -1     25349-1.40855E+00 3.71509E+00-9.20936E-05
 -1     25350-1.21402E+00 3.98743E+00-1.18341E-04
 -1     25351-5.77976E-02 2.58353E+00-4.12190E-04
 -1     25352 1.26706E-01 2.59387E+00 2.16543E-04
 -1     25353 1.80887E-02 2.29945E+00-9.26051E-04
 -1     25354-5.91611E+00 7.41749E+00 3.40912E-04
 -1     25355-6.91032E+00 7.89646E+00-1.03748E-03
 -1     25356-6.60897E+00 7.40341E+00 6.50617E-05
 -1     25357-5.60032E+00 7.72697E+00 6.94103E-04
 -1     25358-6.28454E+00 7.69406E+00-1.76018E-04
 -1     25359-4.23109E+00 6.84224E+00 2.85968E-04
 -1     25360-3.94152E+00 7.17131E+00 4.46216E-04
 -1     25361-3.71606E+00 6.67707E+00 3.60703E-04
 -1     25362 9.62895E-01 3.77248E+00 1.31416E-04
 -1     25363 8.73962E-01 3.65661E+00-3.67819E-05
 -1     25364 8.35993E-01 3.90074E+00-1.26883E-06
 -1     25365 9.38826E-01 4.01477E+00-1.67828E-04
 -1     25366 5.14545E-01 1.51414E+00-9.45807E-05
 -1     25367 5.29827E-01 1.71107E+00 1.35242E-04
 -1     25368 4.57649E-01 1.47053E+00-2.62686E-04
 -1     25369-3.36946E+00 2.29458E+00 1.46658E-03
 -1     25370-3.10410E+00 2.12997E+00 8.35994E-04
 -1     25371-3.25110E+00 2.21980E+00 4.17410E-04
 -1     25372-4.20160E+00 2.28389E+01 4.68761E-04
 -1     25373-4.38379E+00 2.31354E+01 9.19791E-04
 -1     25374-4.60308E+00 2.26790E+01-1.55998E-03
 -1     25375-3.90970E+00 2.22352E+01-2.15573E-03
 -1     25376-4.08377E+00 2.25290E+01-8.46849E-04
 -1     25377-9.26930E+00 2.33418E+01 2.72463E-03
 -1     25378-8.55897E+00 2.27217E+01-1.66226E-03
 -1     25379-8.42216E+00 2.39594E+01 1.71826E-03
 -1     25380-9.05643E+00 2.42935E+01-3.56270E-04
 -1     25381-8.34584E+00 2.36628E+01-1.33315E-03
 -1     25382 5.40630E-01 5.02587E+00-6.31222E-05
 -1     25383 6.38623E-01 4.72269E+00 1.49719E-05
 -1     25384 7.86961E-01 4.83957E+00 1.42828E-04
 -1     25385 8.37805E-01 3.82969E+00-1.76953E-04
 -1     25386 8.86216E-01 3.96933E+00 3.31557E-04
 -1     25387 8.13361E-01 3.76148E+00 2.56345E-04
 -1     25388-7.66064E-03 1.18968E-01 4.62641E-06
 -1     25389-3.64040E-02 2.61765E-01 3.63406E-03
 -1     25390-1.61787E+00 2.97669E+00 5.21496E-04
 -1     25391-1.30551E+00 2.84061E+00-3.47923E-04
 -1     25392-1.46284E+00 2.65415E+00 8.00620E-04
 -1     25393-1.78537E+00 2.79742E+00-1.38319E-05
 -1     25394-2.98708E+00 1.71973E+01 3.84846E-04
 -1     25395-3.40305E+00 1.79143E+01-4.70126E-04
 -1     25396-2.81507E+00 1.80717E+01 9.36057E-04
 -1     25397-2.60602E+00 2.56126E+00 3.55988E-04
 -1     25398-2.44492E+00 2.66326E+00 2.06208E-04
 -1     25399-2.84220E+00 2.83518E+00-4.90108E-04
 -1     25400-1.29494E+00 1.99660E+00 7.49763E-04
 -1     25401-1.14429E+00 1.73940E+00-4.20280E-04
 -1     25402-1.41117E+00 1.87317E+00 4.59052E-04
 -1     25403 4.68718E-02 1.15294E+00 3.24612E-04
 -1     25404 5.65267E-02 1.31488E+00-8.13069E-04
 -1     25405 3.52438E-02 9.70691E-01 1.05953E-03
 -1     25406 5.98362E-02 1.13066E+00-1.03989E-06
 -1     25407 8.80394E-02 1.47428E+00 1.32870E-04
 -1     25408 7.30864E-02 1.29204E+00-1.39788E-04
 -1     25409 5.70206E-01 1.47612E+00-2.82060E-04
 -1     25410 5.21392E-01 1.33178E+00-2.14422E-04
 -1     25411-4.19593E-01 1.19408E+01 8.23111E-04
 -1     25412-8.44830E-01 1.16027E+01 2.25646E-04
 -1     25413-6.02434E-01 1.11102E+01-5.11624E-04
 -1     25414-4.85375E-01 1.17759E+01 1.65524E-04
 -1     25415 2.08884E-01 4.14866E-01-5.98289E-06
 -1     25416 2.64450E-01 5.84003E-01 4.09920E-04
 -1     25417 2.36360E-01 4.64553E-01-7.17704E-05
 -1     25418 2.40171E-01 9.09012E+00-5.89579E-05
 -1     25419 3.30776E-01 9.71724E+00 3.30791E-05
 -1     25420 5.33718E-01 9.90993E+00 8.12844E-04
 -1     25421 5.26203E-01 8.74193E+00-8.26804E-04
 -1     25422 6.08622E-01 9.35659E+00 1.24237E-04
 -1     25423 1.82210E-01 3.10929E-01 7.10981E-04
 -1     25424 1.57042E-01 2.64345E-01 8.76380E-04
 -1     25425 1.77135E-01 3.69139E-01-4.03917E-04
 -1     25426-6.73834E+00 6.07290E+00 3.36882E-05
 -1     25427 2.27988E-01 5.32206E-01 3.98885E-04
 -1     25428-6.68737E-01 2.49834E+00-5.09934E-04
 -1     25429-5.97896E-01 2.20348E+00-4.60022E-04
 -1     25430-8.07630E-01 2.30658E+00-2.52635E-04
 -1     25431-2.28567E+00 2.79195E+00 2.49986E-04
 -1     25432-2.09049E+00 2.51132E+00-1.48566E-04
 -1     25433-1.93877E+00 2.64704E+00 4.25110E-04
 -1     25434-1.94990E+00 3.10573E+00 5.47338E-05
 -1     25435-2.12234E+00 2.93510E+00 5.82776E-04
 -1     25436 1.02083E-03 7.85132E-02 1.10821E-03
 -1     25437 8.57750E-03 2.39668E-01-5.24801E-05
 -1     25438 3.65073E-03 1.67772E-01 1.72235E-03
 -1     25439 9.85653E-04 7.74115E-02 1.00516E-03
 -1     25440 3.89873E-03 1.65893E-01 1.36302E-03
 -1     25441-2.59272E+00 1.65094E+01-3.40115E-04
 -1     25442-2.72987E+00 1.56741E+01 1.01476E-03
 -1     25443-3.13540E+00 1.63411E+01-4.89162E-04
 -1     25444 3.60823E-04 7.89455E-02 6.66387E-04
 -1     25445 3.53064E-03 2.08078E-01 1.51587E-03
 -1     25446 3.61921E-03 1.99326E-01 1.45524E-03
 -1     25447-1.43073E-02-7.63697E-02 9.79743E-04
 -1     25448-6.36197E-03-4.54530E-02 1.04085E-03
 -1     25449-9.96336E-04-5.14127E-02 3.50129E-03
 -1     25450-1.13092E-03-4.31804E-02 4.07102E-04
 -1     25451-6.25858E-03-3.59197E-02-2.97480E-03
 -1     25452-2.27706E-01 1.42819E+00-3.09616E-04
 -1     25453-3.13817E-01 1.63244E+00 1.07410E-03
 -1     25454-3.79050E-01 1.47072E+00 1.05940E-03
 -1     25455 1.00059E-01 1.35058E+00-6.71501E-04
 -1     25456 1.24239E-01 1.60519E+00 5.24107E-04
 -1     25457 1.42841E-01 1.51698E+00-7.04856E-04
 -1     25458-9.92354E+00 1.08000E+01-3.08663E-05
 -1     25459-9.51627E+00 1.11747E+01-5.94727E-04
 -1     25460-9.15669E+00 1.05597E+01-4.49007E-04
 -1     25461 3.76439E-01 6.15131E+00 1.55388E-04
 -1     25462 3.06524E-01 5.68697E+00 1.68274E-04
 -1     25463 5.03868E-01 5.80191E+00 8.45730E-05
 -1     25464 4.02409E-04 8.00184E-02 4.05147E-04
 -1     25465 1.30632E-03 1.43582E-01 3.36808E-04
 -1     25466 1.33853E-04 6.54024E-02 1.45813E-04
 -1     25467 1.18063E-04 6.44518E-02-1.22931E-04
 -1     25468-2.22778E+00 1.30494E+01-3.53740E-04
 -1     25469-2.68879E+00 1.29225E+01-3.00101E-04
 -1     25470-2.36823E+00 1.23167E+01 4.81050E-05
 -1     25471 9.93051E-02 1.99165E-01 1.02143E-03
 -1     25472 9.89754E-02 3.13780E-01-7.00176E-04
 -1     25473-4.37037E-02 7.77180E-03 9.53726E-05
 -1     25474-4.69970E-02 4.99054E-02-8.63933E-03
 -1     25475-1.39907E-03-5.85681E-03 2.95873E-03
 -1     25476-5.15646E-02 3.63425E-02-2.76794E-03
 -1     25477-1.72058E-03 2.63671E-03 1.73076E-03
 -1     25478 4.96985E-03 8.20933E-02 3.99136E-04
 -1     25479 4.98939E-03 9.47769E-02 8.59015E-04
 -1     25480 2.27035E-02 1.79799E-01-2.15074E-04
 -1     25481 2.37844E-02 2.06954E-01 1.92546E-03
 -1     25482 4.00639E-03 5.53271E-02-1.83892E-04
 -1     25483 4.60672E-02 2.38406E-01 1.93765E-03
 -1     25484 2.32459E-02 1.69105E-01 2.33297E-04
 -1     25485 1.61328E-02 1.00400E-01 1.09461E-03
 -1     25486 3.59669E-02 1.49791E-01 1.15305E-04
 -1     25487 7.70164E-02 2.85371E-01-6.46840E-04
 -1     25488 3.87199E-01 1.62213E+00-6.14448E-04
 -1     25489 3.95791E-01 1.51801E+00-2.43885E-04
 -1     25490 1.84235E-01 4.92818E-01 2.27307E-04
 -1     25491 1.86012E-01 6.37939E-01 2.18205E-04
 -1     25492 1.37848E-01 4.65397E-01-4.50456E-05
 -1     25493-4.84362E+00 1.59584E+01-3.46016E-04
 -1     25494-5.35079E+00 1.67318E+01-6.13042E-04
 -1     25495-5.47166E+00 1.58803E+01-1.13629E-03
 -1     25496 1.06692E+00 4.51537E+00 4.45937E-04
 -1     25497 1.05401E+00 4.04172E+00-7.85944E-04
 -1     25498 1.01031E+00 4.09258E+00 1.10684E-04
 -1     25499 1.04507E+00 4.43490E+00 9.35315E-05
 -1     25500 9.88799E-01 4.01832E+00-7.83181E-05
 -1     25501 6.50167E-01 3.41854E+00-3.09630E-05
 -1     25502 5.17520E-01 3.29634E+00-1.11919E-03
 -1     25503 5.80926E-01 3.66494E+00 1.36536E-03
 -1     25504 4.56014E-01 2.97423E+00-1.58919E-04
 -1     25505 3.49589E-01 2.99169E+00-1.59140E-04
 -1     25506 2.91881E-01 2.73809E+00 6.50460E-04
 -1     25507 3.50248E-01 3.04778E+00 4.99912E-04
 -1     25508 1.21958E+00 5.43472E+00-7.93849E-04
 -1     25509 1.15079E+00 5.29694E+00-1.05889E-03
 -1     25510 1.16658E+00 5.00585E+00 1.46229E-03
 -1     25511 1.87982E-01 2.95031E+00 3.43118E-04
 -1     25512 1.08031E+00 3.74196E+00 6.56297E-04
 -1     25513 1.08106E+00 3.74489E+00 5.29703E-04
 -1     25514 1.09180E+00 3.99779E+00-9.00120E-04
 -1     25515 9.97717E-01 3.40650E+00 9.75872E-04
 -1     25516 6.91316E-01 2.09231E+00-3.01989E-04
 -1     25517 7.55657E-01 2.36285E+00-7.14602E-04
 -1     25518 7.49967E-01 2.23597E+00-1.69979E-04
 -1     25519-7.88902E-02 1.94305E+00 1.14330E-04
 -1     25520-2.72398E-01 2.16773E+00-4.81466E-04
 -1     25521-3.18835E-01 2.10941E+00 1.47761E-03
 -1     25522 6.23736E-02 2.36644E+00-1.12239E-03
 -1     25523 6.34675E-01 2.33608E+00-4.03443E-05
 -1     25524 6.54073E-01 2.17521E+00 1.29232E-04
 -1     25525 5.58335E-01 1.99277E+00 1.88713E-05
 -1     25526 5.11394E-01 1.86127E+00 3.86247E-04
 -1     25527 5.80196E-01 2.11834E+00-5.26826E-04
 -1     25528 4.30862E-01 1.92869E+00-6.32485E-04
 -1     25529 4.98517E-01 2.18779E+00-7.77376E-04
 -1     25530 6.95394E-01 2.22903E+00 7.71170E-04
 -1     25531 2.81810E-01 8.86042E-01-1.61725E-03
 -1     25532 3.25552E-01 1.04514E+00-1.49250E-03
 -1     25533 3.12497E-01 8.92936E-01 5.86926E-04
 -1     25534 3.59424E-01 1.05488E+00-8.23561E-04
 -1     25535-5.30269E-02 9.93319E-01 1.82009E-04
 -1     25536 4.10047E-04 1.18672E+00 8.26748E-04
 -1     25537-1.49805E-01 1.19910E+00 7.63320E-04
 -1     25538-1.90269E-01 1.18564E+00-1.39040E-03
 -1     25539-1.33985E-01 1.38258E+00 2.04415E-04
 -1     25540 1.97504E-01 6.60121E-01 9.94173E-05
 -1     25541 1.35422E-01 5.14189E-01 5.20362E-04
 -1     25542 1.73783E-01 6.49965E-01 1.07195E-04
 -1     25543 1.02357E+00 9.16759E+00 4.24215E-05
 -1     25544 1.09368E+00 9.28001E+00-1.17550E-05
 -1     25545 1.10350E+00 8.70304E+00-1.56890E-04
 -1     25546 9.20787E-01 9.06211E+00 4.55478E-04
 -1     25547 9.00712E-01 9.65491E+00 5.05705E-04
 -1     25548 9.98289E-01 9.17318E+00-1.13649E-04
 -1     25549 3.40861E-02 5.69057E-01-3.16598E-04
 -1     25550 1.48610E-02 3.93121E-01-9.67595E-04
 -1     25551 2.96823E-02 6.00734E-01 1.29478E-03
 -1     25552 5.14808E-03 3.69600E-01 2.26800E-04
 -1     25553 5.55446E-03 3.68715E-01 2.07143E-04
 -1     25554 2.93567E-03 2.84013E-01-4.20510E-04
 -1     25555 4.52474E-04 8.40501E-02-1.43080E-04
 -1     25556 2.64896E-03 2.83308E-01-1.28320E-04
 -1     25557 7.02130E-01 3.19058E+00-4.88381E-04
 -1     25558 5.85111E-01 3.06666E+00 1.11281E-04
 -1     25559 3.73164E-01 1.00521E+00-1.91348E-03
 -1     25560 4.24099E-01 1.17657E+00-1.29348E-03
 -1     25561 1.04590E+00 7.34763E+00-4.54914E-04
 -1     25562 1.10970E+00 6.96536E+00 1.47010E-04
 -1     25563 9.80563E-01 6.81654E+00-6.11249E-04
 -1     25564 1.05946E-03 1.63627E-01-4.06156E-04
 -1     25565 5.95091E-03 3.52475E-01 3.86503E-04
 -1     25566 2.07365E-03 1.85827E-01 7.49349E-04
 -1     25567 1.95621E-03 2.30196E-01-4.12858E-04
 -1     25568 3.40643E-03 2.51829E-01 2.64007E-04
 -1     25569 6.14960E-01 2.21405E+00-7.65250E-04
 -1     25570-3.02504E+00 7.03179E+00 5.48788E-05
 -1     25571-3.24533E+00 7.54628E+00 3.73077E-04
 -1     25572-3.51995E+00 7.16726E+00-1.91807E-04
 -1     25573-5.72893E+00 4.58324E+00-2.80953E-05
 -1     25574-6.05094E+00 4.93217E+00 3.18341E-05
 -1     25575-6.20817E+00 4.77843E+00-5.00342E-06
 -1     25576 1.26835E-04 6.56318E-02-2.30803E-04
 -1     25577-1.65560E+01 2.61683E+01-2.09974E-04
 -1     25578-1.75054E+01 2.64681E+01-5.83489E-03
 -1     25579-1.68382E+01 2.53908E+01-3.70675E-03
 -1     25580-1.69414E+01 2.62083E+01-1.35324E-03
 -1     25581 1.13612E-04 6.50040E-02 3.53005E-04
 -1     25582 9.18383E-04 1.65071E-01-5.87129E-04
 -1     25583 4.69100E-01 1.12259E+01 4.58623E-04
 -1     25584 6.17339E-01 1.07111E+01 5.74497E-05
 -1     25585 1.27550E+00 8.35606E+00-2.83971E-04
 -1     25586 1.29799E+00 8.09174E+00-1.20300E-05
 -1     25587 1.30976E+00 7.93938E+00 2.18109E-05
 -1     25588-4.06742E+00 1.69469E+01 1.48265E-03
 -1     25589-2.96398E+00 1.71934E+01 6.67006E-04
 -1     25590-3.59274E+00 1.68890E+01 1.75835E-03
 -1     25591-4.22137E+00 1.61150E+01-1.43761E-04
 -1     25592-3.12440E+00 1.63445E+01 2.17264E-03
 -1     25593-1.15861E+01 1.48060E+01 2.74689E-03
 -1     25594-1.25049E+01 1.50486E+01-2.24489E-03
 -1     25595-1.21546E+01 1.42797E+01-8.59361E-04
 -1     25596-9.06518E-01 1.61322E+00-1.41852E-03
 -1     25597-1.03949E+00 1.87106E+00 1.87082E-04
 -1     25598 3.76499E-03 4.29563E-01 7.05237E-04
 -1     25599 4.19393E-03 3.68769E-01 1.56602E-04
 -1     25600-1.39084E+00 5.82145E+00-4.66751E-04
 -1     25601-1.08436E+00 5.86756E+00 4.66164E-04
 -1     25602-9.01799E-01 1.64629E+01-1.81999E-04
 -1     25603-1.03950E+00 1.62245E+01-5.62932E-05
 -1     25604-1.11764E+00 1.68960E+01 3.18569E-05
 -1     25605-1.46031E+00 1.58214E+01 3.88279E-04
 -1     25606-1.37125E+00 1.51756E+01 3.96764E-04
 -1     25607-1.60437E+00 1.55929E+01 5.08307E-04
 -1     25608 1.10726E+00 4.68207E+00-5.80196E-04
 -1     25609-8.01504E-03 6.73837E-02 1.09386E-02
 -1     25610-1.89750E+00 7.71108E+00-2.76474E-04
 -1     25611-1.57973E+00 7.30343E+00-1.97987E-06
 -1     25612 1.11362E-04 6.43975E-02 2.11140E-04
 -1     25613 1.24530E+00 5.16991E+00 5.30491E-04
 -1     25614 1.27013E+00 5.53508E+00 1.47715E-04
 -1     25615 1.22136E+00 5.14528E+00-5.40534E-05
 -1     25616 1.27976E+00 5.58985E+00-9.60044E-05
 -1     25617 1.26485E+00 5.57022E+00-3.61346E-04
 -1     25618-2.33930E+00 7.50989E+00 1.72848E-04
 -1     25619-5.01250E-01 8.15325E+00 2.04820E-04
 -1     25620-2.91498E-01 7.71616E+00 8.36248E-05
 -1     25621-4.08117E-01 8.73503E+00 7.31856E-04
 -1     25622-2.01626E-01 8.28003E+00-7.78040E-05
 -1     25623-6.29607E-01 5.29939E+00 1.01016E-03
 -1     25624-4.01269E-01 5.37538E+00 6.86236E-04
 -1     25625-4.49480E-01 4.91878E+00-1.58080E-04
 -1     25626-2.36954E-01 4.99451E+00 1.85333E-04
 -1     25627 7.82295E-02 3.87316E-02 5.22439E-04
 -1     25628 9.37285E-02 7.12889E-02-3.98224E-04
 -1     25629 9.48469E-02 1.06205E-01-4.02442E-04
 -1     25630 1.15130E-01 1.40312E-01 2.71993E-04
 -1     25631-1.33881E+00 1.54143E+00 9.91846E-04
 -1     25632-1.08492E+00 1.40442E+00-1.43511E-03
 -1     25633-1.16048E+00 1.32388E+00-1.53584E-03
 -1     25634-8.19472E-01 1.75190E+00-1.70139E-03
 -1     25635-1.00459E+00 1.42340E+01 3.51529E-04
 -1     25636-3.02496E+00 2.04380E+01 1.41160E-03
 -1     25637-3.16143E+00 2.06861E+01 1.52840E-03
 -1     25638-3.44107E+00 2.11866E+01-1.79971E-04
 -1     25639-1.26810E+00 1.96709E+00-1.98364E-04
 -1     25640-1.60285E+00 2.49665E+00 2.08335E-04
 -1     25641-1.74375E+00 2.35364E+00 1.23903E-03
 -1     25642-1.81250E-01 6.78765E+00-3.12549E-04
 -1     25643 7.56061E-02 6.90296E+00-5.96863E-04
 -1     25644-2.53858E-01 6.29923E+00-4.13794E-04
 -1     25645 3.76698E-03 6.40828E+00 1.10413E-03
 -1     25646 2.38344E-01 8.21715E-01-1.48030E-05
 -1     25647 1.69485E-01 7.98599E-01 4.46350E-04
 -1     25648 2.31948E-01 1.00414E+00-1.82204E-04
 -1     25649 1.49107E-01 9.86939E-01 6.61714E-04
 -1     25650-4.68248E-01 6.65675E+00 3.67257E-05
 -1     25651 1.09051E+00 9.79293E+00 5.86795E-04
 -1     25652 1.16469E+00 9.30881E+00 1.01659E-05
 -1     25653 5.73166E-01 2.62496E+00 2.38725E-04
 -1     25654 5.58814E-01 2.46225E+00 5.18741E-04
 -1     25655 7.55873E-02 1.67107E-01-6.60288E-04
 -1     25656 7.74058E-02 2.13123E-01-6.47633E-04
 -1     25657 2.99045E-01 1.02540E+00 1.35989E-04
 -1     25658-5.84620E-01 5.84665E-01-1.51187E-03
 -1     25659-5.57047E-01 5.60313E-01-4.02443E-03
 -1     25660-4.08725E-01 4.08131E-01 5.09496E-03
 -1     25661 2.85002E-01 7.10705E-01-2.34168E-04
 -1     25662 2.40100E-01 6.72288E-01-3.25141E-04
 -1     25663-1.18453E+00 2.53259E+00 7.71723E-04
 -1     25664-1.31587E+00 2.36808E+00 3.15251E-04
 -1     25665-8.04388E+00 1.91603E+01 1.13628E-04
 -1     25666-7.70786E+00 1.81817E+01-2.53227E-03
 -1     25667-8.92785E+00 1.91286E+01-2.69387E-03
 -1     25668-8.58221E+00 1.81527E+01 2.31165E-03
 -1     25669-1.41276E+01 1.78503E+01-2.55687E-04
 -1     25670-1.33799E+01 1.72855E+01 8.41117E-05
 -1     25671-1.39187E+01 1.76079E+01 1.49763E-03
 -1     25672-1.33372E+01 1.81325E+01-3.08801E-03
 -1     25673-1.28149E+01 1.78049E+01-5.79663E-04
 -1     25674-1.26192E+01 1.75625E+01-1.01771E-03
 -1     25675-1.85123E+01 2.56400E+01 6.57643E-03
 -1     25676-1.90064E+01 2.69524E+01 8.43863E-03
 -1     25677-1.90063E+01 2.69561E+01-4.18731E-03
 -1     25678-2.70535E+00 6.66805E+00 4.43514E-04
 -1     25679-2.88366E+00 6.21595E+00-5.83269E-04
 -1     25680-3.30780E+00 6.67062E+00 5.62482E-04
 -1     25681-3.07895E+00 6.94218E+00 3.06532E-04
 -1     25682-2.66745E+00 6.47911E+00-5.93188E-04
 -1     25683-3.26339E+00 6.48377E+00 2.99966E-04
 -1     25684-4.89426E+00 3.65421E+00-3.82663E-04
 -1     25685 2.99505E-01 8.67897E-01 1.17016E-04
 -1     25686 1.40361E-01 3.38583E-01 4.50216E-04
 -1     25687 1.12902E+00 9.55839E+00 1.38515E-04
 -1     25688 1.03636E+00 9.44997E+00-1.11599E-04
 -1     25689 1.03590E+00 1.00978E+01 3.39342E-04
 -1     25690 9.28813E-01 9.98512E+00 3.61055E-04
 -1     25691-6.61251E+00 5.09830E+00 1.62704E-05
 -1     25692-6.09597E+00 4.66296E+00 1.92856E-04
 -1     25693-1.67782E+00 4.46517E+00 2.08257E-04
 -1     25694-2.04722E+00 4.62141E+00-3.14699E-04
 -1     25695-2.04930E+00 4.65724E+00 3.52697E-04
 -1     25696-1.91686E+00 4.22613E+00-5.71111E-06
 -1     25697-3.80596E+00 4.06994E+00 4.40768E-04
 -1     25698-3.55756E+00 3.73746E+00-1.46062E-04
 -1     25699-4.34663E+00 4.20311E+00-2.92243E-04
 -1     25700-4.62510E+00 4.55491E+00 1.91415E-04
 -1     25701-4.35328E+00 4.20879E+00 1.21773E-04
 -1     25702-8.21397E+00 1.22661E+01 1.38886E-03
 -1     25703-7.49620E+00 1.20237E+01 6.74074E-04
 -1     25704-7.79542E+00 1.27143E+01 6.11083E-04
 -1     25705-4.18200E+00 2.86979E+00 4.74345E-04
 -1     25706-3.62920E+00 2.67755E+00 4.09586E-05
 -1     25707-3.43389E+00 2.59139E+00-6.49069E-04
 -1     25708-4.12296E+00 3.06760E+00 1.40112E-04
 -1     25709-4.33442E+00 3.15804E+00 2.88747E-04
 -1     25710-3.56862E+00 2.90144E+00-5.75595E-05
 -1     25711-3.90145E+00 2.90980E+00-8.90577E-05
 -1     25712-3.17266E+00 2.65992E+00 8.40998E-05
 -1     25713-3.82734E+00 3.15933E+00-8.05921E-05
 -1     25714-3.93502E+00 3.04017E+00 1.94040E-04
 -1     25715-4.36617E+00 3.29241E+00 2.82518E-04
 -1     25716-4.43654E+00 3.07060E+00 3.09782E-04
 -1     25717 6.57102E-01 2.01530E+00-3.73980E-04
 -1     25718 5.85783E-01 1.75327E+00 5.83545E-04
 -1     25719 6.39536E-01 1.84178E+00 1.66264E-04
 -1     25720 3.90085E-01 9.69872E-01-1.64647E-05
 -1     25721 3.59200E-01 8.29588E-01 1.75699E-04
 -1     25722 4.59803E-01 1.19042E+00 4.09923E-04
 -1     25723 4.27143E-01 1.04071E+00 1.26876E-04
 -1     25724-5.61244E-01 1.54799E+01-7.17085E-05
 -1     25725-6.40028E-01 1.58098E+01-3.52935E-04
 -1     25726-7.46751E-01 1.54701E+01-2.89282E-04
 -1     25727 4.67650E-01 1.69370E+00-1.49016E-05
 -1     25728 3.61738E-01 1.23584E+00 6.05039E-04
 -1     25729 5.14578E-01 1.67701E+00-2.29341E-04
 -1     25730 3.63594E-01 1.45073E+00-6.35125E-04
 -1     25731 1.09252E+00 3.85218E+00-1.26399E-04
 -1     25732 1.14405E+00 4.20241E+00-2.05234E-04
 -1     25733 1.14486E+00 4.21038E+00 7.46091E-04
 -1     25734 1.14543E+00 9.46381E+00-3.43122E-04
 -1     25735 1.13743E+00 8.96509E+00-3.97048E-04
 -1     25736 1.04171E+00 9.06948E+00 2.27367E-04
 -1     25737 1.12880E+00 9.20907E+00 1.32694E-04
 -1     25738 1.21284E+00 9.10396E+00-3.77974E-07
 -1     25739 1.12117E+00 8.71853E+00-3.77652E-04
 -1     25740-4.90870E+00 4.11003E+00-1.57751E-04
 -1     25741-4.76769E+00 3.76454E+00-3.66386E-04
 -1     25742-4.38941E+00 3.74347E+00-4.04408E-04
 -1     25743-4.85980E+00 4.39961E+00 1.11762E-04
 -1     25744-5.26796E+00 4.39738E+00-1.45265E-04
 -1     25745-4.73263E+00 4.01891E+00-2.44946E-04
 -1     25746-1.19959E+01 1.31382E+01-1.09345E-03
 -1     25747-1.11298E+01 1.33779E+01-3.25920E-04
 -1     25748-1.10743E+01 1.30135E+01-1.51426E-03
 -1     25749-1.14907E+01 1.26165E+01-4.28613E-04
 -1     25750-1.15499E+01 1.29647E+01-4.37844E-04
 -1     25751-1.06479E+01 1.28459E+01-1.35507E-04
 -1     25752 1.10278E-01 1.04813E+00 4.55453E-05
 -1     25753 8.27063E-02 8.36438E-01-3.63926E-04
 -1     25754 1.20942E-01 9.87853E-01-1.63206E-04
 -1     25755-3.29507E+00 2.30339E+00-1.30027E-03
 -1     25756-3.14769E+00 2.20504E+00-8.08360E-05
 -1     25757-2.82436E+00 2.05854E+00 4.67543E-04
 -1     25758-2.97798E+00 2.09112E+00-2.83182E-04
 -1     25759-2.82957E+00 2.00118E+00 1.24121E-04
 -1     25760-2.51973E+00 1.93857E+01-5.06329E-04
 -1     25761-2.89952E+00 2.01133E+01-7.65068E-04
 -1     25762-2.75272E+00 1.98343E+01 1.35070E-04
 -1     25763-3.07341E+00 2.34525E+00 2.29836E-04
 -1     25764-2.80510E+00 2.13431E+00 1.16408E-04
 -1     25765-3.03172E+00 2.34202E+00 2.08504E-05
 -1     25766-3.17346E+00 2.29438E+00 1.26377E-03
 -1     25767-2.76640E+00 2.12946E+00-2.16482E-03
 -1     25768 2.20211E-01 1.06282E+00-6.92092E-04
 -1     25769-1.09955E+00 1.70541E+00-4.35080E-04
 -1     25770-8.31995E-01 1.56069E+00 1.21955E-03
 -1     25771-9.42721E-01 1.45835E+00 4.54499E-04
 -1     25772-3.74315E+00 2.61775E+00 1.01341E-04
 -1     25773-3.61590E+00 2.67099E+00 3.12439E-04
 -1     25774-3.01949E+00 2.33497E+00 6.94786E-04
 -1     25775-2.91325E+00 2.41540E+00-3.26251E-04
 -1     25776-6.68448E-01 1.27648E+00-2.02361E-03
 -1     25777-3.54462E+00 2.52707E+00 1.59805E-04
 -1     25778-3.58980E+00 2.53524E+00 2.71493E-04
 -1     25779-1.76036E+01 2.38312E+01-3.75238E-04
 -1     25780-1.79122E+01 2.46106E+01-4.81970E-03
 -1     25781-1.80445E+01 2.49278E+01-3.22992E-03
 -1     25782-7.67446E-01 2.26334E+00 1.11067E-04
 -1     25783-5.30338E-01 2.16766E+00-4.87406E-04
 -1     25784-6.55389E-01 2.45540E+00-7.68094E-04
 -1     25785 1.09379E+00 5.54338E+00-1.97355E-03
 -1     25786 9.84853E-01 5.40517E+00 2.76434E-04
 -1     25787 1.03303E+00 5.09953E+00 1.00386E-03
 -1     25788 1.60192E-01 1.02051E+01 4.98651E-04
 -1     25789 6.57736E-02 9.56439E+00 7.67267E-04
 -1     25790 1.16987E+00 8.27436E+00-2.02584E-04
 -1     25791 1.22541E+00 7.79393E+00-1.21569E-04
 -1     25792 1.22483E+00 8.31098E+00-1.55311E-04
 -1     25793 1.22551E+00 8.85886E+00 3.45397E-04
 -1     25794-2.45962E+00 1.89013E+00-2.40702E-04
 -1     25795-2.75405E+00 2.12027E+00-2.31312E-04
 -1     25796-2.57537E+00 1.89619E+00 8.89303E-04
 -1     25797-2.88159E+00 2.10955E+00 3.26944E-04
 -1     25798 1.09680E+00 4.27160E+00 2.03803E-04
 -1     25799 1.08797E+00 4.53223E+00 5.70597E-04
 -1     25800 1.16844E+00 5.01972E+00-3.39403E-04
 -1     25801 1.17145E+00 4.72822E+00 6.13624E-04
 -1     25802 3.82819E-04 8.44893E-02 2.83881E-04
 -1     25803 3.84440E-04 8.21676E-02-2.62251E-05
 -1     25804 3.78775E-04 8.47622E-02-4.44378E-05
 -1     25805 7.76393E-01 2.87786E+00 9.25048E-04
 -1     25806 8.01617E-01 2.76229E+00 1.53795E-05
 -1     25807 7.05681E-01 2.72138E+00-2.44767E-04
 -1     25808 7.32703E-01 2.60779E+00-3.23153E-04
 -1     25809 9.22260E-04 2.29113E-01 1.01907E-03
 -1     25810 9.04972E-04 2.27364E-01 3.28354E-05
 -1     25811-5.16306E+00 2.41506E+01 2.33920E-03
 -1     25812-5.05363E+00 2.39867E+01 4.50985E-03
 -1     25813-5.12062E+00 2.35538E+01 5.79378E-04
 -1     25814-4.63149E+00 2.36752E+01 1.56912E-03
 -1     25815-4.52860E+00 2.35116E+01 3.73392E-03
 -1     25816 1.69570E-01 2.25996E+00 5.94893E-04
 -1     25817 2.54645E-01 2.46842E+00-4.96387E-04
 -1     25818 5.21454E-04 1.43276E-01-1.77067E-04
 -1     25819 5.12261E-04 1.44616E-01-2.06689E-04
 -1     25820 5.18548E-04 1.43091E-01-8.92746E-06
 -1     25821-3.41086E+00 2.38368E+00 2.52616E-04
 -1     25822-3.84039E+00 2.62453E+00-5.61411E-04
 -1     25823-3.45516E+00 2.39426E+00 1.64924E-04
 -1     25824-3.86599E+00 8.91157E+00 4.24134E-04
 -1     25825 2.40882E-01 2.39674E+00 7.76883E-04
 -1     25826 2.59197E-01 2.44734E+00 1.07204E-03
 -1     25827 2.14740E-01 2.26387E+00 2.66615E-04
 -1     25828 1.97250E-01 2.21429E+00 6.23280E-05
 -1     25829 2.33932E-01 2.22907E+00-5.14463E-05
 -1     25830-5.53979E-01 2.64640E+00-4.46758E-04
 -1     25831-4.29362E-01 2.39103E+00-1.91750E-04
 -1     25832-3.63975E-01 2.66895E+00 4.06883E-05
 -1     25833 9.77389E-02 1.09812E+00-7.35299E-05
 -1     25834 6.30194E-02 9.22165E-01-1.24382E-03
 -1     25835 7.21479E-02 8.78210E-01 3.96491E-04
 -1     25836 6.86266E-02 1.50511E+00-1.82572E-04
 -1     25837 8.98475E-02 1.48235E+00-1.47834E-04
 -1     25838-8.57198E-01 1.27447E+00 1.00140E-03
 -1     25839-9.95507E-01 1.49844E+00-5.35489E-04
 -1     25840-2.96840E-01 1.42898E+00 8.26809E-04
 -1     25841-2.22415E-01 1.63352E+00-5.06578E-04
 -1     25842 1.60857E-01 1.90725E+00-6.08954E-04
 -1     25843 1.25297E-01 1.81463E+00 4.52287E-04
 -1     25844 1.64008E-01 1.73989E+00-1.63436E-03
 -1     25845 1.31429E+00 6.14006E+00-7.59385E-05
 -1     25846 1.28918E+00 5.81559E+00-7.37494E-04
 -1     25847 1.30709E+00 6.02878E+00-6.67921E-04
 -1     25848 9.22610E-03 8.52321E-03-3.15433E-04
 -1     25849 1.56876E-02 1.28565E-02-1.16505E-03
 -1     25850 1.63264E-02 3.39313E-03 3.69516E-04
 -1     25851 3.72438E-02 4.88512E-02 5.68179E-05
 -1     25852 3.99555E-02 6.03398E-02-2.11017E-03
 -1     25853 5.28094E-02 5.83854E-02-1.40895E-03
 -1     25854 5.98967E-03-9.41933E-02 1.02063E-03
 -1     25855 1.82382E-02-9.87132E-02 1.90150E-03
 -1     25856 6.86734E-03-1.06941E-01 4.45021E-03
 -1     25857-1.61374E+01 2.17999E+01-8.18254E-04
 -1     25858-1.62177E+01 2.11345E+01 5.67838E-04
 -1     25859-1.64227E+01 2.21085E+01-1.04341E-03
 -1     25860-1.65251E+01 2.24428E+01 3.40715E-03
 -1     25861-1.63203E+01 2.14530E+01 9.84005E-04
 -1     25862-1.66103E+01 2.17580E+01 5.40461E-04
 -1     25863 5.39431E-01 3.07633E+00-2.67525E-04
 -1     25864 5.85782E-01 3.18676E+00-5.25962E-05
 -1     25865 5.14983E-01 3.02136E+00 1.83624E-04
 -1     25866 8.33399E-02 1.15804E+00 1.61300E-03
 -1     25867 5.22546E-02 1.03658E+00-2.64612E-04
 -1     25868 4.70892E-02 9.37869E-01-8.02570E-04
 -1     25869 3.73257E-02 8.01980E-01 1.23585E-03
 -1     25870 4.50972E-01 1.22965E+01-3.20677E-04
 -1     25871 6.47110E-02 1.17263E+01-1.20480E-04
 -1     25872 3.34661E-01 1.26885E+01-2.31197E-04
 -1     25873 8.28909E-02 1.23837E+01-2.80571E-04
 -1     25874 1.11676E+00 3.96750E+00 1.05620E-03
 -1     25875 1.12597E+00 4.09003E+00-7.36646E-04
 -1     25876 9.47810E-03-1.06321E-01-1.20282E-03
 -1     25877 2.17199E-02-9.79637E-02-2.13409E-03
 -1     25878 6.29226E-03-9.50144E-02 1.30265E-03
 -1     25879 1.08731E+00 4.59758E+00-1.00881E-03
 -1     25880 1.05253E+00 4.27397E+00-8.26122E-04
 -1     25881 9.77438E-01 4.24096E+00 4.57102E-04
 -1     25882 1.02199E+00 4.39645E+00-2.24754E-04
 -1     25883 1.87547E-01 1.64713E+00-2.47483E-04
 -1     25884 2.12276E-01 1.87706E+00 1.30293E-03
 -1     25885-6.17647E-01 5.69814E+00-4.10341E-05
 -1     25886-5.25234E-01 6.17707E+00 1.10528E-03
 -1     25887-3.37435E-01 5.78733E+00 7.98966E-04
 -1     25888 6.37941E-04-4.88296E-02-4.69714E-04
 -1     25889 1.12600E-05-1.94842E-02-3.58406E-04
 -1     25890 2.67435E-04-6.32893E-02-8.91115E-05
 -1     25891 6.81552E-04-4.54340E-02 1.51973E-03
 -1     25892-5.99682E-05-1.86860E-02 6.41016E-04
 -1     25893 3.85628E-01 2.25806E+00 3.75808E-05
 -1     25894 3.41243E-01 2.34085E+00 1.16238E-04
 -1     25895 3.23810E-01 2.13587E+00 1.38817E-03
 -1     25896-2.70542E+00 4.50536E+00-4.35042E-04
 -1     25897-2.92555E+00 4.28146E+00-1.20276E-04
 -1     25898-3.13569E+00 4.66604E+00 6.49004E-05
 -1     25899 6.21427E-04-5.21004E-02 3.87702E-04
 -1     25900 6.04641E-02 9.80854E-01 2.17481E-04
 -1     25901 3.20741E-01 7.05268E-01 9.41918E-05
 -1     25902 2.79383E-01 5.92662E-01 5.03257E-04
 -1     25903 3.44271E-01 7.83364E-01 4.44399E-04
 -1     25904-4.62211E+00 8.76372E+00-2.05513E-04
 -1     25905-4.96013E+00 8.39968E+00-2.88271E-04
 -1     25906-7.06274E+00 6.49924E+00 3.92811E-04
 -1     25907-6.75450E+00 6.72118E+00-1.52402E-04
 -1     25908 4.71700E-03-1.11386E-01-3.47674E-03
 -1     25909-6.47477E-03-1.06176E-01-1.32105E-03
 -1     25910 4.62284E-03-1.08926E-01 2.06311E-03
 -1     25911 1.32473E+00 7.67551E+00 1.11658E-04
 -1     25912 1.28916E+00 7.41219E+00-4.43036E-04
 -1     25913 1.33209E+00 7.26410E+00-1.20989E-04
 -1     25914 1.32259E+00 7.51812E+00-3.63730E-04
 -1     25915-1.11012E+01 1.79414E+01 2.63530E-04
 -1     25916-3.65463E+00 2.49556E+00-2.68055E-04
 -1     25917-3.84236E+00 2.62301E+00-1.75380E-04
 -1     25918-3.48400E+00 2.47797E+00 5.94646E-04
 -1     25919-3.47702E+00 2.42742E+00-2.41405E-04
 -1     25920 9.06504E-01 3.20450E+00-1.39778E-04
 -1     25921 9.01284E-01 2.98999E+00-6.08644E-04
 -1     25922 8.35500E-01 2.86311E+00-4.05012E-05
 -1     25923 8.28469E-01 3.07862E+00 2.60176E-04
 -1     25924-1.22000E-02 5.27383E-02-2.92399E-03
 -1     25925-1.22504E-02 1.13609E-01 1.74043E-02
 -1     25926-1.16246E-02 4.51095E-02 8.92953E-03
 -1     25927-3.50393E+00 1.14242E+01-8.71854E-05
 -1     25928-2.98985E+00 1.15311E+01-2.91928E-05
 -1     25929-3.12254E+00 1.08620E+01-1.57360E-04
 -1     25930-4.02855E-03-7.75279E-02 2.57000E-03
 -1     25931-4.57597E-04-9.69349E-02 3.44238E-03
 -1     25932-2.52752E-03-9.16145E-02 2.88112E-03
 -1     25933-3.37657E-02-7.06514E-02-1.91283E-04
 -1     25934-3.39556E-02-8.17003E-02 1.32926E-03
 -1     25935-2.41458E-02-9.09740E-02 7.08739E-04
 -1     25936-4.21075E-04-8.98622E-02 3.10679E-03
 -1     25937 1.58224E-03-9.64437E-02 1.10863E-03
 -1     25938-8.38191E-03-1.06127E-01-2.35967E-03
 -1     25939-1.31442E-02-9.84873E-02-3.30824E-03
 -1     25940-5.68478E-03-1.11494E-01-3.40511E-04
 -1     25941-6.78674E+00 1.18119E+01-5.58672E-04
 -1     25942-6.57795E+00 1.10469E+01 1.65572E-03
 -1     25943-6.83829E+00 1.18493E+01-2.07175E-04
 -1     25944-7.27510E+00 1.12544E+01-2.27190E-04
 -1     25945-2.42667E-02 1.76670E-01 2.64225E-04
 -1     25946-7.05868E-02 3.15457E-01-5.41588E-04
 -1     25947-7.02152E+00 5.89081E+00 1.37967E-06
 -1     25948-6.90879E+00 5.75821E+00 4.43664E-05
 -1     25949-6.87747E+00 5.41358E+00-3.59225E-04
 -1     25950-6.50929E+00 5.63086E+00-7.94350E-06
 -1     25951-6.76314E+00 5.29033E+00-1.92461E-04
 -1     25952 9.90451E-04 7.36346E-02 1.41767E-03
 -1     25953 9.42543E-04 7.52790E-02 1.32400E-03
 -1     25954-3.52544E+00 7.13569E+00 1.97206E-04
 -1     25955-7.36186E+00 6.29965E+00-2.37976E-04
 -1     25956-7.14258E-01 7.46439E-01-3.81157E-03
 -1     25957-8.90282E-01 9.39123E-01-1.59438E-03
 -1     25958-7.69760E-01 7.40454E-01-8.17533E-03
 -1     25959-6.06695E-01 6.14154E-01-5.58896E-03
 -1     25960-9.78889E-01 9.21172E-01-3.40789E-03
 -1     25961-8.35718E-02 1.42475E-02 2.46731E-03
 -1     25962-1.33436E-01 7.22543E-02-9.10121E-04
 -1     25963-5.51689E-02-4.83596E-02-9.70265E-05
 -1     25964-2.89686E-02-3.86691E-02 1.67183E-03
 -1     25965-6.65227E-02-2.12726E-02 7.04839E-04
 -1     25966-7.70704E+00 6.72822E+00-4.38412E-04
 -1     25967-7.53387E+00 6.51133E+00-1.56699E-04
 -1     25968-2.94440E+00 1.42767E+01 2.70827E-04
 -1     25969-3.05855E+00 1.35251E+01-5.16145E-06
 -1     25970-2.89763E-01 1.23356E+00 3.83992E-04
 -1     25971-4.19848E+00 1.32871E+01 4.33016E-04
 -1     25972-4.79373E+00 1.30216E+01 7.30125E-05
 -1     25973-4.63483E+00 1.37382E+01-8.14166E-04
 -1     25974-8.03058E-01 1.62226E+01-2.53826E-04
 -1     25975-2.76363E+00 2.48051E+00-8.49614E-04
 -1     25976-3.01068E+00 2.73823E+00-8.91952E-04
 -1     25977-5.32673E+00 1.36729E+01 5.64805E-04
 -1     25978 1.32474E-01 2.27021E-01-2.08310E-04
 -1     25979-3.72340E+00 7.64032E+00 4.41967E-05
 -1     25980-3.16713E+00 7.49401E+00 1.39622E-04
 -1     25981-1.95432E+00 9.89219E+00-2.96434E-04
 -1     25982-2.07567E+00 9.25510E+00-5.97930E-05
 -1     25983-1.64920E+00 9.39710E+00 1.91987E-05
 -1     25984-5.42456E+00 1.27498E+01 4.39065E-04
 -1     25985 5.86329E-01 1.93063E+00-1.65211E-04
 -1     25986 6.55920E-01 2.20320E+00 2.01885E-04
 -1     25987 9.04635E-03-8.28800E-02-3.96438E-03
 -1     25988 2.36184E-02-7.36160E-02-1.33006E-03
 -1     25989-7.24034E+00 6.15200E+00-2.23423E-04
 -1     25990-1.28035E+01 1.57706E+01-1.04003E-03
 -1     25991-1.40648E+01 1.56385E+01 4.14791E-04
 -1     25992-1.27190E+01 1.61751E+01-9.96746E-04
 -1     25993-1.30755E+01 1.63320E+01-2.40698E-03
 -1     25994-1.43571E+01 1.61893E+01 4.23984E-04
 -1     25995-5.00436E-03-2.14213E-02-4.93544E-04
 -1     25996 2.12629E-02-1.89656E-02-1.60844E-03
 -1     25997-2.50008E+00 1.16198E+01-4.84027E-04
 -1     25998-2.63187E+00 1.09420E+01 9.65944E-05
 -1     25999-3.70060E+00 1.07468E+01-7.67131E-05
 -1     26000-2.78259E+00 1.02899E+01 1.91609E-04
 -1     26001-3.33667E+00 1.01757E+01 2.72399E-05
 -1     26002-2.74864E+00 7.01065E+00 4.37685E-05
 -1     26003-2.76735E+00 7.85923E+00-1.77817E-04
 -1     26004-2.33414E+00 7.00905E+00 1.12639E-04
 -1     26005-1.38925E+01 1.52278E+01-5.69484E-04
 -1     26006-1.36385E+01 1.47698E+01 3.29230E-04
 -1     26007-1.34981E+01 1.45160E+01 1.40414E-04
 -1     26008 5.03200E-02 2.22136E-01-8.99250E-04
 -1     26009 4.82584E-02 2.48097E-01-9.61315E-04
 -1     26010 9.03778E-02 3.68733E-01-2.75490E-04
 -1     26011 7.72003E-02 2.55938E-01-1.66710E-04
 -1     26012 3.83318E-02 1.57760E-01 6.71894E-05
 -1     26013-2.25921E-01 4.91231E-01-5.65554E-04
 -1     26014-4.40138E-01 6.51918E-01 1.79636E-03
 -1     26015-3.08476E-01 4.81218E-01-8.49541E-04
 -1     26016-1.41226E-01 3.33060E-01-4.22043E-04
 -1     26017-3.07260E-01 4.66361E-01 1.18126E-03
 -1     26018-1.46507E+00 1.23702E+00-6.76841E-03
 -1     26019-1.62547E+00 1.34764E+00-4.66477E-03
 -1     26020-1.70215E+00 1.37767E+00-5.72764E-03
 -1     26021-1.18898E+00 1.06483E+00-1.99482E-03
 -1     26022-1.35639E+00 1.16834E+00-4.86388E-03
 -1     26023 3.57291E-03 2.55360E-02 8.13455E-04
 -1     26024 3.43288E-02 9.91844E-02-2.09081E-05
 -1     26025 1.62004E-02 7.72397E-02 1.42163E-03
 -1     26026 3.49244E-03 1.45844E-02 4.09029E-04
 -1     26027 1.57461E-02 5.38701E-02 1.19146E-03
 -1     26028-1.96764E+00 1.53902E+00-1.12756E-03
 -1     26029-1.89071E+00 1.52424E+00-3.10120E-03
 -1     26030 1.77751E-01 1.30236E+01-6.23119E-04
 -1     26031-1.83322E-01 1.22097E+01 8.71615E-04
 -1     26032 2.41631E-01 1.28230E+01-6.20812E-04
 -1     26033 1.20526E+00 5.74498E+00-4.03473E-04
 -1     26034 1.15373E+00 5.31450E+00 7.05646E-04
 -1     26035-6.21208E-01 1.05744E+00 5.24628E-04
 -1     26036-7.67851E-01 1.05983E+00 8.64791E-04
 -1     26037-6.28745E-01 1.10682E+00-4.91652E-04
 -1     26038-3.44902E-01 6.97747E-01-2.54088E-04
 -1     26039-4.52564E-01 6.90529E-01 4.25685E-03
 -1     26040-2.15471E+00 1.10729E+01-7.09726E-05
 -1     26041-6.92896E-01 8.08477E-01-2.09850E-03
 -1     26042-5.40918E-01 6.24151E-01 6.65623E-05
 -1     26043-5.43551E-01 6.98604E-01-2.19786E-03
 -1     26044 4.71018E-03 6.01679E-02 1.01426E-03
 -1     26045 7.21290E-01 3.19647E+00 6.55593E-05
 -1     26046 6.59900E-01 2.84851E+00 4.25308E-04
 -1     26047 7.39292E-01 2.98705E+00-1.71325E-04
 -1     26048 8.30451E-01 1.08870E+01 3.50773E-04
 -1     26049 8.53052E-01 1.03276E+01 5.06340E-04
 -1     26050 7.15761E-01 1.02441E+01 5.95184E-04
 -1     26051 8.90378E-01 1.01626E+01 5.46480E-04
 -1     26052-6.76389E+00 1.88010E+01 2.84076E-03
 -1     26053-6.18416E+00 1.92478E+01-1.39777E-03
 -1     26054-1.47271E+01 2.61200E+01-2.91079E-03
 -1     26055-1.57592E+01 2.60881E+01-7.50746E-04
 -1     26056-1.48631E+01 2.51910E+01-8.45547E-03
 -1     26057-1.49109E+01 2.56436E+01-6.25191E-03
 -1     26058-1.58246E+01 2.65800E+01-3.86869E-04
 -1     26059-1.59669E+01 2.56027E+01-6.99564E-05
 -1     26060 6.68769E-01 3.40003E+00-4.33309E-04
 -1     26061 7.18058E-01 3.52277E+00-3.75995E-04
 -1     26062 7.43174E-01 3.58570E+00-4.28677E-04
 -1     26063-9.84773E+00 2.52362E+01-1.99534E-03
 -1     26064-9.57249E+00 2.51873E+01-7.07202E-04
 -1     26065-1.00280E+01 2.43501E+01-3.59862E-03
 -1     26066-4.84152E+00 2.11658E+01 2.46654E-03
 -1     26067-4.14218E+00 2.12918E+01 3.17107E-06
 -1     26068 1.16728E+00 8.00858E+00-3.32394E-04
 -1     26069 1.10947E+00 7.90439E+00-4.73472E-04
 -1     26070 1.03533E+00 8.58867E+00-7.88242E-04
 -1     26071 1.10284E+00 8.69740E+00-3.63737E-04
 -1     26072 1.10944E+00 7.89938E+00 3.34306E-04
 -1     26073-5.74091E+00 2.46442E+01-7.52361E-04
 -1     26074-5.74263E+00 2.46425E+01-3.14597E-03
 -1     26075-5.30004E+00 2.40023E+01-3.35240E-05
 -1     26076 7.68876E-01 3.52676E+00 3.15941E-04
 -1     26077 7.85436E-01 4.15998E+00 2.18620E-04
 -1     26078-1.70843E+01 2.28021E+01-1.38623E-03
 -1     26079-1.71768E+01 2.21106E+01 4.38622E-03
 -1     26080-1.59081E+01 2.26711E+01 2.40013E-03
 -1     26081-1.59917E+01 2.19775E+01-3.50710E-03
 -1     26082 3.29333E-02 1.31385E+00 2.48714E-04
 -1     26083 2.28633E-02 9.82501E-01-5.78341E-06
 -1     26084 3.71902E-02 1.14000E+00 1.30844E-03
 -1     26085 4.55063E-02 1.30209E+00 3.96793E-04
 -1     26086 3.03437E-02 1.14433E+00 3.36929E-04
 -1     26087 6.41211E-01 3.10576E+00 4.65765E-04
 -1     26088 6.81140E-01 3.15809E+00-1.78176E-04
 -1     26089 7.64383E-01 3.37117E+00 6.51551E-05
 -1     26090 7.24098E-01 3.31532E+00-5.65895E-06
 -1     26091 6.82399E-01 3.27382E+00 2.40101E-04
 -1     26092 3.98348E-01 7.57829E+00-4.68922E-04
 -1     26093 1.61699E-01 7.43957E+00 1.15340E-03
 -1     26094 2.43638E-01 7.98784E+00 1.59281E-04
 -1     26095-1.13841E+01 2.19787E+01 7.17011E-04
 -1     26096-1.24138E+01 2.22184E+01-4.84897E-03
 -1     26097-1.19156E+01 2.10620E+01-1.45608E-03
 -1     26098-1.29904E+01 2.12896E+01-1.75016E-03
 -1     26099 1.16303E+00 4.33140E+00-1.90826E-04
 -1     26100 1.12626E+00 4.09266E+00 8.72388E-05
 -1     26101 1.11668E+00 3.97119E+00-7.02507E-04
 -1     26102-6.29710E+00 2.46867E+01-1.54312E-03
 -1     26103-6.50680E+00 2.47054E+01-3.63274E-04
 -1     26104-5.74177E+00 2.46402E+01 2.24927E-03
 -1     26105-8.35043E+00 2.40278E+01-9.42660E-04
 -1     26106-7.65572E+00 2.35427E+01-6.84657E-04
 -1     26107-8.41658E+00 2.38239E+01-1.86370E-03
 -1     26108-8.62856E+00 2.30267E+01-1.02197E-03
 -1     26109-7.93559E+00 2.25458E+01 3.34810E-04
 -1     26110 9.56664E-01 9.85248E+00 1.54467E-04
 -1     26111 1.07865E+00 9.86598E+00-1.06979E-04
 -1     26112 9.23056E-01 9.55933E+00 6.90311E-05
 -1     26113 1.02162E+00 1.01765E+01 8.19385E-05
 -1     26114-1.10887E+00 1.70398E+01-4.59922E-04
 -1     26115-1.03402E+00 1.68591E+01-5.16738E-04
 -1     26116-1.70880E+00 1.71376E+01-1.86291E-04
 -1     26117-1.79511E+00 1.73183E+01-6.75993E-05
 -1     26118-1.76955E+00 1.68589E+01-4.24522E-04
 -1     26119-2.12583E+00 5.90918E+00-3.57041E-04
 -1     26120-2.32518E+00 6.27464E+00-3.47079E-04
 -1     26121-2.51945E+00 6.01177E+00-2.00732E-04
 -1     26122 1.26517E+00 5.56739E+00-3.86524E-04
 -1     26123 1.26514E+00 5.88199E+00-5.30209E-04
 -1     26124-1.69532E+01 2.24762E+01-1.83579E-03
 -1     26125-1.70444E+01 2.17937E+01-2.90494E-04
 -1     26126 8.38077E-01 3.81400E+00-7.39117E-04
 -1     26127 8.13563E-01 3.74576E+00-4.37471E-04
 -1     26128 8.86694E-01 3.95307E+00-8.10795E-04
 -1     26129-2.89680E+00 2.04653E+00-2.40279E-03
 -1     26130-2.84030E+00 2.02434E+00-1.64295E-03
 -1     26131-2.64139E+00 1.89028E+00-2.54753E-03
 -1     26132-2.84328E+00 1.97768E+00 1.10856E-03
 -1     26133-7.53388E+00 1.20454E+01 7.46346E-04
 -1     26134-7.98590E+00 1.14540E+01 1.26443E-03
 -1     26135-2.48303E+00 1.81570E+00-3.05149E-03
 -1     26136-2.23042E+00 1.67253E+00-3.81004E-03
 -1     26137-2.24501E+00 1.70964E+00-2.19495E-03
 -1     26138-2.98568E+00 9.05464E+00-4.12343E-04
 -1     26139-1.60619E+00 1.66533E+00 3.24094E-04
 -1     26140-1.50445E+00 1.74336E+00-7.40289E-05
 -1     26141-1.93687E+00 1.83771E+00 6.72839E-05
 -1     26142-1.82452E+00 1.90455E+00 1.26932E-03
 -1     26143-2.14425E+00 1.71083E+00 1.67331E-03
 -1     26144 1.08832E+00 4.05773E+00-8.76298E-04
 -1     26145 1.13773E+00 4.34842E+00-3.94558E-04
 -1     26146 1.03871E+00 3.72563E+00-3.20967E-04
 -1     26147 1.03634E+00 3.96647E+00-8.92539E-05
 -1     26148-7.66122E-01 3.47049E+00-1.71289E-04
 -1     26149-5.15346E-01 3.33566E+00-9.80262E-04
 -1     26150-5.49379E-01 3.78064E+00-4.42291E-05
 -1     26151-5.38932E+00 4.60080E+00-5.62100E-07
 -1     26152-5.14801E+00 4.75057E+00-1.83056E-04
 -1     26153-5.69495E+00 4.95582E+00 1.38148E-04
 -1     26154 6.62465E-03-2.76499E-02 2.69267E-03
 -1     26155 1.26354E-02-4.39631E-02-1.85665E-03
 -1     26156 1.52937E-02-2.93088E-02 8.42359E-04
 -1     26157 2.15877E-03-1.31979E-02 5.61063E-04
 -1     26158 1.19428E-03-1.84978E-02 1.88088E-03
 -1     26159 6.29449E-01 2.59465E+00 1.97284E-04
 -1     26160 4.01673E-02 6.86111E-02-3.30164E-05
 -1     26161 1.11200E+00 4.68093E+00 5.95036E-04
 -1     26162 1.13200E+00 4.58797E+00 3.90853E-04
 -1     26163 1.16124E+00 4.98518E+00 1.79250E-04
 -1     26164 1.07092E+00 4.51454E+00 7.78531E-04
 -1     26165 1.12383E+00 4.80698E+00 4.40656E-04
 -1     26166-4.83598E+00 2.38552E+01-2.24945E-03
 -1     26167-5.21494E+00 2.44049E+01 7.79116E-04
 -1     26168-4.68485E+00 2.36191E+01-1.51427E-03
 -1     26169 4.92578E-02 1.61158E+00 4.76223E-04
 -1     26170 6.25383E-02 1.70412E+00 3.32252E-04
 -1     26171 4.37705E-02 1.56468E+00-7.93231E-05
 -1     26172 1.36952E-01 1.32178E+01 5.88041E-04
 -1     26173 1.15910E-01 1.25322E+01-3.05342E-04
 -1     26174-1.53094E-01 1.22335E+01-5.74513E-04
 -1     26175-3.85169E-01 9.01727E-01-4.69547E-04
 -1     26176-3.68315E-01 1.23075E+00-1.51851E-04
 -1     26177-3.50035E-01 1.05115E+00 1.82167E-04
 -1     26178-6.18678E-01 1.43348E+00-8.20074E-04
 -1     26179-2.21950E-01 9.41968E+00 1.57850E-06
 -1     26180 6.15818E-02 9.55363E+00-1.13359E-03
 -1     26181-1.11268E-01 8.86787E+00-6.51559E-04
 -1     26182-5.34968E+00 2.40789E+01-4.61409E-04
 -1     26183-5.41579E+00 2.35172E+01-1.26831E-03
 -1     26184-2.07809E+00 1.66889E+01-1.92899E-04
 -1     26185-2.59074E+00 1.65050E+01 8.15551E-05
 -1     26186-2.23775E+00 1.58387E+01 1.52163E-04
 -1     26187-2.08788E+00 1.38008E+01-1.31892E-04
 -1     26188-1.76479E+00 1.32025E+01 9.89307E-04
 -1     26189-2.07768E+00 1.66919E+01 5.47251E-04
 -1     26190-1.91397E+00 1.75674E+01-2.22166E-04
 -1     26191-1.29932E+00 1.73226E+01-1.53760E-04
 -1     26192-1.45908E+00 1.64444E+01 2.02854E-04
 -1     26193-1.86283E+00 1.68982E+01-2.13164E-04
 -1     26194-1.33528E+01 1.44608E+01-3.29335E-04
 -1     26195-1.32140E+01 1.42101E+01 1.60458E-04
 -1     26196-1.33555E+01 1.48864E+01-5.43586E-05
 -1     26197-1.63303E+01 2.37548E+01 2.31977E-03
 -1     26198-1.61249E+01 2.49435E+01-2.96280E-04
 -1     26199-1.61280E+01 2.39370E+01 7.79143E-03
 -1     26200-1.68213E+01 2.38423E+01 6.22205E-03
 -1     26201-1.68036E+01 2.48423E+01-8.34603E-03
 -1     26202-1.65948E+01 2.50312E+01-7.18596E-03
 -1     26203-3.57055E-01 1.49388E+01 2.16651E-04
 -1     26204-6.28044E-01 1.56513E+01 4.57610E-04
 -1     26205-9.93346E-01 1.82861E+00-3.04743E-04
 -1     26206-1.03154E+00 2.23530E+00-6.65086E-05
 -1     26207 1.31718E+00 6.19312E+00-2.62139E-04
 -1     26208 1.32307E+00 6.30492E+00-4.09282E-04
 -1     26209 1.30027E+00 5.97470E+00 6.05277E-04
 -1     26210-4.61892E-01 2.37022E+00-6.39093E-04
 -1     26211-4.26352E-01 2.10591E+00-7.86828E-04
 -1     26212-7.14053E+00 2.25491E+01 8.78503E-04
 -1     26213-1.37872E+01 1.80837E+01-1.03499E-03
 -1     26214-1.43338E+01 1.84089E+01-2.00575E-03
 -1     26215-1.42025E+01 1.78389E+01-1.26121E-03
 -1     26216-1.44093E+01 1.83977E+01 3.68890E-05
 -1     26217-1.56040E+00 1.32606E+00 6.88255E-04
 -1     26218-1.48346E+00 1.29645E+00-2.28618E-03
 -1     26219-1.31907E+00 1.16857E+00-7.34909E-04
 -1     26220-1.77947E+00 1.40959E+00-5.70797E-03
 -1     26221-1.70596E+00 1.37715E+00-1.59144E-02
 -1     26222-1.25277E+01 1.69348E+01-1.01408E-03
 -1     26223-1.23342E+01 1.66953E+01-3.06184E-03
 -1     26224-1.26833E+01 1.65797E+01-2.11656E-03
 -1     26225-1.37491E+01 1.71690E+01-8.36010E-05
 -1     26226-1.35430E+01 1.69298E+01-9.03483E-04
 -1     26227 1.21921E+00 5.44278E+00-6.28575E-04
 -1     26228-1.19319E+00 1.07203E+00 2.38292E-03
 -1     26229-1.20522E+00 1.09414E+00 5.51561E-04
 -1     26230-8.88536E-01 8.64267E-01-4.32460E-03
 -1     26231-9.71909E-01 9.43735E-01 3.19162E-03
 -1     26232-9.72293E-01 9.77431E-01 2.55236E-03
 -1     26233-3.50574E-02-9.30706E-03 1.00778E-04
 -1     26234-7.17770E-02 1.48493E-02 4.75705E-03
 -1     26235-3.11185E-02-5.76258E-02 5.86586E-03
 -1     26236-1.31714E+00 1.16368E+00 4.36187E-03
 -1     26237 1.32622E+00 6.50563E+00-3.72888E-05
 -1     26238 1.32367E+00 6.38765E+00 2.12138E-04
 -1     26239 1.32828E+00 6.73923E+00-3.99482E-04
 -1     26240-5.54247E-02 1.07724E+01 3.89946E-04
 -1     26241 4.67306E-02 1.14618E+01-2.07601E-04
 -1     26242 2.56259E-01 1.08736E+01 8.07009E-04
 -1     26243-3.60619E+00 2.09097E+01-9.72471E-04
 -1     26244-3.66245E+00 2.02570E+01 5.38252E-04
 -1     26245-3.93762E+00 2.11703E+01 2.84707E-04
 -1     26246-4.08558E+00 2.19551E+01-5.20304E-04
 -1     26247-3.80833E+00 2.10270E+01-1.70782E-03
 -1     26248 2.58645E-05-1.86477E-02 2.08581E-04
 -1     26249 4.04764E-05-1.92486E-02-5.12289E-04
 -1     26250 1.16590E-03-3.37394E-02 4.38350E-04
 -1     26251 1.42746E-03-5.04969E-02 4.59367E-04
 -1     26252 1.17633E-03-3.55558E-02 2.42576E-04
 -1     26253-2.18510E+00 1.61999E+00 2.00336E-03
 -1     26254-2.28368E+00 1.67850E+00 3.17349E-03
 -1     26255-1.92504E+00 1.49703E+00-9.30659E-04
 -1     26256-1.87618E+00 1.46693E+00 8.47125E-04
 -1     26257 4.79028E-01 8.13420E+00 4.14655E-04
 -1     26258 6.88923E-01 8.28124E+00 5.81102E-04
 -1     26259 6.12904E-01 7.71965E+00 8.57177E-04
 -1     26260-8.45322E-02 5.90873E+00 9.35703E-06
 -1     26261 5.15104E-01 1.19092E+01-3.11061E-04
 -1     26262 9.28541E-01 9.62677E+00 2.13309E-04
 -1     26263 8.12712E-01 9.51901E+00 4.09149E-04
 -1     26264 1.14505E+00 9.46365E+00 3.25384E-05
 -1     26265 1.21249E+00 9.10384E+00 2.98748E-04
 -1     26266 9.19376E-01 9.05565E+00 4.06037E-06
 -1     26267 1.17431E-01 1.65587E+00 4.32835E-04
 -1     26268 9.12816E-02 1.68909E+00 4.19206E-04
 -1     26269-9.83436E+00 2.43289E+01 4.68107E-03
 -1     26270-1.05875E+01 1.00397E+01-6.31146E-04
 -1     26271-1.03315E+01 9.66556E+00-6.08831E-04
 -1     26272-1.01990E+01 9.47659E+00-1.08720E-04
 -1     26273-1.45900E+01 1.78003E+01-2.12698E-04
 -1     26274-1.42982E+01 1.74902E+01 1.06651E-03
 -1     26275-1.47615E+01 1.74464E+01 5.40537E-04
 -1     26276-6.48154E+00 8.45920E+00 6.95183E-04
 -1     26277-7.20924E+00 8.41829E+00 9.27423E-04
 -1     26278-5.85902E+00 8.24655E+00-2.33070E-04
 -1     26279-6.55745E+00 8.19489E+00 5.55945E-04
 -1     26280-2.74686E-01 1.44921E+01-5.90722E-04
 -1     26281 9.86265E-01 6.84085E+00-4.43517E-05
 -1     26282 7.57824E-01 6.41596E+00 6.26374E-05
 -1     26283 1.05287E+00 6.47762E+00 5.53981E-04
 -1     26284 8.48164E-01 6.06349E+00-8.43379E-04
 -1     26285 9.56974E-01 4.18939E+00-7.27623E-05
 -1     26286 9.10020E-01 4.04130E+00-2.06284E-04
 -1     26287 9.95558E-01 4.06985E+00-7.46355E-05
 -1     26288 1.04976E+00 4.43321E+00 4.57798E-04
 -1     26289 1.00635E+00 4.27579E+00-7.31501E-05
 -1     26290-4.09299E+00 1.69495E+01 2.04475E-04
 -1     26291-4.55668E+00 1.76722E+01-3.24127E-04
 -1     26292-4.71221E+00 1.68202E+01 3.51697E-04
 -1     26293 9.24488E-01 5.72658E+00 1.20682E-04
 -1     26294 6.88165E-01 5.93759E+00-1.32322E-04
 -1     26295-3.33593E+00 1.20903E+01 2.94615E-04
 -1     26296-3.79644E+00 1.20128E+01-1.66715E-04
 -1     26297-3.20546E+00 1.27964E+01-2.29389E-04
 -1     26298-3.66596E+00 1.27117E+01 5.03204E-04
 -1     26299 5.80516E-01 6.28683E+00 2.13537E-04
 -1     26300-1.69719E+00 1.98505E+00 1.04800E-03
 -1     26301 1.03935E+00 3.72792E+00-1.26181E-04
 -1     26302 1.01124E+00 3.84032E+00-7.05408E-05
 -1     26303 9.80789E-01 3.52461E+00-3.03313E-05
 -1     26304 9.70840E-01 3.53479E+00-5.07930E-04
 -1     26305-3.20054E-01 3.44577E-01 1.07637E-02
 -1     26306-3.69289E-01 3.66707E-01 7.15636E-03
 -1     26307-5.22164E-01 5.38791E-01 2.38070E-03
 -1     26308-7.64502E-01 2.76495E+00-3.76101E-04
 -1     26309 9.46463E-01 3.85109E+00-7.88995E-05
 -1     26310 9.54320E-01 4.16553E+00 2.54289E-04
 -1     26311 8.80306E-01 3.65389E+00-3.78037E-04
 -1     26312 9.22046E-01 3.87893E+00-5.06950E-04
 -1     26313 4.76713E-01 2.56504E+00 1.57453E-05
 -1     26314 5.09341E-01 2.73917E+00 1.07254E-05
 -1     26315 5.34135E-01 2.66167E+00 5.35839E-04
 -1     26316-3.20957E+00 2.32403E+00 9.32721E-04
 -1     26317-9.57492E+00 2.44993E+01-2.09444E-03
 -1     26318-9.71744E+00 2.33847E+01 3.14911E-03
 -1     26319-9.26353E+00 2.32034E+01-9.35605E-04
 -1     26320-9.12510E+00 2.44535E+01 2.13679E-04
 -1     26321-9.58424E+00 2.46426E+01 3.28400E-03
 -1     26322-1.61475E+01 2.30785E+01 4.46890E-03
 -1     26323-1.73346E+01 2.31737E+01 3.10075E-04
 -1     26324-1.61076E+01 2.23434E+01 9.55639E-04
 -1     26325-1.72877E+01 2.24400E+01-3.69402E-03
 -1     26326 6.60476E-02 1.69997E+00-2.83340E-04
 -1     26327 4.58936E-02 1.55843E+00-5.91885E-04
 -1     26328 5.45212E-02 1.61838E+00-7.74124E-04
 -1     26329-1.82626E-01 1.68780E+00 5.47981E-04
 -1     26330-2.63680E+00 2.15902E+00 2.26169E-06
 -1     26331-2.28895E+00 2.01069E+00-1.03034E-03
 -1     26332-2.40815E+00 1.96882E+00-6.31098E-04
 -1     26333-3.16264E+00 2.31247E+00-4.59401E-04
 -1     26334 1.32807E+00 7.25828E+00 4.41880E-04
 -1     26335 1.33471E+00 6.88585E+00 4.05204E-04
 -1     26336 1.33366E+00 7.00725E+00 5.22408E-04
 -1     26337 1.26763E+00 5.60871E+00 3.84749E-04
 -1     26338 1.22798E+00 4.94784E+00-8.50707E-04
 -1     26339 1.21831E+00 5.00621E+00-2.82380E-04
 -1     26340 1.25469E+00 5.50884E+00-9.07176E-05
 -1     26341 1.20425E+00 4.91480E+00 3.33584E-04
 -1     26342 1.10423E+00 4.13879E+00 7.33541E-04
 -1     26343 1.15210E+00 4.43163E+00 4.17520E-04
 -1     26344 8.77989E-01 3.76322E+00 3.70523E-04
 -1     26345 8.62432E-01 3.88257E+00-6.14904E-05
 -1     26346 9.51595E-01 3.75119E+00 2.45215E-04
 -1     26347 9.28398E-01 3.66727E+00-2.15834E-05
 -1     26348 9.43539E-01 3.87609E+00 1.66056E-04
 -1     26349 1.32317E+00 7.38550E+00 5.35260E-04
 -1     26350 8.33653E-01 2.67637E+00-3.55886E-04
 -1     26351 7.35507E-01 8.90423E+00-3.40077E-05
 -1     26352 5.25320E-01 8.74653E+00 2.57978E-04
 -1     26353-7.26461E-01 7.27570E-01-6.16016E-03
 -1     26354-7.50111E-01 7.34133E-01-5.57520E-03
 -1     26355-7.46762E-01 2.82614E+00-4.40261E-04
 -1     26356 1.17322E-03 7.81099E-02 6.19341E-05
 -1     26357 1.17891E-03 7.62403E-02-1.80642E-04
 -1     26358 1.24431E-03 7.24019E-02-1.62624E-04
 -1     26359 5.56700E-03 1.11064E-01 6.03425E-04
 -1     26360-1.72514E+01 2.60890E+01 3.35192E-03
 -1     26361-1.66330E+01 2.55133E+01-9.41915E-04
 -1     26362-1.66173E+01 2.66773E+01-4.32350E-03
 -1     26363-1.61612E+01 2.54141E+01-1.13330E-03
 -1     26364 4.81026E-02 3.04216E-01-7.31328E-04
 -1     26365 9.02717E-02 4.13045E-01-5.73531E-04
 -1     26366-9.18504E+00 2.51265E+01-1.96181E-03
 -1     26367-1.30734E+01 2.61626E+01 3.25089E-03
 -1     26368-1.30962E+01 2.52822E+01-1.34431E-03
 -1     26369-1.24066E+01 2.56493E+01 2.72985E-03
 -1     26370-1.36871E+01 2.62573E+01 8.82577E-04
 -1     26371-1.30043E+01 2.57341E+01-2.04421E-03
 -1     26372 7.92754E-01 2.31095E+00 1.08596E-04
 -1     26373 7.12525E-01 2.12052E+00 6.11979E-04
 -1     26374 7.12598E-01 2.11869E+00-6.74667E-04
 -1     26375 7.16407E-01 1.98604E+00 3.31154E-04
 -1     26376 7.17136E-01 1.98692E+00-1.05067E-03
 -1     26377 6.53220E-01 1.79613E+00-2.77137E-04
 -1     26378-9.36163E-04-4.37332E-02-1.70950E-03
 -1     26379-8.81865E-04-5.14060E-02 7.14519E-04
 -1     26380 1.16258E+00 4.44994E+00-3.29905E-04
 -1     26381 8.15779E-03 3.72938E-01 6.56323E-04
 -1     26382 1.21134E-02 5.70984E-01-1.11854E-04
 -1     26383 2.10453E-02 6.06527E-01-2.57809E-04
 -1     26384 1.75597E-02 5.86519E-01-5.24137E-04
 -1     26385 1.15365E-01 1.96437E+00-4.56015E-04
 -1     26386 1.04125E-01 1.83887E+00-5.61092E-04
 -1     26387 1.03514E-01 1.94058E+00-7.56906E-04
 -1     26388 1.35298E-01 2.05580E+00 4.33612E-05
 -1     26389 1.23096E-01 1.93069E+00 8.74492E-06
 -1     26390-9.06655E+00 2.52538E+01-4.51029E-04
 -1     26391-8.34309E+00 2.46217E+01-1.30594E-03
 -1     26392-8.49214E+00 2.53349E+01-1.21254E-03
 -1     26393-8.56457E+00 2.46870E+01 1.18142E-03
 -1     26394-8.84179E+00 2.52120E+01-1.25014E-04
 -1     26395-8.26435E+00 2.53025E+01-1.45756E-03
 -1     26396-1.35499E+00 1.17218E+00 1.16248E-03
 -1     26397-1.67796E+00 1.36746E+00 4.18352E-03
 -1     26398-1.62102E+00 1.34799E+00-1.63311E-03
 -1     26399 9.95062E-01 3.23162E+00-1.02659E-03
 -1     26400 9.31469E-01 2.91268E+00-7.37767E-05
 -1     26401 1.27685E+00 7.51685E+00-3.18043E-04
 -1     26402 1.28590E+00 7.39044E+00-1.90655E-04
 -1     26403 1.25173E+00 7.79589E+00-3.74499E-05
 -1     26404 2.39963E-01 9.09457E+00-6.48765E-05
 -1     26405 8.37412E-01 3.55722E+00 3.48761E-04
 -1     26406 8.34887E-01 3.66643E+00 3.55461E-04
 -1     26407 9.03592E-01 3.73415E+00 1.90785E-04
 -1     26408 9.47606E-01 3.63383E+00 2.53334E-04
 -1     26409 8.88025E-01 3.57272E+00 2.63303E-04
 -1     26410 1.18161E-01 1.55499E-01 3.97015E-04
 -1     26411 1.03931E-01 1.10534E-01 8.36022E-04
 -1     26412 1.34285E-01 1.78940E-01 2.82869E-04
 -1     26413 1.50131E-01 2.26853E-01-3.05279E-04
 -1     26414 7.02284E-02 1.52307E+00-8.59192E-04
 -1     26415 9.96567E-02 1.66466E+00-2.56454E-04
 -1     26416 1.64591E-01 2.77868E-01 8.27419E-04
 -1     26417 2.00686E-01 3.64626E-01-6.21432E-05
 -1     26418-4.53679E+00 1.76526E+01 3.15563E-04
 -1     26419-5.07120E+00 1.83557E+01-1.77433E-03
 -1     26420-5.16202E+00 1.74805E+01-9.39639E-04
 -1     26421 1.24049E+00 7.90845E+00-2.78749E-05
 -1     26422 7.64459E-01 3.61555E+00 5.97179E-05
 -1     26423 8.10805E-01 3.58698E+00-7.81891E-05
 -1     26424 6.78791E-01 3.34425E+00 1.63445E-04
 -1     26425 7.69326E-01 3.40247E+00 1.19144E-04
 -1     26426 3.87153E-02 1.48896E+00-2.15910E-04
 -1     26427 2.81400E-02 1.33204E+00-8.36903E-04
 -1     26428 3.18391E-02 1.40373E+00-5.95810E-04
 -1     26429-2.29446E+00 1.72177E+00 5.23101E-04
 -1     26430-2.37189E+00 1.75214E+00-8.06276E-04
 -1     26431-2.14923E+00 1.62382E+00 3.25991E-04
 -1     26432-2.67960E+00 1.91435E+00-6.16480E-04
 -1     26433-2.53108E+00 1.81870E+00-1.22070E-03
 -1     26434 4.11861E-01 1.11587E+00 2.50699E-04
 -1     26435-2.43702E+00 1.95780E+01 8.64466E-04
 -1     26436-2.53472E+00 1.97713E+01 3.97071E-04
 -1     26437-2.80943E+00 2.02976E+01 1.10234E-03
 -1     26438 6.81330E-02 8.39072E-02-4.28196E-04
 -1     26439 8.75305E-01 2.80016E+00 1.03176E-04
 -1     26440 9.30459E-01 2.97460E+00 2.05785E-04
 -1     26441 8.70519E-01 2.67703E+00 5.23318E-04
 -1     26442 2.82479E-01 1.58313E+00-7.28388E-04
 -1     26443 2.58512E-01 1.36495E+00 1.74229E-04
 -1     26444 3.44785E-01 1.71564E+00 3.94374E-04
 -1     26445 3.20989E-01 1.49052E+00-2.72768E-04
 -1     26446-1.68563E+01 2.14688E+01-1.81340E-03
 -1     26447-1.66857E+01 2.10873E+01 1.18276E-04
 -1     26448-1.64545E+01 2.08493E+01 1.22672E-03
 -1     26449-1.62897E+01 2.04787E+01 1.82720E-03
 -1     26450 2.30810E-01 9.98692E-01-3.35627E-05
 -1     26451 2.81607E-01 1.10953E+00 9.27427E-04
 -1     26452 2.17724E-01 8.31152E-01-9.52249E-04
 -1     26453 2.73031E-01 9.42910E-01-1.17685E-03
 -1     26454-1.41776E-01 5.46647E+00 5.56476E-04
 -1     26455-1.42202E+01 1.59310E+01 2.77557E-04
 -1     26456-1.44233E+01 1.63179E+01 3.22505E-04
 -1     26457-6.36275E+00 1.71190E+01 1.14251E-03
 -1     26458-6.22104E+00 1.79778E+01-1.89958E-03
 -1     26459-5.71645E+00 1.70451E+01-9.33609E-04
 -1     26460-5.20968E+00 1.75786E+01 2.65150E-04
 -1     26461-2.08017E+00 1.59378E+00-6.34322E-03
 -1     26462-1.93880E+00 1.50123E+00-4.15736E-03
 -1     26463-7.11299E-01 7.40942E-01 2.22736E-03
 -1     26464-7.64732E-01 7.35061E-01-9.05866E-04
 -1     26465-8.81932E-01 9.32415E-01 3.10593E-03
 -1     26466-9.67047E-01 9.13174E-01 2.48189E-03
 -1     26467 3.60270E-01 2.38592E+00 4.21434E-04
 -1     26468 4.28836E-01 2.75707E+00-7.56125E-04
 -1     26469 3.92344E-01 4.19083E+00 2.42664E-04
 -1     26470 4.65264E-01 4.58863E+00 9.16288E-05
 -1     26471-1.70730E+01 2.19563E+01-3.20442E-03
 -1     26472-1.80186E+01 2.45702E+01-5.10737E-03
 -1     26473-1.70178E+01 2.43188E+01-1.52404E-03
 -1     26474-1.72960E+01 2.45767E+01-2.28410E-03
 -1     26475-1.63592E+01 2.43310E+01 2.50850E-03
 -1     26476-1.60439E+01 1.99386E+01 2.72710E-03
 -1     26477-7.11813E+00 1.90158E+01 2.12537E-03
 -1     26478-8.52946E+00 1.71953E+01 2.34619E-03
 -1     26479-7.82995E+00 1.73202E+01 1.93278E-03
 -1     26480-1.09787E+01 1.06242E+01-5.09121E-04
 -1     26481-1.07195E+01 1.02335E+01-6.58035E-04
 -1     26482-1.07064E+01 1.07010E+01-4.36230E-04
 -1     26483-1.14415E+01 1.13197E+01-2.80709E-04
 -1     26484-1.11782E+01 1.09137E+01-2.60298E-04
 -1     26485-4.81563E+00 1.60124E+01 6.01279E-04
 -1     26486-4.40957E+00 1.53171E+01 1.14568E-03
 -1     26487 9.37700E-02 8.11143E-01-7.17459E-04
 -1     26488 6.02243E-02 6.69214E-01 3.42940E-04
 -1     26489-7.33376E-01 8.59132E+00-1.68932E-05
 -1     26490-5.90963E+00 1.08382E+01 2.56513E-04
 -1     26491-6.29756E+00 1.03946E+01-2.50500E-04
 -1     26492 1.27270E+00 5.49339E+00 6.43755E-04
 -1     26493 1.26965E+00 5.61749E+00 1.05153E-03
 -1     26494 1.29586E+00 5.84773E+00 5.37379E-04
 -1     26495 1.28869E+00 5.71619E+00 8.51995E-04
 -1     26496-6.94678E+00 1.79395E+01 1.53788E-03
 -1     26497-4.59210E+00 3.19490E+00-6.62781E-05
 -1     26498-4.70262E+00 3.28298E+00 4.72998E-05
 -1     26499-4.90711E+00 3.45179E+00 8.46833E-05
 -1     26500-9.86722E-01 1.00543E+00-6.07685E-03
 -1     26501-6.84450E-01 7.54764E-01 1.12282E-02
 -1     26502-5.41997E-01 7.30983E-01-1.02576E-03
 -1     26503-8.36336E-01 9.42951E-01-8.11757E-03
 -1     26504-9.38244E-01 9.95522E-01-2.18376E-02
 -1     26505-4.69911E-01 6.53160E-01-2.28390E-02
 -1     26506-4.59296E+00 3.38286E+00 2.60774E-05
 -1     26507-4.67831E+00 3.45841E+00 6.18960E-06
 -1     26508-4.63624E+00 1.68150E+01 1.21795E-03
 -1     26509-1.44826E+01 2.60867E+01-2.69933E-03
 -1     26510-1.55624E+01 2.65421E+01-3.24558E-03
 -1     26511-4.29066E+00 1.53629E+01-3.45619E-04
 -1     26512-4.18392E+00 1.60614E+01 3.08053E-04
 -1     26513-4.51277E+00 1.46403E+01-4.34528E-04
 -1     26514-6.77500E-01 7.07132E+00 8.41019E-05
 -1     26515-5.87111E-01 7.60513E+00 4.04188E-04
 -1     26516-3.80652E-01 7.17291E+00-1.98335E-04
 -1     26517-2.48386E+00 1.87167E+00 3.54876E-04
 -1     26518-2.13630E+00 1.70391E+00-1.62168E-03
 -1     26519-1.22981E+01 1.29884E+01 3.87642E-05
 -1     26520-1.23064E+01 1.24852E+01-7.95420E-04
 -1     26521-1.20688E+01 1.29684E+01-2.19270E-04
 -1     26522-1.17845E+01 1.24722E+01 2.17768E-04
 -1     26523-1.15609E+01 1.24512E+01 6.49809E-04
 -1     26524-5.87582E+00 4.42396E+00-2.77375E-05
 -1     26525-5.83435E+00 4.69595E+00 3.64906E-05
 -1     26526-5.64458E+00 4.40488E+00-1.03502E-05
 -1     26527-6.22775E+00 4.70778E+00-3.04365E-06
 -1     26528-5.59825E+00 4.68801E+00 6.29256E-05
 -1     26529-3.08834E+00 1.62921E+01 1.19037E-03
 -1     26530-3.69405E+00 1.55235E+01 5.53484E-04
 -1     26531-4.74110E-01 5.33644E-01 2.79509E-03
 -1     26532-3.40069E-01 4.43617E-01 1.42214E-03
 -1     26533 8.96194E-01 3.42212E+00 7.79070E-05
 -1     26534 2.57925E-02 1.18820E+00 2.95156E-04
 -1     26535 2.69738E-02 1.01643E+00-1.85316E-04
 -1     26536 1.94822E-02 1.19444E+00-3.34391E-04
 -1     26537 2.20569E-02 1.22887E+00-6.54482E-04
 -1     26538 1.94688E-02 1.02233E+00-2.17026E-04
 -1     26539-1.20283E+00 1.12978E+00 3.94837E-04
 -1     26540-1.60608E+00 1.32735E+00-9.95876E-03
 -1     26541-1.07607E+00 1.05927E+00 6.22235E-03
 -1     26542-9.86235E-01 9.94866E-01 1.40743E-02
 -1     26543-1.36709E+00 1.20840E+00 5.32820E-03
 -1     26544-3.70539E+00 1.55213E+01 2.91290E-04
 -1     26545 3.30198E-03 4.47813E-01-3.71827E-04
 -1     26546 4.16827E-02 1.51214E+00 7.79829E-05
 -1     26547 4.43129E-01 1.40347E+00 4.70233E-04
 -1     26548 5.06570E-01 1.62479E+00 1.09657E-03
 -1     26549 4.99019E-01 1.49064E+00 4.97944E-04
 -1     26550-1.43538E+01 1.64117E+01 9.94534E-04
 -1     26551-1.45567E+01 1.68061E+01 1.09077E-03
 -1     26552-1.47629E+01 1.72097E+01 1.01868E-03
 -1     26553 1.21172E+00 5.26437E+00 1.64210E-05
 -1     26554 1.25729E+00 5.51647E+00 2.55039E-04
 -1     26555 1.22694E+00 5.12353E+00-5.01313E-06
 -1     26556 1.18222E+00 4.63888E+00-3.64886E-04
 -1     26557 1.21824E+00 4.86281E+00-1.72842E-04
 -1     26558 8.04628E-01 3.29112E+00 9.21165E-04
 -1     26559-1.13514E+00 1.08462E+00-1.49896E-02
 -1     26560-9.82078E-01 9.95436E-01-4.96172E-03
 -1     26561-1.10705E+00 1.07988E+00-2.50420E-03
 -1     26562-1.34284E+00 1.19125E+00-4.28451E-03
 -1     26563-1.17838E+00 1.09985E+00-2.57710E-03
 -1     26564 3.31852E-04 3.65769E-01 3.93660E-04
 -1     26565 2.43322E-03 5.48582E-01-4.85863E-05
 -1     26566 1.74520E-03 4.18113E-01 1.14969E-04
 -1     26567 1.37732E-03 3.45544E-01 9.09532E-04
 -1     26568 1.92026E-03 4.75590E-01-3.16737E-04
 -1     26569 3.16440E-03 5.27618E-01-2.55827E-04
 -1     26570-5.58114E-01 6.85482E-01 9.99713E-03
 -1     26571-3.83327E-01 5.85051E-01 6.02741E-03
 -1     26572-3.42001E-02 1.28850E-02-1.29893E-03
 -1     26573-6.78485E-02 2.57320E-02 2.33291E-03
 -1     26574-6.25331E-02 6.84126E-02 5.29480E-04
 -1     26575-1.42352E-02-4.92246E-03-3.15306E-03
 -1     26576-1.01561E-01 9.60226E-02 2.44311E-03
 -1     26577-6.89001E+00 1.56580E+01-2.63975E-03
 -1     26578-6.56339E+00 1.48719E+01-1.38607E-03
 -1     26579-6.20410E+00 1.53862E+01 4.51107E-04
 -1     26580-2.72763E+00 7.48927E+00-1.34235E-04
 -1     26581-4.10406E+00 3.44236E+00-2.99573E-04
 -1     26582-4.29850E+00 3.35565E+00-1.12535E-04
 -1     26583-4.59192E+00 3.64110E+00-1.03175E-04
 -1     26584 6.53422E-05 1.17508E-01-1.39035E-05
 -1     26585-4.11745E+00 2.81824E+00-3.15468E-04
 -1     26586-4.11349E+00 2.81625E+00-2.46749E-04
 -1     26587-2.87509E+00 9.66116E+00-5.45009E-04
 -1     26588-3.45038E+00 9.55189E+00-4.01097E-04
 -1     26589 4.50908E-02 3.06706E-01 2.09114E-03
 -1     26590 8.49749E-02 4.56339E-01 7.05314E-04
 -1     26591 3.92477E-02 3.45250E-01 1.47117E-03
 -1     26592 1.78449E-02 2.15486E-01 1.38200E-03
 -1     26593 4.59743E-02 3.73755E-01-1.35596E-04
 -1     26594 8.65202E-02 1.43652E-01-7.43442E-04
 -1     26595 4.00491E-02 6.40098E-02-2.47687E-03
 -1     26596 9.68940E-01 3.31836E+00 1.05458E-05
 -1     26597-7.41711E+00 2.44903E+01-2.54946E-03
 -1     26598-8.12564E+00 2.45877E+01 3.51754E-03
 -1     26599-3.27993E+00 1.48674E+01 1.26695E-04
 -1     26600-2.75459E+00 1.56704E+01-1.20554E-03
 -1     26601 4.00799E-03 4.71992E-02 2.75052E-04
 -1     26602 1.62778E-02 8.42141E-02 1.31467E-03
 -1     26603-2.85392E+00 4.92887E+00-5.04954E-06
 -1     26604-3.36559E+00 5.05188E+00 2.01888E-04
 -1     26605-2.45006E+00 4.77834E+00 3.66474E-05
 -1     26606 3.09112E-02 7.72012E-02-5.30052E-04
 -1     26607 7.30143E-02 1.62961E-01-2.40469E-04
 -1     26608-7.53383E+00 6.51083E+00 1.71230E-04
 -1     26609-7.14633E+00 6.03900E+00-1.17923E-04
 -1     26610 1.14602E-02 1.97589E-02-5.84235E-04
 -1     26611 1.19960E-02 2.76527E-02-2.01740E-04
 -1     26612 4.46836E-02 8.32675E-02-1.82812E-03
 -1     26613-9.94309E-03 2.12582E-03-2.17596E-03
 -1     26614-9.96117E-03 3.73245E-02-9.24812E-03
 -1     26615-9.79241E-03 1.76575E-02-1.02500E-02
 -1     26616 2.23533E-01 1.07104E+00 8.53338E-04
 -1     26617 2.80512E-01 1.19093E+00-3.09151E-04
 -1     26618 2.30408E-01 9.96918E-01-7.50605E-04
 -1     26619 6.65154E-03 6.01653E-01 1.19998E-04
 -1     26620 2.97820E-03 4.75879E-01-5.83373E-05
 -1     26621 5.62690E-03 4.36435E-01-5.61023E-05
 -1     26622 2.20949E-03 2.80215E-01-7.26157E-04
 -1     26623 3.47060E-04 3.22146E-01-1.49883E-04
 -1     26624 5.91127E-04 1.54977E-01-4.73899E-04
 -1     26625 6.22491E-02 1.03707E-02-3.63126E-04
 -1     26626 4.24257E-02-7.94429E-03 1.51739E-04
 -1     26627 3.55490E-03 2.05505E-02 4.33066E-04
 -1     26628 3.52848E-03 9.29809E-03-8.60189E-04
 -1     26629 3.52467E-03 1.78054E-02 3.77810E-04
 -1     26630 5.94426E-01 1.57460E+00-5.73176E-04
 -1     26631 5.36630E-01 1.42949E+00-6.69622E-04
 -1     26632 5.19014E-01 1.32515E+00 2.93043E-04
 -1     26633-9.84175E+00 1.25862E+01-2.45021E-03
 -1     26634-1.01693E+01 1.33042E+01 4.57114E-04
 -1     26635-6.52212E-01 8.12705E-01-2.41447E-02
 -1     26636-5.62712E-01 6.94995E-01-6.66770E-03
 -1     26637-3.36959E-01 4.66508E-01-4.48685E-03
 -1     26638-6.13146E-01 6.71683E-01-7.06261E-04
 -1     26639-8.14030E-01 6.09929E+00-1.31304E-04
 -1     26640-7.58771E-01 6.57230E+00-3.38936E-04
 -1     26641 5.10502E-01 1.41044E+00 6.37409E-04
 -1     26642 4.50295E-01 1.19043E+00 3.92837E-04
 -1     26643-5.34424E-01 5.46283E-01-4.06923E-03
 -1     26644-2.04345E-01 2.55149E-01-2.12085E-02
 -1     26645 1.27860E+00 5.71051E+00-1.16094E-03
 -1     26646-6.98144E+00 1.06178E+01 1.53081E-04
 -1     26647-6.68950E+00 9.98624E+00 7.96894E-04
 -1     26648-7.36091E+00 1.01947E+01-3.27474E-04
 -1     26649 5.68781E-01 1.47037E+00 2.87809E-04
 -1     26650 6.07059E-01 9.35555E+00 7.78764E-04
 -1     26651 8.32248E-02 1.68291E+00-3.98833E-04
 -1     26652 8.05833E-02 1.65743E+00-8.61418E-04
 -1     26653 1.14839E-01 1.82476E+00-4.14380E-05
 -1     26654-9.39482E+00 1.32332E+01-1.54870E-04
 -1     26655-8.64784E+00 1.29562E+01 1.18719E-03
 -1     26656-8.92723E+00 1.37021E+01-6.89770E-04
 -1     26657 3.21007E-01 1.80761E+00 5.28815E-04
 -1     26658 4.00264E-03 5.94992E-02-1.30812E-03
 -1     26659 1.33099E+00 7.13566E+00 6.75282E-04
 -1     26660 1.27156E+00 6.11490E+00-8.79027E-04
 -1     26661 1.30488E+00 6.46940E+00-5.07589E-04
 -1     26662 1.24791E+00 7.00273E+00-5.02863E-05
 -1     26663 1.22416E+00 6.33823E+00-4.09946E-04
 -1     26664 2.13681E-01 1.14863E+00-8.76996E-04
 -1     26665 2.72029E-01 1.27789E+00 5.77204E-04
 -1     26666-2.00715E-01 4.25623E-01 2.18271E-03
 -1     26667-4.48291E-01 7.16908E-01 5.20200E-02
 -1     26668-4.19599E-01 6.39699E-01-5.99853E-03
 -1     26669 3.05499E-01 2.57594E+00-2.04953E-04
 -1     26670 2.86850E-01 2.52900E+00 4.87053E-05
 -1     26671 3.45825E-01 2.67220E+00-9.75702E-05
 -1     26672-4.05872E+00 5.64756E+00-3.20809E-04
 -1     26673-4.32351E+00 5.40075E+00 3.88103E-05
 -1     26674-3.82626E+00 5.22400E+00 2.49276E-04
 -1     26675-6.85429E-01 8.00021E-01 7.09438E-04
 -1     26676-5.34156E-01 6.81764E-01 5.49414E-03
 -1     26677-5.40805E-01 6.16441E-01-1.96404E-03
 -1     26678 8.28530E-01 2.43083E+00-5.43717E-04
 -1     26679 6.70328E-01 1.83544E+00-3.37367E-04
 -1     26680-1.37741E+00 1.27369E+01 8.94868E-05
 -1     26681-9.85244E-01 1.29040E+01 8.25499E-04
 -1     26682-1.11134E+00 1.21713E+01-2.46194E-04
 -1     26683-1.89577E+00 1.24683E+01-5.32214E-04
 -1     26684 8.41211E-02 1.01025E-01-1.34937E-03
 -1     26685 1.16259E+00 4.45088E+00 2.24462E-04
 -1     26686 1.20080E+00 4.70735E+00 5.63371E-05
 -1     26687 7.50149E-01 1.12276E+01-5.18545E-05
 -1     26688 4.48030E-01 1.06233E+01 3.13898E-04
 -1     26689 4.61228E-01 1.12229E+01 5.57346E-04
 -1     26690 6.91543E-01 1.95747E+00 5.86986E-04
 -1     26691-9.08223E-01 2.60783E+00 2.03335E-04
 -1     26692-2.24047E+00 2.40219E+00-5.98007E-04
 -1     26693-2.38329E+00 2.30858E+00-3.98894E-04
 -1     26694 2.16765E-03-7.75124E-03 1.15532E-03
 -1     26695 4.55912E-03-1.62290E-02 2.02213E-03
 -1     26696 5.21854E-04-4.69959E-03 4.38627E-04
 -1     26697 2.10592E-03-2.25490E-03 2.62548E-04
 -1     26698 8.79861E-03-7.54247E-03 2.83154E-03
 -1     26699 4.97045E-03-7.95540E-03 1.20106E-03
 -1     26700-3.51476E+00 2.50574E+00-1.27887E-05
 -1     26701-6.13132E+00 5.85873E+00-2.43960E-04
 -1     26702 7.83185E-02 2.07527E-01-1.40858E-03
 -1     26703 1.20277E-01 3.27512E-01 1.17255E-04
 -1     26704 7.68215E-02 2.52406E-01-1.10563E-04
 -1     26705 1.43615E-03-2.19643E-02 2.16333E-05
 -1     26706 1.65407E-03-2.03485E-02 5.71496E-04
 -1     26707 4.59585E-03-3.28762E-02 3.59286E-04
 -1     26708 1.27188E-03-1.82051E-02-7.04923E-04
 -1     26709 9.77504E-04-1.67004E-02 6.62426E-04
 -1     26710 3.33722E-01 1.39396E+00-6.37176E-04
 -1     26711 5.89433E-01 2.34443E+00 9.96498E-05
 -1     26712 5.57587E-01 2.45172E+00 3.66994E-05
 -1     26713-3.17857E-02 7.29724E-02 4.00630E-04
 -1     26714-7.82650E-02 9.17889E-02 1.03841E-03
 -1     26715-8.98551E-01 2.56701E+00-9.82570E-04
 -1     26716 5.54629E-03 1.05935E-01 3.94647E-04
 -1     26717 4.97085E-03 8.98035E-02 5.31591E-04
 -1     26718 1.58086E-02-1.42985E-02 9.56227E-04
 -1     26719 8.90223E-03-2.26284E-02 2.49990E-03
 -1     26720 1.38773E-02-9.75862E-03 2.06058E-03
 -1     26721 9.77392E-03-1.22004E-02 1.11314E-04
 -1     26722 5.36027E-03-2.15643E-02 9.48771E-04
 -1     26723-1.20975E+00 1.13119E+00-6.10949E-03
 -1     26724 3.25623E-01 2.62407E+00 1.08807E-04
 -1     26725 2.69204E-01 2.48077E+00 2.41586E-04
 -1     26726-1.49609E-02-3.73275E-02-7.06600E-04
 -1     26727-2.21989E-02-2.82215E-02 5.01180E-04
 -1     26728-5.80065E+00 1.21447E+01-1.29699E-04
 -1     26729-6.09885E+00 1.30379E+01 7.12243E-04
 -1     26730-5.14389E+00 1.18673E+01 1.46622E-04
 -1     26731-6.33570E+00 1.23584E+01 1.62958E-04
 -1     26732 2.91279E-02 1.25388E+01-3.65142E-04
 -1     26733 8.81042E-01 1.07626E+01 2.63932E-04
 -1     26734 9.20826E-01 1.05799E+01 3.10841E-04
 -1     26735-3.74907E-01 3.72433E-01 6.17079E-03
 -1     26736-5.74267E-01 5.64743E-01-8.64879E-03
 -1     26737 1.53431E-03 1.81464E-01 4.70574E-05
 -1     26738 3.09544E-04 9.89107E-02 2.31553E-04
 -1     26739 4.55524E-04 8.69049E-02 1.20501E-04
 -1     26740 4.53200E-04 8.57703E-02-1.34282E-04
 -1     26741 3.22894E-04 9.76932E-02-1.02636E-04
 -1     26742 4.37455E-01 1.30096E+00 5.19063E-04
 -1     26743 1.14757E-01 1.96561E+00-1.01596E-05
 -1     26744 1.34466E-01 2.05742E+00 1.24907E-04
 -1     26745 2.67193E-02 7.79257E-01 3.69150E-04
 -1     26746 1.23368E-02 6.06563E-01 1.17894E-03
 -1     26747 1.96768E-02 8.14217E-01-8.76903E-04
 -1     26748 5.72883E-01 1.60920E+00 1.29053E-03
 -1     26749 3.84572E-02 4.90066E-01 5.11549E-04
 -1     26750 4.15365E-02 4.50642E-01-9.60027E-04
 -1     26751 1.86129E-02 3.08169E-01-1.28010E-03
 -1     26752 2.91153E-01 6.62290E-01 9.74373E-04
 -1     26753 3.62528E-01 8.68109E-01-2.74358E-04
 -1     26754 5.53847E-03 4.24624E-01 3.92924E-05
 -1     26755 2.67213E-03 2.85524E-01 8.61904E-04
 -1     26756 5.11997E-04 1.45266E-01 4.21652E-04
 -1     26757 2.63666E-03 2.81412E-01-2.33913E-04
 -1     26758 4.80635E-03-4.61917E-02 1.20984E-03
 -1     26759 2.54918E-02-5.21334E-02 1.83472E-03
 -1     26760 2.41872E-02-6.59340E-02 1.21795E-03
 -1     26761 1.05552E-02-5.43835E-02 1.17596E-04
 -1     26762 1.14418E-02-4.29763E-02-1.06896E-03
 -1     26763 3.76928E-01 9.51825E-01 1.39209E-03
 -1     26764 4.35657E-01 1.08964E+00-1.07901E-03
 -1     26765-7.42136E-01 4.85982E+00 4.10611E-04
 -1     26766-9.08374E+00 1.25119E+01 9.46475E-04
 -1     26767-1.56433E+00 1.30291E+00 6.18986E-03
 -1     26768-9.48087E+00 1.19211E+01-1.51051E-03
 -1     26769-9.48073E+00 1.11806E+01-1.56971E-04
 -1     26770-1.02694E+01 1.21777E+01-4.29922E-04
 -1     26771-1.02681E+01 1.14366E+01-2.21110E-03
 -1     26772-9.88799E-01 9.15120E-01-4.64453E-03
 -1     26773-2.10492E+00 1.58823E+00-3.86688E-03
 -1     26774-1.98042E+00 1.52813E+00-3.94017E-03
 -1     26775-1.98157E+00 1.52320E+00-1.33744E-03
 -1     26776-2.35089E+00 1.71981E+00-1.29867E-03
 -1     26777-2.23068E+00 1.65606E+00-1.92629E-03
 -1     26778-6.03506E+00 1.37614E+01-9.37656E-04
 -1     26779-6.76547E+00 1.41232E+01-5.54134E-04
 -1     26780-6.24171E+00 1.32517E+01-3.43335E-04
 -1     26781-6.83760E+00 1.31361E+01 2.59475E-05
 -1     26782-6.97881E+00 1.36089E+01 8.64689E-04
 -1     26783 6.91032E-02 2.38731E-02-3.25219E-04
 -1     26784 6.08206E-02-7.29807E-03-4.51647E-04
 -1     26785-6.15504E+00 1.16367E+01 7.84889E-04
 -1     26786-7.55918E+00 1.56619E+01-2.48686E-03
 -1     26787-7.22004E+00 1.48764E+01 3.05234E-04
 -1     26788-1.67229E+00 1.36412E+00-2.77245E-03
 -1     26789-1.80543E+00 1.43704E+00-1.25552E-02
 -1     26790-1.60447E+01 2.61204E+01-8.69588E-04
 -1     26791-8.77488E+00 2.19335E+01-3.25773E-05
 -1     26792-7.91935E+00 7.84268E+00-2.14832E-04
 -1     26793-7.56851E+00 8.11950E+00 1.23268E-04
 -1     26794-8.25570E+00 8.34907E+00 1.74411E-05
 -1     26795-7.51933E-01 7.32590E-01-9.68180E-03
 -1     26796 4.01735E-05 1.17493E-01 9.70083E-06
 -1     26797 7.58941E-02 5.85232E-02 1.64308E-05
 -1     26798-7.39082E+00 1.31477E+01-4.08960E-04
 -1     26799-7.59492E+00 1.37992E+01-1.53826E-03
 -1     26800-6.78519E+00 1.29514E+01 5.41010E-05
 -1     26801 1.25031E+00 5.79869E+00-1.57506E-04
 -1     26802 1.29165E+00 5.92739E+00 1.82478E-05
 -1     26803 1.26638E+00 5.87195E+00-2.97424E-04
 -1     26804 1.29909E+00 5.92130E+00-1.36292E-04
 -1     26805 1.29845E+00 5.90692E+00 3.88980E-04
 -1     26806 1.30408E+00 6.12658E+00 2.38579E-04
 -1     26807-4.12641E-01 4.11050E-01-8.57039E-03
 -1     26808-6.65271E+00 5.17255E+00 3.67766E-05
 -1     26809-5.78018E+00 4.92450E+00 2.23315E-05
 -1     26810-6.42485E+00 4.93418E+00-3.56058E-05
 -1     26811 1.53808E-03 6.38677E-02 9.24263E-04
 -1     26812 1.53610E-03 6.64874E-02 5.02913E-04
 -1     26813 1.29983E-02 1.92141E-01-5.38655E-05
 -1     26814 5.50597E-03 1.14183E-01 7.01910E-04
 -1     26815 5.52804E-03 1.19426E-01 8.90450E-04
 -1     26816-5.33116E+00 7.21365E+00-4.26450E-04
 -1     26817-4.76653E+00 7.02768E+00-5.05431E-04
 -1     26818-7.06110E+00 6.49980E+00-2.21124E-04
 -1     26819-6.43940E+00 6.28114E+00 1.67278E-04
 -1     26820-6.73480E+00 6.07382E+00 1.40009E-05
 -1     26821-2.92329E+00 6.18157E+00 9.82393E-05
 -1     26822-3.53199E+00 6.19983E+00 4.00120E-05
 -1     26823 1.29526E+00 5.88894E+00 3.71387E-05
 -1     26824-6.79973E+00 5.63137E+00 9.41367E-05
 -1     26825-1.19972E+00 1.15004E+00 2.83294E-03
 -1     26826-9.28352E-01 9.96622E-01-1.02231E-03
 -1     26827-1.32305E+00 1.20954E+00-5.94334E-04
 -1     26828-1.05841E+00 1.10191E+00 4.03872E-02
 -1     26829-1.21965E+00 1.14291E+00-8.59167E-04
 -1     26830-9.09884E-01 7.47099E+00-3.94635E-04
 -1     26831-1.24307E+00 7.38101E+00-1.57708E-04
 -1     26832-9.93110E-01 6.95646E+00 1.13514E-03
 -1     26833-4.90698E-01 7.73766E-01-1.28814E-03
 -1     26834-3.84845E-01 6.99423E-01 5.84960E-03
 -1     26835-4.62363E-01 7.48181E-01-2.21041E-02
 -1     26836-8.35684E-01 9.85734E-01 1.08522E-02
 -1     26837-6.94434E-01 9.20608E-01-2.03291E-03
 -1     26838-1.88669E+01 2.66569E+01 9.32892E-03
 -1     26839-1.78245E+01 2.65950E+01 3.98248E-03
 -1     26840-5.56631E+00 1.93162E+01-4.71718E-05
 -1     26841-5.65359E+00 1.84178E+01-2.71474E-03
 -1     26842-1.77692E+01 2.42312E+01-8.48455E-03
 -1     26843-1.65721E+01 2.41664E+01 2.67711E-03
 -1     26844-7.42115E-01 3.13906E+00-9.52638E-04
 -1     26845-5.00105E-01 3.00730E+00-9.24074E-05
 -1     26846 3.84975E-03 2.78685E-01 3.58865E-04
 -1     26847 3.22667E-04 9.60236E-02 2.78309E-04
 -1     26848 3.25252E-04 9.82885E-02 2.93338E-04
 -1     26849-1.21963E+01 1.35380E+01 6.98295E-05
 -1     26850-1.26691E+01 1.31177E+01-1.81937E-04
 -1     26851-1.27602E+01 1.34684E+01 4.38692E-04
 -1     26852-1.22815E+01 1.39019E+01 4.37012E-05
 -1     26853-1.26150E+01 1.36384E+01-1.35414E-04
 -1     26854-4.82077E+00 6.26770E+00-6.56858E-04
 -1     26855-5.08235E+00 6.73160E+00-2.40262E-05
 -1     26856-4.53264E+00 6.54883E+00 3.33941E-05
 -1     26857-1.52812E+00 7.80757E+00-1.44383E-03
 -1     26858-1.84518E+00 8.22996E+00 6.81953E-04
 -1     26859-7.86557E+00 1.28868E+01 7.69266E-04
 -1     26860-8.06234E+00 1.34584E+01 1.58054E-03
 -1     26861 2.07569E-01 2.04792E+00 1.79902E-04
 -1     26862 1.67335E-02 5.11631E+00 2.26759E-04
 -1     26863 8.23079E-02 5.56439E+00 3.58626E-04
 -1     26864 2.22755E-01 5.21466E+00 1.32092E-05
 -1     26865-8.60849E-02 4.66971E+00-4.51053E-05
 -1     26866 6.69906E-02 4.35024E+00-2.63415E-04
 -1     26867 1.48813E-01 4.79204E+00 2.31001E-04
 -1     26868 5.15211E-01 2.54955E+00 5.25352E-04
 -1     26869 4.86735E-01 2.31138E+00 1.17011E-04
 -1     26870-1.18025E+00 1.04827E+00-6.27575E-03
 -1     26871-1.55826E+00 1.33385E+00-4.18061E-03
 -1     26872-1.57096E+00 1.34207E+00 4.21591E-05
 -1     26873-1.31134E+00 1.22599E+00 2.41269E-03
 -1     26874 2.99922E-01 2.18432E+00-1.08255E-03
 -1     26875 2.64459E-01 1.99844E+00-1.30486E-03
 -1     26876 2.55803E-01 2.22830E+00-6.19098E-04
 -1     26877 2.45000E-01 2.00397E+00-4.90849E-04
 -1     26878 5.19807E-03 8.77366E-02 3.65883E-04
 -1     26879 5.08259E-03 9.67268E-02 1.07031E-03
 -1     26880 5.20449E-03 8.41890E-02-8.06564E-05
 -1     26881 8.15487E-01 2.51460E+00 5.47935E-04
 -1     26882-3.37056E+00 2.15301E+01-2.90354E-03
 -1     26883-3.54025E+00 2.12480E+01-1.63194E-03
 -1     26884-3.70267E+00 2.21175E+01-8.99322E-04
 -1     26885-3.20331E+00 2.12269E+01-1.19644E-03
 -1     26886-3.52689E+00 2.18118E+01-1.76769E-03
 -1     26887 7.15509E-01 3.77038E+00 6.77580E-04
 -1     26888 1.81835E-01 6.06278E-01-7.18176E-04
 -1     26889-1.83041E+01 2.52913E+01 7.10631E-03
 -1     26890-1.70562E+01 2.52138E+01 2.21176E-03
 -1     26891 1.52619E-01 2.12295E+00-2.88653E-04
 -1     26892 1.67028E-01 2.17152E+00 3.60344E-05
 -1     26893-2.95739E+00 2.07769E+01-1.05763E-03
 -1     26894-1.22351E+01 1.26460E+01-2.41960E-04
 -1     26895 9.91329E-01 3.86583E+00-1.88512E-04
 -1     26896-5.24229E+00 3.74840E+00-2.95693E-04
 -1     26897-5.54850E+00 4.10865E+00-7.54626E-05
 -1     26898-5.01423E+00 3.75507E+00-9.32012E-05
 -1     26899-5.03239E+00 3.56700E+00-3.17477E-04
 -1     26900-5.33779E+00 3.91183E+00 1.29198E-04
 -1     26901 2.50456E-02-8.18992E-02-1.60188E-03
 -1     26902 8.22023E-03-8.54094E-02 3.05322E-04
 -1     26903 1.57868E-01 1.01970E+01 6.32227E-04
 -1     26904-2.18201E+00 6.40682E+00-6.71046E-04
 -1     26905 1.66440E-02 4.46771E-01-2.72407E-04
 -1     26906-5.90602E-02 4.55811E-01 4.78723E-04
 -1     26907-1.22071E-01 6.31838E-01 3.36711E-04
 -1     26908-2.79651E-02 6.16447E-01-9.31696E-04
 -1     26909-4.31825E-02-6.06144E-02 6.92164E-03
 -1     26910-3.65228E-03-1.05322E-01 2.75397E-04
 -1     26911-8.83080E-03-8.53419E-02-1.23814E-03
 -1     26912-5.49142E-01 1.56096E+00 3.16441E-04
 -1     26913-4.47769E-01 1.30985E+00-3.15280E-04
 -1     26914-7.68201E-01 1.36550E+00-2.77904E-04
 -1     26915-1.14735E+01 1.14157E+01-6.29928E-05
 -1     26916-1.08394E+01 1.12624E+01-2.49913E-04
 -1     26917-1.00975E+01 1.06223E+01-4.86113E-04
 -1     26918-1.08028E+01 1.11905E+01-3.90754E-04
 -1     26919-1.15708E+01 1.18465E+01-4.04755E-04
 -1     26920-1.01887E+01 1.10416E+01-8.88251E-04
 -1     26921-1.02937E+01 1.14226E+01 6.63394E-05
 -1     26922-1.10814E+01 1.24310E+01 9.96985E-04
 -1     26923-1.44254E+01 2.24733E+01 6.97846E-03
 -1     26924-1.50979E+01 2.15667E+01-1.91847E-03
 -1     26925-1.40044E+01 2.14089E+01-4.67689E-04
 -1     26926-1.33779E+01 2.23186E+01 8.33859E-04
 -1     26927-1.52343E-01 1.66993E-01-6.92591E-03
 -1     26928-1.00508E-01 1.41369E-01-1.05282E-02
 -1     26929-1.29083E-01 1.24304E-01 1.17576E-02
 -1     26930-9.09370E-02 7.83917E-02-8.77155E-04
 -1     26931-6.61611E-02 9.71719E-02 1.70053E-02
 -1     26932-1.75188E+00 8.78753E+00-8.07301E-05
 -1     26933-1.22886E+01 1.33866E+01-3.59983E-04
 -1     26934-1.23756E+01 1.37468E+01-1.34672E-03
 -1     26935-1.19610E+01 1.36478E+01-1.06572E-03
 -1     26936-4.28943E+00 6.08744E+00-4.00932E-04
 -1     26937-8.75876E+00 1.09496E+01 1.72515E-04
 -1     26938-8.41595E+00 1.03339E+01-2.81916E-04
 -1     26939-1.02778E+01 9.78446E+00 1.73699E-04
 -1     26940-1.05354E+01 1.01657E+01-2.00642E-04
 -1     26941-1.02071E+01 1.02515E+01-6.13592E-05
 -1     26942-9.58442E+00 9.98351E+00-1.92863E-04
 -1     26943-1.04599E+01 1.06489E+01 1.21758E-04
 -1     26944-7.90034E-01 1.87727E+00 1.44056E-04
 -1     26945-4.30893E-01 1.85907E+00 1.06402E-03
 -1     26946-4.63633E-01 1.72253E+00 1.28684E-03
 -1     26947-1.18551E+00 4.74072E+00 7.00330E-04
 -1     26948-1.21286E+00 1.61022E+00-2.78566E-04
 -1     26949-1.24396E+00 1.63076E+00 5.01187E-04
 -1     26950-1.38531E+00 1.85293E+00 2.68009E-04
 -1     26951-1.53562E+00 1.00200E+01 1.02313E-04
 -1     26952-1.25274E+00 9.52440E+00-1.12933E-04
 -1     26953-1.47075E+01 2.05777E+01-2.93153E-03
 -1     26954-1.19039E+01 1.32872E+01-3.79254E-04
 -1     26955-1.23698E+01 1.28715E+01 8.09605E-05
 -1     26956-1.22288E+01 1.30351E+01-5.03340E-04
 -1     26957-1.67427E+01 2.35831E+01 4.14688E-03
 -1     26958-9.46838E+00 1.31931E+01 2.71194E-04
 -1     26959-4.05756E+00 4.42328E+00 1.34587E-04
 -1     26960-4.61705E+00 4.55466E+00 2.06413E-04
 -1     26961-4.58980E+00 1.14876E+01-8.66179E-05
 -1     26962-4.91969E+00 1.09847E+01-2.42851E-04
 -1     26963-5.48546E+00 1.13589E+01 4.57668E-04
 -1     26964 4.07036E-01 2.12229E+00-3.13120E-04
 -1     26965-2.42850E+00 1.73698E+01-1.76370E-04
 -1     26966-2.80833E+00 1.80664E+01-6.87008E-04
 -1     26967-3.83605E+00 3.16575E+00 3.92909E-05
 -1     26968-3.39489E+00 2.98293E+00-1.76132E-04
 -1     26969-3.64966E+00 3.26077E+00 8.11044E-05
 -1     26970 2.58776E-01 2.36694E+00 3.81726E-05
 -1     26971 2.76344E-01 2.14233E+00-7.02582E-04
 -1     26972 2.18435E-01 2.35008E+00-3.12041E-04
 -1     26973 2.61704E-01 2.17466E+00-7.27344E-04
 -1     26974-1.45055E+00 8.34369E+00-6.47027E-05
 -1     26975-3.90977E+00 3.55409E+00 1.17774E-05
 -1     26976-4.85461E+00 4.39797E+00 8.37537E-05
 -1     26977-5.91481E+00 2.10591E+01 1.09132E-03
 -1     26978-6.49231E+00 2.18931E+01-1.04107E-03
 -1     26979-6.20707E+00 2.49395E+01-8.68172E-04
 -1     26980-6.74588E+00 2.49879E+01-2.87078E-04
 -1     26981-4.79176E+00 3.56062E+00-2.72233E-04
 -1     26982-4.41052E+00 3.24199E+00 1.95808E-04
 -1     26983 8.14363E-01 2.64280E+00-3.91288E-04
 -1     26984 8.65222E-01 2.92232E+00-7.08610E-04
 -1     26985 9.25373E-04 2.27406E-01 3.12662E-04
 -1     26986 1.54107E-02 3.09702E-01-3.41438E-04
 -1     26987 9.30730E-03 2.20509E-01-7.29251E-04
 -1     26988 3.65640E-03 1.61501E-01 1.35823E-03
 -1     26989 4.32403E-03 1.45311E-01-8.59024E-04
 -1     26990 3.78280E-02 9.79581E-01-3.78449E-04
 -1     26991 6.10039E-02 1.32387E+00-1.47684E-04
 -1     26992 5.21245E-02 2.78672E-01-4.57256E-04
 -1     26993 1.56766E-02 3.53762E-01-7.14977E-04
 -1     26994 3.69016E-03 1.74308E-01 8.55789E-04
 -1     26995 3.51064E-03 2.05745E-01 1.88536E-03
 -1     26996 1.44010E-02 3.70767E-01-1.89498E-03
 -1     26997 3.38092E-02 7.50062E-01-7.63795E-04
 -1     26998 4.58751E-02 7.38006E-01 7.38769E-05
 -1     26999 6.96602E-02 1.75206E+00 9.51681E-05
 -1     27000-1.50364E+01 2.48305E+01-9.66039E-03
 -1     27001-1.57073E+01 2.37992E+01 8.53392E-03
 -1     27002 9.07551E-02 1.67953E+00-5.37904E-04
 -1     27003-1.37264E+01 2.59740E+01 7.04634E-03
 -1     27004 9.16663E-04 2.29588E-01 2.74488E-04
 -1     27005-4.96681E+00 2.26492E+01-1.60434E-03
 -1     27006-4.65562E+00 2.20443E+01 1.99087E-03
 -1     27007-5.45504E+00 2.28826E+01 1.19641E-03
 -1     27008 3.77119E-02 1.35203E+00-5.10585E-04
 -1     27009 2.49503E-02 1.19354E+00 2.71757E-04
 -1     27010-9.05282E+00 1.63411E+01-8.40442E-04
 -1     27011-9.65134E+00 1.59551E+01 2.49312E-03
 -1     27012 1.23077E+00 5.31945E+00 1.83387E-04
 -1     27013 7.89126E-01 3.68030E+00-2.28838E-04
 -1     27014-3.61811E+00 1.33889E+01 2.40572E-04
 -1     27015-1.40573E+01 1.75294E+01-4.99844E-04
 -1     27016-1.34411E+01 1.72165E+01-1.93029E-03
 -1     27017-1.37660E+01 1.69578E+01 1.63457E-04
 -1     27018-1.45386E+01 1.75767E+01 6.07503E-04
 -1     27019-1.39108E+01 1.72637E+01-1.40857E-03
 -1     27020 8.81386E-02 1.87259E+00-8.82620E-04
 -1     27021 1.17441E-01 1.98703E+00 5.26140E-04
 -1     27022 8.80028E-01 3.44064E+00 8.03945E-05
 -1     27023 9.18140E-01 3.33552E+00-5.76113E-04
 -1     27024 8.10573E-01 3.15164E+00 1.60421E-04
 -1     27025 8.20671E-01 3.27682E+00 4.76772E-04
 -1     27026 2.40824E-01 1.79187E+00 7.13419E-04
 -1     27027-1.05137E+01 1.40327E+01-4.62678E-04
 -1     27028-9.76284E+00 1.37510E+01-1.63423E-03
 -1     27029 6.61215E-01 2.49276E+00-1.32703E-04
 -1     27030 8.44770E-01 3.03994E+00-1.34653E-04
 -1     27031-3.52687E+00 1.99328E+01 2.94428E-04
 -1     27032-3.21528E+00 1.96820E+01 1.94977E-03
 -1     27033-3.28207E+00 2.03334E+01 1.96365E-03
 -1     27034-3.60132E+00 2.05876E+01 5.64339E-04
 -1     27035-3.15331E+00 2.00094E+01 2.22091E-04
 -1     27036 9.47557E-01 3.63558E+00-6.07215E-04
 -1     27037 5.19047E-01 2.21082E+00-5.02059E-04
 -1     27038 8.61599E-01 3.36297E+00 4.69701E-04
 -1     27039 9.39876E-01 3.21737E+00 2.47583E-04
 -1     27040-7.09384E+00 1.24706E+01-5.33276E-04
 -1     27041-1.26917E+01 1.36718E+01 2.23957E-04
 -1     27042-1.25336E+01 1.28898E+01-7.33697E-04
 -1     27043-1.29343E+01 1.35670E+01 2.09478E-04
 -1     27044-7.75203E+00 9.82045E+00-2.12847E-04
 -1     27045-7.43969E+00 9.23678E+00 1.08228E-03
 -1     27046-7.06054E+00 9.59309E+00-9.22027E-04
 -1     27047 6.70630E-01 1.83744E+00 3.82187E-05
 -1     27048 2.97242E-01 1.90856E+00 1.31709E-04
 -1     27049 3.59207E-01 2.04622E+00 3.90836E-04
 -1     27050 7.38902E-05 1.09075E-01 2.82661E-04
 -1     27051 7.94282E-05 1.08796E-01 7.28976E-04
 -1     27052 1.06789E-03 3.37164E-01-8.80434E-05
 -1     27053 9.16883E-04 2.29000E-01 1.27244E-03
 -1     27054 7.80327E-05 1.09438E-01 3.20059E-05
 -1     27055 8.93357E-04 2.30432E-01-4.14387E-04
 -1     27056-6.15096E-01 8.25263E-01-7.37452E-04
 -1     27057-8.25085E-01 1.24314E+00 1.09716E-03
 -1     27058-8.35428E+00 1.34593E+01-2.83595E-05
 -1     27059-8.55523E+00 1.40454E+01 1.41954E-04
 -1     27060-7.51428E+00 1.32198E+01-1.51019E-05
 -1     27061-3.34878E+00 3.89857E+00 1.84196E-04
 -1     27062-3.58506E+00 4.24966E+00-2.14925E-04
 -1     27063-1.04997E+01 2.45414E+01-3.98199E-04
 -1     27064-9.91797E+00 2.33194E+01-2.28408E-03
 -1     27065-1.03782E+01 2.31638E+01 3.22025E-04
 -1     27066-9.46042E+00 2.31390E+01-5.25360E-04
 -1     27067-1.28356E-01 1.22290E-01 9.54998E-04
 -1     27068 2.12955E-02 2.29915E-01 1.30042E-03
 -1     27069 5.07623E-03 9.79153E-02 1.75053E-04
 -1     27070 2.21719E-02 2.56819E-01 6.89620E-04
 -1     27071-2.92150E+00 1.85498E+01 1.53420E-03
 -1     27072-3.86054E+00 1.93415E+01 1.04240E-03
 -1     27073-2.79918E+00 1.82413E+01 6.04022E-04
 -1     27074-3.72160E+00 1.90256E+01 9.87223E-04
 -1     27075-2.30571E-01 2.05139E-01 6.08397E-03
 -1     27076-2.69101E-01 2.47980E-01-2.74049E-03
 -1     27077-3.38569E+00 1.78916E+01 2.18854E-03
 -1     27078-2.25633E+00 1.82586E+01 7.87516E-04
 -1     27079-3.10633E+00 1.91904E+01 1.17431E-03
 -1     27080 6.42797E-01 1.72206E+00-3.46380E-04
 -1     27081 6.38171E-01 1.84133E+00 1.10071E-04
 -1     27082-1.87702E+01 2.65578E+01 3.87270E-04
 -1     27083 5.80125E-01 1.75051E+00-1.23115E-04
 -1     27084 6.52655E-01 2.01726E+00 1.80150E-04
 -1     27085-1.53973E+01 1.86284E+01 6.32050E-04
 -1     27086-1.43065E+01 1.84744E+01 3.45578E-04
 -1     27087-1.58006E+01 1.92416E+01 5.33612E-04
 -1     27088-1.50714E+01 1.87827E+01-4.39381E-05
 -1     27089-1.46858E+01 1.90897E+01-8.03582E-04
 -1     27090-1.36481E+01 2.04544E+01-2.93715E-04
 -1     27091-1.43153E+01 1.96382E+01-1.15029E-03
 -1     27092-1.26511E+01 2.02262E+01 1.37294E-03
 -1     27093-1.32763E+01 1.94125E+01 3.94398E-03
 -1     27094 5.63205E-01 1.57775E+00-7.38688E-04
 -1     27095 4.89289E-02 2.97158E-01 1.07402E-03
 -1     27096 4.92444E-02 2.90291E-01 7.04316E-04
 -1     27097 8.69487E-02 4.10129E-01 2.23467E-03
 -1     27098 4.70795E-02 3.31803E-01-3.34018E-04
 -1     27099-2.62792E-01 1.12932E+01 1.56847E-04
 -1     27100-3.67431E-01 1.06142E+01-1.18757E-05
 -1     27101-6.00077E-01 1.11307E+01-4.46277E-04
 -1     27102-5.76768E+00 4.31847E+00 3.50442E-07
 -1     27103 8.48899E-01 8.46685E+00 4.35304E-05
 -1     27104 9.69485E-01 8.01389E+00-1.51981E-04
 -1     27105-1.78736E-03-1.26898E-02-1.06530E-03
 -1     27106-1.86851E-03-2.10138E-02-3.11605E-04
 -1     27107-1.84027E-03-1.64538E-02-2.32558E-03
 -1     27108 5.31008E-04-7.78296E-03 7.52921E-04
 -1     27109 2.08867E-03-8.46444E-03 4.61958E-04
 -1     27110-7.16025E+00 1.25449E+01-1.64308E-04
 -1     27111-6.46700E+00 1.23833E+01-2.68439E-04
 -1     27112-3.78879E-02 7.26171E-02-8.99974E-03
 -1     27113-7.93033E-02 1.56297E-01-3.74650E-03
 -1     27114-2.30605E-02 8.17732E-02 2.39645E-03
 -1     27115-1.02528E-02 3.15273E-02-1.63348E-02
 -1     27116-1.54895E-02 4.84273E-02-2.21447E-03
 -1     27117-4.58775E+00 1.03639E+01 3.76962E-05
 -1     27118-1.54358E+01 1.94893E+01-3.60944E-03
 -1     27119-1.46566E+01 1.91765E+01-1.77305E-03
 -1     27120-1.74971E+01 2.61063E+01 1.46431E-03
 -1     27121-1.77546E+01 2.56447E+01 1.99933E-03
 -1     27122-1.77056E+01 2.68637E+01-1.58437E-02
 -1     27123-1.79630E+01 2.68888E+01 1.72159E-03
 -1     27124-1.19051E+01 2.31948E+01 8.09401E-03
 -1     27125-1.28293E+01 2.33126E+01-3.97606E-03
 -1     27126 1.54998E-03-4.74820E-02 4.63714E-04
 -1     27127 3.57268E-03-5.50120E-02 1.28208E-03
 -1     27128 3.03302E-04-2.16061E-02 3.55533E-04
 -1     27129 3.03765E-03-6.44946E-02 3.15812E-04
 -1     27130 5.93995E-03-6.83635E-02 1.23966E-04
 -1     27131 2.28380E-04-6.43375E-02 4.34138E-04
 -1     27132 7.35085E-01 8.89619E+00-3.31429E-04
 -1     27133 8.02709E-01 7.86363E+00-5.00137E-05
 -1     27134-2.41084E+00 9.78529E+00 1.51063E-04
 -1     27135 1.77238E-03-6.53732E-02-8.39428E-04
 -1     27136 2.13110E-03-7.68757E-02-8.36128E-05
 -1     27137 2.58140E-03-9.91902E-02-9.56524E-04
 -1     27138-9.51128E+00 2.53054E+01-3.87245E-03
 -1     27139-9.05034E+00 2.51108E+01-3.78470E-03
 -1     27140-5.71802E+00 2.20085E+01-2.18929E-03
 -1     27141-1.50626E+01 2.60095E+01-4.77350E-03
 -1     27142-1.13485E+01 1.42973E+01 1.08499E-03
 -1     27143-1.07990E+01 1.48365E+01-1.72857E-03
 -1     27144 6.19204E-01 1.70399E+00-2.97414E-05
 -1     27145-7.91895E+00 7.84404E+00 8.02428E-05
 -1     27146-8.25815E+00 8.35147E+00-8.42634E-04
 -1     27147-1.17004E+01 1.20602E+01 3.25592E-04
 -1     27148-1.18374E+01 1.19491E+01 1.28014E-04
 -1     27149-1.10273E+01 1.15119E+01-6.14229E-05
 -1     27150-1.14091E+01 1.21974E+01-2.62987E-04
 -1     27151-1.15453E+01 1.20829E+01 4.96778E-04
 -1     27152-1.05858E+01 1.08507E+01 8.67012E-05
 -1     27153-8.38234E+00 7.76150E+00 2.38273E-05
 -1     27154-8.61183E+00 8.07868E+00 9.13349E-05
 -1     27155-8.73105E+00 8.24700E+00 7.01440E-05
 -1     27156-8.55795E+00 2.50325E+01-2.80756E-03
 -1     27157-7.85759E+00 2.45508E+01 1.34171E-03
 -1     27158-1.03181E+01 2.54356E+01-4.06493E-03
 -1     27159-9.61160E+00 2.20424E+01 3.11496E-03
 -1     27160-1.29069E+01 2.35936E+01-5.15082E-03
 -1     27161-1.23504E+01 2.44943E+01 2.41676E-03
 -1     27162-1.31383E+01 2.50024E+01-2.85699E-03
 -1     27163-1.36351E+01 2.37896E+01-8.92966E-03
 -1     27164-1.30543E+01 2.47096E+01-2.16946E-03
 -1     27165-1.10785E+01 2.30593E+01 1.66392E-03
 -1     27166-1.12493E+01 2.32885E+01 6.07456E-03
 -1     27167-1.16025E+01 2.43010E+01 3.29625E-05
 -1     27168-3.11807E+00 3.57025E+00 8.76670E-04
 -1     27169-3.31683E+00 3.42314E+00-5.29950E-04
 -1     27170-2.88714E+00 2.11262E+00 1.92094E-03
 -1     27171-1.92744E-01 1.58308E-01 5.86374E-03
 -1     27172 1.18704E-02-5.29269E-02 7.75501E-06
 -1     27173 2.45410E-02-6.17617E-02-2.83812E-04
 -1     27174 8.43598E-03-6.60991E-02 1.11202E-03
 -1     27175 8.15620E-01 1.04877E+01 3.66983E-04
 -1     27176 7.69304E-01 1.01244E+01 6.99426E-04
 -1     27177 8.00649E-01 1.00961E+01-9.07089E-05
 -1     27178 6.74627E-01 1.05863E+01-1.54239E-04
 -1     27179 6.90067E-01 9.99255E+00 3.26935E-04
 -1     27180-1.01752E+01 2.32270E+01 1.77211E-03
 -1     27181-1.05005E+01 2.18689E+01 1.29976E-03
 -1     27182-9.02907E+00 2.10823E+01 2.43071E-03
 -1     27183-9.76170E+00 2.11419E+01-3.43785E-03
 -1     27184-9.33878E+00 2.01092E+01 4.76240E-03
 -1     27185-1.84705E+00 1.05263E+01-2.93708E-04
 -1     27186-1.71860E+00 1.12030E+01-2.33666E-04
 -1     27187-1.42724E+00 1.06703E+01-4.59594E-04
 -1     27188-1.72192E+00 1.62150E+00-4.45478E-04
 -1     27189-1.03181E+01 1.53193E+01-1.42305E-03
 -1     27190-1.10938E+01 1.56333E+01 1.20438E-03
 -1     27191-1.13691E+01 1.65006E+01-5.75951E-04
 -1     27192-1.05867E+01 1.61846E+01-8.44381E-04
 -1     27193-1.07650E+00 8.47372E+00 4.10718E-05
 -1     27194-8.21962E-01 8.02681E+00 1.40962E-03
 -1     27195-9.06317E-02 2.28055E-01 1.12927E-04
 -1     27196-1.40588E-01 3.01087E-01 3.07191E-03
 -1     27197-2.77799E-02 1.23701E-01 3.99883E-03
 -1     27198-1.72454E+00 6.25647E+00 5.81447E-05
 -1     27199 3.63088E-02 2.69512E-02 5.11513E-04
 -1     27200 3.53888E-02-1.83871E-03-9.43403E-04
 -1     27201 1.51831E-02-9.99099E-03 1.25461E-03
 -1     27202 4.91016E-03 6.75437E-01-1.23380E-03
 -1     27203 3.48253E-04-2.06690E-02 4.69845E-04
 -1     27204 3.18051E-04-2.26519E-02-7.32216E-05
 -1     27205-4.84998E+00 1.23436E+01 5.48626E-04
 -1     27206-4.24324E+00 1.26166E+01 3.68827E-04
 -1     27207-1.76904E+00 1.70081E+01 1.90001E-04
 -1     27208-2.10451E+00 1.76955E+01 6.32653E-04
 -1     27209-2.19720E+00 1.74743E+01-1.00019E-04
 -1     27210 1.24569E-01 2.04382E-01-1.33005E-03
 -1     27211 1.31746E-01 2.56949E-01-2.14403E-03
 -1     27212-1.32710E-01 1.44421E-01-1.00490E-03
 -1     27213-1.34464E-02 3.42944E-02 3.75289E-04
 -1     27214-1.37976E+01 2.34441E+01-4.98914E-03
 -1     27215-1.46358E+01 2.37308E+01 4.56458E-04
 -1     27216 1.03709E-03-8.81877E-02 1.85031E-03
 -1     27217 1.34821E-03-1.16699E-01 7.01136E-04
 -1     27218 4.37709E-02 1.17067E-01 6.91636E-04
 -1     27219-1.13886E+00 1.01633E+01 7.35759E-04
 -1     27220 2.55328E-01 1.08694E+01 3.57676E-04
 -1     27221-2.61562E+00 6.56584E+00 5.58449E-04
 -1     27222 2.59660E-03 2.79327E-01-1.02648E-03
 -1     27223-1.76200E+00 5.89825E+00-1.62302E-04
 -1     27224-1.67015E+00 5.72840E+00-3.04380E-04
 -1     27225-1.61908E+00 5.15853E+00 2.26375E-04
 -1     27226 6.33226E-02 1.63291E+00-4.49704E-04
 -1     27227 8.31801E-02 1.81546E+00 4.45558E-04
 -1     27228 5.61693E-02 1.48390E+00-1.33059E-04
 -1     27229 7.62341E-02 1.66726E+00-5.69932E-05
 -1     27230 2.09544E-03-9.68583E-02 1.81950E-03
 -1     27231 2.69233E-03-1.08987E-01-3.07604E-03
 -1     27232-7.98551E+00 2.17541E+01-1.50310E-03
 -1     27233-7.84429E+00 1.50713E+01-8.65743E-04
 -1     27234-7.29553E+00 1.38556E+01 1.83599E-04
 -1     27235-3.11494E+00 8.43283E+00 6.93246E-04
 -1     27236-8.98902E-01 1.37952E+01 3.62544E-04
 -1     27237-9.78991E-01 1.28984E+01 1.10033E-03
 -1     27238-1.33894E+00 1.33632E+01-4.78864E-04
 -1     27239-9.05268E-01 1.38005E+01 4.65848E-04
 -1     27240 8.12967E-01 9.51699E+00 3.68272E-04
 -1     27241 1.25703E+00 8.72454E+00-2.29813E-04
 -1     27242 1.18293E+00 8.02941E+00 8.02243E-05
 -1     27243 1.23983E+00 8.87945E+00 1.15759E-04
 -1     27244 1.22366E+00 8.05337E+00-1.55365E-04
 -1     27245 2.18821E-01 4.24912E-01 7.22148E-04
 -1     27246 2.58728E-01 5.26252E-01 1.89452E-04
 -1     27247 2.95259E-01 6.39615E-01 3.34297E-04
 -1     27248 3.25751E-01 7.69419E-01 1.91892E-04
 -1     27249-1.49127E+01 1.97922E+01 1.08473E-03
 -1     27250-1.57020E+01 2.01065E+01 1.24411E-03
 -1     27251 1.45159E-03-4.89467E-02-2.18549E-04
 -1     27252 1.62504E-03 4.74400E-01-7.78347E-04
 -1     27253-1.84163E-03-5.70756E-03 3.24242E-03
 -1     27254-1.26566E+00 1.12263E+00 3.79307E-03
 -1     27255-1.79139E+00 1.43194E+00 5.04838E-03
 -1     27256-1.86608E+00 1.46902E+00-3.69007E-03
 -1     27257 3.33729E-03-1.05265E-01 9.86689E-04
 -1     27258-3.99295E-01 4.42396E-01 2.11373E-04
 -1     27259-5.62207E-02 3.27362E-01 2.01786E-02
 -1     27260-5.58223E-02 2.90660E-01 3.70331E-02
 -1     27261 2.39028E-01 6.52943E+00 1.71056E-04
 -1     27262-3.77759E-01 6.58692E-01 1.20244E-02
 -1     27263-3.72076E-02 2.98832E-01 1.58325E-02
 -1     27264-4.38959E+00 4.73049E+00 2.51377E-04
 -1     27265-4.90234E+00 4.92115E+00-6.10255E-05
 -1     27266-8.71474E+00 7.49088E+00-1.36249E-04
 -1     27267-8.53132E+00 7.26070E+00 3.18872E-04
 -1     27268-8.94823E+00 7.78927E+00-8.23895E-05
 -1     27269 6.75712E-04-4.90167E-02 6.71536E-05
 -1     27270-5.14171E+00 4.75080E+00 1.15956E-04
 -1     27271-4.89038E+00 4.92390E+00 3.44558E-04
 -1     27272 1.16414E-01 1.29725E+00-1.02175E-03
 -1     27273 1.34383E-01 1.23228E+00-3.18063E-04
 -1     27274-4.23680E+00 3.09881E+00 3.02562E-04
 -1     27275-4.53392E+00 3.35882E+00 2.04158E-04
 -1     27276-4.71608E+00 3.30299E+00-2.61896E-04
 -1     27277 5.82224E-03 4.97468E-01 2.27444E-05
 -1     27278 3.87571E-03 3.23999E-01 9.89294E-05
 -1     27279 2.19010E-02 2.04829E-01 7.81975E-04
 -1     27280-1.01355E+00 1.66524E+01-3.81477E-05
 -1     27281-4.23315E+00 1.61114E+01 6.41938E-04
 -1     27282-4.80471E-01 1.42322E+01-4.00632E-04
 -1     27283-8.96214E-01 1.37792E+01-6.82019E-04
 -1     27284-5.65479E-01 1.33124E+01-1.18309E-04
 -1     27285 1.37239E-01 9.55665E-01-5.87734E-04
 -1     27286 7.51308E-01 2.48801E+00 3.70626E-04
 -1     27287 3.52797E-03 2.87203E-02 9.53893E-04
 -1     27288-4.99507E+00 3.74725E+00-2.84739E-04
 -1     27289 3.34033E-02-2.06226E-03 4.18034E-05
 -1     27290 5.81341E-01 3.11545E+00 3.57008E-05
 -1     27291 6.04835E-01 3.17188E+00 7.57715E-04
 -1     27292 5.30872E-01 2.94660E+00-5.74177E-04
 -1     27293 5.54419E-01 2.99930E+00-3.89022E-04
 -1     27294 1.25483E+00 5.29189E+00-7.41632E-04
 -1     27295 1.69693E-03-6.56736E-02-1.46456E-04
 -1     27296-8.08123E+00 7.35346E+00 5.92608E-05
 -1     27297-7.13975E+00 6.98292E+00-2.38479E-04
 -1     27298-8.08132E+00 7.35362E+00 1.24039E-04
 -1     27299 1.46719E-02 2.44595E-02 8.25378E-05
 -1     27300 1.90594E-02 4.71074E-02-5.30979E-04
 -1     27301 2.08654E-03-1.23548E-04-4.17317E-05
 -1     27302-9.55339E+00 1.49933E+01-9.29152E-04
 -1     27303-9.28431E+00 1.42347E+01 1.78082E-03
 -1     27304-1.00382E+01 1.45536E+01-2.41182E-03
 -1     27305 4.21572E-01 2.69892E+00-4.77359E-04
 -1     27306 5.13053E-01 2.63309E+00 1.36169E-04
 -1     27307 4.45343E-01 2.87141E+00-4.98266E-04
 -1     27308 1.22066E+00 7.53998E+00 7.55125E-05
 -1     27309 1.24386E+00 7.13123E+00-1.53047E-04
 -1     27310-1.05007E-02 7.85605E+00-2.78491E-04
 -1     27311-9.48135E-02 7.31435E+00 9.50270E-05
 -1     27312 1.12597E-03-3.00214E-02-6.87668E-04
 -1     27313 2.29133E-03-5.52102E-03-2.32985E-04
 -1     27314 8.65845E-03-2.11123E-03-7.66797E-04
 -1     27315 2.29686E-03-2.33482E-03-3.54011E-04
 -1     27316 2.07050E-03-9.96245E-03 6.95804E-04
 -1     27317 1.09716E+00 4.89491E+00 3.49798E-04
 -1     27318 9.68759E-01 4.68451E+00-9.00830E-04
 -1     27319 1.00531E+00 4.40947E+00 2.11755E-04
 -1     27320-1.56690E+01 2.01989E+01 4.86876E-05
 -1     27321 3.73587E-01 2.52458E+00-5.87705E-05
 -1     27322 5.71799E-01 2.54498E+00-4.44633E-04
 -1     27323-1.03151E+01 1.09354E+01-2.88256E-04
 -1     27324-1.17061E+01 1.17381E+01-1.66519E-04
 -1     27325-8.25755E+00 7.59077E+00 5.31894E-04
 -1     27326-7.22348E+00 8.43042E+00-3.84651E-04
 -1     27327-7.89990E+00 8.65050E+00 1.09197E-03
 -1     27328 2.47088E-02 1.28645E+00-6.92983E-04
 -1     27329 3.18759E-02 1.38863E+00-3.01778E-04
 -1     27330 5.98776E-01 1.92565E+00-3.25272E-04
 -1     27331 2.06089E-01 1.87823E+00-5.69960E-04
 -1     27332 3.22017E-01 1.87550E+00 4.48751E-05
 -1     27333 2.83615E-01 2.07298E+00 4.60432E-04
 -1     27334 2.18233E-01 2.34121E+00 2.05253E-04
 -1     27335 8.88005E-02 3.64201E-01 1.10543E-03
 -1     27336 5.18123E-02 2.76020E-01 2.06728E-03
 -1     27337-6.01679E-01 1.30759E+01 5.52681E-04
 -1     27338-7.23658E-01 1.23266E+01 8.81699E-04
 -1     27339-6.72786E+00 5.21985E+00 1.62343E-04
 -1     27340-6.95405E+00 5.46196E+00 9.03102E-05
 -1     27341-9.77349E-01 3.26704E+00-1.54458E-04
 -1     27342-1.10539E+00 1.21576E+01-6.38733E-04
 -1     27343-1.01755E+00 9.43275E-01-2.95263E-03
 -1     27344-2.15328E+00 1.63161E+00-1.05066E-03
 -1     27345-2.03205E+00 1.57140E+00 2.28672E-04
 -1     27346-1.45687E+00 3.16660E+00 9.14058E-04
 -1     27347-1.15716E+00 3.03550E+00-1.57619E-03
 -1     27348-1.27980E+00 3.37040E+00-1.64485E-04
 -1     27349-2.05776E+00 1.79393E+00 2.23359E-03
 -1     27350-2.24531E+00 5.04416E+00 6.01304E-04
 -1     27351 1.10815E+00 9.69650E+00-7.29882E-05
 -1     27352 1.33368E+00 6.53535E+00 3.03822E-04
 -1     27353 1.31407E+00 6.41280E+00-1.30083E-04
 -1     27354 1.33323E+00 6.64498E+00 5.42180E-04
 -1     27355-5.27895E+00 1.06118E+01-6.18954E-04
 -1     27356-5.05824E+00 9.96354E+00-1.31312E-05
 -1     27357-5.65288E+00 1.01659E+01-2.35686E-04
 -1     27358 1.15135E+00 5.99829E+00-2.23731E-04
 -1     27359 1.20632E+00 5.75647E+00-1.38113E-03
 -1     27360 1.16030E+00 6.60026E+00 7.10104E-05
 -1     27361 1.16282E+00 6.61381E+00 1.92436E-04
 -1     27362 1.18164E+00 9.33051E+00 6.22159E-04
 -1     27363-9.00352E-02 8.94838E-03 3.14671E-04
 -1     27364-1.65406E-01 1.15353E-01-3.25776E-04
 -1     27365 5.20344E-03-5.12085E-02 1.58496E-03
 -1     27366 9.95125E-04-2.83593E-02 6.57622E-04
 -1     27367 1.07704E-03-2.36151E-02 1.10367E-03
 -1     27368 1.12080E-03-2.87409E-02 1.69713E-03
 -1     27369 3.85583E-01 1.60703E+00-8.48621E-05
 -1     27370 3.93991E-01 1.49819E+00 7.83525E-05
 -1     27371 4.94575E-01 1.85449E+00-6.12579E-04
 -1     27372-1.24330E+01 1.59041E+01-5.06195E-04
 -1     27373-1.36439E+01 1.61492E+01-1.20433E-03
 -1     27374-1.40498E+01 1.59179E+01-6.63022E-04
 -1     27375-1.43248E+01 1.65810E+01-1.49747E-03
 -1     27376-1.37584E+01 1.53723E+01-1.19113E-03
 -1     27377 1.48904E-02 7.45694E-02 1.06537E-03
 -1     27378-1.29854E+01 1.84404E+01-1.88378E-03
 -1     27379-1.19965E+01 1.82854E+01-2.94152E-04
 -1     27380-1.86343E-01 1.75101E-01-2.64930E-03
 -1     27381-2.89998E-01 3.58645E-01 9.55281E-04
 -1     27382-3.98535E-01 4.39349E-01-2.27319E-03
 -1     27383-1.10136E-01 5.61025E-02-1.83823E-03
 -1     27384 3.14393E-01 7.03379E+00 8.61566E-05
 -1     27385-1.56410E+01 1.91434E+01 1.74635E-04
 -1     27386-1.68977E+01 2.54723E+01-5.94807E-03
 -1     27387-3.50492E-02 1.92554E-01 1.79531E-02
 -1     27388 1.82004E-01 1.38252E+00 1.22239E-03
 -1     27389 1.63627E-01 1.45878E+00-7.74271E-04
 -1     27390 5.72864E-04 6.40928E-02 1.81011E-04
 -1     27391 3.67075E-04 7.92139E-02 2.33391E-04
 -1     27392-9.88056E+00 1.02438E+01-5.36905E-04
 -1     27393-1.15728E+01 1.15279E+01 7.47216E-05
 -1     27394 3.46050E-01 9.07238E-01 1.12450E-04
 -1     27395 3.62765E-01 1.07318E+00 1.90802E-04
 -1     27396 1.68556E-03 6.46772E-02 3.32239E-04
 -1     27397 1.33020E-02 1.94082E-01 1.11936E-03
 -1     27398 3.44520E-03 9.19807E-02 6.42408E-04
 -1     27399 1.02307E-02 1.70874E-01 1.06867E-03
 -1     27400-2.74820E-01 3.81566E+00-2.27819E-04
 -1     27401 1.96753E-01 1.31726E+00-7.50746E-04
 -1     27402 2.31994E-01 1.48935E+00 1.74236E-03
 -1     27403-1.44917E+01 1.66749E+01 2.87521E-04
 -1     27404-1.49302E+01 1.75431E+01 1.04771E-03
 -1     27405-1.40753E+01 1.69161E+01-9.92862E-04
 -1     27406-1.17316E+00 7.89690E+00-2.01958E-04
 -1     27407-9.08687E-02 4.26199E-02-7.16843E-03
 -1     27408-7.50933E-03-1.47148E-02-3.96532E-03
 -1     27409-1.12764E-02 1.75753E-03-3.61556E-03
 -1     27410 1.44921E-01 1.17249E+00-8.53556E-04
 -1     27411 6.91363E-01 9.99398E+00 8.75999E-04
 -1     27412 4.21755E-01 1.03675E+01 1.81698E-04
 -1     27413 6.83288E-01 2.34948E+00 6.56219E-05
 -1     27414-2.34881E-01 6.74509E-01-1.32897E-03
 -1     27415-2.20668E-01 9.90982E-01-2.00283E-03
 -1     27416-6.33586E-01 9.19288E+00 6.24885E-04
 -1     27417-9.83734E-01 9.04764E+00-7.43112E-05
 -1     27418-9.13834E+00 1.05555E+01-1.46470E-04
 -1     27419-9.90962E+00 1.08034E+01-6.92618E-04
 -1     27420 4.45310E-01 1.52417E+00 8.99020E-04
 -1     27421-9.55935E+00 1.01999E+01-9.39499E-05
 -1     27422-8.81089E+00 9.96326E+00-3.81420E-04
 -1     27423-9.20210E+00 9.62213E+00 8.00702E-04
 -1     27424 6.59412E-01 2.48392E+00 7.61053E-04
 -1     27425 3.29026E-01 9.71630E+00 2.41847E-04
 -1     27426-3.14992E+00 2.20811E+00 1.67827E-03
 -1     27427 1.14205E-03-2.78974E-02 6.70982E-04
 -1     27428 2.60299E-03-4.53209E-02 7.77345E-04
 -1     27429 3.59606E-04-2.15358E-02 4.41401E-04
 -1     27430-2.48529E+00 1.81738E+00-1.49201E-03
 -1     27431-2.48290E+00 1.78353E+00-6.14875E-04
 -1     27432-5.35162E-02 1.35609E-01 8.18993E-03
 -1     27433-1.13849E-01 3.58676E-01 8.78290E-03
 -1     27434-1.12847E-01 3.13096E-01 5.32117E-03
 -1     27435-8.67180E-01 9.47152E-01-1.51346E-02
 -1     27436 2.00457E-04-6.42909E-02 1.35181E-03
 -1     27437-6.63276E-03-2.53118E-02-1.38552E-03
 -1     27438-7.38433E-02 2.33111E-03 8.57046E-04
 -1     27439-1.20393E-02-2.06896E-02 3.73756E-03
 -1     27440 1.09660E+00 4.38653E+00-1.89761E-04
 -1     27441 1.12706E+00 4.76823E+00 4.02265E-04
 -1     27442 1.17493E+00 4.73729E+00 2.58472E-04
 -1     27443 5.37994E-02 7.02378E-01-2.54335E-04
 -1     27444 3.79520E-01 2.72026E+00-3.36186E-04
 -1     27445 3.46846E-01 2.65055E+00-1.45554E-05
 -1     27446 1.35333E-01 4.54704E-01-1.35237E-03
 -1     27447 1.39802E-01 4.72031E-01 1.55793E-03
 -1     27448-2.94822E+00 2.03713E+00 1.45564E-04
 -1     27449-2.68265E+00 1.90285E+00-1.47511E-03
 -1     27450-2.58422E+00 1.84054E+00-4.55195E-04
 -1     27451 1.19133E+00 4.58603E+00-2.18988E-04
 -1     27452 1.26995E+00 5.46133E+00-3.61453E-04
 -1     27453 1.26525E+00 5.44148E+00 3.03789E-05
 -1     27454 1.22273E+00 4.92165E+00-8.13307E-05
 -1     27455-8.16637E+00 6.87040E+00 9.74206E-04
 -1     27456-8.34732E+00 7.09270E+00 7.50858E-04
 -1     27457-7.98696E+00 6.65387E+00 3.10318E-04
 -1     27458 1.24174E+00 5.45133E+00-1.45807E-04
 -1     27459 1.21197E+00 5.25768E+00 9.59737E-04
 -1     27460 1.19669E+00 5.16318E+00 2.41932E-04
 -1     27461-1.16428E+01 1.73700E+01-1.02583E-03
 -1     27462-4.43252E+00 3.06856E+00-8.76688E-05
 -1     27463-3.85982E+00 8.06291E+00 2.06814E-04
 -1     27464-3.29186E+00 7.91436E+00 7.01282E-05
 -1     27465-4.30234E+00 3.35848E+00 3.67723E-04
 -1     27466-4.11039E+00 3.44642E+00-3.43361E-04
 -1     27467-4.59513E+00 3.64243E+00-2.69112E-04
 -1     27468 7.24418E-01 2.29219E+00 2.93004E-04
 -1     27469-4.01547E+00 3.09035E+00 1.59793E-04
 -1     27470 1.32780E+00 6.86385E+00-4.09844E-04
 -1     27471 1.59748E-01 1.10486E+00 1.05207E-03
 -1     27472-6.53775E+00 5.05175E+00-1.63574E-04
 -1     27473 2.05447E-01 1.18454E+00-9.30428E-05
 -1     27474 1.78138E-01 1.40754E+00-2.91006E-04
 -1     27475 2.74080E-01 1.41994E+00-2.60122E-04
 -1     27476-5.43309E+00 5.12208E+00 1.63340E-04
 -1     27477 7.61195E-02 8.42681E+00 2.64224E-04
 -1     27478 4.20199E-01 1.03660E+01 8.35279E-04
 -1     27479-7.42939E+00 6.46840E+00 2.69059E-05
 -1     27480-6.98752E+00 6.12070E+00 2.80508E-04
 -1     27481-7.09091E+00 6.04935E+00 7.18974E-05
 -1     27482-4.38874E-01 1.26326E+01-3.52340E-04
 -1     27483-7.25051E-01 1.23369E+01 6.95187E-04
 -1     27484-4.88238E-01 1.18276E+01-8.83485E-05
 -1     27485-7.08048E+00 5.60048E+00-1.57438E-05
 -1     27486-6.92948E+00 5.66752E+00 3.08041E-05
 -1     27487-7.50643E+00 6.02670E+00-1.90539E-04
 -1     27488-7.37719E+00 5.88140E+00-1.25458E-04
 -1     27489-5.90588E+00 5.39692E+00-7.59136E-05
 -1     27490 1.31623E-01 5.03686E-01-3.51725E-04
 -1     27491 1.76171E-01 6.55908E-01-1.16429E-03
 -1     27492 4.33793E-02 4.20891E-01-2.54207E-03
 -1     27493 7.25400E-02 5.94614E-01-3.45021E-04
 -1     27494 7.42714E-02 5.46831E-01-1.60360E-03
 -1     27495-9.10979E+00 2.41060E+01-1.54468E-03
 -1     27496-1.30253E+01 1.39274E+01 1.68266E-04
 -1     27497-1.59271E+01 2.27071E+01 1.05311E-03
 -1     27498-1.57300E+01 2.17003E+01-2.73911E-03
 -1     27499-1.60144E+01 1.98574E+01 6.40157E-04
 -1     27500-1.59515E+01 2.04930E+01 1.62088E-03
 -1     27501-1.65793E+01 2.07745E+01 1.63148E-03
 -1     27502-1.77945E+00 3.28863E+00-4.00845E-04
 -1     27503 2.29279E-01 1.25551E+00 5.32430E-04
 -1     27504 2.69884E-01 1.42481E+00-7.51068E-04
 -1     27505-6.32522E-02 2.02298E-01 1.58964E-03
 -1     27506 4.42432E-03 3.14885E-02 3.16485E-03
 -1     27507-2.99555E-02 1.21707E-01 4.51246E-03
 -1     27508 8.87366E-01 2.79041E+00-3.45321E-04
 -1     27509 9.54541E-01 3.10569E+00 2.50488E-04
 -1     27510 1.32508E-01 2.03280E+00-2.21667E-04
 -1     27511 9.80916E-02 1.89597E+00 7.51372E-04
 -1     27512-6.76795E+00 2.37504E+01 5.67315E-04
 -1     27513-6.83715E+00 2.35408E+01 6.67613E-04
 -1     27514-6.24940E+00 2.27595E+01-4.76325E-04
 -1     27515 6.48528E-01 3.03387E+00-1.51386E-04
 -1     27516 5.94185E-01 2.86480E+00-3.71329E-04
 -1     27517 1.42419E-03 2.26231E-01 3.47304E-04
 -1     27518 4.34927E-03 2.65260E-01 2.93983E-04
 -1     27519 9.20984E-01 4.97469E+00 9.95800E-05
 -1     27520 1.04966E+00 5.86605E+00 8.78302E-04
 -1     27521 1.04780E+00 6.45440E+00-2.56625E-06
 -1     27522 1.09350E-03-2.63776E-02 5.36751E-04
 -1     27523-5.15163E+00 1.66971E+01-2.40018E-04
 -1     27524-8.09798E-03 7.86894E-02 1.71133E-02
 -1     27525-5.45445E-02 2.11567E-01 3.08529E-02
 -1     27526-9.08019E+00 1.23536E+01-4.22349E-04
 -1     27527-8.83142E+00 2.50728E+01-9.35466E-04
 -1     27528-1.46064E+00 1.26233E+00-2.91265E-03
 -1     27529 1.72068E-04-6.73089E-02 4.17012E-03
 -1     27530 2.05414E-04-6.67688E-02 4.59098E-03
 -1     27531-1.16807E-03-4.30438E-02 8.51983E-04
 -1     27532-1.21365E-03-4.29569E-02 2.29885E-03
 -1     27533-4.57460E+00 5.82457E+00-5.46233E-04
 -1     27534-5.10322E+00 6.01568E+00-6.32056E-05
 -1     27535 1.17869E+00 5.07592E+00-4.01867E-05
 -1     27536 5.91587E-01 2.35758E+00 2.49303E-04
 -1     27537 7.68489E-01 3.64940E+00-2.36853E-04
 -1     27538 6.93789E-01 3.46060E+00-3.37010E-04
 -1     27539-1.27831E+00 1.48532E+01 3.61911E-04
 -1     27540-1.95552E+00 1.45842E+01-1.29248E-04
 -1     27541-1.63683E+00 1.39682E+01-3.55596E-04
 -1     27542-7.06373E+00 1.70823E+01-1.13993E-03
 -1     27543-7.48245E+00 1.64626E+01-1.91663E-03
 -1     27544-5.64539E+00 6.92992E+00-2.32363E-04
 -1     27545-6.58324E+00 5.68007E+00 6.61722E-05
 -1     27546-1.59648E+00 1.18926E+01-3.90649E-04
 -1     27547-2.03211E+00 1.17533E+01 1.95031E-04
 -1     27548-5.10476E+00 1.52382E+01-7.57180E-04
 -1     27549-8.38966E+00 1.03166E+01 4.85069E-04
 -1     27550-8.71905E+00 1.09294E+01 3.31472E-04
 -1     27551 2.09065E-01 1.57104E+00 2.33555E-04
 -1     27552-4.34828E+00 1.86890E+01 1.84990E-04
 -1     27553-3.84121E+00 1.93179E+01-8.43512E-04
 -1     27554-7.05971E-01 1.04631E+01-2.52608E-04
 -1     27555-8.80320E-01 9.67067E+00-2.66672E-04
 -1     27556-5.36399E-01 9.80968E+00-8.97624E-05
 -1     27557 1.16602E-01 2.78451E-01 1.50245E-03
 -1     27558-1.30353E+00 1.15759E+00 2.98824E-03
 -1     27559-1.52552E+00 1.28310E+00-2.03606E-03
 -1     27560-1.96372E+00 1.54083E+00-3.44565E-03
 -1     27561-1.88205E+00 1.52156E+00-1.40320E-03
 -1     27562-2.67151E+00 2.95668E+00-6.66348E-05
 -1     27563-3.07436E+00 3.11885E+00 2.17459E-04
 -1     27564 2.66892E-01 1.71100E+00-1.23449E-03
 -1     27565 4.90892E-01 2.97560E+00-1.08445E-03
 -1     27566 5.15580E-01 2.78879E+00-6.13628E-04
 -1     27567 4.67630E-01 2.92374E+00-1.05211E-03
 -1     27568 5.46358E-01 2.12330E+00-3.56755E-04
 -1     27569 5.19461E-01 2.22702E+00-6.31970E-04
 -1     27570-7.40012E+00 2.14381E+01-6.34861E-05
 -1     27571-2.76523E-01 1.44930E+01 3.24285E-06
 -1     27572-3.88607E-01 1.47980E+01 2.33995E-04
 -1     27573-1.19991E+01 2.55793E+01-3.16190E-03
 -1     27574-1.28482E+01 2.57116E+01 7.12709E-04
 -1     27575 1.29294E-03-2.48662E-02-2.15092E-04
 -1     27576-5.88643E-01 5.83598E-01-1.05041E-02
 -1     27577-6.75348E+00 6.72444E+00 3.21298E-05
 -1     27578-7.58211E+00 7.35853E+00-4.01621E-05
 -1     27579-2.82401E+00 1.22066E+01 9.94827E-04
 -1     27580-4.07260E+00 4.99862E+00 8.32651E-04
 -1     27581 1.04862E+00 7.36003E+00 2.33480E-05
 -1     27582 1.11211E+00 6.97949E+00 2.04994E-04
 -1     27583 1.16887E+00 7.50379E+00-2.40678E-04
 -1     27584-1.03157E+00 1.08145E+01-1.33731E-04
 -1     27585 9.49790E-01 9.52929E+00-1.87432E-04
 -1     27586-8.13060E+00 9.45757E+00 2.80901E-04
 -1     27587-6.33731E-01 1.96926E+00 4.90049E-04
 -1     27588-3.59629E+00 8.41419E+00-6.23923E-04
 -1     27589-3.41252E+00 8.95238E+00 4.18932E-04
 -1     27590-6.40010E+00 9.37547E+00-3.29504E-04
 -1     27591-6.77372E+00 9.01690E+00-2.76719E-06
 -1     27592 4.09378E-01 1.83201E+00-9.05480E-04
 -1     27593 4.76822E-01 1.96050E+00 2.66406E-04
 -1     27594-3.05155E-01 3.03912E+00 3.33527E-04
 -1     27595-6.04250E+00 9.77226E+00 4.31095E-04
 -1     27596 7.92264E-02 1.82488E+00-2.15760E-04
 -1     27597 2.83888E-01 4.48636E+00-2.39953E-04
 -1     27598-2.06268E+00 5.33532E+00-1.34533E-05
 -1     27599-2.44556E+00 5.43815E+00-5.58046E-06
 -1     27600-7.66523E+00 1.08112E+01 1.65652E-03
 -1     27601 6.42622E-01 1.72309E+00-6.91364E-05
 -1     27602-8.02447E+00 7.25093E+00-7.82227E-06
 -1     27603-8.37641E+00 7.72404E+00 2.30704E-04
 -1     27604-8.10495E+00 7.76466E+00-2.54190E-04
 -1     27605-5.20687E+00 1.45671E+01-8.58060E-04
 -1     27606-8.72153E+00 1.16983E+01 5.52537E-04
 -1     27607-4.30568E+00 1.19594E+01 3.16888E-04
 -1     27608 1.76166E-02 7.13173E-02-3.26578E-04
 -1     27609 4.12157E-02 1.46756E-01 2.64381E-04
 -1     27610 4.73490E-03 4.75983E-02 1.15030E-03
 -1     27611 4.69444E-03 5.65678E-02 1.17181E-03
 -1     27612 4.23007E-03 3.13300E-02 8.10617E-04
 -1     27613 1.81409E-02 9.29680E-02 1.25544E-03
 -1     27614 4.25721E-03 3.95021E-02 9.81980E-04
 -1     27615 5.21066E-01 2.74552E+00-1.26867E-03
 -1     27616 3.26457E-01 1.12937E+00-1.33873E-03
 -1     27617 3.83392E-01 1.30981E+00-9.02528E-04
 -1     27618 3.83473E-01 1.22017E+00 1.17335E-03
 -1     27619-2.02669E+00 2.14502E+00 3.33916E-05
 -1     27620-2.15499E+00 2.06492E+00-2.53740E-04
 -1     27621 7.20692E-01 2.46872E+00-8.14734E-06
 -1     27622-1.27205E-01 1.00499E+01 4.24410E-04
 -1     27623 9.02310E-01 4.27710E+00 7.90899E-05
 -1     27624 1.02706E+00 4.14755E+00-9.73602E-04
 -1     27625 1.06766E-01 1.18628E+00 9.81223E-04
 -1     27626 6.14548E-02 1.41566E+00 1.70804E-04
 -1     27627 1.70379E-03 6.67140E-02 1.80620E-05
 -1     27628 1.68377E-03 7.43974E-02 7.78681E-05
 -1     27629 1.70093E-03 7.24164E-02 3.28406E-04
 -1     27630-1.12117E+00 6.40988E+00-1.14724E-04
 -1     27631-3.69760E-01 1.25064E+01 2.42476E-04
 -1     27632-3.80458E+00 5.90468E+00-1.90295E-04
 -1     27633-4.03312E+00 6.36199E+00-2.25882E-04
 -1     27634 3.45871E-03 9.51081E-02 1.77543E-04
 -1     27635-3.13723E+00 4.07949E+00-3.91794E-04
 -1     27636 3.36082E-01 1.28887E+00-2.88476E-04
 -1     27637-1.54031E-01 1.20003E+01-4.09406E-04
 -1     27638-3.58316E+00 5.47254E+00 4.45119E-05
 -1     27639 1.84166E-01 3.96689E-01 2.49435E-03
 -1     27640 1.12456E-01 3.47139E+00 3.03719E-04
 -1     27641 6.28010E-02 3.09035E+00 3.64530E-04
 -1     27642 2.44291E-01 3.22765E+00 5.61036E-04
 -1     27643 9.10435E-01 4.02484E+00-1.94071E-04
 -1     27644 5.07169E-01 1.50013E+00 6.89357E-05
 -1     27645 3.41020E-01 1.63587E+00-4.75242E-04
 -1     27646-1.04458E+00 4.23489E+00 9.55071E-04
 -1     27647 5.62531E-01 1.56789E+00 1.34347E-05
 -1     27648-3.35856E+00 4.44851E+00 3.73010E-05
 -1     27649-3.59098E+00 4.82515E+00 1.39468E-04
 -1     27650-3.82992E+00 4.61164E+00-1.32879E-04
 -1     27651 9.55951E-02 7.86609E-01-1.72143E-04
 -1     27652-1.43649E+00 6.35825E+00 2.20688E-04
 -1     27653-1.31004E+00 6.87857E+00-4.08669E-04
 -1     27654-4.15186E+00 7.67443E+00-3.85788E-04
 -1     27655-4.40216E+00 8.19673E+00 4.93078E-05
 -1     27656-1.83557E+00 4.88353E+00 9.02484E-04
 -1     27657-2.21027E+00 5.04318E+00 4.50019E-04
 -1     27658-1.32283E+00 1.53203E+00-7.46207E-04
 -1     27659-1.51350E+00 1.41950E+00 2.45943E-04
 -1     27660-2.71136E+00 3.92937E+00 4.26307E-04
 -1     27661 2.35797E-01 2.39927E+00 5.81179E-05
 -1     27662 2.69513E-01 2.40172E+00 4.38595E-05
 -1     27663 2.52698E-01 2.44617E+00-3.72604E-04
 -1     27664-1.08384E+00 1.57510E+01 4.48608E-04
 -1     27665-9.32098E-01 1.66157E+01-1.33735E-04
 -1     27666-8.73233E-01 1.58533E+01-3.76609E-04
 -1     27667-7.21624E-01 1.58875E+01 1.64505E-04
 -1     27668 7.28614E-01 7.31448E+00 2.54638E-04
 -1     27669 9.00134E-01 7.45622E+00 7.11004E-04
 -1     27670 1.26572E+00 7.64725E+00 1.38718E-04
 -1     27671 6.35995E-01 1.82351E+00 2.22989E-04
 -1     27672-6.14130E+00 8.80793E+00-1.25472E-04
 -1     27673 6.80825E-03 3.53545E-01 1.75080E-04
 -1     27674 4.41577E-03 3.58333E-01 8.05684E-04
 -1     27675 1.21373E-02 5.54114E-01-5.70348E-04
 -1     27676-1.39154E+01 1.56623E+01-3.12316E-04
 -1     27677-1.41898E+01 1.63194E+01-7.75977E-04
 -1     27678 3.17864E-03 3.15550E-01 3.32602E-04
 -1     27679 7.79648E-03 3.56912E-01-1.01580E-04
 -1     27680-2.49664E+00 1.80639E+00-7.55146E-04
 -1     27681 6.97269E-02 1.89957E+00-9.17577E-05
 -1     27682-6.85076E-02 1.58009E+00-5.24142E-04
 -1     27683 1.28926E-01 1.62541E+00 1.67409E-04
 -1     27684-9.18081E-02 1.41950E+00 1.37803E-04
 -1     27685 1.94453E-01 4.05436E+00-7.73954E-05
 -1     27686 2.52243E-01 3.28848E+00-5.20933E-04
 -1     27687 3.27796E-01 3.79378E+00 2.36906E-05
 -1     27688 4.00316E-03 3.77585E-02 5.80236E-04
 -1     27689 1.25879E-01 6.20068E-01-4.36058E-04
 -1     27690 4.77060E-02 2.10164E-01 1.74307E-03
 -1     27691 1.23860E+00 5.07562E+00-8.58765E-04
 -1     27692 1.22186E+00 5.13936E+00-4.65497E-04
 -1     27693-1.88500E+00 2.23895E+00 4.92842E-04
 -1     27694-5.26864E+00 8.05021E+00 2.70668E-04
 -1     27695-4.07976E-01 5.19086E-01-1.14813E-03
 -1     27696-8.79882E+00 9.95688E+00-1.53823E-04
 -1     27697-9.55229E+00 1.02000E+01-7.08374E-04
 -1     27698-1.22070E+01 1.42443E+01 5.07638E-04
 -1     27699-1.25779E+01 1.49954E+01-1.77741E-03
 -1     27700-1.26278E+01 1.43428E+01-1.80280E-03
 -1     27701-1.26584E+01 1.46386E+01-2.67035E-04
 -1     27702-2.30140E+00 1.03959E+01-2.33346E-04
 -1     27703-1.38983E-01 2.16281E-01-1.43717E-03
 -1     27704-7.84071E-02 1.88169E-01 9.49004E-05
 -1     27705-2.43289E+00 1.44263E+01-1.70887E-03
 -1     27706-3.90335E+00 3.54978E+00 1.19077E-04
 -1     27707-4.38469E+00 3.74207E+00-1.30066E-04
 -1     27708-1.17575E-01 3.22719E+00-2.40099E-04
 -1     27709-6.15383E-02 3.56731E+00 6.96560E-04
 -1     27710 7.13731E-02 3.21017E+00-3.61458E-04
 -1     27711 1.66234E-02 2.88554E+00-7.66782E-04
 -1     27712-8.48144E+00 2.43858E+01-1.93530E-04
 -1     27713-1.74573E+01 2.34901E+01 3.81481E-03
 -1     27714-1.78873E+00 1.51677E+00 4.56379E-04
 -1     27715-1.68414E+01 2.67085E+01-8.86267E-05
 -1     27716-2.08263E+00 1.79095E+01 7.78244E-04
 -1     27717-1.40323E+01 2.63149E+01 5.33555E-03
 -1     27718-1.47999E+01 2.54782E+01-3.16870E-03
 -1     27719-1.46949E+01 2.59640E+01-5.52971E-03
 -1     27720 7.24200E-01 2.49329E+00 6.94298E-05
 -1     27721 7.35568E-01 2.93871E+00-7.10536E-05
 -1     27722-1.77588E+01 2.42343E+01 4.50988E-03
 -1     27723-1.80890E+01 2.46529E+01 4.21693E-05
 -1     27724-1.76359E+01 2.53691E+01-5.20264E-03
 -1     27725 1.19723E+00 9.08186E+00-4.53142E-05
 -1     27726 4.88230E-01 2.33014E+00 1.56450E-04
 -1     27727 5.15725E-01 2.55865E+00 1.99792E-04
 -1     27728 1.16833E+00 7.49704E+00 1.26297E-04
 -1     27729 4.34496E-02 1.40917E+00 3.30981E-04
 -1     27730 5.64660E-02 1.36535E+00-1.41244E-05
 -1     27731 4.12800E-02 1.39990E+00 5.83585E-05
 -1     27732 2.99029E-02 1.23155E+00-1.88027E-04
 -1     27733 3.93570E-02 1.18823E+00-1.05495E-04
 -1     27734-1.34906E+00 8.92965E+00-8.96657E-05
 -1     27735 1.27170E-01 1.84540E+00 2.52156E-04
 -1     27736-2.19929E+00 1.70686E+00 8.97811E-04
 -1     27737-2.17968E+00 1.66721E+00 8.71791E-04
 -1     27738 5.74067E-02 1.67105E+00-9.50012E-04
 -1     27739 8.91522E-02 1.84801E+00-1.35121E-04
 -1     27740 6.91434E-02 1.66630E+00-1.69464E-05
 -1     27741 3.13706E-04 9.61671E-02-2.26855E-04
 -1     27742-1.22927E+00 1.25102E+00 1.59603E-03
 -1     27743-1.06102E+00 1.38874E+00-1.88184E-03
 -1     27744-8.19118E-01 9.70504E-01 1.09107E-03
 -1     27745 4.53207E-03 3.80655E-01-4.22191E-06
 -1     27746 3.40836E-03 2.44506E-01 7.47616E-04
 -1     27747-1.28198E+01 1.40285E+01 6.72089E-06
 -1     27748-1.23026E+01 1.40842E+01-8.99290E-04
 -1     27749-1.25629E+01 1.34460E+01 3.08591E-04
 -1     27750-1.30872E+01 1.45146E+01-6.37496E-04
 -1     27751-1.28303E+01 1.39170E+01-1.71526E-04
 -1     27752 3.03522E-02 1.35564E+00-5.23593E-04
 -1     27753 2.22098E-02 1.25322E+00-6.80915E-04
 -1     27754-5.83872E+00 1.45026E+01-1.29745E-03
 -1     27755-1.74232E-01 3.13464E-01 1.62381E-03
 -1     27756 1.12963E+00 4.49095E+00-3.47522E-04
 -1     27757-8.71903E+00 1.29625E+01 3.00997E-03
 -1     27758-7.86460E+00 1.27218E+01-9.25286E-05
 -1     27759-2.99193E+00 1.96156E+01 1.83909E-03
 -1     27760-2.58901E+00 1.81766E+01 8.44131E-05
 -1     27761-3.22567E+00 1.95023E+01 1.83504E-03
 -1     27762-2.87736E+00 1.91197E+01 4.76941E-04
 -1     27763 4.33596E-01 5.34762E+00 8.28543E-05
 -1     27764-3.61161E+00 2.17251E+01-2.34106E-03
 -1     27765-3.41244E+00 2.16080E+01-1.83439E-03
 -1     27766-3.87399E+00 2.24110E+01-1.89169E-03
 -1     27767-5.65984E+00 4.21427E+00-8.58691E-05
 -1     27768-4.40944E+00 2.19669E+01 4.88900E-04
 -1     27769 6.61960E-03 5.81409E-01-5.94348E-04
 -1     27770 2.65700E-03 4.45137E-01-7.98260E-05
 -1     27771 6.54639E-03 6.53623E-01 3.36274E-05
 -1     27772 4.36239E-03 3.35860E-01 8.22077E-05
 -1     27773 6.00787E-04 1.56861E-01-1.28593E-04
 -1     27774 1.71671E-03 2.51859E-01-1.63175E-04
 -1     27775-2.30739E-02-8.85563E-02-2.29561E-03
 -1     27776-1.48949E-01 4.27774E+00-6.71135E-04
 -1     27777-1.21966E-02 3.97226E+00-9.97138E-04
 -1     27778 1.88922E-01 2.26146E+00 7.17758E-04
 -1     27779 1.94630E-01 2.18188E+00 1.94291E-04
 -1     27780 2.05101E-01 2.31102E+00 1.02370E-04
 -1     27781-1.26120E+01 2.60303E+01-6.16768E-03
 -1     27782-1.28924E+01 2.53253E+01-1.32780E-03
 -1     27783-1.35657E+01 2.59527E+01 6.84773E-03
 -1     27784-1.27649E+01 2.60513E+01-5.76234E-03
 -1     27785 1.16321E+00 4.94529E+00-3.29149E-04
 -1     27786 1.14530E+00 4.85640E+00-1.27177E-03
 -1     27787-5.18065E-01 7.19696E-01-1.03897E-02
 -1     27788 1.17998E+00 4.77905E+00 1.20615E-04
 -1     27789 1.16470E+00 4.75498E+00-3.70996E-04
 -1     27790 1.19545E+00 4.71926E+00 4.40182E-04
 -1     27791 4.88007E-02 1.44009E-01 4.60846E-04
 -1     27792 3.71997E-02 1.16772E-01-7.71489E-05
 -1     27793 4.68924E-02 1.07285E-01 1.15099E-03
 -1     27794 2.11521E-03-1.62311E-02 1.16133E-03
 -1     27795 5.85431E-04-9.07132E-03 5.57358E-04
 -1     27796-1.17277E+01 1.47112E+01 1.93121E-03
 -1     27797 1.29155E+00 5.82425E+00 5.66689E-04
 -1     27798 1.33556E+00 7.13458E+00-4.48710E-04
 -1     27799 6.43592E-01 2.39370E+00-8.78965E-04
 -1     27800 6.34641E-01 2.84144E+00-8.33867E-05
 -1     27801-2.22646E+00 1.58408E+01 1.28731E-04
 -1     27802 1.29934E+00 6.61780E+00-5.94119E-04
 -1     27803 2.41305E-02 1.75394E-01 7.68616E-04
 -1     27804 2.20489E-02 2.01856E-01-7.49547E-06
 -1     27805 4.90947E-01 2.95829E+00 6.31129E-04
 -1     27806 5.86665E-01 2.69600E+00-5.47753E-04
 -1     27807 1.84812E-02 1.45913E-01-2.14026E-04
 -1     27808 4.04374E-03 6.22340E-02-2.04011E-03
 -1     27809-2.91855E+00 3.73894E+00-3.93070E-04
 -1     27810 1.84917E-02 9.84631E-01 5.15520E-04
 -1     27811 5.61618E-01 3.13119E+00 5.12024E-04
 -1     27812 5.56791E-01 2.83912E+00-4.06417E-04
 -1     27813 5.84799E-01 2.77144E+00 2.11364E-05
 -1     27814-5.79215E+00 2.39015E+01-5.41337E-04
 -1     27815-5.29922E+00 2.30726E+01 4.80696E-04
 -1     27816 3.08500E-01 2.55600E+00-1.03368E-04
 -1     27817 3.33256E-01 2.52051E+00 3.91423E-04
 -1     27818 2.94670E-01 2.53977E+00 6.78655E-04
 -1     27819 4.22865E-01 2.82096E+00-4.33665E-04
 -1     27820-1.29495E+01 1.42620E+01-5.79401E-04
 -1     27821 4.50305E-01 2.07479E+00-1.14441E-03
 -1     27822 4.51367E-01 2.09835E+00-1.13521E-05
 -1     27823 3.85605E-01 1.94008E+00-1.97848E-03
 -1     27824-3.63733E+00 3.25106E+00-4.80613E-04
 -1     27825-4.79319E+00 2.37810E+01-1.63165E-04
 -1     27826-4.47663E+00 2.31690E+01 7.01972E-04
 -1     27827-1.45957E+01 1.71148E+01-7.30993E-04
 -1     27828-1.49893E+01 1.77858E+01 1.75271E-03
 -1     27829 2.77197E-03 4.37443E-01-5.06269E-04
 -1     27830 8.14737E-03 7.55472E-01 9.09876E-05
 -1     27831 7.61455E-01 1.12766E+01-7.71454E-05
 -1     27832 3.54724E-01 1.24585E+01-6.21202E-04
 -1     27833 3.64519E-02-6.29985E-03-2.35106E-04
 -1     27834-4.26061E+00 2.30780E+01 1.16235E-03
 -1     27835-4.22743E+00 2.30330E+01 1.40565E-03
 -1     27836-2.67913E+00 2.00514E+01 6.60722E-04
 -1     27837 7.91720E-03 8.39530E-01 6.16940E-04
 -1     27838 7.28772E-03 6.72143E-01 3.23165E-04
 -1     27839-1.17775E+01 2.58881E+01 2.39905E-03
 -1     27840 3.48832E-03 2.12327E-01-3.23905E-04
 -1     27841-1.60471E+01 1.97660E+01 3.40483E-04
 -1     27842-4.12075E-03-1.00603E-01 1.85833E-03
 -1     27843-9.08910E-03-9.42663E-02 1.47624E-03
 -1     27844 5.67596E-04 5.89850E-02 4.14350E-04
 -1     27845-5.39352E+00 2.02134E+01-4.80109E-04
 -1     27846-5.19312E+00 2.11500E+01-1.96420E-03
 -1     27847 1.40973E-02-3.46168E-02 6.78788E-04
 -1     27848 1.67828E-02-3.54875E-02-4.03744E-04
 -1     27849 2.08084E-02-4.24341E-02-2.86130E-03
 -1     27850 4.54345E-02-8.41002E-03-1.91971E-03
 -1     27851-1.21180E-02 1.05434E-01 9.86040E-04
 -1     27852-1.43854E-03 5.81604E-03-3.30420E-04
 -1     27853-2.27014E-02 2.58021E-02-3.44113E-03
 -1     27854 2.87292E-02-5.10232E-02-6.47047E-04
 -1     27855 4.10366E-02-3.60306E-02-7.90169E-05
 -1     27856-7.72587E-03 4.04230E-02-2.42914E-03
 -1     27857-7.43861E-03 4.52393E-02 8.98730E-03
 -1     27858-3.91565E-02 8.18605E-02-4.73122E-03
 -1     27859 2.41522E-01 1.63209E+00 1.11381E-04
 -1     27860-1.80800E+00 1.53000E+00-9.94999E-04
 -1     27861 4.27668E-04-4.65336E-02 1.76970E-03
 -1     27862 9.65336E-04 1.48260E-01-4.41673E-05
 -1     27863-1.85056E+01 2.61665E+01 7.50474E-03
 -1     27864-6.96146E-03-7.57006E-02-8.82288E-04
 -1     27865 9.34290E-04 1.51781E-01 1.94896E-04
 -1     27866 9.44173E-04 1.50338E-01 2.65017E-04
 -1     27867 9.15317E-04 1.53051E-01 8.70001E-05
 -1     27868-4.88488E+00 1.94104E+01-7.20795E-04
 -1     27869 8.50853E-01 4.54921E+00-4.21906E-04
 -1     27870-4.67702E+00 2.03766E+01 9.53532E-04
 -1     27871-4.19373E+00 1.95816E+01-1.89889E-03
 -1     27872-1.21728E+01 1.22675E+01-1.00817E-03
 -1     27873-1.14786E+01 1.20385E+01-5.71432E-05
 -1     27874 2.02876E-01 1.10017E+00 1.60365E-03
 -1     27875-1.13424E+01 1.12092E+01 4.51553E-05
 -1     27876-1.14406E+01 1.16347E+01-3.75329E-04
 -1     27877 8.78035E-04-1.43732E-02 4.32351E-04
 -1     27878 1.11817E-02-2.21619E-02-5.08697E-04
 -1     27879 2.84598E-03-2.03610E-02 1.49756E-04
 -1     27880-1.20393E+01 1.20519E+01-1.19988E-03
 -1     27881 4.54765E-02 1.36036E+00 2.16718E-04
 -1     27882 3.76976E-02 1.34596E+00 5.15424E-04
 -1     27883-1.10796E+01 1.08035E+01 3.88837E-04
 -1     27884-1.10025E+01 1.20131E+01 3.30354E-04
 -1     27885-1.11358E+01 1.18987E+01 3.81779E-04
 -1     27886 3.48621E-01 4.89245E+00 1.15934E-04
 -1     27887-1.09491E+01 1.06048E+01 2.91427E-04
 -1     27888-5.80581E-02-3.02869E-02-3.30121E-03
 -1     27889-2.26021E+00 4.39659E+00-2.11765E-04
 -1     27890-1.28108E+01 1.46331E+01-2.33626E-03
 -1     27891-1.28398E+01 1.49326E+01-9.00245E-04
 -1     27892-1.30874E+01 1.49451E+01-1.74087E-03
 -1     27893-1.31163E+01 1.52488E+01-2.80314E-04
 -1     27894 8.70911E-03 7.36113E-01-3.26778E-04
 -1     27895-1.32169E+01 1.47541E+01-1.61190E-03
 -1     27896 7.75440E-01 3.10222E+00-4.73781E-06
 -1     27897-2.38305E+00 1.85068E+01 1.89680E-04
 -1     27898-2.48082E+00 1.86959E+01 5.78074E-04
 -1     27899 1.48890E-03 6.91132E-02 2.75170E-04
 -1     27900 5.50310E-03 1.24714E-01 9.01057E-04
 -1     27901-1.52628E+00 1.55527E+01-4.47007E-04
 -1     27902-1.37166E+00 1.64046E+01-4.77320E-04
 -1     27903-9.07433E+00 1.36461E+01 1.04146E-04
 -1     27904-1.19694E+01 1.22075E+01 3.83165E-04
 -1     27905 1.89370E-02 1.55190E-01-1.77311E-04
 -1     27906 2.22398E-02 1.46154E-01-4.88055E-05
 -1     27907 2.14809E-02 1.80430E-01 5.76780E-04
 -1     27908 5.00143E-03 8.55667E-02-4.69950E-05
 -1     27909 4.70199E-03 6.88574E-02 4.27216E-04
 -1     27910-6.00053E+00 2.37404E+01-1.19482E-04
 -1     27911 5.58000E-01 2.87721E+00 3.90394E-04
 -1     27912 5.49040E-01 2.94892E+00 1.55026E-04
 -1     27913 6.08102E-01 2.99282E+00 3.05264E-04
 -1     27914-1.38271E+01 2.55122E+01 5.76482E-03
 -1     27915-1.40014E+01 2.52007E+01-3.66790E-03
 -1     27916-1.40591E+01 2.49202E+01 4.55099E-03
 -1     27917-1.50566E+01 2.48730E+01-2.45433E-03
 -1     27918-5.43637E+00 4.31660E+00-1.95503E-05
 -1     27919-4.23154E+00 2.24544E+01-1.47361E-03
 -1     27920-4.32814E+00 2.01291E+01-2.51830E-03
 -1     27921-3.67026E+00 2.02395E+01 1.39593E-03
 -1     27922-5.18730E-01 1.39852E+01-2.49064E-05
 -1     27923 7.22182E-01 3.19935E+00 4.48135E-04
 -1     27924 7.28875E-01 3.46491E+00 2.60683E-04
 -1     27925 6.54048E-01 3.28548E+00 5.38076E-04
 -1     27926 1.05441E+00 3.56482E+00-8.71461E-04
 -1     27927 1.30565E+00 6.23795E+00-2.08817E-04
 -1     27928 3.89896E-03-4.10275E-02 2.77936E-04
 -1     27929 9.68094E-03-3.79407E-02 8.53913E-04
 -1     27930 5.68674E-01 1.73594E+00 4.98450E-04
 -1     27931 6.65075E-02 1.22678E+01 6.40527E-05
 -1     27932 1.47420E-02 1.35838E+01 7.05883E-04
 -1     27933 6.35483E-01 3.30135E+00 2.40914E-04
 -1     27934 6.20992E-02 1.53731E+00-3.38635E-04
 -1     27935 6.39931E-02 1.56245E+00 1.90769E-05
 -1     27936 3.55109E-03 2.30508E-01 8.92301E-04
 -1     27937 3.19125E-03 1.36963E-01 3.05475E-04
 -1     27938 5.73006E-04 6.01331E-02 1.40098E-05
 -1     27939 5.14514E-02 1.52330E+00-4.88663E-04
 -1     27940-1.19807E+01 2.34695E+01 5.16464E-03
 -1     27941-1.24053E+01 2.45816E+01 2.48237E-03
 -1     27942-3.44638E+00 2.52893E+00 3.76569E-04
 -1     27943-4.07373E+00 2.87279E+00 2.06048E-04
 -1     27944-3.80728E+00 2.72846E+00 3.88188E-04
 -1     27945 6.11298E-01 3.24443E+00-1.33783E-04
 -1     27946-3.63813E+00 2.51911E+00 1.22913E-04
 -1     27947-3.33765E+00 2.31495E+00 1.13988E-03
 -1     27948 1.16353E-03-2.68401E-02 5.22153E-04
 -1     27949-3.19174E+00 2.21928E+00 8.27977E-04
 -1     27950-3.13083E+00 2.19895E+00 6.83065E-04
 -1     27951-2.92573E+00 2.12118E+00 9.85750E-04
 -1     27952 1.19832E+00 8.26280E+00-2.99177E-04
 -1     27953-1.02313E+01 2.02299E+01 1.84441E-03
 -1     27954 5.02607E-01 1.21187E+01 1.08148E-04
 -1     27955-8.42418E-01 1.16241E+01 1.29028E-03
 -1     27956 2.73524E-01 1.11302E+01 6.23973E-04
 -1     27957-2.43371E+00 1.73729E+01 4.98656E-04
 -1     27958-1.21231E+00 1.72852E+01 3.46036E-04
 -1     27959 3.78247E-01 2.62510E+00-2.31875E-04
 -1     27960 3.45530E-01 2.55674E+00 2.66265E-04
 -1     27961-1.46960E+00 1.71858E+01-1.73517E-04
 -1     27962-1.49000E+00 1.76532E+01-2.24518E-04
 -1     27963-5.43387E+00 9.56675E+00-3.66976E-05
 -1     27964-2.70206E+00 3.40340E+00 2.45209E-04
 -1     27965 1.46470E-03 4.02005E-01 2.53649E-05
 -1     27966 8.05023E-04 2.62369E-01-5.43803E-05
 -1     27967 1.28028E-04 3.56180E-01 1.18972E-04
 -1     27968 5.81663E-04 1.54635E-01-1.68927E-04
 -1     27969 6.94122E-05 1.09062E-01-5.82315E-05
 -1     27970-2.89008E+00 3.24989E+00 3.55700E-04
 -1     27971 4.26355E-02 1.49274E-01 1.03195E-03
 -1     27972 7.34612E-02 1.69655E+00-3.66590E-04
 -1     27973 1.69593E-01 2.12799E+00-6.47319E-07
 -1     27974 1.48977E-01 2.06214E+00-5.62695E-04
 -1     27975-1.09924E+01 1.35688E+01-1.09679E-03
 -1     27976-1.19095E+01 1.36808E+01 5.98429E-05
 -1     27977-2.87410E+00 2.01552E+01 6.64401E-05
 -1     27978-7.88936E+00 8.64426E+00-2.38177E-04
 -1     27979 1.48540E-01 1.93741E+00-3.20943E-04
 -1     27980-1.40487E+01 1.55160E+01 1.36582E-04
 -1     27981-1.38094E+01 1.56120E+01 4.60394E-04
 -1     27982-4.84559E+00 9.35970E+00-1.26637E-04
 -1     27983 4.23248E-01 2.16461E+00-3.11101E-04
 -1     27984 6.37890E-03 6.62008E-02-9.08622E-04
 -1     27985 3.97151E-01 1.24811E+01-1.02887E-04
 -1     27986 5.54577E-01 1.19321E+01 3.96709E-04
 -1     27987 1.06466E-03 3.03408E-01-1.35527E-04
 -1     27988 6.59600E-05 1.17567E-01-1.85575E-05
 -1     27989 4.81418E-04 2.59809E-01 2.24881E-04
 -1     27990 1.25678E+00 8.58288E+00-1.69413E-04
 -1     27991 3.68930E-02 1.43537E+00-9.01576E-05
 -1     27992-1.34705E-02-6.22463E-02-2.21380E-04
 -1     27993-1.90093E-02-6.25220E-02-1.92775E-03
 -1     27994-1.54988E+01 2.60625E+01-2.55242E-03
 -1     27995-7.86994E-03-5.06002E-02-1.75851E-03
 -1     27996-1.77855E-03-2.58674E-02 1.20779E-04
 -1     27997-7.21543E+00 2.44676E+01-1.44465E-03
 -1     27998 4.69074E-02-3.67764E-02-1.98887E-03
 -1     27999 3.87585E-02-5.97731E-02 1.47977E-03
 -1     28000-1.00213E-01 8.07276E-01-6.96727E-04
 -1     28001-2.49792E+00 3.09445E+00 2.54237E-04
 -1     28002 3.30246E-03 1.67354E-01 7.30414E-04
 -1     28003-1.67726E+01 2.61959E+01 1.46706E-03
 -1     28004-1.15405E+01 2.44536E+01-7.33991E-04
 -1     28005-8.39781E-01 9.89694E-01-1.07562E-03
 -1     28006 1.79226E-03 5.67368E-01 3.06706E-05
 -1     28007 7.45857E-04 4.29080E-01-1.08689E-04
 -1     28008-2.01287E-01 1.00733E+00-1.33002E-03
 -1     28009-2.57663E+00 1.36565E+01 2.52114E-05
 -1     28010-2.43709E+00 4.77485E+00-1.84181E-04
 -1     28011 5.01749E-03 7.73331E-02-6.50079E-05
 -1     28012-4.91498E+00 3.46756E+00-4.32994E-04
 -1     28013-9.08517E+00 7.96767E+00 1.58809E-04
 -1     28014-1.01746E+01 1.01334E+01-5.72290E-04
 -1     28015-1.04080E+01 9.97427E+00-7.40618E-04
 -1     28016-1.00254E+01 9.41528E+00-4.44630E-04
 -1     28017-9.77215E+00 9.05454E+00-5.89815E-04
 -1     28018-9.64637E+00 8.87835E+00-4.09986E-04
 -1     28019-7.25240E+00 7.61523E+00-7.03840E-05
 -1     28020 4.52928E-05 1.17478E-01-8.24130E-05
 -1     28021-1.67530E+01 2.11518E+01-2.43254E-03
 -1     28022-1.61841E+01 2.02240E+01 2.28938E-03
 -1     28023-9.26673E+00 8.25511E+00-6.37528E-05
 -1     28024-8.87403E+00 8.11740E+00 1.28761E-04
 -1     28025-9.40430E+00 8.44068E+00 4.27963E-05
 -1     28026 1.23351E+00 6.36695E+00-9.51672E-04
 -1     28027-3.07200E-02 1.07161E-02-6.12917E-03
 -1     28028 2.96175E-03 5.46321E-01-9.35205E-04
 -1     28029-2.50335E+00 4.13901E+00 3.13158E-04
 -1     28030-1.55063E+01 2.25718E+01 4.43068E-03
 -1     28031-1.57223E+01 2.38283E+01 8.10997E-04
 -1     28032-1.68187E-03-3.80166E-02 1.33285E-03
 -1     28033-8.56020E+00 9.12849E+00 8.94111E-04
 -1     28034-8.48062E+00 7.89691E+00-2.30068E-04
 -1     28035-8.84766E+00 8.41232E+00-1.58299E-04
 -1     28036-6.77362E+00 1.61796E+01-1.11483E-03
 -1     28037-5.60220E+00 2.47876E+01-1.19765E-04
 -1     28038-6.24803E+00 2.42051E+01-2.75469E-03
 -1     28039-6.20504E+00 2.49366E+01-1.27469E-03
 -1     28040-5.60517E+00 2.47913E+01-1.75549E-03
 -1     28041 3.52229E-04 3.21924E-01 6.64441E-05
 -1     28042-2.80996E+00 2.04915E+01-7.01682E-04
 -1     28043-9.65242E+00 8.77817E+00 8.48364E-05
 -1     28044 1.24316E-02 4.05832E-01-6.06771E-04
 -1     28045 3.99505E-03 5.01816E-02-9.61920E-04
 -1     28046-6.36975E+00 2.40667E+01-4.38918E-04
 -1     28047-6.61895E+00 2.31864E+01 1.55515E-03
 -1     28048-6.17793E+00 2.28826E+01 3.50103E-03
 -1     28049-6.05982E+00 2.30194E+01-1.12200E-03
 -1     28050-9.62613E+00 9.72123E+00-2.59078E-04
 -1     28051-9.26534E+00 9.16390E+00-5.88152E-05
 -1     28052-7.24606E+00 2.17553E+01 1.03305E-03
 -1     28053-1.25614E+01 1.57468E+01-9.29678E-04
 -1     28054-4.27195E+00 2.93405E+00-1.84549E-04
 -1     28055-3.96176E+00 2.70771E+00-1.35642E-04
 -1     28056-1.33344E+01 1.49719E+01-2.14997E-03
 -1     28057 4.84406E-03 3.66811E-01 8.90359E-04
 -1     28058 8.08791E-01 3.46323E+00-1.87176E-04
 -1     28059 4.45128E-04 8.67143E-02 2.76979E-04
 -1     28060 3.70271E-03 2.32724E-01 3.74037E-04
 -1     28061-1.12743E+01 2.58003E+01 7.25353E-04
 -1     28062-1.21826E+01 2.59545E+01 3.92924E-03
 -1     28063-1.14578E+01 2.48934E+01 1.33080E-03
 -1     28064-1.16656E+01 2.54272E+01 4.30358E-03
 -1     28065-6.08481E+00 1.62154E+01-1.98838E-03
 -1     28066-5.45146E+00 1.61447E+01 2.41686E-04
 -1     28067-4.11278E+00 2.98846E+00 6.35992E-05
 -1     28068-4.16037E+00 2.92342E+00-5.00584E-05
 -1     28069 1.96479E-03-6.07805E-02 7.74976E-04
 -1     28070 1.27926E-03-5.10603E-02 1.35971E-04
 -1     28071 3.64382E-04-2.36026E-02 9.78215E-05
 -1     28072-2.31522E+00 3.25782E+00 3.94257E-04
 -1     28073 2.93317E-03-2.31216E-02 1.08901E-03
 -1     28074-1.20384E+01 1.54936E+01 1.13701E-03
 -1     28075 2.10793E-02 2.52553E-01 3.37729E-04
 -1     28076 1.68260E-02 2.27975E-01 6.32471E-04
 -1     28077 1.28393E-02 2.04885E-01 6.87633E-04
 -1     28078 9.15400E-04 6.55892E-02-3.28174E-04
 -1     28079 9.52025E-04 6.20661E-02-4.08611E-04
 -1     28080 4.36606E-03 1.38577E-01-1.75918E-04
 -1     28081 4.21707E-03 2.82647E-02-3.81580E-04
 -1     28082-1.50923E+00 1.26231E+00 2.84471E-04
 -1     28083-1.60236E+00 1.79034E+01-4.97388E-04
 -1     28084-1.76223E+00 1.82476E+01 2.77240E-04
 -1     28085 8.10686E-03-3.44392E-02 1.46524E-03
 -1     28086-6.95416E+00 2.50092E+01 1.91185E-03
 -1     28087 8.48154E-03 2.04494E-01-1.86169E-03
 -1     28088 9.45714E-03 2.19352E-01 4.27095E-04
 -1     28089-1.35099E+01 1.49088E+01-4.63727E-04
 -1     28090-1.36400E+01 1.51519E+01-4.78968E-04
 -1     28091-1.29581E+01 1.50901E+01-2.06677E-03
 -1     28092 6.14037E-03 6.76557E-01 5.06235E-05
 -1     28093 8.12773E-03 6.39118E-01 7.88223E-04
 -1     28094 3.37446E-03 3.76887E-01-3.37753E-04
 -1     28095 1.03317E-02 2.11851E-01-2.47890E-04
 -1     28096 3.82041E-02 4.32690E-01-2.44352E-04
 -1     28097 2.95257E-02 3.51616E-01 1.62644E-04
 -1     28098 4.75849E-03 1.36433E-01-3.20561E-04
 -1     28099 2.61962E-02 3.50030E-01-1.10909E-04
 -1     28100 7.99320E-02 4.50533E-01 4.50118E-04
 -1     28101 5.41202E-02 6.10978E-01 4.19120E-04
 -1     28102-7.54850E+00 2.52049E+01 2.54346E-03
 -1     28103 1.01960E+00 3.44408E+00-2.29342E-04
 -1     28104-1.21979E+01 2.50993E+01 4.81083E-03
 -1     28105-1.21101E+01 2.48139E+01 3.90774E-03
 -1     28106 4.27916E-03 1.34575E-01-1.88246E-04
 -1     28107 8.88587E-04 6.03998E-02-5.81903E-05
 -1     28108 1.14177E-02 2.09968E-01-2.50492E-03
 -1     28109 4.21440E-03 1.41896E-01-6.52319E-04
 -1     28110 1.55766E-03 7.33819E-02-2.39645E-04
 -1     28111-1.09842E+01 2.50490E+01-4.71509E-03
 -1     28112-1.08010E+01 2.55094E+01-5.27862E-03
 -1     28113-4.98794E+00 2.20645E+01 8.00415E-04
 -1     28114 4.00923E-01 2.77155E+00-1.97443E-04
 -1     28115 2.86181E-01 1.20030E+00 2.39573E-04
 -1     28116-1.57096E+01 2.16690E+01-6.70785E-03
 -1     28117 3.57006E-02 5.20429E-01-9.28807E-04
 -1     28118 1.66559E-02 3.31837E-01-4.42809E-04
 -1     28119-7.75804E+00 7.34859E+00-4.91194E-04
 -1     28120-7.22671E+00 6.49590E+00 3.55079E-05
 -1     28121-1.40744E-01 4.77875E-01 3.13141E-04
 -1     28122-2.93294E-01 3.65247E-01 1.26148E-03
 -1     28123 8.65666E-04-1.97989E-02 2.03678E-04
 -1     28124-8.87246E+00 9.47534E+00 9.10444E-04
 -1     28125-8.20276E+00 7.24606E+00 2.96322E-04
 -1     28126 4.91601E-03-4.18458E-02 1.10940E-03
 -1     28127 2.61072E-02-6.25750E-02-1.44446E-03
 -1     28128-4.88008E-01 1.51342E+00-4.26500E-04
 -1     28129 1.06048E-02 8.09425E-01 1.07812E-04
 -1     28130 3.53439E-03 6.20847E-01 1.30892E-04
 -1     28131 9.84119E-04 3.01894E-01-1.20655E-04
 -1     28132-6.00741E+00 4.48939E+00-2.52471E-05
 -1     28133-6.34004E+00 4.82114E+00-5.49507E-05
 -1     28134 1.05778E+00 4.17053E+00-1.74584E-04
 -1     28135 1.01174E+00 3.84003E+00 4.26037E-04
 -1     28136-5.49612E-01 1.55774E+01-5.84431E-04
 -1     28137-6.54218E-01 1.50151E+01-2.39155E-04
 -1     28138-4.74230E-01 1.50245E+01 2.88115E-05
 -1     28139-1.44431E+01 2.63801E+01 1.26126E-02
 -1     28140-1.35249E+01 2.62323E+01 7.72105E-03
 -1     28141 1.39687E-02 1.02537E+00 5.02977E-05
 -1     28142 7.35838E-03 2.05862E-01 6.45839E-04
 -1     28143 3.40375E-02 4.52749E-01 4.39266E-04
 -1     28144 9.03848E-03 8.47560E-01 1.64053E-04
 -1     28145 1.30452E-02 2.07025E-01-1.55191E-03
 -1     28146-4.03733E-01 1.68917E+00 1.38341E-03
 -1     28147 2.38433E-03 2.36657E-04-4.48752E-04
 -1     28148 3.58929E-03 6.45616E-03-8.72667E-04
 -1     28149-8.63334E-01 1.50446E+01-7.58435E-04
 -1     28150-9.47380E-01 1.53693E+01-1.27569E-04
 -1     28151-7.16229E+00 2.41210E+01 3.81805E-04
 -1     28152 1.23693E+00 6.12728E+00-3.68344E-05
 -1     28153 1.21565E+00 7.11920E+00-4.08111E-04
 -1     28154 5.65699E-01 1.58215E+00 3.64888E-04
 -1     28155 7.24410E-01 2.30172E+00-4.47111E-04
 -1     28156-7.73012E+00 6.28262E+00-1.56825E-04
 -1     28157-1.83665E-02-2.21334E-02-5.62782E-03
 -1     28158-9.98037E-01 1.42286E+01 9.92255E-05
 -1     28159-5.75959E-01 1.46949E+01-1.63120E-04
 -1     28160-2.69073E-01 1.44708E+01-1.79973E-04
 -1     28161-7.34231E-01 8.97039E-01-7.58686E-03
 -1     28162-4.69843E-01 6.85681E-01-1.51700E-02
 -1     28163-1.01518E+01 9.59810E+00-1.14777E-04
 -1     28164-4.34438E+00 3.08299E+00 4.65675E-05
 -1     28165-4.33614E+00 2.98743E+00 4.85259E-05
 -1     28166-4.55930E+00 3.17561E+00-3.10870E-04
 -1     28167-9.44722E+00 1.82692E+01 4.33346E-03
 -1     28168-9.86854E+00 1.92178E+01 2.14617E-03
 -1     28169-1.04245E+01 1.87239E+01-3.45898E-03
 -1     28170 1.96679E-02 2.65395E-01-1.90874E-03
 -1     28171 4.31122E-02 3.99988E-01-3.22914E-03
 -1     28172-1.91419E-03-1.19182E-02-7.58074E-04
 -1     28173-1.07950E+01 1.97166E+01 2.18367E-03
 -1     28174-1.13570E+01 1.88858E+01 4.93255E-03
 -1     28175-1.16713E+01 2.01024E+01-1.53767E-03
 -1     28176-1.09885E+01 2.09323E+01 1.21180E-03
 -1     28177-1.82453E+01 2.50418E+01-4.46337E-03
 -1     28178 1.25214E+00 6.73262E+00-3.58342E-04
 -1     28179-1.65711E+01 2.31831E+01 1.10897E-03
 -1     28180 1.23394E+00 6.49994E+00 7.58262E-04
 -1     28181-4.73835E-01 1.52499E+01 7.58605E-04
 -1     28182-1.57687E+01 1.93329E+01-1.24852E-03
 -1     28183-5.44044E+00 5.12088E+00-3.19969E-04
 -1     28184-1.92976E+00 1.86019E+01 6.91649E-04
 -1     28185 1.16260E-01 6.76950E-01 8.34327E-04
 -1     28186-2.13105E+00 1.89628E+01 4.82582E-04
 -1     28187-2.08231E+00 1.79088E+01 1.34931E-04
 -1     28188-2.25270E+00 1.85117E+01 4.26598E-04
 -1     28189-6.45016E-01 8.56016E-01 4.06787E-04
 -1     28190 1.51380E-03 7.10054E-02-9.30624E-05
 -1     28191-1.14913E+01 1.40966E+01 6.75212E-04
 -1     28192 6.35071E-03-3.10178E-02 8.34840E-04
 -1     28193 2.81109E-02-2.20068E-02 1.70139E-04
 -1     28194-3.09011E-01 3.52522E+00-2.21617E-04
 -1     28195 9.67997E-03 9.41049E-01 5.34107E-04
 -1     28196 9.45104E-03 9.03000E-01 1.53604E-04
 -1     28197 1.51480E-02 1.09672E+00-5.98783E-05
 -1     28198 9.98187E-03 2.10757E-01-6.17471E-04
 -1     28199 1.64324E-02 2.92468E-01-1.96210E-04
 -1     28200-8.43668E+00 1.50350E+01-6.01197E-04
 -1     28201-8.92951E+00 1.46710E+01-2.17867E-03
 -1     28202-8.07348E+00 1.43969E+01 1.03610E-03
 -1     28203 8.03312E-02 5.11269E-01-1.97698E-04
 -1     28204 4.22042E-03 2.06251E-02 8.32282E-04
 -1     28205-1.24319E+01 1.32178E+01-4.54444E-04
 -1     28206-1.09072E+00 3.60978E+00-1.53681E-04
 -1     28207 5.30494E-03 1.38747E-01-1.80391E-03
 -1     28208 1.97135E-02 2.81034E-01-2.35298E-03
 -1     28209-9.87148E-01 9.12249E-01-4.75235E-03
 -1     28210-5.68790E-01 1.46741E+01-2.59948E-04
 -1     28211-7.62759E-01 1.45760E+01-2.02416E-04
 -1     28212-2.69121E-02-3.32487E-02-6.22212E-03
 -1     28213-9.51364E-02 5.67833E-02 3.41175E-03
 -1     28214 8.31406E-01 6.93229E+00-1.47779E-03
 -1     28215-8.17130E+00 1.63432E+01 2.62003E-03
 -1     28216-8.46511E+00 1.57365E+01-1.54419E-03
 -1     28217 9.64307E-03 9.22280E-01 5.82938E-04
 -1     28218 8.07548E-03 8.20773E-01 4.53828E-04
 -1     28219 2.93445E-01 2.44788E+00 5.74074E-04
 -1     28220 6.84845E-03 5.08604E-01-2.09213E-04
 -1     28221-2.31022E+00 1.93237E+01 6.14327E-04
 -1     28222 5.89523E-04 1.56863E-01-4.96857E-04
 -1     28223 1.21492E+00 7.11257E+00 4.96672E-04
 -1     28224-1.39630E+01 1.87146E+01-3.17640E-03
 -1     28225 1.17181E+00 4.73750E+00 2.61400E-04
 -1     28226-1.59271E-01 1.41652E+01 5.54063E-04
 -1     28227-3.81739E-01 1.47765E+01-1.42155E-04
 -1     28228 6.39783E-01 1.84264E+00 2.60321E-04
 -1     28229 8.16982E-01 2.48372E+00 1.33444E-04
 -1     28230 4.86979E-01 1.14885E+01 5.47712E-04
 -1     28231 4.97979E-01 1.26165E+00-4.03987E-04
 -1     28232 1.24963E+00 5.30050E+00-7.04612E-04
 -1     28233 1.22223E+00 5.04925E+00 6.46887E-04
 -1     28234-1.33164E+01 2.47035E+01-3.56442E-03
 -1     28235-1.00340E+01 2.53802E+01-5.03102E-03
 -1     28236-9.02359E+00 1.56224E+01 2.45258E-03
 -1     28237-2.80276E+00 5.63520E+00 3.14099E-04
 -1     28238-1.01433E+01 1.03478E+01-5.69560E-05
 -1     28239 2.54262E-03 3.13391E-01-1.03292E-04
 -1     28240-1.09769E+01 1.20276E+01-4.05356E-04
 -1     28241-1.22758E+01 1.92619E+01-4.24081E-03
 -1     28242-5.00173E+00 4.23731E+00-2.64328E-04
 -1     28243-8.40055E+00 8.24169E+00-1.16086E-04
 -1     28244-8.72176E-01 3.84342E+00 6.03636E-04
 -1     28245-9.89431E+00 9.22924E+00-4.35525E-04
 -1     28246-9.83142E+00 9.67393E+00 1.41345E-04
 -1     28247 9.38457E-04 1.49974E-01-3.30962E-05
 -1     28248-9.56207E+00 9.41317E+00 1.15669E-04
 -1     28249-9.93126E+00 9.97661E+00-1.22968E-04
 -1     28250-1.24434E+01 1.27082E+01-4.33171E-04
 -1     28251-1.25760E+01 1.29293E+01-3.52019E-04
 -1     28252-1.55855E+01 2.09779E+01-1.13974E-03
 -1     28253-1.53077E+01 2.06795E+01-4.99609E-03
 -1     28254-1.74348E-02-9.34378E-03 3.87597E-03
 -1     28255-3.16174E-02-3.39309E-02 1.07665E-03
 -1     28256-1.13527E-03-1.41719E-02-1.05173E-03
 -1     28257-1.53468E-03-7.07023E-03 2.50257E-03
 -1     28258 4.89565E-03 7.68875E-01 3.30587E-04
 -1     28259 2.28702E-02 1.36147E-01 2.21764E-04
 -1     28260 2.28146E-03 7.13010E-03 9.17903E-04
 -1     28261-7.58425E+00 7.35732E+00-3.00757E-04
 -1     28262-5.84228E+00 6.07243E+00-9.03594E-04
 -1     28263-6.09435E+00 4.94723E+00 4.46785E-05
 -1     28264-6.28410E+00 5.18844E+00 4.89789E-05
 -1     28265-6.17985E+00 4.92088E+00-4.02818E-05
 -1     28266-8.62353E+00 8.68512E+00 4.15350E-04
 -1     28267 2.31592E-01 4.90391E-01 1.17021E-03
 -1     28268 2.76335E-01 2.49333E+00 2.36581E-04
 -1     28269-7.75100E-02 1.68602E-01 1.49169E-02
 -1     28270-1.54791E+01 1.86210E+01 1.34594E-03
 -1     28271-1.46848E+01 1.91143E+01 1.15815E-03
 -1     28272-9.35669E+00 9.49688E+00 3.47050E-04
 -1     28273-6.41683E+00 5.66765E+00-2.38028E-04
 -1     28274-5.69110E+00 4.95590E+00-1.93896E-04
 -1     28275-1.23224E+00 1.14669E+01-4.45605E-05
 -1     28276-5.22782E+00 4.12214E+00 4.85906E-05
 -1     28277-6.41290E+00 5.66816E+00 3.05457E-04
 -1     28278-3.01887E-02 2.23006E-02-2.48878E-04
 -1     28279 2.27966E-03 1.25992E-02 5.53443E-04
 -1     28280 1.37982E-02 3.74963E-02 4.00629E-04
 -1     28281 1.59918E-02 3.50850E-02-1.28763E-03
 -1     28282 2.06756E-02 6.36234E-02 3.75502E-04
 -1     28283-4.72178E-01 6.77176E-01-1.66104E-02
 -1     28284 1.74284E-01 3.33925E-01-7.48587E-04
 -1     28285 8.62333E-01 2.60376E+00-1.23214E-04
 -1     28286 6.41155E-02 6.23972E-01 1.81770E-04
 -1     28287 1.00044E-01 7.57599E-01 1.80183E-03
 -1     28288-3.87383E+00 2.78465E+00 4.89182E-05
 -1     28289-4.48346E+00 3.40975E+00 8.75644E-05
 -1     28290-9.39680E+00 1.73117E+01 2.54406E-03
 -1     28291-7.67814E-01 1.45966E+01-2.93735E-04
 -1     28292-1.12479E+01 2.47269E+01-7.87296E-04
 -1     28293-1.02920E+01 2.43795E+01 2.07342E-03
 -1     28294 1.00911E-03 7.92411E-01 9.25715E-04
 -1     28295-1.07579E+01 2.42242E+01 1.64950E-03
 -1     28296 1.76338E-02 1.90041E-01 5.96903E-04
 -1     28297 3.08477E-02-6.18920E-02 1.68535E-03
 -1     28298-6.42330E+00 2.40857E+01-1.97990E-03
 -1     28299-4.02642E+00 2.75768E+00 4.63566E-04
 -1     28300-5.84209E+00 2.39181E+01-1.50211E-04
 -1     28301 4.52037E-03-7.06695E-02 1.07220E-03
 -1     28302 1.83607E-02-8.38493E-02 1.61919E-04
 -1     28303 8.44417E-03-6.95263E-02 9.20828E-04
 -1     28304-6.13916E+00 6.51230E+00-1.86161E-04
 -1     28305-1.08227E+01 2.42556E+01 1.19929E-03
 -1     28306-1.16861E+01 2.45835E+01 1.84396E-04
 -1     28307-4.24426E+00 1.07394E+01-7.54850E-05
 -1     28308 1.79138E-01 2.21044E+00 7.99509E-05
 -1     28309 1.04614E-02 2.27133E-01 4.74545E-04
 -1     28310-3.58193E+00 2.55995E+00 2.10373E-05
 -1     28311-7.90836E+00 6.49076E+00-2.26132E-04
 -1     28312-2.52788E+00 2.24018E+00 4.26672E-04
 -1     28313 5.51990E-03-7.97779E-02 1.00865E-03
 -1     28314-4.11467E-01 5.32907E-01 1.13141E-03
 -1     28315-1.02876E-01 1.28157E+01-1.37679E-04
 -1     28316 2.05242E-01 1.30050E+01 1.05555E-04
 -1     28317 1.28077E+00 5.79599E+00-3.23370E-04
 -1     28318 1.29539E+00 6.50817E+00 1.45345E-04
 -1     28319-1.29135E+01 1.54504E+01 4.62816E-04
 -1     28320-1.19889E+01 1.58691E+01-2.04839E-03
 -1     28321-8.31175E-01 8.90631E-01-5.49053E-03
 -1     28322 4.97366E-01 3.92055E+00 5.62320E-04
 -1     28323 1.39905E-02 3.64665E-03 1.40065E-03
 -1     28324 4.45125E-01 2.40739E+00-3.58179E-04
 -1     28325 9.92627E-04 3.02008E-01-7.38346E-05
 -1     28326-5.37630E+00 6.46240E+00-1.15248E-04
 -1     28327 7.23039E-05 1.08941E-01 4.60720E-04
 -1     28328-1.31644E+01 1.41754E+01-5.74283E-04
 -1     28329-1.28886E+01 1.42876E+01-5.18058E-04
 -1     28330 2.33374E-02 1.20415E-01 1.05596E-03
 -1     28331 1.11166E-02 9.83659E-01 2.99579E-04
 -1     28332-8.33979E-01 1.63730E+01-4.86464E-04
 -1     28333-3.18700E-01 1.33908E+01 3.90604E-04
 -1     28334 3.13315E-01 2.21847E+00-5.59882E-04
 -1     28335 3.24561E-01 2.40673E+00-7.28427E-05
 -1     28336 3.12181E-01 2.37185E+00-1.22503E-04
 -1     28337 3.86740E-01 2.55817E+00-1.00535E-04
 -1     28338 4.64954E-01 2.70169E+00-1.70478E-04
 -1     28339-3.09432E+00 2.10256E+01 6.59834E-04
 -1     28340-1.84311E+01 2.56027E+01 9.16209E-03
 -1     28341 4.33020E-01 2.49543E+00 1.72021E-04
 -1     28342-4.12855E+00 8.54340E+00 4.12535E-05
 -1     28343 1.13427E-01 1.22948E+01-1.56274E-04
 -1     28344 1.07944E-03 7.27878E-02 1.01908E-03
 -1     28345-6.61541E+00 7.39582E+00-1.37333E-04
 -1     28346-6.03098E-01 1.30805E+01 4.58629E-04
 -1     28347 4.07920E-01 3.34424E+00-9.33823E-05
 -1     28348-2.80832E-01 1.36274E+01 3.18167E-04
 -1     28349 3.64893E-01 2.47765E+00-4.32078E-05
 -1     28350 2.11994E-01 2.18472E+00-1.34978E-04
 -1     28351 2.07419E-01 2.07193E+00-2.54397E-04
 -1     28352 2.33778E-01 2.20815E+00-2.28469E-04
 -1     28353-5.77397E+00 4.60058E+00 2.85009E-05
 -1     28354-1.06075E+01 1.13769E+01-8.07315E-04
 -1     28355-3.99683E+00 1.13715E+01 4.01860E-04
 -1     28356-2.55896E-01 3.28523E-01 1.04036E-02
 -1     28357 1.00131E+00 1.02763E+01 1.37525E-04
 -1     28358-1.78876E-02 3.46454E-02-7.73919E-03
 -1     28359-7.47902E-02 1.07776E-01-4.58433E-03
 -1     28360-2.48043E+00 1.81924E+00-2.55216E-04
 -1     28361-9.71688E+00 9.29609E+00 1.41580E-04
 -1     28362-7.74477E+00 2.43251E+01 1.35292E-03
 -1     28363-1.90490E-01 2.71176E-01-9.30690E-05
 -1     28364 1.73327E-02 1.06240E+00 1.38843E-06
 -1     28365 1.29294E-02 8.43939E-01-3.86405E-05
 -1     28366 1.11918E-02 9.19915E-01-1.34182E-04
 -1     28367 5.48555E-03 7.51642E-01-1.31487E-04
 -1     28368-2.49146E+00 1.84024E+01 3.02591E-04
 -1     28369 1.29285E+00 6.25900E+00-2.83845E-04
 -1     28370 1.29803E+00 6.63483E+00-2.77797E-04
 -1     28371 4.46706E-01 2.42360E+00 4.87042E-04
 -1     28372-1.28391E+01 1.66707E+01-2.21571E-03
 -1     28373-9.89658E+00 2.42197E+01-3.54438E-03
 -1     28374 1.11590E-02 2.18747E-01-4.08130E-04
 -1     28375 3.38773E-03 8.46061E-02-3.34204E-04
 -1     28376 3.63325E-04-6.30307E-02 9.37564E-04
 -1     28377 1.33604E-03-5.30125E-02-6.59887E-04
 -1     28378-1.50659E+01 1.77781E+01 7.84751E-05
 -1     28379 2.25506E-02 1.02220E+00-6.61384E-04
 -1     28380 1.59600E-01 6.03082E+00 4.67243E-04
 -1     28381-1.35163E+00 4.38564E+00-2.35738E-04
 -1     28382-1.40351E-02 6.57922E-02-7.17019E-04
 -1     28383-1.47110E-02 1.52706E-02-1.34831E-03
 -1     28384-9.78214E+00 8.95901E+00 1.07571E-04
 -1     28385-9.03833E+00 8.71008E+00 5.83785E-05
 -1     28386-1.61340E+01 2.49634E+01-5.30504E-03
 -1     28387-4.15971E+00 2.28900E+01-1.95039E-03
 -1     28388-3.90259E+00 2.24588E+01-2.06546E-03
 -1     28389 2.34354E-02 3.87244E-01 4.72127E-04
 -1     28390 9.74273E-04 3.92000E-01 1.08738E-04
 -1     28391-1.40188E+01 2.48692E+01-1.46517E-03
 -1     28392 2.77844E-02 5.05660E-01-2.19430E-03
 -1     28393 8.32952E-03 2.41139E-01-7.49848E-05
 -1     28394-8.68065E+00 8.19584E+00-1.65699E-05
 -1     28395-1.32825E+01 1.62539E+01-1.40823E-03
 -1     28396-1.81016E+00 1.43516E+00 1.47866E-03
 -1     28397 1.91352E-01 2.07055E+00 1.62306E-04
 -1     28398 4.30389E-01 2.62288E+00 3.22922E-04
 -1     28399 3.24710E-01 2.42023E+00 1.27392E-04
 -1     28400 2.87910E-01 2.34015E+00 2.53428E-04
 -1     28401-4.15114E+00 2.12691E+01-1.01841E-04
 -1     28402 9.71768E-01 3.94279E+00 1.28258E-04
 -1     28403-2.11481E-02-7.19847E-02-1.27321E-03
 -1     28404 2.09668E-03-1.82983E-02 1.06399E-03
 -1     28405 2.31841E-03 3.82386E-03 1.12336E-03
 -1     28406 1.26424E+00 7.40054E+00-3.75660E-04
 -1     28407 2.16398E-02 8.95805E-02-6.85272E-05
 -1     28408 2.06679E-03 3.02154E-01-5.28385E-05
 -1     28409 4.87340E-01 2.72339E+00 1.77494E-04
 -1     28410 1.07421E+00 4.25074E+00-5.35883E-04
 -1     28411 2.89663E-03 2.41694E-02 4.73269E-03
 -1     28412-4.99756E-01 6.94382E-01-2.96773E-03
 -1     28413-1.34767E+01 1.60341E+01 3.01404E-04
 -1     28414-5.49419E+00 2.34927E+01-8.94280E-05
 -1     28415-7.59704E+00 6.46872E+00 7.29334E-05
 -1     28416 1.20907E+00 4.96166E+00 8.25730E-05
 -1     28417 1.16363E+00 4.69634E+00-2.52802E-05
 -1     28418 1.30523E+00 6.17260E+00-2.40201E-04
 -1     28419 5.32985E-01 1.10944E+01-1.74618E-04
 -1     28420 8.91201E-01 1.02370E+01 1.04175E-04
 -1     28421-1.03080E+01 1.05634E+01-6.98027E-05
 -1     28422 1.28031E+00 6.86518E+00 2.46455E-04
 -1     28423-9.58042E+00 2.53253E+01-9.00078E-04
 -1     28424-6.75713E+00 5.65152E+00 2.35669E-05
 -1     28425-1.50492E+01 2.00429E+01 4.48031E-04
 -1     28426 1.72105E-02 2.06524E-01 4.92335E-04
 -1     28427-4.83714E+00 3.63449E+00-6.61729E-05
 -1     28428-1.16268E+00 1.57881E+01-3.02067E-05
 -1     28429 5.21889E-01 2.71629E+00-8.86389E-05
 -1     28430-1.85755E+00 1.45657E+00 1.61764E-03
 -1     28431 2.50964E-01 1.17236E+01 2.28154E-04
 -1     28432 1.07058E-02 2.42939E-01-9.58049E-04
 -1     28433 3.73394E-04 8.25316E-02 2.33175E-04
 -1     28434 1.68656E-03 1.67299E-01 2.89212E-04
 -1     28435-1.15161E+01 1.26007E+01 1.90413E-04
 -1     28436 1.01212E+00 4.06548E+00 1.16714E-04
 -1     28437 1.64339E-03-1.01151E-01-7.08045E-04
 -1     28438 1.28028E+00 6.99771E+00 6.13512E-05
 -1     28439 4.49888E-04 8.48877E-02 2.97664E-04
 -1     28440 1.11425E+00 4.40642E+00 5.63505E-04
 -1     28441 8.14021E-03-6.94169E-02 1.88316E-04
 -1     28442-2.19726E+00 1.65155E+00-5.49582E-04
 -1     28443 5.72214E-02 1.49192E+00-2.85539E-04
 -1     28444-1.53155E+01 2.07311E+01-3.05573E-03
 -1     28445-1.41108E+01 1.65142E+01 5.47059E-04
 -1     28446-1.36403E+01 1.64617E+01 3.01563E-04
 -1     28447-1.07505E+01 1.12650E+01 3.06171E-04
 -1     28448-1.50760E+01 2.52776E+01-3.47364E-03
 -1     28449-1.61120E+00 1.32193E+00 2.95267E-04
 -1     28450-5.12820E+00 4.00110E+00-1.56680E-04
 -1     28451 1.24552E+00 5.20069E+00-4.95956E-04
 -1     28452-6.35328E+00 5.23565E+00 9.86750E-05
 -1     28453-7.67445E+00 6.85580E+00-2.25858E-05
 -1     28454 1.99768E-02 1.10164E-01-2.76081E-04
 -1     28455-1.85058E+01 2.56891E+01 1.89341E-04
 -1     28456-1.05146E+01 1.09506E+01-9.73866E-05
 -1     28457 2.95230E-01 1.17500E+01 1.32986E-04
 -1     28458-5.13342E-01 1.39681E+01-5.26059E-05
 -1     28459-2.31151E-02 9.83138E-02 1.25380E-03
 -3
    1PSTEP                         2           1           1          
  100CL  101 1.000000000        8053                     0    1           1
 -4  STRESS      6    1
 -5  SXX         1    4    1    1
 -5  SYY         1    4    2    2
 -5  SZZ         1    4    3    3
 -5  SXY         1    4    1    2
 -5  SYZ         1    4    2    3
 -5  SZX         1    4    3    1
 -1     20407 2.18767E+00 5.05035E+00 3.48542E+00 5.72756E+00 8.80599E-02-5.78229E-02
 -1     20408 2.36489E+00 5.03940E+00 3.42588E+00 5.42436E+00-1.27372E-01-2.00221E-01
 -1     20409 6.04363E+00 6.00617E+00 6.01299E+00 6.18590E+00-9.98623E-03-3.80747E-03
 -1     20410 7.30571E+00 7.24798E+00 7.25733E+00 6.11538E+00 1.65578E-02 1.38797E-02
 -1     20411-1.73524E+00 6.52241E+00 9.03163E-01 1.32901E+00-1.33188E+00-5.48408E-01
 -1     20412-3.35210E+00 4.08802E+00 7.76326E-01 1.88970E+00 1.60060E-01-7.91270E-01
 -1     20413-5.15424E+01-2.89756E+01-4.05049E+01 4.83153E+00-9.64403E-02-2.79805E-01
 -1     20414-5.26568E+01-3.90904E+01-4.77313E+01 7.30281E+00 8.35055E-01 2.13260E-01
 -1     20415 8.90182E+00 7.10187E+00 8.49667E+00 7.62382E+00-1.40615E-01 4.27190E-02
 -1     20416 1.07868E+01 9.01664E+00 9.61622E+00 9.20192E+00-5.73073E-03 1.01459E-02
 -1     20417 1.16092E+01 9.69038E+00 1.04624E+01 1.03226E+01 8.85998E-02-2.86992E-02
 -1     20418 1.21646E+01 1.03576E+01 1.12533E+01 1.10764E+01-9.61154E-03 6.79393E-02
 -1     20419 1.27474E+01 1.07737E+01 1.17653E+01 1.15727E+01 1.47934E-02-1.00905E-02
 -1     20420 1.31695E+01 1.10852E+01 1.20744E+01 1.19382E+01-1.94649E-02-3.60381E-02
 -1     20421 1.33393E+01 1.12131E+01 1.22369E+01 1.22328E+01 5.56361E-03 3.26363E-02
 -1     20422 1.38435E+01 1.15687E+01 1.26661E+01 1.24142E+01 1.71443E-02-1.06240E-02
 -1     20423 1.37976E+01 1.15255E+01 1.25235E+01 1.25910E+01 2.50811E-02-3.33569E-02
 -1     20424 1.38900E+01 1.16259E+01 1.27226E+01 1.26261E+01-2.41503E-02 4.72686E-03
 -1     20425 1.38777E+01 1.16324E+01 1.28055E+01 1.26568E+01 4.26143E-03 1.28693E-03
 -1     20426 1.37487E+01 1.15128E+01 1.26870E+01 1.26601E+01-1.11370E-02-1.37059E-02
 -1     20427 1.37290E+01 1.15659E+01 1.26431E+01 1.25609E+01 1.26610E-02-2.65992E-02
 -1     20428 1.36227E+01 1.14887E+01 1.25532E+01 1.23550E+01 1.44558E-02-4.98773E-04
 -1     20429 1.33704E+01 1.11479E+01 1.21871E+01 1.22070E+01-5.59944E-03 3.86563E-03
 -1     20430 1.29937E+01 1.07945E+01 1.19142E+01 1.18131E+01-1.71845E-02 2.45900E-02
 -1     20431 1.27076E+01 1.06844E+01 1.16132E+01 1.14385E+01-2.28982E-02-6.27555E-03
 -1     20432 1.20520E+01 1.00869E+01 1.10352E+01 1.09737E+01-1.24095E-02 1.50602E-02
 -1     20433 1.14891E+01 9.64379E+00 1.04847E+01 1.03812E+01-7.09466E-03-2.18356E-02
 -1     20434 1.07699E+01 8.97554E+00 9.88613E+00 9.78974E+00-3.10014E-02 2.15436E-02
 -1     20435 9.92106E+00 8.24762E+00 9.08824E+00 9.07700E+00-1.60925E-02-1.16203E-02
 -1     20436 9.13448E+00 7.57034E+00 8.42068E+00 8.31836E+00-6.26588E-02-1.87656E-02
 -1     20437 8.42230E+00 6.90429E+00 7.58165E+00 7.58488E+00 2.09957E-02 9.88185E-03
 -1     20438 7.48403E+00 6.26917E+00 6.86999E+00 6.87868E+00 2.47066E-03 3.00780E-02
 -1     20439 7.10622E+00 5.96644E+00 6.55837E+00 6.23301E+00-5.79983E-03 3.79801E-02
 -1     20440 6.01550E+00 4.94580E+00 5.51490E+00 5.69239E+00-1.17656E-02 5.46976E-02
 -1     20441 5.77393E+00 4.77320E+00 5.22056E+00 5.30710E+00-7.42532E-03-1.49994E-02
 -1     20442 5.53071E+00 4.55654E+00 5.07464E+00 5.06582E+00-2.28513E-02-3.19286E-02
 -1     20443 5.43210E+00 4.52442E+00 4.92778E+00 5.09137E+00-3.50753E-02 1.34985E-02
 -1     20444 5.55570E+00 4.81067E+00 5.19110E+00 5.20074E+00 2.30183E-03 9.69643E-03
 -1     20445 5.74235E+00 4.95467E+00 5.35665E+00 5.45740E+00-8.54647E-03-2.88191E-02
 -1     20446 6.32058E+00 5.23319E+00 5.82940E+00 5.68705E+00-7.92010E-03-4.51574E-02
 -1     20447 8.91047E+00 7.82099E+00 8.67443E+00 7.35502E+00-9.42056E-02 2.65946E-02
 -1     20448 1.02818E+01 8.67833E+00 9.60402E+00 9.28451E+00 1.25103E-01-2.83308E-03
 -1     20449 1.14849E+01 9.39000E+00 1.03316E+01 1.03943E+01-1.55568E-02 9.99159E-02
 -1     20450 1.22489E+01 1.03381E+01 1.11670E+01 1.10323E+01 1.68246E-03 6.23760E-03
 -1     20451 1.27060E+01 1.05683E+01 1.16523E+01 1.15941E+01-9.25927E-02-4.37421E-03
 -1     20452 1.32044E+01 1.10694E+01 1.21220E+01 1.19598E+01-4.53348E-02 2.95867E-02
 -1     20453 1.35569E+01 1.13203E+01 1.23777E+01 1.21753E+01-2.79152E-02 4.19940E-02
 -1     20454 1.36355E+01 1.14110E+01 1.24190E+01 1.24132E+01-3.21207E-03 1.47567E-02
 -1     20455 1.37291E+01 1.15557E+01 1.26417E+01 1.25638E+01 1.26441E-02 3.41211E-02
 -1     20456 1.38507E+01 1.16565E+01 1.27177E+01 1.26649E+01 1.25809E-02 1.56334E-02
 -1     20457 1.39400E+01 1.16576E+01 1.27646E+01 1.26668E+01 5.13354E-03 2.19829E-02
 -1     20458 1.39055E+01 1.17315E+01 1.27840E+01 1.26478E+01 1.10384E-02 2.70905E-02
 -1     20459 1.37948E+01 1.16450E+01 1.27169E+01 1.25251E+01 1.40134E-02 1.61711E-02
 -1     20460 1.36676E+01 1.14835E+01 1.25687E+01 1.23696E+01-1.96148E-03 9.74292E-03
 -1     20461 1.32994E+01 1.12425E+01 1.21688E+01 1.21288E+01-2.64511E-03 6.91914E-02
 -1     20462 1.29918E+01 1.09539E+01 1.19724E+01 1.18720E+01 1.66296E-02 4.85918E-02
 -1     20463 1.27081E+01 1.04885E+01 1.14969E+01 1.14597E+01-2.60278E-02 3.98339E-03
 -1     20464 1.20555E+01 1.01480E+01 1.11035E+01 1.09664E+01-2.02902E-02-5.31704E-03
 -1     20465 1.15390E+01 9.55877E+00 1.04742E+01 1.04259E+01-8.34026E-03-7.33409E-03
 -1     20466 1.06616E+01 8.86209E+00 9.77986E+00 9.74760E+00-9.14025E-03-1.47228E-02
 -1     20467 9.95164E+00 8.23681E+00 9.11882E+00 9.07086E+00 2.16473E-02-1.55143E-02
 -1     20468 8.99312E+00 7.45085E+00 8.29739E+00 8.33969E+00-6.88623E-03-1.75582E-02
 -1     20469 8.48308E+00 7.04955E+00 7.67161E+00 7.57698E+00-3.78676E-02 8.46874E-03
 -1     20470 7.45429E+00 6.14941E+00 6.81136E+00 6.88917E+00 1.72060E-02-6.89021E-02
 -1     20471 6.94830E+00 5.82268E+00 6.29129E+00 6.18119E+00-1.11618E-02-4.34836E-02
 -1     20472 6.55811E+00 5.46942E+00 6.06724E+00 5.70772E+00 5.65430E-03 1.04295E-02
 -1     20473 5.71773E+00 4.92474E+00 5.22320E+00 5.28102E+00-9.77979E-03 1.14009E-04
 -1     20474 5.36535E+00 4.47347E+00 4.99255E+00 5.12377E+00 2.04256E-02-5.20734E-02
 -1     20475 5.44353E+00 4.49051E+00 5.07646E+00 5.10294E+00 8.67889E-03-4.52658E-02
 -1     20476 5.52261E+00 4.72903E+00 5.05237E+00 5.18522E+00-2.76619E-02 2.87277E-04
 -1     20477 5.89623E+00 5.13494E+00 5.54562E+00 5.45057E+00 5.16817E-02 4.72182E-03
 -1     20478 6.17024E+00 5.21925E+00 5.66230E+00 5.67254E+00-8.68787E-03 3.48297E-02
 -1     20479 4.01632E+00 1.70500E+01 9.67694E+00 6.97636E+00-2.04628E-01-5.52654E-02
 -1     20480-1.13866E+00 1.37753E+01 6.26933E+00 6.75873E+00 3.07076E-01-5.09825E-02
 -1     20481 2.97027E-01 1.49041E+01 7.61064E+00 6.33636E+00 4.59198E-01 1.25077E-01
 -1     20482 3.98353E-01 1.41027E+01 7.12284E+00 6.41558E+00 2.48910E-01 5.67185E-02
 -1     20483-9.24749E-01 1.06939E+01 4.35697E+00 6.46941E+00 7.23235E-02 2.31945E-01
 -1     20484 3.49333E-01 1.03284E+01 5.25312E+00 6.76051E+00 6.06377E-02-1.80681E-01
 -1     20485-2.10947E-01 7.02664E+00 3.69232E+00 6.90510E+00-2.15592E-01-2.97595E-02
 -1     20486-2.46352E-01 1.23085E+01 6.93019E+00 6.66261E+00-3.56509E-01 5.45509E-01
 -1     20487 9.70754E-01 1.51494E+01 7.47414E+00 6.67974E+00 2.86023E-01-2.51615E-01
 -1     20488 1.17788E+00 1.54355E+01 7.65662E+00 6.34411E+00-4.22603E-02 3.94979E-02
 -1     20489 5.19307E-01 1.43997E+01 7.53984E+00 6.48012E+00-1.51831E-03-1.24026E-01
 -1     20490 4.65612E-01 1.23608E+01 6.18361E+00 6.74895E+00 1.21732E-01-1.45550E-02
 -1     20491 3.40390E-01 1.03118E+01 5.44344E+00 6.82946E+00 5.91370E-02-8.95542E-02
 -1     20492-7.57525E-01 6.73268E+00 3.01924E+00 6.98440E+00 1.00943E-01 1.09682E-01
 -1     20493-1.20895E+01 4.22692E+00-3.83779E+00-1.03395E+01-7.97444E-01 8.82532E-01
 -1     20494-2.16933E+01-2.14202E+00-1.29534E+01-7.55598E+00-1.97560E-01-7.21934E-01
 -1     20495-2.10599E+01-2.06610E+00-1.21989E+01-7.18413E+00-5.76938E-02-8.55552E-02
 -1     20496-2.08518E+01-2.56022E+00-1.17984E+01-6.86211E+00 1.08808E-01 4.70537E-02
 -1     20497-1.98358E+01-2.20184E+00-1.11019E+01-6.61972E+00 1.43092E-02-5.87251E-03
 -1     20498-1.97297E+01-2.17475E+00-1.09879E+01-6.64732E+00 3.45949E-03-1.34496E-03
 -1     20499-1.94588E+01-2.24097E+00-1.08755E+01-6.50964E+00 2.68541E-02-8.58300E-03
 -1     20500-1.92067E+01-2.10674E+00-1.06580E+01-6.45493E+00-8.65154E-03 8.50835E-03
 -1     20501-1.91569E+01-2.18482E+00-1.06480E+01-6.39767E+00 1.14485E-02 1.19331E-02
 -1     20502-1.89163E+01-2.10827E+00-1.05097E+01-6.34059E+00-1.35601E-02 4.92594E-03
 -1     20503-1.87366E+01-2.09881E+00-1.04289E+01-6.28199E+00-9.83794E-03-4.09930E-03
 -1     20504-1.85415E+01-2.09968E+00-1.03267E+01-6.18872E+00 4.96734E-03 4.41259E-03
 -1     20505-1.82476E+01-2.07896E+00-1.01180E+01-6.12952E+00 9.06766E-03-3.84424E-02
 -1     20506-1.78840E+01-2.05307E+00-9.95637E+00-5.96182E+00-2.83790E-02-3.65652E-03
 -1     20507-1.74139E+01-1.88118E+00-9.69680E+00-5.85780E+00-6.66063E-03 3.44809E-04
 -1     20508-1.67991E+01-1.91371E+00-9.47011E+00-5.56798E+00-9.48728E-03-5.04396E-03
 -1     20509-1.61286E+01-1.76007E+00-8.93349E+00-5.40535E+00-4.10457E-03 2.94855E-02
 -1     20510-1.58348E+01-2.35980E+00-9.14102E+00-5.01685E+00 3.75123E-02-1.20136E-02
 -1     20511-1.41801E+01-1.64572E+00-7.98811E+00-4.70622E+00 4.99847E-02 5.67402E-02
 -1     20512-1.27298E+01-1.22284E+00-6.97007E+00-4.36728E+00 4.75077E-02 4.85013E-02
 -1     20513-1.16754E+01-1.43753E+00-6.52419E+00-3.95892E+00 8.30318E-02 8.25228E-02
 -1     20514-1.11855E+01-1.69409E+00-6.20673E+00-3.98947E+00 1.73701E-01 3.74441E-02
 -1     20515-1.01200E+01-1.94286E+00-6.05780E+00-3.43476E+00 2.50321E-02 7.79549E-02
 -1     20516-1.02082E+01-1.90274E+00-5.75741E+00-3.78087E+00 6.81358E-02 2.66487E-01
 -1     20517-1.12614E+01-6.51046E+00-8.48691E+00-2.93482E+00-3.54290E-01 7.41015E-01
 -1     20518-3.16109E+01-5.10111E+00-2.10599E+01-1.09970E+01-6.41771E-01-2.53882E+00
 -1     20519-2.08235E+01 1.27487E-01-1.05955E+01-7.71957E+00-9.02531E-01-4.93943E-01
 -1     20520-1.87679E+01-1.00350E+00-1.04434E+01-7.37982E+00 1.65898E-01-4.84751E-02
 -1     20521-1.96525E+01-1.86154E+00-1.06841E+01-7.12063E+00 4.29851E-02 2.96941E-01
 -1     20522-1.92828E+01-1.56124E+00-1.06886E+01-6.55309E+00 1.33391E-01-1.05142E-01
 -1     20523-1.95907E+01-2.17712E+00-1.09240E+01-6.63808E+00 4.58312E-02 1.58111E-02
 -1     20524-1.93036E+01-2.06185E+00-1.06265E+01-6.50322E+00 2.67679E-02 4.77711E-03
 -1     20525-1.92038E+01-2.14563E+00-1.06333E+01-6.45160E+00 2.88249E-02 3.57806E-03
 -1     20526-1.91421E+01-2.14006E+00-1.06340E+01-6.39910E+00-3.52294E-03-1.95683E-04
 -1     20527-1.89157E+01-2.11775E+00-1.04906E+01-6.32362E+00-8.72843E-03-1.34601E-02
 -1     20528-1.87951E+01-2.17997E+00-1.04673E+01-6.30209E+00-2.05366E-03-1.15536E-02
 -1     20529-1.85151E+01-2.04385E+00-1.02537E+01-6.20261E+00-1.34632E-02-7.38834E-03
 -1     20530-1.82799E+01-2.09116E+00-1.01963E+01-6.08819E+00 1.35765E-02 8.27181E-03
 -1     20531-1.79520E+01-2.02730E+00-1.00018E+01-5.97125E+00 9.33682E-03 1.04211E-02
 -1     20532-1.74545E+01-1.96705E+00-9.63481E+00-5.80886E+00 6.42023E-03 1.49968E-02
 -1     20533-1.68374E+01-1.94921E+00-9.40825E+00-5.60796E+00 8.79364E-03 6.48223E-03
 -1     20534-1.61864E+01-1.94833E+00-9.01402E+00-5.34712E+00 1.97031E-03-2.48181E-02
 -1     20535-1.50896E+01-1.67367E+00-8.31227E+00-5.16364E+00-1.79302E-02-4.47644E-02
 -1     20536-1.44851E+01-1.68307E+00-8.14835E+00-4.72735E+00 2.24133E-03-1.02748E-01
 -1     20537-1.29800E+01-1.72338E+00-7.33060E+00-4.23194E+00-3.17992E-02-4.81963E-02
 -1     20538-1.15480E+01-1.05117E+00-6.36863E+00-3.88060E+00-2.84561E-02 1.19394E-01
 -1     20539-1.15640E+01-1.65391E+00-6.74338E+00-3.95791E+00 1.15174E-01 1.33799E-01
 -1     20540-1.07368E+01-1.82943E+00-6.14463E+00-3.55452E+00-1.94868E-01 2.55251E-01
 -1     20541-8.23393E+00-1.16501E+00-4.56431E+00-3.42808E+00 6.75946E-02 1.75531E-01
 -1     20542-9.13066E+00-2.84239E+00-6.39625E+00-2.77712E+00 1.09919E-01-1.60168E-01
 -1     20543 5.65187E+00 5.64107E+00 5.62561E+00 5.79564E+00 1.42300E-03-1.54501E-02
 -1     20544 4.91777E+00 4.91356E+00 4.91229E+00 5.68965E+00-1.65910E-02-1.20546E-03
 -1     20545 6.32897E+00 6.32417E+00 6.36475E+00 5.64473E+00 1.69126E-02 2.56675E-02
 -1     20546 3.58728E+00 3.55098E+00 3.52990E+00 5.55531E+00-7.78972E-03-2.79747E-02
 -1     20547 8.72062E+00 8.72241E+00 8.72627E+00 5.40351E+00-3.03874E-02-2.49562E-03
 -1     20548 6.41609E+00 6.43393E+00 6.43297E+00 5.19792E+00 3.72087E-02 8.79223E-03
 -1     20549 5.88910E+00 5.87808E+00 5.86559E+00 4.67435E+00-5.06171E-03-1.10111E-02
 -1     20550 7.91854E+00 7.86160E+00 7.86535E+00 3.96609E+00 5.08899E-03-1.87114E-02
 -1     20551 8.10714E+00 8.08255E+00 8.07143E+00 3.17644E+00-2.89251E-02-1.57138E-02
 -1     20552 8.02838E+00 7.86322E+00 7.89057E+00 2.41087E+00-8.35656E-03-8.25828E-02
 -1     20553 6.48090E+00 6.41480E+00 6.35950E+00 1.48286E+00 5.78098E-02-6.07858E-02
 -1     20554 8.98311E+00 9.02883E+00 9.06374E+00 6.83179E-01 2.63152E-02 4.04105E-02
 -1     20555 3.44487E+00 3.39268E+00 3.35096E+00-8.46081E-02 1.19318E-03-4.32427E-02
 -1     20556 2.68144E+00 2.66777E+00 2.72894E+00-8.91972E-01-1.71874E-02 3.02016E-02
 -1     20557-7.68909E-01-7.86910E-01-8.58446E-01-1.61322E+00 1.54818E-04-5.00721E-02
 -1     20558-3.35731E+00-3.41514E+00-3.43525E+00-2.07828E+00-6.86076E-02-2.40147E-02
 -1     20559 3.96391E+00 4.12592E+00 4.26176E+00-2.15195E+00 1.78057E-01 1.44459E-01
 -1     20560-9.28862E+00-9.17163E+00-9.37364E+00-2.05500E+00 1.34280E-01-6.92424E-02
 -1     20561-1.42212E+01-1.44702E+01-1.45937E+01-1.63590E+00-1.49607E-01-1.92168E-01
 -1     20562-2.73048E+01-2.72946E+01-2.70748E+01-7.51351E-01-1.57228E-01 9.61759E-02
 -1     20563-3.03560E+01-3.18605E+01-3.10051E+01 2.40675E+00-1.65161E-01 6.50534E-02
 -1     20564 6.03927E+00 6.02357E+00 6.01420E+00 5.82159E+00-1.94846E-03 7.43624E-03
 -1     20565 5.28771E+00 5.29707E+00 5.30755E+00 5.66093E+00-8.45752E-03-1.16705E-02
 -1     20566 5.14908E+00 5.15537E+00 5.16181E+00 5.67751E+00-2.77703E-02-8.67900E-03
 -1     20567 4.42275E+00 4.42403E+00 4.39769E+00 5.61156E+00-3.54590E-02 1.47250E-02
 -1     20568 5.86126E+00 5.87788E+00 5.87018E+00 5.47519E+00-1.60378E-03-3.59728E-03
 -1     20569 4.31855E+00 4.26556E+00 4.18223E+00 5.17033E+00 5.12751E-03 6.75315E-02
 -1     20570 8.15827E+00 8.08174E+00 8.01199E+00 4.71455E+00 1.80765E-02 7.31813E-02
 -1     20571 8.02998E+00 7.87428E+00 7.95660E+00 4.02737E+00 2.19572E-02-4.75395E-03
 -1     20572 8.92991E+00 8.84776E+00 8.86070E+00 3.18705E+00 3.16165E-02 2.04301E-02
 -1     20573 9.55281E+00 9.51971E+00 9.55887E+00 2.42845E+00 6.92832E-02-4.74699E-03
 -1     20574 6.08941E+00 5.98763E+00 5.90831E+00 1.60639E+00 3.39607E-02 9.51627E-02
 -1     20575 5.49939E+00 5.44390E+00 5.49309E+00 7.95555E-01-6.62761E-03 9.38748E-03
 -1     20576 6.80790E+00 6.71658E+00 6.63681E+00-1.76650E-02 2.45942E-03 8.52010E-02
 -1     20577 1.50497E+00 1.41131E+00 1.45560E+00-8.75659E-01 3.76809E-02 4.05553E-02
 -1     20578 3.11128E+00 3.08942E+00 3.08308E+00-1.66748E+00 2.50614E-02 1.49760E-02
 -1     20579-2.38150E-01-2.27306E-01-2.06412E-01-2.07832E+00-3.77003E-04-2.10588E-02
 -1     20580-5.49100E+00-5.44820E+00-5.48956E+00-2.29072E+00 4.87901E-02-1.57363E-03
 -1     20581 7.16791E+00 7.03621E+00 6.85831E+00-2.40599E+00 3.47898E-02 1.73448E-01
 -1     20582-1.83103E+01-1.83183E+01-1.83946E+01-1.85903E+00 4.40870E-02 6.62865E-02
 -1     20583-1.28180E+01-1.26852E+01-1.26346E+01-3.87686E-01 2.45986E-01-7.74200E-02
 -1     20584-1.54950E+01-1.46649E+01-1.54005E+01 3.50866E+00-5.63688E-02 2.63023E-02
 -1     20585 1.56035E+00 8.70594E+00 4.87674E+00 7.16582E+00-5.66147E-03-1.09343E-01
 -1     20586 7.41138E+00 9.64852E+00 8.55016E+00 8.58900E+00-7.96677E-04 4.83627E-02
 -1     20587 9.39786E+00 9.46735E+00 9.47668E+00 9.65959E+00 2.44134E-02-2.12970E-02
 -1     20588 1.09700E+01 1.01719E+01 1.05268E+01 1.03791E+01-8.23630E-03-1.10856E-03
 -1     20589 1.13851E+01 9.98091E+00 1.06817E+01 1.07629E+01 3.81222E-03 6.92164E-04
 -1     20590 1.19280E+01 1.01457E+01 1.10497E+01 1.09784E+01-8.36547E-03-1.37966E-02
 -1     20591 1.21038E+01 9.96107E+00 1.10021E+01 1.10113E+01 1.06852E-03-8.07878E-03
 -1     20592 1.22293E+01 9.64543E+00 1.09139E+01 1.07744E+01-1.75364E-02 2.76037E-02
 -1     20593 1.20952E+01 9.02793E+00 1.05733E+01 1.03236E+01-1.09061E-02 1.23596E-02
 -1     20594 1.14430E+01 7.89850E+00 9.66156E+00 9.58839E+00-1.10251E-02 4.13918E-03
 -1     20595 1.04750E+01 6.76116E+00 8.57205E+00 8.55670E+00-1.48374E-02-2.71260E-03
 -1     20596 9.14891E+00 5.58532E+00 7.29554E+00 7.39205E+00 1.44605E-02 3.46184E-04
 -1     20597 7.80110E+00 4.83837E+00 6.34776E+00 6.42669E+00-2.04964E-02 2.31565E-03
 -1     20598 6.65316E+00 4.53612E+00 5.58575E+00 5.57331E+00-2.31362E-02-1.96487E-03
 -1     20599 6.00072E+00 4.92816E+00 5.46787E+00 5.29398E+00-3.13482E-02-7.45379E-03
 -1     20600 5.65129E+00 5.47049E+00 5.57413E+00 5.51452E+00 1.38742E-02-3.45051E-03
 -1     20601 6.51790E+00 6.09176E+00 6.37836E+00 5.34768E+00-1.84979E-02 1.14886E-02
 -1     20602 6.97164E+00 5.59996E+00 6.32213E+00 4.80263E+00-5.35225E-02-1.32980E-03
 -1     20603 8.17956E+00 6.04184E+00 7.21076E+00 3.86181E+00 2.02873E-02 1.44362E-02
 -1     20604 8.53499E+00 5.84457E+00 7.34172E+00 2.67449E+00 1.29703E-02-1.10571E-01
 -1     20605 5.98499E+00 3.64071E+00 4.72046E+00 1.20228E+00 2.39542E-02-4.73888E-03
 -1     20606 1.40720E+00-7.59258E-01 3.19746E-01 1.33710E-01-3.78007E-02-2.64511E-02
 -1     20607-3.80144E-01-1.32265E+00-8.26129E-01-7.64042E-01-6.99474E-02 1.89235E-03
 -1     20608-9.34139E+00-6.91124E+00-8.08893E+00-4.74406E-01-1.57342E-01-8.49781E-02
 -1     20609-8.20762E+00 5.15121E-01-4.69432E+00 1.79271E+00-6.09137E-02 4.73781E-02
 -1     20610-5.07649E+01-2.69340E+01-3.89200E+01 3.16455E+00 1.36850E-01-8.54872E-01
 -1     20611-2.07774E+01-1.26221E+00-1.04369E+01-5.42666E+00 1.80411E-01 3.13269E-01
 -1     20612-1.89851E+01-2.20521E+00-1.05085E+01-5.70563E+00 1.34330E-02 3.71154E-02
 -1     20613-1.75494E+01-1.84862E+00-9.67356E+00-5.47960E+00 2.21139E-02-1.42601E-02
 -1     20614-1.67174E+01-1.66742E+00-9.19327E+00-5.39406E+00 2.51348E-03 5.00150E-04
 -1     20615-1.63727E+01-1.74878E+00-9.05232E+00-5.20106E+00-9.50899E-03 7.07910E-04
 -1     20616-1.55999E+01-1.46852E+00-8.54843E+00-4.88837E+00-1.97237E-02-1.79662E-03
 -1     20617-1.48286E+01-1.28750E+00-8.03642E+00-4.47803E+00 1.60998E-02 2.31138E-02
 -1     20618-1.35499E+01-9.75978E-01-7.22044E+00-3.84249E+00-3.38312E-02 3.00166E-03
 -1     20619-1.21039E+01-8.39309E-01-6.48912E+00-3.14365E+00 2.93178E-02-1.99030E-02
 -1     20620-9.53238E+00-2.82564E-01-5.00102E+00-1.99975E+00-1.61963E-02-2.31434E-02
 -1     20621-5.23233E+00 1.48405E+00-2.00707E+00-5.78222E-01 2.32267E-02-3.45926E-02
 -1     20622 6.83266E-01 5.26645E+00 2.74175E+00 3.12594E+00-4.20506E-02-2.60931E-01
 -1     20623-2.97066E-02 9.07642E+00 4.62119E+00 6.09126E+00-4.08841E-02 2.93198E-02
 -1     20624 3.01195E-01 1.01721E+01 5.10044E+00 7.49122E+00 2.28367E-02-9.40984E-02
 -1     20625 5.49516E+00 9.30421E+00 7.31685E+00 7.51245E+00-5.76656E-03-4.00852E-02
 -1     20626 9.19975E+00 1.02182E+01 9.86385E+00 9.05945E+00-8.92890E-02-2.51530E-02
 -1     20627 9.77669E+00 9.27978E+00 9.59452E+00 9.99860E+00 6.07490E-02 4.85495E-02
 -1     20628 1.11209E+01 1.00525E+01 1.05920E+01 1.05577E+01 7.42612E-04 5.61839E-03
 -1     20629 1.18032E+01 1.02988E+01 1.10788E+01 1.08599E+01-4.75381E-02-2.40966E-02
 -1     20630 1.18576E+01 9.94766E+00 1.09142E+01 1.09984E+01 1.99410E-02-8.29732E-03
 -1     20631 1.20843E+01 9.71779E+00 1.08587E+01 1.08952E+01 7.03978E-03-2.75249E-02
 -1     20632 1.20647E+01 9.36975E+00 1.06642E+01 1.06055E+01-1.36224E-02-7.76060E-03
 -1     20633 1.15852E+01 8.40915E+00 1.00096E+01 9.97392E+00-3.41348E-02-1.77837E-02
 -1     20634 1.08847E+01 7.26691E+00 9.05897E+00 9.07905E+00-2.09810E-02-2.50466E-02
 -1     20635 9.88540E+00 6.21357E+00 8.08872E+00 8.00759E+00-2.61344E-02 8.97951E-03
 -1     20636 8.81711E+00 5.46274E+00 7.14320E+00 6.92190E+00-4.22917E-02 2.99331E-03
 -1     20637 7.41452E+00 4.82895E+00 6.09310E+00 5.95124E+00-1.19602E-02-3.97279E-02
 -1     20638 6.43237E+00 4.90894E+00 5.60079E+00 5.41635E+00 1.28655E-02 1.33817E-02
 -1     20639 5.75740E+00 5.17994E+00 5.46486E+00 5.39576E+00-1.35645E-02 1.27303E-02
 -1     20640 5.83592E+00 5.53914E+00 5.67559E+00 5.59320E+00 7.95547E-03 5.90571E-03
 -1     20641 6.01167E+00 5.72785E+00 5.84124E+00 5.50622E+00 1.03313E-02 2.37267E-02
 -1     20642 6.69088E+00 5.56372E+00 6.16685E+00 5.15702E+00-2.98265E-02-3.10631E-03
 -1     20643 8.15995E+00 6.26655E+00 7.23129E+00 4.34094E+00-6.02400E-02-3.43675E-02
 -1     20644 8.20477E+00 5.85675E+00 7.03890E+00 3.29408E+00 1.61254E-02-5.47433E-02
 -1     20645 6.87727E+00 4.20164E+00 5.53446E+00 1.93481E+00 3.15240E-02-2.69884E-02
 -1     20646 5.84401E+00 3.63175E+00 4.80278E+00 6.34751E-01-1.13253E-01 5.03543E-02
 -1     20647 1.12043E-01-1.27872E+00-5.52391E-01-4.54736E-01-1.25569E-01 1.46919E-03
 -1     20648-5.27089E+00-5.35138E+00-5.31996E+00-8.26878E-01 1.90102E-01 1.39610E-01
 -1     20649-4.03916E+00-1.18086E-01-1.42074E+00 2.00614E-01 2.21110E-01-1.16535E-01
 -1     20650-1.79638E+01-1.84036E+00-9.95304E+00-5.57595E+00 5.73045E-03 2.21453E-02
 -1     20651-2.26207E+01 5.12985E-01-1.03671E+01-6.34125E+00-5.68022E-01 1.59016E-02
 -1     20652-1.97669E+01-2.15433E+00-1.10221E+01-5.66123E+00 3.18389E-01 6.61030E-02
 -1     20653-1.69691E+01-1.60610E+00-9.27184E+00-5.46733E+00 6.37287E-03-2.93669E-03
 -1     20654-1.65290E+01-1.75588E+00-9.15386E+00-5.29503E+00-2.05303E-02-4.17733E-03
 -1     20655-1.59382E+01-1.60359E+00-8.76573E+00-5.07295E+00 8.41392E-03-1.80172E-02
 -1     20656-1.52517E+01-1.35450E+00-8.26657E+00-4.66315E+00-1.46667E-02 9.53399E-03
 -1     20657-1.42237E+01-1.13513E+00-7.66215E+00-4.12345E+00 2.39753E-03 8.14776E-03
 -1     20658-1.32214E+01-1.13283E+00-7.12515E+00-3.47007E+00-7.40397E-03 8.29310E-03
 -1     20659-1.07543E+01-2.89454E-01-5.67321E+00-2.53245E+00 6.05794E-02 3.32171E-02
 -1     20660-8.13439E+00-9.85212E-02-4.23309E+00-1.42127E+00-6.86425E-03-5.14996E-02
 -1     20661-4.55379E+00 1.17599E+00-1.53540E+00 3.09708E-01-7.12466E-02 1.09673E-01
 -1     20662-2.24064E+00 5.61300E+00 1.18177E+00 4.66588E+00-3.66184E-02-1.38628E-01
 -1     20663 2.56466E-01 1.00476E+01 5.39326E+00 7.10479E+00-1.79063E-02 1.16251E-01
 -1     20664-1.21099E-01 8.97309E+00 4.60010E+00 7.94877E+00-1.33695E-01 1.43760E-01
 -1     20665 7.03131E+00 8.53826E+00 7.72844E+00 8.23441E+00 2.93215E-02-3.24178E-02
 -1     20666 8.16031E+00 8.44899E+00 8.32618E+00 8.84328E+00-1.17343E-02-6.17597E-03
 -1     20667 1.06739E+00 9.16118E+00 5.14612E+00 7.59893E+00-2.68021E-02 1.09660E-02
 -1     20668 9.37745E+00 8.72301E+00 9.08952E+00 9.18276E+00-2.98196E-02 1.23954E-02
 -1     20669 7.73136E+00 8.50307E+00 8.13175E+00 8.59048E+00-1.20999E-03 1.56773E-02
 -1     20670 9.82286E+00 8.44937E+00 9.16632E+00 9.42311E+00 5.28012E-03-9.91175E-03
 -1     20671 1.06191E+01 8.54168E+00 9.58724E+00 9.48504E+00 3.14297E-03-1.21328E-02
 -1     20672 1.05551E+01 7.59347E+00 9.06456E+00 9.36831E+00-6.73166E-03 2.21639E-02
 -1     20673 1.06121E+01 6.67307E+00 8.66696E+00 9.02476E+00-2.48795E-02 1.31782E-02
 -1     20674 1.05415E+01 5.80414E+00 8.20627E+00 8.39197E+00-1.55269E-02 2.46321E-02
 -1     20675 1.03301E+01 5.07528E+00 7.69775E+00 7.51415E+00-7.37471E-03 1.85490E-02
 -1     20676 9.53585E+00 4.35766E+00 7.00799E+00 6.71699E+00-2.37561E-02 1.80957E-02
 -1     20677 8.60984E+00 4.41409E+00 6.49279E+00 6.01825E+00 1.22197E-02-6.11277E-03
 -1     20678 7.14863E+00 4.53221E+00 5.83031E+00 5.47481E+00-3.71849E-02 6.12773E-03
 -1     20679 6.98375E+00 5.44661E+00 6.25189E+00 5.26574E+00 1.32636E-02 2.62952E-02
 -1     20680 8.94266E+00 5.99918E+00 7.51879E+00 4.70857E+00 1.94370E-02-1.58290E-02
 -1     20681 6.37003E+00 5.38459E+00 5.83594E+00 5.34506E+00 8.41760E-03 4.74478E-03
 -1     20682 6.35430E+00 1.67039E+00 3.95207E+00 2.48915E+00-7.63096E-02-5.11713E-02
 -1     20683 7.64715E+00 3.47746E+00 5.59093E+00 3.84452E+00 5.94772E-02 4.26738E-02
 -1     20684-2.33988E+01-4.28067E+00-1.37393E+01-2.77239E+00 2.53531E-01-1.75997E-01
 -1     20685 7.03766E+00 2.64805E+00 4.97318E+00 2.88771E+00-4.72120E-02-2.70227E-02
 -1     20686 7.34332E+00 3.74900E+00 5.48559E+00 4.27461E+00-2.82353E-02 4.03748E-02
 -1     20687 4.10090E+00 3.52040E-01 2.18037E+00 1.63690E+00-1.26950E-02 2.46174E-02
 -1     20688-2.43136E-01-2.07828E+00-1.17243E+00 1.04537E+00 6.66371E-02 4.00486E-03
 -1     20689-6.95970E+00-4.78633E+00-5.98806E+00 9.77418E-01 3.01139E-02 2.25421E-01
 -1     20690-2.16220E+01-1.04866E+01-1.58616E+01 1.38935E+00 3.99258E-04 1.45752E-01
 -1     20691-1.81320E+01-1.86527E+00-9.98287E+00-4.35861E+00 9.27971E-03-8.43733E-02
 -1     20692-3.02674E+01-8.98425E+00-1.99035E+01 1.07789E+00-6.72655E-02-6.53171E-01
 -1     20693-1.38258E+01-1.12881E+00-7.46223E+00-4.11847E+00-1.23324E-03 1.31064E-02
 -1     20694-1.52468E+01-1.52104E+00-8.39562E+00-4.36228E+00 5.89593E-03 2.10756E-02
 -1     20695-1.31106E+01-8.87559E-01-6.99121E+00-3.72039E+00-1.10234E-02-3.32933E-03
 -1     20696-1.56790E+01-1.45025E+00-8.55698E+00-4.39869E+00 5.05088E-03-4.83250E-03
 -1     20697-1.35391E+01-1.10347E+00-7.33409E+00-3.92151E+00 2.35564E-03 5.75203E-03
 -1     20698-1.22250E+01-5.03588E-01-6.37435E+00-3.17847E+00-9.10666E-03 1.58147E-02
 -1     20699-1.14038E+01-1.39803E-01-5.79772E+00-2.42811E+00-3.18878E-02-2.59863E-02
 -1     20700-1.00013E+01 5.33554E-01-4.76995E+00-1.54584E+00 9.39373E-03 2.06794E-02
 -1     20701-6.85377E+00 1.61450E+00-2.69814E+00-1.43142E-01-5.44172E-02-4.69560E-02
 -1     20702-4.37190E+00 2.02749E+00-1.15607E+00 1.83686E+00 4.67624E-02 1.54143E-02
 -1     20703-2.48234E+00 3.19730E+00 3.10642E-01 3.42858E+00 2.24957E-02-1.43742E-02
 -1     20704-1.92581E+00 5.18971E+00 1.67267E+00 5.53388E+00-4.07885E-02 1.65604E-02
 -1     20705 5.89106E+00 8.61434E+00 7.26744E+00 8.00830E+00 1.52103E-02-1.86469E-02
 -1     20706-5.92395E-01 8.32917E+00 3.96509E+00 7.62226E+00-7.78527E-02 1.09467E-01
 -1     20707 6.53234E+00 2.23341E+00 4.63331E+00 3.42656E+00 1.20805E-02-2.54690E-02
 -1     20708 8.82459E+00 8.61595E+00 8.77870E+00 8.99271E+00 1.98799E-04-1.65387E-03
 -1     20709 9.54122E+00 8.61539E+00 9.12599E+00 9.28172E+00 1.60250E-02-2.72096E-02
 -1     20710-1.42938E+01-1.35368E+00-7.83232E+00-4.21454E+00-4.92202E-03 1.72527E-04
 -1     20711 4.40199E+00 8.42683E+00 6.39272E+00 7.62530E+00-4.47330E-02-2.54997E-02
 -1     20712 1.07630E+01 6.42131E+00 8.57903E+00 8.67913E+00 1.12283E-02-5.67235E-03
 -1     20713 1.06377E+01 8.09315E+00 9.37335E+00 9.48263E+00 5.42249E-03 3.20579E-03
 -1     20714 1.02476E+01 8.52208E+00 9.38783E+00 9.49146E+00-4.91138E-03-1.48299E-02
 -1     20715 1.06854E+01 7.20536E+00 8.90726E+00 9.17090E+00-4.68908E-03-9.35981E-03
 -1     20716 1.05258E+01 5.43915E+00 7.99061E+00 7.99138E+00 1.01819E-02-3.88083E-04
 -1     20717 1.00941E+01 4.75735E+00 7.41055E+00 7.13292E+00 6.36632E-03 2.15329E-02
 -1     20718 9.16689E+00 4.49568E+00 6.82853E+00 6.31672E+00-1.25793E-02-4.55718E-04
 -1     20719 8.13947E+00 4.69579E+00 6.40800E+00 5.69034E+00 1.10075E-03 9.26992E-03
 -1     20720 4.94124E+00 7.01056E-01 2.73961E+00 2.03711E+00-3.51103E-02 7.47584E-02
 -1     20721 6.80581E+00 4.96557E+00 5.86452E+00 5.36901E+00-2.25259E-02 8.19050E-03
 -1     20722 7.58927E+00 5.36255E+00 6.44069E+00 5.01413E+00-7.35072E-03 1.70149E-02
 -1     20723 3.58042E-01-2.54332E+00-1.09594E+00 1.20513E+00 2.91781E-02-3.71109E-02
 -1     20724-1.84910E+01-5.37386E-01-9.60502E+00-4.01589E+00 5.88872E-02-4.52784E-02
 -1     20725-3.17513E+00-3.19802E+00-3.31106E+00 1.08589E+00 4.47417E-02-4.79568E-02
 -1     20726-1.13460E+01-6.98465E+00-9.08358E+00 1.12410E+00-4.59809E-03 2.60168E-02
 -1     20727-1.62250E+01-1.13729E+00-8.70509E+00-4.34268E+00-2.25372E-02 1.44427E-03
 -1     20728-1.45873E+01-1.32425E+00-7.98071E+00-4.33347E+00 8.00891E-03 6.61481E-03
 -1     20729-1.19689E+01-4.97384E-01-6.19870E+00-2.80810E+00 8.27921E-03-2.54917E-02
 -1     20730-1.26822E+01-7.06252E-01-6.72831E+00-3.48360E+00-9.33220E-03-1.29273E-03
 -1     20731-1.05881E+01 2.54549E-01-5.22533E+00-1.97853E+00-6.98497E-03 4.90772E-03
 -1     20732-8.72043E+00 9.36512E-01-3.85707E+00-9.98777E-01 8.82087E-02-1.87623E-02
 -1     20733-5.86249E+00 1.94506E+00-2.03496E+00 6.65652E-01-5.24791E-03-5.47620E-02
 -1     20734-3.22399E+00 5.25417E+00 1.12278E+00 6.95774E+00 1.91963E-02 2.20739E-02
 -1     20735 2.93013E+00 9.13543E+00 6.01129E+00 7.33623E+00-3.27190E-02-4.20457E-03
 -1     20736 8.23231E+00 7.17692E+00 7.70422E+00 8.00307E+00-5.52832E-03-7.28644E-03
 -1     20737 9.68819E+00 3.63409E+00 6.65292E+00 6.36731E+00-1.77235E-02 1.47323E-02
 -1     20738 9.12612E+00 6.43740E+00 7.79198E+00 8.19046E+00-2.19046E-02 2.26399E-03
 -1     20739 1.00908E+01 3.94685E+00 7.02590E+00 7.08058E+00 3.22689E-03 1.03884E-02
 -1     20740 1.02309E+01 5.07633E+00 7.59333E+00 7.75009E+00-4.05166E-03-1.13768E-02
 -1     20741 8.93424E+00 3.56662E+00 6.27348E+00 5.71502E+00 9.08485E-03-3.38024E-02
 -1     20742 9.73607E+00 5.81733E+00 7.78521E+00 8.11112E+00-8.63250E-03-1.30875E-02
 -1     20743 9.92480E+00 3.79982E+00 6.86392E+00 6.77219E+00-1.31010E-03-2.43095E-04
 -1     20744 9.16667E+00 3.30299E+00 6.19315E+00 6.07298E+00-4.86554E-03 1.17454E-02
 -1     20745 7.69656E+00 4.44024E+00 6.06534E+00 5.05783E+00-1.13451E-02 1.40325E-02
 -1     20746 6.57707E+00 9.41325E-01 3.83696E+00 2.96890E+00-6.88661E-02 6.24684E-03
 -1     20747-1.21867E+01-3.25116E+00-7.86895E+00 1.07250E+00-6.09258E-02-1.56749E-01
 -1     20748 1.01142E+01 4.41554E+00 7.29249E+00 7.34018E+00 8.15822E-03 2.41148E-02
 -1     20749-5.15802E+00-3.44601E+00-4.28441E+00 1.66683E+00-1.40427E-02 4.91428E-02
 -1     20750 7.69522E+00 5.00777E+00 6.33376E+00 5.28620E+00-7.48220E-03 3.14428E-02
 -1     20751 3.15350E+00-8.33212E-01 1.17400E+00 2.34649E+00-3.57413E-02 2.28209E-03
 -1     20752-8.93643E+00-3.99922E+00-6.43124E+00 1.62679E+00-6.64991E-02 2.58939E-02
 -1     20753 8.37415E+00 2.61740E+00 5.47924E+00 3.42889E+00-3.68176E-03 3.84349E-02
 -1     20754-8.47741E+00 1.03698E+00-3.65847E+00-6.80053E-01 3.48269E-03 2.03766E-02
 -1     20755-1.68881E+01-1.77876E+00-9.11568E+00-1.45426E+00-1.41390E-01-1.53715E-01
 -1     20756-1.00137E+01 9.26441E-02-4.95454E+00-2.02517E+00 1.56512E-02 9.83509E-03
 -1     20757 9.43813E+00 6.16730E+00 7.83122E+00 8.12600E+00-3.07372E-03-3.64087E-02
 -1     20758-1.70423E+01-2.68108E+00-1.04507E+01-4.93076E-01-9.48591E-02-1.22515E-01
 -1     20759-1.24859E+01-8.33637E-01-6.66934E+00-3.20063E+00 5.54369E-04 1.21790E-02
 -1     20760-1.17960E+01-8.53196E-01-6.31825E+00-3.01137E+00 8.26591E-03 3.10873E-03
 -1     20761-1.03756E+01-1.50294E-01-5.26864E+00-2.28556E+00 3.69953E-03 6.49198E-03
 -1     20762-1.07330E+01-3.16099E-01-5.55364E+00-2.59845E+00-1.09803E-03 5.67972E-03
 -1     20763-1.63681E+00 5.66022E+00 2.09579E+00 5.59439E+00-4.75877E-02-4.69168E-02
 -1     20764 5.01769E+00 2.29560E-01 2.63455E+00 2.62756E+00-2.75006E-02 2.55491E-02
 -1     20765-1.11321E+01-4.77389E-01-5.78643E+00-2.80864E+00-7.81628E-03 5.34975E-04
 -1     20766-8.87190E+00 8.59327E-01-4.00188E+00-1.19705E+00 8.76608E-03 2.30645E-02
 -1     20767-1.19426E+01-7.23361E-01-6.32892E+00-3.09195E+00-1.14776E-02 9.52300E-03
 -1     20768 4.04035E+00 7.63784E+00 5.83649E+00 6.80843E+00 1.25805E-02-1.68959E-02
 -1     20769 9.85805E+00 5.34808E+00 7.63011E+00 7.85841E+00-1.43301E-02-1.83389E-03
 -1     20770 4.00753E-01 8.33748E+00 4.30789E+00 7.15224E+00-2.94203E-02-1.89637E-02
 -1     20771-1.45338E+01-1.04084E+00-7.76708E+00-2.76116E+00 4.05310E-02-5.27515E-02
 -1     20772 8.96249E+00 6.78687E+00 7.85639E+00 8.20291E+00 6.38010E-03-2.52481E-02
 -1     20773 8.09806E+00 4.52868E+00 6.29349E+00 5.36049E+00-2.43264E-02 4.88301E-03
 -1     20774 2.60036E+00 7.61033E+00 5.10749E+00 6.69352E+00 1.91127E-03-4.17815E-02
 -1     20775-1.30000E+01-9.65946E-01-6.98161E+00-3.13670E+00 9.45669E-03 9.09129E-04
 -1     20776 1.46017E+00 7.97295E+00 4.63783E+00 6.80864E+00-3.95391E-02 1.91065E-03
 -1     20777-1.92992E+00-2.61811E+00-2.29810E+00 1.81990E+00-4.09635E-02 6.53961E-02
 -1     20778-1.38545E+01-9.88530E-01-7.41289E+00-3.06639E+00-1.20030E-02-2.73006E-02
 -1     20779 8.09551E-01-1.73201E+00-4.74952E-01 2.07008E+00-2.24182E-02-4.58289E-04
 -1     20780 7.63871E+00 7.13269E+00 7.33989E+00 7.87731E+00 1.50887E-02-3.06514E-02
 -1     20781 8.83258E+00 3.25987E+00 5.97045E+00 4.16941E+00-2.03852E-02 7.24206E-02
 -1     20782 7.35686E+00 7.37126E+00 7.37243E+00 7.70195E+00-8.83048E-03-1.10914E-02
 -1     20783 5.12834E+00 7.74131E+00 6.44041E+00 7.04109E+00 1.51482E-02-1.44665E-03
 -1     20784-1.14405E+00 6.96489E+00 2.87508E+00 6.57940E+00 2.86412E-03 3.31712E-02
 -1     20785-3.54985E+00 3.57588E+00 7.73461E-02 3.71783E+00 7.00561E-02 1.60195E-03
 -1     20786 8.58927E+00 6.98379E+00 7.79089E+00 8.07802E+00-1.35791E-02 4.31136E-03
 -1     20787 8.33801E+00 4.04547E+00 6.21890E+00 4.77349E+00 3.21823E-02 1.24831E-02
 -1     20788-1.67992E+01-2.24400E+00-9.37474E+00-2.33470E+00 1.00416E-02-1.48886E-01
 -1     20789-8.25326E+00 9.18819E-01-3.57237E+00-2.38044E-01 1.52781E-02 5.73976E-02
 -1     20790 6.89591E+00 7.46766E+00 7.17045E+00 7.54213E+00 6.69352E-03-8.00313E-03
 -1     20791 8.60849E+00 4.10547E+00 6.37122E+00 5.53304E+00-2.12999E-02-3.37503E-02
 -1     20792 6.26955E+00 7.40988E+00 6.78533E+00 7.40178E+00 2.00822E-02-1.81655E-03
 -1     20793 9.52437E+00 4.48267E+00 7.02621E+00 4.45333E+00 1.52548E-02 1.26732E-02
 -1     20794-9.45400E+00 3.97549E-01-4.53213E+00-1.56978E+00 1.16473E-02-6.79244E-03
 -1     20795-6.29080E+00 2.23150E+00-2.02040E+00 1.10939E+00-2.44956E-02 2.97863E-02
 -1     20796-7.74592E+00 1.26183E+00-3.25281E+00 2.81608E-01-2.14743E-02 3.79344E-02
 -1     20797 8.40474E+00 2.70506E+00 5.48918E+00 3.74268E+00 2.36581E-02 6.95233E-02
 -1     20798-5.09823E+00 2.59440E+00-1.24722E+00 2.33900E+00-1.89805E-02 3.75813E-02
 -1     20799-1.05834E+00 6.43627E+00 2.72010E+00 5.95753E+00-2.92557E-02 5.03988E-02
 -1     20800 9.07250E+00 3.60777E+00 6.26437E+00 5.20225E+00-6.20833E-02-2.96471E-02
 -1     20801 8.70268E+00 4.21763E+00 6.45779E+00 7.05254E+00-7.50446E-03-1.97246E-02
 -1     20802-1.36972E+01-1.85625E+00-8.20336E+00-2.82377E-02 2.18672E-02-2.25343E-01
 -1     20803 6.98065E+00 5.65599E+00 6.32407E+00 6.90753E+00 2.60338E-03-8.42883E-03
 -1     20804 7.33341E+00 8.23690E-01 4.12440E+00 3.83127E+00-3.40679E-02 1.38531E-02
 -1     20805 5.79974E+00 7.60078E+00 6.69356E+00 7.22632E+00-1.31804E-02 6.63503E-03
 -1     20806 9.61077E+00 3.49717E+00 6.64175E+00 5.44325E+00 2.19625E-02-6.87566E-02
 -1     20807-5.99003E+00 2.23512E+00-1.88150E+00 1.04736E+00 1.86332E-02 4.35948E-03
 -1     20808-7.47995E+00 1.01736E+00-3.23253E+00-8.84640E-01 2.16132E-02 5.80600E-03
 -1     20809-6.23802E+00 1.95945E+00-2.10504E+00 5.68289E-01-7.45083E-03 5.08781E-03
 -1     20810-8.04690E+00 5.37102E-01-3.75714E+00-1.19107E+00 2.61622E-03 1.35719E-02
 -1     20811 6.50981E+00 5.79381E+00 6.14503E+00 6.73509E+00-1.04761E-02 1.72192E-02
 -1     20812-1.17566E+01-8.99544E-01-6.32337E+00-1.48154E+00 1.15130E-02-3.14262E-02
 -1     20813-6.73597E+00 1.53027E+00-2.58729E+00 1.08846E-02 1.75801E-02 6.27293E-03
 -1     20814-1.17738E+01-3.45230E-01-6.07470E+00-1.15704E+00 5.79949E-02-6.45609E-02
 -1     20815 9.63638E+00 2.82042E+00 6.19903E+00 5.69051E+00-2.35367E-02 2.01851E-02
 -1     20816 1.08288E+00 6.39748E+00 3.68875E+00 5.53529E+00 2.46773E-02-1.82369E-02
 -1     20817-7.22272E+00 1.17350E+00-3.01963E+00-4.40631E-01-1.52780E-03 9.38651E-03
 -1     20818-1.04759E+01-5.46671E-01-5.49916E+00-1.90920E+00 1.05545E-02 6.54613E-03
 -1     20819-5.11312E-02 6.27029E+00 3.07172E+00 5.69570E+00-1.02677E-02 2.20934E-02
 -1     20820-3.32110E+00-2.41235E+00-2.87032E+00 2.29934E+00 9.17613E-03 2.85563E-02
 -1     20821-1.11683E+01-7.72758E-01-5.92746E+00-1.74832E+00 7.34380E-03-2.59941E-02
 -1     20822 8.54568E+00 4.01494E+00 6.28263E+00 5.21161E+00-9.25691E-04-8.29977E-03
 -1     20823 3.63986E+00 6.27184E+00 4.94569E+00 5.87760E+00-1.50599E-03 2.49968E-03
 -1     20824 4.43597E+00-4.34070E-01 2.00762E+00 3.18145E+00-6.05424E-03 1.86933E-02
 -1     20825 5.99147E+00 5.95606E+00 5.97886E+00 6.57392E+00 9.64035E-03-1.28540E-03
 -1     20826-9.96880E+00-3.96015E-01-5.16516E+00-1.91110E+00 6.55152E-04-1.68172E-03
 -1     20827 8.81130E+00 3.59642E+00 6.18486E+00 6.95107E+00 7.72685E-03-2.76229E-02
 -1     20828-5.74827E+00 2.30523E+00-1.74170E+00 1.90666E+00 3.99510E-03 5.73061E-02
 -1     20829 8.12521E+00 4.51128E+00 6.31076E+00 7.11230E+00-5.19021E-04-2.03897E-02
 -1     20830 9.38050E+00 2.94536E+00 6.14501E+00 6.55969E+00-2.14003E-03 1.14542E-03
 -1     20831 9.83060E+00 2.78135E+00 6.31109E+00 5.99020E+00-8.71235E-03 1.63597E-02
 -1     20832 8.86399E+00 2.47409E+00 5.55360E+00 4.39381E+00-1.47892E-02 2.11268E-02
 -1     20833 4.22340E+00 6.18374E+00 5.19028E+00 5.98537E+00 2.89696E-03-2.50333E-04
 -1     20834 7.44855E+00 5.35425E+00 6.39405E+00 7.05728E+00-8.60804E-03-5.61944E-04
 -1     20835 9.70984E+00 2.81015E+00 6.26269E+00 6.27976E+00 5.62719E-03 1.76312E-02
 -1     20836-8.44371E+00 2.70529E-01-4.09966E+00-1.47861E+00 4.30071E-03 1.22003E-02
 -1     20837 6.16755E+00 2.98212E-01 3.26172E+00 3.49600E+00-2.34400E-02 1.02897E-02
 -1     20838 2.21882E+00-1.16728E+00 5.24995E-01 2.85700E+00-2.30457E-02-5.61007E-03
 -1     20839 9.32059E+00 3.42009E+00 6.35650E+00 6.76764E+00 1.36507E-02-1.65551E-02
 -1     20840 3.10108E+00 6.39678E+00 4.75071E+00 5.83507E+00 5.63058E-03-9.07673E-03
 -1     20841-2.83125E+00 4.66513E+00 1.00675E+00 4.70554E+00 3.61582E-02-2.57261E-02
 -1     20842-1.07935E+01-3.53706E+00-7.30594E+00 1.29717E+00 9.82319E-02-1.91519E-02
 -1     20843-6.48520E+00-2.64450E+00-4.57002E+00 1.86929E+00 1.54045E-02 5.40784E-04
 -1     20844-1.44101E+01-2.35720E+00-8.31961E+00-7.28660E-01 1.76186E-01 5.27950E-02
 -1     20845-8.94722E+00-2.79878E-03-4.46782E+00-1.68614E+00 7.39736E-03 1.39851E-02
 -1     20846-5.58624E+00 2.54070E+00-1.51341E+00 1.48739E+00 7.22807E-03 2.33101E-02
 -1     20847 7.85388E+00 4.99406E+00 6.42666E+00 7.07083E+00-3.55606E-03-9.32005E-03
 -1     20848 2.13098E+00 6.30610E+00 4.19401E+00 5.65856E+00 9.24282E-03-3.14437E-03
 -1     20849-9.42102E+00-1.67264E-01-4.80501E+00-1.88636E+00-4.61360E-03 1.61918E-02
 -1     20850-4.30500E+00 3.35304E+00-4.35803E-01 3.15085E+00-3.35473E-02 5.51083E-02
 -1     20851 8.45140E+00 1.72580E+00 5.06770E+00 4.10091E+00-2.41316E-02 2.50552E-02
 -1     20852-3.60792E-01-1.88308E+00-1.13833E+00 2.56955E+00-1.86858E-02 1.78272E-03
 -1     20853 5.34343E+00 5.97301E+00 5.67420E+00 6.36220E+00 7.06722E-03-1.10250E-02
 -1     20854-1.97946E+00 5.47885E+00 1.70833E+00 4.58050E+00 3.56152E-04 3.73433E-02
 -1     20855 5.99602E+00 4.07215E+00 5.03585E+00 6.01868E+00 1.47150E-03-3.56425E-03
 -1     20856 4.81946E+00 6.09995E+00 5.45412E+00 6.17290E+00 7.56295E-03 3.02290E-03
 -1     20857 2.91014E+00 4.91362E+00 3.89874E+00 4.87007E+00 6.54840E-03 1.39979E-02
 -1     20858-9.53888E+00-7.49576E-01-5.11161E+00 2.83904E-01-3.31398E-02 2.41013E-02
 -1     20859 7.61103E+00 2.98549E+00 5.30938E+00 6.24185E+00 1.23804E-02-7.45584E-04
 -1     20860 9.03468E+00 2.78935E+00 5.84933E+00 4.70338E+00-5.58378E-02-3.70416E-02
 -1     20861-1.19240E+01-2.53185E+00-6.63745E+00 8.48608E-01 2.81200E-01-1.44505E-01
 -1     20862-5.29608E+00 1.62472E+00-1.83589E+00 2.49757E-01 1.01245E-02 1.15555E-03
 -1     20863 4.91072E+00 4.60595E+00 4.77006E+00 5.65672E+00-1.13539E-02 8.26813E-03
 -1     20864-4.02067E+00 2.79202E+00-6.13167E-01 1.66938E+00 1.04198E-02 2.63162E-02
 -1     20865-8.10634E+00 1.39498E-02-4.02286E+00-6.06888E-01 1.95571E-02-8.76991E-03
 -1     20866-8.77005E+00-5.59359E-01-4.67838E+00-2.99867E-01 1.43799E-02 2.06469E-02
 -1     20867 8.86304E+00 2.05194E+00 5.46762E+00 5.80079E+00-7.20126E-03-3.14774E-02
 -1     20868 5.46821E+00 4.37130E+00 4.92509E+00 5.87092E+00-2.60852E-03 2.34036E-03
 -1     20869 9.55160E+00 2.73245E+00 6.11082E+00 5.14697E+00-3.48545E-03 5.81479E-03
 -1     20870 8.91925E+00 1.95473E+00 5.42736E+00 4.73935E+00-3.55691E-02 4.26467E-02
 -1     20871 1.01597E+00 5.15736E+00 3.08507E+00 4.45377E+00 9.00031E-03 9.03582E-03
 -1     20872 7.04095E+00 3.37361E+00 5.22058E+00 6.23186E+00 1.21170E-02-8.42964E-03
 -1     20873 2.15393E+00 4.93883E+00 3.54467E+00 4.62576E+00 1.17764E-02 9.48402E-03
 -1     20874 5.60995E+00 4.66303E-03 2.81657E+00 3.92217E+00-8.33644E-03 1.45310E-02
 -1     20875 3.50050E+00 4.76226E+00 4.13033E+00 5.12894E+00-1.88773E-03-2.29534E-02
 -1     20876 7.24828E+00 5.61782E-01 3.90542E+00 4.31251E+00 1.52275E-03 2.48976E-02
 -1     20877-4.76239E+00-1.73203E+00-3.26815E+00 2.19928E+00-1.75415E-02-8.29382E-03
 -1     20878 1.48325E+00 4.98294E+00 3.23398E+00 4.46678E+00 6.26356E-03 1.23968E-02
 -1     20879-5.80092E+00 1.13961E+00-2.32294E+00-4.87563E-02 8.00287E-03 2.06742E-02
 -1     20880 8.58439E+00 2.30715E+00 5.43858E+00 5.99299E+00 8.80653E-03 1.59647E-03
 -1     20881-5.11651E+00 1.84048E+00-1.64098E+00 5.54228E-01-2.74464E-05 9.27273E-03
 -1     20882 8.06757E+00 2.55669E+00 5.28339E+00 6.16733E+00-4.73259E-03-3.01152E-03
 -1     20883-6.44778E+00 7.01636E-01-2.85464E+00-3.50784E-01-1.13907E-02 3.77398E-03
 -1     20884 6.52898E+00 3.73759E+00 5.13474E+00 6.14513E+00 1.18692E-02 1.94645E-03
 -1     20885-7.84697E+00-4.81229E-02-3.93527E+00-7.11160E-01 2.15570E-03-7.32881E-03
 -1     20886-3.39742E+00 3.99854E+00 2.56665E-01 3.13394E+00 7.30494E-03-1.81290E-02
 -1     20887-3.59234E+00 3.32518E+00-1.48951E-01 2.23350E+00 2.72542E-02 3.91294E-03
 -1     20888-3.41500E+00 3.76311E+00 1.59031E-01 2.78172E+00 1.03761E-02 1.28647E-02
 -1     20889 9.00498E+00 1.85981E+00 5.49087E+00 5.33980E+00-6.68888E-03 6.41158E-03
 -1     20890-9.15356E+00-7.78703E-01-4.87918E+00 1.69003E-02 1.57380E-02 4.84833E-03
 -1     20891 8.76870E+00 1.76280E+00 5.24682E+00 4.70253E+00 9.62779E-03-1.61020E-02
 -1     20892 4.30001E+00 4.76218E+00 4.52825E+00 5.36775E+00-1.03825E-02-5.85000E-03
 -1     20893-4.48776E+00 2.35824E+00-1.06921E+00 1.07704E+00 3.34300E-03 1.17547E-02
 -1     20894-6.67774E+00 5.99039E-01-3.05806E+00-5.48761E-01-2.99830E-03-1.56552E-03
 -1     20895-1.35658E+00 5.26369E+00 1.89756E+00 4.29979E+00 1.05358E-02 2.90986E-02
 -1     20896-1.54964E+00-1.62506E+00-1.58516E+00 2.71558E+00-2.44985E-02 1.69336E-02
 -1     20897 3.56624E+00-6.22954E-01 1.46679E+00 3.56364E+00-2.21630E-03 1.57636E-02
 -1     20898-7.58584E-01 5.05470E+00 2.16851E+00 4.06237E+00 1.67840E-02-1.18883E-03
 -1     20899-7.40174E+00 1.63904E-01-3.61209E+00-6.91620E-01 6.51864E-03-9.36743E-03
 -1     20900 6.73383E+00 5.69564E-01 3.63945E+00 4.58200E+00-7.28583E-03 1.44090E-02
 -1     20901 3.95120E+00 3.27911E+00 3.60845E+00 4.92448E+00-3.02574E-03 5.03487E-03
 -1     20902 9.23138E+00 2.11839E+00 5.67731E+00 5.54097E+00-1.26275E-02-2.81697E-02
 -1     20903 1.23650E+00-1.17475E+00 3.37310E-02 3.16446E+00-1.08052E-02 6.97881E-03
 -1     20904-6.13495E+00-1.37606E-01-3.12345E+00 6.80121E-01-3.86570E-04-7.47382E-03
 -1     20905-7.73216E+00-1.31493E+00-4.46663E+00 1.48031E+00 1.19496E-02-3.85266E-02
 -1     20906-6.30001E+00-1.18188E+00-3.82447E+00 1.48077E+00-3.86298E-02-6.33260E-03
 -1     20907 8.15998E+00 1.20765E+00 4.62517E+00 5.03185E+00 9.59911E-03-1.44834E-02
 -1     20908-1.40090E+00 4.25474E+00 1.42764E+00 3.26325E+00 9.80939E-03 5.58592E-03
 -1     20909-6.68228E+00-8.37387E-01-3.68502E+00 1.01219E+00-1.72584E-02 1.12955E-03
 -1     20910 7.23020E-01 5.36498E+00 3.06024E+00 4.63793E+00 1.47045E-02 1.19190E-02
 -1     20911 3.29904E+00 3.42981E+00 3.38358E+00 4.73638E+00 1.04953E-03 9.37575E-03
 -1     20912 5.97653E+00 2.32590E+00 4.12760E+00 5.48318E+00 1.29918E-02-3.29402E-03
 -1     20913-3.06312E+00 2.23998E+00-3.73098E-01 1.43302E+00-1.58201E-02 2.22438E-03
 -1     20914-6.04879E-02 3.58966E+00 1.76673E+00 3.14554E+00-9.42148E-04-2.41384E-03
 -1     20915 4.53016E+00 2.96499E+00 3.74431E+00 5.13954E+00 1.33485E-02 9.70067E-04
 -1     20916-1.50588E+00 3.71169E+00 1.10575E+00 2.87429E+00 1.69360E-03 5.28941E-03
 -1     20917 7.81453E+00 1.47206E+00 4.63045E+00 5.30077E+00-5.29867E-03-8.78535E-04
 -1     20918-3.64098E+00 1.71028E+00-9.93271E-01 1.07498E+00-1.41603E-03 1.25021E-02
 -1     20919 2.60619E+00 3.62450E+00 3.13176E+00 4.38361E+00-5.42910E-03 1.18144E-02
 -1     20920 6.52136E+00 1.80357E+00 4.18044E+00 5.55899E+00-9.16803E-03 6.36812E-03
 -1     20921-2.69711E+00-9.36326E-01-1.85947E+00 2.59676E+00-1.65571E-02-7.07936E-03
 -1     20922-4.20420E+00 1.39065E+00-1.38039E+00 7.42002E-01 8.52044E-04-3.11550E-03
 -1     20923 1.35463E+00 3.89208E+00 2.60828E+00 3.88292E+00-1.51056E-03 5.37048E-03
 -1     20924-2.78871E+00 2.66310E+00-5.69457E-02 1.75109E+00 5.14278E-03-8.44634E-03
 -1     20925 4.74904E+00-1.64066E-01 2.30204E+00 4.18526E+00-5.57564E-03 1.83554E-02
 -1     20926-5.65826E+00 3.12446E-01-2.67954E+00 5.11756E-01 1.17517E-02-1.27793E-02
 -1     20927-3.62486E+00-6.14093E-01-2.05641E+00 2.19380E+00-2.34329E-02 1.53846E-02
 -1     20928 7.12143E+00 1.58550E+00 4.36898E+00 5.46719E+00 3.78789E-03-2.43623E-02
 -1     20929-1.08675E+00 2.78518E+00 7.98130E-01 2.51362E+00-2.47111E-02-8.09371E-03
 -1     20930 5.12401E+00 2.53544E+00 3.83477E+00 5.33969E+00 1.20795E-02 3.51448E-02
 -1     20931-4.37757E-01 3.83490E+00 1.69381E+00 3.16323E+00 7.31848E-03-8.21579E-03
 -1     20932 1.66953E+00 2.51799E+00 2.08599E+00 3.80430E+00 9.14992E-04 1.60917E-02
 -1     20933-2.81555E+00 2.86622E+00 3.98980E-02 1.91198E+00-3.13224E-03 5.89110E-03
 -1     20934 1.39531E+00 3.53279E+00 2.46995E+00 3.75093E+00 1.18999E-02-5.12466E-03
 -1     20935 2.30645E+00 2.33267E+00 2.30360E+00 4.04754E+00 2.65232E-02-1.90233E-02
 -1     20936-3.70721E+00 2.40260E-02-1.81896E+00 1.85957E+00-1.32741E-02 1.61441E-02
 -1     20937 1.89548E-01-8.95359E-01-3.32758E-01 3.25440E+00 1.01793E-02 2.12111E-02
 -1     20938 2.70595E+00-5.10492E-01 1.09924E+00 3.75047E+00 4.80902E-03-2.64431E-03
 -1     20939 4.71796E+00 1.22543E+00 2.93208E+00 4.89835E+00 3.86650E-03 3.88089E-03
 -1     20940-1.42464E+00 2.40270E+00 4.48653E-01 2.12346E+00 1.98340E-03-6.65976E-03
 -1     20941 3.94321E+00 1.69317E+00 2.82407E+00 4.69381E+00 1.65020E-02 8.53786E-03
 -1     20942 1.48940E+00 2.85572E+00 2.19497E+00 3.71083E+00 4.29474E-03 1.06437E-02
 -1     20943-6.28218E-01-3.91008E-01-4.88122E-01 3.10284E+00 6.73560E-04 3.12302E-03
 -1     20944 6.11179E+00 6.72646E-01 3.37422E+00 4.79796E+00 2.10808E-02-1.45976E-02
 -1     20945-4.87786E+00 7.91183E-01-2.04999E+00 5.38403E-01 6.72625E-03-1.51805E-02
 -1     20946-5.26927E+00 5.62314E-01-2.35098E+00 4.57890E-01 1.15752E-03-1.14743E-02
 -1     20947-3.60350E+00 3.76291E-01-1.67222E+00 1.59766E+00 3.52628E-02-3.62233E-03
 -1     20948 2.91986E+00 1.79469E+00 2.38465E+00 4.41318E+00 2.60144E-02-1.51181E-02
 -1     20949 5.46310E+00 9.76978E-01 3.19740E+00 4.90938E+00 1.80430E-03 1.08327E-02
 -1     20950-1.22971E+00-7.66748E-02-6.55458E-01 2.88059E+00 1.81680E-02 2.19566E-02
 -1     20951 1.92353E+00-1.65267E-01 8.70767E-01 3.78180E+00-6.68462E-04-3.22570E-03
 -1     20952 3.53523E+00 5.49519E-01 2.02988E+00 4.34686E+00-3.63833E-03 8.34000E-04
 -1     20953-4.50572E-01 1.58627E+00 5.56205E-01 2.81245E+00 1.86271E-03 6.29633E-03
 -1     20954-6.22631E-01 1.90883E+00 6.51774E-01 2.72980E+00 9.46029E-03-9.38952E-03
 -1     20955 1.87570E-01 2.71057E+00 1.45414E+00 3.02956E+00-3.82338E-05-1.42787E-03
 -1     20956 4.26233E+00 2.30676E-01 2.23719E+00 4.32014E+00 3.90759E-03-3.42366E-03
 -1     20957 4.30505E-01 1.17604E+00 7.82219E-01 3.37801E+00 2.17819E-02-1.03110E-02
 -1     20958-1.43276E+00 3.66237E-01-5.47735E-01 2.62570E+00 1.54582E-02 4.18898E-03
 -1     20959 1.33418E+00 2.55137E-01 7.88478E-01 3.67842E+00 1.52635E-03 6.21323E-03
 -1     20960-2.49136E+00 1.56241E+00-4.22173E-01 1.74616E+00 6.39979E-03 5.00943E-04
 -1     20961 2.90901E+00 7.93698E-01 1.83125E+00 4.25276E+00 2.19264E-03-2.20982E-02
 -1     20962 1.29072E+00 8.54264E-01 1.08660E+00 3.70494E+00 1.32096E-03-4.81456E-04
 -1     20963-3.20670E+00 8.47300E-01-1.20632E+00 1.52581E+00-6.48473E-03 4.59254E-03
 -1     20964-2.75584E+00 1.26380E+00-7.48900E-01 1.62241E+00-4.15944E-03-1.13973E-02
 -1     20965-1.32034E+00 1.19816E+00-8.51411E-02 2.42336E+00 3.79674E-04-2.11042E-04
 -1     20966 5.52410E+00 5.38560E+00 5.45199E+00 5.53556E+00 3.16822E-02-2.45102E-02
 -1     20967 6.20141E+00 5.18960E+00 5.68223E+00 5.33454E+00 3.47946E-03 2.33054E-02
 -1     20968 6.85011E+00 4.54983E+00 5.71620E+00 5.61499E+00-4.39304E-03-1.59606E-02
 -1     20969 8.23460E+00 5.03004E+00 6.62969E+00 6.36870E+00 1.13920E-02-3.21781E-02
 -1     20970 9.40046E+00 5.72171E+00 7.56049E+00 7.40880E+00 1.47135E-02 1.57990E-02
 -1     20971 1.04284E+01 6.71236E+00 8.52588E+00 8.51715E+00 2.07966E-02-4.18720E-03
 -1     20972 1.15387E+01 7.98608E+00 9.73390E+00 9.55413E+00 5.91881E-04-1.94044E-02
 -1     20973 1.21965E+01 9.10498E+00 1.05619E+01 1.03067E+01-1.98693E-02-1.78887E-02
 -1     20974 1.23507E+01 9.75036E+00 1.10051E+01 1.07422E+01 2.05757E-02-2.50273E-02
 -1     20975 1.19836E+01 9.81031E+00 1.09165E+01 1.09764E+01 3.61152E-03 1.10154E-03
 -1     20976 1.18417E+01 9.99992E+00 1.08922E+01 1.09683E+01 9.26296E-03-2.57974E-02
 -1     20977 1.14625E+01 1.01254E+01 1.08411E+01 1.07505E+01-3.50305E-03-4.11924E-03
 -1     20978 1.09579E+01 1.01854E+01 1.05602E+01 1.03697E+01-7.54841E-03 1.64619E-02
 -1     20979 9.34356E+00 9.60698E+00 9.42202E+00 9.63211E+00-2.97867E-03-3.55886E-02
 -1     20980 6.44482E+00 8.76665E+00 7.56096E+00 8.39313E+00 4.31670E-02 2.47831E-02
 -1     20981 6.11686E-01 8.13407E+00 4.34185E+00 7.13258E+00-1.42224E-02-5.87075E-02
 -1     20982-9.64560E-02 8.93359E+00 4.46506E+00 7.93062E+00 4.12254E-02 4.47806E-02
 -1     20983-9.95383E-02 9.86992E+00 5.00009E+00 7.18006E+00-2.18348E-02 2.28958E-03
 -1     20984-2.17107E-01 7.74721E+00 3.94703E+00 5.15273E+00-6.46585E-02-2.38961E-01
 -1     20985-3.34041E+00 2.05579E+00-8.36070E-01 6.52002E-01 8.49578E-02 2.11384E-01
 -1     20986-7.10777E+00 2.64852E-01-3.35267E+00-1.14679E+00 9.33499E-03 7.73542E-02
 -1     20987-1.10320E+01-7.13991E-01-5.80449E+00-2.41882E+00 1.50867E-03 3.94291E-02
 -1     20988-1.22737E+01-2.10188E-01-6.23265E+00-3.40941E+00 1.25126E-02-5.24707E-03
 -1     20989-1.43325E+01-1.27714E+00-7.76064E+00-4.15410E+00 2.84938E-02-1.13957E-02
 -1     20990-1.52574E+01-1.37917E+00-8.30971E+00-4.70349E+00-7.08584E-03 7.36766E-03
 -1     20991-1.59294E+01-1.57462E+00-8.74152E+00-5.08036E+00-1.16290E-02 6.59393E-03
 -1     20992-1.64939E+01-1.68464E+00-9.09344E+00-5.32153E+00-3.67769E-03 1.46893E-02
 -1     20993-1.70825E+01-1.70570E+00-9.45118E+00-5.48012E+00-1.05356E-02-1.16898E-03
 -1     20994-1.78553E+01-1.69197E+00-9.87564E+00-5.71451E+00 1.01686E-01-2.64077E-03
 -1     20995-1.88376E+01-9.24448E-01-9.96348E+00-5.65339E+00-1.28745E-01 1.12736E-01
 -1     20996-2.90416E+01-7.05991E+00-1.78105E+01-4.86612E+00 3.31044E-01 2.12904E-01
 -1     20997-3.77132E+01-1.13460E+01-2.19237E+01 3.25114E+00-8.04598E-01 1.40100E+00
 -1     20998-1.14808E+01-6.95026E+00-9.33854E+00 4.27817E-01 1.81006E-01-4.78306E-02
 -1     20999-5.29498E+00-5.36601E+00-5.52799E+00-5.66758E-01 8.74185E-02 1.59834E-01
 -1     21000 3.30631E-01-1.01535E+00-3.98987E-01-3.30163E-01-3.41125E-02 3.57049E-03
 -1     21001 5.03604E+00 2.49632E+00 3.81980E+00 6.69863E-01 1.00645E-01-2.15405E-02
 -1     21002 7.76753E+00 5.08696E+00 6.30760E+00 1.87182E+00-2.83845E-02 5.08277E-02
 -1     21003 8.26255E+00 5.74748E+00 6.93494E+00 3.28077E+00-3.55682E-03-5.97682E-02
 -1     21004 8.43230E+00 6.52750E+00 7.57032E+00 4.32906E+00-1.15813E-02 2.89843E-02
 -1     21005 6.99197E+00 5.87686E+00 6.50581E+00 5.12334E+00 2.44566E-02-3.68229E-03
 -1     21006 5.89443E+00 5.65993E+00 5.82024E+00 5.49938E+00 3.13175E-03-2.34318E-03
 -1     21007-1.91099E+00 3.23395E+00 7.54265E-01 2.65887E+00 1.88230E-01 3.94073E-01
 -1     21008 5.75472E+00 5.32815E+00 5.54994E+00 5.61933E+00-2.45465E-02-7.07559E-03
 -1     21009 5.71428E+00 5.06450E+00 5.39672E+00 5.33857E+00-1.61734E-02 1.48818E-03
 -1     21010 6.45763E+00 4.79066E+00 5.63544E+00 5.41802E+00-3.44658E-04-5.21644E-03
 -1     21011 7.43037E+00 4.64914E+00 6.06189E+00 5.93207E+00-7.50928E-03-3.02323E-02
 -1     21012 8.68267E+00 5.19668E+00 6.90078E+00 6.87036E+00 2.91250E-02 8.81809E-03
 -1     21013 9.92719E+00 6.14081E+00 8.03021E+00 7.97547E+00 8.73159E-03-1.19070E-02
 -1     21014 1.10889E+01 7.55876E+00 9.32022E+00 9.07951E+00-7.26832E-03 7.57511E-05
 -1     21015 1.16758E+01 8.54770E+00 1.01628E+01 9.97053E+00-6.33930E-03-8.54960E-03
 -1     21016 1.20396E+01 9.26163E+00 1.06644E+01 1.05680E+01 1.10971E-02-2.98078E-02
 -1     21017 1.20971E+01 9.71740E+00 1.09032E+01 1.08903E+01-4.08566E-02 2.77807E-03
 -1     21018 1.19006E+01 9.90858E+00 1.09019E+01 1.09904E+01-5.94053E-03 1.45068E-02
 -1     21019 1.16929E+01 1.01045E+01 1.08563E+01 1.08902E+01-6.72561E-03 1.02558E-03
 -1     21020 1.11135E+01 1.00952E+01 1.05768E+01 1.05443E+01 2.59242E-02-2.20155E-02
 -1     21021 9.83834E+00 9.44034E+00 9.70349E+00 9.96762E+00-5.99748E-02-3.94609E-02
 -1     21022 8.52513E+00 9.35107E+00 8.88522E+00 9.06574E+00 1.07773E-02-1.35375E-02
 -1     21023 4.10991E+00 8.50489E+00 6.26700E+00 7.52276E+00 1.07900E-02 9.25797E-02
 -1     21024-6.77854E-01 8.99141E+00 4.25876E+00 7.57261E+00 2.07303E-01-5.03651E-03
 -1     21025-1.12198E+00 8.87085E+00 3.55984E+00 5.91545E+00 4.72931E-02 1.72373E-01
 -1     21026-5.87997E+00 4.11475E-01-2.53256E+00-5.74388E-01-1.06508E-01 9.66520E-02
 -1     21027-8.79036E+00 1.07410E-01-4.26567E+00-1.68926E+00 3.06389E-02 1.57337E-03
 -1     21028-1.17338E+01-6.88257E-01-6.22098E+00-2.75979E+00-2.31544E-02 4.33654E-03
 -1     21029-1.35132E+01-9.31247E-01-7.16205E+00-3.82719E+00-5.28831E-03 2.61989E-02
 -1     21030-1.49129E+01-1.44791E+00-8.18899E+00-4.42716E+00 2.28745E-02-5.43125E-03
 -1     21031-1.57149E+01-1.57066E+00-8.65803E+00-4.92593E+00 1.77120E-02-4.28003E-05
 -1     21032-1.62876E+01-1.68013E+00-8.98071E+00-5.20769E+00 1.35661E-02 4.08149E-03
 -1     21033-1.68316E+01-1.76622E+00-9.27716E+00-5.39113E+00 2.56959E-03-1.08430E-02
 -1     21034-1.75546E+01-1.78007E+00-9.68122E+00-5.48718E+00-6.01162E-03-2.97482E-02
 -1     21035-1.91529E+01-2.11835E+00-1.03997E+01-5.62384E+00-7.51125E-02 1.01475E-01
 -1     21036-2.22072E+01-2.49556E+00-1.25506E+01-5.73878E+00-3.55547E-02 2.03849E-01
 -1     21037-1.13172E+00-1.75943E+00-1.47108E+00-6.16231E-01 1.80576E-02-9.79971E-02
 -1     21038-2.95891E+01-2.14856E+01-2.49992E+01 1.70738E+00-2.41865E-01 5.46011E-02
 -1     21039-9.75926E+00-7.88593E+00-8.85078E+00-3.73968E-01 1.41827E-01 5.64166E-02
 -1     21040 2.57423E+00 3.46664E-01 1.60587E+00 9.70391E-02-5.83642E-03 3.10837E-03
 -1     21041 7.12843E+00 4.79870E+00 6.03616E+00 1.35107E+00 1.53154E-02-2.88596E-02
 -1     21042 8.37689E+00 5.64139E+00 7.04825E+00 2.60586E+00-4.48614E-02 1.10667E-01
 -1     21043 9.11914E+00 6.89977E+00 8.07664E+00 3.83336E+00 9.42288E-03-1.30019E-02
 -1     21044 7.38557E+00 5.83510E+00 6.71799E+00 4.77118E+00-3.22143E-02 4.31693E-02
 -1     21045 6.27444E+00 5.73123E+00 5.98237E+00 5.35906E+00 8.41661E-03-2.05831E-02
 -1     21046-1.38664E+01-1.13979E+00-7.48137E+00-4.13751E+00 1.18452E-03-8.68793E-03
 -1     21047 7.19632E+00 4.62143E+00 5.91391E+00 5.33899E+00 1.27203E-02-2.07199E-02
 -1     21048 8.49221E+00 4.21690E+00 6.35312E+00 5.87260E+00 1.74775E-02 1.28068E-02
 -1     21049 9.57759E+00 4.38177E+00 6.97965E+00 6.64744E+00 3.10629E-02-7.49133E-03
 -1     21050 1.04068E+01 5.18580E+00 7.80571E+00 7.53443E+00-2.45592E-03-1.30712E-02
 -1     21051 1.05140E+01 5.73344E+00 8.19814E+00 8.40659E+00 7.14965E-03-2.42433E-02
 -1     21052 1.05507E+01 6.57489E+00 8.61747E+00 9.03491E+00 1.03634E-02-7.48538E-03
 -1     21053 1.03450E+01 7.35385E+00 8.88689E+00 9.29255E+00 2.35285E-02 4.21605E-03
 -1     21054 1.03610E+01 8.21385E+00 9.29831E+00 9.40834E+00-8.45329E-03 3.28895E-02
 -1     21055 1.00365E+01 8.64712E+00 9.35598E+00 9.42060E+00-3.11084E-02-4.08478E-02
 -1     21056 9.24942E+00 8.65173E+00 8.92553E+00 9.17241E+00-3.41720E-03-1.46989E-02
 -1     21057 8.10211E+00 8.35304E+00 8.20673E+00 8.80159E+00 1.79828E-02-6.58100E-03
 -1     21058 7.05364E+00 8.55414E+00 7.80595E+00 8.25217E+00-1.89020E-02 2.81621E-02
 -1     21059 4.72310E+00 8.79934E+00 6.74283E+00 7.59969E+00 3.29525E-02 2.58582E-02
 -1     21060 8.57235E-01 9.11095E+00 5.01992E+00 7.55504E+00 4.48477E-02-1.02522E-02
 -1     21061-2.21164E+00 4.71675E+00 9.88460E-01 5.37472E+00-9.59512E-03 1.90912E-01
 -1     21062-1.46182E+01-1.32459E+00-7.93617E+00-4.33245E+00-1.08500E-03 1.17403E-02
 -1     21063-5.58517E+00 1.57246E+00-2.01217E+00 1.21569E+00-1.52452E-02-3.41263E-02
 -1     21064-1.24827E+00 6.91927E+00 2.80536E+00 6.69678E+00-3.64129E-02-2.28970E-02
 -1     21065-1.31151E+01-8.41182E-01-6.98774E+00-3.75809E+00 3.62687E-03-5.95183E-03
 -1     21066-8.15376E+00 1.22216E+00-3.43543E+00-5.97355E-01 5.98174E-02 3.17428E-02
 -1     21067-1.02295E+01 4.08612E-01-4.88153E+00-1.87947E+00-3.91701E-02-1.03120E-02
 -1     21068-1.37228E+01-3.76145E+00-9.23429E+00 1.55903E+00 1.69115E-01 1.01750E-01
 -1     21069-1.15043E+01-5.86390E-02-5.80842E+00-2.78119E+00 6.07895E-03-1.00621E-02
 -1     21070-7.01842E+00 1.21449E+00-2.83997E+00 4.85261E-01 6.22408E-03-1.45172E-02
 -1     21071-1.28189E+01-8.32510E-01-6.82075E+00-3.50699E+00-4.41794E-03-2.52677E-03
 -1     21072-1.12466E+01-1.33303E-01-5.69633E+00-2.43608E+00 8.55960E-03-1.88891E-02
 -1     21073-1.34965E+01-1.05566E+00-7.28169E+00-3.97715E+00 2.91771E-04-1.44586E-02
 -1     21074-1.22713E+01-5.11572E-01-6.42316E+00-3.13913E+00-3.06826E-03 2.57570E-02
 -1     21075-1.42881E+01-1.34861E+00-7.80725E+00-4.24388E+00 5.69540E-03-1.53609E-03
 -1     21076-2.70681E+00 2.74710E+00 1.33217E-01 3.62581E+00 6.26385E-02-1.65998E-01
 -1     21077-1.55715E+01-1.30050E+00-8.42602E+00-4.41471E+00-3.33909E-02-2.97092E-03
 -1     21078-1.75153E+01-1.63013E+00-9.37327E+00-4.19847E+00-1.11692E-01 2.58895E-02
 -1     21079-1.94188E+01-9.98641E-01-9.88863E+00-2.48499E+00-1.59012E-01 4.15410E-02
 -1     21080-7.13257E+00-4.40086E+00-5.85022E+00 7.60455E-01 7.84066E-02-1.12830E-02
 -1     21081-1.91874E+01-4.67043E-01-1.04141E+01-6.34965E-01 8.23868E-01-6.12705E-01
 -1     21082 6.30640E+00 1.81376E+00 4.05531E+00 2.36926E+00 6.24994E-02-7.51209E-03
 -1     21083 8.22790E-01-1.96665E+00-5.42986E-01 1.27188E+00 2.86623E-02 6.44965E-03
 -1     21084 7.66425E+00 2.95971E+00 5.43022E+00 3.40514E+00-6.48143E-02 5.50516E-02
 -1     21085-4.95511E-01-2.34494E+00-1.43960E+00 1.11589E+00 7.55024E-02-2.36942E-02
 -1     21086 7.17774E+00 2.80767E+00 5.05709E+00 2.96059E+00-4.12228E-02 8.10195E-02
 -1     21087 8.26289E+00 4.67516E+00 6.47122E+00 4.37106E+00-1.67421E-02-1.77755E-03
 -1     21088 7.72959E+00 5.39836E+00 6.52323E+00 5.10932E+00 1.16856E-02-9.99460E-03
 -1     21089 6.23784E+00 5.36649E+00 5.72451E+00 5.37318E+00-2.09057E-02-7.99677E-03
 -1     21090-2.80665E-01 8.53692E+00 4.09840E+00 7.47569E+00-5.81012E-03 1.83828E-02
 -1     21091 6.98156E+00 5.48810E+00 6.18804E+00 5.39508E+00 5.18540E-03-1.62405E-04
 -1     21092 4.71391E+00 2.85084E-01 2.59433E+00 1.99470E+00 1.10951E-01-6.19181E-02
 -1     21093-4.02753E+00 2.24205E+00-8.90033E-01 2.28090E+00 2.23210E-02-4.76928E-02
 -1     21094 8.90849E+00 8.67804E+00 8.78836E+00 9.03119E+00-1.27475E-02-2.73073E-03
 -1     21095 7.95201E+00 4.47362E+00 6.23306E+00 5.61112E+00 1.63929E-02 2.19191E-02
 -1     21096 9.14955E+00 4.24517E+00 6.71679E+00 6.25255E+00 2.09498E-03 1.96931E-02
 -1     21097 9.99654E+00 4.72809E+00 7.36309E+00 7.12691E+00 9.15271E-04-1.06635E-02
 -1     21098 1.04930E+01 5.43840E+00 8.00987E+00 7.98450E+00 1.08352E-03 3.87871E-03
 -1     21099 1.07445E+01 6.36262E+00 8.57203E+00 8.68301E+00-2.97793E-03 1.18526E-02
 -1     21100 1.06948E+01 7.31380E+00 9.07136E+00 9.16691E+00-9.62182E-03-6.60822E-03
 -1     21101 1.06048E+01 7.99439E+00 9.29336E+00 9.46502E+00 2.67593E-02 1.66011E-02
 -1     21102 1.03713E+01 8.67854E+00 9.52236E+00 9.48763E+00 4.60330E-03-2.07344E-02
 -1     21103 9.82243E+00 8.81114E+00 9.27547E+00 9.36399E+00-1.26102E-02 1.36969E-03
 -1     21104 7.68800E+00 8.54055E+00 8.12631E+00 8.49740E+00-1.59326E-02-6.58216E-03
 -1     21105 6.17983E+00 8.84265E+00 7.42309E+00 8.05523E+00 7.11801E-02-1.50956E-02
 -1     21106 2.47153E+00 8.48451E+00 5.51601E+00 7.41771E+00-1.08094E-02 3.37827E-02
 -1     21107-9.42535E+00 6.75864E-01-4.34581E+00-1.33640E+00 5.91972E-03 1.85210E-03
 -1     21108-4.40440E+00-4.63925E+00-4.31436E+00 1.03533E+00-3.37019E-02 2.52271E-02
 -1     21109 8.36183E+00 5.09294E+00 6.73177E+00 4.76228E+00 2.58282E-02-7.66446E-03
 -1     21110-1.76505E+01 1.00257E-01-8.30037E+00-3.60649E+00-2.75967E-01 8.56903E-02
 -1     21111-1.50823E+01-1.35988E+00-8.23029E+00-4.38364E+00 6.97133E-03-1.41956E-02
 -1     21112-1.54894E+01-3.48845E-01-7.88033E+00-4.45408E+00-1.45133E-02-2.89974E-02
 -1     21113-1.17383E+01-6.64205E+00-9.12109E+00 1.03239E+00 5.55046E-02-8.26586E-02
 -1     21114 3.12770E+00-4.56866E-01 1.36432E+00 1.56983E+00 4.95175E-02 2.68724E-02
 -1     21115 7.84581E+00 3.80167E+00 5.79794E+00 3.96803E+00 4.44031E-02-9.25477E-03
 -1     21116 7.20424E+00 5.63152E+00 6.38986E+00 5.30982E+00-5.66863E-03-8.69871E-03
 -1     21117-8.83484E+00-4.18013E+00-6.54823E+00 1.55120E+00 4.47878E-02-8.57971E-02
 -1     21118 3.34395E+00 7.78175E+00 5.45158E+00 6.89380E+00 1.83691E-02 3.21175E-02
 -1     21119-1.87484E+00-2.62694E+00-2.24274E+00 1.95538E+00 2.84712E-02-5.56662E-03
 -1     21120-5.55104E-01 7.41318E+00 3.46732E+00 6.81887E+00-1.06132E-02-4.32688E-02
 -1     21121 1.39974E+00 7.37572E+00 4.52685E+00 6.62650E+00 2.36903E-02 5.64963E-04
 -1     21122 9.57141E+00 3.43050E+00 6.50240E+00 6.34843E+00 9.41934E-03-3.12947E-02
 -1     21123 8.49784E+00 3.02027E+00 5.83038E+00 4.13552E+00-3.91069E-02-3.14482E-02
 -1     21124 1.00307E+01 3.89040E+00 6.95596E+00 7.05958E+00 9.43581E-03-2.01239E-03
 -1     21125 1.00906E+01 4.89692E+00 7.48533E+00 7.68409E+00-2.24318E-02 2.11009E-02
 -1     21126-1.40156E+01-1.11257E+00-7.54660E+00-3.10058E+00-4.17516E-03 1.69180E-02
 -1     21127-7.77478E+00 1.40801E+00-3.25847E+00-4.93051E-02 4.49399E-03 3.52213E-02
 -1     21128-1.09963E+01-4.52301E-01-5.70513E+00-2.65092E+00-2.83382E-03 4.01048E-03
 -1     21129 8.74247E+00 6.61458E+00 7.69386E+00 8.11559E+00 4.78082E-03 2.51281E-03
 -1     21130 8.17814E+00 7.15037E+00 7.66461E+00 7.99875E+00 8.39711E-03-1.91272E-02
 -1     21131 6.35464E+00 7.53643E+00 6.97423E+00 7.36852E+00 7.96105E-03-1.23592E-02
 -1     21132 8.89862E+00 4.35712E+00 6.59399E+00 5.41125E+00 5.10645E-03 9.17319E-04
 -1     21133 4.75387E+00 7.47263E+00 6.13771E+00 6.98410E+00-1.52144E-02-1.35445E-02
 -1     21134 3.90070E+00 7.48094E+00 5.63782E+00 6.89263E+00-3.13600E-02 6.60161E-04
 -1     21135 9.63830E+00 3.73378E+00 6.70589E+00 6.04118E+00-5.04569E-03-2.01667E-02
 -1     21136-1.16836E+01-6.87700E-01-6.20198E+00-3.01487E+00 3.49446E-03-3.57677E-03
 -1     21137 5.14718E+00 2.19739E-01 2.66059E+00 2.70314E+00 3.55021E-02-9.00031E-03
 -1     21138 9.12455E+00 6.37715E+00 7.74873E+00 8.09064E+00-3.46111E-03-3.51431E-03
 -1     21139 5.58995E+00 7.47128E+00 6.54129E+00 7.16655E+00-8.61241E-03-1.03999E-03
 -1     21140-6.61871E+00 2.25262E+00-2.18559E+00 7.35274E-01 4.70060E-03-1.81027E-02
 -1     21141-1.04770E+01-2.04447E-01-5.33335E+00-2.31517E+00-2.90826E-03-5.15674E-04
 -1     21142-1.25009E+01-9.13445E-01-6.71284E+00-3.17144E+00 1.44670E-03-7.56614E-03
 -1     21143 9.98504E+00 3.72058E+00 6.83454E+00 6.76020E+00-6.17429E-03-1.11110E-02
 -1     21144-1.67318E+01-1.71399E+00-8.64405E+00-1.60219E+00 1.25247E-01 3.42824E-01
 -1     21145 3.32101E+00-7.10705E-01 1.28494E+00 2.33891E+00 2.66454E-02 6.06571E-03
 -1     21146-1.79625E+01-2.65673E+00-1.01740E+01-4.67438E-01 3.29556E-01-9.76949E-04
 -1     21147 8.80485E+00 4.30950E+00 6.56476E+00 4.82904E+00-3.01587E-03-8.84051E-03
 -1     21148 9.80541E+00 5.84664E+00 7.76645E+00 8.03257E+00-1.24859E-02 4.80474E-02
 -1     21149-1.32292E+01-1.04346E+00-7.12482E+00-3.14424E+00-1.85570E-02-6.53729E-03
 -1     21150 8.73438E+00 3.24763E+00 6.00626E+00 5.66815E+00-2.92363E-04-2.07011E-02
 -1     21151-1.71207E+01-2.55917E+00-9.87111E+00-2.36582E+00-5.91829E-03 3.82636E-02
 -1     21152 8.10963E+00 4.58527E+00 6.36030E+00 5.15244E+00-8.74148E-04 2.01483E-02
 -1     21153-1.89446E+00 5.86139E+00 1.97472E+00 5.90369E+00 3.09072E-02-8.58282E-03
 -1     21154 7.39039E+00 7.38013E+00 7.37854E+00 7.75634E+00 1.03505E-02 1.13101E-02
 -1     21155-3.98736E+00 3.48916E+00-3.22753E-01 3.29877E+00-4.74591E-02-2.36794E-02
 -1     21156 6.94771E+00 7.48037E+00 7.20448E+00 7.59279E+00 2.13006E-02 1.93154E-02
 -1     21157 8.80798E-01-1.66692E+00-3.91619E-01 2.11982E+00 2.08577E-02-8.87328E-03
 -1     21158-5.03703E+00-3.26455E+00-4.15577E+00 1.70039E+00 1.04289E-02-4.02833E-02
 -1     21159-4.95996E+00 3.10709E+00-9.74200E-01 2.35001E+00 2.89628E-02-5.10374E-02
 -1     21160-1.20111E+01-7.34879E-01-6.37123E+00-3.07393E+00 1.39369E-02 2.51508E-03
 -1     21161-1.11162E+01-3.73075E-01-5.75001E+00-2.84030E+00 7.09790E-03-3.65907E-03
 -1     21162 9.25070E+00 5.83236E+00 7.54721E+00 8.08190E+00 5.79699E-03 2.59123E-02
 -1     21163-1.21453E+01-3.83071E+00-8.08827E+00 1.27540E+00 1.60231E-01 9.73135E-02
 -1     21164-2.78905E+00 4.15754E+00 6.14689E-01 4.40069E+00 2.28909E-02-1.56938E-02
 -1     21165-8.16678E+00 1.20505E+00-3.54492E+00-6.30509E-01 1.09870E-02-9.40508E-03
 -1     21166 8.77566E+00 3.64232E+00 6.13677E+00 4.49961E+00 2.68343E-02 2.32007E-03
 -1     21167 1.01843E+01 4.50182E+00 7.33199E+00 7.35845E+00-1.04388E-02-6.54458E-03
 -1     21168 9.99249E+00 5.33120E+00 7.66337E+00 7.82801E+00-1.66379E-03 1.86644E-02
 -1     21169 8.49628E+00 6.91583E+00 7.70588E+00 8.03630E+00-1.03618E-02 5.84523E-04
 -1     21170-1.52887E+01-1.69755E+00-8.52259E+00-2.85561E+00 1.06120E-02 6.97167E-03
 -1     21171 6.30914E+00 7.22559E-01 3.43150E+00 3.04596E+00 3.97640E-02-4.01988E-02
 -1     21172 8.00456E+00 7.48174E+00 7.72794E+00 7.92862E+00-1.58157E-02 1.43243E-02
 -1     21173-1.01111E+01 2.77918E-02-5.00861E+00-2.00504E+00-3.23678E-02-1.87053E-02
 -1     21174 8.67650E+00 3.03573E+00 5.82048E+00 3.72142E+00-1.87765E-02-2.46979E-03
 -1     21175-9.50250E+00 3.44725E-01-4.60927E+00-1.60865E+00-9.56370E-03-3.34354E-02
 -1     21176 7.91588E+00 1.89080E+00 4.86107E+00 3.45572E+00 4.04007E-02-3.25645E-02
 -1     21177 6.43684E+00 5.82793E+00 6.13574E+00 6.72243E+00-4.14971E-03-1.68365E-02
 -1     21178-2.46402E+00 5.07553E+00 1.24554E+00 4.80768E+00 2.00522E-02-4.85168E-02
 -1     21179-8.84564E+00 8.28500E-01-4.01095E+00-1.15111E+00-1.07042E-02-4.85997E-03
 -1     21180 9.29666E+00 3.36588E+00 6.34254E+00 6.77304E+00 2.32601E-03 9.57224E-03
 -1     21181 9.14359E+00 3.52586E+00 6.26797E+00 5.19101E+00 5.13079E-02-3.00415E-03
 -1     21182-9.49110E+00-2.35079E-01-4.85126E+00-1.89037E+00 1.31379E-03-1.59378E-02
 -1     21183 9.74682E+00 2.69263E+00 6.22095E+00 5.95955E+00 1.76200E-02-1.83673E-02
 -1     21184 3.61729E+00 6.27395E+00 4.94949E+00 5.84976E+00 8.57159E-03 1.30615E-02
 -1     21185 7.24597E+00 5.21887E+00 6.23426E+00 6.91190E+00 3.15620E-03-9.53350E-04
 -1     21186 9.40594E+00 2.60610E+00 6.01072E+00 5.59889E+00 3.40927E-02-3.14249E-02
 -1     21187 8.16764E+00 4.56134E+00 6.36069E+00 7.07074E+00-1.88064E-03 1.90374E-03
 -1     21188-1.17685E+01-8.52108E-01-6.36004E+00-1.69462E+00-5.65229E-04-2.10633E-03
 -1     21189 1.72574E+00 6.14317E+00 3.95217E+00 5.55974E+00-2.35614E-03 1.46514E-02
 -1     21190-1.42757E+01-1.99511E+00-8.18683E+00 2.81327E-01 1.66229E-01 9.49162E-02
 -1     21191 6.78428E+00 5.55120E+00 6.15529E+00 6.79940E+00-2.21141E-03 1.87108E-04
 -1     21192 2.83975E+00 6.33140E+00 4.58266E+00 5.67354E+00-1.53803E-03 2.76860E-03
 -1     21193-5.36557E+00 2.62601E+00-1.33525E+00 1.60545E+00-1.57528E-02 2.26411E-04
 -1     21194-8.19037E+00 4.71419E-01-3.84901E+00-1.26155E+00-5.63823E-03 5.39090E-04
 -1     21195-1.04923E+01-4.62039E-01-5.49014E+00-1.92729E+00-3.57739E-03-3.36461E-03
 -1     21196 9.54928E+00 3.25445E+00 6.43264E+00 4.72960E+00 4.26258E-02 4.48033E-02
 -1     21197-9.89568E+00-3.79280E-01-5.14762E+00-1.89915E+00 2.44008E-03-1.54728E-02
 -1     21198-1.10142E+01-5.98439E-01-5.82768E+00-1.84018E+00-3.11882E-02 3.03432E-04
 -1     21199 4.48364E+00-4.26832E-01 2.02426E+00 3.21215E+00 6.72189E-03-1.19214E-02
 -1     21200 8.62038E+00 4.11202E+00 6.36574E+00 7.01172E+00-1.36264E-03 8.16674E-03
 -1     21201 9.33995E+00 2.87990E+00 6.11184E+00 6.54028E+00-7.20148E-04-3.71679E-03
 -1     21202 5.49060E+00 6.08905E+00 5.77598E+00 6.45001E+00-8.39835E-03 1.82352E-03
 -1     21203-1.36804E+01-1.67598E+00-7.42111E+00-8.19870E-01-1.23269E-01 2.98322E-02
 -1     21204 5.99858E+00 5.98154E+00 5.98907E+00 6.60152E+00 4.83957E-03-2.50337E-03
 -1     21205 7.69299E+00 4.93541E+00 6.31267E+00 6.97898E+00-2.26636E-03 8.72069E-03
 -1     21206-6.64165E+00 1.58991E+00-2.53509E+00 3.19098E-02-1.22083E-02 3.22126E-03
 -1     21207-6.23172E+00 1.95674E+00-2.16491E+00 5.72877E-01 1.68205E-02 5.90963E-03
 -1     21208 9.00518E+00 3.74911E+00 6.38034E+00 6.95997E+00-1.26435E-02 9.54557E-03
 -1     21209 6.41019E-01 6.67109E+00 3.72422E+00 6.00837E+00 4.17289E-02 1.32293E-02
 -1     21210-5.11449E-01 6.64237E+00 3.06527E+00 5.65683E+00 2.23863E-02-5.56948E-03
 -1     21211 7.56690E+00 1.09851E+00 4.28961E+00 3.89593E+00-4.55666E-03-1.98245E-02
 -1     21212-1.63274E-01-1.79266E+00-9.66872E-01 2.66230E+00 6.70407E-03-3.81275E-03
 -1     21213-8.68152E+00 1.66173E-01-4.24571E+00-1.57521E+00 1.34266E-04-1.68057E-02
 -1     21214-5.96451E+00 2.15113E+00-1.85719E+00 1.12240E+00 1.02528E-02-2.36395E-02
 -1     21215-7.74367E+00 7.44867E-01-3.49131E+00-9.42004E-01-7.35069E-03 7.03462E-04
 -1     21216-6.54669E+00-3.08224E+00-4.78316E+00 1.90257E+00-1.73981E-02-3.78454E-02
 -1     21217-3.12725E+00-2.25023E+00-2.68257E+00 2.29193E+00 1.44540E-02-6.86984E-03
 -1     21218-1.26812E+01-9.41033E-01-6.68032E+00-1.34339E+00 1.94754E-02-5.74335E-02
 -1     21219 9.05652E+00 2.88748E+00 6.01299E+00 4.40452E+00-1.96189E-02-3.62305E-02
 -1     21220-6.94773E+00 1.37494E+00-2.79090E+00-4.69572E-01-5.19995E-05-1.51406E-02
 -1     21221-4.75758E+00 2.93362E+00-8.65689E-01 2.34653E+00 1.13091E-02-6.97331E-03
 -1     21222 9.36082E+00 3.16470E+00 6.32967E+00 5.35286E+00 8.72604E-03 3.88994E-02
 -1     21223 2.37263E+00-1.19951E+00 5.91300E-01 2.92975E+00 1.46901E-02 1.58114E-03
 -1     21224 4.21739E+00 6.08825E+00 5.16891E+00 5.99809E+00 4.21557E-03-5.17815E-03
 -1     21225 6.32221E+00 3.71423E-01 3.31340E+00 3.56252E+00 8.64634E-03-1.01884E-02
 -1     21226 9.70632E+00 2.79265E+00 6.22694E+00 6.27113E+00 8.67193E-03-6.66609E-03
 -1     21227 4.99345E+00 6.19677E+00 5.59250E+00 6.22881E+00-7.97416E-04 8.91466E-03
 -1     21228 1.24548E+00 6.53383E+00 3.85446E+00 5.58334E+00-7.05109E-03 2.85084E-02
 -1     21229-8.99376E+00 3.36745E-03-4.50841E+00-1.75844E+00 8.77560E-03-7.97971E-03
 -1     21230-1.00771E+01-2.88403E+00-6.59193E+00 1.35447E+00 2.67814E-02-6.57804E-02
 -1     21231-8.27738E+00-5.60686E-02-4.19644E+00-6.91554E-01-2.03248E-02-1.19707E-02
 -1     21232-9.02782E-01 5.19346E+00 2.17655E+00 4.17043E+00-1.34214E-02-3.47412E-02
 -1     21233 8.91260E+00 2.10292E+00 5.53737E+00 5.78453E+00 1.71021E-02 2.12846E-02
 -1     21234-2.97686E+00 4.58814E+00 8.70107E-01 3.94364E+00 2.72760E-02 6.16640E-03
 -1     21235-9.74425E+00-8.50540E-01-5.38518E+00 1.07452E-01 1.45861E-02-3.85278E-02
 -1     21236 6.09570E+00 3.33325E+00 4.68721E+00 6.05468E+00-9.26672E-03-7.36735E-03
 -1     21237 5.67850E+00 4.11680E-03 2.83251E+00 3.98420E+00 2.23691E-02-1.01337E-02
 -1     21238 8.41841E+00 1.49314E+00 4.95653E+00 4.37295E+00 1.99280E-02-2.21805E-02
 -1     21239-4.50261E+00 2.32923E+00-1.08015E+00 1.08722E+00-7.44997E-03 2.81029E-03
 -1     21240 9.31147E+00 2.12857E+00 5.69504E+00 5.21602E+00 1.74512E-02-5.30721E-04
 -1     21241 8.20367E+00 2.61195E+00 5.40941E+00 6.17420E+00-3.44362E-03-6.21800E-03
 -1     21242-7.34963E+00 1.68604E-01-3.59322E+00-6.62892E-01-2.63674E-03 2.51819E-03
 -1     21243 9.17841E-01 5.10834E+00 3.01450E+00 4.39518E+00-8.34320E-03-8.19100E-04
 -1     21244-9.69859E+00-6.60419E-01-5.15299E+00-3.16845E-01 2.88470E-02-4.76667E-02
 -1     21245 7.01799E+00 3.25038E+00 5.12101E+00 6.16774E+00-1.58091E-02 2.89609E-04
 -1     21246-7.74107E+00-1.20158E-02-3.88806E+00-6.77070E-01 9.44520E-03 4.51079E-03
 -1     21247-1.11545E+01-1.61373E+00-6.11598E+00 5.79605E-01-7.85015E-02 4.57413E-02
 -1     21248 2.45000E-02 5.05922E+00 2.52421E+00 4.22084E+00-1.47482E-02-2.62473E-03
 -1     21249 9.09753E+00 1.98887E+00 5.55413E+00 5.50945E+00 3.01975E-02 2.35234E-02
 -1     21250-9.02860E+00-6.37937E-01-4.81960E+00-4.73026E-01-5.05798E-03-3.70181E-02
 -1     21251 8.61513E+00 2.29941E+00 5.46585E+00 5.98806E+00 4.86979E-03-3.72490E-03
 -1     21252 7.51734E+00 2.86233E+00 5.18169E+00 6.19116E+00-4.03524E-03 2.29644E-03
 -1     21253-1.16544E+00 5.43150E+00 2.15687E+00 4.65900E+00-1.86203E-02-2.48754E-02
 -1     21254 3.78754E+00-6.27479E-01 1.57915E+00 3.62458E+00 7.67524E-03-1.55504E-02
 -1     21255 8.49817E+00 1.48300E+00 4.97130E+00 4.74639E+00 2.08873E-02 2.18322E-02
 -1     21256-3.60988E+00 3.62388E+00-1.40935E-02 2.50142E+00 3.94062E-02-5.73463E-02
 -1     21257-5.05844E+00 1.81660E+00-1.60730E+00 5.93278E-01-1.11801E-02 1.01054E-02
 -1     21258 1.44229E+00-1.11865E+00 1.56070E-01 3.27653E+00 4.84444E-03-1.62074E-02
 -1     21259 4.20353E+00 4.73256E+00 4.46437E+00 5.37159E+00 1.14621E-02-7.50885E-04
 -1     21260 4.61344E+00 4.48247E+00 4.52935E+00 5.51709E+00 1.07973E-02 2.97238E-04
 -1     21261 5.08625E+00 4.17206E+00 4.62179E+00 5.66837E+00 4.70821E-03-3.36956E-04
 -1     21262 9.04498E+00 2.16421E+00 5.61302E+00 5.00854E+00 4.64270E-02-3.17458E-03
 -1     21263-3.99337E+00 2.83675E+00-5.60013E-01 1.65717E+00-2.57437E-03-1.04566E-02
 -1     21264-1.08426E+00-1.47764E+00-1.29182E+00 2.87291E+00 1.23910E-02-7.87989E-03
 -1     21265-6.01013E+00 1.16446E+00-2.41801E+00-2.29574E-01-5.85003E-03-5.52820E-03
 -1     21266 7.09814E+00 4.85169E-01 3.79481E+00 4.34373E+00 5.78150E-03-1.84743E-02
 -1     21267-4.01350E+00-1.63322E+00-2.78283E+00 2.31181E+00-5.15420E-03-3.63119E-02
 -1     21268 5.73363E+00 3.90303E+00 4.81328E+00 5.85271E+00 2.14909E-04-1.27428E-03
 -1     21269 1.58618E+00 5.02607E+00 3.30293E+00 4.46766E+00-5.98389E-03-4.16262E-03
 -1     21270 3.15244E+00 4.99681E+00 4.07682E+00 4.99591E+00 1.22917E-03-3.79376E-03
 -1     21271-6.95950E+00 4.42203E-01-3.24428E+00-5.82142E-01 7.17189E-03-7.94796E-03
 -1     21272-7.30349E+00-1.37257E+00-4.40607E+00 1.47729E+00 3.71977E-02-3.23712E-03
 -1     21273 3.82874E+00 4.97646E+00 4.39557E+00 5.24877E+00-4.83373E-03 1.66243E-02
 -1     21274 7.76391E+00 1.39030E+00 4.56926E+00 5.32131E+00 2.09673E-03-2.82716E-03
 -1     21275-3.04532E+00 3.60706E+00 2.58376E-01 2.51431E+00-4.21416E-03-1.11148E-02
 -1     21276-5.03158E+00 6.52832E-01-2.18647E+00 5.46327E-01-1.77148E-03 1.23161E-03
 -1     21277-3.25112E+00 3.98883E+00 3.64169E-01 3.35988E+00 9.76760E-03-2.66909E-02
 -1     21278 8.17385E+00 1.28979E+00 4.74890E+00 5.02443E+00 1.19802E-02 1.55249E-02
 -1     21279 3.56081E+00 3.16417E+00 3.38611E+00 4.60622E+00-6.63516E-03 7.36474E-03
 -1     21280-1.53941E+00 4.07555E+00 1.26675E+00 3.12511E+00-1.35533E-02-1.94079E-03
 -1     21281-6.62894E+00 7.11491E-01-2.96797E+00-4.91590E-01 2.34695E-03-5.93369E-03
 -1     21282 6.90490E+00 6.69360E-01 3.79167E+00 4.61112E+00 1.42116E-02-2.73479E-02
 -1     21283-5.49150E+00 1.48442E+00-2.01717E+00 1.92672E-01-1.64781E-03-1.25281E-02
 -1     21284-7.55751E+00-1.16691E+00-4.33226E+00 1.05043E+00 1.72270E-02 1.16343E-02
 -1     21285 4.27977E+00 2.76121E+00 3.49020E+00 5.07243E+00-3.89964E-02-1.27290E-02
 -1     21286 5.19399E+00 2.56536E+00 3.91081E+00 5.25898E+00-1.38461E-02-1.85898E-02
 -1     21287 2.37549E+00 5.04909E+00 3.71463E+00 4.75518E+00-1.50007E-03-6.36674E-03
 -1     21288-3.72187E+00 1.92906E+00-8.90583E-01 1.12135E+00 1.60630E-02-4.61537E-04
 -1     21289-2.50788E+00 2.70269E+00 8.86260E-02 1.88000E+00 3.35359E-03-4.94723E-03
 -1     21290 5.05433E+00 8.16083E-03 2.52465E+00 4.25217E+00 1.91971E-02-8.38947E-03
 -1     21291-1.49825E+00 3.69986E+00 1.09964E+00 2.86494E+00-4.34833E-03-2.90662E-03
 -1     21292-5.55798E+00 4.09313E-01-2.57123E+00 5.38676E-01 7.42964E-03 4.58578E-03
 -1     21293-4.31275E+00 1.54651E+00-1.37050E+00 7.45922E-01-2.31733E-02 8.24907E-03
 -1     21294-2.66895E+00 2.91833E+00 1.16253E-01 1.96845E+00-2.20174E-03 1.01149E-02
 -1     21295-7.38042E+00-8.39697E-01-4.02606E+00 6.37356E-01 2.55048E-02 1.06427E-02
 -1     21296 3.02740E+00-4.87273E-01 1.26065E+00 3.81868E+00 9.93919E-03 5.47112E-03
 -1     21297-6.26672E+00-1.45718E-01-3.22655E+00 5.09870E-01-4.63476E-03-6.21587E-03
 -1     21298 6.54679E+00 1.79234E+00 4.15784E+00 5.53030E+00-8.67718E-03-2.50930E-02
 -1     21299 1.98192E+00 3.82667E+00 2.90007E+00 4.11629E+00 1.38805E-02 1.03251E-02
 -1     21300 2.44276E+00 3.63947E+00 3.02881E+00 4.25776E+00 4.89664E-04-1.27118E-02
 -1     21301 2.64717E+00 3.16229E+00 2.89665E+00 4.37624E+00-1.17874E-03-1.17928E-03
 -1     21302-1.82838E+00-9.68257E-01-1.42957E+00 2.76513E+00-1.14797E-04 1.63256E-02
 -1     21303 7.28159E+00 1.61814E+00 4.49488E+00 5.51187E+00-1.96813E-02 1.31983E-02
 -1     21304 7.60461E-01-7.30191E-01-5.15820E-03 3.39464E+00 2.40411E-03-1.57423E-02
 -1     21305 6.12226E-01 3.96671E+00 2.29073E+00 3.53891E+00-7.38283E-03-8.06906E-04
 -1     21306-4.61250E+00 1.02499E+00-1.80265E+00 6.13659E-01 2.28500E-03 1.39656E-03
 -1     21307 5.63295E+00 1.89032E+00 3.78807E+00 5.41811E+00-1.58738E-02-3.15041E-03
 -1     21308-4.50899E+00-1.01130E+00-2.78026E+00 2.01653E+00-9.06795E-03-1.71157E-02
 -1     21309 3.59618E-01 1.94925E+00 1.17490E+00 3.17095E+00 8.95563E-04-6.01399E-03
 -1     21310 1.29909E+00 3.85329E+00 2.59527E+00 3.87845E+00 1.02423E-02-1.88248E-02
 -1     21311-2.75320E-01 3.89441E+00 1.81770E+00 3.27017E+00-1.60312E-02-1.20731E-02
 -1     21312 6.32227E+00 7.03321E-01 3.44992E+00 4.85641E+00-7.92771E-03 2.11516E-02
 -1     21313 2.98997E+00 1.70889E+00 2.29340E+00 4.34418E+00 1.79482E-02-3.64011E-02
 -1     21314-2.88638E+00 9.46695E-01-9.52560E-01 1.70968E+00 6.56191E-03 7.64847E-03
 -1     21315 1.55654E+00 1.67162E+00 1.59469E+00 3.89905E+00-2.02978E-02 7.99911E-03
 -1     21316-4.45894E+00 1.22424E+00-1.66087E+00 6.11452E-01 1.12504E-02 8.75489E-03
 -1     21317-1.14140E+00 2.86708E+00 8.67458E-01 2.56156E+00 1.31420E-02 5.43379E-03
 -1     21318-2.43106E-01 2.98488E+00 1.38109E+00 2.89867E+00 1.37023E-02-2.61073E-03
 -1     21319-4.64252E+00-3.65381E-01-2.60737E+00 1.70330E+00-6.18007E-02-5.08806E-02
 -1     21320 4.48013E+00 2.86948E-01 2.37149E+00 4.43748E+00-6.10858E-03 6.61661E-03
 -1     21321 3.74977E-01 2.55136E+00 1.44596E+00 3.08693E+00 1.08875E-03 3.51147E-04
 -1     21322 1.27267E-01 2.81541E+00 1.46975E+00 3.01155E+00-6.24075E-03-6.75699E-03
 -1     21323-3.47034E+00 4.39221E-01-1.48341E+00 1.58087E+00 3.19479E-03-4.55548E-02
 -1     21324 2.59934E+00-9.88074E-03 1.31196E+00 3.96998E+00 9.48048E-03 4.26997E-03
 -1     21325 5.76785E+00 9.87021E-01 3.41716E+00 4.97108E+00-1.02846E-02-9.32466E-03
 -1     21326-2.26819E+00 2.28965E+00 2.76795E-02 1.84435E+00 8.47063E-03 1.05134E-02
 -1     21327-2.22028E+00 1.48835E+00-3.73112E-01 1.85067E+00-1.60432E-02 3.06217E-03
 -1     21328 3.72934E+00 1.36396E+00 2.54084E+00 4.59427E+00 1.63448E-02-3.88784E-02
 -1     21329 4.55166E+00 1.00423E+00 2.79470E+00 4.70747E+00-9.59002E-03 7.16176E-03
 -1     21330 3.09825E-01-1.42529E-01 8.23170E-02 3.34757E+00-5.43966E-03-5.27514E-03
 -1     21331-2.41890E+00-7.40845E-01-1.51472E+00 2.61438E+00-7.43660E-02 3.14686E-02
 -1     21332-4.57862E+00-1.97134E-01-2.36807E+00 1.50917E+00-1.33668E-02-1.41917E-02
 -1     21333-7.15085E-01 1.28119E+00 2.59467E-01 2.70712E+00-7.59893E-03-1.00111E-02
 -1     21334-2.19078E+00 2.05806E+00-4.44361E-02 1.84748E+00-2.19751E-02 3.77219E-03
 -1     21335 2.01473E+00 1.14339E+00 1.68720E+00 3.86994E+00 8.02269E-03-4.56772E-02
 -1     21336 2.58371E+00 9.42653E-01 1.76497E+00 3.93092E+00-3.76846E-03 1.72400E-02
 -1     21337 5.35520E-01 1.00395E+00 7.57348E-01 3.40516E+00-1.73628E-02-2.41501E-02
 -1     21338-2.19610E+00 1.80638E+00-2.11414E-01 1.80047E+00 1.45929E-02-5.90292E-03
 -1     21339-1.21550E-01 3.81283E-01 1.55321E-01 3.18731E+00 4.12751E-03-2.41894E-02
 -1     21340-2.02245E+00 2.99509E-01-8.14693E-01 2.48845E+00 7.08939E-03 3.79552E-02
 -1     21341-2.69756E+00-1.71496E-01-1.46501E+00 2.32061E+00-1.66595E-02 1.03875E-02
 -1     21342 1.82925E+00 4.62259E+00 3.15010E+00 5.38239E+00-1.81621E-01-2.00149E-02
 -1     21343 2.27874E+00 4.65841E+00 3.58849E+00 4.81696E+00-1.49347E-02-7.55452E-03
 -1     21344 6.78732E+00 6.62363E+00 6.70569E+00 6.19911E+00 9.95048E-03 1.64101E-02
 -1     21345 7.26905E+00 7.02655E+00 7.14870E+00 6.26146E+00 2.89607E-03 9.13406E-03
 -1     21346-2.97892E+00 3.77962E+00 7.58047E-01 1.91989E+00-7.30353E-02-1.95872E-01
 -1     21347-6.11199E-01 3.96532E+00 1.12224E+00 2.21992E+00-3.14858E-01 2.78604E-01
 -1     21348-8.32458E+01-6.61207E+01-7.50181E+01 6.41535E+00-1.21926E+00 1.36337E+00
 -1     21349-6.81102E+01-4.22764E+01-5.42809E+01 6.04396E+00-7.28973E-01 2.62379E-01
 -1     21350 8.03839E+00 6.92222E+00 7.31206E+00 7.20602E+00 1.08083E-01-5.30689E-02
 -1     21351 7.91729E+00 6.95877E+00 7.38487E+00 6.98359E+00-7.09721E-02 3.01510E-02
 -1     21352 1.09175E+01 9.05889E+00 1.00282E+01 1.01163E+01-4.36160E-02-1.53210E-02
 -1     21353 1.24085E+01 1.04202E+01 1.14903E+01 1.13837E+01 5.59288E-03 2.58343E-02
 -1     21354 1.31336E+01 1.10862E+01 1.21485E+01 1.20431E+01-4.29141E-02-8.24174E-04
 -1     21355 1.38428E+01 1.16515E+01 1.27519E+01 1.25499E+01 6.01758E-03 1.59582E-02
 -1     21356 1.40808E+01 1.18430E+01 1.29166E+01 1.26736E+01-1.26498E-02-2.87075E-02
 -1     21357 1.38569E+01 1.15732E+01 1.27388E+01 1.26062E+01 5.03649E-04-4.18228E-02
 -1     21358 1.32548E+01 1.11277E+01 1.22096E+01 1.23622E+01 1.32281E-02-7.77243E-03
 -1     21359 1.28701E+01 1.07068E+01 1.17879E+01 1.17524E+01 3.73099E-02-2.67465E-02
 -1     21360 1.19008E+01 9.91472E+00 1.08951E+01 1.07968E+01 2.33977E-02-8.70473E-03
 -1     21361 1.05471E+01 8.72418E+00 9.63625E+00 9.53761E+00 1.13376E-02 1.85350E-02
 -1     21362 8.81755E+00 7.36778E+00 8.00669E+00 8.10850E+00 3.70342E-03 2.05224E-03
 -1     21363 7.20867E+00 6.02862E+00 6.62364E+00 6.61046E+00 4.86792E-03-8.28417E-03
 -1     21364 5.95600E+00 5.03772E+00 5.49533E+00 5.49430E+00-2.33473E-02-1.65013E-02
 -1     21365 5.41569E+00 4.63599E+00 4.99918E+00 5.00812E+00-1.62136E-02 3.33364E-02
 -1     21366 5.78264E+00 4.96825E+00 5.42328E+00 5.39652E+00-7.94009E-03 1.24113E-02
 -1     21367 6.21547E+00 5.09617E+00 5.65025E+00 5.69723E+00 3.17827E-02-1.69617E-02
 -1     21368 5.95358E+00 5.16148E+00 5.52318E+00 5.53327E+00-2.11611E-02 1.34783E-02
 -1     21369 5.36256E+00 4.52625E+00 4.96777E+00 5.05952E+00-3.75447E-03 3.82262E-02
 -1     21370 6.20048E+00 5.11656E+00 5.64533E+00 5.50705E+00-3.62122E-03 3.69616E-02
 -1     21371 6.89784E+00 5.77706E+00 6.34898E+00 6.41730E+00 2.14785E-02-5.64240E-03
 -1     21372 8.56458E+00 6.98727E+00 7.80350E+00 7.82709E+00 1.28636E-02 2.58417E-02
 -1     21373 1.01736E+01 8.56040E+00 9.37476E+00 9.32583E+00-3.51425E-03 1.35198E-02
 -1     21374 1.16322E+01 9.72415E+00 1.07221E+01 1.06511E+01-3.91271E-02 1.00442E-02
 -1     21375 1.27217E+01 1.06703E+01 1.16938E+01 1.16584E+01-1.19061E-02 2.21018E-02
 -1     21376 1.36294E+01 1.15169E+01 1.25901E+01 1.22204E+01-4.69575E-03 4.85292E-03
 -1     21377 1.38519E+01 1.16322E+01 1.27373E+01 1.25949E+01-3.28581E-03 1.35816E-02
 -1     21378 1.38881E+01 1.15796E+01 1.27263E+01 1.26694E+01-7.43151E-03-1.36175E-03
 -1     21379 1.37332E+01 1.16259E+01 1.27180E+01 1.24964E+01-3.20169E-02 1.86362E-02
 -1     21380 1.32200E+01 1.11964E+01 1.22628E+01 1.21181E+01-2.66191E-02 4.04186E-03
 -1     21381 1.24823E+01 1.04491E+01 1.13739E+01 1.14233E+01 2.72768E-02-1.45215E-02
 -1     21382 1.09288E+01 9.22342E+00 1.00628E+01 9.92303E+00-1.56849E-01 3.62875E-02
 -1     21383 1.18035E+01 1.00920E+01 1.10094E+01 1.09279E+01-9.64507E-03-3.93942E-02
 -1     21384 1.31052E+01 1.09859E+01 1.21196E+01 1.18456E+01 6.62462E-02-2.92028E-02
 -1     21385 9.63964E+00 8.10562E+00 8.86719E+00 8.84839E+00 8.91946E-02 6.45116E-03
 -1     21386 1.35794E+01 1.14826E+01 1.25586E+01 1.24067E+01 3.48105E-02-3.07571E-02
 -1     21387 1.39958E+01 1.17815E+01 1.29670E+01 1.26508E+01 9.01220E-03-3.62708E-02
 -1     21388 1.38708E+01 1.16559E+01 1.27796E+01 1.26559E+01 2.17933E-02-1.01811E-02
 -1     21389 1.38483E+01 1.16598E+01 1.27680E+01 1.24887E+01 9.28083E-03 4.24149E-04
 -1     21390 1.30979E+01 1.10198E+01 1.21104E+01 1.20742E+01-3.38653E-02 6.90363E-03
 -1     21391 1.23412E+01 1.04119E+01 1.13819E+01 1.12902E+01 2.36205E-02 1.11911E-03
 -1     21392 1.11527E+01 9.28408E+00 1.02050E+01 1.02010E+01 3.01331E-02-4.48336E-04
 -1     21393 9.72774E+00 8.07186E+00 8.91405E+00 8.82697E+00-4.47658E-03 3.61750E-02
 -1     21394 8.13068E+00 6.62617E+00 7.43992E+00 7.36521E+00 5.84321E-03 2.97217E-02
 -1     21395 6.50028E+00 5.33805E+00 5.93694E+00 6.05924E+00-1.22575E-02 7.82469E-02
 -1     21396 5.47309E+00 4.55842E+00 5.01196E+00 5.16636E+00-1.12665E-02 5.17162E-02
 -1     21397 5.45649E+00 4.69187E+00 5.08221E+00 5.14759E+00 2.08043E-03-1.05856E-02
 -1     21398 6.11297E+00 5.35542E+00 5.71415E+00 5.55043E+00-1.57270E-02 4.59038E-03
 -1     21399 5.62777E+00 4.70800E+00 5.13391E+00 5.18846E+00 3.18629E-02 2.16650E-02
 -1     21400 6.38312E+00 5.30240E+00 5.86675E+00 5.85251E+00 1.17260E-02-4.35267E-02
 -1     21401 7.78544E+00 6.55475E+00 7.14115E+00 7.09958E+00-1.74640E-02-5.30863E-03
 -1     21402 9.35073E+00 7.81521E+00 8.53710E+00 8.57589E+00 1.57378E-02 1.46654E-02
 -1     21403 1.08528E+01 9.02387E+00 9.91943E+00 9.97244E+00-4.76577E-03-2.38223E-02
 -1     21404 1.21052E+01 1.01423E+01 1.10568E+01 1.11266E+01 1.83977E-02-1.80580E-02
 -1     21405 1.30719E+01 1.09641E+01 1.20126E+01 1.19642E+01 2.12374E-02-1.81417E-02
 -1     21406 1.36304E+01 1.14522E+01 1.25425E+01 1.24955E+01-6.85106E-03 3.18892E-03
 -1     21407 1.39665E+01 1.17891E+01 1.28495E+01 1.26649E+01-1.36170E-02-2.06272E-03
 -1     21408 1.38828E+01 1.15953E+01 1.27465E+01 1.26086E+01 9.76896E-03-4.53781E-03
 -1     21409 1.36150E+01 1.13616E+01 1.24547E+01 1.23680E+01-2.63527E-02-2.01103E-02
 -1     21410 1.29171E+01 1.09730E+01 1.19118E+01 1.18332E+01 2.35771E-03 4.68067E-03
 -1     21411 1.15693E+01 9.85199E+00 1.07448E+01 1.05767E+01-2.88585E-02 2.21238E-02
 -1     21412 9.82500E+00 8.15568E+00 9.20925E+00 8.50473E+00 2.05977E-01-1.61604E-01
 -1     21413 1.48399E+00 1.50202E+01 8.26324E+00 6.30735E+00 2.84612E-01-2.34980E-01
 -1     21414 1.98801E+00 1.38326E+01 7.08074E+00 6.54465E+00-2.23317E-01-3.60779E-01
 -1     21415-2.60350E-01 1.40502E+01 7.67923E+00 6.22335E+00-2.13631E-01-6.83016E-02
 -1     21416-1.95871E-01 1.25776E+01 6.51997E+00 6.31094E+00-2.00671E-01-3.26758E-02
 -1     21417 1.91471E-01 9.17843E+00 4.41155E+00 6.59948E+00-4.39188E-02 3.26430E-02
 -1     21418-1.11063E+00 5.36319E+00 2.13312E+00 6.59720E+00-8.11457E-02 4.95000E-02
 -1     21419 9.48292E-02 7.76772E+00 3.91063E+00 6.72381E+00 6.64702E-02-1.29395E-02
 -1     21420 6.36042E-01 1.21940E+01 6.38505E+00 6.44692E+00-1.41207E-01 1.98876E-01
 -1     21421 8.88857E-01 1.56941E+01 8.23624E+00 6.37520E+00-2.46525E-02-4.22391E-02
 -1     21422-2.29008E-01 1.48044E+01 6.84415E+00 6.03474E+00 9.12011E-02-2.12207E-01
 -1     21423 2.57297E-02 1.14896E+01 5.85958E+00 6.41669E+00 9.35317E-02-1.60845E-01
 -1     21424 7.57777E-01 1.61399E+01 8.51565E+00 6.64880E+00-1.33232E-01-3.52093E-01
 -1     21425 2.21668E+00 1.64311E+01 9.13128E+00 6.47709E+00-5.38184E-01 2.31949E-01
 -1     21426-2.56633E+01 1.88617E+00-1.01859E+01-6.00666E+00 3.86288E-01 7.31022E-01
 -1     21427-1.81503E+01-7.91890E+00-1.10391E+01-1.16596E+01-1.25684E+00 1.80778E+00
 -1     21428-2.47632E+01-6.94352E+00-1.50089E+01-7.69404E+00 1.49173E-01 1.10265E-01
 -1     21429-2.09931E+01-3.40384E+00-1.22438E+01-6.93081E+00 1.27961E-02-1.90030E-02
 -1     21430-1.95956E+01-2.29571E+00-1.09268E+01-6.59241E+00-1.71580E-02 1.48049E-02
 -1     21431-1.91387E+01-2.10212E+00-1.06373E+01-6.39231E+00 4.29825E-03 2.48878E-03
 -1     21432-1.88845E+01-2.16842E+00-1.05172E+01-6.30385E+00 8.84539E-03-3.00312E-03
 -1     21433-1.83750E+01-2.08895E+00-1.02550E+01-6.16560E+00 2.31142E-02-1.11379E-02
 -1     21434-1.77210E+01-1.92952E+00-9.80330E+00-5.91060E+00-1.48357E-02-2.30652E-02
 -1     21435-1.65550E+01-1.78239E+00-9.12249E+00-5.53267E+00-1.60296E-02 1.48144E-02
 -1     21436-1.53213E+01-2.29206E+00-8.76852E+00-4.99356E+00-7.27446E-02 6.79859E-02
 -1     21437-1.29283E+01-1.58960E+00-7.33789E+00-4.24809E+00 9.77065E-02-4.06822E-02
 -1     21438-1.09082E+01-1.31920E+00-6.24441E+00-3.42459E+00-5.97857E-02-1.88781E-02
 -1     21439-8.55441E+00-1.54756E+00-5.84120E+00-3.66563E+00 3.64878E-02-3.49906E-01
 -1     21440-1.00109E+01-1.06938E+00-4.26346E+00-4.30374E+00-1.11877E-02 4.67723E-01
 -1     21441-9.17122E+00-2.09618E+00-6.05282E+00-5.08615E+00 2.14657E-01-8.13973E-02
 -1     21442-8.16265E+00-9.24458E-01-4.40526E+00-3.94735E+00-1.59504E-01 2.66365E-01
 -1     21443-1.24416E+01-1.36158E+00-6.86730E+00-4.22141E+00 2.26545E-03-6.70284E-03
 -1     21444-1.43783E+01-1.42807E+00-7.85324E+00-4.82520E+00-6.42679E-02 2.05097E-02
 -1     21445-1.65426E+01-1.97607E+00-9.25316E+00-5.46650E+00-2.69776E-02-2.01439E-02
 -1     21446-1.77551E+01-2.16008E+00-9.99107E+00-5.83750E+00-8.06745E-03 1.97037E-02
 -1     21447-1.85186E+01-2.15078E+00-1.03506E+01-6.16563E+00-1.56496E-02 2.35985E-02
 -1     21448-1.89171E+01-2.13403E+00-1.05280E+01-6.33189E+00-9.26802E-03 7.32617E-03
 -1     21449-1.91815E+01-2.13169E+00-1.06522E+01-6.43716E+00 1.38022E-02-1.25972E-02
 -1     21450-1.95687E+01-2.06886E+00-1.08449E+01-6.50375E+00 1.41613E-02-2.14594E-02
 -1     21451-1.99619E+01-2.20455E+00-1.09823E+01-6.80876E+00 1.06745E-02-7.95124E-03
 -1     21452-1.83375E+01-4.37859E-01-9.41273E+00-7.62588E+00 3.56592E-01-3.13172E-01
 -1     21453-1.93813E+01-1.72248E+00-1.09254E+01-6.94298E+00 7.13870E-02-2.09221E-01
 -1     21454-1.94829E+01-2.10914E+00-1.07405E+01-6.71371E+00-4.24524E-02-2.84138E-02
 -1     21455-1.87405E+01 9.85913E-02-5.94615E+00-9.57828E+00 6.37890E-01 7.65589E-02
 -1     21456-1.92054E+01-2.13514E+00-1.07080E+01-6.46125E+00-1.27240E-02 9.10209E-03
 -1     21457-1.90029E+01-2.12215E+00-1.05754E+01-6.35727E+00-4.65500E-04-8.01950E-03
 -1     21458-1.86920E+01-2.10524E+00-1.03670E+01-6.25001E+00 8.32587E-03-2.45324E-03
 -1     21459-1.82035E+01-2.07631E+00-1.01344E+01-6.08271E+00-8.81277E-04-6.79671E-03
 -1     21460-1.73003E+01-1.90110E+00-9.59158E+00-5.74092E+00-1.02126E-02 3.32423E-03
 -1     21461-1.57431E+01-1.66058E+00-8.73547E+00-5.23090E+00 7.26689E-03-2.84874E-02
 -1     21462-1.38717E+01-1.57714E+00-7.60138E+00-4.60576E+00 4.68007E-02-5.69947E-02
 -1     21463-1.14859E+01-1.35269E+00-6.46522E+00-3.90953E+00-5.41599E-02-5.76971E-02
 -1     21464-9.66497E+00-9.75170E-01-5.45112E+00-3.17982E+00 1.90583E-02-2.02165E-01
 -1     21465-1.71871E+01-1.98001E+00-9.53568E+00-5.72074E+00-9.69458E-03-1.39626E-02
 -1     21466-1.35332E+01-1.68832E+00-7.67777E+00-4.49523E+00-1.90538E-02 1.15626E-02
 -1     21467-1.56283E+01-1.79946E+00-8.68449E+00-5.12238E+00-4.19555E-02-4.35620E-03
 -1     21468-1.81147E+01-2.04433E+00-1.01051E+01-6.02626E+00 2.42874E-02-4.46426E-03
 -1     21469-1.87215E+01-2.12397E+00-1.04254E+01-6.25162E+00 1.43084E-02-4.03044E-03
 -1     21470-1.91128E+01-2.22589E+00-1.06670E+01-6.37119E+00-1.62592E-03-5.05707E-03
 -1     21471-1.93396E+01-2.23745E+00-1.07670E+01-6.46981E+00-1.12563E-02-1.42806E-02
 -1     21472-1.97821E+01-2.23558E+00-1.10270E+01-6.58945E+00-1.32032E-03-3.73256E-02
 -1     21473-2.02642E+01-2.59771E+00-1.07830E+01-6.86305E+00 1.47653E-01-4.33883E-02
 -1     21474-2.76469E+01-8.53956E+00-1.78850E+01-6.93629E+00-7.37543E-01 2.25314E+00
 -1     21475 6.12217E+00 6.11611E+00 6.12224E+00 5.86906E+00 6.17376E-03 3.27299E-02
 -1     21476 6.41748E+00 6.41473E+00 6.41532E+00 6.01023E+00 1.32963E-03-1.91666E-02
 -1     21477 4.75906E+00 4.79743E+00 4.79344E+00 5.65510E+00 3.14843E-02-6.52319E-03
 -1     21478 6.22047E+00 6.21974E+00 6.21583E+00 5.56903E+00-2.29351E-03 1.21907E-02
 -1     21479 8.70687E+00 8.68230E+00 8.70117E+00 4.81655E+00 4.55891E-03 8.38632E-02
 -1     21480 6.54659E+00 6.53518E+00 6.55059E+00 3.42154E+00-7.54246E-03 5.69710E-02
 -1     21481 8.23816E+00 8.20940E+00 8.25242E+00 1.85606E+00-4.12667E-03 1.74457E-02
 -1     21482 1.13351E+00 1.13014E+00 1.15772E+00 2.85765E-01 6.69864E-03 6.65710E-02
 -1     21483 2.30336E+00 2.27316E+00 2.27157E+00-1.39600E+00 2.48410E-02 2.14086E-02
 -1     21484-5.97992E+00-5.97960E+00-5.98014E+00-2.24156E+00 5.05940E-03 2.00110E-03
 -1     21485-8.58320E+00-8.59369E+00-8.61756E+00-2.48235E+00-2.19928E-02 1.41506E-01
 -1     21486-4.11252E+01-4.08345E+01-4.12396E+01 6.00967E-01-8.49267E-02-4.71436E-01
 -1     21487-3.49503E+01-3.48485E+01-3.50768E+01 5.72253E+00 6.59602E-02 1.72724E+00
 -1     21488-2.97438E+00-3.98542E+00-3.61907E+00 1.73384E+00 2.72394E-01-2.99854E-02
 -1     21489-1.50063E+01-1.49942E+01-1.50904E+01-7.94436E-01 1.40090E-02 8.71112E-03
 -1     21490-5.38881E+00-5.38568E+00-5.38218E+00-2.22448E+00-1.11834E-03-4.10234E-02
 -1     21491 3.61848E+00 3.55756E+00 3.58283E+00-1.21872E+00 7.25764E-03 5.35616E-02
 -1     21492 1.44451E+00 1.44394E+00 1.44393E+00 5.20925E-01 4.98075E-09 3.03354E-02
 -1     21493 4.62656E+00 4.62234E+00 4.64437E+00 2.17770E+00-1.73691E-02-3.13960E-02
 -1     21494 7.90392E+00 7.89456E+00 7.91037E+00 3.73480E+00-5.36218E-03 3.02260E-02
 -1     21495 7.84240E+00 7.84133E+00 7.84111E+00 5.10966E+00-8.50071E-04 3.12346E-02
 -1     21496 5.64050E+00 5.63510E+00 5.64304E+00 5.43364E+00-1.61031E-03-2.12950E-02
 -1     21497 5.70253E+00 5.70658E+00 5.71940E+00 5.65254E+00 1.93031E-02 1.78999E-02
 -1     21498 6.19071E+00 6.18796E+00 6.18810E+00 5.67265E+00-5.27982E-05 1.96903E-02
 -1     21499 5.31679E+00 5.29831E+00 5.32457E+00 5.27360E+00 2.48635E-02 3.44151E-02
 -1     21500 5.88132E+00 5.87387E+00 5.85936E+00 5.80073E+00 1.63154E-02-2.37288E-02
 -1     21501 5.86010E+00 5.84201E+00 5.87508E+00 4.19662E+00-1.77299E-02 5.11904E-02
 -1     21502 5.06930E+00 5.06821E+00 5.06773E+00 2.63565E+00 4.32264E-04 6.30032E-03
 -1     21503 8.30533E+00 8.29913E+00 8.29890E+00 1.05170E+00-1.73074E-02 5.88583E-02
 -1     21504-1.14830E+00-1.14336E+00-1.14788E+00-5.61742E-01 1.31221E-03-1.84761E-02
 -1     21505 9.58277E+00 9.56336E+00 9.57539E+00-1.87135E+00 2.65939E-03 4.36707E-02
 -1     21506-4.65469E+00-4.63993E+00-4.66906E+00-2.41057E+00 2.04527E-02 7.43974E-03
 -1     21507-1.46803E+01-1.46744E+01-1.46744E+01-1.28264E+00 3.35047E-08-2.23200E-01
 -1     21508 8.13271E-01 7.92616E-01 7.97571E-01-1.95152E+00 8.97650E-03 4.22490E-02
 -1     21509 5.74150E+00 5.72444E+00 5.73411E+00-3.09922E-01 6.81097E-03-6.87508E-03
 -1     21510 5.58434E+00 5.56947E+00 5.58798E+00 1.31827E+00 1.60820E-03 4.86237E-02
 -1     21511 8.19274E+00 8.17417E+00 8.17523E+00 2.93516E+00 6.18849E-03 3.24866E-02
 -1     21512 7.06535E+00 7.02821E+00 7.09220E+00 4.43055E+00-2.34958E-02 1.73928E-02
 -1     21513 9.79848E+00 9.79033E+00 9.79275E+00 5.38903E+00-7.10078E-05 2.60229E-02
 -1     21514 3.89633E+00 3.89477E+00 3.89477E+00 5.56380E+00 1.42015E-08 7.78727E-03
 -1     21515 6.27145E+00 6.26761E+00 6.26500E+00 5.69820E+00 6.31666E-03-1.21178E-02
 -1     21516-7.69459E-01 8.49696E+00 3.80787E+00 8.09817E+00 1.63757E-02-1.24750E-02
 -1     21517-1.89683E+00 3.83287E+00 8.96107E-01 3.96794E+00-1.18358E-02-6.88585E-02
 -1     21518-1.45717E+01-1.30731E+00-7.93811E+00-4.49858E+00-6.94877E-04-1.54880E-03
 -1     21519 9.53428E+00 4.61009E+00 7.06558E+00 6.74938E+00-8.08612E-03-1.71732E-03
 -1     21520 1.17537E+01 9.90200E+00 1.08214E+01 1.08452E+01 8.77133E-03 1.45655E-02
 -1     21521 9.83776E+00 8.94813E+00 9.37190E+00 9.66898E+00-6.36082E-04-7.53823E-03
 -1     21522-1.60912E+01-1.58513E+00-8.83067E+00-5.04156E+00-2.36917E-03-5.46475E-04
 -1     21523-1.48554E+01-1.31112E+00-8.07950E+00-4.60493E+00 8.31859E-04 7.62700E-05
 -1     21524-1.36037E+01-9.83328E-01-7.28511E+00-3.89829E+00 4.23981E-03-1.55742E-03
 -1     21525-1.30926E+01-8.18481E-01-6.96676E+00-3.45809E+00 3.55522E-04-1.75214E-02
 -1     21526 6.62276E+00 2.50219E+00 4.56851E+00 2.17135E+00 7.93970E-03-2.43659E-02
 -1     21527 7.98042E+00 3.23376E+00 5.55108E+00 3.24385E+00 2.75917E-03-1.85186E-03
 -1     21528 6.08941E+00 5.79547E+00 5.91371E+00 5.49008E+00 7.92196E-03-1.81070E-02
 -1     21529 9.47303E+00 8.92284E+00 9.19636E+00 9.42948E+00 5.61707E-03 6.53285E-03
 -1     21530 1.07119E+01 6.28092E+00 8.50735E+00 8.45313E+00 4.30725E-03 6.36139E-03
 -1     21531 1.09367E+01 6.78861E+00 8.84466E+00 8.96808E+00 1.06730E-02-1.65550E-03
 -1     21532 1.10838E+01 7.74888E+00 9.40001E+00 9.56509E+00-3.72302E-03 5.63712E-03
 -1     21533 1.16405E+01 9.14785E+00 1.04060E+01 1.04379E+01-2.25980E-03-8.09099E-04
 -1     21534 1.02631E+01 9.01618E+00 9.64452E+00 9.79966E+00 2.55252E-03 1.09766E-02
 -1     21535-1.90872E+01-1.22510E+00-1.03709E+01-5.11865E+00-3.88260E-02-2.08660E-02
 -1     21536 6.69123E+00 5.34126E+00 6.03946E+00 5.33750E+00-1.03655E-03 2.28983E-02
 -1     21537 8.30799E+00 9.07649E+00 8.67522E+00 9.04481E+00-2.65240E-04 1.68445E-03
 -1     21538-1.91622E+01-2.32506E+00-1.05834E+01-8.87231E-01-1.44244E-01 1.66998E-02
 -1     21539 2.59454E+00 7.55355E+00 5.08595E+00 6.50108E+00-1.93433E-02 4.31404E-03
 -1     21540 9.29340E+00 3.21517E+00 6.25409E+00 5.09662E+00-1.17132E-03 2.25125E-02
 -1     21541-1.21815E+01-2.00142E+00-7.16561E+00 4.45102E-01-7.32801E-02 6.53975E-02
 -1     21542-5.35699E+00 2.56994E+00-1.39108E+00 1.48019E+00-2.93778E-03 1.47575E-02
 -1     21543-9.28184E+00-7.15932E-01-5.02336E+00-9.24108E-02-4.44158E-03 2.32299E-02
 -1     21544 8.76087E+00 1.63388E+00 5.20388E+00 5.44941E+00-1.72119E-02-7.58516E-04
 -1     21545 6.23177E+00 1.04956E+00 3.64249E+00 5.15115E+00-4.29103E-03 5.06207E-03
 -1     21546-3.94749E+00-6.82157E-01-2.30185E+00 2.04680E+00 2.36547E-02 2.44160E-02
 -1     21547-2.43448E+00 2.18808E+00-1.18230E-01 1.74274E+00 7.79515E-03 5.84526E-03
 -1     21548-3.89836E+00 1.42462E+00-1.23986E+00 9.16482E-01 3.70028E-03-2.31110E-03
 -1     21549 2.40832E+00 1.39560E+00 1.89998E+00 4.11213E+00-1.72430E-02 1.16455E-02
 -1     21550-2.90100E+00 4.25870E-01-1.24446E+00 1.96221E+00-1.19692E-02 5.61125E-03
 -1     21551-6.43893E-01 9.38326E+00 4.43927E+00 6.99131E+00-3.01839E-03 9.73847E-02
 -1     21552-4.36417E+00 1.71916E+00-1.22764E+00 1.79106E+00 4.98339E-01 1.47426E-01
 -1     21553 1.24573E+01 1.05347E+01 1.14986E+01 1.15899E+01 5.24337E-03-1.48487E-03
 -1     21554 7.97931E+00 5.53637E+00 6.77634E+00 6.71393E+00 2.15771E-03 1.45584E-03
 -1     21555 7.00425E+00 6.49004E+00 6.75646E+00 5.43236E+00-9.60979E-03 1.92196E-02
 -1     21556-1.68168E+01-1.72826E+00-9.27225E+00-5.45011E+00 1.49963E-02-8.09790E-03
 -1     21557 1.18129E+01 1.03773E+01 1.10841E+01 1.10366E+01 4.26920E-03 1.09298E-02
 -1     21558-1.92768E+01-1.78820E+00-1.05962E+01-6.47351E+00 8.64824E-02-6.10859E-03
 -1     21559 7.44503E+00 8.77499E+00 8.09976E+00 8.15098E+00 2.80720E-03-7.43130E-02
 -1     21560 1.05183E+01 7.67820E+00 9.05461E+00 8.98399E+00 9.83314E-03-8.46125E-03
 -1     21561 7.52323E+00 5.94533E+00 6.68503E+00 4.66882E+00 5.63304E-02-7.68575E-02
 -1     21562-8.83031E+00-8.27881E+00-8.32072E+00-1.22207E+00-2.34306E-02 4.44824E-02
 -1     21563 3.61981E+00 2.18937E+00 2.83562E+00-1.34103E-01 2.33945E-02 4.63024E-02
 -1     21564 1.27955E+01 1.04914E+01 1.16534E+01 1.15716E+01 5.07755E-03-7.88656E-03
 -1     21565 1.21937E+01 9.32266E+00 1.07947E+01 1.04659E+01 2.35314E-02 2.26547E-02
 -1     21566 8.36104E+00 8.78659E+00 8.62636E+00 9.23481E+00 5.40891E-02-6.48493E-03
 -1     21567-3.45495E+00 1.34283E+00-1.06766E+00 1.13513E+00-6.79463E-02 6.69105E-02
 -1     21568 5.99950E+00 5.72783E+00 5.85941E+00 5.62605E+00 4.39921E-03 1.08287E-02
 -1     21569 6.30217E+00 4.56085E+00 5.40406E+00 5.64220E+00 1.89858E-03 9.66441E-03
 -1     21570 9.46704E+00 6.61603E+00 8.01499E+00 7.70526E+00 1.86112E-02 1.56215E-02
 -1     21571 1.15779E+01 8.46159E+00 1.00805E+01 9.68523E+00 9.09040E-03 1.20451E-02
 -1     21572-3.71694E+00-3.76808E+00-3.75140E+00-1.81026E+00-2.78484E-03 7.75600E-03
 -1     21573-1.79834E+01-1.71183E+00-9.79507E+00-5.63030E+00 2.64692E-02 1.17958E-03
 -1     21574-3.75329E+01-1.29058E+01-2.42851E+01 5.59782E+00 4.87786E-01 2.61293E-01
 -1     21575-1.70159E+01-1.73777E+00-9.38539E+00-5.53700E+00 3.33648E-03-2.52223E-03
 -1     21576-1.31256E+01-1.56036E+00-7.41726E+00-3.99240E+00 2.08955E-02-6.34903E-03
 -1     21577 1.91735E+00 8.81066E+00 5.44199E+00 7.17932E+00 2.18738E-02-4.12310E-02
 -1     21578 1.03571E+01 7.39050E+00 8.91205E+00 8.71852E+00 1.44371E-02-1.65581E-02
 -1     21579 1.15932E+01 8.72553E+00 1.01710E+01 1.01919E+01-1.76409E-02 1.22562E-02
 -1     21580 6.01376E+00 4.80919E+00 5.36244E+00 5.30996E+00-1.16338E-03 2.43038E-03
 -1     21581 1.22236E+01 9.61736E+00 1.09176E+01 1.09505E+01-7.88660E-04-1.53924E-02
 -1     21582-2.19376E+01-2.66592E+00-1.18719E+01-5.58327E+00-1.49595E-01 5.17093E-02
 -1     21583 1.27443E+01 1.06613E+01 1.17172E+01 1.17207E+01-8.50910E-03 5.63970E-03
 -1     21584-1.55213E+01-1.47196E+00-8.48556E+00-4.86706E+00 8.31824E-03 2.21362E-02
 -1     21585 1.23609E+01 9.77008E+00 1.10864E+01 1.10130E+01-2.50601E-02 1.33100E-02
 -1     21586 7.95558E+00 6.92667E+00 7.46394E+00 4.42425E+00-1.40375E-02 2.81660E-02
 -1     21587-3.39368E-01 9.24885E+00 4.45194E+00 7.47166E+00 1.32997E-02-1.42017E-01
 -1     21588 5.86734E+00 4.95260E+00 5.42179E+00 5.27499E+00-6.75841E-03-4.17050E-02
 -1     21589-7.27825E+00-5.10805E-01-4.21121E+00-2.19460E+00-1.88163E-01-2.91863E-02
 -1     21590-1.81224E+01-1.80381E+00-9.94292E+00-6.02789E+00-2.18159E-02-5.91372E-03
 -1     21591-2.06277E+01-1.48150E+01-1.72274E+01 6.35943E-01 8.45377E-02 5.05433E-01
 -1     21592 5.56286E+00 3.51318E+00 4.58398E+00 1.04138E+00-1.81430E-03-1.52075E-02
 -1     21593 7.38391E+00 4.99829E+00 6.17165E+00 3.65539E+00 2.62772E-02-3.02854E-02
 -1     21594 5.77911E+00 5.43692E+00 5.64553E+00 5.77573E+00-4.93304E-02 1.74445E-02
 -1     21595 9.06149E+00 6.62655E+00 7.83906E+00 2.89835E+00-2.56728E-02-4.35617E-02
 -1     21596-1.81534E+01-2.01525E+00-1.00666E+01-5.95620E+00-1.33791E-02 6.69841E-03
 -1     21597-1.66023E+01-1.71451E+00-9.16884E+00-5.36555E+00 3.97228E-03-1.31298E-02
 -1     21598 1.18477E+01 1.05432E+01 1.12069E+01 1.10299E+01-3.18761E-02-3.35592E-02
 -1     21599 9.18421E+00 5.50484E+00 7.33799E+00 7.23947E+00-1.62862E-02-1.93421E-02
 -1     21600-1.97801E+01-1.73087E+00-1.08084E+01-6.30736E+00 1.73992E-03-8.90394E-02
 -1     21601 1.27677E+01 1.06842E+01 1.17412E+01 1.18637E+01-6.39533E-03-1.35230E-03
 -1     21602-1.13171E+01-2.57347E+00-6.83064E+00-2.65530E+00 2.19365E-02-1.45162E-02
 -1     21603 6.40839E+00 4.69839E+00 5.60373E+00 5.55508E+00 2.11491E-02-2.69357E-02
 -1     21604-1.54862E+01 3.09768E+00-6.04343E+00-7.36956E+00-2.74880E-01-8.30527E-01
 -1     21605-1.72245E+01-1.83399E+00-9.53170E+00-5.61783E+00-9.24638E-03 8.22830E-03
 -1     21606 6.95791E+00 4.74399E+00 5.77919E+00 1.42951E+00 1.95484E-02-1.18840E-03
 -1     21607 1.20635E+01 1.05028E+01 1.13088E+01 1.12298E+01-9.07082E-03 7.64369E-04
 -1     21608 1.21643E+00 1.25496E+01 7.19046E+00 6.44945E+00 1.42899E-02 3.64227E-01
 -1     21609 6.67461E+00 6.15495E+00 6.44658E+00 5.36830E+00 2.21654E-02 8.75503E-03
 -1     21610-1.37962E+01-1.00985E+00-7.42972E+00-4.01275E+00 1.07367E-02 2.20733E-03
 -1     21611 1.19420E+01 1.03996E+01 1.11820E+01 1.11113E+01-1.14615E-02 1.34433E-02
 -1     21612 1.79921E+00 9.19422E-01 1.34885E+00-6.23766E-01-1.98890E-02 1.54481E-02
 -1     21613-6.23976E-01 7.48634E+00 3.50431E+00 7.61493E+00 1.73050E-01 7.51123E-02
 -1     21614 1.10573E+01 1.01919E+01 1.06458E+01 1.04710E+01 3.49045E-02-6.15522E-03
 -1     21615-1.53044E+01-1.51518E+00-8.43949E+00-4.65672E+00-2.39077E-02-4.26223E-04
 -1     21616-5.05007E-01-9.40878E-01-7.47822E-01-1.49397E+00-1.38185E-02-8.29589E-03
 -1     21617 8.76125E+00 6.00450E+00 7.37794E+00 7.22638E+00 4.93101E-02 4.48183E-02
 -1     21618 1.18889E+01 1.02620E+01 1.10687E+01 1.11646E+01 3.90111E-02-1.38069E-02
 -1     21619 5.57456E+00 4.66762E+00 5.06836E+00 4.49927E+00 2.30132E-02-8.10590E-02
 -1     21620-1.20495E+01-9.02271E+00-1.05411E+01-3.07203E-01-1.52185E-01 5.59962E-02
 -1     21621 8.43615E+00 9.12125E+00 8.78983E+00 9.07234E+00-3.40208E-02-5.68030E-02
 -1     21622-1.89575E+01-1.69604E+00-1.02577E+01-5.96015E+00-1.01667E-01 4.17103E-02
 -1     21623 6.01530E+00 5.59866E+00 5.83865E+00 5.80832E+00-1.07908E-02 2.31901E-02
 -1     21624 2.54044E+00 8.03904E+00 5.16456E+00 6.82010E+00-7.63213E-02-5.91496E-02
 -1     21625 7.55700E+00 5.44095E+00 6.52006E+00 6.31069E+00-4.69845E-03 4.93252E-02
 -1     21626 1.07475E+01 7.74751E+00 9.23342E+00 9.28470E+00-1.50174E-02-1.55550E-03
 -1     21627-6.46010E+00-6.55706E+00-6.48333E+00-1.33130E+00-2.72482E-02-2.94357E-02
 -1     21628 1.25840E+01 1.01047E+01 1.13171E+01 1.11870E+01 1.30122E-02-2.05908E-02
 -1     21629-1.89603E+01-2.04420E+00-1.04929E+01-6.17315E+00-3.56804E-02-2.19877E-02
 -1     21630 1.22188E+01 1.06815E+01 1.14648E+01 1.13420E+01-1.75469E-03-7.28363E-03
 -1     21631-6.67002E-02 9.78034E+00 4.89835E+00 7.59079E+00-7.77585E-02-1.08289E-01
 -1     21632 1.31998E+01 1.10502E+01 1.21427E+01 1.20344E+01-2.86378E-02 1.94950E-02
 -1     21633 6.12175E+00 8.10225E+00 7.08973E+00 7.40056E+00-4.11512E-02 1.65898E-01
 -1     21634-1.31415E+01-1.01444E+00-7.13109E+00-3.92004E+00 1.98160E-02-5.43915E-02
 -1     21635 1.12263E+01 7.96220E+00 9.60226E+00 9.46064E+00-1.74410E-03 1.04937E-02
 -1     21636 4.46620E-01-5.00862E-01 6.62957E-02-9.42940E-01-1.30189E-02 1.77608E-02
 -1     21637-1.97603E+01-1.82204E+00-1.04361E+01-6.58178E+00 1.17677E-01-2.05735E-02
 -1     21638 6.01347E+00 4.99421E+00 5.52219E+00 5.27147E+00 2.01199E-02 2.72816E-03
 -1     21639 5.89094E+00 4.58935E+00 5.20649E+00 5.24981E+00-5.39405E-03-2.34371E-02
 -1     21640-7.34921E+00-4.61535E-01-3.90498E+00-1.98678E+00 2.40498E-01-1.11391E-01
 -1     21641-1.19558E+01-1.05050E+00-6.50134E+00-3.64599E+00 2.88888E-02-1.49580E-02
 -1     21642-1.45163E+01-1.12284E+00-7.83905E+00-4.57631E+00 3.46848E-03-1.60710E-02
 -1     21643-1.81826E-01 9.93604E+00 5.15788E+00 5.57936E+00 1.37780E-01-6.16520E-02
 -1     21644-8.84854E+00 1.29728E+01 1.47980E+00-8.33484E+00-8.98894E-02 3.85096E-01
 -1     21645-2.14011E+01-2.18801E+00-1.21155E+01-6.40659E+00-3.21493E-02-2.90777E-02
 -1     21646 1.29422E+01 1.08519E+01 1.18845E+01 1.18871E+01-5.11200E-03-1.91790E-03
 -1     21647-1.71085E+01-1.78267E+00-9.43058E+00-5.53689E+00 7.95237E-03 1.87582E-03
 -1     21648 7.13338E+00 5.81902E+00 6.41745E+00 5.06356E+00 3.50826E-03-3.00275E-02
 -1     21649 1.18725E+01 8.86776E+00 1.03793E+01 1.03246E+01 6.16435E-03 9.73293E-03
 -1     21650-1.01898E+01-7.96142E-01-5.56798E+00-2.88766E+00 9.08097E-03-8.90084E-02
 -1     21651 5.80013E+00 4.29051E+00 5.03014E+00 3.36005E-01 5.67117E-02 6.51579E-02
 -1     21652-1.60284E+00-2.31833E+00-2.00213E+00-1.00849E+00 2.51697E-02 7.23804E-02
 -1     21653-1.72321E+01-1.80513E+00-9.51583E+00-5.62256E+00-8.46008E-03 4.50821E-03
 -1     21654 7.54076E+00 7.05266E+00 7.34109E+00 4.95046E+00-3.77304E-02 9.00747E-03
 -1     21655-1.65806E+01-1.62127E+00-9.07484E+00-5.35892E+00 2.35021E-02-5.85636E-03
 -1     21656-5.57982E+00 2.91642E+00-1.56897E+00 3.02627E+00 3.50573E-02-2.87725E-02
 -1     21657-1.18103E+01-8.19895E-01-6.31469E+00-3.00141E+00-5.57645E-02-2.24315E-02
 -1     21658 9.79890E+00 6.94012E+00 8.37583E+00 8.46782E+00 8.43776E-03-1.16836E-02
 -1     21659 8.45699E+00 5.86348E+00 7.15405E+00 7.03316E+00-3.53883E-02-1.68483E-02
 -1     21660-1.00032E+00 9.14148E+00 4.04503E+00 6.41268E+00-5.42942E-02 3.89938E-03
 -1     21661 8.23640E+00 6.92041E+00 7.59808E+00 3.83909E+00 2.39395E-02 1.11715E-02
 -1     21662 7.68746E+00 5.42928E+00 6.59270E+00 2.11735E+00 6.73373E-02 5.69103E-03
 -1     21663 5.72335E+00 5.38154E+00 5.59248E+00 5.58451E+00-4.64273E-02 1.36055E-03
 -1     21664-1.50688E+01-1.36734E+00-8.20410E+00-4.67143E+00 6.40265E-03 7.41949E-03
 -1     21665 5.60110E+00 5.30435E+00 5.44425E+00 5.49220E+00 1.14037E-02 2.45051E-02
 -1     21666-1.88589E+01-2.14531E+00-1.04821E+01-5.90212E+00-3.80505E-02 1.18203E-03
 -1     21667 1.21381E+01 1.03850E+01 1.12720E+01 1.13929E+01-5.47821E-03-8.42103E-03
 -1     21668 1.21799E+01 1.06180E+01 1.14240E+01 1.13278E+01 3.39965E-02 3.59191E-03
 -1     21669 7.56226E+00 5.27054E+00 6.34763E+00 3.07078E+00 1.60952E-02 2.14391E-02
 -1     21670 1.17777E+01 1.04211E+01 1.11272E+01 1.10918E+01-4.25295E-02-1.46724E-02
 -1     21671 7.73837E+00 5.36356E+00 6.55973E+00 2.24948E+00 3.16185E-02-1.86803E-02
 -1     21672 5.62817E+00 7.22613E+00 6.39477E+00 7.55826E+00-3.05886E-02 1.47846E-01
 -1     21673 7.15675E+00 4.88402E+00 6.05604E+00 5.83448E+00 1.79699E-02 2.41713E-02
 -1     21674 1.19735E+01 9.22921E+00 1.06071E+01 1.06198E+01 1.04386E-02-2.23698E-02
 -1     21675 8.32825E-01 1.09593E+01 6.00037E+00 5.96678E+00-5.53080E-02 1.74828E-01
 -1     21676-1.18077E+01-1.57795E+00-6.80509E+00-3.06604E+00 1.14314E-01-5.16456E-02
 -1     21677 7.62563E+00 5.55467E+00 6.58771E+00 6.48514E+00 2.09607E-02-3.78787E-03
 -1     21678 6.20002E+00 5.80395E+00 5.97337E+00 5.80852E+00 1.41647E-02-4.60774E-03
 -1     21679-2.55643E+01-3.01855E+00-1.47101E+01-5.96800E+00-1.74867E-01 1.06703E+00
 -1     21680-3.85273E+00 2.32721E+00-5.90488E-01 2.21425E+00-2.50297E-02 3.63168E-01
 -1     21681 8.73572E+00 9.30059E+00 8.96752E+00 8.73611E+00 7.93329E-02-3.04664E-02
 -1     21682-8.40883E+00-6.39534E+00-7.35446E+00-3.51411E-01-6.31574E-02-2.22663E-02
 -1     21683-1.86422E+01-1.98951E+00-1.03039E+01-6.13990E+00 2.76424E-02 2.73424E-02
 -1     21684 1.15465E+01 8.68847E+00 1.01341E+01 1.02647E+01 6.05141E-03-1.38109E-02
 -1     21685 9.65664E+00 6.35543E+00 8.00631E+00 7.83909E+00 3.08514E-03-1.37991E-03
 -1     21686 4.90459E+00 3.97894E+00 4.38724E+00-1.00928E+00-2.09614E-02-5.54632E-03
 -1     21687 6.21453E+00 4.78306E+00 5.49546E+00 5.42180E+00-1.31935E-03-5.61826E-03
 -1     21688 7.17791E+00 6.97258E+00 7.02300E+00 5.30767E+00 1.18936E-02-1.13912E-02
 -1     21689 4.30569E-01 1.06224E+01 5.69708E+00 7.71263E+00 1.66147E-01 1.02996E-01
 -1     21690 9.67986E+00 9.39067E+00 9.53815E+00 9.84512E+00 2.66316E-02-1.95146E-02
 -1     21691 7.20358E+00 6.49381E+00 6.94028E+00 4.62452E+00-2.68424E-02 3.22253E-02
 -1     21692-2.00416E+01-1.07249E+01-1.61630E+01 3.26825E+00 5.48513E-01 2.44441E-02
 -1     21693 5.39087E+00 5.36110E+00 5.34394E+00 5.60516E+00 6.25262E-03 2.90325E-02
 -1     21694-8.96484E+00-6.65170E-01-4.90701E+00-2.45555E+00-8.62354E-02-2.27522E-02
 -1     21695-1.59648E+01-1.52948E+00-8.73125E+00-5.06497E+00-1.84763E-02-1.03672E-02
 -1     21696 9.05188E+00 8.17589E+00 8.57993E+00 4.10146E+00 9.52790E-03-4.53335E-02
 -1     21697-1.73652E+01-1.84132E+00-9.60137E+00-5.67386E+00-2.56602E-03-3.59504E-03
 -1     21698-5.54262E+00-5.69996E+00-5.57550E+00-7.71086E-01-1.78782E-02-9.28796E-02
 -1     21699-4.58587E+00 1.02465E+00-1.98861E+00-1.89657E-01-2.04746E-01-7.87270E-02
 -1     21700 1.29146E+01 1.06985E+01 1.17816E+01 1.17945E+01-1.84700E-02 1.90317E-02
 -1     21701 1.88352E+00 1.07785E+00 1.53053E+00-4.73385E-01-2.48412E-02-1.27519E-02
 -1     21702-1.27968E+01-1.15718E+00-6.99644E+00-3.85342E+00 7.96258E-02-7.45017E-02
 -1     21703-3.69546E+01-3.31002E+01-3.48050E+01 3.00189E+00-1.34221E-01-3.71433E-01
 -1     21704-3.53343E+01-3.29655E+00-2.04574E+01-6.16626E+00 1.68086E+00-9.30534E-01
 -1     21705-8.80215E+00-7.68036E+00-8.31064E+00-1.13270E+00-9.82982E-02-8.87364E-02
 -1     21706-1.07534E-01-1.27533E+00-7.40418E-01-7.02303E-01 9.40628E-04-4.69478E-02
 -1     21707 6.91487E+00 5.03518E+00 5.92040E+00 6.09357E+00 7.27671E-03-4.17822E-03
 -1     21708-1.20131E+01-9.73164E-01-6.44257E+00-3.33648E+00-1.82217E-02-5.52191E-02
 -1     21709 5.77085E+00 5.44462E+00 5.62521E+00 5.46855E+00-2.32908E-02-6.27950E-03
 -1     21710-6.31798E+00-5.16480E+00-5.72955E+00 8.44691E-02 1.81774E-02 9.76213E-02
 -1     21711-7.05946E+00-4.21974E-01-3.51384E+00-2.34683E+00 6.96355E-02 3.28468E-02
 -1     21712 2.55056E+00 1.32006E+01 7.66339E+00 7.30912E+00-4.63618E-02-2.08412E-01
 -1     21713-1.29054E+01-1.12506E+00-6.97351E+00-3.57410E+00 6.67019E-03 6.50842E-03
 -1     21714 8.68034E+00 6.80009E+00 7.66703E+00 4.31802E+00-3.12436E-02 8.20243E-03
 -1     21715 4.89940E+00 3.20407E+00 4.04819E+00 5.78083E-01-3.27395E-02-8.05656E-02
 -1     21716-1.35638E+01-7.68260E-01-7.22114E+00-4.17701E+00 1.63827E-02-7.24747E-02
 -1     21717 8.61738E+00 6.67317E+00 7.73510E+00 3.44015E+00-3.14761E-02 5.55481E-02
 -1     21718-2.58833E+01 6.24002E+00-1.17455E+01 4.79484E+00-9.92331E-01-6.47339E-01
 -1     21719-1.11660E+01-8.84625E-01-5.98724E+00-2.94614E+00-3.85678E-02 2.58064E-02
 -1     21720-2.11866E+00 4.87517E+00 3.14162E+00 2.59025E+00 6.36233E-01-9.22262E-01
 -1     21721 9.24715E+00 8.97705E+00 9.23828E+00 9.54846E+00 3.62554E-02-8.20478E-02
 -1     21722-4.94039E-01 1.11983E+01 5.51357E+00 6.74975E+00-8.14083E-02-8.79063E-02
 -1     21723-1.51036E+01-1.77774E+00-8.44091E+00-4.63349E+00-7.47010E-02 4.59800E-02
 -1     21724 8.44065E+00 7.12318E+00 7.75760E+00 3.86750E+00 3.70728E-02-9.35951E-02
 -1     21725 5.60063E+00 5.62961E+00 5.57383E+00 5.58806E+00 5.97031E-03-7.89454E-03
 -1     21726 6.65659E+00 5.01275E+00 5.84645E+00 5.41238E+00-2.00836E-02-2.15884E-02
 -1     21727-3.37696E+01-4.73743E+00-2.06699E+01 2.22738E+00 7.01508E-01-9.57598E-01
 -1     21728-8.94950E+00-4.48776E-01-4.43066E+00-2.73511E+00 7.44855E-02 7.78825E-02
 -1     21729-1.39271E+01-1.33192E+00-7.63974E+00-4.39486E+00-8.09017E-04 1.23291E-02
 -1     21730-8.39538E+00 4.84031E-01-3.81995E+00-1.81244E+00-2.73669E-02-3.82269E-02
 -1     21731-6.22173E+00-2.84029E-01-3.05288E+00-2.45224E-01 4.38323E-02 1.42856E-01
 -1     21732 4.09322E+00 7.61759E+00 5.86320E+00 6.90562E+00-1.87089E-02 1.34600E-02
 -1     21733-3.24442E+00 2.28420E+00-4.70808E-01 1.37498E+00-2.72226E-03-8.48312E-03
 -1     21734-7.31127E+00 1.69592E+00-2.87736E+00 1.03133E-01-4.80024E-03-8.69704E-02
 -1     21735-3.87008E+01-2.38896E+01-3.11859E+01 1.72575E+00-1.83045E-01-6.18410E-01
 -1     21736-2.03042E+01-1.60493E+01-1.79864E+01 3.77557E-01-7.92142E-02 5.39493E-04
 -1     21737 4.94232E+00 3.32619E+00 4.20277E+00-4.55421E-02-9.13626E-03-2.63476E-02
 -1     21738 9.94951E-01 3.84528E+00 2.28532E+00 5.56687E+00-4.30406E-03-8.44426E-02
 -1     21739 2.94606E+00 5.56197E+00 4.30547E+00 5.05055E+00-1.33118E-01 9.62909E-02
 -1     21740 2.90956E+00 5.16756E+00 4.11976E+00 5.03891E+00-4.83340E-02-2.16176E-01
 -1     21741 5.28698E+00 5.18962E+00 5.23725E+00 6.18580E+00-8.47207E-04 7.65065E-03
 -1     21742 5.51467E+00 5.30838E+00 5.41044E+00 6.23537E+00 6.08721E-03 1.30017E-02
 -1     21743 5.23012E+00 5.06486E+00 5.14646E+00 6.18899E+00 9.35961E-03 6.01931E-03
 -1     21744 6.87666E+00 7.47134E+00 7.72626E+00 6.26698E+00-1.61005E-02 1.40776E-01
 -1     21745 9.77319E+00 8.17722E+00 8.64165E+00 8.65817E+00-1.17984E-01 1.14290E-01
 -1     21746 1.14425E+01 9.77744E+00 1.03378E+01 9.84479E+00-2.50349E-02 1.23860E-01
 -1     21747 1.26642E+01 1.05510E+01 1.14596E+01 1.07894E+01 1.30556E-02 5.62853E-02
 -1     21748 1.30209E+01 1.11160E+01 1.21148E+01 1.13875E+01-3.12515E-02 6.07698E-02
 -1     21749 1.30064E+01 1.09037E+01 1.19271E+01 1.18004E+01-1.64348E-04-4.24813E-02
 -1     21750 1.30594E+01 1.09003E+01 1.18780E+01 1.21149E+01-2.29883E-02 1.34814E-02
 -1     21751 1.35699E+01 1.14216E+01 1.25127E+01 1.23335E+01 1.32236E-02 9.17647E-03
 -1     21752 1.47297E+01 1.24368E+01 1.34701E+01 1.25013E+01 1.51258E-02-7.38429E-03
 -1     21753 1.44793E+01 1.21948E+01 1.32453E+01 1.26317E+01-1.78465E-02-1.64266E-02
 -1     21754 1.44821E+01 1.22510E+01 1.33985E+01 1.26817E+01-1.82455E-02 3.05077E-02
 -1     21755 1.44571E+01 1.22333E+01 1.34080E+01 1.26831E+01-1.01241E-02-5.81222E-03
 -1     21756 1.40097E+01 1.18293E+01 1.29313E+01 1.26158E+01-1.35181E-02-1.88977E-02
 -1     21757 1.40381E+01 1.19003E+01 1.29360E+01 1.25248E+01 1.98318E-02-3.49160E-03
 -1     21758 1.38659E+01 1.17169E+01 1.27359E+01 1.22616E+01-1.16678E-02 1.34352E-02
 -1     21759 1.36654E+01 1.14940E+01 1.25686E+01 1.20392E+01 2.93269E-03 9.78269E-03
 -1     21760 1.29746E+01 1.08594E+01 1.18574E+01 1.16904E+01-1.77258E-02 1.43257E-02
 -1     21761 1.30651E+01 1.10792E+01 1.20732E+01 1.12041E+01-3.86519E-02 2.91581E-02
 -1     21762 1.16247E+01 9.72908E+00 1.05584E+01 1.07218E+01 1.57656E-03-1.47460E-02
 -1     21763 1.16381E+01 9.79350E+00 1.07272E+01 1.00719E+01-3.27180E-02 1.54473E-02
 -1     21764 9.83435E+00 8.13462E+00 8.93413E+00 9.46139E+00-2.12413E-02 6.99495E-04
 -1     21765 8.95732E+00 7.30687E+00 8.19503E+00 8.69130E+00-4.43552E-02-6.56034E-03
 -1     21766 7.89968E+00 6.37729E+00 7.16170E+00 7.98656E+00-2.24765E-02-1.77966E-02
 -1     21767 6.57207E+00 5.19825E+00 5.84162E+00 7.19658E+00-1.17464E-02 4.50172E-02
 -1     21768 6.28206E+00 5.10498E+00 5.70565E+00 6.53899E+00 6.26973E-03 2.35780E-02
 -1     21769 5.30701E+00 4.27057E+00 4.84590E+00 5.93159E+00 3.81598E-02 2.65108E-02
 -1     21770 5.07028E+00 4.07621E+00 4.60521E+00 5.44690E+00 2.51033E-02 2.70996E-02
 -1     21771 4.74189E+00 3.69121E+00 4.24266E+00 5.12665E+00-7.98633E-03-6.89582E-02
 -1     21772 4.93988E+00 4.02186E+00 4.44569E+00 5.06950E+00-3.59436E-02-2.74608E-03
 -1     21773 4.85871E+00 3.98216E+00 4.44607E+00 5.14657E+00-3.36852E-02 5.99392E-03
 -1     21774 5.47554E+00 4.69787E+00 5.06030E+00 5.28576E+00 1.83303E-02-2.51872E-02
 -1     21775 5.84420E+00 5.01504E+00 5.47763E+00 5.54608E+00-1.09287E-02-6.17379E-02
 -1     21776 6.90907E+00 6.24109E+00 6.59015E+00 5.99109E+00-7.45528E-03-1.43223E-03
 -1     21777 4.99263E+00 5.97976E+00 5.52068E+00 6.19535E+00-2.85394E-02-2.00860E-01
 -1     21778 1.02910E+01 8.50912E+00 9.36647E+00 8.62986E+00 9.16425E-02 1.06504E-01
 -1     21779 1.27528E+01 1.10462E+01 1.18935E+01 9.77265E+00 1.56603E-02 5.01290E-03
 -1     21780 1.30918E+01 1.10074E+01 1.19565E+01 1.08690E+01 4.60857E-02-8.74667E-03
 -1     21781 1.28697E+01 1.08023E+01 1.17791E+01 1.13320E+01-3.17361E-02-3.08944E-02
 -1     21782 1.38399E+01 1.17089E+01 1.27480E+01 1.18334E+01-6.90482E-02 6.71324E-03
 -1     21783 1.34328E+01 1.12607E+01 1.22559E+01 1.20926E+01-3.68328E-02-1.74025E-03
 -1     21784 1.43822E+01 1.21420E+01 1.32163E+01 1.23712E+01 1.72066E-02 2.13182E-02
 -1     21785 1.41142E+01 1.18669E+01 1.29232E+01 1.24929E+01 8.47906E-03 2.40618E-02
 -1     21786 1.41492E+01 1.19512E+01 1.30098E+01 1.26317E+01 1.53802E-02 1.92542E-02
 -1     21787 1.39088E+01 1.16854E+01 1.27907E+01 1.26673E+01 1.95804E-02 1.03829E-02
 -1     21788 1.37241E+01 1.15053E+01 1.25945E+01 1.26638E+01 1.28309E-02 2.69713E-02
 -1     21789 1.32155E+01 1.10653E+01 1.20651E+01 1.26266E+01 1.81962E-02 2.87051E-03
 -1     21790 1.40126E+01 1.18700E+01 1.29523E+01 1.24832E+01-1.18475E-02 2.62959E-02
 -1     21791 1.40542E+01 1.19526E+01 1.29297E+01 1.22826E+01-4.50357E-03 2.56051E-02
 -1     21792 1.38001E+01 1.16911E+01 1.26407E+01 1.20173E+01 5.54530E-02 4.61503E-02
 -1     21793 1.39746E+01 1.18901E+01 1.29165E+01 1.16549E+01-1.45873E-02 1.71533E-02
 -1     21794 1.27053E+01 1.06563E+01 1.16233E+01 1.12644E+01 1.54095E-02-5.52237E-03
 -1     21795 1.25780E+01 1.06292E+01 1.15800E+01 1.06799E+01-2.06282E-02-8.22010E-03
 -1     21796 1.15891E+01 9.70264E+00 1.06140E+01 1.01010E+01-1.51607E-02-5.50550E-03
 -1     21797 1.06650E+01 8.90556E+00 9.82222E+00 9.43238E+00 5.75185E-03-1.98343E-02
 -1     21798 9.59049E+00 7.97674E+00 8.80525E+00 8.71276E+00 2.44572E-02-1.47826E-02
 -1     21799 8.48860E+00 7.02706E+00 7.79417E+00 7.94147E+00-2.29549E-02 5.50957E-03
 -1     21800 6.83925E+00 5.47976E+00 6.11950E+00 7.22420E+00-1.75621E-02-2.76288E-02
 -1     21801 6.32289E+00 5.17304E+00 5.74077E+00 6.51458E+00-1.70920E-02-6.19058E-02
 -1     21802 5.03013E+00 3.91575E+00 4.45358E+00 5.91406E+00-1.21450E-02-5.46234E-03
 -1     21803 4.93114E+00 3.96097E+00 4.40237E+00 5.51349E+00-2.15376E-02 3.29735E-02
 -1     21804 5.00172E+00 4.08355E+00 4.58427E+00 5.16152E+00 3.08667E-02-4.48472E-02
 -1     21805 4.44275E+00 3.57637E+00 4.09729E+00 5.01911E+00-6.05653E-03 2.33378E-02
 -1     21806 4.61371E+00 3.81995E+00 4.24905E+00 5.15093E+00-3.21733E-02-2.86697E-02
 -1     21807 5.54002E+00 4.73566E+00 5.09151E+00 5.28214E+00-6.80063E-03-3.81837E-03
 -1     21808 6.62345E+00 5.87978E+00 6.27665E+00 5.57550E+00 3.84416E-02 3.72973E-02
 -1     21809 6.48327E+00 5.82559E+00 6.10748E+00 5.95212E+00-1.34323E-02 8.30281E-03
 -1     21810 1.96414E+00 9.86991E+00 6.23381E+00 1.65817E+00-5.34688E-01-1.67038E-02
 -1     21811-3.40103E+00 1.56380E+00-1.41142E+00 2.33139E+00 3.63379E-02-4.13139E-01
 -1     21812-3.03334E+00 1.71982E+00-4.81621E-01 1.97813E+00-2.61739E-01 6.25015E-02
 -1     21813 1.64058E+00 1.14478E+01 4.32540E+00 4.49784E+00-5.21912E-01 3.94333E-01
 -1     21814-1.45589E+00 1.35712E+01 5.54427E+00 6.81421E+00 1.53592E-01-3.01074E-01
 -1     21815-1.19139E+00 1.40891E+01 6.68597E+00 6.74288E+00 2.90991E-01 1.34270E-01
 -1     21816-7.84795E-01 1.34928E+01 5.92943E+00 6.29941E+00 3.47531E-01 3.51323E-01
 -1     21817 1.41633E+00 1.47003E+01 7.48458E+00 6.39517E+00 1.95609E-01 2.71829E-01
 -1     21818 3.92217E+00 1.47653E+01 9.16962E+00 6.51083E+00 1.53957E-02-3.66554E-02
 -1     21819 3.43171E+00 1.17717E+01 7.72767E+00 6.97840E+00-1.17075E-01-2.32840E-02
 -1     21820 1.83296E+00 7.21996E+00 4.48749E+00 6.33791E+00-3.58844E-02-7.10761E-02
 -1     21821 4.16983E+00 1.50840E+01 1.08417E+01 4.36308E+00-4.72270E-01-9.20606E-01
 -1     21822 6.13921E+00 2.01242E+01 1.32650E+01 7.15573E+00 1.50308E-01-2.70467E-01
 -1     21823 5.51596E+00 2.09114E+01 1.16330E+01 6.47567E+00 4.86772E-02-3.43339E-01
 -1     21824 4.52061E+00 1.87549E+01 1.20030E+01 6.49061E+00-1.02614E-02-1.38257E-01
 -1     21825 2.07107E+00 1.53222E+01 8.35124E+00 6.67724E+00 2.22059E-01-1.90494E-01
 -1     21826 2.58176E+00 1.36801E+01 8.07297E+00 6.71218E+00 7.67939E-02 1.47834E-02
 -1     21827 5.46446E-01 9.15991E+00 4.82744E+00 6.94559E+00 1.22447E-01-9.21028E-03
 -1     21828-1.11093E+00 4.21132E+00 1.42578E+00 6.26292E+00 5.02982E-02 5.73663E-02
 -1     21829-9.59619E+01-7.41520E+01-8.50400E+01 5.55970E+00-3.54739E-01 6.61871E-01
 -1     21830-1.28293E+02-1.09937E+02-1.19091E+02 6.94980E+00-1.82699E+00 6.13882E-01
 -1     21831-2.91691E+02-2.70643E+02-2.81111E+02 5.55596E+00 8.88432E-02 1.16739E+00
 -1     21832-7.90492E+00 2.71945E+01 1.04330E+01-5.58149E+00-3.79530E-01 3.79409E-01
 -1     21833-9.11422E+00 3.79636E+00-4.96369E+00-7.37707E+00-6.56867E-01-1.80705E-01
 -1     21834-1.89126E+01 2.10390E-01-9.96124E+00-7.31045E+00-1.03349E-01-4.64245E-01
 -1     21835-2.06075E+01-2.06505E+00-1.17332E+01-7.02130E+00 2.62462E-02-1.93697E-02
 -1     21836-2.05008E+01-2.67486E+00-1.16495E+01-6.77231E+00 1.16915E-01 4.46398E-02
 -1     21837-1.93071E+01-1.74073E+00-1.05746E+01-6.63223E+00-1.63074E-02 6.90720E-03
 -1     21838-1.93185E+01-1.93645E+00-1.06649E+01-6.58909E+00 2.79647E-02-1.81861E-03
 -1     21839-1.92246E+01-2.06805E+00-1.06571E+01-6.47797E+00-1.46413E-03-2.35914E-03
 -1     21840-1.90343E+01-2.02104E+00-1.05258E+01-6.43302E+00 3.53214E-03 1.62039E-02
 -1     21841-1.88657E+01-1.96895E+00-1.03986E+01-6.37216E+00-1.11168E-02 1.08609E-02
 -1     21842-1.88908E+01-2.16012E+00-1.05256E+01-6.31232E+00-1.48105E-02 1.27969E-03
 -1     21843-1.87758E+01-2.19615E+00-1.05124E+01-6.26484E+00-1.52459E-02 1.13123E-02
 -1     21844-1.86744E+01-2.34290E+00-1.04523E+01-6.16714E+00-1.35838E-02-1.23646E-02
 -1     21845-1.84309E+01-2.38095E+00-1.03678E+01-6.05329E+00-6.53428E-03-1.52427E-02
 -1     21846-1.79142E+01-2.19631E+00-1.00615E+01-5.90928E+00-3.28295E-02-1.65266E-03
 -1     21847-1.74912E+01-2.22144E+00-9.97542E+00-5.73788E+00-2.53883E-02 8.41382E-03
 -1     21848-1.64226E+01-1.78884E+00-9.14637E+00-5.51546E+00-1.51827E-02 1.88922E-02
 -1     21849-1.57944E+01-1.89451E+00-8.86742E+00-5.19940E+00-7.29785E-05-2.11182E-03
 -1     21850-1.50686E+01-1.99089E+00-8.57046E+00-4.90033E+00 1.18715E-02 8.56987E-02
 -1     21851-1.49595E+01-2.84269E+00-8.86379E+00-4.58250E+00 3.13210E-02 2.30130E-02
 -1     21852-1.31106E+01-2.05989E+00-7.46994E+00-4.28522E+00 1.33514E-02 1.29066E-01
 -1     21853-1.36812E+01-3.57413E+00-8.40146E+00-3.98030E+00 1.02294E-01 9.63892E-02
 -1     21854-1.28085E+01-3.76374E+00-8.05212E+00-3.75002E+00 7.86982E-02 1.27247E-01
 -1     21855-1.53702E+01-7.09944E+00-1.11523E+01-3.50511E+00-3.31768E-01 1.44510E-01
 -1     21856-1.43848E+01-6.93874E+00-1.00376E+01-3.96579E+00 1.96187E-01 5.01895E-01
 -1     21857-1.11873E+01-4.92821E+00-8.30351E+00-7.54247E-01-1.30533E+00 2.77178E-01
 -1     21858 2.89844E+01 6.10352E+01 4.15549E+01-4.93309E+00 8.80737E-01-1.36193E+00
 -1     21859-2.32490E-01 1.86836E+01 6.89912E+00-8.85231E+00-1.27276E+00-2.38543E+00
 -1     21860-1.85559E+01 8.97166E-01-9.93967E+00-7.60151E+00-2.35850E-03-1.92573E-01
 -1     21861-1.85412E+01-8.73977E-01-1.01951E+01-7.16529E+00 1.06741E-02 1.98040E-01
 -1     21862-1.22981E+01 5.49241E+00-3.64540E+00-6.82390E+00 1.30201E-01 1.00671E-01
 -1     21863-1.89321E+01-1.37831E+00-1.02319E+01-6.60314E+00 8.20857E-02-4.83403E-02
 -1     21864-1.86210E+01-1.29767E+00-9.98336E+00-6.57038E+00 1.82843E-02 8.38422E-03
 -1     21865-1.91557E+01-2.04059E+00-1.05258E+01-6.47620E+00 1.94825E-02 8.33170E-03
 -1     21866-1.92085E+01-2.18643E+00-1.06928E+01-6.41604E+00-5.34453E-03 1.29319E-02
 -1     21867-1.91051E+01-2.22058E+00-1.06484E+01-6.37398E+00 5.27988E-04-1.60782E-02
 -1     21868-1.90657E+01-2.31766E+00-1.06600E+01-6.32661E+00 6.08360E-03-1.36989E-02
 -1     21869-1.89320E+01-2.37065E+00-1.06465E+01-6.26323E+00-1.36808E-02-1.09616E-02
 -1     21870-1.87446E+01-2.42602E+00-1.05329E+01-6.13772E+00 2.56448E-02-9.70737E-04
 -1     21871-1.85031E+01-2.42955E+00-1.05047E+01-6.04541E+00-3.79906E-04 7.65366E-03
 -1     21872-1.79582E+01-2.23115E+00-1.00424E+01-5.90952E+00 5.63436E-03 1.06953E-02
 -1     21873-1.73494E+01-2.11208E+00-9.66631E+00-5.72872E+00 3.48232E-02 1.63273E-03
 -1     21874-1.73201E+01-2.66173E+00-1.00459E+01-5.51497E+00 2.42679E-02 1.36371E-02
 -1     21875-1.57285E+01-1.91423E+00-8.67321E+00-5.25748E+00 2.40803E-02-5.89511E-02
 -1     21876-1.53725E+01-2.32814E+00-8.85885E+00-4.92707E+00-9.68349E-03-8.17954E-02
 -1     21877-1.40675E+01-1.99294E+00-8.06304E+00-4.54444E+00 3.84893E-02-1.26253E-01
 -1     21878-1.34291E+01-2.45430E+00-7.91706E+00-4.10775E+00-5.09817E-02 4.12841E-02
 -1     21879-1.18725E+01-1.44487E+00-6.72436E+00-3.86198E+00 6.37455E-02 6.90636E-02
 -1     21880-1.10303E+01-2.10620E+00-6.74917E+00-3.67938E+00-4.24686E-02 2.08986E-01
 -1     21881-8.59448E+00-2.10763E-01-4.11009E+00-3.82105E+00 1.20608E-01 1.30663E-01
 -1     21882-8.89154E+00-1.40108E+00-4.27604E+00-3.44051E+00 4.86703E-01 5.28706E-02
 -1     21883-1.00146E+01-2.81692E+00-7.48243E+00-5.97436E-01 3.76016E-01-6.25173E-01
 -1     21884 6.10215E+00 6.08980E+00 6.07989E+00 5.98589E+00-2.25021E-03-1.11842E-02
 -1     21885 5.27081E+00 5.25936E+00 5.25002E+00 5.74368E+00-8.05607E-03-9.25617E-03
 -1     21886 5.15380E+00 5.14590E+00 5.14006E+00 5.67720E+00 4.75338E-04-4.97112E-03
 -1     21887 6.08362E+00 6.09240E+00 6.10361E+00 5.59896E+00 1.13776E-03 1.16853E-02
 -1     21888 8.27899E+00 8.23790E+00 8.20010E+00 5.48150E+00-2.08024E-02-3.72595E-02
 -1     21889 1.01919E+01 1.02194E+01 1.02510E+01 5.29282E+00-9.87435E-03 3.24900E-02
 -1     21890 1.05555E+01 1.05455E+01 1.05397E+01 4.94135E+00 1.69907E-02-7.13194E-03
 -1     21891 5.07547E+00 5.04944E+00 5.02541E+00 4.33689E+00 6.44187E-03-2.17263E-02
 -1     21892 1.09331E+01 1.09142E+01 1.08996E+01 3.56569E+00-1.54301E-02-1.73165E-02
 -1     21893 1.60687E+01 1.60258E+01 1.59893E+01 2.81778E+00-2.31803E-02-4.18397E-02
 -1     21894 1.28969E+01 1.27938E+01 1.26959E+01 1.91013E+00 3.62863E-02-9.89476E-02
 -1     21895 1.22432E+01 1.22374E+01 1.22364E+01 1.07669E+00 4.23853E-02-2.94009E-03
 -1     21896 9.41926E+00 9.40432E+00 9.39314E+00 3.02137E-01 1.17039E-02-1.15546E-02
 -1     21897 9.45617E+00 9.43647E+00 9.42053E+00-4.73304E-01-6.36092E-05-1.57498E-02
 -1     21898 5.60482E+00 5.61315E+00 5.62372E+00-1.27759E+00-2.41292E-02 6.79807E-03
 -1     21899 1.07487E+01 1.07161E+01 1.06877E+01-1.83635E+00-2.83784E-02-2.92382E-02
 -1     21900-2.23506E+01-2.23018E+01-2.22619E+01-2.14014E+00 6.56180E-02 3.86481E-02
 -1     21901-1.11579E+01-1.10104E+01-1.08672E+01-2.17665E+00 1.69319E-01 1.38676E-01
 -1     21902-2.03966E+01-2.05178E+01-2.06473E+01-1.82185E+00 2.34189E-02-1.31433E-01
 -1     21903-4.22092E+01-4.22978E+01-4.24033E+01-1.27823E+00-1.81089E-01-8.38803E-02
 -1     21904 5.59456E+01 5.59982E+01 5.60734E+01 1.02652E+00-2.25653E-02 9.86682E-02
 -1     21905-7.34353E+01-7.38074E+01-7.42089E+01 4.56299E+00-5.48561E-01-4.09634E-01
 -1     21906 6.23631E+00 6.21050E+00 6.18716E+00 5.96786E+00 1.64259E-02 2.37174E-02
 -1     21907 6.00323E+00 6.00944E+00 6.01804E+00 5.74172E+00-8.98540E-03-9.64096E-03
 -1     21908 5.90993E+00 5.91583E+00 5.92409E+00 5.67055E+00-1.57991E-02-8.54004E-03
 -1     21909 5.58888E+00 5.57914E+00 5.57164E+00 5.64267E+00-2.88255E-02 8.05754E-03
 -1     21910 4.85849E+00 4.85414E+00 4.85172E+00 5.54826E+00-1.41786E-02 2.78086E-03
 -1     21911 4.80114E+00 4.76989E+00 4.74053E+00 5.32656E+00 5.92946E-03 3.03326E-02
 -1     21912 1.71598E+01 1.70867E+01 1.70205E+01 4.95060E+00 1.25420E-02 6.40665E-02
 -1     21913 1.87474E+01 1.86797E+01 1.86195E+01 4.42120E+00 8.22926E-03 6.69273E-02
 -1     21914 1.71498E+01 1.71014E+01 1.70597E+01 3.59940E+00 3.62186E-02 4.96546E-02
 -1     21915 2.14637E+01 2.14776E+01 2.15001E+01 2.81087E+00 5.94132E-02-2.25887E-02
 -1     21916 1.74464E+01 1.73880E+01 1.73366E+01 2.00711E+00 5.80141E-02 5.77441E-02
 -1     21917 1.62937E+01 1.62556E+01 1.62239E+01 1.20313E+00 1.33676E-02 3.39452E-02
 -1     21918 1.94059E+01 1.93358E+01 1.92733E+01 3.70408E-01-3.67406E-04 6.65778E-02
 -1     21919 7.75318E+00 7.71560E+00 7.68109E+00-4.26083E-01 8.22134E-03 3.56339E-02
 -1     21920-1.20823E+01-1.21248E+01-1.21722E+01-1.31117E+00 2.37712E-02 6.39566E-02
 -1     21921 1.45920E+00 1.44870E+00 1.43878E+00-1.88688E+00 1.20746E-02 1.20198E-02
 -1     21922 3.80852E+00 3.83397E+00 3.86094E+00-2.20426E+00 1.97508E-02-3.40531E-02
 -1     21923-2.00810E+01-2.01828E+01-2.02927E+01-2.34385E+00 3.94068E-02 1.12479E-01
 -1     21924-3.34755E+01-3.35599E+01-3.36578E+01-2.14476E+00 4.74419E-02 1.16936E-01
 -1     21925-3.93993E+01-3.93827E+01-3.93818E+01-1.13568E+00 1.41967E-01-5.58541E-03
 -1     21926-6.94663E+01-6.89854E+01-6.85321E+01 1.23761E+00 1.19244E-01-4.44048E-01
 -1     21927-7.46032E+01-7.46175E+01-7.46616E+01 7.07240E+00-2.00660E-01 3.10965E-02
 -1     21928 7.93080E+00 8.33368E+00 8.29078E+00 5.97155E+00-1.54309E-01 1.56970E-01
 -1     21929 7.09135E+00 7.50468E+00 7.25369E+00 5.83016E+00 7.87701E-02 3.92089E-02
 -1     21930 4.75840E+00 5.67538E+00 5.01740E+00 5.86174E+00-1.64650E-01 7.15199E-02
 -1     21931 4.62404E+00 5.21185E+00 4.85650E+00 6.03771E+00-1.88176E-01-2.16315E-01
 -1     21932 5.23110E+00 5.77726E+00 5.51143E+00 5.67539E+00 1.37551E-02 8.74971E-02
 -1     21933 8.55095E+00 7.42042E+00 7.81322E+00 7.11770E+00 1.18336E-01-1.20834E-02
 -1     21934 9.71093E+00 8.87228E+00 9.46108E+00 7.30501E+00-1.40674E-01-1.51155E-01
 -1     21935 9.12658E+00 7.34870E+00 8.17292E+00 1.02504E+01 7.40275E-03 9.94041E-02
 -1     21936 1.10507E+01 9.32222E+00 1.02689E+01 9.68977E+00-3.66986E-02-1.64632E-02
 -1     21937 1.35309E+01 1.15257E+01 1.25525E+01 1.14566E+01-8.88506E-03 4.43869E-02
 -1     21938 1.23502E+01 1.03742E+01 1.13472E+01 1.12245E+01 6.53287E-03 2.12029E-02
 -1     21939 1.45523E+01 1.24464E+01 1.34704E+01 1.21489E+01 7.12423E-04 1.23527E-02
 -1     21940 1.39082E+01 1.18357E+01 1.28778E+01 1.19985E+01-3.59429E-02 2.27213E-02
 -1     21941 1.37221E+01 1.15784E+01 1.26442E+01 1.25641E+01-4.52649E-03 2.30121E-02
 -1     21942 1.42274E+01 1.19940E+01 1.30776E+01 1.25028E+01-1.61941E-02 6.38666E-03
 -1     21943 1.34796E+01 1.12279E+01 1.23569E+01 1.26684E+01-2.61693E-04-1.12074E-02
 -1     21944 1.43937E+01 1.21897E+01 1.32804E+01 1.26667E+01 1.64404E-02 8.71097E-03
 -1     21945 1.37270E+01 1.14995E+01 1.26044E+01 1.25879E+01 3.56854E-03-2.68751E-02
 -1     21946 1.45791E+01 1.23609E+01 1.34870E+01 1.26411E+01 6.08755E-03-1.53263E-02
 -1     21947 1.36545E+01 1.16221E+01 1.26171E+01 1.23075E+01-8.21000E-03 9.61987E-03
 -1     21948 1.33328E+01 1.11558E+01 1.22770E+01 1.23744E+01-1.61190E-03-4.12590E-03
 -1     21949 1.32166E+01 1.10140E+01 1.21289E+01 1.16245E+01 1.24005E-02-2.51026E-02
 -1     21950 1.32527E+01 1.11916E+01 1.22378E+01 1.17750E+01 2.08908E-02-1.42905E-02
 -1     21951 1.17558E+01 9.72928E+00 1.07158E+01 1.06166E+01 8.19865E-03-3.15167E-02
 -1     21952 1.26314E+01 1.06820E+01 1.16398E+01 1.08492E+01-1.56069E-02-3.48392E-02
 -1     21953 1.10778E+01 9.32708E+00 1.01959E+01 9.32297E+00 5.05491E-03-8.63335E-03
 -1     21954 1.01510E+01 8.34242E+00 9.23268E+00 9.64013E+00-1.32964E-02-7.43645E-03
 -1     21955 8.84401E+00 7.44996E+00 8.06814E+00 7.81306E+00-3.91819E-02 3.60511E-02
 -1     21956 8.04664E+00 6.53048E+00 7.30439E+00 8.22773E+00 8.49405E-03-3.64926E-03
 -1     21957 6.99310E+00 5.95562E+00 6.42409E+00 6.38217E+00-5.70463E-03-3.10100E-02
 -1     21958 7.97409E+00 6.75082E+00 7.38910E+00 6.75723E+00 3.45559E-02-3.48267E-02
 -1     21959 4.89707E+00 4.07542E+00 4.42974E+00 5.35564E+00-7.05279E-02 4.89121E-03
 -1     21960 7.23750E+00 6.28464E+00 6.78615E+00 5.61813E+00-1.39730E-02 8.53842E-04
 -1     21961 5.35293E+00 4.45544E+00 4.92955E+00 5.03491E+00 6.22000E-03-5.21144E-03
 -1     21962 5.53332E+00 4.68579E+00 5.10155E+00 5.02435E+00-1.12463E-02-2.80662E-02
 -1     21963 5.93237E+00 5.10191E+00 5.51165E+00 5.43725E+00 2.08911E-02 1.41878E-02
 -1     21964 5.33675E+00 4.48048E+00 4.87897E+00 5.26199E+00-7.15117E-03 7.87176E-03
 -1     21965 6.59714E+00 5.64113E+00 6.11433E+00 6.01209E+00-1.84869E-02-2.87708E-02
 -1     21966 6.47964E+00 5.68565E+00 6.06901E+00 6.00906E+00 3.11976E-02 1.81943E-03
 -1     21967 6.03314E+00 5.17780E+00 5.60845E+00 6.03477E+00 3.12100E-02-1.11650E-03
 -1     21968 6.24126E+00 5.38256E+00 5.82745E+00 6.00486E+00 1.37357E-02 1.12444E-02
 -1     21969 6.00066E+00 5.27828E+00 5.64263E+00 5.53970E+00-5.47862E-02 1.02209E-03
 -1     21970 6.79644E+00 5.84230E+00 6.34527E+00 5.56271E+00-2.30813E-02-2.94719E-02
 -1     21971 4.80462E+00 3.95740E+00 4.39922E+00 5.26530E+00 1.58845E-02 6.84420E-03
 -1     21972 5.21284E+00 4.33492E+00 4.81230E+00 5.41768E+00-2.00167E-02-1.08670E-02
 -1     21973 5.66462E+00 4.74123E+00 5.21327E+00 5.03846E+00-4.83433E-03-2.84674E-02
 -1     21974 5.72746E+00 4.82382E+00 5.27246E+00 5.05397E+00-2.87007E-03 1.56024E-02
 -1     21975 5.13221E+00 4.02334E+00 4.60305E+00 5.58655E+00-2.96821E-02 6.76420E-02
 -1     21976 5.73170E+00 4.73696E+00 5.20243E+00 5.39700E+00-1.45715E-02 1.34253E-02
 -1     21977 7.49899E+00 6.33154E+00 6.89551E+00 6.63349E+00 2.39667E-02-3.02263E-02
 -1     21978 7.45047E+00 6.28342E+00 6.84734E+00 6.30872E+00 8.48496E-03 4.52163E-03
 -1     21979 8.14569E+00 6.53813E+00 7.37943E+00 8.03435E+00-2.86184E-03 8.59862E-04
 -1     21980 8.76615E+00 7.23849E+00 7.99055E+00 7.72097E+00 3.73531E-02 3.66829E-02
 -1     21981 1.08027E+01 9.09979E+00 9.96236E+00 9.57053E+00-2.45819E-02 2.50849E-02
 -1     21982 9.96263E+00 8.31391E+00 9.12619E+00 9.22342E+00-1.86814E-03-1.13136E-02
 -1     21983 1.18058E+01 9.83478E+00 1.08330E+01 1.08163E+01-3.57187E-02 1.14824E-02
 -1     21984 1.19094E+01 9.97666E+00 1.09415E+01 1.05586E+01-3.52215E-03-9.33228E-03
 -1     21985 1.28609E+01 1.06838E+01 1.17915E+01 1.17682E+01-2.79919E-02 3.52613E-02
 -1     21986 1.27942E+01 1.07248E+01 1.17400E+01 1.15978E+01 5.31571E-04-1.96719E-03
 -1     21987 1.36589E+01 1.15472E+01 1.26257E+01 1.23016E+01-1.46138E-02-5.41872E-03
 -1     21988 1.34116E+01 1.12107E+01 1.23087E+01 1.22151E+01-7.75981E-03 3.40704E-03
 -1     21989 1.42364E+01 1.20288E+01 1.31404E+01 1.26366E+01-6.15995E-03 1.01703E-02
 -1     21990 1.39728E+01 1.18129E+01 1.28770E+01 1.25729E+01 3.65973E-03-5.93119E-05
 -1     21991 1.34747E+01 1.12146E+01 1.23275E+01 1.26461E+01-2.29181E-03 1.29654E-02
 -1     21992 1.35047E+01 1.12879E+01 1.24084E+01 1.26975E+01-1.01367E-02 1.38149E-02
 -1     21993 1.36551E+01 1.14726E+01 1.25720E+01 1.24871E+01-1.48579E-02-2.57953E-02
 -1     21994 1.37341E+01 1.15552E+01 1.26076E+01 1.25392E+01-1.30703E-02-2.22888E-02
 -1     21995 1.27513E+01 1.06795E+01 1.16937E+01 1.20265E+01-2.76867E-02-3.26238E-02
 -1     21996 1.32671E+01 1.11793E+01 1.22307E+01 1.21746E+01-1.37469E-02 3.79161E-03
 -1     21997 1.23330E+01 1.03143E+01 1.13018E+01 1.13408E+01 4.02045E-02-7.20851E-03
 -1     21998 1.22946E+01 1.03474E+01 1.13129E+01 1.15215E+01 2.66948E-02-1.74594E-02
 -1     21999 1.21607E+01 1.02644E+01 1.11521E+01 9.65844E+00-1.14183E-01 3.70185E-02
 -1     22000 1.13487E+01 9.78156E+00 1.05368E+01 1.01870E+01-7.76513E-02-1.62441E-03
 -1     22001 9.56379E+00 7.56434E+00 8.50200E+00 7.51715E+00 1.46343E-01-1.09452E-01
 -1     22002 6.02405E+00 4.91342E+00 5.45109E+00 5.58449E+00 4.71700E-02-3.57956E-02
 -1     22003 6.38414E+00 5.12120E+00 5.76998E+00 5.66704E+00 1.82405E-02-2.51043E-02
 -1     22004 1.15336E+01 9.61114E+00 1.05420E+01 1.07655E+01 1.18066E-02 4.30214E-02
 -1     22005 1.19656E+01 1.03462E+01 1.12085E+01 1.05706E+01 2.74095E-02-2.45439E-02
 -1     22006 1.06714E+01 8.97307E+00 9.78138E+00 1.09861E+01 2.19842E-02-2.48835E-03
 -1     22007 1.37785E+01 1.16717E+01 1.27821E+01 1.17389E+01-3.46123E-03 1.73631E-02
 -1     22008 1.27993E+01 1.06870E+01 1.18499E+01 1.16164E+01 2.38447E-02 6.12139E-03
 -1     22009 1.30416E+01 1.09852E+01 1.20591E+01 1.19249E+01 2.30043E-02 1.07860E-03
 -1     22010 9.50612E+00 7.97434E+00 8.85944E+00 9.05647E+00 1.04264E-01-2.16609E-02
 -1     22011 1.00191E+01 8.36055E+00 9.25466E+00 8.33987E+00 2.84918E-03 3.48753E-03
 -1     22012 1.23648E+01 1.05227E+01 1.14971E+01 1.11577E+01-2.29433E-03-1.02634E-02
 -1     22013 1.32204E+01 1.11547E+01 1.22186E+01 1.19627E+01 1.11546E-02-7.87249E-03
 -1     22014 1.01293E+01 8.66209E+00 9.22973E+00 8.22105E+00-1.10855E-02-1.07245E-01
 -1     22015 1.38127E+01 1.16616E+01 1.27602E+01 1.24160E+01-3.95108E-03-1.23040E-02
 -1     22016 1.42879E+01 1.21158E+01 1.31981E+01 1.23365E+01 2.65084E-02 2.67261E-02
 -1     22017 1.36522E+01 1.14737E+01 1.25796E+01 1.26752E+01-4.99776E-03-1.45004E-02
 -1     22018 1.53728E+01 1.31931E+01 1.43093E+01 1.26093E+01 4.25534E-04-6.84813E-03
 -1     22019 1.43467E+01 1.21770E+01 1.32783E+01 1.26770E+01 1.53196E-02 4.25269E-03
 -1     22020 1.37976E+01 1.15331E+01 1.26608E+01 1.26756E+01 9.17213E-03 1.20748E-02
 -1     22021 1.35725E+01 1.13910E+01 1.24999E+01 1.24669E+01-5.84488E-03-3.88918E-03
 -1     22022 1.42339E+01 1.20368E+01 1.31529E+01 1.25034E+01 1.61500E-02 3.89035E-03
 -1     22023 1.34804E+01 1.14129E+01 1.24602E+01 1.19755E+01-1.80820E-02 1.29956E-02
 -1     22024 1.34347E+01 1.13994E+01 1.23934E+01 1.21047E+01-1.66280E-02 2.64423E-02
 -1     22025 1.25745E+01 1.06737E+01 1.16267E+01 1.11287E+01-3.48198E-03-5.53158E-03
 -1     22026 1.39277E+01 1.18985E+01 1.29003E+01 1.14378E+01 2.49627E-02-7.12768E-03
 -1     22027 1.05201E+01 8.74554E+00 9.64274E+00 9.97338E+00 1.56114E-03-9.73843E-03
 -1     22028 1.14778E+01 9.54274E+00 1.05129E+01 1.03672E+01 1.99290E-02-2.89036E-02
 -1     22029 9.40970E+00 7.87293E+00 8.68201E+00 8.57055E+00-2.57678E-02 3.68119E-02
 -1     22030 9.16247E+00 7.48534E+00 8.32105E+00 8.94523E+00-1.48611E-03 1.41246E-02
 -1     22031 7.89273E+00 6.53969E+00 7.23314E+00 7.11866E+00 1.23475E-02-5.98646E-03
 -1     22032 8.06518E+00 6.63258E+00 7.33564E+00 7.44960E+00-3.11736E-02 3.34845E-02
 -1     22033 5.98122E+00 4.86493E+00 5.43369E+00 5.89053E+00-6.50910E-03 3.55118E-02
 -1     22034 7.50557E+00 6.34227E+00 6.86409E+00 6.09604E+00-2.06177E-02 2.37052E-03
 -1     22035 4.95099E+00 3.92777E+00 4.47522E+00 5.13200E+00-1.01378E-02-4.82907E-02
 -1     22036 6.90235E+00 6.05404E+00 6.44102E+00 5.16724E+00-1.53030E-02 2.43927E-02
 -1     22037 5.76877E+00 4.93012E+00 5.40074E+00 5.16671E+00 2.43473E-02-3.52191E-03
 -1     22038 5.60145E+00 4.75594E+00 5.16112E+00 5.13283E+00-1.13075E-02 4.54300E-03
 -1     22039 5.68388E+00 4.85093E+00 5.29263E+00 5.07330E+00 1.19551E-02-3.77529E-03
 -1     22040 5.40710E+00 4.55166E+00 4.96069E+00 5.10617E+00 1.30761E-02-2.31951E-03
 -1     22041 1.37393E+01 1.15723E+01 1.26480E+01 1.24360E+01-1.09601E-03 9.44084E-03
 -1     22042 6.61265E+00 5.75936E+00 6.15583E+00 5.59766E+00 4.00962E-03 2.78049E-02
 -1     22043 5.43753E+00 4.68942E+00 5.04386E+00 5.53209E+00 2.24140E-02 5.44892E-03
 -1     22044 6.04986E+00 4.99576E+00 5.48604E+00 5.52806E+00 1.47367E-02-1.48601E-02
 -1     22045 5.13000E+00 4.35781E+00 4.74234E+00 5.10852E+00-4.11725E-03 2.55096E-02
 -1     22046 5.27059E+00 4.42713E+00 4.82694E+00 5.11788E+00-1.34427E-02-1.61517E-02
 -1     22047 6.84668E+00 5.94602E+00 6.37662E+00 5.25899E+00-8.83574E-03 1.51867E-02
 -1     22048 5.59368E+00 4.60448E+00 5.06424E+00 5.05183E+00 3.52498E-02-1.34845E-02
 -1     22049 6.11244E+00 5.03811E+00 5.58099E+00 6.03187E+00 2.74485E-02-9.99414E-03
 -1     22050 6.35025E+00 5.28296E+00 5.82519E+00 5.74321E+00-1.00990E-03 4.62139E-03
 -1     22051 7.65604E+00 6.30102E+00 6.94464E+00 7.33657E+00-3.35078E-02 2.46402E-02
 -1     22052 7.33212E+00 6.11204E+00 6.70957E+00 6.98023E+00-1.18001E-02 6.56803E-03
 -1     22053 1.02904E+01 8.66867E+00 9.47593E+00 8.83657E+00-8.74786E-03 1.02945E-02
 -1     22054 8.91012E+00 7.33787E+00 8.13922E+00 8.43400E+00-1.58374E-02 5.21067E-03
 -1     22055 1.15190E+01 9.68537E+00 1.05935E+01 1.01697E+01-9.62210E-04-1.63249E-02
 -1     22056 1.15551E+01 9.75800E+00 1.06713E+01 9.91027E+00-1.90950E-02 2.41884E-02
 -1     22057 1.24189E+01 1.04173E+01 1.13945E+01 1.12846E+01-1.35311E-02-1.82690E-02
 -1     22058 1.29170E+01 1.09573E+01 1.19316E+01 1.10670E+01 7.17816E-03 1.02434E-02
 -1     22059 1.28953E+01 1.07118E+01 1.17666E+01 1.20871E+01 1.91119E-02-1.01595E-02
 -1     22060 1.37164E+01 1.15734E+01 1.26341E+01 1.18983E+01 2.23653E-02-7.26913E-03
 -1     22061 1.38488E+01 1.16617E+01 1.27616E+01 1.25362E+01-3.45814E-03-2.10859E-02
 -1     22062 1.45667E+01 1.24013E+01 1.35023E+01 1.24594E+01 5.72540E-03-1.44313E-02
 -1     22063 1.40049E+01 1.18375E+01 1.29293E+01 1.26651E+01 3.62071E-03 2.07960E-03
 -1     22064 1.51583E+01 1.30019E+01 1.40780E+01 1.26784E+01-8.66916E-03 2.80083E-03
 -1     22065 1.37839E+01 1.15300E+01 1.26094E+01 1.26300E+01 2.31982E-02-2.13479E-02
 -1     22066 1.35470E+01 1.13105E+01 1.24081E+01 1.26294E+01 1.28333E-02 5.87514E-03
 -1     22067 1.31141E+01 1.09405E+01 1.20051E+01 1.23187E+01 4.37558E-03-1.13158E-02
 -1     22068 1.35455E+01 1.13437E+01 1.24561E+01 1.24044E+01 4.98796E-03-3.35156E-02
 -1     22069 1.32559E+01 1.12305E+01 1.22452E+01 1.17804E+01-1.50788E-02-2.95251E-02
 -1     22070 1.33185E+01 1.13249E+01 1.22906E+01 1.18901E+01-1.38296E-02-2.57145E-02
 -1     22071 1.11853E+01 9.36380E+00 1.02311E+01 1.05208E+01-4.53999E-03-6.18735E-02
 -1     22072 1.26778E+01 1.09336E+01 1.18212E+01 1.08317E+01-1.53038E-02 4.41396E-02
 -1     22073 9.18237E+00 7.36488E+00 8.44034E+00 8.30878E+00 4.42145E-02-1.36491E-01
 -1     22074 1.27962E+01 1.08431E+01 1.16859E+01 8.81501E+00 9.25117E-02-1.52513E-01
 -1     22075 1.32338E+01 1.11822E+01 1.22280E+01 1.19229E+01 2.83589E-03 4.65620E-03
 -1     22076 1.38146E+01 1.17620E+01 1.27939E+01 1.22468E+01 4.02926E-02-1.31206E-02
 -1     22077 1.55216E+01 1.33233E+01 1.44439E+01 1.25934E+01-4.45555E-03-8.07941E-03
 -1     22078 1.41122E+01 1.18561E+01 1.29853E+01 1.26788E+01 5.13454E-04-5.33443E-03
 -1     22079 1.46190E+01 1.23356E+01 1.34808E+01 1.25862E+01 1.41761E-03 1.24139E-02
 -1     22080 1.20698E+01 9.98394E+00 1.10698E+01 1.22362E+01-5.32954E-04-3.41934E-02
 -1     22081 1.30511E+01 1.09759E+01 1.20002E+01 1.15929E+01 4.56190E-02-3.13069E-02
 -1     22082 1.21557E+01 1.01774E+01 1.11482E+01 1.05571E+01 5.77502E-02-4.22362E-03
 -1     22083 1.09639E+01 9.18162E+00 1.00794E+01 9.21808E+00 1.46467E-02 7.88237E-03
 -1     22084 8.38295E+00 6.96992E+00 7.73397E+00 7.66828E+00-2.72743E-02 2.84858E-02
 -1     22085 6.02585E+00 4.90991E+00 5.46732E+00 6.24129E+00-1.46588E-02 4.54258E-03
 -1     22086 4.51671E+00 3.68586E+00 4.17889E+00 5.26306E+00-2.77098E-02 5.20767E-02
 -1     22087 6.76958E+00 6.11423E+00 6.42393E+00 5.48815E+00-5.03404E-03 1.43130E-02
 -1     22088 5.80342E+00 4.83849E+00 5.35452E+00 5.10690E+00 4.44672E-02-4.10578E-02
 -1     22089 5.83832E+00 4.74729E+00 5.26833E+00 5.61048E+00-1.57081E-02-3.33095E-03
 -1     22090 7.57473E+00 6.41152E+00 7.00421E+00 6.75700E+00 9.78122E-03-1.59767E-02
 -1     22091 8.18417E+00 6.59114E+00 7.38548E+00 8.15691E+00 1.20451E-02-2.35070E-03
 -1     22092 1.03319E+01 8.61508E+00 9.45077E+00 9.68535E+00-2.55698E-03 2.29168E-02
 -1     22093 1.15216E+01 9.61016E+00 1.05490E+01 1.09151E+01-4.32274E-03 4.05627E-03
 -1     22094 1.27241E+01 1.06778E+01 1.16553E+01 1.18407E+01 4.34780E-03-6.66474E-04
 -1     22095 1.33989E+01 1.12533E+01 1.23177E+01 1.23819E+01-1.11688E-02 8.60028E-03
 -1     22096 1.39904E+01 1.17453E+01 1.28297E+01 1.26452E+01-9.47446E-03 5.60775E-03
 -1     22097 1.38958E+01 1.16152E+01 1.27246E+01 1.26375E+01 2.37094E-02-7.35127E-03
 -1     22098 1.40613E+01 1.18546E+01 1.29390E+01 1.24720E+01-3.67730E-02-4.91349E-03
 -1     22099 1.32576E+01 1.12782E+01 1.22806E+01 1.19762E+01 7.08418E-03-2.34829E-03
 -1     22100 1.22409E+01 1.03796E+01 1.12817E+01 1.10534E+01-1.05787E-02-3.11714E-02
 -1     22101 1.10924E+01 9.38396E+00 1.03766E+01 9.26075E+00-5.87066E-02-6.72912E-02
 -1     22102 1.23871E+01 1.04352E+01 1.14330E+01 1.10224E+01 8.44342E-03 5.82676E-03
 -1     22103 1.12092E+01 9.36487E+00 1.02814E+01 9.85232E+00-4.82889E-03 2.68381E-02
 -1     22104 9.20086E+00 7.68482E+00 8.39638E+00 8.46378E+00-1.76607E-03 2.95558E-02
 -1     22105 7.13088E+00 5.78710E+00 6.46924E+00 7.00862E+00 2.00064E-02 2.11760E-02
 -1     22106 5.67694E+00 4.67087E+00 5.11075E+00 5.76161E+00-2.24815E-03 4.81395E-02
 -1     22107 5.27140E+00 4.42007E+00 4.79340E+00 5.05563E+00-4.58636E-02 8.25938E-03
 -1     22108 1.23591E+01 1.03361E+01 1.13423E+01 1.13891E+01-5.32056E-03-1.01083E-02
 -1     22109 1.31711E+01 1.10386E+01 1.21318E+01 1.21095E+01 1.97310E-02 6.86923E-03
 -1     22110 1.39055E+01 1.17081E+01 1.27955E+01 1.25647E+01 8.51181E-03 1.81278E-02
 -1     22111 1.42374E+01 1.19878E+01 1.31038E+01 1.26976E+01-1.43495E-02 6.43400E-03
 -1     22112 1.37494E+01 1.15357E+01 1.26887E+01 1.25289E+01-1.16978E-02 2.12796E-02
 -1     22113 1.39142E+01 1.17926E+01 1.28725E+01 1.22718E+01-2.22649E-02-1.54413E-02
 -1     22114 1.30118E+01 1.10205E+01 1.19037E+01 1.16884E+01-1.55724E-03 9.24446E-03
 -1     22115 1.12638E+01 9.53962E+00 1.04417E+01 1.03104E+01-9.29419E-02 9.69232E-02
 -1     22116 1.41945E+01 1.27319E+01 1.35355E+01 8.25815E+00 2.45599E-01-1.83503E-01
 -1     22117 1.08032E+01 9.03104E+00 9.96558E+00 9.50316E+00-6.54741E-02-4.60179E-04
 -1     22118 1.41007E+01 1.18658E+01 1.30051E+01 1.26397E+01 9.21790E-03-4.27061E-02
 -1     22119 1.53437E+01 1.31477E+01 1.42654E+01 1.27070E+01-1.51670E-02-4.00055E-02
 -1     22120 1.46953E+01 1.25180E+01 1.36209E+01 1.24592E+01 4.79433E-03-1.59115E-02
 -1     22121 1.09175E+01 9.04042E+00 1.00077E+01 1.02969E+01-1.72852E-02-1.92858E-02
 -1     22122 9.51969E+00 7.94853E+00 8.69526E+00 8.94249E+00-5.83428E-04 4.50938E-03
 -1     22123 6.17866E+00 5.19869E+00 5.68813E+00 5.30591E+00-1.45646E-02 5.78996E-02
 -1     22124 8.19786E+00 6.83794E+00 7.50716E+00 7.50429E+00-8.47806E-03 3.43543E-02
 -1     22125 6.81563E+00 5.73449E+00 6.31531E+00 6.12286E+00 2.02086E-02-2.94610E-02
 -1     22126 7.37436E+00 6.23377E+00 6.76673E+00 8.21747E+00 7.96448E-02-6.51886E-02
 -1     22127 1.39025E+01 1.16273E+01 1.27756E+01 1.26158E+01 7.45777E-03-2.22348E-02
 -1     22128 1.39981E+01 1.17512E+01 1.28649E+01 1.26357E+01 6.90130E-03-4.58849E-03
 -1     22129 1.22445E+01 1.02448E+01 1.12513E+01 1.13897E+01 8.85690E-03 1.71012E-02
 -1     22130 1.23521E+01 1.04696E+01 1.14343E+01 1.11849E+01-6.59880E-03-2.47145E-02
 -1     22131 1.23436E+01 1.02724E+01 1.12641E+01 1.16265E+01 4.51817E-02-7.68225E-03
 -1     22132 1.14234E+01 9.51768E+00 1.04644E+01 1.04394E+01 9.08510E-03 1.05653E-02
 -1     22133 1.03503E+01 8.47112E+00 9.37547E+00 1.00734E+01 1.50703E-02-1.55056E-02
 -1     22134 1.36290E+01 1.13689E+01 1.24907E+01 1.26592E+01 1.28628E-02-2.20644E-03
 -1     22135 1.38920E+01 1.16355E+01 1.27395E+01 1.27062E+01-1.31427E-02-1.68835E-02
 -1     22136 1.38238E+01 1.16508E+01 1.27778E+01 1.25064E+01 1.27959E-02 3.06850E-02
 -1     22137 1.34537E+01 1.13469E+01 1.23986E+01 1.24677E+01-9.18078E-03 2.28896E-03
 -1     22138 1.35196E+01 1.13420E+01 1.24422E+01 1.25712E+01 4.36453E-03 2.52269E-03
 -1     22139 1.39174E+01 1.16146E+01 1.27354E+01 1.26900E+01-1.49047E-02-1.73686E-02
 -1     22140 1.37163E+01 1.14318E+01 1.26091E+01 1.26537E+01 7.80769E-03-2.49212E-02
 -1     22141 1.38250E+01 1.17395E+01 1.28135E+01 1.21473E+01 7.69848E-03-1.92810E-03
 -1     22142 1.29460E+01 1.08262E+01 1.19194E+01 1.20235E+01-7.29186E-04-4.79977E-03
 -1     22143 5.10601E+00 4.16070E+00 4.61342E+00 5.17361E+00 1.91762E-02 3.59662E-02
 -1     22144 4.64095E+00 3.76771E+00 4.21912E+00 5.07194E+00-6.16559E-02 3.25816E-02
 -1     22145 1.26391E+01 1.06273E+01 1.16538E+01 1.15033E+01 2.17244E-03-2.93901E-03
 -1     22146 1.29806E+01 1.08320E+01 1.18793E+01 1.17390E+01 2.79559E-03 1.50608E-02
 -1     22147 1.34987E+01 1.14804E+01 1.25164E+01 1.22867E+01 3.20284E-02 5.52705E-03
 -1     22148 1.32428E+01 1.12178E+01 1.22874E+01 1.21112E+01-3.94338E-02 1.61491E-02
 -1     22149 1.22332E+01 1.02914E+01 1.12946E+01 1.07539E+01 7.13730E-03 2.92874E-02
 -1     22150 1.03210E+01 8.47726E+00 9.38905E+00 9.75874E+00 7.94962E-03 4.74551E-03
 -1     22151 1.03288E+01 8.67922E+00 9.51639E+00 9.08770E+00 6.09243E-04 1.66814E-02
 -1     22152 1.02043E+01 8.50540E+00 9.37833E+00 9.44124E+00 1.99079E-02 3.07615E-02
 -1     22153 9.68993E+00 8.22123E+00 8.89335E+00 8.34821E+00-3.20165E-03-9.16133E-04
 -1     22154 8.36759E+00 6.89258E+00 7.60374E+00 7.91460E+00-1.51975E-02-1.93736E-02
 -1     22155 8.32018E+00 6.79829E+00 7.61210E+00 7.58674E+00 1.19064E-02 3.52309E-02
 -1     22156 7.75671E+00 6.52734E+00 7.12010E+00 6.85063E+00 2.98015E-03 1.15984E-02
 -1     22157 8.40180E+00 7.02371E+00 7.73358E+00 7.26637E+00 3.40817E-02-2.83354E-03
 -1     22158 6.14456E+00 5.05714E+00 5.65193E+00 6.20827E+00-5.59916E-03 7.61622E-02
 -1     22159 6.71926E+00 5.68862E+00 6.22806E+00 5.98686E+00-2.25894E-05 5.25103E-02
 -1     22160 6.01512E+00 4.99348E+00 5.50327E+00 5.62266E+00 9.67479E-03-2.56867E-02
 -1     22161 6.55846E+00 5.70260E+00 6.17220E+00 5.30212E+00-2.81358E-02 3.81501E-03
 -1     22162 5.55887E+00 4.76989E+00 5.15339E+00 5.03461E+00-1.78411E-02 6.11902E-02
 -1     22163 1.18382E+01 9.82503E+00 1.08108E+01 1.12094E+01 1.41609E-02-8.72493E-03
 -1     22164 5.76874E+00 4.95291E+00 5.33030E+00 5.09577E+00-1.10042E-02 4.76567E-02
 -1     22165 1.27193E+01 1.06180E+01 1.16559E+01 1.18737E+01 5.75869E-03-8.20263E-04
 -1     22166 5.44166E+00 4.51189E+00 4.97298E+00 5.57076E+00 6.73862E-03-1.57486E-02
 -1     22167 5.66136E+00 4.90470E+00 5.27803E+00 5.52558E+00-1.49720E-03 1.56941E-02
 -1     22168 1.16953E+01 1.00159E+01 1.09177E+01 1.08058E+01 5.31668E-03-2.65560E-02
 -1     22169 1.23026E+01 1.05336E+01 1.14798E+01 1.03854E+01 2.10600E-02 3.09753E-02
 -1     22170 1.25146E+01 1.05187E+01 1.15116E+01 1.19257E+01-1.31769E-02 4.65470E-03
 -1     22171 6.01907E+00 5.36047E+00 5.72469E+00 5.51742E+00-3.23169E-02 3.02214E-02
 -1     22172 1.40494E+01 1.17830E+01 1.29361E+01 1.26162E+01 1.21925E-02-6.31682E-03
 -1     22173 1.37037E+01 1.14559E+01 1.25921E+01 1.25766E+01 1.02218E-02 1.42316E-02
 -1     22174 1.14012E+01 9.82195E+00 1.07113E+01 8.66899E+00 1.90355E-01-4.74182E-03
 -1     22175 1.13787E+01 9.41998E+00 1.03854E+01 1.09708E+01 1.59988E-02 4.23325E-03
 -1     22176 1.34644E+01 1.13430E+01 1.23874E+01 1.22769E+01 9.84298E-03-1.43448E-02
 -1     22177 1.33842E+01 1.12504E+01 1.22854E+01 1.24330E+01 2.86950E-03 2.59180E-02
 -1     22178 1.35750E+01 1.14160E+01 1.24613E+01 1.24993E+01-1.20956E-02-9.68633E-04
 -1     22179 1.15374E+01 9.72562E+00 1.06531E+01 1.00035E+01-9.93291E-02 2.09045E-02
 -1     22180 6.18080E+00 4.57657E+00 5.33388E+00 9.37273E+00-7.85786E-02 5.62214E-02
 -1     22181 1.29763E+01 1.09434E+01 1.19299E+01 1.18458E+01 4.89096E-02-6.31691E-03
 -1     22182 5.45092E+00 4.44332E+00 4.93937E+00 5.47306E+00 8.70632E-04-6.48472E-03
 -1     22183 1.30661E+01 1.09308E+01 1.19417E+01 1.23936E+01-8.55522E-03-5.31022E-03
 -1     22184 8.70058E+00 7.14044E+00 7.89135E+00 8.68237E+00 1.33852E-02 1.48881E-02
 -1     22185 6.91090E+00 5.76811E+00 6.35488E+00 6.49036E+00 3.01817E-03-5.51468E-03
 -1     22186-5.72041E-01 9.33278E+00 4.93046E+00 5.09059E+00 2.12833E-01 7.25601E-01
 -1     22187-2.05354E-01 9.74067E+00 4.68493E+00 4.30956E+00 9.07949E-02 5.66285E-02
 -1     22188-6.50840E+00 3.11841E+00-1.75332E+00 4.39052E+00 2.93525E-01-3.53483E-01
 -1     22189 1.09043E+01 2.08509E+01 1.59119E+01 4.64769E+00-5.46979E-01-7.61750E-01
 -1     22190 2.31549E-02 8.98994E+00 3.77390E+00 4.22123E+00-3.89392E-01 9.27355E-02
 -1     22191 5.21630E+00 1.82353E+01 1.15287E+01 6.40111E+00 1.83879E-01-3.11019E-01
 -1     22192-7.59034E-01 1.19358E+01 5.72857E+00 6.46815E+00-4.02510E-01 2.19355E-01
 -1     22193 2.22678E+00 1.67242E+01 9.43098E+00 5.99066E+00-6.00742E-02-1.94045E-01
 -1     22194-1.97019E+00 1.28520E+01 5.65348E+00 6.37622E+00 2.00672E-01-1.23537E-01
 -1     22195-4.69177E-02 1.23231E+01 6.18843E+00 6.48732E+00-6.39649E-02 4.25667E-02
 -1     22196-4.31776E+00 9.40266E+00 2.73957E+00 6.52175E+00-6.31871E-02-2.22575E-01
 -1     22197-2.49411E+00 5.51353E+00 1.33463E+00 6.66614E+00 1.16058E-01 1.76929E-01
 -1     22198 2.39909E-01 9.89532E+00 5.09639E+00 6.68981E+00 4.18672E-02-1.49406E-02
 -1     22199 2.70968E-01 4.62655E+00 2.44020E+00 5.97447E+00-3.00408E-02 2.63447E-02
 -1     22200 1.22432E-01 6.90877E+00 3.48463E+00 6.71391E+00 9.33257E-02 5.95915E-02
 -1     22201-1.10226E+00 6.41716E+00 2.75615E+00 6.62188E+00-5.48304E-02 7.43476E-02
 -1     22202-3.11165E+00 1.25865E+00-8.22906E-01 5.73793E+00 5.99644E-02 8.64057E-02
 -1     22203-2.40818E+00 2.05626E+00-1.64739E-01 6.06684E+00-6.41305E-02-1.99957E-02
 -1     22204-2.87697E-01 4.53717E+00 2.12926E+00 6.29136E+00-6.58412E-02-5.65256E-02
 -1     22205-1.35132E+00 4.07299E+00 1.36465E+00 6.21776E+00 4.25297E-02-7.82530E-02
 -1     22206-8.36104E-01 6.41344E+00 2.85476E+00 6.76216E+00-3.93009E-02-2.12066E-02
 -1     22207-4.94595E-01 6.89508E+00 3.13562E+00 6.81421E+00-8.33841E-02 7.57228E-03
 -1     22208-2.20021E-01 8.62073E+00 4.23002E+00 6.67137E+00 1.77848E-02-3.63040E-02
 -1     22209 3.38274E+00 1.48498E+01 8.84670E+00 6.43929E+00 2.43403E-02 1.11888E-01
 -1     22210-2.76041E+00 7.94577E+00 2.50003E+00 6.45062E+00-6.89872E-02-9.09960E-02
 -1     22211-1.06315E+00 1.24976E+01 5.80385E+00 6.21677E+00 1.05858E-01-3.01586E-02
 -1     22212 1.14238E+01 2.39304E+01 1.76603E+01 6.21710E+00 5.62341E-02 2.12387E-01
 -1     22213 3.37351E-01 1.61545E+01 8.21727E+00 6.45661E+00 7.03701E-02-3.60047E-02
 -1     22214-3.34639E-01 1.45302E+01 7.01833E+00 5.93422E+00 1.43551E-01 2.67180E-02
 -1     22215 1.03398E+01 2.40673E+01 1.71312E+01 6.66385E+00-4.75687E-02-2.73356E-01
 -1     22216-1.53879E+00 1.36133E+01 5.74500E+00 6.17969E+00 1.57786E-01-1.23695E-01
 -1     22217-6.16401E+00 8.79735E+00 1.36118E+00 6.15459E+00 6.88765E-02-2.22585E-01
 -1     22218-1.01829E+00 1.34967E+01 6.21096E+00 6.13754E+00 6.54146E-02-1.84724E-01
 -1     22219-5.80806E-01 1.10791E+01 5.18951E+00 6.54326E+00 1.73436E-01-1.32660E-02
 -1     22220 1.00175E+00 1.33004E+01 7.22956E+00 6.31306E+00-1.42967E-01 7.72250E-02
 -1     22221 8.70102E-02 1.08808E+01 5.69943E+00 6.54160E+00 1.74525E-01-3.83111E-02
 -1     22222-1.78181E+00 1.33907E+01 5.83262E+00 6.46729E+00 2.22080E-01-5.74014E-02
 -1     22223-2.16856E+00 1.29111E+01 5.89222E+00 6.93504E+00-1.21806E-01 6.49738E-02
 -1     22224 2.70298E+00 1.62581E+01 9.35608E+00 6.36656E+00-1.00074E-01-3.14340E-01
 -1     22225 2.30704E-01 1.03752E+01 5.10166E+00 6.58312E+00-4.93280E-04-7.29663E-02
 -1     22226 5.74998E+00 2.05519E+01 1.30392E+01 6.46125E+00-1.12089E-01-3.80052E-01
 -1     22227 2.78293E+00 1.71819E+01 9.84396E+00 6.24051E+00 1.55692E-02-1.92641E-01
 -1     22228-1.70189E-01 9.25607E+00 4.64301E+00 6.55658E+00-8.20595E-02 2.15315E-01
 -1     22229 2.66143E+00 1.69460E+01 9.98772E+00 6.26480E+00 6.94580E-02 1.33313E-01
 -1     22230 1.38477E+01 2.82603E+01 2.07194E+01 6.67765E+00-3.34095E-01-2.48443E-01
 -1     22231-1.05258E+00 1.36796E+01 6.43667E+00 6.49176E+00 3.87244E-02 7.81040E-02
 -1     22232 6.60800E+00 2.17211E+01 1.34647E+01 6.47185E+00-4.32181E-01 2.59316E-02
 -1     22233 2.89341E+00 1.85114E+01 1.10579E+01 6.66130E+00-1.67655E-01-1.05465E-02
 -1     22234 3.19923E+00 1.85192E+01 1.07523E+01 6.09423E+00-2.84619E-01-1.63613E-01
 -1     22235 3.65515E-01 1.61543E+01 8.35950E+00 6.39968E+00 1.67126E-01-5.20626E-01
 -1     22236-2.79280E+00 1.21897E+01 4.49513E+00 6.82495E+00-2.16356E-01-1.24075E-01
 -1     22237 9.12948E-01 8.88436E+00 4.97935E+00 6.65591E+00 1.40663E-02-5.44988E-02
 -1     22238-1.25011E+00 1.38160E+01 6.52937E+00 6.77756E+00-8.75653E-02 1.35658E-01
 -1     22239 2.92333E+00 1.80030E+01 1.04837E+01 6.21219E+00 1.16982E-01 1.04496E-01
 -1     22240 2.46864E+00 1.49447E+01 8.95960E+00 6.24607E+00-9.31599E-02 1.89921E-01
 -1     22241-7.15692E-01 1.08521E+01 5.08002E+00 6.43932E+00-2.70632E-03 9.52207E-03
 -1     22242-3.92868E-01 1.42394E+01 7.31531E+00 6.51128E+00-1.70043E-01-9.29657E-02
 -1     22243-4.45883E-01 9.82120E+00 4.61043E+00 6.62120E+00-1.19601E-01 1.43029E-01
 -1     22244 3.59277E+01 6.98926E+01 5.28006E+01-4.69061E+00-1.30227E+00 1.20018E+00
 -1     22245-4.92668E+01-1.61037E+01-3.17236E+01-7.72027E-01-1.06786E+00 2.55532E-01
 -1     22246 8.03155E+01 1.11798E+02 9.57484E+01-1.39825E+00-1.67241E+00 1.70012E+00
 -1     22247-3.95530E+01-1.92590E+01-2.74749E+01-6.63542E+00-4.76535E-01 2.03430E+00
 -1     22248-1.11158E+01 1.81687E+01 5.39691E+00-7.21031E+00-2.53807E+00 4.30127E-01
 -1     22249-4.07699E+01-2.20179E+01-3.44470E+01-8.19867E+00-2.55253E+00-1.58994E-01
 -1     22250-7.94838E+01-6.32583E+01-6.92419E+01-1.14031E+01-3.85979E-02 1.05873E+00
 -1     22251-1.04072E+01 7.39205E+00-1.46022E+00-7.53242E+00 3.09642E-01 4.28756E-02
 -1     22252-1.69777E+01 3.06251E+00-6.59786E+00-8.15034E+00-3.00470E-01-1.05569E-01
 -1     22253-1.83338E+01-1.01248E+00-9.79585E+00-6.78564E+00 8.72826E-02-5.31223E-03
 -1     22254-2.37412E+01-6.23164E+00-1.50150E+01-7.02541E+00-8.41348E-02 8.77787E-02
 -1     22255-1.98717E+01-2.59910E+00-1.12342E+01-6.49116E+00-2.53879E-03 2.37727E-02
 -1     22256-2.04312E+01-3.11421E+00-1.17798E+01-6.58159E+00-5.26543E-03 5.96796E-02
 -1     22257-1.93279E+01-2.30989E+00-1.08261E+01-6.38637E+00-1.70909E-03-3.64783E-03
 -1     22258-1.89218E+01-1.86921E+00-1.03832E+01-6.41116E+00 8.53291E-03 4.86652E-04
 -1     22259-1.88745E+01-2.19839E+00-1.05296E+01-6.30279E+00 5.91961E-03-1.22238E-02
 -1     22260-1.88333E+01-2.04390E+00-1.04233E+01-6.32241E+00 6.68480E-03-9.32830E-03
 -1     22261-1.85953E+01-2.34905E+00-1.04836E+01-6.11852E+00 1.66996E-02-9.41103E-04
 -1     22262-1.74868E+01-1.11628E+00-9.30025E+00-6.19389E+00 6.94254E-04-1.17041E-02
 -1     22263-1.74227E+01-1.77890E+00-9.55631E+00-5.88656E+00-9.37882E-03-1.18987E-02
 -1     22264-1.78305E+01-1.95577E+00-9.90202E+00-5.94515E+00-2.15249E-03-3.61610E-03
 -1     22265-1.61216E+01-1.56255E+00-8.83065E+00-5.46244E+00-8.87195E-03-7.38667E-03
 -1     22266-1.66200E+01-1.77790E+00-9.19024E+00-5.56592E+00-1.28325E-02 1.04500E-02
 -1     22267-1.34062E+01-4.82466E-01-6.98224E+00-4.83337E+00-4.37051E-03-2.56172E-02
 -1     22268-1.40348E+01-8.13587E-01-7.38217E+00-5.06036E+00-5.39405E-02 1.31685E-02
 -1     22269-8.05681E+00 2.81579E+00-2.69735E+00-4.13306E+00 6.47002E-02 6.14796E-02
 -1     22270-1.35622E+01-2.23973E+00-7.91555E+00-4.27689E+00 2.20293E-02 2.37201E-02
 -1     22271-8.62155E+00 5.35955E-01-4.05256E+00-3.46971E+00-2.56443E-01 5.82295E-02
 -1     22272-1.18181E+01-2.17159E+00-7.00130E+00-3.67056E+00-5.77261E-02-6.65499E-03
 -1     22273-1.83227E+01-1.18924E+01-1.56148E+01-3.45861E+00 3.26222E-02-1.55448E-01
 -1     22274-1.56448E+00 6.00956E+00 1.99497E+00-3.62332E+00-5.89953E-02 9.75488E-02
 -1     22275-1.73784E+01-1.00534E+01-1.33293E+01-1.63911E+00 5.61677E-01 4.97758E-01
 -1     22276-1.33873E+01-5.25048E+00-9.26049E+00-3.01933E+00-6.94569E-02 2.65306E-01
 -1     22277-7.06984E+00 2.70313E-01-3.09216E+00-3.66407E+00 1.14795E-01-1.24775E-02
 -1     22278-1.80324E+00 3.30558E+00 9.12713E-01-1.14903E+00-1.16421E-01 2.36503E-01
 -1     22279-8.80969E+00-2.27647E+00-5.25134E+00-1.51188E+00-4.52798E-01-2.45038E-01
 -1     22280-2.01689E+00 4.46185E+00 1.46950E+00-9.19457E-01-2.67503E-01 3.58730E-01
 -1     22281-1.40823E+01-7.76601E+00-1.14213E+01-1.81597E+00-2.62455E-01-1.86561E-01
 -1     22282-9.77076E+00-2.10179E+00-5.71623E+00-4.95797E+00 5.67053E-02 2.65261E-01
 -1     22283-8.88948E-01 5.45125E+00 2.29974E+00-4.16625E+00 3.92226E-01-1.40245E-01
 -1     22284-8.11562E+00-7.33895E-02-3.86574E+00-4.25683E+00 2.40895E-01 1.78045E-02
 -1     22285-1.58307E+01-7.58538E+00-1.18429E+01-3.79048E+00-5.42843E-01-5.53236E-02
 -1     22286-6.08652E+00 1.45784E+00-2.52171E+00-3.85984E+00-2.53400E-01 8.90327E-02
 -1     22287-1.07158E+01-1.40399E+00-5.98221E+00-3.59483E+00 1.54444E-01 2.10103E-02
 -1     22288-8.54506E+00 6.48616E-01-3.94345E+00-3.45529E+00 7.36130E-02 4.45900E-02
 -1     22289-1.28022E+01-1.46001E+00-7.15994E+00-4.30637E+00 8.43190E-03 4.20807E-02
 -1     22290-1.19837E+01-1.18746E+00-6.59078E+00-4.13301E+00 2.01168E-02 3.56007E-02
 -1     22291-1.43649E+01-1.09077E+00-7.74265E+00-4.92913E+00-2.06365E-02-5.75151E-03
 -1     22292-1.47964E+01-2.09319E+00-8.40264E+00-4.74206E+00-2.64977E-02-5.23584E-04
 -1     22293-1.72989E+01-2.56450E+00-9.97893E+00-5.50599E+00-7.90490E-03-1.07011E-02
 -1     22294-1.65203E+01-2.04779E+00-9.29762E+00-5.45738E+00-6.26492E-04-7.32954E-03
 -1     22295-1.87768E+01-3.02288E+00-1.09071E+01-5.90981E+00-2.90881E-02 4.72584E-03
 -1     22296-1.83605E+01-2.78478E+00-1.05844E+01-5.82764E+00-2.51056E-02 1.72732E-02
 -1     22297-1.85534E+01-2.11353E+00-1.03309E+01-6.16796E+00-1.08300E-03 1.96015E-02
 -1     22298-1.84870E+01-2.19441E+00-1.03179E+01-6.14872E+00-1.03725E-02-5.22923E-03
 -1     22299-1.88525E+01-2.03565E+00-1.04399E+01-6.32821E+00-6.31371E-03 1.58975E-02
 -1     22300-1.86044E+01-1.86248E+00-1.02311E+01-6.30435E+00-1.69721E-02 6.22888E-03
 -1     22301-1.90862E+01-2.03362E+00-1.05564E+01-6.44006E+00 5.48300E-03 1.20330E-03
 -1     22302-1.92424E+01-2.22859E+00-1.07279E+01-6.41272E+00 1.70191E-02-1.66632E-03
 -1     22303-1.99753E+01-2.48105E+00-1.12386E+01-6.58531E+00 1.57297E-02-2.59991E-03
 -1     22304-1.97350E+01-2.39896E+00-1.10659E+01-6.50560E+00 2.67195E-02-3.92914E-03
 -1     22305-1.98658E+01-2.00666E+00-1.09366E+01-6.82412E+00 3.09759E-02-1.98208E-02
 -1     22306-1.95377E+01-1.80065E+00-1.06930E+01-6.72808E+00 3.34489E-02-1.97786E-02
 -1     22307-1.33859E+01 4.69110E+00-5.14840E+00-7.89269E+00 4.59221E-01-6.79610E-01
 -1     22308-2.01928E+01-3.08385E+00-1.23467E+01-7.35714E+00 3.99407E-01 3.03819E-02
 -1     22309-2.19532E+01 1.49197E+00-9.48140E+00-9.38179E+00 8.33630E-01 1.42126E+00
 -1     22310-1.55671E+01 1.95928E+00-7.23290E+00-7.05724E+00 1.17758E-01-9.78374E-02
 -1     22311-2.29628E+01-4.93418E+00-1.42489E+01-6.91260E+00 3.03042E-01-4.53511E-03
 -1     22312-1.85730E+01-7.65171E-01-9.85281E+00-7.03326E+00 7.27617E-03 8.25675E-03
 -1     22313-2.16971E+01-4.26084E+00-1.30061E+01-6.61271E+00 3.80343E-02-3.00090E-02
 -1     22314-1.83126E+01-9.19245E-01-9.59367E+00-6.76319E+00-2.93432E-02-2.92194E-02
 -1     22315-2.05652E+01-3.15853E+00-1.17951E+01-6.67971E+00 2.32878E-02 3.75069E-02
 -1     22316-2.77163E+01-9.95761E+00-1.85206E+01-9.05418E+00-2.87725E-01-2.74573E-01
 -1     22317-2.75994E+01-1.06471E+01-1.97625E+01-1.05267E+01 8.81397E-01-2.19686E-01
 -1     22318-1.98614E+01-2.14271E+00-1.11820E+01-6.99995E+00 2.04973E-03-1.19285E-01
 -1     22319-1.94165E+01-2.08184E+00-1.07419E+01-6.68958E+00-3.25919E-02 2.25374E-02
 -1     22320 1.14060E+01 2.56027E+01 2.10363E+01-9.51846E+00 4.17009E-01 1.03741E+00
 -1     22321-1.86395E+01-1.56516E+00-1.00879E+01-6.44792E+00 9.01500E-03-6.07174E-04
 -1     22322-1.91920E+01-2.02811E+00-1.05890E+01-6.47974E+00-1.18879E-03 7.40675E-03
 -1     22323-1.91231E+01-2.28493E+00-1.07006E+01-6.33733E+00-8.45327E-03-6.85505E-03
 -1     22324-1.88623E+01-1.92586E+00-1.03961E+01-6.38120E+00 7.67482E-04-5.68536E-03
 -1     22325-1.87329E+01-2.17705E+00-1.04433E+01-6.24839E+00-3.42112E-03-2.82541E-03
 -1     22326-1.86378E+01-2.01947E+00-1.03128E+01-6.27167E+00-4.15356E-03-8.56513E-03
 -1     22327-1.79696E+01-1.94870E+00-9.96598E+00-6.04299E+00 1.11631E-03 1.48209E-02
 -1     22328-1.82631E+01-2.07454E+00-1.01746E+01-6.08730E+00-5.07636E-03 5.25677E-03
 -1     22329-1.72898E+01-2.10138E+00-9.71580E+00-5.70117E+00 1.97971E-02-8.19973E-03
 -1     22330-1.72857E+01-1.84748E+00-9.54581E+00-5.77855E+00 3.86194E-03 1.42073E-02
 -1     22331-1.58433E+01-2.07312E+00-8.91170E+00-5.18475E+00 2.48066E-02-5.61579E-02
 -1     22332-1.57334E+01-1.57350E+00-8.67745E+00-5.28657E+00 9.62292E-03-4.17732E-02
 -1     22333-1.65983E+01-4.77587E+00-1.06387E+01-4.46559E+00 3.07226E-02-7.45976E-02
 -1     22334-1.46612E+01-2.05775E+00-8.36741E+00-4.68788E+00 5.28458E-02-8.91685E-02
 -1     22335-1.13927E+01-1.65226E+00-6.69324E+00-3.63241E+00 6.45320E-03-4.37318E-02
 -1     22336-1.25441E+01-2.29543E+00-7.46182E+00-3.88376E+00 7.69712E-02 1.33194E-02
 -1     22337-1.26755E+01-2.30130E+00-7.53995E+00-3.90860E+00-2.27609E-03 4.55729E-02
 -1     22338-1.00462E+01-3.12088E-02-4.97609E+00-3.93003E+00 1.16815E-01 1.17993E-04
 -1     22339-6.25834E+00 1.86935E+00-2.21382E+00-3.55939E+00 1.47294E-01-5.80010E-02
 -1     22340-1.08772E+01-1.75658E+00-6.18683E+00-3.48200E+00-1.30837E-01 3.88152E-02
 -1     22341-1.78223E+01-2.77310E+00-1.03307E+01-5.65288E+00-1.57019E-02 8.81489E-03
 -1     22342-1.66835E+01-1.80670E+00-9.21401E+00-5.57535E+00-3.68269E-02-1.04159E-02
 -1     22343-1.87507E+01-3.36345E+00-1.10531E+01-5.78395E+00-8.71329E-03 2.09655E-02
 -1     22344-1.02821E+01-1.08983E+00-6.02165E+00-3.34320E+00 1.07051E-01-1.76988E-01
 -1     22345-9.46162E+00-2.57448E+00-5.90988E+00-4.01833E+00 1.82657E-01 2.02369E-01
 -1     22346-1.34120E+01-1.69064E+00-7.58179E+00-4.38113E+00-2.77961E-02 2.25640E-02
 -1     22347-1.24324E+01-9.68310E-01-6.65264E+00-4.30301E+00-5.07376E-02 2.56619E-02
 -1     22348-1.39315E+01-1.55479E+00-7.78481E+00-4.60568E+00-3.84644E-03-3.88853E-02
 -1     22349-1.23931E+01-1.85140E+00-6.96398E+00-4.04548E+00-1.11441E-01-4.96101E-02
 -1     22350-1.21292E+01-1.85071E+00-6.98385E+00-3.87916E+00-5.42983E-02 5.40184E-02
 -1     22351-1.36027E+01-1.18263E+00-7.38535E+00-4.72700E+00-3.46916E-02-4.92902E-02
 -1     22352-1.63062E+01-2.16303E+00-9.23495E+00-5.25496E+00-3.17751E-02 1.50597E-03
 -1     22353-1.62679E+01-2.65179E+00-9.49271E+00-5.07828E+00-1.86787E-02-1.30041E-02
 -1     22354-1.70810E+01-1.68686E+00-9.38567E+00-5.78287E+00-2.86340E-03 3.76400E-04
 -1     22355-1.83449E+01-2.17474E+00-1.02618E+01-6.07305E+00 4.00938E-02-2.02593E-02
 -1     22356-1.86805E+01-2.71184E+00-1.07215E+01-6.00478E+00 7.47215E-03-1.25209E-02
 -1     22357-1.88814E+01-2.25107E+00-1.05688E+01-6.26291E+00 3.47691E-03-1.71101E-04
 -1     22358-1.87417E+01-2.18714E+00-1.04759E+01-6.23404E+00 1.37499E-02 2.79631E-04
 -1     22359-1.90684E+01-2.13314E+00-1.05802E+01-6.38094E+00 6.17464E-03 7.41880E-03
 -1     22360-1.93368E+01-2.44691E+00-1.08817E+01-6.35001E+00-6.38508E-03 8.25633E-03
 -1     22361-2.00847E+01-2.90528E+00-1.14843E+01-6.48469E+00-8.46412E-03-8.62395E-03
 -1     22362-1.95290E+01-2.43251E+00-1.09671E+01-6.45650E+00-8.08238E-03 1.27762E-04
 -1     22363-1.96820E+01-2.13282E+00-1.09201E+01-6.60566E+00-7.69319E-03-3.57839E-02
 -1     22364-1.96534E+01-2.13410E+00-1.09138E+01-6.61025E+00-3.55263E-03-2.37296E-02
 -1     22365-1.75046E+01 6.66858E-01-8.30841E+00-6.98783E+00 7.49897E-02-9.00110E-02
 -1     22366-1.28812E+01 4.97815E+00-3.70387E+00-6.81126E+00 1.28348E-01-2.21306E-02
 -1     22367-2.39570E+01-1.05265E+01-1.78765E+01-7.85458E+00-1.47384E+00 1.20896E+00
 -1     22368-2.41089E+01-5.89787E+00-1.49669E+01-7.07562E+00-1.07781E+00 6.32530E-01
 -1     22369-1.94594E+01-2.30241E+00-1.09389E+01-6.48369E+00-1.25192E-02 1.45753E-02
 -1     22370-1.88171E+01-1.84699E+00-1.03444E+01-6.38516E+00 6.84067E-03-4.69351E-03
 -1     22371-1.88196E+01-2.16587E+00-1.04795E+01-6.27968E+00-1.89736E-03 1.38308E-03
 -1     22372-1.85301E+01-2.28590E+00-1.04214E+01-6.12778E+00 1.50364E-02 2.28324E-03
 -1     22373-1.74389E+01-1.83811E+00-9.63503E+00-5.83785E+00-1.66809E-02-9.26976E-03
 -1     22374-1.61205E+01-1.70404E+00-8.89132E+00-5.37592E+00-1.19522E-02-3.73389E-04
 -1     22375-1.44230E+01-1.74139E+00-8.03798E+00-4.81180E+00 1.63584E-02-6.61055E-03
 -1     22376-1.59521E+01-2.57365E+00-9.24486E+00-5.00968E+00-4.96744E-02 4.48174E-02
 -1     22377-1.78757E+01-2.03280E+00-9.97635E+00-5.95178E+00 6.95193E-03 6.74733E-03
 -1     22378-1.86394E+01-2.10376E+00-1.03640E+01-6.20523E+00 1.60704E-02 1.24063E-02
 -1     22379-1.90222E+01-2.17139E+00-1.05814E+01-6.34674E+00-3.61022E-03 9.15971E-04
 -1     22380-1.92077E+01-2.14367E+00-1.06739E+01-6.44947E+00 1.08547E-02-1.07312E-02
 -1     22381-1.96556E+01-2.14015E+00-1.09380E+01-6.54823E+00-5.71399E-04-3.20441E-02
 -1     22382-2.02087E+01-2.54163E+00-1.11487E+01-6.81797E+00 9.88180E-02-9.95436E-02
 -1     22383-4.84070E+01-2.96357E+01-3.82027E+01-6.85674E+00 6.37360E-01 7.50399E-01
 -1     22384-1.81997E+01-2.24826E+00-1.02064E+01-5.99504E+00-1.25645E-02-4.06533E-03
 -1     22385-1.67200E+01-1.64008E+00-9.14397E+00-5.63425E+00-1.09848E-03-1.03698E-03
 -1     22386-1.74154E+01-3.78889E+00-1.06180E+01-5.13863E+00-7.28833E-02 1.90620E-02
 -1     22387-1.39233E+01-2.06905E+00-7.92211E+00-4.46896E+00 4.78803E-02-1.15158E-02
 -1     22388-4.10005E+01-1.72498E+01-2.93532E+01-6.43858E+00 5.71390E-01 9.47496E-01
 -1     22389-4.80118E+01-3.10683E+01-4.03761E+01-8.69542E+00 8.24544E-01 8.10776E-02
 -1     22390-1.87122E+01-2.27062E+00-1.04857E+01-6.21579E+00 2.05625E-02-2.18329E-02
 -1     22391-1.92465E+01-2.44608E+00-1.08518E+01-6.33408E+00 5.45103E-03-7.42317E-03
 -1     22392-1.93206E+01-2.25005E+00-1.08108E+01-6.43311E+00-1.32895E-02 4.52956E-03
 -1     22393-1.36587E+01-4.35530E+00-9.26023E+00-3.38421E+00 2.01666E-01-1.49482E-01
 -1     22394-2.24462E+01-4.73772E+00-1.34942E+01-7.07182E+00 2.35211E-01 1.92601E-01
 -1     22395-1.94390E+01-1.74910E+00-1.05810E+01-6.68417E+00-5.28981E-03-9.70401E-03
 -1     22396-1.90825E+01-1.75802E+00-1.04112E+01-6.48186E+00-1.27138E-02-2.59894E-02
 -1     22397-1.92096E+01-2.24515E+00-1.07233E+01-6.40637E+00 1.19456E-03-4.04843E-03
 -1     22398-1.68716E+01-2.65064E+00-9.74860E+00-5.27830E+00-2.21926E-02-6.57271E-03
 -1     22399-1.88852E+01-2.18868E+00-1.05426E+01-6.29149E+00-6.74709E-03 7.11718E-03
 -1     22400-1.83126E+01-2.08886E+00-1.02059E+01-6.11246E+00 4.13033E-03 4.75702E-04
 -1     22401-4.57691E+01-2.14454E+01-3.11899E+01-7.70603E+00-7.48994E-01-3.87957E-01
 -1     22402-1.87190E+01-2.40861E+00-1.06120E+01-6.16897E+00 4.72250E-03 4.38519E-03
 -1     22403-1.84923E+01-2.01339E+00-1.02523E+01-6.21826E+00 1.55453E-03 5.93887E-03
 -1     22404-2.02934E+01-2.54145E+00-1.13336E+01-6.83095E+00 6.93317E-03-9.16261E-02
 -1     22405-1.92057E+01-1.79318E+00-1.04186E+01-6.81285E+00 1.31480E-01-7.97594E-02
 -1     22406-2.03638E+01-2.78287E+00-1.14781E+01-6.72656E+00-3.94765E-02-6.90775E-02
 -1     22407-1.86196E+01-2.02820E+00-1.03148E+01-6.25607E+00 3.60111E-03-1.40138E-02
 -1     22408-1.87914E+01-2.13079E+00-1.04618E+01-6.27998E+00-3.75608E-04 2.55212E-05
 -1     22409-1.90923E+01-2.04491E+00-1.05639E+01-6.42100E+00 1.09834E-02 4.93843E-03
 -1     22410-1.92075E+01-2.13982E+00-1.06874E+01-6.45168E+00 3.13893E-03 2.10881E-03
 -1     22411-1.81674E+01-1.90100E+00-1.00520E+01-6.12880E+00-6.76953E-03 6.41367E-04
 -1     22412-1.89617E+01-2.19889E+00-1.05897E+01-6.32307E+00-3.90065E-03-6.75212E-04
 -1     22413-1.90525E+01-2.22312E+00-1.06473E+01-6.34696E+00-4.34483E-03-5.15026E-03
 -1     22414-1.77855E+01-2.28741E+00-1.00567E+01-5.80350E+00 1.78652E-03 3.18938E-03
 -1     22415-1.76529E+01-1.96444E+00-9.81682E+00-5.87920E+00-3.17289E-03-7.28202E-03
 -1     22416-1.68812E+01-1.90089E+00-9.34928E+00-5.63594E+00-3.99178E-03-4.73571E-03
 -1     22417-1.62734E+01-1.64198E+00-8.91645E+00-5.49854E+00-3.57728E-02 5.61795E-03
 -1     22418-1.60032E+01-1.75208E+00-8.86867E+00-5.34383E+00-7.84240E-03-3.18024E-03
 -1     22419-1.51725E+01-1.73539E+00-8.45373E+00-5.08767E+00-5.44282E-02 2.09622E-02
 -1     22420-1.47678E+01-1.75495E+00-8.25999E+00-4.92776E+00-3.91701E-02 4.65589E-02
 -1     22421-1.45248E+01-1.85707E+00-8.16220E+00-4.75112E+00 1.52720E-02-4.86765E-03
 -1     22422-1.28006E+01-1.18498E+00-7.05240E+00-4.37416E+00 2.94728E-02-9.54336E-03
 -1     22423-1.42522E+01-2.19284E+00-8.19469E+00-4.59530E+00 3.17019E-02-1.39787E-02
 -1     22424-2.49524E+01-2.75062E+00-1.25330E+01-7.70714E+00 1.40382E-01 1.05706E+00
 -1     22425-1.18594E+01-1.18843E+00-6.50264E+00-4.10752E+00 5.98541E-02-4.11113E-02
 -1     22426-1.97028E+01-1.72235E+00-9.70969E+00-7.79570E+00-9.91927E-02-9.01866E-02
 -1     22427-1.94282E+01-1.56908E+00-9.97471E+00-6.97799E+00 1.65060E-01 1.03643E-01
 -1     22428 5.72971E+00 1.28256E+01 8.90586E+00-4.09930E+00 1.35102E-02-2.70123E-01
 -1     22429-1.76408E+01-1.72701E+00-9.65074E+00-5.96674E+00-1.45333E-02 6.43645E-03
 -1     22430-1.25952E+01-1.30651E+00-6.94735E+00-4.18041E+00 5.68188E-02-4.92078E-02
 -1     22431-7.75387E+00 1.39584E+00-3.08955E+00-3.90880E+00-1.92437E-01 8.19256E-02
 -1     22432-1.91168E+01-2.22293E+00-1.06820E+01-6.36795E+00 3.74284E-03-8.55741E-03
 -1     22433-1.91617E+01-2.21184E+00-1.06934E+01-6.38611E+00 1.09679E-02 3.61112E-03
 -1     22434-8.77618E+00-3.32978E-01-4.30105E+00-3.40440E+00 5.56038E-02 3.11048E-01
 -1     22435-1.79904E+01-1.90391E+00-9.92745E+00-6.05569E+00-4.85807E-03-9.62219E-04
 -1     22436-1.92566E+01-2.18628E+00-1.07438E+01-6.45533E+00-1.06740E-03-2.99767E-03
 -1     22437-1.93408E+01-1.91187E+00-1.06050E+01-6.61110E+00-1.99622E-02-1.53359E-02
 -1     22438-1.94128E+01-1.99505E+00-1.06749E+01-6.53038E+00-7.39608E-03-2.50548E-02
 -1     22439-1.99576E+01-2.59975E+00-1.10922E+01-6.88046E+00 1.06117E-01-2.88676E-01
 -1     22440-1.92703E+01-2.11762E+00-1.06690E+01-6.49321E+00-2.81973E-03-1.17259E-02
 -1     22441-1.99921E+01-4.87181E-01-9.23251E+00-7.85234E+00 9.46593E-01-1.27125E+00
 -1     22442-2.02853E+01-2.71709E+00-1.15431E+01-6.65624E+00-5.45613E-03-5.56609E-02
 -1     22443-1.34540E+01-6.14540E+00-9.79735E+00-3.52696E+00 3.07445E-01 1.76952E-01
 -1     22444-1.71276E+01-1.82175E+00-9.44084E+00-5.73934E+00-1.04515E-02-1.81384E-02
 -1     22445-1.56822E+01-1.68604E+00-8.69713E+00-5.16120E+00 9.69120E-03-3.73315E-02
 -1     22446 6.92467E+00 6.92190E+00 6.92190E+00 5.96288E+00 3.58329E-08 7.15320E-03
 -1     22447 6.34246E+00 6.33992E+00 6.33992E+00 6.02177E+00-5.76403E-08 2.76465E-02
 -1     22448 6.65238E+00 6.64931E+00 6.65467E+00 5.99974E+00 2.01940E-03 3.27234E-02
 -1     22449 6.73445E+00 6.73176E+00 6.73176E+00 6.04933E+00 1.77409E-07 5.28691E-03
 -1     22450 5.99475E+00 5.99258E+00 5.99453E+00 6.08565E+00 5.33815E-04-5.79310E-05
 -1     22451 5.53799E+00 5.53578E+00 5.53578E+00 5.94325E+00-7.81881E-08 1.00147E-02
 -1     22452 5.94873E+00 5.94635E+00 5.94635E+00 5.91164E+00 1.95438E-07 4.37335E-03
 -1     22453 6.62974E+00 6.62709E+00 6.62709E+00 5.68479E+00-4.61325E-08 1.61682E-02
 -1     22454 4.97706E+00 4.97066E+00 4.98026E+00 5.67181E+00 4.21364E-03-3.34223E-03
 -1     22455 6.36408E+00 6.36153E+00 6.36153E+00 5.51963E+00-5.56136E-08 6.87931E-03
 -1     22456 3.88840E+00 3.89156E+00 3.88198E+00 5.61250E+00-4.45789E-03 1.24496E-02
 -1     22457 1.12968E+01 1.12852E+01 1.12868E+01 4.74918E+00 2.12434E-03 1.00802E-01
 -1     22458 3.54958E+00 3.54461E+00 3.55088E+00 4.99082E+00 7.94583E-04 8.10756E-02
 -1     22459 7.50852E+00 7.49052E+00 7.52128E+00 3.27455E+00-1.61421E-02 6.44905E-02
 -1     22460 5.63402E+00 5.63177E+00 5.63177E+00 3.67755E+00-8.77108E-08 5.03082E-02
 -1     22461 8.00612E+00 8.00293E+00 8.00292E+00 1.69634E+00-1.40255E-07 5.42493E-02
 -1     22462 7.71266E+00 7.68916E+00 7.72608E+00 2.10212E+00 3.50514E-03 3.17386E-03
 -1     22463 3.95482E+00 3.95324E+00 3.95324E+00 1.27221E-01 8.42959E-08 9.45065E-02
 -1     22464 2.60126E+00 2.57996E+00 2.62262E+00 5.36853E-01 5.16215E-03 4.37090E-02
 -1     22465 2.35643E+01 2.35867E+01 2.35378E+01-1.54118E+00 1.83575E-02 1.26184E-02
 -1     22466 4.64160E+00 4.61334E+00 4.67533E+00-1.17966E+00 8.81552E-03 7.68928E-02
 -1     22467-7.20645E+00-7.19004E+00-7.22734E+00-2.30582E+00 7.23484E-03-1.54047E-02
 -1     22468 2.24447E+00 2.23390E+00 2.23842E+00-2.16087E+00-1.21918E-03-1.54218E-02
 -1     22469-3.81204E+00-3.80393E+00-3.80293E+00-2.23370E+00-4.66769E-03 9.88443E-02
 -1     22470 2.00205E+01 2.00063E+01 1.99879E+01-2.47663E+00-1.37673E-02 1.88360E-01
 -1     22471-3.62024E+01-3.59298E+01-3.64365E+01 2.16826E+00 6.47457E-02-5.53084E-01
 -1     22472-8.63798E+00-8.48275E+00-8.72841E+00-4.00766E-02-9.57210E-02-2.57950E-01
 -1     22473 1.54492E+01 1.58130E+01 1.52056E+01 8.52963E+00 2.32525E-02 9.28036E-01
 -1     22474-9.03310E+01-9.02949E+01-9.02949E+01 4.88419E+00-8.59045E-07 1.11893E+00
 -1     22475-1.21392E+00-1.21345E+00-1.21344E+00 3.22275E+00-3.51843E-06 2.95137E-01
 -1     22476-4.87864E+01-4.87195E+01-4.85823E+01 9.60067E+00 4.94280E-01 1.62912E+00
 -1     22477-1.21136E+02-1.21087E+02-1.21087E+02 7.99818E+00-4.10206E-06 2.06377E+00
 -1     22478-1.38553E+02-1.38497E+02-1.38497E+02 4.48933E+00-1.89375E-06 6.70536E-01
 -1     22479-1.84981E+01-1.85143E+01-1.85400E+01 4.96787E+00 2.95240E-01 1.44975E+00
 -1     22480 3.01532E+01 3.01055E+01 3.00231E+01 3.54654E+00 4.39345E-02 1.13415E+00
 -1     22481-8.03284E+00-9.53731E+00-8.68787E+00 1.83237E+00-4.15755E-02 2.88099E-01
 -1     22482-1.02804E+02-1.02735E+02-1.02769E+02 2.98768E-01-9.23061E-04-2.54809E-02
 -1     22483-5.98792E+00-6.01839E+00-6.01362E+00-1.33376E+00 9.88424E-03-1.08837E-01
 -1     22484-3.48129E+01-3.47990E+01-3.47990E+01-7.50988E-01-6.22735E-07 2.34160E-01
 -1     22485-1.42296E+00-1.42239E+00-1.42239E+00-2.14665E+00 5.12981E-07-5.41332E-03
 -1     22486 1.01124E+01 1.01299E+01 1.00991E+01-2.09412E+00-1.82192E-02 2.22562E-02
 -1     22487 9.86182E+00 9.85788E+00 9.85788E+00-2.16476E+00-1.26166E-08-7.03383E-02
 -1     22488-6.07273E+00-6.06332E+00-6.06520E+00-2.09488E+00 1.80860E-03 5.87801E-02
 -1     22489 1.04045E+01 1.03864E+01 1.03989E+01-1.07652E+00-2.54288E-03 5.45805E-02
 -1     22490 3.53332E+00 3.53222E+00 3.52002E+00-1.44279E+00-3.72523E-03 4.48052E-03
 -1     22491 6.85572E+00 6.85299E+00 6.85298E+00 6.19168E-01-2.67049E-08 3.23129E-02
 -1     22492 2.12634E+00 2.12550E+00 2.12549E+00 2.16453E-01 1.08211E-08-1.39718E-02
 -1     22493 1.80696E+01 1.80395E+01 1.80823E+01 2.28362E+00-2.18448E-02-3.88597E-02
 -1     22494 3.12453E+00 3.12329E+00 3.12329E+00 1.85079E+00-3.57340E-07-6.47500E-02
 -1     22495 2.90278E+00 2.89537E+00 2.89968E+00 3.85135E+00-2.88242E-04 6.96236E-03
 -1     22496 6.12296E+00 6.12052E+00 6.12052E+00 3.45103E+00-7.78573E-08 1.35882E-03
 -1     22497 5.13613E+00 5.13632E+00 5.13603E+00 5.19451E+00-8.16082E-04 1.76786E-02
 -1     22498 4.73433E+00 4.73243E+00 4.73243E+00 4.88805E+00-3.79894E-08 1.49516E-03
 -1     22499 2.28834E+00 2.28406E+00 2.29313E+00 5.48986E+00-1.37734E-03-2.68229E-02
 -1     22500 8.32462E+00 8.31023E+00 8.32891E+00 5.39409E+00 7.84270E-03-2.00150E-02
 -1     22501 4.34745E+00 4.34572E+00 4.34572E+00 5.67613E+00 4.34906E-09-8.15622E-03
 -1     22502 5.69833E+00 5.68433E+00 5.70386E+00 5.66189E+00 1.03559E-02 2.57044E-02
 -1     22503 5.54776E+00 5.54583E+00 5.54645E+00 5.82405E+00 1.38559E-03 6.59692E-03
 -1     22504 4.35759E+00 4.35637E+00 4.35463E+00 5.69251E+00-9.91345E-04 4.05980E-03
 -1     22505 5.55595E+00 5.55373E+00 5.55373E+00 5.66597E+00-2.19229E-08 2.91602E-02
 -1     22506 6.52257E+00 6.51996E+00 6.51996E+00 5.65959E+00-1.56508E-07 2.66059E-02
 -1     22507 6.03746E+00 6.02807E+00 6.04149E+00 5.38316E+00 4.45607E-03 1.33784E-02
 -1     22508 1.02014E+01 1.01973E+01 1.01973E+01 5.44431E+00-8.43210E-08-4.33105E-03
 -1     22509 5.66851E+00 5.66625E+00 5.66625E+00 5.21391E+00-3.03537E-07 7.88466E-02
 -1     22510 3.97873E+00 3.97714E+00 3.97714E+00 5.74732E+00 1.76865E-07-1.87936E-02
 -1     22511 6.76515E+00 6.76654E+00 6.75975E+00 5.82465E+00-1.45133E-03-1.10375E-02
 -1     22512 7.81862E+00 7.81550E+00 7.81550E+00 5.61919E+00-1.87593E-07 2.05314E-02
 -1     22513 1.33525E+01 1.33456E+01 1.33445E+01 5.05117E+00 1.19397E-03 6.97275E-02
 -1     22514 5.04786E+00 5.04831E+00 5.04402E+00 5.90620E+00 5.91759E-03-2.40900E-02
 -1     22515 9.08416E+00 8.99831E+00 9.06404E+00 4.10495E+00-9.95323E-03 2.31425E-02
 -1     22516-2.60480E-01-2.60374E-01-2.60375E-01 4.45776E+00-1.23829E-07 1.22606E-01
 -1     22517 5.99100E+00 5.98861E+00 5.98861E+00 2.50791E+00 6.85186E-08-1.07550E-02
 -1     22518 7.71096E+00 7.71003E+00 7.69988E+00 2.87919E+00-2.15629E-03 3.15497E-03
 -1     22519 8.07246E+00 8.06923E+00 8.06923E+00 9.17778E-01-8.69435E-09 1.80099E-02
 -1     22520 7.65933E+00 7.64975E+00 7.65605E+00 1.30129E+00-4.41854E-04 6.12126E-02
 -1     22521 3.06959E+00 3.06556E+00 3.06614E+00-7.12624E-01 9.06294E-04-2.01041E-02
 -1     22522 7.38641E+00 7.38346E+00 7.38346E+00-2.94439E-01 1.80785E-07 3.78428E-02
 -1     22523-4.78408E-01-4.78216E-01-4.78216E-01-1.98013E+00 6.92323E-08 1.40163E-02
 -1     22524 4.51636E+00 4.49468E+00 4.51860E+00-1.78627E+00 9.36563E-04 3.67112E-02
 -1     22525-5.24820E+00-5.24663E+00-5.24525E+00-2.43699E+00 1.24387E-02 9.74704E-02
 -1     22526-1.12987E+01-1.12942E+01-1.12942E+01-2.39565E+00-3.06092E-07 1.12240E-01
 -1     22527-1.20607E+01-1.20559E+01-1.20559E+01-2.31949E+00-1.18160E-07 1.26812E-02
 -1     22528-1.55306E+00-1.50004E+00-1.59076E+00-2.20564E+00-3.25882E-02-7.40422E-03
 -1     22529 3.26081E+00 3.25951E+00 3.25951E+00-1.02745E+00-1.18186E-07-1.37757E-01
 -1     22530-2.42538E+01-2.42441E+01-2.42441E+01-1.59178E+00 2.33492E-07-8.66577E-02
 -1     22531 6.24778E+00 6.24528E+00 6.24528E+00-1.92085E+00 4.30795E-07-5.73437E-02
 -1     22532 7.28509E+00 7.28217E+00 7.28217E+00 3.77334E-01-7.24977E-09-1.38983E-02
 -1     22533-6.09060E+00-6.08817E+00-6.08817E+00-2.36686E+00 2.21826E-07 1.43267E-02
 -1     22534 2.99387E+00 2.99268E+00 2.99268E+00-2.22542E+00 5.23949E-07 9.71932E-02
 -1     22535 3.57356E+00 3.57213E+00 3.57213E+00-1.77622E+00 8.93760E-08-2.01961E-02
 -1     22536-7.10736E+00-7.11923E+00-7.11846E+00-2.06086E+00-5.28506E-03 1.09834E-02
 -1     22537 3.78197E+00 3.77782E+00 3.76912E+00-1.86983E-01 7.85455E-03-3.73836E-02
 -1     22538 5.38913E+00 5.37006E+00 5.40570E+00-5.96554E-01 4.49610E-03 2.49765E-02
 -1     22539 4.03049E+00 4.02889E+00 4.02889E+00 1.43475E+00-3.71861E-07-1.12002E-02
 -1     22540 9.99474E+00 9.99078E+00 9.99514E+00 1.01250E+00 1.24520E-03 4.63266E-02
 -1     22541 8.32866E+00 8.32356E+00 8.32283E+00 3.05101E+00 1.42601E-03 5.64356E-03
 -1     22542 5.19029E+00 5.16594E+00 5.20833E+00 2.67862E+00 4.35438E-03 1.32706E-02
 -1     22543 4.03086E+00 4.02631E+00 4.03485E+00 4.56913E+00-5.10483E-03-7.42249E-03
 -1     22544 7.76392E+00 7.74155E+00 7.76068E+00 4.21286E+00-1.22207E-03-1.97168E-02
 -1     22545 6.68121E+00 6.67854E+00 6.67854E+00 5.36050E+00-1.26063E-07 4.19075E-02
 -1     22546 9.52002E+00 9.52258E+00 9.51593E+00 5.32036E+00 1.23301E-04 2.34308E-02
 -1     22547 6.00921E+00 6.00681E+00 6.00681E+00 5.60655E+00 2.65821E-07 3.18895E-02
 -1     22548 4.31760E+00 4.31587E+00 4.31587E+00 5.55771E+00 2.02289E-07-9.35390E-03
 -1     22549 7.53023E+00 7.52722E+00 7.52722E+00 5.74493E+00 2.69800E-08-1.37623E-02
 -1     22550 5.55836E+00 5.55325E+00 5.55484E+00 5.68262E+00-8.31883E-05-5.52490E-03
 -1     22551 1.01487E+01 1.01447E+01 1.01447E+01 4.52295E+00-8.04794E-08 1.28703E-01
 -1     22552 7.97411E+00 7.97092E+00 7.97092E+00 3.02345E+00 1.70967E-07 1.92739E-02
 -1     22553 9.91729E+00 9.91338E+00 9.91341E+00 1.44081E+00-2.09170E-02 5.43641E-02
 -1     22554-8.47042E-01-8.46699E-01-8.46702E-01-1.47147E-01 1.31992E-07 2.86895E-02
 -1     22555 1.70168E+01 1.70100E+01 1.70100E+01-1.60873E+00 9.44662E-08 5.22769E-02
 -1     22556 1.14561E+01 1.14484E+01 1.14453E+01-7.53090E-01-3.93878E-04 3.98108E-02
 -1     22557 7.29978E+00 7.29236E+00 7.28784E+00 2.55513E+00-2.35235E-03 1.80108E-02
 -1     22558 1.22087E+01 1.22020E+01 1.22000E+01 4.07211E+00-6.52507E-03 1.33427E-02
 -1     22559 1.10506E+01 1.10462E+01 1.10462E+01 5.24538E+00 1.10328E-07 3.11962E-02
 -1     22560 9.36856E+00 9.36482E+00 9.36481E+00 5.50338E+00-5.30977E-08-6.30804E-05
 -1     22561 7.87601E+00 7.87237E+00 7.87247E+00 5.67592E+00-2.03717E-03-9.82183E-03
 -1     22562-3.95502E+00-3.95343E+00-3.95343E+00-9.64132E-01-4.59684E-08 6.39502E-03
 -1     22563 1.91078E+01 1.91001E+01 1.91001E+01-2.06050E+00 3.63797E-08 2.84748E-02
 -1     22564 2.10249E+00 2.09801E+00 2.09462E+00-2.10106E+00-5.39018E-04 4.29725E-05
 -1     22565 1.21067E+01 1.21018E+01 1.21018E+01 5.41201E+00-2.48002E-08-5.98998E-03
 -1     22566 5.35211E+00 5.34997E+00 5.34997E+00 5.60379E+00 7.83373E-08 3.80814E-02
 -1     22567 7.29871E+00 7.29843E+00 7.29130E+00 5.78068E+00 5.98531E-03 8.36643E-03
 -1     22568 3.61071E+00 3.61520E+00 3.61079E+00 5.72448E+00 2.31622E-02-2.82504E-02
 -1     22569 6.30143E+00 6.30485E+00 6.31075E+00 6.74402E-01-7.26292E-03 5.60014E-02
 -1     22570 8.42550E+00 8.42213E+00 8.42213E+00 2.25828E+00 1.30892E-07-1.13011E-02
 -1     22571 1.75041E+01 1.74971E+01 1.74971E+01 3.80613E+00-6.73035E-08 4.23771E-02
 -1     22572 2.62634E+00 2.62529E+00 2.62529E+00 4.79860E+00 3.10020E-08 3.26853E-02
 -1     22573-1.51399E+01-1.51339E+01-1.51338E+01-5.54075E-01-4.27865E-07 1.54293E-01
 -1     22574 1.35282E+01 1.35263E+01 1.35298E+01 3.33297E+00-4.96524E-03 2.23611E-02
 -1     22575 1.28904E+01 1.28852E+01 1.28852E+01-1.61845E+00 9.26910E-08 3.98047E-02
 -1     22576 5.31383E+00 5.31171E+00 5.31170E+00 1.74991E+00-2.84360E-07-2.29103E-02
 -1     22577 1.30111E+01 1.30059E+01 1.30059E+01 1.14742E-01 4.16422E-08-1.44184E-02
 -1     22578 2.03603E+00 2.03522E+00 2.03522E+00 9.11561E-01-3.23306E-08 5.09529E-02
 -1     22579 5.66544E+00 5.66119E+00 5.66216E+00 5.82322E+00 5.22132E-04 9.18414E-03
 -1     22580-4.32338E+00-4.32164E+00-4.32164E+00 4.05647E-01 3.22663E-08 3.14527E-02
 -1     22581 1.00791E+01 1.00750E+01 1.00750E+01 7.97596E-01-4.73427E-09 4.59267E-02
 -1     22582 6.38972E+00 6.38716E+00 6.38716E+00 5.56484E+00-2.37934E-07 1.46259E-02
 -1     22583 6.72282E+00 6.72037E+00 6.71805E+00 5.50526E+00-2.11075E-03 7.94444E-04
 -1     22584 9.98194E+00 9.96268E+00 9.97803E+00 5.35648E+00 3.53972E-03-2.39318E-02
 -1     22585 7.73931E+00 7.73021E+00 7.73362E+00 4.97194E+00 9.86264E-05 5.77030E-02
 -1     22586 9.96414E+00 9.95863E+00 9.97738E+00 4.63165E+00 4.15468E-03 9.43801E-02
 -1     22587 9.24220E+00 9.23488E+00 9.23417E+00 1.18946E+00 2.30100E-03 5.99770E-02
 -1     22588 8.16117E+00 8.14230E+00 8.17226E+00 1.59354E+00 3.14604E-03 3.42848E-02
 -1     22589 4.08522E+00 4.07929E+00 4.09229E+00 3.56916E+00-7.93036E-03 5.08167E-02
 -1     22590 7.39999E+00 7.39388E+00 7.40053E+00 3.95440E+00 7.62324E-04 2.18852E-02
 -1     22591 8.93675E+00 8.93205E+00 8.92477E+00-4.50596E-01 6.32648E-03-6.30647E-03
 -1     22592 1.26500E+01 1.26349E+01 1.26537E+01-1.86631E-02 1.78286E-03 8.73813E-03
 -1     22593 1.03315E+01 1.03320E+01 1.03350E+01 2.02863E+00-4.55365E-03-1.66238E-02
 -1     22594 1.20262E+00 1.20214E+00 1.20214E+00 2.40260E+00 1.70362E-07 2.77122E-03
 -1     22595-1.77781E+01-1.77796E+01-1.77758E+01-1.88569E+00 4.05677E-03 3.87525E-02
 -1     22596 3.19884E+00 3.21826E+00 3.19306E+00-1.67730E+00 3.66059E-03 7.59358E-02
 -1     22597 5.41092E+00 5.39832E+00 5.40270E+00-2.09830E+00 3.36704E-03 1.47702E-02
 -1     22598-1.00733E+01-1.00676E+01-1.00660E+01-2.23701E+00 6.82048E-03-1.73175E-02
 -1     22599 7.03998E+00 7.05045E+00 7.02244E+00-2.32030E+00 1.55124E-02 1.59179E-02
 -1     22600 1.09536E+01 1.09492E+01 1.09492E+01 3.17098E+00 1.46880E-07 2.52794E-02
 -1     22601-3.97424E+01-3.97265E+01-3.97265E+01-9.75135E-01 4.89327E-08-1.16928E-01
 -1     22602-8.91807E+00-8.90308E+00-8.90292E+00-1.65073E+00 6.10792E-03 3.56906E-02
 -1     22603-5.83969E+01-5.81302E+01-5.86564E+01 1.27078E+00-2.78217E-01-4.77334E-01
 -1     22604 6.90319E+00 6.90043E+00 6.90043E+00 5.73865E+00 2.54263E-08-1.27689E-02
 -1     22605 3.53364E+00 3.53093E+00 3.53158E+00 5.31395E+00 5.90274E-03 2.16478E-02
 -1     22606 1.18322E+01 1.18329E+01 1.18272E+01 2.78480E+00 1.76817E-03 1.49908E-02
 -1     22607 6.40565E+00 6.37723E+00 6.43159E+00 4.29983E+00-3.02940E-02 5.29148E-02
 -1     22608 1.75992E+00 1.68531E+00 1.72362E+00-1.31520E+00 4.83978E-03 2.11060E-02
 -1     22609-2.52101E+00-2.52000E+00-2.52000E+00 5.17537E+00 1.65581E-07 4.82438E-02
 -1     22610-4.36766E+01-4.35101E+01-4.35694E+01-1.92054E-01-3.63180E-02-2.74120E-02
 -1     22611 5.32524E+00 5.32311E+00 5.32311E+00 5.61815E+00-1.69891E-07 1.36929E-02
 -1     22612 6.30030E+00 6.29740E+00 6.29728E+00 5.65826E+00 1.62222E-04 4.36278E-02
 -1     22613 5.02230E+00 5.03297E+00 5.00748E+00 5.66787E+00 2.40169E-03-1.99736E-02
 -1     22614 5.83183E-01 5.82954E-01 5.82952E-01-8.62913E-01-8.92537E-08 1.11611E-02
 -1     22615 4.56300E+00 4.58564E+00 4.59528E+00 5.64647E+00 2.07938E-02 7.78519E-03
 -1     22616 5.03647E+00 8.06451E+00 7.09299E+00 7.04975E+00-2.17050E-01 8.04218E-02
 -1     22617 3.29364E+00 8.26291E+00 5.56614E+00 6.51846E+00 1.60049E-02-7.39446E-02
 -1     22618 8.55008E+00 8.69868E+00 8.52295E+00 9.36228E+00 6.98314E-02 8.54818E-02
 -1     22619 7.81922E+00 8.19179E+00 7.87338E+00 8.87822E+00-2.47067E-02 2.54710E-02
 -1     22620 1.08409E+01 9.98950E+00 1.04158E+01 1.05976E+01 8.15530E-04 3.61716E-02
 -1     22621 9.91066E+00 9.06276E+00 9.54812E+00 1.03323E+01-2.28784E-02 6.35632E-03
 -1     22622 1.18405E+01 1.03729E+01 1.10623E+01 1.13061E+01-4.40951E-03 2.24581E-02
 -1     22623 1.08076E+01 9.36366E+00 1.00511E+01 1.11497E+01-1.56863E-02-1.67286E-02
 -1     22624 1.19237E+01 1.01062E+01 1.09450E+01 1.16526E+01 1.12400E-02-3.28053E-03
 -1     22625 1.23751E+01 1.04952E+01 1.13732E+01 1.15622E+01-1.63338E-04 7.40803E-03
 -1     22626 1.26382E+01 1.06481E+01 1.16620E+01 1.18091E+01-3.81717E-03 2.27921E-02
 -1     22627 1.30711E+01 1.10800E+01 1.20472E+01 1.18159E+01-5.82657E-03-4.22403E-03
 -1     22628 1.23969E+01 1.02348E+01 1.13261E+01 1.17813E+01-3.59801E-04-1.12016E-02
 -1     22629 1.21310E+01 9.92273E+00 1.10337E+01 1.18139E+01-3.68256E-03-1.23727E-02
 -1     22630 1.09909E+01 8.60518E+00 9.75899E+00 1.14692E+01-2.47165E-02 2.99587E-02
 -1     22631 1.27507E+01 1.03790E+01 1.15260E+01 1.15362E+01-3.41031E-03 2.80636E-02
 -1     22632 1.21008E+01 9.58767E+00 1.07766E+01 1.08659E+01-6.54347E-03-1.66369E-02
 -1     22633 1.31828E+01 1.05580E+01 1.18747E+01 1.10540E+01-2.08374E-02 8.74264E-03
 -1     22634 1.17482E+01 9.11982E+00 1.03476E+01 9.96458E+00-8.32691E-03-3.91553E-02
 -1     22635 1.18600E+01 9.11346E+00 1.04178E+01 1.02710E+01-1.79528E-02 4.98552E-03
 -1     22636 1.10774E+01 8.40446E+00 9.69838E+00 8.81921E+00-4.32854E-03-9.05494E-03
 -1     22637 1.09942E+01 8.24998E+00 9.57946E+00 9.17206E+00-1.55239E-02 9.84422E-03
 -1     22638 8.15299E+00 5.59162E+00 6.79463E+00 7.50710E+00 2.52492E-02-2.86058E-02
 -1     22639 1.05554E+01 8.01839E+00 9.29907E+00 7.87687E+00-3.47029E-02-1.10528E-02
 -1     22640 8.12874E+00 6.02823E+00 7.11666E+00 6.34927E+00-3.44951E-02 1.01930E-02
 -1     22641 7.36850E+00 5.24398E+00 6.32311E+00 6.66274E+00-6.57682E-03 7.60339E-03
 -1     22642 6.55275E+00 4.97772E+00 5.74181E+00 5.43997E+00 2.07799E-02 2.53342E-02
 -1     22643 7.20948E+00 5.64687E+00 6.37199E+00 5.65301E+00-8.89342E-03 2.13839E-02
 -1     22644 5.77229E+00 4.81689E+00 5.22261E+00 5.19498E+00-5.31549E-02-1.15142E-02
 -1     22645 6.03033E+00 5.02727E+00 5.55405E+00 5.19820E+00-2.84497E-02-2.67693E-02
 -1     22646 5.54168E+00 5.00353E+00 5.26603E+00 5.50310E+00-9.15937E-04-2.24886E-02
 -1     22647 6.77222E+00 6.31385E+00 6.55404E+00 5.38033E+00 2.49359E-03-5.80326E-03
 -1     22648 5.10200E+00 4.59643E+00 4.85292E+00 5.76416E+00-8.10513E-03-3.78498E-02
 -1     22649 8.63873E+00 8.57183E+00 8.65476E+00 5.57700E+00 1.55789E-02 6.33940E-04
 -1     22650 6.67694E+00 6.61138E+00 6.68281E+00 5.59560E+00-2.13725E-03-1.30520E-02
 -1     22651 8.82313E+00 8.61032E+00 8.66753E+00 5.43253E+00-3.35443E-02-1.12886E-02
 -1     22652 4.10494E+00 3.89181E+00 3.97904E+00 5.49867E+00-1.35629E-02-1.19009E-02
 -1     22653 1.54147E+01 1.46813E+01 1.50467E+01 4.75424E+00-2.58961E-02 1.18100E-02
 -1     22654 6.65442E+00 5.99676E+00 6.36459E+00 4.96745E+00 3.50295E-02 9.64906E-04
 -1     22655 5.54744E+00 4.39905E+00 5.02835E+00 3.54866E+00 7.64998E-03 5.83979E-03
 -1     22656 1.66715E+00 5.15947E-01 1.17831E+00 3.93779E+00 2.75259E-02 1.57148E-02
 -1     22657 4.61909E+00 3.11006E+00 3.82112E+00 2.03637E+00 1.02299E-01-3.53750E-02
 -1     22658-8.43592E+00-9.96955E+00-9.21905E+00 2.55303E+00 2.36837E-02-1.33272E-01
 -1     22659 5.16621E-01-6.96436E-01-2.03402E-01 5.51544E-01 6.11622E-03-2.09506E-02
 -1     22660 8.22881E+00 6.97322E+00 7.59890E+00 9.45271E-01 2.78013E-02 2.28246E-02
 -1     22661-9.84644E+00-1.09570E+01-1.03839E+01-7.09444E-01 2.44185E-02-5.08101E-02
 -1     22662 2.41222E+00 1.24355E+00 2.02189E+00-3.51438E-01-3.19096E-02 1.31431E-02
 -1     22663 3.98620E+00 3.65732E+00 4.00058E+00-1.58284E+00 1.45157E-01 5.58138E-02
 -1     22664-2.54821E+00-3.07308E+00-2.80914E+00-1.40947E+00-9.07329E-02-8.85516E-02
 -1     22665-6.83210E+00-5.67579E+00-6.41103E+00-1.16321E+00-2.78966E-01-1.22678E-01
 -1     22666-9.17972E+00-8.09810E+00-8.89662E+00-1.49596E+00 3.68105E-03-1.00568E-01
 -1     22667-4.67362E+01-4.21830E+01-4.48079E+01 2.58513E+00-1.90857E-03-2.56970E-01
 -1     22668 2.52216E+01 2.97797E+01 2.72079E+01 5.32528E-01-2.38667E-01 8.11037E-02
 -1     22669-8.68725E+00 1.65599E+01 4.20005E+00 4.74336E+00-1.16966E-01-1.64854E+00
 -1     22670-2.63124E+01-1.81768E+01-2.18374E+01 3.71724E+00 1.44776E-01-3.26744E-01
 -1     22671-1.29946E+02-1.16799E+02-1.23556E+02 3.05068E+00-2.32230E-03-4.48723E-01
 -1     22672-8.81739E+01-5.98372E+01-7.36457E+01-4.37465E+00-3.12963E-01-9.10675E-01
 -1     22673-1.75724E+01 2.00538E+00-7.99823E+00-6.25333E+00 1.02431E-01 1.55474E-01
 -1     22674-1.86419E+01 1.36550E+00-8.74711E+00-6.26683E+00 7.78832E-02 7.29843E-02
 -1     22675-1.94350E+01-2.22062E+00-1.08763E+01-6.18247E+00 2.48383E-02 2.96114E-02
 -1     22676-1.92932E+01-1.65443E+00-1.05479E+01-6.32613E+00 1.46923E-01 1.03300E-01
 -1     22677-1.82978E+01-1.83663E+00-1.00675E+01-6.00438E+00 3.26005E-02-1.20042E-02
 -1     22678-1.87286E+01-2.08372E+00-1.03787E+01-6.06845E+00 1.66972E-02-1.27491E-02
 -1     22679-1.78679E+01-1.86411E+00-9.85602E+00-5.89957E+00 4.91820E-03 1.49413E-03
 -1     22680-1.83612E+01-2.28101E+00-1.03335E+01-5.94231E+00-5.85758E-03 4.04062E-03
 -1     22681-1.73096E+01-1.68548E+00-9.49127E+00-5.74015E+00-1.16582E-02-1.11048E-02
 -1     22682-1.79370E+01-2.22856E+00-1.00742E+01-5.78258E+00-1.54282E-02-1.26000E-02
 -1     22683-1.66546E+01-1.53483E+00-9.06254E+00-5.49920E+00-1.23438E-02-2.66686E-02
 -1     22684-1.69971E+01-1.71534E+00-9.35868E+00-5.51792E+00-7.40622E-03-1.92848E-03
 -1     22685-1.49186E+01-3.89896E-01-7.65752E+00-5.15800E+00 6.23584E-03-4.25191E-04
 -1     22686-1.58771E+01-1.18755E+00-8.53262E+00-5.20103E+00-2.66167E-02 2.21708E-03
 -1     22687-1.44420E+01-9.99837E-01-7.67350E+00-4.60857E+00-1.60818E-02 1.97148E-02
 -1     22688-1.41013E+01-3.61732E-01-7.25594E+00-4.70294E+00-2.00430E-02-2.48050E-03
 -1     22689-1.28669E+01-9.58838E-01-6.98851E+00-3.92671E+00 2.22496E-02 6.14706E-02
 -1     22690-1.31643E+01-8.34702E-01-6.98386E+00-4.07321E+00 4.52720E-02-4.33163E-03
 -1     22691-1.05018E+01-8.13255E-01-5.61855E+00-2.92600E+00 2.24244E-02 3.71531E-02
 -1     22692-1.11856E+01-7.95933E-01-5.93113E+00-3.21948E+00 2.44152E-02-3.76006E-03
 -1     22693-5.05260E+00 2.34821E+00-1.32167E+00-2.05653E+00 6.73719E-02 1.95887E-02
 -1     22694-7.01282E+00 9.97901E-01-2.99573E+00-2.36922E+00-2.23347E-03 4.08769E-02
 -1     22695 3.38227E+00 8.13669E+00 5.20746E+00 6.45338E-02 1.78012E-01 2.53064E-01
 -1     22696-5.51207E+00 5.30930E-01-2.60312E+00-7.20597E-01 1.33201E-01 1.69643E-01
 -1     22697-4.51570E+00 2.39660E+00-1.73915E+00 2.46466E+00-3.87496E-01 1.00566E+00
 -1     22698 6.00680E-01 9.83131E+00 4.88457E+00 5.06621E+00 4.19188E-02-3.03105E-01
 -1     22699-1.77870E+01-9.16301E+00-1.36300E+01 4.87561E+00-1.29155E-02-3.49945E-01
 -1     22700 7.51247E-01 1.20115E+01 6.89970E+00 6.45185E+00 2.86875E-01 2.71306E-01
 -1     22701-3.77668E+00 7.97910E+00 2.05735E+00 6.38306E+00 3.41937E-01 1.06662E-01
 -1     22702 3.84538E-01 1.03066E+01 5.20535E+00 7.13869E+00 1.13814E-01-1.38006E-01
 -1     22703-7.56906E+00 3.16748E+00-2.37885E+00 6.89045E+00 6.58868E-03 3.38263E-02
 -1     22704-5.62899E+00 1.82458E+00-1.94691E+00 7.14024E+00-1.27504E-01-2.13947E-01
 -1     22705 6.49457E+00 7.80678E+00 7.15552E+00 8.34813E+00-1.03003E-01 4.32041E-02
 -1     22706 4.71572E+00 6.13391E+00 5.63658E+00 7.54776E+00-1.32628E-01 4.50645E-02
 -1     22707 9.01865E+00 8.77540E+00 8.94006E+00 1.00183E+01-7.40709E-02 2.65968E-02
 -1     22708 9.17864E+00 8.52504E+00 8.83503E+00 9.57323E+00 2.17844E-02 1.04361E-02
 -1     22709 1.17033E+01 1.03911E+01 1.10740E+01 1.09776E+01 1.76136E-02 5.70828E-03
 -1     22710 1.00734E+01 8.81044E+00 9.44381E+00 1.07665E+01 3.56197E-02 1.97364E-02
 -1     22711 1.19876E+01 1.03085E+01 1.11236E+01 1.14856E+01 1.47872E-02 8.47164E-03
 -1     22712 1.19789E+01 1.03885E+01 1.12007E+01 1.13868E+01 1.17446E-02 2.38277E-02
 -1     22713 1.25498E+01 1.06954E+01 1.16047E+01 1.17325E+01-3.85758E-02-1.77759E-02
 -1     22714 1.17814E+01 9.90050E+00 1.07926E+01 1.17036E+01-2.36852E-02-2.30667E-02
 -1     22715 1.21169E+01 1.00322E+01 1.11510E+01 1.18182E+01 9.44593E-03 6.25297E-03
 -1     22716 1.22404E+01 1.01551E+01 1.12150E+01 1.18255E+01 2.00908E-02 3.38742E-03
 -1     22717 1.25233E+01 1.02369E+01 1.13648E+01 1.16291E+01 1.59883E-02-8.45655E-03
 -1     22718 1.23396E+01 1.00733E+01 1.11800E+01 1.17415E+01 1.55990E-02-2.25247E-02
 -1     22719 1.10039E+01 8.60723E+00 9.81806E+00 1.12066E+01-6.51059E-03-3.01845E-03
 -1     22720 1.30296E+01 1.06089E+01 1.17461E+01 1.14069E+01-1.71108E-02-4.26900E-03
 -1     22721 1.19272E+01 9.33249E+00 1.06892E+01 1.04572E+01-2.55064E-02 5.77397E-03
 -1     22722 1.22829E+01 9.66753E+00 1.09130E+01 1.06700E+01-4.02427E-02-6.13403E-03
 -1     22723 1.13296E+01 8.57487E+00 9.97787E+00 9.42366E+00-2.10236E-02-2.22116E-05
 -1     22724 1.11470E+01 8.42133E+00 9.70994E+00 9.70855E+00-2.86535E-02-2.79526E-02
 -1     22725 1.08607E+01 8.20637E+00 9.60642E+00 8.17951E+00-4.99343E-02-3.82409E-03
 -1     22726 9.81286E+00 7.11733E+00 8.47361E+00 8.52330E+00-2.06125E-02 4.23613E-03
 -1     22727 8.55092E+00 6.27422E+00 7.41206E+00 6.90080E+00-2.11598E-02 3.30733E-02
 -1     22728 8.26670E+00 5.81393E+00 6.96861E+00 7.21294E+00-4.13191E-03 3.21907E-03
 -1     22729 7.24925E+00 5.38979E+00 6.35035E+00 5.84586E+00-7.59044E-03 2.11469E-04
 -1     22730 7.30265E+00 5.43852E+00 6.35108E+00 6.10842E+00 3.33204E-03-1.55705E-02
 -1     22731 6.21545E+00 4.97086E+00 5.63232E+00 5.24116E+00 7.15509E-03-3.01498E-02
 -1     22732 5.49137E+00 4.19939E+00 4.77497E+00 5.37675E+00 1.56939E-02 7.61660E-03
 -1     22733 6.35019E+00 5.69411E+00 6.02614E+00 5.31855E+00-2.61983E-02 1.23695E-02
 -1     22734 6.04809E+00 5.32556E+00 5.65640E+00 5.25472E+00-3.33204E-02 3.92476E-03
 -1     22735 4.53568E+00 4.36482E+00 4.41444E+00 5.67869E+00 1.61382E-03-8.88308E-03
 -1     22736 7.98917E+00 7.33622E+00 7.67414E+00 5.63721E+00-5.83449E-03-4.00629E-02
 -1     22737 5.14207E+00 4.63275E+00 4.88747E+00 5.55824E+00-8.68944E-03-2.22439E-02
 -1     22738 3.19293E+00 3.06653E+00 3.17926E+00 5.57612E+00 1.28742E-02 2.88028E-02
 -1     22739 5.60576E+00 5.39929E+00 5.47715E+00 5.52131E+00 2.45915E-03 1.21849E-02
 -1     22740 5.62370E+00 5.51673E+00 5.56518E+00 5.63425E+00-1.57723E-02 3.83024E-03
 -1     22741 5.84718E+00 5.54134E+00 5.72580E+00 5.43736E+00-4.41531E-03 5.44857E-03
 -1     22742 9.96819E+00 9.82253E+00 9.84951E+00 5.55882E+00-7.47450E-04 3.32773E-03
 -1     22743 3.86377E+00 3.30028E+00 3.62552E+00 5.16235E+00 2.41067E-02 7.45265E-03
 -1     22744 1.05641E+00 5.42150E-01 8.50978E-01 5.32216E+00-4.96112E-02-3.42231E-03
 -1     22745 1.24333E+01 1.14049E+01 1.18684E+01 4.15094E+00-2.12195E-02-2.18760E-02
 -1     22746 5.50053E+00 4.43734E+00 5.04292E+00 4.51578E+00-4.43576E-02-2.26015E-02
 -1     22747 7.73107E+00 6.40091E+00 7.03776E+00 2.89944E+00 3.32047E-03-8.77522E-02
 -1     22748-6.03917E-02-1.24896E+00-6.41240E-01 3.25405E+00-7.30699E-03-4.40300E-02
 -1     22749-8.00462E+00-9.30790E+00-8.60722E+00 1.27902E+00 2.93969E-02 1.25015E-03
 -1     22750 4.92108E+00 3.57268E+00 4.14806E+00 1.65330E+00 7.69103E-02-6.17339E-02
 -1     22751-7.93010E+00-9.09537E+00-8.50387E+00-1.16583E-01-9.36730E-02 4.58625E-02
 -1     22752-2.28991E+00-3.52570E+00-2.84665E+00 2.43932E-01-2.74865E-02-2.11275E-02
 -1     22753-1.50865E+01-1.57741E+01-1.53888E+01-1.19899E+00-1.36723E-01 2.37101E-02
 -1     22754 7.80970E+00 7.08399E+00 7.35271E+00-1.02344E+00-4.44074E-02-4.58822E-02
 -1     22755-1.05937E+01-1.04427E+01-1.05268E+01-1.60046E+00 2.16901E-01 6.68927E-02
 -1     22756 7.07773E-01 7.02938E-01 8.48221E-01-1.60772E+00 2.04111E-01 1.72114E-01
 -1     22757 4.35679E+01 4.53627E+01 4.53071E+01-1.38306E-01 3.19962E-01 1.67132E-01
 -1     22758-1.75319E+01-1.56980E+01-1.66645E+01-6.00779E-01-2.84687E-02-2.02532E-01
 -1     22759-1.96723E+01-2.76622E+00-1.13166E+01-6.08609E+00-9.55802E-03 1.99798E-02
 -1     22760-1.69355E+01-4.46741E-01-8.70181E+00-5.65725E+00-7.54515E-03 3.37540E-02
 -1     22761-1.92321E+01-2.41672E+00-1.08653E+01-6.10374E+00 1.25427E-02 8.65688E-03
 -1     22762-2.20755E+01-9.14573E-01-1.07372E+01-7.13134E+00 2.69822E-01-3.45098E-02
 -1     22763-5.40154E+01-3.61077E+01-4.58645E+01-7.92134E+00-1.87213E+00 4.80745E-01
 -1     22764-2.78307E+01-9.73027E+00-1.89065E+01-6.25867E+00 2.57006E-01 8.10728E-02
 -1     22765-2.33780E+01-4.86499E+00-1.43782E+01-6.41091E+00 1.36322E-01 1.17326E-01
 -1     22766-1.66913E+01-8.14984E-01-8.74247E+00-5.52097E+00 1.03918E-02 3.99773E-05
 -1     22767 2.82798E+01 5.62493E+01 3.94265E+01-2.68985E+00-2.06676E+00-4.90596E-01
 -1     22768-1.80354E+01-1.80394E+00-9.91658E+00-5.96474E+00-4.56497E-04-3.52026E-03
 -1     22769-1.83981E+01-2.09710E+00-1.02434E+01-5.99459E+00 1.66724E-02-1.20415E-02
 -1     22770-1.74308E+01-1.67479E+00-9.54695E+00-5.81705E+00-2.31947E-02-1.19498E-02
 -1     22771-1.83740E+01-2.49445E+00-1.04211E+01-5.84473E+00-1.44843E-02-3.09284E-03
 -1     22772-1.69870E+01-1.57468E+00-9.29097E+00-5.61967E+00-2.04322E-03 1.11952E-03
 -1     22773-1.73330E+01-1.81966E+00-9.58199E+00-5.68468E+00 1.14469E-03-1.90045E-02
 -1     22774-1.57802E+01-8.85058E-01-8.29912E+00-5.30127E+00-2.00083E-02 9.79101E-03
 -1     22775-1.64175E+01-1.38024E+00-8.86959E+00-5.40531E+00 2.43817E-03-2.40778E-02
 -1     22776-1.51552E+01-1.11005E+00-8.19589E+00-4.83630E+00-9.03342E-03 2.34802E-02
 -1     22777-1.40393E+01 3.00513E-01-6.92531E+00-5.00101E+00-4.68217E-04 3.15296E-03
 -1     22778-1.26175E+01 1.27366E-01-6.22058E+00-4.24465E+00-4.74676E-03 2.53241E-02
 -1     22779-1.41246E+01-9.23349E-01-7.46490E+00-4.43848E+00-1.10269E-03 5.23545E-02
 -1     22780-1.08729E+01 9.44009E-02-5.45054E+00-3.45904E+00 6.17253E-02 5.94100E-02
 -1     22781-1.16566E+01-1.68601E-01-6.01796E+00-3.63629E+00 4.07072E-02 5.91409E-02
 -1     22782-7.20336E+00 1.56044E+00-2.69482E+00-2.71063E+00 5.75009E-02-1.45331E-02
 -1     22783-9.05994E+00-2.41378E-02-4.52484E+00-2.71486E+00 9.73163E-03-1.01624E-02
 -1     22784-4.14582E-01 6.21157E+00 3.01135E+00-1.67304E+00-2.11525E-02 4.13506E-02
 -1     22785-6.05688E+00 5.02267E-01-3.25649E+00-1.55685E+00-1.27728E-01 6.21667E-02
 -1     22786 1.02115E+01 1.08158E+01 1.05838E+01 9.37460E+00-3.56351E-02-7.74970E-03
 -1     22787-3.33641E+00 7.61620E+00 1.59064E+00 5.67531E+00 4.54434E-02-1.33419E-01
 -1     22788 5.94364E+00 1.21922E+01 8.69304E+00 3.87642E+00 1.56510E-02-2.23221E-01
 -1     22789 6.98286E+00 9.98965E+00 8.45263E+00 8.16796E+00-5.91248E-02 4.71759E-02
 -1     22790 1.08737E+01 1.97636E+01 1.49756E+01 5.57720E+00-2.04887E-02-4.98011E-02
 -1     22791-2.61712E+00 8.72501E+00 3.41505E+00 5.90190E+00 2.81387E-01-2.37038E-02
 -1     22792-2.54093E+00 8.30574E+00 2.81290E+00 6.93175E+00 3.14509E-02 2.61763E-01
 -1     22793-1.75313E+00 9.80823E+00 3.90677E+00 6.87009E+00 1.95084E-01 9.59733E-02
 -1     22794 2.26501E+00 1.05069E+01 6.16589E+00 7.62456E+00-5.01681E-02-1.57766E-01
 -1     22795-5.37477E-01 7.64713E+00 3.95363E+00 7.38557E+00-1.88030E-01 5.45457E-02
 -1     22796-2.29868E+00 6.97475E+00 2.35066E+00 7.50642E+00-1.92646E-02 1.02832E-01
 -1     22797 1.29373E+01 1.16728E+01 1.23039E+01 1.06680E+01-4.43337E-03 4.22611E-03
 -1     22798 1.10648E+01 1.04037E+01 1.07630E+01 1.01946E+01 2.61242E-02 1.87520E-02
 -1     22799 3.72848E+00 9.20768E+00 6.47821E+00 7.12391E+00 1.41785E-01 5.39448E-02
 -1     22800 1.97415E+01 2.12742E+01 2.06069E+01 8.74674E+00-4.12810E-02 2.82179E-02
 -1     22801 1.08346E+01 1.06123E+01 1.07702E+01 9.88056E+00 4.37380E-02 1.90554E-02
 -1     22802 1.20628E+01 1.11227E+01 1.15629E+01 1.04687E+01 1.84854E-03 5.91671E-03
 -1     22803 1.23004E+01 1.08653E+01 1.16244E+01 1.07877E+01-3.24554E-02-1.08782E-02
 -1     22804 1.28071E+01 1.09706E+01 1.18850E+01 1.10044E+01 4.69862E-03-1.01038E-02
 -1     22805 1.31533E+01 1.09221E+01 1.19845E+01 1.09790E+01 7.24333E-03-2.04015E-02
 -1     22806 1.26932E+01 1.00457E+01 1.13558E+01 1.06654E+01-2.58140E-02 2.84504E-02
 -1     22807 1.45036E+01 1.13879E+01 1.29128E+01 1.01235E+01-2.16377E-02-6.24857E-03
 -1     22808 1.21087E+01 8.56322E+00 1.02904E+01 9.30413E+00-1.80201E-02-1.78235E-02
 -1     22809 1.01557E+01 6.46867E+00 8.29106E+00 8.27160E+00-1.50813E-02-5.23177E-03
 -1     22810 1.05518E+01 7.05340E+00 8.75887E+00 7.13390E+00 1.03619E-03-1.58575E-02
 -1     22811 6.71393E+00 3.89676E+00 5.31502E+00 6.17669E+00-2.95877E-02-2.09396E-02
 -1     22812 5.69564E+00 3.88165E+00 4.75088E+00 5.49360E+00 9.80154E-04 5.39941E-03
 -1     22813 3.63168E+00 2.82381E+00 3.23027E+00 5.36723E+00-1.90009E-02-1.44637E-02
 -1     22814 5.96942E+00 5.20008E+00 5.62111E+00 5.23923E+00-1.93574E-02 9.98267E-04
 -1     22815 9.72152E+00 8.02763E+00 8.91618E+00 4.60161E+00-1.24377E-01 3.73031E-03
 -1     22816 1.16915E+01 9.43953E+00 1.06443E+01 3.56909E+00 5.04716E-02-2.55651E-02
 -1     22817 1.77912E+01 1.51220E+01 1.64868E+01 2.26013E+00 6.61495E-02-1.92935E-02
 -1     22818 1.55839E+01 1.33400E+01 1.45340E+01 8.96368E-01-3.17034E-03-8.82911E-03
 -1     22819 7.88569E+00 6.13410E+00 7.02936E+00-1.68255E-01-4.63382E-02-4.42579E-02
 -1     22820-8.78126E+00-9.42489E+00-9.24437E+00-8.22196E-01 7.99879E-03 1.30986E-01
 -1     22821-1.99059E+01-1.63018E+01-1.80119E+01-1.76755E-01-1.48735E-01-2.45090E-01
 -1     22822-1.80275E+01 4.08866E-01-8.54727E+00-5.52429E+00 2.38100E-01 1.56317E-01
 -1     22823-1.66819E+01-1.14769E+00-8.89191E+00-5.47751E+00 2.90534E-02-7.92132E-03
 -1     22824-1.62892E+01-1.36685E+00-8.83314E+00-5.34382E+00-8.96947E-03-1.70306E-03
 -1     22825-1.66516E+01-2.18642E+00-9.40837E+00-5.14865E+00 1.60816E-03-9.56860E-03
 -1     22826-1.62750E+01-2.29456E+00-9.25213E+00-4.78853E+00-1.07520E-02 9.02208E-03
 -1     22827-1.61904E+01-2.89888E+00-9.48127E+00-4.31283E+00 3.12843E-02 1.39370E-02
 -1     22828-1.51401E+01-2.84557E+00-8.93920E+00-3.65413E+00-1.56450E-02-2.71050E-03
 -1     22829-1.43793E+01-3.40570E+00-8.88122E+00-2.91148E+00 3.24199E-02-1.68931E-02
 -1     22830-1.58884E+01-7.28248E+00-1.17791E+01-1.71795E+00-7.38030E-02-2.73967E-02
 -1     22831-1.21713E+01-6.01503E+00-9.36781E+00-2.00720E-01-6.93649E-02 3.50454E-02
 -1     22832 3.06953E+00 1.25398E+01 7.86065E+00 6.64328E+00 6.70833E-02 7.46762E-02
 -1     22833-1.56259E+00 7.74483E+00 3.14208E+00 7.78136E+00-6.52940E-02 7.24899E-02
 -1     22834 1.30568E+01 1.14215E+01 1.22431E+01 1.09554E+01-1.51436E-02-2.22381E-02
 -1     22835 1.29794E+01 1.09207E+01 1.19595E+01 1.09739E+01 1.35038E-02-8.50432E-03
 -1     22836 1.32213E+01 1.07187E+01 1.19126E+01 1.08403E+01-8.56889E-03-8.00804E-03
 -1     22837 1.32735E+01 1.03921E+01 1.18210E+01 1.04944E+01-6.44111E-03 6.91061E-03
 -1     22838 1.33470E+01 9.97153E+00 1.16913E+01 9.80058E+00-2.26753E-02-2.19335E-03
 -1     22839 1.21858E+01 8.50876E+00 1.03227E+01 8.81939E+00-1.97794E-02-1.04137E-02
 -1     22840 9.89168E+00 6.27568E+00 8.08699E+00 7.72201E+00-1.82076E-02 1.75450E-02
 -1     22841 7.74185E+00 4.61893E+00 6.19514E+00 6.66938E+00-2.41416E-02 2.78914E-03
 -1     22842 6.89481E+00 4.51623E+00 5.69624E+00 5.75167E+00-2.01004E-02-1.71224E-02
 -1     22843 4.82518E+00 3.54620E+00 4.20400E+00 5.34485E+00 4.34087E-03 2.64159E-03
 -1     22844 4.36620E+00 4.00137E+00 4.16105E+00 5.46319E+00-3.17518E-04 1.75873E-02
 -1     22845 7.78968E+00 6.54119E+00 7.22609E+00 4.96873E+00-3.15065E-02-9.50295E-04
 -1     22846 1.39735E+01 1.12888E+01 1.25520E+01 1.57798E+00 5.29056E-03-5.72930E-03
 -1     22847 8.81024E+00 6.67855E+00 7.70182E+00 3.47102E-01-3.19137E-01 1.27238E-01
 -1     22848 6.64326E+00 5.55112E+00 6.24243E+00-6.05384E-01-1.06575E-01-6.18029E-02
 -1     22849-1.58097E+01-1.47014E+01-1.50819E+01-6.56417E-01 5.91738E-02 2.48157E-02
 -1     22850-1.58346E+01-1.00512E+01-1.27414E+01 8.68034E-01 4.38705E-01 3.16220E-01
 -1     22851-1.78925E+01-6.84221E-01-9.22207E+00-5.70849E+00 2.08515E-01 4.43690E-02
 -1     22852-1.64951E+01-2.24081E+00-9.37300E+00-4.97442E+00-5.52668E-03-1.49958E-02
 -1     22853-1.62704E+01-2.54777E+00-9.42491E+00-4.57932E+00-1.72275E-02 9.77804E-03
 -1     22854-1.54059E+01-2.53151E+00-8.94578E+00-3.96989E+00-2.80010E-02 1.70042E-02
 -1     22855-1.39760E+01-2.31856E+00-8.17716E+00-3.28098E+00-1.30502E-02 2.01508E-02
 -1     22856-1.27785E+01-2.86011E+00-7.84067E+00-2.29132E+00 6.84599E-02-2.74975E-02
 -1     22857-1.56340E+01-8.25292E+00-1.19486E+01-1.06348E+00 6.87271E-03-4.62285E-02
 -1     22858-4.13950E+00 9.18628E-01-1.19936E+00 1.64431E+00 5.43825E-02-1.66532E-01
 -1     22859 4.58344E+00 1.46171E+01 1.00879E+01 7.32941E+00-1.47107E-01 1.70961E-01
 -1     22860 1.01878E+01 7.68299E+00 9.00703E+00 3.01773E+00-4.69163E-03-1.05636E-01
 -1     22861 9.67841E+00 7.76773E+00 8.71338E+00 4.09412E+00-8.66376E-02 2.71817E-02
 -1     22862-2.58373E+01-5.23982E+00-1.44354E+01-5.60646E+00 3.07756E-01-1.70428E-01
 -1     22863-1.71921E+01-2.50641E+00-9.85300E+00-5.25611E+00-1.40756E-02-3.75548E-03
 -1     22864-1.67817E+01-1.59526E+00-9.19248E+00-5.42687E+00-6.99998E-03-2.25872E-03
 -1     22865 8.71135E+00 9.29451E+00 8.99963E+00 9.08756E+00 4.80255E-02 2.38816E-02
 -1     22866 6.80512E+00 7.55012E+00 7.17177E+00 8.93151E+00 6.27627E-02-2.16855E-02
 -1     22867-3.67844E+00 2.58281E+00-4.94587E-01 2.70560E+00 4.64115E-02-1.08226E-01
 -1     22868 9.32897E+00 8.92825E+00 9.16780E+00 9.68920E+00-1.11489E-02 2.67865E-03
 -1     22869 9.11502E+00 8.83110E+00 8.95494E+00 9.61264E+00-1.02676E-02-1.74980E-03
 -1     22870 2.88660E+00 8.87920E+00 5.88672E+00 7.51812E+00-2.75107E-02-4.69152E-02
 -1     22871 1.42187E+00 8.95609E+00 5.03619E+00 7.37398E+00-3.83958E-02-1.52225E-01
 -1     22872 1.07424E+01 9.59370E+00 1.02819E+01 9.99018E+00-5.52886E-02 6.14939E-03
 -1     22873 1.01878E+01 9.22421E+00 9.79277E+00 9.96508E+00-1.92761E-02 4.02301E-03
 -1     22874 9.74034E+00 9.69293E+00 9.74383E+00 9.46846E+00-1.97255E-02 2.32695E-02
 -1     22875 7.50348E+00 7.68088E+00 7.67943E+00 9.27994E+00 2.22390E-02 6.68411E-02
 -1     22876 8.66871E+00 9.89556E+00 9.25365E+00 8.45184E+00-9.52250E-04-8.61249E-03
 -1     22877 8.99403E+00 9.50663E+00 9.24170E+00 8.72479E+00-3.54113E-03 3.14720E-03
 -1     22878 9.82633E+00 8.18537E+00 9.04296E+00 1.01988E+01 5.25293E-03-1.59027E-02
 -1     22879 1.03461E+01 8.73409E+00 9.57478E+00 1.01962E+01-1.02764E-02-1.37298E-02
 -1     22880 1.00755E+01 7.83679E+00 8.93156E+00 1.01854E+01 8.80697E-05-1.89113E-02
 -1     22881 1.11478E+01 9.00869E+00 1.00544E+01 1.02463E+01 1.92263E-04-8.76323E-03
 -1     22882 1.02041E+01 7.33228E+00 8.78838E+00 9.97438E+00-2.95761E-02 2.85129E-02
 -1     22883 1.12784E+01 8.55950E+00 9.97328E+00 1.00351E+01-2.99607E-02 5.61903E-02
 -1     22884 8.80148E+00 5.24040E+00 7.03043E+00 9.49536E+00-2.22342E-02 1.79294E-03
 -1     22885 1.04330E+01 6.95511E+00 8.73212E+00 9.64489E+00-2.59666E-02 1.03870E-02
 -1     22886 9.02141E+00 4.87180E+00 6.96879E+00 8.73262E+00-1.10396E-02 1.02528E-02
 -1     22887 9.88234E+00 5.81206E+00 7.89296E+00 8.97153E+00-1.92865E-02 2.25127E-02
 -1     22888 9.75907E+00 5.32120E+00 7.57288E+00 7.74826E+00-1.27599E-03 1.92282E-02
 -1     22889 9.65087E+00 5.20612E+00 7.42062E+00 8.02516E+00-1.66216E-02 1.33097E-02
 -1     22890 9.03872E+00 4.75467E+00 6.93425E+00 6.83194E+00-3.44405E-02 1.74851E-03
 -1     22891 8.18992E+00 3.82325E+00 6.01204E+00 7.04868E+00-8.71585E-03 1.47852E-02
 -1     22892 8.47092E+00 5.13500E+00 6.72454E+00 5.99469E+00 1.23625E-02-3.94976E-02
 -1     22893 7.87296E+00 4.24411E+00 6.05409E+00 6.20610E+00 1.97124E-02-6.55975E-03
 -1     22894 7.22297E+00 5.12652E+00 6.14598E+00 5.46516E+00-4.84685E-04-1.56387E-02
 -1     22895 7.54348E+00 5.15305E+00 6.36616E+00 5.54133E+00-3.18680E-02-7.68497E-04
 -1     22896 9.12480E+00 8.69372E+00 8.90368E+00 5.44941E+00-5.90701E-03 9.46442E-03
 -1     22897 8.59176E+00 7.29093E+00 7.92508E+00 5.17149E+00 2.43616E-03 7.16302E-03
 -1     22898 4.55392E+00 3.54381E+00 4.13373E+00 5.27068E+00-1.01812E-02 2.45629E-02
 -1     22899 5.85737E+00 5.63974E+00 5.76192E+00 5.55144E+00 2.80353E-02-1.73454E-02
 -1     22900 1.20598E+01 9.62849E+00 1.09610E+01 4.57046E+00 6.03751E-03-6.05154E-02
 -1     22901 5.14513E+00 2.95973E+00 4.09207E+00 4.76554E+00-1.82178E-02-6.86610E-03
 -1     22902 8.45074E+00 7.75997E+00 8.15565E+00 5.31573E+00-1.48304E-02 7.73637E-03
 -1     22903 2.32851E+00 1.73121E+00 2.06676E+00 5.38181E+00 3.48281E-03 2.40505E-02
 -1     22904 6.76627E+00 6.00129E+00 6.39433E+00 5.36866E+00-4.78354E-03-1.59487E-03
 -1     22905 7.77423E+00 6.46513E+00 7.08280E+00 5.33138E+00 1.49062E-02 9.53784E-03
 -1     22906 1.33167E+00-2.27362E+00-4.45605E-01 1.89314E+00 1.06655E-03-7.57347E-02
 -1     22907 8.43333E+00 4.62815E+00 6.52708E+00 2.26775E+00-8.39568E-03-3.91802E-02
 -1     22908 8.46698E+00 5.11222E+00 6.85044E+00 3.60330E+00 6.20807E-02-6.24241E-03
 -1     22909 8.80280E+00 5.62569E+00 7.24933E+00 3.82034E+00 8.33102E-02 9.72413E-03
 -1     22910-2.23954E+01-3.07041E+00-1.18421E+01-4.46251E+00 3.45949E-01 1.99526E-01
 -1     22911-3.54935E+01-1.45702E+01-2.36716E+01-4.21462E+00 3.15710E-01-3.14632E-01
 -1     22912 2.21883E-01-3.36220E+00-1.45296E+00 2.45758E+00 2.14694E-02-3.91633E-03
 -1     22913 5.76899E+00 2.27180E+00 4.22714E+00 2.75076E+00-6.36705E-03-8.58763E-02
 -1     22914 1.80018E+01 1.34952E+01 1.56985E+01 2.72681E+00-6.78509E-02 3.20520E-02
 -1     22915 6.79589E+00 3.95059E+00 5.30064E+00 4.07329E+00-3.15073E-02 3.10270E-02
 -1     22916 4.94709E+00 2.22326E+00 3.59554E+00 4.28198E+00-2.77660E-02 4.95050E-04
 -1     22917 9.72507E+00 6.52016E+00 8.14903E+00 4.49562E+00 9.04709E-03-1.09208E-02
 -1     22918 1.15030E+01 7.74637E+00 9.51191E+00 4.04349E+00 1.16210E-02 6.42682E-02
 -1     22919 2.58662E+00-3.92687E-01 1.04338E+00 8.61135E-01-4.16972E-02 1.21622E-02
 -1     22920 2.27005E+00-7.60384E-01 7.29382E-01 1.11135E+00-9.46143E-02 4.28928E-02
 -1     22921-1.84503E+01-1.99335E+01-1.90574E+01 1.28707E-01 9.15032E-02-2.99665E-02
 -1     22922 7.58203E+00 5.77241E+00 6.70299E+00 3.64284E-01 1.01101E-01-3.23645E-02
 -1     22923-5.63323E+00-3.36813E+00-4.95191E+00 3.84627E-01 9.59087E-02 2.71043E-01
 -1     22924 1.58588E+00 2.71376E+00 1.95449E+00 1.20929E-01 2.46225E-01 1.45054E-01
 -1     22925-1.71800E+01-6.69004E+00-1.26599E+01 9.91821E-01 1.84162E-01 3.86585E-01
 -1     22926-8.41118E+00-1.22008E+00-4.75514E+00 9.51820E-01-1.25351E-01 3.87067E-01
 -1     22927-2.22808E+01-5.71254E+00-1.38832E+01-5.03447E+00 4.78307E-02-3.40842E-02
 -1     22928-1.89845E+01-2.03950E+00-1.05693E+01-5.01954E+00 1.69227E-01 5.02565E-03
 -1     22929 1.33684E+01 3.70575E+01 2.48358E+01 2.19315E+00-1.38156E-02-8.57589E-01
 -1     22930 5.05360E+01 6.55762E+01 5.77996E+01 1.97191E+00 1.31712E-01-4.48643E-01
 -1     22931-6.48776E+01-4.93520E+01-5.70904E+01 9.20486E-01-1.86062E-02-4.38072E-02
 -1     22932-2.73383E+01-5.12479E+00-1.56665E+01-3.02970E+00 1.18537E-01-3.62582E-01
 -1     22933-1.50470E+01-1.38787E+00-8.21868E+00-4.65419E+00-5.04059E-03 5.06818E-03
 -1     22934-1.46313E+01-8.80247E-01-7.75290E+00-4.71853E+00-1.36426E-02 1.34260E-03
 -1     22935-1.60479E+01-1.48979E+00-8.75335E+00-4.91574E+00 1.09865E-02 5.48225E-03
 -1     22936-1.72959E+01-2.54918E+00-9.92056E+00-4.90842E+00 1.63705E-02 9.60913E-03
 -1     22937-1.37604E+01-5.87661E-01-7.18579E+00-4.31641E+00-1.71408E-02-1.28898E-02
 -1     22938-1.35337E+01-2.69106E-01-6.90129E+00-4.38571E+00-5.52743E-03-1.25537E-02
 -1     22939-1.72910E+01-2.29428E+00-9.76973E+00-4.93395E+00 1.18209E-02-4.45343E-03
 -1     22940-1.82304E+01-3.04399E+00-1.06236E+01-4.99080E+00 1.46030E-03 9.10695E-03
 -1     22941-1.42890E+01-2.82702E-01-7.30090E+00-4.37500E+00 1.66182E-02 1.58435E-02
 -1     22942-1.42556E+01-9.17603E-01-7.60719E+00-4.49753E+00 8.51454E-03-7.84042E-03
 -1     22943-1.46502E+01-1.11979E+00-7.88733E+00-4.55168E+00-3.23321E-03 5.85130E-03
 -1     22944-1.47882E+01-2.48216E+00-8.64779E+00-3.81679E+00-4.22570E-05 1.00318E-03
 -1     22945-1.15444E+01 1.04259E+00-5.29210E+00-3.84514E+00-5.72681E-03 1.67291E-02
 -1     22946-1.35041E+01-7.52199E-01-7.11981E+00-3.92699E+00-2.04736E-02 4.36191E-03
 -1     22947-1.06747E+01 1.27226E+00-4.70310E+00-3.13815E+00-3.97857E-02-3.95152E-03
 -1     22948-1.17873E+01 3.35545E-01-5.73118E+00-3.29407E+00-2.59742E-02-2.34049E-02
 -1     22949-1.20878E+01-1.20991E+00-6.75336E+00-2.25137E+00-2.00780E-02-3.98526E-03
 -1     22950-1.07602E+01 4.45852E-01-5.19580E+00-2.52607E+00-5.51027E-02 5.60392E-03
 -1     22951-6.99616E+00 1.84668E+00-2.80299E+00-1.01192E+00-1.11642E-01-2.21211E-02
 -1     22952-8.37411E+00 1.10080E+00-3.72500E+00-1.33512E+00-2.02822E-02-1.10041E-02
 -1     22953 1.71404E-01 6.55777E+00 3.41272E+00 6.91459E-01-1.57168E-02-1.58032E-02
 -1     22954-4.31848E+00 2.84270E+00-7.16252E-01 3.95751E-01-1.54598E-02-3.88525E-02
 -1     22955 6.59074E+00 1.19179E+01 9.36769E+00 1.88662E+00-4.48988E-02 4.64542E-02
 -1     22956-3.71833E+00 2.40044E+00-7.40727E-01 1.56532E+00 8.95636E-03-2.12465E-02
 -1     22957-9.35938E+00-3.30727E+00-6.34262E+00 2.67517E+00-1.54175E-02-3.62452E-02
 -1     22958-1.28676E+01-6.50475E+00-9.80058E+00 4.21732E+00-5.01718E-03-4.00359E-02
 -1     22959-2.04051E+00 6.44652E+00 2.27802E+00 6.24595E+00 4.63889E-02 7.46457E-03
 -1     22960-9.07371E+00-1.13861E+00-4.94470E+00 5.72348E+00 3.94646E-02 3.19690E-04
 -1     22961 7.65919E+00 9.07888E+00 8.40648E+00 8.77335E+00 2.81333E-02-2.48126E-02
 -1     22962 5.78988E+00 7.60617E+00 6.76207E+00 8.55940E+00-3.19119E-02-1.98134E-02
 -1     22963 7.67285E+00 9.78732E+00 8.71709E+00 8.11861E+00 5.56816E-02-4.62940E-02
 -1     22964 3.65749E+00 1.27037E+01 8.28061E+00 7.82999E+00-6.34846E-02 1.40768E-01
 -1     22965-2.96816E+00 6.30976E+00 1.61850E+00 7.60808E+00-2.15501E-02 9.70046E-03
 -1     22966-3.44805E+00 3.82910E+00 1.68698E-01 4.65513E+00-5.61196E-02-5.48594E-02
 -1     22967-2.70259E+00 5.97630E+00 1.71700E+00 7.79483E+00-1.06724E-01 4.83692E-02
 -1     22968 1.10358E+01 7.56490E+00 9.53100E+00 3.08006E+00-7.19469E-03-1.04107E-01
 -1     22969 7.11719E+00 3.81698E+00 5.58577E+00 3.35892E+00 1.71276E-02-4.60326E-02
 -1     22970 1.05411E+01 6.37971E+00 8.58146E+00 3.65923E+00 8.82660E-03 5.17893E-02
 -1     22971 1.70849E+01 1.28843E+01 1.51544E+01 3.12968E+00-1.87926E-02-4.80822E-02
 -1     22972 8.76544E+00 7.95363E+00 8.37919E+00 9.88859E+00 6.58573E-03 8.40953E-04
 -1     22973 9.32069E+00 8.68987E+00 9.04366E+00 9.76966E+00-6.75339E-03 5.62250E-03
 -1     22974 1.05726E+01 1.06284E+01 1.06718E+01 8.92634E+00-7.34103E-03 1.39913E-03
 -1     22975 1.09054E+01 1.05269E+01 1.07306E+01 9.10465E+00 1.27336E-03-8.87337E-03
 -1     22976 1.03961E+01 8.97420E+00 9.74428E+00 1.01482E+01-6.09863E-03-2.17736E-02
 -1     22977 9.17487E+00 7.92695E+00 8.58304E+00 1.00984E+01-1.06311E-02-3.19949E-02
 -1     22978 1.13186E+01 1.04873E+01 1.09006E+01 9.24733E+00 3.52907E-03-1.04933E-02
 -1     22979 1.18043E+01 1.06184E+01 1.12363E+01 9.37464E+00 8.32330E-03-1.57841E-02
 -1     22980-1.50100E+01-1.13600E+00-8.09475E+00-4.74846E+00-1.51628E-02-2.83364E-03
 -1     22981-1.60779E+01-2.08674E+00-9.10002E+00-4.80144E+00-1.58023E-03-2.89326E-03
 -1     22982-1.44970E+01-1.66266E+00-8.06636E+00-4.17189E+00-5.48323E-03 4.57559E-03
 -1     22983 5.98893E+00 8.43765E+00 7.32404E+00 8.32401E+00-8.81953E-02-3.25660E-03
 -1     22984 2.10171E+00 5.18163E+00 3.67424E+00 8.04213E+00-3.77358E-02 2.27801E-03
 -1     22985 6.03399E+00 9.32421E+00 7.64911E+00 7.87537E+00 1.50548E-02-1.60231E-03
 -1     22986 1.03667E+01 6.62468E+00 8.49638E+00 9.33895E+00-9.57615E-03-1.10657E-02
 -1     22987 1.33515E+01 9.22076E+00 1.12709E+01 8.88474E+00-3.81448E-03 3.44092E-03
 -1     22988 9.50050E+00 5.51125E+00 7.51618E+00 9.14851E+00-4.14003E-03-4.70136E-04
 -1     22989 5.61234E+00 1.22307E+01 8.81419E+00 4.50803E+00-1.38503E-02-2.73122E-02
 -1     22990 1.04573E+01 7.97829E+00 9.20259E+00 1.01726E+01-1.02014E-02-1.29350E-02
 -1     22991 1.24548E+01 1.01433E+01 1.12971E+01 9.50155E+00 1.63955E-03 3.47375E-03
 -1     22992 1.03683E+01 7.78681E+00 9.05367E+00 1.01393E+01-2.76958E-03 5.01524E-04
 -1     22993 1.00684E+01 8.09227E+00 9.07430E+00 1.02394E+01-5.64613E-03-1.27308E-02
 -1     22994 1.00725E+01 8.22361E+00 9.13940E+00 1.02192E+01-6.95352E-04-2.07284E-02
 -1     22995 1.26767E+01 9.95403E+00 1.13222E+01 9.42157E+00-1.12313E-04 7.95642E-03
 -1     22996 1.17591E+01 1.01813E+01 1.09820E+01 9.44890E+00-5.31670E-04-1.30141E-02
 -1     22997 9.29024E+00 6.00621E+00 7.62937E+00 9.75001E+00-9.13983E-03-2.32652E-03
 -1     22998 1.04464E+01 7.30886E+00 8.84470E+00 9.89110E+00-1.05006E-02-7.27148E-03
 -1     22999 1.33025E+01 8.74689E+00 1.10266E+01 8.52126E+00-3.37491E-03 3.29162E-03
 -1     23000 9.71339E+00 5.30696E+00 7.48650E+00 8.27868E+00-2.13212E-03-2.54841E-03
 -1     23001 9.40291E+00 5.07083E+00 7.24293E+00 8.53079E+00-5.54784E-03-7.43222E-03
 -1     23002 8.93272E+00 4.49838E+00 6.66176E+00 7.28137E+00 1.44871E-02 3.73021E-02
 -1     23003 8.17929E+00 3.72402E+00 5.96153E+00 7.56422E+00 1.34717E-03 3.04767E-02
 -1     23004 8.53072E+00 4.74032E+00 6.64737E+00 6.37017E+00-3.78312E-03 1.87128E-03
 -1     23005 9.53368E+00 5.52171E+00 7.54042E+00 6.62345E+00-2.45395E-02-6.46875E-03
 -1     23006 8.74345E+00 5.96385E+00 7.31876E+00 5.65631E+00-2.25399E-02-1.59334E-02
 -1     23007 7.97312E+00 4.92172E+00 6.40453E+00 5.82282E+00 4.85965E-03-2.54391E-02
 -1     23008 6.61860E+00 3.25129E+00 4.75528E+00 1.62348E+00-6.78255E-03 7.83091E-02
 -1     23009 1.05686E+01 6.11239E+00 8.27120E+00 2.24052E+00-7.57092E-02 5.13083E-03
 -1     23010 4.66489E+00 1.31074E+00 3.04066E+00 1.33166E+00-1.51250E-02 4.59346E-02
 -1     23011 7.28004E+00 5.82450E+00 6.55057E+00 5.33729E+00-2.92548E-02-7.77241E-03
 -1     23012 7.27288E+00 5.57383E+00 6.37830E+00 5.42021E+00-8.82289E-03-6.16911E-03
 -1     23013 7.88993E+00 6.82346E+00 7.28768E+00 5.35253E+00-8.48183E-03-1.73892E-02
 -1     23014 4.86027E+00 3.20040E+00 4.01575E+00 5.06605E+00-3.10313E-03-7.54740E-03
 -1     23015 8.09010E+00 6.35099E+00 7.19031E+00 5.12958E+00 2.59425E-02 1.20601E-02
 -1     23016 8.80049E+00 6.89525E+00 7.80953E+00 4.91650E+00-4.76692E-02 3.28770E-03
 -1     23017-5.22922E-01-3.14032E+00-1.79083E+00 6.16723E-01 1.49012E-02-3.08690E-02
 -1     23018 8.15600E+00 5.08440E+00 6.59712E+00 1.41450E+00 9.16148E-03 2.90988E-02
 -1     23019-1.35011E+01-1.56525E+01-1.43979E+01 3.77832E-01-6.76047E-03-7.62473E-02
 -1     23020-2.13302E+01-2.85538E+00-1.17937E+01-4.92538E+00 1.23399E-01 2.50149E-01
 -1     23021-2.40335E+01-5.39889E+00-1.48552E+01-3.46171E+00 1.09376E-01-1.47543E-01
 -1     23022-1.95790E+01-2.03926E+00-1.09558E+01-5.02156E+00 1.75681E-01 8.49254E-02
 -1     23023 1.34080E+01 1.01768E+01 1.17309E+01 9.30367E+00-2.97667E-03-8.45110E-03
 -1     23024 8.80186E+00 4.72381E+00 6.72015E+00 1.81326E+00-1.37983E-02 4.48344E-02
 -1     23025-1.83963E+01 6.66924E-01-8.99757E+00-9.73603E-01 4.26168E-02-4.41361E-01
 -1     23026 3.65989E+00 3.22353E+00 3.61270E+00 1.50768E-01 5.55272E-02-7.21712E-02
 -1     23027 6.16944E+00 5.24294E+00 5.60163E+00 9.17343E-01 6.65755E-02-5.07757E-02
 -1     23028 2.44517E+00 2.53228E+00 2.53665E+00 2.13983E-01 1.27467E-01-7.61519E-02
 -1     23029 4.76973E+00 2.56352E+00 3.66284E+00 5.42576E+00-2.27688E-02-1.20867E-02
 -1     23030 1.20997E+01 9.69530E+00 1.09252E+01 1.16985E+00 6.31624E-02-4.87403E-02
 -1     23031 3.91668E-01 1.32218E+00 8.21257E-01 1.03543E+00 1.19456E-01 6.02633E-02
 -1     23032-1.34834E+01-9.10873E+00-1.10849E+01 4.16855E-01-3.16193E-01-1.23761E-01
 -1     23033-6.36201E+00-3.12903E+00-4.69006E+00 3.60182E-01-2.62761E-01-3.10937E-02
 -1     23034-1.73675E+01-3.69923E-01-8.89649E+00-4.19473E+00 2.88118E-02-5.03555E-02
 -1     23035-1.72200E+01-1.55088E+00-9.43223E+00-4.97331E+00 6.83749E-03 2.26980E-02
 -1     23036-1.81255E+01-2.09378E+00-1.01228E+01-5.05209E+00-1.59718E-02 4.37648E-02
 -1     23037-1.61985E+01-1.88457E+00-9.05618E+00-4.89475E+00-8.17105E-03-6.63340E-04
 -1     23038-1.46897E+01-1.24667E+00-7.98132E+00-4.34450E+00-1.03399E-02 1.52140E-02
 -1     23039-1.54472E+01-1.26501E+00-8.37036E+00-4.86083E+00 4.54503E-03-1.69040E-03
 -1     23040-1.42737E+01-1.70252E+00-7.97040E+00-4.00991E+00-6.81235E-04 1.52408E-02
 -1     23041-1.34638E+01 1.14374E+00-6.15720E+00-4.34267E+00 1.20964E-02 9.96359E-03
 -1     23042-1.27465E+01-2.45090E-01-6.45502E+00-3.65100E+00 1.59393E-02-1.20875E-02
 -1     23043-1.40126E+01-2.37779E+00-8.13272E+00-3.00746E+00 7.01707E-03-1.22386E-02
 -1     23044-1.14006E+01 7.96659E-01-5.30348E+00-3.45667E+00-1.01918E-03-3.21561E-02
 -1     23045-1.26740E+01 1.97303E-01-6.24917E+00-4.07306E+00-1.97629E-02-4.69955E-03
 -1     23046-1.39303E+01-8.78688E-01-7.42226E+00-4.19931E+00-1.34737E-02-1.13308E-02
 -1     23047-1.45746E+01-3.28169E+00-8.94951E+00-2.59741E+00-1.83735E-02-2.60652E-02
 -1     23048-1.45180E+01-2.39669E+00-8.45601E+00-3.61367E+00-6.00313E-03-4.16377E-03
 -1     23049-1.15695E+01-1.26569E-01-5.83828E+00-2.72149E+00-9.33721E-03 1.20324E-03
 -1     23050-1.03106E+01 1.36791E+00-4.48170E+00-2.92090E+00-3.89046E-02 1.10458E-02
 -1     23051-9.76464E+00 3.79705E-01-4.58093E+00-1.71079E+00 8.76834E-02-7.37755E-03
 -1     23052-9.19691E+00 1.35726E+00-3.82968E+00-2.04026E+00 5.70427E-02-2.02767E-02
 -1     23053-1.20952E+01-1.94182E+00-7.01376E+00-1.28200E+00 2.98273E-02-2.04087E-02
 -1     23054-1.24868E+01-3.32491E+00-7.80575E+00-6.23307E-01 6.09088E-02-2.15967E-02
 -1     23055-3.27576E+00 4.68422E+00 5.13193E-01-3.16628E-01-4.70342E-02-4.45388E-02
 -1     23056-4.81952E+00 3.70059E+00-7.72618E-01-6.19808E-01-5.50511E-02-6.58207E-02
 -1     23057-1.22400E+01-4.05965E+00-8.23302E+00 2.72584E-01-8.69605E-03-3.32750E-02
 -1     23058-1.00580E+01-2.88045E+00-6.52418E+00 1.35885E+00 5.19715E-02-3.65533E-02
 -1     23059-1.44804E+01-1.37985E+00-7.94593E+00-4.27323E+00 7.94730E-03 4.40782E-03
 -1     23060 8.82678E-01 9.96074E+00 5.47016E+00 7.26253E+00-2.85283E-02-8.05310E-02
 -1     23061-4.66728E+00 4.42030E+00 1.91702E-01 6.95300E+00-5.84057E-02 1.56522E-01
 -1     23062-1.64499E+00 6.94694E+00 2.65639E+00 7.61765E+00-3.00666E-02 6.80883E-02
 -1     23063 6.28693E+00 1.04722E+01 8.34481E+00 7.85692E+00 2.57131E-02 1.32238E-02
 -1     23064 2.67729E+00 7.66355E+00 5.16356E+00 7.43681E+00-7.53837E-02-4.58849E-02
 -1     23065 5.29316E+00 2.28488E+00 3.76513E+00 5.55754E+00-3.16135E-02 1.11143E-02
 -1     23066 1.01374E+01 7.48841E+00 8.78051E+00 4.86682E+00 1.94632E-04 3.60498E-02
 -1     23067 1.28302E+01 7.89554E+00 1.03652E+01 8.20293E+00 2.13676E-03 7.69860E-03
 -1     23068 2.83621E+00 9.95022E+00 6.35956E+00 7.46528E+00 1.86625E-02-1.22953E-03
 -1     23069 4.32043E+00 1.21572E+01 8.34639E+00 6.15663E+00-1.10194E-02 2.16348E-02
 -1     23070-1.39807E+01-2.87149E+00-8.45995E+00-2.21218E+00-3.99529E-02-1.08463E-02
 -1     23071 5.09691E+00 1.01841E+01 7.60408E+00 7.46012E+00 1.01268E-02-3.96709E-02
 -1     23072-1.47586E+01 9.39872E-01-6.93687E+00-4.39306E+00-6.67710E-03-2.56278E-02
 -1     23073-7.74057E+00-4.65328E+00-6.35252E+00 9.96863E-01-7.68939E-03 1.21393E-01
 -1     23074 6.47064E+00 2.67116E+00 4.57721E+00 5.83995E+00-7.91029E-03-1.72287E-02
 -1     23075 8.19881E+00 3.24531E+00 5.75268E+00 6.49328E+00-4.99815E-03 4.80395E-03
 -1     23076 1.02600E+01 4.97984E+00 7.62327E+00 7.31223E+00 9.72647E-03-1.40169E-03
 -1     23077 8.25237E+00 3.80330E+00 6.04254E+00 6.10324E+00-2.23130E-02-3.60925E-03
 -1     23078 1.23715E+01 1.04688E+01 1.14186E+01 9.49156E+00 2.61944E-03-1.11957E-02
 -1     23079 9.89455E+00 4.62202E+00 7.27628E+00 6.94428E+00-1.95566E-02 3.68001E-02
 -1     23080 1.34197E+01 9.73703E+00 1.15637E+01 9.09111E+00-1.21776E-02-7.06981E-03
 -1     23081 1.24974E+01 7.33866E+00 9.89561E+00 7.76754E+00 2.32971E-03 3.26590E-03
 -1     23082 3.91670E+00 2.48348E+00 3.12846E+00 5.37681E+00 9.05972E-03 3.93385E-03
 -1     23083-1.41603E+01-6.75315E+00-1.02999E+01 1.45850E+00 4.82510E-03-8.90900E-02
 -1     23084-1.44301E+01-2.58250E+00-8.53493E+00-3.31830E+00-1.29361E-02 7.39609E-03
 -1     23085-1.13014E+01-6.60582E-01-6.05705E+00-1.81322E+00 2.93646E-02 1.28773E-04
 -1     23086-1.92427E+00 6.88284E+00 2.40748E+00 7.30046E+00-5.08279E-02-4.66972E-02
 -1     23087 8.36899E+00 6.94381E+00 7.66042E+00 8.74536E+00-3.91342E-03-8.27759E-03
 -1     23088 8.53722E+00 7.31515E+00 7.93320E+00 8.69768E+00 2.25812E-03-1.12133E-02
 -1     23089 1.01137E+01 4.51886E+00 7.35167E+00 6.54385E+00-1.36516E-02 2.05697E-02
 -1     23090 1.06089E+01 4.85580E+00 7.72824E+00 6.74728E+00-1.22977E-02 2.13317E-02
 -1     23091 8.71322E+00 5.85283E+00 7.30289E+00 8.79881E+00-1.35202E-02 4.17985E-03
 -1     23092 9.09875E+00 6.48078E+00 7.81611E+00 8.84186E+00-1.26208E-02 8.98418E-03
 -1     23093 1.01139E+01 4.44761E+00 7.26191E+00 7.31655E+00-3.98075E-03 1.10813E-02
 -1     23094 8.98222E+00 3.42110E+00 6.22552E+00 7.53859E+00 6.64317E-03 1.18110E-02
 -1     23095 9.67409E+00 4.66348E+00 7.14286E+00 8.07488E+00-1.64857E-02-7.80426E-03
 -1     23096 9.52538E+00 4.78119E+00 7.11180E+00 8.20354E+00-9.02846E-03-6.66915E-03
 -1     23097-1.03861E-01 6.52855E+00 3.20679E+00 3.65969E+00-3.26876E-02-4.94964E-03
 -1     23098 8.42245E+00 6.70147E+00 7.55436E+00 5.32400E+00 6.09918E-03 1.79945E-02
 -1     23099 9.60668E+00 4.85171E+00 7.22223E+00 5.83074E+00-2.95403E-02-3.08698E-02
 -1     23100 8.05253E+00 3.03424E+00 5.50020E+00 6.01216E+00-6.60943E-03-3.57603E-03
 -1     23101 8.75459E+00 4.80676E+00 6.78211E+00 8.57746E+00-2.32263E-02-9.78090E-03
 -1     23102 9.54639E+00 5.90344E+00 7.69616E+00 8.65594E+00-1.99641E-02-8.49261E-03
 -1     23103 9.96225E+00 4.16710E+00 7.05635E+00 6.95656E+00 8.99517E-04 1.19546E-02
 -1     23104 9.27003E+00 3.61242E+00 6.43660E+00 7.16561E+00-6.75577E-03 1.02447E-02
 -1     23105 1.08509E+01 4.74465E+00 7.78430E+00 6.92922E+00-6.16333E-03 3.72702E-03
 -1     23106 1.03017E+01 4.16957E+00 7.24261E+00 6.55625E+00-3.07555E-03 3.32254E-03
 -1     23107 1.06570E+01 5.39808E+00 7.99444E+00 6.16253E+00-4.36467E-03-2.83495E-03
 -1     23108 9.72258E+00 4.15971E+00 6.92819E+00 6.35807E+00 3.43540E-03-2.78519E-04
 -1     23109 7.69274E+00 2.08238E+00 4.88392E+00 5.87824E+00-1.39644E-02-4.25984E-03
 -1     23110 7.07251E+00 3.93825E+00 5.50369E+00 4.85080E+00 2.67871E-03 1.74265E-02
 -1     23111 4.32047E+00 1.57592E+00 2.94820E+00 4.99612E+00-9.33527E-03 1.20754E-02
 -1     23112 3.56912E+00-1.35898E+00 1.08671E+00 2.46605E+00-6.84056E-02-2.29836E-02
 -1     23113 4.63351E+00-4.62752E-01 2.12795E+00 2.61080E+00-8.00616E-02-7.52684E-02
 -1     23114-1.42281E+00 8.32796E+00 3.73456E+00 1.62927E+00 5.01113E-02-7.87565E-02
 -1     23115-1.51921E+01-8.06946E+00-1.15786E+01 1.23250E+00 1.32799E-01-3.99105E-03
 -1     23116 9.34683E+00 3.98409E+00 6.72950E+00 7.66960E+00 1.44863E-02 2.50588E-02
 -1     23117 1.05132E+01 5.27060E+00 7.94206E+00 7.86809E+00 7.86127E-03 2.46774E-02
 -1     23118 1.15846E+01 6.16288E+00 8.85981E+00 7.53008E+00 1.50621E-02 6.49676E-03
 -1     23119 1.09950E+01 5.10501E+00 8.08150E+00 7.20875E+00 2.06592E-03 1.82880E-02
 -1     23120-3.24912E+00-1.41280E+00-2.16343E+00 1.28333E+00 7.41082E-03 3.29117E-02
 -1     23121-4.18955E+00-3.32773E+00-3.84721E+00 1.35782E+00-2.65164E-02 3.84927E-02
 -1     23122 9.06800E+00 6.62244E+00 7.78900E+00 5.10837E+00 5.67025E-03 2.84687E-03
 -1     23123 4.42907E+00 2.30069E+00 3.33313E+00 5.30080E+00 2.30481E-03 3.80313E-02
 -1     23124 9.22010E+00 6.96659E+00 8.01659E+00 5.36111E+00 6.40098E-03 4.37182E-02
 -1     23125 1.05924E+01 7.62673E+00 9.09629E+00 5.16622E+00-5.64745E-03 6.11149E-04
 -1     23126 1.47190E+00-1.91322E+00-2.44413E-01 1.74363E+00-1.42517E-02 2.63707E-02
 -1     23127 2.89580E+00-8.95360E-01 1.00875E+00 1.98369E+00-3.83811E-02 6.41993E-03
 -1     23128-1.79805E+01-1.31675E+01-1.56135E+01 1.45690E+00 4.18799E-02-1.30960E-02
 -1     23129-7.98925E+00-4.43563E+00-6.06670E+00 1.30121E+00-8.34434E-02 8.17437E-02
 -1     23130-6.21571E+00-3.15460E+00-4.59963E+00 1.57440E+00-8.45904E-04-9.19134E-03
 -1     23131-1.47477E+01-7.52921E+00-1.12478E+01 1.19680E+00-8.49142E-02-3.57378E-02
 -1     23132 2.58991E+00-2.53987E+00-9.18503E-03 2.94399E+00-5.92057E-02 2.25394E-02
 -1     23133 7.21867E+00 2.09219E+00 4.65335E+00 3.13807E+00-3.61122E-02 3.12480E-02
 -1     23134 1.35709E+01 7.93604E+00 1.08793E+01 3.18548E+00-4.37811E-04-4.91970E-02
 -1     23135-9.55892E+00 6.60803E-01-4.46578E+00-1.32470E+00-7.03670E-03 8.32261E-03
 -1     23136-8.72100E+00 1.67488E+00-3.51336E+00-1.55434E+00-1.40867E-02-5.27106E-03
 -1     23137-1.31539E+01 3.21331E+00-4.95870E+00-2.66174E+00-6.68639E-02-1.11191E-01
 -1     23138-1.20921E+01 5.18374E+00-3.69769E+00-1.88037E+00 5.20323E-02-7.11272E-02
 -1     23139 7.24132E+00 4.67013E+00 5.95553E+00 5.41780E+00 3.87610E-03-1.16506E-03
 -1     23140-9.28457E+00 1.67066E+00-3.80751E+00-2.60191E+00-4.69423E-03 5.83592E-03
 -1     23141-1.06887E+01 3.31131E-01-5.19808E+00-2.74952E+00-5.22511E-03 3.14252E-03
 -1     23142 8.48138E+00 5.10863E+00 6.82102E+00 8.62439E+00-1.42174E-02-1.32365E-02
 -1     23143 9.49679E+00 6.37437E+00 7.88908E+00 8.74512E+00-3.07039E-04-1.43237E-02
 -1     23144 1.15290E+01 8.52727E+00 1.00225E+01 8.17868E+00 1.57291E-02-6.82333E-03
 -1     23145 1.19988E+01 8.39642E+00 1.02380E+01 8.11304E+00-3.46061E-02-1.16653E-02
 -1     23146-1.20728E+01 5.12017E+00-3.82991E+00 1.36189E-01-6.48831E-02 6.97083E-02
 -1     23147-2.68515E+01-1.37722E+01-2.01328E+01 6.79694E-01-4.56324E-02 1.99992E-02
 -1     23148-1.14208E+01 6.67392E-01-5.96261E+00 4.70579E-01-1.16692E-01-9.97081E-02
 -1     23149-1.27884E+01 3.56270E+00-5.25633E+00-1.31203E+00 5.78284E-03-8.54942E-02
 -1     23150-1.31053E+01-6.30473E-01-6.90283E+00-3.76781E+00-3.51207E-03 1.96921E-02
 -1     23151-1.45950E+01-1.93943E+00-8.29805E+00-3.78929E+00-9.16685E-03 1.73271E-02
 -1     23152-1.25628E+01-7.36809E-01-6.63006E+00-3.56490E+00 2.03151E-03 1.02443E-02
 -1     23153-1.42562E+01-2.30994E+00-8.26472E+00-3.61790E+00 2.34467E-04 1.00985E-03
 -1     23154-1.03619E+01 6.97266E-01-4.84635E+00-2.89795E+00-6.77467E-04 3.37240E-03
 -1     23155-1.07272E+01 4.77108E-01-5.13545E+00-3.01482E+00-7.96928E-03 3.02900E-03
 -1     23156-1.19447E+01-1.79703E+00-6.85335E+00-2.15236E+00 9.97276E-03-5.73470E-03
 -1     23157-1.14030E+01-8.09093E-02-5.78854E+00-3.15602E+00-1.89268E-02 9.30375E-03
 -1     23158-1.18083E+01-3.99126E-01-6.14178E+00-3.26117E+00-5.81345E-03 1.01081E-02
 -1     23159-1.16510E+01-1.32254E+00-6.50907E+00-2.43693E+00-4.27786E-03 8.80411E-03
 -1     23160-1.15396E-01 7.68660E+00 3.77580E+00 6.30598E+00-2.58936E-02 4.16723E-03
 -1     23161-1.81662E+00 5.28995E+00 1.75245E+00 5.57494E+00-1.33538E-02-2.46726E-03
 -1     23162 3.01624E+00-1.26996E+00 8.84542E-01 2.13100E+00-2.22450E-02 1.32068E-02
 -1     23163 5.10254E+00 5.76737E-01 2.79186E+00 2.30124E+00-4.15192E-02 2.26735E-02
 -1     23164 9.36266E+00 4.14051E+00 6.71844E+00 2.79985E+00-3.01918E-02 4.95410E-02
 -1     23165 7.53216E+00 3.14446E+00 5.34862E+00 2.48373E+00-2.64571E-02-4.87019E-04
 -1     23166-1.20259E+01-4.69922E-01-6.24432E+00-3.36295E+00 2.03726E-03 4.93085E-03
 -1     23167-1.20094E+01-3.33438E-01-6.14444E+00-3.45412E+00-7.26441E-04 1.51145E-02
 -1     23168-1.18600E+01-1.05466E+00-6.43175E+00-2.90633E+00 4.07646E-04 8.70685E-03
 -1     23169-1.14041E+01-8.69185E-01-6.15194E+00-2.71403E+00 6.92969E-04 1.13224E-02
 -1     23170-8.47083E+00 2.01486E+00-3.24471E+00-1.81538E+00-2.56365E-02 6.01459E-03
 -1     23171-9.57868E+00 9.82391E-01-4.30053E+00-2.01925E+00 5.25375E-05 7.65688E-03
 -1     23172-1.09683E+01-1.36396E+00-6.10444E+00-9.33711E-01 1.72664E-03 2.33055E-02
 -1     23173-1.25702E+01-4.75064E-01-6.52459E+00-3.65281E+00-3.17076E-03-5.77785E-03
 -1     23174-1.36381E+01-1.38720E+00-7.51507E+00-3.69626E+00 1.39111E-02 3.58375E-05
 -1     23175-1.19248E+01-4.68854E-01-6.20597E+00-3.13037E+00 2.00782E-03 6.11578E-03
 -1     23176-1.19500E+01-8.87819E-01-6.41064E+00-3.05023E+00-1.52842E-03 3.38390E-03
 -1     23177 5.96986E+00 8.49644E+00 7.16796E+00 7.50934E+00 2.16317E-02-5.32015E-02
 -1     23178 3.97698E+00 7.11553E+00 5.54039E+00 7.41545E+00 3.75716E-02-2.35750E-02
 -1     23179 8.28067E+00 3.87909E+00 6.11966E+00 8.26617E+00 7.06616E-04 2.99659E-03
 -1     23180 1.03038E+01 6.07204E+00 8.22283E+00 8.44879E+00-1.18447E-02 5.51331E-03
 -1     23181 1.18737E+01 7.03757E+00 9.46609E+00 7.81706E+00-2.68087E-02-3.25292E-03
 -1     23182 6.59679E-01 8.67920E+00 4.62330E+00 7.30419E+00-2.97372E-02 9.39422E-03
 -1     23183-3.23208E+00 5.15048E+00 1.04609E+00 7.38159E+00-4.38532E-02 7.28749E-02
 -1     23184-1.71233E+01-2.84337E+00-9.92138E+00-3.63222E+00 2.45112E-02-2.20227E-02
 -1     23185-1.56315E+01-7.05932E-01-8.07465E+00-3.56632E+00 3.20105E-02-9.06034E-02
 -1     23186 8.69770E+00 6.30559E+00 7.49696E+00 8.83150E+00 3.39555E-03 4.93189E-04
 -1     23187 9.12420E+00 6.99715E+00 8.04056E+00 8.83793E+00 3.30461E-03-4.51088E-03
 -1     23188 1.10087E+01 8.56689E+00 9.77648E+00 8.17068E+00-1.08014E-02 5.19505E-04
 -1     23189 9.17348E+00 6.23747E+00 7.65939E+00 5.39896E+00-3.45387E-02 4.61000E-03
 -1     23190 1.06982E+01 7.20180E+00 8.91959E+00 5.47963E+00-2.91377E-02 6.06068E-03
 -1     23191 5.62089E+00 2.54682E+00 4.08580E+00 5.35687E+00-2.32882E-02-1.29791E-03
 -1     23192 4.80431E+00 8.60629E+00 6.69954E+00 7.33771E+00 1.00122E-02-1.64540E-02
 -1     23193 1.67783E+00 6.05124E+00 3.83214E+00 7.19831E+00 4.68031E-03-2.93913E-02
 -1     23194 4.57456E+00 8.87824E+00 6.74315E+00 6.74702E+00 2.40880E-02-2.50661E-02
 -1     23195-1.45643E+01-1.65591E+00-8.12349E+00-3.76136E+00-5.98701E-04 9.24519E-04
 -1     23196-1.59304E+01-2.79871E+00-9.37139E+00-3.78165E+00-2.37150E-03-2.32958E-03
 -1     23197-1.17128E+01 1.75547E-01-5.77123E+00-3.18161E+00-2.67800E-03-7.39057E-03
 -1     23198 4.70039E+00 9.76720E+00 7.20457E+00 7.20639E+00-1.15753E-02-1.69378E-02
 -1     23199 4.19485E-01 6.70437E+00 3.54645E+00 7.16060E+00-1.96266E-02 6.04545E-03
 -1     23200 2.80845E+00 8.51405E+00 5.65882E+00 6.68592E+00-1.67599E-02-3.21519E-02
 -1     23201-5.06802E+00-5.44742E+00-5.41271E+00 1.44513E+00-3.29383E-02 6.77626E-02
 -1     23202-9.95838E-01-2.06554E+00-1.52875E+00 1.36260E+00-5.51259E-02 5.19884E-02
 -1     23203-2.07469E+00-1.58302E+00-1.85858E+00 1.74153E+00-1.71417E-02 7.15387E-02
 -1     23204-1.38101E+01-2.73923E-01-7.03577E+00-3.76990E+00 2.75391E-03-4.35655E-03
 -1     23205-1.66470E+01-2.74681E+00-9.69508E+00-3.70599E+00-1.54390E-02-3.99219E-02
 -1     23206-1.25596E+01-7.70604E-02-6.33449E+00-3.10297E+00 1.92538E-03-1.35890E-02
 -1     23207-1.84888E+00-3.89782E+00-2.84151E+00 1.58815E+00-1.41857E-02-1.09332E-02
 -1     23208 1.10817E+00-1.67668E+00-3.05423E-01 1.59229E+00-3.53909E-02 2.32539E-02
 -1     23209 5.15634E+00 1.82433E+00 3.48843E+00 2.19386E+00-1.18112E-02 1.34811E-02
 -1     23210 1.82006E+00 1.91149E-01 9.94923E-01 1.91631E+00-2.13944E-02 1.63886E-02
 -1     23211 2.71603E+00 9.84991E+00 6.21000E+00 7.29503E+00-2.61910E-02 9.89202E-03
 -1     23212 8.40341E+00 2.38854E+00 5.36851E+00 6.22349E+00-1.02428E-03 2.87431E-03
 -1     23213 6.55198E+00 5.57753E+00 5.99005E+00 8.63649E+00-1.88353E-03-4.62744E-02
 -1     23214 6.86557E+00 6.11214E+00 6.43633E+00 8.54140E+00 6.18130E-03-5.14139E-02
 -1     23215 9.74893E+00 8.98180E+00 9.33303E+00 7.94406E+00-8.56719E-04-2.27568E-02
 -1     23216 8.16264E+00 3.12032E+00 5.69503E+00 3.72425E+00 4.70123E-03 6.40579E-02
 -1     23217 2.82206E+00-1.99562E+00 3.77998E-01 3.93625E+00-1.32213E-02 8.27651E-02
 -1     23218 7.78623E+00 7.38401E+00 7.63351E+00 8.46936E+00 3.42272E-03-2.50994E-02
 -1     23219 7.39443E+00 7.03113E+00 7.20877E+00 8.43635E+00-7.80519E-03-6.00909E-03
 -1     23220 9.55565E+00 9.30662E+00 9.42998E+00 7.79372E+00 2.22975E-03-2.41197E-02
 -1     23221-1.45923E+01-1.41595E+00-8.01311E+00-2.93016E+00 4.48950E-03-1.92625E-02
 -1     23222 4.52969E+00 6.63151E+00 5.60606E+00 7.66968E+00-9.64020E-03 1.63833E-02
 -1     23223 5.88661E+00 9.02840E+00 7.46584E+00 6.95237E+00-7.89293E-03-4.26852E-03
 -1     23224 6.32417E+00 8.07504E+00 7.18207E+00 7.80299E+00 8.87375E-03 1.28548E-02
 -1     23225 1.97803E+00 1.00414E+01 5.91804E+00 6.90767E+00-2.13260E-03 1.20376E-02
 -1     23226 2.82859E+00 1.12763E+01 6.98907E+00 7.03683E+00-9.99842E-03 2.24712E-02
 -1     23227-1.11143E+01-4.20614E+00-7.56360E+00 4.57770E+00-3.80286E-02-3.13313E-03
 -1     23228-4.50184E-01 6.24406E+00 2.91504E+00 2.71679E+00-2.16571E-02-1.76158E-02
 -1     23229 1.12159E+01 6.99783E+00 9.10785E+00 7.98266E+00-1.24213E-03-6.36612E-03
 -1     23230 8.26521E+00 6.42616E+00 7.36975E+00 8.77769E+00-2.78378E-04-7.70609E-04
 -1     23231 9.44266E+00 7.77829E+00 8.63508E+00 8.77400E+00-1.18159E-02-2.06937E-03
 -1     23232 6.59082E+00 2.97810E+00 4.79896E+00 4.75305E+00 1.10741E-02-3.61322E-03
 -1     23233 1.14476E+01 7.70562E+00 9.54968E+00 4.92091E+00 2.38384E-04 2.55156E-02
 -1     23234 9.75009E+00 5.78092E+00 7.80474E+00 4.55793E+00-6.45076E-04 8.70273E-03
 -1     23235-1.57867E+01 5.40451E-01-7.64420E+00-3.07221E+00 1.83404E-02-1.19768E-01
 -1     23236-2.57793E+01-1.09805E+01-1.80294E+01-2.03109E+00-6.99581E-02-2.09526E-01
 -1     23237-1.89354E+01-3.47549E+00-1.13815E+01-3.32703E+00-4.76196E-02-1.00249E-02
 -1     23238-7.66131E+00 2.29894E+00-2.73477E+00-1.11465E+00 9.48744E-03 1.48233E-02
 -1     23239-1.16886E+01-2.32315E+00-6.98223E+00-4.41229E-01 1.20238E-02 2.21905E-02
 -1     23240-9.99551E+00-1.85858E-01-5.06915E+00-9.21756E-01 2.11936E-03 4.94380E-02
 -1     23241 7.80593E+00 7.76001E+00 7.75715E+00 8.35916E+00-1.31987E-03-1.48660E-02
 -1     23242 7.09006E+00 7.24544E+00 7.18662E+00 8.25879E+00-1.63670E-03-2.85675E-03
 -1     23243 9.59021E+00 9.87170E+00 9.72532E+00 7.61809E+00 8.00727E-03-1.40415E-03
 -1     23244 9.32564E+00 5.32132E+00 7.31561E+00 5.61451E+00-1.38860E-02-8.94812E-03
 -1     23245 7.05871E+00 2.74272E+00 4.86886E+00 5.77443E+00-2.01664E-02-1.14697E-02
 -1     23246 6.18060E+00 6.64199E+00 6.37778E+00 8.18168E+00 1.48132E-02-2.99924E-03
 -1     23247 6.24516E+00 6.99941E+00 6.60202E+00 8.10592E+00 1.39369E-02-6.35958E-03
 -1     23248 8.39816E+00 9.25068E+00 8.78109E+00 7.47769E+00 1.15029E-02 2.52166E-03
 -1     23249 8.79168E+00 4.22184E+00 6.52338E+00 4.11961E+00 2.15420E-03 3.84568E-02
 -1     23250 7.00406E+00 2.71128E+00 4.82153E+00 4.36045E+00 1.18642E-02 9.79841E-03
 -1     23251 1.06320E+01 5.92572E+00 8.30049E+00 4.60324E+00 1.02906E-02 1.22496E-02
 -1     23252 1.23382E+01 7.08432E+00 9.69235E+00 4.31111E+00-2.13734E-02 3.46686E-02
 -1     23253-2.74915E+01-1.30618E+01-2.04634E+01-1.01522E+00 3.78984E-02-2.04703E-01
 -1     23254-2.80270E-01 6.96736E+00 3.27660E+00 7.01355E+00-1.08460E-02-1.05486E-02
 -1     23255-1.06887E+01 8.44528E-02-5.31892E+00-2.36392E+00-7.30662E-03 1.58872E-02
 -1     23256-1.19243E+01-1.90856E+00-6.90478E+00-1.79781E+00-5.33488E-04 7.35073E-03
 -1     23257-9.51221E+00 1.12189E+00-4.15077E+00-2.19415E+00 1.04131E-02-5.22948E-03
 -1     23258-3.94005E+00 4.49059E+00 3.20266E-01 6.78255E+00 2.60817E-02-4.86366E-02
 -1     23259 6.05589E-02 7.70749E+00 3.92515E+00 6.09798E+00-3.85150E-02-1.67677E-02
 -1     23260-4.68936E+00 3.76475E+00-4.87624E-01 3.95098E-01 4.35777E-03-2.31292E-02
 -1     23261-6.06042E+00 2.98058E+00-1.62786E+00 6.64153E-02 7.24545E-03-8.92229E-03
 -1     23262-6.40411E+00 2.80394E+00-1.89264E+00-4.21229E-01 2.51677E-02-1.10792E-02
 -1     23263-1.01535E+01-4.09608E-01-5.31909E+00-6.39874E-01 2.57270E-02 1.45916E-02
 -1     23264-9.38454E+00-2.77390E-01-4.73585E+00 3.13437E-02-5.67277E-05 1.28802E-02
 -1     23265-1.18277E+01-3.08045E+00-7.48437E+00 6.73082E-01-2.83583E-02 1.79336E-02
 -1     23266 1.06389E+01 9.31291E+00 9.96525E+00 8.04543E+00-1.32822E-03-3.80551E-03
 -1     23267-1.33108E+01 7.29750E-01-6.26250E+00-2.53224E+00 6.84928E-04-3.61895E-02
 -1     23268 1.05821E+01 8.70753E+00 9.62872E+00 8.16932E+00 9.83386E-03-1.16474E-02
 -1     23269 4.22805E+00-7.71505E-01 1.74889E+00 3.25812E+00-3.43646E-02 1.27119E-02
 -1     23270 5.13149E+00 1.28175E-01 2.71660E+00 3.53463E+00-2.57450E-03 2.89945E-02
 -1     23271 1.68101E+01 1.11155E+01 1.38628E+01 3.92314E+00 1.59993E-02 1.04949E-01
 -1     23272 1.49867E+01 9.29334E+00 1.20142E+01 3.59966E+00 1.98931E-02 6.90776E-02
 -1     23273-9.66165E-01 6.20023E+00 2.74638E+00 2.24031E+00 2.47666E-02-3.13392E-02
 -1     23274 7.74599E+00 2.85095E+00 5.31595E+00 5.61296E+00-1.33517E-02-2.30356E-02
 -1     23275 6.03741E+00 1.95120E+00 4.03188E+00 5.43267E+00-1.06901E-02-2.44620E-02
 -1     23276-1.59427E+00 6.43444E+00 2.34457E+00 1.10006E+00-2.01648E-03-1.24290E-02
 -1     23277-8.78732E+00-5.76915E-01-4.68133E+00 1.70246E+00-2.66586E-02 4.97262E-03
 -1     23278-3.48317E+00 4.02756E+00 2.34387E-01 1.44008E+00 1.37588E-02-4.60322E-03
 -1     23279-1.14656E+01-1.65826E+00-6.57528E+00-1.40074E+00 2.28943E-02-9.45539E-03
 -1     23280 2.29966E+00 9.95660E+00 6.18566E+00 6.60942E+00-6.38819E-02-2.01096E-02
 -1     23281-4.54139E+00 3.27805E+00-6.50622E-01 6.36922E+00-1.58119E-02 2.63699E-02
 -1     23282 1.20692E+01 7.13524E+00 9.52127E+00 5.29678E+00-8.06522E-02-5.07153E-03
 -1     23283 7.64290E+00 2.15063E+00 4.95647E+00 5.42491E+00-6.08523E-04-5.47159E-02
 -1     23284 7.79326E+00 3.26223E+00 5.53532E+00 7.45783E+00-4.06697E-03-1.52396E-02
 -1     23285 8.74346E+00 4.51673E+00 6.62984E+00 7.55875E+00-1.41937E-02-1.66398E-02
 -1     23286-1.13849E+01 1.78250E+00-5.48716E+00-4.05146E-01-3.25521E-02-1.72254E-01
 -1     23287-1.98347E+01-9.66366E+00-1.51931E+01 6.62317E-01-8.77150E-02-2.15857E-01
 -1     23288-1.22691E+01 1.40177E+00-5.57482E+00-6.81904E-01-1.84003E-02-2.16482E-01
 -1     23289 6.91156E+00 5.20015E+00 6.05788E+00 7.55908E+00 1.75639E-03-8.73224E-03
 -1     23290 8.15690E+00 6.72574E+00 7.43731E+00 7.50697E+00 1.90701E-04-3.53078E-03
 -1     23291-7.46915E+00-1.29900E-01-3.76464E+00 3.07595E+00 6.44009E-02-1.45951E-02
 -1     23292 5.96294E+00-1.11104E-01 3.01887E+00 3.41726E+00-2.56267E-02-2.38966E-02
 -1     23293 7.48376E+00 1.29562E+00 4.43801E+00 3.60201E+00-4.25940E-02 1.01301E-02
 -1     23294 4.63122E+00 1.19655E+00 2.90567E+00 5.27315E+00-2.10320E-02 2.07810E-03
 -1     23295 6.60775E+00 7.68776E+00 7.16431E+00 8.02502E+00 2.96405E-03-7.15856E-03
 -1     23296 6.44336E+00 7.76125E+00 7.10212E+00 7.91063E+00-5.38186E-03-4.80424E-03
 -1     23297 7.22707E+00 8.68536E+00 7.91061E+00 7.31171E+00 1.32253E-02-3.51366E-03
 -1     23298 1.43465E+01 8.62891E+00 1.16279E+01 5.60753E+00 9.73605E-03-6.84950E-02
 -1     23299 6.63507E+00 6.94429E-01 3.67455E+00 5.78386E+00-1.95837E-03-2.10002E-02
 -1     23300 6.43017E+00 5.65350E-01 3.50435E+00 5.27607E+00-4.93077E-03-5.63402E-02
 -1     23301-6.70416E+00 2.04660E+00-2.32896E+00 4.38150E-01 2.03993E-02 1.57942E-02
 -1     23302-4.83033E+00 4.02617E+00-3.58446E-01 1.81621E-01 1.02587E-02 1.43668E-02
 -1     23303-7.15067E+00 2.11511E+00-2.51515E+00-1.43643E+00 8.27420E-03 2.08474E-03
 -1     23304-8.94469E+00 4.03207E-01-4.26244E+00-1.56926E+00 6.98798E-03 1.22066E-02
 -1     23305-6.88608E+00 1.97616E+00-2.42131E+00-5.03475E-02 6.67893E-03 2.22456E-02
 -1     23306-6.54273E+00 2.41166E+00-2.05433E+00-3.00955E-01 2.33221E-02 1.84231E-02
 -1     23307-8.59417E+00-3.88988E-01-4.49736E+00 8.02004E-01 2.98048E-03 8.06091E-03
 -1     23308-8.07427E+00 1.37944E+00-3.35572E+00-1.72582E+00 5.69062E-03 1.31420E-03
 -1     23309-9.71865E+00-2.16961E-01-4.98427E+00-1.89086E+00 5.69163E-03 9.45242E-03
 -1     23310-8.92122E+00-3.39573E-01-4.63882E+00-1.03618E+00 1.40848E-03 1.56823E-02
 -1     23311 6.39274E+00 5.25176E+00 5.82898E+00 7.41316E+00-1.63166E-03 4.16647E-03
 -1     23312 7.00541E+00 6.14829E+00 6.59824E+00 7.36129E+00-1.21748E-02-4.57400E-03
 -1     23313 8.15843E+00 7.13878E+00 7.63936E+00 6.85124E+00-4.22443E-03-2.08119E-03
 -1     23314 1.70841E+00 8.85598E+00 5.27101E+00 6.35932E+00-5.44779E-03-7.85633E-03
 -1     23315-1.26925E+01-8.69249E-01-6.75384E+00-2.26920E+00 3.00445E-03-1.62087E-02
 -1     23316-1.34711E+01-1.28052E+00-7.38459E+00-2.06621E+00 1.77406E-02-2.53890E-02
 -1     23317-7.08372E+00 1.89452E+00-2.58094E+00-5.77753E-01 1.21000E-02 4.96736E-03
 -1     23318-7.29473E+00 1.78554E+00-2.75345E+00-7.88292E-01 3.19671E-03 6.21209E-03
 -1     23319-8.04290E+00 1.50558E-01-3.91054E+00 3.03887E-01 1.40923E-02 1.19955E-02
 -1     23320-1.24766E+01-1.31514E-02-6.26363E+00-1.92133E+00 5.01002E-02-5.84467E-02
 -1     23321-6.37724E+00 6.64218E+00 2.79435E-01-1.68097E+00 4.97115E-02-1.00646E-01
 -1     23322-1.14938E+01-3.99036E-01-6.03276E+00-1.34734E+00 6.59921E-02-5.75417E-02
 -1     23323 1.16232E+01 5.24339E+00 8.39995E+00 5.90957E+00-2.05917E-02 4.07392E-03
 -1     23324 8.85096E+00 2.39743E+00 5.61810E+00 6.05061E+00-1.55117E-02-2.66919E-03
 -1     23325 6.65176E+00 1.74588E-01 3.44415E+00 5.55713E+00-6.20316E-03-3.49800E-02
 -1     23326 6.13811E+00 8.35281E+00 7.22016E+00 7.13149E+00 1.03987E-02-2.07328E-02
 -1     23327 2.93397E+00 7.34946E+00 5.12019E+00 6.18268E+00 9.41162E-03-1.46759E-02
 -1     23328-1.79389E-02 5.20696E+00 2.56124E+00 6.14355E+00 2.66988E-02-4.38312E-02
 -1     23329-6.70139E+00 2.44544E+00-2.13167E+00-1.01113E+00-1.87256E-03 6.01434E-03
 -1     23330-8.63165E+00 5.99753E-01-4.01002E+00-1.20869E+00 8.71202E-03 1.11654E-02
 -1     23331-9.08103E+00-6.75804E-01-4.86403E+00-6.58506E-01 9.12119E-03 8.48771E-03
 -1     23332-9.28313E+00-8.84203E-01-5.06652E+00-2.40785E-01 4.61168E-03 1.68773E-02
 -1     23333-1.07482E+01 9.20920E-02-5.32645E+00-2.55154E+00 9.12874E-03 1.33578E-03
 -1     23334-1.31949E+01-2.18371E+00-7.68493E+00-2.50963E+00 7.34868E-03 3.30597E-03
 -1     23335 2.24169E+00 7.98457E+00 5.06561E+00 6.22538E+00-6.21992E-03-2.40722E-02
 -1     23336 2.46231E+00 9.02408E+00 5.70834E+00 6.24229E+00-2.29111E-02-1.42658E-02
 -1     23337-1.21759E+00 4.58945E+00 1.60318E+00 5.60233E+00 2.30370E-02-1.42180E-02
 -1     23338-5.20140E+00-3.87045E+00-4.51640E+00 1.96898E+00-5.20407E-04 4.39975E-02
 -1     23339-2.11982E+00-1.99649E+00-2.06168E+00 2.07455E+00-2.03687E-02 4.60806E-02
 -1     23340-1.15889E+01-3.35626E-01-5.96400E+00-2.42613E+00 4.26511E-03-1.15547E-02
 -1     23341-1.37535E+01-2.10230E+00-7.89301E+00-2.37909E+00-3.73580E-03-3.52121E-02
 -1     23342-9.52261E+00 6.85566E-01-4.40800E+00-1.85249E+00 4.73447E-03-8.21446E-03
 -1     23343 4.48603E+00 5.84522E-01 2.53327E+00 5.16542E+00 2.19038E-03-2.04386E-03
 -1     23344 1.13303E+01 7.24316E+00 9.27382E+00 5.31040E+00-3.71147E-02 1.08429E-02
 -1     23345 8.81073E+00 4.31038E+00 6.57479E+00 5.33084E+00-4.18720E-02 1.82075E-03
 -1     23346 5.57924E+00 1.14079E+00 3.40794E+00 4.97293E+00 2.53198E-02 3.76812E-02
 -1     23347 4.85234E+00 6.72252E+00 5.77975E+00 6.63793E+00 3.31665E-03 4.23899E-03
 -1     23348 4.08910E+00 6.26432E+00 5.16680E+00 6.54951E+00 1.88513E-03-9.51366E-04
 -1     23349 1.54333E+00-2.83734E+00-6.19051E-01 2.76936E+00-2.30797E-02 2.90000E-03
 -1     23350 4.92318E+00 1.02094E-01 2.53006E+00 2.86669E+00-2.84835E-02 2.01824E-02
 -1     23351 5.74083E+00 5.20883E+00 5.46827E+00 7.29029E+00 1.58361E-03-3.72440E-03
 -1     23352 6.68201E+00 6.41015E+00 6.55375E+00 7.23035E+00 8.87632E-03-2.47175E-03
 -1     23353 7.64634E+00 7.28897E+00 7.46454E+00 6.64134E+00-4.51609E-03 3.22145E-03
 -1     23354-1.23181E+01-1.72202E+00-7.00634E+00-2.53390E+00 9.39255E-03 1.07056E-03
 -1     23355-9.79133E+00-3.84460E-02-4.89979E+00-1.89256E+00 8.97587E-03 3.59345E-04
 -1     23356-1.03320E+01 1.00733E-01-5.09578E+00-2.51246E+00-3.68322E-03 1.25747E-02
 -1     23357 8.73591E+00 3.85425E+00 6.28185E+00 7.41295E+00-1.82029E-02-2.20523E-02
 -1     23358 1.03862E+01 5.55022E+00 7.95663E+00 7.04759E+00 2.44891E-03-8.87149E-03
 -1     23359 8.61256E+00 3.39944E+00 5.97209E+00 7.33368E+00-4.30672E-03-1.74988E-02
 -1     23360 1.79139E-01 7.49305E+00 3.88368E+00 4.61787E+00-5.86666E-03 3.86831E-02
 -1     23361-4.35771E+00 3.86607E+00-2.15530E-01 1.51575E+00-1.78888E-02 5.99961E-02
 -1     23362-9.06555E+00-5.54774E-01-4.82034E+00 1.11934E+00 1.42965E-02 1.39634E-02
 -1     23363 7.64397E+00 3.84232E+00 5.76458E+00 7.59433E+00-1.33995E-02-1.24842E-02
 -1     23364 8.28493E+00 4.84464E+00 6.59169E+00 7.61231E+00-2.30315E-02-4.13328E-03
 -1     23365 1.00766E+01 6.02922E+00 8.04213E+00 7.05652E+00 1.31335E-02-1.27005E-02
 -1     23366 9.71945E+00 3.39726E+00 6.55954E+00 6.80762E+00-1.97780E-03 6.54724E-03
 -1     23367 9.09599E+00 3.02841E+00 6.05514E+00 6.95138E+00-1.53539E-03-1.44600E-03
 -1     23368 9.69510E+00 3.08648E+00 6.38372E+00 6.19185E+00-1.40459E-02 1.02880E-02
 -1     23369 8.26033E+00 1.63621E+00 4.97926E+00 6.35433E+00-1.16108E-02 4.34734E-03
 -1     23370 1.08669E+01 3.94277E+00 7.39883E+00 5.84612E+00-2.01387E-02 1.13003E-02
 -1     23371 4.63296E+00-1.49172E+00 1.45797E+00 4.10890E+00 1.06213E-02 6.34503E-02
 -1     23372 6.44805E+00 4.84254E-01 3.37161E+00 4.32718E+00-1.91617E-02 4.25282E-02
 -1     23373 4.05851E+00 5.58086E+00 4.80396E+00 6.68875E+00 4.06657E-03 2.95920E-03
 -1     23374 4.80448E+00 7.10071E+00 5.94340E+00 5.91662E+00 2.38831E-03 9.91423E-04
 -1     23375 5.26063E+00 6.53157E+00 5.88934E+00 6.76134E+00 4.06297E-03-9.50962E-03
 -1     23376 7.72875E+00 5.60118E+00 6.66168E+00 7.59625E+00-1.44186E-03-3.23442E-03
 -1     23377 8.78047E+00 7.05507E+00 7.92128E+00 6.96703E+00-3.15434E-04-4.33094E-03
 -1     23378 6.89357E+00 4.54361E+00 5.70801E+00 7.60060E+00-7.93098E-03-8.03150E-03
 -1     23379 9.52357E+00 3.06892E+00 6.29019E+00 6.48680E+00-4.95341E-03 1.31323E-02
 -1     23380 9.36238E+00 2.77425E+00 6.08871E+00 6.65336E+00-2.22387E-03 1.17340E-02
 -1     23381 1.05503E+01 3.63166E+00 7.09085E+00 6.11675E+00-2.62279E-03 8.83748E-03
 -1     23382-8.91649E+00 6.82594E-01-4.14229E+00-2.03137E+00 6.89735E-03 8.15044E-03
 -1     23383-1.02138E+01-5.31403E-01-5.37940E+00-2.14514E+00 3.37775E-03 9.03152E-03
 -1     23384-9.17484E+00-5.40895E-01-4.86767E+00-1.32821E+00 7.33702E-03 1.23766E-02
 -1     23385 6.19261E+00 4.45462E-01 3.38433E+00 3.24453E+00-4.24498E-02 3.04563E-02
 -1     23386 8.51739E+00 2.39998E+00 5.49766E+00 3.67598E+00-2.28631E-02 1.12225E-02
 -1     23387 4.22128E+00-1.11937E+00 1.59403E+00 3.07048E+00-1.87572E-02 1.49749E-02
 -1     23388 2.58543E+00-1.08246E+00 7.73142E-01 2.56705E+00-3.75832E-02 1.10871E-03
 -1     23389 4.80945E+00 6.48263E-01 2.73619E+00 3.01723E+00-1.86798E-02-9.19827E-03
 -1     23390-7.48812E-01-3.71782E+00-2.24997E+00 2.48274E+00-2.04272E-02 1.24509E-02
 -1     23391 9.59105E+00 3.78537E+00 6.66776E+00 7.07414E+00 9.58669E-03-3.98735E-03
 -1     23392 9.22037E+00 3.71882E+00 6.41516E+00 7.25280E+00 8.81566E-03-1.14426E-02
 -1     23393 9.74740E+00 4.21974E+00 6.97505E+00 6.81698E+00 1.77477E-02-2.01795E-02
 -1     23394 9.78470E+00 3.59836E+00 6.67595E+00 6.69750E+00 4.93509E-03-3.49004E-03
 -1     23395 4.42007E+00 6.90823E+00 5.64471E+00 6.52422E+00 1.63485E-03-6.01385E-03
 -1     23396 3.45535E+00 6.38389E+00 4.92078E+00 6.44404E+00 4.62452E-03-5.42760E-03
 -1     23397 3.68751E+00 6.61673E+00 5.15811E+00 5.84974E+00 1.15191E-02-1.43076E-03
 -1     23398-6.51374E-01 6.83128E+00 3.05574E+00 5.34057E+00-3.23833E-03 5.06265E-03
 -1     23399-2.00691E+00 5.71581E+00 1.73307E+00 5.73050E+00-2.21416E-02 6.56840E-03
 -1     23400-4.21372E+00 3.74349E+00-4.39107E-01 1.08592E+00-5.98318E-02-1.41103E-01
 -1     23401-1.16256E+01-5.24998E+00-8.46247E+00 1.40857E+00 8.62187E-03 1.05565E-01
 -1     23402-1.97939E+01-1.01092E+01-1.51356E+01 7.39382E-01 9.44024E-02-2.32391E-01
 -1     23403-8.78531E-01 3.32430E+00 1.24751E+00 1.69821E+00 3.29799E-02 1.33056E-02
 -1     23404-5.76093E+00-2.90821E+00-4.32877E+00 1.75821E+00-5.22605E-03 2.96134E-02
 -1     23405-5.93872E+00-3.61275E+00-4.78794E+00 2.05791E+00 1.65261E-02 2.33045E-02
 -1     23406-1.16291E+01-6.10034E+00-8.87687E+00 1.47615E+00 5.76665E-02 8.46848E-03
 -1     23407-2.37003E+01-1.05513E+01-1.69282E+01-1.47236E+00 1.13419E-01-3.58895E-02
 -1     23408-8.15420E+00 5.61836E+00-1.12178E+00-1.07088E+00-9.66228E-03-3.01877E-02
 -1     23409-9.71323E+00 1.17305E-01-4.77639E+00-2.24430E+00-7.44829E-04 6.24690E-03
 -1     23410-1.08939E+01-9.51274E-01-5.92299E+00-2.33063E+00 5.98577E-03 8.65631E-03
 -1     23411-9.48086E+00-6.19917E-01-5.04818E+00-1.59004E+00 7.61516E-04 1.54859E-02
 -1     23412 9.39596E+00 4.42305E+00 6.90224E+00 5.20048E+00-4.64838E-02 1.90953E-02
 -1     23413-6.26546E+00 2.39114E+00-1.87943E+00 6.25735E-01 6.31114E-03 1.94921E-02
 -1     23414-8.65763E+00-4.75907E-01-4.56242E+00 1.24996E+00 4.04647E-03 7.77747E-03
 -1     23415-2.07357E+00 6.59131E+00 2.26819E+00 9.14237E-01 1.93765E-02 4.25392E-02
 -1     23416 7.28126E+00 4.20056E+00 5.76098E+00 7.61441E+00-5.46126E-03-8.84775E-03
 -1     23417 8.26061E+00 5.48563E+00 6.87032E+00 7.61553E+00 5.14590E-04-3.72340E-03
 -1     23418 9.54853E+00 6.31982E+00 7.91948E+00 7.12636E+00-3.00442E-03-8.18795E-03
 -1     23419-5.93233E+00 1.51885E+00-2.09424E+00 5.17515E+00 1.42857E-02 2.15705E-02
 -1     23420-1.00080E+01 1.42049E+00-4.20953E+00-9.40285E-01 4.51521E-02 6.04838E-02
 -1     23421 1.02086E+01 3.48385E+00 6.85398E+00 6.41182E+00-1.14012E-03-1.31126E-04
 -1     23422-7.74363E+00-8.04165E-01-4.19799E+00 5.77832E+00-8.31041E-03-4.78580E-04
 -1     23423-1.03026E+01 2.86447E-01-4.97749E+00-1.64594E+00 4.90770E-03-1.82968E-02
 -1     23424 5.11377E+00 8.46888E+00 6.77134E+00 6.33725E+00-3.08413E-04-5.68092E-03
 -1     23425 3.28165E+00 7.17224E+00 5.22157E+00 6.26277E+00-1.06377E-02 2.70763E-03
 -1     23426 2.36707E+00 7.07029E+00 4.68224E+00 5.60230E+00 7.89115E-03 2.39313E-03
 -1     23427 2.89733E+00 6.62565E+00 4.75025E+00 5.73385E+00 1.41600E-02-3.43866E-03
 -1     23428-1.00262E+01 7.88414E-02-4.98966E+00-2.43999E+00 2.87430E-03 7.86393E-03
 -1     23429-1.14178E+01-1.16176E+00-6.28777E+00-2.47334E+00-4.10101E-03 5.36785E-03
 -1     23430-9.41359E+00-3.26981E-01-4.87641E+00-1.76908E+00 5.45459E-03 1.33910E-02
 -1     23431 1.03948E+00 9.09102E+00 5.11051E+00 2.13073E+00 8.73493E-03-8.73986E-05
 -1     23432-8.31128E+00-4.30140E-01-4.37690E+00 2.50318E+00 3.46619E-02 1.22069E-02
 -1     23433-3.38471E+00 4.29722E+00 5.02582E-01 2.70900E+00-1.54756E-02 3.96613E-02
 -1     23434 9.16704E+00 6.71200E+00 7.93417E+00 7.06370E+00-3.00092E-03-5.38951E-03
 -1     23435-1.11936E+01 1.15501E+00-5.10307E+00-4.99606E-01 2.39174E-01-1.78997E-01
 -1     23436 1.44860E-01 7.55141E+00 3.87185E+00 4.25040E+00-9.59476E-04 1.84605E-02
 -1     23437 6.08754E+00-1.76517E-01 2.89541E+00 3.78731E+00-2.10280E-02 4.29597E-02
 -1     23438 4.52989E+00-1.74339E+00 1.30683E+00 3.97608E+00 8.37537E-03 5.97865E-02
 -1     23439 1.36510E+01 6.99760E+00 1.02259E+01 4.25246E+00-3.15267E-02 4.15995E-02
 -1     23440 9.30534E+00 2.69955E+00 6.03092E+00 3.98529E+00-2.75226E-02 1.45470E-02
 -1     23441-2.20423E+00 5.34201E+00 1.73732E+00 3.47068E+00 1.31080E-02 1.82352E-02
 -1     23442-3.57411E+00-4.72247E+00-4.15965E+00 2.18909E+00-2.61595E-02 2.58145E-02
 -1     23443 1.90841E-01-1.81828E+00-8.10454E-01 2.31470E+00-3.73529E-02 1.34019E-02
 -1     23444 1.79723E+00-7.20819E-01 5.41520E-01 2.70729E+00-1.10259E-02 2.32469E-03
 -1     23445-1.85984E+00-2.16178E+00-2.02079E+00 2.40848E+00-1.65841E-04 2.03647E-02
 -1     23446 5.62918E+00 5.68660E+00 5.67678E+00 7.10586E+00 2.30952E-03 5.75920E-04
 -1     23447 5.98513E+00 6.27549E+00 6.14611E+00 7.01700E+00 4.59624E-03 5.96288E-03
 -1     23448 6.94857E+00 7.27131E+00 7.12990E+00 6.45626E+00 1.53339E-02-8.12160E-03
 -1     23449 1.58010E-01 7.05111E+00 3.56429E+00 5.15136E+00-1.70057E-02 2.17106E-02
 -1     23450-3.43494E-01 7.14070E+00 3.39657E+00 5.29427E+00-1.75186E-02 1.18472E-02
 -1     23451 5.56345E+00 3.18680E+00 4.37764E+00 6.54349E+00-2.96107E-04-1.39535E-03
 -1     23452 6.69662E+00 4.71250E+00 5.69714E+00 6.54352E+00-2.53573E-03-5.31643E-04
 -1     23453 6.23557E+00 7.16892E+00 6.69877E+00 6.28439E+00 9.50506E-03 5.89940E-03
 -1     23454 5.65258E+00 6.28886E+00 5.96801E+00 6.93990E+00 3.86945E-03-3.69871E-03
 -1     23455 4.95439E+00 1.57379E-01 2.61056E+00 4.96719E+00-1.63134E-04 3.26968E-02
 -1     23456 3.57403E+00 4.89915E+00 4.24743E+00 5.62885E+00-5.58772E-04-7.71964E-03
 -1     23457 4.10904E+00 5.74684E+00 4.92263E+00 5.51358E+00 7.29103E-03-1.29618E-03
 -1     23458-1.50880E+01-4.92938E+00-1.00096E+01-3.93561E-01 1.44064E-02-3.06275E-02
 -1     23459-6.26446E+00 4.13184E+00-1.08338E+00-2.73696E-01 3.18485E-02-1.08105E-02
 -1     23460 7.83740E+00 2.95671E+00 5.38944E+00 6.60068E+00 1.46551E-02-6.24894E-03
 -1     23461 8.90772E+00 4.39380E+00 6.65529E+00 6.66320E+00 8.46222E-03-3.75592E-05
 -1     23462-5.08977E+00 2.43320E+00-1.20917E+00 4.62080E+00-8.85871E-03 1.64867E-02
 -1     23463 5.65585E+00 6.57196E+00 6.13012E+00 6.83865E+00 6.12786E-03 4.03879E-03
 -1     23464 7.05094E+00 1.60331E+00 4.33476E+00 3.32266E+00-1.25520E-02 2.34298E-02
 -1     23465 1.34997E+01 7.62494E+00 1.04922E+01 4.95460E+00-5.81191E-02-5.32157E-02
 -1     23466 6.96939E+00 6.97726E-01 3.84658E+00 5.03413E+00-1.20658E-02-5.24439E-02
 -1     23467 6.77542E+00 9.34833E-01 3.82271E+00 4.49137E+00-4.58352E-02 1.31424E-02
 -1     23468 6.04659E+00 4.43775E-01 3.17534E+00 4.58124E+00-3.83886E-02-3.31758E-02
 -1     23469 1.49368E+01 8.72684E+00 1.16892E+01 4.56938E+00-9.93467E-03-2.60078E-02
 -1     23470-2.38766E+01-1.28996E+01-1.80587E+01 8.37664E-02 2.95477E-01-1.43270E-01
 -1     23471-3.46152E+00 7.23749E+00 2.06615E+00 2.98280E-01 2.14302E-01-2.18878E-01
 -1     23472-1.52390E+01-6.96401E+00-1.08758E+01 1.20367E+00 1.94759E-01-1.42463E-01
 -1     23473-5.26144E+00 3.80723E+00-4.80903E-01 5.15509E-01 9.72133E-02-7.90315E-02
 -1     23474-5.18119E+00 2.57837E+00-1.32086E+00-3.14295E-01 6.07893E-03-2.86279E-03
 -1     23475-7.27442E+00 4.84579E-01-3.37374E+00-4.63530E-01 2.65638E-03 1.18506E-02
 -1     23476-8.97208E+00-8.04217E-01-4.90699E+00 1.71864E+00-5.56593E-03 1.86676E-02
 -1     23477 8.93629E+00 3.72099E+00 6.25169E+00 4.89845E+00-4.36691E-02-3.55613E-02
 -1     23478 4.83305E+00 4.02013E+00 4.44959E+00 6.28896E+00 3.99029E-03 4.78928E-03
 -1     23479 5.68014E+00 5.18928E+00 5.43637E+00 6.20613E+00-1.15248E-02-2.78428E-03
 -1     23480-4.58893E+00 2.89076E+00-7.98832E-01 1.11337E+00 1.11676E-02 6.75508E-03
 -1     23481-4.75985E+00 2.73901E+00-1.02524E+00 8.36167E-01 9.37201E-03 1.40548E-02
 -1     23482-8.40370E+00 6.13394E-01-3.87200E+00-1.27519E+00 1.03995E-02-5.48539E-03
 -1     23483-1.05938E+01-1.32235E+00-5.91182E+00-1.17966E+00 1.45511E-02-1.16855E-02
 -1     23484-1.06969E+01-1.40417E+00-6.02418E+00-1.00961E+00 4.33343E-03 2.28971E-03
 -1     23485-1.17805E+01-2.19444E+00-6.99186E+00-8.78041E-01 3.05737E-02-5.50947E-03
 -1     23486-6.26617E+00 1.87915E+00-2.19430E+00-4.66655E-01 7.93589E-03 1.38026E-02
 -1     23487 1.05445E+01 3.66442E+00 7.12667E+00 6.07310E+00-6.54173E-03-1.90108E-02
 -1     23488 7.09008E+00 4.88911E-01 3.80576E+00 6.17873E+00-4.14850E-03-2.84480E-02
 -1     23489 5.22188E+00 3.61411E+00 4.41823E+00 6.46424E+00-7.46497E-03 1.11576E-03
 -1     23490 6.50140E+00 5.28065E+00 5.89891E+00 6.37237E+00 3.29331E-04-3.85077E-03
 -1     23491 7.14313E+00 5.64785E+00 6.39662E+00 5.94172E+00-3.06956E-04-1.94449E-03
 -1     23492 5.53323E+00 7.14973E+00 6.33726E+00 6.06228E+00 4.16571E-03 2.98956E-03
 -1     23493 6.11846E+00-3.94224E-01 2.81569E+00 4.90645E+00-7.49680E-04-4.95609E-02
 -1     23494 1.55856E+01 9.14906E+00 1.23943E+01 5.27839E+00 3.97138E-02-5.99390E-02
 -1     23495 7.30057E+00 4.82056E-01 3.87775E+00 5.40942E+00-1.02323E-02-1.28733E-03
 -1     23496 7.25954E+00 6.95728E-01 3.88930E+00 4.75067E+00 1.31297E-02-5.88417E-03
 -1     23497 5.19520E+00-1.52201E+00 1.76148E+00 4.49924E+00-1.46859E-02 1.26848E-02
 -1     23498 1.36580E+01 6.75388E+00 1.01853E+01 4.92813E+00-7.69434E-03 3.30592E-02
 -1     23499 8.42171E+00 1.53512E+00 4.92991E+00 4.39083E+00-1.60245E-02 1.91086E-02
 -1     23500-9.49091E+00-3.38658E-02-4.76558E+00-1.90036E+00 5.79661E-03 3.56014E-03
 -1     23501 2.23309E+00 5.62551E+00 3.91846E+00 5.17273E+00 2.70731E-03 5.63760E-04
 -1     23502 1.42867E+00 5.16810E+00 3.31083E+00 5.13830E+00-1.62201E-03 2.00346E-03
 -1     23503 6.82885E+00 2.74623E+00 4.78663E+00 6.64440E+00 6.27328E-03-4.56058E-03
 -1     23504 8.01212E+00 4.40628E+00 6.21014E+00 6.65896E+00 1.31255E-02-4.43605E-03
 -1     23505 8.47199E+00 4.35053E+00 6.43251E+00 6.26179E+00 1.40863E-02-1.08754E-02
 -1     23506 3.26865E+00 5.30692E+00 4.28447E+00 5.39235E+00 5.35049E-03 4.51145E-03
 -1     23507 3.45290E+00 5.79901E+00 4.61506E+00 5.28439E+00 6.19280E-03 2.10797E-03
 -1     23508 3.33398E+00 5.71664E+00 4.52323E+00 4.73492E+00 4.44059E-03-1.14236E-03
 -1     23509 3.38905E+00-1.84529E+00 7.82328E-01 3.55623E+00-2.06920E-03 2.49327E-02
 -1     23510 6.12415E+00 3.78205E-01 3.26058E+00 3.67716E+00-1.18293E-02 1.90481E-02
 -1     23511 4.36654E+00 5.34170E+00 4.88157E+00 5.73448E+00-7.31196E-04 8.65067E-04
 -1     23512 4.58746E+00 6.21159E+00 5.37146E+00 4.99622E+00-1.30736E-02 5.97062E-03
 -1     23513 3.64550E+00 4.28126E+00 3.96285E+00 5.83231E+00-2.18010E-03-3.05925E-03
 -1     23514 6.18514E+00-4.02655E-02 3.09154E+00 3.90935E+00-2.04968E-02 1.32486E-02
 -1     23515 7.11015E+00 5.49875E-01 3.84925E+00 4.06389E+00-5.79567E-03 1.25739E-02
 -1     23516 8.09312E+00 1.93963E+00 5.02411E+00 4.11441E+00-1.07130E-02 1.70191E-02
 -1     23517-5.97320E+00-2.66348E+00-4.32052E+00 2.03976E+00 1.38745E-02 3.08833E-02
 -1     23518-3.26691E+00-1.33123E+00-2.29493E+00 2.29130E+00 4.17722E-03 2.85063E-02
 -1     23519 2.80743E+00 5.52182E+00 4.16164E+00 5.22767E+00 7.24024E-03 2.48114E-03
 -1     23520 9.89019E-01 4.05636E+00 2.53026E+00 5.16152E+00 3.22262E-03 2.38076E-03
 -1     23521 1.66931E+00 5.48048E+00 3.57434E+00 4.45534E+00 5.66998E-03 6.37158E-03
 -1     23522 2.55348E+00 5.66486E+00 4.11149E+00 4.53051E+00 7.38594E-03 3.31460E-03
 -1     23523-5.82249E+00 1.94329E+00-1.93577E+00-6.18059E-01 4.02338E-03 1.49564E-02
 -1     23524-7.78204E+00 3.68061E-02-3.87605E+00-7.55864E-01 5.01416E-03 7.19323E-03
 -1     23525-6.95156E+00-1.87667E-02-3.46247E+00 9.12459E-02 3.38349E-03 1.20494E-02
 -1     23526 9.27099E+00 2.95088E+00 6.08866E+00 6.29272E+00-3.16731E-03 2.74121E-03
 -1     23527 7.99756E+00 1.92669E+00 4.95548E+00 6.38217E+00 6.58706E-03-1.12521E-02
 -1     23528 9.67529E+00 3.13379E+00 6.35310E+00 5.90236E+00-9.30042E-03 7.47953E-03
 -1     23529-6.96263E+00 7.37272E-01-3.13850E+00-1.64919E-01 1.60079E-02 1.97610E-02
 -1     23530-7.38567E+00-4.65225E-01-3.93408E+00 4.22355E-01 4.35100E-03 1.11032E-02
 -1     23531-4.64391E+00 3.03791E+00-8.07964E-01 5.56952E-02 2.15054E-03 7.45754E-03
 -1     23532 7.10814E+00 1.77384E+00 4.42335E+00 6.52983E+00 7.56096E-03-4.62433E-03
 -1     23533 8.96969E+00 3.87944E+00 6.41473E+00 6.19353E+00-1.40829E-04-7.55799E-03
 -1     23534 8.59681E+00 2.94130E+00 5.75162E+00 6.44703E+00 1.30569E-03-3.66207E-03
 -1     23535-6.64010E+00 1.27599E+00-2.69188E+00-9.28569E-01 7.70163E-03 1.78573E-03
 -1     23536-8.37591E+00-3.56525E-01-4.35836E+00-1.03207E+00-2.00280E-03 8.95276E-04
 -1     23537-6.84365E+00 2.20747E-01-3.30476E+00-1.92866E-01-3.68584E-03 1.08710E-02
 -1     23538-5.25995E+00 2.35579E+00-1.29356E+00 3.93234E+00 1.82709E-02 2.18887E-02
 -1     23539 6.43549E+00 3.25396E+00 4.84514E+00 6.63921E+00 1.23599E-02-6.91682E-03
 -1     23540 6.51010E+00 3.70795E+00 5.11258E+00 6.61988E+00-1.10676E-05 1.06420E-03
 -1     23541 7.52515E+00 5.18779E+00 6.35925E+00 6.11334E+00 3.98897E-03-1.89371E-04
 -1     23542 8.07618E+00 4.85425E+00 6.47751E+00 6.16038E+00 1.15817E-02-4.26854E-03
 -1     23543-1.04014E+01-1.57117E+00-5.96601E+00-1.30020E+00 1.01368E-02-1.77062E-03
 -1     23544-7.95821E+00-4.94864E-03-3.97534E+00-6.54040E-01 3.38307E-03-5.00288E-03
 -1     23545-8.14336E+00 5.61286E-01-3.77375E+00-1.32239E+00 1.03787E-03-7.66684E-03
 -1     23546-1.83481E+00 6.02684E+00 2.05452E+00 2.51536E+00 4.05425E-03 1.07568E-02
 -1     23547-3.30082E+00 4.45483E+00 5.88350E-01 2.33466E+00 1.67013E-02 4.22233E-03
 -1     23548-3.85662E+00 3.69326E+00-9.38308E-02 1.41155E+00 7.24042E-03-1.04006E-02
 -1     23549-4.99601E+00 1.86532E+00-1.52493E+00 1.94262E+00 2.38167E-02 1.61363E-02
 -1     23550-4.43767E+00 3.16334E+00-6.46946E-01 1.65686E+00 1.44863E-02 2.54733E-03
 -1     23551 6.55389E+00 5.84337E+00 6.21052E+00 5.77101E+00 4.67732E-04 1.53915E-03
 -1     23552-3.68304E+00 3.96738E+00 1.55602E-01 2.14655E+00 5.29791E-03 8.17738E-03
 -1     23553-2.38783E+00 5.33960E+00 1.48119E+00 1.93170E+00 4.45532E-03 3.40063E-03
 -1     23554-5.05394E+00 2.04790E+00-1.50260E+00 2.49729E+00 8.13765E-03 1.30388E-02
 -1     23555-4.96792E+00 2.29259E+00-1.33268E+00 2.98017E+00 1.59012E-02 8.77723E-03
 -1     23556 8.36038E+00 1.37932E+00 4.88316E+00 5.25569E+00-3.48378E-02 2.27768E-02
 -1     23557 1.14114E+01 4.50046E+00 7.95588E+00 5.50502E+00-1.90018E-02 8.07737E-03
 -1     23558 7.88814E+00 8.51420E-01 4.40428E+00 5.64491E+00 1.19465E-02 5.70803E-03
 -1     23559 7.42910E+00 3.50238E-01 3.94334E+00 5.06472E+00-1.81486E-02 1.09778E-02
 -1     23560-1.16883E+01-1.92254E+00-6.75954E+00-6.83270E-01 2.37559E-02-2.79600E-02
 -1     23561-1.30604E+01-3.16078E+00-8.15506E+00-5.40597E-01 4.90994E-02-3.61691E-02
 -1     23562 7.61641E+00 8.89375E-01 4.30202E+00 4.29164E+00-1.26506E-02 7.21286E-03
 -1     23563 6.38690E+00-4.82692E-01 2.90894E+00 4.39496E+00-2.02855E-02-7.35043E-03
 -1     23564 9.85148E+00 2.88587E+00 6.35218E+00 4.73373E+00-7.54218E-03 1.72823E-02
 -1     23565 9.65671E+00 2.79201E+00 6.20549E+00 4.51673E+00-5.65806E-03 1.13908E-02
 -1     23566 4.16324E+00 4.06650E+00 4.10632E+00 6.04949E+00-4.91030E-03-3.13349E-03
 -1     23567 4.88050E+00 5.11786E+00 4.99982E+00 5.96304E+00 3.62474E-03-5.77208E-03
 -1     23568 6.24750E+00 6.35568E+00 6.28977E+00 5.53546E+00-4.04621E-03-5.50712E-03
 -1     23569-4.54721E+00 3.02072E+00-7.58290E-01 5.31487E-01 5.85345E-03 8.18932E-03
 -1     23570-5.96312E+00 1.66101E+00-2.15491E+00 3.10103E-01 5.79054E-03 1.29988E-02
 -1     23571-6.08330E+00 7.35515E-01-2.69105E+00 1.37409E+00 2.40968E-03 6.00517E-03
 -1     23572-6.55649E+00 1.76665E+00-2.35876E+00-1.40846E-01 3.51789E-02 1.28416E-02
 -1     23573-7.03828E+00 1.48933E+00-2.65163E+00 1.88046E-01 2.15814E-02 1.67323E-02
 -1     23574-6.88728E+00 1.21600E+00-2.85340E+00-1.12283E+00 8.34201E-03 1.85283E-03
 -1     23575-8.83923E+00-5.96860E-01-4.72021E+00-1.21565E+00-5.71065E-03 3.78513E-03
 -1     23576-7.78659E+00-5.86286E-01-4.17294E+00-4.56248E-01-7.26364E-03 5.74155E-03
 -1     23577 7.21842E-02 6.09536E+00 3.00067E+00 4.92150E+00 3.69131E-02-1.73205E-03
 -1     23578-1.86804E+00 4.54933E+00 1.27029E+00 4.99901E+00 2.40774E-02 2.89615E-03
 -1     23579-6.73285E+00-6.30768E+00-6.53030E+00 2.52191E+00-1.26847E-02 1.79445E-02
 -1     23580-8.33814E-01-1.57370E+00-1.21398E+00 2.66604E+00-2.18132E-02 1.43391E-02
 -1     23581-3.47502E+00-2.05275E+00-2.77173E+00 2.44752E+00-9.83858E-03-3.93237E-03
 -1     23582-3.36029E+00 3.62218E+00 6.04409E-02 4.43879E+00-2.75826E-02 3.91995E-02
 -1     23583 4.33232E+00-2.01924E-01 2.07192E+00 3.36548E+00-1.59288E-03 2.10469E-02
 -1     23584 5.96819E+00 9.90347E-01 3.47739E+00 3.74319E+00-3.91735E-03 2.09693E-02
 -1     23585 5.98198E-01-3.17205E+00-1.28681E+00 3.25298E+00-9.03565E-03 4.29409E-03
 -1     23586-4.98225E-01 5.07339E+00 2.26788E+00 4.78696E+00 1.68138E-02 5.13605E-03
 -1     23587-1.63962E+00 4.62456E+00 1.47166E+00 4.16837E+00 1.13664E-02 1.44658E-02
 -1     23588 1.02522E+00 6.04947E+00 3.51409E+00 4.87045E+00-4.58884E-04-6.64991E-03
 -1     23589-7.31519E+00 1.10840E+00-3.10289E+00-1.29470E+00 1.09812E-02 1.32026E-02
 -1     23590-9.68034E+00-1.11229E+00-5.37634E+00-1.29491E+00-5.92400E-04-4.94858E-03
 -1     23591-6.90007E+00 8.49294E-01-2.99265E+00-7.20210E-01 8.77966E-03-1.53220E-03
 -1     23592-7.38651E+00 1.21621E-02-3.68372E+00-6.17703E-01 7.14787E-03 7.62257E-03
 -1     23593 4.70945E+00-1.15637E+00 1.78553E+00 4.27417E+00-9.19573E-03 1.75608E-02
 -1     23594 6.84817E+00 4.50048E-01 3.65683E+00 4.42744E+00-1.08770E-02 2.79546E-02
 -1     23595 3.72043E+00 2.42974E+00 3.07548E+00 5.47038E+00-1.38869E-04 3.04936E-03
 -1     23596 4.80870E+00 3.96002E+00 4.39032E+00 5.39975E+00-3.54403E-04 1.88981E-05
 -1     23597 1.08945E+01 3.90118E+00 7.41626E+00 5.74105E+00-4.14813E-03-8.67355E-03
 -1     23598 7.44761E+00 4.74680E-01 3.98014E+00 5.91853E+00 2.63381E-03-2.08947E-02
 -1     23599-1.86010E+00 5.76122E+00 2.01229E+00 3.87330E+00-3.78205E-03 3.58512E-02
 -1     23600-2.49830E+00-4.44605E+00-3.49235E+00 2.91352E+00-1.53888E-02 7.27584E-03
 -1     23601 1.92491E+00-9.51729E-01 4.87394E-01 3.02593E+00-1.65286E-02-6.30305E-05
 -1     23602 3.05817E+00-2.91139E-01 1.38756E+00 3.35208E+00-3.37559E-03 6.59119E-03
 -1     23603-5.59684E-02-1.27232E+00-6.60232E-01 2.93005E+00-5.50356E-03 5.93371E-03
 -1     23604-6.72905E+00 3.23245E-01-3.19558E+00 4.24681E-02 1.32726E-02-3.71292E-03
 -1     23605-8.89935E+00-1.79360E+00-5.35265E+00 1.53585E-01-8.16245E-03 3.64729E-03
 -1     23606-2.31741E-01 6.41717E+00 3.11203E+00 1.44658E+00 2.58189E-02-4.99050E-02
 -1     23607-8.44972E+00-3.26408E+00-5.82178E+00 1.77490E+00 1.00488E-02-2.46407E-02
 -1     23608-8.57434E+00-3.75459E+00-6.19210E+00 1.78215E+00-4.12101E-03 3.34286E-02
 -1     23609-1.23459E+01-4.49810E+00-8.03479E+00 1.17777E+00 1.37051E-01-1.48935E-01
 -1     23610-1.63421E+00 5.81465E+00 1.96650E+00 3.86358E+00 2.59819E-03 5.66276E-03
 -1     23611-6.39779E+00 1.17787E+00-2.64269E+00 3.12216E+00-1.28942E-02 3.03938E-02
 -1     23612-8.59769E+00-1.82547E+00-5.26466E+00 7.72902E-01-3.67912E-02-4.01724E-02
 -1     23613-1.06770E+01-3.77076E+00-7.24021E+00 9.56327E-01-2.02627E-02-3.50649E-02
 -1     23614 9.69595E+00 2.67879E+00 6.19353E+00 5.67193E+00-4.89029E-03-3.06214E-02
 -1     23615 9.97948E+00 2.88295E+00 6.40286E+00 5.29954E+00 5.72871E-03-1.44764E-02
 -1     23616 6.28892E+00-6.10759E-01 2.81527E+00 5.41781E+00 6.82452E-03-1.68337E-02
 -1     23617-1.98076E+00 4.24673E+00 1.12468E+00 2.73774E+00 2.50115E-02 5.36779E-03
 -1     23618-2.16976E+00 4.05694E+00 9.54023E-01 2.46709E+00 1.14485E-02 1.53979E-02
 -1     23619-8.61328E+00-1.57507E+00-5.01424E+00 3.61284E-01-9.10827E-03-1.16294E-02
 -1     23620-8.72748E+00-1.67193E+00-5.06946E+00 4.96062E-01 6.26659E-03-1.00986E-02
 -1     23621-6.40770E+00-4.77589E-01-3.36937E+00 8.23632E-01-2.97502E-02-4.08839E-03
 -1     23622 2.04336E+00 6.04984E+00 4.05208E+00 5.23814E+00 9.02142E-03 6.34908E-03
 -1     23623 3.08487E-01 4.77118E+00 2.56108E+00 5.14786E+00 7.69870E-03 7.92339E-03
 -1     23624 6.83150E-01 5.06771E+00 2.87633E+00 4.54011E+00 1.42775E-02 3.55803E-03
 -1     23625 3.26220E+00 2.79555E+00 3.04198E+00 5.30763E+00-1.24297E-03 7.34631E-03
 -1     23626 4.53623E+00 4.46380E+00 4.51496E+00 5.18788E+00 4.11400E-03 1.66672E-03
 -1     23627 5.00372E+00 4.74971E+00 4.88357E+00 4.83745E+00-1.88018E-03 1.73704E-03
 -1     23628 9.75760E+00 2.60953E+00 6.26032E+00 5.42253E+00 1.88334E-02-1.72322E-02
 -1     23629-1.25790E+00 5.75690E+00 2.16855E+00 3.72688E+00 1.68607E-02-1.76489E-02
 -1     23630-1.91799E+00 4.98646E+00 1.47595E+00 3.55050E+00 1.63420E-02 2.26856E-02
 -1     23631 5.54949E+00 1.38751E+00 3.45796E+00 5.86494E+00 5.67041E-03 4.47749E-03
 -1     23632 6.55798E+00 2.87378E+00 4.71011E+00 5.86057E+00 5.50043E-03-9.29541E-03
 -1     23633-3.19719E+00 2.87917E+00-1.70655E-01 8.35353E-01 5.83153E-03 2.36071E-03
 -1     23634-5.00807E+00 1.09795E+00-1.92482E+00 6.94182E-01-3.27843E-03 1.61593E-02
 -1     23635 1.19181E+00 4.00247E+00 2.61524E+00 3.99253E+00 3.43998E-03-1.65200E-03
 -1     23636 5.99255E-01 3.82616E+00 2.20956E+00 3.88566E+00 1.30881E-02 3.21184E-03
 -1     23637 5.46165E+00 3.73460E+00 4.60656E+00 5.60997E+00 4.53684E-03-4.25127E-03
 -1     23638 5.46706E+00 4.38979E+00 4.92196E+00 5.05953E+00 3.00370E-03-1.66399E-03
 -1     23639 4.27677E+00 2.06605E+00 3.18382E+00 5.65624E+00 1.65825E-02-4.27816E-03
 -1     23640 1.01950E+00 6.23790E+00 3.64443E+00 4.35008E+00 9.64072E-03 3.18556E-03
 -1     23641-6.61370E+00 3.23521E-01-3.15376E+00 8.11798E-01 4.22151E-03 1.08421E-02
 -1     23642 6.97571E-01 5.08190E+00 2.89304E+00 3.66041E+00 6.89755E-03 5.28536E-03
 -1     23643-9.54242E-01 3.73138E+00 1.39223E+00 3.65657E+00 7.15753E-03 1.02861E-02
 -1     23644 9.67689E+00 3.77059E+00 6.72009E+00 6.06765E+00 5.31287E-03-8.58489E-03
 -1     23645 7.03507E+00-1.63863E-02 3.47613E+00 5.13236E+00 1.53696E-02-1.02267E-02
 -1     23646 8.83585E+00 1.83996E+00 5.27369E+00 4.84969E+00 1.68316E-02-1.36551E-02
 -1     23647 9.54279E+00 2.99218E+00 6.25577E+00 5.53512E+00-5.20380E-03-2.50617E-03
 -1     23648 6.68136E+00 3.26724E-01 3.48517E+00 5.63490E+00 3.50573E-03 9.59096E-03
 -1     23649 8.67473E+00 2.05984E+00 5.32129E+00 5.16690E+00 4.63400E-04-3.34509E-04
 -1     23650 4.75087E+00 5.62951E+00 5.19172E+00 5.23409E+00 1.03485E-03-1.27105E-02
 -1     23651-2.45322E+00 2.98730E+00 2.62447E-01 3.06679E+00 4.70831E-03 7.02238E-03
 -1     23652 4.26077E-01 5.33869E+00 2.89063E+00 3.86081E+00 7.89989E-03 8.06058E-03
 -1     23653-3.40501E+00 2.74489E+00-3.53148E-01 5.18536E-01 6.66036E-03 1.39480E-02
 -1     23654-5.33037E+00 8.97855E-01-2.19467E+00 3.64591E-01-4.40784E-03 1.35396E-02
 -1     23655-4.23381E+00 1.10234E+00-1.53876E+00 1.25135E+00-1.66405E-02 1.01950E-02
 -1     23656-6.49271E+00-1.00196E+00-3.77891E+00 1.27922E+00-2.62491E-02-1.04904E-02
 -1     23657-9.65428E-01 5.57274E+00 2.31690E+00 3.41421E+00 3.97694E-03 5.66408E-03
 -1     23658-6.89465E-01 4.46797E+00 1.90061E+00 3.94976E+00 1.32648E-02 8.74204E-03
 -1     23659 9.14910E+00 2.58656E+00 5.85749E+00 4.80507E+00-8.81407E-03 1.77359E-02
 -1     23660 5.76363E+00-1.00223E+00 2.37135E+00 4.69325E+00-2.61620E-03 1.61288E-02
 -1     23661 2.64593E+00 3.01257E+00 2.85015E+00 5.02914E+00 5.93900E-03 1.26005E-03
 -1     23662 3.31274E+00 4.06445E+00 3.70451E+00 4.88249E+00-1.02950E-02-4.87368E-03
 -1     23663 4.51877E+00 5.09031E+00 4.82907E+00 4.56917E+00 1.33640E-03 7.59661E-03
 -1     23664-1.24847E+01-4.96780E+00-8.63913E+00 8.77496E-01-9.48575E-03-5.50329E-02
 -1     23665-2.15767E+00 3.85954E+00 8.37185E-01 2.27253E+00 6.81754E-04 7.36246E-03
 -1     23666 7.39435E+00 2.68444E+00 5.04983E+00 5.88839E+00-1.06121E-02-2.54439E-03
 -1     23667 7.59497E+00 3.41567E+00 5.46296E+00 5.52421E+00 6.66890E-03 1.85095E-02
 -1     23668 5.64249E+00 4.63188E-01 3.03497E+00 5.86927E+00-1.44299E-02 7.62287E-04
 -1     23669-3.02161E+00 2.99711E+00-1.37593E-02 1.97212E+00 3.24044E-03 9.51931E-03
 -1     23670-2.67684E+00-2.32455E-01-1.53027E+00 2.42381E+00-2.43758E-02-2.64527E-02
 -1     23671-2.68863E+00-1.80932E+00-2.24415E+00 2.69285E+00-7.39664E-03 2.59211E-02
 -1     23672-2.69881E+00 3.66478E+00 5.30668E-01 1.95865E-01-6.98901E-03 5.60972E-03
 -1     23673-6.55358E+00-1.33318E-01-3.35179E+00 9.03089E-02-4.98017E-04-4.78842E-03
 -1     23674-5.34696E+00 1.34190E-01-2.60640E+00 9.05497E-01 3.01359E-03 6.08832E-03
 -1     23675 1.84251E+00 4.13530E+00 2.96471E+00 4.37129E+00 1.22916E-02 2.46759E-03
 -1     23676 9.23306E-01 4.02240E+00 2.46850E+00 3.51938E+00 2.84586E-03-6.95527E-03
 -1     23677 1.91928E+00 3.81987E+00 2.87340E+00 4.51645E+00-4.70721E-03-7.39540E-03
 -1     23678-1.17280E+00 5.18379E+00 2.04136E+00 3.15068E+00 2.50457E-02 2.44521E-03
 -1     23679-4.30576E+00 1.85781E+00-1.22254E+00 1.00676E+00 6.14702E-03 5.29020E-03
 -1     23680-3.19270E+00 2.16328E+00-4.90109E-01 1.60978E+00 6.88115E-03-1.16972E-03
 -1     23681-2.34298E+00 3.86290E+00 7.58676E-01 1.14798E+00 5.48364E-03 1.36566E-03
 -1     23682 5.66439E+00 3.91977E-01 3.03486E+00 4.06593E+00-5.72558E-03 1.49136E-02
 -1     23683 6.55694E+00 9.86850E-01 3.77007E+00 4.41332E+00-5.88693E-03 1.22452E-03
 -1     23684 3.47428E+00-1.10847E+00 1.18345E+00 3.88449E+00-4.34872E-04 2.32457E-02
 -1     23685-7.90567E+00-8.81569E-01-4.36366E+00-2.81769E-02 3.31946E-03-2.11044E-03
 -1     23686-6.73409E+00-7.56516E-01-3.73948E+00 6.04331E-01 1.59531E-02-6.12322E-03
 -1     23687-6.06736E+00 7.99153E-01-2.62218E+00-1.05372E-01-2.24788E-03-7.09868E-03
 -1     23688-4.11297E+00 1.62217E+00-1.27544E+00 1.46012E+00 3.05038E-03-7.67640E-03
 -1     23689-6.31312E+00-1.92142E+00-4.11811E+00 1.61248E+00-1.84544E-02 8.26223E-03
 -1     23690-1.62688E+00 2.39593E+00 3.96875E-01 1.80545E+00-3.05607E-02 8.93157E-03
 -1     23691-1.97833E+00 3.73872E+00 9.02700E-01 3.66563E+00 1.55510E-02-3.14094E-03
 -1     23692 9.94682E+00 2.81287E+00 6.42049E+00 4.99903E+00 4.63971E-02-2.61851E-03
 -1     23693 8.05410E+00 2.08426E+00 5.10855E+00 5.71838E+00 1.47225E-02-2.22402E-02
 -1     23694 6.30240E+00 7.71140E-01 3.51759E+00 5.83004E+00-3.59019E-03-1.60679E-02
 -1     23695 8.47554E+00 2.50714E+00 5.50274E+00 5.37108E+00 7.63896E-03-2.81857E-02
 -1     23696-7.10486E-01 3.86924E+00 1.59472E+00 1.96270E+00-2.36825E-02 2.70503E-03
 -1     23697-3.77481E+00 8.22845E-01-1.51560E+00 1.80883E+00-1.29065E-02 4.69675E-03
 -1     23698-5.76320E+00-1.59124E+00-3.76147E+00 1.83202E+00-2.14700E-03 1.47888E-02
 -1     23699 5.06897E+00 1.94042E+00 3.53031E+00 5.77997E+00 5.48456E-03 1.56668E-02
 -1     23700 6.67609E+00 3.98880E+00 5.36859E+00 5.71622E+00 1.02451E-02 4.11341E-03
 -1     23701 6.11356E+00 4.01358E+00 5.09023E+00 5.22499E+00 7.07695E-03 6.46681E-03
 -1     23702 6.37557E+00 3.27187E+00 4.79963E+00 5.41926E+00-2.20695E-03-4.08102E-03
 -1     23703 6.18737E+00-5.63658E-02 3.04763E+00 4.97135E+00-1.39267E-02 1.06300E-02
 -1     23704 2.09442E+00 5.63381E+00 3.87122E+00 3.88637E+00 1.63772E-03 2.35802E-03
 -1     23705-1.41301E-01 3.75607E+00 1.78590E+00 3.79946E+00 6.71453E-03 5.89298E-03
 -1     23706-4.12087E-02 4.69637E+00 2.31901E+00 3.00936E+00 1.67560E-03 3.31901E-03
 -1     23707-3.77066E-01 3.59503E+00 1.60776E+00 3.15329E+00 8.41349E-03-2.16823E-03
 -1     23708 1.82419E+00 1.93130E+00 1.86573E+00 4.37369E+00-3.53619E-03 5.66238E-03
 -1     23709-6.40406E-02 4.81906E-01 2.25076E-01 4.28090E+00-2.88323E-03-1.01358E-03
 -1     23710-2.93107E+00 2.53860E+00-1.90377E-01 2.39441E+00 4.11217E-04 7.63499E-03
 -1     23711-2.79953E+00 3.48260E+00 3.36547E-01 1.49153E+00 2.45744E-03 9.00877E-03
 -1     23712-4.63684E+00 1.66944E+00-1.47779E+00 1.22907E+00-4.24566E-04 6.96221E-03
 -1     23713-1.29073E+00 3.66894E+00 1.20227E+00 2.53789E+00 1.16354E-03-9.50685E-04
 -1     23714-6.09450E+00-2.61701E+00-4.45622E+00 2.03115E+00-1.88673E-02-1.71176E-02
 -1     23715 1.84099E+00 3.10857E+00 2.46158E+00 4.56171E+00-8.38356E-04-1.88930E-03
 -1     23716 1.93597E+00 3.62984E+00 2.81092E+00 4.43907E+00 4.78954E-04-3.23882E-03
 -1     23717 1.64583E+00 3.99170E+00 2.80988E+00 3.81147E+00 8.13352E-03-3.40787E-03
 -1     23718 3.28087E+00 4.86031E+00 4.06289E+00 4.06903E+00 6.14246E-03 2.74994E-03
 -1     23719-4.90995E+00-2.46249E+00-3.73660E+00 2.42141E+00-1.67232E-02-7.73593E-03
 -1     23720 3.91097E+00 3.62235E+00 3.73061E+00 4.49487E+00 3.66315E-03-4.50464E-03
 -1     23721 2.54178E+00 2.95884E+00 2.71314E+00 3.94507E+00 7.66386E-03-7.91853E-03
 -1     23722 1.98376E+00 1.25453E+00 1.57840E+00 4.58626E+00 1.56859E-02-7.96015E-05
 -1     23723-1.81526E+00 3.02559E+00 6.09779E-01 1.27514E+00-7.67081E-03 7.63257E-03
 -1     23724-4.12516E+00 6.79217E-01-1.69648E+00 1.40985E+00-2.24393E-02 1.74409E-02
 -1     23725-5.28094E+00-1.93934E+00-3.51822E+00 2.02179E+00-1.64267E-02 1.19362E-02
 -1     23726 8.13369E+00 3.00401E+00 5.58533E+00 5.52821E+00-1.03726E-03-8.78650E-03
 -1     23727-1.82848E+00-2.42030E+00-2.11705E+00 3.01419E+00 1.12625E-02 1.23729E-02
 -1     23728 6.66493E-01-1.04894E+00-1.86229E-01 3.23710E+00 1.50390E-03 1.56215E-02
 -1     23729-1.94343E+00-1.61497E+00-1.76400E+00 2.90644E+00 1.76872E-02 4.53003E-03
 -1     23730 8.49006E-01-2.00297E+00-5.71171E-01 3.48813E+00 1.09853E-02 3.36251E-03
 -1     23731 3.26420E+00-4.86860E-01 1.38896E+00 3.69459E+00-2.22410E-03 1.23828E-02
 -1     23732 2.97058E+00-1.16549E+00 9.11515E-01 3.97561E+00-1.00043E-03 1.15042E-02
 -1     23733 1.10492E+00-1.04547E+00 4.26390E-02 3.48709E+00 1.50649E-02 6.22934E-03
 -1     23734 3.87724E+00-2.19690E-01 1.80672E+00 5.21966E+00-1.87670E-03 4.48074E-03
 -1     23735 5.40418E+00 1.81295E+00 3.57134E+00 5.18362E+00 1.07967E-02 3.41585E-03
 -1     23736-9.96664E-01 2.20509E+00 5.79927E-01 3.20430E+00-1.10496E-02-1.34913E-02
 -1     23737 6.29341E-02 3.83912E+00 1.94216E+00 2.82286E+00-1.63435E-02-1.00550E-02
 -1     23738-1.41037E+00 3.18124E+00 8.50858E-01 1.59903E+00-2.10129E-04 4.35634E-03
 -1     23739-3.80692E+00 8.95770E-01-1.44646E+00 1.45102E+00 9.97725E-03-8.22266E-04
 -1     23740-1.35829E+00 2.50882E+00 5.16388E-01 2.31080E+00-1.24969E-02-4.35067E-03
 -1     23741 4.41149E+00 1.44335E+00 2.90383E+00 5.08614E+00 2.58396E-03 7.72872E-03
 -1     23742 4.63990E+00 2.21377E+00 3.42105E+00 5.00864E+00 1.91221E-02 4.70792E-03
 -1     23743 4.67821E+00 1.80314E+00 3.22587E+00 4.82418E+00 9.01875E-03-8.92011E-03
 -1     23744 1.43810E+00 2.20959E+00 1.84208E+00 4.23055E+00 1.49913E-03 1.37705E-02
 -1     23745 2.96207E+00 4.20937E+00 3.61214E+00 4.03342E+00 5.53083E-03 1.05213E-03
 -1     23746 2.77578E+00 3.90430E+00 3.36125E+00 3.76013E+00 4.85550E-03-6.33537E-03
 -1     23747-3.94116E+00-2.28488E+00-3.08169E+00 2.64868E+00-1.18187E-02 5.27209E-03
 -1     23748 7.95344E-01 1.74743E+00 1.25835E+00 2.85001E+00-9.15533E-03-5.80856E-03
 -1     23749 5.98881E+00 1.81344E-01 3.03293E+00 4.71514E+00 1.02428E-02-1.80691E-02
 -1     23750 8.52486E+00 2.59938E+00 5.55665E+00 5.05531E+00 1.67144E-02-1.88674E-02
 -1     23751 5.27285E+00-2.23905E-01 2.52350E+00 5.12798E+00 1.27412E-02-1.43644E-02
 -1     23752 4.23804E+00-9.36450E-01 1.64382E+00 4.51894E+00 1.10207E-02 2.96499E-04
 -1     23753-3.42018E+00 2.14999E+00-6.40562E-01 1.83459E+00 3.86696E-03 7.80699E-03
 -1     23754-7.62519E-01-1.13114E+00-9.07825E-01 3.19112E+00 6.34673E-03 1.53562E-02
 -1     23755-4.25689E+00 2.21407E+00-1.02744E+00-9.87394E-03 2.49963E-03-1.04980E-02
 -1     23756-7.22019E+00-6.43046E-01-3.91771E+00-7.78479E-02 5.88171E-03 2.95558E-03
 -1     23757-6.10137E+00-4.91864E-01-3.31220E+00 6.32385E-01 2.39925E-03-1.03902E-02
 -1     23758-5.14128E+00 1.58244E+00-1.78424E+00-1.33196E-01 1.55386E-02-8.17822E-03
 -1     23759-7.70580E+00-8.98985E-01-4.29328E+00-1.32617E-01-1.14253E-03-1.56304E-02
 -1     23760-5.59838E+00 2.97019E-01-2.63430E+00 4.57406E-01 4.83933E-03 3.78055E-04
 -1     23761-5.10606E+00 6.72464E-01-2.21449E+00 5.07118E-01 5.61307E-03-2.62011E-03
 -1     23762-5.39510E+00-4.52883E-01-2.93408E+00 1.12132E+00 1.58859E-02-1.26752E-02
 -1     23763-4.31869E+00-4.94955E-01-2.44987E+00 1.73893E+00 1.15773E-02 1.51588E-02
 -1     23764-3.35427E+00 1.65346E+00-9.20943E-01 1.04118E+00 3.48976E-02-7.07539E-03
 -1     23765-2.12398E+00 2.35487E+00 1.35071E-01 2.29477E+00-1.13749E-02-2.48249E-04
 -1     23766-7.50663E-01 3.77392E+00 1.51318E+00 2.45295E+00 6.57454E-03 3.49496E-04
 -1     23767 2.72492E+00 8.54131E-01 1.82540E+00 4.87268E+00 1.32189E-02-4.10253E-03
 -1     23768 4.14070E+00 2.79706E+00 3.44987E+00 4.75548E+00 1.40088E-02-3.19320E-03
 -1     23769 4.06940E+00 2.35297E+00 3.25482E+00 4.54400E+00 2.49172E-02-5.58961E-03
 -1     23770 6.41765E+00 1.37146E+00 3.89097E+00 5.19301E+00 4.56453E-03-1.69270E-03
 -1     23771 6.29107E+00 1.69004E+00 3.98816E+00 5.23732E+00-2.33562E-03 8.61533E-03
 -1     23772 4.77647E+00 8.11180E-01 2.75117E+00 4.89441E+00 4.51186E-03 5.83764E-03
 -1     23773 5.45531E+00 4.83958E-01 2.94938E+00 4.85957E+00 7.23899E-03 1.48869E-03
 -1     23774-2.13520E+00 2.72748E+00 3.06520E-01 2.46768E+00-3.82202E-03 2.11004E-03
 -1     23775 1.09017E+00 4.12726E+00 2.59677E+00 3.14172E+00-8.45775E-03-1.71713E-02
 -1     23776 1.27969E+00 3.30938E+00 2.28830E+00 2.51000E+00-2.84491E-02 3.10881E-02
 -1     23777-3.04592E+00-2.34214E+00-2.73120E+00 2.97222E+00-1.81890E-02 1.86270E-02
 -1     23778-2.84043E+00-4.70322E-01-1.60179E+00 2.37517E+00-3.02483E-03 2.98242E-02
 -1     23779-3.71096E-01-1.26226E+00-8.08585E-01 3.43440E+00 4.61390E-03 4.91440E-04
 -1     23780 1.39903E+00-1.95733E-01 6.17453E-01 3.52390E+00 7.21962E-03 5.64124E-03
 -1     23781 3.32867E+00 2.80191E+00 3.05489E+00 4.22459E+00 2.21138E-02-9.22432E-03
 -1     23782-8.20608E-01 2.17912E+00 6.59846E-01 2.93973E+00 3.39688E-03-1.29524E-02
 -1     23783 4.52190E+00 7.93658E-01 2.66590E+00 4.61479E+00-1.02303E-02 4.15317E-03
 -1     23784 4.78379E+00 1.55546E+00 3.13825E+00 4.62023E+00-3.56816E-03 3.03237E-04
 -1     23785 8.78935E-01 1.91045E+00 1.39766E+00 3.43274E+00 3.14918E-03-8.77587E-03
 -1     23786-2.25746E-01 1.20651E+00 4.68723E-01 3.30499E+00 2.16528E-03 1.65566E-03
 -1     23787 2.47559E+00-1.38719E-01 1.17140E+00 3.77678E+00-5.12265E-03 1.40968E-03
 -1     23788 6.87055E-01 2.36767E+00 1.52170E+00 3.25638E+00-4.68969E-03 1.83964E-02
 -1     23789-1.48538E+00 4.20110E-01-5.20520E-01 3.21393E+00-7.05688E-05-4.39288E-04
 -1     23790-2.35049E-01 2.08921E+00 9.35982E-01 2.76562E+00 1.39959E-02-1.16422E-02
 -1     23791-2.17196E-02 1.75676E+00 8.66918E-01 3.69503E+00 8.21628E-03 4.73719E-03
 -1     23792 6.95380E-01 3.05039E+00 1.87570E+00 3.37650E+00 2.87447E-03-2.58358E-04
 -1     23793 2.92476E-01 3.44989E+00 1.84702E+00 2.58453E+00 1.47439E-04-8.57462E-03
 -1     23794 1.64755E+00 3.60258E+00 2.64353E+00 3.37669E+00-2.52925E-05 1.20319E-03
 -1     23795 4.63289E+00 1.52187E-01 2.40009E+00 4.26990E+00 2.99163E-03 1.75433E-02
 -1     23796 6.87972E+00 2.10022E+00 4.46585E+00 4.56323E+00 1.46111E-02 3.19053E-03
 -1     23797 5.10244E+00 8.37002E-01 2.94357E+00 4.62744E+00-6.07971E-04 1.27648E-02
 -1     23798 3.35146E+00-2.93759E-01 1.54929E+00 4.06491E+00 1.78250E-03-2.32952E-03
 -1     23799 1.23370E+00 1.62831E+00 1.41716E+00 3.69536E+00 1.91868E-02-3.45130E-04
 -1     23800 8.40739E-01 2.21523E+00 1.51202E+00 3.08799E+00-4.75730E-03-5.21070E-03
 -1     23801 6.92592E-01 5.41545E-01 5.85496E-01 3.90292E+00 3.32871E-02-1.17428E-02
 -1     23802 3.33515E+00-1.42832E-01 1.57900E+00 4.32285E+00-7.19821E-03 5.08082E-03
 -1     23803-5.44249E-01 2.33882E+00 8.69810E-01 2.11666E+00 2.14927E-02 1.50088E-02
 -1     23804-2.71808E+00 7.65348E-04-1.37027E+00 2.26363E+00 5.10284E-03 2.50990E-02
 -1     23805 2.06410E+00-9.85935E-01 5.33577E-01 4.04616E+00 2.87058E-03-1.25712E-02
 -1     23806-4.60455E-01-4.04570E-01-4.59101E-01 3.28495E+00 4.38029E-03 9.93951E-03
 -1     23807 2.01141E+00 1.54751E+00 1.77118E+00 3.37838E+00-1.46974E-02 9.88277E-03
 -1     23808-2.88912E+00-1.39957E+00-2.12505E+00 2.78245E+00 3.28881E-02-2.53032E-03
 -1     23809-2.24970E+00 1.67709E+00-2.52366E-01 1.94702E+00 1.34700E-02-6.42734E-03
 -1     23810-7.38372E-01 4.07105E+00 1.71717E+00 1.24923E+00 4.12296E-03-7.02806E-03
 -1     23811 3.68655E+00 8.89044E-01 2.25368E+00 4.57983E+00 2.59815E-03-1.63318E-03
 -1     23812 2.93709E+00 7.61950E-01 1.84857E+00 4.48766E+00 1.07288E-02-6.75984E-03
 -1     23813 2.67583E+00 1.29003E-01 1.39699E+00 4.31115E+00 8.32536E-03-6.55342E-03
 -1     23814 1.70469E+00 1.79603E-01 9.38115E-01 3.71541E+00-5.93571E-03 3.27896E-03
 -1     23815-4.76057E+00 6.20934E-02-2.33995E+00 1.14443E+00 5.96184E-03-1.60612E-02
 -1     23816-1.91587E+00 1.35973E+00-2.48451E-01 2.40981E+00 2.73856E-03-3.08888E-03
 -1     23817 1.97866E+00 6.43166E-01 1.34817E+00 4.17780E+00 1.21532E-02 6.93815E-03
 -1     23818 2.58493E+00 1.74185E+00 2.18405E+00 4.01754E+00 3.72653E-02-9.34228E-03
 -1     23819 1.09222E+00 1.24630E+00 1.13081E+00 3.52962E+00 4.46181E-02-1.35871E-02
 -1     23820 1.57255E+00 3.32604E-01 9.28621E-01 4.00883E+00-6.06145E-03-1.57309E-02
 -1     23821-2.83536E+00 2.06715E+00-3.93747E-01 9.76025E-01 7.78324E-03 2.47865E-03
 -1     23822-4.46676E+00 5.17105E-01-2.02669E+00 9.93216E-01 4.28691E-03-1.66784E-03
 -1     23823-2.75895E+00 2.09385E+00-3.37196E-01 1.07308E+00-4.77644E-03-1.18300E-02
 -1     23824-5.15545E+00-2.71420E-01-2.71500E+00 1.04723E+00 3.37676E-03-7.01066E-03
 -1     23825-3.60418E+00 4.44054E-01-1.58782E+00 1.57506E+00-3.20058E-04-1.02285E-02
 -1     23826-3.15440E+00 8.87744E-01-1.12560E+00 1.67690E+00 6.17323E-03-1.26717E-02
 -1     23827-4.78635E+00-7.80672E-01-2.82037E+00 1.56074E+00 2.15925E-02-1.33217E-02
 -1     23828 1.48959E+00-5.13707E-01 4.75125E-01 4.00808E+00-1.45039E-03 2.42012E-03
 -1     23829 2.88749E+00 3.36360E-01 1.59101E+00 4.05769E+00-1.54857E-03 7.19957E-04
 -1     23830-3.08882E+00 1.69670E-01-1.50057E+00 2.04279E+00 4.00030E-02 1.21388E-03
 -1     23831-2.15713E+00 3.50187E-02-1.07050E+00 2.51039E+00 2.62981E-02 8.57474E-03
 -1     23832-3.62294E-01 2.89036E-01-5.58874E-02 3.17064E+00 1.23421E-02-1.96156E-02
 -1     23833 6.56369E-01 1.05090E+00 8.06744E-01 3.31091E+00 1.57302E-02-1.42731E-02
 -1     23834-1.31120E+00 1.96881E+00 3.01879E-01 1.99397E+00 4.03576E-03-4.32798E-03
 -1     23835-8.05342E-01 2.47174E+00 8.53165E-01 2.23747E+00-3.07117E-03-5.15894E-03
 -1     23836-3.16343E+00 1.00844E-01-1.50756E+00 2.20268E+00-1.79034E-03-7.24782E-03
 -1     23837-3.05107E-01 2.22185E+00 9.61997E-01 2.88327E+00 6.62553E-04-3.44065E-03
 -1     23838-8.37049E-01 2.19212E+00 6.81195E-01 2.23603E+00-6.40631E-03-2.70645E-03
 -1     23839-2.32823E+00 7.09178E-01-8.18485E-01 2.19434E+00 3.11444E-03-9.09805E-03
 -1     23840-1.28241E+00 3.27963E-01-4.71680E-01 2.88843E+00 7.67437E-03-5.96143E-03
 -1     23841-3.87417E-01 8.74871E-01 2.21245E-01 2.99798E+00 3.08965E-02-8.91006E-03
 -1     23842 1.60115E+00 8.71447E-01 1.27059E+00 3.70949E+00 3.13815E-03 9.68125E-03
 -1     23843-1.33627E+00 8.80197E-01-2.58605E-01 2.61263E+00-3.41636E-03-1.02871E-03
 -1     23844 2.55166E+00 9.25641E-01 1.73507E+00 3.94647E+00 5.36990E-03-2.93212E-03
 -1     23845 4.66945E+00 4.22713E+00 4.38829E+00 5.77208E+00 1.81652E-03 3.95392E-02
 -1     23846 6.05242E+00 5.56562E+00 5.74640E+00 5.35062E+00 2.46283E-02 2.42575E-03
 -1     23847 5.64778E+00 5.16901E+00 5.38860E+00 5.47890E+00 5.53083E-02-3.75733E-03
 -1     23848 6.21529E+00 5.33686E+00 5.83863E+00 5.26904E+00 7.98277E-03 1.88199E-02
 -1     23849 6.55509E+00 5.55128E+00 6.08383E+00 5.24200E+00-2.11118E-03 1.82573E-02
 -1     23850 6.71760E+00 4.94347E+00 5.85444E+00 5.63150E+00-1.45471E-02 3.90340E-03
 -1     23851 6.55472E+00 4.98441E+00 5.71288E+00 5.51082E+00 1.33015E-02 3.80071E-03
 -1     23852 7.99063E+00 5.72514E+00 6.84249E+00 6.62054E+00-1.70065E-02-3.66600E-02
 -1     23853 8.45471E+00 6.27246E+00 7.34588E+00 6.29658E+00-2.11655E-02-4.84711E-02
 -1     23854 9.92401E+00 7.35521E+00 8.63117E+00 7.84765E+00 3.94383E-03-5.79997E-03
 -1     23855 8.15439E+00 5.63750E+00 6.85238E+00 7.48858E+00-7.69544E-03 2.06773E-03
 -1     23856 9.64642E+00 6.89536E+00 8.28428E+00 9.12999E+00 4.95589E-03-1.01709E-02
 -1     23857 9.80758E+00 7.11220E+00 8.46227E+00 8.79702E+00 2.24958E-02-1.17637E-02
 -1     23858 1.10280E+01 8.30172E+00 9.66032E+00 1.02332E+01-1.98730E-02-9.20951E-03
 -1     23859 1.11996E+01 8.46366E+00 9.72720E+00 9.97030E+00 9.53251E-03-1.04200E-02
 -1     23860 1.22654E+01 9.71567E+00 1.09441E+01 1.10673E+01-1.18036E-02 2.11741E-02
 -1     23861 1.17070E+01 9.04275E+00 1.01959E+01 1.08578E+01-1.60330E-02-1.40565E-02
 -1     23862 1.27324E+01 1.03090E+01 1.14712E+01 1.15297E+01 2.37660E-02-1.00803E-02
 -1     23863 1.15249E+01 9.16634E+00 1.02726E+01 1.14301E+01 2.32225E-03 2.16533E-02
 -1     23864 1.24289E+01 1.02556E+01 1.12985E+01 1.17964E+01 1.18915E-02 1.36016E-02
 -1     23865 1.21893E+01 1.00117E+01 1.11168E+01 1.17492E+01 1.57289E-02 1.99500E-03
 -1     23866 1.28981E+01 1.08879E+01 1.18760E+01 1.18030E+01 1.38855E-02-1.00651E-02
 -1     23867 1.29190E+01 1.08877E+01 1.18528E+01 1.18038E+01 1.27183E-02-2.84909E-03
 -1     23868 1.23585E+01 1.05299E+01 1.13887E+01 1.15523E+01-1.46061E-03 6.59660E-03
 -1     23869 1.22704E+01 1.05011E+01 1.14067E+01 1.16472E+01 3.59621E-03 9.17322E-03
 -1     23870 1.03963E+01 8.95259E+00 9.63589E+00 1.11695E+01-3.28075E-02 1.31820E-02
 -1     23871 1.12207E+01 9.72176E+00 1.04326E+01 1.12522E+01-2.55034E-02-8.31124E-03
 -1     23872 9.88772E+00 9.06959E+00 9.32836E+00 1.02976E+01-3.62501E-02-4.32618E-02
 -1     23873 8.94755E+00 8.04578E+00 8.46450E+00 1.05856E+01-9.09363E-02-7.25808E-02
 -1     23874 6.99145E+00 7.41831E+00 7.27432E+00 8.78617E+00 5.33631E-02-4.10718E-02
 -1     23875 1.05171E+01 1.08811E+01 1.05902E+01 9.28743E+00-3.92141E-03 8.74332E-03
 -1     23876 1.42200E+00 6.75602E+00 3.88785E+00 6.28743E+00-2.07277E-03-2.44743E-02
 -1     23877 3.55439E+00 7.09238E+00 5.37723E+00 7.01523E+00-4.08286E-02-7.53096E-02
 -1     23878-2.22888E+00 5.21078E+00 1.51356E+00 7.19855E+00-3.73422E-02-4.90026E-03
 -1     23879 1.33558E-03 9.37857E+00 4.60681E+00 7.34674E+00 6.58567E-03-3.93861E-02
 -1     23880 1.00596E+00 9.43928E+00 5.35411E+00 7.50113E+00-2.50938E-02 7.96869E-02
 -1     23881 6.13410E-02 1.17206E+01 5.72711E+00 6.91411E+00-1.05725E-01-3.46410E-02
 -1     23882-8.05451E-01 1.01574E+01 4.62005E+00 7.05230E+00 4.59471E-02-7.73764E-05
 -1     23883-3.43847E+00 7.40984E+00 1.61758E+00 6.06773E+00-4.08960E-02-2.33269E-01
 -1     23884-3.38069E+00 7.70814E+00 2.03217E+00 5.87750E+00-1.12565E-01-1.12217E-01
 -1     23885-6.69466E+00 1.22936E+00-2.56121E+00 1.72577E+00-3.00405E-01 1.60809E-02
 -1     23886-5.21635E+00 1.83172E+00-1.67519E+00-1.46312E+00-8.60364E-02 1.34184E-01
 -1     23887-8.71058E+00-2.88642E+00-5.92325E+00-1.39502E+00 4.50933E-02 5.76142E-02
 -1     23888-1.00884E+01-1.07492E+00-5.66352E+00-2.51272E+00 3.69222E-02 6.82465E-02
 -1     23889-5.09119E+00 3.63391E+00-7.94635E-01-2.57282E+00 9.29191E-02 1.21976E-01
 -1     23890-1.11474E+01 4.07514E-01-5.33614E+00-3.63818E+00-1.42591E-02-2.50157E-02
 -1     23891-9.61796E+00 1.25381E+00-4.20739E+00-3.32546E+00 1.35233E-02-6.36015E-02
 -1     23892-1.43851E+01-1.23368E+00-7.77151E+00-4.34117E+00 2.13952E-02-6.73301E-04
 -1     23893-1.29175E+01-1.43325E-01-6.54602E+00-4.24198E+00 6.53864E-03-2.02971E-02
 -1     23894-1.58360E+01-1.55477E+00-8.63627E+00-4.98144E+00 2.25180E-02-4.00704E-03
 -1     23895-1.54587E+01-1.53723E+00-8.46399E+00-4.87766E+00 1.62934E-02-9.49172E-03
 -1     23896-1.63758E+01-1.32084E+00-8.88371E+00-5.40326E+00-1.28551E-02 6.64957E-03
 -1     23897-1.63681E+01-1.43880E+00-8.91283E+00-5.31492E+00 4.60359E-04-8.12837E-03
 -1     23898-1.73588E+01-1.85730E+00-9.59539E+00-5.69314E+00-1.52767E-02-3.32679E-03
 -1     23899-1.69488E+01-1.49956E+00-9.19657E+00-5.61998E+00-1.39874E-02-1.32133E-02
 -1     23900-1.81099E+01-2.20192E+00-1.01549E+01-5.86516E+00-4.16889E-03 7.48377E-03
 -1     23901-1.73931E+01-1.60671E+00-9.49279E+00-5.82011E+00-2.22171E-03-5.59625E-03
 -1     23902-1.81238E+01-1.81585E+00-9.96983E+00-5.99907E+00 4.77778E-03 1.50679E-02
 -1     23903-1.85842E+01-2.36794E+00-1.04676E+01-5.97133E+00 1.93365E-02 8.58102E-03
 -1     23904-1.86406E+01-1.71856E+00-1.03667E+01-6.12653E+00 7.13001E-02-8.89434E-02
 -1     23905-1.82148E+01-1.51604E+00-9.91825E+00-6.18678E+00 6.26005E-02-2.52647E-02
 -1     23906-3.81688E+01-2.01232E+01-2.96882E+01-6.35818E+00-7.27071E-02-8.80941E-02
 -1     23907-1.76001E+01 1.08234E-01-8.65426E+00-6.45713E+00-5.67128E-02 3.08057E-01
 -1     23908-4.25880E+01-1.88128E+01-3.14912E+01-7.48629E+00-5.84895E-02-2.11341E+00
 -1     23909-9.94769E+00 1.10794E+01 4.83562E-01-6.79901E+00-2.92846E-01-2.90184E-01
 -1     23910-6.00540E+01-4.11148E+01-5.00211E+01 5.80854E+00-1.36292E-01-5.35652E-02
 -1     23911 1.76653E+00 3.26778E+01 1.85977E+01-3.64408E+00-1.19949E+00-1.41355E+00
 -1     23912-4.95058E+01-2.42406E+01-3.45822E+01-1.30840E+00 3.28199E-01 9.80715E-01
 -1     23913 6.05762E+01 7.13906E+01 6.44077E+01 3.72380E+00-5.42065E-01 4.25791E-01
 -1     23914 1.58951E+01 1.81667E+01 1.69402E+01-7.70688E-01 2.10209E-01-5.09508E-03
 -1     23915-4.70507E+01-4.44114E+01-4.58361E+01 8.86443E-02 4.21537E-01-1.93967E-02
 -1     23916 4.56802E+00 4.32226E+00 4.29700E+00-1.39160E+00 8.54409E-02 1.01176E-01
 -1     23917-1.68754E+01-1.71197E+01-1.73751E+01-1.55047E+00 8.62344E-02 1.45402E-01
 -1     23918 8.35633E+00 7.61778E+00 7.88451E+00-1.01776E+00 4.44052E-02 1.81613E-02
 -1     23919-4.97759E+00-5.65918E+00-5.29650E+00-1.23360E+00 1.31980E-03-5.54286E-03
 -1     23920-7.69702E+00-9.02167E+00-8.36177E+00 2.67769E-01 6.23508E-02 5.81513E-02
 -1     23921 2.13051E+00 8.09343E-01 1.51136E+00-9.06975E-02 7.65351E-02 5.64412E-03
 -1     23922 3.08597E+00 1.66086E+00 2.18339E+00 1.71944E+00 2.47483E-02 8.58496E-02
 -1     23923 1.05453E+00-3.95294E-01 3.75925E-01 1.31608E+00-5.19724E-02-2.14718E-02
 -1     23924 2.35565E+00 1.07402E+00 1.70334E+00 3.23477E+00 4.99532E-02-4.94759E-02
 -1     23925 2.29302E+00 1.01252E+00 1.66233E+00 2.88762E+00 5.73711E-02-4.33999E-02
 -1     23926 5.34569E+00 4.34347E+00 4.82536E+00 4.50545E+00 1.23617E-03 4.82343E-02
 -1     23927 5.88676E+00 4.74921E+00 5.38810E+00 4.19518E+00 1.28673E-02 2.01867E-03
 -1     23928 5.40466E+00 4.87401E+00 5.17729E+00 5.31128E+00 1.00670E-02-7.15609E-06
 -1     23929 8.76984E+00 8.15858E+00 8.39331E+00 5.17665E+00 2.85107E-02 3.54014E-02
 -1     23930 5.02725E+00 4.91586E+00 5.00887E+00 5.59052E+00-2.53846E-02-4.87369E-03
 -1     23931 6.17072E+00 6.04093E+00 6.08801E+00 5.54594E+00-2.80120E-02 8.43610E-03
 -1     23932 6.82170E+00 6.79022E+00 6.81166E+00 5.59379E+00 1.03243E-02-1.68631E-02
 -1     23933 5.70876E+00 5.67472E+00 5.71123E+00 5.60338E+00-1.20169E-02-9.50365E-03
 -1     23934 7.04395E+00 1.19505E+01 9.37048E+00-3.50837E-01 2.53765E-01 1.13329E-01
 -1     23935-6.30379E+00 1.75013E+00-1.79627E+00 4.88765E+00 3.57047E-02 3.78402E-01
 -1     23936 6.11777E+00 5.54888E+00 5.86065E+00 5.56073E+00 3.89533E-02 1.11685E-02
 -1     23937 5.93773E+00 5.29585E+00 5.59224E+00 5.65826E+00-1.36126E-02 1.17953E-02
 -1     23938 6.32499E+00 5.52333E+00 5.97911E+00 5.24694E+00-3.13426E-02-1.93115E-02
 -1     23939 5.80666E+00 5.09209E+00 5.39702E+00 5.25910E+00-3.06899E-03 7.25684E-03
 -1     23940 6.05865E+00 4.81253E+00 5.43347E+00 5.38257E+00 1.67667E-02-2.16921E-03
 -1     23941 6.74014E+00 5.40626E+00 6.15640E+00 5.28477E+00 4.05937E-02-2.23187E-02
 -1     23942 6.87849E+00 4.93425E+00 5.89343E+00 6.09114E+00-1.14270E-02-2.51520E-02
 -1     23943 7.00554E+00 5.08183E+00 6.04001E+00 5.82864E+00-1.35723E-02-1.09017E-02
 -1     23944 8.29490E+00 5.82860E+00 6.98393E+00 7.23124E+00-1.06134E-02-1.04453E-02
 -1     23945 8.41735E+00 6.01054E+00 7.20195E+00 6.89744E+00 1.56753E-03-3.53367E-02
 -1     23946 1.00678E+01 7.30572E+00 8.70559E+00 8.52461E+00 2.82189E-02-1.45744E-02
 -1     23947 8.68013E+00 6.04186E+00 7.39127E+00 8.16387E+00 6.34843E-03-1.00266E-02
 -1     23948 1.04054E+01 7.70835E+00 9.00683E+00 9.73741E+00-2.48014E-03 6.61056E-03
 -1     23949 1.07825E+01 8.11448E+00 9.48132E+00 9.43115E+00-1.23690E-02-4.98306E-03
 -1     23950 1.06579E+01 7.98193E+00 9.28481E+00 1.06743E+01-7.36465E-03-5.16381E-03
 -1     23951 1.09737E+01 8.47836E+00 9.74745E+00 1.04606E+01-7.73363E-03-1.13102E-02
 -1     23952 1.19686E+01 9.45137E+00 1.06485E+01 1.13361E+01 3.32448E-02 1.30595E-02
 -1     23953 1.13764E+01 8.94691E+00 1.01660E+01 1.12167E+01 2.58556E-02 1.40189E-02
 -1     23954 1.29120E+01 1.06306E+01 1.17842E+01 1.17276E+01-2.36719E-02 1.72952E-02
 -1     23955 1.19145E+01 9.57504E+00 1.07400E+01 1.16304E+01-2.64407E-02 1.32801E-02
 -1     23956 1.23775E+01 1.02385E+01 1.12900E+01 1.18418E+01 4.29811E-03 2.21660E-02
 -1     23957 1.26235E+01 1.05313E+01 1.15934E+01 1.18026E+01 1.07805E-02 2.22597E-02
 -1     23958 1.25151E+01 1.06207E+01 1.15578E+01 1.17137E+01-2.27786E-03 1.15179E-02
 -1     23959 1.27433E+01 1.08494E+01 1.17303E+01 1.17667E+01-3.13456E-04-1.31211E-03
 -1     23960 1.12261E+01 9.56929E+00 1.03948E+01 1.13416E+01 1.59382E-02 1.04087E-02
 -1     23961 1.17098E+01 1.00761E+01 1.07890E+01 1.14721E+01 2.12189E-02-6.95326E-03
 -1     23962 9.55424E+00 8.28121E+00 8.94579E+00 1.07713E+01-1.31890E-01-6.60037E-02
 -1     23963 1.10057E+01 9.74850E+00 1.04682E+01 1.09496E+01-8.24635E-02-3.12536E-02
 -1     23964 9.08106E+00 8.37126E+00 8.61026E+00 9.65513E+00-4.67714E-02 2.79419E-03
 -1     23965 9.20637E+00 8.71363E+00 8.87454E+00 1.00119E+01-4.54601E-03-9.99883E-02
 -1     23966 4.76220E+00 6.37168E+00 5.83933E+00 7.45175E+00-8.58718E-02 9.15935E-03
 -1     23967 5.06939E+00 6.42372E+00 5.73782E+00 8.35103E+00 1.41325E-01 2.12910E-02
 -1     23968 2.19006E+00 1.04675E+01 6.28320E+00 7.69738E+00-2.76620E-04 1.23632E-02
 -1     23969-7.43311E-01 9.17986E+00 4.26500E+00 7.22091E+00 2.34873E-02-5.25709E-02
 -1     23970 1.65344E-01 9.60848E+00 4.93415E+00 7.77594E+00 1.40836E-01-5.58490E-02
 -1     23971-1.25637E+00 9.60059E+00 4.19814E+00 7.07104E+00 5.20497E-02 6.13162E-02
 -1     23972 2.28723E+00 1.19232E+01 7.38793E+00 7.35389E+00 1.97793E-01 1.06169E-02
 -1     23973-7.44144E-01 1.10511E+01 4.99883E+00 6.11834E+00 2.42211E-02 5.72849E-02
 -1     23974-2.91721E+00 9.09184E+00 3.28388E+00 6.34075E+00-1.77489E-01 5.75581E-04
 -1     23975 5.60301E+00 5.35273E+00 5.49090E+00 5.69881E+00-2.29963E-02-7.81745E-03
 -1     23976-1.33232E+00 8.06069E+00 3.74128E+00 5.13685E+00-2.43738E-02-1.42539E-01
 -1     23977-4.39582E+00 2.69445E+00-7.74217E-01-2.02553E+00-8.45592E-02 1.40375E-01
 -1     23978-1.05411E+01-4.65432E+00-7.50310E+00-4.27424E-02-1.28689E-01 1.25394E-01
 -1     23979-9.26009E+00-1.40372E+00-5.38362E+00-2.29310E+00 2.35328E-02 1.51549E-01
 -1     23980-1.09297E+01-5.53952E+00-8.46353E+00 1.70057E+00 2.45526E-01 3.43831E-01
 -1     23981-1.45968E+01-8.80375E+00-1.19487E+01-5.10717E-01 1.25918E-01 2.66450E-01
 -1     23982-8.53920E+00-1.89509E+00-5.11034E+00-8.31564E-01 1.05607E-02 8.11379E-02
 -1     23983-1.02125E+01-6.27131E-02-5.02419E+00-3.01468E+00 5.31434E-03-2.51373E-02
 -1     23984-1.12385E+01-1.55594E+00-6.42485E+00-2.75429E+00-8.88568E-03 6.97304E-02
 -1     23985-1.30727E+01-8.14039E-01-6.93726E+00-4.02014E+00-2.58275E-02-2.12038E-02
 -1     23986-1.28298E+01-9.69268E-01-6.90596E+00-3.73239E+00-2.19179E-02-3.78368E-02
 -1     23987-1.50559E+01-1.34712E+00-8.22651E+00-4.72141E+00 1.87475E-02 3.23918E-02
 -1     23988-1.45383E+01-1.09319E+00-7.77509E+00-4.58274E+00-4.39074E-03 3.14115E-02
 -1     23989-1.62191E+01-1.50964E+00-8.85815E+00-5.18252E+00 1.57118E-02-4.12642E-03
 -1     23990-1.60023E+01-1.51176E+00-8.71742E+00-5.10669E+00 8.26520E-03 5.43681E-03
 -1     23991-1.78032E+01-2.50254E+00-1.01476E+01-5.53333E+00 4.79960E-03-8.85410E-03
 -1     23992-1.65026E+01-1.36475E+00-8.93725E+00-5.50238E+00 2.34176E-02 2.77204E-03
 -1     23993-1.75644E+01-1.86874E+00-9.70485E+00-5.76193E+00 4.56433E-03-2.14997E-03
 -1     23994-1.73404E+01-1.73899E+00-9.50762E+00-5.75224E+00 7.58223E-03-3.76958E-03
 -1     23995-1.83540E+01-2.27640E+00-1.02984E+01-5.93545E+00 1.46651E-02 1.11631E-03
 -1     23996-1.75311E+01-1.50165E+00-9.50242E+00-5.89107E+00-7.98955E-03 6.51507E-03
 -1     23997-1.86328E+01-2.02059E+00-1.03928E+01-6.06035E+00-2.00902E-02-2.23819E-03
 -1     23998-1.82391E+01-1.72389E+00-9.97718E+00-6.00106E+00 1.90001E-02 1.97379E-03
 -1     23999-2.11899E+01-3.54824E+00-1.19342E+01-6.39081E+00 8.36436E-03 3.77605E-01
 -1     24000-2.19075E+01-4.48186E+00-1.30790E+01-6.12664E+00 3.92429E-02-8.97909E-02
 -1     24001-2.68076E+01-7.03536E+00-1.77077E+01-6.43227E+00-1.36417E-01-3.78340E-02
 -1     24002-1.70358E+01 2.12491E+00-7.71161E+00-6.68208E+00 8.07762E-02-1.10390E-01
 -1     24003-5.44134E+00-5.68385E+00-5.60105E+00-1.47149E+00 5.99139E-02-3.12173E-02
 -1     24004-3.58411E+00-4.00966E+00-3.91705E+00-5.55529E-01 5.56174E-02 4.20876E-02
 -1     24005-7.36235E-01-1.10908E+00-9.71219E-01-1.38742E+00 2.31535E-02-3.47475E-02
 -1     24006 4.34456E+01 4.76900E+01 4.56400E+01 6.09292E-01 5.02876E-01 6.77061E-02
 -1     24007-2.40087E+01-1.92021E+01-2.07262E+01 2.20469E+00 8.50263E-02-6.79651E-02
 -1     24008 6.66387E+00 7.33649E+00 6.83762E+00-1.51008E+00 1.47816E-01 5.00716E-02
 -1     24009-4.64812E+01-4.54233E+01-4.59569E+01-1.20124E+00 1.76000E-01 3.21265E-02
 -1     24010-3.99778E+00-5.06076E+00-4.52469E+00-4.63065E-01-4.99997E-04-6.13941E-02
 -1     24011-8.38935E+00 6.31645E+00 1.36386E+00 2.87031E+00-4.47715E-01 6.64323E-01
 -1     24012 6.77887E+00 5.53215E+00 6.15638E+00-4.10636E-01 4.87348E-02 1.71617E-02
 -1     24013-1.52104E+01-1.64261E+01-1.57003E+01-7.86351E-01 6.62028E-02-7.65332E-03
 -1     24014 9.81477E-01-2.79458E-01 3.78663E-01 1.02193E+00 1.68438E-02-1.49623E-03
 -1     24015-3.49361E+00-4.78427E+00-4.12914E+00 6.52167E-01 4.47346E-02 3.15355E-02
 -1     24016 1.41314E+00 8.65839E-03 7.29723E-01 2.55465E+00 4.64381E-02 6.38895E-02
 -1     24017 1.88385E-01-1.29207E+00-6.42543E-01 2.13712E+00 1.88633E-02 1.35162E-01
 -1     24018 4.88424E+00 3.62369E+00 4.37830E+00 3.89081E+00 3.53601E-02-1.33468E-02
 -1     24019 5.28511E+00 4.10829E+00 4.66817E+00 3.53046E+00 4.83148E-02 3.72150E-03
 -1     24020 4.05697E+00 3.22663E+00 3.59773E+00 4.94170E+00-9.52386E-03 4.86574E-02
 -1     24021 4.02859E+00 3.17258E+00 3.51980E+00 4.71080E+00-4.05617E-03 4.35517E-02
 -1     24022 4.22091E+00 3.99663E+00 4.06622E+00 5.48817E+00-3.16389E-02-6.97014E-04
 -1     24023 4.86770E+00 4.59138E+00 4.65773E+00 5.43718E+00-4.40609E-03 7.25608E-04
 -1     24024 6.28141E+00 6.10905E+00 6.25279E+00 5.52973E+00 1.63526E-02-7.91012E-03
 -1     24025 5.80531E+00 5.64637E+00 5.74600E+00 5.61736E+00-1.71527E-02-9.83384E-03
 -1     24026 1.17636E+01 1.89832E+01 1.57416E+01 4.00775E+00-1.10172E-01-1.18181E-01
 -1     24027 4.28862E+00 2.93172E+00 3.68675E+00 5.33487E+00 8.36456E-03 8.95975E-03
 -1     24028 5.70134E+00 3.11901E+00 4.43227E+00 5.73956E+00 6.42510E-03-1.00323E-03
 -1     24029 7.66270E+00 4.30044E+00 5.97685E+00 6.60929E+00-4.39457E-03 5.22963E-03
 -1     24030 9.20764E+00 5.47031E+00 7.34200E+00 7.67720E+00 1.89927E-02-1.25539E-03
 -1     24031 1.13749E+01 7.71695E+00 9.50252E+00 8.81268E+00 8.96755E-04 1.53614E-03
 -1     24032 1.31670E+01 9.80924E+00 1.14818E+01 9.76942E+00-5.39393E-03-8.39724E-03
 -1     24033 1.34504E+01 1.05331E+01 1.19719E+01 1.04130E+01-6.09705E-03-2.63464E-02
 -1     24034 1.36399E+01 1.11189E+01 1.23526E+01 1.07905E+01 7.00254E-03-2.09391E-02
 -1     24035 1.33477E+01 1.12842E+01 1.23098E+01 1.09844E+01 9.05988E-03 8.02946E-03
 -1     24036 1.30011E+01 1.13077E+01 1.21074E+01 1.09299E+01 1.13887E-02-1.25585E-02
 -1     24037 1.26101E+01 1.14104E+01 1.19930E+01 1.06732E+01-4.79071E-03-1.24669E-02
 -1     24038 1.15399E+01 1.09571E+01 1.12437E+01 1.01848E+01-1.90220E-02 3.40285E-02
 -1     24039 1.06529E+01 1.11410E+01 1.09083E+01 9.36488E+00 3.28795E-02-6.56374E-02
 -1     24040 4.44335E+00 7.72432E+00 6.02439E+00 8.01092E+00 5.28897E-02 7.27929E-02
 -1     24041 3.50449E+00 1.35783E+01 8.51706E+00 6.67027E+00-8.83349E-02 6.32224E-02
 -1     24042-1.10861E+01-2.98390E+00-7.01990E+00-1.40049E+00 3.58540E-02-8.90801E-03
 -1     24043-1.44169E+01-3.96640E+00-9.11362E+00-2.56772E+00-1.48627E-02 9.45444E-03
 -1     24044-1.42970E+01-1.90176E+00-8.00247E+00-3.62928E+00 1.60740E-02 3.24536E-02
 -1     24045-1.58268E+01-2.54206E+00-9.16283E+00-4.30259E+00 2.19454E-02-4.06932E-03
 -1     24046-1.62241E+01-2.22490E+00-9.21065E+00-4.83021E+00 3.99380E-03-5.25710E-04
 -1     24047-1.65599E+01-2.07892E+00-9.29180E+00-5.16006E+00-3.58246E-03 1.72930E-03
 -1     24048-1.63507E+01-1.44146E+00-8.88924E+00-5.35451E+00-6.94153E-03 6.83185E-03
 -1     24049-1.70505E+01-1.49775E+00-9.32986E+00-5.48528E+00 2.87157E-03-1.05829E-02
 -1     24050-1.98127E+01-3.45025E+00-1.17971E+01-5.64455E+00 7.64285E-02-2.56809E-02
 -1     24051-2.33980E+01-4.18106E+00-1.41073E+01-5.76875E+00-9.11877E-02 1.07230E-01
 -1     24052 2.23501E+00 5.39842E+00 3.82317E+00 3.37010E-02 1.11306E-01 6.98678E-02
 -1     24053 9.53015E+00 7.70967E+00 8.57569E+00-1.49880E-01 5.22078E-02-3.79898E-02
 -1     24054 1.71069E+01 1.47457E+01 1.61761E+01 1.01892E+00 5.79432E-02 7.70207E-03
 -1     24055 1.36127E+01 1.09455E+01 1.22013E+01 2.22940E+00-1.01979E-02 1.21186E-01
 -1     24056 1.96356E+01 1.74178E+01 1.84052E+01 3.56011E+00 2.87277E-02-4.27632E-02
 -1     24057 1.00658E+01 8.42095E+00 9.29777E+00 4.53396E+00-3.73569E-02 2.79756E-02
 -1     24058 7.69607E+00 6.84872E+00 7.26832E+00 5.23108E+00 1.27215E-02-1.33061E-02
 -1     24059 3.80096E+00 2.94235E+00 3.32266E+00 5.32491E+00-1.21801E-02 3.27209E-02
 -1     24060 5.67757E+00 3.73428E+00 4.68286E+00 5.57919E+00 3.58009E-03-3.30647E-04
 -1     24061 6.25136E+00 3.28079E+00 4.80882E+00 6.14885E+00 1.90283E-02-1.66035E-02
 -1     24062 8.19883E+00 4.61219E+00 6.39025E+00 7.13806E+00 1.40598E-02 1.35411E-02
 -1     24063 1.03961E+01 6.64224E+00 8.48687E+00 8.26738E+00 1.74845E-02-9.41506E-03
 -1     24064 1.27783E+01 9.27811E+00 1.10013E+01 9.29843E+00 1.50502E-03-1.29532E-02
 -1     24065 1.35503E+01 1.04706E+01 1.20204E+01 1.01326E+01-8.82658E-03-9.83297E-03
 -1     24066 1.49169E+01 1.22129E+01 1.35346E+01 1.06886E+01 2.10493E-02-1.59677E-02
 -1     24067 1.31732E+01 1.08921E+01 1.20157E+01 1.09796E+01-4.08235E-02-1.23857E-02
 -1     24068 1.34391E+01 1.15469E+01 1.24489E+01 1.09861E+01-4.63552E-04-8.39410E-03
 -1     24069 1.33873E+01 1.19283E+01 1.26756E+01 1.08110E+01-4.94399E-03 9.09657E-04
 -1     24070 1.25112E+01 1.16066E+01 1.20633E+01 1.04638E+01 2.96359E-02-2.34125E-02
 -1     24071 1.07812E+01 1.07263E+01 1.07124E+01 9.82028E+00-3.37472E-02-2.88153E-02
 -1     24072 8.68925E+00 1.03765E+01 9.39683E+00 8.77815E+00-4.74578E-02 1.22250E-02
 -1     24073 9.60611E-01 6.89303E+00 3.88242E+00 7.18756E+00-1.73884E-02 5.97976E-03
 -1     24074-1.67704E+01-1.53405E+00-9.17045E+00-5.44209E+00-2.58842E-03-7.12027E-03
 -1     24075-1.73073E+01-1.31086E+00-9.28098E+00-5.62510E+00-2.49764E-02-3.82608E-02
 -1     24076-1.25952E+01 4.97637E+00-3.65760E+00-5.72977E+00-9.22189E-02 2.29301E-01
 -1     24077-2.70465E+01-6.18578E+00-1.68411E+01-5.36641E+00-1.36368E-01 9.17175E-02
 -1     24078-7.08291E+00-6.29917E+00-6.75932E+00-6.06732E-01 1.55527E-01 8.93310E-02
 -1     24079 1.98930E+01 1.72935E+01 1.85403E+01 2.95276E+00-3.75172E-02 7.61943E-03
 -1     24080 1.09169E+01 8.72261E+00 9.94510E+00 4.07857E+00-1.31526E-02-1.08642E-02
 -1     24081 9.80952E+00 8.45591E+00 9.25181E+00 4.97091E+00 6.55993E-03 3.31205E-02
 -1     24082 6.92676E+00 6.56365E+00 6.77904E+00 5.43246E+00 4.55471E-03-2.32219E-03
 -1     24083 5.18850E+00 4.79940E+00 5.01023E+00 5.44507E+00 3.65458E-03-1.04493E-02
 -1     24084-1.66666E+01-1.95915E+00-9.32097E+00-5.25864E+00 1.03935E-02 9.93285E-03
 -1     24085 4.92043E+00 1.37914E+01 9.58766E+00 5.63008E+00 1.17029E-01-1.61309E-01
 -1     24086-1.63782E+01-2.12360E+00-9.26281E+00-4.98441E+00 8.06016E-03 6.83774E-03
 -1     24087-1.59899E+01-2.30555E+00-9.15268E+00-4.55696E+00 1.84049E-02-3.00495E-03
 -1     24088-1.56411E+01-2.86997E+00-9.20960E+00-4.00044E+00 3.22686E-02 5.70690E-03
 -1     24089-1.27968E+01-2.92570E+00-7.74539E+00-2.15274E+00 2.48092E-02 2.94351E-05
 -1     24090-1.43752E+01-2.81407E+00-8.57443E+00-3.12409E+00-2.76051E-02-1.30109E-02
 -1     24091-6.39154E+01-5.76445E+01-6.08484E+01 8.25989E-01 3.89929E-01 1.34688E-01
 -1     24092 1.87937E+01 1.62086E+01 1.74421E+01 1.58201E+00-3.58508E-02-4.87015E-02
 -1     24093 8.85079E+00 6.54025E+00 7.66028E+00 3.71192E-01 4.26161E-02-2.25058E-02
 -1     24094-1.48926E+01-1.11523E+00-7.99282E+00-4.72252E+00 6.73192E-03 9.91685E-03
 -1     24095-1.49777E+01-1.30966E+00-8.14077E+00-4.66402E+00 8.95248E-03 4.00291E-03
 -1     24096 7.55520E+00 5.09467E+00 6.32780E+00 5.51559E+00 2.50624E-03-5.60747E-03
 -1     24097 8.91700E+00 6.82519E+00 7.89246E+00 5.39535E+00-5.55977E-03-9.25791E-04
 -1     24098 7.35984E+00 3.66151E+00 5.46702E+00 6.15187E+00 1.98372E-02-8.48490E-03
 -1     24099 8.87605E+00 5.33273E+00 7.10121E+00 5.90427E+00 4.82211E-03-2.93507E-02
 -1     24100 9.98292E+00 5.52921E+00 7.78923E+00 7.02837E+00 1.03225E-02-5.85864E-03
 -1     24101 1.03390E+01 6.03478E+00 8.15873E+00 6.75274E+00 2.58201E-02-2.25683E-03
 -1     24102 1.18047E+01 7.36573E+00 9.58603E+00 8.04509E+00 1.30360E-02-2.24483E-02
 -1     24103 1.06216E+01 6.09149E+00 8.35224E+00 7.77199E+00-2.48322E-03-2.44434E-02
 -1     24104 1.03393E+01 6.24145E+00 8.33947E+00 8.97819E+00 7.52904E-03-2.41759E-02
 -1     24105 1.06036E+01 6.43760E+00 8.57090E+00 8.72436E+00-1.16917E-05-3.03326E-02
 -1     24106 1.13597E+01 7.87704E+00 9.65403E+00 9.65561E+00 3.88056E-04-1.92043E-02
 -1     24107 1.03410E+01 6.79114E+00 8.65494E+00 9.49333E+00 4.14946E-03-1.53001E-03
 -1     24108 1.07607E+01 8.00322E+00 9.41484E+00 1.00276E+01 4.58566E-02-3.14687E-02
 -1     24109 9.33770E+00 6.43599E+00 7.95316E+00 9.94104E+00 2.28204E-02-2.70439E-02
 -1     24110 1.02201E+01 8.02963E+00 9.11951E+00 1.01987E+01-5.87004E-03 3.31522E-03
 -1     24111 9.66492E+00 7.45217E+00 8.59026E+00 1.01252E+01-1.52713E-02 3.53038E-02
 -1     24112 1.02020E+01 8.56255E+00 9.37169E+00 1.01919E+01-1.15109E-02-3.15978E-02
 -1     24113 1.02320E+01 8.54637E+00 9.38756E+00 1.01887E+01-1.92565E-02-1.70460E-02
 -1     24114 9.14427E+00 8.15723E+00 8.66666E+00 9.95524E+00 5.18501E-04-6.92453E-03
 -1     24115 9.57933E+00 8.45999E+00 9.02092E+00 1.00254E+01-1.06415E-03 3.41752E-04
 -1     24116 8.23754E+00 7.97004E+00 8.09212E+00 9.57843E+00 1.31656E-02 1.45778E-03
 -1     24117 9.60684E+00 9.18064E+00 9.41380E+00 9.64663E+00 5.61367E-02-4.00210E-02
 -1     24118 6.18865E+00 7.05602E+00 6.63816E+00 8.95809E+00 1.11571E-02 5.01375E-04
 -1     24119 8.62094E+00 9.16533E+00 8.90937E+00 9.10727E+00-1.93464E-02-3.07219E-03
 -1     24120 3.93918E+00 7.15293E+00 5.58982E+00 8.05538E+00 2.90545E-02 1.90544E-02
 -1     24121 7.31853E+00 9.70872E+00 8.48688E+00 8.32207E+00 2.45056E-02 2.69947E-02
 -1     24122 3.35572E+00 1.13824E+01 7.39866E+00 7.43516E+00 4.50589E-02-5.21775E-02
 -1     24123 4.07622E+00 1.04209E+01 7.28858E+00 7.46396E+00 2.02258E-02 4.08353E-02
 -1     24124-4.43765E+00 3.48367E+00-1.03355E+00 5.73685E+00 7.29434E-02 2.45709E-01
 -1     24125-5.72487E+00 2.51393E+00-1.97980E+00 6.21986E+00-2.29122E-02 1.19585E-01
 -1     24126-1.62912E+01-1.95651E+00-9.12970E+00-4.91108E+00-6.12372E-03 6.75020E-03
 -1     24127-1.55803E+01-1.39146E+00-8.45485E+00-4.86516E+00 1.34176E-03 6.92741E-03
 -1     24128-2.52114E+00 6.06959E+00 1.78570E+00 7.87950E+00 3.58797E-02 3.27135E-02
 -1     24129-4.34278E+00 3.68867E+00-2.90259E-01-1.14019E-01 4.30505E-02-1.54394E-02
 -1     24130-2.43263E+00 4.82003E+00 1.23300E+00 1.61112E-01 3.90998E-02 2.33591E-02
 -1     24131-3.17306E+00 5.79799E+00 1.38669E+00 6.91175E+00 3.15038E-02-2.75115E-02
 -1     24132-1.41917E+00 7.46093E+00 3.03065E+00 7.10943E+00 1.18903E-01-3.07925E-02
 -1     24133 1.16637E+01 1.92976E+01 1.53167E+01 6.01636E+00 2.20991E-02 3.10382E-02
 -1     24134-1.43705E+01-1.07131E+00-7.72048E+00-4.40506E+00 7.14622E-03 1.29633E-02
 -1     24135-1.34585E+01-2.34247E-01-6.86861E+00-4.33247E+00 1.22571E-02 7.49584E-03
 -1     24136-1.02179E+01-3.95976E+00-7.12161E+00 2.85841E+00 3.12370E-02-6.17831E-02
 -1     24137-9.58091E+00 6.24507E-01-4.52065E+00-1.62663E+00 5.24780E-02 3.69566E-02
 -1     24138-8.70669E+00 9.69593E-01-3.90567E+00-1.37687E+00 8.60547E-04 6.48341E-03
 -1     24139-1.00883E+01 1.51712E+00-4.26211E+00-2.80609E+00-2.72026E-02-1.40359E-02
 -1     24140-1.10397E+01 2.44377E-01-5.32510E+00-2.66904E+00-2.98853E-04-4.55086E-03
 -1     24141 9.38157E+00 1.66810E+01 1.27666E+01 1.10634E+00 1.33545E-01-9.16528E-02
 -1     24142-1.66910E+01-7.18761E+00-1.26252E+01 1.57161E+00 2.00033E-01 1.64979E-01
 -1     24143-1.24633E+01-2.85018E-03-6.28111E+00-3.62741E+00 4.13149E-02 2.71430E-03
 -1     24144-1.18434E+01 4.69239E-01-5.70873E+00-3.44362E+00 3.95055E-02-1.44371E-02
 -1     24145-6.01142E+00 3.33808E+00-1.26292E+00-8.47921E-01-6.05117E-03 2.06544E-02
 -1     24146-6.37853E+00 2.27555E+00-1.96758E+00-5.42924E-01 2.68600E-03 5.40776E-03
 -1     24147-9.76408E+00-9.98222E-01-5.36268E+00-8.25529E-02 1.95288E-02 6.36567E-04
 -1     24148-1.40171E+01-9.39500E-01-7.47600E+00-4.21323E+00 7.49832E-03 7.41019E-03
 -1     24149-1.34865E+01-6.01916E-01-7.04439E+00-4.10000E+00-3.32163E-04 1.32438E-02
 -1     24150-1.40227E+01-1.87202E+00-7.93523E+00-3.63538E+00-5.52052E-03-2.25843E-03
 -1     24151-1.13179E+01 7.72268E-01-5.24885E+00-3.28193E+00 2.65111E-02-7.59055E-03
 -1     24152-1.10101E+01 8.24685E-01-5.06963E+00-3.10618E+00 5.99291E-03-1.14431E-02
 -1     24153-1.38681E+01-2.96669E+00-8.42264E+00-2.13908E+00-2.09511E-02-1.35392E-02
 -1     24154-1.42876E+01-2.96203E+00-8.63019E+00-2.59249E+00 2.21900E-02-1.88022E-02
 -1     24155-1.48328E+01-1.28635E+00-8.05002E+00-4.58228E+00 9.65207E-03 3.06336E-03
 -1     24156-1.40920E+01-7.25044E-01-7.41761E+00-4.51659E+00-5.54457E-03 1.36975E-02
 -1     24157-1.41593E+01-1.56041E+00-7.82996E+00-4.06049E+00 3.95832E-03-1.36518E-02
 -1     24158-1.31450E+01-3.78059E-01-6.77320E+00-3.92620E+00-1.88757E-03 2.11017E-02
 -1     24159-1.27992E+01-2.09263E-01-6.52970E+00-3.79842E+00 1.40822E-02 4.55207E-03
 -1     24160-1.31690E+01-1.50640E+00-7.34790E+00-3.00303E+00 2.05045E-02 2.78236E-02
 -1     24161-1.38033E+01-1.96810E+00-7.90568E+00-3.30957E+00-4.33127E-03 1.02622E-02
 -1     24162-1.57933E+01-1.78793E+00-8.76265E+00-4.81013E+00 1.02710E-02 1.10083E-03
 -1     24163-1.52863E+01-1.43064E+00-8.35880E+00-4.77345E+00-5.36266E-03 1.83516E-02
 -1     24164-1.42546E+01-1.10187E+00-7.63952E+00-4.29497E+00 6.71206E-03 2.35007E-03
 -1     24165-5.99053E+00 6.31256E-01-2.37600E+00 4.52714E+00 4.14888E-02-1.36848E-01
 -1     24166-5.08642E+00 2.52981E+00-9.00806E-01 4.85312E+00 6.06728E-02-1.22624E-01
 -1     24167 6.41089E+00 1.24375E+01 9.45821E+00 4.50370E+00-2.64618E-02 5.21961E-02
 -1     24168 6.52349E+00 1.24340E+01 9.18851E+00 2.07775E+00 1.11715E-01 6.50997E-02
 -1     24169-1.64201E+01-1.09150E+00-8.73399E+00-5.03541E+00-8.56759E-03 2.75852E-02
 -1     24170-1.72013E+01-2.17891E+00-9.61303E+00-4.98134E+00-7.62842E-02-4.29365E-02
 -1     24171-2.67522E+01-9.72454E+00-1.81433E+01-5.03002E+00-7.39246E-02 1.14010E-01
 -1     24172-2.09815E+01-4.27270E+00-1.24758E+01-4.94784E+00-9.01085E-02 1.33170E-01
 -1     24173-2.88234E+01-8.40577E+00-1.84034E+01-3.21363E+00-1.96247E-01 2.97398E-02
 -1     24174-1.62673E+01 2.65259E+00-6.78069E+00-4.02900E+00-9.41738E-02 1.83513E-01
 -1     24175 4.44946E+00 6.02064E+00 5.27953E+00 7.48763E-02 1.24924E-01 9.85860E-02
 -1     24176-1.57383E+01-1.34599E+01-1.44217E+01 2.51992E-01 1.58329E-01 8.97230E-02
 -1     24177-1.08095E+01 1.22942E+01 1.97686E+00 1.96638E+00 4.24931E-01 6.96953E-01
 -1     24178-1.63251E+01 3.24652E+00-6.56543E+00-2.32666E+00 7.62154E-01-3.75340E-01
 -1     24179-1.66372E+01 1.09002E+00-7.93507E+00-1.61561E+00-5.64759E-02-3.25310E-01
 -1     24180-2.66277E+01-1.28321E+01-1.96803E+01 1.07833E+00 4.18418E-01-1.18472E-02
 -1     24181 5.04086E+00 1.42496E+00 3.17019E+00 2.13772E+00 1.41551E-02 1.94281E-02
 -1     24182 6.79920E+00 3.38242E+00 4.96302E+00 1.85691E+00 2.63521E-02-7.41443E-02
 -1     24183 4.54871E+00 1.97330E+00 3.38061E+00 7.26454E-01 4.96220E-03 1.79264E-02
 -1     24184-1.23552E+01-1.44953E+01-1.34440E+01 5.48231E-01-4.04596E-03 4.40476E-02
 -1     24185 2.78917E+00-8.55480E-01 1.04139E+00 3.34119E+00-2.67345E-02 1.36847E-02
 -1     24186 6.29791E+00 2.56105E+00 4.51186E+00 2.98550E+00-6.11865E-02 6.46348E-02
 -1     24187 8.09073E-01-8.17445E-01 9.80947E-04 4.00701E-01 1.37645E-02 9.55690E-04
 -1     24188-8.32126E+00-9.57033E+00-8.92568E+00 2.39607E-01 8.76952E-03-4.02871E-02
 -1     24189 3.22888E+00 8.15114E-01 2.06522E+00 1.18402E+00 5.35557E-02 2.11634E-02
 -1     24190 7.58001E+00 4.00505E+00 5.90819E+00 2.71804E+00-4.86107E-02 1.21465E-01
 -1     24191 4.03181E+00 5.28328E-01 2.24758E+00 2.43703E+00-7.75148E-03 9.26046E-02
 -1     24192 1.45625E+01 1.02117E+01 1.23923E+01 2.71675E+00 9.68193E-03 4.09244E-02
 -1     24193 1.51791E+01 1.07001E+01 1.30037E+01 3.14544E+00-7.06194E-02 4.59727E-02
 -1     24194 6.21079E+00 3.42549E+00 4.86479E+00 4.38503E+00 5.12070E-05-4.45700E-03
 -1     24195 7.30203E+00 4.29584E+00 5.88793E+00 4.12859E+00-7.93676E-03-1.25875E-02
 -1     24196 4.64947E+00 2.95033E+00 3.77373E+00 5.13208E+00-3.24215E-03 6.50595E-03
 -1     24197 8.25635E+00 6.28278E+00 7.26231E+00 5.00228E+00-2.68860E-02 2.71182E-02
 -1     24198 5.19320E+00 4.65388E+00 4.96312E+00 5.41126E+00-1.38518E-02-8.95128E-03
 -1     24199 6.78566E+00 6.05171E+00 6.41160E+00 5.35184E+00-6.80239E-03-1.44438E-02
 -1     24200 6.43140E+00 5.47233E+00 5.85134E+00 5.35914E+00-2.64810E-03 1.90027E-02
 -1     24201 6.18602E+00 5.44200E+00 5.82042E+00 5.36475E+00-1.61494E-02 3.95190E-03
 -1     24202 6.11915E+00 5.70551E+00 5.99558E+00 5.43317E+00-1.02625E-02 9.51821E-04
 -1     24203-4.14686E+00 1.77391E+00-1.24513E+00 1.40940E+00-1.80398E-02 8.99372E-02
 -1     24204 5.23169E+00 4.98162E+00 5.09234E+00 5.57375E+00 4.24226E-03-1.87825E-02
 -1     24205-2.95955E+00 6.24145E+00 1.69603E+00 7.58510E+00 1.13797E-01 6.09007E-03
 -1     24206-2.74152E+00 6.18598E+00 1.76190E+00 7.75255E+00 7.64528E-03 1.52142E-02
 -1     24207 4.82924E+00 1.34325E+01 9.04416E+00 7.03663E+00-1.47885E-02-2.94842E-02
 -1     24208 6.43554E+00 4.86958E+00 5.66644E+00 5.39356E+00-9.31915E-04-1.98511E-03
 -1     24209 7.36152E+00 6.14430E+00 6.71522E+00 5.36895E+00 1.38962E-02 3.71024E-02
 -1     24210 5.21259E+00 4.04928E+00 4.51407E+00 5.37517E+00-5.79841E-03 5.39879E-03
 -1     24211 6.23636E+00 4.19461E+00 5.21248E+00 5.35270E+00 1.35320E-02-7.62076E-03
 -1     24212 6.52456E-01-2.89698E+00-1.03896E+00 1.65576E+00 1.42947E-01-1.19479E-01
 -1     24213 6.71372E+00 3.19796E+00 5.12202E+00 1.34783E+00 1.31874E-01-3.34188E-02
 -1     24214 6.77231E+00 2.32847E+00 4.51060E+00 2.15089E+00 1.03010E-01-1.05238E-01
 -1     24215-4.36878E+00 2.41736E+00-1.05414E+00 7.17239E-01-6.18039E-03-6.49272E-03
 -1     24216 6.35962E-01 7.05186E+00 3.92349E+00 9.88276E-01-1.43057E-02 5.04406E-02
 -1     24217-1.22769E+01-5.55659E+00-8.83465E+00 1.73317E+00 3.99598E-02-2.41217E-02
 -1     24218 9.75835E+00 8.91774E+00 9.39277E+00 9.89518E+00 5.80646E-04 3.26602E-03
 -1     24219 1.08960E+01 1.04359E+01 1.06583E+01 9.09181E+00-1.11036E-02-4.70236E-03
 -1     24220 9.68779E+00 9.08149E+00 9.37250E+00 9.81046E+00 4.94361E-03-1.11460E-02
 -1     24221 7.44113E+00 4.26226E+00 5.82097E+00 5.75806E+00 3.65355E-03 3.79087E-03
 -1     24222 8.26926E+00 5.35569E+00 6.84365E+00 5.64959E+00 3.77545E-03-1.39772E-02
 -1     24223 9.50926E+00 5.33682E+00 7.39045E+00 6.56368E+00 1.13655E-02 1.10426E-02
 -1     24224 9.33503E+00 5.29533E+00 7.30875E+00 6.32106E+00 8.52862E-03-1.91661E-02
 -1     24225 9.76189E+00 5.24449E+00 7.49949E+00 7.52067E+00-6.65047E-03-2.56272E-02
 -1     24226 1.02886E+01 5.84028E+00 8.08837E+00 7.28447E+00-6.22144E-04-5.97193E-03
 -1     24227 1.00543E+01 5.75660E+00 7.89587E+00 8.54229E+00-1.31250E-02 1.62214E-03
 -1     24228 1.05327E+01 6.06087E+00 8.29694E+00 8.27721E+00 1.80634E-03-1.34622E-02
 -1     24229 1.04697E+01 6.72597E+00 8.60322E+00 9.34997E+00-1.51491E-03 9.35301E-03
 -1     24230 9.92006E+00 5.93991E+00 7.95200E+00 9.12303E+00 3.56559E-03-2.28113E-03
 -1     24231 1.11557E+01 8.11952E+00 9.68863E+00 9.86159E+00 6.85640E-03-1.60705E-02
 -1     24232 9.13941E+00 5.90813E+00 7.56653E+00 9.74077E+00-3.55813E-03-1.44994E-02
 -1     24233 1.12057E+01 8.74389E+00 9.96970E+00 1.01473E+01 1.33967E-02 1.19261E-02
 -1     24234 9.65818E+00 7.05955E+00 8.33158E+00 1.01108E+01 2.64182E-02-8.95873E-03
 -1     24235 1.01782E+01 8.32115E+00 9.27343E+00 1.02136E+01 9.71283E-05-3.46829E-03
 -1     24236 1.05306E+01 8.59214E+00 9.58269E+00 1.02277E+01 2.29420E-03-6.06581E-03
 -1     24237 1.00082E+01 8.70129E+00 9.31720E+00 1.01308E+01-4.56659E-03 6.36266E-03
 -1     24238 1.02263E+01 8.76710E+00 9.47921E+00 1.01532E+01 1.59937E-03-1.66991E-02
 -1     24239 8.90865E+00 8.92339E+00 8.87543E+00 8.94649E+00-5.64900E-03-2.10977E-02
 -1     24240 5.87574E+00 2.84321E+00 4.40263E+00 5.50862E+00 6.44714E-05 8.57689E-03
 -1     24241 7.39303E+00 7.64518E+00 7.59142E+00 9.23387E+00 1.34416E-02-3.54501E-02
 -1     24242 9.27937E+00 9.29674E+00 9.27450E+00 9.40535E+00-6.95948E-03 9.27390E-03
 -1     24243 5.30209E+00 6.99445E+00 6.16026E+00 8.56100E+00 9.80131E-02 6.72741E-04
 -1     24244 7.67804E+00 9.08384E+00 8.36570E+00 8.81588E+00 6.88586E-02-8.17251E-03
 -1     24245 2.83418E+00 7.96546E+00 5.45432E+00 7.54717E+00 2.01047E-02 2.90360E-02
 -1     24246 6.93880E+00 1.09409E+01 8.95610E+00 7.90315E+00 3.11313E-02 3.10097E-02
 -1     24247 1.52573E+00 1.01008E+01 5.78793E+00 7.61741E+00 2.46735E-02 1.35444E-02
 -1     24248-9.48759E+00-1.61580E+00-5.50781E+00 8.48661E-01 3.79192E-02-9.98286E-03
 -1     24249 1.15935E+01 1.03845E+01 1.09794E+01 9.38731E+00-2.11914E-02-2.19216E-02
 -1     24250 1.24761E+01 1.05503E+01 1.14881E+01 9.48015E+00-1.40792E-02-9.80368E-03
 -1     24251-1.42085E+01-1.87767E+00-8.06187E+00-3.86015E+00 9.22333E-04-7.28254E-03
 -1     24252-1.03312E+01 2.89926E-01-5.01470E+00-2.06556E+00-2.44432E-02 1.73963E-02
 -1     24253-1.20819E+01-2.21973E+00-7.06634E+00-1.00334E+00 2.05963E-02 8.84318E-03
 -1     24254-7.23455E+00 3.81782E+00-1.71702E+00-2.47659E+00-3.22469E-02 4.01777E-03
 -1     24255 1.23742E+01 9.60259E+00 1.09864E+01 9.42429E+00 3.63060E-02-9.24674E-03
 -1     24256-1.55639E+01-5.28978E+00-1.03773E+01-1.65008E+00-1.73247E-02 1.00459E-02
 -1     24257-1.43384E+01-1.54328E+00-7.93643E+00-4.19410E+00-3.81195E-03-1.25593E-03
 -1     24258 1.29712E+01 9.28927E+00 1.11770E+01 9.11422E+00-5.33786E-03-5.30902E-03
 -1     24259 1.25538E+01 7.97927E+00 1.03109E+01 8.54415E+00 1.17838E-03 2.71173E-03
 -1     24260 1.10715E+01 5.93908E+00 8.55025E+00 7.78312E+00 1.70540E-02-1.33645E-02
 -1     24261 8.01039E+00 2.78098E+00 5.38680E+00 6.87710E+00 7.13281E-03-4.43145E-03
 -1     24262-2.40194E+01-9.47749E+00-1.76860E+01 4.15632E-01 4.20352E-01-9.20954E-02
 -1     24263-1.38058E+01-1.36879E+01-1.35431E+01 3.20274E-01-7.66003E-04 1.25962E-01
 -1     24264-7.15785E+00-5.75939E+00-6.27756E+00 9.13274E-01 1.50300E-03 4.27704E-02
 -1     24265 2.01468E+00 1.53972E+00 1.94232E+00 1.71563E-01-3.91192E-02-2.49546E-02
 -1     24266 9.69718E+00 7.11194E+00 8.40803E+00 4.57777E+00 1.47203E-02-1.10536E-03
 -1     24267 1.00403E+01 6.63627E+00 8.30816E+00 4.58790E+00 7.42805E-03-1.13548E-02
 -1     24268 5.24910E+00 2.82702E+00 4.13420E+00 4.79170E+00 5.22113E-03 2.55848E-02
 -1     24269-1.31830E+01 4.95741E+00-3.85945E+00-4.67904E+00-1.89526E-01 1.12416E-01
 -1     24270-7.50146E+00 9.44625E+00 1.25385E+00-4.04089E+00-8.74597E-02 5.34201E-03
 -1     24271-2.09876E+01-2.12826E+00-1.10551E+01-4.57535E+00-2.97765E-01 2.07214E-01
 -1     24272-1.65954E+01-1.86507E+00-9.24623E+00-4.93373E+00 7.55909E-03-2.42161E-02
 -1     24273-1.58324E+01-1.32432E+00-8.60659E+00-4.93508E+00-1.22240E-02 1.01911E-03
 -1     24274-2.05034E+01-4.56333E+00-1.25673E+01-5.02492E+00-1.50843E-02 2.22202E-02
 -1     24275-1.69775E+01-1.28536E+00-9.17787E+00-5.06539E+00 1.16011E-01 4.61230E-02
 -1     24276-1.81233E+01 4.95053E-02-8.63843E+00-3.21933E+00-3.07480E-01 1.08279E-01
 -1     24277-1.46051E+01-1.13473E+00-7.85693E+00-4.35979E+00-5.05342E-03 8.99403E-03
 -1     24278-1.01568E+01-6.61476E+00-8.43517E+00 4.41542E-01 8.67196E-02-3.99179E-02
 -1     24279-5.78670E+00-1.05904E+00-3.45073E+00 7.56060E-01 1.85608E-02-3.55947E-02
 -1     24280-2.76919E+00-5.60736E+00-4.11025E+00 8.86813E-01 3.01574E-02 2.10626E-02
 -1     24281 6.36251E+00 3.34074E+00 4.85221E+00 1.42974E+00 4.16921E-02 6.08668E-03
 -1     24282 2.95943E+00-1.66624E-01 1.48166E+00 1.13101E+00 4.61219E-02-1.42839E-02
 -1     24283 7.78582E+00 3.20332E+00 5.50028E+00 6.06984E+00 1.34791E-02 8.35072E-03
 -1     24284 6.04218E-01-6.28242E-01-8.53320E-04 1.01423E+00 1.77116E-02-2.90018E-02
 -1     24285 9.59299E+00 1.01335E+01 9.84477E+00 8.68597E+00-5.26271E-03 9.32118E-03
 -1     24286 5.56570E+00 2.47282E+00 4.04945E+00 3.91147E+00 2.94582E-02-3.96299E-02
 -1     24287 2.17914E+00-1.04730E+00 4.67401E-01 3.60980E+00 8.33792E-02-4.01290E-02
 -1     24288 9.66417E+00 6.82544E+00 8.23428E+00 4.93477E+00 2.12039E-02-6.52863E-04
 -1     24289 7.24989E+00 6.04272E+00 6.56314E+00 5.35169E+00-2.46215E-02-1.64862E-02
 -1     24290 4.52357E+00 3.47388E+00 4.01416E+00 5.32227E+00 2.71426E-03-1.20170E-02
 -1     24291 8.85524E+00 7.48977E+00 8.20194E+00 5.19612E+00 8.37958E-03-3.74167E-03
 -1     24292 8.59323E+00 7.02976E+00 7.74254E+00 5.33970E+00-8.38767E-03-1.67416E-02
 -1     24293 7.17890E+00 2.16602E+00 4.66831E+00 6.45396E+00 1.77557E-02 1.10200E-03
 -1     24294 2.03131E+00 9.18182E+00 5.64576E+00 7.44607E+00-2.32528E-02 2.33486E-02
 -1     24295-1.81686E+01-1.24394E+01-1.52753E+01 2.84103E+00-3.89478E-02 4.52591E-02
 -1     24296 1.14232E+01 1.06322E+01 1.09854E+01 9.27644E+00-6.85971E-03-3.53080E-03
 -1     24297 1.22682E+01 1.07467E+01 1.15443E+01 9.44879E+00-1.03495E-02-3.60738E-02
 -1     24298 1.23674E+01 1.00148E+01 1.12210E+01 9.40560E+00 9.10844E-03 2.92577E-02
 -1     24299 1.26658E+01 8.49290E+00 1.05950E+01 8.86042E+00-1.47345E-03 1.31279E-02
 -1     24300 1.15052E+01 6.59315E+00 9.08175E+00 8.19435E+00 1.43823E-03-8.10906E-03
 -1     24301 1.30310E+01 8.68800E+00 1.08238E+01 3.70381E+00 1.30014E-03 1.87450E-02
 -1     24302-1.28989E+01-5.38023E+00-9.18296E+00 1.21029E+00 4.44563E-03 1.77362E-02
 -1     24303 1.29141E+01 9.71355E+00 1.13568E+01 9.22570E+00-2.89073E-03-1.31231E-02
 -1     24304-1.15001E+01 3.13937E+00-4.08254E+00-4.41768E+00-2.56507E-02 2.80393E-02
 -1     24305 9.84165E+00 4.53167E+00 7.17571E+00 7.32860E+00 3.31324E-03-3.60581E-04
 -1     24306 3.19361E+00 8.24960E+00 5.77343E+00 7.47226E+00 3.62833E-02 4.29684E-02
 -1     24307 8.49588E+00 1.05919E+01 9.51489E+00 8.19542E+00 1.34050E-02 1.62767E-02
 -1     24308 7.25591E+00 3.34634E+00 5.30472E+00 5.70209E+00 1.90399E-03 1.22834E-02
 -1     24309 6.08436E+00 9.40856E+00 7.63635E+00 7.82479E+00 2.77750E-02 1.33898E-02
 -1     24310 9.41796E+00 1.06218E+01 1.00178E+01 8.37790E+00 2.09762E-03 2.00215E-02
 -1     24311-7.17693E+00 8.31748E+00 5.10876E-01-4.24042E+00-9.33671E-02-4.95735E-02
 -1     24312 7.79061E+00 5.85879E+00 6.74654E+00 5.22501E+00-1.44699E-02 7.79365E-03
 -1     24313-1.50366E+01-1.06215E+00-8.05297E+00-4.41003E+00 6.55605E-03-2.44079E-02
 -1     24314 6.36401E+00 2.46201E+00 4.45962E+00 1.81647E+00 3.06709E-02-1.77389E-02
 -1     24315-1.16428E+01-7.85222E+00-9.71379E+00 9.25735E-01 1.61549E-02 2.07150E-02
 -1     24316 1.01559E+01 6.31412E+00 8.27146E+00 4.13630E+00 4.19283E-03-6.76751E-03
 -1     24317-5.98277E+00-2.29923E+00-4.25463E+00 1.18604E+00 5.36693E-02-6.71704E-02
 -1     24318-1.06966E+01-5.79260E+00-8.21822E+00 1.27191E+00 1.87898E-02-6.33158E-02
 -1     24319 2.92697E+00 7.31590E+00 5.06567E+00 7.27752E+00 2.06528E-02 7.29349E-02
 -1     24320 5.76880E+00 9.34383E+00 7.42839E+00 7.49442E+00 4.26799E-02 5.48770E-04
 -1     24321-3.59315E-01-1.66079E+00-1.00417E+00 1.46324E+00 4.29585E-02-1.11499E-02
 -1     24322-4.16250E+00-4.77671E+00-4.42275E+00 1.45517E+00 2.34729E-02-1.02210E-02
 -1     24323 3.21670E-01 8.42952E+00 4.43246E+00 7.19833E+00 1.03321E-02-5.72118E-03
 -1     24324 2.27660E+00 9.36987E+00 5.92517E+00 7.08686E+00-2.15647E-02 1.08278E-02
 -1     24325 1.43061E+00 7.50155E+00 4.58076E+00 7.05562E+00 2.95042E-02 2.50017E-02
 -1     24326 5.42119E+00 1.05548E+01 8.06413E+00 7.11791E+00 3.92912E-02 4.12704E-02
 -1     24327 2.49637E+00 7.72143E+00 5.13021E+00 6.72065E+00 1.39391E-02 9.41329E-03
 -1     24328 5.20738E-01 7.42707E+00 4.05708E+00 6.64562E+00-1.18724E-02-8.78548E-04
 -1     24329 1.02232E+01 4.46869E+00 7.33310E+00 6.72556E+00-2.04050E-03-9.19557E-03
 -1     24330 1.12776E+01 5.54724E+00 8.40852E+00 6.50615E+00 2.23922E-02-1.62521E-02
 -1     24331 7.06310E+00 2.24878E+00 4.61020E+00 4.05240E+00-1.09749E-02-1.69865E-02
 -1     24332 5.72933E+00 6.00842E-01 3.32222E+00 3.80805E+00-6.77251E-02 1.11499E-02
 -1     24333 9.30828E+00 3.72512E+00 6.54234E+00 7.52462E+00 6.74805E-03 5.49776E-03
 -1     24334 1.02105E+01 4.50568E+00 7.37465E+00 7.30641E+00 7.64940E-03-2.73068E-03
 -1     24335 9.57284E+00 4.82897E+00 7.14538E+00 8.17370E+00-2.08482E-02 6.04650E-03
 -1     24336 9.43104E+00 4.44283E+00 6.90769E+00 8.04141E+00-1.85277E-02 2.07291E-03
 -1     24337-1.61341E+01-2.08195E+00-9.03823E+00-3.78021E+00-2.03628E-02 6.13649E-03
 -1     24338-1.43567E+01-7.70682E-01-7.56347E+00-3.76355E+00-1.55025E-02-1.49211E-03
 -1     24339-7.16978E+00 2.71633E+00-2.30913E+00-1.00454E+00-2.06913E-02 3.61128E-02
 -1     24340-7.65143E+00 1.82327E+00-2.89577E+00-6.86743E-01 9.84858E-03 3.61515E-02
 -1     24341-1.20224E+01-5.53216E-01-6.28493E+00-3.31480E+00 1.66162E-03-7.09100E-03
 -1     24342-1.10923E+01 3.05609E-01-5.38124E+00-3.20239E+00 1.27328E-03 3.22361E-03
 -1     24343 9.47883E+00 7.36610E+00 8.47317E+00 8.76358E+00-2.84565E-03 3.81933E-03
 -1     24344 8.16243E+00 5.76950E+00 7.00623E+00 8.77977E+00 1.95404E-02 4.85038E-03
 -1     24345 8.54978E+00 7.34866E+00 7.99229E+00 8.69762E+00-3.86902E-03-3.30671E-02
 -1     24346 8.61302E+00 7.22315E+00 7.92277E+00 8.73383E+00-5.67156E-03-2.22413E-02
 -1     24347 6.07967E+00 6.75149E+00 6.41147E+00 8.08682E+00 4.46585E-03-7.09653E-03
 -1     24348 7.28124E+00 7.85591E+00 7.58390E+00 8.17471E+00-1.86300E-02-8.46760E-03
 -1     24349 9.87254E+00 5.43587E+00 7.64558E+00 5.61151E+00 8.30441E-03-1.28711E-02
 -1     24350 1.00695E+01 6.04576E+00 8.01909E+00 5.51840E+00 1.71660E-02 1.16574E-02
 -1     24351 3.82723E+00 5.94039E+00 4.95397E+00 7.62252E+00 2.35808E-04-1.35416E-02
 -1     24352 6.01382E+00 7.76379E+00 6.93676E+00 7.73360E+00 3.22326E-03-4.80684E-03
 -1     24353 3.67960E+00 6.87025E+00 5.18128E+00 7.51733E+00 1.26711E-03-1.22884E-02
 -1     24354 5.59716E+00 8.14229E+00 6.76228E+00 7.57321E+00-2.94578E-02 3.66355E-02
 -1     24355 3.50710E+00 7.49244E+00 5.47213E+00 6.89472E+00-9.00293E-03-5.74755E-03
 -1     24356-2.38220E+00 4.17883E+00 9.87751E-01 3.83315E+00-2.20272E-02-4.10641E-02
 -1     24357-2.72537E+00 5.61685E+00 1.45608E+00 7.27466E+00 6.76182E-03 1.08104E-02
 -1     24358 1.02306E+01 4.64137E+00 7.46660E+00 6.35838E+00 1.21472E-02-1.43892E-02
 -1     24359 1.08857E+01 5.46308E+00 8.20030E+00 6.14420E+00 1.18134E-02-9.65427E-03
 -1     24360 8.76839E+00 2.72961E+00 5.75842E+00 6.20974E+00 5.09768E-03-1.84620E-02
 -1     24361-1.34370E+01-1.49092E+00-7.48173E+00-3.64209E+00 5.54942E-03 4.17709E-03
 -1     24362-1.26203E+01-7.66311E-01-6.69381E+00-3.57469E+00 2.68807E-03 5.93707E-03
 -1     24363 4.97133E+00 3.21261E-01 2.68311E+00 2.34145E+00 5.05927E-02-2.33086E-02
 -1     24364 2.86820E+00-1.35908E+00 7.20125E-01 2.13035E+00 2.80338E-02-2.50618E-02
 -1     24365 9.64966E+00 6.99492E+00 8.32533E+00 8.77758E+00 1.45470E-02 7.31878E-04
 -1     24366 8.83281E+00 5.99508E+00 7.41331E+00 8.70432E+00 9.70442E-03 7.44367E-03
 -1     24367 1.04564E+01 8.01874E+00 9.25995E+00 8.08035E+00 2.66154E-03-6.55439E-03
 -1     24368 5.59294E+00 6.91975E+00 6.28044E+00 7.84378E+00-1.46406E-02-1.05761E-03
 -1     24369 6.33400E+00 7.33396E+00 6.81482E+00 7.98095E+00-2.64682E-03 1.24739E-03
 -1     24370 6.60975E+00 8.91688E+00 7.75933E+00 7.09071E+00-1.23591E-02 5.88177E-03
 -1     24371-5.23780E+00 4.10904E+00-5.21373E-01-2.31828E-01 2.78671E-02 4.00120E-02
 -1     24372-7.11537E+00 1.86791E+00-2.58639E+00-6.39202E-03 5.39542E-03 1.95724E-03
 -1     24373-1.03685E+01-1.35091E+00-5.87455E+00 3.51271E-01-1.50479E-02 2.51449E-02
 -1     24374-1.15307E+01-2.62016E-01-5.90308E+00-3.04261E+00 5.72674E-04-1.76109E-03
 -1     24375-1.08321E+01 2.98278E-01-5.26428E+00-2.91962E+00-1.91754E-03 1.27870E-03
 -1     24376-1.18636E+01-1.45261E+00-6.64556E+00-2.48286E+00-3.61088E-03-1.15549E-03
 -1     24377-1.44054E+01-1.72040E+00-8.07457E+00-3.75939E+00 1.17905E-02 3.21753E-03
 -1     24378-1.34214E+01-9.56437E-01-7.17851E+00-3.74187E+00 9.86287E-03 1.27830E-02
 -1     24379 9.66003E+00 3.89854E+00 6.76712E+00 7.13779E+00 8.30362E-03-5.02175E-03
 -1     24380 1.04760E+01 4.64565E+00 7.54178E+00 6.95338E+00 4.19413E-04-1.72850E-02
 -1     24381 9.95084E+00 3.74762E+00 6.84986E+00 6.89203E+00 4.93073E-03-2.35205E-03
 -1     24382-2.05802E+01-3.92822E+00-1.17699E+01-2.05932E+00-1.40149E-01 1.16412E-01
 -1     24383-5.61906E+00 1.05454E+01 2.88772E+00-2.62008E+00-4.80498E-02 1.40219E-01
 -1     24384 4.11416E+00 2.94969E-01 2.18277E+00 1.89918E+00 3.61130E-02-9.67076E-03
 -1     24385-6.33530E-01-3.94708E+00-2.28662E+00 1.72128E+00 3.80577E-02-8.54719E-03
 -1     24386 6.66020E+00 2.15089E+00 4.38883E+00 2.51971E+00 2.30791E-02-1.08591E-02
 -1     24387-1.62920E+01 4.28579E-01-8.18793E+00-9.31688E-01 1.98190E-01-2.97737E-01
 -1     24388-9.31444E+00 6.90541E+00-9.75999E-01-1.36929E+00 9.39960E-02-6.93351E-02
 -1     24389-2.78486E+01-1.28662E+01-1.99662E+01-1.12088E+00 9.01477E-02 1.79672E-01
 -1     24390-2.81256E+01-1.57345E+01-2.24752E+01 8.65084E-01 2.37661E-01 1.93914E-01
 -1     24391 6.05277E+00 2.17578E+00 4.14128E+00 4.79626E+00-7.46595E-04-3.28077E-03
 -1     24392 7.75941E+00 3.69627E+00 5.70635E+00 4.59544E+00-3.29608E-03-1.82271E-02
 -1     24393 1.00080E+01 6.32645E+00 8.09826E+00 8.57476E+00-6.98471E-03 3.03087E-02
 -1     24394 7.91046E+00 3.89979E+00 5.81680E+00 8.52730E+00-2.21566E-03 3.61751E-02
 -1     24395-1.47680E+01-1.52952E+00-8.12219E+00-3.78018E+00-4.41518E-03 1.79532E-03
 -1     24396-1.39785E+01-9.65073E-01-7.46863E+00-3.74596E+00 1.27536E-02-7.80490E-04
 -1     24397-1.37649E+01-1.19740E+00-7.47478E+00-3.13682E+00-1.06743E-02-1.46330E-04
 -1     24398 9.09275E+00 3.85267E+00 6.52259E+00 5.98051E+00 1.41576E-02-1.48409E-02
 -1     24399 1.00443E+01 5.19138E+00 7.59047E+00 5.77324E+00 1.67883E-02-9.91635E-03
 -1     24400 7.69821E+00 2.71381E+00 5.21226E+00 5.48117E+00 1.58517E-02-1.19610E-02
 -1     24401 8.15387E+00 2.45531E+00 5.34106E+00 5.84399E+00 1.65098E-02-2.51917E-02
 -1     24402-2.59249E+01-9.74422E+00-1.77093E+01-3.10325E+00-9.01039E-02 4.05784E-02
 -1     24403-1.85118E+01-3.14340E+00-1.07970E+01-3.35930E+00-3.05802E-02-4.59818E-02
 -1     24404-2.03923E+01-5.52974E+00-1.26180E+01-2.13429E+00 6.66081E-02 2.86119E-01
 -1     24405 6.72039E+00 3.19782E+00 4.98870E+00 5.39140E+00-7.14485E-04 1.76325E-02
 -1     24406 8.87652E+00 5.76455E+00 7.31625E+00 5.27397E+00-1.90863E-03-1.55262E-02
 -1     24407 6.41556E+00 2.39694E+00 4.41786E+00 5.30666E+00-9.18707E-03 2.64693E-02
 -1     24408-6.57796E+00 1.37330E+00-2.63210E+00 6.38791E+00-3.12803E-02-3.64557E-02
 -1     24409-2.07603E+00 5.98988E+00 1.94527E+00 6.65821E+00-1.67129E-02-1.45914E-02
 -1     24410 7.23805E+00 6.95373E+00 7.08340E+00 8.47651E+00 2.76966E-02 8.65815E-04
 -1     24411 7.88424E+00 7.38352E+00 7.60374E+00 8.54917E+00 4.48341E-03 1.86033E-02
 -1     24412-3.12955E+00 4.67533E+00 7.84239E-01 1.97702E+00 1.92728E-02 2.04254E-02
 -1     24413-6.15433E-01 6.72414E+00 3.00550E+00 2.29622E+00 4.73371E-02-2.48635E-03
 -1     24414 7.25538E+00 7.40955E+00 7.29786E+00 8.28794E+00 1.28075E-04 1.09386E-02
 -1     24415 7.34944E+00 7.28776E+00 7.33744E+00 8.38032E+00 2.49257E-02 2.35299E-03
 -1     24416 8.94575E+00 9.18649E+00 9.09679E+00 7.69917E+00 4.52139E-02 3.15183E-03
 -1     24417 9.31578E+00 1.01686E+01 9.72619E+00 7.47838E+00-3.51266E-03 8.58857E-03
 -1     24418 2.41017E+00-2.60880E-01 1.07348E+00 1.57612E+00 3.54146E-02-1.54849E-02
 -1     24419-9.58142E-01-3.18319E+00-2.04882E+00 1.53089E+00 4.14255E-02-4.04457E-04
 -1     24420 5.01771E-01-1.16489E+00-3.22187E-01 2.02597E+00 2.35983E-02 1.19606E-02
 -1     24421 3.93513E+00 5.99137E-01 2.25006E+00 2.22700E+00 1.96847E-02-5.05092E-03
 -1     24422-3.39685E+00-2.67242E+00-3.00729E+00 1.40613E+00 2.64719E-02-4.60572E-02
 -1     24423-3.75539E+00-1.54881E+00-2.66561E+00 1.28094E+00 1.63296E-02-4.29879E-02
 -1     24424-7.01175E+00-3.75792E+00-5.39631E+00 1.59127E+00 1.50909E-03-7.90727E-02
 -1     24425-3.13789E+00-2.67861E+00-2.89470E+00 1.81356E+00 1.88832E-02 5.77287E-04
 -1     24426-5.62128E+00 3.00399E+00-1.33835E+00 9.23113E-01-7.96700E-03 1.91473E-02
 -1     24427-4.03455E+00 4.02002E+00-6.59986E-03 1.41776E+00 2.07724E-03-1.10932E-02
 -1     24428-7.40767E+00 3.72124E-01-3.56740E+00 2.84639E+00 1.41183E-02-2.05925E-03
 -1     24429-8.39327E+00 1.44260E-01-4.14849E+00 1.53285E+00 3.35598E-03-3.32631E-03
 -1     24430-1.36977E+01-1.39947E+00-7.53405E+00-3.69709E+00 7.88011E-03 1.27900E-02
 -1     24431-1.30354E+01-9.14523E-01-6.97476E+00-3.66833E+00 1.45287E-02-2.68372E-03
 -1     24432-1.22057E+01-7.56221E-01-6.47095E+00-3.12828E+00 1.22956E-02-2.30628E-04
 -1     24433-1.22669E+01-5.40756E-01-6.38952E+00-3.48781E+00 5.96739E-03-3.24937E-03
 -1     24434-1.17559E+01-1.83816E-01-5.96832E+00-3.42082E+00 4.83828E-03-1.18451E-02
 -1     24435-1.15665E+01-9.15268E-01-6.22601E+00-2.74900E+00 3.26776E-03-3.56721E-03
 -1     24436-1.16782E+01-8.02955E-01-6.24839E+00-2.90992E+00 5.01993E-03 6.79850E-03
 -1     24437 9.18544E+00 6.04053E+00 7.64994E+00 8.69253E+00 6.42331E-03 4.15519E-04
 -1     24438 7.81094E+00 4.39808E+00 6.18814E+00 8.62068E+00 9.55693E-03 7.14767E-03
 -1     24439 1.10478E+01 7.98849E+00 9.49365E+00 8.12761E+00-1.54292E-02 3.06848E-03
 -1     24440-1.62265E+01-9.20838E+00-1.26150E+01 9.97237E-01 3.04365E-02-6.18315E-02
 -1     24441-8.38556E+00 5.47320E-01-4.35085E+00 1.41686E+00 1.35430E-01 1.80569E-01
 -1     24442-8.69442E+00 3.62516E+00-2.95776E+00 7.22149E-01 2.98291E-01 1.34619E-01
 -1     24443-1.26987E+01-6.03201E+00-9.35538E+00 1.25324E+00 9.62198E-02-3.84799E-02
 -1     24444 2.61960E+00 9.11701E+00 5.87261E+00 3.25972E+00 4.61648E-02-1.86186E-02
 -1     24445-1.14779E+01-4.33822E+00-7.96047E+00 4.93279E+00 1.09977E-02-2.14985E-02
 -1     24446-7.98395E+00 2.07443E+00-3.02214E+00-1.25020E+00-1.82926E-02 5.31058E-03
 -1     24447-1.07771E+01-1.47221E+00-6.21487E+00-3.52341E-01-2.41596E-03 1.32346E-02
 -1     24448-8.51233E+00 1.71583E+00-3.43094E+00-1.52041E+00-6.35019E-03-1.95991E-02
 -1     24449 1.17916E+01 8.09125E+00 9.92953E+00 8.03388E+00-2.07657E-03 2.08969E-02
 -1     24450 7.40003E+00 2.74841E+00 5.02199E+00 4.21691E+00 6.41433E-03-8.03707E-03
 -1     24451 1.16753E+01 6.40550E+00 8.98018E+00 4.30603E+00 1.56359E-02-2.09165E-02
 -1     24452 7.38761E+00 3.02376E+00 5.21016E+00 4.39747E+00 8.42426E-03-1.17424E-02
 -1     24453 6.15852E+00 3.15411E+00 4.66476E+00 5.11914E+00 4.20803E-02 1.31732E-02
 -1     24454 7.98035E+00 5.49689E+00 6.71467E+00 5.21095E+00 1.15707E-02 9.27583E-03
 -1     24455 9.91330E+00 4.65351E+00 7.29127E+00 7.87169E+00-1.58992E-02-1.15176E-02
 -1     24456 1.01463E+01 4.79350E+00 7.50601E+00 7.64645E+00-5.59431E-03-1.65800E-02
 -1     24457 1.03752E+01 6.08082E+00 8.21375E+00 8.43061E+00-1.63131E-02-4.54086E-04
 -1     24458 8.93632E+00 4.42880E+00 6.69784E+00 8.23504E+00-1.58003E-02 7.74156E-04
 -1     24459 7.44112E+00 8.95598E+00 8.21079E+00 7.27606E+00 3.98463E-04-9.86637E-03
 -1     24460 8.76761E+00 7.12531E+00 7.92128E+00 8.75770E+00-1.40844E-02-3.12300E-03
 -1     24461 8.31025E+00 6.44867E+00 7.38884E+00 8.72940E+00-9.02523E-03 1.32191E-02
 -1     24462 1.10092E+00 9.09197E+00 5.12816E+00 6.36307E+00-3.06141E-02-6.70161E-02
 -1     24463-1.68925E+01-2.44540E+00-9.75437E+00-3.65711E+00 1.13847E-02-1.66004E-03
 -1     24464-1.38156E+01-5.70277E-01-7.19985E+00-2.97458E+00-1.15522E-03 1.21791E-02
 -1     24465-2.46783E+01-1.00254E+01-1.72641E+01-3.53475E+00-7.01489E-02 3.45290E-02
 -1     24466 1.20668E+01 7.15720E+00 9.60599E+00 7.74624E+00-1.46383E-02 9.31258E-03
 -1     24467-1.19679E+01-8.37081E-01-6.41332E+00-3.05325E+00 1.07720E-02-8.93502E-04
 -1     24468 5.29382E+00 8.43402E+00 6.84364E+00 6.94104E+00-7.09292E-03 4.58090E-04
 -1     24469 5.16188E+00 1.97360E-01 2.66595E+00 2.54139E+00 1.84048E-02-3.61356E-02
 -1     24470 8.49943E+00 3.26288E+00 5.82967E+00 2.88473E+00 1.86921E-02-2.30662E-02
 -1     24471 3.32990E+00-1.78818E+00 7.50265E-01 2.69874E+00 3.58130E-02 3.39617E-03
 -1     24472 1.12190E+01 5.35619E+00 8.28642E+00 7.20430E+00 3.56138E-03-1.29995E-02
 -1     24473 7.62102E+00 6.83790E+00 7.18021E+00 8.62657E+00-1.64353E-02 1.34582E-02
 -1     24474 8.30840E+00 7.34240E+00 7.80164E+00 8.66453E+00-1.82480E-02-4.42897E-03
 -1     24475-1.20443E+01-1.73370E-01-6.10278E+00-3.13980E+00 3.23359E-03 2.86164E-03
 -1     24476-1.09076E+01 1.16078E-01-5.34776E+00-2.77070E+00-1.76950E-02-1.43644E-02
 -1     24477-1.05773E+01 3.83425E-01-5.06041E+00-2.56876E+00-1.25282E-02 4.79134E-03
 -1     24478-1.12081E+01-1.01612E+00-6.09583E+00-2.16740E+00-1.51806E-02-4.29579E-03
 -1     24479 9.48748E+00 3.24387E+00 6.35764E+00 6.55045E+00 7.17632E-03-1.02155E-02
 -1     24480-2.40983E+00 4.51595E+00 1.00012E+00 2.84591E+00-1.87119E-02-7.92117E-02
 -1     24481-1.12910E+01 2.92527E+00-4.20174E+00-2.61233E+00 1.54410E-02-2.87611E-02
 -1     24482 5.01372E+00 2.93325E+00 3.97595E+00 5.30352E+00 1.00015E-02 3.36531E-03
 -1     24483-7.54118E+00-2.28598E-01-3.90938E+00 3.86790E+00-3.23959E-03 1.15098E-02
 -1     24484 1.17490E+01 7.44655E+00 9.54944E+00 7.93890E+00-2.25184E-02 2.64897E-02
 -1     24485-1.11761E+00 6.28624E+00 2.57383E+00 5.59519E+00 1.86251E-02-1.30475E-02
 -1     24486 5.37775E+00 2.79173E-01 2.85197E+00 3.56352E+00-5.35453E-02 1.82650E-02
 -1     24487 7.44653E+00 2.38735E+00 4.92409E+00 3.35789E+00-4.70001E-02 2.25129E-02
 -1     24488 1.38996E+01 8.39548E+00 1.12446E+01 3.94987E+00-3.70415E-02-3.77736E-03
 -1     24489-1.01064E+01 6.79192E-01-4.79310E+00-2.37402E+00-2.13526E-03-8.25655E-03
 -1     24490-9.46330E+00 1.18853E+00-4.17646E+00-2.19945E+00-7.89345E-03-9.60845E-03
 -1     24491-1.18626E+01-1.91155E+00-6.89766E+00-1.82024E+00-1.88621E-02-4.21802E-02
 -1     24492 7.32918E+00 3.89768E+00 5.62122E+00 4.92183E+00 1.68683E-02 1.41745E-02
 -1     24493 2.01800E+00 9.50015E+00 5.57293E+00 5.14055E+00 8.02976E-03-2.17476E-02
 -1     24494 9.59076E+00 9.30549E+00 9.40252E+00 7.82881E+00-1.15189E-02 2.93425E-02
 -1     24495 1.02789E+01 8.44980E+00 9.36202E+00 8.11012E+00-1.02187E-02-1.78328E-03
 -1     24496 9.74442E+00 8.99586E+00 9.35464E+00 7.97578E+00 2.11729E-04 3.28834E-03
 -1     24497 1.15954E+01 6.16257E+00 8.83563E+00 7.52758E+00-3.05236E-02 1.01448E-02
 -1     24498 1.16176E+01 6.82549E+00 9.18173E+00 4.66093E+00 9.29057E-03-2.24239E-02
 -1     24499 9.96696E+00 8.68446E+00 9.32071E+00 8.02886E+00 9.92455E-05-1.12525E-02
 -1     24500 5.75117E+00 4.81323E-01 3.11950E+00 2.93072E+00 3.01908E-02 8.50459E-03
 -1     24501 1.08365E+01 4.98426E+00 7.86699E+00 3.22517E+00 2.74326E-02-7.46618E-03
 -1     24502 5.81921E+00 5.47554E-01 3.14666E+00 3.27184E+00-1.15339E-02-1.81902E-04
 -1     24503 9.46638E+00 5.45635E+00 7.45870E+00 4.98994E+00 3.79016E-03 1.77828E-02
 -1     24504 6.94190E+00 6.16234E+00 6.53522E+00 7.36286E+00-7.47321E-03 9.92370E-04
 -1     24505 6.39473E+00 5.28733E+00 5.84835E+00 7.38256E+00-1.20461E-02-2.66277E-03
 -1     24506-1.45058E+00 6.18057E+00 2.24491E+00 4.62418E+00 3.15655E-02-2.50029E-03
 -1     24507-5.60089E+00 2.00772E+00-1.76188E+00 5.32479E+00-6.85660E-03-2.45113E-02
 -1     24508-1.55183E+00 6.04527E+00 2.07977E+00 4.09274E+00-1.40531E-03-7.11455E-03
 -1     24509-1.21126E+01-2.28309E+00-7.17052E+00-1.38391E+00-1.76145E-02-1.18007E-03
 -1     24510-9.49109E+00 1.08118E+00-4.20794E+00-1.94756E+00-1.26774E-03-1.39894E-02
 -1     24511 9.06031E+00 3.51665E+00 6.31065E+00 7.22042E+00-1.06472E-02 6.43981E-03
 -1     24512 9.46270E+00 3.65566E+00 6.56919E+00 7.08612E+00-4.17709E-03 4.73798E-03
 -1     24513 5.99408E+00 1.00673E+00 3.51423E+00 5.00857E+00 2.58723E-02-3.53545E-02
 -1     24514 6.73700E+00 1.38945E+00 3.98173E+00 4.90426E+00 6.09102E-02-4.47068E-03
 -1     24515-1.07928E+01-5.31116E-01-5.66188E+00-2.49803E+00 2.58749E-03-1.13949E-02
 -1     24516-1.02439E+01-8.86117E-02-5.16961E+00-2.45285E+00 2.72471E-04-1.97532E-02
 -1     24517 9.99916E+00 3.34889E+00 6.67329E+00 6.33163E+00-5.07782E-03-1.29704E-02
 -1     24518 1.12504E+01 4.61920E+00 7.93499E+00 6.17478E+00 7.89898E-03-1.66443E-02
 -1     24519 3.53048E+00 5.78709E+00 4.65904E+00 6.50211E+00 2.89298E-03 1.91940E-03
 -1     24520 5.06471E+00 6.95626E+00 6.01738E+00 6.61153E+00-4.70553E-03-3.81952E-03
 -1     24521-1.28494E+00 6.42175E+00 2.57928E+00 5.79363E+00-2.43456E-02-6.47989E-03
 -1     24522 7.94094E+00 5.86473E+00 6.90967E+00 7.48921E+00-1.83780E-03 5.82095E-04
 -1     24523 7.08274E+00 4.69033E+00 5.89094E+00 7.49234E+00 1.38157E-03-2.29983E-03
 -1     24524 6.39695E+00-6.01077E-02 3.17826E+00 6.01914E+00 7.76624E-03-1.05848E-02
 -1     24525 1.18190E+01 5.45320E+00 8.66507E+00 5.83290E+00 7.13468E-03-1.40622E-02
 -1     24526 9.13739E+00 2.22291E+00 5.68788E+00 5.82677E+00 2.89996E-02-2.51100E-02
 -1     24527 9.20716E+00 5.68516E+00 7.46768E+00 7.53691E+00-5.74715E-03 1.48783E-03
 -1     24528 7.91770E+00 4.16122E+00 6.04433E+00 7.54491E+00-1.28546E-03 1.45265E-02
 -1     24529-1.49914E+01-2.71794E+00-8.89396E+00-2.21523E+00-9.80143E-03-2.52355E-02
 -1     24530-1.30057E+01-1.01497E+00-7.03736E+00-2.37655E+00-1.53331E-02 6.22583E-03
 -1     24531 1.12211E+00 5.11676E+00 3.09990E+00 6.23345E+00-5.41302E-04 3.40010E-03
 -1     24532 3.42462E+00 6.96873E+00 5.23281E+00 6.26063E+00-9.14457E-03-7.67835E-04
 -1     24533-1.45688E+01-6.39218E-01-7.62248E+00-1.86877E-01 2.44691E-01 4.92623E-02
 -1     24534-1.26028E+01 9.23334E-01-5.60700E+00-6.26392E-01 1.46835E-01 2.33204E-01
 -1     24535-1.85926E+01-8.41158E+00-1.37508E+01 1.05742E+00 2.21955E-01 1.66829E-01
 -1     24536 7.45084E+00 6.02268E+00 6.73318E+00 7.41701E+00-1.03959E-02-1.45252E-03
 -1     24537 6.93852E+00 5.26775E+00 6.09571E+00 7.45114E+00-8.12562E-03 2.32553E-03
 -1     24538 8.25809E+00 6.63166E+00 7.44213E+00 6.83911E+00 2.62071E-03-1.98812E-03
 -1     24539 7.79951E+00 6.85072E+00 7.30179E+00 6.78021E+00-1.21813E-04-5.74624E-03
 -1     24540 3.02559E+00 6.11539E+00 4.58177E+00 6.34147E+00-1.70232E-02-2.32580E-03
 -1     24541 4.22157E+00 6.89662E+00 5.57281E+00 6.41484E+00-1.13605E-02 8.98491E-04
 -1     24542 4.15416E+00 8.10257E+00 6.14025E+00 5.63274E+00-9.54209E-03-6.15509E-04
 -1     24543-5.95220E+00 2.71016E+00-1.64740E+00 7.66238E-01 6.86936E-03 2.18823E-03
 -1     24544-3.64469E+00 4.93686E+00 5.61315E-01 1.20723E+00-6.75091E-02-1.58074E-02
 -1     24545-9.38325E+00 1.95627E-01-4.57819E+00-1.96613E+00 1.76877E-04-7.56061E-03
 -1     24546-8.97342E+00 4.89046E-01-4.23416E+00-1.79196E+00-6.44988E-03-1.04452E-02
 -1     24547-1.29203E+01-1.84454E+00-7.38359E+00-2.53595E+00-1.01244E-02-1.54256E-02
 -1     24548-1.07137E+01 9.14011E-02-5.31872E+00-2.55520E+00 3.75360E-03-4.21044E-03
 -1     24549-8.56013E+00 1.86974E+00-3.38620E+00-1.77102E+00 2.02921E-02-2.45241E-02
 -1     24550 4.27096E+00-1.46003E+00 1.37327E+00 4.63709E+00 5.61667E-02 1.54935E-02
 -1     24551 7.40960E+00 1.57990E+00 4.55020E+00 4.43012E+00 2.67341E-02-1.11202E-03
 -1     24552 1.50172E+01 9.03483E+00 1.20069E+01 4.98324E+00 4.43228E-02 1.30430E-02
 -1     24553 6.73686E+00 2.22072E+00 4.48581E+00 5.14410E+00 1.55461E-02-1.70411E-02
 -1     24554-1.22536E+01-1.67391E+00-6.97674E+00-2.56720E+00-2.99515E-03-8.04429E-03
 -1     24555-1.03115E+01 1.53998E-01-5.09820E+00-2.49594E+00 6.07843E-03-1.07955E-02
 -1     24556-9.07071E+00 6.92467E-01-4.20227E+00-1.94697E+00-1.92376E-04-5.93692E-03
 -1     24557-1.30361E+01-1.37855E+00-7.19195E+00-2.42847E+00-1.72426E-02 3.39744E-04
 -1     24558-1.16735E+01-4.34744E-01-6.04902E+00-2.50517E+00-1.17362E-02 2.30977E-03
 -1     24559-1.08639E+01-1.34135E-01-5.55002E+00-1.76502E+00-2.08059E-02 7.84804E-03
 -1     24560 4.67260E+00-2.36361E-01 2.21114E+00 2.91217E+00 1.75697E-02-9.35472E-03
 -1     24561 2.63083E+00-1.81898E+00 3.87944E-01 2.79206E+00 3.03142E-02-1.64379E-02
 -1     24562 9.22581E+00 5.03384E+00 7.15198E+00 7.52422E+00-5.90069E-03 7.03071E-03
 -1     24563 8.16049E+00 3.60255E+00 5.88022E+00 7.42943E+00 1.95404E-03 2.75213E-02
 -1     24564 9.77348E+00 5.74955E+00 7.76100E+00 7.01494E+00-5.95741E-03 3.20920E-03
 -1     24565 9.13324E+00 3.08838E+00 6.11123E+00 6.94797E+00-1.10623E-03-3.20757E-03
 -1     24566 1.01021E+01 3.85955E+00 6.95801E+00 6.77980E+00 6.08111E-03-5.10278E-03
 -1     24567 9.97462E+00 3.75292E+00 6.88926E+00 6.66406E+00 8.84188E-03 6.12894E-03
 -1     24568 5.91618E+00 6.23254E+00 6.06263E+00 7.09731E+00-2.29904E-03-3.01782E-03
 -1     24569 6.38441E+00 6.40343E+00 6.38428E+00 7.17932E+00 3.90848E-04 6.42247E-04
 -1     24570-1.46293E+01-1.03857E+00-7.47921E+00-1.31930E+00 4.74609E-02 1.95320E-01
 -1     24571-2.04016E+01-7.10278E+00-1.35226E+01-1.58593E+00-1.15969E-01 9.63288E-02
 -1     24572-8.12890E+00 3.94860E+00-1.95762E+00-4.41932E-01-4.75644E-02 7.19308E-02
 -1     24573 6.67683E+00 6.40185E+00 6.55170E+00 7.25524E+00-5.24679E-03-3.50591E-03
 -1     24574 6.47346E+00 5.98151E+00 6.21671E+00 7.31608E+00-4.56550E-03-1.46256E-02
 -1     24575 8.23674E+00 7.94102E+00 8.10131E+00 6.66767E+00-2.63573E-03 4.28370E-03
 -1     24576 6.96870E+00 7.24947E+00 7.09607E+00 6.52538E+00-2.62648E-03 1.06997E-05
 -1     24577 7.24628E+00 4.49585E+00 5.87069E+00 7.55262E+00-3.04533E-03 1.28581E-03
 -1     24578 7.34775E+00 4.26826E+00 5.81562E+00 7.53234E+00-3.65325E-03 1.69495E-02
 -1     24579 8.71219E+00 6.34194E+00 7.52141E+00 6.95876E+00-2.26659E-03 4.40807E-03
 -1     24580-7.41344E+00 1.64206E+00-2.87919E+00-7.79909E-01-1.79374E-02-5.29955E-03
 -1     24581-7.06479E+00 1.86693E+00-2.60875E+00-5.77018E-01-1.89269E-02 1.65402E-02
 -1     24582 1.33776E+01 8.35135E+00 1.08190E+01 5.26576E+00 5.03054E-02-1.65109E-02
 -1     24583-1.06155E+01-1.12609E+00-5.90428E+00-8.63779E-01 1.05564E-02-2.09587E-02
 -1     24584-6.59291E+00 2.26836E+00-2.19961E+00-2.86046E-01 1.29475E-04 4.24063E-03
 -1     24585-5.87622E+00 2.88735E+00-1.52806E+00-4.25847E-02 2.94555E-03-8.48791E-03
 -1     24586-8.60575E+00-4.84536E-01-4.54929E+00 3.25015E-01-3.15036E-03 4.57170E-03
 -1     24587-3.57616E+00 4.16852E+00 2.53960E-01 3.57575E+00-1.21724E-03-3.04057E-03
 -1     24588 9.04966E+00 3.84088E+00 6.45550E+00 7.31343E+00-1.34309E-03 1.10393E-02
 -1     24589 1.09284E+01 5.36479E+00 8.14004E+00 6.82599E+00-5.18755E-03 5.36571E-03
 -1     24590 9.54835E+00 4.62156E+00 7.11215E+00 7.39392E+00-1.33475E-03 8.19376E-03
 -1     24591-1.41362E+00 4.67192E+00 1.74068E+00 6.31455E+00 1.98724E-02 3.43850E-03
 -1     24592 3.61403E+00 8.89886E+00 6.23457E+00 6.45486E+00 2.72911E-02 1.05409E-03
 -1     24593 6.63172E+00 1.08518E+00 3.83896E+00 5.40146E+00 2.60839E-02 3.57398E-03
 -1     24594 9.28481E+00 6.06880E+00 7.67906E+00 7.02562E+00-4.22277E-03 2.07972E-04
 -1     24595 6.87642E-01 7.91750E+00 4.30486E+00 5.23580E+00-4.79774E-03-1.43142E-02
 -1     24596-2.08529E+00 5.40842E+00 1.58986E+00 6.16789E+00 4.25837E-03-1.22218E-02
 -1     24597 1.16117E+01 5.71528E+00 8.57176E+00 3.62293E+00-6.77703E-03-5.30125E-02
 -1     24598 7.09859E+00 8.81946E-01 3.95174E+00 3.63949E+00 3.53464E-02-1.35436E-02
 -1     24599 5.57948E+00-4.87731E-01 2.51857E+00 3.47853E+00 3.33576E-02-1.11928E-02
 -1     24600 1.28503E+00-7.96238E-01 2.36163E-01 2.38052E+00 2.64846E-02-1.27008E-02
 -1     24601-2.99648E+00-4.19133E+00-3.56231E+00 2.29475E+00 3.07198E-02-3.76396E-03
 -1     24602 6.77590E-01 7.35436E+00 4.11357E+00 6.08607E+00 2.08043E-02 1.80524E-03
 -1     24603-9.00660E+00 6.65870E-01-4.15321E+00-2.12242E+00-5.47185E-05-1.06279E-02
 -1     24604-9.29226E+00-5.39198E-01-4.88971E+00-1.42519E+00-6.41103E-03-6.19178E-03
 -1     24605-9.92329E+00-1.41755E-01-5.04140E+00-2.21160E+00 4.72194E-03-1.17384E-02
 -1     24606-4.80265E+00 3.92179E+00-4.59613E-01 5.67156E-01 8.11579E-04-1.77713E-02
 -1     24607-9.71715E+00-1.67262E+00-5.65206E+00 1.34706E+00 3.56879E-02-1.95018E-02
 -1     24608-6.53738E+00 2.22176E+00-2.18042E+00 2.15744E-01-3.70422E-03-9.29890E-03
 -1     24609-1.00853E+01 9.80180E-02-4.99549E+00-1.89866E+00-1.07886E-02 4.00003E-03
 -1     24610-8.41012E+00 9.72920E-01-3.69941E+00-1.63561E+00-4.83499E-03-8.53852E-03
 -1     24611-8.19862E+00 1.10463E+00-3.56002E+00-1.46054E+00-1.21753E-02-6.10516E-03
 -1     24612-8.74105E+00-1.39842E-01-4.42655E+00-1.10860E+00-1.11181E-03-7.19939E-03
 -1     24613 3.90884E+00 6.96852E+00 5.41616E+00 5.75469E+00-6.30166E-03 8.37328E-04
 -1     24614-5.46956E+00-2.74663E+00-4.09863E+00 1.76002E+00 1.68725E-02-5.21379E-02
 -1     24615-6.13094E+00-2.06881E+00-4.06678E+00 1.71206E+00 2.24886E-02-5.35981E-02
 -1     24616-1.90023E+00-1.82476E+00-1.85532E+00 2.13593E+00 2.82046E-02-9.12634E-03
 -1     24617-7.41542E+00-6.15146E+00-6.78577E+00 1.96974E+00 2.12762E-02-1.48767E-02
 -1     24618-5.47059E+00-3.26377E+00-4.36212E+00 2.04221E+00 6.42346E-03-1.57307E-02
 -1     24619-2.01388E+00-2.41177E+00-2.19568E+00 2.47283E+00 1.49333E-02 8.85067E-03
 -1     24620-1.73002E+01-4.15979E+00-1.05849E+01-1.79326E+00 1.20356E-03-4.67758E-02
 -1     24621-1.36603E+01-9.59369E-01-7.31769E+00-2.05912E+00-1.25645E-02-7.08668E-02
 -1     24622 6.73608E+00 9.46530E-01 3.89747E+00 4.27872E+00-1.45377E-02-2.37947E-02
 -1     24623 7.99116E+00 2.04829E+00 5.00637E+00 4.07849E+00-9.39435E-03-3.64350E-02
 -1     24624 1.61448E+01 1.00045E+01 1.30360E+01 4.56272E+00-1.10167E-02 1.66339E-02
 -1     24625-7.92788E+00 1.26198E+00-3.34238E+00-1.22912E+00-8.86191E-03-2.66880E-02
 -1     24626-7.43494E+00 1.61158E+00-2.93285E+00-1.03502E+00 1.05346E-03-3.42552E-02
 -1     24627-8.34514E+00 5.11624E-02-4.15653E+00-7.02167E-01-1.07550E-02-6.58793E-03
 -1     24628-3.60414E+00 4.74860E+00 5.90302E-01 1.54060E+00-2.87282E-02-2.56967E-02
 -1     24629-6.70426E+00 1.17764E+00-2.75951E+00 2.33643E+00 2.29149E-02-4.62569E-02
 -1     24630-9.11660E+00-1.25162E+00-5.08132E+00 1.97944E+00-3.77667E-03 4.08572E-02
 -1     24631 8.48730E+00 2.47914E+00 5.51989E+00 5.70274E+00 8.37778E-03 1.71327E-02
 -1     24632 1.24854E+01 6.67601E+00 9.62690E+00 5.52723E+00 2.26126E-02 1.57604E-02
 -1     24633 6.53214E+00 5.58424E-01 3.54591E+00 5.27033E+00 2.34082E-02 1.39237E-02
 -1     24634 7.57178E+00 1.06028E+00 4.34395E+00 5.44305E+00 1.85771E-02 9.48833E-03
 -1     24635 3.46170E+00-3.35508E-01 1.54723E+00 2.61419E+00 3.61080E-02-5.68348E-03
 -1     24636-9.82978E-01-4.04056E+00-2.49413E+00 2.53469E+00 3.82691E-02-1.12499E-02
 -1     24637 1.45910E+00-1.18607E+00 1.33872E-01 2.78845E+00 1.72817E-02-2.37648E-03
 -1     24638 5.29596E+00 1.07665E+00 3.18785E+00 3.02654E+00 1.18032E-02-1.77363E-02
 -1     24639-9.49692E+00-9.18583E-02-4.78888E+00-1.89179E+00 1.40063E-02-2.06961E-02
 -1     24640 4.60292E+00 6.13097E+00 5.38733E+00 6.69251E+00 1.10613E-02-5.22188E-03
 -1     24641 5.25853E+00 6.47296E+00 5.86727E+00 6.78884E+00-1.65381E-04 2.86942E-03
 -1     24642 5.57107E+00 7.83546E+00 6.71746E+00 5.94231E+00-2.77106E-03-4.10876E-03
 -1     24643 2.85176E+00-2.58465E+00 9.92163E-02 3.12201E+00 2.07318E-02-1.66975E-02
 -1     24644 8.04317E+00 2.59977E+00 5.30101E+00 3.34579E+00 9.80762E-03-1.36356E-02
 -1     24645 6.19375E+00 4.49331E-01 3.27919E+00 3.30640E+00 3.13854E-02-1.76145E-02
 -1     24646 1.01036E+01 5.22013E+00 7.67012E+00 7.01506E+00-2.76009E-03 3.83238E-03
 -1     24647 9.31315E+00 2.78213E+00 6.03584E+00 6.65241E+00 2.52175E-03 2.52875E-03
 -1     24648 1.03053E+01 3.75714E+00 7.05456E+00 6.50002E+00-1.38801E-03-1.52542E-03
 -1     24649 5.81613E+00 6.72477E+00 6.27456E+00 6.92080E+00 1.17473E-02-7.30941E-03
 -1     24650 6.04517E+00 6.63176E+00 6.35004E+00 6.99727E+00 4.97666E-03-6.11725E-03
 -1     24651 6.54315E+00 7.43819E+00 6.98909E+00 6.34605E+00-6.74814E-03 3.41922E-03
 -1     24652 5.77716E+00 7.34798E+00 6.56209E+00 6.12562E+00-4.42396E-03-5.80655E-04
 -1     24653 7.22691E-01 5.61444E+00 3.09564E+00 6.23740E+00-1.93276E-02 2.67121E-02
 -1     24654 3.64893E+00 8.16451E+00 5.91687E+00 6.19944E+00-1.22046E-02-1.95893E-02
 -1     24655-1.06907E+01-6.90572E-01-5.69874E+00-2.37185E+00 3.19519E-03-6.85222E-03
 -1     24656-9.61678E+00 2.81700E-01-4.69215E+00-2.29305E+00 7.51343E-03-8.16863E-03
 -1     24657-9.24698E+00-1.25644E-01-4.68519E+00-1.81411E+00-5.51061E-03-1.38991E-02
 -1     24658-7.96283E+00 3.88423E+00-1.84167E+00-1.08274E+00-6.71054E-02-1.41342E-02
 -1     24659 8.91667E+00 2.66115E+00 5.75436E+00 3.72666E+00 1.29286E-02-1.88845E-02
 -1     24660-8.58889E+00-2.35712E+00-5.59200E+00 1.38482E+00 1.24596E-01-1.55987E-01
 -1     24661-5.63437E+00 1.85547E+00-1.94931E+00 1.28039E+00 1.23635E-01 8.89390E-02
 -1     24662-1.81438E+01-8.37585E+00-1.33091E+01 9.05540E-01 4.94760E-02 1.20240E-01
 -1     24663-1.14909E+01-6.03135E+00-8.75915E+00 1.51646E+00 2.02470E-02-1.36691E-01
 -1     24664 9.85634E+00 2.88393E+00 6.36017E+00 6.08312E+00 1.07756E-02-1.24895E-02
 -1     24665 1.27039E+00 6.16464E+00 3.64892E+00 5.59161E+00 1.80163E-02 3.72353E-02
 -1     24666-9.31783E+00-1.02118E+00-5.17836E+00-2.35290E-01-6.99498E-03-5.97093E-03
 -1     24667-7.48737E+00 3.74153E+00-1.85467E+00-1.48821E+00 4.90687E-02-6.25234E-02
 -1     24668 9.93048E+00 3.22721E+00 6.55769E+00 6.41089E+00 9.49925E-03-5.16113E-03
 -1     24669 6.52062E-01 6.23483E+00 3.46000E+00 5.79524E+00 2.50104E-03 1.63888E-02
 -1     24670-1.14162E+01-2.07111E+00-6.78814E+00-1.28464E+00-2.50741E-02-1.23243E-02
 -1     24671-8.66948E+00 4.78943E-01-4.11230E+00-1.30031E+00-7.55918E-03-5.36069E-04
 -1     24672-4.56359E-01 5.23623E+00 2.43845E+00 4.90398E+00 2.20315E-02-5.41093E-03
 -1     24673 1.38998E+00 6.68799E+00 4.05809E+00 4.85139E+00-4.74207E-04-9.41939E-03
 -1     24674 2.62921E+00 9.27746E+00 6.06363E+00 5.80438E+00 5.43340E-02-1.37059E-02
 -1     24675 7.33758E+00 7.02752E-01 4.02935E+00 6.17741E+00 1.17232E-02 1.31010E-02
 -1     24676 1.08360E+01 3.97840E+00 7.38501E+00 6.03400E+00 1.93184E-02 2.99727E-03
 -1     24677-5.38630E+00 2.23489E+00-1.63506E+00 4.41497E+00 1.43363E-02-2.30077E-02
 -1     24678-2.75429E+00 4.44306E+00 9.29798E-01 4.88644E+00-7.31987E-03-5.29316E-03
 -1     24679-1.15208E+01-1.00097E+00-6.14690E+00-2.51026E-01-7.20133E-02-4.70651E-03
 -1     24680-1.10832E+01-7.68709E-01-5.90330E+00-5.55773E-01 1.65371E-02-3.75238E-02
 -1     24681 7.20754E+00 4.46777E+00 5.83692E+00 6.50316E+00-5.67529E-03 1.00436E-02
 -1     24682 6.45588E+00 3.27281E+00 4.85315E+00 6.58940E+00-5.28316E-03 1.59157E-03
 -1     24683 5.73469E+00-2.16629E-02 2.83938E+00 3.75451E+00 1.73167E-02-9.17756E-03
 -1     24684 3.82871E+00-1.48788E+00 1.15807E+00 3.61275E+00 1.77999E-02-1.02106E-02
 -1     24685 5.07572E+00-1.27122E+00 1.88993E+00 4.03158E+00 1.05922E-02-2.82876E-03
 -1     24686 8.49529E+00 2.01460E+00 5.24223E+00 3.92820E+00 1.06604E-02-2.95225E-02
 -1     24687 1.16805E+01 4.97864E+00 8.26522E+00 4.13139E+00 8.28513E-03-1.15429E-02
 -1     24688 9.62810E+00 3.04048E+00 6.37025E+00 4.37470E+00 8.66986E-03-3.45938E-02
 -1     24689-5.58369E+00 2.01170E+00-1.78140E+00 3.03838E-01-2.88629E-03 1.56050E-03
 -1     24690-4.78511E+00 2.72337E+00-1.02740E+00 5.61827E-01-7.09110E-03-2.77964E-03
 -1     24691 8.16234E+00 1.11247E+00 4.61127E+00 5.58081E+00 1.24354E-02-7.35944E-03
 -1     24692 1.45044E+01 7.57895E+00 1.09948E+01 5.40596E+00 1.53608E-02-1.10139E-02
 -1     24693 7.96969E+00 2.57785E+00 5.29123E+00 6.55095E+00-1.14566E-02 1.93416E-03
 -1     24694 8.52328E+00 2.79335E+00 5.66482E+00 6.45793E+00-6.59702E-03 6.64510E-04
 -1     24695-9.44068E+00-9.32762E-01-5.18202E+00-1.27800E+00-4.97377E-03-4.37936E-03
 -1     24696-7.07419E+00 1.30743E+00-2.88377E+00-1.28695E+00-5.39345E-04-1.22856E-02
 -1     24697 1.38545E+00 5.22561E+00 3.30017E+00 5.03155E+00-4.72821E-03 1.46291E-03
 -1     24698 2.29426E+00 5.73219E+00 4.00282E+00 5.12180E+00-5.20379E-04 9.70649E-03
 -1     24699 7.89115E+00 1.61967E+00 4.80457E+00 5.04756E+00 1.85125E-02 3.44191E-02
 -1     24700-1.60959E+01-5.71157E+00-1.08262E+01-7.59524E-01 4.54888E-02-4.43796E-02
 -1     24701-8.55251E+00 1.32523E+00-3.64495E+00-9.83888E-01 3.89362E-02-5.06013E-02
 -1     24702-6.89589E+00 1.97137E+00-2.52155E+00-7.99247E-02 3.30031E-02-3.28115E-02
 -1     24703 8.11942E+00 4.46200E+00 6.28064E+00 6.61280E+00-5.33134E-03-2.85335E-03
 -1     24704 6.72808E+00 2.61887E+00 4.65726E+00 6.57347E+00-6.72986E-03-7.07871E-03
 -1     24705 7.82878E+00 4.54812E+00 6.15592E+00 6.13616E+00-4.97594E-03 1.36699E-03
 -1     24706-1.03076E+01-1.42339E+00-5.88227E+00-1.31028E+00 1.12624E-03-2.79351E-03
 -1     24707-7.88927E+00 6.95469E-01-3.61849E+00-1.29468E+00-8.13692E-03 2.25733E-03
 -1     24708-8.63829E+00-6.82104E-01-4.66041E+00-6.75370E-01-3.14078E-03 3.10763E-04
 -1     24709-7.40036E+00 3.57171E+00-1.77616E+00 3.05540E-01-3.53093E-02 8.15721E-02
 -1     24710-1.88215E+01-8.16716E+00-1.32304E+01-6.83558E-02-9.87399E-02 4.08453E-02
 -1     24711-7.92604E+00 1.19982E+00-3.24405E+00 2.90348E-01-3.90595E-02-6.47693E-03
 -1     24712-1.09451E+01-2.58984E+00-6.68905E+00 1.15857E+00-5.07443E-02 7.86691E-02
 -1     24713 1.47010E-01 4.86969E+00 2.52040E+00 4.89541E+00-1.41856E-02-4.83249E-03
 -1     24714 1.49005E+00 5.76752E+00 3.60551E+00 4.94981E+00-1.08625E-02 1.65497E-03
 -1     24715 5.52708E-01 6.12193E+00 3.31879E+00 4.17112E+00-4.69991E-03-5.40349E-03
 -1     24716 7.52251E+00 5.34759E-01 3.99778E+00 5.87336E+00 2.21433E-02 9.20163E-03
 -1     24717 1.09803E+01 3.96546E+00 7.46160E+00 5.71437E+00 2.57904E-02-1.52680E-03
 -1     24718 9.01720E+00 1.88941E+00 5.45407E+00 5.35408E+00 1.27847E-02 1.95742E-02
 -1     24719 9.23596E+00 2.23686E+00 5.75664E+00 5.64075E+00 2.45269E-02 1.95781E-02
 -1     24720-1.51864E+01-5.58003E+00-1.04196E+01-1.06989E+00-3.82713E-03-2.68187E-02
 -1     24721-7.98987E+00 1.55628E+00-3.25224E+00-1.15306E+00-2.91101E-02-1.62981E-03
 -1     24722-6.87189E+00 1.51425E+00-2.73050E+00-6.07427E-01-2.42301E-02-2.49528E-02
 -1     24723-6.85621E+00 1.79312E+00-2.51195E+00-4.04922E-01 1.89592E-02-6.46393E-02
 -1     24724 8.12116E+00 2.00358E+00 5.07123E+00 6.37996E+00 9.96412E-03 5.90184E-03
 -1     24725 9.27602E+00 2.86762E+00 6.08136E+00 6.27724E+00 1.22976E-02-1.01049E-02
 -1     24726 8.47452E+00 2.50039E+00 5.49017E+00 6.07265E+00-4.78458E-03 5.51757E-03
 -1     24727 7.08815E+00 2.49706E+00 4.78218E+00 6.60120E+00-6.75478E-03 7.91878E-04
 -1     24728 7.65750E+00 2.70385E+00 5.18409E+00 6.57903E+00-4.76633E-03 9.07720E-03
 -1     24729 8.83306E+00 3.68833E+00 6.26271E+00 6.17812E+00-6.95577E-04 4.38527E-04
 -1     24730 8.73444E+00 4.55204E+00 6.60883E+00 6.18414E+00-6.70234E-03-4.86748E-03
 -1     24731-2.92203E+00 3.94763E+00 5.62374E-01 5.19233E+00 4.36323E-03-1.19534E-02
 -1     24732-2.10753E+00 4.17748E+00 1.07409E+00 5.29765E+00 1.80772E-03 3.30411E-02
 -1     24733-1.28369E+00 5.65524E+00 2.25825E+00 4.28272E+00-1.51185E-02-1.44653E-02
 -1     24734 9.34322E+00 2.78687E+00 6.05735E+00 5.89110E+00 1.85028E-02-6.00835E-03
 -1     24735 4.00009E+00-6.21472E-01 1.67765E+00 3.40751E+00 1.12233E-02-1.59868E-02
 -1     24736 2.49109E+00-1.48646E+00 4.95273E-01 3.28247E+00 9.86806E-03-1.77445E-02
 -1     24737 5.89149E+00 8.15110E-01 3.34233E+00 3.78971E+00 2.12913E-02-1.01091E-02
 -1     24738 1.94449E+00 7.83278E+00 4.87532E+00 5.12707E+00-1.24260E-02 4.19804E-02
 -1     24739-7.33208E+00 2.91559E-01-3.52755E+00-6.78140E-01 7.35106E-03-6.20338E-03
 -1     24740-2.16372E+00 4.18893E+00 1.05281E+00 4.44543E+00-2.60412E-03-3.86166E-03
 -1     24741 8.10012E+00 1.16252E+00 4.67782E+00 4.55676E+00 2.00441E-02-1.15858E-02
 -1     24742 7.19543E+00 4.91351E-01 3.82318E+00 4.35688E+00 3.26882E-03-1.11336E-02
 -1     24743-4.14624E+00 3.52183E+00-2.98127E-01 1.83491E+00 3.49905E-02-3.24243E-02
 -1     24744-1.05104E+00 6.49586E+00 2.72845E+00 2.06356E+00 2.55971E-02-3.32600E-02
 -1     24745-5.20205E+00 2.40566E+00-1.38142E+00 5.38628E-02-4.73432E-03 7.60640E-03
 -1     24746-5.99370E+00 8.67849E-01-2.55804E+00 8.22003E-01-4.47051E-03-2.76623E-03
 -1     24747-6.53945E+00 1.11296E+00-2.67306E+00-1.46842E-01-6.35583E-03-4.31209E-03
 -1     24748 2.58692E+00-4.62522E-01 1.05344E+00 3.06731E+00 9.67075E-03-1.35531E-02
 -1     24749-3.05117E-01-2.39836E+00-1.35632E+00 2.97056E+00 1.76388E-02-1.20716E-02
 -1     24750 2.16170E+00-1.34719E+00 4.22832E-01 3.41968E+00 7.90764E-03-1.16286E-02
 -1     24751-9.69495E+00-7.75557E-01-5.24982E+00-1.66480E+00 6.85548E-03-1.47952E-02
 -1     24752 4.85326E+00 5.10773E+00 4.98368E+00 5.99040E+00 1.12700E-03 5.73475E-03
 -1     24753 4.33087E+00 4.27266E+00 4.31101E+00 6.04562E+00-6.80835E-03-4.11326E-03
 -1     24754 5.15037E+00 4.74313E+00 4.91458E+00 6.10289E+00-2.59256E-03 5.07525E-03
 -1     24755 4.89472E+00 4.20070E+00 4.53296E+00 6.16765E+00-8.79819E-05 3.27330E-03
 -1     24756 5.53063E+00 5.72591E+00 5.61419E+00 5.43537E+00 1.76672E-02-4.44600E-03
 -1     24757 6.56770E+00 5.48344E+00 6.01928E+00 6.22101E+00 2.21553E-03 2.84810E-03
 -1     24758 5.17012E+00 3.67968E+00 4.42177E+00 6.28540E+00 2.61612E-03 1.82705E-03
 -1     24759 5.96772E+00 5.43577E+00 5.68556E+00 5.60001E+00 6.81258E-03 1.88450E-03
 -1     24760-8.10470E+00 8.26872E-02-3.95957E+00 8.05318E-01 8.89143E-03-2.69251E-02
 -1     24761 1.32257E+01 6.72903E+00 1.00243E+01 5.14364E+00-3.41538E-03 2.80399E-02
 -1     24762 4.37006E+00-2.15705E+00 1.13720E+00 4.85383E+00 1.92629E-02 3.86141E-02
 -1     24763 7.81148E+00 1.31378E+00 4.58554E+00 4.69817E+00 5.34149E-03-1.18745E-02
 -1     24764 8.40909E+00 1.56235E+00 4.97522E+00 5.27648E+00 2.58442E-02-9.40617E-03
 -1     24765-4.70993E+00 2.79990E+00-9.57852E-01 8.74272E-01-1.54346E-03-6.53840E-04
 -1     24766-4.68772E+00 2.77474E+00-9.44903E-01 1.13379E+00 3.37957E-03 4.23121E-03
 -1     24767-5.20173E+00 1.61291E+00-1.79211E+00 1.37213E+00-4.78793E-03 6.27624E-04
 -1     24768-9.26115E-02-1.08697E+00-5.99112E-01 2.76857E+00 2.62676E-02-1.38752E-02
 -1     24769-2.97565E+00-2.76127E+00-2.87199E+00 2.56986E+00 2.07772E-02 7.62033E-04
 -1     24770-4.01119E-01-1.89869E+00-1.14851E+00 3.08352E+00-2.02760E-03-4.59256E-03
 -1     24771-7.73874E+00 2.91834E-01-3.70840E+00-9.00932E-01-1.89910E-04-9.01290E-03
 -1     24772-6.50385E+00 1.42394E+00-2.53013E+00-7.33835E-01-4.15686E-03-6.72768E-03
 -1     24773 6.01968E+00-5.63590E-01 2.73493E+00 4.11108E+00 2.86698E-03-1.85197E-02
 -1     24774 5.04561E+00-1.22754E+00 1.89595E+00 3.95003E+00 9.78950E-03-7.83959E-03
 -1     24775-3.50850E+00-1.84442E+00-2.67586E+00 2.28540E+00 3.62146E-02-1.82712E-02
 -1     24776-6.72940E+00-3.83620E+00-5.29994E+00 2.07066E+00 1.05157E-02-2.42101E-02
 -1     24777-3.65004E+00-2.69321E+00-3.16413E+00 2.57992E+00-2.21120E-05 2.06502E-03
 -1     24778 5.56751E+00 3.63206E+00 4.59807E+00 6.38097E+00 1.75417E-03 1.28117E-04
 -1     24779 5.36729E+00 3.07958E+00 4.21924E+00 6.40735E+00-1.50174E-03 3.42188E-03
 -1     24780 1.51730E+00 4.58562E+00 3.05975E+00 5.16846E+00-4.08650E-03-2.49625E-03
 -1     24781 2.98600E+00 5.65637E+00 4.32969E+00 5.24410E+00-2.54230E-03 1.84254E-04
 -1     24782 1.36831E+00 5.19084E+00 3.28576E+00 4.43388E+00-4.67653E-03-3.20973E-03
 -1     24783 5.09814E-02 4.67044E+00 2.35458E+00 4.30326E+00-8.01918E-03-7.71580E-04
 -1     24784-9.84131E-01 6.85555E+00 2.88529E+00 3.16929E+00 4.20796E-03 2.26662E-03
 -1     24785 9.48576E+00 2.60073E+00 6.04117E+00 4.55085E+00 8.95810E-03 3.06361E-03
 -1     24786 4.26851E+00 5.77068E+00 5.02426E+00 5.60297E+00-1.89394E-03 1.13010E-04
 -1     24787 4.03153E+00 5.27134E+00 4.65166E+00 5.71226E+00 2.13329E-03-8.31675E-04
 -1     24788-8.74257E+00-4.29459E-01-4.57660E+00-1.23224E+00 4.17902E-03-5.95884E-03
 -1     24789-7.61326E+00 5.84655E-01-3.51932E+00-1.17489E+00-2.70375E-04-9.06431E-03
 -1     24790-7.34041E+00 1.04777E-01-3.60918E+00-6.22124E-01 9.61392E-03-1.67764E-02
 -1     24791 6.51107E+00 5.14236E+00 5.82209E+00 5.76340E+00 7.79552E-04 4.02411E-03
 -1     24792-6.60017E+00-1.89582E+00-4.26883E+00 1.74971E+00 3.28295E-02-4.28011E-02
 -1     24793-4.42973E+00 2.03893E+00-1.48597E+00 1.41822E+00 9.22931E-02-3.42830E-02
 -1     24794-1.11232E+01-3.43046E+00-7.37645E+00 1.00527E+00 1.64152E-02 6.79824E-02
 -1     24795-7.32170E+00-3.04523E+00-5.13081E+00 1.92216E+00-2.36134E-02-3.05915E-02
 -1     24796 5.12929E+00 6.00753E+00 5.53576E+00 5.83960E+00 7.93976E-03 3.54611E-03
 -1     24797 4.29242E+00 4.84943E+00 4.55636E+00 5.92001E+00 5.41312E-03-2.85525E-04
 -1     24798 4.39630E+00 5.91144E+00 5.14258E+00 5.11672E+00-7.36259E-03 1.01535E-02
 -1     24799 9.11081E+00 3.02691E+00 6.06357E+00 4.14558E+00 9.48481E-03-1.43754E-02
 -1     24800 7.31152E+00 5.02365E+00 6.15650E+00 5.93398E+00 2.59247E-03 5.32933E-04
 -1     24801 8.57100E+00 1.50923E+00 5.00355E+00 5.13260E+00 3.37491E-02-1.30418E-02
 -1     24802 7.37938E+00 9.86411E-01 4.18678E+00 5.65000E+00 1.35266E-03-4.46498E-03
 -1     24803 9.91504E+00 3.28011E+00 6.61204E+00 5.53289E+00 1.16513E-02-4.71109E-03
 -1     24804-1.56046E+00 5.79559E+00 2.12465E+00 1.80363E+00 1.02148E-02-2.82667E-02
 -1     24805-5.24512E+00 1.75008E+00-1.77477E+00 2.48122E+00 2.02881E-02-4.85294E-02
 -1     24806-4.36188E+00 3.04621E+00-6.65314E-01 1.55094E+00 1.60649E-03-1.36989E-02
 -1     24807-6.79859E+00-1.14101E-01-3.44490E+00-7.72053E-02-3.51431E-03-1.99596E-03
 -1     24808-5.32147E+00 1.28223E+00-2.01860E+00-6.21822E-02-7.01948E-03 9.04114E-03
 -1     24809 7.35336E+00 3.24250E-01 3.84656E+00 4.83017E+00 1.71456E-02-1.31775E-02
 -1     24810 1.05243E+01 3.40226E+00 6.94458E+00 4.96929E+00 9.67428E-03 1.02866E-02
 -1     24811-7.53636E+00-3.24992E-01-3.99942E+00 2.93065E+00 4.57026E-03-5.14864E-02
 -1     24812-2.42576E+00 5.15133E+00 1.32065E+00 2.55839E+00-3.29879E-02-1.50454E-02
 -1     24813 8.31630E+00 1.30806E+00 4.75012E+00 4.88300E+00 1.19749E-02 2.39238E-02
 -1     24814 5.79683E+00-9.42256E-01 2.44433E+00 4.70393E+00 1.73333E-02-4.38450E-04
 -1     24815 4.10514E+00 3.43609E+00 3.77077E+00 5.13215E+00 3.51037E-03 2.65792E-03
 -1     24816 3.28187E+00 2.15192E+00 2.72304E+00 5.23711E+00 2.13726E-03-1.52871E-03
 -1     24817 5.05620E+00 5.89833E+00 5.47197E+00 5.31071E+00 2.76704E-03 1.55156E-03
 -1     24818-8.03684E-01 4.54990E+00 1.85353E+00 3.66618E+00-8.62630E-03-2.12630E-03
 -1     24819-2.42992E-01 4.67622E+00 2.20886E+00 3.75712E+00-6.36844E-03-4.36890E-03
 -1     24820-9.06292E+00-9.15234E-01-4.99764E+00-1.12683E+00 7.26804E-03-1.07045E-02
 -1     24821-6.91124E+00 1.21253E+00-2.84825E+00-1.02563E+00 4.70439E-03-1.18939E-02
 -1     24822-6.96827E+00 3.09733E-01-3.32055E+00-3.65577E-01-3.26611E-03-3.75153E-03
 -1     24823-7.38806E+00-3.47689E-02-3.71925E+00-5.45711E-01 5.12249E-03-4.45618E-03
 -1     24824 6.60697E+00 2.23079E-01 3.41804E+00 4.46032E+00 1.21670E-02-2.69523E-02
 -1     24825 4.93252E+00-9.92465E-01 1.97174E+00 4.31263E+00 1.31531E-02-2.18945E-02
 -1     24826 9.67618E+00 3.11541E+00 6.41581E+00 4.81295E+00 1.61120E-02-1.70134E-02
 -1     24827-7.08944E+00 7.28058E-01-3.18900E+00-5.21247E-01-5.73546E-04-1.03493E-02
 -1     24828-5.83934E+00 1.88619E+00-1.96710E+00-3.67646E-01-2.89385E-03-1.00794E-02
 -1     24829-1.25411E+01-4.94120E+00-8.81349E+00 5.35839E-01 3.69160E-02 1.03591E-02
 -1     24830-6.48473E+00 1.25565E+00-2.60282E+00 3.67933E-01 2.78100E-02-9.36689E-04
 -1     24831 4.85756E+00 3.19470E+00 4.01786E+00 5.46180E+00-7.59756E-03 3.01294E-03
 -1     24832 3.89368E+00 1.71042E+00 2.78459E+00 5.55566E+00-2.62593E-02 4.21946E-03
 -1     24833 5.24681E+00 4.31632E+00 4.76710E+00 4.83679E+00-1.18532E-02-8.72444E-03
 -1     24834 5.53928E+00 2.81822E+00 4.18118E+00 5.64001E+00-1.77719E-02 1.74000E-03
 -1     24835 5.19372E+00 1.95432E+00 3.59696E+00 5.72399E+00-5.47408E-03-3.39909E-03
 -1     24836 6.49636E+00 4.40960E+00 5.43795E+00 5.15783E+00-3.33955E-02-2.43427E-02
 -1     24837-6.68286E+00 4.08043E-01-3.14442E+00-1.96829E-02-3.18795E-03-9.36153E-03
 -1     24838-2.53388E+00 4.90656E+00 1.20532E+00 2.86852E+00 4.97404E-03 1.23639E-02
 -1     24839 2.56154E+00 4.85965E+00 3.72638E+00 5.38770E+00-8.02795E-04-6.11961E-03
 -1     24840 3.74909E+00 5.70712E+00 4.73077E+00 5.48397E+00-4.06012E-03-2.31047E-03
 -1     24841 2.63652E+00 5.68992E+00 4.16115E+00 4.62448E+00 2.23012E-03-8.30728E-03
 -1     24842 3.49199E+00 5.74814E+00 4.62235E+00 4.89038E+00-3.09698E-03-2.19333E-03
 -1     24843-6.27848E+00 1.08997E+00-2.51015E+00 3.60557E+00-1.31569E-03-1.47146E-02
 -1     24844 9.79082E-01 7.87048E+00 4.45007E+00 4.00902E+00-1.49567E-02-2.52594E-03
 -1     24845-2.91773E+00 3.45112E+00 2.47409E-01 3.32702E+00-4.14643E-03-1.40147E-02
 -1     24846-1.78012E+00 4.08895E+00 1.13261E+00 3.36313E+00-9.38794E-03-6.63262E-03
 -1     24847 7.03405E+00-9.00848E-02 3.40719E+00 5.13105E+00 1.50927E-02 2.22692E-02
 -1     24848-5.93997E+00 9.88865E-01-2.46373E+00 4.04650E-01-1.10654E-02-1.26732E-03
 -1     24849-4.93668E+00 1.46384E+00-1.74066E+00 4.37973E-01 2.33244E-03-7.99422E-03
 -1     24850-4.05373E+00 2.26922E+00-9.12794E-01 6.53785E-01 2.33153E-03-8.66027E-03
 -1     24851-4.56571E+00 1.51306E+00-1.54052E+00 1.05287E+00 8.39226E-04-9.82291E-03
 -1     24852-2.27472E+00 3.78609E+00 7.48082E-01 1.24059E+00 5.56305E-04-6.81946E-03
 -1     24853-4.43754E+00 9.97154E-01-1.73007E+00 1.50873E+00 4.65040E-03-8.29235E-03
 -1     24854 5.22151E+00-1.11373E-01 2.54638E+00 4.10911E+00 1.75570E-02-7.46770E-03
 -1     24855 3.90321E+00-8.53121E-01 1.51643E+00 3.95581E+00 1.95161E-02-3.75299E-03
 -1     24856 6.30604E+00 7.03443E-01 3.50007E+00 4.44741E+00 1.67442E-02-1.51507E-02
 -1     24857-1.28677E+00 3.40767E+00 1.06483E+00 3.61701E+00-6.73280E-03-4.13179E-03
 -1     24858 1.84293E-01 4.49253E+00 2.33613E+00 3.65795E+00-9.35176E-03-6.76737E-03
 -1     24859-1.90525E+00 3.49123E+00 7.89113E-01 2.98375E+00-1.07372E-02-3.02816E-03
 -1     24860-5.64486E+00 1.20116E+00-2.23689E+00-7.53091E-02-5.24906E-03 1.97982E-03
 -1     24861-5.44308E+00 3.65016E-01-2.53756E+00 5.37136E-01 1.93091E-02-1.23565E-03
 -1     24862-8.23045E+00-1.16463E+00-4.70985E+00-8.07046E-02-4.30710E-03 5.84595E-03
 -1     24863-3.97455E+00 2.53243E+00-7.19294E-01 2.44014E-01-1.59794E-02 3.46119E-03
 -1     24864-5.27063E+00 4.69680E-01-2.37726E+00 9.22438E-01 1.20979E-03 4.78149E-03
 -1     24865-6.85793E+00-2.83932E-01-3.57790E+00 1.07608E-01-1.58727E-02 1.19724E-02
 -1     24866-4.48841E+00 1.74706E+00-1.36780E+00 1.25764E+00 3.14989E-03-2.94809E-03
 -1     24867-3.13472E+00 3.07003E+00-3.76193E-02 1.52988E+00-7.14072E-03 1.42495E-03
 -1     24868-2.43206E+00 2.98644E+00 2.75585E-01 1.90898E+00-1.17285E-02 2.59641E-03
 -1     24869-1.28121E+01-5.04438E+00-8.85197E+00 1.25759E-01 1.93059E-02-1.66444E-02
 -1     24870-5.75199E+00 1.70095E+00-1.95703E+00 6.12030E-02 3.67617E-02-2.77711E-02
 -1     24871-7.29915E+00-8.95494E-01-4.05167E+00 8.74700E-01 1.25542E-02 1.06688E-02
 -1     24872 3.02738E+00-9.30241E-01 1.04733E+00 3.73396E+00 8.75864E-03-5.17830E-03
 -1     24873 2.51499E+00-5.53679E-01 9.80371E-01 3.54538E+00 5.30873E-03-2.67460E-03
 -1     24874 4.44280E+00 1.08016E-01 2.27482E+00 4.04529E+00 2.34724E-02-6.81473E-03
 -1     24875 7.96811E+00 1.35305E+00 4.66909E+00 5.15448E+00 1.50230E-02-7.18877E-03
 -1     24876 6.52107E+00-3.79686E-01 3.09445E+00 5.39498E+00 1.44078E-02 1.40215E-02
 -1     24877-1.19998E+01-4.77929E+00-8.40886E+00-7.91623E-03 5.59569E-03-2.88523E-02
 -1     24878-5.98812E+00 1.19710E+00-2.43508E+00-1.01880E-01-1.84441E-02 9.83483E-04
 -1     24879-6.80343E+00-7.42780E-01-3.78816E+00 5.20725E-01-1.20833E-02 3.71068E-03
 -1     24880-4.64974E+00 1.71288E+00-1.43375E+00 5.43944E-01 4.57158E-02-2.12169E-02
 -1     24881 6.30070E+00 1.60513E+00 3.94898E+00 5.85801E+00 2.24286E-03-6.95284E-03
 -1     24882 7.77336E+00 2.57003E+00 5.15053E+00 5.85180E+00 3.41286E-03-1.02517E-02
 -1     24883-8.92198E+00-1.51428E+00-5.36980E+00 7.73709E-01 4.36547E-02 1.07321E-02
 -1     24884 2.73907E+00 4.29163E+00 3.50336E+00 4.67784E+00 1.85705E-02 4.30030E-03
 -1     24885 2.27568E+00 3.50858E+00 2.88825E+00 4.74505E+00 4.93999E-03-3.97002E-03
 -1     24886 2.41873E+00 3.29212E+00 2.82506E+00 4.79491E+00 5.41109E-03 3.77832E-03
 -1     24887 2.92494E+00 3.45976E+00 3.16591E+00 4.88783E+00 6.13970E-03-4.03107E-04
 -1     24888 3.18722E+00 4.67768E+00 3.93136E+00 4.18606E+00 1.06240E-02 3.62302E-03
 -1     24889-1.90432E+00 4.22226E+00 1.15130E+00 2.82413E+00-8.69113E-03-2.67276E-03
 -1     24890-3.20529E+00 2.20585E+00-5.11354E-01 2.41079E+00-8.82897E-05-4.65591E-03
 -1     24891-2.59743E+00 3.43491E+00 4.14425E-01 1.98127E+00-6.86978E-03-1.40638E-03
 -1     24892-7.33050E+00-1.14083E+00-4.21405E+00 1.26459E+00-5.37434E-03 1.90451E-02
 -1     24893 4.31554E+00 4.48616E+00 4.37920E+00 4.93827E+00 1.39301E-03 6.00829E-03
 -1     24894 3.10059E+00 2.85996E+00 2.97056E+00 5.02807E+00 8.68241E-04 3.30196E-03
 -1     24895 3.54429E+00 4.40346E+00 3.94893E+00 4.31815E+00 1.79380E-03 1.73155E-03
 -1     24896-1.46569E+00-1.20949E+00-1.35511E+00 2.84795E+00 7.46416E-03-6.62575E-03
 -1     24897-2.60483E+00-9.99109E-01-1.77284E+00 2.53759E+00-1.57640E-02-4.74104E-03
 -1     24898 8.49520E+00 2.46800E+00 5.54338E+00 5.73429E+00-1.60920E-02 1.72605E-02
 -1     24899 7.91182E+00 1.89191E+00 4.91630E+00 5.41975E+00-1.16903E-02 1.87374E-02
 -1     24900 6.81473E+00 1.15001E+00 3.98983E+00 5.84704E+00-7.60333E-03 6.18784E-03
 -1     24901-3.34226E+00 4.30471E+00 5.21460E-01 3.15802E+00 1.77071E-02 2.20267E-02
 -1     24902 1.26768E+00-7.43727E-01 2.46155E-01 3.34187E+00 1.52311E-04-1.85759E-02
 -1     24903 1.71489E-01-7.72803E-01-3.14305E-01 3.15242E+00-5.01770E-03-8.05754E-03
 -1     24904-1.28886E+00-1.59084E+00-1.47398E+00 3.08390E+00-1.00853E-02 1.85086E-03
 -1     24905 1.55081E+00-9.86114E-01 2.81572E-01 3.60012E+00-1.80323E-03 3.37142E-03
 -1     24906 7.51056E+00 2.29898E+00 4.92129E+00 5.53997E+00-1.72032E-02-3.50294E-03
 -1     24907-1.84551E+00 4.18869E+00 1.16718E+00 2.25443E+00-6.11643E-03-2.25523E-03
 -1     24908 1.23022E+01 5.43544E+00 8.85723E+00 4.70721E+00 1.90750E-02-1.73574E-02
 -1     24909-5.68510E+00 9.98839E-01-2.33815E+00 2.08219E+00-3.92216E-03-5.79216E-03
 -1     24910 6.86254E-01 3.71431E+00 2.21684E+00 4.15128E+00-1.62990E-03-8.74190E-04
 -1     24911 1.69147E+00 4.27788E+00 2.97932E+00 4.27649E+00-9.81277E-04-1.03745E-02
 -1     24912 1.05044E+01 3.42373E+00 6.97769E+00 5.27138E+00 1.83691E-02 1.19736E-02
 -1     24913-6.74250E+00-2.03152E-01-3.47899E+00-1.96295E-02 7.67421E-04-1.04619E-02
 -1     24914-4.10841E+00 2.39079E+00-8.56413E-01 7.77174E-03 8.10913E-03-1.16490E-02
 -1     24915-4.80467E+00 8.52189E-01-1.97654E+00 5.90663E-01-1.56261E-03 4.01000E-03
 -1     24916 6.18273E+00 2.42874E+00 4.30672E+00 5.78015E+00-1.35854E-02-7.83570E-03
 -1     24917 6.00813E+00 1.80827E+00 3.90612E+00 5.79785E+00-3.63078E-03-2.42102E-03
 -1     24918 6.40463E+00 3.20262E+00 4.82733E+00 5.36372E+00-2.02151E-02 8.05935E-03
 -1     24919 3.73283E+00 3.77539E+00 3.76163E+00 4.48797E+00 5.11223E-03 3.00090E-03
 -1     24920-3.98695E+00-9.57820E-01-2.38691E+00 2.20319E+00-1.57386E-02-5.13577E-02
 -1     24921-4.52520E+00 2.33935E-01-2.15343E+00 1.77523E+00-7.25154E-03-9.82278E-03
 -1     24922-7.04142E+00-2.12365E+00-4.55918E+00 1.54890E+00-3.24830E-03-1.30909E-02
 -1     24923-4.70424E+00-2.51124E+00-3.65106E+00 2.37438E+00 8.76245E-03 1.58562E-02
 -1     24924-1.42834E-01 6.46324E+00 3.16224E+00 3.32764E+00 9.72345E-03-4.70088E-02
 -1     24925-1.45891E+00 5.20613E+00 1.91075E+00 3.74470E+00-1.06799E-02-2.66852E-02
 -1     24926 6.48204E+00 2.26028E+00 4.36896E+00 5.46005E+00-5.32498E-03-1.39565E-02
 -1     24927 6.64100E+00 3.56988E-01 3.49209E+00 4.97663E+00 9.26603E-03-1.44419E-02
 -1     24928 1.39130E+00 2.44562E+00 1.92740E+00 3.76006E+00 1.05310E-04 1.89635E-03
 -1     24929 1.57990E+00 2.13697E+00 1.89503E+00 3.89923E+00 3.31574E-04 1.81773E-04
 -1     24930 2.15307E+00 4.02235E+00 3.11353E+00 4.57011E+00 6.21471E-03-7.73867E-03
 -1     24931 2.60632E+00 4.80933E+00 3.70503E+00 3.98525E+00-2.56962E-06 1.31457E-02
 -1     24932 1.83326E+00 4.08992E+00 3.00323E+00 4.45868E+00 5.78416E-03-2.65626E-03
 -1     24933-1.75035E+00 3.13903E+00 6.94014E-01 2.61019E+00-3.38059E-03-3.94082E-03
 -1     24934 3.33192E-02 4.69412E+00 2.38309E+00 3.07287E+00-5.49662E-03-3.77571E-03
 -1     24935 1.10016E-01 3.90701E+00 2.01801E+00 3.86433E+00-3.82830E-03-3.98996E-03
 -1     24936-2.26133E+00 2.44364E+00 8.70195E-02 2.56844E+00 3.28555E-03-4.00577E-03
 -1     24937 7.99847E+00 2.02312E+00 4.97117E+00 5.08769E+00-7.43749E-03 2.44150E-02
 -1     24938 6.57093E+00 6.77741E-01 3.57378E+00 4.73846E+00-1.40477E-03 6.20858E-03
 -1     24939 4.88827E+00-4.20418E-01 2.20958E+00 4.57940E+00 4.68771E-03-2.06363E-03
 -1     24940 5.64980E+00 4.71278E-03 2.81856E+00 5.18562E+00-7.65390E-03 1.75168E-02
 -1     24941 3.30169E+00 1.91364E+00 2.55121E+00 4.68906E+00-1.74168E-02-2.76986E-02
 -1     24942 2.91355E+00 1.01096E+00 1.94829E+00 4.78887E+00 8.82606E-03-3.26574E-02
 -1     24943-5.43150E+00-5.63319E-01-2.96828E+00 1.13579E+00-1.11628E-02-2.62816E-03
 -1     24944-2.93178E+00 1.78222E+00-5.66584E-01 1.12807E+00-1.99778E-03 2.15203E-03
 -1     24945-2.45239E+00 3.77221E+00 6.75431E-01 2.36919E+00-6.71691E-03-9.10229E-03
 -1     24946 1.24719E+00 4.65851E+00 2.94488E+00 4.00603E+00-4.61248E-03-1.04658E-02
 -1     24947 8.97478E-01 4.67096E+00 2.78099E+00 3.40452E+00-2.91780E-03-1.20731E-03
 -1     24948 2.62014E+00 2.48692E+00 2.54850E+00 4.24969E+00-1.15983E-02-4.62553E-03
 -1     24949 1.45044E+00 7.33398E-01 1.04695E+00 4.47745E+00-3.70094E-02-1.79101E-02
 -1     24950 3.65622E+00 3.04367E+00 3.30490E+00 4.09992E+00 5.48227E-03-2.08907E-02
 -1     24951 1.60554E+00 2.45341E+00 2.02555E+00 3.55999E+00-8.65003E-03 8.60347E-03
 -1     24952-7.01519E+00-5.19541E-01-3.77847E+00 2.04826E-02 8.13618E-03 2.32206E-04
 -1     24953-3.48982E+00 2.98458E+00-2.94628E-01 3.31716E-02 1.15970E-02 8.65175E-03
 -1     24954-4.70619E+00 1.07757E+00-1.82342E+00 6.69935E-01-1.16749E-02 5.75238E-03
 -1     24955-4.98322E+00 6.84039E-01-2.17892E+00 6.25700E-01 1.32710E-02-1.73100E-03
 -1     24956 1.82545E+00 4.78357E+00 3.31640E+00 3.72276E+00 5.82871E-03-1.68697E-03
 -1     24957-5.16611E-01 3.20791E+00 1.35056E+00 3.05973E+00 6.58291E-03 3.55946E-03
 -1     24958-5.12501E-01 2.75592E+00 1.13585E+00 3.22188E+00 4.28090E-03 7.33442E-04
 -1     24959-5.02283E-02 2.84361E+00 1.41485E+00 3.38085E+00 1.08108E-02 1.48318E-03
 -1     24960 5.76306E-01 3.09858E+00 1.84431E+00 3.51342E+00 1.37453E-02-2.05900E-03
 -1     24961 5.56819E-01 4.16312E+00 2.37846E+00 2.71883E+00 1.49555E-02-3.49143E-03
 -1     24962-2.36268E+00 2.45041E+00 6.69065E-02 1.82675E+00 1.44443E-02 8.56904E-03
 -1     24963-7.26377E-01 3.90214E+00 1.58187E+00 2.22690E+00 1.29781E-03-2.54396E-04
 -1     24964-5.13168E+00 1.74798E-01-2.49714E+00 1.39859E+00-2.19059E-02-2.91187E-02
 -1     24965-6.22832E+00-8.51819E-01-3.59749E+00 1.20693E+00-2.79367E-02-2.89574E-02
 -1     24966-4.66527E+00-7.69225E-01-2.77900E+00 1.85670E+00-5.79588E-02-2.68515E-02
 -1     24967 4.55713E+00-5.86074E-02 2.25021E+00 4.36005E+00 1.47135E-03-7.71648E-03
 -1     24968 3.28431E+00-5.95150E-01 1.35519E+00 4.13225E+00 4.55280E-03-2.97714E-03
 -1     24969 6.47172E+00 1.53700E+00 3.96669E+00 4.65597E+00-8.66447E-03 1.82992E-02
 -1     24970 1.06271E+00 2.44744E+00 1.73646E+00 3.72905E+00-1.51602E-03-9.01901E-03
 -1     24971 6.56814E-01 2.57364E+00 1.62142E+00 3.10927E+00-5.77774E-03 8.31262E-03
 -1     24972-1.18997E-01 1.58631E+00 7.12848E-01 3.66264E+00-8.95220E-03-2.59436E-03
 -1     24973-4.55286E-01 1.83293E+00 6.68743E-01 3.56926E+00 9.47470E-03 3.61826E-03
 -1     24974 1.18397E+00 3.13453E+00 2.15591E+00 3.64152E+00 6.65082E-03 6.10231E-03
 -1     24975 3.22843E-01 3.29671E+00 1.81333E+00 2.94612E+00 7.63272E-03-2.72499E-03
 -1     24976-1.98576E+00 2.96458E+00 4.80395E-01 1.06790E+00-2.19397E-02-2.27866E-02
 -1     24977-4.31322E+00-4.26411E-01-2.34148E+00 1.64883E+00 1.29836E-03-2.16069E-02
 -1     24978-6.52734E+00-1.54100E+00-4.01623E+00 1.04518E+00 1.09443E-02-3.61669E-02
 -1     24979 2.67615E+00-3.59796E-01 1.16233E+00 3.90348E+00 4.95001E-03 2.80897E-03
 -1     24980 2.93734E+00 8.36795E-01 1.89658E+00 3.69136E+00-4.26549E-04-2.93317E-04
 -1     24981 4.02247E+00 6.41942E-01 2.32864E+00 4.19822E+00-5.38912E-03 3.98222E-03
 -1     24982 5.43894E+00 6.46926E-01 3.05708E+00 5.24953E+00-1.39413E-02-1.96649E-02
 -1     24983 7.05038E+00 1.82619E+00 4.48055E+00 5.23694E+00-1.58470E-02 6.96140E-03
 -1     24984-1.29445E+00 3.77719E+00 1.27234E+00 1.46179E+00 1.50184E-02 8.96364E-03
 -1     24985-3.33223E+00 9.55468E-01-1.17936E+00 2.18691E+00 1.34809E-02 8.02093E-03
 -1     24986 1.16742E-02 3.90516E+00 1.96807E+00 2.37031E+00 7.63940E-03-1.71536E-03
 -1     24987-4.04104E+00 1.14277E+00-1.44038E+00 1.30040E+00-5.97742E-03 5.77655E-03
 -1     24988-1.66250E+00 2.63324E+00 4.90729E-01 2.69835E+00 1.57302E-03-3.64995E-04
 -1     24989-4.17308E+00 4.94670E-01-1.83294E+00 1.21173E+00 1.96701E-03 1.27109E-03
 -1     24990-2.32189E+00 2.33568E+00 5.03753E-03 1.22398E+00-3.44347E-03 9.86256E-04
 -1     24991-2.78053E+00 9.50665E-01-9.14662E-01 1.79356E+00-3.86379E-03 4.04511E-03
 -1     24992 4.69190E+00 2.21168E+00 3.46266E+00 4.92504E+00-7.20940E-03-2.58604E-02
 -1     24993 3.59669E+00 5.34135E-01 2.11168E+00 5.03002E+00-6.03920E-03-1.67987E-02
 -1     24994 4.83728E+00 3.04143E+00 3.90813E+00 4.48182E+00 5.45457E-03-3.74062E-02
 -1     24995 4.47061E+00 8.18481E-01 2.66945E+00 5.08116E+00-1.01999E-02 2.35383E-03
 -1     24996 5.75112E+00 1.59613E+00 3.66822E+00 5.11611E+00-1.94861E-02-1.78124E-02
 -1     24997 5.12943E+00 2.14913E+00 3.61596E+00 4.70217E+00 2.18414E-02-2.77881E-03
 -1     24998-5.67799E-02-1.02609E+00-5.53778E-01 3.40124E+00 2.56034E-03-1.27090E-02
 -1     24999 4.20674E-01 6.14259E-01 4.89142E-01 3.07134E+00-5.97047E-03-6.25882E-03
 -1     25000 1.33118E+00-2.52271E-01 5.45145E-01 3.65028E+00 7.86203E-04 1.12346E-02
 -1     25001 6.08153E+00 8.80539E-01 3.46945E+00 4.93050E+00-6.69879E-03 1.19840E-02
 -1     25002-3.63458E+00-2.31094E+00-2.97346E+00 2.69666E+00-2.41254E-02 1.83630E-02
 -1     25003-1.87951E+00 6.47579E-01-5.93758E-01 2.25665E+00-5.29741E-02 1.43337E-02
 -1     25004-3.60003E+00-6.73293E-01-2.15578E+00 2.14056E+00-7.40162E-02 5.03667E-03
 -1     25005-9.62448E-01-2.85123E-01-5.86401E-01 2.98485E+00-3.86910E-02-5.47515E-03
 -1     25006 5.65644E+00 1.52368E+00 3.61032E+00 4.83399E+00-1.83334E-02-1.06840E-02
 -1     25007 4.65552E+00 1.67421E-01 2.42540E+00 4.72895E+00 3.27308E-03-1.24638E-03
 -1     25008 4.11789E+00 3.28714E-01 2.21785E+00 4.55401E+00-5.92108E-03 6.45946E-03
 -1     25009-6.92447E+00-1.46615E+00-4.12591E+00 1.06106E+00 6.49809E-03-1.43760E-03
 -1     25010-3.45110E+00 1.74778E+00-8.21983E-01 9.90106E-01 1.44645E-02-1.50189E-02
 -1     25011-5.39124E+00-1.19938E+00-3.26566E+00 1.50965E+00 1.67252E-03-2.90636E-02
 -1     25012-5.35517E+00-1.09696E+00-3.34336E+00 1.63266E+00-3.98220E-02-5.32006E-02
 -1     25013 3.53333E+00 4.66503E-01 2.02099E+00 4.31448E+00-8.68205E-04 4.38339E-03
 -1     25014-3.40051E+00-4.71706E-01-1.96557E+00 2.14896E+00 9.55074E-03-2.58822E-02
 -1     25015-1.00733E+00 1.91873E+00 4.71704E-01 2.20848E+00 5.76479E-03 2.22329E-03
 -1     25016-1.64471E+00 3.41161E+00 9.00192E-01 1.29528E+00-2.23218E-02 1.65454E-03
 -1     25017-2.74297E+00 1.67263E+00-5.17535E-01 1.84863E+00-2.65378E-03 5.70832E-03
 -1     25018-4.79686E+00 1.76912E-01-2.31853E+00 1.22644E+00-1.60937E-02 9.76093E-04
 -1     25019-1.65543E+00 1.29347E+00-1.97516E-01 2.47162E+00-4.91565E-03-1.20059E-03
 -1     25020-5.91482E-01 2.07463E+00 7.28574E-01 2.51071E+00-1.18502E-03 5.95685E-04
 -1     25021 7.96349E-01 3.22728E+00 2.00755E+00 3.05376E+00-7.76890E-03-1.15910E-03
 -1     25022 2.26398E+00 1.19123E+00 1.75371E+00 4.10544E+00-1.54509E-02-4.74170E-02
 -1     25023 1.39496E+00-2.01758E-01 6.48059E-01 4.23152E+00 7.16027E-03-5.32601E-02
 -1     25024 2.93054E+00 9.14802E-01 1.91241E+00 4.29253E+00 3.97087E-02-2.11507E-02
 -1     25025 3.31206E+00 6.92749E-01 2.00067E+00 4.32617E+00 2.19933E-03 1.56528E-02
 -1     25026 1.74592E+00-3.99410E-01 6.85579E-01 3.97410E+00 1.31361E-03 5.24175E-03
 -1     25027 3.92873E+00 2.67521E+00 3.34831E+00 3.93973E+00 4.43047E-02-1.51812E-02
 -1     25028 1.62763E+00 5.26626E-01 1.08818E+00 3.63219E+00-7.37556E-04 3.09719E-03
 -1     25029-6.62994E-01 1.13990E+00 2.67092E-01 2.94359E+00-4.59976E-03 8.76391E-03
 -1     25030-8.23765E-02 9.84748E-01 4.46641E-01 3.30280E+00-1.71567E-02-7.95171E-03
 -1     25031-2.73547E-01 1.07136E-02-1.77886E-01 3.62799E+00-1.20249E-02-2.34536E-02
 -1     25032 9.90249E-01 5.63942E-01 7.19255E-01 3.87798E+00-5.96843E-03-5.10459E-02
 -1     25033 3.00240E+00 2.83072E+00 2.94030E+00 3.65775E+00-9.90941E-03-3.97938E-02
 -1     25034 1.70077E+00 2.88598E+00 2.24310E+00 3.04863E+00-1.21776E-02-2.81096E-03
 -1     25035-4.51182E+00 3.07819E-01-2.11772E+00 1.22668E+00 1.06265E-02-7.56796E-03
 -1     25036-1.70265E+00 3.14090E+00 6.88767E-01 1.21129E+00 1.20260E-02-3.36680E-03
 -1     25037-2.25800E+00 1.86881E+00-1.89953E-01 1.81283E+00-1.13558E-02-2.54761E-03
 -1     25038-2.38002E+00 1.48014E+00-4.48802E-01 1.82520E+00-3.19218E-03-7.48623E-04
 -1     25039 8.30159E-01 2.61766E-01 5.80891E-01 3.55876E+00 6.56735E-03-1.49022E-02
 -1     25040-1.75827E+00-1.72804E+00-1.75002E+00 3.27287E+00 7.65619E-04-1.53695E-02
 -1     25041 3.25690E-01 1.38374E+00 8.66525E-01 2.89809E+00-3.58064E-02 1.17161E-02
 -1     25042-7.49108E-01-9.57491E-01-7.28019E-01 3.54481E+00 2.07997E-02-4.34546E-02
 -1     25043 3.90329E-02 3.11548E+00 1.56162E+00 2.44408E+00 7.74875E-03-4.85057E-03
 -1     25044-2.41703E+00 9.08797E-01-7.46484E-01 2.40122E+00-1.17270E-02-1.54216E-02
 -1     25045-2.95182E+00 7.79253E-01-1.07544E+00 2.37378E+00-4.73499E-03-3.99124E-03
 -1     25046-1.68183E-01 3.27126E+00 1.56904E+00 2.42518E+00-1.87527E-02-1.04536E-02
 -1     25047 4.43179E-01 3.53216E+00 2.02650E+00 2.01093E+00 5.18222E-03-1.65853E-02
 -1     25048-3.06094E+00-8.71523E-01-1.98830E+00 2.58002E+00 1.58382E-02 2.77316E-02
 -1     25049-1.38782E+00 1.30803E-02-6.22253E-01 2.96991E+00-6.78312E-03 2.42116E-02
 -1     25050-5.44055E+00-2.08347E+00-3.72489E+00 1.98835E+00-7.52928E-03-5.03216E-03
 -1     25051-4.33312E+00-2.28168E+00-3.32719E+00 2.50437E+00-5.86556E-02 3.14101E-02
 -1     25052-2.64773E+00 6.44304E-01-1.10634E+00 1.97459E+00-5.25857E-02-2.69366E-02
 -1     25053-1.05348E+00 2.37789E+00 6.31374E-01 1.91060E+00-9.08163E-03-2.19240E-02
 -1     25054-1.58412E+00-6.55132E-02-8.38880E-01 2.78573E+00-5.24413E-03 1.61891E-02
 -1     25055-2.23738E+00 4.54084E-01-8.85433E-01 2.44468E+00-8.52230E-04 5.81964E-03
 -1     25056-9.02060E-01-3.68137E-01-5.87091E-01 3.32052E+00-2.49254E-04-2.34596E-02
 -1     25057-4.54827E+00-2.11181E+00-3.27432E+00 2.39523E+00-6.61595E-03 2.87618E-02
 -1     25058 3.18812E+00 4.64680E+00 3.95428E+00 2.88251E+00 1.65951E-02 2.84297E-02
 -1     25059 9.19964E-01 2.12156E+00 1.52307E+00 3.48735E+00 2.08930E-03 8.88091E-03
 -1     25060 1.99188E+00 2.70830E+00 2.34488E+00 4.08994E+00 3.24404E-03 4.33765E-03
 -1     25061 2.39669E+00 3.92554E+00 3.15710E+00 3.43500E+00-6.01591E-03 1.53597E-02
 -1     25062-1.68647E+01-1.79136E+00-9.33231E+00-5.46418E+00-1.88168E-02-5.14565E-03
 -1     25063-1.58674E+01-1.53387E+00-8.69396E+00-5.06217E+00-3.60922E-03-7.69309E-03
 -1     25064-1.57043E+01-1.68301E+00-8.69984E+00-4.89677E+00-1.35713E-02-5.46418E-03
 -1     25065-1.66556E+01-1.72845E+00-9.18772E+00-5.37565E+00-7.59621E-03-1.13101E-02
 -1     25066-1.69877E+01-1.75289E+00-9.36940E+00-5.53492E+00 2.11618E-03-9.80268E-04
 -1     25067-1.58850E+01-1.70886E+00-8.79611E+00-4.97602E+00 4.59259E-03-5.75126E-03
 -1     25068 9.90012E+00 3.45169E+00 6.67428E+00 6.54383E+00-6.76928E-03 2.01787E-03
 -1     25069 9.21950E+00 3.18262E+00 6.19078E+00 6.96815E+00-8.33919E-03 9.39906E-03
 -1     25070 9.81849E+00 3.63270E+00 6.72103E+00 6.68517E+00-6.44272E-04 8.25271E-03
 -1     25071 8.65450E+00 1.88464E+00 5.26197E+00 6.01378E+00-9.82056E-03 3.16029E-03
 -1     25072 8.65940E+00 1.88053E+00 5.26347E+00 5.99953E+00-1.06186E-02 4.34773E-04
 -1     25073 9.91664E+00 3.21500E+00 6.56851E+00 6.40870E+00-2.87244E-03 8.90063E-03
 -1     25074 9.23096E+00 2.22972E+00 5.73547E+00 5.87193E+00-3.92640E-03 1.74261E-02
 -1     25075 6.53056E+00 5.54430E+00 6.05504E+00 5.35416E+00-1.33030E-02 8.25826E-03
 -1     25076 7.00299E+00 5.53595E+00 6.26881E+00 5.32027E+00-2.09039E-02 9.83791E-03
 -1     25077 6.87086E+00 5.62322E+00 6.27731E+00 5.24255E+00 5.07591E-03 2.05689E-02
 -1     25078 7.07719E+00 4.31008E+00 5.69414E+00 6.56183E+00 4.87870E-03 3.07888E-03
 -1     25079 6.78599E+00 4.48228E+00 5.63101E+00 6.00718E+00 9.75629E-03 1.68454E-03
 -1     25080 6.22045E+00 3.45335E+00 4.83404E+00 6.09036E+00 1.09674E-02-7.39045E-03
 -1     25081-1.29287E+01-7.64915E-01-6.85211E+00-3.53183E+00-6.81128E-03 9.56310E-04
 -1     25082-1.18463E+01-5.08985E-01-6.17249E+00-2.95824E+00-5.23093E-03 9.35242E-03
 -1     25083-1.28033E+01-5.32031E-01-6.68412E+00-3.67956E+00 2.53065E-03-5.27303E-03
 -1     25084 9.82266E+00 5.06323E+00 7.46490E+00 4.63967E+00 1.78213E-02-8.05563E-03
 -1     25085 8.02902E+00 3.73573E+00 5.88964E+00 4.39164E+00-4.32170E-03 9.20310E-03
 -1     25086 9.00342E+00 3.92358E+00 6.46153E+00 4.46468E+00 2.19580E-02 1.27156E-02
 -1     25087 1.04662E+01 5.59856E+00 8.07742E+00 3.89464E+00-1.66170E-02-2.49909E-02
 -1     25088 7.98879E+00 2.84052E+00 5.34305E+00 3.69966E+00 1.74476E-02 2.84393E-02
 -1     25089 9.06527E+00 3.81297E+00 6.47121E+00 4.28684E+00-2.08088E-02-1.15786E-02
 -1     25090 9.02162E+00 3.89627E+00 6.47457E+00 3.70734E+00-1.18147E-02-4.59330E-02
 -1     25091 8.78044E+00 3.29011E+00 6.03191E+00 4.15566E+00-4.28078E-02 6.99663E-03
 -1     25092-3.84601E-01 1.16562E+01 5.49140E+00 6.73080E+00-5.79390E-02 1.20650E-01
 -1     25093-8.97884E-02 1.09972E+01 5.31310E+00 6.85283E+00 7.93205E-02 8.94001E-02
 -1     25094-1.46722E+00 9.99339E+00 4.61003E+00 6.70523E+00-9.14759E-02 3.64837E-02
 -1     25095-1.30205E+01-9.29410E-01-6.96019E+00-3.72541E+00 9.61459E-03-5.22981E-03
 -1     25096-1.41554E+01-1.19656E+00-7.68294E+00-4.28987E+00 2.77887E-04-2.25492E-03
 -1     25097-1.26476E+01-6.50459E-01-6.62417E+00-3.63180E+00 1.37530E-02 2.86901E-03
 -1     25098 3.13616E+00 1.45723E+00 2.28520E+00 4.37598E+00-1.73843E-04-1.09403E-02
 -1     25099 2.61285E+00 1.48523E+00 2.02979E+00 4.20854E+00 6.42761E-03-5.86068E-03
 -1     25100 2.37542E+00 1.45326E+00 1.92394E+00 3.99551E+00 1.80509E-03 1.18229E-04
 -1     25101-1.60844E+00-2.76553E+00-2.18818E+00 2.25723E+00 1.99693E-03 2.21439E-03
 -1     25102-1.11873E+00-9.77440E-01-1.04828E+00 2.13560E+00 2.02588E-02 5.99160E-03
 -1     25103-5.35908E-01-8.53785E-01-7.01945E-01 2.42924E+00 8.29189E-03 2.26455E-03
 -1     25104-3.12443E+00-2.19671E+00-2.65978E+00 2.31333E+00 9.56529E-03 6.18907E-03
 -1     25105-1.21944E+01-7.06978E-01-6.44889E+00-3.28583E+00 2.03529E-04 3.97049E-03
 -1     25106-1.22810E+01-6.97927E-01-6.49433E+00-3.38245E+00 1.17544E-03-7.48463E-03
 -1     25107-1.14109E+01-8.09691E-01-6.10347E+00-2.72872E+00-9.49860E-03 2.13950E-03
 -1     25108-1.11305E+01-4.21750E-01-5.77505E+00-2.81976E+00-3.46975E-03-1.04254E-02
 -1     25109 6.41303E+00 5.33097E+00 5.86341E+00 5.36798E+00-2.50845E-02 1.12475E-02
 -1     25110 6.83673E+00 6.41421E+00 6.62367E+00 5.41161E+00 7.17934E-03-2.15202E-02
 -1     25111 5.70160E+00 5.13518E+00 5.38698E+00 5.43600E+00-3.33452E-03-5.14025E-03
 -1     25112 5.17890E+00 4.40397E+00 4.77219E+00 5.41182E+00 8.13117E-03 1.53995E-02
 -1     25113 2.88235E+00 6.67521E+00 4.85841E+00 7.48545E+00-2.80174E-02-4.50286E-02
 -1     25114 5.66985E+00 6.90543E+00 6.33593E+00 7.81254E+00-9.47520E-02 2.69934E-02
 -1     25115 6.72852E+00 1.06537E+01 8.68878E+00 7.14476E+00-5.69554E-02 7.79947E-02
 -1     25116 2.57473E+00 7.50032E+00 4.99979E+00 7.24347E+00 6.62211E-02-1.11280E-01
 -1     25117 6.06946E+00 8.66031E+00 7.36081E+00 7.84228E+00-5.91697E-02-1.22773E-01
 -1     25118 6.84437E+00 9.72872E+00 8.15180E+00 7.47916E+00-5.30394E-02 1.68402E-02
 -1     25119-6.71099E+01-4.99815E+01-5.99429E+01 4.84038E+00-1.02214E+00-9.26912E-02
 -1     25120-1.09846E+02-9.34137E+01-1.01632E+02 3.05707E+00-5.97866E-01 3.29140E-01
 -1     25121-7.89457E+01-4.92576E+01-6.24134E+01 3.29137E+00-1.69688E+00 2.58232E-01
 -1     25122-7.58770E+01-4.49593E+01-6.32748E+01 3.50764E+00 9.50329E-01-1.88976E+00
 -1     25123 1.42608E+01 3.08160E+01 2.19887E+01 3.15464E+00 6.43574E-01-1.32436E+00
 -1     25124-2.21172E+01 4.38549E+00-8.63792E+00 2.31367E+00-2.74068E-01-1.65937E-01
 -1     25125 9.30298E+00 2.83818E+00 6.05246E+00 5.09362E+00 7.05561E-03 2.50503E-02
 -1     25126 9.09841E+00 2.94461E+00 5.99904E+00 4.89399E+00-4.30068E-03 1.54742E-02
 -1     25127 1.19937E+01 5.81201E+00 8.86670E+00 4.74306E+00 6.28825E-03 9.73336E-03
 -1     25128-5.80023E+00 1.86543E+00-2.34542E+00 4.78510E+00 6.69915E-02 1.94460E-02
 -1     25129-4.85653E+00 5.64125E-01-2.48986E+00 2.44487E+00-1.29486E-01 3.84927E-01
 -1     25130 1.21462E+00 9.29083E+00 4.57959E+00 4.51395E+00 2.78041E-02-2.65973E-01
 -1     25131-9.64682E+00-3.70145E+00-6.53098E+00 2.02719E+00 3.62891E-01 2.66197E-01
 -1     25132 2.76049E+00 7.61251E+00 4.82820E+00 2.26929E+00 5.22325E-02 6.66508E-03
 -1     25133 8.97533E+00 1.86636E+00 5.41928E+00 5.46484E+00 4.58836E-03 3.10129E-03
 -1     25134 8.51794E+00 1.51720E+00 5.02295E+00 5.23301E+00-1.57881E-03-8.87200E-03
 -1     25135 8.10605E+00 1.00258E+00 4.54201E+00 5.07956E+00-4.37128E-03-1.73293E-03
 -1     25136 1.01378E+01 4.42722E+00 7.28107E+00 7.35339E+00-7.30303E-03 8.88631E-03
 -1     25137 9.11270E+00 3.29277E+00 6.20447E+00 7.07036E+00 3.24771E-03 1.24999E-02
 -1     25138 6.77195E+00 2.86685E-01 3.52751E+00 3.87426E+00-1.82798E-02-2.69000E-03
 -1     25139 8.01201E+00 1.71717E+00 4.86637E+00 3.61980E+00 1.81275E-02-5.43206E-03
 -1     25140 9.74497E+00 3.20529E+00 6.47458E+00 4.00338E+00-1.26180E-02 1.16591E-03
 -1     25141 7.29018E+00 9.62320E-01 4.12575E+00 3.79784E+00 1.75042E-02 2.25546E-02
 -1     25142 1.31649E+01 1.11003E+01 1.21162E+01 1.21435E+01-6.21508E-04-2.02428E-02
 -1     25143 1.22721E+01 1.02078E+01 1.12854E+01 1.21313E+01 8.62098E-03-1.68679E-02
 -1     25144 1.30735E+01 1.10249E+01 1.20414E+01 1.21235E+01 7.70389E-03 1.07759E-02
 -1     25145-7.67847E+00 6.63396E-01-3.50849E+00-2.21801E-01-7.41472E-03 6.08604E-03
 -1     25146-5.24142E+00 2.36288E+00-1.43409E+00 3.17071E-01 1.13598E-03 3.32236E-03
 -1     25147-7.92409E+00 4.36649E-01-3.74296E+00-4.56773E-01-1.02716E-03 1.36568E-03
 -1     25148-1.22424E+00 6.46112E-01-2.76972E-01 2.68867E+00-8.44176E-03-1.12066E-03
 -1     25149-2.15221E+00 4.86372E-01-8.50642E-01 2.32408E+00-1.12354E-02 1.92703E-02
 -1     25150-7.48122E-01 3.51804E-01-2.04893E-01 3.06218E+00-1.00008E-02 1.65948E-02
 -1     25151 1.57378E+00 1.31265E+00 1.42346E+00 3.75826E+00 8.57393E-03 2.33886E-03
 -1     25152 1.24415E+00 1.74019E+00 1.49313E+00 3.43230E+00-4.86030E-03-1.38606E-02
 -1     25153 1.18731E+00 9.78875E+00 5.44051E+00 6.97322E+00-4.95179E-02-3.14013E-02
 -1     25154-1.76837E-01 7.72932E+00 3.62460E+00 7.16176E+00 9.55686E-02 1.17587E-03
 -1     25155-3.30143E+00 5.45204E+00 1.01439E+00 7.54676E+00 6.52396E-02-6.18497E-03
 -1     25156-1.83955E+00 7.50354E+00 2.84387E+00 7.89688E+00 1.22100E-02-5.31012E-02
 -1     25157 3.03716E-01 8.82430E+00 4.50089E+00 7.56137E+00 7.78465E-02-3.86045E-02
 -1     25158 5.24041E-01 9.41005E+00 4.90337E+00 7.88681E+00 1.08938E-01-5.50993E-02
 -1     25159 9.09915E-01 2.77204E+00 1.83970E+00 3.64066E+00 1.28710E-04-3.16492E-03
 -1     25160-1.34304E-02 2.61250E+00 1.30051E+00 3.01832E+00 2.84015E-03 2.37202E-03
 -1     25161 3.63966E-01 2.70640E+00 1.53296E+00 3.07467E+00 4.56391E-03-1.38155E-03
 -1     25162 9.88351E+00 9.51104E+00 9.67558E+00 9.86321E+00-4.66395E-03-1.76867E-03
 -1     25163 1.01164E+01 9.53326E+00 9.79837E+00 1.01379E+01-1.52423E-02-3.56030E-04
 -1     25164 1.26195E+01 1.08650E+01 1.17349E+01 1.15157E+01 1.47060E-02 1.00841E-02
 -1     25165 1.09619E+01 9.80210E+00 1.03972E+01 1.08056E+01-7.63273E-03-5.19671E-03
 -1     25166 1.21562E+01 1.07829E+01 1.14881E+01 1.10797E+01 3.16209E-03 1.94066E-02
 -1     25167-5.37883E+00 1.34051E+00-2.01762E+00-1.09615E-01-5.58675E-03 1.36371E-02
 -1     25168-6.27322E+00 2.98328E-01-2.98679E+00-5.35825E-02-3.11702E-03 1.88543E-04
 -1     25169-5.68653E+00 7.15374E-02-2.80624E+00 4.93015E-01-3.31004E-03-6.59223E-03
 -1     25170-4.93407E+00 7.56012E-01-2.08816E+00 5.47838E-01 5.68280E-03-3.87849E-03
 -1     25171 2.63180E+00 6.92736E+00 4.77889E+00 5.62050E+00-8.28674E-04-3.40342E-03
 -1     25172 3.05647E+00 6.49219E+00 4.76416E+00 6.31413E+00-1.04487E-02-3.39150E-03
 -1     25173 3.02658E+00 7.00608E+00 5.03443E+00 6.22492E+00-1.00854E-02 1.22601E-02
 -1     25174 1.39667E+00 5.23551E+00 3.30137E+00 6.27855E+00-3.80528E-03 1.63102E-02
 -1     25175 5.59201E+00 8.68772E+00 7.14498E+00 6.93388E+00-4.43532E-03 9.06766E-03
 -1     25176 8.30829E-01 4.29913E+00 2.56456E+00 3.95131E+00-4.05644E-04-3.35790E-03
 -1     25177-8.18755E-02 3.83866E+00 1.88116E+00 3.20996E+00-1.30579E-02 2.29590E-04
 -1     25178 7.33107E-01 3.80968E+00 2.26763E+00 4.08237E+00 3.96178E-03 3.33707E-04
 -1     25179 7.33123E-02 3.59345E+00 1.83291E+00 3.33736E+00-3.07239E-03-1.46725E-03
 -1     25180 7.36559E-02 3.33812E+00 1.70124E+00 3.22070E+00 7.00795E-03 5.98410E-03
 -1     25181 4.48598E-01 3.34239E+00 1.89211E+00 3.38319E+00 6.83872E-03 5.56664E-04
 -1     25182-1.12622E+00 2.42488E+00 6.45846E-01 2.80248E+00 4.02670E-03 8.94685E-04
 -1     25183-1.87169E+00 2.41739E+00 2.76969E-01 2.13893E+00 8.35018E-03 1.32676E-02
 -1     25184-1.52797E+00 2.39302E+00 4.43196E-01 2.31095E+00 3.06670E-03 4.22369E-03
 -1     25185-6.28345E+00 1.49268E+00-2.40069E+00-3.44026E-01 2.19276E-03-1.82383E-02
 -1     25186-5.99607E+00 1.69973E+00-2.14705E+00-1.39756E-01 8.96546E-03 1.38768E-02
 -1     25187-7.92697E+00 5.84070E-01-3.67062E+00-9.04332E-01 1.08201E-02 6.33897E-03
 -1     25188 7.63744E+00 5.15456E+00 6.38221E+00 5.64854E+00-1.82171E-02-1.82718E-02
 -1     25189 5.81655E+00 3.83737E+00 4.85228E+00 5.71019E+00 1.63756E-02-6.97799E-03
 -1     25190 7.83797E+00 5.01314E+00 6.45000E+00 5.78116E+00 1.50020E-02 1.99640E-02
 -1     25191 8.71417E+00 6.12471E+00 7.37791E+00 5.71275E+00-1.40193E-03-2.72405E-03
 -1     25192 6.04795E+00 4.31704E+00 5.18935E+00 5.60465E+00 5.12001E-03-2.58013E-02
 -1     25193 7.26544E+00 5.26913E+00 6.27387E+00 5.74322E+00 2.36135E-02 2.49460E-02
 -1     25194 9.00685E+00 3.29253E+00 6.15607E+00 5.14663E+00-5.03244E-03 2.45752E-02
 -1     25195 9.64463E+00 3.54944E+00 6.59683E+00 5.26328E+00 2.14312E-02 6.81192E-03
 -1     25196 9.32873E+00 3.61062E+00 6.48198E+00 5.43558E+00 1.55554E-02 1.43664E-02
 -1     25197-5.19215E+00 1.12422E+00-2.04895E+00 2.06703E-01 9.04796E-04 1.12198E-03
 -1     25198-4.90879E+00 1.32295E+00-1.80019E+00 3.46053E-01 3.98287E-03-1.33440E-02
 -1     25199-6.25758E+00 9.11513E-01-2.67478E+00-2.89930E-01-5.20759E-03 3.69277E-03
 -1     25200-6.12395E+00 1.14376E+00-2.48956E+00-4.11531E-01-5.49148E-03-1.31149E-02
 -1     25201-5.49051E+00 7.39475E-01-2.35738E+00 2.85727E-01-3.17926E-03 2.67271E-03
 -1     25202 9.84362E+00 8.71130E+00 9.31612E+00 1.01494E+01-6.62079E-03 7.16288E-03
 -1     25203 1.09887E+01 9.56474E+00 1.02809E+01 1.04832E+01 2.39218E-02-1.20085E-03
 -1     25204 1.01247E+01 9.13084E+00 9.64281E+00 9.50295E+00-1.45649E-02 1.44737E-02
 -1     25205 9.20927E+00 8.45238E+00 8.81411E+00 9.43388E+00-1.56189E-02 1.42836E-02
 -1     25206 1.03934E+01 9.12148E+00 9.71882E+00 1.04172E+01 2.09460E-02-7.46850E-03
 -1     25207 1.13380E+01 1.02548E+01 1.07975E+01 9.75212E+00-6.91172E-03-2.42644E-03
 -1     25208 8.07550E+00 6.12426E+00 7.13041E+00 7.03326E+00 8.98841E-03 9.28388E-03
 -1     25209 8.06803E+00 6.19183E+00 7.13157E+00 6.80416E+00 1.36353E-02-3.48906E-02
 -1     25210 7.67491E+00 5.06707E+00 6.37408E+00 6.96014E+00 2.82853E-02 2.11235E-02
 -1     25211 8.64995E+00 6.52376E+00 7.62336E+00 7.29591E+00 2.46137E-02 4.40817E-02
 -1     25212 7.82127E+00 5.79589E+00 6.80898E+00 7.05709E+00 2.91338E-02-5.95219E-03
 -1     25213 8.24165E+00 6.99423E+00 7.63217E+00 5.10677E+00-3.49865E-03-1.42817E-02
 -1     25214 6.85912E+00 5.46062E+00 6.14450E+00 4.93669E+00-2.76197E-02-3.02699E-02
 -1     25215 6.36872E+00 5.39725E+00 5.90269E+00 5.02869E+00 7.14184E-03-3.15210E-03
 -1     25216 1.01346E+01 9.28999E+00 9.75901E+00 5.07834E+00-3.42848E-02 7.70361E-03
 -1     25217 5.35314E+00 4.44588E+00 4.95577E+00 4.88894E+00-3.02081E-02-5.03683E-03
 -1     25218 1.03055E+01 4.97971E+00 7.62637E+00 7.74312E+00 6.42362E-03-2.41373E-04
 -1     25219 1.02689E+01 5.44124E+00 7.87072E+00 7.98539E+00-9.72652E-04-2.02060E-03
 -1     25220 1.06498E+01 5.89359E+00 8.29284E+00 8.22179E+00-5.72814E-03 6.28744E-03
 -1     25221 1.11289E+01 7.52024E+00 9.34296E+00 9.48183E+00-1.16588E-02-2.36864E-03
 -1     25222 1.08853E+01 6.63758E+00 8.76442E+00 8.81782E+00-5.71174E-03 3.16512E-03
 -1     25223 1.16270E+01 7.57619E+00 9.61384E+00 9.02316E+00-5.82370E-04-1.20836E-02
 -1     25224-3.47713E+00 2.53505E+00-4.67628E-01 1.98245E+00-2.40206E-03 5.11119E-03
 -1     25225-2.99381E+00 3.27740E+00 1.48482E-01 1.49245E+00-7.40101E-03 4.54638E-03
 -1     25226-1.30480E+00 3.90885E+00 1.30178E+00 2.86866E+00-7.91208E-04 5.38392E-04
 -1     25227-2.41982E+00 3.05155E+00 3.20089E-01 2.39385E+00 3.33273E-04-4.78912E-04
 -1     25228 1.02947E+01 4.82110E+00 7.57017E+00 7.51595E+00-2.33221E-02 1.71457E-02
 -1     25229 6.33533E+00 4.53129E+00 5.42195E+00 5.05435E+00-2.14366E-02 3.83566E-03
 -1     25230-6.33970E-02 9.03429E+00 4.50445E+00 7.76829E+00 2.10610E-03 1.44629E-03
 -1     25231 1.01879E+00 1.03204E+01 5.74741E+00 7.95891E+00 1.47144E-02 2.23128E-02
 -1     25232 2.29518E+00 1.10591E+01 6.67879E+00 7.81195E+00 3.43457E-02 3.87996E-04
 -1     25233 7.24265E+00 7.04982E+00 7.13176E+00 5.53796E+00-2.04807E-02-1.20337E-02
 -1     25234 6.55439E+00 6.37232E+00 6.49108E+00 5.48517E+00 4.72795E-03-1.26270E-02
 -1     25235 2.90003E+00 2.68062E+00 2.80816E+00 5.45227E+00-7.71580E-03 1.42636E-03
 -1     25236 1.14648E+00 9.05371E-01 1.01277E+00 5.50782E+00-6.06451E-03-8.49039E-03
 -1     25237 6.20606E+00 5.81591E+00 5.98034E+00 5.47110E+00-8.09104E-03 1.40835E-02
 -1     25238-1.24004E+01-5.12473E-01-6.45572E+00-3.47879E+00 7.26548E-03 8.95277E-04
 -1     25239-1.39912E+01-1.10059E+00-7.55194E+00-4.18438E+00 1.05122E-02-1.17219E-04
 -1     25240 6.58411E+00 1.51765E-01 3.37277E+00 4.43827E+00-1.18071E-03-7.25821E-03
 -1     25241 7.26002E+00 1.07795E+00 4.16844E+00 4.13436E+00 5.50224E-03 2.38040E-03
 -1     25242 7.63811E+00 9.82599E-01 4.30963E+00 4.31918E+00 6.62573E-03 2.37688E-03
 -1     25243 5.92864E+00 5.68580E+00 5.82079E+00 5.48192E+00 8.28068E-03-1.86809E-02
 -1     25244 7.07917E+00 6.90759E+00 6.97580E+00 5.52519E+00-3.54886E-03-1.13912E-02
 -1     25245 9.29301E+00 4.36525E+00 6.82633E+00 7.39833E+00 8.75458E-03-1.43846E-03
 -1     25246 8.15877E+00 3.57449E+00 5.86515E+00 7.45310E+00-4.72308E-03 1.68587E-03
 -1     25247 9.45530E+00 4.86273E+00 7.15800E+00 7.84848E+00 2.80387E-03 1.22823E-02
 -1     25248 8.73282E+00 4.68193E+00 6.72516E+00 7.27877E+00-8.33630E-04 5.18154E-03
 -1     25249 9.01110E+00 4.76009E+00 6.86658E+00 7.00021E+00-1.34585E-03-6.59153E-03
 -1     25250 8.15942E+00 4.68957E+00 6.46582E+00 7.53429E+00-1.03500E-02-7.47208E-03
 -1     25251 1.03642E+01 6.07745E+00 8.21463E+00 7.48886E+00 3.88858E-03 1.61557E-02
 -1     25252 1.00095E+01 4.85990E+00 7.42335E+00 6.94242E+00-3.70884E-03 2.20909E-03
 -1     25253 1.04347E+01 5.93271E+00 8.16506E+00 7.20949E+00-1.14471E-02 2.12957E-02
 -1     25254 1.06518E+01 3.73935E+00 7.18388E+00 5.83997E+00-2.11919E-03 1.19179E-02
 -1     25255 9.47067E+00 2.69726E+00 6.08092E+00 5.65357E+00 8.19109E-03-3.21551E-03
 -1     25256 9.06712E+00 2.60095E+00 5.82772E+00 6.03681E+00-5.73171E-03-8.13005E-04
 -1     25257 9.18624E+00 2.15189E+00 5.66788E+00 5.97787E+00 4.37501E-03 2.61336E-03
 -1     25258 1.10711E+01 4.44314E+00 7.76206E+00 6.18194E+00 4.24574E-03-8.04487E-03
 -1     25259-1.75407E+01-1.81970E+00-9.67838E+00-5.70982E+00 1.99598E-03 4.31827E-03
 -1     25260-1.73816E+01-1.71851E+00-9.56146E+00-5.69791E+00-6.44844E-03-1.81975E-03
 -1     25261-1.79841E+01-1.94454E+00-9.94583E+00-5.92413E+00 5.60386E-03 1.39829E-03
 -1     25262-1.65784E+01-1.79811E+00-9.19424E+00-5.23350E+00 3.40102E-03-9.76090E-03
 -1     25263-1.79449E+01-1.94499E+00-9.94489E+00-5.90220E+00 6.26992E-03-1.69007E-03
 -1     25264 1.30554E+01 1.12269E+01 1.21961E+01 1.17931E+01-8.41239E-03 2.33950E-02
 -1     25265 1.02161E+01 9.15075E+00 9.66455E+00 1.02641E+01 1.71539E-02 4.10720E-03
 -1     25266 1.13652E+01 9.98847E+00 1.06786E+01 1.09390E+01 1.15191E-03 1.60368E-02
 -1     25267 1.22299E+01 1.03930E+01 1.13676E+01 1.17410E+01-1.00330E-02-1.21888E-02
 -1     25268 1.08614E+01 9.50764E+00 1.01717E+01 1.08868E+01 1.11913E-02-2.85763E-02
 -1     25269 1.01906E+01 5.05653E+00 7.60551E+00 7.89993E+00 6.07523E-03-1.23027E-02
 -1     25270-3.64480E+01-2.20709E+01-2.91030E+01 2.22172E+00-9.68177E-02-4.18706E-01
 -1     25271-2.97105E+01-2.13796E+01-2.51417E+01 1.95705E+00 8.87598E-02-2.63562E-01
 -1     25272 1.27706E+01 1.09830E+01 1.18738E+01 1.18220E+01-2.34327E-02 1.78560E-02
 -1     25273 1.30530E+01 1.12126E+01 1.21356E+01 1.17611E+01 1.60922E-02-8.50500E-03
 -1     25274 1.07140E+01 9.71466E+00 1.02091E+01 1.02250E+01 1.93996E-02 4.61066E-03
 -1     25275 1.12754E+01 9.82072E+00 1.05410E+01 1.09060E+01 3.41212E-02 1.75375E-04
 -1     25276 9.68424E+00 6.09514E+00 7.87690E+00 3.44312E+00-1.07182E-02-2.92662E-03
 -1     25277 1.09222E+01 6.57645E+00 8.68903E+00 3.63122E+00-1.98832E-02-4.74782E-02
 -1     25278 8.21126E+00 5.02474E+00 6.63126E+00 3.79322E+00 2.39670E-02-5.30389E-02
 -1     25279 8.51173E+00 6.13532E+00 7.29711E+00 3.36221E+00-1.58570E-02 1.22851E-02
 -1     25280 6.73057E+00 3.15341E+00 4.87960E+00 3.16187E+00-3.76268E-02-9.89362E-03
 -1     25281 5.85661E+00 2.68985E+00 4.19081E+00 3.50390E+00 5.61171E-02-1.92656E-02
 -1     25282 8.29200E+00 7.63620E+00 7.97868E+00 8.75429E+00-2.05487E-03 3.77563E-03
 -1     25283 8.27095E+00 7.83139E+00 8.04703E+00 8.67666E+00-9.56721E-03-3.49258E-03
 -1     25284-8.19510E+00 1.20894E+00-3.58168E+00-3.08656E+00-4.50417E-02-1.18868E-01
 -1     25285-1.20001E+01-3.05443E+00-7.61390E+00-2.59320E+00-7.96569E-02-5.77638E-02
 -1     25286-9.77489E+00 2.82176E-02-4.95211E+00-3.36599E+00-3.12171E-02-6.04454E-02
 -1     25287-1.19877E+01-2.49893E+00-7.18168E+00-3.24364E+00-1.70338E-02-2.25339E-02
 -1     25288-1.41035E+01-5.49437E+00-9.79706E+00-2.52218E+00-2.02094E-02-8.02525E-02
 -1     25289-1.14155E+01-2.27125E+00-6.76203E+00-2.83600E+00-1.34094E-04-6.15482E-02
 -1     25290-3.75245E+00 3.81900E+00 2.00554E-02 2.81815E+00-2.84965E-02 3.01208E-03
 -1     25291-5.57987E+00 2.34084E+00-1.60141E+00 1.42257E+00-1.04845E-02 1.70990E-02
 -1     25292-6.19173E+00 1.76937E+00-2.22180E+00 2.32934E+00-3.82373E-04-4.08983E-03
 -1     25293 6.51097E+00 6.39067E-01 3.57798E+00 3.42580E+00 2.59076E-02-3.78269E-03
 -1     25294 1.29024E+01 1.09285E+01 1.19268E+01 1.19110E+01 3.20583E-02-1.25281E-02
 -1     25295 1.33883E+01 1.11893E+01 1.22877E+01 1.22026E+01-5.89956E-03 8.45363E-03
 -1     25296 1.28586E+01 1.10003E+01 1.19296E+01 1.14479E+01 1.38837E-02 2.39737E-03
 -1     25297 1.21693E+01 1.04066E+01 1.12897E+01 1.12266E+01 3.85088E-03 5.92897E-03
 -1     25298 1.13972E+01 9.76341E+00 1.05857E+01 1.07769E+01 1.47133E-02-3.41443E-03
 -1     25299 6.53612E+00 5.01224E-01 3.50239E+00 3.45172E+00 8.31288E-03-1.29859E-02
 -1     25300 6.64548E+00 1.59158E+00 4.10452E+00 2.85953E+00 2.34524E-02-1.54611E-02
 -1     25301 6.18065E+00 7.94997E-01 3.46773E+00 3.01578E+00-1.43626E-02 6.00456E-03
 -1     25302 6.54413E+00 1.70210E+00 4.06740E+00 2.61950E+00 4.86595E-02-1.27603E-02
 -1     25303 3.26681E+00 1.03282E+01 6.76838E+00 7.27192E+00-4.94820E-02 2.09954E-02
 -1     25304 1.19330E+00 9.11352E+00 5.13420E+00 6.98165E+00-2.79210E-02-4.10240E-02
 -1     25305 4.90993E-01 8.55628E+00 4.51284E+00 7.30012E+00 8.48556E-03 1.75709E-02
 -1     25306 8.57060E+00 8.22145E+00 8.41888E+00 4.86978E+00-4.77917E-03 3.20254E-02
 -1     25307 6.21249E+00 5.64324E+00 5.97227E+00 4.78813E+00-2.94510E-02 1.57855E-02
 -1     25308 1.17794E+01 1.15525E+01 1.16878E+01 5.00752E+00-2.36230E-02 2.66894E-02
 -1     25309 5.27065E+00 4.90562E+00 5.12396E+00 4.71371E+00-7.10731E-03 5.72143E-02
 -1     25310 5.44848E+00 5.18255E+00 5.32715E+00 4.89606E+00-2.56793E-02 3.29115E-02
 -1     25311 1.31195E+01 1.11523E+01 1.21570E+01 1.18969E+01 3.20668E-02-8.10344E-03
 -1     25312 1.18416E+01 1.01167E+01 1.09939E+01 1.11968E+01-9.14522E-03 5.28496E-03
 -1     25313 1.16223E+01 1.00015E+01 1.07924E+01 1.11376E+01-6.56999E-03-1.47968E-02
 -1     25314 5.74421E+00 4.59758E+00 5.15935E+00 4.64943E+00 2.26821E-02-2.79753E-02
 -1     25315 4.45900E+00 3.40680E+00 4.00864E+00 4.72444E+00-2.08267E-02 1.38909E-02
 -1     25316 7.49202E+00 5.99816E+00 6.70558E+00 4.75786E+00 3.38408E-02-5.94796E-02
 -1     25317 5.46676E+00 3.21929E+00 4.30153E+00 4.68451E+00 6.72961E-02-2.75005E-02
 -1     25318 1.07604E+01 8.87612E+00 9.91304E+00 4.65588E+00-9.32857E-03 1.04333E-02
 -1     25319 8.27134E-01 2.91894E+00 1.88024E+00 2.93891E+00 1.40754E-02-8.53466E-03
 -1     25320-3.59891E-01 1.99411E+00 8.15790E-01 2.90015E+00 2.87615E-03 2.78844E-03
 -1     25321 8.24608E+00 6.66269E+00 7.45318E+00 8.06071E+00-1.23219E-02 4.62054E-03
 -1     25322 9.33248E+00 7.48119E+00 8.40522E+00 8.14520E+00 1.05395E-02-1.61825E-02
 -1     25323 7.47354E+00 6.01838E+00 6.74788E+00 7.47533E+00-3.01320E-03-5.60693E-03
 -1     25324-1.39526E+00 2.33874E+00 4.48307E-01 1.99912E+00 4.91217E-03-1.10471E-02
 -1     25325-3.08016E+00 1.58587E+00-7.65978E-01 1.35689E+00 1.35430E-02-6.83185E-03
 -1     25326-2.32446E+00 1.65454E+00-3.40724E-01 1.97321E+00-3.40107E-03-2.08092E-02
 -1     25327-1.04328E+00 7.03087E+00 3.00903E+00 6.74944E+00-1.50080E-02-2.48361E-02
 -1     25328-8.06689E-01 7.58896E+00 3.39098E+00 7.00846E+00 1.41174E-02 2.79701E-02
 -1     25329-8.04209E-01 7.10018E+00 3.12987E+00 6.25505E+00 9.06415E-03 2.87000E-02
 -1     25330 1.95313E+00 8.68873E+00 5.53370E+00-1.94158E+00 4.10238E-02 2.70928E-01
 -1     25331-9.47318E+00-3.22374E+00-6.56725E+00-1.23259E+00-1.32243E-01 2.21190E-02
 -1     25332-6.51475E+00 6.77790E-01-2.84362E+00-3.02963E+00-8.57198E-02 1.53660E-01
 -1     25333-6.55511E+00-3.67298E-01-4.08178E+00-2.07284E+00-1.57770E-01-2.09245E-01
 -1     25334-2.85108E+00 4.54741E+00 3.43712E-01-2.92966E+00 3.66736E-02-1.06908E-01
 -1     25335-3.35850E+00 1.16660E+00-1.09856E+00 1.35698E+00-3.56746E-03 7.94965E-03
 -1     25336 8.09893E+00 5.68637E+00 6.88762E+00 7.56519E+00-8.58010E-03 6.41856E-04
 -1     25337 7.24138E+00 5.19119E+00 6.21483E+00 6.99074E+00-2.63656E-03-4.20719E-04
 -1     25338 8.12901E+00 5.70517E+00 6.91954E+00 6.99277E+00 1.39048E-03-5.42621E-03
 -1     25339 8.32090E+00 5.50367E+00 6.91127E+00 7.58073E+00-4.79988E-03-6.11089E-03
 -1     25340-7.50448E+00 1.59946E-01-3.67658E+00-6.84269E-01 1.12787E-02-4.05980E-03
 -1     25341-9.11080E+00-6.07072E-01-4.86324E+00-1.27970E+00-1.21591E-02-1.71546E-02
 -1     25342-7.48508E+00 4.63837E-02-3.71855E+00-6.83106E-01 2.14136E-03 3.73493E-03
 -1     25343-3.08971E+00 1.91786E+00-6.10930E-01 1.42089E+00 1.18837E-02 3.45499E-03
 -1     25344-2.18050E+00 2.05884E+00-7.59537E-02 1.93239E+00 8.78759E-04-1.06134E-02
 -1     25345-3.55035E+00 1.78155E+00-8.88689E-01 9.99912E-01 8.86904E-03-1.15555E-02
 -1     25346-3.04648E+00 1.93650E+00-5.48622E-01 1.34025E+00 1.15398E-02-1.81333E-02
 -1     25347-2.85218E+00 1.71424E+00-5.79500E-01 1.53260E+00 3.76414E-03-2.10050E-02
 -1     25348-3.34948E+00 1.48797E+00-9.32018E-01 1.11454E+00-3.68327E-03-1.30697E-03
 -1     25349-4.24362E+00 5.91524E-01-1.82580E+00 1.09566E+00-2.37291E-03-2.47347E-03
 -1     25350-2.68912E+00 1.16806E+00-7.62029E-01 1.73902E+00-8.71378E-03-1.75522E-03
 -1     25351 9.51162E-01 1.25504E+00 1.09016E+00 3.37820E+00-2.12856E-02-1.43449E-04
 -1     25352 1.86376E+00 1.15600E+00 1.50926E+00 3.90256E+00-2.42566E-02 8.74397E-03
 -1     25353 1.27084E+00 1.32736E+00 1.27804E+00 3.47882E+00-9.40945E-03 9.56828E-03
 -1     25354-1.02859E+01-1.12746E-01-5.21109E+00-2.14601E+00-7.13237E-03 7.28470E-03
 -1     25355-1.17447E+01-4.11696E-01-6.06205E+00-2.96057E+00-4.73653E-03-3.47041E-03
 -1     25356-1.22205E+01-8.34470E-01-6.52471E+00-3.08909E+00-1.07006E-03-2.40164E-03
 -1     25357-8.40324E+00 8.93719E-01-3.74447E+00-1.42409E+00-1.19277E-02-1.03505E-02
 -1     25358-1.01299E+01 3.48135E-01-4.90099E+00-2.38391E+00 2.34570E-03 1.37295E-02
 -1     25359-6.78188E+00 9.93859E-01-2.89983E+00-4.96605E-01-4.94084E-03-3.37643E-04
 -1     25360-5.32636E+00 1.63700E+00-1.84503E+00 2.24567E-01 1.09129E-03-8.07712E-03
 -1     25361-5.63111E+00 1.33331E+00-2.15471E+00 6.31169E-02 5.27721E-04 6.70414E-03
 -1     25362 8.43331E+00 3.95933E+00 6.19481E+00 7.03613E+00-1.49280E-03-1.46405E-03
 -1     25363 7.63357E+00 3.54377E+00 5.58973E+00 6.61813E+00 1.48168E-03-2.98055E-03
 -1     25364 7.46671E+00 3.85311E+00 5.66333E+00 6.65278E+00 7.98096E-03-4.77954E-03
 -1     25365 8.59735E+00 4.59135E+00 6.59298E+00 7.04777E+00 9.89204E-03-9.59687E-03
 -1     25366 5.71302E+00 5.86875E-01 3.17128E+00 4.72095E+00 2.69653E-03-3.88729E-03
 -1     25367 5.34972E+00 6.41679E-01 2.99756E+00 4.78632E+00-3.69620E-03-6.29578E-03
 -1     25368 4.86083E+00 4.57798E-01 2.66533E+00 4.47689E+00 7.92997E-03 3.26017E-03
 -1     25369-1.92926E+01-1.95136E+00-1.06357E+01-6.54143E+00-2.33515E-02 1.19514E-03
 -1     25370-2.19593E+01-4.53250E+00-1.32330E+01-6.71721E+00-2.76853E-03-1.33081E-03
 -1     25371-1.93655E+01-1.77537E+00-1.07845E+01-6.49593E+00 1.31104E-01-3.28615E-02
 -1     25372 8.94630E+00 9.07093E+00 9.01003E+00 8.41676E+00 6.17458E-02 9.07866E-02
 -1     25373 8.40239E+00 8.50069E+00 8.40570E+00 8.19784E+00-6.91832E-03 3.16326E-02
 -1     25374 6.05424E+00 7.67065E+00 6.82764E+00 7.77529E+00-4.11849E-02 5.86276E-02
 -1     25375 8.22873E+00 8.12699E+00 8.26399E+00 8.66873E+00 7.65298E-02-1.13918E-02
 -1     25376 9.08548E+00 8.96729E+00 8.96299E+00 8.43476E+00 2.58420E-02-2.51852E-02
 -1     25377-1.69175E+00 7.60138E+00 3.11849E+00 7.44622E+00 7.04909E-02 1.03165E-01
 -1     25378 5.23451E+00 1.41123E+01 9.66639E+00 7.45408E+00 1.98608E-02-1.52763E-03
 -1     25379-5.00618E+00 4.16194E+00-3.49599E-01 7.93189E+00 5.59243E-02 1.45654E-01
 -1     25380 1.32484E-01 1.02193E+01 5.22236E+00 7.52360E+00 6.10477E-02-2.40934E-02
 -1     25381-1.23134E+00 8.12926E+00 3.46957E+00 7.69449E+00 3.35369E-02-2.28261E-02
 -1     25382 6.55874E+00 4.58432E+00 5.57214E+00 6.46177E+00 2.72026E-03-2.05452E-03
 -1     25383 6.53913E+00 4.20749E+00 5.37142E+00 6.50264E+00-3.03359E-03 1.49991E-03
 -1     25384 7.71203E+00 4.91335E+00 6.31145E+00 7.03042E+00-2.53055E-03 3.47532E-03
 -1     25385 1.07773E+01 8.53028E+00 9.63469E+00 9.04031E+00 7.32156E-03-1.40414E-02
 -1     25386 1.04552E+01 8.13495E+00 9.25853E+00 9.26493E+00 8.74063E-03 8.80647E-03
 -1     25387 1.01468E+01 7.90158E+00 8.99694E+00 8.91169E+00 1.54186E-02 1.59988E-02
 -1     25388 2.72064E+01 3.24367E+01 2.85538E+01 7.36316E+00-4.60329E-01-1.65250E-03
 -1     25389-3.61551E+01-1.20729E+01-2.60909E+01 6.38001E+00-5.80976E-01-1.58960E-01
 -1     25390-6.40695E+00 4.70199E-01-2.96464E+00-9.67608E-02-1.84200E-03 1.49275E-02
 -1     25391-6.03208E+00-5.62332E-02-3.04227E+00 5.05367E-01 1.23366E-02-5.87396E-03
 -1     25392-7.18525E+00-1.23600E-01-3.65856E+00-8.01508E-02-1.45070E-02-1.09373E-02
 -1     25393-7.91602E+00 6.21701E-02-3.92788E+00-6.86806E-01-7.85010E-03-4.07560E-03
 -1     25394 7.02423E+00 8.74312E+00 7.89168E+00 8.49568E+00 2.87819E-02-2.42248E-03
 -1     25395 7.28412E+00 9.61274E+00 8.44961E+00 8.33215E+00-4.42518E-03 2.11817E-04
 -1     25396 6.02870E+00 6.87715E+00 6.47496E+00 9.07300E+00-2.88555E-02-1.74929E-02
 -1     25397-1.26618E+01-5.43569E-01-6.60126E+00-3.14891E+00-1.11525E-02-4.72868E-03
 -1     25398-1.24420E+01-1.38051E+00-6.91106E+00-2.52338E+00-1.03668E-03-1.07891E-02
 -1     25399-1.28255E+01-9.36241E-01-6.88001E+00-3.17890E+00-1.14723E-02-4.75829E-03
 -1     25400-8.41929E+00-8.13859E-02-4.28593E+00-4.17449E-01-9.48543E-03-7.26037E-03
 -1     25401-9.08468E+00-6.23978E-01-4.85971E+00-2.92801E-01 8.50923E-04-1.43178E-02
 -1     25402-9.67071E+00-1.80578E-01-4.95008E+00-9.95027E-01 1.50266E-03 5.47929E-03
 -1     25403 6.61336E+00 5.05152E+00 5.86641E+00 5.39733E+00-8.38496E-03-1.32488E-02
 -1     25404 7.81112E+00 6.18277E+00 6.99292E+00 5.46250E+00-1.51176E-02-1.07055E-02
 -1     25405 6.59843E+00 5.16156E+00 5.87600E+00 5.34435E+00-1.52188E-02-2.00337E-03
 -1     25406 6.35746E+00 4.39351E+00 5.39670E+00 5.35701E+00-2.82278E-02 7.45463E-03
 -1     25407 7.71903E+00 5.56749E+00 6.64953E+00 5.47362E+00-6.73311E-03-4.81105E-03
 -1     25408 6.24957E+00 4.15755E+00 5.18787E+00 5.42293E+00-5.48173E-03-6.10674E-03
 -1     25409 8.30990E+00 1.59130E+00 4.95076E+00 5.02971E+00 1.33035E-02-2.28743E-02
 -1     25410 7.50532E+00 6.26847E-01 4.06693E+00 4.91372E+00-7.82705E-03-2.43355E-02
 -1     25411 1.08404E+01 1.01190E+01 1.04368E+01 9.56166E+00 1.09343E-02 7.22549E-03
 -1     25412 7.38355E+00 7.41482E+00 7.40720E+00 8.49384E+00-6.76792E-03 2.41060E-03
 -1     25413 8.16874E+00 8.01457E+00 8.07969E+00 8.60499E+00 3.15237E-03-7.97011E-04
 -1     25414 9.84352E+00 9.29170E+00 9.59845E+00 9.33148E+00-6.41225E-03 3.40129E-03
 -1     25415 3.63318E+00-5.90021E-01 1.52476E+00 3.05506E+00 2.03033E-03 6.88957E-03
 -1     25416 3.78789E+00-7.97609E-01 1.49670E+00 3.39250E+00-1.42567E-04 2.91502E-03
 -1     25417 4.15084E+00-7.28481E-01 1.71091E+00 3.20293E+00 3.53495E-03 3.34532E-03
 -1     25418 9.33601E+00 8.18616E+00 8.76396E+00 8.87955E+00 1.66460E-02-1.58755E-03
 -1     25419 1.00948E+01 8.76579E+00 9.42211E+00 9.59514E+00-1.48276E-02-1.69516E-02
 -1     25420 1.15038E+01 9.94886E+00 1.07124E+01 1.03293E+01 1.79330E-03 1.52847E-02
 -1     25421 8.82462E+00 7.31793E+00 8.06960E+00 9.40407E+00 1.70889E-03-3.12168E-05
 -1     25422 1.08526E+01 9.22067E+00 1.00317E+01 1.01437E+01-1.96866E-02-7.95339E-03
 -1     25423 2.62829E+00-1.84354E+00 3.86496E-01 2.76957E+00 1.56881E-02 7.81926E-03
 -1     25424 4.66190E+00 9.32790E-01 2.78692E+00 2.60960E+00-1.03600E-02-6.76045E-03
 -1     25425 1.68609E+00-1.77814E+00-4.60847E-02 2.90758E+00 2.06394E-03-6.90981E-03
 -1     25426-1.53917E+01-1.43455E+00-8.41809E+00-4.83474E+00-6.43452E-03 1.28719E-02
 -1     25427 2.37387E+00-1.50224E+00 4.34804E-01 3.24395E+00 7.27314E-03 3.52802E-03
 -1     25428-3.18418E+00 4.16193E-01-1.36539E+00 1.76648E+00-1.34685E-02-6.56207E-03
 -1     25429-3.35899E+00 4.98892E-01-1.42027E+00 1.73442E+00-5.62009E-03-8.13697E-03
 -1     25430-5.35716E+00-7.02184E-01-3.03258E+00 1.23360E+00-9.34229E-04 3.09136E-03
 -1     25431-1.02894E+01-3.07141E-01-5.29730E+00-1.90791E+00 2.83670E-03 2.78095E-03
 -1     25432-1.05926E+01-4.58590E-01-5.52562E+00-1.89259E+00-1.56050E-02 6.01406E-03
 -1     25433-9.59231E+00-5.36042E-01-5.06291E+00-1.30391E+00-2.50979E-03 2.58007E-03
 -1     25434-7.65099E+00 1.27268E-01-3.76142E+00-6.98562E-01 6.30915E-03-2.89399E-03
 -1     25435-9.79300E+00-8.77306E-01-5.33670E+00-1.31764E+00 4.34332E-03-5.27797E-03
 -1     25436 1.54671E+01 1.50295E+01 1.52344E+01 4.65318E+00 1.11020E-02 1.96784E-02
 -1     25437 5.90548E+00 4.66130E+00 5.24190E+00 4.59959E+00 6.04323E-03-6.67724E-02
 -1     25438 4.11323E+00 3.29827E+00 3.69215E+00 4.75296E+00 3.35441E-02-1.22554E-02
 -1     25439-3.18545E-02-5.09936E-01-3.37257E-01 4.60460E+00 2.23263E-02-3.14444E-03
 -1     25440 1.13282E+01 1.04688E+01 1.08450E+01 4.69333E+00 2.28155E-02-2.01273E-02
 -1     25441 7.55477E+00 8.69865E+00 8.13827E+00 8.65866E+00 2.86673E-02-9.57668E-03
 -1     25442 6.05720E+00 7.85345E+00 6.99283E+00 8.09388E+00 1.44155E-02 1.63391E-02
 -1     25443 5.95307E+00 8.23689E+00 7.14398E+00 7.92363E+00 3.78244E-02 3.99185E-04
 -1     25444 5.57618E+00 5.34141E+00 5.48802E+00 5.10340E+00-1.16663E-02 3.55645E-02
 -1     25445 7.52933E+00 6.85669E+00 7.17899E+00 5.17574E+00 4.38959E-02 4.30339E-03
 -1     25446 6.67734E+00 5.93743E+00 6.29765E+00 4.96126E+00 1.06674E-02 3.60833E-03
 -1     25447-1.30962E+01-1.11677E+01-1.19355E+01-8.05108E-01-8.25708E-02-4.23295E-03
 -1     25448-1.30464E+01-1.15150E+01-1.21947E+01-1.43347E+00-3.79112E-02 4.76175E-02
 -1     25449-1.16549E+01-1.13367E+01-1.14124E+01-1.93394E+00-3.60880E-02 1.31284E-01
 -1     25450-1.35238E+01-1.30881E+01-1.31638E+01-1.62037E+00-1.96183E-01-1.10899E-03
 -1     25451 6.65466E-01 2.29697E+00 1.38691E+00-9.86222E-01-1.59762E-01-8.43542E-02
 -1     25452-2.95607E+00-5.11063E-01-1.74613E+00 2.33916E+00 1.48657E-02 2.57574E-02
 -1     25453-3.05853E+00-2.06812E-01-1.66741E+00 2.17014E+00 3.84871E-02 3.50089E-02
 -1     25454-4.36334E+00-6.09119E-01-2.52080E+00 1.89299E+00 8.61641E-03 1.44402E-02
 -1     25455 7.80857E+00 5.23531E+00 6.51640E+00 5.40174E+00-1.30770E-02-6.82877E-03
 -1     25456 7.47695E+00 5.02062E+00 6.24508E+00 5.55948E+00-2.60169E-02-5.62642E-03
 -1     25457 7.71342E+00 4.70909E+00 6.21138E+00 5.54513E+00-2.04273E-02 2.20698E-02
 -1     25458-1.35315E+01-1.06502E+00-7.31335E+00-3.64666E+00-9.83085E-03-1.88501E-04
 -1     25459-1.17445E+01-1.98147E-01-6.01001E+00-2.72539E+00-1.20985E-02-4.11542E-03
 -1     25460-1.22642E+01-5.26512E-01-6.41899E+00-2.94489E+00-1.54671E-02-1.50626E-02
 -1     25461 6.70042E+00 5.41989E+00 6.05862E+00 6.85488E+00-1.26301E-04-4.45180E-03
 -1     25462 6.00285E+00 4.83072E+00 5.41386E+00 6.32746E+00-1.45835E-04 2.03040E-03
 -1     25463 7.56016E+00 5.88837E+00 6.71836E+00 6.91886E+00-3.47939E-03 2.70696E-04
 -1     25464 5.99029E+00 5.75929E+00 5.89556E+00 5.15225E+00-2.06943E-02 1.99178E-02
 -1     25465 1.17553E+01 1.13798E+01 1.15799E+01 5.12122E+00-2.32371E-02 4.94411E-03
 -1     25466 7.55192E+00 7.46781E+00 7.49012E+00 5.32965E+00 5.82540E-03 5.80026E-04
 -1     25467 3.69576E+00 3.58012E+00 3.62752E+00 5.28101E+00 1.21268E-02 6.44648E-03
 -1     25468 5.53449E+00 7.35913E+00 6.44587E+00 7.19877E+00-1.23325E-02 2.44292E-04
 -1     25469 4.25517E+00 6.83476E+00 5.54919E+00 6.49507E+00 1.71298E-03-7.17397E-03
 -1     25470 4.55814E+00 6.80300E+00 5.67788E+00 6.51854E+00-8.67844E-03 3.76991E-04
 -1     25471 2.06853E+00 3.81279E-02 1.04932E+00 2.35816E+00 4.08267E-04-3.99116E-03
 -1     25472-5.19310E-01-2.07668E+00-1.29847E+00 2.63078E+00-6.90578E-03-4.10280E-03
 -1     25473-2.10806E+01-1.51970E+01-1.83026E+01 6.52486E-01-1.78673E-01-3.40573E-01
 -1     25474-1.86589E+01-1.18061E+01-1.52155E+01 8.46789E-01 1.47052E-02-1.43807E-01
 -1     25475-1.72149E+00-9.67021E-01-1.52965E+00-3.52548E-01 9.70511E-02 1.49949E-01
 -1     25476 6.07348E+00 1.22218E+01 8.78722E+00 9.89613E-01-1.56462E-01 1.50916E-01
 -1     25477-2.39972E+01-2.35334E+01-2.40503E+01 1.82747E-01 5.78199E-02-2.20840E-01
 -1     25478 6.71786E+00 5.54437E+00 6.12558E+00 2.61130E+00-3.62207E-02 1.94440E-02
 -1     25479 6.40621E+00 5.22626E+00 5.78590E+00 3.00254E+00-1.34713E-02 2.89566E-02
 -1     25480 4.76821E+00 2.24979E+00 3.51302E+00 2.71975E+00-3.25373E-02 1.90485E-02
 -1     25481 8.09448E+00 5.57140E+00 6.82742E+00 3.07700E+00-1.88513E-02 4.58514E-02
 -1     25482 7.73591E+00 6.61770E+00 7.25758E+00 1.99615E+00 2.10938E-02 1.61954E-02
 -1     25483 6.77101E+00 3.22849E+00 4.93867E+00 2.72121E+00 1.25116E-02 3.39720E-02
 -1     25484 6.03915E+00 3.54392E+00 4.73047E+00 2.59528E+00-2.60280E-03 8.98411E-03
 -1     25485 5.99361E+00 3.84585E+00 4.93257E+00 1.96998E+00 8.34402E-04-1.53686E-02
 -1     25486 6.25337E+00 3.02222E+00 4.63322E+00 2.12619E+00 1.27047E-02-1.66236E-02
 -1     25487 8.25823E+00 3.86329E+00 5.98129E+00 2.73799E+00-1.08695E-02-2.15466E-02
 -1     25488 9.30348E+00 3.32458E+00 6.24910E+00 5.57883E+00-1.57208E-02 1.68351E-02
 -1     25489 8.47194E+00 2.01312E+00 5.19565E+00 5.33746E+00-1.62965E-02 1.37131E-02
 -1     25490 2.71074E+00-3.24398E-01 1.20064E+00 3.07130E+00 9.89301E-05 1.37284E-02
 -1     25491 1.19011E+00-1.28714E+00-4.86964E-02 3.23457E+00 2.36195E-03-4.15349E-03
 -1     25492 2.44837E-01-1.78508E+00-7.66940E-01 2.93317E+00-2.18662E-03-2.52877E-03
 -1     25493 1.80209E+00 7.01724E+00 4.40786E+00 6.01983E+00-6.98207E-03-8.07062E-03
 -1     25494 1.68266E+00 7.39337E+00 4.53509E+00 6.12380E+00-3.72500E-02 4.26053E-03
 -1     25495 7.00098E-01 6.53539E+00 3.62266E+00 5.44066E+00 7.68409E-03 1.01489E-02
 -1     25496 1.08935E+01 8.36865E+00 9.64926E+00 9.95390E+00 4.29461E-03-4.29152E-03
 -1     25497 9.88524E+00 6.13099E+00 8.02360E+00 9.06530E+00 1.60048E-02 1.39313E-02
 -1     25498 1.13517E+01 8.22269E+00 9.80666E+00 9.30379E+00 1.73258E-02 1.21517E-02
 -1     25499 1.15105E+01 9.02413E+00 1.03269E+01 9.84652E+00-9.74318E-03-1.28666E-02
 -1     25500 1.11340E+01 8.00137E+00 9.56795E+00 9.20226E+00 1.19037E-03-1.35321E-02
 -1     25501 5.94336E+00 2.74026E+00 4.32699E+00 5.76282E+00-1.10913E-02 3.64626E-02
 -1     25502 4.91664E+00 2.30112E+00 3.61128E+00 5.30387E+00 3.90382E-03 1.61321E-02
 -1     25503 5.90114E+00 3.23218E+00 4.55470E+00 5.69708E+00 5.41259E-03 1.82510E-02
 -1     25504 4.21583E+00 1.80337E+00 3.00972E+00 4.97691E+00-1.04650E-03 3.91438E-03
 -1     25505 3.60947E+00 1.77201E+00 2.71019E+00 4.67789E+00-1.12611E-03-5.00352E-03
 -1     25506 3.60272E+00 1.98082E+00 2.78378E+00 4.40738E+00 4.21553E-03 1.89023E-02
 -1     25507 3.25480E+00 1.41891E+00 2.32570E+00 4.71114E+00 1.32856E-02 1.63395E-02
 -1     25508 1.10153E+01 7.63947E+00 9.34733E+00 9.36625E+00 1.52951E-03 7.11228E-03
 -1     25509 9.61322E+00 6.13619E+00 7.86802E+00 8.83433E+00 2.10062E-02 1.47550E-02
 -1     25510 9.51826E+00 5.81993E+00 7.61804E+00 8.77162E+00 1.16844E-02 9.47860E-03
 -1     25511 2.70660E+00 1.64046E+00 2.17191E+00 4.24615E+00-4.15742E-03-4.47173E-03
 -1     25512 1.04780E+01 5.58785E+00 7.99702E+00 8.14481E+00 2.00749E-02-1.01451E-02
 -1     25513 1.02852E+01 5.38508E+00 7.86736E+00 8.13770E+00 1.77716E-02 5.05065E-04
 -1     25514 1.12918E+01 7.00498E+00 9.11530E+00 8.72104E+00 1.87952E-02-1.16773E-02
 -1     25515 1.01543E+01 5.01321E+00 7.60256E+00 7.90036E+00 1.36825E-02 1.08831E-02
 -1     25516 9.18958E+00 2.27073E+00 5.72966E+00 6.09761E+00 1.22864E-02-4.22658E-03
 -1     25517 1.05242E+01 4.00292E+00 7.25059E+00 6.49080E+00-9.92230E-03 6.70997E-03
 -1     25518 9.65688E+00 2.76457E+00 6.20951E+00 6.28112E+00 1.06440E-02 1.47607E-02
 -1     25519-3.17735E-01 5.23493E-01 1.09294E-01 3.03951E+00 1.06304E-02-8.83261E-04
 -1     25520-1.42503E+00 5.42245E-01-4.58514E-01 2.60246E+00-1.26432E-02-2.63107E-02
 -1     25521-1.95122E+00 2.86420E-01-8.11162E-01 2.45865E+00-4.35286E-03 1.68735E-03
 -1     25522 1.43933E+00 1.18319E+00 1.32148E+00 3.64843E+00-6.66801E-03-7.37838E-03
 -1     25523 6.22290E+00 1.83630E+00 4.04594E+00 5.26798E+00-1.25099E-02-4.38939E-03
 -1     25524 6.38236E+00 1.45395E+00 3.90280E+00 5.33090E+00-4.10858E-03-9.55046E-03
 -1     25525 5.18946E+00 8.55044E-01 3.02492E+00 4.90772E+00-7.98708E-03-8.03308E-03
 -1     25526 4.40356E+00 2.85346E-01 2.35250E+00 4.73865E+00-5.90458E-03-1.47639E-03
 -1     25527 5.52806E+00 1.20986E+00 3.34599E+00 5.02154E+00-1.59169E-03-2.18160E-03
 -1     25528 4.22986E+00 9.62679E-01 2.59840E+00 4.52223E+00-1.78085E-03-1.79531E-03
 -1     25529 4.62634E+00 1.09375E+00 2.86087E+00 4.81189E+00-1.04179E-03 4.19150E-03
 -1     25530 8.78195E+00 2.10921E+00 5.43777E+00 6.37537E+00-1.33153E-02-6.10563E-04
 -1     25531 1.01287E+01 3.61608E+00 6.90053E+00 4.24898E+00 1.05609E-02 4.87803E-03
 -1     25532 8.25831E+00 1.65373E+00 4.98257E+00 4.53305E+00-7.64962E-03 2.17232E-02
 -1     25533 8.33716E+00 1.50919E+00 4.93043E+00 4.22604E+00 8.59825E-03-6.13622E-03
 -1     25534 8.06072E+00 1.14501E+00 4.60919E+00 4.56389E+00-1.22857E-02 4.41617E-03
 -1     25535-1.87283E+00-5.83986E-01-1.23606E+00 2.65917E+00-1.69238E-02 4.29826E-03
 -1     25536-8.86461E-01-3.51598E-01-6.15823E-01 2.93243E+00-5.22781E-03 1.11005E-02
 -1     25537-3.32980E+00-1.20393E+00-2.28087E+00 2.42664E+00 8.50284E-03 1.88951E-02
 -1     25538-3.31385E+00-7.28327E-01-2.04608E+00 2.33035E+00-9.08729E-03 1.79976E-02
 -1     25539-1.88070E+00-1.86806E-01-1.01964E+00 2.57648E+00 2.08923E-03-6.05518E-04
 -1     25540 7.76111E+00 1.94523E+00 4.86971E+00 3.75400E+00 3.27089E-02-1.76946E-02
 -1     25541 8.45111E+00 3.27953E+00 5.80761E+00 3.45144E+00 2.71406E-02-1.10776E-02
 -1     25542 7.73710E+00 2.27757E+00 5.03014E+00 3.80874E+00 4.14605E-02-2.42448E-02
 -1     25543 1.32589E+01 1.11434E+01 1.21840E+01 1.14197E+01 4.61071E-04-5.92766E-03
 -1     25544 1.31060E+01 1.09485E+01 1.20080E+01 1.18212E+01-1.89305E-02 5.17029E-03
 -1     25545 1.22217E+01 1.00442E+01 1.11127E+01 1.14044E+01-1.61494E-02 7.15009E-03
 -1     25546 1.17674E+01 9.77495E+00 1.07707E+01 1.09226E+01 9.19936E-03 1.77379E-03
 -1     25547 1.23616E+01 1.03962E+01 1.13756E+01 1.13568E+01 1.39703E-02 2.90664E-04
 -1     25548 1.29047E+01 1.08617E+01 1.18685E+01 1.13251E+01 3.37394E-03-3.76475E-03
 -1     25549 7.38319E+00 5.07364E+00 6.25788E+00 4.90684E+00-2.57039E-02 3.56183E-02
 -1     25550 8.79146E+00 7.36399E+00 8.10899E+00 4.91326E+00-4.62689E-02 1.91270E-02
 -1     25551 7.81217E+00 6.01640E+00 6.85730E+00 5.09617E+00-2.03808E-02 1.50025E-02
 -1     25552 4.96370E+00 4.37868E+00 4.65974E+00 5.67184E+00-1.93945E-03-4.33594E-03
 -1     25553 5.79421E+00 5.14494E+00 5.40793E+00 5.61745E+00 2.34249E-02 4.90686E-03
 -1     25554 6.62983E+00 6.23574E+00 6.41599E+00 5.68003E+00 3.87672E-03-1.44927E-02
 -1     25555 5.49523E+00 5.30887E+00 5.37231E+00 5.79974E+00 2.17198E-02-1.29931E-02
 -1     25556 7.36031E+00 6.95304E+00 7.11271E+00 5.67338E+00 2.23666E-03 5.89414E-04
 -1     25557 6.12690E+00 2.41449E+00 4.26581E+00 5.83051E+00-7.84671E-03-5.24775E-03
 -1     25558 5.82476E+00 2.68533E+00 4.26543E+00 5.38644E+00-1.75871E-03-1.84928E-02
 -1     25559 7.73426E+00 8.96028E-01 4.32093E+00 4.39898E+00 2.18427E-02-9.74399E-03
 -1     25560 9.75340E+00 2.76984E+00 6.24979E+00 4.73096E+00-9.48004E-03 3.78573E-02
 -1     25561 1.12481E+01 8.93363E+00 1.00949E+01 9.91412E+00-1.51249E-02 1.66270E-02
 -1     25562 1.10967E+01 8.55607E+00 9.82207E+00 9.94667E+00 2.24496E-03 1.06265E-04
 -1     25563 9.36264E+00 7.00945E+00 8.19826E+00 9.26665E+00-9.32210E-03-5.12049E-03
 -1     25564 4.85475E+00 4.55876E+00 4.72684E+00 5.36699E+00 1.89637E-02 3.02552E-02
 -1     25565 7.57119E+00 6.74827E+00 7.18736E+00 5.29405E+00-1.71035E-02 5.96432E-03
 -1     25566 5.32845E+00 4.75841E+00 5.08739E+00 5.23103E+00 6.05767E-03 3.45032E-02
 -1     25567 9.62664E+00 9.26431E+00 9.41501E+00 5.40172E+00 7.56401E-03 1.64550E-02
 -1     25568 5.56738E+00 4.88428E+00 5.22954E+00 5.26435E+00-9.46068E-03 2.83086E-03
 -1     25569 9.21135E+00 3.12292E+00 6.16555E+00 6.35610E+00-3.83774E-03-1.49197E-02
 -1     25570-2.91620E+00 2.49320E+00-2.01132E-01 1.40736E+00-6.77255E-03-5.77829E-03
 -1     25571-3.90262E+00 1.57709E+00-1.15457E+00 1.57618E+00 7.14349E-03 3.16297E-03
 -1     25572-3.27753E+00 2.93149E+00-1.70524E-01 8.04431E-01 3.95836E-03-4.73671E-03
 -1     25573-1.68106E+01-1.73004E+00-9.26412E+00-5.43814E+00-6.17741E-03-3.62507E-03
 -1     25574-1.67181E+01-1.70913E+00-9.20625E+00-5.41298E+00-2.71597E-03-6.86663E-04
 -1     25575-1.78344E+01-1.90797E+00-9.88004E+00-5.88368E+00 1.28453E-02 5.69482E-03
 -1     25576 7.33855E+00 7.25835E+00 7.26515E+00 5.36479E+00 4.78421E-03-2.68979E-02
 -1     25577 2.82591E+00 1.24820E+01 7.73429E+00 5.51269E+00-1.30324E-01 3.18143E-01
 -1     25578-2.39599E+00 6.12905E+00 2.18622E+00 4.08933E+00-1.23416E-03 2.37013E-01
 -1     25579 5.28593E+00 1.11439E+01 8.43843E+00 2.84136E+00 3.07871E-01-5.47335E-02
 -1     25580-5.72755E+00 3.36508E+00-1.60337E+00 5.30798E+00-1.71355E-01-2.04009E-01
 -1     25581 4.69887E+00 4.62283E+00 4.64507E+00 5.35944E+00 7.39887E-03-6.26916E-03
 -1     25582 1.13123E+01 1.10658E+01 1.11856E+01 5.44247E+00-1.29667E-02 1.15883E-03
 -1     25583 1.24938E+01 1.07469E+01 1.15858E+01 1.12248E+01 8.14789E-03-1.22918E-03
 -1     25584 1.15400E+01 9.66409E+00 1.05948E+01 1.12735E+01 5.31044E-03-1.53297E-02
 -1     25585 1.33982E+01 1.11743E+01 1.22730E+01 1.20929E+01 1.14225E-02-1.87988E-02
 -1     25586 1.34865E+01 1.12592E+01 1.23849E+01 1.20452E+01-4.32250E-03-1.44852E-02
 -1     25587 1.30440E+01 1.08207E+01 1.19393E+01 1.19688E+01 1.33113E-02-4.22089E-03
 -1     25588 4.53419E+00 8.39348E+00 6.41164E+00 7.26315E+00 3.53640E-02 5.40433E-03
 -1     25589 7.24880E+00 8.94536E+00 8.02826E+00 8.52783E+00 1.45672E-02-1.62871E-02
 -1     25590 5.49183E+00 8.39965E+00 6.99541E+00 7.71377E+00 9.50412E-03 6.83986E-03
 -1     25591 3.71116E+00 7.92860E+00 5.79901E+00 6.64571E+00 1.80086E-03 2.34456E-02
 -1     25592 6.73558E+00 9.02408E+00 7.83728E+00 7.97137E+00-1.95595E-02 2.66898E-03
 -1     25593-7.67017E+00 2.58214E+00-2.59130E+00-1.74899E+00-3.07296E-02 3.18970E-02
 -1     25594-1.34649E+01-2.94330E+00-8.14383E+00-2.73795E+00-4.32392E-02 3.64657E-02
 -1     25595-1.32653E+01-2.20675E+00-7.73927E+00-2.85979E+00-6.84232E-02-2.54866E-02
 -1     25596-8.14213E+00-5.65395E-01-4.30301E+00 2.74155E-01 6.20759E-03 1.25803E-02
 -1     25597-7.84518E+00-5.59576E-01-4.23472E+00 2.04330E-01 6.92088E-04 8.05570E-03
 -1     25598 6.70612E+00 6.33032E+00 6.51726E+00 5.40387E+00 7.14770E-03 1.44641E-02
 -1     25599 8.26375E+00 7.79557E+00 8.04746E+00 5.39382E+00-8.52847E-03 1.00361E-02
 -1     25600 3.28996E-01 3.23885E+00 1.79174E+00 2.95150E+00 1.05604E-03 5.07957E-03
 -1     25601 6.02033E-01 2.77193E+00 1.69077E+00 3.56604E+00 4.07508E-03 1.02624E-03
 -1     25602 1.22639E+01 1.05421E+01 1.14001E+01 1.15717E+01 6.31532E-03-1.10981E-02
 -1     25603 1.15118E+01 1.00774E+01 1.08248E+01 1.11687E+01-6.41070E-03-1.51385E-02
 -1     25604 1.20261E+01 1.04107E+01 1.12188E+01 1.14314E+01-3.09701E-02-1.29306E-02
 -1     25605 1.01858E+01 9.60356E+00 9.86452E+00 1.01811E+01 1.25070E-04-4.98934E-03
 -1     25606 9.64097E+00 9.21709E+00 9.44684E+00 9.94273E+00 1.32021E-03-4.53370E-03
 -1     25607 9.42122E+00 9.15200E+00 9.33127E+00 9.79109E+00-1.54648E-02 6.93934E-03
 -1     25608 1.14548E+01 8.96845E+00 1.02923E+01 1.01843E+01-2.82445E-02 7.24004E-03
 -1     25609 4.15864E+01 4.63586E+01 4.30949E+01 3.56897E+00 6.51376E-02 1.25499E-01
 -1     25610 2.35118E+00 5.31703E+00 3.83062E+00 3.71619E+00-1.22985E-02 1.25474E-02
 -1     25611 1.07274E+00 3.62707E+00 2.34979E+00 3.87402E+00 9.06321E-04-2.47465E-03
 -1     25612 8.18392E+00 8.09247E+00 8.12541E+00 5.24752E+00 2.79265E-02 5.14304E-03
 -1     25613 1.03726E+01 6.95765E+00 8.67206E+00 9.71634E+00 1.09966E-02 3.17228E-02
 -1     25614 1.13919E+01 8.29920E+00 9.84535E+00 9.99538E+00 2.55729E-03 1.17286E-02
 -1     25615 1.10827E+01 7.45408E+00 9.27103E+00 9.27817E+00-1.83139E-02-4.53220E-03
 -1     25616 1.20948E+01 9.11854E+00 1.05907E+01 1.03775E+01 1.70627E-02 2.60952E-02
 -1     25617 1.03883E+01 7.19796E+00 8.80172E+00 9.93913E+00-1.27535E-02 1.22558E-02
 -1     25618-7.29214E-01 3.12822E+00 1.19676E+00 2.86088E+00 7.53470E-03 5.38255E-04
 -1     25619 6.44994E+00 6.72727E+00 6.58845E+00 6.51915E+00-2.67722E-03 2.98777E-06
 -1     25620 5.48599E+00 5.46100E+00 5.47252E+00 6.58608E+00 8.25483E-03-2.56110E-04
 -1     25621 6.33184E+00 6.37639E+00 6.34023E+00 7.16914E+00 8.02168E-03-5.06217E-03
 -1     25622 7.07771E+00 6.82399E+00 6.93964E+00 7.23194E+00 1.83446E-02-3.71363E-03
 -1     25623 1.87251E+00 3.19135E+00 2.53486E+00 3.97623E+00-2.30456E-03-3.47232E-03
 -1     25624 4.26783E+00 4.93048E+00 4.60069E+00 4.50709E+00 8.22106E-03-6.47505E-03
 -1     25625 2.60732E+00 3.57846E+00 3.09420E+00 4.05239E+00-1.98195E-03 4.45174E-03
 -1     25626 2.80397E+00 3.12808E+00 2.96670E+00 4.56373E+00-2.66011E-03 8.72659E-03
 -1     25627 3.14281E+00 4.65413E-01 1.80460E+00 1.59893E+00 1.52662E-02-3.36581E-03
 -1     25628 6.57674E-01-2.66970E+00-9.94984E-01 1.75067E+00 7.05539E-03 2.73531E-03
 -1     25629-3.83176E-01-2.91428E+00-1.64871E+00 2.08260E+00-6.13116E-03-2.34566E-05
 -1     25630 1.65823E+00-1.65821E+00 9.05870E-03 2.18660E+00-1.40426E-02 5.01323E-04
 -1     25631-1.15114E+01-4.22460E-01-5.98780E+00-1.43970E+00-1.08046E-03 2.64494E-02
 -1     25632-1.18633E+01-1.67016E+00-6.70420E+00-6.88294E-01-1.99722E-02-1.04048E-02
 -1     25633-1.26267E+01-1.06634E+00-6.84315E+00-1.18384E+00-2.42629E-04 9.38912E-03
 -1     25634-7.18440E+00-7.29159E-01-3.95661E+00 7.26028E-01-1.23237E-02 2.88883E-02
 -1     25635 9.43412E+00 8.83579E+00 9.11046E+00 1.00006E+01 4.63486E-03 1.21069E-02
 -1     25636 9.56637E+00 9.00860E+00 9.23668E+00 9.67611E+00-9.49876E-03 2.61728E-02
 -1     25637 9.98181E+00 9.44787E+00 9.73734E+00 9.56331E+00-4.05720E-02-5.28726E-02
 -1     25638 1.10984E+01 1.07229E+01 1.10090E+01 9.20735E+00-1.00913E-02-6.78531E-02
 -1     25639-8.80875E+00-5.18884E-01-4.64718E+00-3.78278E-01 2.11473E-02 1.21268E-02
 -1     25640-8.40932E+00-2.13648E-01-4.30985E+00-6.62402E-01-4.12108E-03-1.04938E-02
 -1     25641-1.02812E+01-9.82673E-01-5.63233E+00-1.23813E+00-7.04501E-03-1.41331E-02
 -1     25642 4.64882E+00 4.53105E+00 4.58364E+00 6.05282E+00 3.42508E-03 1.06145E-02
 -1     25643 6.81404E+00 6.15473E+00 6.48314E+00 6.73207E+00-9.30815E-03 2.17189E-03
 -1     25644 5.41462E+00 5.52897E+00 5.47834E+00 5.52474E+00-1.33542E-04-2.66032E-03
 -1     25645 5.21486E+00 4.74514E+00 4.98814E+00 6.18314E+00-1.21805E-02-6.96706E-03
 -1     25646 2.35266E+00-5.38293E-01 9.03647E-01 3.52410E+00 8.59672E-03-9.67568E-03
 -1     25647 5.47794E-01-1.27639E+00-3.59177E-01 3.29881E+00 3.58330E-03 4.46137E-03
 -1     25648 1.96987E+00-3.53306E-01 8.03086E-01 3.54946E+00 2.96093E-03-1.05746E-02
 -1     25649 8.46992E-01-4.21584E-01 2.13214E-01 3.32503E+00 5.58646E-03 1.76121E-03
 -1     25650 4.38510E+00 4.89246E+00 4.63811E+00 5.37276E+00 2.21544E-03-7.15211E-03
 -1     25651 1.32765E+01 1.11169E+01 1.22253E+01 1.22685E+01-4.15096E-03-7.32999E-03
 -1     25652 1.29446E+01 1.07227E+01 1.18366E+01 1.22255E+01-2.21084E-02-2.93359E-03
 -1     25653 9.94647E+00 5.52632E+00 7.76048E+00 6.98725E+00-2.04214E-02 9.28635E-04
 -1     25654 9.97971E+00 4.91235E+00 7.44835E+00 6.73080E+00 2.51706E-03 1.87797E-02
 -1     25655 6.86919E+00 2.73888E+00 4.87707E+00 2.11734E+00 4.67114E-02-1.63086E-02
 -1     25656 6.02301E+00 1.80740E+00 3.96221E+00 2.30167E+00 5.38993E-02-2.81709E-02
 -1     25657 3.15652E+00-1.95220E-01 1.47900E+00 3.78771E+00-6.55909E-04 4.97802E-03
 -1     25658-1.67569E+01-2.01358E+00-9.24563E+00-3.56641E-01-5.24185E-02 2.74645E-02
 -1     25659-1.80015E+01-1.67256E+00-9.62467E+00-6.22683E-01 8.06102E-02-8.66192E-02
 -1     25660-1.84323E+01-5.54624E+00-1.19443E+01 3.70814E-01-3.78413E-02 2.68498E-02
 -1     25661 4.02998E+00-2.69837E-01 1.87955E+00 3.59600E+00 1.59713E-04-7.21674E-04
 -1     25662 2.86158E+00-5.25782E-01 1.16403E+00 3.41296E+00 5.67374E-04-9.50419E-04
 -1     25663-5.65235E+00 3.98087E-01-2.62745E+00 5.14398E-01 3.01665E-03 3.32531E-03
 -1     25664-7.24822E+00-1.05533E-01-3.67350E+00-5.68119E-02-6.32126E-03 8.04190E-03
 -1     25665-2.68051E+00 5.00386E+00 1.19777E+00 5.92899E+00-5.23445E-02 3.52064E-02
 -1     25666-2.62412E-01 7.19637E+00 3.46287E+00 5.38708E+00-1.00565E-02-1.00505E-02
 -1     25667-2.76139E+00 4.85037E+00 1.05935E+00 5.31511E+00 5.52309E-02-1.51297E-02
 -1     25668-2.28483E+00 5.24615E+00 1.48551E+00 4.76270E+00 4.26552E-02-6.81364E-02
 -1     25669-7.50847E+00 1.21104E+00-3.00219E+00-2.30338E+00-8.64418E-03-6.68886E-02
 -1     25670-7.46336E+00 1.43477E+00-2.97775E+00-1.69678E+00 8.47431E-03-1.62908E-02
 -1     25671-1.00039E+01-1.23969E+00-5.60173E+00-2.11949E+00 3.76917E-02-1.93873E-02
 -1     25672-6.47159E+00 1.71323E+00-2.38806E+00-1.01733E+00 2.17008E-02-8.32527E-02
 -1     25673-8.64593E+00-2.47045E-01-4.46696E+00-5.76714E-01-1.71052E-02-9.09608E-02
 -1     25674-6.65801E+00 1.62346E+00-2.51500E+00-4.47375E-01 1.47065E-02-3.53871E-02
 -1     25675-1.53064E+01-1.00221E+01-1.15664E+01-9.45785E-02-1.91120E-01 6.28774E-02
 -1     25676-5.48051E+00 1.90300E+00-4.93720E-01 2.28421E+00 5.00744E-01-3.11598E-01
 -1     25677-2.13463E+00 5.67618E+00 1.97744E+00 1.92166E+00-4.07626E-01-7.26571E-01
 -1     25678-2.72338E+00 2.35134E+00-2.04920E-01 1.55459E+00 3.54774E-03 3.58900E-03
 -1     25679-3.75569E+00 2.01577E+00-8.81336E-01 8.53850E-01 1.17141E-02 1.88542E-02
 -1     25680-5.12630E+00 1.09582E+00-1.99507E+00 6.50547E-01-3.78192E-04 8.54752E-04
 -1     25681-3.33003E+00 2.27906E+00-5.31772E-01 1.24975E+00 4.30255E-03-1.10779E-02
 -1     25682-3.21645E+00 1.90156E+00-6.53316E-01 1.42972E+00 1.35766E-02 3.15163E-03
 -1     25683-4.01507E+00 2.27175E+00-8.79294E-01 5.30995E-01 1.13189E-02 1.83217E-02
 -1     25684-1.76566E+01-1.87747E+00-9.76338E+00-5.74218E+00-7.05398E-04-1.21795E-02
 -1     25685 3.23510E+00-5.93191E-01 1.31477E+00 3.70299E+00-4.35712E-04 1.58001E-02
 -1     25686 1.80204E+00-7.16951E-01 5.45850E-01 2.73660E+00-6.72097E-03-2.37833E-04
 -1     25687 1.24868E+01 1.03102E+01 1.13687E+01 1.22418E+01 2.50371E-04 1.23333E-02
 -1     25688 1.23990E+01 1.03370E+01 1.13499E+01 1.17197E+01 1.15442E-02 5.84191E-03
 -1     25689 1.33693E+01 1.12366E+01 1.22699E+01 1.22888E+01-7.95161E-03-1.34642E-03
 -1     25690 1.22517E+01 1.02160E+01 1.12258E+01 1.17459E+01 2.60832E-03-6.85070E-03
 -1     25691-1.81084E+01-1.99896E+00-1.00468E+01-5.98440E+00-1.42113E-02-1.06632E-03
 -1     25692-1.78034E+01-1.85356E+00-9.82687E+00-5.89176E+00-8.46010E-04 2.21514E-03
 -1     25693-2.99286E+00 1.70815E+00-6.39719E-01 1.24609E+00-1.10464E-02 6.57939E-03
 -1     25694-4.05976E+00 1.43799E+00-1.31339E+00 7.18012E-01-6.91667E-03 5.11014E-03
 -1     25695-4.36682E+00 1.12696E+00-1.62097E+00 7.57873E-01 7.66799E-04 1.13575E-02
 -1     25696-5.22858E+00 4.17161E-01-2.40462E+00 5.77684E-01 2.63391E-03-5.17402E-03
 -1     25697-1.14567E+01-3.87177E-01-5.92477E+00-3.05466E+00-4.06427E-03 2.28708E-03
 -1     25698-1.19231E+01-6.89147E-01-6.30485E+00-3.09078E+00-4.99994E-03 6.81646E-03
 -1     25699-1.30702E+01-8.24618E-01-6.95452E+00-3.78961E+00-8.39675E-03 9.52391E-03
 -1     25700-1.31123E+01-9.88875E-01-7.05944E+00-3.75706E+00-1.16526E-04 3.03414E-03
 -1     25701-1.32948E+01-1.01894E+00-7.14554E+00-3.78967E+00 1.16619E-02 4.54564E-03
 -1     25702-7.11425E+00 2.16371E+00-2.47902E+00-1.83262E-01-1.51244E-02-5.16033E-03
 -1     25703-7.21053E+00 1.42894E+00-2.93311E+00 4.33326E-01 2.09818E-02 1.21445E-03
 -1     25704-6.79218E+00 1.79111E+00-2.54754E+00 7.37367E-01 1.07246E-02 1.73027E-02
 -1     25705-1.92264E+01-2.24273E+00-1.07340E+01-6.35234E+00-3.80450E-03 3.13513E-02
 -1     25706-1.74343E+01-1.62027E+00-9.56512E+00-5.54437E+00 1.46169E-02-7.14114E-04
 -1     25707-1.83331E+01-2.85987E+00-1.05733E+01-5.29135E+00-1.29766E-02 1.00165E-03
 -1     25708-1.77216E+01-2.13499E+00-9.91295E+00-5.59272E+00-3.66167E-03 2.59271E-02
 -1     25709-1.78944E+01-1.94946E+00-9.93408E+00-5.81054E+00-5.50567E-03 5.45254E-03
 -1     25710-1.55822E+01-1.20728E+00-8.39576E+00-4.73662E+00-6.04425E-03-4.68187E-03
 -1     25711-1.75283E+01-1.94012E+00-9.73649E+00-5.49931E+00-2.66130E-03 2.26798E-03
 -1     25712-1.55948E+01-1.61873E+00-8.60254E+00-4.39165E+00 4.99801E-03 9.25713E-03
 -1     25713-1.51925E+01-1.08107E+00-8.14248E+00-4.70442E+00 5.92687E-03 4.32407E-03
 -1     25714-1.72769E+01-2.20071E+00-9.73298E+00-5.20973E+00 2.21785E-03 1.10816E-02
 -1     25715-1.74950E+01-2.04343E+00-9.77050E+00-5.54180E+00-1.07155E-03-1.72028E-02
 -1     25716-1.87647E+01-1.95882E+00-1.03147E+01-6.31002E+00-1.47629E-02-1.80512E-03
 -1     25717 6.84591E+00 1.42473E+00 4.13743E+00 5.34075E+00-5.64773E-03 1.93147E-04
 -1     25718 6.21743E+00 8.06923E-01 3.49270E+00 5.00907E+00-1.10738E-02-5.47571E-03
 -1     25719 6.83521E+00 1.05116E+00 3.94349E+00 5.25856E+00-2.95720E-03-4.62210E-03
 -1     25720 4.59981E+00-6.97242E-01 1.94975E+00 4.09511E+00 2.66503E-03 6.97008E-03
 -1     25721 6.30769E+00 6.74390E-01 3.49044E+00 3.95428E+00 6.47974E-03 7.16652E-04
 -1     25722 6.36208E+00 7.54791E-01 3.55151E+00 4.39861E+00 9.01230E-03 9.80557E-04
 -1     25723 5.22743E+00-6.81806E-01 2.26479E+00 4.28949E+00 1.48398E-02 2.26571E-03
 -1     25724 1.25929E+01 1.07909E+01 1.17251E+01 1.16705E+01-2.73864E-02 1.75481E-02
 -1     25725 1.27022E+01 1.09353E+01 1.18420E+01 1.17226E+01-1.87077E-02-7.49732E-03
 -1     25726 1.18621E+01 1.03215E+01 1.10988E+01 1.12666E+01-1.04236E-03 8.52155E-03
 -1     25727 4.38983E+00 4.51076E-01 2.43611E+00 4.54122E+00 2.54223E-03 7.23833E-03
 -1     25728 3.71019E+00-5.20714E-02 1.82218E+00 4.08043E+00 2.75562E-03-6.87741E-04
 -1     25729 5.33636E+00 6.74590E-01 3.00868E+00 4.71828E+00-2.71315E-03 1.04310E-02
 -1     25730 3.26071E+00-2.32330E-02 1.62224E+00 4.13102E+00 3.85187E-03-8.04135E-03
 -1     25731 9.68227E+00 4.89811E+00 7.27977E+00 7.93682E+00 1.19928E-02-7.90962E-03
 -1     25732 9.96012E+00 5.50439E+00 7.72723E+00 8.39338E+00-3.97149E-03 7.16403E-04
 -1     25733 1.06897E+01 6.27337E+00 8.49981E+00 8.41876E+00 1.98306E-02 8.49677E-03
 -1     25734 1.33445E+01 1.11822E+01 1.22803E+01 1.22255E+01-1.04786E-02-4.64796E-03
 -1     25735 1.29785E+01 1.07800E+01 1.18946E+01 1.17616E+01-2.61606E-03 1.27817E-02
 -1     25736 1.24293E+01 1.03304E+01 1.13926E+01 1.14061E+01 6.07551E-03 1.34347E-03
 -1     25737 1.36767E+01 1.15675E+01 1.26564E+01 1.19347E+01-1.71154E-02 1.02191E-02
 -1     25738 1.37032E+01 1.15235E+01 1.26300E+01 1.23222E+01-1.95601E-02 3.43112E-03
 -1     25739 1.20713E+01 9.90544E+00 1.10114E+01 1.14990E+01-4.64845E-03 6.23709E-03
 -1     25740-1.55697E+01-1.43566E+00-8.48721E+00-4.88539E+00 8.57265E-03 1.22206E-02
 -1     25741-1.64251E+01-1.52367E+00-8.97130E+00-5.27636E+00 6.88952E-03 7.42689E-03
 -1     25742-1.50490E+01-1.32422E+00-8.18552E+00-4.64383E+00 4.57357E-03-2.97436E-03
 -1     25743-1.43776E+01-1.29159E+00-7.83188E+00-4.37632E+00 1.93849E-04-2.58748E-03
 -1     25744-1.60071E+01-1.71957E+00-8.84951E+00-5.01839E+00 9.22658E-03 4.73384E-03
 -1     25745-1.53239E+01-1.45873E+00-8.39429E+00-4.77081E+00-6.21768E-03 5.04386E-04
 -1     25746-1.57914E+01-3.53748E+00-9.65545E+00-3.87531E+00 2.24337E-02-4.52541E-02
 -1     25747-1.10569E+01 1.13628E-01-5.44401E+00-2.55027E+00-1.04372E-02 1.76584E-02
 -1     25748-1.02556E+01 1.34512E+00-4.52135E+00-2.82295E+00 8.49379E-06-3.35404E-02
 -1     25749-1.24957E+01-6.32142E-02-6.29489E+00-3.78931E+00-9.90167E-03-6.13542E-02
 -1     25750-1.34069E+01-1.45471E+00-7.40084E+00-3.46468E+00-3.80923E-03-7.04646E-04
 -1     25751-1.10692E+01 1.50881E-01-5.46465E+00-2.50883E+00-3.54572E-03-2.18087E-02
 -1     25752 8.00703E+00 4.63807E+00 6.32465E+00 5.11574E+00-7.29272E-03 6.82983E-03
 -1     25753 8.23669E+00 4.97280E+00 6.60546E+00 4.88786E+00-8.85422E-05 4.25443E-03
 -1     25754 1.05058E+01 6.63127E+00 8.56516E+00 4.94978E+00-8.45217E-03 3.26372E-02
 -1     25755-1.88831E+01-1.92191E+00-1.04015E+01-6.13551E+00-1.31958E-02-4.26458E-03
 -1     25756-1.92273E+01-2.18249E+00-1.05609E+01-6.22484E+00 9.77636E-03 1.23443E-02
 -1     25757-1.86368E+01-1.87252E+00-1.01948E+01-5.77175E+00-2.71102E-02-3.27188E-02
 -1     25758-1.92282E+01-1.73029E+00-1.04717E+01-6.31587E+00-2.04645E-02 1.19284E-02
 -1     25759-1.98369E+01-2.24698E+00-1.10203E+01-6.39341E+00-1.02452E-02 2.17770E-02
 -1     25760 1.07740E+01 1.01605E+01 1.04527E+01 1.01400E+01 3.27844E-02 5.23309E-02
 -1     25761 9.50610E+00 8.63942E+00 9.00093E+00 9.77018E+00 9.11243E-02-3.10746E-02
 -1     25762 9.08079E+00 8.47587E+00 8.83847E+00 9.88453E+00-1.38153E-02-1.32122E-02
 -1     25763-1.80506E+01-2.51072E+00-1.02756E+01-5.13856E+00-3.43654E-02 1.59964E-02
 -1     25764-1.82362E+01-2.35041E+00-1.02116E+01-5.20317E+00 1.60071E-02 2.94768E-02
 -1     25765-1.72803E+01-2.00773E+00-9.66654E+00-5.04015E+00 6.54948E-03 1.38528E-02
 -1     25766-1.93269E+01-2.79453E+00-1.10257E+01-5.75982E+00 2.98776E-02-1.68037E-02
 -1     25767-1.74840E+01-1.78889E+00-9.59034E+00-5.08893E+00 3.21953E-02-9.27027E-03
 -1     25768 8.24079E+00 2.63343E+00 5.46902E+00 4.77625E+00 2.33231E-03-3.12043E-03
 -1     25769-9.01980E+00-6.66183E-01-4.89243E+00-2.14872E-01 3.82051E-03 1.60536E-02
 -1     25770-7.19749E+00-2.34017E-02-3.62575E+00 4.77321E-01-1.21110E-02 1.53744E-02
 -1     25771-9.14308E+00-6.65485E-01-4.93945E+00-4.90677E-02 6.78592E-03 2.67108E-02
 -1     25772-1.86995E+01-1.95652E+00-1.03123E+01-6.12302E+00-1.22597E-02 1.82213E-02
 -1     25773-1.74712E+01-1.67881E+00-9.57389E+00-5.52014E+00 4.11483E-03-5.77835E-03
 -1     25774-1.76104E+01-2.33807E+00-9.95040E+00-5.01767E+00 5.94837E-04 7.34072E-03
 -1     25775-1.56824E+01-1.43627E+00-8.55737E+00-4.40459E+00 2.27881E-03-8.80803E-03
 -1     25776-8.85878E+00-1.93602E+00-5.49789E+00 7.36392E-01 9.77328E-03 4.02017E-04
 -1     25777-1.70975E+01-6.47981E-01-8.84169E+00-5.88638E+00 1.50328E-02-2.13656E-02
 -1     25778-1.72856E+01-6.44646E-01-8.95063E+00-6.04449E+00-8.16494E-03 1.44407E-03
 -1     25779-9.33446E+00-2.58479E+00-5.70918E+00-1.58178E+00 1.03314E-01 7.35806E-02
 -1     25780-9.54873E+00-2.98346E+00-6.26604E+00-1.90393E+00 2.56820E-01-1.11339E-01
 -1     25781-5.66129E+00-7.19927E-01-3.36679E+00-8.48407E-01 3.94168E-02 3.70977E-01
 -1     25782-4.58124E+00 2.64468E-02-2.27194E+00 1.33236E+00 1.17941E-02-1.24087E-02
 -1     25783-3.05911E+00 4.54025E-01-1.29618E+00 1.93129E+00-9.02665E-03 4.38199E-03
 -1     25784-3.28212E+00 3.70989E-01-1.48576E+00 1.77986E+00 1.48715E-02 6.85880E-03
 -1     25785 9.81964E+00 6.71522E+00 8.27526E+00 8.70671E+00 9.58096E-03-3.51884E-03
 -1     25786 1.00412E+01 7.03212E+00 8.54550E+00 8.13913E+00 1.62477E-02-2.69889E-02
 -1     25787 9.23742E+00 5.91272E+00 7.57305E+00 8.13039E+00 9.06287E-05-6.05542E-03
 -1     25788 9.56472E+00 8.41520E+00 8.96448E+00 9.57638E+00-1.10720E-02-5.20935E-03
 -1     25789 9.09317E+00 8.14251E+00 8.62130E+00 8.84401E+00-1.05431E-02 1.00308E-02
 -1     25790 1.30319E+01 1.07615E+01 1.18677E+01 1.13649E+01-4.57077E-04-1.58381E-03
 -1     25791 1.20050E+01 9.64915E+00 1.08137E+01 1.12314E+01 8.92579E-03-1.05773E-02
 -1     25792 1.30876E+01 1.08500E+01 1.19534E+01 1.17017E+01 1.04400E-03 3.70293E-03
 -1     25793 1.32902E+01 1.11021E+01 1.21898E+01 1.21742E+01-2.27349E-03-6.62198E-03
 -1     25794-1.73924E+01-1.15621E+00-9.28528E+00-5.13244E+00-2.05598E-02 3.17711E-03
 -1     25795-1.76849E+01-1.95260E+00-9.83566E+00-4.99744E+00 2.08481E-02 4.91422E-03
 -1     25796-1.92857E+01-2.23209E+00-1.06581E+01-5.83464E+00-2.93505E-02 2.32388E-02
 -1     25797-1.69481E+01-4.08408E-01-8.64401E+00-5.68173E+00-2.01424E-02-2.70109E-03
 -1     25798 1.01128E+01 5.81840E+00 7.97754E+00 7.97581E+00 1.21713E-02 1.43985E-03
 -1     25799 9.22352E+00 5.29238E+00 7.25767E+00 8.06265E+00-6.83752E-03 2.31969E-02
 -1     25800 1.06508E+01 6.99515E+00 8.83583E+00 8.82955E+00 9.52124E-03-1.34432E-02
 -1     25801 1.10866E+01 7.11282E+00 9.09965E+00 8.68199E+00 1.44135E-02 7.56445E-03
 -1     25802 7.07199E+00 6.75957E+00 6.93327E+00 6.01186E+00-2.43564E-03 2.19579E-02
 -1     25803 6.20666E+00 5.99565E+00 6.11207E+00 5.80160E+00-5.66639E-03-8.12038E-05
 -1     25804 6.39956E+00 6.14495E+00 6.28923E+00 6.00849E+00-1.55123E-02 7.47121E-03
 -1     25805 9.61048E+00 4.32317E+00 6.96398E+00 7.33134E+00 3.84909E-03-3.77065E-03
 -1     25806 1.00308E+01 4.33594E+00 7.18226E+00 7.16034E+00-1.07230E-02-1.68462E-04
 -1     25807 9.82170E+00 4.52303E+00 7.17118E+00 7.11643E+00 1.07717E-02 1.91055E-03
 -1     25808 1.04173E+01 4.63145E+00 7.53104E+00 6.95767E+00 1.15498E-02-8.48616E-03
 -1     25809 5.56441E+00 5.41180E+00 5.52360E+00 5.58016E+00-2.21622E-02-5.17651E-03
 -1     25810 3.92874E+00 3.74498E+00 3.85314E+00 5.53401E+00-2.63982E-03-1.17978E-02
 -1     25811 3.69567E+00 5.78166E+00 4.53343E+00 6.86652E+00-2.61426E-02 2.49122E-02
 -1     25812 5.92153E+00 7.77481E+00 7.09661E+00 7.03677E+00-9.75322E-02 3.24765E-02
 -1     25813 5.16144E+00 8.65019E+00 6.71733E+00 7.02434E+00-8.20359E-02 1.27092E-01
 -1     25814 6.09652E+00 6.30738E+00 6.06472E+00 7.51208E+00 3.34081E-02 4.27263E-02
 -1     25815 6.11919E+00 6.04287E+00 6.21898E+00 7.68720E+00-3.29855E-02-1.41873E-02
 -1     25816 1.31941E+00 3.26699E-01 8.22396E-01 3.87984E+00-8.40387E-03 9.88494E-03
 -1     25817 2.76895E+00 1.25735E+00 2.00326E+00 4.21292E+00-3.52252E-03-2.64075E-04
 -1     25818 5.64443E+00 5.50673E+00 5.56290E+00 5.65713E+00 1.21132E-02-1.91246E-03
 -1     25819 5.92495E+00 5.75906E+00 5.84436E+00 5.70518E+00-5.64831E-03-1.91631E-03
 -1     25820 6.93849E+00 6.83571E+00 6.88510E+00 5.64654E+00-1.14726E-02 2.17451E-03
 -1     25821-1.86064E+01-1.73977E+00-1.01246E+01-6.16648E+00 7.48748E-04-3.27824E-02
 -1     25822-1.86909E+01-1.64260E+00-1.01243E+01-6.46645E+00 1.13438E-02 2.30493E-02
 -1     25823-1.88476E+01-1.82909E+00-1.02781E+01-6.29658E+00-5.78877E-02-8.52456E-03
 -1     25824-2.59542E+00 3.03569E+00 2.20526E-01 1.94392E+00-1.37872E-03 9.71389E-03
 -1     25825 6.56380E+00 4.90550E+00 5.78271E+00 6.15935E+00 1.53459E-03 4.96983E-02
 -1     25826 7.78094E+00 6.15158E+00 6.90532E+00 6.26341E+00-3.87084E-03-3.73256E-03
 -1     25827 6.34870E+00 4.60831E+00 5.45632E+00 5.99662E+00 3.37316E-03-3.16775E-03
 -1     25828 6.81606E+00 5.04398E+00 5.96379E+00 5.95111E+00 2.71220E-03 3.30965E-02
 -1     25829 6.46677E+00 4.25348E+00 5.39856E+00 6.05795E+00-1.41471E-02 2.83904E-02
 -1     25830-1.56916E+00 1.36736E+00-1.07418E-01 2.17482E+00-1.00763E-02 1.65936E-02
 -1     25831-1.74553E+00 8.29163E-01-4.66997E-01 2.29124E+00-7.25169E-03 9.52581E-03
 -1     25832-1.82467E+00 1.99456E-01-8.09666E-01 2.65288E+00 4.84684E-03 1.52417E-02
 -1     25833 7.62216E+00 4.49759E+00 6.06520E+00 5.22287E+00-1.08322E-02 2.60522E-02
 -1     25834 7.65477E+00 5.11625E+00 6.38945E+00 5.16811E+00 1.48518E-02 5.43383E-03
 -1     25835 7.80459E+00 5.00488E+00 6.40743E+00 5.07464E+00 2.43769E-02 1.82631E-03
 -1     25836 6.36927E+00 4.72209E+00 5.56041E+00 5.42419E+00-9.14424E-03 4.42679E-03
 -1     25837 6.22847E+00 4.06671E+00 5.13540E+00 5.46033E+00-2.85590E-02 9.27604E-03
 -1     25838-9.87139E+00-1.18501E+00-5.53460E+00-1.08472E-03-1.23712E-02-3.83650E-02
 -1     25839-9.48845E+00-6.77105E-01-5.05054E+00-1.94813E-01-2.25894E-03-2.68562E-02
 -1     25840-3.65303E+00-5.01505E-01-2.05305E+00 2.12930E+00-2.12378E-02 5.83985E-03
 -1     25841-2.61859E+00-4.51165E-01-1.54065E+00 2.44700E+00 1.24800E-02 1.04736E-02
 -1     25842 6.30358E+00 4.00886E+00 5.16927E+00 5.69417E+00-2.56527E-03 2.86968E-02
 -1     25843 7.45520E+00 5.51341E+00 6.47961E+00 5.58561E+00 6.47863E-03-1.14553E-02
 -1     25844 7.33797E+00 4.48941E+00 5.91413E+00 5.63928E+00 2.10282E-03 1.70714E-03
 -1     25845 1.23236E+01 9.88005E+00 1.11365E+01 1.12292E+01 2.24107E-02 1.11094E-03
 -1     25846 1.23347E+01 9.88478E+00 1.11552E+01 1.10770E+01-4.30006E-03 1.96044E-02
 -1     25847 1.23734E+01 9.84459E+00 1.11180E+01 1.11500E+01 5.08022E-03 3.45630E-02
 -1     25848 9.52187E-01-6.67920E-01 1.10972E-01 4.47282E-01 3.15124E-02-8.96856E-03
 -1     25849 5.33236E+00 3.22934E+00 4.33067E+00 6.24731E-01 4.89330E-02-4.03507E-02
 -1     25850 1.44307E+00-6.10923E-01 3.58526E-01 5.20028E-01 9.62555E-02-3.10617E-02
 -1     25851 4.97482E+00 1.95278E+00 3.35943E+00 1.17902E+00 3.55681E-02 4.93987E-02
 -1     25852 4.29291E+00 1.31103E+00 2.77674E+00 1.34303E+00-1.18465E-02-9.21523E-03
 -1     25853 3.76207E+00 3.65222E-01 2.03727E+00 1.39564E+00 4.68137E-02 1.24879E-03
 -1     25854 5.77702E-01-2.59085E-01 1.99124E-01-8.58004E-01 9.55503E-03 5.59637E-02
 -1     25855-1.22719E+01-1.36580E+01-1.30118E+01-1.03088E-02 7.10834E-02 3.95505E-03
 -1     25856-5.75796E+00-6.21091E+00-6.03583E+00 1.94420E-02 6.04066E-02-4.39991E-03
 -1     25857-1.08059E+01-4.35463E+00-7.46349E+00-1.09212E+00 3.00141E-01 2.23754E-02
 -1     25858-6.49345E+00 2.64922E-01-2.99963E+00-2.12235E+00 1.54825E-01-6.36496E-02
 -1     25859-4.20532E+00 1.91801E+00-9.45836E-01-1.36862E+00 5.68595E-02 8.01192E-02
 -1     25860-1.05724E+01-4.21565E+00-7.44156E+00-1.31596E+00-3.44229E-02-5.68029E-02
 -1     25861-4.74133E+00 2.25147E+00-1.38318E+00-2.13220E+00-7.75717E-03-2.91618E-02
 -1     25862-1.64809E+00 5.15611E+00 1.77331E+00-2.26701E+00-9.01197E-03-2.34520E-02
 -1     25863 9.80090E+00 7.68094E+00 8.69581E+00 7.63084E+00-1.60262E-03 2.52967E-02
 -1     25864 9.13844E+00 6.99178E+00 8.01043E+00 7.89929E+00 1.22286E-02 5.21117E-03
 -1     25865 8.40578E+00 6.24709E+00 7.34718E+00 7.50898E+00 3.03499E-03 3.07374E-02
 -1     25866 7.31362E+00 4.68801E+00 6.00350E+00 5.31689E+00 2.54933E-03-1.42696E-02
 -1     25867 5.87042E+00 3.93653E+00 4.91546E+00 5.28487E+00 9.54115E-03-4.58983E-03
 -1     25868 6.72341E+00 4.69787E+00 5.70489E+00 5.29443E+00 5.54901E-03 1.84995E-02
 -1     25869 7.79818E+00 5.97702E+00 6.87967E+00 5.21921E+00-2.01436E-03 4.75146E-04
 -1     25870 1.34426E+01 1.14096E+01 1.24338E+01 1.20010E+01-2.70396E-03-5.11201E-03
 -1     25871 1.03438E+01 9.00945E+00 9.66371E+00 1.05330E+01 4.29402E-03-1.59722E-02
 -1     25872 1.24144E+01 1.04515E+01 1.14416E+01 1.19708E+01-7.91241E-03 8.47958E-03
 -1     25873 1.12447E+01 9.68936E+00 1.04455E+01 1.10983E+01 3.90268E-03-5.49738E-03
 -1     25874 1.01739E+01 5.49987E+00 7.82027E+00 8.30292E+00-3.69651E-03-3.21968E-04
 -1     25875 1.08507E+01 6.41408E+00 8.64542E+00 8.66662E+00 1.44746E-02-3.32804E-03
 -1     25876-1.35863E+00-1.78536E+00-1.74148E+00 1.43893E-01-4.85728E-02-1.28890E-01
 -1     25877 3.73509E+00 2.51502E+00 3.08188E+00 1.66957E-01-1.54924E-04-5.70273E-02
 -1     25878 2.19902E+00 1.51154E+00 1.81657E+00-8.38318E-01 1.10556E-02-4.05379E-03
 -1     25879 1.11422E+01 8.66369E+00 9.88076E+00 1.00528E+01 4.47506E-03-4.69021E-03
 -1     25880 1.31119E+01 1.00354E+01 1.15908E+01 9.51597E+00-4.48997E-03 3.08731E-03
 -1     25881 1.04532E+01 8.03636E+00 9.23182E+00 9.63048E+00-7.76243E-03-1.04074E-02
 -1     25882 1.06477E+01 8.23347E+00 9.41074E+00 9.80662E+00-2.81790E-02-1.00064E-02
 -1     25883 7.92560E+00 4.44877E+00 6.19050E+00 5.63602E+00 1.42673E-02 2.64735E-02
 -1     25884 7.59864E+00 4.46610E+00 6.04859E+00 5.80080E+00 1.46936E-02-8.89813E-03
 -1     25885 2.34918E+00 3.45962E+00 2.90550E+00 4.31776E+00-5.11274E-03-1.14842E-03
 -1     25886 2.95382E+00 3.75519E+00 3.36037E+00 4.87743E+00 2.71822E-03-1.20295E-03
 -1     25887 3.41634E+00 3.85822E+00 3.63608E+00 4.95703E+00 7.53266E-03 1.25756E-02
 -1     25888-5.89892E+00-5.98769E+00-5.99596E+00-1.81846E+00-4.22327E-02-4.75271E-02
 -1     25889-5.63793E+00-5.65647E+00-5.64691E+00-2.02407E+00 6.58458E-03-1.87144E-02
 -1     25890-1.53590E+01-1.53550E+01-1.55228E+01-1.66301E+00-5.56846E-02-4.28074E-02
 -1     25891 6.53401E+00 6.53287E+00 6.53979E+00-1.81751E+00 1.22189E-02 1.82884E-02
 -1     25892 2.56307E+00 2.68008E+00 2.68364E+00-2.00987E+00 8.42815E-02 6.10981E-02
 -1     25893 8.99452E+00 5.04149E+00 7.00946E+00 6.36291E+00-7.24119E-03-2.63775E-02
 -1     25894 8.30454E+00 5.23942E+00 6.76920E+00 6.40337E+00 5.42366E-03-2.28630E-02
 -1     25895 8.25422E+00 4.50829E+00 6.38880E+00 6.17972E+00 4.03687E-02-8.07179E-03
 -1     25896-6.44251E+00 8.95658E-01-2.77288E+00-5.61905E-01 2.58595E-03-6.72115E-03
 -1     25897-8.35528E+00-5.45358E-02-4.20344E+00-1.23002E+00 3.19179E-05-3.81078E-04
 -1     25898-7.49486E+00 6.81831E-01-3.39826E+00-1.13958E+00 1.02145E-02 3.71441E-03
 -1     25899-1.19836E+01-1.21393E+01-1.20838E+01-1.89554E+00-3.38989E-03-2.48433E-02
 -1     25900-1.57557E-01-2.57113E-01-2.04148E-01 3.00504E+00 6.59338E-04 2.09950E-02
 -1     25901 5.00928E+00-7.18858E-01 2.14933E+00 3.71760E+00-2.72215E-03 9.32095E-05
 -1     25902 6.09844E+00 2.16537E-01 3.15677E+00 3.53071E+00-1.48906E-02-9.08826E-03
 -1     25903 5.99056E+00-3.62187E-01 2.80175E+00 3.95287E+00 5.72397E-03-1.70764E-03
 -1     25904-5.41284E+00 1.50450E+00-1.95250E+00 8.17138E-01-5.19360E-03 5.88764E-03
 -1     25905-5.21134E+00 2.44782E+00-1.38399E+00 3.75463E-02 3.41378E-03-2.35006E-05
 -1     25906-1.51358E+01-1.28638E+00-8.21239E+00-4.74999E+00 1.38406E-02 6.86148E-03
 -1     25907-1.43991E+01-1.61576E+00-7.99874E+00-4.06917E+00 7.34330E-03-3.74840E-03
 -1     25908-7.25395E+00-7.32144E+00-7.06373E+00 2.15472E-01-3.24618E-02-6.96103E-02
 -1     25909-5.38885E+00-4.07414E+00-4.69971E+00 1.08573E-01 2.32311E-02-2.92938E-02
 -1     25910-5.61037E+00-5.78234E+00-5.77216E+00-6.57171E-01 3.33307E-02 3.22179E-02
 -1     25911 1.33762E+01 1.11802E+01 1.22794E+01 1.19155E+01-1.31984E-02-5.65338E-03
 -1     25912 1.27524E+01 1.03921E+01 1.15727E+01 1.13657E+01-6.14429E-03-1.35499E-02
 -1     25913 1.31230E+01 1.08392E+01 1.19889E+01 1.17067E+01-1.37970E-02-1.44208E-02
 -1     25914 1.24879E+01 1.02245E+01 1.13419E+01 1.17602E+01-7.48544E-04-1.59462E-05
 -1     25915-6.96584E+00 4.24267E-01-3.28544E+00 1.74530E+00 1.04096E-03 7.71144E-02
 -1     25916-1.95239E+01-2.25236E+00-1.09084E+01-6.39881E+00-2.71427E-02-1.15256E-02
 -1     25917-1.96653E+01-2.41394E+00-1.10586E+01-6.38449E+00-2.42698E-02-2.63354E-02
 -1     25918-1.81999E+01-1.67266E+00-9.91273E+00-5.91534E+00-3.55688E-03 8.39857E-03
 -1     25919-1.89411E+01-2.03768E+00-1.04524E+01-6.10634E+00 1.34810E-02 1.13021E-02
 -1     25920 7.96809E+00 3.04667E+00 5.51012E+00 6.60646E+00 6.01296E-03 7.60774E-03
 -1     25921 7.94754E+00 2.59627E+00 5.26732E+00 6.55692E+00-7.66178E-03 3.63419E-03
 -1     25922 8.52076E+00 3.41723E+00 5.95955E+00 6.18307E+00 1.33770E-03 1.56015E-03
 -1     25923 7.41343E+00 2.76193E+00 5.08719E+00 6.21685E+00 5.90101E-03 1.09537E-03
 -1     25924-7.80858E+01-7.35998E+01-7.48669E+01 4.75301E+00 1.80116E-02 1.10299E-02
 -1     25925-8.12435E+01-5.90050E+01-6.96304E+01 5.89431E+00-2.32064E-01 6.33420E-01
 -1     25926-9.92574E+01-9.49938E+01-9.63417E+01 4.49858E+00 4.61334E-01 2.21001E-01
 -1     25927 1.05347E+00 5.22796E+00 3.14005E+00 4.42441E+00 1.60057E-03 4.09025E-03
 -1     25928 2.16200E+00 5.56313E+00 3.86710E+00 5.15132E+00 5.93309E-03 1.82604E-02
 -1     25929 1.74904E+00 5.53328E+00 3.63671E+00 4.46369E+00-4.55006E-03 3.53553E-05
 -1     25930-1.61754E+01-1.51281E+01-1.57228E+01-1.00915E+00-1.55765E-02-2.96743E-02
 -1     25931-1.89760E+00-1.64930E+00-1.66855E+00-9.17520E-01 5.48981E-02-4.03855E-02
 -1     25932-1.86352E+00-1.23312E+00-1.62513E+00-9.82525E-01-9.99564E-02-1.29632E-01
 -1     25933-1.71723E+01-1.44123E+01-1.57486E+01 9.51368E-02-3.74961E-02 7.82029E-02
 -1     25934-4.54989E+00-2.24368E+00-3.27117E+00 5.07090E-02-1.62672E-02 9.57579E-03
 -1     25935 4.37374E-01 2.44396E+00 1.49375E+00 2.22499E-01 8.49909E-02-8.16768E-02
 -1     25936-4.87418E+00-4.90787E+00-4.78456E+00-1.29631E+00-1.07364E-02 8.30899E-03
 -1     25937 2.26269E+00 2.17502E+00 2.33068E+00-9.95327E-01 2.42184E-02-2.40224E-02
 -1     25938-7.45253E+00-6.41423E+00-6.89565E+00 1.12326E-01-2.89416E-02 3.49583E-02
 -1     25939-2.24078E+01-2.10535E+01-2.18724E+01 6.34439E-02 9.38124E-02 8.50082E-02
 -1     25940-1.48046E+00-4.99132E-01-1.04989E+00-1.06409E-01 6.42057E-02 3.88365E-02
 -1     25941-6.78357E+00 1.26516E+00-2.77879E+00 1.01504E+00 2.65449E-03-1.20016E-02
 -1     25942-5.81487E+00 2.36889E+00-1.72289E+00 5.72173E-01 5.57814E-03 8.79073E-03
 -1     25943-6.08038E+00 1.96724E+00-2.04235E+00 1.03555E+00 1.37070E-03-1.54367E-03
 -1     25944-6.71440E+00 2.07568E+00-2.32324E+00-2.70527E-02 1.40296E-02-2.25957E-03
 -1     25945-4.47798E+00-3.15453E+00-3.81795E+00 1.97895E+00 1.23799E-02 4.81383E-04
 -1     25946-3.63758E+00-1.41027E+00-2.51991E+00 2.07763E+00 1.03948E-02-5.90957E-03
 -1     25947-1.68015E+01-1.71004E+00-9.25933E+00-5.44584E+00-4.99504E-03 1.42058E-03
 -1     25948-1.68336E+01-1.68772E+00-9.26035E+00-5.45482E+00-1.11039E-03 4.37781E-03
 -1     25949-1.79305E+01-1.98254E+00-9.94790E+00-5.92066E+00 8.01581E-05-7.90565E-03
 -1     25950-1.61057E+01-1.67400E+00-8.90477E+00-5.06461E+00 4.38477E-03 1.04245E-03
 -1     25951-1.78360E+01-1.84166E+00-9.84146E+00-5.92063E+00 6.74404E-03-7.18737E-03
 -1     25952-8.29889E-01-1.31000E+00-1.06199E+00 4.36005E+00-1.15127E-03 4.62829E-03
 -1     25953 5.55767E+00 5.07354E+00 5.34582E+00 4.45781E+00-1.32831E-02-7.87509E-03
 -1     25954-4.13854E+00 2.10709E+00-1.01789E+00 7.76163E-01 2.87482E-03-1.25043E-02
 -1     25955-1.66881E+01-1.66145E+00-9.16503E+00-5.39118E+00-1.16018E-02 2.70740E-03
 -1     25956-1.47978E+01-2.46046E+00-8.45671E+00-6.62802E-01 5.89760E-02 1.95419E-01
 -1     25957-1.13890E+01 8.23382E-01-5.40885E+00-1.10939E+00-4.58649E-03 9.03648E-02
 -1     25958-1.65070E+01-5.34169E-01-8.15328E+00-1.26498E+00 2.34744E-02 2.11533E-01
 -1     25959-1.47505E+01-1.48595E+00-8.09130E+00-3.17102E-01-7.94911E-02 1.37080E-01
 -1     25960-1.46357E+01 8.75740E-01-7.01967E+00-1.69096E+00 2.30858E-02 1.91228E-01
 -1     25961-1.68688E+01-1.03614E+01-1.36402E+01 7.55149E-01 1.65080E-01 5.29763E-02
 -1     25962-8.00410E+00-9.68993E-01-4.56906E+00 1.26664E+00 1.81674E-01 6.63979E-02
 -1     25963-1.58390E+01-1.22558E+01-1.40299E+01 3.06535E-01-1.33131E-01 7.66033E-02
 -1     25964-6.60837E+00-2.88548E+00-4.73068E+00 7.49033E-02 1.03881E-01 4.65590E-02
 -1     25965-2.11921E+01-1.67020E+01-1.89141E+01 8.14059E-01 7.27379E-02-5.81260E-03
 -1     25966-1.65603E+01-1.68851E+00-9.10842E+00-5.32775E+00 1.11404E-02 3.20117E-03
 -1     25967-1.65291E+01-1.60277E+00-9.08871E+00-5.36885E+00 8.77330E-03-6.09453E-03
 -1     25968 4.76860E+00 7.42330E+00 6.09451E+00 7.02285E+00-1.14502E-03-5.91242E-03
 -1     25969 3.88830E+00 6.88599E+00 5.38036E+00 6.42399E+00-1.48954E-02 4.59937E-03
 -1     25970-4.32069E+00-9.22024E-01-2.62346E+00 2.04466E+00 1.62313E-02 1.30905E-02
 -1     25971 1.12063E+00 5.75570E+00 3.42360E+00 4.95150E+00-8.31993E-03-7.47557E-03
 -1     25972-4.23782E-01 4.98504E+00 2.27501E+00 4.14422E+00-1.18692E-03-7.71074E-03
 -1     25973-6.48144E-01 4.46710E+00 1.92378E+00 4.81102E+00 9.89479E-03-2.78598E-03
 -1     25974 1.32392E+01 1.14215E+01 1.23043E+01 1.16422E+01-1.03009E-02-2.10324E-02
 -1     25975-1.50018E+01-1.75603E+00-8.38565E+00-3.77078E+00-2.03136E-02-6.04896E-03
 -1     25976-1.39253E+01-9.76735E-01-7.45193E+00-3.75398E+00-4.97047E-03 3.62277E-03
 -1     25977-1.12474E+00 4.83964E+00 1.86366E+00 4.10500E+00-4.16545E-04-2.00191E-02
 -1     25978 6.50139E-01-2.33982E+00-8.44278E-01 2.50352E+00 2.06006E-03-4.70777E-03
 -1     25979-4.14450E+00 2.05997E+00-1.03712E+00 9.95478E-01-4.52219E-03 3.79517E-03
 -1     25980-3.00844E+00 2.35743E+00-3.23582E-01 1.64506E+00-4.95849E-04-7.29871E-03
 -1     25981 2.93737E+00 5.25353E+00 4.09128E+00 5.37008E+00 1.47557E-03-5.01018E-03
 -1     25982 1.90314E+00 4.62496E+00 3.26350E+00 4.68459E+00 4.79097E-03 3.34029E-03
 -1     25983 3.50295E+00 5.48150E+00 4.49078E+00 5.44712E+00-1.73741E-03-2.59606E-03
 -1     25984-2.05605E+00 4.18115E+00 1.06062E+00 3.28164E+00 6.10728E-03 3.10608E-03
 -1     25985 5.85479E+00 1.01439E+00 3.43579E+00 5.02953E+00-4.84346E-03 1.78696E-02
 -1     25986 6.44498E+00 1.52705E+00 3.97664E+00 5.36538E+00-7.15664E-03 1.79490E-02
 -1     25987-4.12696E+00-4.19493E+00-4.16209E+00 1.02769E+00-3.13234E-02 5.10939E-02
 -1     25988-1.20148E+00-2.23578E+00-1.64482E+00 9.25434E-01-6.13673E-02 4.14556E-02
 -1     25989-1.67923E+01-1.71619E+00-9.24123E+00-5.42108E+00-1.66804E-03 5.77402E-03
 -1     25990-1.06219E+01-4.76936E-01-5.56724E+00-2.38089E+00 6.97778E-03-2.58222E-02
 -1     25991-1.30841E+01-1.68465E+00-7.40534E+00-4.02705E+00-1.95137E-02 2.83442E-02
 -1     25992-1.00498E+01-2.98713E-01-5.29502E+00-1.94863E+00-2.96020E-02-3.89981E-02
 -1     25993-9.71134E+00 9.89226E-02-4.84690E+00-2.26278E+00 3.04842E-02-5.72483E-02
 -1     25994-1.23802E+01-1.19656E+00-6.85612E+00-3.93448E+00 4.13567E-02-4.72595E-02
 -1     25995-2.52301E+00-1.75952E+00-2.08107E+00 1.37645E+00 3.11991E-04 5.06578E-02
 -1     25996-4.25184E+00-4.80685E+00-4.48848E+00 1.40703E+00-2.94043E-02 4.20567E-02
 -1     25997 3.72655E+00 6.36768E+00 5.04584E+00 5.86777E+00 4.22100E-03 7.66889E-03
 -1     25998 2.55797E+00 5.62344E+00 4.08337E+00 5.17559E+00-2.25199E-03-4.98675E-03
 -1     25999-5.08700E-01 4.15879E+00 1.82152E+00 3.64577E+00 3.40635E-03 2.83193E-03
 -1     26000 1.21460E+00 4.67885E+00 2.94606E+00 4.46590E+00-1.95777E-04 3.65659E-03
 -1     26001 2.38310E-01 4.58316E+00 2.41040E+00 3.66549E+00 1.59485E-03 7.72664E-03
 -1     26002-2.33107E+00 2.57392E+00 9.75526E-02 1.81264E+00 8.80213E-03 1.70514E-03
 -1     26003-1.06226E+00 3.36380E+00 1.14911E+00 2.51126E+00 5.00444E-03-4.22203E-04
 -1     26004-1.29063E+00 2.84699E+00 7.77842E-01 2.44546E+00 1.05635E-02 1.33125E-03
 -1     26005-1.34035E+01-1.66679E+00-7.63750E+00-4.24253E+00-1.14432E-02-1.72608E-02
 -1     26006-1.40729E+01-1.91951E+00-8.01503E+00-4.37395E+00 2.40394E-02-1.06113E-02
 -1     26007-1.53864E+01-3.13439E+00-9.25986E+00-4.42539E+00-3.59203E-02-3.51038E-02
 -1     26008 4.34151E+00 9.13465E-01 2.68500E+00 2.56833E+00-1.23573E-02 4.69469E-02
 -1     26009 4.90571E+00 1.34763E+00 3.06162E+00 2.77077E+00 2.35163E-02-3.21428E-02
 -1     26010 7.94166E+00 3.39324E+00 5.64595E+00 3.08191E+00-2.16000E-02 2.87780E-02
 -1     26011 6.94352E+00 2.73122E+00 4.89632E+00 2.60393E+00 2.15322E-02-2.73857E-03
 -1     26012 7.80524E+00 4.51123E+00 6.21270E+00 2.19146E+00 1.90062E-02-3.29567E-02
 -1     26013-8.08156E+00-3.10414E+00-5.59006E+00 1.72979E+00-1.19108E-02-9.30596E-03
 -1     26014-9.46920E+00-1.05842E+00-5.27336E+00 1.01203E+00-1.21235E-02 2.90489E-02
 -1     26015-1.04008E+01-3.43237E+00-6.83814E+00 1.35193E+00-3.67555E-02 2.62382E-02
 -1     26016-5.77153E+00-2.12789E+00-3.95019E+00 1.89580E+00 3.23181E-03-1.35208E-02
 -1     26017-1.21294E+01-4.94384E+00-8.48320E+00 1.35734E+00 9.01917E-03 2.86944E-03
 -1     26018-2.75109E+01-8.84486E+00-1.77205E+01-4.54881E+00-2.11175E-01 8.30338E-02
 -1     26019-2.21897E+01-4.31259E+00-1.31156E+01-4.44199E+00-2.95783E-02 6.78171E-02
 -1     26020-1.68600E+01 1.66664E+00-7.59365E+00-5.38441E+00-3.86588E-02 2.76341E-02
 -1     26021-1.80192E+01 9.83916E-01-8.36797E+00-4.08252E+00-1.78190E-01 2.76904E-02
 -1     26022-2.19259E+01-3.64445E+00-1.26620E+01-4.04179E+00-5.81528E-02 4.80531E-02
 -1     26023 9.37450E+00 8.36868E+00 8.88686E+00 1.05009E+00-3.53230E-03 1.81517E-02
 -1     26024 5.74723E+00 2.61590E+00 4.19264E+00 1.57326E+00-1.02026E-02-2.41977E-02
 -1     26025 5.42469E+00 3.25089E+00 4.32963E+00 1.57000E+00-1.76238E-02 1.25933E-03
 -1     26026 6.55865E+00 5.51347E+00 6.08175E+00 6.59852E-01-1.20176E-02 1.08883E-02
 -1     26027 2.40036E+00 1.96903E-01 1.30405E+00 1.18569E+00-9.45030E-03 8.70844E-03
 -1     26028-1.94002E+01-1.67990E+00-1.03642E+01-5.39049E+00-9.83020E-03 1.59599E-02
 -1     26029-1.78795E+01-1.20280E+00-9.46779E+00-4.62721E+00-7.51589E-03 2.32829E-02
 -1     26030 1.30720E+01 1.11133E+01 1.20561E+01 1.17892E+01 1.84030E-02-2.25625E-03
 -1     26031 1.11985E+01 1.00959E+01 1.06474E+01 1.02928E+01 2.96789E-02-2.98476E-03
 -1     26032 1.29056E+01 1.10472E+01 1.20061E+01 1.18235E+01-8.61341E-03 7.02397E-04
 -1     26033 1.17968E+01 8.62166E+00 1.02273E+01 9.44317E+00 8.65960E-03 1.09516E-02
 -1     26034 1.01236E+01 6.75093E+00 8.44997E+00 8.85535E+00 7.09264E-03-2.41501E-02
 -1     26035-7.82324E+00-3.01354E-01-4.06761E+00 6.73836E-01 4.69577E-02-3.79765E-02
 -1     26036-1.06970E+01-1.19620E+00-5.94112E+00 4.97058E-02-7.56474E-02 1.92202E-02
 -1     26037-8.17023E+00-8.73425E-01-4.48557E+00 7.14096E-01 2.63994E-02-1.52540E-02
 -1     26038-7.99357E+00-1.83120E+00-4.89935E+00 1.41805E+00 3.81980E-02-1.38304E-02
 -1     26039-1.03141E+01-2.12458E+00-6.38139E+00 9.71704E-01-2.58342E-02 2.51919E-02
 -1     26040 4.76792E+00 7.01879E+00 5.89251E+00 5.94970E+00 1.83718E-03-1.16895E-03
 -1     26041-1.26149E+01-1.61999E+00-7.11800E+00-2.54380E-01-6.92508E-02-3.90032E-03
 -1     26042-1.44149E+01-3.20926E+00-8.83820E+00 3.59493E-01 3.63706E-02-3.38157E-02
 -1     26043-1.09254E+01-9.00741E-01-5.96127E+00 5.17424E-01-9.84666E-02-5.74425E-02
 -1     26044 5.41748E+00 4.23927E+00 4.86165E+00 2.04973E+00 2.20867E-02 1.47862E-04
 -1     26045 9.92172E+00 6.42146E+00 8.16364E+00 7.90754E+00 4.55179E-03-3.06903E-03
 -1     26046 9.67147E+00 5.38119E+00 7.50847E+00 7.33787E+00 5.73441E-03-2.19245E-02
 -1     26047 9.88407E+00 5.33248E+00 7.61092E+00 7.53184E+00 7.11979E-03-1.62850E-02
 -1     26048 1.36114E+01 1.15346E+01 1.25790E+01 1.21342E+01 4.37598E-04 1.69997E-03
 -1     26049 1.23687E+01 1.03237E+01 1.13294E+01 1.17559E+01 4.35582E-03-1.81744E-02
 -1     26050 1.24875E+01 1.06009E+01 1.15533E+01 1.12134E+01 2.30917E-03-1.54395E-02
 -1     26051 1.28406E+01 1.07759E+01 1.17871E+01 1.17508E+01 8.72301E-03 9.13829E-03
 -1     26052-2.57601E+00 4.94120E+00 1.15071E+00 6.38225E+00-2.65303E-02-3.21474E-02
 -1     26053 3.10660E-02 7.00007E+00 3.51601E+00 6.89919E+00 3.77273E-02-3.52816E-02
 -1     26054-9.72107E+00 2.24685E+00-3.88337E+00 6.16668E+00-3.84591E-01 1.07951E-01
 -1     26055 1.00823E+00 1.12431E+01 5.99773E+00 5.60043E+00-1.63085E-01 2.13036E-01
 -1     26056-2.41407E+00 5.88424E+00 1.97932E+00 4.91900E+00-7.79374E-02 1.84623E-01
 -1     26057 6.20072E+00 1.59946E+01 1.11906E+01 5.66000E+00-1.27836E-02-3.33698E-02
 -1     26058 8.64834E-01 1.27847E+01 7.06014E+00 6.10961E+00-1.90881E-01 2.12427E-01
 -1     26059-6.78347E+00 1.20706E+00-2.74525E+00 4.94581E+00 8.59797E-02 2.14154E-01
 -1     26060 9.57984E+00 7.42276E+00 8.43658E+00 8.30313E+00 1.90763E-02-1.05056E-02
 -1     26061 1.00462E+01 7.86382E+00 8.93617E+00 8.52915E+00 2.02995E-02-6.63031E-03
 -1     26062 9.71357E+00 7.50783E+00 8.62573E+00 8.62368E+00 2.69836E-03 1.68710E-02
 -1     26063-3.11848E+00 8.30398E+00 2.79824E+00 6.81755E+00-1.83246E-01 2.99517E-02
 -1     26064-3.67641E-01 1.06253E+01 5.11514E+00 7.04472E+00-1.56914E-02-2.91056E-02
 -1     26065 3.64811E+00 1.38850E+01 8.74869E+00 7.28018E+00 1.47934E-02 8.74320E-03
 -1     26066 4.28491E+00 8.28058E+00 6.32034E+00 7.70479E+00-1.47609E-02-4.04047E-02
 -1     26067 8.80559E+00 1.06336E+01 9.71866E+00 8.39027E+00-9.92931E-03-4.44904E-02
 -1     26068 1.22648E+01 9.92198E+00 1.10987E+01 1.11122E+01-5.76185E-03 1.71653E-02
 -1     26069 1.20867E+01 9.79237E+00 1.09329E+01 1.07409E+01 1.80416E-03-1.86449E-03
 -1     26070 1.18811E+01 9.72362E+00 1.08002E+01 1.09902E+01-2.38026E-04 5.12557E-04
 -1     26071 1.25034E+01 1.02910E+01 1.14010E+01 1.13620E+01-1.47047E-02 1.34101E-02
 -1     26072 1.24259E+01 1.00883E+01 1.12671E+01 1.07125E+01-2.89908E-03-1.00859E-02
 -1     26073 2.09431E+00 6.81180E+00 4.67816E+00 6.09034E+00-3.18255E-02-2.17349E-02
 -1     26074 2.21991E+00 7.19585E+00 4.75867E+00 6.35618E+00-1.04088E-01-2.53023E-02
 -1     26075 5.47030E+00 8.29544E+00 6.82941E+00 7.01352E+00 8.52044E-02 6.48437E-03
 -1     26076 6.94570E+00 3.21648E+00 5.08041E+00 6.19854E+00-2.05596E-03-2.89160E-03
 -1     26077 6.66102E+00 3.44322E+00 5.04976E+00 6.60638E+00 4.59110E-03 1.25030E-03
 -1     26078-8.13514E+00-1.19200E+00-4.50201E+00-1.99157E+00 8.81158E-02 1.64623E-01
 -1     26079-9.82190E+00-2.42066E+00-6.06402E+00-3.02425E+00-1.13434E-02 1.07594E-01
 -1     26080-2.70325E+00 3.13387E+00 3.66040E-01 1.82842E-01-1.02309E-01 1.57022E-01
 -1     26081-6.83590E+00-6.59443E-01-3.82481E+00-1.08036E+00-1.87627E-03 1.00681E-01
 -1     26082 5.33214E+00 4.21181E+00 4.73280E+00 5.29296E+00 1.00478E-02-3.48227E-02
 -1     26083 6.89684E+00 5.88174E+00 6.43032E+00 5.31737E+00 3.98119E-03-1.66975E-03
 -1     26084 5.82413E+00 4.42525E+00 5.14690E+00 5.33491E+00 1.05817E-02-1.62070E-03
 -1     26085 6.78857E+00 5.37454E+00 6.01702E+00 5.35263E+00-1.32049E-02-1.85091E-02
 -1     26086 5.71852E+00 4.60269E+00 5.14849E+00 5.35195E+00-6.68616E-03 1.90773E-02
 -1     26087 1.00426E+01 6.95032E+00 8.47244E+00 7.77292E+00-3.19840E-04 1.41362E-03
 -1     26088 9.80670E+00 6.51977E+00 8.15831E+00 7.83659E+00 1.54028E-02 7.47657E-03
 -1     26089 9.93231E+00 6.61976E+00 8.26609E+00 8.23311E+00 5.83576E-03-1.42521E-03
 -1     26090 9.74319E+00 6.63301E+00 8.18600E+00 8.16428E+00 1.28631E-02-7.74417E-03
 -1     26091 8.87126E+00 5.99614E+00 7.42344E+00 8.08829E+00 1.59553E-02-4.92420E-03
 -1     26092 9.15279E+00 7.82975E+00 8.48999E+00 8.04965E+00-3.85605E-03-2.75551E-03
 -1     26093 6.83980E+00 6.00090E+00 6.41407E+00 7.37200E+00-1.44158E-03 2.81397E-03
 -1     26094 8.68613E+00 7.64779E+00 8.16527E+00 7.99708E+00 9.84932E-04-1.27658E-02
 -1     26095-3.49238E+00 3.80876E+00 1.50733E-01 5.44488E+00-4.72189E-02 5.10414E-02
 -1     26096 3.92616E+00 1.04138E+01 7.16332E+00 4.36480E+00-2.08537E-02 9.82960E-02
 -1     26097 2.79119E+00 9.39540E+00 6.09283E+00 3.86123E+00-1.91328E-02-4.52415E-02
 -1     26098-6.76547E+00-6.86860E-01-3.74268E+00 2.90047E+00 2.83681E-02-4.30561E-02
 -1     26099 1.08662E+01 6.62131E+00 8.73151E+00 8.81868E+00 2.37946E-02-7.84101E-04
 -1     26100 1.07863E+01 6.35518E+00 8.57188E+00 8.65434E+00-5.34016E-03 5.28431E-03
 -1     26101 1.06236E+01 5.92819E+00 8.26090E+00 8.33143E+00 8.63229E-03-3.62384E-03
 -1     26102 7.34010E-01 7.55471E+00 4.24661E+00 6.97981E+00-7.46235E-02-1.45777E-02
 -1     26103 6.23276E-01 8.07084E+00 4.47497E+00 7.11857E+00-2.69971E-02 4.20503E-03
 -1     26104 2.06118E+00 6.82469E+00 4.44678E+00 6.32324E+00-1.01466E-01-6.70237E-02
 -1     26105 2.71306E+00 1.21002E+01 7.52806E+00 7.77755E+00-2.20856E-02-4.56048E-02
 -1     26106-6.90514E-01 8.43160E+00 3.82758E+00 7.99647E+00-2.44234E-02 4.82717E-02
 -1     26107-1.88324E+00 7.26920E+00 2.65771E+00 7.88041E+00-9.43469E-02-3.70990E-02
 -1     26108-1.91351E+00 7.23982E+00 2.72497E+00 7.59119E+00-4.38366E-02-2.24415E-02
 -1     26109 1.40846E+00 1.04381E+01 5.89003E+00 7.77649E+00-4.57971E-02 6.10038E-03
 -1     26110 1.26891E+01 1.06401E+01 1.16704E+01 1.17447E+01 2.54121E-02 1.18687E-03
 -1     26111 1.31543E+01 1.09990E+01 1.20898E+01 1.22829E+01 2.41399E-03-3.10921E-03
 -1     26112 1.26301E+01 1.06572E+01 1.16275E+01 1.13647E+01 8.40053E-03-2.77597E-03
 -1     26113 1.38944E+01 1.16987E+01 1.27697E+01 1.22879E+01 6.01939E-03 2.04072E-02
 -1     26114 1.28548E+01 1.10206E+01 1.19929E+01 1.15901E+01 5.44485E-02-4.11696E-03
 -1     26115 1.26677E+01 1.08925E+01 1.17667E+01 1.15687E+01 3.20946E-02 3.39965E-03
 -1     26116 1.05538E+01 9.93337E+00 1.02309E+01 1.04420E+01-1.39860E-02 1.11281E-02
 -1     26117 1.00259E+01 9.34312E+00 9.68392E+00 1.03899E+01-9.79751E-04 3.41913E-03
 -1     26118 1.00699E+01 9.63855E+00 9.84201E+00 1.01634E+01-5.46539E-03 1.82495E-02
 -1     26119-2.41839E+00 2.03187E+00-1.68066E-01 1.78663E+00-6.20508E-03 8.78462E-03
 -1     26120-2.33314E+00 2.25004E+00-1.80748E-02 1.78687E+00 4.23407E-03 1.00841E-02
 -1     26121-3.67389E+00 1.57232E+00-1.03521E+00 1.24644E+00-4.38583E-03 1.40695E-03
 -1     26122 1.01448E+01 6.97190E+00 8.54130E+00 9.94152E+00-2.20050E-02 1.28383E-02
 -1     26123 1.12246E+01 8.23693E+00 9.75053E+00 1.00638E+01-9.22113E-04 3.43158E-03
 -1     26124-7.81686E+00-1.09762E+00-4.44308E+00-2.33882E+00-7.68693E-02 5.69435E-02
 -1     26125-9.07352E+00-1.88518E+00-5.46252E+00-3.40999E+00-2.40130E-01-4.14329E-02
 -1     26126 1.02409E+01 7.95943E+00 9.11990E+00 9.02492E+00-4.50681E-04 2.24708E-04
 -1     26127 1.02590E+01 7.95022E+00 9.09303E+00 8.90934E+00 6.66857E-03-1.27627E-02
 -1     26128 9.68846E+00 7.32794E+00 8.51090E+00 9.26479E+00-2.95575E-03 9.70258E-03
 -1     26129-1.90453E+01-1.75107E+00-1.03577E+01-6.25116E+00-2.58345E-02 3.22987E-02
 -1     26130-1.87110E+01-1.44701E+00-9.81242E+00-6.09226E+00 4.73696E-03 3.19467E-02
 -1     26131-2.14762E+01-4.06848E+00-1.28091E+01-6.27970E+00-5.25503E-02-4.96546E-02
 -1     26132-1.93014E+01-1.63180E+00-1.07596E+01-6.76347E+00 2.90986E-02-7.24959E-02
 -1     26133-5.77841E+00 2.93542E+00-1.38150E+00 4.24586E-01 1.29865E-02 2.66124E-03
 -1     26134-8.68235E+00 7.62183E-01-3.95903E+00-6.58737E-01 1.26135E-02 2.87489E-03
 -1     26135-1.84963E+01-7.44475E-01-9.81386E+00-6.12996E+00 2.64370E-02 7.96541E-03
 -1     26136-2.00934E+01-2.23817E+00-1.14663E+01-6.15468E+00 2.85717E-02-3.02151E-02
 -1     26137-2.00685E+01-2.80723E+00-1.13560E+01-5.40890E+00-4.20749E-02 9.02180E-02
 -1     26138-3.11228E-01 3.92460E+00 1.80672E+00 3.21626E+00-3.62435E-03-1.30917E-02
 -1     26139-1.33335E+01-1.09069E+00-7.20362E+00-2.10702E+00-1.37842E-02-1.92942E-02
 -1     26140-1.16182E+01-7.02320E-01-6.16001E+00-1.59477E+00-6.38155E-03 1.30088E-03
 -1     26141-1.36635E+01-4.33752E-01-7.04056E+00-2.95531E+00 1.14099E-02-9.20903E-03
 -1     26142-1.24160E+01-4.82329E-01-6.45594E+00-2.36527E+00-1.43624E-02-6.32404E-03
 -1     26143-1.74965E+01-1.39580E+00-9.50830E+00-4.66955E+00 9.02443E-03 1.52528E-02
 -1     26144 1.01186E+01 6.09273E+00 8.15215E+00 8.91817E+00-5.39138E-03-1.98118E-02
 -1     26145 1.12148E+01 7.50884E+00 9.34579E+00 9.20257E+00-9.42593E-03 1.29018E-02
 -1     26146 1.11556E+01 6.53372E+00 8.88227E+00 8.44888E+00 4.55120E-04-2.23180E-02
 -1     26147 1.07539E+01 6.94289E+00 8.86427E+00 8.96090E+00-4.90538E-03-5.58761E-03
 -1     26148-2.14331E+00 7.58180E-01-6.91776E-01 2.27696E+00 6.46471E-03 1.51829E-02
 -1     26149-4.32014E-01 1.56408E+00 5.62189E-01 2.76094E+00-5.84532E-03 1.37853E-03
 -1     26150-2.11446E-01 1.61472E+00 7.02593E-01 2.98780E+00 3.71026E-03 2.85777E-04
 -1     26151-1.54455E+01-1.40901E+00-8.42777E+00-4.90868E+00 6.39701E-03 1.02796E-02
 -1     26152-1.42082E+01-1.21546E+00-7.70740E+00-4.31807E+00 3.32317E-03-4.96982E-03
 -1     26153-1.52969E+01-1.36501E+00-8.33014E+00-4.84897E+00 1.56700E-02 2.75871E-03
 -1     26154 7.32619E+00 6.04740E+00 6.63978E+00-3.96193E-01-5.37834E-02 1.16837E-03
 -1     26155 3.93266E+00 2.16834E+00 3.09398E+00-3.01996E-01-2.19705E-02-2.72380E-02
 -1     26156 4.84622E+00 3.06951E+00 3.93310E+00-2.28970E-02-2.38146E-02-1.60814E-02
 -1     26157 3.54990E+00 2.74259E+00 3.08816E+00-4.98062E-01 4.47058E-02 6.22001E-02
 -1     26158 3.05212E+00 2.37114E+00 2.68129E+00-8.01470E-01-3.66827E-02 1.66172E-02
 -1     26159 9.94330E+00 4.85793E+00 7.38688E+00 6.93526E+00-1.04886E-03-2.01303E-02
 -1     26160-2.84376E+00-3.52848E+00-3.18624E+00 1.90525E+00-9.33950E-03 2.26598E-02
 -1     26161 1.04049E+01 7.76878E+00 9.10121E+00 1.01215E+01 2.24907E-02 1.56873E-03
 -1     26162 1.17659E+01 8.72920E+00 1.02816E+01 9.80315E+00-4.05881E-03-1.17085E-02
 -1     26163 1.21475E+01 9.73275E+00 1.09100E+01 1.04775E+01-2.01241E-03-2.79337E-02
 -1     26164 1.10625E+01 8.45605E+00 9.73823E+00 9.94253E+00-2.80696E-03-1.63089E-03
 -1     26165 1.17718E+01 9.35108E+00 1.05227E+01 1.03059E+01-1.43155E-02-4.26008E-03
 -1     26166 6.45577E+00 6.98086E+00 6.66770E+00 7.26300E+00-1.02837E-01 4.20301E-02
 -1     26167 5.60039E+00 8.02739E+00 6.65135E+00 6.34107E+00-5.96607E-02-4.99869E-02
 -1     26168 7.59310E+00 8.05786E+00 7.96836E+00 7.39333E+00-6.66960E-02 6.24212E-02
 -1     26169 6.00720E+00 4.90085E+00 5.46371E+00 5.18384E+00-6.57372E-03-1.19779E-02
 -1     26170 6.12613E+00 5.03108E+00 5.52829E+00 5.23511E+00 2.80721E-02 1.41544E-02
 -1     26171 5.80906E+00 4.75476E+00 5.26017E+00 5.16038E+00 3.70707E-03 4.11839E-03
 -1     26172 1.26393E+01 1.07665E+01 1.17109E+01 1.18349E+01-5.28217E-03 8.95313E-03
 -1     26173 1.30768E+01 1.14327E+01 1.22526E+01 1.12647E+01-9.08731E-03 1.17100E-03
 -1     26174 1.16225E+01 1.04279E+01 1.10065E+01 1.03852E+01-8.15326E-04-8.81859E-03
 -1     26175-5.89393E+00-3.51947E-01-3.12439E+00 1.43700E+00-7.98948E-03 1.37647E-02
 -1     26176-5.42670E+00-1.22610E+00-3.33634E+00 1.74277E+00-1.84774E-02 1.41779E-02
 -1     26177-5.34508E+00-7.31813E-01-3.01525E+00 1.71881E+00-3.25964E-03 1.23591E-02
 -1     26178-6.71972E+00-7.79617E-01-3.76267E+00 1.02973E+00-1.50496E-02 2.00143E-02
 -1     26179 7.33336E+00 6.91631E+00 7.13790E+00 8.10507E+00 2.69498E-03 5.93990E-03
 -1     26180 9.05748E+00 8.11588E+00 8.56466E+00 8.81283E+00 6.05029E-04-1.70800E-03
 -1     26181 7.21147E+00 6.73417E+00 6.97169E+00 7.91126E+00 8.29975E-03-6.13397E-03
 -1     26182 4.29376E+00 7.21542E+00 5.86422E+00 6.96712E+00 2.85729E-02 9.90446E-02
 -1     26183 4.44509E+00 8.76297E+00 6.65065E+00 7.17048E+00 5.68031E-02 1.02589E-01
 -1     26184 9.59187E+00 9.67645E+00 9.63672E+00 9.51954E+00-2.68444E-02-3.21387E-03
 -1     26185 7.69208E+00 8.85237E+00 8.26416E+00 8.66145E+00-2.25311E-02 1.24691E-02
 -1     26186 8.53856E+00 9.37651E+00 8.95159E+00 8.82317E+00-1.30955E-02-1.82228E-03
 -1     26187 6.86957E+00 8.20731E+00 7.53531E+00 7.88689E+00-3.51215E-02-7.00647E-03
 -1     26188 6.88695E+00 7.90839E+00 7.39745E+00 8.00959E+00-7.39171E-04-4.26665E-03
 -1     26189 9.62247E+00 9.72790E+00 9.67337E+00 9.53577E+00 3.44357E-02 1.25690E-02
 -1     26190 1.05552E+01 9.93453E+00 1.02536E+01 1.02807E+01 2.37476E-02-6.80721E-03
 -1     26191 1.29052E+01 1.11891E+01 1.20378E+01 1.13346E+01-2.02974E-03-5.44532E-02
 -1     26192 1.10475E+01 1.01337E+01 1.06238E+01 1.05281E+01 7.98823E-03-7.17285E-04
 -1     26193 9.56687E+00 9.27758E+00 9.38796E+00 1.00633E+01 2.12296E-03-2.73088E-02
 -1     26194-1.27088E+01-6.18643E-01-6.67322E+00-4.26735E+00 5.94213E-02-2.21222E-02
 -1     26195-1.46002E+01-2.34503E+00-8.41887E+00-4.30541E+00-2.73840E-03-3.15351E-02
 -1     26196-1.43588E+01-2.76072E+00-8.60109E+00-3.94458E+00 6.25217E-02-6.15398E-02
 -1     26197-6.62040E+00-1.34756E+00-3.74921E+00 1.18490E+00-2.28132E-02 3.68752E-02
 -1     26198-1.40958E-01 5.23456E+00 2.47808E+00 3.57190E+00-1.20566E-01-1.29308E-01
 -1     26199-4.13660E+00 1.41145E+00-1.49227E+00 1.65091E+00-1.01011E-01-3.64472E-02
 -1     26200-4.71846E+00 7.92976E-01-1.51924E+00 1.11182E-01 3.81868E-03 3.63403E-02
 -1     26201 4.22695E+00 8.50066E+00 6.02280E+00 1.99817E+00-2.02270E-01-1.81423E-01
 -1     26202 1.37985E+00 6.19228E+00 3.71979E+00 2.51873E+00-3.50411E-01 2.68403E-02
 -1     26203 1.33693E+01 1.15320E+01 1.24783E+01 1.18377E+01 1.72757E-02-1.35139E-02
 -1     26204 1.26035E+01 1.07854E+01 1.17318E+01 1.16535E+01-3.99365E-02 3.29025E-04
 -1     26205-8.10084E+00-8.66592E-01-4.50771E+00 2.79130E-01-1.42814E-02-1.32640E-03
 -1     26206-5.73387E+00 3.80622E-01-2.67697E+00 5.84043E-01-5.44236E-03 9.66257E-03
 -1     26207 1.26540E+01 1.02896E+01 1.14544E+01 1.13188E+01 2.64181E-02-4.94298E-02
 -1     26208 1.24670E+01 1.01458E+01 1.13203E+01 1.13963E+01-2.37170E-03 2.19615E-02
 -1     26209 1.23461E+01 9.94840E+00 1.11090E+01 1.11958E+01-1.47079E-02-1.96371E-02
 -1     26210-2.46505E+00 3.75054E-01-1.01482E+00 2.24233E+00-5.03626E-03 2.18365E-02
 -1     26211-3.18633E+00-1.68716E-01-1.68651E+00 2.15231E+00-5.58385E-03-4.79801E-03
 -1     26212 5.30976E-02 8.84685E+00 4.43090E+00 7.81398E+00 1.88603E-02-1.65198E-02
 -1     26213-1.34462E+01-5.00631E+00-9.27463E+00-1.67902E+00-5.05484E-02-5.68896E-02
 -1     26214-4.72356E+00 3.61343E+00-5.54446E-01-2.09836E+00 2.84055E-02-3.11263E-02
 -1     26215-7.12308E+00 1.95944E+00-2.57199E+00-2.38430E+00-1.45815E-02-7.98506E-02
 -1     26216-8.44708E+00 2.42576E-01-4.22018E+00-2.20179E+00-1.25801E-02-6.34030E-02
 -1     26217-2.33380E+01-2.94202E+00-1.23037E+01-7.38899E+00-3.43760E-01 2.90418E-01
 -1     26218-2.74136E+01-6.82315E+00-1.69083E+01-6.85333E+00-4.64748E-02-5.76973E-02
 -1     26219-1.92062E+01 2.60467E+00-8.13064E+00-5.71961E+00-2.59472E-01 1.69693E-01
 -1     26220-1.54702E+01 2.95319E+00-5.23651E+00-6.75600E+00-1.68716E-02 4.29236E-02
 -1     26221-1.96068E+01-4.41225E-01-9.74308E+00-6.87226E+00-3.90285E-01 3.99212E-02
 -1     26222-6.93526E+00 1.67984E+00-2.63628E+00-7.93703E-01-3.17362E-02 5.43866E-03
 -1     26223-9.20518E+00-4.43243E-01-4.83045E+00-9.10876E-01 6.19169E-03-1.32987E-02
 -1     26224-7.81671E+00 1.44017E+00-3.17178E+00-1.48263E+00-7.47570E-03 9.66109E-04
 -1     26225-1.11787E+01-1.61577E+00-6.33585E+00-2.37352E+00-3.76252E-02 6.61797E-03
 -1     26226-9.24592E+00 3.94687E-01-4.38430E+00-2.34938E+00 5.55032E-03 2.60447E-02
 -1     26227 1.11424E+01 7.73837E+00 9.41744E+00 9.37782E+00 8.51589E-03-9.53287E-03
 -1     26228-1.94658E+01-1.98312E-01-9.96850E+00-4.14382E+00-4.26740E-03-8.75009E-02
 -1     26229-2.72777E+01-6.31387E+00-1.67262E+01-5.18758E+00-1.19766E-01 6.99210E-02
 -1     26230-2.18453E+01-1.06404E+00-1.16247E+01-3.28222E+00 1.14548E-01-5.73347E-02
 -1     26231-2.13041E+01 2.33602E-01-1.09834E+01-4.19389E+00-3.69122E-02-9.85405E-02
 -1     26232-1.97006E+01 3.40791E+00-8.21371E+00-5.22351E+00-1.28240E-01 2.56003E-01
 -1     26233-7.29932E+00-5.14816E+00-6.28605E+00 1.16380E+00 3.89948E-02-2.23669E-02
 -1     26234-6.79992E+00-3.14561E+00-5.03708E+00 1.10677E+00-3.04223E-02-6.80612E-02
 -1     26235-8.22304E+00-5.83492E+00-7.03222E+00 8.88550E-01 1.79605E-02 1.07258E-01
 -1     26236-2.03993E+01-1.15774E+00-1.09819E+01-5.48762E+00 4.85481E-02-2.11795E-01
 -1     26237 1.27533E+01 1.03217E+01 1.15364E+01 1.12871E+01 1.87596E-02-1.23266E-02
 -1     26238 1.19042E+01 9.48909E+00 1.07065E+01 1.12062E+01 4.56026E-03-2.28781E-03
 -1     26239 1.30027E+01 1.05214E+01 1.17331E+01 1.14212E+01 8.06550E-03-6.55392E-03
 -1     26240 1.09266E+01 9.96323E+00 1.04319E+01 9.52851E+00 1.49935E-03-2.87677E-04
 -1     26241 1.01286E+01 8.88394E+00 9.49463E+00 1.02825E+01 4.61485E-03-5.33324E-03
 -1     26242 1.09396E+01 9.55138E+00 1.02181E+01 1.03562E+01-6.13461E-03-7.88657E-04
 -1     26243 8.45839E+00 9.00490E+00 8.69086E+00 8.87720E+00-2.25074E-02-9.41813E-02
 -1     26244 4.56262E+00 5.93394E+00 5.23070E+00 8.76804E+00-4.82229E-02-3.67135E-02
 -1     26245 5.97956E+00 7.38993E+00 6.66487E+00 8.64622E+00 5.42872E-02 2.05182E-02
 -1     26246 1.01648E+01 1.09365E+01 1.05131E+01 8.45201E+00 4.55807E-03-5.68081E-02
 -1     26247 7.17986E+00 8.17785E+00 7.67271E+00 8.62366E+00-1.79386E-02-7.31325E-02
 -1     26248-9.42860E+00-9.49487E+00-9.43494E+00-1.87654E+00 2.99184E-03 4.13183E-02
 -1     26249-2.28911E+00-2.35316E+00-2.36549E+00-1.96268E+00-3.34934E-02-2.37329E-02
 -1     26250 4.21431E-01-4.49361E-02 2.38642E-01-1.44936E+00-4.99017E-03 2.49465E-02
 -1     26251 5.88698E+00 5.45146E+00 5.74852E+00-1.38414E+00-4.08907E-03 1.12912E-02
 -1     26252 3.95777E+00 3.51767E+00 3.76443E+00-1.51126E+00-3.80242E-02 7.35694E-03
 -1     26253-2.94769E+01-1.12692E+01-2.02827E+01-6.83288E+00 2.36264E-01 1.40839E-01
 -1     26254-1.34739E+01 4.39874E+00-4.70600E+00-6.89839E+00 1.33702E-01 7.63539E-03
 -1     26255-2.61952E+01-7.62661E+00-1.63334E+01-6.07349E+00 3.33244E-02 8.37370E-03
 -1     26256-2.46259E+01-5.96621E+00-1.50963E+01-6.51880E+00-4.56713E-03-4.56133E-02
 -1     26257 8.45022E+00 7.02136E+00 7.74001E+00 8.73369E+00-1.04008E-02-1.25269E-02
 -1     26258 1.06998E+01 9.00749E+00 9.85141E+00 9.48516E+00 8.35150E-03-1.80269E-02
 -1     26259 8.21272E+00 6.54532E+00 7.37282E+00 8.77520E+00-1.23356E-02 5.79767E-04
 -1     26260 4.63426E+00 4.41438E+00 4.52355E+00 5.58494E+00 1.04109E-03 3.04056E-03
 -1     26261 1.28532E+01 1.09000E+01 1.18587E+01 1.18914E+01 1.87550E-04-4.05497E-03
 -1     26262 1.23959E+01 1.03979E+01 1.14107E+01 1.14416E+01 1.89959E-03-3.82772E-03
 -1     26263 1.20420E+01 1.01662E+01 1.11287E+01 1.09077E+01 1.49479E-02 5.72356E-03
 -1     26264 1.23002E+01 1.00974E+01 1.12352E+01 1.22369E+01-1.03110E-02-2.17921E-02
 -1     26265 1.33886E+01 1.11697E+01 1.22978E+01 1.23283E+01-1.38752E-02-1.15397E-03
 -1     26266 1.22970E+01 1.02906E+01 1.12962E+01 1.09290E+01 7.47743E-03 6.98284E-03
 -1     26267 7.80095E+00 5.64980E+00 6.74529E+00 5.52309E+00 2.17235E-03 9.50835E-03
 -1     26268 5.97339E+00 4.31391E+00 5.15852E+00 5.51044E+00 2.15309E-02 7.30388E-03
 -1     26269 3.34945E+00 1.35902E+01 8.85425E+00 7.45600E+00 6.40528E-02 2.03202E-01
 -1     26270-1.59514E+01-1.31471E+00-8.57986E+00-5.27591E+00-6.09773E-05 2.89622E-02
 -1     26271-1.64652E+01-1.67881E+00-9.09539E+00-5.36489E+00 9.96089E-04-1.80479E-03
 -1     26272-1.56160E+01-8.22068E-01-8.18937E+00-5.34823E+00-7.30231E-03 3.10115E-02
 -1     26273-9.42780E+00-2.22572E-02-4.67284E+00-2.90736E+00-4.69811E-02-5.86183E-02
 -1     26274-1.24453E+01-2.96264E+00-7.64475E+00-2.81017E+00-2.11105E-02 4.25990E-02
 -1     26275-1.09156E+01-7.59905E-01-5.83464E+00-3.48099E+00-2.69624E-02-1.31831E-02
 -1     26276-1.03998E+01-4.13451E-01-5.40148E+00-1.82705E+00 1.27601E-02-8.18764E-03
 -1     26277-1.15059E+01-3.22845E-01-5.94562E+00-2.78154E+00-7.28282E-03-1.08286E-02
 -1     26278-7.85342E+00 1.34171E+00-3.25076E+00-1.22501E+00 5.29853E-03-2.75957E-03
 -1     26279-9.93218E+00 4.79026E-01-4.75935E+00-2.17550E+00 7.62774E-03 1.45894E-02
 -1     26280 1.25289E+01 1.07743E+01 1.16320E+01 1.17368E+01 2.20438E-02 3.23902E-03
 -1     26281 9.35247E+00 6.98910E+00 8.15198E+00 9.30458E+00-2.04048E-02-1.51069E-02
 -1     26282 8.87964E+00 6.74616E+00 7.81048E+00 8.16718E+00 6.57383E-03-9.62720E-03
 -1     26283 1.00676E+01 7.46229E+00 8.76946E+00 9.30166E+00-2.65879E-02 7.48064E-04
 -1     26284 9.26650E+00 6.87256E+00 8.06838E+00 8.12618E+00-2.78290E-03-1.71566E-03
 -1     26285 1.10111E+01 8.67377E+00 9.83072E+00 9.57194E+00 1.05977E-03 1.27141E-02
 -1     26286 1.05609E+01 8.23684E+00 9.38972E+00 9.36536E+00-8.94813E-03-1.84982E-02
 -1     26287 1.04959E+01 7.41482E+00 8.91668E+00 9.24007E+00-8.02816E-04-4.10769E-03
 -1     26288 1.10132E+01 8.45732E+00 9.73496E+00 9.84769E+00 2.15973E-02 5.96978E-03
 -1     26289 1.14878E+01 8.95431E+00 1.02116E+01 9.62648E+00-4.72126E-03 5.85526E-03
 -1     26290 4.35025E+00 8.21459E+00 6.32402E+00 7.20026E+00-4.31160E-03-1.05016E-02
 -1     26291 3.40054E+00 7.79717E+00 5.59911E+00 7.10254E+00-3.66840E-03-1.98288E-02
 -1     26292 2.48706E+00 7.52548E+00 5.03904E+00 6.57098E+00-1.69889E-02-2.02269E-02
 -1     26293 8.85063E+00 6.14063E+00 7.49455E+00 8.13261E+00-1.34708E-02-3.08735E-03
 -1     26294 7.99519E+00 5.88973E+00 6.94153E+00 7.56637E+00-1.30191E-03 1.10304E-03
 -1     26295 2.14882E+00 5.92654E+00 4.03636E+00 5.11962E+00-1.26286E-02-6.51168E-03
 -1     26296 1.27002E+00 5.68176E+00 3.48109E+00 4.51596E+00 2.43287E-03 8.09184E-03
 -1     26297 3.06558E+00 6.46603E+00 4.76423E+00 5.75218E+00 2.63959E-03-4.51454E-03
 -1     26298 1.08216E+00 5.16519E+00 3.13053E+00 5.15602E+00 8.09573E-03 1.15792E-02
 -1     26299 7.48424E+00 5.78245E+00 6.63331E+00 7.51930E+00-4.26320E-03-2.83328E-03
 -1     26300-1.09621E+01-2.83296E-01-5.61405E+00-1.71976E+00-4.58938E-03-2.17418E-03
 -1     26301 1.13320E+01 6.73171E+00 9.02190E+00 8.43279E+00 2.09939E-03 1.65703E-02
 -1     26302 1.07684E+01 6.81476E+00 8.77100E+00 8.75957E+00 4.25757E-03 1.15410E-02
 -1     26303 1.05920E+01 5.82451E+00 8.20549E+00 8.21656E+00 1.91858E-02 9.59332E-03
 -1     26304 9.67662E+00 4.84749E+00 7.25862E+00 7.01950E+00 1.74595E-02-7.63402E-03
 -1     26305-1.92112E+01-5.66075E+00-1.22120E+01 4.06490E-01-4.30553E-01 1.20217E-01
 -1     26306-2.09098E+01-7.53296E+00-1.44524E+01 4.59204E-01-6.64740E-02-1.01462E-02
 -1     26307-2.25493E+01-4.60148E+00-1.36356E+01-7.64988E-01 1.93112E-01-4.28917E-01
 -1     26308-3.93376E+00-2.64872E-01-2.10530E+00 1.72180E+00-1.19849E-02 1.63158E-02
 -1     26309 9.69304E+00 6.33949E+00 7.99047E+00 8.92345E+00-1.51290E-02 6.53021E-03
 -1     26310 1.06597E+01 8.25595E+00 9.47474E+00 9.53487E+00-1.25887E-02 1.24070E-02
 -1     26311 1.05338E+01 7.17408E+00 8.83432E+00 8.64170E+00 1.07538E-02-9.42889E-03
 -1     26312 1.14903E+01 8.49683E+00 1.00022E+01 9.01233E+00 1.47841E-02-3.40712E-03
 -1     26313 8.96263E+00 5.29485E+00 7.14891E+00 6.73622E+00-1.67964E-02-8.25853E-04
 -1     26314 8.59160E+00 5.36640E+00 7.01775E+00 7.05543E+00-1.71455E-04-4.70024E-03
 -1     26315 9.25641E+00 5.44057E+00 7.36081E+00 6.98170E+00-5.99365E-03 4.13825E-03
 -1     26316-1.86079E+01-2.19482E+00-1.04704E+01-5.80839E+00 4.37710E-02 1.07355E-02
 -1     26317 2.56598E+00 1.28150E+01 7.38368E+00 7.48733E+00-6.17287E-02-9.56383E-02
 -1     26318-1.19970E+01-2.47897E+00-7.36616E+00 7.17535E+00-4.76942E-02 6.58576E-02
 -1     26319-2.05243E-01 8.68023E+00 4.14631E+00 7.40550E+00 6.49991E-02 3.13313E-02
 -1     26320 1.79153E+00 1.15210E+01 6.50820E+00 7.76801E+00 4.74948E-02 5.18735E-02
 -1     26321 5.36004E+00 1.58701E+01 1.05085E+01 7.52781E+00 9.47722E-02-5.21211E-02
 -1     26322 2.30553E+00 7.97195E+00 5.03767E+00 1.31089E-01 2.20680E-02 1.68538E-01
 -1     26323-8.36298E+00-2.02778E+00-5.17027E+00-1.72996E+00-1.35489E-01 5.47059E-02
 -1     26324-4.15354E+00 1.79266E+00-1.34649E+00-9.02320E-01-8.02760E-02 1.48106E-01
 -1     26325-8.21470E+00-1.38413E+00-4.82470E+00-2.96697E+00-4.12475E-02 1.25660E-01
 -1     26326 5.98086E+00 4.93417E+00 5.42112E+00 5.22464E+00-7.94019E-04-1.27900E-02
 -1     26327 5.94925E+00 4.79580E+00 5.37347E+00 5.22108E+00 1.48155E-02-5.52561E-02
 -1     26328 5.13078E+00 4.03536E+00 4.59791E+00 5.20404E+00-1.25748E-02 6.62795E-03
 -1     26329-2.12759E+00-3.30873E-01-1.23821E+00 2.58398E+00 2.93121E-02 6.06889E-03
 -1     26330-1.62521E+01-1.61464E+00-8.97582E+00-4.42564E+00 2.06903E-02 5.60908E-02
 -1     26331-1.51224E+01-1.17017E+00-8.14950E+00-3.68899E+00-2.12619E-02-4.15637E-03
 -1     26332-1.74977E+01-2.31276E+00-9.90080E+00-4.37116E+00-3.63146E-02-4.06293E-02
 -1     26333-1.79437E+01-1.72750E+00-9.82513E+00-5.61436E+00-2.46742E-03 1.22685E-02
 -1     26334 1.27526E+01 1.03876E+01 1.15914E+01 1.16883E+01-2.08795E-03-1.48938E-02
 -1     26335 1.26007E+01 1.02817E+01 1.14798E+01 1.15361E+01-2.31606E-02 6.83269E-03
 -1     26336 1.28050E+01 1.04873E+01 1.16003E+01 1.15762E+01-5.78709E-03 3.05465E-02
 -1     26337 1.19359E+01 9.52338E+00 1.07610E+01 1.08858E+01-4.10187E-03-4.54012E-03
 -1     26338 1.07911E+01 7.27727E+00 9.03937E+00 9.72185E+00 1.43965E-02 1.06421E-02
 -1     26339 1.16105E+01 8.53903E+00 1.00702E+01 1.01007E+01-4.50889E-03 8.48320E-03
 -1     26340 1.20202E+01 9.57432E+00 1.08188E+01 1.08081E+01-2.48896E-03-6.02176E-03
 -1     26341 1.19385E+01 8.89275E+00 1.03423E+01 1.00435E+01 5.01278E-03-1.01161E-02
 -1     26342 1.00917E+01 6.16678E+00 8.15479E+00 9.00670E+00 1.33142E-02 3.86216E-02
 -1     26343 1.10498E+01 7.43347E+00 9.23448E+00 9.30297E+00 1.70808E-02 2.28452E-04
 -1     26344 1.06687E+01 7.81864E+00 9.26847E+00 8.82459E+00 1.99570E-02 3.02287E-03
 -1     26345 9.87665E+00 7.50427E+00 8.74242E+00 9.12704E+00 8.39279E-03 5.70776E-03
 -1     26346 1.08239E+01 7.19225E+00 9.01658E+00 8.72479E+00 4.93202E-03-5.43521E-03
 -1     26347 1.11169E+01 7.42683E+00 9.31780E+00 8.58012E+00 9.83635E-03-3.27569E-03
 -1     26348 1.06571E+01 7.54611E+00 9.12433E+00 8.99518E+00 8.10536E-03 1.01949E-02
 -1     26349 1.34286E+01 1.10288E+01 1.22231E+01 1.16763E+01 3.12189E-03-1.01722E-02
 -1     26350 8.51518E+00 2.98999E+00 5.75127E+00 6.17222E+00-4.28935E-03-5.43546E-03
 -1     26351 1.08183E+01 9.00352E+00 9.90902E+00 1.01569E+01-4.33693E-03 1.35752E-02
 -1     26352 8.90600E+00 7.40572E+00 8.13583E+00 9.40701E+00-1.63123E-03 2.03566E-02
 -1     26353-2.13778E+01-2.05716E+00-1.14526E+01-2.26246E+00-7.63992E-02 6.35305E-02
 -1     26354-2.27525E+01-5.09858E+00-1.36005E+01-1.53425E+00-2.50263E-02 2.40895E-02
 -1     26355-3.10829E+00 4.98821E-01-1.28282E+00 1.81050E+00-7.09012E-03 1.50756E-02
 -1     26356 9.73036E-01 4.46541E-01 6.99061E-01 4.55330E+00-6.49332E-03 1.04582E-02
 -1     26357 3.96676E+00 3.43064E+00 3.71488E+00 4.42406E+00-2.13797E-02 1.42275E-02
 -1     26358 1.22938E+01 1.17200E+01 1.19857E+01 4.20373E+00-3.27196E-03 1.08642E-02
 -1     26359 8.80752E+00 7.57143E+00 8.16971E+00 3.30131E+00-4.05821E-04 2.54889E-02
 -1     26360-6.52000E+00 1.61538E+00-2.70335E+00 4.07384E+00-3.49096E-01-8.31852E-02
 -1     26361 3.17809E+00 1.02796E+01 6.91025E+00 3.70639E+00-1.00601E-01 2.36134E-01
 -1     26362 6.52969E+00 1.90083E+01 1.27178E+01 6.32625E+00 1.05093E-01-4.40883E-01
 -1     26363 1.92878E+00 9.24346E+00 5.59207E+00 4.54043E+00-1.09144E-01-2.30635E-01
 -1     26364 5.27245E+00 1.82023E+00 3.52942E+00 3.20614E+00 5.92999E-03 9.44983E-03
 -1     26365 9.33891E+00 4.63234E+00 6.95568E+00 3.31707E+00-4.22509E-02-1.29591E-02
 -1     26366-1.47968E-01 1.07075E+01 5.42120E+00 6.95106E+00 3.67453E-03-1.40436E-01
 -1     26367 5.67951E+00 1.92353E+01 1.25075E+01 6.29919E+00 9.22092E-02 1.48992E-01
 -1     26368-1.13944E+01-8.73194E-01-6.01174E+00 6.21443E+00-1.05620E-01 1.42718E-01
 -1     26369-9.27523E-01 1.15097E+01 4.96950E+00 6.26266E+00 2.62323E-02-8.95789E-02
 -1     26370 9.88163E-01 1.38999E+01 7.49864E+00 6.55219E+00-1.90616E-03 5.09054E-02
 -1     26371-8.86073E+00 3.38689E+00-2.51897E+00 6.39528E+00 7.73814E-02 4.36408E-02
 -1     26372 8.53837E+00 2.28679E+00 5.41189E+00 5.99376E+00 4.39441E-03-9.36091E-04
 -1     26373 7.48503E+00 1.68179E+00 4.58434E+00 5.56336E+00 6.80690E-03 1.39578E-03
 -1     26374 7.58769E+00 1.78242E+00 4.68161E+00 5.57060E+00-2.22405E-03 9.06606E-03
 -1     26375 8.70044E+00 1.99726E+00 5.34769E+00 5.73644E+00 2.29762E-03-8.31938E-03
 -1     26376 8.65401E+00 1.94366E+00 5.27567E+00 5.74711E+00-1.05589E-02 1.73916E-02
 -1     26377 7.92161E+00 1.72572E+00 4.83177E+00 5.32341E+00 2.08692E-03-7.26497E-03
 -1     26378 2.53191E+00 2.78216E+00 2.76264E+00-1.84495E+00-7.25649E-02 4.65745E-02
 -1     26379 3.29439E-01 4.19888E-01 4.40102E-01-1.95267E+00-5.31599E-03 1.04575E-01
 -1     26380 1.05067E+01 6.67185E+00 8.59163E+00 9.26114E+00-1.19363E-02 1.46598E-03
 -1     26381 6.83172E+00 5.90732E+00 6.33359E+00 5.24890E+00-2.21772E-03-1.20242E-02
 -1     26382 7.61195E+00 6.61879E+00 7.06418E+00 5.34353E+00-1.81270E-02 1.51115E-02
 -1     26383 6.74828E+00 5.42131E+00 6.06131E+00 5.23060E+00 2.82164E-03 1.46963E-02
 -1     26384 8.39576E+00 7.13566E+00 7.73410E+00 5.23383E+00-1.27233E-02 2.36814E-03
 -1     26385 6.58806E+00 5.17004E+00 5.92089E+00 5.53040E+00 5.63802E-03-1.13800E-02
 -1     26386 7.49553E+00 5.89526E+00 6.73827E+00 5.47953E+00 1.62466E-02-1.97832E-02
 -1     26387 7.58725E+00 6.30496E+00 6.94980E+00 5.44826E+00 1.75122E-06 2.49276E-02
 -1     26388 6.04000E+00 4.61088E+00 5.29849E+00 5.56549E+00 8.15082E-03 1.68563E-02
 -1     26389 5.17310E+00 3.58716E+00 4.32433E+00 5.51456E+00 9.09210E-04 8.51430E-03
 -1     26390-4.08514E-01 1.03721E+01 4.90827E+00 7.09607E+00 2.41959E-02 1.18593E-01
 -1     26391-4.86510E+00 5.20030E+00 8.50890E-02 7.44681E+00-5.67471E-02 1.08714E-01
 -1     26392-4.08200E-01 1.00615E+01 4.76146E+00 6.83269E+00-1.39867E-01 4.97515E-02
 -1     26393 1.35989E+00 1.11362E+01 6.39090E+00 7.53311E+00 9.47570E-02-1.91496E-02
 -1     26394 2.03148E+00 1.21707E+01 7.18806E+00 7.05923E+00 1.60934E-01-8.98812E-02
 -1     26395-1.38140E+00 8.31930E+00 3.42318E+00 7.10580E+00 9.63458E-02-1.55246E-01
 -1     26396-1.73735E+01 1.03820E+00-8.28674E+00-4.19264E+00 1.52478E-01-2.40734E-01
 -1     26397-2.03020E+01-1.44865E+00-1.05945E+01-5.26219E+00 4.77704E-02 1.91154E-02
 -1     26398-1.93469E+01-1.37201E+00-1.05006E+01-4.62215E+00-4.57496E-02-8.69439E-02
 -1     26399 9.07450E+00 3.54742E+00 6.32112E+00 7.22001E+00 4.42337E-03-1.02083E-02
 -1     26400 9.74619E+00 3.83062E+00 6.78713E+00 6.77108E+00 8.21676E-03-3.77199E-03
 -1     26401 1.30032E+01 1.06691E+01 1.18444E+01 1.13845E+01 1.03200E-02 1.11214E-02
 -1     26402 1.19886E+01 9.64538E+00 1.08191E+01 1.13270E+01 1.70089E-03 1.60968E-02
 -1     26403 1.26486E+01 1.03106E+01 1.14812E+01 1.14554E+01 4.13438E-03 7.23387E-03
 -1     26404 9.58727E+00 8.41923E+00 9.02423E+00 8.88157E+00-2.54311E-03-2.07177E-03
 -1     26405 9.54770E+00 6.28836E+00 7.88754E+00 8.48572E+00 6.75360E-03-3.39339E-03
 -1     26406 9.25577E+00 6.42669E+00 7.82241E+00 8.71119E+00 1.01570E-02-8.18963E-03
 -1     26407 1.03781E+01 7.09363E+00 8.70000E+00 8.75716E+00 4.50279E-03-1.30173E-02
 -1     26408 1.07106E+01 6.62583E+00 8.66542E+00 8.49886E+00-1.37349E-02-1.33218E-03
 -1     26409 1.10138E+01 7.34465E+00 9.19053E+00 8.46770E+00-1.50941E-02 5.68815E-03
 -1     26410 2.59093E+00-1.61971E+00 4.88075E-01 2.08177E+00 1.68803E-02 1.44722E-02
 -1     26411 5.98461E+00 2.17557E+00 4.08260E+00 1.96090E+00-4.97257E-03 6.95741E-03
 -1     26412 1.82347E+00-2.14725E+00-1.62045E-01 2.33226E+00-7.72411E-03-1.22332E-03
 -1     26413 4.42661E+00 2.97959E-02 2.23492E+00 2.44015E+00-1.55725E-02 1.30996E-02
 -1     26414 7.19684E+00 5.60686E+00 6.36897E+00 5.40037E+00 7.32286E-04-1.48917E-02
 -1     26415 6.37100E+00 4.46412E+00 5.42156E+00 5.46503E+00-9.81596E-03-9.84456E-03
 -1     26416 3.65363E+00-1.18020E+00 1.23644E+00 2.66760E+00 5.41144E-03 8.75343E-03
 -1     26417 6.67404E+00 1.73514E+00 4.19148E+00 2.92816E+00 7.67361E-03-3.60143E-03
 -1     26418 3.58715E+00 8.13133E+00 5.85878E+00 7.09239E+00 5.27874E-03 1.37793E-02
 -1     26419 2.31122E+00 7.73318E+00 5.04582E+00 7.00720E+00 4.23934E-02 1.43918E-02
 -1     26420 2.73998E+00 8.14067E+00 5.49838E+00 6.61881E+00-3.27240E-03-9.76177E-03
 -1     26421 1.23846E+01 1.00548E+01 1.12293E+01 1.14498E+01 6.48465E-03-1.62003E-02
 -1     26422 1.00590E+01 7.80085E+00 8.88772E+00 8.65586E+00 1.17258E-02 2.49861E-03
 -1     26423 1.03720E+01 7.46590E+00 8.95419E+00 8.58275E+00 1.84222E-02-1.33992E-02
 -1     26424 9.59917E+00 7.14158E+00 8.33192E+00 8.21189E+00 1.97324E-02 7.75504E-03
 -1     26425 8.82599E+00 5.66080E+00 7.23399E+00 8.29041E+00 2.04585E-02-1.21858E-02
 -1     26426 5.69960E+00 4.67389E+00 5.15509E+00 5.14020E+00-7.75074E-03-6.21263E-03
 -1     26427 5.58206E+00 4.72274E+00 5.13167E+00 5.16601E+00-2.49075E-03-1.49679E-02
 -1     26428 5.78528E+00 4.91929E+00 5.39549E+00 5.19501E+00 1.96283E-03-2.62995E-02
 -1     26429-1.73256E+01 9.99010E-02-8.58731E+00-5.84845E+00 9.81294E-02 5.58658E-02
 -1     26430-1.80471E+01-5.33140E-01-9.34380E+00-6.15881E+00-9.09283E-02 6.27264E-03
 -1     26431-1.87430E+01-9.52121E-01-9.80415E+00-5.96259E+00 1.59562E-01-2.64468E-02
 -1     26432-1.99892E+01-2.20929E+00-1.10969E+01-6.44159E+00-2.18111E-02 7.27543E-02
 -1     26433-2.03380E+01-2.17257E+00-1.13625E+01-6.49165E+00 6.31677E-02-7.70560E-02
 -1     26434 5.38789E+00 3.94396E-01 2.89037E+00 4.21207E+00 4.85525E-03 5.87283E-03
 -1     26435 1.09427E+01 9.90976E+00 1.04560E+01 1.03791E+01-7.69886E-03-4.68694E-02
 -1     26436 1.05793E+01 9.58060E+00 1.01080E+01 1.02183E+01 1.77098E-02-8.21850E-03
 -1     26437 1.01435E+01 9.14003E+00 9.64756E+00 9.97609E+00 2.58334E-02-3.70012E-03
 -1     26438-2.71323E-01-1.94879E+00-1.11467E+00 1.98252E+00 4.98143E-03-1.20028E-03
 -1     26439 1.01974E+01 4.05008E+00 7.12233E+00 7.07098E+00 8.42850E-03 4.16998E-03
 -1     26440 1.02736E+01 4.35929E+00 7.31729E+00 7.21690E+00-2.77254E-03-2.43499E-03
 -1     26441 9.37117E+00 3.06703E+00 6.22627E+00 6.79529E+00-4.78470E-03-2.75860E-03
 -1     26442 7.99406E+00 3.04957E+00 5.49595E+00 5.50537E+00-4.29776E-03-2.75654E-02
 -1     26443 1.00509E+01 4.80904E+00 7.42952E+00 5.27025E+00 1.02042E-02 4.50824E-03
 -1     26444 9.41131E+00 3.98479E+00 6.69372E+00 5.69441E+00 6.72531E-03-2.41765E-02
 -1     26445 9.42888E+00 3.65615E+00 6.53327E+00 5.39678E+00-1.82291E-02-1.49091E-02
 -1     26446-1.28131E+01-4.60087E+00-8.58278E+00-2.91180E+00-2.46352E-01 1.29476E-01
 -1     26447-1.49616E+01-6.58820E+00-1.10319E+01-2.78345E+00-7.86825E-02-9.44094E-02
 -1     26448-9.13628E+00-1.49784E+00-5.30946E+00-2.73812E+00 2.75724E-03 1.03365E-01
 -1     26449-7.64084E+00 5.07896E-01-3.64867E+00-2.68179E+00-2.23823E-02-6.42167E-02
 -1     26450 9.26098E+00 3.43148E+00 6.34614E+00 4.64946E+00-4.25127E-03 2.87160E-02
 -1     26451 1.05139E+01 4.37169E+00 7.44997E+00 4.75944E+00-1.73768E-02 6.50489E-08
 -1     26452 8.06471E+00 2.22001E+00 5.14032E+00 4.32457E+00-1.91340E-02 1.45359E-02
 -1     26453 8.46929E+00 2.18638E+00 5.32557E+00 4.39872E+00-2.00722E-02-4.63894E-03
 -1     26454 3.86582E+00 3.86760E+00 3.86610E+00 5.12355E+00 8.01392E-03 5.97634E-03
 -1     26455-1.21666E+01-1.03893E+00-6.58220E+00-3.97768E+00 4.50509E-02 5.56316E-03
 -1     26456-1.19593E+01-1.01315E+00-6.44681E+00-3.91360E+00 9.48923E-03-7.12309E-03
 -1     26457 3.20457E-01 7.06050E+00 3.66940E+00 5.68063E+00 1.59066E-02 2.70800E-03
 -1     26458 8.09234E-01 7.79454E+00 4.25054E+00 6.20112E+00 4.15497E-02-2.22164E-02
 -1     26459 7.62166E-01 6.89205E+00 3.82607E+00 6.09354E+00 8.48318E-03-4.30580E-02
 -1     26460 8.96801E-01 6.59818E+00 3.70822E+00 6.64602E+00-2.36697E-02-1.02857E-02
 -1     26461-2.05207E+01-2.59503E+00-1.13659E+01-5.79389E+00-2.45926E-02-3.72838E-02
 -1     26462-2.29451E+01-4.68348E+00-1.39496E+01-6.11812E+00 7.04450E-02 2.77175E-01
 -1     26463-1.01318E+01 2.17175E+00-3.86156E+00-4.96602E-01-7.70546E-02 1.00352E-03
 -1     26464-1.96693E+01-4.24323E+00-1.20019E+01-1.17572E+00-2.73353E-02 1.21169E-01
 -1     26465-1.43098E+01-1.99397E+00-8.06865E+00-1.03816E+00 6.12705E-02-1.23081E-01
 -1     26466-1.44803E+01 9.80620E-01-6.79845E+00-1.66205E+00 1.13662E-03-7.39480E-03
 -1     26467 3.75816E+00 1.45591E+00 2.61743E+00 4.47505E+00-1.69695E-03 1.37712E-02
 -1     26468 4.37875E+00 1.97357E+00 3.20665E+00 4.80995E+00-4.97061E-03 1.45912E-03
 -1     26469 5.14350E+00 3.45078E+00 4.29839E+00 5.50486E+00 5.21355E-03-6.20749E-03
 -1     26470 5.84029E+00 3.96230E+00 4.90018E+00 5.93834E+00-8.36786E-04-2.06064E-03
 -1     26471-8.67432E+00-9.48980E-01-5.04149E+00-2.64990E+00-4.78834E-02-1.50832E-01
 -1     26472-1.46080E+01-8.47184E+00-1.16424E+01-1.35013E+00 2.60286E-01 2.37319E-01
 -1     26473-4.32673E+00 1.34073E+00-1.82839E+00 4.88550E-02-7.83612E-02-4.64778E-01
 -1     26474-6.79880E+00-1.06749E+00-3.66410E+00 4.32268E-01-1.08509E-01 2.15373E-01
 -1     26475-8.87891E+00-3.63220E+00-6.41455E+00 1.72705E+00-2.78555E-02-3.16440E-01
 -1     26476-9.55379E+00-1.18348E+00-5.49551E+00-2.95693E+00 1.28293E-01 2.34351E-02
 -1     26477-4.84469E-01 7.23483E+00 3.38958E+00 6.38938E+00-1.11466E-02-1.20505E-02
 -1     26478-2.55590E+00 5.12042E+00 1.26108E+00 4.01859E+00-1.72360E-02 1.41122E-02
 -1     26479-3.48950E+00 4.01245E+00 2.28492E-01 4.67243E+00 3.35420E-02-7.06411E-03
 -1     26480-1.60306E+01-1.68756E+00-8.83223E+00-5.13521E+00-4.78297E-03 2.18674E-02
 -1     26481-1.61794E+01-1.68698E+00-8.99722E+00-5.20423E+00-6.72222E-03 8.97675E-03
 -1     26482-1.53173E+01-1.53747E+00-8.43696E+00-4.72651E+00-3.67983E-03 1.34964E-02
 -1     26483-1.55616E+01-1.53930E+00-8.55546E+00-5.03405E+00-2.85009E-04-1.94082E-02
 -1     26484-1.57085E+01-1.53291E+00-8.67593E+00-5.07829E+00-7.13832E-03-1.90142E-02
 -1     26485 1.71356E+00 6.80728E+00 4.22993E+00 6.04827E+00-1.22924E-02 2.59591E-02
 -1     26486 1.96930E+00 6.65560E+00 4.30499E+00 6.01523E+00-3.09713E-03 1.63538E-02
 -1     26487 8.76039E+00 5.01347E+00 6.88092E+00 4.78548E+00 2.30243E-02-2.51858E-02
 -1     26488 7.66087E+00 4.59126E+00 6.12954E+00 4.72489E+00 1.58400E-02-1.47297E-02
 -1     26489 5.02597E+00 5.63383E+00 5.32901E+00 6.39992E+00-3.86455E-03-2.02394E-05
 -1     26490-4.02876E+00 3.46133E+00-3.06443E-01 1.12829E+00 1.67197E-02 2.31856E-02
 -1     26491-6.86280E+00 1.31673E+00-2.78679E+00 3.07170E-01 2.33229E-02 2.02799E-02
 -1     26492 1.34423E+01 1.04089E+01 1.18709E+01 1.03066E+01-1.14042E-03-8.79284E-03
 -1     26493 1.19358E+01 9.32299E+00 1.05969E+01 1.08911E+01-5.57417E-03 7.63603E-03
 -1     26494 1.19648E+01 9.11372E+00 1.05098E+01 1.06277E+01-8.33953E-03-1.11200E-02
 -1     26495 1.24827E+01 9.69540E+00 1.11309E+01 1.06210E+01 8.39019E-03-2.46649E-02
 -1     26496-5.19018E-01 6.76264E+00 3.13010E+00 5.78148E+00-1.74240E-02 2.32089E-02
 -1     26497-1.89202E+01-2.14878E+00-1.05339E+01-6.26297E+00-4.89423E-03-1.20764E-02
 -1     26498-1.86478E+01-1.94814E+00-1.02741E+01-6.24193E+00-2.36252E-02-1.01149E-02
 -1     26499-1.85792E+01-1.89208E+00-1.02280E+01-6.23676E+00-1.39537E-02-4.61433E-03
 -1     26500-3.42322E+01-1.24766E+01-2.38410E+01-6.85435E+00-2.21104E-01 9.31538E-01
 -1     26501-2.51243E+01-2.99374E+00-1.44701E+01-2.58833E+00-1.39721E-01 2.96419E-01
 -1     26502-5.11074E+01-2.86291E+01-4.00294E+01-2.85761E+00-1.94289E-02-3.28100E-01
 -1     26503-3.02701E+01-4.22971E+00-1.69064E+01-7.62224E+00 5.01107E-01 1.45973E-01
 -1     26504-1.67154E+01 7.48757E+00-4.52735E+00-6.37086E+00 4.86461E-01 8.83536E-01
 -1     26505-3.79427E+01-1.11496E+01-2.33821E+01-2.43447E+00-7.31066E-01-8.00939E-01
 -1     26506-1.76558E+01-1.83451E+00-9.74013E+00-5.76105E+00-1.77108E-03-1.63846E-02
 -1     26507-1.77865E+01-1.97440E+00-9.88765E+00-5.76408E+00-1.34667E-02-1.34707E-03
 -1     26508 2.87741E+00 7.53401E+00 5.15787E+00 6.71771E+00-4.43832E-03 3.23501E-02
 -1     26509 4.70561E+00 1.72322E+01 1.11023E+01 6.51320E+00-5.39014E-02 6.75818E-03
 -1     26510-3.24778E+00 8.70436E+00 2.63207E+00 5.98074E+00 1.58835E-01-1.32606E-01
 -1     26511 4.04898E+00 8.48766E+00 6.25074E+00 6.22127E+00-8.59171E-03-8.53848E-03
 -1     26512 4.04909E+00 8.28086E+00 6.16389E+00 6.64121E+00-6.42890E-03 1.56913E-02
 -1     26513 1.63848E+00 6.52963E+00 4.09034E+00 5.54925E+00 7.41851E-03 2.08701E-03
 -1     26514 4.47082E+00 5.29366E+00 4.88659E+00 5.30844E+00-1.25083E-02-2.18291E-03
 -1     26515 4.40003E+00 4.95214E+00 4.67204E+00 5.90857E+00 1.00897E-02 7.97792E-03
 -1     26516 5.54294E+00 5.77764E+00 5.65994E+00 5.96551E+00 9.55156E-03 5.82569E-03
 -1     26517-1.79081E+01-1.11139E+00-9.56085E+00-5.37916E+00 6.72880E-03 1.98923E-02
 -1     26518-1.72037E+01-9.62607E-01-9.13406E+00-4.64672E+00-1.92682E-02 4.93792E-02
 -1     26519-1.57190E+01-2.92463E+00-9.28118E+00-4.35488E+00 5.25114E-03 1.58879E-03
 -1     26520-1.57067E+01-2.10760E+00-8.92988E+00-4.88148E+00-5.30903E-02 7.78565E-03
 -1     26521-1.37744E+01-1.15489E+00-7.48908E+00-4.10328E+00-2.41912E-02 3.95769E-03
 -1     26522-1.35996E+01-6.51026E-01-7.09498E+00-4.22054E+00-5.28671E-03-2.52474E-03
 -1     26523-1.24196E+01 2.96665E-01-6.08046E+00-3.97581E+00-1.12867E-02 1.55042E-02
 -1     26524-1.79389E+01-1.84850E+00-9.88970E+00-5.94863E+00 6.32469E-03-4.70689E-03
 -1     26525-1.68439E+01-1.77511E+00-9.30701E+00-5.42659E+00 2.93512E-03-5.33766E-03
 -1     26526-1.70286E+01-1.63375E+00-9.32320E+00-5.59998E+00 7.62711E-03-2.34185E-04
 -1     26527-1.81361E+01-1.94466E+00-1.00480E+01-6.01529E+00-3.42666E-04-3.72237E-03
 -1     26528-1.61254E+01-1.73016E+00-8.91937E+00-5.08284E+00 5.65655E-03 5.14603E-04
 -1     26529 5.76397E+00 7.99712E+00 6.92658E+00 7.99534E+00 1.32707E-02 1.14062E-02
 -1     26530 3.92518E+00 7.45844E+00 5.67509E+00 6.92155E+00-2.28632E-02 1.52650E-02
 -1     26531-2.60622E+01-4.82093E+00-1.50349E+01-2.68267E-01-3.64494E-01 1.48451E-01
 -1     26532-2.69447E+01-5.55145E+00-1.70326E+01 2.60066E-01 7.87028E-01-4.62425E-01
 -1     26533 7.91701E+00 3.37596E+00 5.65242E+00 6.63491E+00 1.40065E-02-1.51020E-03
 -1     26534 5.13025E+00 4.18097E+00 4.67849E+00 5.24719E+00 9.15565E-04 9.24889E-03
 -1     26535 6.86640E+00 5.69656E+00 6.34500E+00 5.32898E+00-3.72600E-03 2.65000E-02
 -1     26536 5.81281E+00 4.94789E+00 5.37441E+00 5.22450E+00-9.36309E-03-1.61526E-02
 -1     26537 5.76703E+00 4.94080E+00 5.37373E+00 5.22705E+00-1.30638E-03 1.06743E-03
 -1     26538 6.07802E+00 5.19977E+00 5.65745E+00 5.31707E+00-1.15750E-02-2.04128E-02
 -1     26539-3.75929E+01-1.73837E+01-2.77798E+01-6.50047E+00-3.78371E-01 4.43195E-01
 -1     26540-7.34063E+00 1.03986E+01 1.72440E+00-7.43948E+00 3.64477E-01-4.50837E-01
 -1     26541-2.19209E+01-8.51733E-01-1.08435E+01-7.10204E+00-2.84220E-01-3.57398E-01
 -1     26542-3.51971E+01-1.17290E+01-2.33645E+01-5.64594E+00-1.77805E-01 6.39874E-01
 -1     26543-1.12836E+01 8.58764E+00-7.98757E-01-6.73320E+00 1.69519E-01-3.75670E-01
 -1     26544 3.25690E+00 6.85549E+00 5.07312E+00 6.88010E+00-1.44799E-02 3.71991E-03
 -1     26545 5.94646E+00 5.64386E+00 5.77933E+00 5.49169E+00 1.05370E-02 1.24649E-02
 -1     26546 6.46301E+00 5.40711E+00 5.93880E+00 5.16827E+00-1.05972E-02 2.63263E-02
 -1     26547 7.27138E+00 2.31029E-01 3.76756E+00 5.19400E+00 2.03497E-02 4.47557E-04
 -1     26548 1.11000E+01 4.17370E+00 7.64888E+00 5.47906E+00 3.73990E-04-1.62661E-02
 -1     26549 9.98591E+00 2.84912E+00 6.41658E+00 5.28715E+00-4.80037E-05 2.68604E-03
 -1     26550-1.18831E+01-9.43971E-01-6.42378E+00-3.73995E+00 4.86400E-02 2.86462E-02
 -1     26551-1.19782E+01-1.25862E+00-6.64313E+00-3.62160E+00 3.72938E-02-3.15103E-02
 -1     26552-1.08840E+01-6.20242E-01-5.73407E+00-3.52027E+00 7.37375E-02 1.34145E-02
 -1     26553 1.15224E+01 9.10131E+00 1.03329E+01 1.07145E+01-1.45066E-02 2.35458E-02
 -1     26554 1.17892E+01 9.35636E+00 1.05930E+01 1.08177E+01 1.98794E-02 2.91957E-03
 -1     26555 1.18809E+01 8.93338E+00 1.03974E+01 1.02537E+01-9.37655E-03 7.02903E-03
 -1     26556 1.14428E+01 7.93206E+00 9.68599E+00 9.57986E+00-2.06788E-02 2.70603E-03
 -1     26557 1.16245E+01 8.05608E+00 9.83859E+00 9.65483E+00-9.31423E-03-9.50976E-03
 -1     26558 7.73755E+00 3.55885E+00 5.64941E+00 6.21173E+00-4.48400E-03-5.92190E-04
 -1     26559-1.48381E+01 5.28871E+00-4.94421E+00-8.30812E+00-3.22864E-01 1.15945E+00
 -1     26560-2.40058E+01-5.84918E+00-1.58612E+01-9.60994E+00-1.83146E-01 8.20761E-01
 -1     26561-9.04428E+00 1.10364E+01 4.55752E-01-8.09312E+00 3.16535E-02 1.26996E-01
 -1     26562-2.31786E+01-4.88964E+00-1.38110E+01-6.91349E+00-6.60819E-01 6.85985E-01
 -1     26563-1.79983E+01-4.99368E+00-1.25311E+01-7.59854E+00-9.52610E-01-1.52685E-01
 -1     26564 5.34534E+00 5.25276E+00 5.31195E+00 5.54996E+00 1.78230E-02 9.58304E-03
 -1     26565 5.71725E+00 5.43922E+00 5.59687E+00 5.51202E+00 1.64458E-02 2.26771E-02
 -1     26566 5.59588E+00 5.42759E+00 5.49266E+00 5.55697E+00 9.91469E-03 2.89083E-02
 -1     26567 6.05125E+00 5.91764E+00 5.97686E+00 5.55711E+00-1.04715E-02-1.05533E-02
 -1     26568 5.22916E+00 5.03299E+00 5.13837E+00 5.50509E+00-3.67973E-03-1.54443E-02
 -1     26569 6.38255E+00 6.10645E+00 6.23878E+00 5.50764E+00-3.44538E-03-3.11783E-03
 -1     26570-1.17243E+01 1.99743E+01 5.10238E+00-4.51366E+00 2.01084E-01 6.94873E-01
 -1     26571-2.36459E+00 3.05140E+01 1.50127E+01-1.52000E+00 4.94981E-01 1.18607E+00
 -1     26572-4.24375E+01-3.75904E+01-3.99171E+01 6.35330E-01 2.06346E-01 4.45776E-02
 -1     26573-3.87270E+01-3.23187E+01-3.57227E+01 9.73686E-01-4.20947E-03 8.14446E-03
 -1     26574-3.60168E+01-2.93663E+01-3.27426E+01 1.26613E+00 9.00146E-02 1.63125E-01
 -1     26575-4.02738E+01-3.65856E+01-3.80656E+01 2.32825E-01-4.23593E-02 4.42233E-04
 -1     26576-4.53818E+00 3.49970E+00-6.18918E-01 1.23899E+00 1.27367E-01 1.65114E-02
 -1     26577-2.69753E+00 4.30835E+00 8.36859E-01 4.08260E+00-4.24120E-02 2.02214E-02
 -1     26578-1.24938E+00 5.68019E+00 2.21414E+00 3.82104E+00 6.67617E-04 5.10604E-04
 -1     26579-8.81714E-01 5.70213E+00 2.40965E+00 4.48852E+00-1.28259E-02 3.37164E-04
 -1     26580-1.86265E+00 2.71259E+00 4.24999E-01 2.27102E+00 4.09068E-04-1.12384E-04
 -1     26581-1.53574E+01-1.47928E+00-8.42273E+00-4.68228E+00 4.97858E-03 3.78444E-03
 -1     26582-1.68241E+01-1.87950E+00-9.34771E+00-5.24320E+00 1.69678E-03-1.29660E-02
 -1     26583-1.64355E+01-1.66430E+00-9.04947E+00-5.20182E+00-2.27449E-03-4.66176E-03
 -1     26584 6.81051E+00 6.78150E+00 6.80372E+00 5.63615E+00 2.04816E-02 1.68695E-02
 -1     26585-1.91763E+01-2.07397E+00-1.05849E+01-6.39348E+00-2.94108E-02-8.81886E-05
 -1     26586-1.92441E+01-2.02987E+00-1.06599E+01-6.34161E+00-1.09685E-02-1.88716E-02
 -1     26587 3.34252E-01 4.16619E+00 2.25335E+00 3.85945E+00-5.82365E-03-3.43148E-04
 -1     26588-9.39053E-01 3.78301E+00 1.41749E+00 3.01201E+00 4.41056E-03-4.24682E-03
 -1     26589 7.59296E+00 4.14682E+00 5.94697E+00 3.33050E+00-1.72558E-02 6.48412E-02
 -1     26590 8.66979E+00 4.25948E+00 6.48850E+00 3.54073E+00 2.94658E-02 3.06637E-02
 -1     26591 4.73934E+00 1.53096E+00 3.22608E+00 3.65590E+00 5.61033E-02 2.60938E-02
 -1     26592 5.79441E+00 3.63415E+00 4.73507E+00 3.53652E+00 4.55225E-03 4.02382E-02
 -1     26593 7.32381E+00 4.10010E+00 5.66272E+00 3.71532E+00 7.76656E-02-2.12920E-03
 -1     26594 5.18883E+00 1.01521E+00 3.10123E+00 2.05152E+00 6.30721E-04 1.33514E-02
 -1     26595 5.76066E+00 2.58077E+00 4.23384E+00 1.25843E+00 7.61893E-02-5.27939E-02
 -1     26596 8.57213E+00 3.36107E+00 5.96509E+00 6.95463E+00 3.65177E-03-7.72890E-03
 -1     26597 5.25978E-01 9.04800E+00 4.72837E+00 7.65116E+00 5.77983E-02 8.38256E-02
 -1     26598-1.17870E+00 8.43526E+00 3.73201E+00 7.53068E+00-4.28733E-02 1.40377E-02
 -1     26599 4.61945E+00 7.64993E+00 6.13941E+00 6.98008E+00-1.16775E-02 8.39083E-03
 -1     26600 6.18050E+00 8.05827E+00 7.14561E+00 8.06483E+00 7.16367E-03-1.28308E-02
 -1     26601 6.22742E+00 5.11432E+00 5.72750E+00 1.72127E+00 5.15652E-02 1.12381E-02
 -1     26602 5.54623E+00 3.38401E+00 4.47232E+00 1.69735E+00 3.02592E-02-7.03515E-03
 -1     26603-6.28109E+00 8.19315E-01-2.73049E+00-4.02709E-01 6.66548E-03 2.07142E-02
 -1     26604-7.78677E+00 3.39165E-01-3.71921E+00-1.08793E+00 4.71502E-03 9.34652E-04
 -1     26605-5.46802E+00 8.85563E-01-2.27778E+00 1.59973E-01-2.09938E-03 1.00052E-02
 -1     26606 9.83770E+00 6.93610E+00 8.37147E+00 1.35337E+00-2.29173E-02-4.14174E-02
 -1     26607 8.64125E+00 4.63886E+00 6.64815E+00 2.10799E+00-2.56023E-02 4.19303E-02
 -1     26608-1.64368E+01-1.48448E+00-8.97951E+00-5.37239E+00-9.28185E-03 5.89938E-03
 -1     26609-1.68504E+01-1.77737E+00-9.31937E+00-5.43214E+00-4.31079E-03-4.88256E-03
 -1     26610 1.13446E+01 9.52149E+00 1.04137E+01 6.73677E-01 3.67353E-02 2.63287E-02
 -1     26611 2.89671E+00 9.29206E-01 1.96524E+00 8.06464E-01-3.79680E-02-4.95774E-02
 -1     26612 2.04761E+00-1.14896E+00 3.79476E-01 1.57102E+00-3.93445E-02 5.30206E-02
 -1     26613-1.37506E+01-1.05714E+01-1.17282E+01 2.79623E-01 4.12172E-02 1.26228E-01
 -1     26614-4.88460E+01-4.43675E+01-4.62077E+01 2.03646E+00-8.55318E-02 1.11663E-01
 -1     26615-5.54351E+01-5.18797E+01-5.35815E+01 6.06025E-01-3.57323E-01-2.01800E-01
 -1     26616 9.28965E+00 3.60779E+00 6.44734E+00 4.83777E+00-4.76140E-04 1.89134E-03
 -1     26617 9.47281E+00 3.26008E+00 6.36411E+00 4.92546E+00 8.13158E-04 1.82685E-02
 -1     26618 8.08608E+00 2.27093E+00 5.19441E+00 4.63202E+00-1.65487E-02-9.76771E-03
 -1     26619 5.03575E+00 4.56442E+00 4.80554E+00 5.49781E+00-2.12775E-02 8.23475E-03
 -1     26620 5.88486E+00 5.58286E+00 5.75575E+00 5.52315E+00-4.49780E-02-8.74401E-03
 -1     26621 6.08929E+00 5.53032E+00 5.81071E+00 5.58389E+00-4.49197E-02 1.52959E-04
 -1     26622 6.08233E+00 5.79880E+00 5.97572E+00 5.59938E+00 1.86837E-02-5.97959E-04
 -1     26623 6.53496E+00 6.40042E+00 6.48119E+00 5.55709E+00 2.08194E-02 8.72115E-04
 -1     26624 5.19792E+00 5.05489E+00 5.17137E+00 5.61510E+00-1.50938E-02-2.25072E-04
 -1     26625-1.34497E+00-3.55587E+00-2.45807E+00 1.56067E+00 2.73815E-02-2.32726E-03
 -1     26626 1.53735E+00 3.17104E-01 9.05604E-01 1.43194E+00-1.14241E-02-3.19601E-03
 -1     26627 8.70407E+00 7.72951E+00 8.26644E+00 8.58123E-01 2.71791E-02 3.20434E-03
 -1     26628 4.00247E+00 2.92132E+00 3.45625E+00 4.77267E-01 5.09579E-03-3.70650E-02
 -1     26629 1.66635E+00 6.44140E-01 1.17717E+00 7.81009E-01-7.62629E-04-2.20964E-05
 -1     26630 8.39384E+00 1.33613E+00 4.86203E+00 5.24613E+00-3.01935E-03 2.11113E-03
 -1     26631 8.64288E+00 1.56484E+00 5.12280E+00 5.06516E+00-5.16266E-03-7.77062E-03
 -1     26632 7.63637E+00 7.32121E-01 4.20441E+00 4.89903E+00-1.82632E-03 1.46674E-02
 -1     26633-1.11641E+01-6.19422E-01-5.86951E+00-1.73284E+00 9.97500E-03 2.04759E-02
 -1     26634-9.05691E+00 1.30153E+00-3.87518E+00-1.48817E+00 1.02061E-02 1.45342E-02
 -1     26635-5.26750E+00 2.16856E+01 7.31620E+00-3.16738E+00-4.14017E-01 6.72168E-01
 -1     26636-1.95731E+01 6.50107E+00-6.69015E+00-2.13764E+00-1.94618E-01 1.42229E-02
 -1     26637-2.39491E+01 8.91727E-01-1.22229E+01 1.21816E+00-3.10989E-01-3.29429E-01
 -1     26638-1.34838E+01 7.67796E+00-3.20897E+00-1.97767E+00 1.54278E-01 5.77750E-02
 -1     26639 2.78259E+00 4.21284E+00 3.50762E+00 4.25338E+00 3.32288E-03 1.91112E-04
 -1     26640 2.56917E+00 3.72279E+00 3.14050E+00 4.73353E+00 1.17279E-02 9.39975E-03
 -1     26641 8.40194E+00 1.36176E+00 4.89336E+00 5.09608E+00-3.78138E-02 2.47368E-02
 -1     26642 8.23590E+00 1.21058E+00 4.72017E+00 4.74222E+00 1.42171E-02 2.86830E-03
 -1     26643-8.42961E+00 9.72632E+00 6.19478E-01-3.81750E-01-2.18660E-01-3.87348E-03
 -1     26644-3.60310E+01-2.13244E+01-2.91597E+01 1.42241E+00-3.69581E-01-3.56834E-01
 -1     26645 1.20426E+01 9.59568E+00 1.07861E+01 1.09647E+01 7.31320E-03 4.99983E-03
 -1     26646-7.80338E+00 1.07896E+00-3.33619E+00-2.92808E-01-2.70975E-02-4.50957E-03
 -1     26647-6.91572E+00 2.02760E+00-2.43727E+00-5.67412E-01-6.15124E-03 5.12453E-03
 -1     26648-8.59479E+00 1.08297E+00-3.75449E+00-1.16909E+00 3.92783E-03 1.13773E-02
 -1     26649 8.41971E+00 1.72535E+00 5.08809E+00 5.02909E+00-1.14496E-02 1.22836E-02
 -1     26650 1.13014E+01 9.67581E+00 1.05155E+01 1.01230E+01 1.28227E-02 1.27913E-02
 -1     26651 6.66815E+00 5.18976E+00 5.87895E+00 5.42494E+00 8.26540E-03 5.88690E-03
 -1     26652 5.92742E+00 4.35220E+00 5.15639E+00 5.39236E+00-1.90964E-02-1.29619E-02
 -1     26653 5.63972E+00 3.88657E+00 4.75205E+00 5.50931E+00-3.75848E-03-1.81594E-04
 -1     26654-7.67058E+00 1.75591E+00-2.97006E+00-6.09830E-01-2.92484E-02-3.86193E-02
 -1     26655-6.70828E+00 2.38119E+00-2.25565E+00 6.13734E-03 3.40471E-03 5.71739E-04
 -1     26656-9.24315E+00-3.43655E-01-4.81175E+00 4.27593E-01 5.03645E-03-2.36786E-02
 -1     26657 9.87530E+00 5.09975E+00 7.49167E+00 5.78663E+00 1.13607E-03-8.98227E-03
 -1     26658 4.13306E+00 3.01351E+00 3.65133E+00 2.14705E+00 2.20024E-02-1.14015E-02
 -1     26659 1.32919E+01 1.09446E+01 1.21359E+01 1.16011E+01-1.12673E-02 4.94761E-03
 -1     26660 1.18875E+01 8.94867E+00 1.04273E+01 1.02859E+01-2.20196E-02 1.81877E-02
 -1     26661 1.21417E+01 9.44985E+00 1.07949E+01 1.08834E+01-6.80858E-03 1.28902E-02
 -1     26662 1.18559E+01 9.29031E+00 1.05917E+01 1.07314E+01-1.45640E-02 1.66345E-02
 -1     26663 1.17367E+01 8.84908E+00 1.02803E+01 1.00403E+01 2.29260E-03 1.49811E-02
 -1     26664 7.79992E+00 2.51236E+00 5.17277E+00 4.98849E+00-1.15184E-02-1.54242E-02
 -1     26665 9.09225E+00 3.23311E+00 6.16097E+00 5.17845E+00-4.09051E-03-1.05333E-02
 -1     26666-4.66861E+01-2.06531E+01-3.39686E+01 3.28274E+00 4.92689E-01-1.87922E-01
 -1     26667-4.63715E+01-1.42460E+01-3.04454E+01-2.42609E+00 6.99417E-01 5.94989E-01
 -1     26668-1.00168E+02-6.93438E+01-8.27369E+01-2.54988E+00-1.05423E-01-1.51242E-01
 -1     26669 8.22015E+00 6.59770E+00 7.41520E+00 6.54144E+00 1.67999E-02-1.13576E-02
 -1     26670 7.16177E+00 5.58369E+00 6.36375E+00 6.43711E+00 2.82940E-02-1.95842E-02
 -1     26671 7.56409E+00 5.91254E+00 6.72526E+00 6.77496E+00-1.51314E-03-5.13873E-03
 -1     26672-8.53294E+00 2.70802E-01-4.13026E+00-1.52411E+00 1.61546E-03-2.15793E-03
 -1     26673-9.87803E+00-1.45769E-01-5.00260E+00-2.18901E+00-6.64584E-03-1.42975E-02
 -1     26674-8.73384E+00 2.11267E-01-4.25427E+00-1.62306E+00 1.46001E-03 8.35224E-04
 -1     26675-1.37414E+01-2.81663E+00-8.26248E+00-2.10991E-01 1.77128E-02 7.66318E-02
 -1     26676-1.10249E+01-1.17588E+00-6.06488E+00 6.50133E-01 5.96204E-02 6.74089E-02
 -1     26677-1.58903E+01-5.03643E+00-1.06203E+01 2.43905E-01-4.58557E-02 8.58595E-02
 -1     26678 9.17262E+00 2.81833E+00 5.98564E+00 6.28667E+00 7.23022E-03-5.53048E-03
 -1     26679 8.89879E+00 1.96200E+00 5.42850E+00 5.61483E+00 8.72507E-04 8.52781E-03
 -1     26680 7.85196E+00 8.46791E+00 8.16627E+00 8.33494E+00-1.57417E-02 4.51347E-02
 -1     26681 9.80159E+00 9.63978E+00 9.69575E+00 9.12795E+00 1.23735E-02-3.08294E-03
 -1     26682 7.97511E+00 8.30049E+00 8.15826E+00 8.39660E+00-2.24043E-02 6.79595E-03
 -1     26683 6.00861E+00 7.48941E+00 6.75589E+00 7.29719E+00-9.02504E-04-9.95166E-04
 -1     26684 5.22187E+00 1.32470E+00 3.26741E+00 1.76006E+00-2.97595E-03 4.68345E-02
 -1     26685 1.09849E+01 7.16567E+00 9.07839E+00 9.28239E+00 6.72256E-03 8.12143E-03
 -1     26686 1.10177E+01 7.40306E+00 9.19942E+00 9.47687E+00-4.59246E-03-7.69657E-04
 -1     26687 1.32777E+01 1.11164E+01 1.21953E+01 1.21308E+01 1.98471E-03-7.27003E-03
 -1     26688 1.10303E+01 9.44826E+00 1.02275E+01 1.06749E+01 1.09679E-02 8.10318E-03
 -1     26689 1.14775E+01 9.77665E+00 1.06629E+01 1.11917E+01 2.25599E-02 1.19554E-02
 -1     26690 9.12297E+00 2.12845E+00 5.60294E+00 5.84685E+00-1.10125E-02 1.05676E-03
 -1     26691-3.19989E+00 1.43239E+00-8.71041E-01 1.23300E+00-1.79251E-02 9.74322E-03
 -1     26692-1.16776E+01-4.87454E-01-6.08463E+00-2.47163E+00-9.81964E-03 1.28404E-03
 -1     26693-1.33790E+01-9.29146E-01-7.14509E+00-3.11746E+00 1.23689E-02 1.06754E-03
 -1     26694-2.21449E+00-3.00332E+00-2.66313E+00-2.49708E-01 4.74164E-02 7.06913E-02
 -1     26695 5.89649E-01-5.26021E-01 8.40422E-02-3.09291E-01 9.20008E-04 4.96676E-02
 -1     26696-5.98289E+00-6.41589E+00-6.18931E+00-3.92359E-01 4.96534E-03 3.04499E-02
 -1     26697 5.73865E+00 4.96555E+00 5.34164E+00 1.38416E-02 4.44239E-02 6.16621E-02
 -1     26698 9.34331E+00 7.86367E+00 8.55273E+00 1.01691E-01 4.97209E-02 5.56283E-02
 -1     26699 3.19387E+00 1.98485E+00 2.63809E+00-4.72624E-02 4.73715E-03 5.34741E-02
 -1     26700-1.84931E+01-2.00463E+00-1.02326E+01-5.87423E+00-1.01100E-02-6.15877E-03
 -1     26701-1.40818E+01-1.12380E+00-7.60119E+00-4.27359E+00 9.92288E-03-4.61097E-03
 -1     26702 7.48838E+00 3.10617E+00 5.26259E+00 2.31887E+00-6.09472E-02 1.07384E-03
 -1     26703 6.50473E+00 1.57604E+00 4.03715E+00 2.84844E+00-1.16454E-02 3.47822E-02
 -1     26704 8.85571E+00 4.52580E+00 6.69819E+00 2.57523E+00-7.82113E-02 2.05199E-03
 -1     26705-2.83255E+00-3.40611E+00-3.12707E+00-1.01971E+00-8.06207E-03-1.10591E-02
 -1     26706-3.93032E+00-4.56309E+00-4.23800E+00-9.36944E-01-5.07534E-02 2.13244E-02
 -1     26707 1.73440E+00 7.54604E-01 1.23901E+00-6.33346E-01-6.80519E-02-4.36559E-04
 -1     26708 1.16380E+01 1.11217E+01 1.13527E+01-1.01872E+00-3.15318E-02-1.47940E-02
 -1     26709-1.88942E+00-2.38050E+00-2.14363E+00-9.33895E-01-1.80108E-02 3.57437E-02
 -1     26710 9.37162E+00 3.25255E+00 6.31597E+00 5.21747E+00-1.30905E-02 5.88661E-03
 -1     26711 9.80924E+00 4.21553E+00 7.00379E+00 6.55180E+00 1.13018E-03-8.89735E-03
 -1     26712 9.52292E+00 4.48426E+00 6.99797E+00 6.69666E+00-1.83916E-04-1.64766E-02
 -1     26713-5.54757E+00-3.75846E+00-4.65173E+00 1.72258E+00 1.52416E-02-6.01313E-04
 -1     26714-9.11713E+00-5.94039E+00-7.53290E+00 1.60815E+00 1.27469E-02-3.80769E-02
 -1     26715-3.97635E+00 6.53154E-01-1.66773E+00 1.23578E+00 9.62368E-03 1.95172E-03
 -1     26716 9.67853E+00 8.45793E+00 9.06330E+00 3.15913E+00-2.43655E-02 1.14304E-02
 -1     26717 2.78903E+00 1.60728E+00 2.16959E+00 2.84970E+00-1.46444E-02 2.73616E-02
 -1     26718 1.28680E+01 1.09633E+01 1.20365E+01 3.02615E-01-2.65426E-02 1.41426E-02
 -1     26719 5.44324E+00 3.93490E+00 4.73800E+00-8.98567E-02-1.55546E-02-1.10881E-02
 -1     26720 2.85444E+00 1.08095E+00 2.04701E+00 2.71682E-01-1.79845E-02 1.09573E-03
 -1     26721 9.97791E+00 8.43187E+00 9.28641E+00 1.05254E-01-4.88387E-02-3.79394E-03
 -1     26722-1.16453E+00-2.32548E+00-1.63764E+00-2.58815E-01-2.46483E-02-9.13358E-03
 -1     26723-1.69215E+00 1.89623E+01 7.81299E+00-6.41050E+00-1.14590E-01 1.81716E+00
 -1     26724 8.11879E+00 6.47863E+00 7.28599E+00 6.67766E+00 1.30298E-02 3.06909E-03
 -1     26725 7.20405E+00 5.59532E+00 6.40640E+00 6.33315E+00 9.96630E-03 4.06273E-03
 -1     26726-2.15017E+01-1.89020E+01-2.00739E+01-3.11321E-01-1.56813E-01 6.37746E-02
 -1     26727-1.54897E+01-1.21071E+01-1.37727E+01 1.78690E-01 1.40881E-01 6.74615E-03
 -1     26728-2.66520E+00 4.13131E+00 7.43441E-01 2.36920E+00 1.03670E-03 1.25439E-02
 -1     26729-2.47319E+00 4.39336E+00 9.80579E-01 2.78230E+00-6.75194E-04 1.69866E-02
 -1     26730-1.85139E+00 4.30494E+00 1.22475E+00 2.88813E+00 2.33078E-03 2.37498E-03
 -1     26731-3.81150E+00 3.44695E+00-1.91306E-01 1.99194E+00-1.35078E-02 1.42988E-03
 -1     26732 1.15945E+01 1.00964E+01 1.08394E+01 1.10560E+01-1.47627E-02 3.33428E-03
 -1     26733 1.31067E+01 1.09503E+01 1.20491E+01 1.21785E+01 3.54733E-04 7.33111E-03
 -1     26734 1.32754E+01 1.11158E+01 1.21995E+01 1.21918E+01-9.14136E-04 5.81070E-03
 -1     26735-2.32906E+01-9.02941E+00-1.57156E+01 3.62291E-01-9.59865E-02-1.68307E-01
 -1     26736-1.82215E+01-2.88357E+00-1.08065E+01-7.40165E-01-1.45849E-01-1.84984E-02
 -1     26737 4.57211E+00 4.22867E+00 4.41226E+00 5.78506E+00-1.39538E-02 1.11814E-02
 -1     26738 6.18106E+00 5.84970E+00 6.01973E+00 6.02728E+00-1.75307E-02 2.03660E-02
 -1     26739 8.69631E+00 8.38683E+00 8.52738E+00 6.02753E+00 6.30200E-03 4.45891E-03
 -1     26740 7.12957E+00 6.92488E+00 7.00393E+00 5.90508E+00 1.33830E-02-1.28464E-02
 -1     26741 6.27441E+00 6.10473E+00 6.21269E+00 5.88867E+00-2.23684E-02 2.74236E-03
 -1     26742 7.67992E+00 6.15059E-01 4.13466E+00 5.00602E+00-2.19782E-02 9.82266E-03
 -1     26743 6.27241E+00 4.93713E+00 5.65126E+00 5.53737E+00-1.26542E-02-3.97789E-02
 -1     26744 6.52776E+00 5.19443E+00 5.83422E+00 5.55257E+00 9.77436E-03 2.31601E-03
 -1     26745 6.99757E+00 5.53603E+00 6.26495E+00 5.31271E+00 2.87089E-02 1.51436E-02
 -1     26746 5.23648E+00 4.31834E+00 4.78449E+00 5.32262E+00 9.01638E-03 2.22113E-02
 -1     26747 6.22729E+00 5.06021E+00 5.63552E+00 5.37377E+00 4.24429E-02 7.32870E-03
 -1     26748 9.38429E+00 2.24102E+00 5.86063E+00 5.36089E+00-5.26875E-03 3.55184E-03
 -1     26749 1.04087E+01 7.82054E+00 9.08531E+00 4.51918E+00-2.26808E-02 1.94696E-02
 -1     26750 7.36301E+00 4.60918E+00 5.99126E+00 4.31883E+00-2.96892E-02 3.53296E-02
 -1     26751 6.62347E+00 4.70783E+00 5.72275E+00 4.31659E+00-4.13040E-02 2.19906E-02
 -1     26752 8.15672E+00 1.95888E+00 5.06045E+00 3.69364E+00-5.12688E-03 6.56267E-03
 -1     26753 6.41395E+00-1.91281E-01 3.10139E+00 4.10983E+00 1.03805E-02-1.47543E-02
 -1     26754 6.32453E+00 5.77667E+00 6.03635E+00 5.61125E+00-2.53164E-02 6.51483E-03
 -1     26755 5.99274E+00 5.54940E+00 5.73669E+00 5.70369E+00 4.89206E-03 1.91624E-02
 -1     26756 4.30355E+00 4.11287E+00 4.21840E+00 5.74710E+00 7.20230E-03 2.03333E-02
 -1     26757 5.14591E+00 4.77745E+00 4.94594E+00 5.63881E+00-1.07222E-02 3.04381E-03
 -1     26758 3.27257E-01-7.60511E-01-1.61023E-01-8.14231E-01 3.07025E-02 1.13412E-02
 -1     26759 4.71939E-01-1.73702E+00-6.89286E-01 2.44568E-01 5.43493E-02-2.03153E-02
 -1     26760-7.15456E+00-9.06180E+00-8.03639E+00 1.51716E-01 1.39842E-02-1.43269E-02
 -1     26761 9.33786E+00 7.75562E+00 8.60732E+00-4.19668E-01-4.54616E-03-5.27611E-03
 -1     26762 2.56525E+00 8.76300E-01 1.65585E+00-3.30637E-01 2.28253E-02-4.98975E-02
 -1     26763 7.63181E+00 9.44885E-01 4.29169E+00 4.33793E+00 9.20584E-03 7.22596E-03
 -1     26764 8.57036E+00 1.73151E+00 5.13743E+00 4.54947E+00-9.69580E-03 8.70536E-03
 -1     26765 2.82534E-01 2.04412E+00 1.16567E+00 3.39678E+00-2.63757E-03 2.70053E-03
 -1     26766-7.97719E+00 1.83089E+00-3.09786E+00-9.11289E-01-4.02150E-02-6.12598E-03
 -1     26767-3.09753E+01-1.09086E+01-2.11900E+01-6.50704E+00-2.08682E-01-1.01840E-01
 -1     26768-1.00843E+01 6.56369E-01-4.71350E+00-1.91670E+00-1.18138E-02-1.81761E-02
 -1     26769-1.21295E+01-6.84927E-01-6.37799E+00-2.66896E+00-3.28289E-02-9.50078E-03
 -1     26770-1.18653E+01-4.79540E-01-6.20528E+00-2.70610E+00 1.80522E-02 1.12914E-02
 -1     26771-1.38626E+01-1.67175E+00-7.75122E+00-3.46959E+00 3.00515E-02-3.04679E-03
 -1     26772-1.76419E+01-4.79472E-01-8.91789E+00-2.29567E+00-2.40287E-02 9.92908E-02
 -1     26773-1.95476E+01-8.68746E-01-9.83189E+00-6.65459E+00 5.51868E-02 9.28503E-02
 -1     26774-2.36023E+01-4.38863E+00-1.44906E+01-6.69052E+00-7.42200E-02-1.87339E-01
 -1     26775-1.60575E+01 2.70798E+00-6.74843E+00-6.43434E+00-6.40305E-02-1.34726E-02
 -1     26776-2.27689E+01-4.93670E+00-1.35966E+01-6.56237E+00 1.22824E-01 1.66701E-02
 -1     26777-2.24085E+01-3.65322E+00-1.33792E+01-6.74369E+00-5.12033E-02-5.60660E-02
 -1     26778-2.09494E+00 4.53861E+00 1.21764E+00 3.47801E+00-8.35392E-03-1.31266E-02
 -1     26779-4.01153E+00 3.19202E+00-4.02995E-01 3.06018E+00 3.20712E-02-6.15102E-03
 -1     26780-2.53635E+00 4.40190E+00 9.47213E-01 2.83594E+00-1.22073E-02 3.48920E-03
 -1     26781-4.67028E+00 2.87189E+00-9.05129E-01 2.12303E+00 2.90155E-03 2.24297E-02
 -1     26782-3.20548E+00 4.34799E+00 5.64581E-01 2.39873E+00-2.24833E-02 1.23491E-02
 -1     26783 3.43798E+00 3.94595E-01 1.91064E+00 1.43733E+00 1.81789E-02 1.13326E-02
 -1     26784 2.09202E+00-7.79235E-01 6.56308E-01 1.23615E+00 1.81956E-02 2.73220E-03
 -1     26785-5.72396E+00 1.65184E+00-2.00802E+00 1.56446E+00-7.78934E-03 1.62339E-02
 -1     26786-3.01075E+00 4.50562E+00 7.56810E-01 3.52005E+00 3.74268E-02-1.05927E-02
 -1     26787-4.49628E+00 2.80199E+00-8.50686E-01 3.26143E+00 1.88103E-02-3.16146E-02
 -1     26788-3.06376E+01-1.11693E+01-2.15748E+01-6.83597E+00-1.03548E-01-4.82768E-01
 -1     26789-1.65540E+01 1.74896E+00-8.07991E+00-7.01764E+00 1.91698E-01 9.52292E-02
 -1     26790-3.53983E-01 1.01816E+01 4.89604E+00 5.51533E+00-4.35498E-02-1.48269E-01
 -1     26791-2.04985E+00 6.76850E+00 2.40060E+00 7.24919E+00 4.43932E-02-1.33995E-02
 -1     26792-1.43898E+01-1.14383E+00-7.75140E+00-4.30084E+00-6.84513E-03 2.53459E-03
 -1     26793-1.29333E+01-7.73537E-01-6.84185E+00-3.52081E+00 7.36288E-05 1.61514E-02
 -1     26794-1.39277E+01-8.87972E-01-7.40175E+00-4.15090E+00 1.10833E-02 1.12398E-04
 -1     26795-2.31612E+01-5.48444E+00-1.45364E+01-1.60980E+00 5.09923E-02-2.49924E-02
 -1     26796 3.96240E+00 3.95830E+00 3.95194E+00 5.65169E+00-2.37020E-03 7.58060E-03
 -1     26797 2.87019E+00-7.31139E-01 1.06887E+00 1.61229E+00 1.89385E-02 3.62541E-02
 -1     26798-5.27774E+00 2.71741E+00-1.26731E+00 1.53166E+00-1.94232E-02 1.16774E-02
 -1     26799-6.75913E+00 1.13508E+00-2.78032E+00 1.87494E+00 2.12299E-02 1.36915E-02
 -1     26800-4.43997E+00 3.08017E+00-6.81839E-01 1.98305E+00 1.66017E-03-5.85628E-03
 -1     26801 1.09362E+01 7.78521E+00 9.34645E+00 9.89401E+00 1.46989E-03-1.97943E-02
 -1     26802 1.26698E+01 9.78173E+00 1.12335E+01 1.04921E+01-6.07650E-03-3.62878E-03
 -1     26803 1.14694E+01 8.43668E+00 9.94292E+00 1.00995E+01-1.50602E-02 1.38375E-03
 -1     26804 1.25106E+01 9.98020E+00 1.12828E+01 1.11241E+01 1.12896E-02 1.04953E-03
 -1     26805 1.24089E+01 9.69472E+00 1.10133E+01 1.06319E+01-6.03888E-03-5.40062E-03
 -1     26806 1.22450E+01 9.53441E+00 1.08688E+01 1.07492E+01-1.97046E-02 2.79456E-03
 -1     26807-1.91139E+01-6.05179E+00-1.25008E+01 1.33798E-01-2.13929E-01-1.60686E-01
 -1     26808-1.80045E+01-1.98165E+00-1.00018E+01-5.93365E+00-1.56391E-03-4.89029E-03
 -1     26809-1.57120E+01-1.44423E+00-8.56834E+00-5.01301E+00 9.54617E-03-2.34053E-03
 -1     26810-1.80500E+01-1.96854E+00-1.00257E+01-5.94811E+00 8.09163E-04-4.02275E-03
 -1     26811 1.07674E+01 1.00521E+01 1.03737E+01 3.53928E+00 3.27529E-02-1.77908E-02
 -1     26812 7.25587E+00 6.59521E+00 6.92470E+00 3.64583E+00 1.38864E-02-1.45926E-02
 -1     26813 7.83813E+00 5.96567E+00 6.86314E+00 3.77380E+00 3.53108E-02-4.90984E-02
 -1     26814 1.61547E+00 3.46986E-01 9.60214E-01 3.42442E+00-9.57496E-03 8.38648E-03
 -1     26815 3.61967E+00 2.35479E+00 2.97957E+00 3.54622E+00-2.30951E-02 1.77079E-02
 -1     26816-9.07494E+00 3.01189E-01-4.38688E+00-1.61368E+00 3.72143E-03 5.26081E-03
 -1     26817-7.86958E+00 6.92082E-01-3.58874E+00-1.06668E+00-7.88857E-03 6.83291E-03
 -1     26818-1.50418E+01-1.19761E+00-8.11672E+00-4.74197E+00-1.76503E-02-7.95201E-03
 -1     26819-1.39578E+01-1.08314E+00-7.51292E+00-4.17400E+00-3.05729E-03-2.40756E-03
 -1     26820-1.52963E+01-1.36051E+00-8.31112E+00-4.84157E+00 4.05033E-03-1.38230E-02
 -1     26821-4.00413E+00 1.89135E+00-1.05047E+00 7.61221E-01 8.17909E-04-1.41787E-02
 -1     26822-6.05306E+00 1.01196E+00-2.51893E+00-1.42713E-01 3.26614E-04 8.12227E-03
 -1     26823 1.30255E+01 1.02553E+01 1.16550E+01 1.05479E+01 2.13533E-02 3.67571E-03
 -1     26824-1.69054E+01-1.71533E+00-9.31443E+00-5.46810E+00-9.30266E-03 6.49261E-03
 -1     26825-2.14790E+01 4.18640E+00-9.19457E+00-6.79258E+00-8.57464E-02-1.27327E+00
 -1     26826-6.38048E+01-3.74302E+01-5.08406E+01-5.70055E+00 5.88027E-01-3.46385E-01
 -1     26827-3.14293E+01-8.96653E+00-2.00329E+01-6.98025E+00-6.27984E-01 1.66109E-01
 -1     26828-7.35889E-01 2.46750E+01 1.32100E+01-7.93909E+00 1.42572E+00-4.86550E-01
 -1     26829-2.22450E+01-1.93554E+00-1.09250E+01-7.88694E+00 3.13833E-01 7.24675E-01
 -1     26830 3.34606E+00 4.56227E+00 3.95302E+00 5.18420E+00-6.37494E-03 7.33347E-04
 -1     26831 2.52088E+00 4.41051E+00 3.46260E+00 4.50900E+00-3.27391E-03-3.60477E-02
 -1     26832 2.65616E+00 4.23530E+00 3.44197E+00 4.62417E+00 4.98883E-03-1.11349E-03
 -1     26833-2.16781E+01 1.16612E+01-5.98426E+00-4.48247E+00-1.36907E+00-1.41673E+00
 -1     26834 9.96241E-01 2.50622E+01 1.43392E+01-4.96111E+00-8.98959E-01 1.38523E+00
 -1     26835-2.12896E+01 1.42716E+01-4.90992E+00-2.53339E+00 6.09371E-01-6.14010E-01
 -1     26836-5.35464E+01-2.48656E+01-4.12554E+01-8.39563E+00 5.18834E-01-1.58667E+00
 -1     26837-8.49552E+01-6.26637E+01-7.35863E+01-8.62120E+00 1.37328E+00 1.11593E+00
 -1     26838 3.55578E+00 1.00568E+01 6.63861E+00 2.09186E+00-4.44596E-01-1.02960E-01
 -1     26839 1.37318E+00 9.59447E+00 5.64242E+00 4.66708E+00 1.09005E-01 2.36980E-02
 -1     26840 1.45904E+00 7.67959E+00 4.53871E+00 7.14207E+00-3.74612E-02 2.18715E-02
 -1     26841 1.46885E+00 7.72033E+00 4.59416E+00 6.72702E+00-1.04931E-02 2.58158E-02
 -1     26842-1.98257E+00 3.67255E+00 9.64416E-01-1.70489E+00-1.21864E-02-2.10546E-01
 -1     26843-8.35973E+00-3.45034E+00-5.94625E+00 9.75250E-01-1.52759E-04 1.60734E-01
 -1     26844-1.82996E+00 1.37062E+00-2.31288E-01 2.06792E+00-5.87382E-03 8.54347E-03
 -1     26845-1.41160E+00 8.36525E-01-2.86791E-01 2.55016E+00-1.92927E-02-1.13001E-02
 -1     26846 6.17205E+00 5.46202E+00 5.80963E+00 5.72546E+00-2.82225E-02 2.14391E-02
 -1     26847 5.79706E+00 5.61219E+00 5.72180E+00 5.81020E+00-2.83160E-02 1.64401E-02
 -1     26848 6.94058E+00 6.72815E+00 6.84412E+00 5.95427E+00-1.85494E-02 1.92942E-02
 -1     26849-1.37520E+01-1.85612E+00-7.83267E+00-3.77774E+00 2.94393E-02-1.68801E-02
 -1     26850-1.56437E+01-2.63065E+00-9.18267E+00-4.69201E+00 3.60997E-02-1.35052E-02
 -1     26851-1.72293E+01-4.37936E+00-1.08108E+01-4.47453E+00 2.96687E-02-1.93167E-02
 -1     26852-1.15802E+01 1.57006E-01-5.74040E+00-3.54711E+00 1.01553E-02-2.43154E-02
 -1     26853-1.37483E+01-1.35955E+00-7.60274E+00-4.14809E+00 3.74194E-03-3.68443E-02
 -1     26854-9.59188E+00-6.47090E-02-4.82902E+00-1.93489E+00 3.66572E-03 5.56399E-03
 -1     26855-8.78293E+00 6.87159E-01-4.04695E+00-1.77327E+00-9.55391E-04 1.63174E-04
 -1     26856-8.10813E+00 5.25317E-01-3.79026E+00-1.22105E+00-8.37118E-04 8.00824E-03
 -1     26857 2.04625E+00 4.35536E+00 3.19851E+00 4.38546E+00 1.11110E-02 6.80480E-04
 -1     26858 1.45071E+00 4.10991E+00 2.77138E+00 4.20847E+00 7.90721E-03 7.10484E-03
 -1     26859-5.58518E+00 2.90474E+00-1.35626E+00 8.05263E-01 3.97257E-02-2.23731E-02
 -1     26860-6.83559E+00 1.66032E+00-2.59831E+00 1.14455E+00-1.47695E-02-5.83554E-04
 -1     26861 8.11558E+00 5.61350E+00 6.86947E+00 5.88404E+00-6.38004E-03-1.17627E-03
 -1     26862 3.77954E+00 3.39444E+00 3.58882E+00 5.20926E+00 2.43340E-03 4.62432E-03
 -1     26863 5.00086E+00 4.38626E+00 4.69193E+00 5.70512E+00 4.76606E-03 1.39335E-05
 -1     26864 5.18870E+00 4.19650E+00 4.69138E+00 5.77431E+00 2.37545E-03 3.06255E-03
 -1     26865 2.75712E+00 2.66570E+00 2.70479E+00 4.65271E+00 2.43098E-03 3.76105E-03
 -1     26866 3.56768E+00 3.03091E+00 3.30230E+00 4.76759E+00-4.32545E-03 1.08868E-02
 -1     26867 4.42799E+00 3.63872E+00 4.02822E+00 5.29193E+00 9.66245E-04 4.58195E-03
 -1     26868 9.27850E+00 5.11022E+00 7.18533E+00 6.80767E+00-1.01869E-02-3.96885E-03
 -1     26869 9.61205E+00 4.71211E+00 7.17791E+00 6.50817E+00-1.36580E-02 1.47318E-02
 -1     26870-1.84142E+01-1.06757E+00-9.80708E+00-3.11316E+00 3.37859E-02 7.85023E-02
 -1     26871-1.76243E+01-1.25702E+00-9.50395E+00-3.70184E+00-7.39252E-02 1.47270E-02
 -1     26872-1.50899E+01 1.37289E+00-6.90980E+00-3.69523E+00-1.36385E-02 4.58319E-02
 -1     26873-1.70093E+01-2.63745E+00-9.81974E+00-2.31578E+00-3.45926E-02-3.44732E-02
 -1     26874 7.98783E+00 4.81807E+00 6.39941E+00 6.19102E+00 1.51676E-02 3.18265E-02
 -1     26875 8.41085E+00 4.93487E+00 6.69690E+00 5.98124E+00 1.06450E-02-2.70287E-02
 -1     26876 7.52041E+00 5.08193E+00 6.33065E+00 6.12359E+00-2.06205E-02 2.95899E-02
 -1     26877 7.97984E+00 4.81159E+00 6.37138E+00 5.95318E+00-1.92522E-02-3.66360E-03
 -1     26878 6.71784E+00 5.40181E+00 6.06778E+00 2.66593E+00-1.68060E-02-5.39415E-02
 -1     26879 2.77665E+00 1.55569E+00 2.20592E+00 2.90024E+00-3.75449E-03 1.72196E-02
 -1     26880 1.22826E+00 5.20333E-02 6.49100E-01 2.53989E+00-2.57830E-02-1.40964E-02
 -1     26881 9.14245E+00 2.59449E+00 5.86264E+00 6.64560E+00 1.07887E-02 1.60236E-02
 -1     26882 9.31879E+00 8.27678E+00 8.76306E+00 9.40724E+00-2.09293E-02 6.28051E-03
 -1     26883 9.58556E+00 9.75002E+00 9.68206E+00 9.12731E+00 3.93843E-02-4.61328E-02
 -1     26884 8.95757E+00 8.37948E+00 8.50197E+00 8.91499E+00 7.83002E-02-1.95554E-02
 -1     26885 9.45623E+00 8.51965E+00 9.06342E+00 9.73626E+00-7.83953E-02-4.83012E-02
 -1     26886 1.00777E+01 9.52168E+00 9.75409E+00 9.30914E+00-3.11724E-02-3.72209E-03
 -1     26887 6.72792E+00 3.52924E+00 5.13006E+00 6.15492E+00 1.16280E-02-1.35984E-02
 -1     26888 7.72746E+00 2.00615E+00 4.88340E+00 3.68113E+00 2.50924E-04 2.46623E-02
 -1     26889-6.28374E+00-1.83370E-01-3.67840E+00-4.29594E-01 1.64809E-01 2.16200E-02
 -1     26890 3.54666E+00 8.97645E+00 6.41441E+00 1.95725E+00 3.14714E-01 2.44855E-01
 -1     26891 6.86686E+00 5.44495E+00 6.17025E+00 5.68076E+00-1.13262E-02 3.45333E-02
 -1     26892 6.25826E+00 4.83115E+00 5.55641E+00 5.73740E+00 5.90359E-03-1.31859E-02
 -1     26893 1.15000E+01 1.05228E+01 1.10018E+01 9.91638E+00 8.12124E-02-7.57832E-02
 -1     26894-1.32981E+01 3.35735E-02-6.64219E+00-4.63899E+00-2.70522E-02-2.28796E-02
 -1     26895 1.04641E+01 6.77100E+00 8.60297E+00 8.86421E+00 8.56980E-04 2.39728E-02
 -1     26896-1.86493E+01-2.07116E+00-1.03671E+01-6.17404E+00-1.05558E-02 5.86787E-04
 -1     26897-1.81442E+01-1.96194E+00-1.00551E+01-5.96159E+00 7.04021E-03-1.88076E-03
 -1     26898-1.76569E+01-1.92135E+00-9.77787E+00-5.74981E+00 9.76394E-04 1.91942E-03
 -1     26899-1.86320E+01-2.03722E+00-1.03017E+01-6.20212E+00 1.26961E-02 8.56822E-03
 -1     26900-1.83410E+01-2.13228E+00-1.02189E+01-5.99792E+00 8.87550E-03 1.72922E-03
 -1     26901 6.69367E-01-1.01049E+00-1.92508E-01 4.05796E-01-2.80008E-02-3.35555E-03
 -1     26902-1.76234E+00-2.78535E+00-2.30100E+00-6.66494E-01-1.03163E-02 8.15526E-03
 -1     26903 9.99802E+00 8.91463E+00 9.46939E+00 9.54646E+00 1.30516E-02 7.08611E-04
 -1     26904-1.73559E+00 2.51475E+00 3.72867E-01 2.13083E+00-1.90079E-03-5.40531E-03
 -1     26905-2.18893E+00-1.79514E+00-1.99006E+00 2.51251E+00-5.74169E-03 3.00227E-03
 -1     26906-3.23173E+00-1.24778E+00-2.23182E+00 2.26418E+00 9.13942E-03-4.25166E-03
 -1     26907-4.33855E+00-1.59940E+00-2.96763E+00 2.27308E+00-1.06465E-02-3.28954E-02
 -1     26908-6.49667E-01 4.78412E-01-8.36513E-02 2.51901E+00 2.96892E-03-4.11533E-03
 -1     26909-7.75252E+00-4.39324E+00-6.02588E+00 5.55562E-01 9.36351E-02 3.51860E-02
 -1     26910-1.17248E+01-1.09763E+01-1.14114E+01-5.71234E-01 2.26330E-02-4.55908E-02
 -1     26911-6.38656E+00-4.84808E+00-5.62773E+00-8.10118E-01 1.52234E-02-3.90751E-03
 -1     26912-4.72765E+00 1.29439E-01-2.25792E+00 1.37551E+00 2.06735E-02 3.55498E-02
 -1     26913-5.25873E+00-5.07892E-01-2.85563E+00 1.56406E+00 2.19014E-03 2.34717E-02
 -1     26914-8.08286E+00-5.59922E-01-4.27907E+00 4.96839E-01-1.47561E-03-4.63840E-03
 -1     26915-1.50988E+01-1.18005E+00-8.15855E+00-4.94465E+00-1.69001E-02-1.65282E-02
 -1     26916-1.44966E+01-1.26471E+00-7.89417E+00-4.32191E+00 1.14751E-02-2.72736E-02
 -1     26917-1.38948E+01-8.92824E-01-7.40687E+00-4.06432E+00 1.04854E-02-6.64957E-03
 -1     26918-1.51565E+01-1.92230E+00-8.53914E+00-4.32955E+00 8.59455E-03-8.23210E-03
 -1     26919-1.45346E+01-1.12686E+00-7.87116E+00-4.62111E+00 6.97723E-03-6.35327E-03
 -1     26920-1.39337E+01-1.32172E+00-7.66682E+00-3.72715E+00 1.60998E-02-2.07027E-02
 -1     26921-1.33125E+01-1.08259E+00-7.21384E+00-3.46304E+00 1.54319E-02-2.29593E-02
 -1     26922-1.21044E+01-8.04556E-02-6.09130E+00-3.43852E+00-8.22723E-03-2.02574E-02
 -1     26923 1.54385E+00 7.20032E+00 4.47164E+00 1.95002E+00 4.60898E-02 5.21698E-02
 -1     26924-8.01326E+00-1.93542E+00-4.85586E+00-2.19937E-01-1.59893E-01 1.66239E-01
 -1     26925-2.13633E+00 3.80809E+00 8.84913E-01 1.48644E+00-3.95155E-02 6.27977E-02
 -1     26926-6.30599E+00-9.01469E-01-3.60635E+00 3.41969E+00 1.54082E-02-6.96843E-03
 -1     26927-1.24145E+00 1.06959E+01 4.75524E+00 8.21031E-01-3.43702E-01-5.22782E-02
 -1     26928-2.53993E+01-1.44913E+01-2.07091E+01 1.77935E+00-4.65533E-01-8.86039E-01
 -1     26929-1.95966E+01-9.68174E+00-1.42275E+01 1.74409E+00 5.10973E-02 2.06714E-01
 -1     26930-3.17906E+01-2.37751E+01-2.72135E+01 9.19605E-01 3.57411E-01 4.24453E-01
 -1     26931-2.50571E+01-1.55978E+01-2.02564E+01 1.00356E+00 1.33019E-01-4.31804E-03
 -1     26932 2.72250E+00 5.03998E+00 3.87981E+00 4.82657E+00-2.06450E-03 4.86435E-03
 -1     26933-1.30416E+01-8.83880E-01-6.93322E+00-3.96906E+00 2.64360E-02-1.94702E-02
 -1     26934-1.31778E+01-1.20539E+00-7.18983E+00-3.72270E+00 1.67962E-02-4.67682E-02
 -1     26935-1.05569E+01 9.15482E-01-4.82291E+00-3.36076E+00 2.25982E-03-1.41269E-02
 -1     26936-8.22347E+00 4.76065E-01-3.87719E+00-1.35941E+00-4.20656E-03 1.04346E-02
 -1     26937-9.78181E+00 1.06968E+00-4.32159E+00-2.06943E+00-5.38075E-03 1.45226E-02
 -1     26938-1.04099E+01 5.49279E-01-4.91829E+00-2.32417E+00-8.13213E-03 2.38184E-02
 -1     26939-1.61502E+01-1.65271E+00-8.90783E+00-5.18818E+00-1.65257E-02-3.28493E-02
 -1     26940-1.61035E+01-1.81560E+00-8.98470E+00-5.07635E+00-1.55372E-02-4.16237E-03
 -1     26941-1.47486E+01-1.04225E+00-7.85834E+00-4.57786E+00-2.08877E-03-3.07611E-02
 -1     26942-1.39449E+01-9.39688E-01-7.46527E+00-4.06500E+00-8.81670E-03-1.42760E-02
 -1     26943-1.49346E+01-1.40561E+00-8.16664E+00-4.48209E+00 1.07981E-02-1.29228E-03
 -1     26944-6.00584E+00-1.48912E-01-3.15228E+00 9.46753E-01-1.39864E-03 1.01860E-03
 -1     26945-2.83028E+00 4.78009E-01-1.18267E+00 2.02052E+00-2.43733E-03-5.61800E-03
 -1     26946-4.65687E+00-8.54873E-01-2.74735E+00 1.78832E+00 1.06364E-02 1.12487E-02
 -1     26947-9.58874E-01 2.15700E+00 6.05419E-01 2.42915E+00 1.04651E-02 8.60322E-03
 -1     26948-1.03599E+01-6.59405E-01-5.51620E+00-7.94809E-01 1.73644E-02 1.15157E-02
 -1     26949-1.10348E+01-1.32374E+00-6.20131E+00-8.97368E-01 1.21910E-02 5.70255E-03
 -1     26950-1.01242E+01-6.88942E-01-5.38009E+00-9.46428E-01 2.22338E-02-7.15925E-03
 -1     26951 4.80369E+00 6.39914E+00 5.59711E+00 6.11397E+00-8.46819E-03 7.11394E-03
 -1     26952 4.48122E+00 5.70777E+00 5.09312E+00 6.18916E+00-1.04180E-03 9.19493E-03
 -1     26953-8.19250E+00-1.62496E+00-4.90855E+00-5.07675E-01-9.03023E-02 5.55683E-02
 -1     26954-1.50907E+01-3.13870E+00-9.19234E+00-3.63843E+00 3.00865E-02-6.75549E-02
 -1     26955-1.24740E+01 5.96566E-01-5.99754E+00-4.57504E+00 1.76977E-02-5.62800E-02
 -1     26956-1.23571E+01 2.98793E-01-6.07853E+00-4.25339E+00 4.13599E-03-2.40316E-02
 -1     26957-5.96038E+00-4.95128E-01-3.33814E+00-1.92323E-01-1.79518E-01-1.09947E-01
 -1     26958-7.61319E+00 2.12019E+00-2.78005E+00-7.21619E-01-1.98246E-02-3.87224E-03
 -1     26959-1.15653E+01-5.92516E-01-6.07788E+00-3.01097E+00 9.16432E-03-6.75611E-03
 -1     26960-1.26631E+01-5.60518E-01-6.61107E+00-3.75152E+00 7.63896E-04 6.21698E-03
 -1     26961-2.15803E+00 3.48876E+00 6.66591E-01 3.19715E+00-4.45917E-03 5.55649E-03
 -1     26962-2.10095E+00 4.10127E+00 9.94643E-01 2.40007E+00-1.64119E-04 9.20759E-03
 -1     26963-3.78641E+00 2.90497E+00-4.57419E-01 2.10542E+00 6.68927E-03 1.09548E-02
 -1     26964 3.66288E+00 8.22003E-01 2.25430E+00 4.49617E+00 2.43972E-03-4.02049E-03
 -1     26965 8.64635E+00 9.05678E+00 8.83459E+00 9.32757E+00-1.59535E-02-8.12827E-04
 -1     26966 7.83833E+00 8.59083E+00 8.15682E+00 9.08262E+00 1.82689E-02 6.82114E-03
 -1     26967-1.56018E+01-1.48568E+00-8.53111E+00-4.71927E+00 9.65334E-03-6.38809E-03
 -1     26968-1.42983E+01-9.65941E-01-7.60120E+00-4.10239E+00 3.52699E-03 3.15550E-03
 -1     26969-1.43779E+01-1.32105E+00-7.84838E+00-4.11660E+00 1.42757E-03-3.30741E-04
 -1     26970 7.65754E+00 5.67005E+00 6.66681E+00 6.19614E+00 3.10529E-02 3.72507E-02
 -1     26971 8.69547E+00 5.66163E+00 7.10213E+00 6.08667E+00 8.49330E-03-8.72182E-03
 -1     26972 7.09438E+00 5.58120E+00 6.33333E+00 6.08619E+00-6.95891E-04 4.90388E-02
 -1     26973 7.57598E+00 4.89612E+00 6.25359E+00 6.09434E+00-5.87093E-03 8.79238E-03
 -1     26974 2.75360E+00 4.68655E+00 3.71852E+00 4.93409E+00 2.81986E-03 6.22339E-03
 -1     26975-1.42976E+01-1.42564E+00-7.87583E+00-4.06615E+00-2.10836E-03 1.88890E-03
 -1     26976-1.42119E+01-1.10163E+00-7.66529E+00-4.35230E+00-5.51330E-03 2.68670E-03
 -1     26977-4.57090E-01 6.52830E+00 3.02846E+00 7.43970E+00-2.29812E-02 9.21187E-03
 -1     26978 5.36177E-01 8.71422E+00 4.62960E+00 7.52972E+00-5.13429E-03 2.79756E-02
 -1     26979 1.33167E+00 6.78564E+00 4.06741E+00 6.61421E+00 7.03749E-02 4.26742E-02
 -1     26980 7.49516E-01 8.13313E+00 4.39633E+00 7.10219E+00-1.97806E-02 3.03959E-02
 -1     26981-1.76833E+01-1.87609E+00-9.78540E+00-5.74741E+00-3.02855E-03-3.55447E-03
 -1     26982-1.75176E+01-1.66430E+00-9.56496E+00-5.75970E+00 6.84670E-04-7.71820E-03
 -1     26983 1.05026E+01 4.37897E+00 7.44260E+00 6.91879E+00 1.39363E-03-3.54820E-03
 -1     26984 1.07119E+01 5.03194E+00 7.87365E+00 7.30120E+00 5.22856E-04-6.08795E-05
 -1     26985 6.97245E+00 6.77156E+00 6.89450E+00 5.52006E+00 3.05014E-02-8.66786E-03
 -1     26986 1.30774E+01 1.13794E+01 1.21467E+01 4.49654E+00-1.81114E-02-1.24551E-02
 -1     26987 6.14996E+00 4.72118E+00 5.41588E+00 4.43249E+00-2.76992E-02-6.06951E-02
 -1     26988 5.88936E+00 5.05625E+00 5.43916E+00 4.56658E+00-1.10156E-02-1.65217E-02
 -1     26989 1.23271E+01 1.13602E+01 1.18488E+01 4.36105E+00-3.37717E-02-1.67467E-02
 -1     26990 6.98679E+00 5.36236E+00 6.18834E+00 5.33070E+00 7.37606E-03 2.34710E-02
 -1     26991 6.71834E+00 5.00806E+00 5.86754E+00 5.42282E+00-1.89781E-02-2.58081E-02
 -1     26992 7.22278E+00 3.47423E+00 5.33622E+00 2.90960E+00-3.92498E-02 1.81968E-02
 -1     26993 8.69156E+00 7.14521E+00 7.97993E+00 4.68426E+00-7.36756E-04-2.57829E-02
 -1     26994 3.37829E+00 2.57040E+00 2.92152E+00 4.92696E+00 3.59681E-02-2.89664E-02
 -1     26995 6.95196E+00 6.25425E+00 6.50998E+00 5.10461E+00 1.37543E-02-1.72383E-02
 -1     26996 7.46203E+00 5.97020E+00 6.67912E+00 4.88007E+00 6.66506E-03-7.08282E-02
 -1     26997 8.10899E+00 6.37625E+00 7.22987E+00 5.17065E+00 1.56764E-02 3.98406E-03
 -1     26998 6.59606E+00 4.36661E+00 5.48601E+00 5.03262E+00 1.12734E-02-1.61012E-02
 -1     26999 5.85497E+00 4.74438E+00 5.28618E+00 5.29381E+00-1.79595E-02-1.38490E-02
 -1     27000 3.70918E+00 1.06094E+01 6.85372E+00 4.06675E+00 8.52875E-02-4.22121E-02
 -1     27001-9.51678E+00-3.98968E+00-6.55440E+00 2.09881E+00 3.82831E-02-1.04230E-01
 -1     27002 5.38922E+00 3.68601E+00 4.57882E+00 5.46431E+00-6.97474E-04 2.03981E-03
 -1     27003 9.67587E-02 1.25132E+01 6.11724E+00 6.15998E+00-3.66511E-02-5.60267E-02
 -1     27004 6.43299E+00 6.28190E+00 6.33390E+00 5.57446E+00 2.39832E-02-8.79289E-03
 -1     27005 3.45048E+00 6.59322E+00 5.00923E+00 7.39132E+00 3.78331E-02 6.28906E-02
 -1     27006 7.91101E+00 1.09823E+01 9.42371E+00 7.84782E+00 5.96350E-02-2.67332E-02
 -1     27007 3.70131E+00 9.15790E+00 6.39327E+00 7.25134E+00 4.81096E-02-2.21932E-03
 -1     27008 5.75042E+00 4.56616E+00 5.11014E+00 5.29899E+00-1.27869E-02-1.97211E-02
 -1     27009 6.66776E+00 5.70300E+00 6.19572E+00 5.31712E+00-7.38487E-04-9.92658E-04
 -1     27010-3.78902E+00 4.01599E+00 1.10740E-01 2.70925E+00 7.55345E-03-2.49798E-03
 -1     27011-4.52119E+00 3.81209E+00-3.61636E-01 1.74697E+00-1.38744E-02-6.20485E-03
 -1     27012 1.17447E+01 9.30354E+00 1.05060E+01 1.06658E+01 3.66225E-03-1.15637E-03
 -1     27013 1.03030E+01 7.99804E+00 9.18153E+00 8.76546E+00-4.18539E-04 8.39176E-03
 -1     27014 2.68080E+00 6.53835E+00 4.60124E+00 5.67372E+00 9.65764E-03-9.99429E-03
 -1     27015-7.47991E+00 1.76508E+00-2.96807E+00-2.35651E+00-7.08602E-03-4.64770E-02
 -1     27016-7.70610E+00 1.32061E+00-3.22351E+00-1.85585E+00-1.72844E-02-1.55883E-02
 -1     27017-1.07608E+01-1.00999E+00-5.98254E+00-2.53535E+00 3.94674E-02-4.05294E-02
 -1     27018-1.45652E+01-4.87120E+00-9.77102E+00-2.92572E+00 6.20703E-02-9.09053E-02
 -1     27019-1.10687E+01-1.56102E+00-6.29946E+00-2.41847E+00 5.94729E-02-4.44716E-02
 -1     27020 6.62350E+00 5.40231E+00 5.96900E+00 5.39248E+00-1.89641E-02 1.85795E-03
 -1     27021 5.74515E+00 4.37450E+00 5.02925E+00 5.44515E+00 5.19244E-03 3.59926E-03
 -1     27022 1.03624E+01 6.22490E+00 8.29717E+00 8.23846E+00-1.93498E-02-1.75957E-03
 -1     27023 1.05751E+01 5.73910E+00 8.14785E+00 7.97752E+00-5.73978E-03 1.22294E-02
 -1     27024 1.01953E+01 5.64213E+00 7.91237E+00 7.75781E+00-6.44145E-03 8.47056E-04
 -1     27025 1.04580E+01 6.35430E+00 8.39801E+00 8.00355E+00 4.89901E-03 1.36403E-02
 -1     27026 6.95500E+00 3.07442E+00 5.01910E+00 5.75872E+00-2.24628E-02 2.68965E-02
 -1     27027-1.05857E+01-6.27126E-01-5.62366E+00-1.20412E+00 4.82129E-02-2.88800E-02
 -1     27028-7.97352E+00 1.57746E+00-3.19718E+00-5.07217E-01-5.31398E-03 1.17532E-02
 -1     27029 9.80539E+00 4.18642E+00 7.00891E+00 6.75296E+00 1.45977E-02-2.41953E-02
 -1     27030 1.00425E+01 4.80954E+00 7.42430E+00 7.53010E+00-1.55255E-02-7.77021E-03
 -1     27031 9.01466E+00 1.02778E+01 9.67941E+00 8.87626E+00 3.25208E-02 3.41806E-02
 -1     27032 9.48060E+00 9.95608E+00 9.77190E+00 9.15305E+00 5.81586E-03-3.57269E-02
 -1     27033 9.26089E+00 9.40543E+00 9.35457E+00 9.32143E+00-6.69113E-03-5.65028E-02
 -1     27034 8.70287E+00 9.61069E+00 9.24336E+00 9.03572E+00 2.69124E-02 2.37010E-02
 -1     27035 7.94439E+00 7.98822E+00 8.11690E+00 9.38596E+00 7.79801E-02-1.51046E-02
 -1     27036 1.04789E+01 6.45821E+00 8.45272E+00 8.49433E+00 6.60884E-03 1.91268E-02
 -1     27037 9.48138E+00 4.00401E+00 6.76548E+00 6.38299E+00-9.59304E-03-4.56733E-03
 -1     27038 1.00049E+01 5.86461E+00 7.96127E+00 8.10913E+00 1.83013E-02 2.84651E-03
 -1     27039 1.01088E+01 4.78261E+00 7.43823E+00 7.75695E+00 1.31386E-02 1.39479E-02
 -1     27040-5.59346E+00 2.39782E+00-1.58555E+00 1.29968E+00-1.21943E-03-5.79715E-03
 -1     27041-1.27929E+01-4.11128E-01-6.55879E+00-4.18652E+00 9.87398E-03 1.01698E-02
 -1     27042-1.54117E+01-2.24998E+00-8.78519E+00-4.77901E+00-3.13202E-02 2.56907E-02
 -1     27043-1.28574E+01-2.43762E-02-6.44874E+00-4.62534E+00-3.39609E-02 2.13921E-02
 -1     27044-1.05667E+01-2.06034E-02-5.30156E+00-2.00070E+00-1.09478E-02-1.80113E-02
 -1     27045-1.01500E+01 4.77923E-01-4.84217E+00-2.16530E+00 1.35328E-03-1.56315E-02
 -1     27046-1.00610E+01-2.68377E-01-5.16598E+00-1.38825E+00 4.81872E-04-5.88410E-03
 -1     27047 8.85204E+00 1.89678E+00 5.36392E+00 5.63450E+00-1.31863E-02 2.74743E-03
 -1     27048 8.62975E+00 4.43251E+00 6.53212E+00 5.94227E+00 1.91281E-03 1.02280E-02
 -1     27049 8.85576E+00 4.32436E+00 6.60072E+00 6.08625E+00-2.85374E-02 1.74767E-02
 -1     27050 5.57408E+00 5.57412E+00 5.54595E+00 5.63574E+00 2.35416E-03 4.59015E-03
 -1     27051 5.48362E+00 5.50489E+00 5.49356E+00 5.63007E+00 2.08301E-02 1.33086E-02
 -1     27052 6.36962E+00 6.27792E+00 6.25559E+00 5.53735E+00 3.57464E-03-2.94545E-02
 -1     27053 5.80163E+00 5.68335E+00 5.71829E+00 5.58470E+00 3.13593E-03-1.16280E-02
 -1     27054 6.12705E+00 6.14047E+00 6.10451E+00 5.63430E+00-8.90180E-03-9.27142E-03
 -1     27055 5.19403E+00 5.07643E+00 5.10963E+00 5.56259E+00-6.60402E-03-2.04391E-02
 -1     27056-9.77371E+00-2.46891E-01-5.11535E+00 2.08268E-01-9.46398E-02 4.20386E-03
 -1     27057-1.00484E+01-1.32270E+00-5.68313E+00 9.07053E-02-1.96727E-03 2.71695E-02
 -1     27058-6.19723E+00 2.38195E+00-1.93601E+00 8.02581E-01 3.16136E-02-6.06526E-02
 -1     27059-6.30581E+00 2.21899E+00-2.02540E+00 1.12069E+00-4.17174E-03 6.82246E-03
 -1     27060-5.96897E+00 2.09117E+00-1.93882E+00 1.47506E+00 1.09801E-02 1.45807E-02
 -1     27061-1.12553E+01-1.02402E+00-6.13197E+00-2.48957E+00-4.01273E-03-1.15831E-02
 -1     27062-1.05083E+01-3.94960E-01-5.44568E+00-2.44417E+00 4.32282E-03-7.86629E-03
 -1     27063 2.88320E+00 1.33162E+01 8.06067E+00 7.23215E+00 2.93991E-02-7.62059E-02
 -1     27064-1.02390E+00 8.45761E+00 3.59965E+00 7.00987E+00-5.78737E-02-9.23413E-02
 -1     27065-4.61227E+00 4.43110E+00-9.38384E-02 6.80044E+00 7.77739E-02-3.81731E-02
 -1     27066-3.45536E+00 5.56790E+00 1.06738E+00 7.15016E+00-4.08482E-02-1.41452E-01
 -1     27067-8.88873E+00-4.21716E+00-6.55176E+00 1.58266E+00-2.30738E-02-3.74499E-02
 -1     27068 1.27477E+01 1.05466E+01 1.15798E+01 3.46319E+00 3.76136E-02 1.51245E-02
 -1     27069 8.30721E+00 7.08679E+00 7.66243E+00 3.14556E+00 4.33511E-02 2.88202E-02
 -1     27070 7.93308E+00 5.67407E+00 6.83066E+00 3.73250E+00 1.41481E-02-3.47486E-02
 -1     27071 1.02473E+01 1.09054E+01 1.05664E+01 9.09919E+00-2.37462E-03 7.68568E-03
 -1     27072 6.60613E+00 9.00517E+00 7.77757E+00 8.29088E+00-6.78193E-02-3.34788E-02
 -1     27073 9.26191E+00 9.87883E+00 9.56676E+00 9.20383E+00 4.27169E-02-3.88175E-03
 -1     27074 6.02897E+00 8.23646E+00 7.15992E+00 8.36290E+00-4.35171E-02 1.36397E-02
 -1     27075-1.32702E+01-4.00828E+00-8.72525E+00 1.19327E+00 1.15720E-01 5.05540E-03
 -1     27076-1.28739E+01-4.00121E+00-8.42883E+00 1.02552E+00 4.99479E-02-8.39736E-02
 -1     27077 6.84404E+00 9.19332E+00 7.96845E+00 8.31411E+00-1.91491E-03-1.01186E-02
 -1     27078 9.94389E+00 9.38642E+00 9.67179E+00 1.00480E+01 3.08506E-02-1.20621E-03
 -1     27079 8.33865E+00 9.03502E+00 8.76188E+00 9.10449E+00-1.13401E-02 3.94848E-03
 -1     27080 7.86273E+00 1.12276E+00 4.48395E+00 5.38541E+00-1.19121E-02 8.71983E-03
 -1     27081 7.01447E+00 1.23731E+00 4.11864E+00 5.22859E+00-1.32162E-03 1.23561E-02
 -1     27082-3.42464E+00 3.33078E+00-1.17171E-01 2.04748E+00 3.55377E-01-4.81908E-01
 -1     27083 6.19773E+00 8.83216E-01 3.53534E+00 4.96825E+00 5.69949E-03 8.70029E-03
 -1     27084 6.71739E+00 1.37497E+00 4.05418E+00 5.30545E+00-1.75854E-03 5.37379E-03
 -1     27085-9.76331E+00-3.48558E-01-5.07349E+00-3.29189E+00 5.31375E-02 3.45881E-02
 -1     27086-6.19239E+00 1.97930E+00-2.05026E+00-1.97212E+00 5.05234E-02-3.23021E-02
 -1     27087-1.37747E+01-4.56091E+00-9.07461E+00-3.37548E+00 8.98404E-02 9.99392E-02
 -1     27088-1.45334E+01-5.79655E+00-1.01063E+01-2.65359E+00 4.83033E-02-2.72526E-02
 -1     27089-8.62118E+00-4.86759E-01-4.33487E+00-1.92510E+00 2.86203E-02 9.04589E-02
 -1     27090 4.52501E-01 6.99873E+00 3.67003E+00 9.99833E-01-1.05345E-02-3.41045E-02
 -1     27091-9.98380E+00-3.09649E+00-6.56729E+00-8.70372E-01-2.85499E-02 8.19375E-03
 -1     27092-7.15554E+00-8.08130E-01-3.97966E+00 2.02103E+00 3.74126E-02-2.23658E-02
 -1     27093-6.09310E+00 7.20912E-01-2.65142E+00 4.90922E-01 1.78591E-02 6.19309E-02
 -1     27094 6.49990E+00 8.20555E-01 3.64582E+00 4.89541E+00-2.71812E-03 1.03203E-02
 -1     27095-3.27594E-01-3.71831E+00-1.92247E+00 3.18313E+00-5.66575E-03-4.92564E-02
 -1     27096 8.33419E+00 4.68132E+00 6.45736E+00 3.07837E+00 1.36664E-02 3.69805E-02
 -1     27097 7.44807E+00 2.92950E+00 5.20673E+00 3.33036E+00 9.93468E-03 1.34959E-02
 -1     27098 8.74443E+00 5.35415E+00 7.09342E+00 3.43361E+00 1.30982E-02-6.31296E-03
 -1     27099 9.56699E+00 8.81133E+00 9.18649E+00 9.42374E+00 3.53918E-03-9.03781E-03
 -1     27100 8.34266E+00 7.87247E+00 8.11292E+00 8.71235E+00 6.34813E-03 6.32400E-03
 -1     27101 7.94614E+00 7.75849E+00 7.85958E+00 8.62956E+00 1.20216E-02 1.53362E-02
 -1     27102-1.81501E+01-2.05939E+00-1.01118E+01-5.95509E+00 6.54868E-03-2.13530E-03
 -1     27103 1.15958E+01 9.61737E+00 1.05958E+01 1.01644E+01-1.33794E-02 8.60729E-03
 -1     27104 1.07540E+01 8.63286E+00 9.70945E+00 1.02223E+01 7.82214E-04-1.13811E-02
 -1     27105-2.35116E+01-2.24810E+01-2.28941E+01-4.19250E-01 1.60589E-01-7.85576E-02
 -1     27106 2.17323E+01 2.26652E+01 2.23035E+01-1.20053E+00 4.55632E-02 2.06559E-02
 -1     27107-1.56109E+01-1.46074E+01-1.51376E+01-9.80759E-01-6.13643E-03-9.17824E-02
 -1     27108 2.85667E+00 2.42197E+00 2.68229E+00-6.81331E-01-1.15394E-02 1.23260E-02
 -1     27109 4.78819E+00 4.00356E+00 4.44805E+00-2.55165E-01 2.10026E-02 5.98448E-02
 -1     27110-5.66978E+00 2.41670E+00-1.63577E+00 1.27196E+00 1.48693E-02 5.22923E-03
 -1     27111-4.52255E+00 2.90513E+00-8.10033E-01 1.85889E+00 8.98568E-03 1.33669E-02
 -1     27112 5.32088E+01 5.98410E+01 5.67518E+01 1.65100E+00 3.63255E-02 3.40006E-01
 -1     27113-2.71379E+01-1.54053E+01-2.07816E+01 2.33950E+00 1.54042E-01-1.24517E-01
 -1     27114-1.01213E+01-3.42024E+00-6.29893E+00 2.14287E+00 3.26750E-01-2.76325E-01
 -1     27115 2.19406E+00 5.00759E+00 3.44726E+00 1.24780E+00 1.57350E-01 3.20613E-03
 -1     27116 2.31258E+01 2.73956E+01 2.48542E+01 2.70136E+00 7.11093E-02-4.15343E-02
 -1     27117-2.14010E+00 3.88086E+00 8.77706E-01 2.26072E+00-3.30221E-03-3.30772E-03
 -1     27118-4.59918E+00 3.77853E+00-3.82121E-01-2.62751E+00 2.64864E-02 1.12059E-02
 -1     27119-5.89403E+00 1.93292E+00-1.97793E+00-1.84844E+00-8.39111E-02 4.89281E-02
 -1     27120-3.09541E+00 4.97487E+00 7.56572E-01 3.98961E+00-4.23760E-02 2.35174E-01
 -1     27121-3.26259E-01 5.13434E+00 2.87376E+00 2.03329E+00 4.10110E-01-2.64329E-01
 -1     27122 3.70077E+00 1.30894E+01 8.52103E+00 4.99668E+00 4.30624E-02-1.66443E-01
 -1     27123 1.04549E+01 2.00435E+01 1.60985E+01 4.63390E+00 5.34813E-01-4.45956E-01
 -1     27124-4.06986E+00 3.75218E+00-1.11518E-01 5.64662E+00-8.66363E-02 6.84480E-02
 -1     27125 5.76073E+00 1.29950E+01 9.30339E+00 4.87947E+00-1.60356E-01-1.65900E-01
 -1     27126-1.36509E+00-1.75498E+00-1.58233E+00-1.46902E+00 1.97692E-05 3.48822E-02
 -1     27127-2.58024E+00-3.28526E+00-2.97041E+00-1.12982E+00-3.08070E-03 2.79398E-02
 -1     27128-3.74464E+00-3.98401E+00-3.86244E+00-1.71351E+00 4.51100E-04 2.11495E-02
 -1     27129 1.73057E+00 1.18085E+00 1.40824E+00-1.22945E+00-1.73787E-03 6.55175E-03
 -1     27130 3.21075E+00 2.32091E+00 2.70482E+00-9.26131E-01-1.97657E-04 4.79312E-04
 -1     27131-9.40979E+00-9.51881E+00-9.40781E+00-1.62882E+00 3.29304E-02 2.55692E-02
 -1     27132 1.13167E+01 9.53483E+00 1.04221E+01 1.01686E+01-3.78469E-03 9.39620E-04
 -1     27133 1.04852E+01 8.59772E+00 9.54280E+00 9.49373E+00 8.83092E-03-1.97811E-02
 -1     27134 2.62026E+00 5.69288E+00 4.15877E+00 4.61628E+00 1.95735E-03 5.61456E-03
 -1     27135-2.30340E+00-2.78016E+00-2.57217E+00-1.50027E+00-4.64851E-02 1.38443E-02
 -1     27136-1.64163E+00-2.18761E+00-1.95887E+00-1.28610E+00-4.55911E-02-6.35162E-03
 -1     27137-2.78038E-01-7.56371E-01-5.35973E-01-1.08931E+00-6.17851E-02 2.69301E-02
 -1     27138 1.05611E+01 2.17005E+01 1.60893E+01 6.84759E+00-3.92881E-02-8.44448E-02
 -1     27139-3.76964E+00 6.97372E+00 1.57614E+00 7.03864E+00-1.09792E-01 1.72172E-02
 -1     27140 3.78025E+00 1.01041E+01 6.94045E+00 7.55720E+00 2.50450E-02 1.03910E-01
 -1     27141 1.62981E+00 1.23171E+01 7.46641E+00 5.51058E+00-1.13675E-01 1.32888E-01
 -1     27142-9.03180E+00 1.28319E+00-3.89555E+00-1.88849E+00 4.81215E-02 5.49843E-03
 -1     27143-8.68502E+00 8.49628E-01-3.90190E+00-8.05946E-01 9.51057E-02 1.63954E-02
 -1     27144 8.94937E+00 1.85081E+00 5.41243E+00 5.48857E+00-1.93495E-02 7.03544E-04
 -1     27145-1.43039E+01-1.07854E+00-7.69448E+00-4.27227E+00 7.12753E-03-1.63659E-02
 -1     27146-1.40318E+01-9.53517E-01-7.48496E+00-4.18410E+00-4.45266E-04-1.88040E-03
 -1     27147-1.39857E+01-6.62448E-01-7.33592E+00-4.55999E+00 4.59823E-03-1.03261E-02
 -1     27148-1.40644E+01-4.22819E-01-7.23480E+00-4.82157E+00-1.17054E-02-1.09536E-02
 -1     27149-1.34209E+01-3.83373E-01-6.94073E+00-4.29842E+00 1.02838E-02-1.01342E-04
 -1     27150-1.44892E+01-1.68999E+00-8.12562E+00-4.10750E+00 1.35541E-02-2.92756E-02
 -1     27151-1.54353E+01-2.37884E+00-8.92402E+00-4.36943E+00 1.18222E-02-3.74834E-02
 -1     27152-1.42255E+01-7.92774E-01-7.49740E+00-4.43428E+00-1.84397E-02-2.82694E-02
 -1     27153-1.58696E+01-1.49172E+00-8.65493E+00-4.98418E+00-1.14863E-03-1.13486E-02
 -1     27154-1.56459E+01-1.37669E+00-8.51368E+00-4.92374E+00-3.05590E-03 2.05083E-03
 -1     27155-1.57561E+01-1.52925E+00-8.61267E+00-4.88139E+00-1.09088E-02-1.26224E-03
 -1     27156 1.46145E+00 1.10704E+01 6.11970E+00 7.24463E+00-6.63424E-02-4.12229E-02
 -1     27157 1.90813E-01 9.40707E+00 4.72956E+00 7.45568E+00-6.01182E-02 8.91586E-03
 -1     27158-1.12241E+00 1.04946E+01 4.89665E+00 6.74570E+00-4.66098E-02-1.20197E-01
 -1     27159-1.08949E+00 7.20893E+00 3.06377E+00 6.79796E+00-7.58607E-03-1.60451E-03
 -1     27160-1.35168E+00 6.49953E+00 2.90140E+00 5.19265E+00-1.30596E-01-8.79181E-02
 -1     27161-3.40068E-01 9.25831E+00 4.51674E+00 6.25649E+00-1.23579E-01 4.18624E-02
 -1     27162 5.68324E+00 1.60316E+01 1.09342E+01 6.09087E+00 9.65818E-02 1.66736E-01
 -1     27163-6.54884E+00 1.19938E+00-2.48064E+00 4.82584E+00 8.20594E-02 6.14455E-02
 -1     27164-4.69926E+00 4.90040E+00-2.29180E-02 5.94648E+00-2.10165E-02 1.81773E-01
 -1     27165-3.49122E+00 5.04929E+00 8.66778E-01 6.28145E+00 3.16542E-03 2.70415E-02
 -1     27166-2.18207E+00 6.14247E+00 1.77823E+00 6.18587E+00 1.00686E-02 5.00376E-02
 -1     27167 5.85542E+00 1.51971E+01 1.06174E+01 6.59602E+00 2.66578E-02-3.36380E-03
 -1     27168-1.07730E+01-3.55887E-01-5.56470E+00-2.49550E+00-4.67146E-03-3.50092E-04
 -1     27169-1.22042E+01-7.90859E-01-6.49726E+00-3.15597E+00-1.04373E-02 2.29176E-03
 -1     27170-1.73342E+01-8.00617E-01-9.07158E+00-5.56180E+00 3.27783E-03 1.18416E-02
 -1     27171-7.32435E+00 2.98540E+00-2.16785E+00 1.77245E+00 3.46178E-01 1.00205E-01
 -1     27172 7.56451E+00 5.96568E+00 6.80299E+00-4.55105E-01 2.65405E-02-2.15815E-02
 -1     27173-1.20012E+00-3.16668E+00-2.14489E+00 1.97496E-01-8.09970E-03 1.93113E-03
 -1     27174 1.87674E+00 7.53289E-01 1.22586E+00-6.72128E-01-1.87199E-02-5.32792E-03
 -1     27175 1.27644E+01 1.06822E+01 1.17328E+01 1.17470E+01-7.02599E-03 5.22753E-03
 -1     27176 1.22401E+01 1.02698E+01 1.12851E+01 1.12698E+01-5.00180E-03 1.19612E-02
 -1     27177 1.24857E+01 1.05041E+01 1.15018E+01 1.13543E+01 1.47077E-03-1.06273E-02
 -1     27178 1.20723E+01 1.01678E+01 1.11208E+01 1.13464E+01-1.54307E-02-9.32175E-03
 -1     27179 1.19622E+01 1.01383E+01 1.10783E+01 1.09098E+01-1.13223E-03 4.84467E-03
 -1     27180 7.20683E-01 9.88033E+00 5.36291E+00 6.90032E+00-8.16876E-03 4.31649E-02
 -1     27181 6.06243E-01 8.12598E+00 4.36123E+00 6.12467E+00-9.99714E-03 3.23543E-02
 -1     27182-2.12451E+00 6.11935E+00 1.97920E+00 6.68964E+00-9.88534E-02 8.36041E-02
 -1     27183-3.57079E+00 4.08055E+00 2.58893E-01 6.21336E+00-6.09843E-02-1.14792E-02
 -1     27184 1.11861E-01 7.63404E+00 3.89685E+00 5.77270E+00 3.33246E-02-3.12531E-02
 -1     27185 3.80849E+00 5.72227E+00 4.76447E+00 5.98986E+00 1.38235E-03-3.32609E-03
 -1     27186 5.03098E+00 6.52754E+00 5.77379E+00 6.70297E+00 1.17554E-02-5.40608E-04
 -1     27187 5.70113E+00 6.92226E+00 6.31147E+00 6.76320E+00 3.21458E-04-1.04190E-02
 -1     27188-1.44474E+01-9.49078E-01-7.69769E+00-2.83559E+00 1.91738E-02-1.46048E-02
 -1     27189-6.90394E+00 1.97028E+00-2.44433E+00 2.38802E-01 1.46779E-03 3.35710E-02
 -1     27190-9.34703E+00-3.32176E-01-4.85544E+00-3.83895E-01 2.70775E-02-3.58377E-02
 -1     27191-6.75635E+00 1.63975E+00-2.55696E+00 1.64442E-01-2.33931E-02-2.69212E-02
 -1     27192-8.33577E+00-6.67592E-02-4.17405E+00 7.23537E-01-2.89292E-02-6.11979E-03
 -1     27193 4.28822E+00 5.52529E+00 4.90757E+00 5.67740E+00-1.39014E-03-1.50089E-02
 -1     27194 4.47666E+00 5.37431E+00 4.92900E+00 5.80499E+00-1.36360E-03 7.64542E-03
 -1     27195-1.33562E+02-1.20483E+02-1.26928E+02 3.56043E+00 3.56015E-01-2.66993E-01
 -1     27196 7.73233E+01 9.39576E+01 8.60542E+01 2.92373E+00 1.32085E-01-4.84841E-01
 -1     27197-2.37675E+01-1.63288E+01-1.98369E+01 3.19378E+00 5.18450E-01-3.57778E-01
 -1     27198-6.94275E-01 2.69043E+00 1.02160E+00 2.74902E+00-5.93185E-04-5.61708E-03
 -1     27199 1.45993E+00-1.39285E+00-2.36228E-02 9.26069E-01-8.61750E-03 4.95101E-03
 -1     27200 4.49524E+00 1.93222E+00 3.23465E+00 7.28160E-01 1.15351E-02-1.06251E-02
 -1     27201 5.79461E+00 3.79351E+00 4.70793E+00 2.81404E-01 6.19015E-02-1.28131E-02
 -1     27202 6.29339E+00 5.87586E+00 6.07565E+00 5.43991E+00-4.24686E-03-8.01475E-03
 -1     27203 1.19007E+01 1.16434E+01 1.17370E+01-1.58717E+00 3.78769E-03 1.22401E-02
 -1     27204-1.33306E+01-1.35313E+01-1.34515E+01-1.78743E+00-8.56811E-03-1.08971E-02
 -1     27205-8.27148E-01 4.83764E+00 2.00789E+00 3.57194E+00 1.57786E-03 4.85246E-03
 -1     27206 6.59378E-01 5.50720E+00 3.08244E+00 4.42917E+00-2.32628E-04 5.11418E-03
 -1     27207 1.07318E+01 1.01094E+01 1.04520E+01 1.02274E+01-3.17644E-02-3.20744E-02
 -1     27208 9.98527E+00 9.68328E+00 9.82528E+00 1.00610E+01-4.36552E-03-3.71128E-02
 -1     27209 9.24693E+00 9.14738E+00 9.18256E+00 9.74854E+00-3.55736E-03 1.58059E-02
 -1     27210 6.14759E+00 1.53417E+00 3.86296E+00 2.35133E+00 3.14054E-02 5.69698E-03
 -1     27211 5.09336E+00 8.77170E-02 2.62658E+00 2.51279E+00-2.92998E-02 1.48503E-02
 -1     27212-3.01840E-01 9.51123E+00 4.28198E+00 1.29191E+00-1.35794E-01 8.01543E-02
 -1     27213-3.71680E+01-3.27406E+01-3.53703E+01 1.67933E+00-1.56594E-01-2.60158E-01
 -1     27214-3.02339E+00 3.57891E+00 7.82592E-02 4.25751E+00 4.36035E-02-2.15032E-01
 -1     27215-4.16018E+00 1.45794E+00-1.28648E+00 3.59099E+00 1.77796E-01-1.60765E-01
 -1     27216-4.96331E+00-5.26054E+00-5.03714E+00-1.12806E+00 4.73319E-02 8.68949E-02
 -1     27217-1.85986E+01-1.85393E+01-1.84908E+01 1.87155E-02 5.91896E-02-5.00978E-02
 -1     27218 3.19099E-01-3.07973E+00-1.37496E+00 1.81234E+00-1.19755E-02-3.15812E-02
 -1     27219 5.42349E+00 6.32392E+00 5.86884E+00 6.89038E+00 3.02677E-03 8.40599E-04
 -1     27220 1.08892E+01 9.54649E+00 1.02241E+01 1.03491E+01-1.50948E-02-1.73873E-02
 -1     27221-2.69754E+00 2.28527E+00-1.94662E-01 1.58716E+00 2.76425E-03 9.77025E-03
 -1     27222 5.78539E+00 5.49341E+00 5.63879E+00 5.60961E+00 7.97832E-03-3.54195E-03
 -1     27223-4.99309E-01 3.15531E+00 1.33377E+00 2.35933E+00-4.72171E-03 1.66153E-03
 -1     27224-4.19238E-01 3.16664E+00 1.38550E+00 2.37878E+00-2.07268E-03-3.58959E-03
 -1     27225-1.57734E+00 2.30752E+00 3.62272E-01 1.98856E+00 1.61124E-03-1.50514E-02
 -1     27226 7.79378E+00 6.46343E+00 7.13404E+00 5.27941E+00 9.63036E-03 2.74811E-02
 -1     27227 6.55538E+00 5.22116E+00 5.92585E+00 5.33822E+00 1.04322E-02 3.41930E-02
 -1     27228 6.26956E+00 4.81852E+00 5.55149E+00 5.33086E+00-2.70565E-02-1.60391E-02
 -1     27229 4.85235E+00 3.34078E+00 4.11097E+00 5.35333E+00-5.35468E-03 1.85291E-02
 -1     27230 3.56428E+00 3.11691E+00 3.30807E+00-9.32546E-01-1.23636E-04 4.01295E-02
 -1     27231-5.37115E+00-5.54174E+00-5.57482E+00 1.85025E-01-7.27061E-03-6.39738E-02
 -1     27232 1.11467E-01 8.79829E+00 4.40124E+00 7.27141E+00 1.13181E-02-2.79018E-02
 -1     27233-2.73475E+00 4.80317E+00 1.02624E+00 2.74463E+00 6.33011E-03-2.32615E-02
 -1     27234-5.42070E+00 2.21497E+00-1.61449E+00 2.27587E+00-2.81248E-02 1.33271E-02
 -1     27235-2.24147E+00 2.51370E+00 1.30516E-01 2.52014E+00 1.32285E-02-1.29272E-03
 -1     27236 9.51175E+00 8.92799E+00 9.23602E+00 9.92381E+00-2.44484E-03-4.41175E-03
 -1     27237 8.91921E+00 8.80813E+00 8.89183E+00 9.14244E+00-9.09737E-03-1.33725E-03
 -1     27238 8.55994E+00 8.84348E+00 8.70024E+00 8.82647E+00-5.44108E-04-1.52860E-02
 -1     27239 9.65911E+00 9.13427E+00 9.36394E+00 9.89800E+00 1.13442E-02 1.24513E-02
 -1     27240 1.19223E+01 1.00097E+01 1.09400E+01 1.09236E+01-3.10139E-03 8.59096E-03
 -1     27241 1.32434E+01 1.10793E+01 1.21756E+01 1.22732E+01-9.12471E-03 2.04590E-02
 -1     27242 1.21064E+01 9.79257E+00 1.09475E+01 1.12291E+01-1.11297E-02-1.12681E-02
 -1     27243 1.38371E+01 1.16859E+01 1.27609E+01 1.22862E+01-8.72099E-03 1.49687E-02
 -1     27244 1.25435E+01 1.02335E+01 1.13736E+01 1.14751E+01 1.14370E-02-4.69190E-03
 -1     27245 4.61036E+00-8.13734E-01 1.90455E+00 3.10930E+00 3.43392E-03 8.65442E-03
 -1     27246 5.94689E+00 5.22305E-01 3.23899E+00 3.34449E+00-7.89769E-03-1.68788E-04
 -1     27247 4.23926E+00-1.02722E+00 1.60897E+00 3.57414E+00-1.66204E-03 4.17884E-03
 -1     27248 5.27915E+00 2.54122E-01 2.76891E+00 3.76658E+00 1.70599E-03-1.28331E-03
 -1     27249-1.07729E+01-3.65967E+00-7.15863E+00-1.53210E+00 9.37308E-02-3.07284E-02
 -1     27250-3.50197E+00 4.19949E+00 5.26175E-01-2.35099E+00 7.03855E-02 1.75577E-02
 -1     27251 8.55859E+00 8.19722E+00 8.37879E+00-1.53614E+00 2.59033E-03 1.02590E-02
 -1     27252 5.89777E+00 5.74107E+00 5.81452E+00 5.51209E+00 7.66500E-03-2.68306E-02
 -1     27253 3.78156E+01 3.90975E+01 3.82393E+01-6.53482E-02-1.33706E-01-1.39056E-01
 -1     27254-3.03438E+01-1.12029E+01-2.02628E+01-5.00409E+00 3.36384E-01 1.23268E-01
 -1     27255-1.87986E+01-1.38224E-01-9.80658E+00-5.92763E+00-2.81717E-02-7.09419E-02
 -1     27256-2.40578E+01-5.59647E+00-1.56109E+01-6.18434E+00-1.37764E-01 2.66368E-02
 -1     27257-1.02730E+01-1.06967E+01-1.05009E+01-6.66432E-01 7.27784E-03-1.01256E-01
 -1     27258-1.31731E+01-4.07826E+00-8.58077E+00 9.17940E-01 3.78096E-02 4.28013E-02
 -1     27259-1.02411E+01 2.04377E+01 4.32735E+00 4.61014E+00 9.50693E-01-5.96207E-01
 -1     27260-7.45472E+01-5.09787E+01-6.25991E+01 5.47992E+00 3.98514E-01-9.82498E-03
 -1     27261 6.85737E+00 5.88378E+00 6.37848E+00 6.83235E+00 6.11874E-03-1.95811E-02
 -1     27262 6.14092E+00 3.03240E+01 1.56310E+01-5.51080E+00 5.97261E-01 3.85407E-01
 -1     27263 2.00290E+01 4.83211E+01 3.31733E+01 6.55361E+00 7.32120E-03 3.08465E-01
 -1     27264-1.21671E+01-1.03692E+00-6.61649E+00-3.12293E+00 2.09336E-03 7.77142E-04
 -1     27265-1.29779E+01-9.82809E-01-6.99190E+00-3.66797E+00 8.15278E-04-1.06082E-03
 -1     27266-1.74241E+01-1.89190E+00-9.64676E+00-5.74285E+00 1.00175E-02-3.31479E-02
 -1     27267-1.78425E+01-2.21070E+00-1.00153E+01-5.77383E+00-5.83661E-03 1.61227E-03
 -1     27268-1.76906E+01-2.18996E+00-9.96004E+00-5.69031E+00 2.34599E-02-5.24683E-03
 -1     27269 2.64297E-01 2.02214E-01 3.11784E-01-1.74305E+00 1.85861E-02 1.59929E-02
 -1     27270-1.42056E+01-1.22645E+00-7.71202E+00-4.30635E+00-6.76836E-03 4.92087E-03
 -1     27271-1.30496E+01-1.08816E+00-7.05911E+00-3.65220E+00-7.29429E-03 5.80028E-03
 -1     27272 8.17302E+00 5.14493E+00 6.64232E+00 5.37198E+00-2.39357E-02-3.41903E-02
 -1     27273 8.26172E+00 4.69213E+00 6.47357E+00 5.28063E+00-1.45193E-02 1.67346E-02
 -1     27274-1.77842E+01-1.82592E+00-9.81008E+00-5.73059E+00-2.00742E-04-4.93814E-03
 -1     27275-1.75747E+01-1.82022E+00-9.71611E+00-5.71902E+00-9.66051E-03 9.77379E-03
 -1     27276-1.89232E+01-2.21815E+00-1.05274E+01-6.22763E+00 5.09838E-03 1.04143E-02
 -1     27277 6.22983E+00 5.74119E+00 5.98401E+00 5.56746E+00-8.47471E-03-7.06928E-03
 -1     27278 5.37812E+00 4.74792E+00 5.09895E+00 5.66326E+00-1.16781E-02-3.06027E-02
 -1     27279 8.23314E+00 5.85194E+00 6.94638E+00 3.17172E+00 3.88507E-02-2.17979E-02
 -1     27280 1.25326E+01 1.08428E+01 1.16709E+01 1.14716E+01-2.55168E-02-3.42492E-02
 -1     27281 2.76440E+00 7.07359E+00 4.94080E+00 6.59377E+00 8.55601E-03 2.69301E-03
 -1     27282 1.16183E+01 1.02471E+01 1.09189E+01 1.10485E+01-9.91534E-03-7.06432E-03
 -1     27283 9.61454E+00 9.10283E+00 9.35761E+00 9.92595E+00 4.96410E-03-5.39245E-03
 -1     27284 1.05621E+01 9.62214E+00 1.00758E+01 1.02344E+01-1.37837E-02-1.86873E-02
 -1     27285 9.03833E+00 4.64476E+00 6.83979E+00 4.80708E+00 1.05009E-02 5.35224E-03
 -1     27286 9.77123E+00 3.57629E+00 6.67213E+00 6.75726E+00-7.39429E-04-1.00036E-02
 -1     27287 3.32991E+00 2.32317E+00 2.83615E+00 1.16898E+00 1.69728E-03 1.91510E-02
 -1     27288-1.76923E+01-1.93328E+00-9.81054E+00-5.71968E+00-2.26719E-03 4.00981E-03
 -1     27289 3.73733E+00 1.09039E+00 2.36818E+00 7.61698E-01-3.55902E-02-2.43421E-02
 -1     27290 9.77453E+00 7.36642E+00 8.57172E+00 7.72743E+00 2.29198E-02-5.61130E-03
 -1     27291 9.09677E+00 6.60406E+00 7.87340E+00 7.82971E+00 1.26696E-02 7.56879E-03
 -1     27292 9.34649E+00 6.72947E+00 7.98384E+00 7.40285E+00 1.21001E-02-9.34081E-03
 -1     27293 9.61061E+00 6.98366E+00 8.32293E+00 7.53956E+00-3.11135E-03 5.12280E-03
 -1     27294 1.25847E+01 9.54759E+00 1.10315E+01 1.02156E+01 3.59620E-03 1.02764E-02
 -1     27295-6.84506E+00-7.29201E+00-7.01493E+00-1.46642E+00-3.10256E-02 3.50139E-02
 -1     27296-1.57819E+01-1.30821E+00-8.54703E+00-5.02949E+00-4.35907E-03 7.88202E-03
 -1     27297-1.43353E+01-1.23594E+00-7.76924E+00-4.25505E+00-1.19417E-03-6.51476E-03
 -1     27298-1.59608E+01-1.50611E+00-8.71065E+00-5.02756E+00 2.02414E-02-8.57096E-03
 -1     27299 7.41525E+00 5.57333E+00 6.45037E+00 7.58314E-01 4.21016E-02 1.74021E-02
 -1     27300 1.76100E+00-4.55645E-01 6.28558E-01 1.14170E+00 2.53352E-02-1.09998E-02
 -1     27301 6.48033E+00 5.71924E+00 6.07831E+00 1.31036E-01 4.01242E-02 3.26111E-02
 -1     27302-8.35645E+00 3.37605E-01-4.00587E+00 8.95932E-01 1.87718E-02 1.81934E-03
 -1     27303-5.49598E+00 3.43614E+00-1.03141E+00 5.18839E-01 6.14765E-03 1.48900E-02
 -1     27304-7.15306E+00 1.95071E+00-2.56563E+00-2.38574E-01-3.82448E-02 2.24333E-02
 -1     27305 8.54128E+00 6.03908E+00 7.31366E+00 6.86268E+00-8.86552E-03-1.47615E-02
 -1     27306 8.80582E+00 5.05575E+00 6.92001E+00 6.89301E+00-4.81174E-03-1.44551E-02
 -1     27307 8.76459E+00 6.70928E+00 7.77832E+00 7.20989E+00-5.38461E-04-5.11430E-04
 -1     27308 1.21699E+01 9.73933E+00 1.09758E+01 1.09992E+01 2.57996E-03 8.40611E-03
 -1     27309 1.23791E+01 9.87104E+00 1.11204E+01 1.08212E+01 1.36438E-02-2.16574E-02
 -1     27310 6.31407E+00 5.79005E+00 6.05363E+00 7.30576E+00-1.56575E-03-1.51103E-03
 -1     27311 6.90142E+00 6.54291E+00 6.72151E+00 6.67349E+00-8.15029E-03 5.77838E-03
 -1     27312-4.67569E-01-9.86095E-01-7.06575E-01-1.27945E+00-1.47506E-02-1.36269E-02
 -1     27313 2.43354E+00 1.58841E+00 2.07041E+00-1.11933E-01-1.92022E-02-5.33135E-02
 -1     27314 7.84784E+00 6.24668E+00 6.96711E+00 2.18800E-01 4.08751E-02 1.99067E-02
 -1     27315 4.93061E+00 4.08002E+00 4.55047E+00 1.43109E-02-2.50878E-02-5.61568E-02
 -1     27316-3.03592E+00-3.81246E+00-3.48301E+00-3.59004E-01 3.03014E-02 6.24578E-02
 -1     27317 9.32609E+00 5.75242E+00 7.53141E+00 8.32134E+00-6.82952E-03-2.29295E-02
 -1     27318 8.77362E+00 5.25532E+00 7.00413E+00 7.58207E+00-1.71192E-03 2.04812E-03
 -1     27319 8.47234E+00 4.67839E+00 6.55949E+00 7.55842E+00-3.42932E-03 1.14232E-02
 -1     27320-1.48275E+01-7.28832E+00-1.11338E+01-2.22848E+00 3.93532E-02-2.64077E-02
 -1     27321 3.77100E+00 1.53024E+00 2.62987E+00 4.54958E+00-3.27314E-03 1.51066E-02
 -1     27322 5.44448E+00 1.82856E+00 3.63399E+00 5.16401E+00-9.78205E-03-3.85419E-03
 -1     27323-1.43689E+01-1.46125E+00-7.93812E+00-4.01383E+00 1.10363E-02-7.07541E-03
 -1     27324-1.52744E+01-1.54946E+00-8.42920E+00-4.90246E+00 1.06573E-02 1.25975E-02
 -1     27325-1.59288E+01-1.52187E+00-8.72767E+00-4.99781E+00 5.09234E-03-7.28326E-03
 -1     27326-1.11715E+01 4.59668E-02-5.55628E+00-2.74655E+00 2.43416E-03 6.69530E-03
 -1     27327-1.34771E+01-1.35586E+00-7.38109E+00-3.38122E+00 5.39168E-03-7.32117E-03
 -1     27328 5.84437E+00 4.91767E+00 5.34013E+00 5.17220E+00 4.73200E-03 5.71036E-03
 -1     27329 5.65472E+00 4.71832E+00 5.20847E+00 5.16645E+00 2.24612E-02 2.69417E-02
 -1     27330 6.10097E+00 1.11711E+00 3.60389E+00 5.05849E+00-1.71581E-03-1.93795E-02
 -1     27331 2.06015E+00 7.16669E-01 1.38538E+00 3.80086E+00-7.81777E-03 1.02051E-02
 -1     27332 3.68615E+00 1.37510E+00 2.52496E+00 4.14898E+00-3.02581E-03 1.78962E-02
 -1     27333 3.16639E+00 1.29365E+00 2.23147E+00 4.08325E+00-1.63245E-02 3.13082E-03
 -1     27334 1.34333E+00 3.49770E-02 6.55548E-01 4.05137E+00-6.00156E-03 5.74291E-03
 -1     27335 7.75318E+00 3.24764E+00 5.48988E+00 3.05878E+00-5.49851E-02-2.58245E-02
 -1     27336 8.67909E+00 4.99651E+00 6.85282E+00 2.99487E+00-6.88274E-03-2.75698E-02
 -1     27337 9.96929E+00 9.15938E+00 9.58964E+00 1.00039E+01 1.67410E-02-1.30262E-02
 -1     27338 9.22986E+00 8.86301E+00 9.08657E+00 9.21749E+00 1.93907E-03-2.31366E-03
 -1     27339-1.81295E+01-2.01067E+00-1.00655E+01-5.96935E+00-8.25134E-03 1.38012E-02
 -1     27340-1.81860E+01-2.15073E+00-1.01670E+01-5.94696E+00-1.17018E-02-4.57959E-04
 -1     27341-2.84254E+00 1.12539E+00-8.60831E-01 1.62220E+00 6.73494E-04 5.69819E-03
 -1     27342 7.83111E+00 8.14835E+00 7.95930E+00 8.40631E+00-1.13195E-02 9.21496E-03
 -1     27343-2.04436E+01-2.08193E+00-1.12824E+01-3.06574E+00 6.45728E-02 4.74216E-02
 -1     27344-2.16605E+01-3.73564E+00-1.26867E+01-6.14026E+00-3.57093E-02-1.13413E-01
 -1     27345-1.93963E+01-1.24002E+00-1.04419E+01-5.84897E+00-5.17526E-03-1.21932E-01
 -1     27346-5.53062E+00 3.46002E-01-2.59187E+00 4.97252E-01 2.12374E-02-3.91345E-03
 -1     27347-4.69213E+00 2.84036E-01-2.20972E+00 1.03965E+00 1.17691E-02 5.94517E-03
 -1     27348-3.59242E+00 1.29298E+00-1.15586E+00 1.02526E+00-3.79184E-03 1.55039E-02
 -1     27349-1.49897E+01-6.74304E-01-7.83857E+00-3.62639E+00-2.76581E-04-9.90637E-03
 -1     27350-4.22080E+00 1.28134E+00-1.49476E+00 7.66263E-01 9.60737E-03 4.31550E-03
 -1     27351 1.35558E+01 1.14189E+01 1.24922E+01 1.22478E+01 3.74654E-03 2.12057E-02
 -1     27352 1.25485E+01 1.02024E+01 1.13683E+01 1.15143E+01-2.25886E-02 7.81494E-03
 -1     27353 1.23829E+01 9.77719E+00 1.10785E+01 1.09853E+01-1.46206E-02 1.19576E-02
 -1     27354 1.23499E+01 1.00343E+01 1.11809E+01 1.14546E+01 8.65963E-03 2.21365E-02
 -1     27355-4.46393E+00 2.34426E+00-1.05908E+00 1.66106E+00 5.32835E-03 3.72955E-03
 -1     27356-4.47423E+00 2.36028E+00-1.05082E+00 1.37089E+00-8.49084E-04-6.23413E-04
 -1     27357-4.65848E+00 2.86767E+00-8.81629E-01 8.35195E-01 5.74302E-03-8.92908E-03
 -1     27358 1.01082E+01 7.10564E+00 8.60538E+00 9.34600E+00 1.71327E-02 2.12179E-02
 -1     27359 1.16090E+01 8.45615E+00 1.00061E+01 9.52035E+00 1.15165E-02-8.31949E-03
 -1     27360 1.19535E+01 9.23034E+00 1.05925E+01 9.87810E+00 1.67282E-02-7.77335E-03
 -1     27361 1.18419E+01 9.14609E+00 1.04972E+01 9.89936E+00-3.10929E-04 7.11460E-03
 -1     27362 1.33838E+01 1.12176E+01 1.22766E+01 1.23480E+01-4.57895E-03 2.78963E-02
 -1     27363-1.01098E+01-5.30603E+00-7.70218E+00 1.14710E+00 1.08596E-01-1.07668E-01
 -1     27364-1.44073E+01-6.96602E+00-1.07197E+01 9.27555E-01 7.76394E-02-1.35097E-01
 -1     27365 4.25063E-01-6.00187E-01-6.70794E-02-9.61873E-01-2.77475E-02-5.48342E-03
 -1     27366 6.92681E+00 6.45684E+00 6.68138E+00-1.48433E+00 1.47123E-03 4.42289E-02
 -1     27367-5.79938E+00-6.29373E+00-6.10266E+00-1.20832E+00 9.22605E-03 4.87232E-02
 -1     27368-6.23758E+00-6.80621E+00-6.48053E+00-1.16311E+00 2.99719E-02 1.25554E-02
 -1     27369 8.75894E+00 2.79159E+00 5.76311E+00 5.53707E+00-1.32763E-03-4.48787E-03
 -1     27370 8.59474E+00 2.14198E+00 5.35192E+00 5.28985E+00 1.86887E-02-8.08031E-03
 -1     27371 1.00779E+01 3.70452E+00 6.88150E+00 5.88198E+00-1.78923E-02 3.61926E-03
 -1     27372-1.01795E+01-4.64719E-01-5.34035E+00-1.76690E+00-1.00845E-02-7.55013E-02
 -1     27373-1.12175E+01-6.86425E-01-5.90909E+00-3.12267E+00 9.15153E-05-6.16067E-02
 -1     27374-1.26073E+01-1.49834E+00-7.05548E+00-3.83030E+00 3.39607E-02-4.33526E-02
 -1     27375-1.22814E+01-1.54860E+00-6.91963E+00-3.59703E+00 5.30834E-02-3.82449E-03
 -1     27376-1.26475E+01-1.22556E+00-6.91862E+00-3.96297E+00 1.10093E-02 3.88689E-03
 -1     27377 7.81487E+00 5.75550E+00 6.85872E+00 1.55693E+00 6.24970E-02-1.80968E-02
 -1     27378-6.87502E+00 7.91024E-01-3.00936E+00-2.05942E-01-2.35303E-02 5.47162E-02
 -1     27379-5.85545E+00 1.61618E+00-2.12738E+00 9.45681E-01-7.58575E-03-3.08897E-02
 -1     27380-8.31019E+00-1.52183E+00-4.86800E+00 1.24189E+00-2.62158E-02 1.66039E-02
 -1     27381-1.21342E+01-4.49375E+00-8.19765E+00 1.27628E+00-6.65283E-02 7.13048E-02
 -1     27382-1.05339E+01-1.16137E+00-5.86581E+00 7.47894E-01-1.56720E-01 2.53700E-02
 -1     27383-9.37903E+00-4.31387E+00-6.81390E+00 1.26334E+00-3.82843E-02-3.70922E-02
 -1     27384 7.31945E+00 6.16300E+00 6.73248E+00 7.39484E+00-1.09759E-02 1.88190E-02
 -1     27385-1.39357E+01-4.76651E+00-9.37847E+00-2.98082E+00-4.85238E-02 6.17381E-03
 -1     27386 8.93481E-01 6.33091E+00 3.65625E+00 3.20068E+00 3.66512E-02 1.00343E-01
 -1     27387 2.61560E+01 3.79081E+01 3.09260E+01 7.11077E+00-1.88461E-01 4.90882E-01
 -1     27388 8.07934E+00 3.95799E+00 6.00235E+00 5.41196E+00-1.28679E-02 2.76565E-02
 -1     27389 8.00015E+00 4.48931E+00 6.24324E+00 5.46823E+00 2.25445E-05 1.38528E-02
 -1     27390 6.36126E+00 6.02647E+00 6.21650E+00 4.93015E+00 2.10419E-02 1.57243E-02
 -1     27391 4.53589E+00 4.30376E+00 4.44411E+00 5.07253E+00 7.34044E-04 6.56932E-03
 -1     27392-1.44137E+01-1.25712E+00-7.83713E+00-4.16417E+00-2.46053E-03-1.80065E-03
 -1     27393-1.53643E+01-1.49455E+00-8.43655E+00-4.97730E+00 9.57490E-04-1.11959E-02
 -1     27394 4.13856E+00-5.37708E-01 1.80619E+00 3.92092E+00-5.22622E-04 6.78854E-03
 -1     27395 4.11779E+00-9.88936E-02 2.00695E+00 3.98387E+00 2.46546E-03 1.44829E-02
 -1     27396 6.65503E+00 5.94921E+00 6.31378E+00 3.38419E+00 3.75086E-03 2.71329E-02
 -1     27397 6.13945E+00 4.28915E+00 5.20382E+00 3.74323E+00 3.99972E-02-1.67684E-02
 -1     27398 7.14848E+00 6.16053E+00 6.70251E+00 3.19088E+00-1.18375E-02 4.65829E-02
 -1     27399 1.06429E+01 9.00948E+00 9.87643E+00 3.61534E+00-9.83080E-03 4.05377E-02
 -1     27400 9.37079E-01 1.71210E+00 1.33081E+00 3.63009E+00 6.85331E-03-2.76255E-02
 -1     27401 8.30072E+00 3.77996E+00 6.02356E+00 5.32775E+00-8.03571E-03 1.88491E-02
 -1     27402 8.52437E+00 3.97231E+00 6.24593E+00 5.48134E+00-7.26951E-03-1.92880E-02
 -1     27403-1.29394E+01-2.09929E+00-7.62328E+00-3.64890E+00 1.18361E-01-4.91957E-02
 -1     27404-1.17887E+01-1.67164E+00-6.72703E+00-3.50106E+00 4.72205E-03-7.18714E-02
 -1     27405-1.01887E+01 4.84463E-02-5.10529E+00-3.01047E+00 6.04437E-02-3.03329E-03
 -1     27406 3.27019E+00 4.85754E+00 4.06331E+00 5.07082E+00-2.43899E-02 3.06437E-02
 -1     27407-2.21667E+01-1.45719E+01-1.83149E+01 1.28295E+00-1.28041E-01-1.50114E-02
 -1     27408-3.30557E+01-3.07428E+01-3.19770E+01-3.32250E-01-2.26759E-02-1.63766E-01
 -1     27409 4.80135E+00 7.35434E+00 5.98086E+00 4.08038E-01-2.03925E-01-3.25495E-01
 -1     27410 1.01074E+01 6.14786E+00 8.12615E+00 5.19197E+00-3.94098E-03-1.11825E-02
 -1     27411 1.21339E+01 1.02788E+01 1.11784E+01 1.09112E+01 2.63407E-04-1.31339E-02
 -1     27412 1.06215E+01 9.08415E+00 9.83128E+00 1.03756E+01-1.46860E-03-9.94196E-03
 -1     27413 1.03158E+01 4.10307E+00 7.19295E+00 6.57626E+00-1.24625E-03 1.13414E-02
 -1     27414-7.31687E+00-2.73447E+00-5.02353E+00 1.85921E+00-4.79785E-03-1.85703E-02
 -1     27415-4.06992E+00-7.77241E-01-2.44096E+00 2.12080E+00 9.49077E-03 1.88837E-03
 -1     27416 6.17777E+00 6.49145E+00 6.33028E+00 7.07599E+00-9.26072E-03-3.98427E-03
 -1     27417 5.31506E+00 6.25791E+00 5.78342E+00 6.32534E+00-2.26633E-03 7.50207E-03
 -1     27418-1.21279E+01-4.57066E-01-6.28758E+00-2.94109E+00-2.91804E-03-3.06044E-03
 -1     27419-1.33174E+01-8.92648E-01-7.06366E+00-3.63864E+00-3.29136E-03 2.15158E-03
 -1     27420 7.73085E+00 8.99778E-01 4.31668E+00 5.36149E+00 1.08876E-02 2.56130E-03
 -1     27421-1.34973E+01-8.27414E-01-7.17221E+00-3.79443E+00 4.68690E-03-1.19996E-02
 -1     27422-1.26183E+01-7.81028E-01-6.69791E+00-3.13191E+00 5.30473E-03-2.42271E-02
 -1     27423-1.46966E+01-1.77794E+00-8.22579E+00-3.97631E+00 1.22461E-02-1.95724E-03
 -1     27424 1.02163E+01 4.53749E+00 7.36110E+00 6.77241E+00 1.44694E-03-1.08094E-02
 -1     27425 1.01797E+01 8.88090E+00 9.54189E+00 9.61373E+00 6.45909E-03 1.92875E-02
 -1     27426-1.92785E+01-2.23267E+00-1.07731E+01-6.22820E+00 5.86480E-02-6.06790E-03
 -1     27427 9.54243E+00 9.08611E+00 9.29612E+00-1.44482E+00-1.52493E-02 4.10255E-02
 -1     27428 1.83023E+01 1.76574E+01 1.79551E+01-1.26165E+00-2.48758E-02 5.35402E-03
 -1     27429-1.06554E+00-1.30416E+00-1.19003E+00-1.69930E+00-7.31957E-03 2.24795E-02
 -1     27430-2.12079E+01-3.61316E+00-1.19966E+01-6.11883E+00 1.45101E-02 1.47007E-01
 -1     27431-1.83747E+01-5.43412E-01-9.51483E+00-6.75596E+00 4.98589E-02-1.36633E-01
 -1     27432 1.81273E+01 2.84797E+01 2.37855E+01 3.41039E+00 5.47442E-01-6.56542E-01
 -1     27433-3.01628E+01-2.08230E+00-1.53776E+01 4.93624E+00 9.46668E-01-2.17816E-01
 -1     27434-1.63857E+01 8.88932E+00-3.39179E+00 4.39623E+00 2.46271E-01-4.37377E-01
 -1     27435-1.64433E+01 6.45269E+00-5.91442E+00-7.23492E+00-1.06744E+00 7.08384E-01
 -1     27436-5.96856E-01-7.21645E-01-6.51474E-01-1.60050E+00 4.46813E-02 2.95299E-02
 -1     27437-8.87047E+00-7.07899E+00-8.13124E+00-5.94922E-01-8.34713E-02-6.14742E-02
 -1     27438-2.59020E+01-1.90990E+01-2.25710E+01 8.43566E-01-2.42689E-01-1.12174E-01
 -1     27439 1.41084E+01 1.63076E+01 1.48119E+01 8.18592E-02-1.05074E-01 1.13928E-01
 -1     27440 1.21824E+01 8.99505E+00 1.06282E+01 9.55598E+00 7.17574E-04 5.37824E-03
 -1     27441 1.15174E+01 8.97131E+00 1.03094E+01 1.02516E+01 8.35321E-03 8.87791E-03
 -1     27442 1.15386E+01 8.48655E+00 9.96534E+00 9.87338E+00-3.30566E-03-5.71277E-03
 -1     27443 7.61265E+00 4.84803E+00 6.23107E+00 4.90026E+00-2.39979E-03 2.80513E-02
 -1     27444 7.65529E+00 5.76159E+00 6.69944E+00 6.83135E+00-1.06209E-02 8.76298E-03
 -1     27445 7.75726E+00 5.95137E+00 6.87774E+00 6.67455E+00 1.58952E-02-2.68211E-03
 -1     27446 9.38258E+00 4.19891E+00 6.76496E+00 3.32297E+00-1.00426E-02 2.49339E-02
 -1     27447 8.91236E+00 3.55936E+00 6.21641E+00 3.35504E+00 2.09316E-02-3.21667E-02
 -1     27448-1.94764E+01-1.79278E+00-1.06179E+01-6.75683E+00 8.43271E-02 1.47262E-01
 -1     27449-1.25911E+01 5.13439E+00-3.58841E+00-6.55762E+00 9.83431E-02 5.69607E-02
 -1     27450-2.35887E+01-5.75408E+00-1.44313E+01-6.88009E+00 6.55703E-02 1.80298E-01
 -1     27451 1.18956E+01 7.83273E+00 9.86630E+00 9.03065E+00 1.08066E-02 1.07008E-02
 -1     27452 1.30104E+01 1.00712E+01 1.15993E+01 1.03899E+01 3.66128E-03 1.03386E-02
 -1     27453 1.15611E+01 8.41295E+00 9.97981E+00 9.93601E+00-1.34344E-02 1.77791E-02
 -1     27454 1.16334E+01 7.88099E+00 9.74218E+00 9.30412E+00 1.13117E-02-4.35910E-03
 -1     27455-1.77756E+01-2.11836E+00-9.94801E+00-5.75574E+00-1.73554E-03 1.24313E-02
 -1     27456-1.73170E+01-1.75721E+00-9.49210E+00-5.74490E+00 5.06131E-03-2.07435E-02
 -1     27457-1.76256E+01-1.91165E+00-9.74054E+00-5.77704E+00 1.17617E-02 3.42710E-03
 -1     27458 1.20349E+01 9.59499E+00 1.08061E+01 1.08227E+01-3.24248E-02-9.87814E-03
 -1     27459 1.16678E+01 9.25811E+00 1.04507E+01 1.06966E+01 8.45446E-03-1.86735E-02
 -1     27460 1.15872E+01 9.17735E+00 1.04049E+01 1.06154E+01 4.89606E-03 9.44601E-04
 -1     27461-8.15530E+00-1.13119E-01-4.12692E+00 5.58882E-01 2.44874E-02-2.24059E-02
 -1     27462-1.89912E+01-2.08352E+00-1.05385E+01-6.25260E+00-1.16574E-02-1.46176E-02
 -1     27463-3.87300E+00 2.30127E+00-7.82837E-01 1.16738E+00 2.53577E-03-6.77140E-03
 -1     27464-2.00299E+00 3.32907E+00 6.61885E-01 1.80958E+00 2.50437E-03-7.71809E-03
 -1     27465-1.67129E+01-1.76045E+00-9.23853E+00-5.25288E+00 3.75899E-03 5.36694E-04
 -1     27466-1.53065E+01-1.41179E+00-8.34786E+00-4.69088E+00-1.05672E-04 1.35568E-03
 -1     27467-1.63751E+01-1.58735E+00-8.96327E+00-5.20500E+00 7.69530E-03-4.61535E-03
 -1     27468 6.94023E+00 1.53031E+00 4.22407E+00 5.66124E+00-7.22350E-04 2.40257E-03
 -1     27469-1.69498E+01-1.79029E+00-9.34806E+00-5.25821E+00 6.26980E-03-5.93213E-03
 -1     27470 1.30697E+01 1.06089E+01 1.18629E+01 1.14184E+01 5.91305E-03 5.75672E-03
 -1     27471 9.04456E+00 4.51639E+00 6.77737E+00 5.03640E+00-1.37051E-03 4.81624E-03
 -1     27472-1.80166E+01-1.96293E+00-9.98373E+00-5.93076E+00-4.51526E-03-3.27172E-03
 -1     27473 1.73226E+00-7.30287E-02 8.20905E-01 3.59358E+00 4.21170E-03-1.07449E-02
 -1     27474 1.33075E+00 6.51247E-02 6.93251E-01 3.55590E+00 2.27773E-03 1.15860E-03
 -1     27475 2.59514E+00 2.52060E-01 1.42507E+00 3.87754E+00 5.94972E-03-1.71141E-03
 -1     27476-1.42295E+01-1.36559E+00-7.80055E+00-4.20993E+00-8.66321E-03 5.98604E-03
 -1     27477 8.00597E+00 7.24396E+00 7.63451E+00 7.98073E+00-1.67606E-02-1.73756E-03
 -1     27478 1.05180E+01 9.01163E+00 9.77058E+00 1.03943E+01 8.54754E-03-8.01595E-03
 -1     27479-1.67005E+01-1.92312E+00-9.31866E+00-5.23136E+00-1.30873E-02 6.42136E-03
 -1     27480-1.62059E+01-1.73478E+00-8.97210E+00-5.10450E+00-9.05491E-03-3.26010E-03
 -1     27481-1.66393E+01-1.75528E+00-9.18698E+00-5.33886E+00 3.15068E-03-1.47079E-03
 -1     27482 1.04146E+01 9.48863E+00 9.95882E+00 1.00796E+01 1.44673E-03 9.04900E-03
 -1     27483 9.08967E+00 8.72929E+00 8.86191E+00 9.23781E+00-5.17575E-03 8.40082E-03
 -1     27484 9.87863E+00 9.29048E+00 9.57691E+00 9.34481E+00-1.47717E-03-1.68148E-03
 -1     27485-1.77681E+01-1.75308E+00-9.76018E+00-5.92505E+00 8.90728E-03 8.98087E-03
 -1     27486-1.71112E+01-1.72037E+00-9.41510E+00-5.62158E+00-6.30498E-03 4.83876E-03
 -1     27487-1.79698E+01-1.96110E+00-9.97103E+00-5.94470E+00 5.08720E-03-5.23732E-04
 -1     27488-1.78625E+01-1.84363E+00-9.85844E+00-5.95489E+00-9.73311E-03-1.91834E-03
 -1     27489-1.49058E+01-1.49990E+00-8.20355E+00-4.55093E+00 1.60109E-03-2.01874E-03
 -1     27490 8.39455E+00 3.21758E+00 5.74944E+00 3.47644E+00 9.39869E-03 3.50640E-02
 -1     27491 7.31413E+00 1.75318E+00 4.50946E+00 3.82872E+00 3.49776E-03 3.20395E-02
 -1     27492 5.36608E+00 2.46833E+00 3.95041E+00 4.06667E+00-5.17242E-02 1.44793E-02
 -1     27493 8.47477E+00 4.91349E+00 6.68838E+00 4.31238E+00-3.55716E-02 1.90349E-02
 -1     27494 9.47195E+00 5.73430E+00 7.60660E+00 4.11083E+00-1.00446E-02 5.51858E-02
 -1     27495-4.47706E-01 9.33454E+00 4.61957E+00 7.55851E+00 3.77888E-02-7.02160E-02
 -1     27496-1.30272E+01-5.28188E-01-6.75295E+00-4.35642E+00-2.57872E-02-2.96930E-02
 -1     27497-1.52993E+00 4.15904E+00 1.31938E+00 2.17580E-01 3.72065E-02 2.01016E-01
 -1     27498-1.06600E+01-4.55864E+00-7.54407E+00-7.27757E-01 1.11554E-01 1.16626E-01
 -1     27499-5.90655E+00 3.10667E+00-1.49180E+00-2.90460E+00 2.75177E-03 3.01450E-03
 -1     27500-1.35957E+01-6.01659E+00-9.72526E+00-2.37691E+00-5.88291E-02-6.32866E-03
 -1     27501-1.15464E+01-3.24795E+00-7.29072E+00-2.92890E+00 3.23272E-02-1.38642E-02
 -1     27502-6.85875E+00-8.26367E-02-3.47840E+00-1.08807E-01 6.64206E-03-1.12253E-02
 -1     27503 9.24222E+00 4.04514E+00 6.67360E+00 5.14256E+00 1.34951E-02-1.48055E-02
 -1     27504 1.00149E+01 4.84673E+00 7.46333E+00 5.31212E+00-1.42500E-02 3.32129E-02
 -1     27505-6.38438E+01-5.29773E+01-5.79610E+01 3.57321E+00 3.04852E-01-4.01901E-01
 -1     27506-3.43908E+01-3.40227E+01-3.38189E+01 3.05670E+00-1.58490E-01 9.03389E-02
 -1     27507-2.69616E+01-1.98349E+01-2.22605E+01 5.36090E+00 1.48617E-01 1.29472E-02
 -1     27508 8.36088E+00 2.63324E+00 5.49987E+00 6.45997E+00-2.78575E-03-3.72486E-03
 -1     27509 9.88476E+00 4.32284E+00 7.10279E+00 6.83530E+00 2.96931E-03-4.82642E-03
 -1     27510 6.61366E+00 5.20822E+00 5.95682E+00 5.63779E+00 9.97566E-03-1.22177E-02
 -1     27511 6.25961E+00 4.99075E+00 5.57461E+00 5.42758E+00 8.71017E-03-5.05391E-03
 -1     27512 7.44254E-01 8.96706E+00 4.86723E+00 7.61817E+00 5.17758E-02 1.27603E-02
 -1     27513 4.09120E-01 8.98969E+00 4.60894E+00 7.70754E+00-7.91613E-03-5.97846E-02
 -1     27514 1.05626E+00 8.79148E+00 4.90337E+00 7.40249E+00 4.44012E-02-4.21951E-02
 -1     27515 1.02671E+01 6.85811E+00 8.55366E+00 7.61852E+00 9.89371E-03 5.08636E-03
 -1     27516 8.38875E+00 4.75759E+00 6.53481E+00 7.30592E+00 5.79008E-03-7.99583E-03
 -1     27517 6.52123E+00 6.14919E+00 6.37261E+00 5.71182E+00 1.02078E-03 9.39291E-03
 -1     27518 6.11293E+00 5.31545E+00 5.76158E+00 5.75623E+00-1.26021E-02-2.71719E-03
 -1     27519 8.68706E+00 5.55922E+00 7.11077E+00 7.58786E+00-1.65902E-02 1.29193E-02
 -1     27520 9.95620E+00 7.08077E+00 8.52279E+00 8.75946E+00 7.31854E-03 3.29720E-02
 -1     27521 1.02752E+01 7.67311E+00 8.96593E+00 9.25199E+00-9.51418E-03-9.99730E-03
 -1     27522-9.99789E-01-1.45975E+00-1.30864E+00-1.34092E+00-2.61613E-03 2.06006E-02
 -1     27523 1.71437E+00 7.16924E+00 4.44074E+00 6.29413E+00-1.07692E-02 1.31017E-02
 -1     27524-5.40892E+01-4.96593E+01-5.24286E+01 4.80901E+00 3.82978E-01 9.82520E-01
 -1     27525-8.67743E+01-7.40145E+01-8.08363E+01 5.31092E+00 7.21376E-01-5.08681E-01
 -1     27526-8.45411E+00 1.41613E+00-3.46158E+00-1.07125E+00-2.62684E-02 3.73865E-02
 -1     27527-4.06607E-01 9.66137E+00 4.82211E+00 7.16987E+00-3.72726E-02-4.62454E-02
 -1     27528-2.12548E+01-2.12639E+00-1.22145E+01-7.27027E+00-2.75939E-01-1.02802E+00
 -1     27529-2.36784E+01-2.36614E+01-2.36265E+01-1.65510E+00-8.14104E-03 5.08367E-02
 -1     27530-1.11432E+01-1.12821E+01-1.13019E+01-1.66232E+00 2.91625E-02 5.38091E-02
 -1     27531-1.70304E+01-1.64733E+01-1.68012E+01-1.77768E+00-4.80428E-02 8.19470E-03
 -1     27532 2.35199E+01 2.39222E+01 2.36121E+01-1.79560E+00 1.74111E-03 6.31320E-03
 -1     27533-9.64795E+00-1.14304E-02-4.82558E+00-2.09241E+00 7.29252E-03-9.25819E-03
 -1     27534-1.06515E+01-1.82079E-01-5.41554E+00-2.62445E+00-1.07935E-03 4.91549E-03
 -1     27535 1.17482E+01 9.34525E+00 1.05590E+01 1.05614E+01-3.17354E-02 6.84155E-03
 -1     27536 9.82604E+00 4.25144E+00 7.03530E+00 6.56362E+00-1.67934E-03 1.35463E-02
 -1     27537 9.75114E+00 7.46376E+00 8.61233E+00 8.74607E+00 9.79199E-03-1.44872E-02
 -1     27538 1.01006E+01 7.91680E+00 9.04282E+00 8.40394E+00 5.65851E-05-1.82370E-02
 -1     27539 9.83723E+00 9.43273E+00 9.65329E+00 9.90351E+00 9.66596E-03 7.73021E-03
 -1     27540 7.62555E+00 8.43723E+00 8.03023E+00 8.56567E+00-1.14548E-02 7.34165E-03
 -1     27541 8.37972E+00 8.89588E+00 8.64076E+00 8.71257E+00 1.28126E-02 3.81557E-03
 -1     27542 7.00968E-03 7.27016E+00 3.61322E+00 5.17992E+00-3.26156E-03 4.13571E-02
 -1     27543-1.54631E+00 5.89431E+00 2.17949E+00 4.26341E+00 1.73851E-02 2.97280E-02
 -1     27544-1.02403E+01 3.44927E-03-5.11737E+00-2.30674E+00-1.39549E-03-3.34811E-04
 -1     27545-1.61170E+01-1.62034E+00-8.87501E+00-5.10970E+00-8.65223E-03 4.18976E-03
 -1     27546 6.26684E+00 7.43045E+00 6.84712E+00 7.38886E+00 1.79662E-02-1.04381E-02
 -1     27547 4.58764E+00 6.47353E+00 5.53170E+00 6.62213E+00 3.61793E-03-3.70899E-03
 -1     27548 1.66987E-01 5.75523E+00 3.02564E+00 5.36642E+00-3.19693E-02-1.39479E-02
 -1     27549-1.04277E+01 5.44037E-01-4.94120E+00-2.27357E+00 4.20824E-03-1.29715E-03
 -1     27550-1.00503E+01 7.38130E-01-4.68119E+00-2.02899E+00-1.32097E-02-2.05902E-03
 -1     27551 8.92407E+00 4.92054E+00 6.93830E+00 5.56301E+00 1.68690E-02-2.24393E-02
 -1     27552 4.31081E+00 8.39327E+00 6.34964E+00 7.61716E+00-1.48899E-02-3.25599E-02
 -1     27553 6.59402E+00 8.91006E+00 7.76127E+00 8.32943E+00 1.62431E-02 3.53160E-02
 -1     27554 7.06698E+00 7.22097E+00 7.13913E+00 7.93449E+00-3.79336E-03-4.84378E-03
 -1     27555 6.10682E+00 6.69665E+00 6.39730E+00 6.96168E+00-4.03676E-04 3.39472E-04
 -1     27556 7.15799E+00 7.16845E+00 7.16195E+00 7.73151E+00-1.46009E-02-1.24549E-02
 -1     27557 6.75765E+00 1.90773E+00 4.38655E+00 2.58202E+00-1.03556E-02 1.12337E-02
 -1     27558-1.57285E+01 4.67269E+00-4.83770E+00-6.14814E+00 3.20841E-01-2.98458E-01
 -1     27559-2.25467E+01-3.62416E+00-1.33122E+01-6.80240E+00-1.96694E-01-5.06699E-01
 -1     27560-1.76135E+01 2.80861E-01-8.71549E+00-5.39280E+00 8.83937E-02-9.33899E-03
 -1     27561-1.77597E+01-6.27084E-01-9.30656E+00-4.72088E+00-5.93888E-02 4.48288E-07
 -1     27562-1.17863E+01-9.68599E-01-6.37689E+00-2.55973E+00 4.26288E-03 4.79072E-03
 -1     27563-1.24845E+01-8.90744E-01-6.68627E+00-3.17689E+00 7.43898E-04 6.49186E-04
 -1     27564 7.94692E+00 3.54437E+00 5.75282E+00 5.70741E+00 1.06948E-02-1.37061E-02
 -1     27565 7.98837E+00 5.93517E+00 7.00049E+00 7.43407E+00-1.96059E-02 1.67941E-02
 -1     27566 9.36670E+00 6.22035E+00 7.78125E+00 7.12926E+00-2.19145E-02-2.47187E-02
 -1     27567 8.90747E+00 6.87736E+00 7.84541E+00 7.28965E+00-1.82914E-02 1.26341E-02
 -1     27568 9.81543E+00 3.81198E+00 6.81121E+00 6.24111E+00 6.30173E-03 2.30857E-02
 -1     27569 9.36747E+00 3.89189E+00 6.60026E+00 6.38779E+00-5.33852E-03 2.15846E-02
 -1     27570-2.08234E+00 6.47793E+00 2.23615E+00 7.49199E+00-3.88255E-02-1.14713E-02
 -1     27571 1.26570E+01 1.08154E+01 1.17080E+01 1.17286E+01-1.27601E-02 1.31931E-03
 -1     27572 1.26716E+01 1.08999E+01 1.17691E+01 1.16376E+01 3.61269E-03 1.83770E-02
 -1     27573 1.25175E+00 1.32478E+01 7.20767E+00 6.38215E+00-4.06884E-02-1.21417E-01
 -1     27574-1.53935E+00 1.04954E+01 4.20302E+00 6.39442E+00-5.07890E-02 1.08333E-02
 -1     27575-3.63921E+00-4.18186E+00-3.97151E+00-1.15407E+00 4.89720E-03-2.80100E-02
 -1     27576-1.35292E+01 5.37060E-01-6.77532E+00-5.26408E-01-2.55494E-02 9.94811E-02
 -1     27577-1.45835E+01-1.81547E+00-8.20517E+00-4.06306E+00-7.64274E-03-7.84178E-03
 -1     27578-1.50500E+01-1.67352E+00-8.39007E+00-4.40675E+00 3.69371E-03-3.91718E-03
 -1     27579 3.65231E+00 6.64006E+00 5.14984E+00 5.84302E+00 1.06408E-02-4.03803E-04
 -1     27580-9.58241E+00 2.54323E-01-4.65827E+00-2.28264E+00 4.61456E-03-3.47413E-03
 -1     27581 1.13656E+01 9.08715E+00 1.02343E+01 9.96731E+00-2.49162E-04 9.18403E-04
 -1     27582 1.11395E+01 8.63628E+00 9.90878E+00 9.95338E+00 2.24989E-03 5.89605E-03
 -1     27583 1.19100E+01 9.49204E+00 1.07042E+01 1.06644E+01 3.71695E-03-3.09697E-03
 -1     27584 6.62708E+00 7.21059E+00 6.91746E+00 7.57457E+00 8.71193E-03 1.96343E-03
 -1     27585 1.18668E+01 9.83397E+00 1.08594E+01 1.14334E+01 4.10593E-03 6.72458E-03
 -1     27586-1.11044E+01 3.11319E-01-5.39576E+00-2.81282E+00-9.82895E-03-1.60901E-02
 -1     27587-4.98292E+00-4.20210E-01-2.66156E+00 1.45914E+00 5.75994E-03-6.29221E-05
 -1     27588-3.23906E+00 2.29271E+00-4.76746E-01 1.85780E+00 1.11429E-03 3.95694E-03
 -1     27589-1.32979E+00 3.60437E+00 1.13507E+00 2.56749E+00-2.49245E-04-3.02043E-03
 -1     27590-6.61976E+00 2.43217E+00-2.09984E+00-7.94015E-01-1.88343E-02-4.08994E-03
 -1     27591-9.96366E+00-7.08017E-02-5.01637E+00-1.58726E+00-6.22461E-04-1.46842E-02
 -1     27592 9.29380E+00 3.62387E+00 6.45495E+00 5.85921E+00-1.16593E-03-5.80927E-03
 -1     27593 9.57825E+00 3.71255E+00 6.64320E+00 6.06319E+00-5.75409E-03-4.93422E-03
 -1     27594 3.17531E-01 1.66217E+00 9.93581E-01 3.03048E+00-8.34461E-03-1.73912E-02
 -1     27595-7.48694E+00 7.76563E-01-3.35434E+00 1.96728E-02 3.23669E-03 8.20658E-03
 -1     27596 5.17265E+00 3.98365E+00 4.58527E+00 5.30968E+00-7.93458E-03 2.25152E-02
 -1     27597 4.81105E+00 3.55582E+00 4.17844E+00 5.39837E+00-4.03890E-03 3.13447E-03
 -1     27598-2.87166E+00 1.90610E+00-4.80484E-01 1.39146E+00-7.24234E-03-1.30119E-02
 -1     27599-4.03906E+00 1.54158E+00-1.24892E+00 8.41561E-01-5.60373E-03-9.50760E-03
 -1     27600-8.71412E+00 8.19575E-01-3.96736E+00-8.88325E-01 2.93687E-02 6.00979E-03
 -1     27601 7.99387E+00 1.24141E+00 4.61295E+00 5.38283E+00 5.35206E-03-1.58086E-02
 -1     27602-1.56259E+01-1.13177E+00-8.38609E+00-5.12223E+00-1.00344E-02-6.09760E-03
 -1     27603-1.57222E+01-1.30946E+00-8.51736E+00-5.01680E+00-3.81611E-03-4.40243E-03
 -1     27604-1.52036E+01-1.45658E+00-8.34994E+00-4.63560E+00 1.59993E-02-9.08556E-03
 -1     27605-2.55412E-01 5.50112E+00 2.60204E+00 4.85412E+00-1.42815E-03-3.35377E-02
 -1     27606-9.43613E+00 6.74426E-01-4.34108E+00-1.27582E+00-2.18223E-02 3.40712E-03
 -1     27607-6.94139E-01 4.44258E+00 1.87522E+00 3.87608E+00 4.60250E-03 4.36577E-03
 -1     27608 1.22395E+01 9.91556E+00 1.11195E+01 1.48226E+00 3.52097E-02-3.50439E-03
 -1     27609 6.72733E+00 3.22754E+00 4.97560E+00 2.07600E+00-2.45877E-02-1.97291E-02
 -1     27610 4.19527E+00 2.99864E+00 3.62049E+00 1.65320E+00 1.15889E-03 2.45108E-02
 -1     27611 8.66663E-01-3.77558E-01 1.82486E-01 1.93108E+00 3.05153E-02 4.31893E-02
 -1     27612 3.43436E+00 2.34886E+00 2.81694E+00 1.20710E+00-2.68174E-02 1.48336E-02
 -1     27613 1.45144E+01 1.21951E+01 1.33296E+01 1.84180E+00 3.50005E-03-5.41547E-03
 -1     27614 8.55044E+00 7.40343E+00 7.85066E+00 1.49878E+00 2.13621E-02 3.65651E-02
 -1     27615 4.72403E+00 1.72547E+00 3.22173E+00 5.07355E+00-4.44856E-03 6.40697E-03
 -1     27616 9.09999E+00 2.60763E+00 5.85632E+00 4.77401E+00-2.05311E-02-1.21854E-02
 -1     27617 1.04678E+01 3.58220E+00 7.02393E+00 5.06860E+00 2.12741E-02 2.03038E-02
 -1     27618 1.08381E+01 3.91354E+00 7.38591E+00 4.87272E+00 1.35758E-02 2.42821E-02
 -1     27619-1.30088E+01-1.33244E+00-7.17671E+00-2.41243E+00-2.86515E-02-2.60546E-02
 -1     27620-1.36967E+01-7.99321E-01-7.24576E+00-3.08145E+00-1.58995E-02-6.43705E-03
 -1     27621 6.82140E+00 1.96097E+00 4.39652E+00 5.66549E+00-2.22198E-03 2.26416E-03
 -1     27622 9.22358E+00 8.53096E+00 8.87362E+00 8.77494E+00-8.91781E-03 5.04865E-03
 -1     27623 7.89189E+00 4.29058E+00 6.08940E+00 7.08274E+00 8.78523E-03-1.08066E-02
 -1     27624 9.79712E+00 5.60215E+00 7.69115E+00 7.54297E+00-1.23034E-02 1.43081E-03
 -1     27625-1.07969E+00-1.65591E+00-1.36869E+00 3.26734E+00 6.29281E-03-1.11361E-02
 -1     27626-3.27666E-02-1.32673E-01-7.97574E-02 3.22344E+00-3.12739E-03-5.60141E-03
 -1     27627 8.64394E+00 7.92662E+00 8.29522E+00 3.51029E+00 1.68714E-03 1.00143E-02
 -1     27628-4.36620E-01-1.11503E+00-7.80814E-01 3.90336E+00 2.29561E-02-2.17792E-03
 -1     27629 9.78476E+00 9.10436E+00 9.46586E+00 3.78719E+00 5.85899E-03 1.82623E-02
 -1     27630 1.89518E+00 3.87273E+00 2.88334E+00 3.93057E+00 1.22470E-02 5.13153E-03
 -1     27631 1.05250E+01 9.53492E+00 1.00585E+01 1.01083E+01 1.62639E-02-7.18856E-03
 -1     27632-7.22406E+00 7.12088E-01-3.25686E+00-8.46582E-01 8.64949E-04 1.01881E-03
 -1     27633-6.89267E+00 9.83437E-01-2.95329E+00-7.08067E-01 1.27105E-03 6.36136E-03
 -1     27634 7.87936E+00 6.91748E+00 7.44181E+00 3.31028E+00-2.11918E-02 9.02194E-03
 -1     27635-9.11073E+00 1.26018E-01-4.49143E+00-1.88558E+00-2.71298E-03 1.78968E-03
 -1     27636 8.73106E+00 2.24264E+00 5.47403E+00 5.02242E+00 4.79299E-03 1.60297E-04
 -1     27637 1.04288E+01 9.33116E+00 9.90336E+00 1.02094E+01 7.43183E-03-1.15428E-02
 -1     27638-7.06717E+00 9.61455E-01-3.05388E+00-9.86447E-01 3.70798E-03-1.06783E-03
 -1     27639 5.44015E+00-1.54332E-01 2.63989E+00 3.01970E+00-4.26442E-02 3.90308E-03
 -1     27640 3.12529E+00 2.44181E+00 2.81682E+00 4.33177E+00-1.90306E-02-7.46165E-03
 -1     27641 1.81557E+00 1.39011E+00 1.61082E+00 3.97945E+00-1.77400E-02-8.25515E-03
 -1     27642 3.43399E+00 2.14985E+00 2.79381E+00 4.56574E+00-2.30722E-02-9.72732E-03
 -1     27643 1.05982E+01 8.19550E+00 9.41794E+00 9.36108E+00-7.99388E-04-7.54332E-03
 -1     27644 5.36678E+00 3.02610E-01 2.84225E+00 4.68755E+00-4.87935E-03 1.41394E-02
 -1     27645 3.31952E+00 5.14664E-01 1.91684E+00 4.15860E+00 8.16224E-03 4.88661E-03
 -1     27646-1.11765E+00 1.99161E+00 4.35661E-01 2.30985E+00-3.84261E-03-6.03895E-03
 -1     27647 8.73462E+00 1.57488E+00 5.13450E+00 5.30545E+00-3.85349E-03-3.32138E-03
 -1     27648-9.87974E+00-7.86854E-01-5.32481E+00-1.76636E+00 4.96352E-03 6.53771E-03
 -1     27649-8.64672E+00 3.20652E-01-4.16229E+00-1.72162E+00 7.29706E-03 5.35274E-03
 -1     27650-1.01650E+01-1.96680E-01-5.18096E+00-2.37731E+00 9.90616E-03 3.95183E-03
 -1     27651-9.59044E-02-8.46880E-01-4.67498E-01 3.08514E+00 1.27510E-02 8.51009E-03
 -1     27652 2.47782E-01 2.93634E+00 1.58881E+00 3.32364E+00 1.52832E-02 3.67947E-04
 -1     27653 2.42276E+00 4.61992E+00 3.51829E+00 3.99583E+00-1.10806E-02 2.02089E-02
 -1     27654-5.30410E+00 1.58962E+00-1.85443E+00 4.33989E-01-9.04645E-03 5.65075E-03
 -1     27655-5.46372E+00 1.44266E+00-2.01019E+00 5.69098E-01-7.70724E-03 1.31738E-02
 -1     27656-3.44426E+00 1.24086E+00-1.07775E+00 1.32670E+00-7.43868E-04 1.39426E-03
 -1     27657-4.01963E+00 1.43871E+00-1.26758E+00 8.30989E-01-5.95457E-04-1.35981E-03
 -1     27658-1.15076E+01-5.19265E-01-5.99395E+00-1.38890E+00 2.96078E-02 3.10432E-02
 -1     27659-1.61188E+01-2.04117E+00-9.12534E+00-2.53906E+00 8.70328E-03-4.80597E-02
 -1     27660-8.33044E+00 6.88474E-02-4.13470E+00-1.27883E+00-3.10938E-03 9.14963E-03
 -1     27661 7.60979E+00 6.10335E+00 6.84335E+00 6.16657E+00 5.95047E-03 1.03558E-02
 -1     27662 5.77704E+00 3.80067E+00 4.75716E+00 6.27707E+00 2.84682E-02-4.15295E-03
 -1     27663 6.86366E+00 5.37046E+00 6.09317E+00 6.24770E+00 2.39857E-02-2.46892E-03
 -1     27664 1.28207E+01 1.16563E+01 1.22282E+01 1.08382E+01 1.19087E-02 1.98663E-02
 -1     27665 1.26564E+01 1.08255E+01 1.17513E+01 1.16362E+01-2.53901E-03 1.47215E-02
 -1     27666 1.17130E+01 1.01498E+01 1.09636E+01 1.12803E+01 1.76656E-02-7.59811E-03
 -1     27667 1.30106E+01 1.11559E+01 1.20811E+01 1.16366E+01-4.01842E-02 2.30406E-03
 -1     27668 9.51420E+00 7.62385E+00 8.55829E+00 8.75989E+00-9.75745E-03 3.19311E-02
 -1     27669 1.02180E+01 8.10836E+00 9.16161E+00 9.45683E+00 1.39371E-04 8.51272E-03
 -1     27670 1.24867E+01 1.01574E+01 1.13302E+01 1.14009E+01-7.92902E-03-1.90782E-03
 -1     27671 9.85391E+00 2.79018E+00 6.31055E+00 5.67611E+00-4.86794E-03-7.45303E-03
 -1     27672-7.13309E+00 1.99719E+00-2.56485E+00-1.00855E+00-9.57236E-03-8.18395E-03
 -1     27673 5.85141E+00 5.01741E+00 5.47594E+00 5.23978E+00 1.54787E-02-1.14251E-02
 -1     27674 7.25293E+00 6.72468E+00 6.97890E+00 5.37029E+00 1.91875E-02-1.69861E-02
 -1     27675 6.53970E+00 5.57112E+00 6.05539E+00 5.34133E+00-1.30395E-02 8.57981E-03
 -1     27676-1.09605E+01 1.53960E-01-5.38346E+00-3.78001E+00-2.16624E-02-7.17629E-02
 -1     27677-1.25232E+01-1.70348E+00-7.04457E+00-3.58908E+00-3.92480E-02 1.51696E-03
 -1     27678 7.39942E+00 6.88495E+00 7.15497E+00 5.39053E+00-6.83779E-03 1.96862E-02
 -1     27679 6.90303E+00 6.02846E+00 6.40188E+00 5.21827E+00 7.68858E-03-1.60298E-02
 -1     27680-2.13400E+01-3.92121E+00-1.23969E+01-6.43092E+00 4.48981E-02 6.02145E-02
 -1     27681 6.39082E-01 3.40209E-01 4.86851E-01 3.44616E+00 3.95580E-03-6.71503E-03
 -1     27682-1.45069E+00-4.81162E-01-9.57505E-01 2.85798E+00-6.16708E-04-2.25885E-03
 -1     27683 1.19089E+00 4.23880E-01 8.04636E-01 3.50974E+00-6.61778E-03-5.25276E-04
 -1     27684-1.88531E+00-5.18767E-01-1.22780E+00 2.70004E+00 1.56998E-02-1.69294E-02
 -1     27685 4.04976E+00 3.09912E+00 3.58233E+00 4.87902E+00 1.09572E-03 5.69587E-03
 -1     27686 3.43870E+00 2.13556E+00 2.77778E+00 4.59456E+00 1.20327E-03-9.32404E-04
 -1     27687 4.33305E+00 2.80114E+00 3.56706E+00 5.09442E+00-1.80531E-03 7.30138E-04
 -1     27688 8.64321E+00 7.56290E+00 8.18298E+00 1.40272E+00 7.54071E-02 1.66074E-02
 -1     27689 1.07756E+00-3.04502E-01 3.84668E-01 3.01644E+00 4.40676E-03-2.65150E-03
 -1     27690 4.60100E+00 1.23303E+00 3.00607E+00 2.51878E+00-1.32754E-02-1.40977E-02
 -1     27691 9.98378E+00 6.50342E+00 8.26222E+00 9.65455E+00 1.64784E-02-8.61650E-03
 -1     27692 1.07788E+01 7.13415E+00 8.96219E+00 9.29674E+00 2.05028E-02 7.11088E-04
 -1     27693-1.13659E+01-9.30437E-01-6.14470E+00-1.78893E+00-1.86361E-02-1.39216E-02
 -1     27694-7.92111E+00 4.65874E-01-3.72481E+00-6.75981E-01 1.50008E-02-4.27678E-03
 -1     27695-1.23023E+01-3.38896E+00-7.89178E+00 9.91073E-01 3.42856E-02 1.45546E-01
 -1     27696-1.30374E+01-1.19626E+00-7.11724E+00-3.11509E+00 1.05902E-03-1.07004E-02
 -1     27697-1.32792E+01-6.31073E-01-6.93762E+00-3.80642E+00 1.93871E-02-4.09621E-03
 -1     27698-1.05875E+01 6.43098E-01-5.00154E+00-3.10112E+00-8.45246E-02-3.64406E-02
 -1     27699-1.13211E+01-5.90179E-01-6.04191E+00-2.78254E+00-2.61305E-02-8.86118E-04
 -1     27700-1.23760E+01-7.94262E-01-6.65054E+00-3.49676E+00-3.86257E-02-5.67275E-02
 -1     27701-1.34714E+01-2.21082E+00-7.94386E+00-3.25818E+00 2.18516E-02-2.29384E-02
 -1     27702 3.25302E+00 5.95551E+00 4.59655E+00 5.22411E+00 4.20745E-03 2.83069E-04
 -1     27703-8.22568E+00-4.00813E+00-6.13550E+00 1.66851E+00 1.25329E-02-3.81696E-02
 -1     27704-4.88967E+00-2.02463E+00-3.46903E+00 1.76478E+00-1.23134E-02-1.48432E-02
 -1     27705 6.10858E+00 7.84495E+00 6.98014E+00 7.76173E+00 4.62265E-03-6.30085E-03
 -1     27706-1.44267E+01-1.55876E+00-7.98505E+00-4.07468E+00-1.65350E-03 7.32210E-03
 -1     27707-1.49536E+01-1.25502E+00-8.10103E+00-4.62934E+00-5.66190E-03 2.02241E-03
 -1     27708 1.78275E+00 2.20698E+00 1.98942E+00 3.61925E+00-8.31423E-03 3.09838E-03
 -1     27709 2.21094E+00 2.26755E+00 2.23660E+00 3.97378E+00 4.48031E-03-6.12820E-03
 -1     27710 2.73087E+00 2.25552E+00 2.49039E+00 4.06068E+00 9.66152E-03-6.78015E-03
 -1     27711 1.26382E+00 1.13254E+00 1.19627E+00 3.75094E+00-4.66826E-03-5.16790E-03
 -1     27712 3.34832E+00 1.29963E+01 8.16017E+00 7.54707E+00 1.24971E-01-1.25653E-01
 -1     27713-7.90537E+00-2.15270E+00-4.88057E+00-1.45684E+00 8.34391E-02 1.87415E-02
 -1     27714-1.73683E+01-1.64216E+00-9.47845E+00-3.83065E+00-5.77841E-03 1.21456E-02
 -1     27715-5.54987E+00 7.04046E+00 8.62643E-01 5.90410E+00 2.12936E-01-1.23073E-01
 -1     27716 1.05417E+01 9.91462E+00 1.01690E+01 1.02088E+01 6.78108E-03-2.24493E-03
 -1     27717 4.58623E-01 1.33469E+01 7.64036E+00 6.48585E+00-4.45560E-02 1.50823E-01
 -1     27718 3.21373E+00 1.24560E+01 8.13870E+00 5.34044E+00-3.43090E-02 2.83360E-01
 -1     27719 1.00772E+00 1.18970E+01 6.38236E+00 5.59492E+00-1.64281E-01 8.90399E-03
 -1     27720 6.71588E+00 1.82563E+00 4.26986E+00 5.69640E+00-5.25004E-03 2.07453E-03
 -1     27721 6.28696E+00 2.07043E+00 4.18459E+00 5.81959E+00 1.40494E-03 6.15313E-03
 -1     27722-1.04225E+01-3.97892E+00-7.18847E+00-1.41478E+00 7.65162E-02-4.83895E-01
 -1     27723-1.27214E+00 5.16215E+00 1.62534E+00-1.14912E+00 1.57236E-02-1.44297E-01
 -1     27724-6.11553E+00-3.74134E-01-2.92193E+00 1.58551E+00-9.84368E-02 2.05210E-01
 -1     27725 1.36752E+01 1.14663E+01 1.25389E+01 1.21771E+01-9.15731E-03 2.18254E-02
 -1     27726 9.66335E+00 4.86127E+00 7.25757E+00 6.53615E+00-3.19494E-03 1.25140E-02
 -1     27727 9.24869E+00 5.13940E+00 7.19417E+00 6.84525E+00-4.38777E-03 4.77672E-03
 -1     27728 1.18904E+01 9.47091E+00 1.06685E+01 1.06670E+01-2.59134E-02-1.09596E-02
 -1     27729 4.84431E+00 3.71122E+00 4.29070E+00 5.32266E+00-1.11383E-02-5.37572E-03
 -1     27730 7.06090E+00 5.54491E+00 6.28934E+00 5.38134E+00-1.73527E-02-7.65955E-03
 -1     27731 6.50591E+00 5.34548E+00 5.90007E+00 5.32993E+00 2.78498E-02-9.05974E-03
 -1     27732 6.59434E+00 5.55624E+00 6.05321E+00 5.29843E+00 4.09170E-03-3.00617E-02
 -1     27733 6.34523E+00 4.88780E+00 5.62099E+00 5.34241E+00-4.36379E-03-9.84577E-03
 -1     27734 3.64337E+00 5.19998E+00 4.42028E+00 5.58758E+00 5.29246E-03-5.63645E-04
 -1     27735 6.53260E+00 4.60239E+00 5.59646E+00 5.57129E+00-2.17878E-03-2.20930E-02
 -1     27736-1.93112E+01-2.53307E+00-1.08513E+01-5.15966E+00-6.03899E-03-4.30678E-02
 -1     27737-1.89786E+01-1.48411E+00-1.03577E+01-5.60098E+00-4.56311E-02 3.58705E-02
 -1     27738 5.60492E+00 4.52549E+00 4.99413E+00 5.20928E+00-3.85269E-03 2.32322E-02
 -1     27739 5.75754E+00 4.43155E+00 5.13946E+00 5.35869E+00 1.32253E-03-4.86632E-03
 -1     27740 5.48001E+00 4.13587E+00 4.79982E+00 5.29484E+00-2.04630E-02-6.80783E-03
 -1     27741 6.10736E+00 5.94853E+00 6.04661E+00 5.79341E+00-1.09065E-02-1.40684E-02
 -1     27742-1.54094E+01-2.54933E+00-9.02683E+00-1.72936E+00 1.09420E-02-2.25384E-02
 -1     27743-1.06324E+01-6.69346E-01-5.71563E+00-6.43897E-01-2.90409E-03-6.70398E-03
 -1     27744-1.44684E+01-3.51021E+00-8.95986E+00-5.87960E-01 1.91210E-02-2.37964E-02
 -1     27745 6.60621E+00 6.02901E+00 6.31848E+00 5.65465E+00-3.89465E-02-5.79814E-03
 -1     27746 6.33287E+00 5.61691E+00 5.98614E+00 5.71141E+00-5.03446E-03 5.03108E-03
 -1     27747-1.42149E+01-2.20325E+00-8.14641E+00-3.98918E+00-5.67188E-03-1.79623E-03
 -1     27748-1.33837E+01-1.97331E+00-7.64701E+00-3.28554E+00-3.91698E-02-2.82051E-02
 -1     27749-1.30748E+01-6.36151E-01-6.85993E+00-4.26559E+00-2.44276E-03 2.79122E-02
 -1     27750-1.21716E+01-3.07020E-01-6.23515E+00-3.83999E+00 1.20879E-02-6.96924E-02
 -1     27751-1.48536E+01-2.57507E+00-8.77053E+00-4.10274E+00 2.50481E-03-3.24169E-02
 -1     27752 5.08861E+00 4.23180E+00 4.63237E+00 5.19875E+00 1.69967E-02 7.76142E-03
 -1     27753 5.78308E+00 4.82623E+00 5.36528E+00 5.19771E+00 7.02270E-03-5.19417E-02
 -1     27754-1.53052E+00 4.86098E+00 1.65775E+00 4.24874E+00 4.16674E-03-3.67958E-04
 -1     27755-7.70152E+01-5.90320E+01-6.85408E+01 3.20414E+00-1.68044E-01-6.77168E-01
 -1     27756 1.16842E+01 8.35962E+00 1.00111E+01 9.61051E+00 8.50128E-03 1.97316E-02
 -1     27757-7.85537E+00 1.23712E+00-3.23968E+00-6.91121E-02 1.15904E-02 4.14054E-03
 -1     27758-5.37761E+00 3.20623E+00-1.04590E+00 6.42033E-01 2.13191E-02 3.11796E-02
 -1     27759 8.96174E+00 9.19465E+00 9.09709E+00 9.46381E+00 4.94972E-02-1.40718E-02
 -1     27760 9.69674E+00 9.93750E+00 9.77709E+00 9.44584E+00-1.45029E-02 1.57339E-02
 -1     27761 8.77832E+00 9.55863E+00 9.11820E+00 9.06178E+00-9.00506E-03 2.63008E-02
 -1     27762 9.40340E+00 9.72029E+00 9.52125E+00 9.44958E+00 3.05836E-02-1.34741E-02
 -1     27763 6.23766E+00 4.67547E+00 5.45800E+00 6.39011E+00 6.18640E-04 9.58265E-04
 -1     27764 1.01524E+01 9.64647E+00 9.87971E+00 9.12971E+00-4.31030E-02-3.96635E-02
 -1     27765 8.79075E+00 8.11981E+00 8.45726E+00 9.43235E+00-2.83513E-02-4.12018E-02
 -1     27766 9.37181E+00 8.92644E+00 9.11800E+00 8.78567E+00 4.05073E-02 1.97701E-02
 -1     27767-1.80970E+01-1.93639E+00-1.00063E+01-5.96500E+00-3.70354E-04 1.33331E-03
 -1     27768 6.64721E+00 8.84309E+00 7.64409E+00 8.17240E+00-1.83212E-02-4.93879E-03
 -1     27769 5.29806E+00 4.84692E+00 5.02287E+00 5.52598E+00-1.64628E-02 3.70026E-02
 -1     27770 5.26269E+00 5.00256E+00 5.10649E+00 5.56443E+00 2.60551E-02 2.22559E-02
 -1     27771 6.06067E+00 5.47877E+00 5.75530E+00 5.47049E+00 1.28904E-02 7.63620E-03
 -1     27772 6.08812E+00 5.49515E+00 5.79153E+00 5.65133E+00-1.45640E-02 3.84794E-02
 -1     27773 6.81304E+00 6.60509E+00 6.72796E+00 5.69289E+00-2.54625E-02 5.06749E-03
 -1     27774 4.48327E+00 4.11133E+00 4.35465E+00 5.67597E+00-5.87679E-02 8.56227E-03
 -1     27775-8.58346E+00-6.27980E+00-7.39931E+00 2.81114E-01 3.68744E-02-1.26147E-01
 -1     27776 2.69429E+00 2.91812E+00 2.80659E+00 4.21680E+00-1.61955E-03 1.86301E-02
 -1     27777 2.60287E+00 2.43139E+00 2.52343E+00 4.32534E+00 9.02388E-03-7.45839E-03
 -1     27778 6.68161E+00 5.21165E+00 5.95061E+00 5.87436E+00-1.02338E-03 1.13722E-02
 -1     27779 5.57465E+00 3.76469E+00 4.62552E+00 5.87060E+00 1.29198E-03-3.08367E-03
 -1     27780 7.19775E+00 5.70553E+00 6.43086E+00 5.96936E+00 8.41855E-03-3.65770E-02
 -1     27781 4.22970E+00 1.75057E+01 1.06682E+01 6.45118E+00 6.58023E-02-2.36278E-02
 -1     27782 6.43380E+00 1.72346E+01 1.18035E+01 6.34921E+00-5.37022E-02-1.93730E-02
 -1     27783 1.41875E+00 1.35309E+01 7.60859E+00 6.28035E+00 1.73333E-01 1.07972E-01
 -1     27784-3.45917E-01 1.28567E+01 6.62238E+00 6.37419E+00-1.37793E-01-4.96328E-02
 -1     27785 1.20216E+01 9.53496E+00 1.08145E+01 1.04100E+01 1.44555E-02-1.55894E-03
 -1     27786 1.10566E+01 8.54332E+00 9.79678E+00 1.03334E+01-2.96601E-03 1.77794E-02
 -1     27787-5.71111E+00 2.22230E+01 6.98512E+00-2.90840E+00-2.97585E-01-4.79133E-01
 -1     27788 1.08253E+01 7.61162E+00 9.22357E+00 9.93772E+00 2.75764E-03 7.63387E-03
 -1     27789 1.26075E+01 9.63768E+00 1.11611E+01 9.97027E+00 2.54146E-02 5.27456E-03
 -1     27790 1.11633E+01 7.68190E+00 9.40101E+00 9.62357E+00 8.08116E-03 4.16352E-03
 -1     27791 5.06999E+00 1.65759E+00 3.35141E+00 1.90405E+00 6.48695E-02-5.57926E-03
 -1     27792 5.14263E+00 1.96039E+00 3.53209E+00 1.79394E+00 5.37708E-03-2.66616E-02
 -1     27793 4.02065E+00 6.35948E-01 2.36888E+00 1.68202E+00 1.14854E-01-6.81228E-02
 -1     27794 4.23822E+00 3.49201E+00 3.86040E+00-6.63252E-01 2.49486E-02 9.63804E-02
 -1     27795 2.67015E+00 2.25810E+00 2.47617E+00-8.44243E-01-5.53702E-03 2.90690E-02
 -1     27796-9.76612E+00 6.47300E-01-4.52960E+00-1.99110E+00-2.69444E-02-1.87856E-02
 -1     27797 1.10090E+01 8.39632E+00 9.76101E+00 1.10392E+01 3.13329E-02-8.64956E-03
 -1     27798 1.26697E+01 1.03275E+01 1.14530E+01 1.16997E+01-1.26959E-03 3.29815E-03
 -1     27799 6.54068E+00 2.16499E+00 4.31599E+00 5.32969E+00-3.90865E-03 1.09213E-02
 -1     27800 5.84116E+00 2.13726E+00 3.98970E+00 5.44468E+00-6.44535E-03-1.05392E-03
 -1     27801 8.42148E+00 9.21046E+00 8.82625E+00 8.86695E+00 1.55119E-02 3.19806E-03
 -1     27802 1.17149E+01 9.06203E+00 1.03684E+01 1.09001E+01 2.58428E-02-2.66719E-02
 -1     27803 1.31764E+01 1.06375E+01 1.19615E+01 2.82286E+00-2.25477E-02-1.06064E-01
 -1     27804 1.20819E+01 9.65013E+00 1.08663E+01 3.09732E+00-2.44235E-02-5.81839E-02
 -1     27805 8.74714E+00 6.65884E+00 7.64965E+00 7.40501E+00 4.32276E-03 1.25374E-02
 -1     27806 9.47409E+00 5.21803E+00 7.33273E+00 7.08669E+00-9.63002E-03-1.62283E-02
 -1     27807 1.03756E+01 8.05071E+00 9.17517E+00 2.52910E+00 2.28920E-02 3.42096E-03
 -1     27808 9.68777E+00 8.44368E+00 8.98868E+00 2.25204E+00 3.88081E-02-4.80989E-02
 -1     27809-9.87899E+00-4.85527E-01-5.18589E+00-1.88874E+00 2.76832E-03-3.55291E-03
 -1     27810 6.50991E+00 5.64414E+00 6.06241E+00 5.32766E+00-2.22833E-02-1.04065E-02
 -1     27811 9.39385E+00 7.16176E+00 8.25420E+00 7.75662E+00-1.30681E-03 2.43194E-03
 -1     27812 9.25468E+00 6.02689E+00 7.66515E+00 7.28711E+00 5.59420E-03 6.87198E-03
 -1     27813 8.51137E+00 4.68791E+00 6.59734E+00 7.22442E+00-1.92786E-03-6.37933E-03
 -1     27814 3.16332E+00 9.27168E+00 6.19659E+00 6.96297E+00-8.02753E-02-3.26306E-02
 -1     27815 7.08572E+00 1.16748E+01 9.23400E+00 7.01078E+00 5.71391E-02 1.25215E-02
 -1     27816 7.29407E+00 5.53068E+00 6.36247E+00 6.45054E+00-1.60818E-02-1.67353E-02
 -1     27817 7.21662E+00 4.93682E+00 6.06751E+00 6.53297E+00-1.44786E-02 2.97902E-02
 -1     27818 6.67603E+00 5.07728E+00 5.90668E+00 6.45301E+00-7.06440E-03-2.93154E-03
 -1     27819 8.11697E+00 6.20253E+00 7.14286E+00 7.06484E+00-3.67265E-02-8.79068E-03
 -1     27820-1.31394E+01-1.19215E+00-7.14332E+00-3.92247E+00-6.02656E-03-1.77167E-02
 -1     27821 8.34294E+00 3.08095E+00 5.72800E+00 6.20137E+00-3.72131E-02-6.81014E-03
 -1     27822 8.74214E+00 3.56624E+00 6.13355E+00 6.23515E+00-4.23415E-03 1.09690E-02
 -1     27823 8.85829E+00 3.70307E+00 6.28593E+00 5.99880E+00 2.10571E-03-1.08320E-02
 -1     27824-1.41251E+01-1.03791E+00-7.58130E+00-4.12580E+00-1.77109E-03 1.56558E-02
 -1     27825 7.20572E+00 7.72514E+00 7.37491E+00 7.35993E+00-1.06996E-02 8.86786E-03
 -1     27826 6.91230E+00 7.14857E+00 6.91467E+00 7.68293E+00-4.61961E-02-5.50632E-02
 -1     27827-1.12791E+01-9.09809E-01-6.09411E+00-3.45849E+00-4.62324E-02 8.24767E-02
 -1     27828-1.05930E+01-9.51588E-01-5.80759E+00-3.22126E+00 3.57594E-03 9.06101E-02
 -1     27829 5.66026E+00 5.35262E+00 5.54212E+00 5.53665E+00 1.37297E-02-7.29497E-03
 -1     27830 6.07340E+00 5.51185E+00 5.81506E+00 5.41612E+00 3.05678E-03 1.16536E-02
 -1     27831 1.31859E+01 1.10434E+01 1.20963E+01 1.21797E+01-1.57038E-02 8.28262E-03
 -1     27832 1.28194E+01 1.08884E+01 1.17892E+01 1.18835E+01 2.45411E-02-1.99607E-02
 -1     27833 5.14650E+00 2.29527E+00 3.70079E+00 7.80716E-01-2.08646E-02-2.01221E-03
 -1     27834 5.04704E+00 5.08252E+00 5.09085E+00 8.08549E+00 1.73953E-01 3.45215E-02
 -1     27835 7.33072E+00 7.31948E+00 7.32151E+00 8.23341E+00 6.34107E-02 1.51712E-01
 -1     27836 1.13640E+01 1.00860E+01 1.06670E+01 1.01831E+01 5.55155E-03 4.98043E-02
 -1     27837 5.77244E+00 5.22805E+00 5.47645E+00 5.33510E+00-1.56355E-02-6.97676E-03
 -1     27838 5.72905E+00 5.18594E+00 5.48536E+00 5.44665E+00 1.80339E-03-7.15180E-03
 -1     27839 2.17003E-01 1.28704E+01 6.58255E+00 6.53694E+00 1.11240E-01 1.08273E-02
 -1     27840 5.45755E+00 4.87815E+00 5.11309E+00 5.25458E+00 3.67241E-02-3.95472E-02
 -1     27841-9.42599E+00-3.24138E-01-4.72863E+00-3.07203E+00-1.85143E-02 2.62796E-02
 -1     27842-1.24122E+01-1.22416E+01-1.21501E+01-1.01350E+00 6.53575E-02 7.65099E-02
 -1     27843-5.01304E+00-3.50673E+00-4.03075E+00-8.44812E-01-9.84389E-02-2.35539E-02
 -1     27844 7.66979E+00 7.28299E+00 7.55676E+00 4.53457E+00-2.82817E-02 2.93816E-02
 -1     27845 2.29384E+00 8.41322E+00 5.35316E+00 7.41832E+00-2.13360E-02 9.14140E-03
 -1     27846 3.84561E+00 9.24976E+00 6.50076E+00 7.54546E+00-8.27787E-02 4.78055E-02
 -1     27847 9.46251E-01-9.16298E-01-2.97030E-02 4.96821E-02-6.32212E-02-5.60480E-02
 -1     27848-3.38513E+00-5.33724E+00-4.31690E+00 3.10302E-02-6.53670E-02-3.01828E-02
 -1     27849 3.82285E+00 1.65713E+00 2.73916E+00 1.45005E-01-3.98404E-02 5.79933E-03
 -1     27850 2.64630E+00-2.96469E-01 1.20644E+00 8.74052E-01-2.62076E-02 2.07256E-02
 -1     27851-3.91665E+01-1.49674E+01-2.60894E+01 5.40665E+00 3.72585E-01-1.18619E-01
 -1     27852 1.32341E+01 1.43103E+01 1.38035E+01 5.69986E-01-1.03664E-02-1.46071E-02
 -1     27853-1.16772E+01-6.79409E+00-9.13495E+00 1.07462E+00-1.68292E-02 3.38087E-02
 -1     27854 3.92245E+00 1.70794E+00 2.76695E+00 2.23920E-01 1.06625E-01-7.85522E-03
 -1     27855 1.57594E+00-9.40615E-01 2.83347E-01 7.05916E-01 9.77124E-03 2.69593E-02
 -1     27856-1.70281E+01-1.28176E+01-1.51474E+01 2.21441E+00 7.14249E-01-3.61575E-01
 -1     27857-3.70515E+01-3.32077E+01-3.50158E+01 2.61766E+00 1.00699E+00-7.97836E-02
 -1     27858 3.84363E+01 4.62848E+01 4.19978E+01 1.84838E+00 4.57608E-01 4.71361E-01
 -1     27859 8.56950E-01-9.54043E-01-4.75315E-02 3.83177E+00 6.80273E-03-3.60244E-03
 -1     27860-1.82022E+01-2.59942E+00-1.04278E+01-3.83273E+00 1.10395E-02 6.52396E-02
 -1     27861-1.98476E+01-1.98528E+01-1.98470E+01-1.85302E+00-2.44445E-02-1.67867E-02
 -1     27862 7.79932E+00 7.50111E+00 7.67778E+00 5.33814E+00 1.80402E-02 1.67292E-02
 -1     27863-5.65507E-01 5.68236E+00 2.32211E+00 1.59924E+00-1.09833E-02 1.85309E-01
 -1     27864-5.43216E+00-4.02744E+00-4.86577E+00 8.83282E-01 8.37815E-02 6.27163E-02
 -1     27865 4.94304E+00 4.68750E+00 4.82403E+00 5.47434E+00 1.83483E-02 1.14320E-02
 -1     27866 8.82137E+00 8.54836E+00 8.69104E+00 5.42730E+00 4.20556E-03 6.93344E-03
 -1     27867 4.62718E+00 4.40010E+00 4.52215E+00 5.50256E+00-1.63199E-03 1.02219E-02
 -1     27868 3.77753E+00 8.75645E+00 6.26319E+00 7.51012E+00-7.15357E-03-1.70551E-02
 -1     27869 8.89031E+00 5.70983E+00 7.29679E+00 7.06348E+00 1.08254E-02-6.02969E-03
 -1     27870 4.91794E+00 9.06095E+00 6.97748E+00 7.83073E+00 1.96517E-02 3.10122E-02
 -1     27871 5.62856E+00 8.85364E+00 7.20681E+00 8.02342E+00-1.95825E-02 6.20977E-03
 -1     27872-1.51144E+01-1.40767E+00-8.29768E+00-4.94075E+00-2.80364E-02-1.88955E-04
 -1     27873-1.32552E+01-2.11586E-01-6.74859E+00-4.31505E+00-3.33396E-02 5.16262E-02
 -1     27874 7.86583E+00 2.73527E+00 5.34910E+00 4.87499E+00 2.14599E-02 3.68363E-02
 -1     27875-1.58054E+01-1.78717E+00-8.79458E+00-5.02822E+00-1.61023E-03 1.08824E-03
 -1     27876-1.47713E+01-1.27850E+00-8.00449E+00-4.64554E+00-1.20321E-02-7.85335E-03
 -1     27877 1.68742E+00 1.21064E+00 1.47915E+00-7.74739E-01-3.12892E-02 2.64355E-02
 -1     27878 7.28882E+00 5.78438E+00 6.48561E+00-7.29098E-03-1.09166E-01 6.66404E-02
 -1     27879 6.16257E+00 5.31192E+00 5.77066E+00-5.62489E-01-4.13749E-03-2.86473E-02
 -1     27880-1.59175E+01-2.18112E+00-8.98962E+00-4.97775E+00-2.86450E-02-2.38178E-03
 -1     27881 4.22297E+00 2.84714E+00 3.56344E+00 5.38002E+00-9.84919E-03-3.07275E-02
 -1     27882 6.81042E+00 5.59240E+00 6.23965E+00 5.28408E+00 8.07849E-03 9.36646E-03
 -1     27883-1.58614E+01-1.60105E+00-8.71188E+00-5.10289E+00-1.20857E-02 6.60296E-03
 -1     27884-1.36344E+01-1.18537E+00-7.41748E+00-3.72918E+00-1.05407E-02-7.54257E-03
 -1     27885-1.40103E+01-1.32793E+00-7.64675E+00-4.01184E+00 7.94333E-03-1.34651E-02
 -1     27886 5.74683E+00 4.33151E+00 5.03842E+00 5.83726E+00 4.01330E-03-2.64186E-03
 -1     27887-1.57350E+01-1.46040E+00-8.60727E+00-5.12618E+00 4.27755E-03 1.50448E-02
 -1     27888-9.00118E+00-5.47415E+00-7.16486E+00 1.06271E+00-2.17137E-02 8.79623E-02
 -1     27889-5.98973E+00 4.02515E-01-2.78987E+00 1.19666E-01-5.91975E-03-3.66670E-04
 -1     27890-1.33897E+01-2.13577E+00-7.79315E+00-3.45362E+00 3.77378E-02-4.08318E-02
 -1     27891-1.06611E+01 3.43892E-01-5.27310E+00-3.19761E+00 4.97485E-02-1.67948E-02
 -1     27892-1.22821E+01-1.09130E+00-6.73939E+00-3.51616E+00 3.25564E-02 6.46019E-03
 -1     27893-1.06447E+01 3.80116E-01-5.21509E+00-3.25921E+00 4.32572E-02 2.37428E-02
 -1     27894 5.35641E+00 4.79753E+00 5.08523E+00 5.42296E+00 1.04787E-02 1.40761E-02
 -1     27895-1.06936E+01 9.52821E-01-4.79830E+00-3.78723E+00 3.49293E-02-5.04682E-02
 -1     27896 1.03869E+01 6.08875E+00 8.22355E+00 7.67943E+00 2.97658E-03 1.41118E-02
 -1     27897 1.01524E+01 9.69165E+00 9.91201E+00 9.97708E+00-3.03728E-02 1.11710E-02
 -1     27898 9.74896E+00 9.33545E+00 9.52493E+00 9.82918E+00-1.80300E-02 1.91879E-03
 -1     27899 7.29778E+00 6.63372E+00 6.95800E+00 3.79476E+00 1.15451E-02-2.65554E-02
 -1     27900 9.72784E+00 8.48464E+00 9.09960E+00 3.69176E+00 1.20993E-02 6.84134E-03
 -1     27901 9.26024E+00 8.91698E+00 9.11699E+00 9.89649E+00 1.10807E-02-2.48081E-02
 -1     27902 1.13196E+01 1.03372E+01 1.08715E+01 1.06554E+01-1.46066E-02-1.31789E-02
 -1     27903-9.34680E+00-3.22678E-01-4.85765E+00 2.08132E-01-1.31290E-02-3.30370E-02
 -1     27904-1.50888E+01-1.49943E+00-8.29007E+00-4.78984E+00 7.17768E-03-7.10166E-03
 -1     27905 1.65892E+01 1.43314E+01 1.54380E+01 2.68232E+00 3.78418E-02-1.39433E-02
 -1     27906 7.29742E+00 4.72234E+00 6.02092E+00 2.41697E+00-7.66539E-03 5.35676E-02
 -1     27907 1.10170E+01 8.57722E+00 9.76862E+00 2.84581E+00 1.38494E-02 3.21789E-02
 -1     27908 4.69469E+00 3.53206E+00 4.09462E+00 2.76593E+00 4.56631E-02 1.03277E-02
 -1     27909 1.04803E+01 9.29453E+00 9.87593E+00 2.32960E+00 6.17804E-02-8.10990E-03
 -1     27910 2.34099E+00 9.58926E+00 5.98055E+00 7.17449E+00 4.13817E-02-5.31319E-02
 -1     27911 9.29209E+00 6.10040E+00 7.67967E+00 7.31542E+00 2.41848E-02 3.19895E-02
 -1     27912 8.95889E+00 6.18609E+00 7.58186E+00 7.45790E+00 3.86220E-02 3.34966E-02
 -1     27913 9.57103E+00 6.33547E+00 7.94574E+00 7.54576E+00 2.45318E-02 2.58417E-02
 -1     27914 5.00365E+00 1.55177E+01 1.01290E+01 5.99934E+00-2.27607E-02 3.30315E-02
 -1     27915-9.89395E-01 8.71761E+00 3.98298E+00 5.70127E+00 1.76876E-02 9.58314E-02
 -1     27916 6.94955E-01 9.95551E+00 5.31330E+00 5.54573E+00 3.27214E-02 1.01886E-01
 -1     27917-2.26715E+00 4.64445E+00 1.26603E+00 4.20401E+00-7.58327E-03-1.29479E-01
 -1     27918-1.69263E+01-1.86751E+00-9.39019E+00-5.43382E+00 8.41213E-04 1.28670E-02
 -1     27919 9.08531E+00 1.01523E+01 9.62641E+00 8.15556E+00 1.89047E-02 6.94754E-02
 -1     27920 4.82963E+00 8.21034E+00 6.55053E+00 8.12893E+00-4.11337E-03-5.14820E-02
 -1     27921 7.91202E+00 9.53428E+00 8.71370E+00 8.74157E+00-3.18989E-03-5.43594E-03
 -1     27922 1.14602E+01 1.01988E+01 1.08315E+01 1.08013E+01 7.94942E-03 7.83349E-03
 -1     27923 9.92007E+00 6.43295E+00 8.19881E+00 7.92532E+00-1.04352E-02 7.57938E-03
 -1     27924 9.33017E+00 6.82685E+00 8.08094E+00 8.44779E+00-7.23099E-03-7.19270E-03
 -1     27925 9.37619E+00 6.94151E+00 8.19102E+00 8.07749E+00-2.57694E-02-1.16031E-02
 -1     27926 9.66123E+00 4.46472E+00 7.06176E+00 7.70389E+00-2.03567E-03 1.50864E-02
 -1     27927 1.22895E+01 9.57838E+00 1.09310E+01 1.08040E+01-3.78100E-02 1.03041E-02
 -1     27928 7.55841E+00 6.58085E+00 7.12151E+00-7.82020E-01-2.98300E-02 1.99313E-02
 -1     27929-1.43707E+00-2.97225E+00-2.15564E+00-2.34959E-01-4.21979E-02-1.42778E-02
 -1     27930 8.62042E+00 1.54978E+00 5.09933E+00 5.65990E+00 5.08992E-03-1.20381E-02
 -1     27931 1.16234E+01 1.01442E+01 1.08800E+01 1.09600E+01 1.34309E-02-6.26442E-03
 -1     27932 1.26217E+01 1.07146E+01 1.16200E+01 1.17435E+01-1.85996E-02 1.63828E-02
 -1     27933 9.00257E+00 6.79821E+00 7.88322E+00 8.14146E+00 9.81030E-03-1.70079E-04
 -1     27934 6.70661E+00 5.29633E+00 5.97890E+00 5.35305E+00-2.33316E-02-2.14641E-02
 -1     27935 6.06001E+00 4.72424E+00 5.36589E+00 5.36095E+00-2.41010E-03 7.08513E-03
 -1     27936 6.57325E+00 5.77447E+00 6.17101E+00 5.76573E+00-4.93123E-03 1.17496E-02
 -1     27937 7.28563E+00 6.40979E+00 6.91394E+00 4.52636E+00-2.17136E-02 1.70034E-02
 -1     27938 1.07421E+01 1.03792E+01 1.05850E+01 4.66781E+00 5.08386E-05 8.43376E-03
 -1     27939 4.70432E+00 3.49068E+00 4.07245E+00 5.27370E+00 2.11527E-03-1.48020E-02
 -1     27940-7.45344E+00 7.74703E-01-3.63828E+00 5.96049E+00 1.17145E-02 1.02966E-01
 -1     27941-1.23738E+00 8.92270E+00 3.68927E+00 6.12954E+00 3.27701E-02 6.83219E-02
 -1     27942-1.68503E+01-9.28846E-01-8.86896E+00-5.55649E+00 1.39476E-02 1.07769E-03
 -1     27943-1.89218E+01-2.40356E+00-1.06382E+01-6.05668E+00-3.47073E-03-7.75496E-03
 -1     27944-1.86165E+01-2.33271E+00-1.04483E+01-5.82504E+00-5.42325E-03-2.19858E-02
 -1     27945 9.37941E+00 7.15957E+00 8.30267E+00 8.01034E+00 1.09785E-02-2.72310E-03
 -1     27946-1.88584E+01-1.85225E+00-1.03481E+01-6.27365E+00-5.13149E-03-9.45362E-03
 -1     27947-2.06505E+01-3.42628E+00-1.21122E+01-6.21817E+00 3.26717E-03-5.90244E-02
 -1     27948-3.44786E+00-3.99330E+00-3.62376E+00-1.08951E+00-1.86110E-02 4.30777E-02
 -1     27949-2.02685E+01-3.09980E+00-1.16915E+01-6.37883E+00 1.83947E-02 5.52213E-02
 -1     27950-2.09790E+01-3.89946E+00-1.24554E+01-6.16650E+00 1.45416E-02 3.99732E-03
 -1     27951-1.54627E+01 1.24902E+00-7.09567E+00-5.74844E+00-4.91186E-02-2.47248E-03
 -1     27952 1.27195E+01 1.03901E+01 1.15865E+01 1.15072E+01-2.31918E-03 3.84810E-03
 -1     27953 1.32487E-01 7.30795E+00 3.72043E+00 4.95107E+00-2.77514E-03-4.64346E-02
 -1     27954 1.26872E+01 1.06955E+01 1.17257E+01 1.20112E+01-4.19946E-03-2.43294E-02
 -1     27955 8.26468E+00 8.27052E+00 8.23929E+00 8.51333E+00-7.71190E-03 1.56792E-02
 -1     27956 1.18600E+01 1.04008E+01 1.11356E+01 1.05864E+01 9.04620E-04-4.53837E-03
 -1     27957 8.98738E+00 9.32760E+00 9.17389E+00 9.32506E+00 2.09886E-02-1.63746E-02
 -1     27958 1.29070E+01 1.10408E+01 1.19670E+01 1.14977E+01-3.60063E-02 2.21213E-02
 -1     27959 7.35667E+00 5.03939E+00 6.18646E+00 6.75854E+00-8.82018E-05-8.56216E-03
 -1     27960 7.85750E+00 5.61602E+00 6.75616E+00 6.61687E+00 1.14524E-02 4.38589E-03
 -1     27961 1.11555E+01 9.92591E+00 1.05476E+01 1.09184E+01 1.43837E-02 2.64569E-02
 -1     27962 1.17585E+01 1.02381E+01 1.10349E+01 1.11558E+01 3.56263E-02 3.25147E-03
 -1     27963-4.40792E+00 3.13531E+00-6.43537E-01 5.61807E-01 3.24241E-03 7.44114E-03
 -1     27964-9.82255E+00-2.88869E-01-5.05446E+00-1.91188E+00-6.56928E-04-8.79229E-03
 -1     27965 5.84207E+00 5.63234E+00 5.74220E+00 5.56176E+00 9.92772E-03-1.94909E-02
 -1     27966 5.59662E+00 5.49399E+00 5.55426E+00 5.57712E+00-2.20015E-02-5.47432E-03
 -1     27967 5.13521E+00 5.11117E+00 5.10621E+00 5.55843E+00 1.01814E-02-1.91352E-02
 -1     27968 4.73226E+00 4.58328E+00 4.69066E+00 5.60956E+00-2.09002E-02-3.62599E-03
 -1     27969 6.68875E+00 6.70301E+00 6.67126E+00 5.62008E+00 1.54684E-03-9.18726E-03
 -1     27970-1.14435E+01-8.56975E-01-6.14819E+00-2.54324E+00-5.19226E-03-1.07662E-02
 -1     27971 6.11450E+00 2.77878E+00 4.45577E+00 2.05523E+00 1.55163E-02-4.77242E-03
 -1     27972 5.39121E+00 4.06821E+00 4.73896E+00 5.34881E+00-1.82836E-02-1.49713E-03
 -1     27973 7.02965E+00 5.32932E+00 6.20891E+00 5.77157E+00 1.96868E-02 1.43570E-02
 -1     27974 7.07973E+00 5.46846E+00 6.25730E+00 5.67734E+00 1.29533E-02 6.26864E-03
 -1     27975-9.87750E+00 9.72427E-01-4.45678E+00-2.17911E+00-1.39288E-02 8.52943E-04
 -1     27976-1.12201E+01 2.11996E-01-5.49929E+00-3.20892E+00-3.47930E-02 2.36732E-02
 -1     27977 1.04303E+01 9.88302E+00 1.01888E+01 9.84535E+00 1.39782E-02-1.61193E-02
 -1     27978-1.33683E+01-1.31049E+00-7.34652E+00-3.37198E+00 4.82981E-03 1.03478E-02
 -1     27979 6.80495E+00 4.88173E+00 5.82353E+00 5.60684E+00-1.65040E-02 3.72255E-03
 -1     27980-1.21362E+01-6.21902E-01-6.37212E+00-4.15917E+00 3.09230E-02-7.42467E-05
 -1     27981-1.25779E+01-1.31961E+00-6.98014E+00-3.80160E+00 4.66078E-02 2.80262E-02
 -1     27982-4.60345E+00 2.23757E+00-1.18257E+00 1.07991E+00-1.53258E-03 7.86978E-03
 -1     27983 8.78883E+00 4.03625E+00 6.41359E+00 6.30095E+00-2.16719E-02 1.46975E-02
 -1     27984-3.81318E+00-3.29369E+00-3.55973E+00 1.77951E+00 1.03323E-03 3.07245E-02
 -1     27985 1.29012E+01 1.09422E+01 1.19298E+01 1.19751E+01-1.68332E-03 1.25667E-02
 -1     27986 1.28647E+01 1.08999E+01 1.18492E+01 1.20280E+01-2.10855E-03-3.50169E-03
 -1     27987 6.30282E+00 6.15168E+00 6.20610E+00 5.60625E+00 1.25327E-02 7.08209E-03
 -1     27988 3.60224E+00 3.58307E+00 3.57259E+00 5.65351E+00-1.86241E-03 7.81748E-03
 -1     27989 8.49955E+00 8.40991E+00 8.41922E+00 5.60663E+00 6.26076E-03 1.54936E-02
 -1     27990 1.23499E+01 1.01479E+01 1.12272E+01 1.21541E+01-8.94836E-04 1.61377E-02
 -1     27991 5.67551E+00 4.69667E+00 5.17936E+00 5.18579E+00 2.40783E-02-1.78209E-02
 -1     27992 7.14186E+00 9.03230E+00 8.06752E+00-6.67426E-01-1.21556E-02 2.98534E-02
 -1     27993-1.86399E+01-1.58180E+01-1.72613E+01-3.98004E-01 5.33201E-02-6.24307E-02
 -1     27994-6.83502E-01 9.35366E+00 4.23543E+00 5.27113E+00 1.49486E-01-4.46653E-02
 -1     27995-1.45311E+01-1.29077E+01-1.37126E+01-7.74770E-01-2.44809E-02-3.27896E-02
 -1     27996-2.95552E+01-2.85757E+01-2.91296E+01-1.58801E+00-7.21123E-02 4.24839E-02
 -1     27997 1.67630E+00 9.90928E+00 5.62140E+00 7.46769E+00-2.02055E-02 1.41461E-02
 -1     27998 2.51864E+00 3.48845E-02 1.25106E+00 1.12706E+00 4.19466E-02-3.25779E-02
 -1     27999-2.89706E+00-4.57094E+00-3.73371E+00 1.10462E+00 2.23452E-02 5.26226E-03
 -1     28000-3.21027E+00-1.15443E+00-2.18095E+00 2.47527E+00-2.03680E-02-8.04992E-03
 -1     28001-1.00473E+01-2.60779E-01-5.15192E+00-1.92292E+00-1.49933E-03-1.49449E-03
 -1     28002 5.96364E+00 5.24461E+00 5.62448E+00 4.80623E+00-2.22678E-02 1.50201E-02
 -1     28003-6.48483E+00 3.44600E+00-1.69208E+00 5.23658E+00 4.31665E-02-5.42755E-02
 -1     28004 3.13462E+00 1.32477E+01 8.21357E+00 6.74706E+00 3.53891E-02-8.95554E-02
 -1     28005-1.15190E+01-4.94064E-01-6.04336E+00-6.71549E-01-2.40679E-03-3.39253E-03
 -1     28006 5.35999E+00 5.10743E+00 5.24085E+00 5.49575E+00-1.89209E-03-2.21108E-02
 -1     28007 5.58193E+00 5.43594E+00 5.49707E+00 5.52799E+00-1.34142E-02-1.18907E-02
 -1     28008-4.33607E+00-1.35857E+00-2.76718E+00 2.17334E+00-4.71498E-03 2.04999E-04
 -1     28009 5.49224E+00 7.74162E+00 6.62312E+00 7.10347E+00 1.59036E-02-1.62425E-02
 -1     28010-5.41694E+00 8.85618E-01-2.27427E+00 1.79267E-01-7.71934E-04 1.40839E-02
 -1     28011 7.96745E+00 6.79436E+00 7.35699E+00 2.46400E+00-1.96265E-02 1.32047E-02
 -1     28012-1.87354E+01-2.12028E+00-1.04398E+01-6.20353E+00-1.68505E-02 4.95340E-03
 -1     28013-1.71208E+01-1.74654E+00-9.43601E+00-5.66173E+00-1.24016E-02-6.23283E-03
 -1     28014-1.58622E+01-2.12603E+00-9.00658E+00-4.65789E+00-4.73116E-05 7.62464E-03
 -1     28015-1.57775E+01-1.42885E+00-8.61860E+00-5.13425E+00 7.27827E-03-5.38165E-04
 -1     28016-1.63145E+01-1.66441E+00-8.95973E+00-5.24128E+00 5.53561E-03 1.14669E-02
 -1     28017-1.65329E+01-1.72389E+00-9.12284E+00-5.29479E+00-2.13132E-02-1.65646E-02
 -1     28018-1.67027E+01-1.82123E+00-9.25868E+00-5.32915E+00-3.55145E-03 1.29468E-02
 -1     28019-1.29352E+01-6.45905E-01-6.76773E+00-3.69665E+00-4.71300E-03-5.68303E-03
 -1     28020 5.42495E+00 5.40587E+00 5.39973E+00 5.63634E+00 3.28191E-03 1.51916E-02
 -1     28021-8.05726E+00-6.71122E-01-4.36093E+00-2.82997E+00 3.45643E-02 1.78775E-02
 -1     28022-8.43692E+00 4.39306E-02-4.12556E+00-3.02648E+00 4.29629E-02 8.35473E-02
 -1     28023-1.63961E+01-1.13342E+00-8.79394E+00-5.55589E+00 1.33483E-02-1.20665E-02
 -1     28024-1.63726E+01-1.69839E+00-9.04548E+00-5.21355E+00-5.41248E-03-9.95038E-03
 -1     28025-1.67796E+01-1.64343E+00-9.19910E+00-5.50856E+00-2.46378E-02-1.32293E-02
 -1     28026 9.99521E+00 7.18391E+00 8.64983E+00 1.01479E+01 4.54787E-03-4.56907E-03
 -1     28027-4.24944E+01-3.77127E+01-3.96060E+01 5.23183E-01 1.27902E-02 1.26823E-01
 -1     28028 5.81453E+00 5.52430E+00 5.63574E+00 5.50503E+00-2.44091E-02-2.05717E-02
 -1     28029-7.11274E+00 2.73199E-01-3.42689E+00-6.07229E-01-3.30204E-03-3.20567E-03
 -1     28030-2.91084E+00 3.06161E+00 7.09961E-02 3.95791E-01-1.25756E-01 2.48286E-01
 -1     28031-2.11141E+00 3.48392E+00 4.02709E-01 2.13903E+00 1.77748E-01-4.52968E-02
 -1     28032-2.89216E+01-2.83862E+01-2.86713E+01-1.54557E+00 2.19541E-02-2.44653E-02
 -1     28033-1.36659E+01-1.18233E+00-7.42372E+00-3.70063E+00-4.53873E-03-8.47484E-03
 -1     28034-1.57737E+01-1.41577E+00-8.59038E+00-4.95623E+00 1.62476E-02-4.74445E-03
 -1     28035-1.53356E+01-1.20179E+00-8.28386E+00-4.86029E+00 1.36886E-02 8.67452E-03
 -1     28036-3.64242E+00 3.36038E+00-1.55275E-01 4.61504E+00-1.00992E-02-2.24189E-02
 -1     28037 9.31746E-01 5.09283E+00 2.90744E+00 6.39922E+00 1.30246E-02-1.45651E-01
 -1     28038-1.85334E+00 5.22593E+00 1.72484E+00 7.27571E+00 5.95468E-02-2.84603E-02
 -1     28039 7.17873E-01 6.33345E+00 3.49692E+00 6.62224E+00 1.67489E-01 4.11158E-02
 -1     28040 3.58670E+00 7.91896E+00 5.59934E+00 6.16860E+00-2.22518E-01-9.84976E-02
 -1     28041 6.14319E+00 5.98798E+00 6.08154E+00 5.57052E+00 1.56673E-02-9.83947E-03
 -1     28042 1.04318E+01 9.44745E+00 1.00279E+01 1.01026E+01 2.13299E-02-2.45802E-02
 -1     28043-1.74760E+01-2.45186E+00-9.96891E+00-5.45411E+00-2.32862E-02 7.92412E-03
 -1     28044 7.22779E+00 6.07088E+00 6.64125E+00 5.08739E+00 1.30040E-02-1.50465E-02
 -1     28045 6.51145E+00 5.34044E+00 5.89142E+00 1.79712E+00 8.22874E-02-3.34842E-02
 -1     28046-1.85303E+00 5.90257E+00 2.05804E+00 7.50531E+00 6.26411E-02-2.84166E-02
 -1     28047 3.34149E+00 1.14043E+01 7.55665E+00 7.75863E+00 4.79677E-02-2.33511E-02
 -1     28048 7.86878E-01 8.35771E+00 4.61951E+00 7.41958E+00 1.56695E-02 2.73786E-02
 -1     28049 4.41516E-01 7.33062E+00 3.94909E+00 7.20993E+00-2.44459E-02-9.92543E-02
 -1     28050-1.50279E+01-1.60711E+00-8.30810E+00-4.41334E+00 7.76069E-03-2.90757E-03
 -1     28051-1.53176E+01-1.68918E+00-8.51572E+00-4.55611E+00 6.11521E-04 1.16859E-02
 -1     28052-2.41764E+00 6.11623E+00 1.82575E+00 7.61459E+00 8.28521E-03-1.02091E-02
 -1     28053-9.62983E+00 4.19042E-01-4.70435E+00-2.07441E+00-4.03331E-02-2.05653E-02
 -1     28054-1.88894E+01-1.83166E+00-1.03763E+01-6.34016E+00-1.93048E-03-1.86368E-02
 -1     28055-1.92741E+01-2.02148E+00-1.06511E+01-6.41118E+00-1.95870E-02-1.54503E-02
 -1     28056-1.22549E+01-8.79886E-01-6.63020E+00-3.77010E+00 2.63715E-02 1.29431E-03
 -1     28057 4.84534E+00 4.16666E+00 4.49667E+00 5.61862E+00 1.01955E-03 9.54972E-03
 -1     28058 1.02142E+01 6.88485E+00 8.56015E+00 8.36902E+00 6.91851E-03-1.18597E-02
 -1     28059 6.56866E+00 6.25562E+00 6.39916E+00 6.01097E+00 8.09492E-03 4.79378E-03
 -1     28060 6.14819E+00 5.40697E+00 5.77285E+00 5.75683E+00 8.00603E-03 4.77136E-03
 -1     28061-4.71226E-01 1.19247E+01 6.05803E+00 6.50565E+00 1.85600E-02-3.78279E-02
 -1     28062-3.36714E+00 9.95485E+00 3.25065E+00 6.35866E+00-7.30064E-02-9.51284E-02
 -1     28063-8.56488E+00 2.30104E+00-2.91225E+00 6.89036E+00 7.13506E-02 3.06148E-02
 -1     28064-2.16265E+00 1.01579E+01 3.91003E+00 6.54059E+00-8.16712E-02 2.40186E-02
 -1     28065 7.62824E-01 7.19514E+00 3.98100E+00 5.16966E+00-1.65774E-02-4.68680E-03
 -1     28066 1.35505E+00 7.17644E+00 4.27715E+00 5.60704E+00-4.77273E-02-8.23864E-03
 -1     28067-1.75487E+01-1.53069E+00-9.52546E+00-5.75891E+00 5.74467E-03-7.95820E-03
 -1     28068-1.82383E+01-1.64053E+00-9.94013E+00-6.09866E+00-2.69795E-02-1.08450E-02
 -1     28069 5.06142E+00 4.55620E+00 4.80375E+00-1.30490E+00-4.34652E-02 4.85693E-02
 -1     28070-1.19206E+01-1.23016E+01-1.21540E+01-1.62064E+00 2.17125E-02 2.24269E-02
 -1     28071-1.29996E+01-1.32102E+01-1.31157E+01-1.87306E+00-7.97120E-03-9.96565E-04
 -1     28072-8.93680E+00-2.91081E-01-4.61143E+00-1.30009E+00-2.31036E-03 1.12528E-02
 -1     28073 6.73278E+00 5.91598E+00 6.38260E+00-6.09715E-01 1.62534E-02 3.17262E-02
 -1     28074-9.76436E+00-1.56152E-02-4.88249E+00-1.63398E+00-6.04556E-02-2.03813E-02
 -1     28075 6.67769E+00 4.49979E+00 5.57907E+00 3.75101E+00 4.20271E-02-3.55927E-02
 -1     28076 1.10899E+01 9.05819E+00 1.01552E+01 3.62609E+00 1.44007E-02 2.46621E-02
 -1     28077 7.40762E+00 5.68186E+00 6.60959E+00 3.85860E+00 1.43103E-02 1.14973E-02
 -1     28078 8.76107E+00 8.30102E+00 8.53528E+00 4.25938E+00-1.11546E-02-4.07338E-02
 -1     28079 1.09907E+01 1.05070E+01 1.07192E+01 4.03961E+00 8.21487E-03-3.24930E-02
 -1     28080 1.49227E+01 1.39751E+01 1.44284E+01 4.25044E+00-2.88458E-02-1.87204E-03
 -1     28081-7.02682E-02-1.20725E+00-6.58868E-01 1.10055E+00 1.17762E-02-3.13480E-03
 -1     28082-2.23390E+01-2.75516E+00-1.24098E+01-5.63981E+00-1.36019E-01 8.96905E-02
 -1     28083 1.16875E+01 1.02054E+01 1.09595E+01 1.10079E+01-3.63656E-02-4.02018E-03
 -1     28084 1.24665E+01 1.10642E+01 1.17901E+01 1.09145E+01 3.04668E-02 2.31883E-02
 -1     28085 7.23940E+00 5.86317E+00 6.56489E+00-3.60998E-01-7.70056E-02-6.77834E-02
 -1     28086-1.44176E+00 6.25999E+00 2.52871E+00 7.19261E+00 3.17085E-02 4.98457E-02
 -1     28087 6.80206E+00 5.43158E+00 6.06525E+00 4.20174E+00 8.81009E-03-1.18151E-02
 -1     28088 5.36628E+00 3.99600E+00 4.60016E+00 4.35078E+00-3.90550E-02 2.02599E-02
 -1     28089-1.45139E+01-2.46610E+00-8.48645E+00-4.08058E+00-5.83479E-03-6.41456E-02
 -1     28090-1.25695E+01-8.49941E-01-6.59602E+00-3.99998E+00 1.53008E-02-3.46805E-02
 -1     28091-1.27463E+01-1.71642E+00-7.17922E+00-3.17494E+00 3.08566E-03 2.01371E-02
 -1     28092 6.13330E+00 5.70143E+00 5.90342E+00 5.43484E+00 6.13218E-03 1.41299E-02
 -1     28093 5.61664E+00 5.00390E+00 5.28947E+00 5.38290E+00 1.61453E-02 1.25299E-02
 -1     28094 6.84841E+00 6.43549E+00 6.66648E+00 5.43451E+00 2.92317E-02 1.80519E-03
 -1     28095 1.02998E+01 8.69462E+00 9.46140E+00 4.09557E+00 4.09145E-02 6.26584E-03
 -1     28096 7.38583E+00 4.61147E+00 5.92370E+00 4.28254E+00-1.90399E-02 4.00622E-02
 -1     28097 1.08062E+01 8.32372E+00 9.53203E+00 4.06191E+00 1.60961E-03 5.75527E-03
 -1     28098 7.60128E+00 6.53534E+00 7.06737E+00 3.97428E+00 4.35560E-02-1.48089E-02
 -1     28099 1.88248E+00-4.34098E-01 7.17011E-01 4.17029E+00 2.77429E-02 1.94986E-03
 -1     28100-5.03033E-01-1.32792E+00-9.00922E-01 2.71343E+00-1.35130E-03 1.78055E-02
 -1     28101-1.14761E+00-1.38199E+00-1.26540E+00 2.80529E+00-4.42868E-04 7.78216E-03
 -1     28102 3.10205E+00 1.15112E+01 7.40919E+00 7.19703E+00-9.40081E-02-3.72898E-02
 -1     28103 9.83261E+00 4.61760E+00 7.22686E+00 7.30221E+00 1.04523E-02 4.86138E-03
 -1     28104-2.61383E-01 1.04575E+01 5.19140E+00 6.60999E+00-9.46439E-02-3.83109E-02
 -1     28105-3.28912E+00 7.11813E+00 2.03685E+00 6.61060E+00 8.74794E-03 2.13013E-02
 -1     28106 4.24455E+00 3.25971E+00 3.72809E+00 4.06080E+00 1.44337E-02-8.44998E-03
 -1     28107 8.53946E+00 8.08786E+00 8.33797E+00 3.94002E+00 5.74945E-03-2.24107E-02
 -1     28108 1.04620E+01 8.84938E+00 9.58628E+00 4.12515E+00 2.85959E-03-6.17443E-02
 -1     28109 4.64639E+00 3.63414E+00 4.13225E+00 4.27980E+00-2.48849E-02-3.09555E-02
 -1     28110 1.50658E+01 1.44117E+01 1.47297E+01 4.02012E+00 9.60881E-03-5.09218E-02
 -1     28111 4.46451E+00 1.54686E+01 9.95839E+00 7.03853E+00 6.40871E-02-9.88252E-02
 -1     28112-1.77152E+00 1.05677E+01 4.17729E+00 6.79012E+00 1.70941E-01-9.85609E-02
 -1     28113 4.21025E+00 8.39400E+00 6.30365E+00 7.53737E+00-3.19710E-02 2.38901E-02
 -1     28114 8.13373E+00 6.22943E+00 7.16837E+00 6.95848E+00-2.04598E-02 1.03869E-02
 -1     28115 1.98184E+00-8.07399E-01 5.80307E-01 3.82306E+00-7.64245E-03 2.37783E-03
 -1     28116-7.58205E+00-1.05914E+00-4.29902E+00-9.63696E-01 1.02290E-01 6.70557E-02
 -1     28117 7.24711E+00 4.81521E+00 6.03054E+00 4.68866E+00 4.76946E-02-5.81856E-03
 -1     28118 1.06086E+01 8.90831E+00 9.79939E+00 4.47745E+00-7.19335E-03-1.61076E-03
 -1     28119-1.53322E+01-1.55902E+00-8.44567E+00-4.62443E+00 1.69685E-02-5.91019E-03
 -1     28120-1.56731E+01-1.40563E+00-8.51318E+00-4.95935E+00 3.49600E-03-1.51813E-02
 -1     28121-4.97358E+00-1.77856E+00-3.36828E+00 2.04060E+00-1.13610E-02-1.54270E-02
 -1     28122-8.35384E+00-8.64758E-01-4.62371E+00 1.24940E+00 1.30913E-02-4.39468E-02
 -1     28123-2.33664E+00-2.77498E+00-2.56043E+00-1.12277E+00-2.77837E-02 4.61273E-03
 -1     28124-1.25033E+01 9.83107E-02-6.24663E+00-3.72342E+00 7.24644E-03 4.74080E-03
 -1     28125-1.66570E+01-1.74948E+00-9.18715E+00-5.35685E+00 1.82607E-02-1.61583E-02
 -1     28126-2.74550E+00-3.78858E+00-3.37016E+00-8.48350E-01 4.58939E-02-1.22251E-02
 -1     28127-5.73816E-01-2.50677E+00-1.59355E+00 1.67621E-01 2.19563E-02-3.71376E-02
 -1     28128-5.13625E+00-5.69900E-01-2.84362E+00 1.54592E+00-4.14541E-02 5.54879E-03
 -1     28129 5.79112E+00 5.20151E+00 5.46830E+00 5.38967E+00-2.25377E-02-1.11796E-02
 -1     28130 5.50140E+00 5.20462E+00 5.32343E+00 5.48015E+00-6.00118E-03 5.16250E-03
 -1     28131 5.76759E+00 5.63784E+00 5.70008E+00 5.58424E+00 5.25078E-03 1.21068E-03
 -1     28132-1.83255E+01-2.07148E+00-1.01984E+01-6.04215E+00 1.27139E-03-5.90536E-03
 -1     28133-1.80664E+01-1.92070E+00-9.97833E+00-5.99783E+00-5.56499E-03-1.13858E-02
 -1     28134 1.12310E+01 7.83276E+00 9.53194E+00 9.27049E+00-7.41374E-03 2.82294E-03
 -1     28135 1.01673E+01 6.21882E+00 8.20471E+00 8.78274E+00-1.56284E-02-5.93873E-03
 -1     28136 1.30653E+01 1.12206E+01 1.21132E+01 1.17944E+01-3.85445E-03 1.85163E-02
 -1     28137 1.23057E+01 1.08276E+01 1.15687E+01 1.11766E+01-1.06454E-02 3.73191E-03
 -1     28138 1.20721E+01 1.03675E+01 1.12359E+01 1.15845E+01-9.94590E-03 1.03504E-02
 -1     28139 1.74207E+00 1.50469E+01 8.21995E+00 6.74564E+00 2.50750E-01 1.48541E-01
 -1     28140 1.42992E+00 1.45170E+01 7.77535E+00 6.31604E+00-1.03265E-02 2.85748E-01
 -1     28141 5.91793E+00 5.12144E+00 5.52494E+00 5.30165E+00-1.49438E-02-2.11044E-02
 -1     28142 1.01110E+01 8.85349E+00 9.46412E+00 4.46867E+00-4.00784E-02 6.83526E-03
 -1     28143 7.52568E+00 5.11743E+00 6.29419E+00 4.50499E+00-1.72620E-02 4.90386E-03
 -1     28144 5.62272E+00 5.11950E+00 5.36771E+00 5.38001E+00 8.77594E-03-1.44240E-02
 -1     28145 7.18072E+00 5.37232E+00 6.33400E+00 3.83180E+00 2.81191E-02-3.13405E-02
 -1     28146-4.87025E+00-1.33653E+00-3.07963E+00 1.95043E+00-1.77991E-02-6.29606E-03
 -1     28147 2.00404E+00 1.12744E+00 1.59358E+00 1.28088E-01-8.33575E-03-4.48360E-02
 -1     28148 7.65145E+00 6.56536E+00 7.13721E+00 3.66223E-01-8.06740E-03-2.80735E-02
 -1     28149 1.08287E+01 9.66687E+00 1.02446E+01 1.07904E+01 1.86470E-03 6.61919E-03
 -1     28150 1.14195E+01 1.02412E+01 1.08194E+01 1.08554E+01-5.99631E-03 2.82791E-04
 -1     28151 2.02819E+00 1.06191E+01 6.49206E+00 7.78772E+00 4.14273E-02 7.72911E-02
 -1     28152 1.08199E+01 7.91138E+00 9.33362E+00 9.98501E+00 5.51968E-03-5.04988E-03
 -1     28153 1.17200E+01 9.19639E+00 1.04720E+01 1.06102E+01-2.09357E-03 1.09784E-02
 -1     28154 6.43588E+00 7.24988E-01 3.60671E+00 4.91451E+00-6.72486E-04-9.70241E-04
 -1     28155 6.89709E+00 1.52772E+00 4.19782E+00 5.65627E+00-4.78470E-03 3.93623E-03
 -1     28156-1.78321E+01-1.90626E+00-9.87967E+00-5.90262E+00-3.83104E-03 7.29897E-03
 -1     28157-1.01946E+01-6.96674E+00-8.40371E+00 1.43789E-02-1.52054E-01-6.90615E-03
 -1     28158 1.00011E+01 9.37487E+00 9.70435E+00 1.00211E+01 5.45417E-03-3.57718E-03
 -1     28159 1.23247E+01 1.08407E+01 1.15826E+01 1.11077E+01-3.56851E-03-7.24160E-04
 -1     28160 1.22425E+01 1.04955E+01 1.14109E+01 1.17525E+01-5.56526E-03-2.94452E-02
 -1     28161-4.13652E+01-1.42156E+01-2.58032E+01-5.19586E+00 1.65115E-01 8.63260E-02
 -1     28162-2.73967E+01 4.91534E+00-1.27129E+01-2.55152E+00 1.13944E+00-1.20080E+00
 -1     28163-1.62294E+01-1.62008E+00-8.94634E+00-5.19632E+00-1.52013E-02-3.58799E-03
 -1     28164-1.83446E+01-1.94416E+00-1.01457E+01-6.03980E+00-9.39550E-03 1.35492E-02
 -1     28165-1.92378E+01-2.28154E+00-1.07519E+01-6.30327E+00 2.75194E-02 1.82303E-02
 -1     28166-1.85562E+01-1.82878E+00-1.02136E+01-6.23383E+00-2.52973E-02 2.32645E-02
 -1     28167-1.91722E+00 5.56956E+00 1.83925E+00 3.97766E+00-9.40850E-03-2.97541E-02
 -1     28168-6.36831E+00 1.00166E+00-2.61706E+00 4.41969E+00-1.09012E-01 2.21587E-02
 -1     28169-3.47835E+00 3.86911E+00 1.95600E-01 3.50705E+00 1.09958E-02-6.76128E-03
 -1     28170 1.36347E+01 1.15321E+01 1.25142E+01 4.00715E+00 3.69756E-02-2.65810E-02
 -1     28171 8.16912E+00 5.24111E+00 6.61330E+00 3.96934E+00 1.87673E-02-1.95222E-02
 -1     28172 1.25395E+01 1.36505E+01 1.30723E+01-7.11649E-01-5.94384E-02-6.48553E-02
 -1     28173-6.73479E+00 3.00054E-01-3.21774E+00 4.03822E+00 3.51480E-02-4.47338E-03
 -1     28174-2.69761E+00 4.33291E+00 8.28773E-01 2.47796E+00 1.20008E-02-1.56770E-02
 -1     28175 2.21285E+00 8.87701E+00 5.51826E+00 3.11534E+00 1.99357E-04 4.23703E-02
 -1     28176-5.18767E+00 1.70716E+00-1.75167E+00 4.97797E+00-3.14981E-02-6.75478E-03
 -1     28177-1.24323E+01-5.10480E+00-8.85257E+00-1.74818E+00-7.31725E-02 2.49362E-01
 -1     28178 1.17717E+01 9.11644E+00 1.04486E+01 1.05470E+01 1.53807E-02-5.20496E-03
 -1     28179-3.46688E+00 2.58061E+00-4.97494E-01-2.27738E-01-9.00805E-03 1.03640E-02
 -1     28180 9.93384E+00 7.19688E+00 8.57442E+00 1.02313E+01-3.43547E-03 2.49444E-02
 -1     28181 1.27090E+01 1.08223E+01 1.17438E+01 1.17275E+01-3.45334E-02 1.53961E-02
 -1     28182-1.02417E+01-1.36461E+00-5.75621E+00-3.18771E+00 4.16618E-02 1.99248E-03
 -1     28183-1.43612E+01-1.49294E+00-7.92551E+00-4.24335E+00 8.43154E-03-9.47068E-03
 -1     28184 1.32210E+01 1.17885E+01 1.24527E+01 1.07541E+01 8.87671E-03-9.99496E-04
 -1     28185 7.92166E+00 3.33982E+00 5.64321E+00 4.20637E+00 3.88472E-02 2.56233E-02
 -1     28186 8.92103E+00 7.73189E+00 8.38443E+00 1.06247E+01 1.98263E-03-3.09082E-02
 -1     28187 1.07056E+01 1.00912E+01 1.03905E+01 1.02035E+01-2.77737E-02 2.84304E-02
 -1     28188 9.48948E+00 8.89651E+00 9.24402E+00 1.01635E+01 3.57544E-02-2.42424E-02
 -1     28189-1.14233E+01-1.75326E+00-6.74758E+00 1.95230E-01-4.57522E-02-3.58824E-02
 -1     28190 2.15370E+00 1.44668E+00 1.78942E+00 3.91368E+00 4.30752E-02-5.63481E-02
 -1     28191-9.52160E+00 1.16025E+00-4.11217E+00-2.32312E+00 1.87602E-02 2.35697E-02
 -1     28192-1.02274E+00-2.22149E+00-1.56545E+00-3.31359E-01 2.58749E-02-4.41625E-03
 -1     28193 8.17255E-02-2.35271E+00-1.16507E+00 5.03324E-01 1.55480E-02 2.89844E-03
 -1     28194 8.29679E-01 1.91651E+00 1.36059E+00 3.36072E+00-1.82381E-02 1.82879E-02
 -1     28195 5.36003E+00 4.81887E+00 5.11348E+00 5.30225E+00 9.06968E-03 6.87590E-03
 -1     28196 5.53076E+00 4.92410E+00 5.24874E+00 5.37129E+00-2.82357E-02-2.96793E-02
 -1     28197 5.79805E+00 4.93832E+00 5.33177E+00 5.23447E+00-2.99802E-02-2.55852E-02
 -1     28198 4.53933E+00 3.16229E+00 3.81624E+00 4.21430E+00-1.26654E-02-3.27997E-02
 -1     28199 7.26713E+00 5.42869E+00 6.29430E+00 4.32476E+00-3.57076E-02-1.01777E-02
 -1     28200-3.06935E+00 4.88923E+00 9.16581E-01 2.12512E+00 1.23923E-03-2.04178E-03
 -1     28201-4.92494E+00 3.51143E+00-7.16473E-01 1.29415E+00 1.04326E-02 9.68454E-04
 -1     28202-5.75080E+00 2.20240E+00-1.76674E+00 1.94455E+00 1.69710E-02-9.89291E-03
 -1     28203 8.27445E+00 4.27623E+00 6.27450E+00 3.87551E+00 3.63478E-02 4.26630E-02
 -1     28204 9.69780E-03-1.11368E+00-6.21729E-01 8.42150E-01-4.91303E-04 3.29473E-02
 -1     28205-1.37662E+01-1.13210E+00-7.44709E+00-4.36855E+00-1.39329E-02-6.87477E-03
 -1     28206-2.05225E+00 1.82287E+00-1.14132E-01 1.67875E+00-2.79121E-03-4.47846E-03
 -1     28207 2.51863E-03-1.09918E+00-5.30365E-01 4.19542E+00-1.30364E-02-3.83092E-02
 -1     28208 1.01856E+01 8.10072E+00 9.21364E+00 4.05201E+00-2.43139E-02 1.58131E-02
 -1     28209-1.84000E+01-1.02704E+00-9.92283E+00-2.39084E+00-3.55396E-02 5.30802E-02
 -1     28210 1.30559E+01 1.16173E+01 1.23483E+01 1.11753E+01-2.17398E-02-8.87853E-03
 -1     28211 1.20387E+01 1.09658E+01 1.15282E+01 1.07502E+01-1.33813E-02-1.87971E-02
 -1     28212-2.23425E+01-1.86524E+01-2.03191E+01 1.23613E-01-1.91310E-01 2.09212E-03
 -1     28213-1.57135E+01-8.27408E+00-1.19180E+01 1.22365E+00 8.40766E-02 1.25767E-01
 -1     28214 9.46749E+00 7.30948E+00 8.37727E+00 8.81122E+00 3.39441E-03 3.21505E-03
 -1     28215-2.31214E+00 5.42517E+00 1.58293E+00 3.57574E+00 6.52589E-03 4.99401E-02
 -1     28216-6.19933E+00 1.46387E+00-2.34807E+00 2.73884E+00-3.35300E-02 3.45705E-02
 -1     28217 5.52035E+00 5.00367E+00 5.25194E+00 5.29660E+00 1.06647E-02-1.58120E-02
 -1     28218 5.61190E+00 5.07545E+00 5.35270E+00 5.33992E+00 9.63785E-03 1.97534E-02
 -1     28219 8.15917E+00 6.07833E+00 7.14350E+00 6.39988E+00-1.53836E-03 2.54911E-02
 -1     28220 5.88590E+00 5.35450E+00 5.64764E+00 5.54471E+00 2.91549E-02 5.00480E-03
 -1     28221 1.07109E+01 9.63433E+00 1.01218E+01 1.04334E+01 1.31963E-02-7.87529E-03
 -1     28222 6.54647E+00 6.35016E+00 6.46385E+00 5.68543E+00-2.95734E-02-1.62977E-02
 -1     28223 1.13521E+01 8.82324E+00 1.00764E+01 1.05883E+01 7.86064E-03-2.02534E-02
 -1     28224-8.88565E+00-1.14297E+00-5.01800E+00-1.25446E+00-1.71815E-02 3.40725E-02
 -1     28225 1.07738E+01 6.86793E+00 8.82874E+00 8.70698E+00-5.22163E-03-4.77620E-03
 -1     28226 1.22489E+01 1.04675E+01 1.13288E+01 1.17697E+01-1.71170E-02-6.93185E-03
 -1     28227 1.21869E+01 1.03766E+01 1.12707E+01 1.16342E+01-2.70162E-02 2.10168E-02
 -1     28228 1.01439E+01 3.10139E+00 6.63056E+00 5.69451E+00-3.05501E-03 2.56748E-03
 -1     28229 8.61970E+00 2.72209E+00 5.67604E+00 6.07841E+00 1.17915E-03-1.57516E-02
 -1     28230 1.35408E+01 1.17089E+01 1.26171E+01 1.14691E+01 4.12822E-03-5.61754E-03
 -1     28231 7.11406E+00 9.26314E-01 4.01964E+00 4.58276E+00 4.46086E-03-8.57959E-03
 -1     28232 1.35048E+01 1.06252E+01 1.20842E+01 1.03777E+01-1.30243E-04-1.34997E-03
 -1     28233 1.05325E+01 7.50524E+00 9.05118E+00 1.01080E+01-2.31641E-02-1.12481E-02
 -1     28234 6.87745E+00 1.61480E+01 1.16848E+01 5.84174E+00-2.51824E-02-8.62515E-02
 -1     28235-9.78640E-01 1.02193E+01 4.30993E+00 6.81009E+00 1.19972E-01-4.55549E-02
 -1     28236-5.91999E+00 2.19715E+00-1.88302E+00 2.09396E+00 3.58500E-02-2.94192E-03
 -1     28237-4.64801E+00 1.48459E+00-1.58224E+00 4.46953E-01 1.72060E-02-1.41031E-02
 -1     28238-1.43612E+01-1.01902E+00-7.65120E+00-4.41044E+00 2.17875E-02-1.40659E-03
 -1     28239 5.76051E+00 5.36826E+00 5.58952E+00 5.60778E+00-1.89763E-02-3.70548E-04
 -1     28240-1.38528E+01-1.36039E+00-7.60220E+00-3.71231E+00 1.81500E-02 8.16331E-03
 -1     28241-8.14828E+00-1.36326E+00-4.76568E+00 1.52987E+00 1.40699E-02-3.57500E-02
 -1     28242-1.56097E+01-1.59955E+00-8.61180E+00-4.83711E+00 1.39669E-03-1.07035E-02
 -1     28243-1.46391E+01-1.10361E+00-7.86531E+00-4.47978E+00 8.88457E-03-2.20009E-02
 -1     28244-1.07968E+00 1.81581E+00 3.63644E-01 2.33675E+00-6.28604E-03 1.21756E-02
 -1     28245-1.66020E+01-1.91278E+00-9.29855E+00-5.24967E+00-1.46903E-02-6.15354E-03
 -1     28246-1.47514E+01-8.90594E-01-7.82866E+00-4.66046E+00-1.23313E-02-9.59202E-03
 -1     28247 4.27623E+00 4.04521E+00 4.18265E+00 5.41811E+00 1.97000E-02 7.59462E-03
 -1     28248-1.57272E+01-1.94465E+00-8.80265E+00-4.67528E+00 1.97193E-02 1.20691E-02
 -1     28249-1.50387E+01-1.43763E+00-8.24961E+00-4.49364E+00 4.54605E-04 1.29894E-02
 -1     28250-1.57459E+01-2.36239E+00-9.00353E+00-4.89674E+00-3.98414E-02-6.60300E-04
 -1     28251-1.58448E+01-2.66044E+00-9.24895E+00-4.82885E+00-8.84634E-02 6.13481E-02
 -1     28252-5.53888E+00 1.20314E+00-2.19274E+00-1.37582E+00 4.35840E-02-6.67337E-02
 -1     28253-5.14494E-01 6.36326E+00 2.74844E+00-1.23199E+00 1.47570E-01-1.60208E-01
 -1     28254-5.78473E+00-3.54312E+00-4.15519E+00 2.78220E-01 1.77769E-01 7.56503E-02
 -1     28255-2.59363E+01-2.21892E+01-2.40883E+01-9.15831E-02-2.62511E-01-1.06453E-01
 -1     28256-5.11655E+01-5.06879E+01-5.09470E+01-7.70881E-01 2.64881E-02-2.37658E-02
 -1     28257-4.90441E+01-4.82884E+01-4.83324E+01-3.42556E-01-7.26096E-02 1.00586E-01
 -1     28258 5.68611E+00 5.21242E+00 5.45252E+00 5.41591E+00-2.05667E-02-6.59720E-03
 -1     28259 9.12063E+00 6.59496E+00 7.86653E+00 2.38446E+00 4.31601E-02-3.68062E-02
 -1     28260 2.91276E+00 2.07042E+00 2.51377E+00 4.23463E-01-1.72932E-02-1.01818E-03
 -1     28261-1.48978E+01-1.49156E+00-8.19031E+00-4.42608E+00 5.50580E-03-3.58494E-03
 -1     28262-1.22787E+01-3.32513E-01-6.32495E+00-3.61362E+00 4.03224E-03 6.91638E-03
 -1     28263-1.69146E+01-1.84370E+00-9.38002E+00-5.43777E+00 6.73325E-03 7.37770E-04
 -1     28264-1.65669E+01-1.62298E+00-9.09778E+00-5.37014E+00 8.17054E-03 1.50862E-03
 -1     28265-1.72271E+01-1.82145E+00-9.52459E+00-5.60639E+00 2.41785E-03 1.26003E-03
 -1     28266-1.42666E+01-1.03386E+00-7.65231E+00-4.26944E+00-2.54616E-02 2.12981E-02
 -1     28267 6.79922E+00 1.11949E+00 3.93226E+00 3.29060E+00 5.18283E-03-3.66243E-02
 -1     28268 7.50773E+00 5.91796E+00 6.75595E+00 6.35583E+00 2.55220E-02 2.74520E-02
 -1     28269-8.20661E+01-6.99616E+01-7.63078E+01 2.27313E+00 3.08671E-01-4.57089E-01
 -1     28270-1.16105E+01-2.00385E+00-6.64476E+00-3.45512E+00 8.98404E-02-7.93782E-03
 -1     28271-5.60382E+00 2.52332E+00-1.62599E+00-1.88425E+00-5.74593E-02-4.34341E-02
 -1     28272-1.46769E+01-1.35661E+00-8.02536E+00-4.27683E+00-3.06695E-02-2.47830E-02
 -1     28273-1.56906E+01-1.59886E+00-8.64527E+00-4.90469E+00 5.24448E-03 9.71844E-03
 -1     28274-1.49737E+01-1.03529E+00-8.00366E+00-4.84229E+00-6.42102E-03-6.51258E-03
 -1     28275 6.16289E+00 6.85306E+00 6.53669E+00 7.70224E+00-2.88049E-02-1.37583E-02
 -1     28276-1.64916E+01-1.42342E+00-8.94787E+00-5.42387E+00 5.86446E-03-8.33102E-03
 -1     28277-1.55301E+01-1.44317E+00-8.47613E+00-4.90119E+00-2.89676E-03-3.38629E-03
 -1     28278-1.89627E+01-1.43790E+01-1.69583E+01 8.16967E-01-1.88716E-02 2.39045E-01
 -1     28279 8.37668E+00 7.50124E+00 7.88238E+00 6.62382E-01-8.79374E-03-3.52571E-02
 -1     28280 1.13278E+01 9.39982E+00 1.02492E+01 9.85829E-01-2.21997E-02-2.87010E-02
 -1     28281 1.00052E+00-1.02192E+00 1.11891E-02 9.62673E-01 1.79646E-03-5.26224E-02
 -1     28282 1.34944E+01 1.12288E+01 1.23558E+01 1.39348E+00 1.96266E-02-1.25651E-02
 -1     28283 4.08726E+01 7.04957E+01 5.78255E+01-1.59918E+00 4.35048E-01 7.62792E-01
 -1     28284 6.65414E+00 1.38965E+00 4.04105E+00 2.82971E+00-1.39350E-02 4.94041E-02
 -1     28285 8.30652E+00 2.24354E+00 5.27676E+00 6.38334E+00 4.11152E-03 9.58893E-05
 -1     28286 8.54068E+00 5.31075E+00 6.93086E+00 4.53862E+00-9.08599E-03 1.18383E-02
 -1     28287 8.57738E+00 4.58279E+00 6.57571E+00 4.59673E+00-7.68086E-03-1.02843E-02
 -1     28288-1.81256E+01-1.91550E+00-1.00216E+01-5.81237E+00 3.74873E-03 9.39959E-03
 -1     28289-1.71467E+01-1.81002E+00-9.45111E+00-5.50354E+00-7.22780E-03 6.26959E-03
 -1     28290-5.93069E+00 1.64261E+00-2.18620E+00 3.21049E+00-1.71358E-02 5.16314E-02
 -1     28291 1.12998E+01 1.01742E+01 1.07117E+01 1.06992E+01-6.92463E-03 4.56286E-03
 -1     28292 2.93606E+00 1.33466E+01 8.06834E+00 7.00790E+00 1.43182E-01-3.00195E-02
 -1     28293-1.47288E+00 8.73062E+00 3.57732E+00 7.19499E+00-8.76414E-03-5.92796E-02
 -1     28294-2.72441E+00-2.01173E+00-2.37269E+00 2.75485E+00 2.49983E-03 1.59820E-03
 -1     28295 6.89941E-01 1.04651E+01 5.66956E+00 6.97642E+00 4.74586E-02-3.08451E-02
 -1     28296 1.50709E+01 1.28130E+01 1.40490E+01 3.17822E+00-3.91785E-02 4.28786E-03
 -1     28297 3.28970E+00 1.21548E+00 2.21774E+00 3.90498E-01 1.59569E-02-3.51233E-03
 -1     28298 1.13779E+00 8.83012E+00 4.87533E+00 7.44700E+00 1.15038E-01-6.36729E-02
 -1     28299-1.95144E+01-2.46389E+00-1.10065E+01-6.38317E+00 3.11481E-02 3.59641E-02
 -1     28300 2.18275E+00 8.51771E+00 5.24049E+00 6.90116E+00 8.25104E-03-5.12876E-02
 -1     28301 6.61845E+00 5.82313E+00 6.20379E+00-9.42217E-01 8.68107E-03 1.85929E-02
 -1     28302-7.81488E-01-2.33457E+00-1.54568E+00 9.70724E-02 1.02804E-01-1.92557E-02
 -1     28303-9.22006E-02-1.20278E+00-6.33621E-01-6.18962E-01-4.98421E-02-9.14781E-03
 -1     28304-1.27955E+01-9.45428E-01-6.87175E+00-3.46179E+00 9.43599E-03 5.37190E-03
 -1     28305-2.07472E+00 7.92764E+00 2.83655E+00 7.06661E+00-4.88902E-02 7.91421E-02
 -1     28306 6.35038E+00 1.62557E+01 1.11930E+01 6.72128E+00-1.74271E-02 4.47709E-02
 -1     28307-1.68626E+00 3.72086E+00 1.02065E+00 2.99711E+00-8.59763E-03 4.15114E-05
 -1     28308 7.41521E+00 6.00436E+00 6.69062E+00 5.85942E+00 1.95926E-03 5.56278E-02
 -1     28309 6.97995E+00 5.44981E+00 6.28400E+00 4.39728E+00-3.62697E-02-9.71588E-03
 -1     28310-1.80292E+01-1.62922E+00-9.83140E+00-5.94610E+00 5.28139E-02 1.88894E-02
 -1     28311-1.77322E+01-1.83056E+00-9.79029E+00-5.88611E+00-7.72080E-03 2.03880E-02
 -1     28312-1.45479E+01-1.00533E+00-7.77188E+00-3.76076E+00 1.31717E-04 5.40344E-03
 -1     28313-3.44137E+00-4.29802E+00-3.78088E+00-8.55957E-01-2.22001E-02-3.98305E-02
 -1     28314-1.12805E+01-2.39818E+00-6.89542E+00 1.01215E+00-5.34621E-02-7.82979E-02
 -1     28315 1.16154E+01 1.01751E+01 1.09071E+01 1.09363E+01-5.80440E-03 5.75270E-03
 -1     28316 1.20492E+01 1.01927E+01 1.11072E+01 1.18428E+01 3.80022E-03 2.15320E-02
 -1     28317 1.18725E+01 8.92530E+00 1.03798E+01 1.02545E+01-1.67118E-02 3.68217E-03
 -1     28318 1.26531E+01 9.95004E+00 1.13139E+01 1.08010E+01-8.18511E-03-1.16395E-02
 -1     28319-1.13655E+01-5.01353E-01-5.89139E+00-2.89453E+00-5.02079E-03-6.26936E-03
 -1     28320-7.69732E+00 1.76557E+00-2.99007E+00-1.28367E+00-2.33544E-02-1.84945E-02
 -1     28321-5.12347E+01-2.64606E+01-3.83323E+01-5.77074E+00 1.14605E+00-7.80879E-02
 -1     28322 5.10031E+00 2.90186E+00 3.99324E+00 5.58235E+00 3.20433E-03-8.92713E-03
 -1     28323-3.71611E-01-2.30283E+00-1.22635E+00 4.98479E-01-1.49874E-02 2.74003E-02
 -1     28324 8.89143E+00 4.83223E+00 6.86893E+00 6.58910E+00-9.40518E-03-5.04375E-03
 -1     28325 5.54470E+00 5.45078E+00 5.45656E+00 5.56788E+00 1.17895E-02-4.45930E-03
 -1     28326-1.09108E+01-5.21136E-01-5.71703E+00-2.47040E+00-5.64328E-03-3.67645E-03
 -1     28327 5.05012E+00 5.06104E+00 5.04436E+00 5.63019E+00 2.06209E-02 1.10143E-02
 -1     28328-1.33678E+01-1.13474E+00-7.30471E+00-4.29130E+00 2.95359E-02 8.05310E-04
 -1     28329-1.15071E+01 3.49601E-01-5.60654E+00-3.88910E+00 3.80704E-02-6.85323E-02
 -1     28330 1.00675E+01 7.56108E+00 8.73036E+00 2.05676E+00 3.32821E-03 4.07478E-02
 -1     28331 5.70464E+00 5.09416E+00 5.40645E+00 5.29901E+00-1.94993E-02 1.45768E-02
 -1     28332 1.14436E+01 9.66727E+00 1.06042E+01 1.16769E+01-7.58700E-03-2.78417E-03
 -1     28333 1.17713E+01 1.04733E+01 1.11048E+01 1.08353E+01-8.20605E-05-4.27529E-03
 -1     28334 8.35074E+00 5.06497E+00 6.69955E+00 6.25553E+00 5.28584E-02 1.80835E-02
 -1     28335 8.32034E+00 5.65457E+00 6.98195E+00 6.45854E+00 1.61016E-02-6.48385E-03
 -1     28336 8.10889E+00 5.47080E+00 6.78544E+00 6.35346E+00 5.40526E-03 1.62393E-02
 -1     28337 7.80862E+00 5.11455E+00 6.45861E+00 6.71401E+00-6.19702E-03 7.10353E-03
 -1     28338 8.56822E+00 5.59187E+00 7.06610E+00 6.97394E+00-2.45252E-02-4.72786E-03
 -1     28339 9.29662E+00 8.24912E+00 8.86140E+00 9.83307E+00-2.32480E-02-6.61011E-02
 -1     28340-6.42895E+00 1.35523E+00-1.82377E+00-1.12032E+00 3.89879E-01 2.85863E-01
 -1     28341 8.58916E+00 5.11920E+00 6.84025E+00 6.65205E+00 2.32361E-02 4.74245E-03
 -1     28342-2.77212E+00 3.48781E+00 3.53336E-01 1.25878E+00 3.78922E-03 1.15593E-02
 -1     28343 1.16733E+01 1.01331E+01 1.09350E+01 1.10679E+01-1.07703E-03-3.39276E-03
 -1     28344 1.64938E+01 1.59275E+01 1.61756E+01 4.30241E+00 2.38179E-03-4.60562E-02
 -1     28345-1.19719E+01-5.39364E-01-6.24718E+00-3.09779E+00-2.24655E-03-1.25897E-02
 -1     28346 1.00054E+01 9.26346E+00 9.61966E+00 9.98549E+00 2.82379E-02-3.01740E-03
 -1     28347 3.92065E+00 1.99180E+00 2.93944E+00 5.05399E+00-1.83319E-02-3.77771E-04
 -1     28348 1.23505E+01 1.08724E+01 1.16526E+01 1.10951E+01-3.50640E-02-2.90881E-03
 -1     28349 7.98737E+00 5.16538E+00 6.58249E+00 6.54206E+00-7.89083E-03 6.37914E-03
 -1     28350 7.11336E+00 5.07003E+00 6.08268E+00 5.97647E+00 3.63556E-03 9.85646E-03
 -1     28351 7.40526E+00 5.01261E+00 6.21386E+00 5.89933E+00 4.97593E-03 1.24001E-03
 -1     28352 7.20347E+00 4.97706E+00 6.05049E+00 6.02322E+00-5.15815E-03-2.77570E-02
 -1     28353-1.69480E+01-1.78085E+00-9.36738E+00-5.49306E+00-1.90109E-03 1.31278E-03
 -1     28354-1.39294E+01-1.21414E+00-7.53796E+00-3.90718E+00-1.60743E-02 1.09484E-02
 -1     28355 4.62345E-02 4.93818E+00 2.49181E+00 3.79186E+00-3.91618E-04 5.56991E-03
 -1     28356-6.72753E+01-4.87936E+01-5.82862E+01 1.62377E+00-1.00510E-01-7.16448E-01
 -1     28357 1.37557E+01 1.15946E+01 1.26945E+01 1.22853E+01-2.58138E-03-1.25061E-02
 -1     28358-5.25340E+01-4.82004E+01-5.06514E+01 8.69354E-01 2.64291E-01-1.13042E-01
 -1     28359-4.66337E+00 4.06970E+00-8.19283E-01 2.35303E+00-2.88277E-02-1.03831E-01
 -1     28360-1.94597E+01-1.73037E+00-1.07578E+01-6.10333E+00-4.93153E-02 4.77096E-02
 -1     28361-1.58558E+01-1.63400E+00-8.71190E+00-4.98125E+00 2.82784E-04 1.17748E-03
 -1     28362-1.72568E+00 7.57996E+00 3.01353E+00 7.79674E+00 4.92714E-03 3.33539E-02
 -1     28363-3.77042E+01-2.24725E+01-2.97606E+01 2.37995E+00 6.41774E-02-3.60930E-01
 -1     28364 4.97801E+00 4.22050E+00 4.59141E+00 5.33514E+00 2.43714E-04-9.24023E-03
 -1     28365 5.90175E+00 5.28207E+00 5.56808E+00 5.38202E+00 3.10147E-02-3.50625E-03
 -1     28366 5.12847E+00 4.52276E+00 4.83546E+00 5.36636E+00 7.73701E-03 1.88849E-02
 -1     28367 5.79878E+00 5.34186E+00 5.58053E+00 5.43599E+00-5.31541E-03 3.12346E-02
 -1     28368 1.10050E+01 1.10270E+01 1.09976E+01 9.74619E+00 1.64547E-02-2.08715E-02
 -1     28369 1.17861E+01 9.07478E+00 1.04027E+01 1.06118E+01-1.49595E-03-2.25451E-02
 -1     28370 1.39049E+01 1.12974E+01 1.25583E+01 1.08873E+01-1.39152E-03-1.30060E-03
 -1     28371 8.92785E+00 5.02862E+00 6.97728E+00 6.59862E+00 1.14999E-02 9.02791E-03
 -1     28372-6.84492E+00 2.36055E+00-2.41434E+00-1.54131E+00 1.06278E-02-1.78968E-03
 -1     28373 3.78790E+00 1.38243E+01 9.00964E+00 7.37452E+00-3.05480E-02-7.67991E-02
 -1     28374 1.04297E+01 8.94603E+00 9.61690E+00 4.07809E+00-1.83746E-02-3.26191E-03
 -1     28375 6.43473E+00 5.39328E+00 5.94378E+00 2.96197E+00-1.84988E-02-3.09530E-03
 -1     28376-6.52252E+00-6.61289E+00-6.53944E+00-1.59401E+00-1.60148E-02 3.63866E-02
 -1     28377-5.20090E+00-5.51446E+00-5.37780E+00-1.67704E+00 2.66632E-02 2.38029E-02
 -1     28378-1.04803E+01-7.31179E-01-5.58447E+00-3.34991E+00 3.94270E-02-5.53204E-03
 -1     28379 7.14825E+00 6.14421E+00 6.61557E+00 5.33656E+00 1.15770E-02-1.83518E-02
 -1     28380 5.16661E+00 4.38263E+00 4.77287E+00 6.24376E+00-6.45704E-05 1.35746E-02
 -1     28381-2.14672E+00 1.74398E+00-2.00404E-01 1.79165E+00-1.12147E-02 3.57145E-03
 -1     28382 3.48749E+01 3.86766E+01 3.69715E+01 3.21362E+00 1.59460E-01 8.53564E-02
 -1     28383-1.72386E+01-1.29912E+01-1.53001E+01 8.17629E-01-8.85134E-02-3.44372E-02
 -1     28384-1.67788E+01-1.78569E+00-9.27526E+00-5.45524E+00-1.94851E-02-1.02993E-02
 -1     28385-1.49367E+01-9.44170E-01-7.91913E+00-4.75604E+00-7.00113E-03 8.16116E-03
 -1     28386-8.89144E-01 4.86323E+00 2.05644E+00 3.26906E+00 2.37345E-01 3.42367E-02
 -1     28387 1.05209E+01 9.96233E+00 1.03195E+01 8.36511E+00-9.35334E-02 1.98430E-02
 -1     28388 6.65551E+00 6.13906E+00 6.50335E+00 8.57366E+00 9.25948E-02-7.60132E-02
 -1     28389 1.10391E+01 9.00211E+00 1.01102E+01 4.59244E+00 1.97099E-02-1.62177E-02
 -1     28390 4.38130E+00 4.19234E+00 4.29545E+00 5.55946E+00 1.65247E-02-4.00777E-03
 -1     28391-2.61691E+00 6.50021E+00 1.75914E+00 5.30286E+00-1.76568E-01 3.35947E-02
 -1     28392 9.70509E+00 7.71088E+00 8.65460E+00 4.87315E+00 2.30431E-02 8.36731E-03
 -1     28393 8.68046E+00 7.44724E+00 8.09325E+00 4.63473E+00-4.50730E-02 1.88020E-02
 -1     28394-1.59908E+01-1.79539E+00-8.86795E+00-4.84912E+00-1.65233E-02 2.45542E-03
 -1     28395-9.85265E+00 1.43741E-01-4.76229E+00-2.57350E+00 1.58656E-02-7.44116E-02
 -1     28396-1.85504E+01 2.37830E-01-8.98576E+00-5.56609E+00-9.89466E-02 3.19134E-02
 -1     28397 6.76506E+00 4.60422E+00 5.66212E+00 5.81065E+00-5.15120E-03-1.01138E-02
 -1     28398 8.15084E+00 5.18406E+00 6.64954E+00 6.80309E+00 5.73659E-03 7.25978E-03
 -1     28399 7.99609E+00 5.44923E+00 6.71942E+00 6.46618E+00 1.08072E-02-2.93643E-03
 -1     28400 7.23596E+00 4.76682E+00 5.99325E+00 6.27642E+00-1.01227E-02-1.02232E-03
 -1     28401 5.78882E+00 7.75940E+00 6.78448E+00 8.25484E+00 1.12694E-01-1.84489E-02
 -1     28402 1.09938E+01 7.78035E+00 9.37693E+00 9.05222E+00-6.94819E-03-1.27216E-02
 -1     28403-1.36032E+01-1.07207E+01-1.22046E+01-4.87989E-01-2.55268E-01-6.06271E-02
 -1     28404-6.99427E-01-1.45493E+00-1.09603E+00-7.47134E-01 1.23632E-02 9.37421E-02
 -1     28405 6.42925E+00 5.55215E+00 5.94740E+00 2.91691E-01-1.31603E-02-5.98619E-03
 -1     28406 1.21666E+01 9.70026E+00 1.09131E+01 1.11569E+01-6.39086E-03 2.00571E-02
 -1     28407 6.73152E+00 4.24940E+00 5.43561E+00 1.65545E+00-2.46696E-03 1.66484E-02
 -1     28408 5.78847E+00 5.52016E+00 5.64907E+00 5.61038E+00-1.60021E-03 6.73863E-03
 -1     28409 8.98750E+00 5.86679E+00 7.39775E+00 7.04741E+00 3.71918E-02 2.60516E-02
 -1     28410 1.18166E+01 8.43101E+00 1.00965E+01 9.38400E+00 8.79158E-03 4.77753E-03
 -1     28411 5.84963E+00 6.38319E+00 6.18927E+00 2.57800E+00 1.74463E-02-1.32504E-02
 -1     28412 1.67641E+01 4.76024E+01 3.05850E+01-3.02834E+00-1.72201E-01 3.95469E-01
 -1     28413-1.18238E+01-1.37109E+00-6.57323E+00-3.03838E+00 1.75761E-02-9.26744E-04
 -1     28414 2.83402E+00 7.75605E+00 5.32544E+00 7.14917E+00 3.09423E-02 5.42382E-02
 -1     28415-1.68185E+01-1.63224E+00-9.21177E+00-5.48571E+00-1.21427E-03 6.57472E-03
 -1     28416 1.16377E+01 8.63862E+00 1.01640E+01 1.00707E+01-4.98919E-03 1.52313E-03
 -1     28417 1.08312E+01 7.62935E+00 9.22603E+00 9.87034E+00-4.18647E-03-4.79191E-04
 -1     28418 1.19162E+01 9.20831E+00 1.05924E+01 1.07457E+01 9.51134E-04-1.67735E-02
 -1     28419 1.23753E+01 1.06194E+01 1.15099E+01 1.13130E+01-3.40718E-02-9.71567E-03
 -1     28420 1.28482E+01 1.07645E+01 1.18258E+01 1.18044E+01-9.67279E-03-2.66023E-03
 -1     28421-1.46503E+01-1.30715E+00-7.97987E+00-4.35949E+00-2.38430E-02 1.26777E-02
 -1     28422 1.27495E+01 1.01518E+01 1.14418E+01 1.08830E+01-1.65707E-03-7.09146E-03
 -1     28423-4.56145E+00 6.18492E+00 6.56871E-01 7.00860E+00 1.46855E-01 1.30085E-01
 -1     28424-1.67433E+01-1.74572E+00-9.23208E+00-5.41212E+00-7.12040E-03 6.93473E-03
 -1     28425-5.82772E+00 1.70200E+00-2.16765E+00-1.58882E+00-1.75633E-02-2.07974E-02
 -1     28426 5.45968E+00 3.30191E+00 4.45426E+00 3.37705E+00-4.86739E-04-9.33785E-03
 -1     28427-1.76534E+01-2.04337E+00-9.83551E+00-5.67925E+00-1.67125E-03-3.85266E-03
 -1     28428 1.21709E+01 1.11301E+01 1.16523E+01 1.06920E+01-2.04224E-02-1.74384E-02
 -1     28429 8.88095E+00 5.34084E+00 7.10358E+00 7.07447E+00-2.23059E-02-1.68685E-02
 -1     28430-2.13403E+01-2.62835E+00-1.16815E+01-5.89530E+00 8.02852E-02 6.98147E-02
 -1     28431 1.18345E+01 1.02727E+01 1.10623E+01 1.09917E+01-1.72026E-02-1.99046E-02
 -1     28432 6.66733E+00 5.23509E+00 5.97862E+00 4.40198E+00 7.97076E-03-1.36594E-02
 -1     28433 6.18898E+00 5.98583E+00 6.10287E+00 5.83021E+00 9.57840E-03 2.25515E-02
 -1     28434 4.89962E+00 4.48691E+00 4.68133E+00 5.80160E+00 4.17334E-03 1.69873E-02
 -1     28435-1.35931E+01-1.15932E+00-7.36768E+00-3.83821E+00 4.42999E-03-2.35183E-02
 -1     28436 1.03751E+01 7.06160E+00 8.71277E+00 9.17820E+00-2.38921E-02-1.49063E-02
 -1     28437-2.58221E+00-2.67934E+00-2.66434E+00-1.09998E+00 5.62960E-02 5.99523E-02
 -1     28438 1.30342E+01 1.05088E+01 1.17582E+01 1.09600E+01-8.47763E-03 1.96618E-02
 -1     28439 6.59394E+00 6.37382E+00 6.45973E+00 5.84232E+00 1.47763E-02 8.74007E-03
 -1     28440 1.24504E+01 9.05991E+00 1.07404E+01 9.49740E+00-3.10028E-04-1.38308E-02
 -1     28441 2.29840E-01-9.20530E-01-2.87508E-01-7.04719E-01-6.24545E-02 1.13346E-02
 -1     28442-1.50513E+01 2.81273E+00-5.88273E+00-6.08086E+00-8.04813E-03 2.95482E-02
 -1     28443 7.21981E+00 5.70088E+00 6.43717E+00 5.29195E+00-6.95174E-03-1.14742E-02
 -1     28444-4.08874E+00 2.39461E+00-6.57131E-01-1.32697E+00 3.94269E-03-1.45086E-02
 -1     28445-1.10323E+01-4.73693E-01-5.81941E+00-3.38195E+00 5.82514E-02-2.46222E-02
 -1     28446-1.13816E+01-1.30591E+00-6.33940E+00-2.89063E+00 7.23226E-03-1.03132E-02
 -1     28447-1.38814E+01-8.84792E-01-7.37229E+00-4.21010E+00-1.37700E-02-1.37468E-02
 -1     28448-9.11988E+00-3.94281E-01-5.12260E+00 4.61909E+00-2.84722E-02-1.74409E-01
 -1     28449-2.17913E+01-2.39871E+00-1.19743E+01-5.93090E+00 7.70014E-02 1.40433E-01
 -1     28450-1.69631E+01-1.76670E+00-9.34679E+00-5.46514E+00 2.69426E-03-1.66904E-03
 -1     28451 1.19685E+01 8.90228E+00 1.04360E+01 1.01335E+01 2.00342E-03-7.35100E-03
 -1     28452-1.66837E+01-1.66313E+00-9.16594E+00-5.41976E+00-1.14399E-02-4.86934E-03
 -1     28453-1.58687E+01-1.32361E+00-8.59099E+00-5.11426E+00-3.05179E-04-2.35805E-03
 -1     28454 7.95018E+00 5.50419E+00 6.72749E+00 2.01301E+00 5.30357E-02-9.60163E-03
 -1     28455-3.62082E+00 4.58629E+00 1.19940E+00-1.32348E+00-2.09922E-01 3.31109E-01
 -1     28456-1.37455E+01-6.07267E-01-7.14251E+00-4.26614E+00 9.89123E-03 2.03988E-02
 -1     28457 1.15156E+01 9.84716E+00 1.06662E+01 1.11377E+01-4.33215E-03-3.91845E-03
 -1     28458 1.12387E+01 1.00490E+01 1.06673E+01 1.08090E+01 4.06781E-04-1.70428E-02
 -1     28459-4.58672E+01-3.96246E+01-4.24516E+01 3.37304E+00 7.75213E-02-1.28455E-01
 -3
    1PSTEP                         3           1           1          
  100CL  101 1.000000000        8053                     0    1           1
 -4  TOSTRAIN    6    1
 -5  EXX         1    4    1    1
 -5  EYY         1    4    2    2
 -5  EZZ         1    4    3    3
 -5  EXY         1    4    1    2
 -5  EYZ         1    4    2    3
 -5  EZX         1    4    3    1
 -1     20407-2.97053E-02 3.16339E-02-1.89803E-03 1.22725E-01 1.88687E-03-1.23898E-03
 -1     20408-2.66701E-02 3.06371E-02-3.93605E-03 1.16229E-01-2.72921E-03-4.29016E-03
 -1     20409 5.03635E-04-2.99050E-04-1.52976E-04 1.32546E-01-2.13976E-04-8.15832E-05
 -1     20410 7.78634E-04-4.58317E-04-2.58000E-04 1.31035E-01 3.54786E-04 2.97402E-04
 -1     20411-7.78184E-02 9.91195E-02-2.12849E-02 2.84768E-02-2.85384E-02-1.17508E-02
 -1     20412-8.26255E-02 7.67949E-02 5.83485E-03 4.04908E-02 3.42963E-03-1.69547E-02
 -1     20413-2.40130E-01 2.43412E-01-3.62766E-03 1.03526E-01-2.06644E-03-5.99542E-03
 -1     20414-1.32208E-01 1.58480E-01-2.66702E-02 1.56478E-01 1.78928E-02 4.56955E-03
 -1     20415 1.57730E-02-2.27948E-02 7.09187E-03 1.63357E-01-3.01298E-03 9.15345E-04
 -1     20416 2.10321E-02-1.68977E-02-4.05037E-03 1.97171E-01-1.22793E-04 2.17399E-04
 -1     20417 2.19253E-02-1.91886E-02-2.64590E-03 2.21183E-01 1.89844E-03-6.14943E-04
 -1     20418 1.94474E-02-1.92717E-02-7.92162E-05 2.37336E-01-2.05948E-04 1.45574E-03
 -1     20419 2.11459E-02-2.11459E-02 1.00913E-04 2.47970E-01 3.16980E-04-2.16211E-04
 -1     20420 2.27421E-02-2.19176E-02-7.20723E-04 2.55801E-01-4.17077E-04-7.72193E-04
 -1     20421 2.30946E-02-2.24635E-02-5.26021E-04 2.62114E-01 1.19212E-04 6.99303E-04
 -1     20422 2.46933E-02-2.40497E-02-5.34831E-04 2.66000E-01 3.67353E-04-2.27643E-04
 -1     20423 2.53638E-02-2.33198E-02-1.93584E-03 2.69789E-01 5.37416E-04-7.14744E-04
 -1     20424 2.45458E-02-2.39680E-02-4.68552E-04 2.70541E-01-5.17472E-04 1.01283E-04
 -1     20425 2.37308E-02-2.43790E-02 7.57677E-04 2.71199E-01 9.13103E-05 2.75752E-05
 -1     20426 2.35890E-02-2.43201E-02 8.39496E-04 2.71270E-01-2.38635E-04-2.93678E-04
 -1     20427 2.32415E-02-2.31072E-02-2.58926E-05 2.69144E-01 2.71290E-04-5.69944E-04
 -1     20428 2.29164E-02-2.28087E-02-4.28817E-08 2.64733E-01 3.09746E-04-1.06873E-05
 -1     20429 2.43598E-02-2.32617E-02-9.93190E-04 2.61562E-01-1.19980E-04 8.28294E-05
 -1     20430 2.34525E-02-2.36712E-02 3.20677E-04 2.53120E-01-3.68215E-04 5.26894E-04
 -1     20431 2.23003E-02-2.10505E-02-1.14983E-03 2.45094E-01-4.90643E-04-1.34467E-04
 -1     20432 2.13294E-02-2.07769E-02-4.57647E-04 2.35135E-01-2.65899E-04 3.22697E-04
 -1     20433 2.03839E-02-1.91557E-02-1.13779E-03 2.22439E-01-1.52018E-04-4.67875E-04
 -1     20434 1.91559E-02-1.92913E-02 2.20001E-04 2.09766E-01-6.64271E-04 4.61618E-04
 -1     20435 1.79267E-02-1.79304E-02 8.16593E-05 1.94494E-01-3.44816E-04-2.48989E-04
 -1     20436 1.62938E-02-1.72212E-02 9.99173E-04 1.78239E-01-1.34260E-03-4.02092E-04
 -1     20437 1.68682E-02-1.56583E-02-1.14447E-03 1.62522E-01 4.49877E-04 2.11740E-04
 -1     20438 1.30823E-02-1.29486E-02-7.47732E-05 1.47390E-01 5.29393E-05 6.44485E-04
 -1     20439 1.20724E-02-1.23498E-02 3.33513E-04 1.33556E-01-1.24274E-04 8.13804E-04
 -1     20440 1.12314E-02-1.16892E-02 5.04886E-04 1.21972E-01-2.52104E-04 1.17201E-03
 -1     20441 1.11150E-02-1.03278E-02-7.42148E-04 1.13716E-01-1.59103E-04-3.21394E-04
 -1     20442 1.02298E-02-1.06439E-02 4.57471E-04 1.08546E-01-4.89639E-04-6.84139E-04
 -1     20443 1.00992E-02-9.34984E-03-7.06821E-04 1.09093E-01-7.51563E-04 2.89235E-04
 -1     20444 7.94028E-03-8.02368E-03 1.27841E-04 1.11437E-01 4.93217E-05 2.07767E-04
 -1     20445 8.39603E-03-8.48169E-03 1.31524E-04 1.16936E-01-1.83126E-04-6.17510E-04
 -1     20446 1.12913E-02-1.20084E-02 7.66710E-04 1.21857E-01-1.69705E-04-9.67594E-04
 -1     20447 9.49155E-03-1.38529E-02 4.43392E-03 1.57597E-01-2.01856E-03 5.69846E-04
 -1     20448 1.63207E-02-1.80370E-02 1.79790E-03 1.98941E-01 2.68061E-03-6.07047E-05
 -1     20449 2.32293E-02-2.16584E-02-1.48166E-03 2.22721E-01-3.33339E-04 2.14091E-03
 -1     20450 2.14060E-02-1.95350E-02-1.77458E-03 2.36391E-01 3.60502E-05 1.33654E-04
 -1     20451 2.28278E-02-2.29770E-02 2.48922E-04 2.48428E-01-1.98400E-03-9.37268E-05
 -1     20452 2.30157E-02-2.27329E-02-1.78783E-04 2.56265E-01-9.71396E-04 6.33959E-04
 -1     20453 2.44312E-02-2.34910E-02-8.33736E-04 2.60882E-01-5.98144E-04 8.99811E-04
 -1     20454 2.46132E-02-2.30533E-02-1.45282E-03 2.65980E-01-6.88254E-05 3.16194E-04
 -1     20455 2.33256E-02-2.32435E-02 2.61704E-05 2.69206E-01 2.70926E-04 7.31118E-04
 -1     20456 2.38005E-02-2.32145E-02-4.76789E-04 2.71372E-01 2.69572E-04 3.34980E-04
 -1     20457 2.47337E-02-2.41720E-02-4.52061E-04 2.71413E-01 1.09997E-04 4.71030E-04
 -1     20458 2.35748E-02-2.30084E-02-4.56567E-04 2.71007E-01 2.36522E-04 5.80472E-04
 -1     20459 2.30897E-02-2.29737E-02-7.00866E-06 2.68376E-01 3.00266E-04 3.46500E-04
 -1     20460 2.34845E-02-2.33152E-02-6.15392E-05 2.65045E-01-4.20290E-05 2.08763E-04
 -1     20461 2.28013E-02-2.12724E-02-1.42399E-03 2.59885E-01-5.66772E-05 1.48258E-03
 -1     20462 2.18707E-02-2.17958E-02 2.77498E-05 2.54383E-01 3.56325E-04 1.04118E-03
 -1     20463 2.45365E-02-2.30222E-02-1.41517E-03 2.45548E-01-5.57702E-04 8.53527E-05
 -1     20464 2.04561E-02-2.04173E-02 5.63254E-05 2.34979E-01-4.34762E-04-1.13929E-04
 -1     20465 2.17788E-02-2.06524E-02-1.03622E-03 2.23396E-01-1.78708E-04-1.57149E-04
 -1     20466 1.91791E-02-1.93803E-02 2.84945E-04 2.08863E-01-1.95850E-04-3.15467E-04
 -1     20467 1.82222E-02-1.85215E-02 3.77326E-04 1.94363E-01 4.63839E-04-3.32428E-04
 -1     20468 1.60082E-02-1.70382E-02 1.10068E-03 1.78696E-01-1.47552E-04-3.76222E-04
 -1     20469 1.60568E-02-1.46598E-02-1.33078E-03 1.62353E-01-8.11395E-04 1.81461E-04
 -1     20470 1.39314E-02-1.40284E-02 1.55310E-04 1.47615E-01 3.68676E-04-1.47638E-03
 -1     20471 1.27504E-02-1.13684E-02-1.32753E-03 1.32445E-01-2.39166E-04-9.31730E-04
 -1     20472 1.12991E-02-1.20285E-02 7.81084E-04 1.22300E-01 1.21155E-04 2.23474E-04
 -1     20473 9.21111E-03-7.78048E-03-1.38530E-03 1.13157E-01-2.09553E-04 2.44289E-06
 -1     20474 9.04690E-03-1.00634E-02 1.05886E-03 1.09788E-01 4.37662E-04-1.11578E-03
 -1     20475 9.44291E-03-1.09776E-02 1.57757E-03 1.09341E-01 1.85964E-04-9.69918E-04
 -1     20476 9.04126E-03-7.96282E-03-1.03471E-03 1.11104E-01-5.92716E-04 6.15552E-06
 -1     20477 7.95740E-03-8.35485E-03 4.44812E-04 1.16790E-01 1.10739E-03 1.01175E-04
 -1     20478 1.04364E-02-9.94048E-03-4.47213E-04 1.21546E-01-1.86156E-04 7.46300E-04
 -1     20479-1.33492E-01 1.45782E-01-1.22015E-02 1.49483E-01-4.38460E-03-1.18418E-03
 -1     20480-1.59414E-01 1.60149E-01-6.81761E-04 1.44820E-01 6.57977E-03-1.09241E-03
 -1     20481-1.56544E-01 1.56444E-01 1.65617E-04 1.35770E-01 9.83930E-03 2.68004E-03
 -1     20482-1.45890E-01 1.47755E-01-1.80338E-03 1.37467E-01 5.33343E-03 1.21531E-03
 -1     20483-1.20696E-01 1.28259E-01-7.52331E-03 1.38621E-01 1.54969E-03 4.96992E-03
 -1     20484-1.06284E-01 1.07539E-01-1.20954E-03 1.44858E-01 1.29929E-03-3.87147E-03
 -1     20485-7.95622E-02 7.55186E-02 4.07364E-03 1.47957E-01-4.61951E-03-6.37662E-04
 -1     20486-1.40911E-01 1.28103E-01 1.28621E-02 1.42761E-01-7.63897E-03 1.16887E-02
 -1     20487-1.47696E-01 1.56111E-01-8.34731E-03 1.43128E-01 6.12865E-03-5.39139E-03
 -1     20488-1.48084E-01 1.57416E-01-9.26293E-03 1.35936E-01-9.05518E-04 8.46328E-04
 -1     20489-1.49261E-01 1.48156E-01 1.16896E-03 1.38850E-01-3.25330E-05-2.65752E-03
 -1     20490-1.25782E-01 1.29098E-01-3.26145E-03 1.44611E-01 2.60838E-03-3.11872E-04
 -1     20491-1.07652E-01 1.06006E-01 1.69180E-03 1.46336E-01 1.26714E-03-1.91889E-03
 -1     20492-8.04644E-02 8.00292E-02 4.60842E-04 1.49656E-01 2.16293E-03 2.35018E-03
 -1     20493-1.75486E-01 1.74128E-01 1.32454E-03-2.21545E-01-1.70869E-02 1.89101E-02
 -1     20494-2.02102E-01 2.16827E-01-1.48303E-02-1.61903E-01-4.23315E-03-1.54690E-02
 -1     20495-1.98983E-01 2.07999E-01-9.11759E-03-1.53935E-01-1.23621E-03-1.83320E-03
 -1     20496-1.95341E-01 1.96594E-01-1.35388E-03-1.47035E-01 2.33144E-03 1.00823E-03
 -1     20497-1.88361E-01 1.89484E-01-1.21764E-03-1.41842E-01 3.06606E-04-1.25831E-04
 -1     20498-1.87852E-01 1.88299E-01-5.41185E-04-1.42433E-01 7.41271E-05-2.88187E-05
 -1     20499-1.84312E-01 1.84616E-01-3.97629E-04-1.39483E-01 5.75406E-04-1.83909E-04
 -1     20500-1.83223E-01 1.83181E-01-4.87598E-05-1.38311E-01-1.85378E-04 1.82310E-04
 -1     20501-1.82026E-01 1.81638E-01 2.96742E-04-1.37084E-01 2.45308E-04 2.55693E-04
 -1     20502-1.80122E-01 1.80026E-01 6.43932E-06-1.35861E-01-2.90554E-04 1.05549E-04
 -1     20503-1.78200E-01 1.78301E-01-1.89806E-04-1.34605E-01-2.10799E-04-8.78364E-05
 -1     20504-1.76136E-01 1.76164E-01-1.16820E-04-1.32607E-01 1.06436E-04 9.45493E-05
 -1     20505-1.73575E-01 1.72872E-01 6.16882E-04-1.31338E-01 1.94294E-04-8.23710E-04
 -1     20506-1.69721E-01 1.69490E-01 1.45149E-04-1.27745E-01-6.08081E-04-7.83487E-05
 -1     20507-1.66087E-01 1.66735E-01-7.31158E-04-1.25516E-01-1.42718E-04 7.38827E-06
 -1     20508-1.58691E-01 1.60261E-01-1.65105E-03-1.19306E-01-2.03285E-04-1.08078E-04
 -1     20509-1.54041E-01 1.53835E-01 1.29284E-04-1.15821E-01-8.79492E-05 6.31789E-04
 -1     20510-1.44079E-01 1.44651E-01-6.50855E-04-1.07497E-01 8.03781E-04-2.57417E-04
 -1     20511-1.33774E-01 1.34802E-01-1.09685E-03-1.00841E-01 1.07103E-03 1.21578E-03
 -1     20512-1.23346E-01 1.23216E-01 6.96700E-05-9.35783E-02 1.01795E-03 1.03924E-03
 -1     20513-1.09934E-01 1.09435E-01 4.42557E-04-8.48283E-02 1.77913E-03 1.76823E-03
 -1     20514-1.03370E-01 1.00004E-01 3.31124E-03-8.54830E-02 3.72191E-03 8.02320E-04
 -1     20515-8.74358E-02 8.77777E-02-3.93718E-04-7.35970E-02 5.36366E-04 1.67035E-03
 -1     20516-9.11276E-02 8.68356E-02 4.24103E-03-8.10133E-02 1.45996E-03 5.71005E-03
 -1     20517-5.37743E-02 4.80245E-02 5.67477E-03-6.28847E-02-7.59142E-03 1.58778E-02
 -1     20518-2.64758E-01 3.03272E-01-3.86795E-02-2.35634E-01-1.37513E-02-5.43996E-02
 -1     20519-2.22722E-01 2.26198E-01-3.56499E-03-1.65408E-01-1.93387E-02-1.05838E-02
 -1     20520-1.86366E-01 1.94275E-01-7.99496E-03-1.58128E-01 3.55472E-03-1.03868E-03
 -1     20521-1.91156E-01 1.90053E-01 1.01101E-03-1.52575E-01 9.21049E-04 6.36260E-03
 -1     20522-1.87988E-01 1.91736E-01-3.83801E-03-1.40414E-01 2.85819E-03-2.25290E-03
 -1     20523-1.86307E-01 1.86817E-01-6.03162E-04-1.42235E-01 9.82033E-04 3.38787E-04
 -1     20524-1.85152E-01 1.84288E-01 7.72852E-04-1.39345E-01 5.73560E-04 1.02360E-04
 -1     20525-1.83079E-01 1.82428E-01 5.60486E-04-1.38239E-01 6.17634E-04 7.66676E-05
 -1     20526-1.82234E-01 1.82072E-01 7.13130E-05-1.37114E-01-7.54866E-05-4.19292E-06
 -1     20527-1.80183E-01 1.79749E-01 3.43846E-04-1.35497E-01-1.87025E-04-2.88411E-04
 -1     20528-1.78182E-01 1.77833E-01 2.59494E-04-1.35036E-01-4.40041E-05-2.47560E-04
 -1     20529-1.76679E-01 1.76253E-01 3.38240E-04-1.32904E-01-2.88479E-04-1.58311E-04
 -1     20530-1.73391E-01 1.73487E-01-1.83181E-04-1.30452E-01 2.90907E-04 1.77241E-04
 -1     20531-1.70552E-01 1.70669E-01-2.02687E-04-1.27947E-01 2.00061E-04 2.23295E-04
 -1     20532-1.66496E-01 1.65356E-01 1.05747E-03-1.24467E-01 1.37567E-04 3.21339E-04
 -1     20533-1.59426E-01 1.59586E-01-2.40274E-04-1.20163E-01 1.88423E-04 1.38896E-04
 -1     20534-1.52947E-01 1.52133E-01 7.35872E-04-1.14574E-01 4.22182E-05-5.31781E-04
 -1     20535-1.44252E-01 1.43214E-01 9.67117E-04-1.10642E-01-3.84194E-04-9.59172E-04
 -1     20536-1.36719E-01 1.37591E-01-9.41326E-04-1.01294E-01 4.80254E-05-2.20159E-03
 -1     20537-1.20770E-01 1.20427E-01 2.79961E-04-9.06783E-02-6.81366E-04-1.03271E-03
 -1     20538-1.11984E-01 1.12934E-01-1.00428E-03-8.31501E-02-6.09732E-04 2.55827E-03
 -1     20539-1.05231E-01 1.07113E-01-1.93936E-03-8.48067E-02 2.46785E-03 2.86692E-03
 -1     20540-9.64359E-02 9.44224E-02 1.96003E-03-7.61631E-02-4.17547E-03 5.46929E-03
 -1     20541-7.67120E-02 7.47547E-02 1.91738E-03-7.34539E-02 1.44836E-03 3.76113E-03
 -1     20542-6.44610E-02 7.02787E-02-5.87021E-03-5.95058E-02 2.35526E-03-3.43195E-03
 -1     20543 2.80876E-04 4.93871E-05-2.81925E-04 1.24184E-01 3.04908E-05-3.31051E-04
 -1     20544 8.31956E-05-7.03215E-06-3.40388E-05 1.21913E-01-3.55498E-04-2.58295E-05
 -1     20545-2.03165E-04-3.06081E-04 5.63582E-04 1.20950E-01 3.62389E-04 5.49981E-04
 -1     20546 6.79263E-04-9.85268E-05-5.50256E-04 1.19034E-01-1.66911E-04-5.99418E-04
 -1     20547-2.82695E-05 1.02214E-05 9.28174E-05 1.15782E-01-6.51115E-04-5.34739E-05
 -1     20548-2.29718E-04 1.52705E-04 1.32108E-04 1.11377E-01 7.97277E-04 1.88392E-04
 -1     20549 2.63482E-04 2.72431E-05-2.40346E-04 1.00158E-01-1.08458E-04-2.35936E-04
 -1     20550 8.09094E-04-4.10944E-04-3.30591E-04 8.49820E-02 1.09043E-04-4.00931E-04
 -1     20551 4.53784E-04-7.31129E-05-3.11354E-04 6.80621E-02-6.19781E-04-3.36701E-04
 -1     20552 2.18655E-03-1.35226E-03-7.66339E-04 5.16582E-02-1.79057E-04-1.76951E-03
 -1     20553 1.35753E-03-5.87915E-05-1.24372E-03 3.17734E-02 1.23870E-03-1.30247E-03
 -1     20554-8.76646E-04 1.02987E-04 8.51018E-04 1.46386E-02 5.63860E-04 8.65881E-04
 -1     20555 1.05317E-03-6.50828E-05-9.58981E-04-1.81291E-03 2.55664E-05-9.26567E-04
 -1     20556-2.33884E-04-5.26787E-04 7.83752E-04-1.91124E-02-3.68277E-04 6.47133E-04
 -1     20557 7.65777E-04 3.80066E-04-1.15274E-03-3.45667E-02 3.31731E-06-1.07290E-03
 -1     20558 9.59948E-04-2.79149E-04-7.09964E-04-4.45315E-02-1.47006E-03-5.14566E-04
 -1     20559-3.27275E-03 1.98673E-04 3.10937E-03-4.61101E-02 3.81525E-03 3.09534E-03
 -1     20560-2.54870E-04 2.25191E-03-2.07656E-03-4.40329E-02 2.87724E-03-1.48367E-03
 -1     20561 4.39713E-03-9.36467E-04-3.58434E-03-3.50526E-02-3.20565E-03-4.11762E-03
 -1     20562-1.79365E-03-1.57473E-03 3.13503E-03-1.60993E-02-3.36895E-03 2.06078E-03
 -1     20563 1.52939E-02-1.69446E-02 1.38438E-03 5.15697E-02-3.53893E-03 1.39391E-03
 -1     20564 3.08378E-04-2.79625E-05-2.28767E-04 1.24740E-01-4.17500E-05 1.59337E-04
 -1     20565-1.93448E-04 7.21599E-06 2.31639E-04 1.21298E-01-1.81221E-04-2.50065E-04
 -1     20566-1.21170E-04 1.36745E-05 1.51685E-04 1.21653E-01-5.95039E-04-1.85966E-04
 -1     20567 1.82500E-04 2.09875E-04-3.54533E-04 1.20240E-01-7.59785E-04 3.15514E-04
 -1     20568-1.65585E-04 1.90407E-04 2.54905E-05 1.17318E-01-3.43644E-05-7.70795E-05
 -1     20569 1.36426E-03 2.28930E-04-1.55671E-03 1.10785E-01 1.09868E-04 1.44701E-03
 -1     20570 1.61443E-03-2.53105E-05-1.51982E-03 1.01019E-01 3.87327E-04 1.56807E-03
 -1     20571 1.65894E-03-1.67730E-03 8.65367E-05 8.62951E-02 4.70480E-04-1.01864E-04
 -1     20572 1.10646E-03-6.53787E-04-3.76559E-04 6.82893E-02 6.77450E-04 4.37758E-04
 -1     20573 2.20350E-04-4.88864E-04 3.50317E-04 5.20348E-02 1.48454E-03-1.01714E-04
 -1     20574 2.03757E-03-1.43294E-04-1.84289E-03 3.44203E-02 7.27681E-04 2.03906E-03
 -1     20575 4.56987E-04-7.31991E-04 3.21965E-04 1.70465E-02-1.42011E-04 2.01147E-04
 -1     20576 1.89346E-03-6.33050E-05-1.77255E-03-3.78511E-04 5.26983E-05 1.82561E-03
 -1     20577 1.02574E-03-9.81094E-04-3.21548E-05-1.87629E-02 8.07395E-04 8.68983E-04
 -1     20578 3.66281E-04-1.01971E-04-2.37785E-04-3.57293E-02 5.36994E-04 3.20894E-04
 -1     20579-3.04776E-04-7.24266E-05 3.75283E-04-4.45325E-02-8.07811E-06-4.51229E-04
 -1     20580-3.31741E-04 5.85496E-04-3.00695E-04-4.90836E-02 1.04543E-03-3.37184E-05
 -1     20581 3.17200E-03 3.49981E-04-3.46181E-03-5.15535E-02 7.45446E-04 3.71650E-03
 -1     20582 6.06610E-04 4.35194E-04-1.19901E-03-3.98336E-02 9.44658E-04 1.42033E-03
 -1     20583-2.29384E-03 5.49867E-04 1.63501E-03-8.30701E-03 5.27078E-03-1.65889E-03
 -1     20584-6.64800E-03 1.11393E-02-4.62151E-03 7.51806E-02-1.20782E-03 5.63583E-04
 -1     20585-7.47091E-02 7.84006E-02-3.64824E-03 1.53543E-01-1.21309E-04-2.34292E-03
 -1     20586-2.40878E-02 2.38479E-02 3.13071E-04 1.84038E-01-1.70705E-05 1.03627E-03
 -1     20587-1.03231E-03 4.56768E-04 6.56517E-04 2.06977E-01 5.23109E-04-4.56335E-04
 -1     20588 8.89668E-03-8.20582E-03-6.00380E-04 2.22394E-01-1.76480E-04-2.37533E-05
 -1     20589 1.50845E-02-1.50042E-02 1.12107E-05 2.30618E-01 8.16849E-05 1.48311E-05
 -1     20590 1.90349E-02-1.91545E-02 2.14242E-04 2.35235E-01-1.79248E-04-2.95622E-04
 -1     20591 2.32035E-02-2.27080E-02-4.01057E-04 2.35941E-01 2.28954E-05-1.73105E-04
 -1     20592 2.78808E-02-2.74831E-02-3.04066E-04 2.30864E-01-3.75756E-04 5.91468E-04
 -1     20593 3.28073E-02-3.29150E-02 1.98218E-04 2.21205E-01-2.33687E-04 2.64832E-04
 -1     20594 3.80680E-02-3.78812E-02-1.03877E-04 2.05452E-01-2.36237E-04 8.86908E-05
 -1     20595 4.01419E-02-3.94351E-02-6.33019E-04 1.83346E-01-3.17924E-04-5.81232E-05
 -1     20596 3.87110E-02-3.76465E-02-1.00149E-03 1.58390E-01 3.09847E-04 7.41774E-06
 -1     20597 3.15594E-02-3.19236E-02 4.18464E-04 1.37706E-01-4.39180E-04 4.96177E-05
 -1     20598 2.27605E-02-2.26015E-02-1.11040E-04 1.19420E-01-4.95742E-04-4.21015E-05
 -1     20599 1.14821E-02-1.14999E-02 6.46327E-05 1.13435E-01-6.71703E-04-1.59713E-04
 -1     20600 1.85829E-03-2.01574E-03 2.05153E-04 1.18160E-01 2.97284E-04-7.39346E-05
 -1     20601 4.05833E-03-5.07260E-03 1.06852E-03 1.14585E-01-3.96358E-04 2.46168E-04
 -1     20602 1.44541E-02-1.49370E-02 5.36938E-04 1.02907E-01-1.14684E-03-2.84938E-05
 -1     20603 2.22083E-02-2.35969E-02 1.44979E-03 8.27475E-02 4.34698E-04 3.09327E-04
 -1     20604 2.77594E-02-2.98885E-02 2.19118E-03 5.73066E-02 2.77917E-04-2.36921E-03
 -1     20605 2.57892E-02-2.44421E-02-1.30609E-03 2.57614E-02 5.13271E-04-1.01541E-04
 -1     20606 2.32415E-02-2.31794E-02-5.94046E-05 2.86502E-03-8.09961E-04-5.66772E-04
 -1     20607 9.91473E-03-1.02805E-02 3.58554E-04-1.63712E-02-1.49877E-03 4.05476E-05
 -1     20608-2.63259E-02 2.57454E-02 5.10916E-04-1.01652E-02-3.37139E-03-1.82084E-03
 -1     20609-8.74062E-02 9.94971E-02-1.21263E-02 3.84126E-02-1.30521E-03 1.01518E-03
 -1     20610-2.54921E-01 2.55707E-01-1.11894E-03 6.78073E-02 2.93230E-03-1.83175E-02
 -1     20611-2.13272E-01 2.04884E-01 8.29541E-03-1.16278E-01 3.86570E-03 6.71245E-03
 -1     20612-1.80421E-01 1.79123E-01 1.20705E-03-1.22255E-01 2.87832E-04 7.95276E-04
 -1     20613-1.68420E-01 1.68002E-01 3.35676E-04-1.17412E-01 4.73837E-04-3.05554E-04
 -1     20614-1.61259E-01 1.61219E-01-3.85685E-05-1.15579E-01 5.38568E-05 1.07168E-05
 -1     20615-1.56760E-01 1.56588E-01 9.42201E-05-1.11444E-01-2.03750E-04 1.51685E-05
 -1     20616-1.51320E-01 1.51474E-01-2.27821E-04-1.04744E-01-4.22623E-04-3.84965E-05
 -1     20617-1.45251E-01 1.44896E-01 2.86039E-04-9.59515E-02 3.44973E-04 4.95262E-04
 -1     20618-1.35035E-01 1.34387E-01 5.85993E-04-8.23336E-02-7.24906E-04 6.43170E-05
 -1     20619-1.20577E-01 1.20791E-01-2.68817E-04-6.73594E-02 6.28197E-04-4.26464E-04
 -1     20620-9.84445E-02 9.97525E-02-1.35039E-03-4.28489E-02-3.47041E-04-4.95896E-04
 -1     20621-7.10125E-02 7.29004E-02-1.90440E-03-1.23896E-02 4.97681E-04-7.41220E-04
 -1     20622-4.74290E-02 5.07756E-02-3.32171E-03 6.69801E-02-9.01024E-04-5.59101E-03
 -1     20623-9.82449E-02 9.68734E-02 1.41056E-03 1.30518E-01-8.76029E-04 6.28241E-04
 -1     20624-1.04765E-01 1.06741E-01-1.93118E-03 1.60516E-01 4.89326E-04-2.01626E-03
 -1     20625-4.01958E-02 4.14213E-02-1.16225E-03 1.60970E-01-1.23561E-04-8.58912E-04
 -1     20626-1.19894E-02 9.83280E-03 2.24027E-03 1.94118E-01-1.91321E-03-5.38956E-04
 -1     20627 4.87753E-03-5.76988E-03 9.74212E-04 2.14242E-01 1.30168E-03 1.04028E-03
 -1     20628 1.14386E-02-1.14540E-02 1.06085E-04 2.26222E-01 1.59121E-05 1.20386E-04
 -1     20629 1.59508E-02-1.62844E-02 4.28489E-04 2.32697E-01-1.01861E-03-5.16320E-04
 -1     20630 2.04114E-02-2.05139E-02 1.95996E-04 2.35665E-01 4.27278E-04-1.77788E-04
 -1     20631 2.56870E-02-2.50203E-02-5.73346E-04 2.33452E-01 1.50842E-04-5.89781E-04
 -1     20632 2.92822E-02-2.84632E-02-7.27346E-04 2.27246E-01-2.91890E-04-1.66288E-04
 -1     20633 3.39671E-02-3.40876E-02 2.06263E-04 2.13713E-01-7.31410E-04-3.81053E-04
 -1     20634 3.89049E-02-3.86130E-02-2.14231E-04 1.94538E-01-4.49563E-04-5.36676E-04
 -1     20635 3.90812E-02-3.95956E-02 5.83515E-04 1.71580E-01-5.59985E-04 1.92405E-04
 -1     20636 3.59342E-02-3.59402E-02 6.72259E-05 1.48317E-01-9.06191E-04 6.41380E-05
 -1     20637 2.79226E-02-2.74786E-02-3.91640E-04 1.27518E-01-2.56273E-04-8.51256E-04
 -1     20638 1.68365E-02-1.58063E-02-9.81851E-04 1.16057E-01 2.75670E-04 2.86731E-04
 -1     20639 6.22946E-03-6.14386E-03-3.87396E-05 1.15616E-01-2.90648E-04 2.72774E-04
 -1     20640 3.28114E-03-3.07808E-03-1.54347E-04 1.19846E-01 1.70463E-04 1.26543E-04
 -1     20641 3.26113E-03-2.82030E-03-3.90595E-04 1.17983E-01 2.21371E-04 5.08396E-04
 -1     20642 1.18110E-02-1.23408E-02 5.82438E-04 1.10500E-01-6.39096E-04-6.65593E-05
 -1     20643 2.01769E-02-2.03934E-02 2.78322E-04 9.30140E-02-1.29077E-03-7.36397E-04
 -1     20644 2.51177E-02-2.51937E-02 1.36306E-04 7.05827E-02 3.45521E-04-1.17299E-03
 -1     20645 2.87171E-02-2.86141E-02-5.55567E-05 4.14575E-02 6.75469E-04-5.78285E-04
 -1     20646 2.32513E-02-2.41512E-02 9.40658E-04 1.36009E-02-2.42669E-03 1.07895E-03
 -1     20647 1.46774E-02-1.51227E-02 4.40427E-04-9.74370E-03-2.69058E-03 3.14806E-05
 -1     20648 9.10164E-04-8.14395E-04-1.41318E-04-1.77176E-02 4.07335E-03 2.99144E-03
 -1     20649-4.67129E-02 3.73045E-02 9.39246E-03 4.29858E-03 4.73776E-03-2.49701E-03
 -1     20650-1.72404E-01 1.73075E-01-7.56079E-04-1.19477E-01 1.22787E-04 4.74511E-04
 -1     20651-2.52781E-01 2.42908E-01 9.77996E-03-1.35875E-01-1.21711E-02 3.40726E-04
 -1     20652-1.88286E-01 1.89101E-01-9.09645E-04-1.21304E-01 6.82217E-03 1.41640E-03
 -1     20653-1.64732E-01 1.64454E-01 1.98519E-04-1.17149E-01 1.36552E-04-6.29249E-05
 -1     20654-1.58218E-01 1.58329E-01-1.89066E-04-1.13457E-01-4.39907E-04-8.95083E-05
 -1     20655-1.53637E-01 1.53513E-01 4.87725E-05-1.08699E-01 1.80286E-04-3.86057E-04
 -1     20656-1.49173E-01 1.48604E-01 4.97888E-04-9.99180E-02-3.14266E-04 2.04286E-04
 -1     20657-1.40370E-01 1.40080E-01 2.24585E-04-8.83538E-02 5.13722E-05 1.74583E-04
 -1     20658-1.29903E-01 1.29120E-01 7.21646E-04-7.43536E-02-1.58646E-04 1.77697E-04
 -1     20659-1.11050E-01 1.13181E-01-2.17789E-03-5.42631E-02 1.29804E-03 7.11747E-04
 -1     20660-8.52716E-02 8.69140E-02-1.67800E-03-3.04537E-02-1.47081E-04-1.10349E-03
 -1     20661-6.24874E-02 6.02853E-02 2.18801E-03 6.63616E-03-1.52661E-03 2.34998E-03
 -1     20662-8.05336E-02 8.77475E-02-7.20095E-03 9.99764E-02-7.84627E-04-2.97040E-03
 -1     20663-1.06606E-01 1.03191E-01 3.46045E-03 1.52235E-01-3.83681E-04 2.49093E-03
 -1     20664-9.86620E-02 9.62005E-02 2.49986E-03 1.70319E-01-2.86470E-03 3.08037E-03
 -1     20665-1.57202E-02 1.65695E-02-7.82734E-04 1.76440E-01 6.28275E-04-6.94620E-04
 -1     20666-3.22283E-03 2.96277E-03 3.31309E-04 1.89486E-01-2.51433E-04-1.32333E-04
 -1     20667-8.69261E-02 8.65006E-02 4.69397E-04 1.62823E-01-5.74293E-04 2.34971E-04
 -1     20668 6.75663E-03-7.26609E-03 5.87142E-04 1.96760E-01-6.38948E-04 2.65599E-04
 -1     20669-8.34836E-03 8.18708E-03 2.30896E-04 1.84070E-01-2.59267E-05 3.35920E-04
 -1     20670 1.45255E-02-1.49046E-02 4.57585E-04 2.01910E-01 1.13138E-04-2.12380E-04
 -1     20671 2.22348E-02-2.22780E-02 1.25298E-04 2.03237E-01 6.73449E-05-2.59972E-04
 -1     20672 3.18252E-02-3.16343E-02-1.13172E-04 2.00736E-01-1.44240E-04 4.74908E-04
 -1     20673 4.20518E-02-4.23506E-02 3.72924E-04 1.93375E-01-5.33096E-04 2.82370E-04
 -1     20674 5.05388E-02-5.09697E-02 5.01100E-04 1.79816E-01-3.32698E-04 5.27796E-04
 -1     20675 5.63549E-02-5.62405E-02-4.83746E-05 1.61007E-01-1.58019E-04 3.97452E-04
 -1     20676 5.50596E-02-5.58944E-02 8.94576E-04 1.43926E-01-5.09026E-04 3.87740E-04
 -1     20677 4.51070E-02-4.47959E-02-2.55296E-04 1.28954E-01 2.61833E-04-1.30979E-04
 -1     20678 2.81201E-02-2.79423E-02-1.27797E-04 1.17310E-01-7.96767E-04 1.31300E-04
 -1     20679 1.62238E-02-1.67127E-02 5.42275E-04 1.12830E-01 2.84201E-04 5.63431E-04
 -1     20680 3.12147E-02-3.18557E-02 7.05101E-04 1.00891E-01 4.16480E-04-3.39170E-04
 -1     20681 1.08698E-02-1.02453E-02-5.74275E-04 1.14529E-01 1.80365E-04 1.01667E-04
 -1     20682 5.06234E-02-4.97396E-02-8.49582E-04 5.33354E-02-1.63510E-03-1.09645E-03
 -1     20683 4.44838E-02-4.48609E-02 4.24792E-04 8.23772E-02 1.27443E-03 9.14378E-04
 -1     20684-2.05581E-01 2.04067E-01 1.39554E-03-5.94044E-02 5.43244E-03-3.77111E-03
 -1     20685 4.61116E-02-4.79452E-02 1.87549E-03 6.18754E-02-1.01162E-03-5.79019E-04
 -1     20686 3.89565E-02-3.80597E-02-8.49415E-04 9.15926E-02-6.05001E-04 8.65117E-04
 -1     20687 4.04993E-02-3.98282E-02-6.52178E-04 3.50742E-02-2.72017E-04 5.27481E-04
 -1     20688 1.97413E-02-1.95805E-02-1.70832E-04 2.23993E-02 1.42784E-03 8.58127E-05
 -1     20689-2.24799E-02 2.40894E-02-1.66021E-03 2.09433E-02 6.45254E-04 4.83012E-03
 -1     20690-1.20723E-01 1.17879E-01 2.70707E-03 2.97699E-02 8.55496E-06 3.12306E-03
 -1     20691-1.74415E-01 1.74133E-01 1.96411E-04-9.33925E-02 1.98838E-04-1.80788E-03
 -1     20692-2.26092E-01 2.29946E-01-4.02227E-03 2.30961E-02-1.44131E-03-1.39956E-02
 -1     20693-1.36159E-01 1.35901E-01 1.94097E-04-8.82471E-02-2.64247E-05 2.80833E-04
 -1     20694-1.46992E-01 1.47111E-01-1.91256E-04-9.34712E-02 1.26333E-04 4.51589E-04
 -1     20695-1.31029E-01 1.30876E-01 9.24681E-05-7.97174E-02-2.36199E-04-7.13379E-05
 -1     20696-1.52520E-01 1.52362E-01 8.47190E-05-9.42514E-02 1.08226E-04-1.03547E-04
 -1     20697-1.33159E-01 1.33300E-01-2.04242E-04-8.40269E-02 5.04747E-05 1.23250E-04
 -1     20698-1.25524E-01 1.25632E-01-1.61968E-04-6.81056E-02-1.95130E-04 3.38863E-04
 -1     20699-1.20509E-01 1.20846E-01-3.86670E-04-5.20274E-02-6.83265E-04-5.56811E-04
 -1     20700-1.12622E-01 1.13110E-01-5.28598E-04-3.31228E-02 2.01281E-04 4.43101E-04
 -1     20701-9.01723E-02 9.12786E-02-1.12898E-03-3.06713E-03-1.16600E-03-1.00613E-03
 -1     20702-6.86789E-02 6.84417E-02 2.27152E-04 3.93587E-02 1.00198E-03 3.30284E-04
 -1     20703-6.05138E-02 6.11848E-02-6.68069E-04 7.34647E-02 4.82018E-04-3.07999E-04
 -1     20704-7.65188E-02 7.59465E-02 5.86405E-04 1.18575E-01-8.73980E-04 3.54842E-04
 -1     20705-2.92606E-02 2.90915E-02 2.31274E-04 1.71595E-01 3.25914E-04-3.99551E-04
 -1     20706-9.62614E-02 9.49023E-02 1.39250E-03 1.63323E-01-1.66816E-03 2.34556E-03
 -1     20707 4.42809E-02-4.78328E-02 3.59013E-03 7.34214E-02 2.58851E-04-5.45729E-04
 -1     20708 1.84290E-03-2.62761E-03 8.59613E-04 1.92688E-01 4.25970E-06-3.54378E-05
 -1     20709 9.60442E-03-1.02336E-02 7.07091E-04 1.98881E-01 3.43371E-04-5.83024E-04
 -1     20710-1.38596E-01 1.38674E-01-1.44748E-04-9.03056E-02-1.05465E-04 3.69676E-06
 -1     20711-4.29472E-02 4.32937E-02-2.91504E-04 1.63388E-01-9.58500E-04-5.46385E-04
 -1     20712 4.66336E-02-4.63968E-02-1.63180E-04 1.85969E-01 2.40591E-04-1.21542E-04
 -1     20713 2.72321E-02-2.72914E-02 1.39634E-04 2.03186E-01 1.16189E-04 6.86910E-05
 -1     20714 1.84924E-02-1.84812E-02 6.92285E-05 2.03375E-01-1.05237E-04-3.17763E-04
 -1     20715 3.75812E-02-3.69858E-02-5.18894E-04 1.96506E-01-1.00474E-04-2.00554E-04
 -1     20716 5.44610E-02-5.45316E-02 1.39033E-04 1.71232E-01 2.18169E-04-8.31551E-06
 -1     20717 5.73054E-02-5.70462E-02-1.95564E-04 1.52838E-01 1.36412E-04 4.61389E-04
 -1     20718 5.00845E-02-5.00062E-02-1.97891E-05 1.35349E-01-2.69539E-04-9.76474E-06
 -1     20719 3.69812E-02-3.68070E-02-1.19291E-04 1.21928E-01 2.35859E-05 1.98628E-04
 -1     20720 4.60179E-02-4.48372E-02-1.15681E-03 4.36495E-02-7.52313E-04 1.60186E-03
 -1     20721 1.98836E-02-1.95477E-02-2.85538E-04 1.15043E-01-4.82666E-04 1.75499E-04
 -1     20722 2.41262E-02-2.35861E-02-4.84646E-04 1.07438E-01-1.57505E-04 3.64580E-04
 -1     20723 3.11045E-02-3.10635E-02-5.03000E-05 2.58225E-02 6.25203E-04-7.95180E-04
 -1     20724-1.91725E-01 1.92969E-01-1.32503E-03-8.60491E-02 1.26178E-03-9.70187E-04
 -1     20725 1.12515E-03 6.34651E-04-1.78747E-03 2.32675E-02 9.58687E-04-1.02758E-03
 -1     20726-4.73359E-02 4.61158E-02 1.14175E-03 2.40863E-02-9.85239E-05 5.57465E-04
 -1     20727-1.61498E-01 1.61790E-01-3.66611E-04-9.30512E-02-4.82909E-04 3.09465E-05
 -1     20728-1.41939E-01 1.42250E-01-3.79106E-04-9.28540E-02 1.71608E-04 1.41736E-04
 -1     20729-1.23165E-01 1.22637E-01 4.74428E-04-6.01696E-02 1.77400E-04-5.46214E-04
 -1     20730-1.28081E-01 1.28529E-01-5.06087E-04-7.46436E-02-1.99962E-04-2.76996E-05
 -1     20731-1.15760E-01 1.16567E-01-8.51389E-04-4.23941E-02-1.49668E-04 1.05158E-04
 -1     20732-1.03721E-01 1.03200E-01 4.87274E-04-2.14009E-02 1.89006E-03-4.02023E-04
 -1     20733-8.31079E-02 8.41856E-02-1.09471E-03 1.42630E-02-1.12448E-04-1.17339E-03
 -1     20734-9.15975E-02 9.00651E-02 1.54143E-03 1.49085E-01 4.11321E-04 4.72980E-04
 -1     20735-6.63103E-02 6.66516E-02-2.89661E-04 1.57194E-01-7.01074E-04-9.00920E-05
 -1     20736 1.13318E-02-1.12822E-02 1.64743E-05 1.71483E-01-1.18456E-04-1.56128E-04
 -1     20737 6.49387E-02-6.47833E-02-9.83716E-05 1.36433E-01-3.79765E-04 3.15671E-04
 -1     20738 2.87551E-02-2.88565E-02 1.68151E-04 1.75498E-01-4.69354E-04 4.85109E-05
 -1     20739 6.57936E-02-6.58543E-02 1.20904E-04 1.51717E-01 6.91430E-05 2.22594E-04
 -1     20740 5.56765E-02-5.47715E-02-8.39537E-04 1.66062E-01-8.68154E-05-2.43773E-04
 -1     20741 5.73597E-02-5.76532E-02 3.47135E-04 1.22457E-01 1.94662E-04-7.24289E-04
 -1     20742 4.19451E-02-4.20222E-02 1.43778E-04 1.73798E-01-1.84970E-04-2.80427E-04
 -1     20743 6.56286E-02-6.56124E-02 4.26250E-05 1.45109E-01-2.80717E-05-5.20883E-06
 -1     20744 6.31364E-02-6.25055E-02-5.77525E-04 1.30127E-01-1.04255E-04 2.51671E-04
 -1     20745 3.49261E-02-3.48476E-02-2.64591E-05 1.08375E-01-2.43092E-04 3.00677E-04
 -1     20746 5.98344E-02-6.09236E-02 1.12164E-03 6.36151E-02-1.47560E-03 1.33852E-04
 -1     20747-9.46822E-02 9.67808E-02-2.16525E-03 2.29806E-02-1.30547E-03-3.35869E-03
 -1     20748 6.08759E-02-6.12292E-02 4.15628E-04 1.57279E-01 1.74807E-04 5.16711E-04
 -1     20749-1.84798E-02 1.82037E-02 2.39262E-04 3.57154E-02-3.00895E-04 1.05299E-03
 -1     20750 2.89370E-02-2.86475E-02-2.35176E-04 1.13268E-01-1.60322E-04 6.73729E-04
 -1     20751 4.26163E-02-4.28076E-02 2.01304E-04 5.02785E-02-7.65833E-04 4.88987E-05
 -1     20752-5.31749E-02 5.26153E-02 5.04212E-04 3.48575E-02-1.42489E-03 5.54833E-04
 -1     20753 6.18092E-02-6.15416E-02-2.20514E-04 7.34712E-02-7.88896E-05 8.23550E-04
 -1     20754-1.02385E-01 1.01481E-01 8.71508E-04-1.45716E-02 7.46240E-05 4.36612E-04
 -1     20755-1.63456E-01 1.60293E-01 3.08381E-03-3.11606E-02-3.02958E-03-3.29368E-03
 -1     20756-1.08332E-01 1.08218E-01 7.13166E-05-4.33935E-02 3.35360E-04 2.10738E-04
 -1     20757 3.48609E-02-3.52235E-02 4.29542E-04 1.74117E-01-6.58611E-05-7.80134E-04
 -1     20758-1.49681E-01 1.58038E-01-8.44303E-03-1.05652E-02-2.03256E-03-2.62515E-03
 -1     20759-1.24788E-01 1.24887E-01-1.55622E-04-6.85804E-02 1.18786E-05 2.60962E-04
 -1     20760-1.17299E-01 1.17173E-01 7.23132E-05-6.45250E-02 1.77115E-04 6.66112E-05
 -1     20761-1.09524E-01 1.09575E-01-9.60630E-05-4.89730E-02 7.92703E-05 1.39105E-04
 -1     20762-1.11411E-01 1.11794E-01-4.31072E-04-5.56774E-02-2.35278E-05 1.21700E-04
 -1     20763-7.87719E-02 7.75824E-02 1.20700E-03 1.19872E-01-1.01967E-03-1.00529E-03
 -1     20764 5.12275E-02-5.13685E-02 1.63507E-04 5.63011E-02-5.89258E-04 5.47443E-04
 -1     20765-1.14297E-01 1.14002E-01 2.44649E-04-6.01812E-02-1.67481E-04 1.14630E-05
 -1     20766-1.04299E-01 1.04213E-01 5.15268E-05-2.56493E-02 1.87832E-04 4.94205E-04
 -1     20767-1.20245E-01 1.20151E-01 3.98919E-05-6.62516E-02-2.45932E-04 2.04051E-04
 -1     20768-3.85067E-02 3.85772E-02-2.05264E-05 1.45885E-01 2.69564E-04-3.62031E-04
 -1     20769 4.81464E-02-4.84893E-02 4.08103E-04 1.68383E-01-3.07053E-04-3.92951E-05
 -1     20770-8.45810E-02 8.54804E-02-8.62162E-04 1.53252E-01-6.30393E-04-4.06338E-04
 -1     20771-1.44725E-01 1.44391E-01 2.66958E-04-5.91638E-02 8.68464E-04-1.13031E-03
 -1     20772 2.34618E-02-2.31555E-02-2.38817E-04 1.75765E-01 1.36707E-04-5.40994E-04
 -1     20773 3.84008E-02-3.80808E-02-2.65918E-04 1.14860E-01-5.21245E-04 1.04629E-04
 -1     20774-5.36753E-02 5.36740E-02 4.51268E-05 1.43423E-01 4.09531E-05-8.95258E-04
 -1     20775-1.28957E-01 1.28898E-01-6.70819E-07-6.72105E-02 2.02630E-04 1.94800E-05
 -1     20776-6.91994E-02 7.03508E-02-1.11128E-03 1.45890E-01-8.47209E-04 4.09398E-05
 -1     20777 7.53854E-03-7.20742E-03-3.50671E-04 3.89954E-02-8.77731E-04 1.40125E-03
 -1     20778-1.37924E-01 1.37758E-01 1.02205E-04-6.57039E-02-2.57190E-04-5.84974E-04
 -1     20779 2.73258E-02-2.71325E-02-1.97376E-04 4.43559E-02-4.80359E-04-9.81982E-06
 -1     20780 5.76950E-03-5.07297E-03-6.33355E-04 1.68788E-01 3.23308E-04-6.56772E-04
 -1     20781 6.02620E-02-5.91452E-02-1.06521E-03 8.93385E-02-4.36796E-04 1.55177E-03
 -1     20782-1.93043E-04 1.15580E-04 1.40608E-04 1.65031E-01-1.89212E-04-2.37658E-04
 -1     20783-2.80157E-02 2.79728E-02 9.81103E-05 1.50870E-01 3.24583E-04-3.09976E-05
 -1     20784-8.66150E-02 8.71364E-02-4.96576E-04 1.40978E-01 6.13699E-05 7.10763E-04
 -1     20785-7.68014E-02 7.58826E-02 9.19112E-04 7.96624E-02 1.50110E-03 3.43253E-05
 -1     20786 1.71915E-02-1.72093E-02 8.46058E-05 1.73089E-01-2.90961E-04 9.23801E-05
 -1     20787 4.58121E-02-4.61647E-02 4.05713E-04 1.02282E-01 6.89575E-04 2.67478E-04
 -1     20788-1.57014E-01 1.54862E-01 2.07061E-03-5.00260E-02 2.15162E-04-3.19020E-03
 -1     20789-9.89536E-02 9.75779E-02 1.34450E-03-5.10061E-03 3.27367E-04 1.22987E-03
 -1     20790-6.02408E-03 6.22692E-03-1.41312E-04 1.61606E-01 1.43423E-04-1.71484E-04
 -1     20791 4.81599E-02-4.83270E-02 2.21597E-04 1.18557E-01-4.56395E-04-7.23173E-04
 -1     20792-1.18091E-02 1.26250E-02-7.57467E-04 1.58599E-01 4.30303E-04-3.89236E-05
 -1     20793 5.38726E-02-5.41566E-02 3.44074E-04 9.54221E-02 3.26867E-04 2.71550E-04
 -1     20794-1.05530E-01 1.05560E-01-6.87593E-05-3.36358E-02 2.49569E-04-1.45543E-04
 -1     20795-9.13762E-02 9.12325E-02 1.26385E-04 2.37711E-02-5.24870E-04 6.38235E-04
 -1     20796-9.64376E-02 9.65729E-02-1.63123E-04 6.03406E-03-4.60132E-04 8.12827E-04
 -1     20797 6.15491E-02-6.05786E-02-9.23053E-04 8.01950E-02 5.06926E-04 1.48969E-03
 -1     20798-8.24526E-02 8.23785E-02 6.34371E-05 5.01180E-02-4.06697E-04 8.05260E-04
 -1     20799-8.05086E-02 8.00793E-02 4.52451E-04 1.27653E-01-6.26866E-04 1.07990E-03
 -1     20800 5.91060E-02-5.79875E-02-1.06435E-03 1.11469E-01-1.33027E-03-6.35252E-04
 -1     20801 4.80863E-02-4.80155E-02-1.53811E-05 1.51116E-01-1.60799E-04-4.22642E-04
 -1     20802-1.23834E-01 1.29883E-01-6.11718E-03-6.05053E-04 4.68552E-04-4.82845E-03
 -1     20803 1.41688E-02-1.42149E-02 1.00192E-04 1.48009E-01 5.57830E-05-1.80606E-04
 -1     20804 6.94266E-02-7.00581E-02 6.66601E-04 8.20932E-02-7.29978E-04 2.96832E-04
 -1     20805-1.92286E-02 1.93626E-02-7.66092E-05 1.54839E-01-2.82419E-04 1.42170E-04
 -1     20806 6.48903E-02-6.61066E-02 1.27269E-03 1.16633E-01 4.70593E-04-1.47326E-03
 -1     20807-8.80972E-02 8.81443E-02-6.31719E-05 2.24419E-02 3.99257E-04 9.34112E-05
 -1     20808-9.10369E-02 9.10360E-02-2.68239E-05-1.89553E-02 4.63110E-04 1.24406E-04
 -1     20809-8.80749E-02 8.75735E-02 4.83133E-04 1.21768E-02-1.59650E-04 1.09017E-04
 -1     20810-9.19600E-02 9.19706E-02-4.27285E-05-2.55212E-02 5.60581E-05 2.90807E-04
 -1     20811 7.73701E-03-7.60495E-03-7.93532E-05 1.44314E-01-2.24472E-04 3.68958E-04
 -1     20812-1.16370E-01 1.16266E-01 4.91035E-05-3.17452E-02 2.46691E-04-6.73374E-04
 -1     20813-8.86794E-02 8.84424E-02 2.14801E-04 2.33225E-04 3.76691E-04 1.34411E-04
 -1     20814-1.22350E-01 1.22532E-01-2.34180E-04-2.47920E-02 1.24266E-03-1.38335E-03
 -1     20815 7.32508E-02-7.27957E-02-4.01769E-04 1.21931E-01-5.04324E-04 4.32509E-04
 -1     20816-5.65604E-02 5.73163E-02-7.23944E-04 1.18605E-01 5.28765E-04-3.90765E-04
 -1     20817-8.99977E-02 8.99092E-02 6.25781E-05-9.44147E-03-3.27364E-05 2.01126E-04
 -1     20818-1.06479E-01 1.06275E-01 1.57247E-04-4.09088E-02 2.26154E-04 1.40265E-04
 -1     20819-6.74457E-02 6.80043E-02-5.32004E-04 1.22043E-01-2.20007E-04 4.73398E-04
 -1     20820-9.71849E-03 9.75338E-03-5.94796E-05 4.92683E-02 1.96618E-04 6.11880E-04
 -1     20821-1.11697E-01 1.11049E-01 5.97893E-04-3.74614E-02 1.57357E-04-5.56979E-04
 -1     20822 4.85419E-02-4.85390E-02 5.09870E-05 1.11670E-01-1.98349E-05-1.77840E-04
 -1     20823-2.81111E-02 2.82845E-02-1.30924E-04 1.25940E-01-3.22691E-05 5.35610E-05
 -1     20824 5.21335E-02-5.22174E-02 1.01063E-04 6.81694E-02-1.29725E-04 4.00545E-04
 -1     20825 3.60046E-04-3.98652E-04 8.98240E-05 1.40860E-01 2.06565E-04-2.75424E-05
 -1     20826-1.02697E-01 1.02421E-01 2.31607E-04-4.09494E-02 1.40380E-05-3.60343E-05
 -1     20827 5.60233E-02-5.57165E-02-2.53681E-04 1.48942E-01 1.65564E-04-5.91880E-04
 -1     20828-8.61426E-02 8.64209E-02-2.93115E-04 4.08543E-02 8.56035E-05 1.22791E-03
 -1     20829 3.87897E-02-3.86466E-02-8.88929E-05 1.52396E-01-1.11211E-05-4.36894E-04
 -1     20830 6.90890E-02-6.87978E-02-2.38410E-04 1.40555E-01-4.58548E-05 2.45430E-05
 -1     20831 7.55042E-02-7.55412E-02 9.10323E-05 1.28353E-01-1.86681E-04 3.50541E-04
 -1     20832 6.92992E-02-6.76180E-02-1.63290E-03 9.41467E-02-3.16891E-04 4.52688E-04
 -1     20833-2.08925E-02 2.11120E-02-1.74881E-04 1.28249E-01 6.20737E-05-5.36393E-06
 -1     20834 2.25083E-02-2.23667E-02-8.67696E-05 1.51217E-01-1.84446E-04-1.20409E-05
 -1     20835 7.39190E-02-7.39217E-02 5.63387E-05 1.34557E-01 1.20575E-04 3.77786E-04
 -1     20836-9.32789E-02 9.34423E-02-1.98417E-04-3.16824E-02 9.21520E-05 2.61419E-04
 -1     20837 6.26849E-02-6.30783E-02 4.21266E-04 7.49092E-02-5.02252E-04 2.20479E-04
 -1     20838 3.62843E-02-3.62702E-02-9.55838E-06 6.12174E-02-4.93803E-04-1.20208E-04
 -1     20839 6.33326E-02-6.30984E-02-1.79585E-04 1.45011E-01 2.92496E-04-3.54728E-04
 -1     20840-3.53079E-02 3.53095E-02 3.90517E-05 1.25029E-01 1.20647E-04-1.94488E-04
 -1     20841-8.09518E-02 7.96742E-02 1.28567E-03 1.00826E-01 7.74766E-04-5.51238E-04
 -1     20842-7.67576E-02 7.87261E-02-2.03028E-03 2.77947E-02 2.10483E-03-4.10370E-04
 -1     20843-4.11238E-02 4.11715E-02-8.69062E-05 4.00536E-02 3.30075E-04 1.15875E-05
 -1     20844-1.29610E-01 1.28648E-01 8.90709E-04-1.56131E-02 3.77516E-03 1.13125E-03
 -1     20845-9.58909E-02 9.57626E-02 8.98871E-05-3.61291E-02 1.58504E-04 2.99661E-04
 -1     20846-8.71397E-02 8.69973E-02 1.29372E-04 3.18705E-02 1.54877E-04 4.99468E-04
 -1     20847 3.06380E-02-3.06398E-02 5.68807E-05 1.51508E-01-7.61961E-05-1.99702E-04
 -1     20848-4.45431E-02 4.49176E-02-3.38409E-04 1.21247E-01 1.98047E-04-6.73748E-05
 -1     20849-9.90769E-02 9.92047E-02-1.68978E-04-4.04193E-02-9.88562E-05 3.46944E-04
 -1     20850-8.23333E-02 8.17567E-02 5.72617E-04 6.75136E-02-7.18822E-04 1.18081E-03
 -1     20851 7.22191E-02-7.18914E-02-2.84084E-04 8.78707E-02-5.17070E-04 5.36862E-04
 -1     20852 1.64230E-02-1.61952E-02-2.37498E-04 5.50582E-02-4.00383E-04 3.81985E-05
 -1     20853-6.84313E-03 6.64715E-03 2.44518E-04 1.36324E-01 1.51430E-04-2.36234E-04
 -1     20854-7.96048E-02 8.02055E-02-5.85845E-04 9.81471E-02 7.63132E-06 8.00160E-04
 -1     20855 2.06133E-02-2.06097E-02 3.95726E-05 1.28963E-01 3.15300E-05-7.63717E-05
 -1     20856-1.36632E-02 1.37742E-02-6.41756E-05 1.32268E-01 1.62052E-04 6.47722E-05
 -1     20857-2.13594E-02 2.15694E-02-1.76508E-04 1.04352E-01 1.40313E-04 2.99935E-04
 -1     20858-9.44124E-02 9.39172E-02 4.51196E-04 6.08326E-03-7.10090E-04 5.16423E-04
 -1     20859 4.94918E-02-4.96204E-02 1.74013E-04 1.33745E-01 2.65276E-04-1.59757E-05
 -1     20860 6.73744E-02-6.64452E-02-8.78673E-04 1.00780E-01-1.19644E-03-7.93695E-04
 -1     20861-1.04861E-01 9.63859E-02 8.41461E-03 1.81832E-02 6.02531E-03-3.09634E-03
 -1     20862-7.41503E-02 7.41428E-02-8.21707E-06 5.35157E-03 2.16939E-04 2.47601E-05
 -1     20863 3.19508E-03-3.33541E-03 1.81145E-04 1.21207E-01-2.43282E-04 1.77163E-04
 -1     20864-7.29982E-02 7.29782E-02 1.47564E-05 3.57700E-02 2.23267E-04 5.63881E-04
 -1     20865-8.71755E-02 8.68191E-02 3.21846E-04-1.30039E-02 4.19052E-04-1.87914E-04
 -1     20866-8.78815E-02 8.80502E-02-2.08741E-04-6.42530E-03 3.08119E-04 4.42403E-04
 -1     20867 7.29144E-02-7.30280E-02 1.60369E-04 1.24294E-01-1.54302E-04-6.74472E-04
 -1     20868 1.17278E-02-1.17759E-02 9.02246E-05 1.25797E-01-5.58932E-05 5.01472E-05
 -1     20869 7.32978E-02-7.28171E-02-4.28122E-04 1.10285E-01-7.46833E-05 1.24594E-04
 -1     20870 7.46992E-02-7.45306E-02-1.22046E-04 1.01551E-01-7.62144E-04 9.13797E-04
 -1     20871-4.43489E-02 4.43893E-02-1.39141E-05 9.54315E-02 1.92851E-04 1.93612E-04
 -1     20872 3.92102E-02-3.93704E-02 2.04873E-04 1.33531E-01 2.59633E-04-1.80623E-04
 -1     20873-2.98139E-02 2.98586E-02-1.43396E-05 9.91167E-02 2.52335E-04 2.03215E-04
 -1     20874 5.99946E-02-6.01108E-02 1.40283E-04 8.40408E-02-1.78626E-04 3.11357E-04
 -1     20875-1.34986E-02 1.35372E-02-3.20484E-06 1.09898E-01-4.04486E-05-4.91826E-04
 -1     20876 7.16446E-02-7.16279E-02 1.67704E-05 9.24047E-02 3.26282E-05 5.33485E-04
 -1     20877-3.23257E-02 3.26061E-02-3.08329E-04 4.71243E-02-3.75864E-04-1.77713E-04
 -1     20878-3.74913E-02 3.74971E-02 2.19031E-05 9.57104E-02 1.34210E-04 2.65629E-04
 -1     20879-7.44196E-02 7.42962E-02 1.03487E-04-1.04471E-03 1.71479E-04 4.42989E-04
 -1     20880 6.73185E-02-6.71848E-02-8.71100E-05 1.28413E-01 1.88699E-04 3.42078E-05
 -1     20881-7.45176E-02 7.45506E-02-4.70334E-05 1.18755E-02-5.88099E-07 1.98688E-04
 -1     20882 5.92617E-02-5.88208E-02-3.95414E-04 1.32148E-01-1.01406E-04-6.45284E-05
 -1     20883-7.67356E-02 7.64560E-02 2.55042E-04-7.51629E-03-2.44070E-04 8.08656E-05
 -1     20884 2.99101E-02-2.99015E-02 3.54274E-05 1.31673E-01 2.54324E-04 4.17068E-05
 -1     20885-8.36524E-02 8.34545E-02 1.64136E-04-1.52381E-02 4.61905E-05-1.57035E-04
 -1     20886-7.89227E-02 7.95514E-02-6.26223E-04 6.71514E-02 1.56524E-04-3.88452E-04
 -1     20887-7.40020E-02 7.42207E-02-2.19910E-04 4.78575E-02 5.83979E-04 8.38431E-05
 -1     20888-7.67954E-02 7.70110E-02-2.14205E-04 5.96042E-02 2.22331E-04 2.75653E-04
 -1     20889 7.61483E-02-7.69523E-02 8.50771E-04 1.14417E-01-1.43324E-04 1.37382E-04
 -1     20890-9.03598E-02 8.90895E-02 1.22796E-03 3.62125E-04 3.37221E-04 1.03886E-04
 -1     20891 7.52084E-02-7.49080E-02-2.55407E-04 1.00762E-01 2.06296E-04-3.45020E-04
 -1     20892-4.91830E-03 4.98478E-03-2.76415E-05 1.15015E-01-2.22467E-04-1.25349E-04
 -1     20893-7.33164E-02 7.33738E-02-6.65723E-05 2.30780E-02 7.16309E-05 2.51869E-04
 -1     20894-7.78354E-02 7.80853E-02-2.75955E-04-1.17584E-02-6.42450E-05-3.35446E-05
 -1     20895-7.05212E-02 7.13322E-02-7.94433E-04 9.21322E-02 2.25751E-04 6.23500E-04
 -1     20896 7.87810E-04-8.28089E-04 2.66799E-05 5.81871E-02-5.24933E-04 3.62840E-04
 -1     20897 4.49200E-02-4.48424E-02-6.50461E-05 7.63586E-02-4.74891E-05 3.37770E-04
 -1     20898-6.24209E-02 6.21411E-02 2.98304E-04 8.70450E-02 3.59634E-04-2.54732E-05
 -1     20899-8.11142E-02 8.09960E-02 8.72464E-05-1.48194E-02 1.39676E-04-2.00717E-04
 -1     20900 6.61392E-02-6.59434E-02-1.64558E-04 9.81791E-02-1.56115E-04 3.08743E-04
 -1     20901 7.25868E-03-7.14221E-03-8.55043E-05 1.05517E-01-6.48329E-05 1.07883E-04
 -1     20902 7.62044E-02-7.62066E-02 5.09012E-05 1.18727E-01-2.70570E-04-6.03596E-04
 -1     20903 2.58128E-02-2.58534E-02 4.09156E-05 6.78054E-02-2.31524E-04 1.49536E-04
 -1     20904-6.43535E-02 6.41524E-02 1.74254E-04 1.45730E-02-8.28309E-06-1.60143E-04
 -1     20905-6.91708E-02 6.83321E-02 8.00103E-04 3.17188E-02 2.56046E-04-8.25514E-04
 -1     20906-5.42477E-02 5.54193E-02-1.20387E-03 3.17287E-02-8.27725E-04-1.35689E-04
 -1     20907 7.49164E-02-7.40520E-02-8.24403E-04 1.07818E-01 2.05682E-04-3.10339E-04
 -1     20908-6.05932E-02 6.05910E-02 1.43972E-05 6.99221E-02 2.10187E-04 1.19690E-04
 -1     20909-6.31647E-02 6.20747E-02 1.05802E-03 2.16883E-02-3.69798E-04 2.42031E-05
 -1     20910-4.98392E-02 4.96246E-02 2.40744E-04 9.93775E-02 3.15075E-04 2.55391E-04
 -1     20911-1.52822E-03 1.27384E-03 2.83270E-04 1.01487E-01 2.24883E-05 2.00896E-04
 -1     20912 3.92918E-02-3.89308E-02-3.25524E-04 1.17489E-01 2.78378E-04-7.05815E-05
 -1     20913-5.70911E-02 5.65393E-02 5.48391E-04 3.07055E-02-3.38979E-04 4.76621E-05
 -1     20914-3.91164E-02 3.90959E-02 3.56341E-05 6.73999E-02-2.01875E-05-5.17217E-05
 -1     20915 1.68026E-02-1.67345E-02-3.59033E-05 1.10126E-01 2.86021E-04 2.07858E-05
 -1     20916-5.59159E-02 5.58815E-02 4.38649E-05 6.15878E-02 3.62890E-05 1.13337E-04
 -1     20917 6.80556E-02-6.78456E-02-1.70241E-04 1.13580E-01-1.13535E-04-1.88245E-05
 -1     20918-5.71345E-02 5.75278E-02-4.01639E-04 2.30338E-02-3.03415E-05 2.67885E-04
 -1     20919-1.10181E-02 1.08013E-02 2.43465E-04 9.39283E-02-1.16330E-04 2.53150E-04
 -1     20920 5.04280E-02-5.06609E-02 2.68640E-04 1.19113E-01-1.96445E-04 1.36451E-04
 -1     20921-1.85642E-02 1.91644E-02-6.15870E-04 5.56411E-02-3.54771E-04-1.51690E-04
 -1     20922-6.01332E-02 5.97483E-02 3.72928E-04 1.58990E-02 1.82569E-05-6.67562E-05
 -1     20923-2.70700E-02 2.73003E-02-2.07828E-04 8.31999E-02-3.23669E-05 1.15074E-04
 -1     20924-5.84503E-02 5.83663E-02 8.35001E-05 3.75208E-02 1.10195E-04-1.80981E-04
 -1     20925 5.25752E-02-5.26986E-02 1.43110E-04 8.96781E-02-1.19470E-04 3.93303E-04
 -1     20926-6.39278E-02 6.40073E-02-1.02483E-04 1.09655E-02 2.51805E-04-2.73824E-04
 -1     20927-3.27125E-02 3.17997E-02 8.94901E-04 4.70068E-02-5.02100E-04 3.29648E-04
 -1     20928 5.92112E-02-5.94080E-02 2.34125E-04 1.17146E-01 8.11637E-05-5.22015E-04
 -1     20929-4.11150E-02 4.18495E-02-7.27354E-04 5.38597E-02-5.29488E-04-1.73425E-04
 -1     20930 2.77077E-02-2.77579E-02 8.29964E-05 1.14414E-01 2.58830E-04 7.53052E-04
 -1     20931-4.57366E-02 4.58143E-02-6.31619E-05 6.77790E-02 1.56814E-04-1.76041E-04
 -1     20932-9.02852E-03 9.15152E-03-1.05075E-04 8.15153E-02 1.96057E-05 3.44799E-04
 -1     20933-6.09760E-02 6.07682E-02 2.08069E-04 4.09682E-02-6.71149E-05 1.26229E-04
 -1     20934-2.29351E-02 2.28649E-02 9.13018E-05 8.03717E-02 2.54982E-04-1.09807E-04
 -1     20935-1.60272E-04 4.01542E-04-2.21434E-04 8.67272E-02 5.68316E-04-4.07614E-04
 -1     20936-4.01418E-02 3.98080E-02 3.18116E-04 3.98453E-02-2.84425E-04 3.45923E-04
 -1     20937 1.14783E-02-1.17681E-02 2.86813E-04 6.97325E-02 2.18113E-04 4.54493E-04
 -1     20938 3.44519E-02-3.44673E-02 2.47892E-05 8.03619E-02 1.03044E-04-5.66599E-05
 -1     20939 3.77089E-02-3.71262E-02-5.57384E-04 1.04958E-01 8.28481E-05 8.31563E-05
 -1     20940-4.07147E-02 4.12943E-02-5.75466E-04 4.54998E-02 4.24987E-05-1.42700E-04
 -1     20941 2.40721E-02-2.41399E-02 9.19356E-05 1.00575E-01 3.53590E-04 1.82942E-04
 -1     20942-1.47920E-02 1.44844E-02 3.26233E-04 7.95124E-02 9.20240E-05 2.28064E-04
 -1     20943-2.69629E-03 2.38643E-03 3.05557E-04 6.64850E-02 1.44325E-05 6.69174E-05
 -1     20944 5.84109E-02-5.81345E-02-2.47406E-04 1.02807E-01 4.51702E-04-3.12784E-04
 -1     20945-6.06940E-02 6.07773E-02-1.00838E-04 1.15364E-02 1.44124E-04-3.25276E-04
 -1     20946-6.25017E-02 6.24525E-02 2.90042E-05 9.81128E-03 2.48023E-05-2.45860E-04
 -1     20947-4.22238E-02 4.30517E-02-8.41907E-04 3.42333E-02 7.55581E-04-7.76162E-05
 -1     20948 1.18658E-02-1.22434E-02 3.97906E-04 9.45619E-02 5.57414E-04-3.23938E-04
 -1     20949 4.82333E-02-4.78915E-02-3.14250E-04 1.05194E-01 3.86610E-05 2.32113E-04
 -1     20950-1.23389E-02 1.23675E-02-3.41991E-05 6.17228E-02 3.89289E-04 4.70467E-04
 -1     20951 2.24408E-02-2.23163E-02-1.17021E-04 8.10331E-02-1.43232E-05-6.91176E-05
 -1     20952 3.20827E-02-3.18926E-02-1.72694E-04 9.31408E-02-7.79590E-05 1.78702E-05
 -1     20953-2.17371E-02 2.19066E-02-1.64691E-04 6.02628E-02 3.99125E-05 1.34912E-04
 -1     20954-2.71811E-02 2.70610E-02 1.25729E-04 5.84919E-02 2.02707E-04-2.01190E-04
 -1     20955-2.70624E-02 2.69982E-02 7.65755E-05 6.49149E-02-8.19240E-07-3.05952E-05
 -1     20956 4.32663E-02-4.31204E-02-1.26665E-04 9.25683E-02 8.37285E-05-7.33593E-05
 -1     20957-7.83470E-03 8.14000E-03-2.98474E-04 7.23811E-02 4.66723E-04-2.20935E-04
 -1     20958-1.91719E-02 1.93755E-02-2.08256E-04 5.62613E-02 3.31225E-04 8.97580E-05
 -1     20959 1.16068E-02-1.15140E-02-8.60222E-05 7.88180E-02 3.27054E-05 1.33132E-04
 -1     20960-4.37338E-02 4.31269E-02 6.02983E-04 3.74151E-02 1.37129E-04 1.07338E-05
 -1     20961 2.28114E-02-2.25137E-02-2.81952E-04 9.11245E-02 4.69820E-05-4.73502E-04
 -1     20962 4.57824E-03-4.77368E-03 2.04678E-04 7.93863E-02 2.83045E-05-1.03162E-05
 -1     20963-4.32461E-02 4.36196E-02-3.83678E-04 3.26938E-02-1.38949E-04 9.84051E-05
 -1     20964-4.30463E-02 4.30832E-02-4.32674E-05 3.47637E-02-8.91249E-05-2.44212E-04
 -1     20965-2.68106E-02 2.71537E-02-3.43732E-04 5.19256E-02 8.13532E-06-4.52204E-06
 -1     20966 1.51985E-03-1.44775E-03-2.53560E-05 1.18611E-01 6.78859E-04-5.25183E-04
 -1     20967 1.09512E-02-1.07291E-02-1.73334E-04 1.14304E-01 7.45550E-05 4.99367E-04
 -1     20968 2.45446E-02-2.47439E-02 2.48150E-04 1.20313E-01-9.41303E-05-3.41991E-04
 -1     20969 3.43701E-02-3.42946E-02-1.86438E-05 1.36463E-01 2.44098E-04-6.89485E-04
 -1     20970 3.94383E-02-3.93867E-02 1.31445E-05 1.58749E-01 3.15268E-04 3.38527E-04
 -1     20971 4.01541E-02-3.94697E-02-6.11083E-04 1.82498E-01 4.45612E-04-8.97197E-05
 -1     20972 3.82931E-02-3.78301E-02-3.79428E-04 2.04718E-01 1.26823E-05-4.15781E-04
 -1     20973 3.37866E-02-3.24568E-02-1.23874E-03 2.20844E-01-4.25743E-04-3.83304E-04
 -1     20974 2.82145E-02-2.75024E-02-6.17502E-04 2.30174E-01 4.40879E-04-5.36264E-04
 -1     20975 2.31754E-02-2.33921E-02 3.10091E-04 2.35192E-01 7.73846E-05 2.36029E-05
 -1     20976 1.99673E-02-1.94960E-02-3.77753E-04 2.35019E-01 1.98479E-04-5.52765E-04
 -1     20977 1.40199E-02-1.46315E-02 7.04286E-04 2.30353E-01-7.50603E-05-8.82636E-05
 -1     20978 8.38879E-03-8.16499E-03-1.33220E-04 2.22194E-01-1.61741E-04 3.52732E-04
 -1     20979-2.41473E-03 3.22946E-03-7.33659E-04 2.06389E-01-6.38244E-05-7.62563E-04
 -1     20980-2.45336E-02 2.52166E-02-6.17867E-04 1.79841E-01 9.24946E-04 5.31031E-04
 -1     20981-8.03576E-02 8.08257E-02-4.30727E-04 1.52831E-01-3.04745E-04-1.25793E-03
 -1     20982-9.70634E-02 9.64246E-02 6.76788E-04 1.69930E-01 8.83343E-04 9.59521E-04
 -1     20983-1.07615E-01 1.06002E-01 1.65536E-03 1.53848E-01-4.67857E-04 4.90592E-05
 -1     20984-8.66151E-02 8.40375E-02 2.61042E-03 1.10408E-01-1.38545E-03-5.12025E-03
 -1     20985-5.64306E-02 5.91944E-02-2.76983E-03 1.39705E-02 1.82040E-03 4.52935E-03
 -1     20986-7.94882E-02 7.84861E-02 9.72907E-04-2.45725E-02 2.00022E-04 1.65748E-03
 -1     20987-1.11049E-01 1.10037E-01 9.61795E-04-5.18283E-02 3.23264E-05 8.44853E-04
 -1     20988-1.29328E-01 1.29159E-01 1.15004E-04-7.30538E-02 2.68109E-04-1.12430E-04
 -1     20989-1.40207E-01 1.39531E-01 6.08677E-04-8.90104E-02 6.10540E-04-2.44177E-04
 -1     20990-1.48770E-01 1.48600E-01 9.87789E-05-1.00782E-01-1.51829E-04 1.57868E-04
 -1     20991-1.53891E-01 1.53691E-01 1.24706E-04-1.08858E-01-2.49177E-04 1.41289E-04
 -1     20992-1.58657E-01 1.58664E-01-8.52287E-05-1.14025E-01-7.88024E-05 3.14749E-04
 -1     20993-1.64359E-01 1.65121E-01-8.42565E-04-1.17423E-01-2.25747E-04-2.50480E-05
 -1     20994-1.72466E-01 1.73868E-01-1.48523E-03-1.22446E-01 2.17884E-03-5.65841E-05
 -1     20995-1.91353E-01 1.92474E-01-1.20620E-03-1.21136E-01-2.75864E-03 2.41561E-03
 -1     20996-2.37270E-01 2.33735E-01 3.38063E-03-1.04267E-01 7.09333E-03 4.56193E-03
 -1     20997-3.01166E-01 2.63806E-01 3.71571E-02 6.96627E-02-1.72402E-02 3.00194E-02
 -1     20998-4.76860E-02 4.93903E-02-1.78365E-03 9.16690E-03 3.87843E-03-1.02487E-03
 -1     20999 2.15613E-03 6.34229E-04-2.83661E-03-1.21440E-02 1.87313E-03 3.42479E-03
 -1     21000 1.48237E-02-1.40168E-02-8.09945E-04-7.07446E-03-7.30934E-04 7.65053E-05
 -1     21001 2.68372E-02-2.75816E-02 7.76802E-04 1.43533E-02 2.15653E-03-4.61552E-04
 -1     21002 2.95913E-02-2.78456E-02-1.69094E-03 4.01078E-02-6.08199E-04 1.08909E-03
 -1     21003 2.74658E-02-2.64250E-02-9.80985E-04 7.02974E-02-7.62125E-05-1.28066E-03
 -1     21004 1.97828E-02-2.10316E-02 1.31311E-03 9.27594E-02-2.48155E-04 6.21051E-04
 -1     21005 1.14553E-02-1.24383E-02 1.03833E-03 1.09778E-01 5.24035E-04-7.89010E-05
 -1     21006 2.22133E-03-2.80334E-03 6.31649E-04 1.17836E-01 6.71044E-05-5.02077E-05
 -1     21007-5.57815E-02 5.44600E-02 1.32740E-03 5.69721E-02 4.03324E-03 8.44386E-03
 -1     21008 4.52517E-03-4.61505E-03 1.37404E-04 1.20406E-01-5.25962E-04-1.51610E-04
 -1     21009 6.92458E-03-6.99851E-03 1.20144E-04 1.14390E-01-3.46550E-04 3.18874E-05
 -1     21010 1.77947E-02-1.79238E-02 1.77404E-04 1.16093E-01-7.38503E-06-1.11774E-04
 -1     21011 2.96561E-02-2.99377E-02 3.33444E-04 1.27107E-01-1.60902E-04-6.47792E-04
 -1     21012 3.76451E-02-3.70499E-02-5.35778E-04 1.47212E-01 6.24065E-04 1.88947E-04
 -1     21013 4.06157E-02-4.05157E-02-3.11481E-05 1.70892E-01 1.87093E-04-2.55134E-04
 -1     21014 3.78722E-02-3.77677E-02-2.45824E-05 1.94548E-01-1.55739E-04 1.62313E-06
 -1     21015 3.31773E-02-3.38488E-02 7.58279E-04 2.13640E-01-1.35833E-04-1.83194E-04
 -1     21016 2.96941E-02-2.98306E-02 2.27780E-04 2.26442E-01 2.37779E-04-6.38696E-04
 -1     21017 2.55550E-02-2.54348E-02-2.66720E-05 2.33348E-01-8.75441E-04 5.95262E-05
 -1     21018 2.13910E-02-2.12912E-02-6.39435E-06 2.35492E-01-1.27289E-04 3.10839E-04
 -1     21019 1.73523E-02-1.66836E-02-5.75392E-04 2.33345E-01-1.44111E-04 2.19753E-05
 -1     21020 1.11370E-02-1.06821E-02-3.64010E-04 2.25935E-01 5.55482E-04-4.71730E-04
 -1     21021 3.83338E-03-4.69448E-03 9.43908E-04 2.13578E-01-1.28509E-03-8.45534E-04
 -1     21022-8.44559E-03 9.25199E-03-7.29940E-04 1.94253E-01 2.30927E-04-2.90070E-04
 -1     21023-4.67795E-02 4.73925E-02-5.59106E-04 1.61191E-01 2.31199E-04 1.98372E-03
 -1     21024-1.04309E-01 1.02876E-01 1.46873E-03 1.62259E-01 4.44192E-03-1.07918E-04
 -1     21025-1.04801E-01 1.09317E-01-4.48312E-03 1.26751E-01 1.01336E-03 3.69346E-03
 -1     21026-6.88520E-02 6.59557E-02 2.87342E-03-1.23075E-02-2.28217E-03 2.07098E-03
 -1     21027-9.58806E-02 9.47732E-02 1.07049E-03-3.61960E-02 6.56505E-04 3.37129E-05
 -1     21028-1.18284E-01 1.18391E-01-1.59756E-04-5.91344E-02-4.96133E-04 9.29196E-05
 -1     21029-1.35248E-01 1.34347E-01 8.38779E-04-8.20057E-02-1.13313E-04 5.61366E-04
 -1     21030-1.44220E-01 1.44296E-01-1.46197E-04-9.48614E-02 4.90135E-04-1.16376E-04
 -1     21031-1.51451E-01 1.51620E-01-2.42450E-04-1.05549E-01 3.79517E-04-9.17088E-07
 -1     21032-1.56547E-01 1.56450E-01 1.95340E-05-1.11586E-01 2.90684E-04 8.74547E-05
 -1     21033-1.61586E-01 1.61222E-01 2.84257E-04-1.15517E-01 5.50589E-05-2.32334E-04
 -1     21034-1.68930E-01 1.69073E-01-2.26037E-04-1.17575E-01-1.28812E-04-6.37420E-04
 -1     21035-1.84216E-01 1.80786E-01 3.33985E-03-1.20503E-01-1.60945E-03 2.17432E-03
 -1     21036-2.09795E-01 2.12570E-01-2.88081E-03-1.22966E-01-7.61835E-04 4.36790E-03
 -1     21037 6.90301E-03-6.54699E-03-3.68482E-04-1.32041E-02 3.86923E-04-2.09980E-03
 -1     21038-9.07324E-02 8.29011E-02 7.61394E-03 3.65842E-02-5.18249E-03 1.16995E-03
 -1     21039-1.98940E-02 2.02462E-02-4.27906E-04-8.01306E-03 3.03895E-03 1.20885E-03
 -1     21040 2.28309E-02-2.48995E-02 2.08157E-03 2.07927E-03-1.25058E-04 6.66035E-05
 -1     21041 2.44583E-02-2.54611E-02 1.05411E-03 2.89497E-02 3.28164E-04-6.18378E-04
 -1     21042 2.90478E-02-2.95663E-02 5.78679E-04 5.58362E-02-9.61252E-04 2.37127E-03
 -1     21043 2.33205E-02-2.42343E-02 9.82630E-04 8.21379E-02 2.01905E-04-2.78594E-04
 -1     21044 1.58612E-02-1.73610E-02 1.55681E-03 1.02233E-01-6.90260E-04 9.24995E-04
 -1     21045 5.98299E-03-5.65642E-03-2.75181E-04 1.14829E-01 1.80344E-04-4.41037E-04
 -1     21046-1.36525E-01 1.36171E-01 2.89201E-04-8.86551E-02 2.53809E-05-1.86158E-04
 -1     21047 2.75672E-02-2.76054E-02 8.88229E-05 1.14399E-01 2.72559E-04-4.43969E-04
 -1     21048 4.58323E-02-4.57754E-02-2.37848E-06 1.25833E-01 3.74492E-04 2.74413E-04
 -1     21049 5.56859E-02-5.56456E-02 1.94898E-05 1.42436E-01 6.65589E-04-1.60518E-04
 -1     21050 5.58913E-02-5.59809E-02 1.56414E-04 1.61441E-01-5.26233E-05-2.80078E-04
 -1     21051 5.07088E-02-5.17251E-02 1.08619E-03 1.80129E-01 1.53196E-04-5.19464E-04
 -1     21052 4.22287E-02-4.29609E-02 8.05739E-04 1.93592E-01 2.22058E-04-1.60390E-04
 -1     21053 3.18037E-02-3.22882E-02 5.60458E-04 1.99113E-01 5.04149E-04 9.03378E-05
 -1     21054 2.29525E-02-2.30549E-02 1.81978E-04 2.01594E-01-1.81130E-04 7.04728E-04
 -1     21055 1.48109E-02-1.49599E-02 2.29049E-04 2.01856E-01-6.66565E-04-8.75252E-04
 -1     21056 6.60792E-03-6.19908E-03-3.32192E-04 1.96539E-01-7.32208E-05-3.14956E-04
 -1     21057-2.51590E-03 2.86072E-03-2.74359E-04 1.88593E-01 3.85320E-04-1.41012E-04
 -1     21058-1.60682E-02 1.60834E-02 5.16967E-05 1.76820E-01-4.05016E-04 6.03434E-04
 -1     21059-4.35204E-02 4.38217E-02-2.43388E-04 1.62840E-01 7.06077E-04 5.54068E-04
 -1     21060-8.86684E-02 8.81852E-02 5.25993E-04 1.61883E-01 9.60959E-04-2.19675E-04
 -1     21061-7.23382E-02 7.61174E-02-3.76925E-03 1.15165E-01-2.05596E-04 4.09069E-03
 -1     21062-1.42697E-01 1.42148E-01 4.80577E-04-9.28320E-02-2.32484E-05 2.51560E-04
 -1     21063-7.66480E-02 7.67196E-02-8.88375E-05 2.60489E-02-3.26662E-04-7.31229E-04
 -1     21064-8.72802E-02 8.77268E-02-4.22418E-04 1.43493E-01-7.80224E-04-4.90618E-04
 -1     21065-1.31449E-01 1.31546E-01-1.56901E-04-8.05251E-02 7.77134E-05-1.27531E-04
 -1     21066-1.00676E-01 1.00223E-01 4.23962E-04-1.27996E-02 1.28172E-03 6.80158E-04
 -1     21067-1.14192E-01 1.13751E-01 3.98724E-04-4.02716E-02-8.39303E-04-2.20956E-04
 -1     21068-1.03232E-01 1.10212E-01-7.05563E-03 3.34057E-02 3.62365E-03 2.18021E-03
 -1     21069-1.22449E-01 1.22800E-01-4.01227E-04-5.95930E-02 1.30255E-04-2.15601E-04
 -1     21070-8.86549E-02 8.77529E-02 8.77304E-04 1.03978E-02 1.33364E-04-3.11063E-04
 -1     21071-1.28472E-01 1.28362E-01 5.13945E-05-7.51447E-02-9.46637E-05-5.41414E-05
 -1     21072-1.19034E-01 1.19093E-01-1.07104E-04-5.21982E-02 1.83408E-04-4.04739E-04
 -1     21073-1.33266E-01 1.33305E-01-1.00952E-04-8.52189E-02 6.25181E-06-3.09806E-04
 -1     21074-1.25781E-01 1.26197E-01-4.71350E-04-6.72625E-02-6.57441E-05 5.51898E-04
 -1     21075-1.38730E-01 1.38526E-01 1.36237E-04-9.09342E-02 1.22036E-04-3.29141E-05
 -1     21076-5.92384E-02 5.76235E-02 1.61537E-03 7.76908E-02 1.34216E-03-3.55686E-03
 -1     21077-1.52989E-01 1.52798E-01 1.18784E-04-9.45946E-02-7.15472E-04-6.36583E-05
 -1     21078-1.71639E-01 1.68735E-01 2.82206E-03-8.99613E-02-2.39323E-03 5.54739E-04
 -1     21079-1.99661E-01 1.95031E-01 4.54381E-03-5.32462E-02-3.40716E-03 8.90105E-04
 -1     21080-2.86864E-02 2.98462E-02-1.20944E-03 1.62944E-02 1.68003E-03-2.41762E-04
 -1     21081-1.96399E-01 2.04725E-01-8.41120E-03-1.36055E-02 1.76531E-02-1.31285E-02
 -1     21082 4.81779E-02-4.80865E-02-5.65796E-05 5.07664E-02 1.33918E-03-1.60963E-04
 -1     21083 2.96765E-02-3.00932E-02 4.11850E-04 2.72528E-02 6.14152E-04 1.38198E-04
 -1     21084 4.95733E-02-5.12317E-02 1.70430E-03 7.29623E-02-1.38879E-03 1.17960E-03
 -1     21085 1.99483E-02-1.96797E-02-2.80800E-04 2.39103E-02 1.61780E-03-5.07699E-04
 -1     21086 4.63736E-02-4.72645E-02 9.33949E-04 6.34371E-02-8.83287E-04 1.73602E-03
 -1     21087 3.84402E-02-3.84346E-02 4.98578E-05 9.36593E-02-3.58735E-04-3.80879E-05
 -1     21088 2.52856E-02-2.46660E-02-5.63383E-04 1.09478E-01 2.50388E-04-2.14156E-04
 -1     21089 9.90638E-03-8.76407E-03-1.09280E-03 1.15132E-01-4.47949E-04-1.71348E-04
 -1     21090-9.42437E-02 9.46919E-02-4.12860E-04 1.60183E-01-1.24494E-04 3.93892E-04
 -1     21091 1.63523E-02-1.56483E-02-6.50710E-04 1.15601E-01 1.11108E-04-3.47988E-06
 -1     21092 4.67785E-02-4.81187E-02 1.36193E-03 4.27408E-02 2.37737E-03-1.32673E-03
 -1     21093-6.71914E-02 6.71477E-02 3.61155E-05 4.88732E-02 4.78275E-04-1.02192E-03
 -1     21094 2.52907E-03-2.40883E-03-4.48833E-05 1.93513E-01-2.73142E-04-5.85118E-05
 -1     21095 3.71393E-02-3.73929E-02 3.06912E-04 1.20230E-01 3.51252E-04 4.69664E-04
 -1     21096 5.24239E-02-5.26631E-02 2.96707E-04 1.33974E-01 4.48894E-05 4.21966E-04
 -1     21097 5.64594E-02-5.64284E-02 3.21053E-05 1.52709E-01 1.96116E-05-2.28489E-04
 -1     21098 5.38603E-02-5.44455E-02 6.53587E-04 1.71085E-01 2.32167E-05 8.31097E-05
 -1     21099 4.68384E-02-4.70533E-02 2.88250E-04 1.86052E-01-6.38086E-05 2.53967E-04
 -1     21100 3.57699E-02-3.66761E-02 9.83576E-04 1.96421E-01-2.06168E-04-1.41595E-04
 -1     21101 2.80381E-02-2.78958E-02-6.26138E-05 2.02808E-01 5.73374E-04 3.55714E-04
 -1     21102 1.81806E-02-1.80898E-02-9.20210E-06 2.03293E-01 9.86355E-05-4.44278E-04
 -1     21103 1.11562E-02-1.05129E-02-5.63581E-04 2.00644E-01-2.70201E-04 2.93486E-05
 -1     21104-9.19666E-03 9.07116E-03 1.95088E-04 1.82075E-01-3.41391E-04-1.41037E-04
 -1     21105-2.78774E-02 2.91793E-02-1.23777E-03 1.72600E-01 1.52519E-03-3.23455E-04
 -1     21106-6.46762E-02 6.41649E-02 5.58363E-04 1.58940E-01-2.31616E-04 7.23867E-04
 -1     21107-1.08439E-01 1.08001E-01 4.00752E-04-2.86353E-02 1.26843E-04 3.96853E-05
 -1     21108 1.02155E-03-4.01057E-03 2.95086E-03 2.21842E-02-7.22136E-04 5.40544E-04
 -1     21109 3.50094E-02-3.50335E-02 8.18219E-05 1.02042E-01 5.53424E-04-1.64228E-04
 -1     21110-1.93589E-01 1.86758E-01 6.75697E-03-7.72767E-02-5.91318E-03 1.83610E-03
 -1     21111-1.46974E-01 1.47058E-01-1.54883E-04-9.39288E-02 1.49376E-04-3.04172E-04
 -1     21112-1.62509E-01 1.61910E-01 5.31681E-04-9.54383E-02-3.10979E-04-6.21331E-04
 -1     21113-5.51180E-02 5.40791E-02 9.60326E-04 2.21212E-02 1.18930E-03-1.77114E-03
 -1     21114 3.82009E-02-3.86061E-02 4.16762E-04 3.36369E-02 1.06102E-03 5.75800E-04
 -1     21115 4.35280E-02-4.31262E-02-3.51975E-04 8.50236E-02 9.51432E-04-1.98303E-04
 -1     21116 1.70679E-02-1.66309E-02-3.82006E-04 1.13774E-01-1.21463E-04-1.86388E-04
 -1     21117-4.95962E-02 5.01410E-02-6.00635E-04 3.32377E-02 9.59674E-04-1.83839E-03
 -1     21118-4.67343E-02 4.83553E-02-1.57363E-03 1.47714E-01 3.93597E-04 6.88187E-04
 -1     21119 7.99306E-03-8.12228E-03 1.09950E-04 4.18982E-02 6.10056E-04-1.19277E-04
 -1     21120-8.56324E-02 8.51052E-02 5.56700E-04 1.46109E-01-2.27411E-04-9.27126E-04
 -1     21121-6.50051E-02 6.30431E-02 2.00002E-03 1.41987E-01 5.07615E-04 1.21055E-05
 -1     21122 6.57993E-02-6.57828E-02 3.92369E-05 1.36029E-01 2.01830E-04-6.70556E-04
 -1     21123 5.81914E-02-5.91773E-02 1.03543E-03 8.86124E-02-8.37948E-04-6.73845E-04
 -1     21124 6.58369E-02-6.57317E-02-4.55339E-05 1.51267E-01 2.02183E-04-4.31197E-05
 -1     21125 5.57238E-02-5.55609E-02-9.86971E-05 1.64648E-01-4.80650E-04 4.52131E-04
 -1     21126-1.38383E-01 1.38091E-01 2.27861E-04-6.64367E-02-8.94617E-05 3.62505E-04
 -1     21127-9.78533E-02 9.89075E-02-1.08172E-03-1.05647E-03 9.62933E-05 7.54692E-04
 -1     21128-1.13117E-01 1.12811E-01 2.57569E-04-5.68016E-02-6.07207E-05 8.59332E-05
 -1     21129 2.27097E-02-2.28848E-02 2.40971E-04 1.73894E-01 1.02439E-04 5.38423E-05
 -1     21130 1.10305E-02-1.09918E-02 2.69607E-05 1.71390E-01 1.79926E-04-4.09841E-04
 -1     21131-1.28463E-02 1.24761E-02 4.29808E-04 1.57886E-01 1.70582E-04-2.64823E-04
 -1     21132 4.89166E-02-4.83949E-02-4.64998E-04 1.15948E-01 1.09417E-04 1.96555E-05
 -1     21133-2.92849E-02 2.89705E-02 3.66913E-04 1.49649E-01-3.26000E-04-2.90221E-04
 -1     21134-3.79624E-02 3.87519E-02-7.40829E-04 1.47689E-01-6.71955E-04 1.41454E-05
 -1     21135 6.31358E-02-6.33811E-02 3.02658E-04 1.29445E-01-1.08115E-04-4.32116E-04
 -1     21136-1.17706E-01 1.17904E-01-2.51259E-04-6.46001E-02 7.48762E-05-7.66400E-05
 -1     21137 5.29616E-02-5.26195E-02-3.19127E-04 5.79206E-02 7.60708E-04-1.92851E-04
 -1     21138 2.94717E-02-2.93972E-02-8.10881E-06 1.73359E-01-7.41616E-05-7.53015E-05
 -1     21139-2.02134E-02 2.00982E-02 1.71160E-04 1.53559E-01-1.84539E-04-2.22840E-05
 -1     21140-9.50317E-02 9.50555E-02-4.25159E-05 1.57548E-02 1.00720E-04-3.87888E-04
 -1     21141-1.10124E-01 1.09988E-01 9.02925E-05-4.96075E-02-6.23156E-05-1.10494E-05
 -1     21142-1.24122E-01 1.24164E-01-1.00026E-04-6.79548E-02 3.09986E-05-1.62121E-04
 -1     21143 6.72649E-02-6.69647E-02-2.41463E-04 1.44852E-01-1.32297E-04-2.38078E-04
 -1     21144-1.65054E-01 1.56734E-01 8.24280E-03-3.43304E-02 2.68368E-03 7.34575E-03
 -1     21145 4.33421E-02-4.30460E-02-2.84974E-04 5.01162E-02 5.70935E-04 1.29971E-04
 -1     21146-1.64977E-01 1.62981E-01 1.90760E-03-1.00159E-02 7.06144E-03-2.09332E-05
 -1     21147 4.81259E-02-4.81967E-02 1.27086E-04 1.03473E-01-6.46214E-05-1.89427E-04
 -1     21148 4.28603E-02-4.19647E-02-8.28697E-04 1.72115E-01-2.67538E-04 1.02952E-03
 -1     21149-1.30656E-01 1.30450E-01 1.44106E-04-6.73720E-02-3.97623E-04-1.40076E-04
 -1     21150 5.86909E-02-5.88746E-02 2.35028E-04 1.21452E-01-6.26449E-06-4.43566E-04
 -1     21151-1.55812E-01 1.56201E-01-4.73404E-04-5.06927E-02-1.26812E-04 8.19880E-04
 -1     21152 3.76848E-02-3.78321E-02 2.01697E-04 1.10402E-01-1.87305E-05 4.31720E-04
 -1     21153-8.30248E-02 8.31611E-02-1.19280E-04 1.26499E-01 6.62252E-04-1.83905E-04
 -1     21154 1.78956E-04-4.08372E-05-7.48359E-05 1.66196E-01 2.21781E-04 2.42342E-04
 -1     21155-7.95749E-02 8.06255E-02-1.05291E-03 7.06832E-02-1.01691E-03-5.07382E-04
 -1     21156-5.61781E-03 5.79561E-03-1.15998E-04 1.62692E-01 4.56412E-04 4.13875E-04
 -1     21157 2.72837E-02-2.73066E-02 1.94681E-05 4.54218E-02 4.46922E-04-1.90129E-04
 -1     21158-1.89659E-02 1.90133E-02-8.29879E-05 3.64346E-02 2.23462E-04-8.63156E-04
 -1     21159-8.60885E-02 8.67654E-02-6.84977E-04 5.03539E-02 6.20590E-04-1.09358E-03
 -1     21160-1.20839E-01 1.20778E-01 6.72596E-06-6.58656E-02 2.98628E-04 5.38910E-05
 -1     21161-1.15076E-01 1.15119E-01-9.29301E-05-6.08596E-02 1.52088E-04-7.84034E-05
 -1     21162 3.66036E-02-3.66417E-02 1.02764E-04 1.73172E-01 1.24213E-04 5.55226E-04
 -1     21163-8.83854E-02 8.97720E-02-1.45534E-03 2.73281E-02 3.43329E-03 2.08515E-03
 -1     21164-7.39241E-02 7.49215E-02-9.91676E-04 9.42943E-02 4.90486E-04-3.36273E-04
 -1     21165-9.99582E-02 1.00853E-01-9.25067E-04-1.35100E-02 2.35421E-04-2.01524E-04
 -1     21166 5.55298E-02-5.44630E-02-1.01386E-03 9.64137E-02 5.74983E-04 4.97125E-05
 -1     21167 6.09792E-02-6.07794E-02-1.36899E-04 1.57671E-01-2.23674E-04-1.40232E-04
 -1     21168 4.99501E-02-4.99281E-02 4.37011E-05 1.67732E-01-3.56503E-05 3.99924E-04
 -1     21169 1.69555E-02-1.69090E-02 1.95781E-05 1.72195E-01-2.22023E-04 1.25247E-05
 -1     21170-1.45424E-01 1.45796E-01-4.45176E-04-6.11876E-02 2.27385E-04 1.49383E-04
 -1     21171 6.04646E-02-5.92398E-02-1.19491E-03 6.52662E-02 8.52030E-04-8.61346E-04
 -1     21172 5.73201E-03-5.47060E-03-1.95090E-04 1.69888E-01-3.38885E-04 3.06928E-04
 -1     21173-1.08874E-01 1.08373E-01 4.57464E-04-4.29623E-02-6.93549E-04-4.00802E-04
 -1     21174 6.07040E-02-6.01616E-02-4.92307E-04 7.97394E-02-4.02327E-04-5.29205E-05
 -1     21175-1.05295E-01 1.05703E-01-4.47090E-04-3.44687E-02-2.04923E-04-7.16425E-04
 -1     21176 6.48660E-02-6.42343E-02-5.89801E-04 7.40461E-02 8.65673E-04-6.97764E-04
 -1     21177 6.51723E-03-6.53010E-03 6.54437E-05 1.44042E-01-8.89165E-05-3.60759E-04
 -1     21178-8.03418E-02 8.12093E-02-8.56491E-04 1.03015E-01 4.29662E-04-1.03958E-03
 -1     21179-1.03639E-01 1.03650E-01-4.55136E-05-2.46649E-02-2.29361E-04-1.04135E-04
 -1     21180 6.34774E-02-6.36022E-02 1.79113E-04 1.45127E-01 4.98397E-05 2.05106E-04
 -1     21181 6.06808E-02-5.96910E-02-9.35609E-04 1.11229E-01 1.09938E-03-6.43703E-05
 -1     21182-9.92634E-02 9.90667E-02 1.55103E-04-4.05051E-02 2.81507E-05-3.41502E-04
 -1     21183 7.55846E-02-7.55665E-02 3.52853E-05 1.27696E-01 3.77547E-04-3.93559E-04
 -1     21184-2.84758E-02 2.84487E-02 6.94258E-05 1.25344E-01 1.83665E-04 2.79871E-04
 -1     21185 2.17221E-02-2.17128E-02 4.41061E-05 1.48102E-01 6.76283E-05-2.04276E-05
 -1     21186 7.28342E-02-7.28669E-02 8.42002E-05 1.19968E-01 7.30508E-04-6.73345E-04
 -1     21187 3.86817E-02-3.85911E-02-3.60752E-05 1.51506E-01-4.02968E-05 4.07917E-05
 -1     21188-1.16617E-01 1.17291E-01-7.28429E-04-3.63108E-02-1.21112E-05-4.51326E-05
 -1     21189-4.74418E-02 4.72112E-02 2.64300E-04 1.19129E-01-5.04854E-05 3.13937E-04
 -1     21190-1.31225E-01 1.31913E-01-7.57867E-04 6.02804E-03 3.56182E-03 2.03378E-03
 -1     21191 1.33172E-02-1.31042E-02-1.60151E-04 1.45692E-01-4.73842E-05 4.00918E-06
 -1     21192-3.73741E-02 3.74420E-02-2.85557E-05 1.21568E-01-3.29556E-05 5.93232E-05
 -1     21193-8.58689E-02 8.53678E-02 4.89432E-04 3.44002E-02-3.37537E-04 4.85133E-06
 -1     21194-9.28845E-02 9.27129E-02 1.38512E-04-2.70314E-02-1.20811E-04 1.15512E-05
 -1     21195-1.07384E-01 1.07537E-01-2.00619E-04-4.12964E-02-7.66533E-05-7.20939E-05
 -1     21196 6.72385E-02-6.76415E-02 4.57971E-04 1.01342E-01 9.13349E-04 9.60007E-04
 -1     21197-1.01897E-01 1.02012E-01-1.59591E-04-4.06934E-02 5.22839E-05-3.31538E-04
 -1     21198-1.11455E-01 1.11726E-01-3.21520E-04-3.94297E-02-6.68275E-04 6.50167E-06
 -1     21199 5.26441E-02-5.25733E-02-5.34416E-05 6.88272E-02 1.44031E-04-2.55442E-04
 -1     21200 4.83222E-02-4.82792E-02 1.16181E-05 1.50241E-01-2.91974E-05 1.74990E-04
 -1     21201 6.92141E-02-6.92065E-02 4.47914E-05 1.40140E-01-1.54307E-05-7.96403E-05
 -1     21202-6.29615E-03 6.52694E-03-1.81206E-04 1.38205E-01-1.79953E-04 3.90728E-05
 -1     21203-1.30467E-01 1.26752E-01 3.65025E-03-1.75675E-02-2.64131E-03 6.39219E-04
 -1     21204 2.06810E-04-1.58409E-04 2.93931E-06 1.41452E-01 1.03698E-04-5.36401E-05
 -1     21205 2.95725E-02-2.95146E-02-3.79441E-06 1.49540E-01-4.85616E-05 1.86859E-04
 -1     21206-8.81307E-02 8.82481E-02-1.38996E-04 6.83735E-04-2.61589E-04 6.90224E-05
 -1     21207-8.75380E-02 8.79174E-02-3.97834E-04 1.22751E-02 3.60416E-04 1.26627E-04
 -1     21208 5.63067E-02-5.63159E-02 6.38284E-05 1.49132E-01-2.70914E-04 2.04534E-04
 -1     21209-6.50799E-02 6.41272E-02 9.84288E-04 1.28742E-01 8.94132E-04 2.83466E-04
 -1     21210-7.66328E-02 7.66530E-02 6.12246E-06 1.21210E-01 4.79675E-04-1.19338E-04
 -1     21211 6.96197E-02-6.89794E-02-6.03253E-04 8.34787E-02-9.76363E-05-4.24781E-04
 -1     21212 1.73745E-02-1.75385E-02 1.55678E-04 5.70454E-02 1.43649E-04-8.16964E-05
 -1     21213-9.48880E-02 9.46928E-02 1.58725E-04-3.37522E-02 2.87694E-06-3.60098E-04
 -1     21214-8.73065E-02 8.65886E-02 7.01711E-04 2.40498E-02 2.19689E-04-5.06527E-04
 -1     21215-9.10104E-02 9.08747E-02 1.05644E-04-2.01845E-02-1.57504E-04 1.50732E-05
 -1     21216-3.73539E-02 3.68793E-02 4.33476E-04 4.07667E-02-3.72791E-04-8.10919E-04
 -1     21217-9.44779E-03 9.34426E-03 8.04947E-05 4.91094E-02 3.09707E-04-1.47201E-04
 -1     21218-1.26733E-01 1.24826E-01 1.84907E-03-2.87849E-02 4.17302E-04-1.23064E-03
 -1     21219 6.58169E-02-6.63681E-02 6.02578E-04 9.43764E-02-4.20377E-04-7.76316E-04
 -1     21220-8.91414E-02 8.91898E-02-7.23578E-05-1.00616E-02-1.11420E-06-3.24420E-04
 -1     21221-8.27335E-02 8.20671E-02 6.58688E-04 5.02794E-02 2.42322E-04-1.49418E-04
 -1     21222 6.59227E-02-6.68425E-02 9.73709E-04 1.14697E-01 1.86974E-04 8.33503E-04
 -1     21223 3.82382E-02-3.83026E-02 6.93817E-05 6.27761E-02 3.14767E-04 3.38792E-05
 -1     21224-2.01437E-02 1.99434E-02 2.44504E-04 1.28522E-01 9.03276E-05-1.10953E-04
 -1     21225 6.40024E-02-6.35060E-02-4.67807E-04 7.63346E-02 1.85266E-04-2.18309E-04
 -1     21226 7.42489E-02-7.38912E-02-3.04176E-04 1.34372E-01 1.85815E-04-1.42835E-04
 -1     21227-1.28572E-02 1.29264E-02-2.12658E-05 1.33466E-01-1.70863E-05 1.91016E-04
 -1     21228-5.63947E-02 5.69197E-02-4.91712E-04 1.19635E-01-1.51085E-04 6.10853E-04
 -1     21229-9.63098E-02 9.64729E-02-2.01698E-04-3.76783E-02 1.88036E-04-1.70982E-04
 -1     21230-7.62862E-02 7.78400E-02-1.60962E-03 2.90224E-02 5.73850E-04-1.40949E-03
 -1     21231-8.78793E-02 8.82799E-02-4.36388E-04-1.48180E-02-4.35503E-04-2.56498E-04
 -1     21232-6.55293E-02 6.50957E-02 4.52009E-04 8.93604E-02-2.87581E-04-7.44404E-04
 -1     21233 7.27603E-02-7.31517E-02 4.38724E-04 1.23946E-01 3.66448E-04 4.56068E-04
 -1     21234-8.15062E-02 8.05901E-02 9.23209E-04 8.45009E-02 5.84447E-04 1.32128E-04
 -1     21235-9.46716E-02 9.58951E-02-1.26918E-03 2.30240E-03 3.12538E-04-8.25541E-04
 -1     21236 2.98039E-02-2.93875E-02-3.76055E-04 1.29734E-01-1.98559E-04-1.57861E-04
 -1     21237 6.08639E-02-6.07219E-02-1.17607E-04 8.53699E-02 4.79306E-04-2.17136E-04
 -1     21238 7.42032E-02-7.41857E-02 2.49917E-05 9.36998E-02 4.26999E-04-4.75264E-04
 -1     21239-7.32431E-02 7.31436E-02 9.02941E-05 2.32959E-02-1.59632E-04 6.02164E-05
 -1     21240 7.71493E-02-7.67598E-02-3.40481E-04 1.11764E-01 3.73930E-04-1.13718E-05
 -1     21241 5.99113E-02-5.99033E-02 3.82733E-05 1.32296E-01-7.37870E-05-1.33234E-04
 -1     21242-8.05380E-02 8.05562E-02-4.89886E-05-1.42039E-02-5.64978E-05 5.39577E-05
 -1     21243-4.48967E-02 4.48937E-02 2.88165E-05 9.41761E-02-1.78771E-04-1.75510E-05
 -1     21244-9.70353E-02 9.66269E-02 3.64064E-04-6.78908E-03 6.18109E-04-1.02136E-03
 -1     21245 4.04734E-02-4.02558E-02-1.73580E-04 1.32157E-01-3.38743E-04 6.20550E-06
 -1     21246-8.27345E-02 8.28770E-02-1.75687E-04-1.45077E-02 2.02384E-04 9.66534E-05
 -1     21247-1.04149E-01 1.00283E-01 3.81209E-03 1.24193E-02-1.68206E-03 9.80106E-04
 -1     21248-5.38065E-02 5.40731E-02-2.44837E-04 9.04406E-02-3.16012E-04-5.62404E-05
 -1     21249 7.60969E-02-7.62213E-02 1.71962E-04 1.18052E-01 6.47046E-04 5.04040E-04
 -1     21250-9.00054E-02 8.97826E-02 1.81435E-04-1.01356E-02-1.08378E-04-7.93192E-04
 -1     21251 6.76183E-02-6.77096E-02 1.38113E-04 1.28307E-01 1.04346E-04-7.98139E-05
 -1     21252 4.99447E-02-4.97987E-02-1.01521E-04 1.32659E-01-8.64636E-05 4.92061E-05
 -1     21253-7.08410E-02 7.05127E-02 3.46656E-04 9.98290E-02-3.98980E-04-5.33008E-04
 -1     21254 4.73115E-02-4.72898E-02-8.12331E-06 7.76644E-02 1.64458E-04-3.33201E-04
 -1     21255 7.53096E-02-7.50056E-02-2.61211E-04 1.01702E-01 4.47555E-04 4.67802E-04
 -1     21256-7.73488E-02 7.76501E-02-3.01284E-04 5.35984E-02 8.44362E-04-1.22877E-03
 -1     21257-7.37581E-02 7.35544E-02 1.89854E-04 1.27123E-02-2.39559E-04 2.16530E-04
 -1     21258 2.74783E-02-2.73953E-02-8.16864E-05 7.02067E-02 1.03803E-04-3.47279E-04
 -1     21259-5.62882E-03 5.70687E-03-3.97690E-05 1.15098E-01 2.45600E-04-1.60893E-05
 -1     21260 1.54899E-03-1.25720E-03-2.52863E-04 1.18215E-01 2.31354E-04 6.36897E-06
 -1     21261 9.86004E-03-9.72836E-03-9.20203E-05 1.21457E-01 1.00884E-04-7.22001E-06
 -1     21262 7.36736E-02-7.37618E-02 1.36284E-04 1.07319E-01 9.94797E-04-6.80221E-05
 -1     21263-7.33072E-02 7.30426E-02 2.59748E-04 3.55083E-02-5.51614E-05-2.24056E-04
 -1     21264 4.28848E-03-4.14057E-03-1.58914E-04 6.15582E-02 2.65504E-04-1.68844E-04
 -1     21265-7.69068E-02 7.68241E-02 6.20198E-05-4.91912E-03-1.25349E-04-1.18453E-04
 -1     21266 7.08368E-02-7.08602E-02 5.59133E-05 9.30738E-02 1.23881E-04-3.95851E-04
 -1     21267-2.57988E-02 2.52037E-02 5.70960E-04 4.95356E-02-1.10440E-04-7.78061E-04
 -1     21268 1.96621E-02-1.95625E-02-5.83755E-05 1.25407E-01 4.60488E-06-2.73043E-05
 -1     21269-3.68213E-02 3.68858E-02-3.62159E-05 9.57292E-02-1.28218E-04-8.91930E-05
 -1     21270-1.97638E-02 1.97558E-02 4.29602E-05 1.07048E-01 2.63375E-05-8.12895E-05
 -1     21271-7.94105E-02 7.91867E-02 1.95866E-04-1.24736E-02 1.53673E-04-1.70302E-04
 -1     21272-6.30678E-02 6.40148E-02-9.84394E-04 3.16541E-02 7.97040E-04-6.93623E-05
 -1     21273-1.22334E-02 1.23590E-02-8.79138E-05 1.12466E-01-1.03573E-04 3.56212E-04
 -1     21274 6.83532E-02-6.82150E-02-9.89976E-05 1.14020E-01 4.49270E-05-6.05781E-05
 -1     21275-7.11092E-02 7.14321E-02-3.20551E-04 5.38745E-02-9.02975E-05-2.38159E-04
 -1     21276-6.09273E-02 6.08734E-02 3.51554E-05 1.17062E-02-3.79578E-05 2.63899E-05
 -1     21277-7.75312E-02 7.76003E-02-6.59427E-05 7.19926E-02 2.09292E-04-5.71911E-04
 -1     21278 7.36444E-02-7.38614E-02 2.57570E-04 1.07659E-01 2.56702E-04 3.32653E-04
 -1     21279 4.09033E-03-4.40844E-03 3.47001E-04 9.86980E-02-1.42173E-04 1.57805E-04
 -1     21280-6.01432E-02 6.01694E-02-1.53053E-05 6.69622E-02-2.90409E-04-4.15855E-05
 -1     21281-7.85847E-02 7.86998E-02-1.40449E-04-1.05334E-02 5.02884E-05-1.27142E-04
 -1     21282 6.67833E-02-6.68265E-02 7.56476E-05 9.88031E-02 3.04514E-04-5.85988E-04
 -1     21283-7.46454E-02 7.48286E-02-2.00448E-04 4.12842E-03-3.53078E-05-2.68441E-04
 -1     21284-6.86925E-02 6.82398E-02 4.15371E-04 2.25076E-02 3.69126E-04 2.49289E-04
 -1     21285 1.64955E-02-1.60428E-02-4.22633E-04 1.08688E-01-8.35581E-04-2.72746E-04
 -1     21286 2.79507E-02-2.83733E-02 4.55953E-04 1.12685E-01-2.96681E-04-3.98327E-04
 -1     21287-2.86499E-02 2.86377E-02 4.40421E-05 1.01890E-01-3.21423E-05-1.36421E-04
 -1     21288-6.05857E-02 6.04975E-02 8.06019E-05 2.40273E-02 3.44184E-04-9.88941E-06
 -1     21289-5.57609E-02 5.58868E-02-1.25139E-04 4.02830E-02 7.18579E-05-1.06005E-04
 -1     21290 5.41168E-02-5.40081E-02-8.69426E-05 9.11119E-02 4.11340E-04-1.79762E-04
 -1     21291-5.56788E-02 5.57018E-02-1.35634E-05 6.13875E-02-9.31723E-05-6.22806E-05
 -1     21292-6.39605E-02 6.39015E-02 3.69415E-05 1.15423E-02 1.59196E-04 9.82601E-05
 -1     21293-6.28676E-02 6.26796E-02 1.76222E-04 1.59830E-02-4.96537E-04 1.76754E-04
 -1     21294-5.97990E-02 5.99202E-02-1.20172E-04 4.21782E-02-4.71769E-05 2.16733E-04
 -1     21295-7.06861E-02 6.94629E-02 1.18822E-03 1.36567E-02 5.46496E-04 2.28044E-04
 -1     21296 3.77255E-02-3.75838E-02-1.30838E-04 8.18235E-02 2.12968E-04 1.17230E-04
 -1     21297-6.54417E-02 6.57138E-02-2.99587E-04 1.09251E-02-9.93097E-05-1.33188E-04
 -1     21298 5.10328E-02-5.08415E-02-1.55643E-04 1.18499E-01-1.85927E-04-5.37672E-04
 -1     21299-1.97254E-02 1.98024E-02-5.20478E-05 8.82004E-02 2.97420E-04 2.21238E-04
 -1     21300-1.27245E-02 1.29177E-02-1.67109E-04 9.12315E-02 1.04921E-05-2.72378E-04
 -1     21301-5.45279E-03 5.58473E-03-1.07060E-04 9.37704E-02-2.52571E-05-2.52686E-05
 -1     21302-8.99578E-03 9.43419E-03-4.50484E-04 5.92488E-02-2.45978E-06 3.49812E-04
 -1     21303 6.03670E-02-6.09845E-02 6.55715E-04 1.18104E-01-4.21713E-04 2.82803E-04
 -1     21304 1.61152E-02-1.58252E-02-2.89864E-04 7.27375E-02 5.15132E-05-3.37313E-04
 -1     21305-3.59410E-02 3.59360E-02 2.45920E-05 7.58286E-02-1.58193E-04-1.72897E-05
 -1     21306-6.03392E-02 6.04561E-02-1.32270E-04 1.31490E-02 4.89611E-05 2.99243E-05
 -1     21307 3.99189E-02-4.02750E-02 3.88363E-04 1.16095E-01-3.40130E-04-6.75042E-05
 -1     21308-3.73370E-02 3.76085E-02-2.95228E-04 4.32085E-02-1.94300E-04-3.66741E-04
 -1     21309-1.71735E-02 1.68877E-02 2.95706E-04 6.79444E-02 1.91893E-05-1.28863E-04
 -1     21310-2.74935E-02 2.72357E-02 2.79893E-04 8.31041E-02 2.19463E-04-4.03362E-04
 -1     21311-4.47257E-02 4.46197E-02 1.21620E-04 7.00705E-02-3.43502E-04-2.58691E-04
 -1     21312 6.06580E-02-5.97399E-02-8.88160E-04 1.04059E-01-1.69868E-04 4.53219E-04
 -1     21313 1.41319E-02-1.33181E-02-7.93790E-04 9.30833E-02 3.84579E-04-7.79972E-04
 -1     21314-4.11922E-02 4.09398E-02 2.44142E-04 3.66336E-02 1.40603E-04 1.63885E-04
 -1     21315-1.08985E-03 1.37591E-03-2.72280E-04 8.35456E-02-4.34924E-04 1.71398E-04
 -1     21316-6.05810E-02 6.11933E-02-6.26302E-04 1.31017E-02 2.41063E-04 1.87592E-04
 -1     21317-4.29757E-02 4.29147E-02 6.84454E-05 5.48869E-02 2.81596E-04 1.16431E-04
 -1     21318-3.46522E-02 3.45144E-02 1.49589E-04 6.21102E-02 2.93602E-04-5.59404E-05
 -1     21319-4.50919E-02 4.65548E-02-1.48464E-03 3.64968E-02-1.32421E-03-1.09023E-03
 -1     21320 4.50169E-02-4.48311E-02-1.65334E-04 9.50826E-02-1.30889E-04 1.41775E-04
 -1     21321-2.31897E-02 2.34439E-02-2.41700E-04 6.61442E-02 2.33289E-05 7.52409E-06
 -1     21322-2.87841E-02 2.88152E-02-1.85417E-05 6.45289E-02-1.33721E-04-1.44783E-04
 -1     21323-4.21193E-02 4.16515E-02 4.54925E-04 3.38735E-02 6.84552E-05-9.76109E-04
 -1     21324 2.78347E-02-2.80734E-02 2.49882E-04 8.50654E-02 2.03140E-04 9.14933E-05
 -1     21325 5.09457E-02-5.14938E-02 5.77181E-04 1.06516E-01-2.20370E-04-1.99801E-04
 -1     21326-4.89517E-02 4.87098E-02 2.42114E-04 3.95192E-02 1.81501E-04 2.25273E-04
 -1     21327-3.96827E-02 3.97827E-02-1.03130E-04 3.96546E-02-3.43760E-04 6.56135E-05
 -1     21328 2.53905E-02-2.52929E-02-7.57589E-05 9.84421E-02 3.50222E-04-8.33054E-04
 -1     21329 3.78940E-02-3.81174E-02 2.47291E-04 1.00868E-01-2.05487E-04 1.53456E-04
 -1     21330 4.85608E-03-4.83659E-03-1.87751E-05 7.17289E-02-1.16556E-04-1.13031E-04
 -1     21331-1.84477E-02 1.75081E-02 9.26254E-04 5.60188E-02-1.59345E-03 6.74282E-04
 -1     21332-4.70896E-02 4.67931E-02 2.76077E-04 3.23371E-02-2.86413E-04-3.04088E-04
 -1     21333-2.12180E-02 2.15564E-02-3.36100E-04 5.80058E-02-1.62823E-04-2.14509E-04
 -1     21334-4.56769E-02 4.53634E-02 3.13015E-04 3.95863E-02-4.70864E-04 8.08273E-05
 -1     21335 8.56735E-03-1.01029E-02 1.54941E-03 8.29217E-02 1.71903E-04-9.78731E-04
 -1     21336 1.75738E-02-1.75893E-02 3.05706E-05 8.42284E-02-8.07473E-05 3.69405E-04
 -1     21337-4.92786E-03 5.10915E-03-1.74724E-04 7.29628E-02-3.72035E-04-5.17469E-04
 -1     21338-4.27632E-02 4.29986E-02-2.37057E-04 3.85789E-02 3.12685E-04-1.26483E-04
 -1     21339-5.56855E-03 5.20573E-03 3.64007E-04 6.82950E-02 8.84407E-05-5.18309E-04
 -1     21340-2.52130E-02 2.45400E-02 6.65817E-04 5.33203E-02 1.51905E-04 8.13271E-04
 -1     21341-2.68496E-02 2.72768E-02-4.39610E-04 4.97240E-02-3.56966E-04 2.22573E-04
 -1     21342-2.93760E-02 3.04773E-02-1.07390E-03 1.15329E-01-3.89163E-03-4.28863E-04
 -1     21343-2.63412E-02 2.46483E-02 1.72293E-03 1.03214E-01-3.20009E-04-1.61872E-04
 -1     21344 1.77123E-03-1.73599E-03 2.22381E-05 1.32829E-01 2.13210E-04 3.51622E-04
 -1     21345 2.61205E-03-2.58403E-03 3.32479E-05 1.34165E-01 6.20544E-05 1.95717E-04
 -1     21346-7.49614E-02 6.98548E-02 5.11104E-03 4.11377E-02-1.56494E-03-4.19698E-03
 -1     21347-4.50639E-02 5.29979E-02-7.92123E-03 4.75665E-02-6.74652E-03 5.96968E-03
 -1     21348-1.81293E-01 1.85649E-01-4.99620E-03 1.37463E-01-2.61252E-02 2.92131E-02
 -1     21349-2.83446E-01 2.70099E-01 1.28762E-02 1.29505E-01-1.56198E-02 5.62202E-03
 -1     21350 1.31810E-02-1.07353E-02-2.38208E-03 1.54404E-01 2.31591E-03-1.13711E-03
 -1     21351 1.06701E-02-9.86832E-03-7.38146E-04 1.49638E-01-1.52073E-03 6.46050E-04
 -1     21352 1.96553E-02-2.01696E-02 6.00028E-04 2.16763E-01-9.34566E-04-3.28286E-04
 -1     21353 2.07925E-02-2.18116E-02 1.11716E-03 2.43920E-01 1.19840E-04 5.53556E-04
 -1     21354 2.16936E-02-2.21763E-02 5.86680E-04 2.58050E-01-9.19527E-04-1.76597E-05
 -1     21355 2.34788E-02-2.34741E-02 1.04516E-04 2.68908E-01 1.28940E-04 3.41939E-04
 -1     21356 2.43349E-02-2.36143E-02-6.09648E-04 2.71559E-01-2.71049E-04-6.15119E-04
 -1     21357 2.43335E-02-2.45997E-02 3.75310E-04 2.70115E-01 1.07918E-05-8.96144E-04
 -1     21358 2.26924E-02-2.28853E-02 2.97522E-04 2.64886E-01 2.83439E-04-1.66541E-04
 -1     21359 2.32147E-02-2.31385E-02 2.48719E-05 2.51821E-01 7.99445E-04-5.73102E-04
 -1     21360 2.14001E-02-2.11561E-02-1.50480E-04 2.31344E-01 5.01346E-04-1.86517E-04
 -1     21361 1.95526E-02-1.95066E-02 3.65660E-05 2.04364E-01 2.42932E-04 3.97152E-04
 -1     21362 1.61694E-02-1.48951E-02-1.20518E-03 1.73742E-01 7.93537E-05 4.39736E-05
 -1     21363 1.26257E-02-1.26593E-02 9.03050E-05 1.41643E-01 1.04306E-04-1.77506E-04
 -1     21364 9.86468E-03-9.81142E-03-6.14446E-06 1.17727E-01-5.00265E-04-3.53576E-04
 -1     21365 8.55818E-03-8.14868E-03-3.66497E-04 1.07310E-01-3.47411E-04 7.14303E-04
 -1     21366 8.39873E-03-9.05129E-03 6.98770E-04 1.15632E-01-1.70133E-04 2.65938E-04
 -1     21367 1.20477E-02-1.19358E-02-6.33971E-05 1.22075E-01 6.81012E-04-3.63440E-04
 -1     21368 8.74741E-03-8.22503E-03-4.74849E-04 1.18562E-01-4.53422E-04 2.88801E-04
 -1     21369 8.80709E-03-9.11255E-03 3.47909E-04 1.08411E-01-8.04476E-05 8.19077E-04
 -1     21370 1.17230E-02-1.15023E-02-1.72216E-04 1.18000E-01-7.75925E-05 7.91981E-04
 -1     21371 1.19433E-02-1.20717E-02 1.82756E-04 1.37504E-01 4.60222E-04-1.20901E-04
 -1     21372 1.67238E-02-1.70734E-02 4.16269E-04 1.67712E-01 2.75630E-04 5.53713E-04
 -1     21373 1.72540E-02-1.73115E-02 1.37885E-04 1.99826E-01-7.53003E-05 2.89690E-04
 -1     21374 2.01590E-02-2.07257E-02 6.58335E-04 2.28223E-01-8.38381E-04 2.15218E-04
 -1     21375 2.20268E-02-2.19290E-02 2.39335E-06 2.49806E-01-2.55113E-04 4.73579E-04
 -1     21376 2.25474E-02-2.27172E-02 2.77539E-04 2.61848E-01-1.00617E-04 1.03984E-04
 -1     21377 2.38511E-02-2.37101E-02-3.17815E-05 2.69872E-01-7.04056E-05 2.91015E-04
 -1     21378 2.48221E-02-2.46413E-02-7.17394E-05 2.71470E-01-1.59236E-04-2.91785E-05
 -1     21379 2.23380E-02-2.28145E-02 5.85296E-04 2.67763E-01-6.86031E-04 3.99320E-04
 -1     21380 2.13252E-02-2.20343E-02 8.13918E-04 2.59656E-01-5.70372E-04 8.66056E-05
 -1     21381 2.24711E-02-2.10943E-02-1.27871E-03 2.44768E-01 5.84464E-04-3.11154E-04
 -1     21382 1.83954E-02-1.81467E-02-1.62309E-04 2.12622E-01-3.36082E-03 7.77537E-04
 -1     21383 1.79267E-02-1.87444E-02 9.11720E-04 2.34154E-01-2.06666E-04-8.44105E-04
 -1     21384 2.22114E-02-2.32005E-02 1.09255E-03 2.53818E-01 1.41947E-03-6.25733E-04
 -1     21385 1.64989E-02-1.63706E-02-5.23147E-05 1.89596E-01 1.91119E-03 1.38230E-04
 -1     21386 2.23019E-02-2.26247E-02 4.30268E-04 2.65840E-01 7.45889E-04-6.59037E-04
 -1     21387 2.32011E-02-2.42468E-02 1.15640E-03 2.71070E-01 1.93106E-04-7.77179E-04
 -1     21388 2.36505E-02-2.38088E-02 2.67789E-04 2.71180E-01 4.66967E-04-2.18152E-04
 -1     21389 2.33833E-02-2.35099E-02 2.35953E-04 2.67598E-01 1.98862E-04 9.08830E-06
 -1     21390 2.19301E-02-2.25981E-02 7.71461E-04 2.58715E-01-7.25636E-04 1.47925E-04
 -1     21391 2.06638E-02-2.06755E-02 1.09263E-04 2.41916E-01 5.06119E-04 2.39794E-05
 -1     21392 2.01438E-02-1.98945E-02-1.61749E-04 2.18579E-01 6.45667E-04-9.60655E-06
 -1     21393 1.76641E-02-1.78168E-02 2.29031E-04 1.89137E-01-9.59204E-05 7.75126E-04
 -1     21394 1.57007E-02-1.65368E-02 8.99500E-04 1.57815E-01 1.25203E-04 6.36850E-04
 -1     21395 1.23416E-02-1.25616E-02 2.70766E-04 1.29832E-01-2.62644E-04 1.67661E-03
 -1     21396 9.84087E-03-9.75805E-03-3.98361E-05 1.10700E-01-2.41409E-04 1.10813E-03
 -1     21397 8.14882E-03-8.23459E-03 1.29279E-04 1.10298E-01 4.45778E-05-2.26818E-04
 -1     21398 8.27558E-03-7.95648E-03-2.70015E-04 1.18930E-01-3.36984E-04 9.83587E-05
 -1     21399 1.01114E-02-9.59655E-03-4.70664E-04 1.11174E-01 6.82730E-04 4.64220E-04
 -1     21400 1.14237E-02-1.17330E-02 3.59454E-04 1.25402E-01 2.51256E-04-9.32653E-04
 -1     21401 1.34123E-02-1.29579E-02-3.92982E-04 1.52124E-01-3.74203E-04-1.13749E-04
 -1     21402 1.68030E-02-1.60988E-02-6.30770E-04 1.83757E-01 3.37216E-04 3.14238E-04
 -1     21403 1.97570E-02-1.94306E-02-2.41323E-04 2.13681E-01-1.02117E-04-5.10445E-04
 -1     21404 2.15390E-02-2.05197E-02-9.24129E-04 2.38411E-01 3.94210E-04-3.86931E-04
 -1     21405 2.26552E-02-2.25092E-02-4.30229E-05 2.56358E-01 4.55056E-04-3.88724E-04
 -1     21406 2.33624E-02-2.33088E-02 5.38138E-05 2.67743E-01-1.46799E-04 6.83295E-05
 -1     21407 2.35658E-02-2.30881E-02-3.67450E-04 2.71374E-01-2.91774E-04-4.41981E-05
 -1     21408 2.44911E-02-2.45241E-02 1.42230E-04 2.70166E-01 2.09321E-04-9.72324E-05
 -1     21409 2.44173E-02-2.38665E-02-4.43824E-04 2.65011E-01-5.64664E-04-4.30907E-04
 -1     21410 2.11003E-02-2.05568E-02-4.41212E-04 2.53552E-01 5.05190E-05 1.00293E-04
 -1     21411 1.81844E-02-1.86116E-02 5.19056E-04 2.26629E-01-6.18356E-04 4.74050E-04
 -1     21412 1.63467E-02-1.94220E-02 3.15291E-03 1.82232E-01 4.41350E-03-3.46272E-03
 -1     21413-1.45077E-01 1.44966E-01 1.82553E-04 1.35148E-01 6.09843E-03-5.03495E-03
 -1     21414-1.20951E-01 1.32845E-01-1.18287E-02 1.40233E-01-4.78504E-03-7.73047E-03
 -1     21415-1.58899E-01 1.47736E-01 1.12240E-02 1.33349E-01-4.57749E-03-1.46351E-03
 -1     21416-1.39182E-01 1.34517E-01 4.71935E-03 1.35225E-01-4.29982E-03-7.00149E-04
 -1     21417-9.43166E-02 9.82483E-02-3.89232E-03 1.41408E-01-9.41054E-04 6.99447E-04
 -1     21418-6.94006E-02 6.93150E-02 1.03776E-04 1.41359E-01-1.73872E-03 1.06064E-03
 -1     21419-8.20454E-02 8.23627E-02-2.83628E-04 1.44072E-01 1.42427E-03-2.77256E-04
 -1     21420-1.23595E-01 1.24060E-01-4.10047E-04 1.38139E-01-3.02567E-03 4.26134E-03
 -1     21421-1.58199E-01 1.59035E-01-7.65551E-04 1.36602E-01-5.28232E-04-9.05063E-04
 -1     21422-1.57873E-01 1.64250E-01-6.31566E-03 1.29307E-01 1.95418E-03-4.54700E-03
 -1     21423-1.23530E-01 1.22108E-01 1.47226E-03 1.37491E-01 2.00412E-03-3.44645E-03
 -1     21424-1.65250E-01 1.64344E-01 9.78853E-04 1.42465E-01-2.85478E-03-7.54434E-03
 -1     21425-1.50885E-01 1.53689E-01-2.72455E-03 1.38785E-01-1.15317E-02 4.97001E-03
 -1     21426-3.07347E-01 2.82960E-01 2.42898E-02-1.28705E-01 8.27705E-03 1.56637E-02
 -1     21427-1.23902E-01 9.53263E-02 2.84701E-02-2.49831E-01-2.69305E-02 3.87355E-02
 -1     21428-1.96988E-01 1.84837E-01 1.20177E-02-1.64861E-01 3.19636E-03 2.36266E-03
 -1     21429-1.88155E-01 1.88733E-01-6.82381E-04-1.48507E-01 2.74183E-04-4.07181E-04
 -1     21430-1.85509E-01 1.85178E-01 2.37342E-04-1.41257E-01-3.67648E-04 3.17227E-04
 -1     21431-1.82433E-01 1.82612E-01-2.71016E-04-1.36969E-01 9.20993E-05 5.33275E-05
 -1     21432-1.79186E-01 1.78993E-01 1.02406E-04-1.35074E-01 1.89532E-04-6.43482E-05
 -1     21433-1.74347E-01 1.74617E-01-3.57833E-04-1.32111E-01 4.95271E-04-2.38654E-04
 -1     21434-1.69368E-01 1.68998E-01 2.85455E-04-1.26647E-01-3.17886E-04-4.94220E-04
 -1     21435-1.58623E-01 1.57911E-01 6.33703E-04-1.18549E-01-3.43469E-04 3.17430E-04
 -1     21436-1.39888E-01 1.39292E-01 5.20352E-04-1.06998E-01-1.55871E-03 1.45674E-03
 -1     21437-1.20935E-01 1.22021E-01-1.14839E-03-9.10244E-02 2.09357E-03-8.71704E-04
 -1     21438-1.01817E-01 1.03649E-01-1.88452E-03-7.33792E-02-1.28104E-03-4.04503E-04
 -1     21439-6.94395E-02 8.06972E-02-1.13032E-02-7.85439E-02 7.81830E-04-7.49748E-03
 -1     21440-1.04928E-01 8.66622E-02 1.82222E-02-9.22168E-02-2.39721E-04 1.00220E-02
 -1     21441-7.28219E-02 7.87760E-02-6.00354E-03-1.08982E-01 4.59948E-03-1.74411E-03
 -1     21442-7.85475E-02 7.65463E-02 1.96270E-03-8.45804E-02-3.41771E-03 5.70745E-03
 -1     21443-1.18971E-01 1.18442E-01 4.69858E-04-9.04527E-02 4.85421E-05-1.43623E-04
 -1     21444-1.39123E-01 1.38364E-01 6.91226E-04-1.03390E-01-1.37708E-03 4.39465E-04
 -1     21445-1.56130E-01 1.55989E-01 6.18451E-05-1.17132E-01-5.78053E-04-4.31626E-04
 -1     21446-1.66868E-01 1.67289E-01-5.06508E-04-1.25081E-01-1.72862E-04 4.22194E-04
 -1     21447-1.75274E-01 1.75442E-01-2.57069E-04-1.32112E-01-3.35325E-04 5.05648E-04
 -1     21448-1.79819E-01 1.79794E-01-6.49817E-05-1.35674E-01-1.98587E-04 1.56979E-04
 -1     21449-1.82727E-01 1.82602E-01 3.29180E-05-1.37930E-01 2.95741E-04-2.69923E-04
 -1     21450-1.87330E-01 1.87642E-01-4.04366E-04-1.39357E-01 3.03435E-04-4.59813E-04
 -1     21451-1.90998E-01 1.89492E-01 1.41052E-03-1.45892E-01 2.28725E-04-1.70372E-04
 -1     21452-1.91617E-01 1.91921E-01-3.84776E-04-1.63401E-01 7.64074E-03-6.71038E-03
 -1     21453-1.86553E-01 1.91826E-01-5.36528E-03-1.48768E-01 1.52962E-03-4.48300E-03
 -1     21454-1.86563E-01 1.85708E-01 7.62247E-04-1.43856E-01-9.09635E-04-6.08827E-04
 -1     21455-2.25962E-01 1.77707E-01 4.81853E-02-2.05235E-01 1.36682E-02 1.64044E-03
 -1     21456-1.82644E-01 1.83123E-01-5.69946E-04-1.38446E-01-2.72639E-04 1.95032E-04
 -1     21457-1.80791E-01 1.80915E-01-2.14585E-04-1.36218E-01-9.97433E-06-1.71835E-04
 -1     21458-1.77959E-01 1.77448E-01 4.21817E-04-1.33920E-01 1.78400E-04-5.25660E-05
 -1     21459-1.72848E-01 1.72711E-01 4.97993E-05-1.30335E-01-1.88832E-05-1.45634E-04
 -1     21460-1.65073E-01 1.64888E-01 1.02901E-04-1.23012E-01-2.18826E-04 7.12288E-05
 -1     21461-1.50658E-01 1.51089E-01-5.05439E-04-1.12083E-01 1.55709E-04-6.10403E-04
 -1     21462-1.32619E-01 1.30818E-01 1.73545E-03-9.86882E-02 1.00280E-03-1.22123E-03
 -1     21463-1.08253E-01 1.08872E-01-6.74757E-04-8.37701E-02-1.16049E-03-1.23628E-03
 -1     21464-9.21782E-02 9.40195E-02-1.88728E-03-6.81345E-02 4.08365E-04-4.33182E-03
 -1     21465-1.63292E-01 1.62553E-01 6.56828E-04-1.22579E-01-2.07727E-04-2.99179E-04
 -1     21466-1.26444E-01 1.27358E-01-9.78929E-04-9.63199E-02-4.08268E-04 2.47754E-04
 -1     21467-1.48391E-01 1.47921E-01 3.95050E-04-1.09758E-01-8.98987E-04-9.33410E-05
 -1     21468-1.72018E-01 1.72325E-01-3.94052E-04-1.29126E-01 5.20410E-04-9.56564E-05
 -1     21469-1.77829E-01 1.77808E-01-6.84093E-05-1.33954E-01 3.06589E-04-8.63609E-05
 -1     21470-1.80966E-01 1.80872E-01 3.07060E-06-1.36516E-01-3.48387E-05-1.08359E-04
 -1     21471-1.83410E-01 1.83041E-01 2.76819E-04-1.38630E-01-2.41190E-04-3.05993E-04
 -1     21472-1.87887E-01 1.88084E-01-2.91579E-04-1.41193E-01-2.82908E-05-7.99781E-04
 -1     21473-1.93931E-01 1.84611E-01 9.22392E-03-1.47056E-01 3.16379E-03-9.29687E-04
 -1     21474-2.06246E-01 2.03169E-01 2.92292E-03-1.48625E-01-1.58034E-02 4.82783E-02
 -1     21475 6.02207E-05-6.96033E-05 6.18412E-05 1.25757E-01 1.32286E-04 7.01308E-04
 -1     21476 5.34382E-05-5.58995E-06 7.14474E-06 1.28782E-01 2.84901E-05-4.10685E-04
 -1     21477-5.05946E-04 3.16229E-04 2.30716E-04 1.21173E-01 6.74618E-04-1.39773E-04
 -1     21478 5.62118E-05 4.04248E-05-4.33337E-05 1.19328E-01-4.91433E-05 2.61211E-04
 -1     21479 2.41074E-04-2.85348E-04 1.18817E-04 1.03205E-01 9.76844E-05 1.79695E-03
 -1     21480 7.15486E-05-1.72861E-04 1.57405E-04 7.33139E-02-1.61613E-04 1.22073E-03
 -1     21481 1.27070E-04-4.89053E-04 4.32554E-04 3.97700E-02-8.84228E-05 3.73812E-04
 -1     21482-1.45671E-04-2.17736E-04 3.73182E-04 6.12314E-03 1.43533E-04 1.42643E-03
 -1     21483 4.49230E-04-1.97794E-04-2.31870E-04-2.99123E-02 5.32273E-04 4.58725E-04
 -1     21484-1.78031E-05-1.09835E-05-2.24696E-05-4.80302E-02 1.08409E-04 4.28778E-05
 -1     21485 2.95739E-04 7.10238E-05-4.40461E-04-5.31896E-02-4.71243E-04 3.03208E-03
 -1     21486-1.37720E-03 4.85296E-03-3.82776E-03 1.28770E-02-1.81974E-03-1.01015E-02
 -1     21487 7.66079E-05 2.25830E-03-2.63455E-03 1.22617E-01 1.41334E-03 3.70098E-02
 -1     21488 1.18157E-02-9.84792E-03-1.99802E-03 3.71512E-02 5.83663E-03-6.42501E-04
 -1     21489 4.70790E-04 7.30549E-04-1.33017E-03-1.70225E-02 3.00173E-04 1.86654E-04
 -1     21490-8.50839E-05-1.80238E-05 5.69458E-05-4.76643E-02-2.39628E-05-8.79015E-04
 -1     21491 6.99936E-04-6.05361E-04-6.38349E-05-2.61138E-02 1.55510E-04 1.14767E-03
 -1     21492 1.23194E-05 6.05486E-08-1.72460E-09 1.11619E-02 1.06723E-10 6.50001E-04
 -1     21493-8.38959E-05-1.74188E-04 2.97779E-04 4.66618E-02-3.72170E-04-6.72728E-04
 -1     21494 4.34634E-05-1.57220E-04 1.81496E-04 8.00262E-02-1.14896E-04 6.47657E-04
 -1     21495 3.93074E-05 1.63151E-05 1.15913E-05 1.09485E-01-1.82146E-05 6.69268E-04
 -1     21496 3.64912E-05-7.90928E-05 9.09406E-05 1.16427E-01-3.45042E-05-4.56291E-04
 -1     21497-1.33179E-04-4.62806E-05 2.28398E-04 1.21118E-01 4.13610E-04 3.83543E-04
 -1     21498 5.60166E-05-2.93629E-06-3.23594E-08 1.21549E-01-1.13131E-06 4.21907E-04
 -1     21499 9.15584E-05-3.04292E-04 2.58276E-04 1.12998E-01 5.32754E-04 7.37417E-04
 -1     21500 2.26911E-04 6.71824E-05-2.43766E-04 1.24293E-01 3.49593E-04-5.08440E-04
 -1     21501 3.88961E-05-3.48637E-04 3.59961E-04 8.99215E-02-3.79902E-04 1.09686E-03
 -1     21502 3.34609E-05 1.01790E-05-1.96289E-07 5.64744E-02 9.26218E-06 1.34998E-04
 -1     21503 1.13981E-04-1.89232E-05-2.39055E-05 2.25349E-02-3.70848E-04 1.26116E-03
 -1     21504-4.16058E-05 6.43211E-05-3.25425E-05-1.20365E-02 2.81170E-05-3.95890E-04
 -1     21505 2.18752E-04-1.97127E-04 6.04364E-05-4.00977E-02 5.69832E-05 9.35738E-04
 -1     21506-1.61171E-05 3.00282E-04-3.24061E-04-5.16516E-02 4.38242E-04 1.59412E-04
 -1     21507-1.25740E-04-5.94913E-08 2.45281E-09-2.74832E-02 7.17910E-10-4.78253E-03
 -1     21508 2.61945E-04-1.80621E-04-7.44564E-05-4.18154E-02 1.92341E-04 9.05276E-04
 -1     21509 1.91027E-04-1.74610E-04 3.27261E-05-6.64074E-03 1.45940E-04-1.47313E-04
 -1     21510 9.61819E-05-2.22527E-04 1.74179E-04 2.82467E-02 3.44592E-05 1.04187E-03
 -1     21511 2.81084E-04-1.16789E-04-9.41745E-05 6.28920E-02 1.32602E-04 6.96095E-04
 -1     21512 9.36601E-05-7.02088E-04 6.68959E-04 9.49341E-02-5.03447E-04 3.72678E-04
 -1     21513 1.27183E-04-4.74962E-05 4.26034E-06 1.15472E-01-1.52149E-06 5.57597E-04
 -1     21514 3.33782E-05 1.13111E-08-1.32908E-09 1.19216E-01 3.04297E-10 1.66859E-04
 -1     21515 9.14647E-05 9.12891E-06-4.68678E-05 1.22096E-01 1.35348E-04-2.59651E-04
 -1     21516-9.88664E-02 9.96866E-02-7.87318E-04 1.73521E-01 3.50885E-04-2.67304E-04
 -1     21517-6.08692E-02 6.19018E-02-1.02458E-03 8.50216E-02-2.53607E-04-1.47544E-03
 -1     21518-1.42142E-01 1.42076E-01-2.79825E-06-9.63918E-02-1.48892E-05-3.31864E-05
 -1     21519 5.28231E-02-5.26882E-02-7.42476E-05 1.44620E-01-1.73263E-04-3.67972E-05
 -1     21520 1.99155E-02-1.97613E-02-6.13651E-05 2.32383E-01 1.87945E-04 3.12097E-04
 -1     21521 9.70819E-03-9.35396E-03-2.73773E-04 2.07179E-01-1.36294E-05-1.61523E-04
 -1     21522-1.55491E-01 1.55333E-01 8.18267E-05-1.08026E-01-5.07646E-05-1.17094E-05
 -1     21523-1.45157E-01 1.45058E-01 3.05477E-05-9.86705E-02 1.78244E-05 1.63425E-06
 -1     21524-1.35290E-01 1.35128E-01 9.90065E-05-8.35293E-02 9.08469E-05-3.33710E-05
 -1     21525-1.31439E-01 1.31560E-01-1.80136E-04-7.40970E-02 7.61783E-06-3.75434E-04
 -1     21526 4.41159E-02-4.41761E-02 9.92819E-05 4.65259E-02 1.70125E-04-5.22091E-04
 -1     21527 5.12697E-02-5.04377E-02-7.84052E-04 6.95064E-02 5.91212E-05-3.96801E-05
 -1     21528 3.37133E-03-2.92697E-03-3.93501E-04 1.17637E-01 1.69745E-04-3.87981E-04
 -1     21529 5.93206E-03-5.85699E-03 3.76716E-06 2.02047E-01 1.20358E-04 1.39980E-04
 -1     21530 4.74175E-02-4.75253E-02 1.80671E-04 1.81126E-01 9.22920E-05 1.36306E-04
 -1     21531 4.45953E-02-4.42873E-02-2.32037E-04 1.92160E-01 2.28692E-04-3.54727E-05
 -1     21532 3.58728E-02-3.55856E-02-2.06544E-04 2.04953E-01-7.97737E-05 1.20787E-04
 -1     21533 2.66510E-02-2.67602E-02 1.98329E-04 2.23655E-01-4.84211E-05-1.73367E-05
 -1     21534 1.33512E-02-1.33661E-02 9.75538E-05 2.09979E-01 5.46932E-05 2.35197E-04
 -1     21535-1.89862E-01 1.92872E-01-3.09711E-03-1.09678E-01-8.31929E-04-4.47098E-04
 -1     21536 1.43143E-02-1.46115E-02 3.48793E-04 1.14367E-01-2.22103E-05 4.90646E-04
 -1     21537-8.08704E-03 8.37978E-03-2.18285E-04 1.93804E-01-5.68334E-06 3.60929E-05
 -1     21538-1.81561E-01 1.79211E-01 2.25815E-03-1.90108E-02-3.09073E-03 3.57829E-04
 -1     21539-5.31993E-02 5.30582E-02 1.84610E-04 1.39299E-01-4.14471E-04 9.24376E-05
 -1     21540 6.51388E-02-6.51003E-02 1.51003E-05 1.09206E-01-2.50981E-05 4.82379E-04
 -1     21541-1.08556E-01 1.09575E-01-1.07948E-03 9.53727E-03-1.57018E-03 1.40128E-03
 -1     21542-8.49472E-02 8.49042E-02 3.10630E-05 3.17162E-02-6.29482E-05 3.16211E-04
 -1     21543-9.16110E-02 9.19320E-02-3.63900E-04-1.98010E-03-9.51703E-05 4.97749E-04
 -1     21544 7.63239E-02-7.63870E-02 1.07732E-04 1.16765E-01-3.68802E-04-1.62528E-05
 -1     21545 5.55174E-02-5.55226E-02 3.63960E-05 1.10374E-01-9.19445E-05 1.08466E-04
 -1     21546-3.50826E-02 3.48841E-02 1.78729E-04 4.38571E-02 5.06852E-04 5.23166E-04
 -1     21547-4.95600E-02 4.94883E-02 7.07004E-05 3.73419E-02 1.67028E-04 1.25247E-04
 -1     21548-5.70103E-02 5.70459E-02-4.62356E-05 1.96376E-02 7.92864E-05-4.95203E-05
 -1     21549 1.08694E-02-1.08302E-02-2.29319E-05 8.81111E-02-3.69468E-04 2.49530E-04
 -1     21550-3.55969E-02 3.56883E-02-1.02078E-04 4.20445E-02-2.56465E-04 1.20233E-04
 -1     21551-1.07911E-01 1.06942E-01 1.00661E-03 1.49804E-01-6.46756E-05 2.08668E-03
 -1     21552-6.58554E-02 6.44929E-02 1.35144E-03 3.83773E-02 1.06780E-02 3.15891E-03
 -1     21553 2.06123E-02-2.05838E-02 7.00637E-05 2.48339E-01 1.12350E-04-3.18165E-05
 -1     21554 2.60598E-02-2.62854E-02 2.83585E-04 1.43860E-01 4.62336E-05 3.11944E-05
 -1     21555 5.46170E-03-5.55626E-03 1.52420E-04 1.16400E-01-2.05910E-04 4.11822E-04
 -1     21556-1.61680E-01 1.61624E-01-2.26529E-05-1.16780E-01 3.21328E-04-1.73515E-04
 -1     21557 1.54908E-02-1.52702E-02-1.25527E-04 2.36482E-01 9.14768E-05 2.34194E-04
 -1     21558-1.86940E-01 1.87790E-01-9.40336E-04-1.38709E-01 1.85307E-03-1.30890E-04
 -1     21559-1.41523E-02 1.43450E-02-1.23225E-04 1.74652E-01 6.01503E-05-1.59231E-03
 -1     21560 3.07652E-02-3.00900E-02-5.97326E-04 1.92501E-01 2.10696E-04-1.81300E-04
 -1     21561 1.72760E-02-1.65340E-02-6.84384E-04 1.00040E-01 1.20700E-03-1.64684E-03
 -1     21562-7.60284E-03 4.21405E-03 3.31613E-03-2.61854E-02-5.02051E-04 9.53131E-04
 -1     21563 1.58260E-02-1.48243E-02-9.77017E-04-2.87344E-03 5.01278E-04 9.92128E-04
 -1     21564 2.46480E-02-2.47239E-02 1.75677E-04 2.47947E-01 1.08797E-04-1.68986E-04
 -1     21565 3.05296E-02-3.09891E-02 5.51888E-04 2.24255E-01 5.04211E-04 4.85425E-04
 -1     21566-4.90996E-03 4.20835E-03 7.75250E-04 1.97876E-01 1.15897E-03-1.38953E-04
 -1     21567-5.13215E-02 5.14811E-02-1.68656E-04 2.43227E-02-1.45590E-03 1.43370E-03
 -1     21568 2.95770E-03-2.86348E-03-4.39699E-05 1.20550E-01 9.42625E-05 2.32028E-04
 -1     21569 1.88674E-02-1.84442E-02-3.76663E-04 1.20896E-01 4.06811E-05 2.07081E-04
 -1     21570 3.07570E-02-3.03319E-02-3.56268E-04 1.65102E-01 3.98784E-04 3.34723E-04
 -1     21571 3.29821E-02-3.37920E-02 8.95872E-04 2.07527E-01 1.94781E-04 2.58092E-04
 -1     21572 6.00795E-04-4.95148E-04-1.37750E-04-3.87886E-02-5.96711E-05 1.66189E-04
 -1     21573-1.74729E-01 1.73923E-01 7.22129E-04-1.20641E-01 5.67160E-04 2.52749E-05
 -1     21574-2.70588E-01 2.57100E-01 1.32751E-02 1.19945E-01 1.04519E-02 5.59877E-03
 -1     21575-1.63649E-01 1.63718E-01-1.48775E-04-1.18642E-01 7.14912E-05-5.40442E-05
 -1     21576-1.23395E-01 1.24414E-01-1.08232E-03-8.55458E-02 4.47731E-04-1.36042E-04
 -1     21577-7.43936E-02 7.33104E-02 1.12942E-03 1.53832E-01 4.68694E-04-8.83462E-04
 -1     21578 3.15349E-02-3.20306E-02 5.71879E-04 1.86813E-01 3.09345E-04-3.54793E-04
 -1     21579 3.06690E-02-3.07773E-02 1.95327E-04 2.18383E-01-3.77994E-04 2.62616E-04
 -1     21580 1.32708E-02-1.25396E-02-6.85011E-04 1.13777E-01-2.49280E-05 5.20760E-05
 -1     21581 2.79739E-02-2.78702E-02-1.00618E-05 2.34638E-01-1.68987E-05-3.29815E-04
 -1     21582-2.09573E-01 2.03364E-01 6.10561E-03-1.19633E-01-3.20539E-03 1.10798E-03
 -1     21583 2.22471E-02-2.23863E-02 2.39565E-04 2.51141E-01-1.82326E-04 1.20843E-04
 -1     21584-1.50622E-01 1.50415E-01 1.33673E-04-1.04287E-01 1.78236E-04 4.74316E-04
 -1     21585 2.76390E-02-2.78750E-02 3.30873E-04 2.35977E-01-5.36966E-04 2.85196E-04
 -1     21586 1.08817E-02-1.11651E-02 3.47276E-04 9.47991E-02-3.00784E-04 6.03517E-04
 -1     21587-1.02691E-01 1.02757E-01-2.72772E-05 1.60096E-01 2.84974E-04-3.04301E-03
 -1     21588 9.73124E-03-9.86909E-03 1.84251E-04 1.13028E-01-1.44813E-04-8.93619E-04
 -1     21589-7.02531E-02 7.47539E-02-4.53511E-03-4.70240E-02-4.03179E-03-6.25380E-04
 -1     21590-1.75003E-01 1.74658E-01 2.59925E-04-1.29160E-01-4.67453E-04-1.26714E-04
 -1     21591-6.58529E-02 5.86976E-02 7.00485E-03 1.36265E-02 1.81140E-03 1.08300E-02
 -1     21592 2.16441E-02-2.22746E-02 6.69511E-04 2.23138E-02-3.88753E-05-3.25853E-04
 -1     21593 2.57151E-02-2.54019E-02-2.60138E-04 7.83246E-02 5.63046E-04-6.48930E-04
 -1     21594 3.41418E-03-3.91790E-03 5.51902E-04 1.23757E-01-1.05701E-03 3.73786E-04
 -1     21595 2.61447E-02-2.60290E-02-4.85287E-05 6.21033E-02-5.50096E-04-9.33404E-04
 -1     21596-1.73052E-01 1.72742E-01 2.23974E-04-1.27624E-01-2.86675E-04 1.43528E-04
 -1     21597-1.59453E-01 1.59550E-01-1.75334E-04-1.14968E-01 8.51146E-05-2.81335E-04
 -1     21598 1.39255E-02-1.40261E-02 1.96638E-04 2.36340E-01-6.83014E-04-7.19078E-04
 -1     21599 3.94869E-02-3.93516E-02-7.23684E-05 1.55121E-01-3.48968E-04-4.14447E-04
 -1     21600-1.93024E-01 1.93719E-01-7.87076E-04-1.35149E-01 3.72815E-05-1.90786E-03
 -1     21601 2.22469E-02-2.23977E-02 2.51380E-04 2.54204E-01-1.37034E-04-2.89760E-05
 -1     21602-9.45144E-02 9.28371E-02 1.61808E-03-5.68956E-02 4.70037E-04-3.11042E-04
 -1     21603 1.79765E-02-1.86637E-02 7.34990E-04 1.19030E-01 4.53164E-04-5.77154E-04
 -1     21604-2.00195E-01 1.98005E-01 2.13728E-03-1.57909E-01-5.88990E-03-1.77958E-02
 -1     21605-1.64898E-01 1.64878E-01-6.19569E-05-1.20374E-01-1.98124E-04 1.76309E-04
 -1     21606 2.42482E-02-2.31898E-02-1.00843E-03 3.06304E-02 4.18866E-04-2.54640E-05
 -1     21607 1.65697E-02-1.68711E-02 3.98184E-04 2.40622E-01-1.94362E-04 1.63782E-05
 -1     21608-1.23595E-01 1.19243E-01 4.41184E-03 1.38193E-01 3.06192E-04 7.80435E-03
 -1     21609 5.35858E-03-5.77613E-03 4.72627E-04 1.15027E-01 4.74942E-04 1.87595E-04
 -1     21610-1.36818E-01 1.37157E-01-4.02590E-04-8.59817E-02 2.30057E-04 4.72969E-05
 -1     21611 1.64756E-02-1.65717E-02 1.91849E-04 2.38084E-01-2.45588E-04 2.88052E-04
 -1     21612 9.50433E-03-9.34705E-03-1.45659E-04-1.33655E-02-4.26164E-04 3.31010E-04
 -1     21613-8.74029E-02 8.63780E-02 1.05443E-03 1.63166E-01 3.70797E-03 1.60944E-03
 -1     21614 9.15104E-03-9.39209E-03 3.32175E-04 2.24363E-01 7.47904E-04-1.31889E-04
 -1     21615-1.47544E-01 1.47920E-01-4.48045E-04-9.97802E-02-5.12274E-04-9.13274E-06
 -1     21616 4.84535E-03-4.49413E-03-3.57489E-04-3.20116E-02-2.96090E-04-1.77757E-04
 -1     21617 2.95910E-02-2.94784E-02-4.93415E-05 1.54841E-01 1.05658E-03 9.60328E-04
 -1     21618 1.75098E-02-1.73500E-02-6.48387E-05 2.39226E-01 8.35896E-04-2.95841E-04
 -1     21619 1.01078E-02-9.32529E-03-7.38716E-04 9.64065E-02 4.93108E-04-1.73686E-03
 -1     21620-3.24218E-02 3.24328E-02-1.01360E-04-6.58247E-03-3.26089E-03 1.19984E-03
 -1     21621-7.39432E-03 7.28549E-03 1.84111E-04 1.94394E-01-7.28969E-04-1.21713E-03
 -1     21622-1.85454E-01 1.84409E-01 9.56419E-04-1.27709E-01-2.17844E-03 8.93732E-04
 -1     21623 4.25416E-03-4.67332E-03 4.69026E-04 1.24456E-01-2.31215E-04 4.96899E-04
 -1     21624-5.80006E-02 5.98188E-02-1.77321E-03 1.46135E-01-1.63535E-03-1.26741E-03
 -1     21625 2.25384E-02-2.28024E-02 3.19779E-04 1.35220E-01-1.00674E-04 1.05690E-03
 -1     21626 3.22680E-02-3.20138E-02-1.74946E-04 1.98945E-01-3.21780E-04-3.33299E-05
 -1     21627 8.39863E-04-1.23769E-03 3.42107E-04-2.85259E-02-5.83851E-04-6.30723E-04
 -1     21628 2.67887E-02-2.63350E-02-3.56537E-04 2.39705E-01 2.78815E-04-4.41202E-04
 -1     21629-1.81329E-01 1.81135E-01 1.03363E-04-1.32273E-01-7.64530E-04-4.71133E-04
 -1     21630 1.63978E-02-1.65414E-02 2.41770E-04 2.43026E-01-3.75979E-05-1.56067E-04
 -1     21631-1.05780E-01 1.05214E-01 6.07248E-04 1.62649E-01-1.66614E-03-2.32032E-03
 -1     21632 2.29384E-02-2.31222E-02 2.87763E-04 2.57863E-01-6.13626E-04 4.17722E-04
 -1     21633-2.10388E-02 2.13975E-02-2.97803E-04 1.58573E-01-8.81753E-04 3.55473E-03
 -1     21634-1.29565E-01 1.30283E-01-7.79304E-04-8.39953E-02 4.24600E-04-1.16545E-03
 -1     21635 3.49410E-02-3.50002E-02 1.41503E-04 2.02715E-01-3.73710E-05 2.24850E-04
 -1     21636 9.48371E-03-1.08181E-02 1.33444E-03-2.02045E-02-2.78958E-04 3.80564E-04
 -1     21637-1.94750E-01 1.89616E-01 5.04257E-03-1.41029E-01 2.52148E-03-4.40832E-04
 -1     21638 1.08045E-02-1.10352E-02 2.77929E-04 1.12953E-01 4.31113E-04 5.84567E-05
 -1     21639 1.41999E-02-1.36894E-02-4.65718E-04 1.12488E-01-1.15579E-04-5.02189E-04
 -1     21640-7.38056E-02 7.37776E-02-5.53565E-06-4.25710E-02 5.15318E-03-2.38679E-03
 -1     21641-1.16867E-01 1.16803E-01 7.49841E-06-7.81232E-02 6.19003E-04-3.20508E-04
 -1     21642-1.43376E-01 1.43609E-01-3.00295E-04-9.80573E-02 7.43195E-05-3.44356E-04
 -1     21643-1.10390E-01 1.06407E-01 4.02505E-03 1.19550E-01 2.95224E-03-1.32103E-03
 -1     21644-2.29620E-01 2.37948E-01-8.31273E-03-1.78592E-01-1.92607E-03 8.25151E-03
 -1     21645-2.03582E-01 2.08099E-01-4.61926E-03-1.37275E-01-6.88868E-04-6.23052E-04
 -1     21646 2.25182E-02-2.22707E-02-1.45534E-04 2.54708E-01-1.09536E-04-4.10952E-05
 -1     21647-1.64329E-01 1.64060E-01 1.87739E-04-1.18640E-01 1.70397E-04 4.01935E-05
 -1     21648 1.45196E-02-1.36434E-02-8.20837E-04 1.08498E-01 7.51720E-05-6.43403E-04
 -1     21649 3.21555E-02-3.22274E-02 1.60771E-04 2.21227E-01 1.32084E-04 2.08549E-04
 -1     21650-1.00119E-01 1.01159E-01-1.08744E-03-6.18742E-02 1.94579E-04-1.90720E-03
 -1     21651 1.62962E-02-1.60506E-02-2.02405E-04 7.19963E-03 1.21517E-03 1.39615E-03
 -1     21652 7.95657E-03-7.37431E-03-5.99181E-04-2.16090E-02 5.39315E-04 1.55090E-03
 -1     21653-1.65325E-01 1.65231E-01 1.25350E-05-1.20475E-01-1.81275E-04 9.65981E-05
 -1     21654 4.93318E-03-5.52543E-03 6.54913E-04 1.06074E-01-8.08454E-04 1.93004E-04
 -1     21655-1.60481E-01 1.60056E-01 3.47151E-04-1.14826E-01 5.03584E-04-1.25485E-04
 -1     21656-8.93343E-02 9.27157E-02-3.39343E-03 6.48443E-02 7.51178E-04-6.16512E-04
 -1     21657-1.17768E-01 1.17726E-01-1.20322E-05-6.43117E-02-1.19487E-03-4.80642E-04
 -1     21658 3.06064E-02-3.06489E-02 1.14248E-04 1.81441E-01 1.80797E-04-2.50346E-04
 -1     21659 2.78503E-02-2.77211E-02-6.78577E-05 1.50701E-01-7.58271E-04-3.61011E-04
 -1     21660-1.08461E-01 1.08849E-01-3.53318E-04 1.37405E-01-1.16337E-03 8.35525E-05
 -1     21661 1.39802E-02-1.42178E-02 3.02628E-04 8.22607E-02 5.12955E-04 2.39372E-04
 -1     21662 2.39668E-02-2.44196E-02 5.09074E-04 4.53688E-02 1.44284E-03 1.21942E-04
 -1     21663 3.39203E-03-3.93213E-03 5.87804E-04 1.19660E-01-9.94804E-04 2.91527E-05
 -1     21664-1.46915E-01 1.46668E-01 1.76061E-04-1.00095E-01 1.37190E-04 1.58978E-04
 -1     21665 3.25535E-03-3.10316E-03-1.05470E-04 1.17682E-01 2.44349E-04 5.25074E-04
 -1     21666-1.79236E-01 1.78889E-01 2.56710E-04-1.26466E-01-8.15314E-04 2.53276E-05
 -1     21667 1.87398E-02-1.88251E-02 1.81832E-04 2.44118E-01-1.17382E-04-1.80439E-04
 -1     21668 1.65864E-02-1.68792E-02 3.90646E-04 2.42722E-01 7.28448E-04 7.69643E-05
 -1     21669 2.50620E-02-2.40431E-02-9.64070E-04 6.57980E-02 3.44875E-04 4.59379E-04
 -1     21670 1.43681E-02-1.47013E-02 4.28376E-04 2.37665E-01-9.11286E-04-3.14388E-04
 -1     21671 2.53988E-02-2.54866E-02 1.43958E-04 4.81999E-02 6.77494E-04-4.00266E-04
 -1     21672-1.68703E-02 1.73695E-02-4.44210E-04 1.61952E-01-6.55427E-04 3.16791E-03
 -1     21673 2.41116E-02-2.45865E-02 5.26536E-04 1.25016E-01 3.85043E-04 5.17921E-04
 -1     21674 2.93899E-02-2.94119E-02 1.12919E-04 2.27551E-01 2.23670E-04-4.79320E-04
 -1     21675-1.09219E-01 1.07763E-01 1.50672E-03 1.27851E-01-1.18509E-03 3.74607E-03
 -1     21676-1.08815E-01 1.10380E-01-1.62262E-03-6.56964E-02 2.44942E-03-1.10662E-03
 -1     21677 2.22236E-02-2.21512E-02-1.59666E-05 1.38958E-01 4.49128E-04-8.11631E-05
 -1     21678 4.46490E-03-4.02186E-03-3.91675E-04 1.24460E-01 3.03510E-04-9.87306E-05
 -1     21679-2.38597E-01 2.44495E-01-6.02121E-03-1.27877E-01-3.74690E-03 2.28634E-02
 -1     21680-6.74416E-02 6.49767E-02 2.45886E-03 4.74450E-02-5.36315E-04 7.78165E-03
 -1     21681-5.66442E-03 6.43919E-03-6.97620E-04 1.87190E-01 1.69988E-03-6.52807E-04
 -1     21682-2.19330E-02 2.12104E-02 6.59296E-04-7.52972E-03-1.35328E-03-4.77103E-04
 -1     21683-1.78524E-01 1.78295E-01 1.41236E-04-1.31561E-01 5.92297E-04 5.85869E-04
 -1     21684 3.05295E-02-3.07091E-02 2.66421E-04 2.19944E-01 1.29664E-04-2.95928E-04
 -1     21685 3.53886E-02-3.53468E-02 2.67678E-05 1.67969E-01 6.61057E-05-2.95676E-05
 -1     21686 1.03191E-02-9.51494E-03-7.66247E-04-2.16259E-02-4.49143E-04-1.18842E-04
 -1     21687 1.53756E-02-1.52967E-02-3.18432E-05 1.16174E-01-2.82699E-05-1.20383E-04
 -1     21688 2.59308E-03-1.80639E-03-7.26193E-04 1.13728E-01 2.54846E-04-2.44082E-04
 -1     21689-1.10393E-01 1.07988E-01 2.45309E-03 1.65260E-01 3.56005E-03 2.20692E-03
 -1     21690 3.10489E-03-3.09165E-03 6.84977E-05 2.10953E-01 5.70640E-04-4.18141E-04
 -1     21691 6.96976E-03-8.23869E-03 1.32790E-03 9.90902E-02-5.75155E-04 6.90497E-04
 -1     21692-9.42899E-02 1.05339E-01-1.11835E-02 7.00292E-02 1.17531E-02 5.23768E-04
 -1     21693 5.63073E-04-7.46746E-05-4.42410E-04 1.20103E-01 1.33976E-04 6.22084E-04
 -1     21694-8.82758E-02 8.95624E-02-1.32814E-03-5.26154E-02-1.84778E-03-4.87515E-04
 -1     21695-1.54792E-01 1.54515E-01 2.01725E-04-1.08528E-01-3.95895E-04-2.22140E-04
 -1     21696 9.65215E-03-9.11793E-03-4.60484E-04 8.78826E-02 2.04156E-04-9.71367E-04
 -1     21697-1.66357E-01 1.66275E-01-3.81928E-07-1.21575E-01-5.49825E-05-7.70315E-05
 -1     21698 1.34254E-03-2.02871E-03 6.38115E-04-1.65222E-02-3.83078E-04-1.99015E-03
 -1     21699-5.86283E-02 6.15890E-02-2.97657E-03-4.06380E-03-4.38713E-03-1.68690E-03
 -1     21700 2.39545E-02-2.35315E-02-3.21827E-04 2.52722E-01-3.95760E-04 4.07795E-04
 -1     21701 8.27984E-03-8.98331E-03 7.16305E-04-1.01433E-02-5.32276E-04-2.73237E-04
 -1     21702-1.24583E-01 1.24821E-01-2.97811E-04-8.25677E-02 1.70615E-03-1.59636E-03
 -1     21703-4.29826E-02 3.96053E-02 3.07767E-03 6.43220E-02-2.87596E-03-7.95875E-03
 -1     21704-3.35138E-01 3.51339E-01-1.63697E-02-1.32125E-01 3.60159E-02-1.99387E-02
 -1     21705-1.15463E-02 1.24903E-02-1.01481E-03-2.42704E-02-2.10625E-03-1.90137E-03
 -1     21706 1.28591E-02-1.21634E-02-7.01775E-04-1.50483E-02 2.01550E-05-1.00596E-03
 -1     21707 2.05453E-02-1.97310E-02-7.63252E-04 1.30568E-01 1.55919E-04-8.95273E-05
 -1     21708-1.18656E-01 1.17897E-01 7.03549E-04-7.14912E-02-3.90439E-04-1.18319E-03
 -1     21709 3.38633E-03-3.60388E-03 2.65668E-04 1.17175E-01-4.99056E-04-1.34552E-04
 -1     21710-1.24557E-02 1.22538E-02 1.52708E-04 1.80993E-03 3.89489E-04 2.09175E-03
 -1     21711-7.27420E-02 6.94802E-02 3.23038E-03-5.02859E-02 1.49209E-03 7.03813E-04
 -1     21712-1.12562E-01 1.15637E-01-3.00860E-03 1.56614E-01-9.93400E-04-4.46568E-03
 -1     21713-1.26528E-01 1.25892E-01 5.76223E-04-7.65827E-02 1.42923E-04 1.39457E-04
 -1     21714 2.06889E-02-1.95994E-02-1.02336E-03 9.25227E-02-6.69461E-04 1.75755E-04
 -1     21715 1.81999E-02-1.81261E-02-3.90458E-05 1.23867E-02-7.01514E-04-1.72629E-03
 -1     21716-1.36713E-01 1.37459E-01-8.07487E-04-8.95014E-02 3.51036E-04-1.55292E-03
 -1     21717 2.02098E-02-2.14490E-02 1.30504E-03 7.37127E-02-6.74443E-04 1.19024E-03
 -1     21718-3.30445E-01 3.57866E-01-2.75112E-02 1.02740E-01-2.12628E-02-1.38706E-02
 -1     21719-1.10440E-01 1.09861E-01 5.27025E-04-6.31274E-02-8.26398E-04 5.52957E-04
 -1     21720-8.75179E-02 6.23399E-02 2.51949E-02 5.55017E-02 1.36327E-02-1.97614E-02
 -1     21721 2.01868E-03-3.76888E-03 1.82867E-03 2.04596E-01 7.76850E-04-1.75805E-03
 -1     21722-1.26404E-01 1.24129E-01 2.32165E-03 1.44628E-01-1.74435E-03-1.88358E-03
 -1     21723-1.42790E-01 1.42745E-01-2.77610E-05-9.92824E-02-1.60063E-03 9.85220E-04
 -1     21724 1.43107E-02-1.39189E-02-3.25214E-04 8.28694E-02 7.94364E-04-2.00548E-03
 -1     21725 4.65654E-07 6.21374E-04-5.73828E-04 1.19736E-01 1.27927E-04-1.69157E-04
 -1     21726 1.75440E-02-1.76788E-02 1.84899E-04 1.15972E-01-4.30334E-04-4.62579E-04
 -1     21727-3.00979E-01 3.21099E-01-2.02887E-02 4.77264E-02 1.50313E-02-2.05186E-02
 -1     21728-9.30038E-02 8.91424E-02 3.82192E-03-5.86057E-02 1.59601E-03 1.66880E-03
 -1     21729-1.34888E-01 1.34990E-01-1.67944E-04-9.41694E-02-1.73349E-05 2.64176E-04
 -1     21730-9.61108E-02 9.41496E-02 1.92768E-03-3.88354E-02-5.86394E-04-8.19092E-04
 -1     21731-6.50516E-02 6.21764E-02 2.84790E-03-5.25445E-03 9.39202E-04 3.06101E-03
 -1     21732-3.77975E-02 3.77196E-02 1.28124E-04 1.47968E-01-4.00877E-04 2.88410E-04
 -1     21733-5.92990E-02 5.91634E-02 1.31522E-04 2.94619E-02-5.83303E-05-1.81769E-04
 -1     21734-9.60095E-02 9.69888E-02-1.00354E-03 2.20985E-03-1.02855E-04-1.86353E-03
 -1     21735-1.59551E-01 1.57811E-01 1.47226E-03 3.69780E-02-3.92213E-03-1.32507E-02
 -1     21736-4.69961E-02 4.41744E-02 2.66639E-03 8.08996E-03-1.69733E-03 1.15598E-05
 -1     21737 1.68369E-02-1.77919E-02 9.90619E-04-9.75837E-04-1.95764E-04-5.64553E-04
 -1     21738-2.95677E-02 3.15067E-02-1.91870E-03 1.19282E-01-9.22237E-05-1.80936E-03
 -1     21739-2.83810E-02 2.76704E-02 7.47221E-04 1.08219E-01-2.85235E-03 2.06324E-03
 -1     21740-2.47596E-02 2.36230E-02 1.17143E-03 1.07969E-01-1.03566E-03-4.63203E-03
 -1     21741 1.06547E-03-1.02057E-03-2.95283E-09 1.32544E-01-1.81532E-05 1.63932E-04
 -1     21742 2.23329E-03-2.18691E-03 1.15820E-09 1.33606E-01 1.30431E-04 2.78589E-04
 -1     21743 1.79262E-03-1.74850E-03-3.78148E-11 1.32612E-01 2.00550E-04 1.28977E-04
 -1     21744-1.02946E-02 2.44772E-03 7.90993E-03 1.34283E-01-3.44987E-04 3.01642E-03
 -1     21745 1.95062E-02-1.46908E-02-4.73946E-03 1.85520E-01-2.52806E-03 2.44891E-03
 -1     21746 1.98131E-02-1.58653E-02-3.85759E-03 2.10946E-01-5.36426E-04 2.65398E-03
 -1     21747 2.37300E-02-2.15497E-02-2.08122E-03 2.31186E-01 2.79743E-04 1.20603E-03
 -1     21748 2.01116E-02-2.07041E-02 6.96138E-04 2.44001E-01-6.69630E-04 1.30212E-03
 -1     21749 2.27603E-02-2.22940E-02-3.63972E-04 2.52848E-01-3.52150E-06-9.10253E-04
 -1     21750 2.38936E-02-2.23707E-02-1.42051E-03 2.59588E-01-4.92574E-04 2.88869E-04
 -1     21751 2.29307E-02-2.31016E-02 2.77984E-04 2.64272E-01 2.83344E-04 1.96625E-04
 -1     21752 2.54128E-02-2.37183E-02-1.57843E-03 2.67867E-01 3.24102E-04-1.58224E-04
 -1     21753 2.51682E-02-2.37814E-02-1.27276E-03 2.70660E-01-3.82400E-04-3.51975E-04
 -1     21754 2.37126E-02-2.40929E-02 4.94971E-04 2.71733E-01-3.90948E-04 6.53693E-04
 -1     21755 2.34142E-02-2.42349E-02 9.35291E-04 2.71763E-01-2.16931E-04-1.24539E-04
 -1     21756 2.33121E-02-2.34067E-02 2.05335E-04 2.70321E-01-2.89655E-04-4.04924E-04
 -1     21757 2.31790E-02-2.26300E-02-4.37957E-04 2.68370E-01 4.24939E-04-7.48150E-05
 -1     21758 2.34562E-02-2.25903E-02-7.56396E-04 2.62732E-01-2.50007E-04 2.87878E-04
 -1     21759 2.33785E-02-2.31483E-02-1.22401E-04 2.57965E-01 6.28392E-05 2.09615E-04
 -1     21760 2.31208E-02-2.22018E-02-8.17010E-04 2.50493E-01-3.79813E-04 3.06959E-04
 -1     21761 2.13040E-02-2.12495E-02 4.90264E-05 2.40071E-01-8.28199E-04 6.24776E-04
 -1     21762 2.11856E-02-1.94327E-02-1.66174E-03 2.29738E-01 3.37811E-05-3.15965E-04
 -1     21763 1.97121E-02-1.98134E-02 1.93184E-04 2.15813E-01-7.01054E-04 3.30991E-04
 -1     21764 1.85954E-02-1.78248E-02-6.93689E-04 2.02731E-01-4.55140E-04 1.49882E-05
 -1     21765 1.72560E-02-1.81085E-02 9.22377E-04 1.86230E-01-9.50405E-04-1.40569E-04
 -1     21766 1.61648E-02-1.64556E-02 3.52080E-04 1.71129E-01-4.81608E-04-3.81330E-04
 -1     21767 1.50463E-02-1.43908E-02-6.05110E-04 1.54202E-01-2.51693E-04 9.64590E-04
 -1     21768 1.25403E-02-1.26811E-02 1.89564E-04 1.40112E-01 1.34342E-04 5.05210E-04
 -1     21769 1.07099E-02-1.14981E-02 8.29487E-04 1.27097E-01 8.17655E-04 5.68051E-04
 -1     21770 1.04349E-02-1.08653E-02 4.69634E-04 1.16712E-01 5.37891E-04 5.80667E-04
 -1     21771 1.10821E-02-1.14310E-02 3.85123E-04 1.09850E-01-1.71124E-04-1.47758E-03
 -1     21772 1.00993E-02-9.57125E-03-4.89776E-04 1.08625E-01-7.70169E-04-5.88407E-05
 -1     21773 9.22062E-03-9.56145E-03 3.78792E-04 1.10276E-01-7.21777E-04 1.28433E-04
 -1     21774 8.53482E-03-8.12856E-03-3.62735E-04 1.13259E-01 3.92767E-04-5.39690E-04
 -1     21775 8.55599E-03-9.21067E-03 7.01363E-04 1.18837E-01-2.34172E-04-1.32287E-03
 -1     21776 7.06759E-03-7.24534E-03 2.34146E-04 1.28372E-01-1.59745E-04-3.06887E-05
 -1     21777-1.08063E-02 1.03451E-02 5.08307E-04 1.32749E-01-6.11517E-04-4.30385E-03
 -1     21778 1.93576E-02-1.88238E-02-4.53282E-04 1.84913E-01 1.96364E-03 2.28207E-03
 -1     21779 1.83610E-02-1.82072E-02-5.18651E-05 2.09400E-01 3.35555E-04 1.07412E-04
 -1     21780 2.30305E-02-2.16320E-02-1.29543E-03 2.32891E-01 9.87484E-04-1.87416E-04
 -1     21781 2.25899E-02-2.17092E-02-7.79386E-04 2.42813E-01-6.80015E-04-6.61979E-04
 -1     21782 2.30559E-02-2.26066E-02-3.39882E-04 2.53556E-01-1.47950E-03 1.43846E-04
 -1     21783 2.39541E-02-2.25864E-02-1.26206E-03 2.59110E-01-7.89222E-04-3.72886E-05
 -1     21784 2.43657E-02-2.36357E-02-6.16444E-04 2.65078E-01 3.68689E-04 4.56787E-04
 -1     21785 2.45947E-02-2.35589E-02-9.24658E-04 2.67687E-01 1.81682E-04 5.15575E-04
 -1     21786 2.38741E-02-2.32221E-02-5.40289E-04 2.70661E-01 3.29553E-04 4.12562E-04
 -1     21787 2.39031E-02-2.37383E-02-5.51212E-05 2.71425E-01 4.19553E-04 2.22477E-04
 -1     21788 2.39515E-02-2.35915E-02-2.51976E-04 2.71350E-01 2.74930E-04 5.77919E-04
 -1     21789 2.36086E-02-2.24637E-02-1.04110E-03 2.70552E-01 3.89892E-04 6.15067E-05
 -1     21790 2.29144E-02-2.29974E-02 1.94023E-04 2.67479E-01-2.53858E-04 5.63446E-04
 -1     21791 2.30797E-02-2.19529E-02-1.01549E-03 2.63181E-01-9.64987E-05 5.48644E-04
 -1     21792 2.33809E-02-2.18100E-02-1.46202E-03 2.57495E-01 1.18820E-03 9.88870E-04
 -1     21793 2.24824E-02-2.21821E-02-1.89475E-04 2.49732E-01-3.12565E-04 3.67546E-04
 -1     21794 2.23970E-02-2.15088E-02-7.88239E-04 2.41363E-01 3.30181E-04-1.18329E-04
 -1     21795 2.10804E-02-2.06764E-02-3.04661E-04 2.28839E-01-4.42004E-04-1.76133E-04
 -1     21796 2.04685E-02-1.99522E-02-4.25202E-04 2.16436E-01-3.24850E-04-1.17967E-04
 -1     21797 1.86146E-02-1.90861E-02 5.55467E-04 2.02109E-01 1.23246E-04-4.24992E-04
 -1     21798 1.71596E-02-1.74183E-02 3.34117E-04 1.86690E-01 5.24047E-04-3.16748E-04
 -1     21799 1.54209E-02-1.58956E-02 5.41363E-04 1.70163E-01-4.91857E-04 1.18054E-04
 -1     21800 1.48683E-02-1.42617E-02-5.53900E-04 1.54794E-01-3.76307E-04-5.92007E-04
 -1     21801 1.23868E-02-1.22512E-02-8.63456E-05 1.39589E-01-3.66233E-04-1.32646E-03
 -1     21802 1.20901E-02-1.17880E-02-2.63816E-04 1.26721E-01-2.60233E-04-1.17042E-04
 -1     21803 1.07187E-02-1.00694E-02-6.11318E-04 1.18138E-01-4.61488E-04 7.06528E-04
 -1     21804 9.55259E-03-1.01213E-02 6.07770E-04 1.10597E-01 6.61386E-04-9.60948E-04
 -1     21805 8.66693E-03-9.89706E-03 1.26475E-03 1.07545E-01-1.29774E-04 5.00063E-04
 -1     21806 8.28598E-03-8.72212E-03 4.72370E-04 1.10370E-01-6.89381E-04-6.14309E-04
 -1     21807 8.96304E-03-8.27197E-03-6.47168E-04 1.13181E-01-1.45718E-04-8.18168E-05
 -1     21808 7.80645E-03-8.12829E-03 3.75488E-04 1.19467E-01 8.23693E-04 7.99175E-04
 -1     21809 7.39902E-03-6.69319E-03-6.53215E-04 1.27537E-01-2.87817E-04 1.77905E-04
 -1     21810-8.69444E-02 8.24536E-02 4.54250E-03 3.55298E-02-1.14568E-02-3.57914E-04
 -1     21811-4.96744E-02 5.67078E-02-7.04270E-03 4.99550E-02 7.78617E-04-8.85239E-03
 -1     21812-5.21760E-02 4.96707E-02 2.50016E-03 4.23857E-02-5.60832E-03 1.33923E-03
 -1     21813-8.92062E-02 1.20934E-01-3.16782E-02 9.63759E-02-1.11831E-02 8.44943E-03
 -1     21814-1.57310E-01 1.64678E-01-7.31680E-03 1.46009E-01 3.29105E-03-6.45115E-03
 -1     21815-1.65384E-01 1.62034E-01 3.40578E-03 1.44481E-01 6.23512E-03 2.87702E-03
 -1     21816-1.49914E-01 1.56014E-01-6.04717E-03 1.34978E-01 7.44660E-03 7.52784E-03
 -1     21817-1.38198E-01 1.46438E-01-8.17287E-03 1.37030E-01 4.19134E-03 5.82453E-03
 -1     21818-1.14899E-01 1.17439E-01-2.46084E-03 1.39508E-01 3.29886E-04-7.85419E-04
 -1     21819-9.02292E-02 8.84737E-02 1.82106E-03 1.49527E-01-2.50857E-03-4.98910E-04
 -1     21820-5.74228E-02 5.80052E-02-5.43680E-04 1.35803E-01-7.68900E-04-1.52296E-03
 -1     21821-1.25577E-01 1.08282E-01 1.73818E-02 9.34883E-02-1.01194E-02-1.97259E-02
 -1     21822-1.50744E-01 1.48915E-01 1.94116E-03 1.53327E-01 3.22067E-03-5.79533E-03
 -1     21823-1.53614E-01 1.76266E-01-2.25427E-02 1.38755E-01 1.04301E-03-7.35677E-03
 -1     21824-1.55075E-01 1.49925E-01 5.25078E-03 1.39075E-01-2.19873E-04-2.96246E-03
 -1     21825-1.39476E-01 1.44459E-01-4.90969E-03 1.43074E-01 4.75810E-03-4.08173E-03
 -1     21826-1.18466E-01 1.19340E-01-8.04663E-04 1.43823E-01 1.64547E-03 3.16767E-04
 -1     21827-9.20833E-02 9.24787E-02-3.53872E-04 1.48824E-01 2.62370E-03-1.97350E-04
 -1     21828-5.61273E-02 5.79132E-02-1.77299E-03 1.34196E-01 1.07775E-03 1.22920E-03
 -1     21829-2.34026E-01 2.33297E-01-1.26253E-07 1.19129E-01-7.60104E-03 1.41820E-02
 -1     21830-1.97167E-01 1.96146E-01 1.24563E-07 1.48914E-01-3.91473E-02 1.31537E-02
 -1     21831-2.26708E-01 2.24298E-01-1.10667E-07 1.19048E-01 1.90366E-03 2.50138E-02
 -1     21832-3.81642E-01 3.70439E-01 1.12875E-02-1.19595E-01-8.13225E-03 8.12966E-03
 -1     21833-1.21867E-01 1.54770E-01-3.29328E-02-1.58069E-01-1.40748E-02-3.87200E-03
 -1     21834-2.00545E-01 2.09206E-01-8.74317E-03-1.56642E-01-2.21448E-03-9.94745E-03
 -1     21835-1.95853E-01 2.01458E-01-5.70345E-03-1.50446E-01 5.62380E-04-4.15038E-04
 -1     21836-1.90572E-01 1.91387E-01-9.14495E-04-1.45111E-01 2.50515E-03 9.56504E-04
 -1     21837-1.87866E-01 1.88530E-01-7.54036E-04-1.42110E-01-3.49422E-04 1.48002E-04
 -1     21838-1.85987E-01 1.86461E-01-5.64571E-04-1.41185E-01 5.99203E-04-3.89677E-05
 -1     21839-1.83762E-01 1.83854E-01-1.83597E-04-1.38804E-01-3.13721E-05-5.05497E-05
 -1     21840-1.82316E-01 1.82230E-01-3.38564E-06-1.37841E-01 7.56837E-05 3.47203E-04
 -1     21841-1.81188E-01 1.80862E-01 2.37228E-04-1.36537E-01-2.38201E-04 2.32719E-04
 -1     21842-1.79275E-01 1.79216E-01-3.18848E-05-1.35255E-01-3.17347E-04 2.74201E-05
 -1     21843-1.77469E-01 1.77786E-01-4.06905E-04-1.34238E-01-3.26677E-04 2.42390E-04
 -1     21844-1.75402E-01 1.74536E-01 7.75930E-04-1.32144E-01-2.91061E-04-2.64938E-04
 -1     21845-1.72253E-01 1.71650E-01 5.13951E-04-1.29705E-01-1.40011E-04-3.26608E-04
 -1     21846-1.68378E-01 1.68411E-01-1.18648E-04-1.26619E-01-7.03442E-04-3.54118E-05
 -1     21847-1.62771E-01 1.64416E-01-1.72984E-03-1.22946E-01-5.44000E-04 1.80284E-04
 -1     21848-1.56515E-01 1.57044E-01-6.06996E-04-1.18181E-01-3.25322E-04 4.04806E-04
 -1     21849-1.48778E-01 1.49056E-01-3.53722E-04-1.11408E-01-1.56372E-06-4.52502E-05
 -1     21850-1.39842E-01 1.40375E-01-6.06105E-04-1.05000E-01 2.54373E-04 1.83628E-03
 -1     21851-1.30106E-01 1.29522E-01 5.07263E-04-9.81898E-02 6.71120E-04 4.93103E-04
 -1     21852-1.19237E-01 1.17547E-01 1.62537E-03-9.18200E-02 2.86082E-04 2.76552E-03
 -1     21853-1.09924E-01 1.06643E-01 3.20721E-03-8.52865E-02 2.19188E-03 2.06535E-03
 -1     21854-9.85968E-02 9.52071E-02 3.31941E-03-8.03522E-02 1.68628E-03 2.72653E-03
 -1     21855-8.92301E-02 8.79879E-02 1.14611E-03-7.51044E-02-7.10884E-03 3.09643E-03
 -1     21856-8.42618E-02 7.52862E-02 8.88605E-03-8.49756E-02 4.20373E-03 1.07542E-02
 -1     21857-6.53253E-02 6.87893E-02-3.53380E-03-1.61614E-02-2.79695E-02 5.93913E-03
 -1     21858-3.18577E-01 3.68180E-01-4.92271E-02-1.05702E-01 1.88717E-02-2.91824E-02
 -1     21859-1.86019E-01 2.19300E-01-3.32087E-02-1.89680E-01-2.72717E-02-5.11130E-02
 -1     21860-2.00508E-01 2.16316E-01-1.58867E-02-1.62879E-01-5.05360E-05-4.12628E-03
 -1     21861-1.85826E-01 1.92733E-01-6.99150E-03-1.53532E-01 2.28715E-04 4.24343E-03
 -1     21862-1.88877E-01 1.92322E-01-3.47486E-03-1.46217E-01 2.78983E-03 2.15708E-03
 -1     21863-1.87546E-01 1.88583E-01-1.12479E-03-1.41486E-01 1.75886E-03-1.03579E-03
 -1     21864-1.85451E-01 1.85738E-01-3.71721E-04-1.40785E-01 3.91781E-04 1.79650E-04
 -1     21865-1.83911E-01 1.82817E-01 1.00365E-03-1.38766E-01 4.17453E-04 1.78525E-04
 -1     21866-1.82432E-01 1.82303E-01 3.66383E-05-1.37477E-01-1.14518E-04 2.77094E-04
 -1     21867-1.81028E-01 1.80760E-01 1.76528E-04-1.36576E-01 1.13133E-05-3.44509E-04
 -1     21868-1.79689E-01 1.79175E-01 4.22903E-04-1.35561E-01 1.30354E-04-2.93529E-04
 -1     21869-1.77497E-01 1.77366E-01 3.92323E-05-1.34203E-01-2.93140E-04-2.34876E-04
 -1     21870-1.75235E-01 1.74426E-01 7.18512E-04-1.31514E-01 5.49496E-04-2.08001E-05
 -1     21871-1.71960E-01 1.72449E-01-5.78607E-04-1.29536E-01-8.14031E-06 1.63996E-04
 -1     21872-1.68894E-01 1.68090E-01 7.17685E-04-1.26624E-01 1.20728E-04 2.29169E-04
 -1     21873-1.63734E-01 1.62758E-01 8.92451E-04-1.22750E-01 7.46161E-04 3.49847E-05
 -1     21874-1.56679E-01 1.57407E-01-8.13729E-04-1.18170E-01 5.19993E-04 2.92204E-04
 -1     21875-1.49083E-01 1.46917E-01 2.09120E-03-1.12653E-01 5.15971E-04-1.26315E-03
 -1     21876-1.39717E-01 1.39788E-01-1.46945E-04-1.05573E-01-2.07489E-04-1.75264E-03
 -1     21877-1.29150E-01 1.29573E-01-4.91818E-04-9.73744E-02 8.24715E-04-2.70525E-03
 -1     21878-1.17777E-01 1.17380E-01 3.28987E-04-8.80174E-02-1.09239E-03 8.84600E-04
 -1     21879-1.11268E-01 1.12167E-01-9.57036E-04-8.27512E-02 1.36588E-03 1.47984E-03
 -1     21880-9.43359E-02 9.68823E-02-2.60323E-03-7.88385E-02-9.09981E-04 4.47798E-03
 -1     21881-9.19212E-02 8.77179E-02 4.16639E-03-8.18742E-02 2.58429E-03 2.79973E-03
 -1     21882-8.64792E-02 7.40199E-02 1.24177E-02-7.37202E-02 1.04286E-02 1.13287E-03
 -1     21883-6.95129E-02 8.47118E-02-1.52569E-02-1.28013E-02 8.05696E-03-1.33957E-02
 -1     21884 2.64623E-04 3.12756E-08-2.12449E-04 1.28260E-01-4.82156E-05-2.39645E-04
 -1     21885 2.45308E-04 1.18685E-08-2.00234E-04 1.23071E-01-1.72618E-04-1.98333E-04
 -1     21886 1.69271E-04 2.81993E-09-1.25160E-04 1.21646E-01 1.01851E-05-1.06517E-04
 -1     21887-1.87981E-04 1.42830E-08 2.40194E-04 1.19970E-01 2.43789E-05 2.50383E-04
 -1     21888 8.80528E-04 1.95722E-08-8.09928E-04 1.17453E-01-4.45736E-04-7.98365E-04
 -1     21889-5.89536E-04 2.10435E-08 6.77121E-04 1.13410E-01-2.11579E-04 6.96168E-04
 -1     21890 2.15185E-04 4.27407E-08-1.24826E-04 1.05879E-01 3.64062E-04-1.52817E-04
 -1     21891 5.57945E-04 6.46906E-08-5.14723E-04 9.29271E-02 1.38031E-04-4.65533E-04
 -1     21892 4.06346E-04 7.80746E-08-3.12862E-04 7.64026E-02-3.30624E-04-3.71042E-04
 -1     21893 9.18751E-04 9.24464E-08-7.81461E-04 6.03769E-02-4.96687E-04-8.96506E-04
 -1     21894 2.20843E-03 1.09197E-07-2.09887E-03 4.09287E-02 7.77512E-04-2.12016E-03
 -1     21895 1.25382E-04 1.06112E-07-2.05821E-05 2.30704E-02 9.08197E-04-6.29978E-05
 -1     21896 3.20039E-04 9.76809E-08-2.39518E-04 6.47393E-03 2.50781E-04-2.47581E-04
 -1     21897 4.22235E-04 8.35680E-08-3.41424E-04-1.01415E-02-1.36296E-06-3.37474E-04
 -1     21898-1.78488E-04 6.73119E-08 2.26540E-04-2.73751E-02-5.17021E-04 1.45663E-04
 -1     21899 6.98912E-04 4.91235E-08-6.07097E-04-3.93477E-02-6.08068E-04-6.26490E-04
 -1     21900-1.04567E-03 1.09422E-08 8.54475E-04-4.58571E-02 1.40601E-03 8.28118E-04
 -1     21901-3.16085E-03 8.61656E-09 3.06646E-03-4.66394E-02 3.62802E-03 2.97143E-03
 -1     21902 2.59773E-03-3.51563E-08-2.77359E-03-3.90370E-02 5.01800E-04-2.81623E-03
 -1     21903 1.89796E-03-8.30872E-08-2.26048E-03-2.73888E-02-3.88021E-03-1.79731E-03
 -1     21904-1.12918E-03-4.40326E-07 1.60967E-03 2.19955E-02-4.83510E-04 2.11418E-03
 -1     21905 7.97153E-03-5.80977E-07-8.60367E-03 9.77719E-02-1.17541E-02-8.77730E-03
 -1     21906 5.53158E-04 2.49152E-08-4.99943E-04 1.27874E-01 3.51959E-04 5.08197E-04
 -1     21907-1.32906E-04 1.83819E-08 1.84404E-04 1.23029E-01-1.92532E-04-2.06578E-04
 -1     21908-1.26318E-04-1.49114E-09 1.77033E-04 1.21504E-01-3.38529E-04-1.82989E-04
 -1     21909 2.08541E-04 1.15192E-08-1.60725E-04 1.20906E-01-6.17648E-04 1.72650E-04
 -1     21910 9.33378E-05 2.04133E-08-5.17458E-05 1.18883E-01-3.03808E-04 5.95858E-05
 -1     21911 6.69830E-04 5.23418E-08-6.28993E-04 1.14133E-01 1.27051E-04 6.49940E-04
 -1     21912 1.56535E-03 6.97567E-08-1.41895E-03 1.06077E-01 2.68740E-04 1.37276E-03
 -1     21913 1.45051E-03 5.74196E-08-1.29043E-03 9.47336E-02 1.76330E-04 1.43406E-03
 -1     21914 1.03865E-03 7.58902E-08-8.92124E-04 7.71248E-02 7.76060E-04 1.06396E-03
 -1     21915-2.97437E-04 1.03698E-07 4.81451E-04 6.02290E-02 1.27306E-03-4.84012E-04
 -1     21916 1.25039E-03 1.08089E-07-1.10144E-03 4.30067E-02 1.24308E-03 1.23729E-03
 -1     21917 8.17914E-04 1.02693E-07-6.78665E-04 2.57796E-02 2.86430E-04 7.27348E-04
 -1     21918 1.50406E-03 8.63661E-08-1.33839E-03 7.93679E-03-7.87246E-06 1.42657E-03
 -1     21919 8.05351E-04 9.08996E-08-7.39299E-04-9.12975E-03 1.76160E-04 7.63533E-04
 -1     21920 9.11706E-04 7.22136E-08-1.01572E-03-2.80945E-02 5.09348E-04 1.37041E-03
 -1     21921 2.24957E-04 3.22016E-08-2.12571E-04-4.04304E-02 2.58723E-04 2.57551E-04
 -1     21922-5.45192E-04 3.11898E-08 5.78028E-04-4.72310E-02 4.23203E-04-7.29661E-04
 -1     21923 2.18116E-03 2.08051E-08-2.35420E-03-5.02220E-02 8.44374E-04 2.41009E-03
 -1     21924 1.80942E-03-5.23047E-08-2.09706E-03-4.59561E-02 1.01654E-03 2.50561E-03
 -1     21925-3.55875E-04-1.24251E-07 1.83879E-05-2.43345E-02 3.04194E-03-1.19679E-04
 -1     21926-1.03043E-02-3.25652E-07 9.71324E-03 2.65184E-02 2.55506E-03-9.51467E-03
 -1     21927 3.05831E-04-6.25524E-07-9.44869E-04 1.51541E-01-4.29958E-03 6.66309E-04
 -1     21928-5.42531E-03 3.20730E-03 2.28817E-03 1.27953E-01-3.30640E-03 3.36342E-03
 -1     21929-4.09092E-03 4.76566E-03-6.12314E-04 1.24924E-01 1.68782E-03 8.40136E-04
 -1     21930-8.38461E-03 1.12638E-02-2.83500E-03 1.25600E-01-3.52797E-03 1.53247E-03
 -1     21931-5.84467E-03 6.75048E-03-8.63833E-04 1.29371E-01-4.03207E-03-4.63501E-03
 -1     21932-5.88743E-03 5.81525E-03 1.19381E-04 1.21607E-01 2.94732E-04 1.87481E-03
 -1     21933 1.33665E-02-1.08576E-02-2.44094E-03 1.52512E-01 2.53561E-03-2.58913E-04
 -1     21934 7.80111E-03-1.01686E-02 2.44765E-03 1.56525E-01-3.01424E-03-3.23882E-03
 -1     21935 1.95333E-02-1.85618E-02-9.01099E-04 2.19637E-01 1.58620E-04 2.12995E-03
 -1     21936 1.79595E-02-1.90779E-02 1.20588E-03 2.07624E-01-7.86347E-04-3.52760E-04
 -1     21937 2.13462E-02-2.16194E-02 3.80652E-04 2.45482E-01-1.90381E-04 9.51084E-04
 -1     21938 2.13104E-02-2.10310E-02-1.82137E-04 2.40509E-01 1.39981E-04 4.54319E-04
 -1     21939 2.28079E-02-2.23167E-02-3.75609E-04 2.60317E-01 1.52652E-05 2.64683E-04
 -1     21940 2.21985E-02-2.22093E-02 1.21150E-04 2.57093E-01-7.70153E-04 4.86852E-04
 -1     21941 2.30466E-02-2.28877E-02-5.04564E-05 2.69214E-01-9.69898E-05 4.93083E-04
 -1     21942 2.42016E-02-2.36542E-02-4.35062E-04 2.67899E-01-3.46993E-04 1.36848E-04
 -1     21943 2.41359E-02-2.41103E-02 8.03459E-05 2.71448E-01-5.60733E-06-2.40142E-04
 -1     21944 2.37316E-02-2.34945E-02-1.23153E-04 2.71412E-01 3.52270E-04 1.86651E-04
 -1     21945 2.39632E-02-2.37651E-02-8.99716E-05 2.69723E-01 7.64637E-05-5.75858E-04
 -1     21946 2.36819E-02-2.38484E-02 2.82004E-04 2.70862E-01 1.30439E-04-3.28399E-04
 -1     21947 2.19624E-02-2.15863E-02-2.67795E-04 2.63714E-01-1.75917E-04 2.06126E-04
 -1     21948 2.31253E-02-2.35215E-02 5.01270E-04 2.65147E-01-3.45385E-05-8.84062E-05
 -1     21949 2.35348E-02-2.36597E-02 2.28732E-04 2.49079E-01 2.65708E-04-5.37876E-04
 -1     21950 2.20056E-02-2.21587E-02 2.57866E-04 2.52305E-01 4.47631E-04-3.06204E-04
 -1     21951 2.19334E-02-2.14899E-02-3.51530E-04 2.27483E-01 1.75674E-04-6.75312E-04
 -1     21952 2.10397E-02-2.07314E-02-2.08467E-04 2.32468E-01-3.34411E-04-7.46504E-04
 -1     21953 1.88326E-02-1.86805E-02-6.47018E-05 1.99765E-01 1.08312E-04-1.84988E-04
 -1     21954 1.95027E-02-1.92496E-02-1.73868E-04 2.06560E-01-2.84904E-04-1.59342E-04
 -1     21955 1.55216E-02-1.43489E-02-1.10314E-03 1.67411E-01-8.39557E-04 7.72472E-04
 -1     21956 1.61513E-02-1.63357E-02 2.46974E-04 1.76297E-01 1.82003E-04-7.81932E-05
 -1     21957 1.14927E-02-1.07377E-02-6.99626E-04 1.36752E-01-1.22234E-04-6.64456E-04
 -1     21958 1.29363E-02-1.32748E-02 4.01652E-04 1.44788E-01 7.40435E-04-7.46236E-04
 -1     21959 9.21910E-03-8.38644E-03-7.94365E-04 1.14756E-01-1.51121E-03 1.04805E-04
 -1     21960 1.00487E-02-1.03683E-02 3.77644E-04 1.20380E-01-2.99402E-04 1.82954E-05
 -1     21961 9.44818E-03-9.78243E-03 3.76362E-04 1.07884E-01 1.33277E-04-1.11666E-04
 -1     21962 9.15185E-03-9.00829E-03-9.97825E-05 1.07658E-01-2.40977E-04-6.01378E-04
 -1     21963 8.95216E-03-8.84229E-03-6.25982E-05 1.16505E-01 4.47637E-04 3.04005E-04
 -1     21964 9.39935E-03-8.94788E-03-4.09482E-04 1.12749E-01-1.53229E-04 1.68669E-04
 -1     21965 1.02941E-02-1.01904E-02-5.12096E-05 1.28822E-01-3.96122E-04-6.16476E-04
 -1     21966 8.62122E-03-8.39172E-03-1.77399E-04 1.28757E-01 6.68474E-04 3.89852E-05
 -1     21967 9.15851E-03-9.16902E-03 5.85665E-05 1.29308E-01 6.68741E-04-2.39234E-05
 -1     21968 9.10538E-03-9.29412E-03 2.38601E-04 1.28667E-01 2.94318E-04 2.40935E-04
 -1     21969 7.73291E-03-7.74575E-03 6.11847E-05 1.18700E-01-1.17391E-03 2.19005E-05
 -1     21970 1.00553E-02-1.03892E-02 3.88089E-04 1.19193E-01-4.94566E-04-6.31498E-04
 -1     21971 8.95929E-03-9.19429E-03 2.72605E-04 1.12820E-01 3.40360E-04 1.46652E-04
 -1     21972 9.14492E-03-9.66641E-03 5.62525E-04 1.16085E-01-4.28900E-04-2.32849E-04
 -1     21973 9.83382E-03-9.95183E-03 1.62640E-04 1.07960E-01-1.03586E-04-6.09976E-04
 -1     21974 9.71893E-03-9.64342E-03-3.03003E-05 1.08292E-01-6.14973E-05 3.34316E-04
 -1     21975 1.17126E-02-1.20474E-02 3.74108E-04 1.19704E-01-6.36002E-04 1.44938E-03
 -1     21976 1.09000E-02-1.04144E-02-4.40755E-04 1.15642E-01-3.12225E-04 2.87666E-04
 -1     21977 1.26684E-02-1.23468E-02-2.62353E-04 1.42137E-01 5.13537E-04-6.47662E-04
 -1     21978 1.26628E-02-1.23436E-02-2.60396E-04 1.35178E-01 1.81808E-04 9.68856E-05
 -1     21979 1.69758E-02-1.74697E-02 5.56960E-04 1.72153E-01-6.13212E-05 1.84244E-05
 -1     21980 1.64736E-02-1.62598E-02-1.45238E-04 1.65438E-01 8.00371E-04 7.86011E-04
 -1     21981 1.81939E-02-1.82955E-02 1.86955E-04 2.05069E-01-5.26721E-04 5.37498E-04
 -1     21982 1.77760E-02-1.75513E-02-1.46478E-04 1.97632E-01-4.00288E-05-2.42417E-04
 -1     21983 2.10573E-02-2.11763E-02 2.11783E-04 2.31763E-01-7.65350E-04 2.46034E-04
 -1     21984 2.07492E-02-2.06645E-02 9.11455E-06 2.26240E-01-7.54696E-05-1.99964E-04
 -1     21985 2.32210E-02-2.34273E-02 3.07242E-04 2.52158E-01-5.99786E-04 7.55549E-04
 -1     21986 2.23438E-02-2.19979E-02-2.45157E-04 2.48508E-01 1.13900E-05-4.21512E-05
 -1     21987 2.24985E-02-2.27505E-02 3.60039E-04 2.63587E-01-3.13132E-04-1.16108E-04
 -1     21988 2.36326E-02-2.35268E-02-2.91752E-07 2.61735E-01-1.66271E-04 7.30031E-05
 -1     21989 2.36329E-02-2.36702E-02 1.49885E-04 2.70765E-01-1.31990E-04 2.17920E-04
 -1     21990 2.32906E-02-2.29906E-02-1.89551E-04 2.69401E-01 7.84176E-05-1.27088E-06
 -1     21991 2.43712E-02-2.40552E-02-2.10305E-04 2.70970E-01-4.91069E-05 2.77811E-04
 -1     21992 2.36997E-02-2.38012E-02 2.07754E-04 2.72072E-01-2.17202E-04 2.96015E-04
 -1     21993 2.33593E-02-2.34044E-02 1.52731E-04 2.67564E-01-3.18361E-04-5.52720E-04
 -1     21994 2.36436E-02-2.30422E-02-4.93171E-04 2.68678E-01-2.80060E-04-4.77585E-04
 -1     21995 2.23851E-02-2.20075E-02-2.77188E-04 2.57693E-01-5.93247E-04-6.99036E-04
 -1     21996 2.23503E-02-2.23871E-02 1.41567E-04 2.60868E-01-2.94557E-04 8.12433E-05
 -1     21997 2.18163E-02-2.14396E-02-2.79684E-04 2.43002E-01 8.61468E-04-1.54458E-04
 -1     21998 2.09511E-02-2.07704E-02-8.36812E-05 2.46873E-01 5.71993E-04-3.74105E-04
 -1     21999 2.07791E-02-1.98524E-02-8.30803E-04 2.06953E-01-2.44661E-03 7.93201E-04
 -1     22000 1.70222E-02-1.65574E-02-3.74293E-04 2.18277E-01-1.66384E-03-3.48064E-05
 -1     22001 2.18890E-02-2.09536E-02-8.62129E-04 1.61071E-01 3.13572E-03-2.34524E-03
 -1     22002 1.20405E-02-1.17572E-02-2.36458E-04 1.19660E-01 1.01072E-03-7.66996E-04
 -1     22003 1.34234E-02-1.36377E-02 2.63711E-04 1.21429E-01 3.90841E-04-5.37914E-04
 -1     22004 2.08428E-02-2.03491E-02-4.03133E-04 2.30674E-01 2.52982E-04 9.21825E-04
 -1     22005 1.70051E-02-1.76926E-02 7.83268E-04 2.26497E-01 5.87307E-04-5.25906E-04
 -1     22006 1.85144E-02-1.78750E-02-5.55323E-04 2.35400E-01 4.71058E-04-5.33183E-05
 -1     22007 2.22005E-02-2.29420E-02 8.50681E-04 2.51530E-01-7.41644E-05 3.72042E-04
 -1     22008 2.19012E-02-2.33587E-02 1.55848E-03 2.48905E-01 5.10924E-04 1.31164E-04
 -1     22009 2.17393E-02-2.23231E-02 6.86878E-04 2.55517E-01 4.92916E-04 2.31113E-05
 -1     22010 1.55845E-02-1.72371E-02 1.72788E-03 1.94054E-01 2.23407E-03-4.64131E-04
 -1     22011 1.73318E-02-1.82056E-02 9.52740E-04 1.78700E-01 6.10497E-05 7.47278E-05
 -1     22012 1.93864E-02-2.00838E-02 7.95644E-04 2.39078E-01-4.91609E-05-2.19916E-04
 -1     22013 2.19438E-02-2.23170E-02 4.77808E-04 2.56327E-01 2.39012E-04-1.68685E-04
 -1     22014 1.69310E-02-1.45069E-02-2.34401E-03 1.76154E-01-2.37530E-04-2.29795E-03
 -1     22015 2.29179E-02-2.31751E-02 3.66451E-04 2.66039E-01-8.46605E-05-2.63639E-04
 -1     22016 2.33361E-02-2.32068E-02-1.62196E-05 2.64335E-01 5.68000E-04 5.72663E-04
 -1     22017 2.32560E-02-2.34220E-02 2.73717E-04 2.71594E-01-1.07088E-04-3.10701E-04
 -1     22018 2.32053E-02-2.35004E-02 4.17630E-04 2.70180E-01 9.11799E-06-1.46736E-04
 -1     22019 2.31655E-02-2.33247E-02 2.73003E-04 2.71631E-01 3.28254E-04 9.11229E-05
 -1     22020 2.43292E-02-2.41912E-02-2.95305E-05 2.71602E-01 1.96532E-04 2.58728E-04
 -1     22021 2.32783E-02-2.34656E-02 2.94309E-04 2.67129E-01-1.25239E-04-8.33341E-05
 -1     22022 2.34515E-02-2.36271E-02 2.88251E-04 2.67913E-01 3.46049E-04 8.33591E-05
 -1     22023 2.20884E-02-2.22117E-02 2.30060E-04 2.56601E-01-3.87446E-04 2.78458E-04
 -1     22024 2.20089E-02-2.16003E-02-3.02250E-04 2.59369E-01-3.56290E-04 5.66583E-04
 -1     22025 2.03791E-02-2.03491E-02 6.96531E-05 2.38456E-01-7.46089E-05-1.18526E-04
 -1     22026 2.18678E-02-2.16117E-02-1.45479E-04 2.45079E-01 5.34879E-04-1.52726E-04
 -1     22027 1.89682E-02-1.90550E-02 1.69455E-04 2.13701E-01 3.34507E-05-2.08667E-04
 -1     22028 2.07425E-02-2.07204E-02 6.79921E-05 2.22139E-01 4.27021E-04-6.19321E-04
 -1     22029 1.61983E-02-1.67302E-02 6.06010E-04 1.83642E-01-5.52131E-04 7.88774E-04
 -1     22030 1.80122E-02-1.79239E-02-1.69645E-05 1.91671E-01-3.18431E-05 3.02651E-04
 -1     22031 1.43956E-02-1.45961E-02 2.62434E-04 1.52533E-01 2.64571E-04-1.28273E-04
 -1     22032 1.54638E-02-1.52326E-02-1.68216E-04 1.59624E-01-6.67960E-04 7.17477E-04
 -1     22033 1.18991E-02-1.20197E-02 1.67121E-04 1.26217E-01-1.39471E-04 7.60916E-04
 -1     22034 1.29102E-02-1.20161E-02-8.34876E-04 1.30621E-01-4.41779E-04 5.07934E-05
 -1     22035 1.07191E-02-1.12056E-02 5.24655E-04 1.09964E-01-2.17223E-04-1.03473E-03
 -1     22036 9.37237E-03-8.80436E-03-5.12588E-04 1.10719E-01-3.27899E-04 5.22665E-04
 -1     22037 8.63393E-03-9.33589E-03 7.47966E-04 1.10708E-01 5.21693E-04-7.54644E-05
 -1     22038 9.19875E-03-8.91815E-03-2.36265E-04 1.09982E-01-2.42288E-04 9.73436E-05
 -1     22039 8.75879E-03-9.08899E-03 3.75421E-04 1.08706E-01 2.56164E-04-8.08937E-05
 -1     22040 9.31247E-03-9.01710E-03-2.52735E-04 1.09411E-01 2.80183E-04-4.97005E-05
 -1     22041 2.33082E-02-2.31248E-02-7.48729E-05 2.66467E-01-2.34844E-05 2.02290E-04
 -1     22042 9.37495E-03-8.90861E-03-4.13404E-04 1.19942E-01 8.59147E-05 5.95780E-04
 -1     22043 8.16947E-03-7.86034E-03-2.65782E-04 1.18537E-01 4.80268E-04 1.16755E-04
 -1     22044 1.15715E-02-1.10149E-02-5.09448E-04 1.18450E-01 3.15766E-04-3.18410E-04
 -1     22045 8.29767E-03-8.24816E-03-8.84482E-06 1.09461E-01-8.82209E-05 5.46598E-04
 -1     22046 9.20681E-03-8.86601E-03-2.99302E-04 1.09662E-01-2.88039E-04-3.46085E-04
 -1     22047 9.80842E-03-9.49002E-03-2.63626E-04 1.12685E-01-1.89325E-04 3.25408E-04
 -1     22048 1.08611E-02-1.03344E-02-4.83104E-04 1.08246E-01 7.55303E-04-2.88935E-04
 -1     22049 1.14850E-02-1.15348E-02 9.75656E-05 1.29246E-01 5.88143E-04-2.14146E-04
 -1     22050 1.13898E-02-1.14792E-02 1.39267E-04 1.23061E-01-2.16392E-05 9.90232E-05
 -1     22051 1.47791E-02-1.42552E-02-4.64199E-04 1.57202E-01-7.17977E-04 5.27969E-04
 -1     22052 1.31800E-02-1.29629E-02-1.59524E-04 1.49566E-01-2.52842E-04 1.40734E-04
 -1     22053 1.74276E-02-1.73219E-02-2.44787E-05 1.89342E-01-1.87442E-04 2.20583E-04
 -1     22054 1.67588E-02-1.69299E-02 2.40701E-04 1.80716E-01-3.39351E-04 1.11650E-04
 -1     22055 1.97363E-02-1.95525E-02-9.29914E-05 2.17908E-01-2.06174E-05-3.49795E-04
 -1     22056 1.91785E-02-1.93286E-02 2.41504E-04 2.12349E-01-4.09152E-04 5.18289E-04
 -1     22057 2.16464E-02-2.12432E-02-3.05439E-04 2.41796E-01-2.89932E-04-3.91453E-04
 -1     22058 2.10691E-02-2.09211E-02-4.57211E-05 2.37134E-01 1.53807E-04 2.19487E-04
 -1     22059 2.36906E-02-2.30956E-02-4.93890E-04 2.58992E-01 4.09514E-04-2.17689E-04
 -1     22060 2.30723E-02-2.28456E-02-1.18305E-04 2.54946E-01 4.79225E-04-1.55757E-04
 -1     22061 2.34226E-02-2.34405E-02 1.27274E-04 2.68615E-01-7.40981E-05-4.51812E-04
 -1     22062 2.31058E-02-2.32905E-02 3.00348E-04 2.66969E-01 1.22679E-04-3.09221E-04
 -1     22063 2.32006E-02-2.32420E-02 1.52192E-04 2.71376E-01 7.75815E-05 4.45599E-05
 -1     22064 2.31579E-02-2.30468E-02 9.51347E-06 2.71662E-01-1.85755E-04 6.00138E-05
 -1     22065 2.45221E-02-2.37706E-02-6.43176E-04 2.70624E-01 4.97071E-04-4.57425E-04
 -1     22066 2.41427E-02-2.37776E-02-2.58703E-04 2.70612E-01 2.74982E-04 1.25888E-04
 -1     22067 2.34796E-02-2.30940E-02-2.82601E-04 2.63955E-01 9.37563E-05-2.42466E-04
 -1     22068 2.35433E-02-2.36359E-02 1.99328E-04 2.65790E-01 1.06878E-04-7.18143E-04
 -1     22069 2.17192E-02-2.16778E-02 6.35922E-05 2.52420E-01-3.23096E-04-6.32638E-04
 -1     22070 2.16163E-02-2.11011E-02-4.09606E-04 2.54770E-01-2.96329E-04-5.50988E-04
 -1     22071 1.98549E-02-1.91754E-02-5.91562E-04 2.25431E-01-9.72791E-05-1.32577E-03
 -1     22072 1.86107E-02-1.87644E-02 2.54957E-04 2.32093E-01-3.27916E-04 9.45786E-04
 -1     22073 1.83048E-02-2.06387E-02 2.40528E-03 1.78033E-01 9.47391E-04-2.92461E-03
 -1     22074 2.19141E-02-1.99353E-02-1.87787E-03 1.88880E-01 1.98226E-03-3.26791E-03
 -1     22075 2.18728E-02-2.20880E-02 3.19947E-04 2.55475E-01 6.07649E-05 9.97691E-05
 -1     22076 2.19871E-02-2.19942E-02 1.16779E-04 2.62414E-01 8.63355E-04-2.81137E-04
 -1     22077 2.34389E-02-2.36636E-02 3.48363E-04 2.69840E-01-9.54698E-05-1.73119E-04
 -1     22078 2.42000E-02-2.41419E-02 5.32230E-05 2.71671E-01 1.10019E-05-1.14302E-04
 -1     22079 2.44771E-02-2.44499E-02 8.83367E-05 2.69686E-01 3.03754E-05 2.65994E-04
 -1     22080 2.20721E-02-2.26221E-02 6.44691E-04 2.62187E-01-1.14197E-05-7.32667E-04
 -1     22081 2.23621E-02-2.21035E-02-1.55641E-04 2.48402E-01 9.77485E-04-6.70818E-04
 -1     22082 2.13580E-02-2.10329E-02-2.29405E-04 2.26209E-01 1.23742E-03-9.05000E-05
 -1     22083 1.90765E-02-1.91131E-02 1.22922E-04 1.97517E-01 3.13837E-04 1.68897E-04
 -1     22084 1.47497E-02-1.55275E-02 8.43761E-04 1.64309E-01-5.84410E-04 6.10370E-04
 -1     22085 1.19753E-02-1.19360E-02 7.57867E-06 1.33733E-01-3.14096E-04 9.73344E-05
 -1     22086 8.35893E-03-9.44384E-03 1.12029E-03 1.12772E-01-5.93741E-04 1.11586E-03
 -1     22087 7.16787E-03-6.87430E-03-2.38410E-04 1.17595E-01-1.07865E-04 3.06686E-04
 -1     22088 1.01133E-02-1.05623E-02 4.94668E-04 1.09426E-01 9.52805E-04-8.79752E-04
 -1     22089 1.18787E-02-1.14990E-02-3.34457E-04 1.20216E-01-3.36579E-04-7.13727E-05
 -1     22090 1.24030E-02-1.25213E-02 1.78266E-04 1.44783E-01 2.09584E-04-3.42335E-04
 -1     22091 1.71037E-02-1.70304E-02-1.00302E-05 1.74779E-01 2.58091E-04-5.03688E-05
 -1     22092 1.85831E-02-1.82042E-02-2.97796E-04 2.07529E-01-5.47887E-05 4.91043E-04
 -1     22093 2.06289E-02-2.03281E-02-2.10350E-04 2.33880E-01-9.26240E-05 8.69142E-05
 -1     22094 2.22824E-02-2.15630E-02-6.19242E-04 2.53712E-01 9.31609E-05-1.42806E-05
 -1     22095 2.30821E-02-2.28926E-02-8.38677E-05 2.65309E-01-2.39315E-04 1.84280E-04
 -1     22096 2.43632E-02-2.37444E-02-5.08599E-04 2.70950E-01-2.03011E-04 1.20158E-04
 -1     22097 2.46907E-02-2.41771E-02-4.04363E-04 2.70786E-01 5.08024E-04-1.57517E-04
 -1     22098 2.38135E-02-2.34689E-02-2.33606E-04 2.67239E-01-7.87941E-04-1.05282E-04
 -1     22099 2.11514E-02-2.12624E-02 2.16159E-04 2.56615E-01 1.51794E-04-5.03171E-05
 -1     22100 2.01773E-02-1.97056E-02-3.74848E-04 2.36843E-01-2.26670E-04-6.67914E-04
 -1     22101 1.73450E-02-1.92631E-02 2.00631E-03 1.98432E-01-1.25791E-03-1.44186E-03
 -1     22102 2.07879E-02-2.10344E-02 3.44353E-04 2.36179E-01 1.80918E-04 1.24851E-04
 -1     22103 1.98289E-02-1.96899E-02-5.07993E-05 2.11107E-01-1.03469E-04 5.75063E-04
 -1     22104 1.65982E-02-1.58864E-02-6.39564E-04 1.81355E-01-3.78418E-05 6.33297E-04
 -1     22105 1.43419E-02-1.44514E-02 1.64929E-04 1.50175E-01 4.28680E-04 4.53742E-04
 -1     22106 1.12444E-02-1.03127E-02-8.87461E-04 1.23455E-01-4.81715E-05 1.03149E-03
 -1     22107 9.50829E-03-8.73317E-03-7.33737E-04 1.08328E-01-9.82725E-04 1.76975E-04
 -1     22108 2.17440E-02-2.16040E-02-4.27957E-05 2.44035E-01-1.14004E-04-2.16592E-04
 -1     22109 2.26882E-02-2.30047E-02 4.20330E-04 2.59472E-01 4.22779E-04 1.47188E-04
 -1     22110 2.36583E-02-2.34241E-02-1.24508E-04 2.69226E-01 1.82384E-04 3.88426E-04
 -1     22111 2.42020E-02-2.40011E-02-8.85575E-05 2.72073E-01-3.07469E-04 1.37862E-04
 -1     22112 2.34228E-02-2.40107E-02 6.96400E-04 2.68458E-01-2.50650E-04 4.55960E-04
 -1     22113 2.26307E-02-2.28291E-02 3.08666E-04 2.62951E-01-4.77072E-04-3.30862E-04
 -1     22114 2.21710E-02-2.04963E-02-1.57199E-03 2.50448E-01-3.33671E-05 1.98082E-04
 -1     22115 1.82162E-02-1.87277E-02 6.00812E-04 2.20922E-01-1.99148E-03 2.07679E-03
 -1     22116 1.51921E-02-1.61485E-02 1.07200E-03 1.76949E-01 5.26247E-03-3.93194E-03
 -1     22117 1.86681E-02-1.93037E-02 7.20787E-04 2.03625E-01-1.40292E-03-9.86031E-06
 -1     22118 2.38252E-02-2.40629E-02 3.49008E-04 2.70832E-01 1.97513E-04-9.15069E-04
 -1     22119 2.34267E-02-2.36260E-02 3.21402E-04 2.72274E-01-3.24985E-04-8.57204E-04
 -1     22120 2.32636E-02-2.33897E-02 2.42803E-04 2.66965E-01 1.02729E-04-3.40938E-04
 -1     22121 1.99336E-02-2.02870E-02 4.39041E-04 2.20632E-01-3.70373E-04-4.13240E-04
 -1     22122 1.71351E-02-1.65304E-02-5.29965E-04 1.91612E-01-1.25012E-05 9.66232E-05
 -1     22123 1.05191E-02-1.04788E-02 8.43952E-06 1.13691E-01-3.12077E-04 1.24062E-03
 -1     22124 1.46677E-02-1.44713E-02-1.32018E-04 1.60796E-01-1.81661E-04 7.36115E-04
 -1     22125 1.13134E-02-1.18524E-02 5.92939E-04 1.31195E-01 4.33013E-04-6.31264E-04
 -1     22126 1.25059E-02-1.19338E-02-5.13925E-04 1.76077E-01 1.70656E-03-1.39680E-03
 -1     22127 2.43365E-02-2.44154E-02 1.88300E-04 2.70321E-01 1.59799E-04-4.76429E-04
 -1     22128 2.41782E-02-2.39654E-02-1.02421E-04 2.70747E-01 1.47875E-04-9.83183E-05
 -1     22129 2.14089E-02-2.14399E-02 1.27407E-04 2.44050E-01 1.89778E-04 3.66431E-04
 -1     22130 2.00329E-02-2.03026E-02 3.67606E-04 2.39660E-01-1.41393E-04-5.29562E-04
 -1     22131 2.25351E-02-2.18441E-02-5.94212E-04 2.49124E-01 9.68115E-04-1.64609E-04
 -1     22132 2.04913E-02-2.03438E-02-5.77870E-05 2.23688E-01 1.94668E-04 2.26384E-04
 -1     22133 2.04117E-02-1.98543E-02-4.76873E-04 2.15844E-01 3.22913E-04-3.32240E-04
 -1     22134 2.43085E-02-2.41193E-02-8.21213E-05 2.71250E-01 2.75612E-04-4.72777E-05
 -1     22135 2.43850E-02-2.39654E-02-3.10287E-04 2.72259E-01-2.81610E-04-3.61765E-04
 -1     22136 2.30277E-02-2.35336E-02 6.15244E-04 2.67977E-01 2.74180E-04 6.57492E-04
 -1     22137 2.26200E-02-2.25246E-02 1.08911E-05 2.67146E-01-1.96718E-04 4.90458E-05
 -1     22138 2.32834E-02-2.33756E-02 1.98787E-04 2.69366E-01 9.35194E-05 5.40541E-05
 -1     22139 2.49260E-02-2.44170E-02-3.99673E-04 2.71911E-01-3.19365E-04-3.72158E-04
 -1     22140 2.42610E-02-2.46887E-02 5.35597E-04 2.71132E-01 1.67297E-04-5.33990E-04
 -1     22141 2.21568E-02-2.25305E-02 4.83345E-04 2.60281E-01 1.64957E-04-4.13136E-05
 -1     22142 2.25072E-02-2.29149E-02 5.09663E-04 2.57630E-01-1.56244E-05-1.02845E-04
 -1     22143 1.02833E-02-9.97212E-03-2.71510E-04 1.10856E-01 4.10891E-04 7.70653E-04
 -1     22144 9.26195E-03-9.44917E-03 2.23308E-04 1.08677E-01-1.32111E-03 6.98132E-04
 -1     22145 2.14394E-02-2.16673E-02 3.27660E-04 2.46482E-01 4.65493E-05-6.29746E-05
 -1     22146 2.32451E-02-2.27917E-02-3.51397E-04 2.51533E-01 5.99014E-05 3.22711E-04
 -1     22147 2.14676E-02-2.17795E-02 4.19046E-04 2.63269E-01 6.86277E-04 1.18429E-04
 -1     22148 2.13225E-02-2.20678E-02 8.50338E-04 2.59509E-01-8.44955E-04 3.46028E-04
 -1     22149 2.06051E-02-2.10023E-02 4.93749E-04 2.30425E-01 1.52932E-04 6.27546E-04
 -1     22150 1.98524E-02-1.96544E-02-1.17399E-04 2.09102E-01 1.70338E-04 1.01683E-04
 -1     22151 1.76123E-02-1.77346E-02 2.03782E-04 1.94724E-01 1.30543E-05 3.57434E-04
 -1     22152 1.80601E-02-1.83421E-02 3.62264E-04 2.02299E-01 4.26570E-04 6.59132E-04
 -1     22153 1.62050E-02-1.52651E-02-8.63330E-04 1.78878E-01-6.86021E-05-1.96301E-05
 -1     22154 1.60126E-02-1.55927E-02-3.54527E-04 1.69587E-01-3.25638E-04-4.15121E-04
 -1     22155 1.59489E-02-1.66608E-02 7.76858E-04 1.62562E-01 2.55120E-04 7.54898E-04
 -1     22156 1.33479E-02-1.29939E-02-2.92820E-04 1.46789E-01 6.38560E-05 2.48522E-04
 -1     22157 1.46376E-02-1.48910E-02 3.19570E-04 1.55698E-01 7.30274E-04-6.07148E-05
 -1     22158 1.13014E-02-1.19989E-02 7.45694E-04 1.33025E-01-1.19974E-04 1.63194E-03
 -1     22159 1.08873E-02-1.11963E-02 3.62243E-04 1.28281E-01-4.84025E-07 1.12515E-03
 -1     22160 1.09685E-02-1.09224E-02 1.05605E-06 1.20478E-01 2.07303E-04-5.50394E-04
 -1     22161 8.88925E-03-9.44929E-03 6.12707E-04 1.13609E-01-6.02869E-04 8.17447E-05
 -1     22162 8.54601E-03-8.35951E-03-1.42267E-04 1.07877E-01-3.82284E-04 1.31113E-03
 -1     22163 2.17469E-02-2.13885E-02-2.65628E-04 2.40185E-01 3.03428E-04-1.86950E-04
 -1     22164 8.97382E-03-8.50721E-03-4.20751E-04 1.09188E-01-2.35788E-04 1.02115E-03
 -1     22165 2.26372E-02-2.23880E-02-1.49218E-04 2.54419E-01 1.23392E-04-1.75759E-05
 -1     22166 1.00025E-02-9.91982E-03-4.00690E-05 1.19366E-01 1.44389E-04-3.37447E-04
 -1     22167 8.15728E-03-8.05569E-03-5.63272E-05 1.18397E-01-3.20808E-05 3.36281E-04
 -1     22168 1.75800E-02-1.84056E-02 9.18781E-04 2.31537E-01 1.13921E-04-5.69019E-04
 -1     22169 1.85444E-02-1.93605E-02 9.14175E-04 2.22530E-01 4.51255E-04 6.63712E-04
 -1     22170 2.14529E-02-2.13151E-02-3.91461E-05 2.55533E-01-2.82344E-04 9.97369E-05
 -1     22171 6.82295E-03-7.28915E-03 5.15072E-04 1.18222E-01-6.92459E-04 6.47558E-04
 -1     22172 2.41763E-02-2.43875E-02 3.21934E-04 2.70330E-01 2.61251E-04-1.35351E-04
 -1     22173 2.40297E-02-2.41342E-02 2.12391E-04 2.69480E-01 2.19024E-04 3.04942E-04
 -1     22174 1.62367E-02-1.76012E-02 1.45570E-03 1.85752E-01 4.07877E-03-1.01604E-04
 -1     22175 2.11141E-02-2.08557E-02-1.69228E-04 2.35073E-01 3.42810E-04 9.07065E-05
 -1     22176 2.28805E-02-2.25760E-02-1.98279E-04 2.63059E-01 2.10907E-04-3.07368E-04
 -1     22177 2.31231E-02-2.25982E-02-4.19411E-04 2.66403E-01 6.14852E-05 5.55349E-04
 -1     22178 2.34099E-02-2.28498E-02-4.53049E-04 2.67825E-01-2.59173E-04-2.07550E-05
 -1     22179 1.92872E-02-1.95342E-02 3.38192E-04 2.14347E-01-2.12834E-03 4.47923E-04
 -1     22180 1.75224E-02-1.68517E-02-6.24712E-04 2.00831E-01-1.68372E-03 1.20466E-03
 -1     22181 2.20274E-02-2.15305E-02-3.94493E-04 2.53823E-01 1.04799E-03-1.35353E-04
 -1     22182 1.08645E-02-1.07256E-02-9.65651E-05 1.17272E-01 1.86551E-05-1.38949E-04
 -1     22183 2.33160E-02-2.24371E-02-7.76255E-04 2.65559E-01-1.83314E-04-1.13783E-04
 -1     22184 1.69456E-02-1.64838E-02-3.93976E-04 1.86038E-01 2.86806E-04 3.19010E-04
 -1     22185 1.21517E-02-1.23350E-02 2.37693E-04 1.39070E-01 6.46708E-05-1.18164E-04
 -1     22186-1.10032E-01 1.02200E-01 7.87089E-03 1.09077E-01 4.56041E-03 1.55476E-02
 -1     22187-1.05953E-01 1.07162E-01-1.16818E-03 9.23416E-02 1.94547E-03 1.21339E-03
 -1     22188-1.02726E-01 1.03549E-01-8.37969E-04 9.40763E-02 6.28940E-03-7.57412E-03
 -1     22189-1.06763E-01 1.06364E-01 5.35336E-04 9.95867E-02-1.17202E-02-1.63221E-02
 -1     22190-9.08213E-02 1.01311E-01-1.04535E-02 9.04489E-02-8.34357E-03 1.98706E-03
 -1     22191-1.38039E-01 1.40920E-01-2.78160E-03 1.37158E-01 3.94001E-03-6.66426E-03
 -1     22192-1.36992E-01 1.35022E-01 2.01870E-03 1.38594E-01-8.62464E-03 4.70016E-03
 -1     22193-1.54974E-01 1.55664E-01-6.08700E-04 1.28363E-01-1.28722E-03-4.15782E-03
 -1     22194-1.60301E-01 1.57296E-01 3.05259E-03 1.36624E-01 4.29984E-03-2.64704E-03
 -1     22195-1.32869E-01 1.32184E-01 7.37022E-04 1.39005E-01-1.37058E-03 9.12083E-04
 -1     22196-1.48395E-01 1.45594E-01 2.82326E-03 1.39742E-01-1.35392E-03-4.76915E-03
 -1     22197-8.45358E-02 8.70450E-02-2.49676E-03 1.42836E-01 2.48680E-03 3.79109E-03
 -1     22198-1.03635E-01 1.03253E-01 4.25536E-04 1.43344E-01 8.97095E-04-3.20134E-04
 -1     22199-4.65957E-02 4.67320E-02-1.15352E-04 1.28016E-01-6.43689E-04 5.64491E-04
 -1     22200-7.24747E-02 7.29372E-02-4.32394E-04 1.43860E-01 1.99970E-03 1.27688E-03
 -1     22201-8.12571E-02 7.98626E-02 1.41752E-03 1.41888E-01-1.17486E-03 1.59306E-03
 -1     22202-4.75640E-02 4.60791E-02 1.47729E-03 1.22948E-01 1.28487E-03 1.85143E-03
 -1     22203-4.79107E-02 4.77494E-02 1.59823E-04 1.29995E-01-1.37413E-03-4.28452E-04
 -1     22204-5.17178E-02 5.16653E-02 7.07029E-05 1.34806E-01-1.41079E-03-1.21118E-03
 -1     22205-5.81371E-02 5.80904E-02 5.83834E-05 1.33229E-01 9.11290E-04-1.67674E-03
 -1     22206-7.81325E-02 7.72045E-02 9.52140E-04 1.44894E-01-8.42105E-04-4.54396E-04
 -1     22207-7.86991E-02 7.96405E-02-9.14120E-04 1.46009E-01-1.78668E-03 1.62252E-04
 -1     22208-9.49158E-02 9.45161E-02 4.35766E-04 1.42948E-01 3.81077E-04-7.77891E-04
 -1     22209-1.20902E-01 1.24805E-01-3.82522E-03 1.37976E-01 5.21544E-04 2.39743E-03
 -1     22210-1.14032E-01 1.15371E-01-1.31621E-03 1.38218E-01-1.47820E-03-1.94979E-03
 -1     22211-1.45886E-01 1.44682E-01 1.25402E-03 1.33208E-01 2.26823E-03-6.46212E-04
 -1     22212-1.33820E-01 1.34160E-01-1.88809E-04 1.33215E-01 1.20494E-03 4.55085E-03
 -1     22213-1.69230E-01 1.69686E-01-3.85726E-04 1.38347E-01 1.50783E-03-7.71478E-04
 -1     22214-1.58668E-01 1.59844E-01-1.11506E-03 1.27153E-01 3.07589E-03 5.72491E-04
 -1     22215-1.46505E-01 1.47636E-01-9.84650E-04 1.42787E-01-1.01926E-03-5.85723E-03
 -1     22216-1.60229E-01 1.64438E-01-4.15819E-03 1.32413E-01 3.38090E-03-2.65042E-03
 -1     22217-1.60604E-01 1.59976E-01 6.39576E-04 1.31875E-01 1.47583E-03-4.76936E-03
 -1     22218-1.55288E-01 1.55727E-01-3.85891E-04 1.31510E-01 1.40165E-03-3.95811E-03
 -1     22219-1.24479E-01 1.25361E-01-8.37268E-04 1.40203E-01 3.71624E-03-2.84253E-04
 -1     22220-1.32302E-01 1.31222E-01 1.14205E-03 1.35271E-01-3.06338E-03 1.65471E-03
 -1     22221-1.17163E-01 1.14116E-01 3.09494E-03 1.40168E-01 3.73957E-03-8.20896E-04
 -1     22222-1.62737E-01 1.62367E-01 4.18951E-04 1.38576E-01 4.75854E-03-1.22995E-03
 -1     22223-1.65262E-01 1.57852E-01 7.45738E-03 1.48598E-01-2.60995E-03 1.39220E-03
 -1     22224-1.44308E-01 1.46140E-01-1.75114E-03 1.36417E-01-2.14430E-03-6.73541E-03
 -1     22225-1.07231E-01 1.10136E-01-2.86035E-03 1.41057E-01-1.05696E-05-1.56346E-03
 -1     22226-1.57746E-01 1.59417E-01-1.55814E-03 1.38446E-01-2.40176E-03-8.14344E-03
 -1     22227-1.53247E-01 1.55282E-01-1.94938E-03 1.33716E-01 3.33603E-04-4.12774E-03
 -1     22228-1.01691E-01 1.00287E-01 1.44259E-03 1.40489E-01-1.75830E-03 4.61359E-03
 -1     22229-1.54325E-01 1.51753E-01 2.65672E-03 1.34237E-01 1.48829E-03 2.85651E-03
 -1     22230-1.51960E-01 1.56860E-01-4.72058E-03 1.43083E-01-7.15870E-03-5.32341E-03
 -1     22231-1.58696E-01 1.56973E-01 1.77717E-03 1.39100E-01 8.29754E-04 1.67355E-03
 -1     22232-1.56877E-01 1.66953E-01-9.95647E-03 1.38673E-01-9.26040E-03 5.55640E-04
 -1     22233-1.69833E-01 1.64816E-01 5.10926E-03 1.42733E-01-3.59236E-03-2.25982E-04
 -1     22234-1.63337E-01 1.64926E-01-1.49668E-03 1.30582E-01-6.09858E-03-3.50577E-03
 -1     22235-1.69842E-01 1.68466E-01 1.44664E-03 1.37127E-01 3.58102E-03-1.11555E-02
 -1     22236-1.59051E-01 1.61981E-01-2.89113E-03 1.46239E-01-4.63588E-03-2.65857E-03
 -1     22237-8.59646E-02 8.48400E-02 1.16676E-03 1.42617E-01 3.01400E-04-1.16775E-03
 -1     22238-1.63153E-01 1.59669E-01 3.53850E-03 1.45224E-01-1.87627E-03 2.90676E-03
 -1     22239-1.61674E-01 1.61441E-01 3.22411E-04 1.33110E-01 2.50660E-03 2.23905E-03
 -1     22240-1.35445E-01 1.31882E-01 3.63776E-03 1.33835E-01-1.99615E-03 4.06946E-03
 -1     22241-1.24003E-01 1.23863E-01 1.82857E-04 1.37976E-01-5.79888E-05 2.04031E-04
 -1     22242-1.59544E-01 1.53984E-01 5.62026E-03 1.39518E-01-3.64353E-03-1.99199E-03
 -1     22243-1.09432E-01 1.10562E-01-1.08988E-03 1.41873E-01-2.56272E-03 3.06470E-03
 -1     22244-3.62951E-01 3.64819E-01-1.41476E-03-1.00506E-01-2.79039E-02 2.57165E-02
 -1     22245-3.62256E-01 3.48335E-01 1.36437E-02-1.65423E-02-2.28812E-02 5.47532E-03
 -1     22246-3.34811E-01 3.39760E-01-4.12713E-03-2.99605E-02-3.58351E-02 3.64288E-02
 -1     22247-2.31296E-01 2.03546E-01 2.75031E-02-1.42178E-01-1.02108E-02 4.35891E-02
 -1     22248-3.27089E-01 3.00394E-01 2.67313E-02-1.54496E-01-5.43836E-02 9.21639E-03
 -1     22249-1.79187E-01 2.22615E-01-4.37056E-02-1.75674E-01-5.46933E-02-3.40679E-03
 -1     22250-1.89243E-01 1.58425E-01 3.02126E-02-2.44336E-01-8.27043E-04 2.26856E-02
 -1     22251-1.91036E-01 1.90351E-01 6.72192E-04-1.61398E-01 6.63475E-03 9.18701E-04
 -1     22252-2.17291E-01 2.12113E-01 5.11936E-03-1.74639E-01-6.43821E-03-2.26204E-03
 -1     22253-1.84725E-01 1.86422E-01-1.78042E-03-1.45397E-01 1.87022E-03-1.13826E-04
 -1     22254-1.87428E-01 1.87751E-01-4.51317E-04-1.50534E-01-1.80277E-03 1.88085E-03
 -1     22255-1.85093E-01 1.85011E-01-1.40748E-05-1.39087E-01-5.43990E-05 5.09382E-04
 -1     22256-1.85510E-01 1.85544E-01-1.35497E-04-1.41025E-01-1.12823E-04 1.27876E-03
 -1     22257-1.82304E-01 1.82344E-01-1.32963E-04-1.36842E-01-3.66209E-05-7.81625E-05
 -1     22258-1.82812E-01 1.82577E-01 1.46256E-04-1.37373E-01 1.82836E-04 1.04276E-05
 -1     22259-1.78740E-01 1.78582E-01 6.82455E-05-1.35051E-01 1.26840E-04-2.61922E-04
 -1     22260-1.80013E-01 1.79735E-01 1.88691E-04-1.35471E-01 1.43236E-04-1.99879E-04
 -1     22261-1.74004E-01 1.74107E-01-1.92711E-04-1.31102E-01 3.57824E-04-2.01651E-05
 -1     22262-1.75423E-01 1.75351E-01-7.90189E-06-1.32717E-01 1.48759E-05-2.50785E-04
 -1     22263-1.67946E-01 1.67256E-01 6.08224E-04-1.26132E-01-2.00961E-04-2.54955E-04
 -1     22264-1.70039E-01 1.70110E-01-1.55541E-04-1.27388E-01-4.61216E-05-7.74826E-05
 -1     22265-1.56087E-01 1.55873E-01 1.38193E-04-1.17044E-01-1.90101E-04-1.58275E-04
 -1     22266-1.59100E-01 1.58923E-01 9.81360E-05-1.19262E-01-2.74964E-04 2.23913E-04
 -1     22267-1.38209E-01 1.38711E-01-5.61108E-04-1.03565E-01-9.36475E-05-5.48904E-04
 -1     22268-1.41968E-01 1.41325E-01 5.79208E-04-1.08429E-01-1.15579E-03 2.82164E-04
 -1     22269-1.15943E-01 1.17026E-01-1.10525E-03-8.85598E-02 1.38634E-03 1.31733E-03
 -1     22270-1.21222E-01 1.21385E-01-2.31016E-04-9.16416E-02 4.72025E-04 5.08254E-04
 -1     22271-9.80515E-02 9.81677E-02-1.50968E-04-7.43459E-02-5.49485E-03 1.24769E-03
 -1     22272-1.03322E-01 1.03374E-01-1.12508E-04-7.86497E-02-1.23690E-03-1.42597E-04
 -1     22273-6.53122E-02 7.24711E-02-7.28988E-03-7.41081E-02 6.99001E-04-3.33080E-03
 -1     22274-7.95135E-02 8.27765E-02-3.24464E-03-7.76374E-02-1.26410E-03 2.09019E-03
 -1     22275-8.12775E-02 7.56766E-02 5.48444E-03-3.51214E-02 1.20351E-02 1.06655E-02
 -1     22276-8.76187E-02 8.67310E-02 8.08026E-04-6.46956E-02-1.48826E-03 5.68475E-03
 -1     22277-8.08457E-02 7.64329E-02 4.38462E-03-7.85105E-02 2.45974E-03-2.67357E-04
 -1     22278-5.58852E-02 5.35822E-02 2.30991E-03-2.46204E-02-2.49457E-03 5.06759E-03
 -1     22279-7.20934E-02 6.78949E-02 4.15185E-03-3.23953E-02-9.70217E-03-5.25047E-03
 -1     22280-7.11711E-02 6.76500E-02 3.53227E-03-1.97013E-02-5.73183E-03 7.68655E-03
 -1     22281-6.41514E-02 7.11893E-02-7.13290E-03-3.89111E-02-5.62367E-03-3.99747E-03
 -1     22282-8.37504E-02 8.05737E-02 3.12646E-03-1.06235E-01 1.21503E-03 5.68379E-03
 -1     22283-6.80524E-02 6.77999E-02 2.72116E-04-8.92708E-02 8.40427E-03-3.00505E-03
 -1     22284-8.78065E-02 8.45156E-02 3.25643E-03-9.12118E-02 5.16168E-03 3.81500E-04
 -1     22285-8.74078E-02 8.92665E-02-1.95945E-03-8.12191E-02-1.16316E-02-1.18543E-03
 -1     22286-7.93528E-02 8.23014E-02-2.96901E-03-8.27054E-02-5.42965E-03 1.90772E-03
 -1     22287-1.00335E-01 9.91907E-02 1.09251E-03-7.70270E-02 3.30929E-03 4.50192E-04
 -1     22288-9.85425E-02 9.84518E-02 5.68587E-05-7.40371E-02 1.57732E-03 9.55437E-04
 -1     22289-1.21329E-01 1.21701E-01-4.32664E-04-9.22732E-02 1.80672E-04 9.01668E-04
 -1     22290-1.15648E-01 1.15685E-01-9.30357E-05-8.85586E-02 4.31046E-04 7.62822E-04
 -1     22291-1.42130E-01 1.42297E-01-2.33696E-04-1.05617E-01-4.42181E-04-1.23238E-04
 -1     22292-1.36422E-01 1.35772E-01 5.78093E-04-1.01609E-01-5.67769E-04-1.12189E-05
 -1     22293-1.57550E-01 1.58167E-01-7.02708E-04-1.17978E-01-1.69379E-04-2.29293E-04
 -1     22294-1.54981E-01 1.55122E-01-2.20755E-04-1.16936E-01-1.34239E-05-1.57051E-04
 -1     22295-1.68759E-01 1.68801E-01-1.35355E-04-1.26630E-01-6.23274E-04 1.01261E-04
 -1     22296-1.66818E-01 1.66926E-01-1.98193E-04-1.24870E-01-5.37941E-04 3.70116E-04
 -1     22297-1.76178E-01 1.76082E-01 7.24900E-06-1.32162E-01-2.32056E-05 4.20004E-04
 -1     22298-1.74745E-01 1.74359E-01 2.97203E-04-1.31750E-01-2.22252E-04-1.12048E-04
 -1     22299-1.80228E-01 1.80108E-01 2.98906E-05-1.35595E-01-1.35285E-04 3.40639E-04
 -1     22300-1.79411E-01 1.79320E-01 3.71437E-06-1.35084E-01-3.63663E-04 1.33467E-04
 -1     22301-1.82749E-01 1.82639E-01 1.94160E-05-1.37992E-01 1.17485E-04 2.57834E-05
 -1     22302-1.82364E-01 1.82194E-01 7.80198E-05-1.37406E-01 3.64672E-04-3.57045E-05
 -1     22303-1.87384E-01 1.87468E-01-1.80136E-04-1.41104E-01 3.37043E-04-5.57086E-05
 -1     22304-1.85770E-01 1.85692E-01-1.67535E-05-1.39397E-01 5.72523E-04-8.41903E-05
 -1     22305-1.91364E-01 1.91306E-01-3.63021E-05-1.46221E-01 6.63726E-04-4.24704E-04
 -1     22306-1.89887E-01 1.90167E-01-3.71157E-04-1.44164E-01 7.16715E-04-4.23798E-04
 -1     22307-1.87962E-01 1.99377E-01-1.14550E-02-1.69118E-01 9.83980E-03-1.45621E-02
 -1     22308-1.78272E-01 1.88324E-01-1.01533E-02-1.57643E-01 8.55815E-03 6.50998E-04
 -1     22309-2.56562E-01 2.45802E-01 1.06741E-02-2.01025E-01 1.78623E-02 3.04535E-02
 -1     22310-1.84726E-01 1.90814E-01-6.14782E-03-1.51217E-01 2.52323E-03-2.09638E-03
 -1     22311-1.91045E-01 1.95256E-01-4.33156E-03-1.48117E-01 6.49333E-03-9.71744E-05
 -1     22312-1.89502E-01 1.92070E-01-2.65191E-03-1.50703E-01 1.55908E-04 1.76919E-04
 -1     22313-1.86648E-01 1.86961E-01-4.24130E-04-1.41692E-01 8.14967E-04-6.43006E-04
 -1     22314-1.86531E-01 1.86158E-01 2.90265E-04-1.44916E-01-6.28741E-04-6.26089E-04
 -1     22315-1.86998E-01 1.85977E-01 9.20239E-04-1.43127E-01 4.98991E-04 8.03666E-04
 -1     22316-1.92572E-01 1.87946E-01 4.46546E-03-1.94005E-01-6.16511E-03-5.88332E-03
 -1     22317-1.77109E-01 1.86131E-01-9.18772E-03-2.25557E-01 1.88858E-02-4.70725E-03
 -1     22318-1.88577E-01 1.91084E-01-2.60204E-03-1.49989E-01 4.39198E-05-2.55593E-03
 -1     22319-1.85798E-01 1.85633E-01 7.30112E-05-1.43339E-01-6.98350E-04 4.82911E-04
 -1     22320-1.70126E-01 1.34068E-01 3.62233E-02-2.03953E-01 8.93530E-03 2.22287E-02
 -1     22321-1.83059E-01 1.82795E-01 1.77954E-04-1.38160E-01 1.93166E-04-1.30100E-05
 -1     22322-1.84066E-01 1.83706E-01 2.69769E-04-1.38842E-01-2.54724E-05 1.58706E-04
 -1     22323-1.80452E-01 1.80342E-01 1.87357E-05-1.35791E-01-1.81129E-04-1.46884E-04
 -1     22324-1.81465E-01 1.81435E-01-5.87455E-05-1.36731E-01 1.64449E-05-1.21821E-04
 -1     22325-1.77486E-01 1.77259E-01 1.37543E-04-1.33885E-01-7.33048E-05-6.05405E-05
 -1     22326-1.78185E-01 1.77899E-01 1.97270E-04-1.34384E-01-8.89989E-05-1.83526E-04
 -1     22327-1.71620E-01 1.71661E-01-1.26277E-04-1.29484E-01 2.39193E-05 3.17569E-04
 -1     22328-1.73425E-01 1.73449E-01-1.11277E-04-1.30434E-01-1.08772E-04 1.12638E-04
 -1     22329-1.62606E-01 1.62839E-01-3.16119E-04-1.22160E-01 4.24195E-04-1.75697E-04
 -1     22330-1.65574E-01 1.65223E-01 2.69343E-04-1.23818E-01 8.27503E-05 3.04422E-04
 -1     22331-1.47885E-01 1.47170E-01 6.38798E-04-1.11094E-01 5.31535E-04-1.20330E-03
 -1     22332-1.51556E-01 1.51850E-01-3.67651E-04-1.13276E-01 2.06192E-04-8.95079E-04
 -1     22333-1.27037E-01 1.26284E-01 6.61398E-04-9.56849E-02 6.58297E-04-1.59841E-03
 -1     22334-1.34995E-01 1.35061E-01-1.37111E-04-1.00448E-01 1.13233E-03-1.91063E-03
 -1     22335-1.03154E-01 1.05556E-01-2.45799E-03-7.78321E-02 1.38274E-04-9.37047E-04
 -1     22336-1.09521E-01 1.10079E-01-6.22088E-04-8.32179E-02 1.64927E-03 2.85396E-04
 -1     22337-1.10798E-01 1.11491E-01-7.58013E-04-8.37501E-02-4.87702E-05 9.76496E-04
 -1     22338-1.07758E-01 1.06835E-01 8.80146E-04-8.42092E-02 2.50302E-03 2.52824E-06
 -1     22339-8.69449E-02 8.72084E-02-2.82393E-04-7.62675E-02 3.15609E-03-1.24279E-03
 -1     22340-9.86614E-02 9.67677E-02 1.83993E-03-7.46093E-02-2.80346E-03 8.31698E-04
 -1     22341-1.61025E-01 1.61437E-01-5.00106E-04-1.21125E-01-3.36448E-04 1.88878E-04
 -1     22342-1.59632E-01 1.59135E-01 4.17922E-04-1.19464E-01-7.89096E-04-2.23182E-04
 -1     22343-1.64913E-01 1.64793E-01 2.54815E-05-1.23934E-01-1.86701E-04 4.49231E-04
 -1     22344-9.61014E-02 1.00863E-01-4.81158E-03-7.16351E-02 2.29381E-03-3.79234E-03
 -1     22345-7.45755E-02 7.29962E-02 1.52808E-03-8.61014E-02 3.91381E-03 4.33619E-03
 -1     22346-1.25381E-01 1.25773E-01-4.57101E-04-9.38750E-02-5.95592E-04 4.83483E-04
 -1     22347-1.23182E-01 1.22462E-01 6.62844E-04-9.22013E-02-1.08716E-03 5.49861E-04
 -1     22348-1.32323E-01 1.32874E-01-6.17586E-04-9.86866E-02-8.24183E-05-8.33202E-04
 -1     22349-1.14090E-01 1.11789E-01 2.24084E-03-8.66831E-02-2.38786E-03-1.06300E-03
 -1     22350-1.10182E-01 1.10055E-01 6.69986E-05-8.31194E-02-1.16346E-03 1.15746E-03
 -1     22351-1.33137E-01 1.32990E-01 8.34860E-05-1.01286E-01-7.43341E-04-1.05615E-03
 -1     22352-1.51548E-01 1.51500E-01-3.10816E-05-1.12599E-01-6.80849E-04 3.22685E-05
 -1     22353-1.45669E-01 1.46085E-01-4.96624E-04-1.08813E-01-4.00231E-04-2.78640E-04
 -1     22354-1.64941E-01 1.64912E-01-5.14574E-05-1.23910E-01-6.13544E-05 8.06518E-06
 -1     22355-1.73256E-01 1.73225E-01-5.69098E-05-1.30128E-01 8.59096E-04-4.34099E-04
 -1     22356-1.70931E-01 1.71231E-01-3.91973E-04-1.28665E-01 1.60107E-04-2.68287E-04
 -1     22357-1.78183E-01 1.78158E-01-6.63514E-05-1.34196E-01 7.45002E-05-3.66621E-06
 -1     22358-1.77306E-01 1.77411E-01-1.94395E-04-1.33578E-01 2.94621E-04 5.99169E-06
 -1     22359-1.81614E-01 1.81260E-01 2.63652E-04-1.36725E-01 1.32305E-04 1.58964E-04
 -1     22360-1.81055E-01 1.80847E-01 1.14811E-04-1.36063E-01-1.36814E-04 1.76910E-04
 -1     22361-1.84162E-01 1.83944E-01 1.19813E-04-1.38948E-01-1.81362E-04-1.84787E-04
 -1     22362-1.83293E-01 1.83036E-01 1.63662E-04-1.38344E-01-1.73182E-04 2.73758E-06
 -1     22363-1.87955E-01 1.88074E-01-2.12391E-04-1.41541E-01-1.64843E-04-7.66747E-04
 -1     22364-1.87581E-01 1.87806E-01-3.18344E-04-1.41639E-01-7.61228E-05-5.08458E-04
 -1     22365-1.95494E-01 1.93868E-01 1.55386E-03-1.49729E-01 1.60681E-03-1.92868E-03
 -1     22366-1.93118E-01 1.89558E-01 3.52688E-03-1.45946E-01 2.75012E-03-4.74197E-04
 -1     22367-1.39405E-01 1.48372E-01-9.11669E-03-1.68301E-01-3.15801E-02 2.59046E-02
 -1     22368-1.95408E-01 1.94802E-01 4.77736E-04-1.51610E-01-2.30944E-02 1.35533E-02
 -1     22369-1.83429E-01 1.84196E-01-8.60364E-04-1.38927E-01-2.68250E-04 3.12307E-04
 -1     22370-1.81751E-01 1.81869E-01-2.06799E-04-1.36816E-01 1.46576E-04-1.00569E-04
 -1     22371-1.78545E-01 1.78297E-01 1.58824E-04-1.34556E-01-4.06551E-05 2.96355E-05
 -1     22372-1.73967E-01 1.74100E-01-2.21881E-04-1.31301E-01 3.22186E-04 4.89232E-05
 -1     22373-1.67193E-01 1.67088E-01 2.24879E-05-1.25088E-01-3.57424E-04-1.98624E-04
 -1     22374-1.54627E-01 1.54277E-01 2.73988E-04-1.15191E-01-2.56102E-04-8.00065E-06
 -1     22375-1.36204E-01 1.35527E-01 6.08661E-04-1.03103E-01 3.50513E-04-1.41645E-04
 -1     22376-1.43486E-01 1.43176E-01 2.31117E-04-1.07343E-01-1.06438E-03 9.60308E-04
 -1     22377-1.69605E-01 1.69863E-01-3.44085E-04-1.27530E-01 1.48960E-04 1.44576E-04
 -1     22378-1.77239E-01 1.77072E-01 7.79894E-05-1.32960E-01 3.44344E-04 2.65831E-04
 -1     22379-1.80673E-01 1.80392E-01 1.90233E-04-1.35993E-01-7.73568E-05 1.96266E-05
 -1     22380-1.82860E-01 1.82774E-01-5.27223E-06-1.38194E-01 2.32585E-04-2.29938E-04
 -1     22381-1.87398E-01 1.87909E-01-6.04909E-04-1.40310E-01-1.22435E-05-6.86613E-04
 -1     22382-1.90928E-01 1.87628E-01 3.20335E-03-1.46090E-01 2.11739E-03-2.13293E-03
 -1     22383-2.07066E-01 1.95150E-01 1.15839E-02-1.46920E-01 1.36568E-02 1.60789E-02
 -1     22384-1.71052E-01 1.70742E-01 2.22368E-04-1.28457E-01-2.69222E-04-8.71084E-05
 -1     22385-1.61844E-01 1.61276E-01 4.89168E-04-1.20726E-01-2.35372E-05-2.22195E-05
 -1     22386-1.45905E-01 1.46071E-01-2.57521E-04-1.10106E-01-1.56168E-03 4.08444E-04
 -1     22387-1.27553E-01 1.26449E-01 1.03493E-03-9.57571E-02 1.02594E-03-2.46750E-04
 -1     22388-2.52910E-01 2.56000E-01-3.34033E-03-1.37960E-01 1.22433E-02 2.03021E-02
 -1     22389-1.75668E-01 1.87383E-01-1.20563E-02-1.86318E-01 1.76676E-02 1.73726E-03
 -1     22390-1.76219E-01 1.76077E-01 5.20069E-05-1.33187E-01 4.40596E-04-4.67817E-04
 -1     22391-1.79985E-01 1.80001E-01-1.09021E-04-1.35721E-01 1.16800E-04-1.59057E-04
 -1     22392-1.82736E-01 1.83038E-01-3.94685E-04-1.37843E-01-2.84756E-04 9.70554E-05
 -1     22393-9.78903E-02 1.01456E-01-3.64312E-03-7.25140E-02 4.32113E-03-3.20298E-03
 -1     22394-1.90458E-01 1.88984E-01 1.35733E-03-1.51529E-01 5.03991E-03 4.12689E-03
 -1     22395-1.89645E-01 1.89399E-01 1.56003E-04-1.43223E-01-1.13345E-04-2.07929E-04
 -1     22396-1.85701E-01 1.85513E-01 9.91951E-05-1.38888E-01-2.72420E-04-5.56878E-04
 -1     22397-1.81810E-01 1.81690E-01 2.78863E-05-1.37270E-01 2.55959E-05-8.67463E-05
 -1     22398-1.52474E-01 1.52240E-01 1.50678E-04-1.13099E-01-4.75525E-04-1.40834E-04
 -1     22399-1.78869E-01 1.78890E-01-1.10858E-04-1.34809E-01-1.44571E-04 1.52501E-04
 -1     22400-1.73807E-01 1.73822E-01-1.02911E-04-1.30973E-01 8.85011E-05 1.01929E-05
 -1     22401-2.77953E-01 2.43234E-01 3.44379E-02-1.65118E-01-1.60488E-02-8.31281E-03
 -1     22402-1.74429E-01 1.75056E-01-7.18443E-04-1.32183E-01 1.01190E-04 9.39620E-05
 -1     22403-1.76581E-01 1.76515E-01-2.14597E-05-1.33240E-01 3.33092E-05 1.27253E-04
 -1     22404-1.90817E-01 1.89556E-01 1.16399E-03-1.46368E-01 1.48558E-04-1.96329E-03
 -1     22405-1.87157E-01 1.85943E-01 1.12479E-03-1.45980E-01 2.81724E-03-1.70902E-03
 -1     22406-1.89067E-01 1.87641E-01 1.32734E-03-1.44131E-01-8.45869E-04-1.48013E-03
 -1     22407-1.77847E-01 1.77659E-01 1.00060E-04-1.34050E-01 7.71616E-05-3.00276E-04
 -1     22408-1.78519E-01 1.78470E-01-3.99979E-05-1.34562E-01-8.04820E-06 5.46845E-07
 -1     22409-1.82702E-01 1.82575E-01 3.64608E-05-1.37584E-01 2.35344E-04 1.05816E-04
 -1     22410-1.82789E-01 1.82924E-01-2.26566E-04-1.38241E-01 6.72582E-05 4.51858E-05
 -1     22411-1.74173E-01 1.74369E-01-2.82734E-04-1.31323E-01-1.45052E-04 1.37427E-05
 -1     22412-1.79552E-01 1.79627E-01-1.65328E-04-1.35485E-01-8.35799E-05-1.44679E-05
 -1     22413-1.80265E-01 1.80340E-01-1.66678E-04-1.35997E-01-9.30973E-05-1.10355E-04
 -1     22414-1.65923E-01 1.66156E-01-3.18918E-04-1.24353E-01 3.82800E-05 6.83393E-05
 -1     22415-1.68050E-01 1.68110E-01-1.44180E-04-1.25974E-01-6.79859E-05-1.56033E-04
 -1     22416-1.60818E-01 1.60168E-01 5.70100E-04-1.20762E-01-8.55323E-05-1.01473E-04
 -1     22417-1.57075E-01 1.56435E-01 5.63383E-04-1.17818E-01-7.66508E-04 1.20377E-04
 -1     22418-1.52770E-01 1.52591E-01 1.02683E-04-1.14503E-01-1.68040E-04-6.81434E-05
 -1     22419-1.43985E-01 1.43934E-01-2.13194E-05-1.09014E-01-1.16624E-03 4.49160E-04
 -1     22420-1.39447E-01 1.39380E-01-4.02843E-06-1.05588E-01-8.39304E-04 9.97624E-04
 -1     22421-1.35945E-01 1.35488E-01 3.87104E-04-1.01803E-01 3.27235E-04-1.04300E-04
 -1     22422-1.24039E-01 1.24850E-01-8.71672E-04-9.37258E-02 6.31518E-04-2.04487E-04
 -1     22423-1.29420E-01 1.28976E-01 3.73785E-04-9.84641E-02 6.79282E-04-2.99524E-04
 -1     22424-2.47316E-01 2.28405E-01 1.87959E-02-1.65142E-01 3.00798E-03 2.26497E-02
 -1     22425-1.14495E-01 1.14154E-01 2.85431E-04-8.80124E-02 1.28250E-03-8.80897E-04
 -1     22426-1.99828E-01 1.85443E-01 1.42967E-02-1.67040E-01-2.12542E-03-1.93244E-03
 -1     22427-1.95107E-01 1.87563E-01 7.45484E-03-1.49518E-01 3.53676E-03 2.22078E-03
 -1     22428-7.33404E-02 7.87034E-02-5.28457E-03-8.78362E-02 2.89485E-04-5.78797E-03
 -1     22429-1.70758E-01 1.70229E-01 4.45924E-04-1.27850E-01-3.11407E-04 1.37915E-04
 -1     22430-1.20988E-01 1.20898E-01 3.05186E-05-8.95742E-02 1.21746E-03-1.05438E-03
 -1     22431-9.86741E-02 9.73781E-02 1.26897E-03-8.37545E-02-4.12338E-03 1.75543E-03
 -1     22432-1.80938E-01 1.81050E-01-2.03733E-04-1.36447E-01 8.01983E-05-1.83361E-04
 -1     22433-1.81577E-01 1.81610E-01-1.24859E-04-1.36836E-01 2.35011E-04 7.73761E-05
 -1     22434-9.22803E-02 8.86333E-02 3.60874E-03-7.29466E-02 1.19143E-03 6.66488E-03
 -1     22435-1.72513E-01 1.72175E-01 2.52904E-04-1.29756E-01-1.04094E-04-2.06176E-05
 -1     22436-1.82754E-01 1.83013E-01-3.50739E-04-1.38319E-01-2.28713E-05-6.42315E-05
 -1     22437-1.86910E-01 1.86543E-01 2.75236E-04-1.41657E-01-4.27733E-04-3.28605E-04
 -1     22438-1.86844E-01 1.86368E-01 3.84252E-04-1.39927E-01-1.58477E-04-5.36852E-04
 -1     22439-1.87329E-01 1.84600E-01 2.63200E-03-1.47429E-01 2.27379E-03-6.18550E-03
 -1     22440-1.83975E-01 1.83558E-01 3.25782E-04-1.39131E-01-6.04188E-05-2.51252E-04
 -1     22441-2.16188E-01 2.01745E-01 1.43581E-02-1.68253E-01 2.02828E-02-2.72392E-02
 -1     22442-1.87951E-01 1.88485E-01-6.32019E-04-1.42624E-01-1.16909E-04-1.19265E-03
 -1     22443-7.83461E-02 7.82564E-02 5.65619E-06-7.55726E-02 6.58768E-03 3.79157E-03
 -1     22444-1.64250E-01 1.63712E-01 4.56654E-04-1.22978E-01-2.23946E-04-3.88654E-04
 -1     22445-1.49881E-01 1.50017E-01-2.10593E-04-1.10590E-01 2.07655E-04-7.99907E-04
 -1     22446 5.93265E-05 1.36642E-08-1.63542E-09 1.27767E-01 7.67797E-10 1.53273E-04
 -1     22447 5.43354E-05 1.19737E-08 2.10193E-09 1.29029E-01-1.23507E-09 5.92384E-04
 -1     22448 2.45044E-05-4.11612E-05 7.36749E-05 1.28557E-01 4.32699E-05 7.01168E-04
 -1     22449 5.76999E-05 1.05125E-08-1.97440E-09 1.29620E-01 3.80137E-09 1.13283E-04
 -1     22450 3.41772E-05-1.23009E-05 2.95004E-05 1.30398E-01 1.14381E-05-1.24130E-06
 -1     22451 4.74417E-05 1.09473E-08 3.15176E-09 1.27347E-01-1.67535E-09 2.14586E-04
 -1     22452 5.09670E-05 1.21181E-08-3.57326E-09 1.26670E-01 4.18769E-09 9.37083E-05
 -1     22453 5.68100E-05-1.42920E-09 2.67410E-09 1.21809E-01-9.88488E-10 3.46439E-04
 -1     22454 3.71270E-05-1.00103E-04 1.05627E-04 1.21531E-01 9.02862E-05-7.16144E-05
 -1     22455 5.45194E-05 1.57903E-08-4.80763E-10 1.18270E-01-1.19164E-09 1.47404E-04
 -1     22456 3.44477E-05 1.02144E-04-1.03272E-04 1.20260E-01-9.55198E-05 2.66760E-04
 -1     22457 1.86200E-04-6.15901E-05-2.78417E-05 1.01761E-01 4.55185E-05 2.15989E-03
 -1     22458 3.63495E-05-7.01675E-05 6.42325E-05 1.06939E-01 1.70256E-05 1.73722E-03
 -1     22459 5.88214E-05-3.26787E-04 3.32309E-04 7.01642E-02-3.45880E-04 1.38185E-03
 -1     22460 4.82404E-05 3.82113E-08 6.06711E-11 7.87994E-02-1.87939E-09 1.07796E-03
 -1     22461 6.85381E-05 6.76296E-08-6.85047E-11 3.63478E-02-3.00527E-09 1.16241E-03
 -1     22462 9.40077E-05-4.09549E-04 3.81621E-04 4.50423E-02 7.51051E-05 6.80068E-05
 -1     22463 3.38417E-05 4.98097E-08-2.12116E-09 2.72598E-03 1.80622E-09 2.02501E-03
 -1     22464 7.01073E-06-4.49365E-04 4.64651E-04 1.15032E-02 1.10610E-04 9.36559E-04
 -1     22465 9.64746E-05 5.76518E-04-4.71025E-04-3.30230E-02 3.93348E-04 2.70377E-04
 -1     22466-2.58935E-05-6.31326E-04 6.97020E-04-2.52768E-02 1.88891E-04 1.64759E-03
 -1     22467 1.14805E-05 3.62991E-04-4.36254E-04-4.94071E-02 1.55022E-04-3.30078E-04
 -1     22468 1.25130E-04-1.01442E-04-4.49658E-06-4.63012E-02-2.61236E-05-3.30445E-04
 -1     22469-1.33919E-04 4.00049E-05 6.12888E-05-4.78618E-02-1.00015E-04 2.11795E-03
 -1     22470 3.90938E-04 8.68777E-05-3.06346E-04-5.30671E-02-2.94993E-04 4.03601E-03
 -1     22471-3.78483E-04 5.46263E-03-5.39434E-03 4.64596E-02 1.38731E-03-1.18510E-02
 -1     22472-4.87528E-04 2.83881E-03-2.42513E-03-8.58727E-04-2.05103E-03-5.52713E-03
 -1     22473-8.14229E-04 6.98080E-03-6.03381E-03 1.82766E-01 4.98235E-04 1.98852E-02
 -1     22474-7.73832E-04-2.57219E-07 3.02225E-08 1.04654E-01-1.84069E-08 2.39754E-02
 -1     22475-1.01819E-05-2.34547E-07 1.41293E-08 6.90544E-02-7.53898E-08 6.32395E-03
 -1     22476-2.07533E-03-6.41167E-04 2.29910E-03 2.05715E-01 1.05910E-02 3.49073E-02
 -1     22477-1.03730E-03-7.53332E-07 2.03931E-08 1.71378E-01-8.78954E-08 4.42208E-02
 -1     22478-1.18689E-03-2.88094E-07-9.87278E-08 9.61935E-02-4.05776E-08 1.43677E-02
 -1     22479 3.62729E-04 1.41462E-05-5.35596E-04 1.06447E-01 6.32616E-03 3.10639E-02
 -1     22480 1.35565E-03 3.33086E-04-1.43079E-03 7.59922E-02 9.41391E-04 2.43015E-02
 -1     22481 1.53990E-02-1.68375E-02 1.36347E-03 3.92624E-02-8.90845E-04 6.17313E-03
 -1     22482-1.03316E-03 4.42284E-04-2.89999E-04 6.40175E-03-1.97786E-05-5.45983E-04
 -1     22483 3.84033E-04-2.68858E-04-1.66661E-04-2.85787E-02 2.11791E-04-2.33207E-03
 -1     22484-2.98263E-04-5.09712E-08-3.11247E-09-1.60915E-02-1.33434E-08 5.01739E-03
 -1     22485-1.21748E-05-1.91372E-09-1.67899E-08-4.59965E-02 1.09917E-08-1.15992E-04
 -1     22486-9.42370E-07 3.73679E-04-2.86046E-04-4.48711E-02-3.90385E-04 4.76887E-04
 -1     22487 8.45067E-05 6.59472E-10-7.09841E-12-4.63846E-02-2.70339E-10-1.50715E-03
 -1     22488-1.38402E-04 6.33475E-05 2.30506E-05-4.48873E-02 3.87531E-05 1.25949E-03
 -1     22489 1.99642E-04-1.90097E-04 7.95693E-05-2.30668E-02-5.44866E-05 1.16950E-03
 -1     22490 1.12940E-04 8.93391E-05-1.72035E-04-3.09148E-02-7.98211E-05 9.60048E-05
 -1     22491 5.86890E-05 6.04054E-08-1.67930E-09 1.32670E-02-5.72209E-10 6.92374E-04
 -1     22492 1.81620E-05 6.15423E-08-2.56060E-09 4.63796E-03 2.31866E-10-2.99376E-04
 -1     22493 1.76484E-04-4.69871E-04 4.48220E-04 4.89315E-02-4.68071E-04-8.32651E-04
 -1     22494 2.67118E-05 6.63241E-08-3.51569E-09 3.96571E-02-7.65677E-09-1.38741E-03
 -1     22495 8.33796E-05-7.53964E-05 1.68677E-05 8.25235E-02-6.17621E-06 1.49183E-04
 -1     22496 5.24283E-05 4.21593E-08-1.90929E-09 7.39458E-02-1.66826E-09 2.91156E-05
 -1     22497 1.40660E-05 1.80458E-05 1.19124E-05 1.11304E-01-1.74863E-05 3.78801E-04
 -1     22498 4.05491E-05 2.20276E-08-1.97360E-09 1.04737E-01-8.14005E-10 3.20369E-05
 -1     22499 2.98888E-06-8.88986E-05 1.05526E-04 1.17632E-01-2.95125E-05-5.74738E-04
 -1     22500 9.59732E-05-2.12394E-04 1.87745E-04 1.15580E-01 1.68047E-04-4.28863E-04
 -1     22501 3.72534E-05 2.02242E-10 3.91093E-10 1.21623E-01 9.31880E-11-1.74765E-04
 -1     22502 7.68498E-05-2.23292E-04 1.95261E-04 1.21318E-01 2.21898E-04 5.50771E-04
 -1     22503 3.90430E-05-2.37203E-06 1.08720E-05 1.24793E-01 2.96892E-05 1.41353E-04
 -1     22504 4.22788E-05 1.62030E-05-2.11429E-05 1.21974E-01-2.12417E-05 8.69899E-05
 -1     22505 4.76084E-05-7.89565E-10 2.09961E-09 1.21406E-01-4.69745E-10 6.24819E-04
 -1     22506 5.58830E-05 9.54925E-09 2.70481E-10 1.21269E-01-3.35352E-09 5.70088E-04
 -1     22507 5.56375E-05-1.45728E-04 1.41825E-04 1.15346E-01 9.54809E-05 2.86660E-04
 -1     22508 8.74015E-05 1.66160E-08-1.17295E-09 1.16656E-01-1.80676E-09-9.28019E-05
 -1     22509 4.85339E-05 3.94875E-08 8.94403E-10 1.11719E-01-6.50394E-09 1.68946E-03
 -1     22510 3.40848E-05 1.19484E-08-2.37907E-09 1.23149E-01 3.78971E-09-4.02693E-04
 -1     22511 4.78864E-05 7.77975E-05-6.77084E-05 1.24806E-01-3.10979E-05-2.36502E-04
 -1     22512 6.69890E-05 1.15667E-08-1.67987E-09 1.20403E-01-4.01959E-09 4.39930E-04
 -1     22513 1.44617E-04-4.14343E-06-2.60663E-05 1.08232E-01 2.55834E-05 1.49406E-03
 -1     22514 3.87000E-05 4.81995E-05-4.36418E-05 1.26553E-01 1.26797E-04-5.16181E-04
 -1     22515 7.82675E-04-1.05679E-03 3.51671E-04 8.79574E-02-2.13269E-04 4.95877E-04
 -1     22516-2.25966E-06 2.55760E-08 2.00361E-09 9.55171E-02-2.65330E-09 2.62710E-03
 -1     22517 5.12672E-05 6.77114E-08 2.89432E-09 5.37374E-02 1.46816E-09-2.30448E-04
 -1     22518 1.07855E-04 8.79081E-05-1.29703E-04 6.16928E-02-4.62030E-05 6.76020E-05
 -1     22519 6.91080E-05 5.97573E-08 6.32599E-09 1.96654E-02-1.86295E-10 3.85901E-04
 -1     22520 1.13729E-04-9.16406E-05 4.35261E-05 2.78829E-02-9.46768E-06 1.31161E-03
 -1     22521 6.22633E-05-2.41877E-05-1.17862E-05-1.52695E-02 1.94193E-05-4.30773E-04
 -1     22522 6.32478E-05 5.13620E-08-3.97301E-09-6.30900E-03 3.87371E-09 8.10863E-04
 -1     22523-4.11354E-06 1.19271E-08 2.06882E-09-4.24286E-02 1.48345E-09 3.00330E-04
 -1     22524 1.51705E-04-3.12768E-04 1.99719E-04-3.82746E-02 2.00679E-05 7.86617E-04
 -1     22525-4.71921E-05-1.36432E-05 1.58637E-05-5.22178E-02 2.66525E-04 2.08851E-03
 -1     22526-9.68238E-05 1.34570E-08-9.74879E-09-5.13320E-02-6.55868E-09 2.40499E-03
 -1     22527-1.03354E-04 1.05776E-08-6.54527E-09-4.97001E-02-2.53183E-09 2.71722E-04
 -1     22528-1.13857E-04 1.02222E-03-9.21631E-04-4.72607E-02-6.98273E-04-1.58651E-04
 -1     22529 2.79974E-05-5.57330E-08 7.02167E-10-2.20152E-02-2.53240E-09-2.95173E-03
 -1     22530-2.07776E-04-5.00586E-08-7.80993E-09-3.41073E-02 5.00307E-09-1.85683E-03
 -1     22531 5.35940E-05-5.98801E-08 4.00973E-09-4.11582E-02 9.23070E-09-1.22871E-03
 -1     22532 6.24905E-05-6.21722E-08-1.40398E-09 8.08518E-03-1.55342E-10-2.97801E-04
 -1     22533-5.22044E-05 1.11060E-08 2.05908E-09-5.07151E-02 4.75311E-09 3.06981E-04
 -1     22534 2.56429E-05 5.45488E-09 6.63278E-09-4.76845E-02 1.12267E-08 2.08257E-03
 -1     22535 3.05960E-05 3.19056E-08-5.55119E-09-3.80593E-02 1.91507E-09-4.32745E-04
 -1     22536 1.43692E-04-1.10661E-04-9.40168E-05-4.41584E-02-1.13244E-04 2.35342E-04
 -1     22537 1.32255E-04 4.32818E-05-1.43169E-04-4.00652E-03 1.68300E-04-8.01024E-04
 -1     22538 3.31904E-05-3.75350E-04 3.88345E-04-1.27824E-02 9.63386E-05 5.35175E-04
 -1     22539 3.44751E-05 6.75026E-08-4.69046E-09 3.07426E-02-7.96792E-09-2.39988E-04
 -1     22540 5.39915E-05-3.08959E-05 6.25635E-05 2.16950E-02 2.66811E-05 9.92647E-04
 -1     22541 1.01892E-04-7.36274E-06-2.31719E-05 6.53744E-02 3.05552E-05 1.20925E-04
 -1     22542 5.98191E-05-4.61839E-04 4.46490E-04 5.73952E-02 9.33020E-05 2.84350E-04
 -1     22543 1.54828E-05-8.20295E-05 1.01095E-04 9.79033E-02-1.09382E-04-1.59043E-04
 -1     22544 2.04985E-04-2.74223E-04 1.35713E-04 9.02695E-02-2.61854E-05-4.22476E-04
 -1     22545 5.72481E-05 2.05182E-09 2.13311E-09 1.14860E-01-2.70117E-09 8.97957E-04
 -1     22546 3.81206E-05 9.30268E-05-4.95516E-05 1.14000E-01 2.64199E-06 5.02056E-04
 -1     22547 5.14839E-05 9.99152E-09-4.68865E-11 1.20132E-01 5.69579E-09 6.83300E-04
 -1     22548 3.69882E-05 1.24227E-08-2.47054E-09 1.19086E-01 4.33447E-09-2.00427E-04
 -1     22549 6.45186E-05 9.92875E-09-9.18937E-10 1.23097E-01 5.78105E-10-2.94886E-04
 -1     22550 7.73907E-05-3.19093E-05 2.13707E-06 1.21762E-01-1.78249E-06-1.18383E-04
 -1     22551 8.69394E-05 2.59113E-08 7.06328E-10 9.69139E-02-1.72444E-09 2.75774E-03
 -1     22552 6.82576E-05 7.34840E-08 2.22891E-10 6.47839E-02 3.66333E-09 4.12985E-04
 -1     22553 8.39265E-05 2.31235E-07 8.25402E-07 3.08724E-02-4.48191E-04 1.16487E-03
 -1     22554-7.30648E-06 5.18186E-08-3.74785E-09-3.15294E-03 2.82822E-09 6.14734E-04
 -1     22555 1.45791E-04 2.68254E-08 1.30516E-09-3.44705E-02 2.02414E-09 1.12014E-03
 -1     22556 1.64936E-04 2.76572E-07-6.70701E-05-1.61366E-02-8.43969E-06 8.53032E-04
 -1     22557 1.59119E-04 1.45200E-07-9.67500E-05 5.47492E-02-5.04042E-05 3.85921E-04
 -1     22558 1.44093E-04 1.22122E-06-4.07120E-05 8.72536E-02-1.39814E-04 2.85896E-04
 -1     22559 9.46833E-05 1.26354E-08-1.54115E-09 1.12394E-01 2.36401E-09 6.68446E-04
 -1     22560 8.02705E-05 1.37271E-08-3.62601E-09 1.17922E-01-1.13773E-09-1.35163E-06
 -1     22561 7.38316E-05-4.20581E-06-2.13766E-06 1.21619E-01-4.36507E-05-2.10454E-04
 -1     22562-3.39394E-05 4.67813E-08 1.52890E-09-2.06586E-02-9.84972E-10 1.37027E-04
 -1     22563 1.63724E-04 1.30059E-08 7.83455E-10-4.41506E-02 7.79513E-10 6.10134E-04
 -1     22564 9.41753E-05-1.75347E-06-7.44358E-05-4.50198E-02-1.15496E-05 9.20777E-07
 -1     22565 1.03740E-04 1.63128E-09 2.38281E-09 1.15964E-01-5.31398E-10-1.28348E-04
 -1     22566 4.58531E-05 8.98542E-09 9.69656E-10 1.20073E-01 1.67855E-09 8.15975E-04
 -1     22567 7.57712E-05 6.98525E-05-8.30852E-05 1.23863E-01 1.28248E-04 1.79269E-04
 -1     22568-2.22808E-05 7.39323E-05-2.06895E-05 1.22659E-01 4.96300E-04-6.05326E-04
 -1     22569-7.30826E-05 3.08096E-07 1.26823E-04 1.44505E-02-1.55624E-04 1.19995E-03
 -1     22570 7.21290E-05 6.81427E-08 2.11590E-09 4.83884E-02 2.80464E-09-2.42151E-04
 -1     22571 1.49957E-04 3.73417E-08 4.14164E-10 8.15545E-02-1.44212E-09 9.08020E-04
 -1     22572 2.24855E-05 2.23837E-08-2.37442E-09 1.02820E-01 6.64284E-10 7.00353E-04
 -1     22573-1.29678E-04-6.61477E-08 8.15273E-09-1.18722E-02-9.16792E-09 3.30606E-03
 -1     22574 4.07765E-05 2.05326E-07 7.49731E-05 7.14161E-02-1.06391E-04 4.79135E-04
 -1     22575 1.10433E-04 3.37942E-08-7.47860E-09-3.46787E-02 1.98610E-09 8.52900E-04
 -1     22576 4.54720E-05 6.72245E-08-4.25621E-09 3.74956E-02-6.09303E-09-4.90902E-04
 -1     22577 1.11435E-04 6.14175E-08-2.79472E-09 2.45859E-03 8.92273E-10-3.08945E-04
 -1     22578 1.73883E-05 5.94181E-08-6.22240E-10 1.95321E-02-6.92753E-10 1.09177E-03
 -1     22579 7.00506E-05-2.11254E-05-3.85825E-07 1.24775E-01 1.11878E-05 1.96790E-04
 -1     22580-3.71063E-05 6.06848E-08-2.00004E-09 8.69185E-03 6.91375E-10 6.73941E-04
 -1     22581 8.63099E-05 5.98099E-08-7.11309E-10 1.70902E-02-1.01442E-10 9.84078E-04
 -1     22582 5.47444E-05 1.25159E-08-2.48617E-09 1.19239E-01-5.09825E-09 3.13391E-04
 -1     22583 7.08137E-05 1.82416E-05-3.14518E-05 1.17962E-01-4.52273E-05 1.70227E-05
 -1     22584 1.94002E-04-2.18621E-04 1.10113E-04 1.14774E-01 7.58461E-05-5.12791E-04
 -1     22585 1.27698E-04-6.72892E-05 5.88620E-06 1.06534E-01 2.11328E-06 1.23641E-03
 -1     22586-2.68061E-05-1.44723E-04 2.56958E-04 9.92429E-02 8.90230E-05 2.02230E-03
 -1     22587 1.36118E-04-2.08479E-05-3.60953E-05 2.54867E-02 4.93039E-05 1.28514E-03
 -1     22588 7.88162E-05-3.25453E-04 3.16568E-04 3.41450E-02 6.74107E-05 7.34626E-04
 -1     22589 3.53590E-06-1.23568E-04 1.55052E-04 7.64769E-02-1.69925E-04 1.08886E-03
 -1     22590 6.08715E-05-6.99632E-05 7.25043E-05 8.47315E-02 1.63344E-05 4.68938E-04
 -1     22591 1.44713E-04 4.38984E-05-1.12058E-04-9.65498E-03 1.35558E-04-1.35130E-04
 -1     22592 1.18279E-04-2.06033E-04 1.96150E-04-3.99898E-04 3.82016E-05 1.87233E-04
 -1     22593-4.77384E-09 1.24340E-05 7.61379E-05 4.34677E-02-9.75718E-05-3.56201E-04
 -1     22594 1.02355E-05 6.85331E-08 1.43696E-09 5.14809E-02 3.65038E-09 5.93793E-05
 -1     22595-5.60482E-05-8.97202E-05-6.61294E-06-4.04049E-02 8.69251E-05 8.30355E-04
 -1     22596-8.83322E-05 3.27795E-04-2.12005E-04-3.59398E-02 7.84359E-05 1.62709E-03
 -1     22597 1.64137E-04-1.05833E-04-1.19835E-05-4.49605E-02 7.21461E-05 3.16484E-04
 -1     22598-1.21634E-04 3.70421E-07 3.49577E-05-4.79327E-02 1.46144E-04-3.71065E-04
 -1     22599 7.05965E-05 2.95001E-04-3.05275E-04-4.97174E-02 3.32386E-04 3.41075E-04
 -1     22600 9.37892E-05 7.37687E-08-1.56999E-10 6.79451E-02 3.14723E-09 5.41664E-04
 -1     22601-3.40500E-04-6.56257E-08 7.19831E-09-2.08944E-02 1.04849E-09-2.50543E-03
 -1     22602-2.40692E-04 8.04758E-05 8.38620E-05-3.53704E-02 1.30875E-04 7.64748E-04
 -1     22603-2.19121E-04 5.49634E-03-5.77775E-03 2.72291E-02-5.96139E-03-1.02279E-02
 -1     22604 5.91301E-05 2.31591E-08 1.15810E-09 1.22963E-01 5.44812E-10-2.73601E-04
 -1     22605 4.42516E-05-1.39387E-05-3.81383E-08 1.13863E-01 1.26479E-04 4.63851E-04
 -1     22606 6.46995E-05 7.97426E-05-4.30353E-05 5.96703E-02 3.78869E-05 3.21210E-04
 -1     22607 3.60916E-05-5.73018E-04 5.91825E-04 9.21330E-02-6.49114E-04 1.13381E-03
 -1     22608 7.97113E-04-8.01626E-04 1.92804E-05-2.81811E-02 1.03703E-04 4.52241E-04
 -1     22609-2.16142E-05 1.31558E-08-1.89774E-09 1.10893E-01 3.54793E-09 1.03373E-03
 -1     22610-2.08054E-03 1.48900E-03 2.17956E-04-4.11517E-03-7.78191E-04-5.87361E-04
 -1     22611 4.56228E-05 1.02075E-08-3.13973E-10 1.20381E-01-3.64028E-09 2.93399E-04
 -1     22612 6.02560E-05-1.85891E-06-4.41141E-06 1.21240E-01 3.47596E-06 9.34819E-04
 -1     22613 4.40500E-05 2.72560E-04-2.73574E-04 1.21446E-01 5.14613E-05-4.27976E-04
 -1     22614 4.94931E-06 4.59139E-08 2.17320E-09-1.84898E-02-1.91245E-09 2.39150E-04
 -1     22615-3.79172E-04 1.05867E-04 3.12573E-04 1.20988E-01 4.45552E-04 1.66814E-04
 -1     22616-3.62967E-02 2.85856E-02 7.76880E-03 1.51056E-01-4.65076E-03 1.72321E-03
 -1     22617-5.17072E-02 5.47701E-02-3.01398E-03 1.39672E-01 3.42938E-04-1.58442E-03
 -1     22618-8.43094E-04 2.34115E-03-1.42443E-03 2.00607E-01 1.49629E-03 1.83163E-03
 -1     22619-3.02509E-03 4.95794E-03-1.86462E-03 1.90235E-01-5.29393E-04 5.45771E-04
 -1     22620 9.14715E-03-9.09596E-03 3.80883E-05 2.27077E-01 1.74745E-05 7.75054E-04
 -1     22621 8.67259E-03-9.49545E-03 9.04343E-04 2.21393E-01-4.90219E-04 1.36198E-04
 -1     22622 1.60719E-02-1.53740E-02-6.02843E-04 2.42256E-01-9.44831E-05 4.81214E-04
 -1     22623 1.57445E-02-1.51943E-02-4.63789E-04 2.38906E-01-3.36112E-04-3.58447E-04
 -1     22624 2.00038E-02-1.89413E-02-9.68271E-04 2.49682E-01 2.40840E-04-7.02924E-05
 -1     22625 2.06161E-02-1.96656E-02-8.52638E-04 2.47746E-01-3.49988E-06 1.58733E-04
 -1     22626 2.12193E-02-2.14219E-02 3.02426E-04 2.53035E-01-8.17911E-05 4.88369E-04
 -1     22627 2.15687E-02-2.10954E-02-3.69917E-04 2.53182E-01-1.24847E-04-9.05089E-05
 -1     22628 2.31227E-02-2.32035E-02 1.77871E-04 2.52439E-01-7.70952E-06-2.40018E-04
 -1     22629 2.36408E-02-2.36752E-02 1.28950E-04 2.53138E-01-7.89067E-05-2.65112E-04
 -1     22630 2.58664E-02-2.52527E-02-5.29862E-04 2.45752E-01-5.29603E-04 6.41928E-04
 -1     22631 2.57203E-02-2.51000E-02-5.21268E-04 2.47187E-01-7.30733E-05 6.01322E-04
 -1     22632 2.74378E-02-2.64104E-02-9.34574E-04 2.32826E-01-1.40208E-04-3.56481E-04
 -1     22633 2.81244E-02-2.81180E-02 9.54492E-05 2.36855E-01-4.46485E-04 1.87330E-04
 -1     22634 2.88063E-02-2.75128E-02-1.20430E-03 2.13513E-01-1.78422E-04-8.38985E-04
 -1     22635 2.99473E-02-2.89032E-02-9.54464E-04 2.20077E-01-3.84678E-04 1.06826E-04
 -1     22636 2.89678E-02-2.83048E-02-5.79700E-04 1.88970E-01-9.27483E-05-1.94021E-04
 -1     22637 2.97318E-02-2.90681E-02-5.81287E-04 1.96531E-01-3.32633E-04 2.10934E-04
 -1     22638 2.80158E-02-2.68671E-02-1.09000E-03 1.60856E-01 5.41018E-04-6.12940E-04
 -1     22639 2.71199E-02-2.72408E-02 2.00593E-04 1.68779E-01-7.43583E-04-2.36831E-04
 -1     22640 2.22516E-02-2.27564E-02 5.65636E-04 1.36047E-01-7.39131E-04 2.18407E-04
 -1     22641 2.26588E-02-2.28637E-02 2.59048E-04 1.42764E-01-1.40922E-04 1.62919E-04
 -1     22642 1.70580E-02-1.66905E-02-3.18137E-04 1.16563E-01 4.45254E-04 5.42840E-04
 -1     22643 1.71607E-02-1.63215E-02-7.84267E-04 1.21128E-01-1.90561E-04 4.58197E-04
 -1     22644 1.07648E-02-9.70651E-03-1.01314E-03 1.11313E-01-1.13896E-03-2.46716E-04
 -1     22645 1.05819E-02-1.09110E-02 3.76547E-04 1.11383E-01-6.09596E-04-5.73590E-04
 -1     22646 5.82748E-03-5.70344E-03-7.88665E-05 1.17916E-01-1.96259E-05-4.81867E-04
 -1     22647 4.85087E-03-4.97067E-03 1.75914E-04 1.15285E-01 5.34305E-05-1.24347E-04
 -1     22648 5.40399E-03-5.42913E-03 6.67173E-05 1.23510E-01-1.73670E-04-8.11013E-04
 -1     22649 3.88018E-04-1.04561E-03 7.31490E-04 1.19499E-01 3.33812E-04 1.35835E-05
 -1     22650 4.45337E-04-9.59370E-04 5.71093E-04 1.19898E-01-4.57951E-05-2.79668E-04
 -1     22651 2.65611E-03-1.90365E-03-6.77885E-04 1.16403E-01-7.18758E-04-2.41883E-04
 -1     22652 2.43294E-03-2.13392E-03-2.64801E-04 1.17821E-01-2.90614E-04-2.55003E-04
 -1     22653 7.90875E-03-7.80451E-03 2.47394E-05 1.01870E-01-5.54880E-04 2.53055E-04
 -1     22654 6.78552E-03-7.30639E-03 5.75197E-04 1.06438E-01 7.50582E-04 2.06752E-05
 -1     22655 1.19241E-02-1.26827E-02 8.01411E-04 7.60376E-02 1.63917E-04 1.25130E-04
 -1     22656 1.17170E-02-1.29499E-02 1.24255E-03 8.43755E-02 5.89801E-04 3.36722E-04
 -1     22657 1.64885E-02-1.58458E-02-6.09776E-04 4.36335E-02 2.19198E-03-7.57985E-04
 -1     22658 1.65208E-02-1.63404E-02-2.59368E-04 5.47041E-02 5.07475E-04-2.85564E-03
 -1     22659 1.38064E-02-1.21859E-02-1.62160E-03 1.18180E-02 1.31053E-04-4.48911E-04
 -1     22660 1.34886E-02-1.34150E-02-8.46986E-06 2.02545E-02 5.95702E-04 4.89066E-04
 -1     22661 1.17408E-02-1.20552E-02 2.25315E-04-1.52014E-02 5.23218E-04-1.08872E-03
 -1     22662 1.11404E-02-1.39009E-02 2.77672E-03-7.53032E-03-6.83732E-04 2.81619E-04
 -1     22663 2.25731E-03-4.78955E-03 2.56550E-03-3.39157E-02 3.11031E-03 1.19593E-03
 -1     22664 5.60446E-03-5.64203E-03 1.34770E-05-3.02009E-02-1.94415E-03-1.89741E-03
 -1     22665-1.12842E-02 1.34922E-02-2.26201E-03-2.49244E-02-5.97745E-03-2.62863E-03
 -1     22666-9.77228E-03 1.34038E-02-3.70630E-03-3.20542E-02 7.88743E-05-2.15488E-03
 -1     22667-4.64214E-02 5.11416E-02-5.10223E-03 5.53920E-02-4.08952E-05-5.50613E-03
 -1     22668-4.66634E-02 5.10023E-02-4.10401E-03 1.14105E-02-5.11395E-03 1.73782E-03
 -1     22669-2.72359E-01 2.68614E-01 3.77893E-03 1.01637E-01-2.50624E-03-3.53235E-02
 -1     22670-9.01334E-02 8.41895E-02 5.75439E-03 7.96498E-02 3.10213E-03-7.00120E-03
 -1     22671-1.39895E-01 1.41805E-01-2.96801E-03 6.53673E-02-4.97602E-05-9.61486E-03
 -1     22672-3.06369E-01 3.00807E-01 4.92913E-03-9.37363E-02-6.70591E-03-1.95132E-02
 -1     22673-2.08237E-01 2.11259E-01-3.08932E-03-1.33991E-01 2.19481E-03 3.33136E-03
 -1     22674-2.13598E-01 2.15104E-01-1.58047E-03-1.34280E-01 1.66881E-03 1.56385E-03
 -1     22675-1.84112E-01 1.84742E-01-7.23774E-04-1.32473E-01 5.32215E-04 6.34488E-04
 -1     22676-1.88476E-01 1.89474E-01-1.08817E-03-1.35551E-01 3.14813E-03 2.21342E-03
 -1     22677-1.76384E-01 1.76331E-01-3.32377E-05-1.28657E-01 6.98535E-04-2.57216E-04
 -1     22678-1.78553E-01 1.78100E-01 3.63042E-04-1.30030E-01 3.57774E-04-2.73177E-04
 -1     22679-1.71557E-01 1.71358E-01 1.14403E-04-1.26411E-01 1.05383E-04 3.20149E-05
 -1     22680-1.72217E-01 1.72335E-01-2.06425E-04-1.27327E-01-1.25511E-04 8.65790E-05
 -1     22681-1.67463E-01 1.67319E-01 6.26591E-05-1.22995E-01-2.49803E-04-2.37945E-04
 -1     22682-1.68384E-01 1.68204E-01 9.36284E-05-1.23904E-01-3.30582E-04-2.69981E-04
 -1     22683-1.62242E-01 1.61731E-01 4.33689E-04-1.17832E-01-2.64491E-04-5.71431E-04
 -1     22684-1.63731E-01 1.63713E-01-6.20617E-05-1.18233E-01-1.58694E-04-4.13217E-05
 -1     22685-1.55652E-01 1.55655E-01-6.89107E-05-1.10521E-01 1.33616E-04-9.11064E-06
 -1     22686-1.57399E-01 1.57355E-01-2.87374E-05-1.11443E-01-5.70321E-04 4.75057E-05
 -1     22687-1.44375E-01 1.43653E-01 6.55730E-04-9.87485E-02-3.44588E-04 4.22432E-04
 -1     22688-1.47046E-01 1.47353E-01-3.69734E-04-1.00771E-01-4.29465E-04-5.31501E-05
 -1     22689-1.27057E-01 1.28098E-01-1.10047E-03-8.41382E-02 4.76745E-04 1.31714E-03
 -1     22690-1.32225E-01 1.31962E-01 2.03182E-04-8.72772E-02 9.70050E-04-9.28146E-05
 -1     22691-1.04093E-01 1.03504E-01 5.40451E-04-6.26957E-02 4.80491E-04 7.96085E-04
 -1     22692-1.11753E-01 1.10867E-01 8.34813E-04-6.89842E-02 5.23148E-04-8.05673E-05
 -1     22693-7.95110E-02 7.90673E-02 4.32239E-04-4.40655E-02 1.44359E-03 4.19730E-04
 -1     22694-8.59158E-02 8.57310E-02 1.59016E-04-5.07655E-02-4.78569E-05 8.75875E-04
 -1     22695-4.69782E-02 5.48955E-02-7.86950E-03 1.38277E-03 3.81428E-03 5.42244E-03
 -1     22696-6.39454E-02 6.55388E-02-1.61502E-03-1.54403E-02 2.85412E-03 3.63496E-03
 -1     22697-6.92052E-02 7.89058E-02-9.71163E-03 5.28107E-02-8.30293E-03 2.15484E-02
 -1     22698-9.65113E-02 1.01275E-01-4.71978E-03 1.08554E-01 8.98199E-04-6.49467E-03
 -1     22699-9.13256E-02 9.34621E-02-2.25241E-03 1.04470E-01-2.76743E-04-7.49832E-03
 -1     22700-1.24321E-01 1.16955E-01 7.42262E-03 1.38245E-01 6.14691E-03 5.81331E-03
 -1     22701-1.25627E-01 1.26266E-01-6.20567E-04 1.36771E-01 7.32673E-03 2.28547E-03
 -1     22702-1.05284E-01 1.07317E-01-1.98759E-03 1.52962E-01 2.43872E-03-2.95708E-03
 -1     22703-1.13761E-01 1.16292E-01-2.55009E-03 1.47643E-01 1.41177E-04 7.24801E-04
 -1     22704-7.95406E-02 8.01681E-02-6.43993E-04 1.52995E-01-2.73204E-03-4.58428E-03
 -1     22705-1.40726E-02 1.40443E-02 8.96421E-05 1.78877E-01-2.20705E-03 9.25740E-04
 -1     22706-1.66907E-02 1.36970E-02 3.04077E-03 1.61727E-01-2.84184E-03 9.65603E-04
 -1     22707 2.32422E-03-2.88804E-03 6.40194E-04 2.14664E-01-1.58713E-03 5.69894E-04
 -1     22708 7.14778E-03-6.85706E-03-2.14893E-04 2.05127E-01 4.66778E-04 2.23615E-04
 -1     22709 1.38984E-02-1.42183E-02 4.14678E-04 2.35219E-01 3.77408E-04 1.22312E-04
 -1     22710 1.35450E-02-1.35176E-02 5.35646E-05 2.30695E-01 7.63228E-04 4.22894E-04
 -1     22711 1.81960E-02-1.77826E-02-3.17900E-04 2.46103E-01 3.16848E-04 1.81523E-04
 -1     22712 1.69500E-02-1.71287E-02 2.74623E-04 2.43986E-01 2.51654E-04 5.10559E-04
 -1     22713 2.00282E-02-1.97061E-02-2.22467E-04 2.51395E-01-8.26569E-04-3.80888E-04
 -1     22714 2.05276E-02-1.97746E-02-6.60170E-04 2.50775E-01-5.07506E-04-4.94254E-04
 -1     22715 2.18204E-02-2.28495E-02 1.12424E-03 2.53229E-01 2.02399E-04 1.33983E-04
 -1     22716 2.22490E-02-2.24322E-02 2.79212E-04 2.53386E-01 4.30489E-04 7.25827E-05
 -1     22717 2.46382E-02-2.43540E-02-1.86727E-04 2.49179E-01 3.42584E-04-1.81200E-04
 -1     22718 2.45005E-02-2.40581E-02-3.46364E-04 2.51588E-01 3.34242E-04-4.82640E-04
 -1     22719 2.56151E-02-2.57379E-02 2.06802E-04 2.40126E-01-1.39503E-04-6.46768E-05
 -1     22720 2.64906E-02-2.53778E-02-1.01167E-03 2.44417E-01-3.66635E-04-9.14725E-05
 -1     22721 2.74047E-02-2.81924E-02 8.78996E-04 2.24067E-01-5.46529E-04 1.23720E-04
 -1     22722 2.84949E-02-2.75444E-02-8.56603E-04 2.28627E-01-8.62285E-04-1.31435E-04
 -1     22723 2.93580E-02-2.96674E-02 3.94785E-04 2.01922E-01-4.50476E-04-4.75931E-07
 -1     22724 2.97601E-02-2.86438E-02-1.03264E-03 2.08027E-01-6.13963E-04-5.98943E-04
 -1     22725 2.79443E-02-2.89308E-02 1.06838E-03 1.75264E-01-1.06995E-03-8.19394E-05
 -1     22726 2.88422E-02-2.89154E-02 1.45814E-04 1.82630E-01-4.41667E-04 9.07681E-05
 -1     22727 2.44164E-02-2.43668E-02 1.39277E-05 1.47864E-01-4.53395E-04 7.08665E-04
 -1     22728 2.68102E-02-2.57458E-02-1.00424E-03 1.54553E-01-8.85350E-05 6.89755E-05
 -1     22729 1.97195E-02-2.01236E-02 4.58436E-04 1.25260E-01-1.62641E-04 4.53117E-06
 -1     22730 2.01289E-02-1.98139E-02-2.60444E-04 1.30886E-01 7.13962E-05-3.33631E-04
 -1     22731 1.30703E-02-1.35977E-02 5.75428E-04 1.12303E-01 1.53313E-04-6.46025E-04
 -1     22732 1.43584E-02-1.33250E-02-9.92034E-04 1.15208E-01 3.36275E-04 1.63202E-04
 -1     22733 7.01761E-03-7.04018E-03 7.42076E-05 1.13961E-01-5.61354E-04 2.65044E-04
 -1     22734 7.97447E-03-7.50733E-03-4.18485E-04 1.12594E-01-7.13960E-04 8.40963E-05
 -1     22735 2.09890E-03-1.56208E-03-4.98774E-04 1.21678E-01 3.45795E-05-1.90339E-04
 -1     22736 6.93560E-03-7.05531E-03 1.85420E-04 1.20789E-01-1.25016E-04-8.58433E-04
 -1     22737 5.47010E-03-5.44306E-03 1.48610E-05 1.19097E-01-1.86190E-04-4.76623E-04
 -1     22738 1.00938E-03-1.69901E-03 7.16602E-04 1.19480E-01 2.75858E-04 6.17163E-04
 -1     22739 2.40893E-03-2.01509E-03-3.46740E-04 1.18306E-01 5.26925E-05 2.61088E-04
 -1     22740 1.19788E-03-1.09411E-03-5.60416E-05 1.20726E-01-3.37955E-04 8.20712E-05
 -1     22741 3.06776E-03-3.48564E-03 4.66778E-04 1.16507E-01-9.46075E-05 1.16747E-04
 -1     22742 1.91626E-03-1.20477E-03-6.26808E-04 1.19110E-01-1.60157E-05 7.13037E-05
 -1     22743 5.73666E-03-6.33730E-03 6.31470E-04 1.10614E-01 5.16539E-04 1.59689E-04
 -1     22744 5.14260E-03-5.87645E-03 7.40852E-04 1.14039E-01-1.06303E-03-7.33304E-05
 -1     22745 1.14134E-02-1.06220E-02-6.89383E-04 8.89428E-02-4.54672E-04-4.68740E-04
 -1     22746 1.08764E-02-1.19048E-02 1.07118E-03 9.67603E-02-9.50456E-04-4.84285E-04
 -1     22747 1.44726E-02-1.40291E-02-3.83082E-04 6.21268E-02 7.11481E-05-1.88028E-03
 -1     22748 1.26360E-02-1.28316E-02 1.90053E-04 6.97249E-02-1.56568E-04-9.43438E-04
 -1     22749 1.35878E-02-1.43377E-02 6.75844E-04 2.74057E-02 6.29892E-04 2.67871E-05
 -1     22750 1.51639E-02-1.37283E-02-1.39951E-03 3.54255E-02 1.64797E-03-1.32278E-03
 -1     22751 1.23965E-02-1.25718E-02 1.02332E-04-2.49804E-03-2.00714E-03 9.82702E-04
 -1     22752 1.27947E-02-1.36848E-02 8.65309E-04 5.22677E-03-5.88956E-04-4.52703E-04
 -1     22753 7.02552E-03-7.70735E-03 5.49688E-04-2.56910E-02-2.92958E-03 5.08041E-04
 -1     22754 8.46839E-03-7.08138E-03-1.32345E-03-2.19294E-02-9.51525E-04-9.83123E-04
 -1     22755-1.58706E-03 1.64978E-03-1.52892E-04-3.42933E-02 4.64757E-03 1.43332E-03
 -1     22756-9.66456E-04-1.07004E-03 2.04295E-03-3.44489E-02 4.37351E-03 3.68791E-03
 -1     22757-2.51129E-02 1.33447E-02 1.21517E-02-2.96351E-03 6.85586E-03 3.58116E-03
 -1     22758-1.93407E-02 1.99532E-02-7.55020E-04-1.28730E-02-6.10002E-04-4.33968E-03
 -1     22759-1.80461E-01 1.81788E-01-1.42258E-03-1.30408E-01-2.04801E-04 4.28110E-04
 -1     22760-1.76602E-01 1.76705E-01-1.77620E-04-1.21219E-01-1.61671E-04 7.23251E-04
 -1     22761-1.79893E-01 1.80414E-01-6.14250E-04-1.30786E-01 2.68755E-04 1.85492E-04
 -1     22762-2.32154E-01 2.21264E-01 1.07930E-02-1.52804E-01 5.78152E-03-7.39446E-04
 -1     22763-1.86249E-01 1.97460E-01-1.15992E-02-1.69732E-01-4.01144E-02 1.03010E-02
 -1     22764-1.93074E-01 1.94766E-01-1.85318E-03-1.34106E-01 5.50691E-03 1.73716E-03
 -1     22765-1.96547E-01 2.00133E-01-3.70777E-03-1.37368E-01 2.92099E-03 2.51396E-03
 -1     22766-1.70193E-01 1.69991E-01 1.27289E-04-1.18299E-01 2.22667E-04 8.56600E-07
 -1     22767-2.79264E-01 3.20041E-01-4.04227E-02-5.76359E-02-4.42847E-02-1.05121E-02
 -1     22768-1.73947E-01 1.73846E-01 1.56785E-05-1.27807E-01-9.78144E-06-7.54290E-05
 -1     22769-1.74701E-01 1.74582E-01 3.06687E-05-1.28447E-01 3.57243E-04-2.58014E-04
 -1     22770-1.68872E-01 1.68734E-01 5.57964E-05-1.24643E-01-4.96996E-04-2.56051E-04
 -1     22771-1.70250E-01 1.70003E-01 1.57663E-04-1.25236E-01-3.10357E-04-6.62708E-05
 -1     22772-1.65075E-01 1.65167E-01-1.71353E-04-1.20414E-01-4.37804E-05 2.39881E-05
 -1     22773-1.66190E-01 1.66216E-01-1.08556E-04-1.21806E-01 2.45273E-05-4.07212E-04
 -1     22774-1.59844E-01 1.59317E-01 4.55029E-04-1.13591E-01-4.28720E-04 2.09793E-04
 -1     22775-1.61337E-01 1.60868E-01 3.92822E-04-1.15820E-01 5.22430E-05-5.15919E-04
 -1     22776-1.50046E-01 1.50903E-01-9.26816E-04-1.03628E-01-1.93560E-04 5.03114E-04
 -1     22777-1.53251E-01 1.54011E-01-8.18163E-04-1.07157E-01-1.00326E-05 6.75589E-05
 -1     22778-1.36735E-01 1.36350E-01 3.31709E-04-9.09507E-02-1.01709E-04 5.42623E-04
 -1     22779-1.41876E-01 1.40989E-01 8.22439E-04-9.51039E-02-2.36275E-05 1.12181E-03
 -1     22780-1.17076E-01 1.17921E-01-8.91178E-04-7.41173E-02 1.32260E-03 1.27299E-03
 -1     22781-1.22342E-01 1.23813E-01-1.52211E-03-7.79154E-02 8.72238E-04 1.26722E-03
 -1     22782-9.48041E-02 9.29792E-02 1.80108E-03-5.80811E-02 1.23208E-03-3.11403E-04
 -1     22783-9.69416E-02 9.66699E-02 2.32748E-04-5.81718E-02 2.08521E-04-2.17752E-04
 -1     22784-7.17874E-02 7.01921E-02 1.62048E-03-3.58485E-02-4.53239E-04 8.86025E-04
 -1     22785-6.68578E-02 7.36860E-02-6.85343E-03-3.33589E-02-2.73685E-03 1.33205E-03
 -1     22786-6.94504E-03 6.00358E-03 1.03178E-03 2.00871E-01-7.63558E-04-1.66054E-04
 -1     22787-1.13413E-01 1.21270E-01-7.84035E-03 1.21606E-01 9.73723E-04-2.85879E-03
 -1     22788-6.42413E-02 6.96476E-02-5.32960E-03 8.30607E-02 3.35356E-04-4.78299E-03
 -1     22789-3.19490E-02 3.24778E-02-4.56213E-04 1.75016E-01-1.26687E-03 1.01084E-03
 -1     22790-9.27494E-02 9.77365E-02-4.85677E-03 1.19503E-01-4.39014E-04-1.06710E-03
 -1     22791-1.24085E-01 1.18945E-01 5.16733E-03 1.26461E-01 6.02932E-03-5.07905E-04
 -1     22792-1.15702E-01 1.16711E-01-9.84631E-04 1.48528E-01 6.73902E-04 5.60884E-03
 -1     22793-1.22989E-01 1.24738E-01-1.71400E-03 1.47206E-01 4.18008E-03 2.05643E-03
 -1     22794-8.67100E-02 8.98894E-02-3.12534E-03 1.63373E-01-1.07496E-03-3.38047E-03
 -1     22795-9.05242E-02 8.48484E-02 5.70741E-03 1.58252E-01-4.02894E-03 1.16876E-03
 -1     22796-9.94349E-02 9.92681E-02 1.86951E-04 1.60841E-01-4.12785E-04 2.20340E-03
 -1     22797 1.35904E-02-1.35039E-02 1.90198E-05 2.28584E-01-9.49945E-05 9.05535E-05
 -1     22798 6.90851E-03-7.25789E-03 4.41471E-04 2.18441E-01 5.59766E-04 4.01801E-04
 -1     22799-5.87556E-02 5.86479E-02 1.63190E-04 1.52645E-01 3.03805E-03 1.15588E-03
 -1     22800-1.70691E-02 1.57724E-02 1.47278E-03 1.87418E-01-8.84533E-04 6.04628E-04
 -1     22801 2.07856E-03-2.68472E-03 6.98211E-04 2.11712E-01 9.37181E-04 4.08303E-04
 -1     22802 1.03175E-02-9.82465E-03-3.93556E-04 2.24315E-01 3.96089E-05 1.26778E-04
 -1     22803 1.51119E-02-1.56389E-02 6.26400E-04 2.31150E-01-6.95427E-04-2.33088E-04
 -1     22804 1.97364E-02-1.96144E-02-2.00430E-05 2.35793E-01 1.00678E-04-2.16495E-04
 -1     22805 2.43188E-02-2.34902E-02-7.25590E-04 2.35249E-01 1.55204E-04-4.37146E-04
 -1     22806 2.84949E-02-2.82342E-02-1.63275E-04 2.28529E-01-5.53120E-04 6.09610E-04
 -1     22807 3.36533E-02-3.31079E-02-4.34482E-04 2.16918E-01-4.63634E-04-1.33889E-04
 -1     22808 3.83396E-02-3.76294E-02-6.21759E-04 1.99361E-01-3.86119E-04-3.81907E-04
 -1     22809 3.96753E-02-3.93264E-02-2.77723E-04 1.77237E-01-3.23150E-04-1.12102E-04
 -1     22810 3.78175E-02-3.71428E-02-5.99367E-04 1.52859E-01 2.22025E-05-3.39780E-04
 -1     22811 3.01280E-02-3.02358E-02 1.53270E-04 1.32349E-01-6.33979E-04-4.48676E-04
 -1     22812 1.97177E-02-1.91510E-02-5.25743E-04 1.17712E-01 2.10019E-05 1.15694E-04
 -1     22813 8.64641E-03-8.66398E-03 4.52442E-05 1.15004E-01-4.07135E-04-3.09916E-04
 -1     22814 7.99864E-03-8.48603E-03 5.35365E-04 1.12262E-01-4.14774E-04 2.13900E-05
 -1     22815 1.78759E-02-1.84195E-02 6.19780E-04 9.85994E-02-2.66504E-03 7.99299E-05
 -1     22816 2.35951E-02-2.46592E-02 1.15488E-03 7.64753E-02 1.08146E-03-5.47786E-04
 -1     22817 2.84277E-02-2.87647E-02 4.78135E-04 4.84281E-02 1.41739E-03-4.13404E-04
 -1     22818 2.35665E-02-2.45126E-02 1.07027E-03 1.92066E-02-6.79313E-05-1.89183E-04
 -1     22819 1.86469E-02-1.88848E-02 2.98026E-04-3.60523E-03-9.92895E-04-9.48321E-04
 -1     22820 7.87860E-03-5.91249E-03-2.04454E-03-1.76173E-02 1.71391E-04 2.80665E-03
 -1     22821-3.93221E-02 3.79048E-02 1.26236E-03-3.78735E-03-3.18696E-03-5.25159E-03
 -1     22822-1.99415E-01 1.95622E-01 3.71803E-03-1.18370E-01 5.10180E-03 3.34942E-03
 -1     22823-1.66616E-01 1.66238E-01 3.01723E-04-1.17367E-01 6.22530E-04-1.69731E-04
 -1     22824-1.59860E-01 1.59883E-01-9.83110E-05-1.14503E-01-1.92190E-04-3.64916E-05
 -1     22825-1.55077E-01 1.54871E-01 1.25289E-04-1.10321E-01 3.44582E-05-2.05028E-04
 -1     22826-1.50040E-01 1.49521E-01 4.39820E-04-1.02605E-01-2.30385E-04 1.93317E-04
 -1     22827-1.42879E-01 1.41920E-01 8.77747E-04-9.24115E-02 6.70334E-04 2.98631E-04
 -1     22828-1.32128E-01 1.31310E-01 7.40710E-04-7.82976E-02-3.35228E-04-5.80782E-05
 -1     22829-1.17672E-01 1.17460E-01 1.35636E-04-6.23846E-02 6.94665E-04-3.61971E-04
 -1     22830-9.08501E-02 9.35502E-02-2.80005E-03-3.68108E-02-1.58139E-03-5.87033E-04
 -1     22831-6.40208E-02 6.78913E-02-3.94920E-03-4.30086E-03-1.48629E-03 7.50923E-04
 -1     22832-1.01838E-01 1.01083E-01 8.21835E-04 1.42346E-01 1.43740E-03 1.60010E-03
 -1     22833-1.00071E-01 9.93605E-02 7.36911E-04 1.66732E-01-1.39906E-03 1.55325E-03
 -1     22834 1.75268E-02-1.75132E-02 9.13989E-05 2.34743E-01-3.24485E-04-4.76499E-04
 -1     22835 2.20218E-02-2.20888E-02 1.69458E-04 2.35138E-01 2.89347E-04-1.82223E-04
 -1     22836 2.72562E-02-2.63678E-02-7.85959E-04 2.32276E-01-1.83607E-04-1.71590E-04
 -1     22837 3.09887E-02-3.07522E-02-1.35123E-04 2.24866E-01-1.38015E-04 1.48075E-04
 -1     22838 3.59674E-02-3.63584E-02 4.91004E-04 2.09998E-01-4.85868E-04-4.69972E-05
 -1     22839 3.96002E-02-3.91893E-02-3.22297E-04 1.88974E-01-4.23817E-04-2.23135E-04
 -1     22840 3.87397E-02-3.87408E-02 7.04075E-05 1.65461E-01-3.90136E-04 3.75939E-04
 -1     22841 3.33698E-02-3.35452E-02 2.28408E-04 1.42906E-01-5.17285E-04 5.97634E-05
 -1     22842 2.55656E-02-2.54005E-02-1.16211E-04 1.23242E-01-4.30694E-04-3.66884E-04
 -1     22843 1.35836E-02-1.38212E-02 2.73575E-04 1.14525E-01 9.30123E-05 5.66017E-05
 -1     22844 4.08303E-03-3.73433E-03-3.12906E-04 1.17061E-01-6.80350E-06 3.76846E-04
 -1     22845 1.29632E-02-1.37885E-02 8.86940E-04 1.06466E-01-6.75095E-04-2.03621E-05
 -1     22846 2.93642E-02-2.81618E-02-1.09429E-03 3.38116E-02 1.13362E-04-1.22762E-04
 -1     22847 2.31641E-02-2.25117E-02-5.86121E-04 7.43741E-03-6.83819E-03 2.72635E-03
 -1     22848 1.06810E-02-1.27205E-02 2.09225E-03-1.29716E-02-2.28359E-03-1.32426E-03
 -1     22849-1.31565E-02 1.05893E-02 2.43691E-03-1.40651E-02 1.26792E-03 5.31731E-04
 -1     22850-6.34377E-02 6.04850E-02 2.84232E-03 1.85995E-02 9.40019E-03 6.77569E-03
 -1     22851-1.84862E-01 1.83862E-01 9.20664E-04-1.22317E-01 4.46788E-03 9.50701E-04
 -1     22852-1.52705E-01 1.52724E-01-9.89063E-05-1.06588E-01-1.18421E-04-3.21316E-04
 -1     22853-1.46933E-01 1.47105E-01-2.52649E-04-9.81217E-02-3.69136E-04 2.09515E-04
 -1     22854-1.38121E-01 1.37742E-01 3.02114E-04-8.50633E-02-5.99982E-04 3.64352E-04
 -1     22855-1.24703E-01 1.25083E-01-4.49960E-04-7.03020E-02-2.79628E-04 4.31774E-04
 -1     22856-1.06131E-01 1.06392E-01-3.27656E-04-4.90965E-02 1.46690E-03-5.89193E-04
 -1     22857-7.90758E-02 7.90802E-02-1.06818E-04-2.27874E-02 1.47262E-04-9.90544E-04
 -1     22858-5.71308E-02 5.12504E-02 5.86784E-03 3.52329E-02 1.16526E-03-3.56830E-03
 -1     22859-1.10951E-01 1.04042E-01 6.99348E-03 1.57048E-01-3.15208E-03 3.66321E-03
 -1     22860 2.63493E-02-2.73214E-02 1.04898E-03 6.46613E-02-1.00528E-04-2.26348E-03
 -1     22861 2.05644E-02-2.03761E-02-1.13500E-04 8.77253E-02-1.85640E-03 5.82427E-04
 -1     22862-2.28596E-01 2.12750E-01 1.57157E-02-1.20130E-01 6.59434E-03-3.65178E-03
 -1     22863-1.57337E-01 1.57334E-01-8.18443E-05-1.12623E-01-3.01600E-04-8.04692E-05
 -1     22864-1.62699E-01 1.62704E-01-8.31692E-05-1.16282E-01-1.49990E-04-4.83980E-05
 -1     22865-6.19847E-03 6.29704E-03-2.14153E-05 1.94720E-01 1.02905E-03 5.11714E-04
 -1     22866-7.91925E-03 8.04387E-03-6.31070E-05 1.91377E-01 1.34482E-03-4.64658E-04
 -1     22867-6.74620E-02 6.66987E-02 7.58812E-04 5.79732E-02 9.94466E-04-2.31898E-03
 -1     22868 4.03938E-03-4.54696E-03 5.85943E-04 2.07612E-01-2.38889E-04 5.73959E-05
 -1     22869 3.19681E-03-2.88672E-03-2.33225E-04 2.05971E-01-2.20004E-04-3.74931E-05
 -1     22870-6.42126E-02 6.41916E-02 7.13762E-05 1.61092E-01-5.89476E-04-1.00526E-03
 -1     22871-7.96124E-02 8.18243E-02-2.16786E-03 1.58003E-01-8.22712E-04-3.26175E-03
 -1     22872 1.15233E-02-1.30905E-02 1.65470E-03 2.14061E-01-1.18468E-03 1.31764E-04
 -1     22873 9.73133E-03-1.09153E-02 1.26741E-03 2.13523E-01-4.13032E-04 8.62017E-05
 -1     22874 3.41466E-04-6.74314E-04 4.16211E-04 2.02882E-01-4.22660E-04 4.98599E-04
 -1     22875-2.50201E-03 1.29914E-03 1.26820E-03 1.98843E-01 4.76517E-04 1.43221E-03
 -1     22876-1.29139E-02 1.33739E-02-3.80490E-04 1.81099E-01-2.04040E-05-1.84541E-04
 -1     22877-5.40372E-03 5.57986E-03-9.68750E-05 1.86947E-01-7.58762E-05 6.74354E-05
 -1     22878 1.73413E-02-1.78198E-02 5.55809E-04 2.18531E-01 1.12555E-04-3.40750E-04
 -1     22879 1.70503E-02-1.74910E-02 5.22528E-04 2.18474E-01-2.20194E-04-2.94191E-04
 -1     22880 2.41863E-02-2.37837E-02-3.25957E-04 2.18243E-01 1.88708E-06-4.05216E-04
 -1     22881 2.31172E-02-2.27185E-02-3.12317E-04 2.19549E-01 4.11964E-06-1.87771E-04
 -1     22882 3.06484E-02-3.08866E-02 3.13375E-04 2.13722E-01-6.33731E-04 6.10951E-04
 -1     22883 2.87699E-02-2.94890E-02 8.04229E-04 2.15023E-01-6.41971E-04 1.20400E-03
 -1     22884 3.81042E-02-3.81996E-02 1.55597E-04 2.03458E-01-4.76414E-04 3.84175E-05
 -1     22885 3.70136E-02-3.75076E-02 5.68602E-04 2.06662E-01-5.56389E-04 2.22564E-04
 -1     22886 4.43186E-02-4.45957E-02 3.36752E-04 1.87115E-01-2.36546E-04 2.19689E-04
 -1     22887 4.33030E-02-4.39117E-02 6.76113E-04 1.92234E-01-4.13256E-04 4.82382E-04
 -1     22888 4.73331E-02-4.77577E-02 4.89322E-04 1.66023E-01-2.73408E-05 4.12005E-04
 -1     22889 4.76966E-02-4.75416E-02-9.13337E-05 1.71956E-01-3.56153E-04 2.85190E-04
 -1     22890 4.56489E-02-4.61460E-02 5.56276E-04 1.46389E-01-7.37961E-04 3.74655E-05
 -1     22891 4.67608E-02-4.68043E-02 9.50154E-05 1.51033E-01-1.86756E-04 3.16805E-04
 -1     22892 3.63191E-02-3.51602E-02-1.10081E-03 1.28449E-01 2.64893E-04-8.46320E-04
 -1     22893 3.89270E-02-3.88289E-02-4.62157E-05 1.32979E-01 4.22380E-04-1.40557E-04
 -1     22894 2.26834E-02-2.22374E-02-3.93243E-04 1.17103E-01-1.03854E-05-3.35093E-04
 -1     22895 2.55004E-02-2.57197E-02 2.73769E-04 1.18735E-01-6.82840E-04-1.64667E-05
 -1     22896 4.68379E-03-4.55314E-03-5.43108E-05 1.16765E-01-1.26570E-04 2.02795E-04
 -1     22897 1.40754E-02-1.37977E-02-2.09635E-04 1.10810E-01 5.21999E-05 1.53483E-04
 -1     22898 1.02274E-02-1.14163E-02 1.22390E-03 1.12936E-01-2.18154E-04 5.26313E-04
 -1     22899 2.25256E-03-2.41063E-03 2.07377E-04 1.18952E-01 6.00716E-04-3.71662E-04
 -1     22900 2.52446E-02-2.68511E-02 1.69982E-03 9.79319E-02 1.29367E-04-1.29667E-03
 -1     22901 2.31419E-02-2.36849E-02 5.77873E-04 1.02112E-01-3.90355E-04-1.47121E-04
 -1     22902 7.06463E-03-7.73663E-03 7.41611E-04 1.13901E-01-3.17774E-04 1.65768E-04
 -1     22903 6.14154E-03-6.65687E-03 5.32836E-04 1.15317E-01 7.46267E-05 5.15333E-04
 -1     22904 8.13847E-03-8.25272E-03 1.69001E-04 1.15035E-01-1.02498E-04-3.41734E-05
 -1     22905 1.43088E-02-1.37413E-02-5.06575E-04 1.14236E-01 3.19397E-04 2.04369E-04
 -1     22906 3.84430E-02-3.88081E-02 3.61125E-04 4.05645E-02 2.28531E-05-1.62278E-03
 -1     22907 4.08119E-02-4.07223E-02-3.35798E-05 4.85915E-02-1.79895E-04-8.39521E-04
 -1     22908 3.55264E-02-3.63566E-02 8.88524E-04 7.72084E-02 1.33021E-03-1.33757E-04
 -1     22909 3.38082E-02-3.42681E-02 5.21836E-04 8.18590E-02 1.78510E-03 2.08360E-04
 -1     22910-2.13437E-01 2.00641E-01 1.26891E-02-9.56188E-02 7.41271E-03 4.27528E-03
 -1     22911-2.33949E-01 2.14378E-01 1.93602E-02-9.03073E-02 6.76476E-03-6.74167E-03
 -1     22912 3.75569E-02-3.92398E-02 1.66980E-03 5.26589E-02 4.60028E-04-8.39157E-05
 -1     22913 3.60024E-02-3.89324E-02 2.96502E-03 5.89409E-02-1.36428E-04-1.84008E-03
 -1     22914 4.86841E-02-4.78793E-02-6.69891E-04 5.84277E-02-1.45385E-03 6.86784E-04
 -1     22915 3.10172E-02-2.99496E-02-1.02175E-03 8.72790E-02-6.75112E-04 6.64820E-04
 -1     22916 2.91183E-02-2.92458E-02 1.58260E-04 9.17506E-02-5.94946E-04 1.06075E-05
 -1     22917 3.41706E-02-3.45014E-02 4.00529E-04 9.63282E-02 1.93853E-04-2.34002E-04
 -1     22918 4.10801E-02-3.94142E-02-1.58372E-03 8.66405E-02 2.49004E-04 1.37708E-03
 -1     22919 3.23049E-02-3.15332E-02-7.62469E-04 1.84517E-02-8.93452E-04 2.60600E-04
 -1     22920 3.26506E-02-3.22828E-02-3.61390E-04 2.38130E-02-2.02731E-03 9.19069E-04
 -1     22921 1.48755E-02-1.69053E-02 1.86565E-03 2.75782E-03 1.96065E-03-6.42095E-04
 -1     22922 1.92226E-02-1.95526E-02 3.87270E-04 7.80558E-03 2.16631E-03-6.93478E-04
 -1     22923-2.10578E-02 2.74770E-02-6.45903E-03 8.24146E-03 2.05505E-03 5.80767E-03
 -1     22924-1.06825E-02 1.34846E-02-2.78424E-03 2.59116E-03 5.27590E-03 3.10810E-03
 -1     22925-1.07242E-01 1.17528E-01-1.03894E-02 2.12519E-02 3.94606E-03 8.28342E-03
 -1     22926-7.74882E-02 7.65966E-02 8.50492E-04 2.03948E-02-2.68591E-03 8.29374E-03
 -1     22927-1.78356E-01 1.76655E-01 1.58120E-03-1.07874E-01 1.02488E-03-7.30328E-04
 -1     22928-1.81162E-01 1.81921E-01-8.48654E-04-1.07554E-01 3.62606E-03 1.07685E-04
 -1     22929-2.51029E-01 2.56560E-01-5.31554E-03 4.69928E-02-2.96029E-04-1.83757E-02
 -1     22930-1.59137E-01 1.63131E-01-3.49775E-03 4.22523E-02 2.82221E-03-9.61313E-03
 -1     22931-1.66672E-01 1.65998E-01 1.84852E-04 1.97234E-02-3.98677E-04-9.38662E-04
 -1     22932-2.42067E-01 2.33904E-01 8.02582E-03-6.49179E-02 2.53990E-03-7.76909E-03
 -1     22933-1.46352E-01 1.46323E-01-4.16850E-05-9.97260E-02-1.08006E-04 1.08597E-04
 -1     22934-1.47365E-01 1.47280E-01 1.86580E-05-1.01105E-01-2.92322E-04 2.87681E-05
 -1     22935-1.56105E-01 1.55834E-01 1.96518E-04-1.05330E-01 2.35409E-04 1.17469E-04
 -1     22936-1.58033E-01 1.57948E-01 1.34231E-07-1.05174E-01 3.50774E-04 2.05896E-04
 -1     22937-1.41064E-01 1.41191E-01-1.88398E-04-9.24884E-02-3.67279E-04-2.76191E-04
 -1     22938-1.42131E-01 1.42090E-01-1.83727E-05-9.39732E-02-1.18437E-04-2.68991E-04
 -1     22939-1.60860E-01 1.60477E-01 2.99500E-04-1.05720E-01 2.53288E-04-9.54244E-05
 -1     22940-1.62828E-01 1.62573E-01 1.63252E-04-1.06938E-01 3.12900E-05 1.95136E-04
 -1     22941-1.49970E-01 1.50144E-01-2.35965E-04-9.37438E-02 3.56081E-04 3.39481E-04
 -1     22942-1.42772E-01 1.43023E-01-3.15751E-04-9.63692E-02 1.82442E-04-1.67998E-04
 -1     22943-1.44965E-01 1.44953E-01-5.57130E-05-9.75296E-02-6.92785E-05 1.25377E-04
 -1     22944-1.31776E-01 1.31907E-01-2.04908E-04-8.17830E-02-9.05447E-07 2.14953E-05
 -1     22945-1.34573E-01 1.35131E-01-6.03364E-04-8.23905E-02-1.22709E-04 3.58457E-04
 -1     22946-1.36699E-01 1.36539E-01 9.90089E-05-8.41441E-02-4.38691E-04 9.34633E-05
 -1     22947-1.27995E-01 1.27995E-01-4.01113E-05-6.72416E-02-8.52493E-04-8.46699E-05
 -1     22948-1.29857E-01 1.29900E-01-9.23960E-05-7.05826E-02-5.56552E-04-5.01501E-04
 -1     22949-1.15814E-01 1.17269E-01-1.51157E-03-4.82405E-02-4.30215E-04-8.53928E-05
 -1     22950-1.19795E-01 1.20318E-01-5.66799E-04-5.41264E-02-1.18069E-03 1.20076E-04
 -1     22951-9.31158E-02 9.63611E-02-3.26805E-03-2.16825E-02-2.39217E-03-4.73992E-04
 -1     22952-1.00890E-01 1.02131E-01-1.27246E-03-2.86078E-02-4.34589E-04-2.35787E-04
 -1     22953-6.87549E-02 6.80867E-02 6.97205E-04 1.48160E-02-3.36767E-04-3.38618E-04
 -1     22954-7.68784E-02 7.65652E-02 3.07028E-04 8.47982E-03-3.31259E-04-8.32497E-04
 -1     22955-5.78562E-02 5.62900E-02 1.64592E-03 4.04248E-02-9.62054E-04 9.95381E-04
 -1     22956-6.49718E-02 6.61361E-02-1.17020E-03 3.35402E-02 1.91909E-04-4.55252E-04
 -1     22957-6.47914E-02 6.48880E-02-1.50882E-04 5.73212E-02-3.30353E-04-7.76630E-04
 -1     22958-6.73795E-02 6.89582E-02-1.66211E-03 9.03652E-02-1.07504E-04-8.57855E-04
 -1     22959-9.14558E-02 9.03970E-02 1.07791E-03 1.33833E-01 9.93983E-04 1.59944E-04
 -1     22960-8.61808E-02 8.38455E-02 2.29198E-03 1.22638E-01 8.45615E-04 6.85004E-06
 -1     22961-1.54535E-02 1.49664E-02 5.58873E-04 1.87988E-01 6.02815E-04-5.31663E-04
 -1     22962-1.98972E-02 1.90207E-02 9.34144E-04 1.83403E-01-6.83781E-04-4.24545E-04
 -1     22963-2.25357E-02 2.27713E-02-1.60748E-04 1.73959E-01 1.19310E-03-9.91948E-04
 -1     22964-9.76081E-02 9.62263E-02 1.45225E-03 1.67774E-01-1.36029E-03 3.01625E-03
 -1     22965-9.90214E-02 9.97780E-02-7.42403E-04 1.63019E-01-4.61757E-04 2.07853E-04
 -1     22966-7.78079E-02 7.81207E-02-3.11234E-04 9.97462E-02-1.20248E-03-1.17548E-03
 -1     22967-9.35497E-02 9.24143E-02 1.14967E-03 1.67021E-01-2.28680E-03 1.03641E-03
 -1     22968 3.55646E-02-3.88060E-02 3.32179E-03 6.59968E-02-1.54162E-04-2.23072E-03
 -1     22969 3.45250E-02-3.61889E-02 1.71110E-03 7.19720E-02 3.66995E-04-9.86347E-04
 -1     22970 4.37434E-02-4.54239E-02 1.75335E-03 7.84068E-02 1.89129E-04 1.10970E-03
 -1     22971 4.38328E-02-4.61734E-02 2.46952E-03 6.70600E-02-4.02671E-04-1.03026E-03
 -1     22972 8.58082E-03-8.81377E-03 3.04660E-04 2.11884E-01 1.41113E-04 1.80192E-05
 -1     22973 6.51005E-03-7.00672E-03 5.73967E-04 2.09336E-01-1.44706E-04 1.20474E-04
 -1     22974-1.07719E-03 1.18833E-04 1.04942E-03 1.91266E-01-1.57297E-04 2.99793E-05
 -1     22975 3.98214E-03-4.12810E-03 2.37854E-04 1.95087E-01 2.72845E-05-1.90131E-04
 -1     22976 1.48387E-02-1.56280E-02 8.72547E-04 2.17447E-01-1.30676E-04-4.66547E-04
 -1     22977 1.31648E-02-1.35747E-02 4.83368E-04 2.16379E-01-2.27794E-04-6.85560E-04
 -1     22978 8.95495E-03-8.85871E-03-2.79026E-06 1.98144E-01 7.56179E-05-2.24841E-04
 -1     22979 1.25588E-02-1.28516E-02 3.88987E-04 2.00872E-01 1.78345E-04-3.38209E-04
 -1     22980-1.48508E-01 1.48772E-01-3.33777E-04-1.01746E-01-3.24895E-04-6.07167E-05
 -1     22981-1.49795E-01 1.49996E-01-2.78828E-04-1.02881E-01-3.38598E-05-6.19944E-05
 -1     22982-1.37621E-01 1.37383E-01 1.69593E-04-8.93916E-02-1.17490E-04 9.80419E-05
 -1     22983-2.70048E-02 2.54643E-02 1.60269E-03 1.78360E-01-1.88977E-03-6.97796E-05
 -1     22984-3.32191E-02 3.27747E-02 4.75655E-04 1.72320E-01-8.08571E-04 4.88113E-05
 -1     22985-3.50139E-02 3.54862E-02-4.06538E-04 1.68747E-01 3.22582E-04-3.43328E-05
 -1     22986 4.01092E-02-4.00708E-02 3.43664E-05 2.00107E-01-2.05190E-04-2.37106E-04
 -1     22987 4.43960E-02-4.41137E-02-1.85689E-04 1.90375E-01-8.17334E-05 7.37292E-05
 -1     22988 4.26870E-02-4.27914E-02 1.68739E-04 1.96026E-01-8.87091E-05-1.00737E-05
 -1     22989-7.01140E-02 7.16976E-02-1.50751E-03 9.65941E-02-2.96772E-04-5.85222E-04
 -1     22990 2.66945E-02-2.64244E-02-1.91140E-04 2.17969E-01-2.18588E-04-2.77160E-04
 -1     22991 2.48106E-02-2.47186E-02 4.81825E-06 2.03591E-01 3.51308E-05 7.44326E-05
 -1     22992 2.78538E-02-2.74606E-02-3.15409E-04 2.17256E-01-5.93441E-05 1.07462E-05
 -1     22993 2.12410E-02-2.11026E-02-6.05699E-05 2.19402E-01-1.20980E-04-2.72784E-04
 -1     22994 1.98967E-02-1.97205E-02-9.78300E-05 2.18969E-01-1.48994E-05-4.44150E-04
 -1     22995 2.91530E-02-2.91863E-02 1.30312E-04 2.01877E-01-2.40654E-06 1.70483E-04
 -1     22996 1.68509E-02-1.69563E-02 1.99419E-04 2.02463E-01-1.13922E-05-2.78855E-04
 -1     22997 3.53401E-02-3.50272E-02-2.47441E-04 2.08915E-01-1.95840E-04-4.98506E-05
 -1     22998 3.38748E-02-3.33537E-02-4.45064E-04 2.11938E-01-2.24999E-04-1.55807E-04
 -1     22999 4.88247E-02-4.87893E-02 5.90659E-05 1.82586E-01-7.23146E-05 7.05299E-05
 -1     23000 4.73991E-02-4.70181E-02-3.16697E-04 1.77389E-01-4.56853E-05-5.46051E-05
 -1     23001 4.63894E-02-4.64347E-02 1.07270E-04 1.82791E-01-1.18874E-04-1.59251E-04
 -1     23002 4.79110E-02-4.71044E-02-7.49199E-04 1.56019E-01 3.10417E-04 7.99278E-04
 -1     23003 4.76784E-02-4.77854E-02 1.58058E-04 1.62080E-01 2.88660E-05 6.53028E-04
 -1     23004 4.05430E-02-4.06744E-02 1.88264E-04 1.36495E-01-8.10615E-05 4.00962E-05
 -1     23005 4.29131E-02-4.30519E-02 2.03329E-04 1.41922E-01-5.25812E-04-1.38607E-04
 -1     23006 3.00496E-02-2.95092E-02-4.77451E-04 1.21199E-01-4.82966E-04-3.41408E-04
 -1     23007 3.30161E-02-3.23666E-02-5.94300E-04 1.24766E-01 1.04128E-04-5.45088E-04
 -1     23008 3.73731E-02-3.47788E-02-2.55258E-03 3.47865E-02-1.45331E-04 1.67794E-03
 -1     23009 4.82601E-02-4.72230E-02-9.65765E-04 4.80079E-02-1.62223E-03 1.09939E-04
 -1     23010 3.55661E-02-3.63038E-02 7.63497E-04 2.85338E-02-3.24086E-04 9.84247E-04
 -1     23011 1.56249E-02-1.55632E-02-5.58662E-06 1.14363E-01-6.26847E-04-1.66541E-04
 -1     23012 1.85430E-02-1.78628E-02-6.25259E-04 1.16140E-01-1.89049E-04-1.32186E-04
 -1     23013 1.19397E-02-1.09118E-02-9.64979E-04 1.14689E-01-1.81741E-04-3.72601E-04
 -1     23014 1.78988E-02-1.76674E-02-1.96870E-04 1.08551E-01-6.64913E-05-1.61719E-04
 -1     23015 1.88686E-02-1.83954E-02-4.11359E-04 1.09912E-01 5.55873E-04 2.58413E-04
 -1     23016 2.07082E-02-2.01157E-02-5.25275E-04 1.05347E-01-1.02141E-03 7.04461E-05
 -1     23017 2.77451E-02-2.83382E-02 5.77497E-04 1.32146E-02 3.19291E-04-6.61435E-04
 -1     23018 3.30915E-02-3.27241E-02-3.10745E-04 3.03087E-02 1.96304E-04 6.23504E-04
 -1     23019 2.17308E-02-2.43689E-02 2.51369E-03 8.09585E-03-1.44857E-04-1.63376E-03
 -1     23020-2.00102E-01 1.95761E-01 4.23832E-03-1.05537E-01 2.64408E-03 5.35998E-03
 -1     23021-1.98693E-01 2.00594E-01-2.02812E-03-7.41745E-02 2.34361E-03-3.16142E-03
 -1     23022-1.86897E-01 1.88930E-01-2.12626E-03-1.07598E-01 3.76433E-03 1.81971E-03
 -1     23023 3.50909E-02-3.41447E-02-8.45280E-04 1.99351E-01-6.37816E-05-1.81083E-04
 -1     23024 4.40146E-02-4.33662E-02-5.90549E-04 3.88530E-02-2.95658E-04 9.60673E-04
 -1     23025-2.03311E-01 2.05159E-01-1.92375E-03-2.08615E-02 9.13156E-04-9.45710E-03
 -1     23026 3.46375E-03-5.88631E-03 2.45256E-03 3.23053E-03 1.18979E-03-1.54642E-03
 -1     23027 1.06892E-02-9.16308E-03-1.47746E-03 1.96560E-02 1.42652E-03-1.08798E-03
 -1     23028-1.26843E-03 5.98174E-04 6.91728E-04 4.58505E-03 2.73126E-03-1.63172E-03
 -1     23029 2.36740E-02-2.35990E-02-4.36069E-05 1.16258E-01-4.87871E-04-2.58984E-04
 -1     23030 2.55931E-02-2.59269E-02 4.27379E-04 2.50665E-02 1.35339E-03-1.04436E-03
 -1     23031-9.71194E-03 1.02263E-02-5.07078E-04 2.21863E-02 2.55960E-03 1.29127E-03
 -1     23032-4.84084E-02 4.53279E-02 2.98427E-03 8.93201E-03-6.77512E-03-2.65185E-03
 -1     23033-3.50464E-02 3.42272E-02 7.78661E-04 7.71768E-03-5.63022E-03-6.66249E-04
 -1     23034-1.81931E-01 1.82278E-01-4.22329E-04-8.98812E-02 6.17355E-04-1.07898E-03
 -1     23035-1.67565E-01 1.68180E-01-6.94960E-04-1.06564E-01 1.46508E-04 4.86352E-04
 -1     23036-1.71692E-01 1.71822E-01-2.16969E-04-1.08252E-01-3.42229E-04 9.37756E-04
 -1     23037-1.53275E-01 1.53432E-01-2.34750E-04-1.04881E-01-1.75082E-04-1.42135E-05
 -1     23038-1.43953E-01 1.44094E-01-2.10095E-04-9.30901E-02-2.21555E-04 3.25992E-04
 -1     23039-1.51864E-01 1.52020E-01-2.27526E-04-1.04154E-01 9.73870E-05-3.62205E-05
 -1     23040-1.34832E-01 1.34533E-01 2.30154E-04-8.59210E-02-1.45969E-05 3.26566E-04
 -1     23041-1.56537E-01 1.56461E-01 2.29755E-05-9.30510E-02 2.59191E-04 2.13491E-04
 -1     23042-1.34244E-01 1.33625E-01 5.63606E-04-7.82305E-02 3.41534E-04-2.59000E-04
 -1     23043-1.25120E-01 1.24181E-01 8.68987E-04-6.44413E-02 1.50356E-04-2.62238E-04
 -1     23044-1.30681E-01 1.30672E-01-3.63827E-05-7.40667E-02-2.18381E-05-6.89014E-04
 -1     23045-1.37838E-01 1.37957E-01-1.72602E-04-8.72739E-02-4.23463E-04-1.00698E-04
 -1     23046-1.39724E-01 1.39935E-01-2.74860E-04-8.99792E-02-2.88702E-04-2.42787E-04
 -1     23047-1.20860E-01 1.21115E-01-3.30653E-04-5.56551E-02-3.93692E-04-5.58502E-04
 -1     23048-1.29896E-01 1.29829E-01-5.26288E-06-7.74307E-02-1.28630E-04-8.92177E-05
 -1     23049-1.22681E-01 1.22508E-01 1.22884E-04-5.83137E-02-2.00070E-04 2.57820E-05
 -1     23050-1.25057E-01 1.25180E-01-1.60885E-04-6.25865E-02-8.33614E-04 2.36680E-04
 -1     23051-1.09492E-01 1.07872E-01 1.57999E-03-3.66574E-02 1.87880E-03-1.58080E-04
 -1     23052-1.13728E-01 1.12418E-01 1.27654E-03-4.37169E-02 1.22226E-03-4.34473E-04
 -1     23053-1.08833E-01 1.08725E-01 4.77114E-05-2.74695E-02 6.39113E-04-4.37300E-04
 -1     23054-9.88935E-02 9.74189E-02 1.40713E-03-1.33557E-02 1.30510E-03-4.62755E-04
 -1     23055-8.39136E-02 8.66462E-02-2.72708E-03-6.78443E-03-1.00781E-03-9.54340E-04
 -1     23056-8.97602E-02 9.28014E-02-3.04667E-03-1.32807E-02-1.17959E-03-1.41035E-03
 -1     23057-8.70696E-02 8.82114E-02-1.21185E-03 5.84069E-03-1.86332E-04-7.12989E-04
 -1     23058-7.65238E-02 7.72714E-02-8.03231E-04 2.91164E-02 1.11360E-03-7.83234E-04
 -1     23059-1.40264E-01 1.40444E-01-2.48281E-04-9.15630E-02 1.70288E-04 9.44471E-05
 -1     23060-9.75890E-02 9.69279E-02 7.07696E-04 1.55615E-01-6.11281E-04-1.72555E-03
 -1     23061-9.96117E-02 9.51091E-02 4.50236E-03 1.48983E-01-1.25147E-03 3.35383E-03
 -1     23062-9.20814E-02 9.20192E-02 8.49262E-05 1.63224E-01-6.44241E-04 1.45894E-03
 -1     23063-4.45671E-02 4.51114E-02-4.72574E-04 1.68351E-01 5.50959E-04 2.83348E-04
 -1     23064-5.33569E-02 5.34844E-02-8.32009E-05 1.59350E-01-1.61526E-03-9.83182E-04
 -1     23065 3.24108E-02-3.20479E-02-3.30416E-04 1.19082E-01-6.77387E-04 2.38147E-04
 -1     23066 2.86362E-02-2.81234E-02-4.37364E-04 1.04282E-01 4.17040E-06 7.72444E-04
 -1     23067 5.28804E-02-5.28549E-02 6.33105E-05 1.75765E-01 4.57847E-05 1.64959E-04
 -1     23068-7.59579E-02 7.64751E-02-4.62569E-04 1.59960E-01 3.99884E-04-2.63453E-05
 -1     23069-8.47043E-02 8.32147E-02 1.56054E-03 1.31919E-01-2.36115E-04 4.63571E-04
 -1     23070-1.18802E-01 1.19237E-01-5.07443E-04-4.74007E-02-8.56077E-04-2.32405E-04
 -1     23071-5.42201E-02 5.47841E-02-4.98680E-04 1.59849E-01 2.16989E-04-8.50034E-04
 -1     23072-1.68011E-01 1.68364E-01-4.12311E-04-9.41308E-02-1.43071E-04-5.49130E-04
 -1     23073-3.19825E-02 3.41694E-02-2.24043E-03 2.13599E-02-1.64762E-04 2.60111E-03
 -1     23074 4.06739E-02-4.07379E-02 1.03197E-04 1.25134E-01-1.69495E-04-3.69161E-04
 -1     23075 5.28673E-02-5.32719E-02 4.53788E-04 1.39132E-01-1.07096E-04 1.02935E-04
 -1     23076 5.65677E-02-5.65717E-02 6.93259E-05 1.56680E-01 2.08410E-04-3.00341E-05
 -1     23077 4.75777E-02-4.77532E-02 2.27211E-04 1.30775E-01-4.78104E-04-7.73360E-05
 -1     23078 2.04291E-02-2.03410E-02 9.76154E-06 2.03377E-01 5.61271E-05-2.39893E-04
 -1     23079 5.63798E-02-5.65954E-02 2.77849E-04 1.48796E-01-4.19042E-04 7.88520E-04
 -1     23080 3.95918E-02-3.93167E-02-1.75835E-04 1.94797E-01-2.60930E-04-1.51486E-04
 -1     23081 5.54575E-02-5.50804E-02-2.92127E-04 1.66436E-01 4.99190E-05 6.99788E-05
 -1     23082 1.58755E-02-1.48342E-02-1.01410E-03 1.15210E-01 1.94124E-04 8.42912E-05
 -1     23083-8.05064E-02 7.82072E-02 2.21002E-03 3.12516E-02 1.03388E-04-1.90894E-03
 -1     23084-1.26749E-01 1.27110E-01-4.33575E-04-7.11016E-02-2.77183E-04 1.58477E-04
 -1     23085-1.13475E-01 1.14527E-01-1.10370E-03-3.88521E-02 6.29200E-04 2.75924E-06
 -1     23086-9.38357E-02 9.48754E-02-1.01867E-03 1.56428E-01-1.08910E-03-1.00059E-03
 -1     23087 1.52619E-02-1.52756E-02 7.93698E-05 1.87388E-01-8.38535E-05-1.77365E-04
 -1     23088 1.30653E-02-1.31201E-02 1.22802E-04 1.86366E-01 4.83850E-05-2.40269E-04
 -1     23089 5.97085E-02-6.01724E-02 5.26701E-04 1.40216E-01-2.92516E-04 4.40749E-04
 -1     23090 6.16873E-02-6.15846E-02-3.64530E-05 1.44575E-01-2.63504E-04 4.57077E-04
 -1     23091 3.05239E-02-3.07661E-02 3.04672E-04 1.88533E-01-2.89699E-04 8.95623E-05
 -1     23092 2.78818E-02-2.82136E-02 3.98649E-04 1.89456E-01-2.70428E-04 1.92505E-04
 -1     23093 6.08615E-02-6.05508E-02-2.48362E-04 1.56773E-01-8.52962E-05 2.37442E-04
 -1     23094 5.94268E-02-5.97321E-02 3.58581E-04 1.61530E-01 1.42344E-04 2.53075E-04
 -1     23095 5.38871E-02-5.34758E-02-3.49898E-04 1.73022E-01-3.53242E-04-1.67223E-04
 -1     23096 5.11438E-02-5.05105E-02-5.72140E-04 1.75778E-01-1.93454E-04-1.42901E-04
 -1     23097-7.10080E-02 7.11057E-02-7.02033E-05 7.84167E-02-7.00403E-04-1.06057E-04
 -1     23098 1.85138E-02-1.83620E-02-8.70042E-05 1.14078E-01 1.30688E-04 3.85570E-04
 -1     23099 5.10131E-02-5.08723E-02-7.89294E-05 1.24936E-01-6.32965E-04-6.61452E-04
 -1     23100 5.40880E-02-5.34396E-02-6.01025E-04 1.28823E-01-1.41621E-04-7.66240E-05
 -1     23101 4.23044E-02-4.22862E-02 3.99276E-05 1.83790E-01-4.97673E-04-2.09577E-04
 -1     23102 3.92564E-02-3.88015E-02-3.88750E-04 1.85472E-01-4.27773E-04-1.81972E-04
 -1     23103 6.21665E-02-6.20072E-02-9.88014E-05 1.49059E-01 1.92741E-05 2.56153E-04
 -1     23104 6.06647E-02-6.05618E-02-4.77097E-05 1.53539E-01-1.44757E-04 2.19516E-04
 -1     23105 6.55377E-02-6.53009E-02-1.70024E-04 1.48473E-01-1.32063E-04 7.98594E-05
 -1     23106 6.56675E-02-6.57259E-02 1.20432E-04 1.40482E-01-6.59002E-05 7.11925E-05
 -1     23107 5.66010E-02-5.60825E-02-4.49810E-04 1.32045E-01-9.35225E-05-6.07450E-05
 -1     23108 5.97107E-02-5.94859E-02-1.65319E-04 1.36235E-01 7.36109E-05-5.96788E-06
 -1     23109 6.01470E-02-6.00671E-02-3.80260E-05 1.25954E-01-2.99217E-04-9.12761E-05
 -1     23110 3.36069E-02-3.35513E-02-8.39290E-06 1.03939E-01 5.73972E-05 3.73400E-04
 -1     23111 2.94123E-02-2.93956E-02 8.51086E-06 1.07053E-01-2.00028E-04 2.58742E-04
 -1     23112 5.29318E-02-5.26632E-02-2.59107E-04 5.28403E-02-1.46574E-03-4.92473E-04
 -1     23113 5.43011E-02-5.48972E-02 6.14093E-04 5.59421E-02-1.71549E-03-1.61279E-03
 -1     23114-1.06470E-01 1.02462E-01 4.03818E-03 3.49106E-02 1.07374E-03-1.68753E-03
 -1     23115-7.67153E-02 7.59030E-02 7.12678E-04 2.64089E-02 2.84551E-03-8.55167E-05
 -1     23116 5.70157E-02-5.78924E-02 9.33921E-04 1.64338E-01 3.10399E-04 5.36939E-04
 -1     23117 5.58309E-02-5.65024E-02 7.39322E-04 1.68591E-01 1.68445E-04 5.28766E-04
 -1     23118 5.82107E-02-5.79611E-02-1.73665E-04 1.61348E-01 3.22737E-04 1.39207E-04
 -1     23119 6.29011E-02-6.33048E-02 4.72770E-04 1.54463E-01 4.42669E-05 3.91860E-04
 -1     23120-2.08766E-02 1.84704E-02 2.38665E-03 2.74980E-02 1.58793E-04 7.05205E-04
 -1     23121-8.61135E-03 9.85490E-03-1.27601E-03 2.90942E-02-5.68171E-04 8.24788E-04
 -1     23122 2.66246E-02-2.57769E-02-7.80705E-04 1.09458E-01 1.21497E-04 6.10004E-05
 -1     23123 2.30389E-02-2.25662E-02-4.43999E-04 1.13581E-01 4.93856E-05 8.14902E-04
 -1     23124 2.47143E-02-2.35719E-02-1.07328E-03 1.14873E-01 1.37155E-04 9.36755E-04
 -1     23125 3.18942E-02-3.16524E-02-1.63814E-04 1.10697E-01-1.21009E-04 1.30952E-05
 -1     23126 3.64358E-02-3.60978E-02-3.39948E-04 3.73610E-02-3.05372E-04 5.65050E-04
 -1     23127 4.05588E-02-4.06750E-02 1.24754E-04 4.25049E-02-8.22396E-04 1.37561E-04
 -1     23128-5.13272E-02 5.18030E-02-6.09418E-04 3.12171E-02 8.97366E-04-2.80610E-04
 -1     23129-3.91306E-02 3.70135E-02 2.06419E-03 2.78812E-02-1.78795E-03 1.75153E-03
 -1     23130-3.34196E-02 3.21713E-02 1.20833E-03 3.37349E-02-1.81253E-05-1.96944E-04
 -1     23131-7.65862E-02 7.80845E-02-1.59404E-03 2.56439E-02-1.81947E-03-7.65758E-04
 -1     23132 5.52026E-02-5.47140E-02-4.88548E-04 6.30813E-02-1.26861E-03 4.82955E-04
 -1     23133 5.49511E-02-5.48948E-02-1.63810E-05 6.72400E-02-7.73782E-04 6.69555E-04
 -1     23134 5.95018E-02-6.12380E-02 1.82870E-03 6.82557E-02-9.38104E-06-1.05415E-03
 -1     23135-1.09383E-01 1.09596E-01-2.51563E-04-2.83845E-02-1.50776E-04 1.78330E-04
 -1     23136-1.11456E-01 1.11298E-01 1.28449E-04-3.33051E-02-3.01838E-04-1.12944E-04
 -1     23137-1.75448E-01 1.75254E-01 1.51446E-04-5.70334E-02-1.43270E-03-2.38251E-03
 -1     23138-1.83357E-01 1.86815E-01-3.48842E-03-4.02909E-02 1.11490E-03-1.52405E-03
 -1     23139 2.75649E-02-2.75281E-02 1.42580E-05 1.16088E-01 8.30537E-05-2.49638E-05
 -1     23140-1.17377E-01 1.17363E-01-1.88249E-05-5.57515E-02-1.00584E-04 1.25047E-04
 -1     23141-1.17939E-01 1.18185E-01-2.90436E-04-5.89144E-02-1.11959E-04 6.73352E-05
 -1     23142 3.59679E-02-3.63006E-02 3.91008E-04 1.84796E-01-3.04639E-04-2.83621E-04
 -1     23143 3.38070E-02-3.30974E-02-6.41670E-04 1.87383E-01-6.57896E-06-3.06915E-04
 -1     23144 3.22279E-02-3.20899E-02-5.20646E-05 1.75246E-01 3.37029E-04-1.46204E-04
 -1     23145 3.83349E-02-3.88541E-02 6.06771E-04 1.73839E-01-7.41510E-04-2.49954E-04
 -1     23146-1.81682E-01 1.86713E-01-5.06151E-03 2.91814E-03-1.39026E-03 1.49365E-03
 -1     23147-1.41463E-01 1.38789E-01 2.49968E-03 1.45639E-02-9.77771E-04 4.28525E-04
 -1     23148-1.25339E-01 1.33677E-01-8.38513E-03 1.00832E-02-2.50038E-03-2.13646E-03
 -1     23149-1.70596E-01 1.79761E-01-9.20579E-03-2.81131E-02 1.23910E-04-1.83190E-03
 -1     23150-1.33420E-01 1.33880E-01-5.18833E-04-8.07334E-02-7.52537E-05 4.21946E-04
 -1     23151-1.35389E-01 1.35783E-01-4.64264E-04-8.11936E-02-1.96419E-04 3.71270E-04
 -1     23152-1.26858E-01 1.26538E-01 2.62930E-04-7.63857E-02 4.35295E-05 2.19505E-04
 -1     23153-1.28142E-01 1.27832E-01 2.38428E-04-7.75213E-02 5.02396E-06 2.16382E-05
 -1     23154-1.18396E-01 1.18569E-01-2.14558E-04-6.20947E-02-1.45162E-05 7.22610E-05
 -1     23155-1.19979E-01 1.20098E-01-1.63112E-04-6.45989E-02-1.70759E-04 6.49028E-05
 -1     23156-1.08863E-01 1.08573E-01 2.30592E-04-4.61189E-02 2.13688E-04-1.22878E-04
 -1     23157-1.20984E-01 1.21616E-01-6.81905E-04-6.76245E-02-4.05547E-04 1.99353E-04
 -1     23158-1.21978E-01 1.22487E-01-5.61486E-04-6.98777E-02-1.24566E-04 2.16587E-04
 -1     23159-1.10514E-01 1.10795E-01-3.37254E-04-5.22165E-02-9.16622E-05 1.88647E-04
 -1     23160-8.35064E-02 8.36680E-02-1.29156E-04 1.35119E-01-5.54825E-04 8.92919E-05
 -1     23161-7.62444E-02 7.60290E-02 2.30364E-04 1.19455E-01-2.86134E-04-5.28663E-05
 -1     23162 4.58416E-02-4.59995E-02 1.65378E-04 4.56612E-02-4.76647E-04 2.82983E-04
 -1     23163 4.88368E-02-4.81382E-02-6.74384E-04 4.93090E-02-8.89639E-04 4.85829E-04
 -1     23164 5.62040E-02-5.56918E-02-4.54331E-04 5.99928E-02-6.46925E-04 1.06152E-03
 -1     23165 4.69497E-02-4.70663E-02 1.62445E-04 5.32192E-02-5.66900E-04-1.04354E-05
 -1     23166-1.23849E-01 1.23762E-01 3.33290E-05-7.20583E-02 4.36526E-05 1.05654E-04
 -1     23167-1.25302E-01 1.24881E-01 3.68051E-04-7.40120E-02-1.55655E-05 3.23860E-04
 -1     23168-1.15965E-01 1.15563E-01 3.46811E-04-6.22743E-02 8.73468E-06 1.86563E-04
 -1     23169-1.12775E-01 1.12958E-01-2.36083E-04-5.81540E-02 1.48483E-05 2.42607E-04
 -1     23170-1.12229E-01 1.12449E-01-2.48185E-04-3.88983E-02-5.49317E-04 1.28875E-04
 -1     23171-1.13142E-01 1.13152E-01-4.64217E-05-4.32669E-02 1.12573E-06 1.64065E-04
 -1     23172-1.03356E-01 1.02439E-01 8.63967E-04-2.00068E-02 3.69970E-05 4.99370E-04
 -1     23173-1.29587E-01 1.29577E-01-4.65993E-05-7.82692E-02-6.79404E-05-1.23803E-04
 -1     23174-1.31255E-01 1.31247E-01-5.59928E-05-7.92003E-02 2.98076E-04 7.67895E-07
 -1     23175-1.22686E-01 1.22782E-01-1.48482E-04-6.70749E-02 4.30218E-05 1.31044E-04
 -1     23176-1.18592E-01 1.18438E-01 9.93832E-05-6.53576E-02-3.27496E-05 7.25073E-05
 -1     23177-2.65825E-02 2.75549E-02-9.10608E-04 1.60904E-01 4.63505E-04-1.13996E-03
 -1     23178-3.35673E-02 3.36828E-02-6.79348E-05 1.58892E-01 8.05051E-04-5.05144E-04
 -1     23179 4.68899E-02-4.74234E-02 5.85652E-04 1.77120E-01 1.51408E-05 6.42084E-05
 -1     23180 4.51109E-02-4.55629E-02 5.22275E-04 1.81033E-01-2.53799E-04 1.18134E-04
 -1     23181 5.17639E-02-5.18595E-02 1.76692E-04 1.67497E-01-5.74434E-04-6.97008E-05
 -1     23182-8.55749E-02 8.62605E-02-6.45761E-04 1.56508E-01-6.37183E-04 2.01291E-04
 -1     23183-9.04248E-02 8.91893E-02 1.24397E-03 1.58166E-01-9.39648E-04 1.56150E-03
 -1     23184-1.53461E-01 1.52518E-01 8.56879E-04-7.78281E-02 5.25206E-04-4.71883E-04
 -1     23185-1.60602E-01 1.59211E-01 1.32079E-03-7.64161E-02 6.85894E-04-1.94137E-03
 -1     23186 2.56829E-02-2.55732E-02-4.54294E-05 1.89234E-01 7.27569E-05 1.05676E-05
 -1     23187 2.29550E-02-2.26216E-02-2.64431E-04 1.89372E-01 7.08084E-05-9.66552E-05
 -1     23188 2.62690E-02-2.60515E-02-1.33650E-04 1.75074E-01-2.31442E-04 1.11315E-05
 -1     23189 3.18064E-02-3.11041E-02-6.36393E-04 1.15684E-01-7.40066E-04 9.87792E-05
 -1     23190 3.77012E-02-3.72159E-02-4.08700E-04 1.17413E-01-6.24338E-04 1.29863E-04
 -1     23191 3.29320E-02-3.29364E-02 3.94881E-05 1.14782E-01-4.98999E-04-2.78105E-05
 -1     23192-4.06726E-02 4.07932E-02-6.31235E-05 1.57226E-01 2.14532E-04-3.52563E-04
 -1     23193-4.66124E-02 4.70972E-02-4.51791E-04 1.54239E-01 1.00286E-04-6.29771E-04
 -1     23194-4.62083E-02 4.60075E-02 2.58531E-04 1.44569E-01 5.16136E-04-5.37095E-04
 -1     23195-1.38223E-01 1.38367E-01-2.14383E-04-8.05951E-02-1.28285E-05 1.98098E-05
 -1     23196-1.40666E-01 1.40710E-01-1.24139E-04-8.10300E-02-5.08144E-05-4.99163E-05
 -1     23197-1.27365E-01 1.27369E-01-5.36463E-05-6.81729E-02-5.73818E-05-1.58359E-04
 -1     23198-5.40543E-02 5.45130E-02-3.96777E-04 1.54412E-01-2.48026E-04-3.62928E-04
 -1     23199-6.72129E-02 6.74543E-02-2.10909E-04 1.53431E-01-4.20542E-04 1.29537E-04
 -1     23200-6.10938E-02 6.11608E-02-1.85086E-05 1.43260E-01-3.59118E-04-6.88924E-04
 -1     23201 5.15659E-03-2.97298E-03-2.22912E-03 3.09650E-02-7.05774E-04 1.45196E-03
 -1     23202 1.14422E-02-1.14786E-02 2.32856E-05 2.91966E-02-1.18119E-03 1.11396E-03
 -1     23203-5.06047E-03 5.47453E-03-4.29817E-04 3.73159E-02-3.67297E-04 1.53287E-03
 -1     23204-1.45086E-01 1.44956E-01 6.91734E-05-8.07782E-02 5.90085E-05-9.33485E-05
 -1     23205-1.48962E-01 1.48880E-01-1.37017E-06-7.94088E-02-3.30813E-04-8.55412E-04
 -1     23206-1.33635E-01 1.33830E-01-2.48767E-04-6.64877E-02 4.12554E-05-2.91173E-04
 -1     23207 2.17158E-02-2.21870E-02 4.46659E-04 3.40295E-02-3.03958E-04-2.34267E-04
 -1     23208 2.99861E-02-2.96854E-02-3.03227E-04 3.41182E-02-7.58326E-04 4.98265E-04
 -1     23209 3.57213E-02-3.56742E-02-1.71843E-05 4.70081E-02-2.53081E-04 2.88862E-04
 -1     23210 1.75307E-02-1.73723E-02-1.49741E-04 4.10611E-02-4.58421E-04 3.51161E-04
 -1     23211-7.58902E-02 7.69684E-02-1.02448E-03 1.56312E-01-5.61198E-04 2.11958E-04
 -1     23212 6.46524E-02-6.42293E-02-3.76896E-04 1.33352E-01-2.19473E-05 6.15882E-05
 -1     23213 1.09906E-02-9.88894E-03-1.04991E-03 1.85055E-01-4.03586E-05-9.91529E-04
 -1     23214 8.46561E-03-7.67834E-03-7.31802E-04 1.83018E-01 1.32448E-04-1.10165E-03
 -1     23215 8.47636E-03-7.96095E-03-4.35227E-04 1.70218E-01-1.83570E-05-4.87612E-04
 -1     23216 5.36550E-02-5.43876E-02 7.81129E-04 7.98001E-02 1.00734E-04 1.37258E-03
 -1     23217 5.18672E-02-5.13618E-02-5.02024E-04 8.43426E-02-2.83296E-04 1.77342E-03
 -1     23218 3.98525E-03-4.63305E-03 7.12958E-04 1.81474E-01 7.33392E-05-5.37808E-04
 -1     23219 3.94149E-03-3.84299E-03-3.66872E-05 1.80767E-01-1.67243E-04-1.28758E-04
 -1     23220 2.70319E-03-2.63281E-03 1.04576E-05 1.66997E-01 4.77772E-05-5.16816E-04
 -1     23221-1.41124E-01 1.41207E-01-1.51281E-04-6.27850E-02 9.61971E-05-4.12741E-04
 -1     23222-2.26838E-02 2.23521E-02 3.79681E-04 1.64339E-01-2.06562E-04 3.51047E-04
 -1     23223-3.36980E-02 3.36215E-02 1.40414E-04 1.48969E-01-1.69123E-04-9.14622E-05
 -1     23224-1.86122E-02 1.89039E-02-2.30006E-04 1.67196E-01 1.90139E-04 2.75441E-04
 -1     23225-8.57154E-02 8.70589E-02-1.29226E-03 1.48012E-01-4.56956E-05 2.57932E-04
 -1     23226-9.00322E-02 9.09775E-02-8.85061E-04 1.50779E-01-2.14237E-04 4.81494E-04
 -1     23227-7.47226E-02 7.32990E-02 1.35819E-03 9.80871E-02-8.14845E-04-6.71340E-05
 -1     23228-7.18403E-02 7.15983E-02 2.66899E-04 5.82129E-02-4.64051E-04-3.77456E-04
 -1     23229 4.52100E-02-4.51718E-02 3.99248E-05 1.71046E-01-2.66153E-05-1.36408E-04
 -1     23230 1.95520E-02-1.98537E-02 3.64690E-04 1.88081E-01-5.96485E-06-1.65120E-05
 -1     23231 1.76802E-02-1.79824E-02 3.76049E-04 1.88002E-01-2.53182E-04-4.43408E-05
 -1     23232 3.86153E-02-3.87951E-02 2.20837E-04 1.01844E-01 2.37285E-04-7.74210E-05
 -1     23233 4.03090E-02-3.98700E-02-3.56987E-04 1.05441E-01 5.10788E-06 5.46726E-04
 -1     23234 4.22660E-02-4.27820E-02 5.82720E-04 9.76635E-02-1.38221E-05 1.86475E-04
 -1     23235-1.74794E-01 1.75051E-01-3.22630E-04-6.58287E-02 3.92983E-04-2.56628E-03
 -1     23236-1.61104E-01 1.55992E-01 4.95490E-03-4.35204E-02-1.49900E-03-4.48955E-03
 -1     23237-1.64405E-01 1.66856E-01-2.54758E-03-7.12888E-02-1.02035E-03-2.14806E-04
 -1     23238-1.06335E-01 1.07085E-01-7.73143E-04-2.38837E-02 2.03289E-04 3.17620E-04
 -1     23239-1.00526E-01 1.00148E-01 3.17694E-04-9.45429E-03 2.57637E-04 4.75480E-04
 -1     23240-1.05265E-01 1.04928E-01 2.93054E-04-1.97506E-02 4.54117E-05 1.05931E-03
 -1     23241 6.98512E-04-2.85374E-04-3.46501E-04 1.79113E-01-2.82811E-05-3.18536E-04
 -1     23242-1.77904E-03 1.55048E-03 2.90053E-04 1.76962E-01-3.50697E-05-6.12120E-05
 -1     23243-2.94770E-03 3.08383E-03-5.27368E-05 1.63234E-01 1.71573E-04-3.00868E-05
 -1     23244 4.29777E-02-4.28235E-02-9.14498E-05 1.20303E-01-2.97537E-04-1.91733E-04
 -1     23245 4.64812E-02-4.59982E-02-4.41112E-04 1.23730E-01-4.32109E-04-2.45763E-04
 -1     23246-4.68552E-03 5.20076E-03-4.60373E-04 1.75310E-01 3.17404E-04-6.42652E-05
 -1     23247-7.91704E-03 8.24431E-03-2.70563E-04 1.73687E-01 2.98629E-04-1.36268E-04
 -1     23248-8.79892E-03 9.46817E-03-5.93741E-04 1.60226E-01 2.46475E-04 5.40321E-05
 -1     23249 4.88591E-02-4.90594E-02 2.56071E-04 8.82715E-02 4.61584E-05 8.24019E-04
 -1     23250 4.62630E-02-4.57190E-02-5.02418E-04 9.34320E-02 2.54216E-04 2.09952E-04
 -1     23251 5.02897E-02-5.05516E-02 3.32878E-04 9.86343E-02 2.20498E-04 2.62473E-04
 -1     23252 5.64510E-02-5.61253E-02-2.42528E-04 9.23749E-02-4.57971E-04 7.42848E-04
 -1     23253-1.53318E-01 1.55870E-01-2.72564E-03-2.17533E-02 8.12054E-04-4.38619E-03
 -1     23254-7.71603E-02 7.81356E-02-9.46831E-04 1.50280E-01-2.32398E-04-2.26026E-04
 -1     23255-1.15315E-01 1.15524E-01-2.54810E-04-5.06520E-02-1.56560E-04 3.40416E-04
 -1     23256-1.07408E-01 1.07202E-01 1.46769E-04-3.85220E-02-1.14311E-05 1.57505E-04
 -1     23257-1.14258E-01 1.13600E-01 6.22100E-04-4.70145E-02 2.23124E-04-1.12053E-04
 -1     23258-9.06428E-02 9.00017E-02 6.43582E-04 1.45331E-01 5.58857E-04-1.04214E-03
 -1     23259-8.22085E-02 8.16433E-02 5.98608E-04 1.30662E-01-8.25266E-04-3.59283E-04
 -1     23260-9.03942E-02 9.07532E-02-3.63000E-04 8.46582E-03 9.33746E-05-4.95593E-04
 -1     23261-9.62378E-02 9.74850E-02-1.26064E-03 1.42309E-03 1.55249E-04-1.91179E-04
 -1     23262-9.79952E-02 9.93069E-02-1.32735E-03-9.02573E-03 5.39271E-04-2.37396E-04
 -1     23263-1.04139E-01 1.04645E-01-5.51468E-04-1.37107E-02 5.51257E-04 3.12656E-04
 -1     23264-9.82632E-02 9.68770E-02 1.34502E-03 6.71605E-04-1.21551E-06 2.75985E-04
 -1     23265-9.35190E-02 9.39092E-02-4.54177E-04 1.44222E-02-6.07637E-04 3.84265E-04
 -1     23266 1.43110E-02-1.41017E-02-1.23857E-04 1.72390E-01-2.84599E-05-8.15413E-05
 -1     23267-1.50642E-01 1.50206E-01 3.82206E-04-5.42587E-02 1.46761E-05-7.75438E-04
 -1     23268 2.02254E-02-1.99406E-02-2.02175E-04 1.75045E-01 2.10712E-04-2.49571E-04
 -1     23269 5.34208E-02-5.37054E-02 2.99513E-04 6.98122E-02-7.36334E-04 2.72380E-04
 -1     23270 5.29913E-02-5.42155E-02 1.24696E-03 7.57370E-02-5.51641E-05 6.21268E-04
 -1     23271 6.17637E-02-6.02554E-02-1.38889E-03 8.40616E-02 3.42819E-04 2.24875E-03
 -1     23272 6.19289E-02-6.00626E-02-1.76260E-03 7.71305E-02 4.26253E-04 1.48013E-03
 -1     23273-7.76940E-02 7.58614E-02 1.85536E-03 4.80033E-02 5.30678E-04-6.71510E-04
 -1     23274 5.23336E-02-5.25531E-02 2.64899E-04 1.20270E-01-2.86089E-04-4.93587E-04
 -1     23275 4.35210E-02-4.40349E-02 5.48219E-04 1.16407E-01-2.29059E-04-5.24150E-04
 -1     23276-8.54700E-02 8.65624E-02-1.07191E-03 2.35712E-02-4.32075E-05-2.66317E-04
 -1     23277-8.79817E-02 8.79437E-02-2.12192E-06 3.64788E-02-5.71218E-04 1.06549E-04
 -1     23278-8.01960E-02 8.07375E-02-5.39319E-04 3.08568E-02 2.94813E-04-9.86339E-05
 -1     23279-1.04995E-01 1.05148E-01-2.09376E-04-3.00139E-02 4.90559E-04-2.02602E-04
 -1     23280-8.24265E-02 8.16398E-02 8.39363E-04 1.41621E-01-1.36881E-03-4.30891E-04
 -1     23281-8.36406E-02 8.39077E-02-2.72522E-04 1.36474E-01-3.38804E-04 5.65032E-04
 -1     23282 5.34664E-02-5.22551E-02-1.12927E-03 1.13495E-01-1.72815E-03-1.08668E-04
 -1     23283 5.84294E-02-5.92542E-02 8.66978E-04 1.16240E-01-1.30389E-05-1.17240E-03
 -1     23284 4.85052E-02-4.85818E-02 1.24004E-04 1.59800E-01-8.71436E-05-3.26541E-04
 -1     23285 4.53041E-02-4.52625E-02 1.52410E-05 1.61962E-01-3.04130E-04-3.56543E-04
 -1     23286-1.36185E-01 1.45955E-01-9.81295E-03-8.68113E-03-6.97498E-04-3.69091E-03
 -1     23287-1.05839E-01 1.12096E-01-6.38433E-03 1.41916E-02-1.87948E-03-4.62520E-03
 -1     23288-1.45472E-01 1.47457E-01-2.03181E-03-1.46113E-02-3.94266E-04-4.63859E-03
 -1     23289 1.83381E-02-1.83324E-02 4.61636E-05 1.61969E-01 3.76345E-05-1.87107E-04
 -1     23290 1.53828E-02-1.52829E-02-3.60958E-05 1.60853E-01 4.08618E-06-7.56545E-05
 -1     23291-7.88896E-02 7.83696E-02 4.87529E-04 6.59088E-02 1.37993E-03-3.12731E-04
 -1     23292 6.44193E-02-6.57302E-02 1.33625E-03 7.32221E-02-5.49107E-04-5.12037E-04
 -1     23293 6.59646E-02-6.66297E-02 7.02799E-04 7.71808E-02-9.12667E-04 2.17058E-04
 -1     23294 3.68646E-02-3.67306E-02-1.09006E-04 1.12988E-01-4.50655E-04 4.45278E-05
 -1     23295-1.16686E-02 1.14729E-02 2.56963E-04 1.71953E-01 6.35111E-05-1.53387E-04
 -1     23296-1.40977E-02 1.41409E-02 1.76730E-05 1.69502E-01-1.15318E-04-1.02941E-04
 -1     23297-1.52751E-02 1.59718E-02-6.28721E-04 1.56669E-01 2.83381E-04-7.52877E-05
 -1     23298 6.02874E-02-6.22240E-02 2.03550E-03 1.20153E-01 2.08616E-04-1.46765E-03
 -1     23299 6.35860E-02-6.37051E-02 1.50513E-04 1.23932E-01-4.19623E-05-4.49974E-04
 -1     23300 6.27961E-02-6.28703E-02 1.04167E-04 1.13051E-01-1.05652E-04-1.20721E-03
 -1     23301-9.37574E-02 9.37466E-02-9.15284E-06 9.38829E-03 4.37098E-04 3.38424E-04
 -1     23302-9.51974E-02 9.45719E-02 6.22171E-04 3.89163E-03 2.19814E-04 3.07839E-04
 -1     23303-9.92957E-02 9.92436E-02 3.04699E-05-3.07785E-02 1.77293E-04 4.46700E-05
 -1     23304-1.00221E-01 1.00078E-01 1.06460E-04-3.36247E-02 1.49732E-04 2.61553E-04
 -1     23305-9.51936E-02 9.46990E-02 4.73714E-04-1.07880E-03 1.43110E-04 4.76660E-04
 -1     23306-9.60194E-02 9.58476E-02 1.54142E-04-6.44860E-03 4.99725E-04 3.94754E-04
 -1     23307-8.78784E-02 8.79353E-02-9.54335E-05 1.71847E-02 6.38631E-05 1.72722E-04
 -1     23308-1.01233E-01 1.01333E-01-1.28259E-04-3.69794E-02 1.21934E-04 2.81596E-05
 -1     23309-1.01694E-01 1.01900E-01-2.49384E-04-4.05157E-02 1.21955E-04 2.02538E-04
 -1     23310-9.18931E-02 9.19870E-02-1.33637E-04-2.22023E-02 3.01797E-05 3.36026E-04
 -1     23311 1.21926E-02-1.22555E-02 1.12730E-04 1.58843E-01-3.49618E-05 8.92756E-05
 -1     23312 9.04894E-03-9.31683E-03 3.24331E-04 1.57731E-01-2.60871E-04-9.80078E-05
 -1     23313 1.10120E-02-1.08362E-02-1.10213E-04 1.46803E-01-9.05174E-05-4.45939E-05
 -1     23314-7.64811E-02 7.66710E-02-1.44684E-04 1.36262E-01-1.16731E-04-1.68339E-04
 -1     23315-1.26882E-01 1.26457E-01 3.67055E-04-4.86225E-02 6.43769E-05-3.47307E-04
 -1     23316-1.30562E-01 1.30646E-01-1.46797E-04-4.42731E-02 3.80129E-04-5.44014E-04
 -1     23317-9.62940E-02 9.60840E-02 1.87768E-04-1.23796E-02 2.59269E-04 1.06436E-04
 -1     23318-9.72981E-02 9.72661E-02 8.45577E-06-1.68908E-02 6.84963E-05 1.33107E-04
 -1     23319-8.80470E-02 8.75155E-02 4.97825E-04 6.51143E-03 3.01957E-04 2.57028E-04
 -1     23320-1.33412E-01 1.33644E-01-2.85832E-04-4.11686E-02 1.07351E-03-1.25235E-03
 -1     23321-1.40534E-01 1.38435E-01 2.09994E-03-3.60184E-02 1.06518E-03-2.15655E-03
 -1     23322-1.18265E-01 1.19464E-01-1.25063E-03-2.88696E-02 1.41402E-03-1.23295E-03
 -1     23323 6.86125E-02-6.80881E-02-4.52169E-04 1.26625E-01-4.41222E-04 8.72925E-05
 -1     23324 6.91999E-02-6.90807E-02-7.10203E-05 1.29647E-01-3.32370E-04-5.71931E-05
 -1     23325 6.91822E-02-6.96051E-02 4.52290E-04 1.19073E-01-1.32916E-04-7.49522E-04
 -1     23326-2.35260E-02 2.39287E-02-3.40687E-04 1.52807E-01 2.22814E-04-4.44245E-04
 -1     23327-4.71373E-02 4.74741E-02-2.92781E-04 1.32477E-01 2.01664E-04-3.14463E-04
 -1     23328-5.57323E-02 5.62223E-02-4.67885E-04 1.31639E-01 5.72079E-04-9.39177E-04
 -1     23329-9.79748E-02 9.80155E-02-5.89396E-05-2.16657E-02-4.01236E-05 1.28870E-04
 -1     23330-9.89551E-02 9.88475E-02 7.32421E-05-2.58989E-02 1.86674E-04 2.39243E-04
 -1     23331-9.01666E-02 8.99333E-02 1.91548E-04-1.41099E-02 1.95441E-04 1.81867E-04
 -1     23332-9.01195E-02 8.98455E-02 2.30407E-04-5.15934E-03 9.88151E-05 3.61633E-04
 -1     23333-1.16165E-01 1.16111E-01 7.65846E-06-5.46722E-02 1.95603E-04 2.86220E-05
 -1     23334-1.18023E-01 1.17916E-01 4.06827E-05-5.37742E-02 1.57461E-04 7.08374E-05
 -1     23335-6.11728E-02 6.18807E-02-6.64222E-04 1.33392E-01-1.33275E-04-5.15799E-04
 -1     23336-7.00348E-02 7.05653E-02-4.81447E-04 1.33754E-01-4.90919E-04-3.05675E-04
 -1     23337-6.16184E-02 6.28098E-02-1.17723E-03 1.20042E-01 4.93617E-04-3.04650E-04
 -1     23338-1.44116E-02 1.41069E-02 2.65943E-04 4.21897E-02-1.11508E-05 9.42740E-04
 -1     23339-1.30205E-03 1.34060E-03-5.62036E-05 4.44517E-02-4.36443E-04 9.87377E-04
 -1     23340-1.20567E-01 1.20558E-01-4.20650E-05-5.19850E-02 9.13892E-05-2.47584E-04
 -1     23341-1.25097E-01 1.24554E-01 4.75543E-04-5.09772E-02-8.00474E-05-7.54494E-04
 -1     23342-1.09454E-01 1.09278E-01 1.37710E-04-3.96935E-02 1.01446E-04-1.76012E-04
 -1     23343 4.18206E-02-4.17775E-02-2.13809E-05 1.10680E-01 4.69335E-05-4.37940E-05
 -1     23344 4.39073E-02-4.36695E-02-1.58173E-04 1.13787E-01-7.95262E-04 2.32331E-04
 -1     23345 4.81319E-02-4.82978E-02 2.22196E-04 1.14225E-01-8.97197E-04 3.90135E-05
 -1     23346 4.72190E-02-4.78843E-02 6.94258E-04 1.06556E-01 5.42531E-04 8.07400E-04
 -1     23347-1.99649E-02 2.01076E-02-9.31342E-05 1.42232E-01 7.10663E-05 9.08294E-05
 -1     23348-2.32189E-02 2.33899E-02-1.26672E-04 1.40337E-01 4.03929E-05-2.03851E-05
 -1     23349 4.67311E-02-4.71341E-02 3.97538E-04 5.93395E-02-4.94531E-04 6.21388E-05
 -1     23350 5.15338E-02-5.17683E-02 2.56078E-04 6.14250E-02-6.10320E-04 4.32450E-04
 -1     23351 5.76204E-03-5.63718E-03-7.79461E-05 1.56210E-01 3.39323E-05-7.98034E-05
 -1     23352 2.87661E-03-2.94874E-03 1.28264E-04 1.54926E-01 1.90194E-04-5.29626E-05
 -1     23353 3.87233E-03-3.78512E-03-2.32115E-05 1.42305E-01-9.67668E-05 6.90265E-05
 -1     23354-1.13640E-01 1.13404E-01 1.75884E-04-5.42943E-02 2.01256E-04 2.29391E-05
 -1     23355-1.04610E-01 1.04366E-01 2.01688E-04-4.05522E-02 1.92327E-04 7.69974E-06
 -1     23356-1.11928E-01 1.11615E-01 2.68808E-04-5.38348E-02-7.89208E-05 2.69439E-04
 -1     23357 5.24124E-02-5.21875E-02-1.70938E-04 1.58838E-01-3.90035E-04-4.72517E-04
 -1     23358 5.19165E-02-5.17054E-02-1.42808E-04 1.51010E-01 5.24732E-05-1.90091E-04
 -1     23359 5.61104E-02-5.55917E-02-4.67315E-04 1.57140E-01-9.22806E-05-3.74949E-04
 -1     23360-7.86870E-02 7.80292E-02 6.90777E-04 9.89477E-02-1.25706E-04 8.28869E-04
 -1     23361-8.83230E-02 8.78890E-02 4.32022E-04 3.24783E-02-3.83305E-04 1.28555E-03
 -1     23362-9.11218E-02 9.12397E-02-1.59138E-04 2.39843E-02 3.06332E-04 2.99196E-04
 -1     23363 4.05926E-02-4.08659E-02 3.22532E-04 1.62725E-01-2.87114E-04-2.67501E-04
 -1     23364 3.66844E-02-3.70311E-02 4.03076E-04 1.63110E-01-4.93499E-04-8.85644E-05
 -1     23365 4.34622E-02-4.32621E-02-1.31103E-04 1.51201E-01 2.81413E-04-2.72136E-04
 -1     23366 6.77435E-02-6.77230E-02 3.56999E-05 1.45868E-01-4.23786E-05 1.40289E-04
 -1     23367 6.50732E-02-6.49377E-02-8.35738E-05 1.48948E-01-3.28990E-05-3.09836E-05
 -1     23368 7.08706E-02-7.07331E-02-8.28044E-05 1.32674E-01-3.00963E-04 2.20443E-04
 -1     23369 7.07609E-02-7.11751E-02 4.56718E-04 1.36155E-01-2.48786E-04 9.31510E-05
 -1     23370 7.42465E-02-7.41184E-02-6.47271E-05 1.25266E-01-4.31514E-04 2.42134E-04
 -1     23371 6.64262E-02-6.48082E-02-1.60481E-03 8.80421E-02 2.27584E-04 1.35956E-03
 -1     23372 6.45786E-02-6.32085E-02-1.34075E-03 9.27192E-02-4.10581E-04 9.11258E-04
 -1     23373-1.61838E-02 1.64360E-02-2.10949E-04 1.43321E-01 8.71350E-05 6.34072E-05
 -1     23374-2.45180E-02 2.46835E-02-1.14419E-04 1.26776E-01 5.11747E-05 2.12434E-05
 -1     23375-1.35513E-02 1.36815E-02-7.97440E-05 1.44876E-01 8.70579E-05-2.03764E-04
 -1     23376 2.28364E-02-2.27514E-02-2.78730E-05 1.62766E-01-3.08950E-05-6.93043E-05
 -1     23377 1.84827E-02-1.84877E-02 7.28394E-05 1.49283E-01-6.75884E-06-9.27998E-05
 -1     23378 2.52684E-02-2.50846E-02-1.34778E-04 1.62859E-01-1.69938E-04-1.72092E-04
 -1     23379 6.92136E-02-6.90912E-02-6.85078E-05 1.38994E-01-1.06137E-04 2.81388E-04
 -1     23380 7.04541E-02-7.07108E-02 3.08729E-04 1.42562E-01-4.76512E-05 2.51425E-04
 -1     23381 7.41443E-02-7.41021E-02 1.85230E-05 1.31064E-01-5.61989E-05 1.89362E-04
 -1     23382-1.02671E-01 1.03010E-01-3.73724E-04-4.35264E-02 1.47790E-04 1.74641E-04
 -1     23383-1.03699E-01 1.03766E-01-1.12799E-04-4.59641E-02 7.23755E-05 1.93520E-04
 -1     23384-9.24443E-02 9.25565E-02-1.53883E-04-2.84597E-02 1.57211E-04 2.65195E-04
 -1     23385 6.11157E-02-6.20293E-02 9.42251E-04 6.95210E-02-9.09579E-04 6.52591E-04
 -1     23386 6.52766E-02-6.58020E-02 5.72360E-04 7.87657E-02-4.89892E-04 2.40466E-04
 -1     23387 5.69142E-02-5.75206E-02 6.19827E-04 6.57916E-02-4.01912E-04 3.20870E-04
 -1     23388 3.91437E-02-3.94487E-02 3.11498E-04 5.50045E-02-8.05300E-04 2.37564E-05
 -1     23389 4.45366E-02-4.46257E-02 1.12572E-04 6.46505E-02-4.00256E-04-1.97093E-04
 -1     23390 3.19212E-02-3.16961E-02-2.44302E-04 5.31980E-02-4.37697E-04 2.66786E-04
 -1     23391 6.23647E-02-6.20344E-02-2.73090E-04 1.51579E-01 2.05415E-04-8.54375E-05
 -1     23392 5.93484E-02-5.85339E-02-7.59218E-04 1.55407E-01 1.88894E-04-2.45182E-04
 -1     23393 5.93017E-02-5.91401E-02-1.01736E-04 1.46068E-01 3.80283E-04-4.32389E-04
 -1     23394 6.64081E-02-6.61473E-02-2.03453E-04 1.43508E-01 1.05745E-04-7.47816E-05
 -1     23395-2.65021E-02 2.68121E-02-2.61536E-04 1.39795E-01 3.50301E-05-1.28860E-04
 -1     23396-3.13693E-02 3.13809E-02 3.05421E-05 1.38077E-01 9.90902E-05-1.16298E-04
 -1     23397-3.14105E-02 3.13544E-02 1.00304E-04 1.25343E-01 2.46822E-04-3.06570E-05
 -1     23398-7.99128E-02 8.04192E-02-4.79988E-04 1.14433E-01-6.93881E-05 1.08478E-04
 -1     23399-8.18659E-02 8.36101E-02-1.72864E-03 1.22788E-01-4.74431E-04 1.40742E-04
 -1     23400-8.37939E-02 8.67062E-02-2.91484E-03 2.32681E-02-1.28202E-03-3.02344E-03
 -1     23401-6.81540E-02 6.84581E-02-3.76496E-04 3.01816E-02 1.84742E-04 2.26195E-03
 -1     23402-1.02486E-01 1.05029E-01-2.67177E-03 1.58428E-02 2.02277E-03-4.97948E-03
 -1     23403-4.51997E-02 4.48550E-02 3.55337E-04 3.63878E-02 7.06666E-04 2.85100E-04
 -1     23404-3.06167E-02 3.05090E-02 7.05325E-05 3.76735E-02-1.11979E-04 6.34531E-04
 -1     23405-2.48459E-02 2.49929E-02-1.87924E-04 4.40951E-02 3.54107E-04 4.99349E-04
 -1     23406-5.91715E-02 5.92943E-02-1.98823E-04 3.16298E-02 1.23563E-03 1.81455E-04
 -1     23407-1.42334E-01 1.39412E-01 2.77493E-03-3.15484E-02 2.43025E-03-7.69010E-04
 -1     23408-1.48601E-01 1.46506E-01 2.08416E-03-2.29459E-02-2.07035E-04-6.46836E-04
 -1     23409-1.05488E-01 1.05152E-01 2.94497E-04-4.80890E-02-1.59596E-05 1.33853E-04
 -1     23410-1.06536E-01 1.06507E-01-2.23167E-05-4.99388E-02 1.28258E-04 1.85480E-04
 -1     23411-9.49625E-02 9.49022E-02 1.70866E-05-3.40700E-02 1.63171E-05 3.31819E-04
 -1     23412 5.33492E-02-5.32060E-02-8.40336E-05 1.11431E-01-9.96014E-04 4.09158E-04
 -1     23413-9.31609E-02 9.23253E-02 8.19120E-04 1.34077E-02 1.35230E-04 4.17659E-04
 -1     23414-8.76996E-02 8.76113E-02 4.91193E-05 2.67831E-02 8.67042E-05 1.66649E-04
 -1     23415-9.28918E-02 9.27716E-02 1.39566E-04 1.95895E-02 4.15184E-04 9.11493E-04
 -1     23416 3.28784E-02-3.31323E-02 3.03210E-04 1.63155E-01-1.17019E-04-1.89582E-04
 -1     23417 2.97696E-02-2.96903E-02-2.03482E-05 1.63179E-01 1.10262E-05-7.97818E-05
 -1     23418 3.47187E-02-3.44634E-02-1.87269E-04 1.52697E-01-6.43762E-05-1.75444E-04
 -1     23419-8.06386E-02 7.90191E-02 1.60087E-03 1.10889E-01 3.06101E-04 4.62195E-04
 -1     23420-1.23053E-01 1.21826E-01 1.19076E-03-2.01476E-02 9.67480E-04 1.29600E-03
 -1     23421 7.20104E-02-7.20820E-02 1.30225E-04 1.37387E-01-2.44296E-05-2.80966E-06
 -1     23422-7.49007E-02 7.37922E-02 1.07216E-03 1.23813E-01-1.78068E-04-1.02546E-05
 -1     23423-1.13680E-01 1.13214E-01 4.22885E-04-3.52678E-02 1.05158E-04-3.92048E-04
 -1     23424-3.57831E-02 3.61074E-02-2.66088E-04 1.35789E-01-6.60840E-06-1.21726E-04
 -1     23425-4.16289E-02 4.17355E-02-6.18582E-05 1.34193E-01-2.27935E-04 5.80167E-05
 -1     23426-5.01146E-02 5.06620E-02-5.07122E-04 1.20041E-01 1.69085E-04 5.12779E-05
 -1     23427-3.98499E-02 4.00376E-02-1.46917E-04 1.22860E-01 3.03408E-04-7.36806E-05
 -1     23428-1.08161E-01 1.08361E-01-2.42688E-04-5.22820E-02 6.15881E-05 1.68501E-04
 -1     23429-1.09912E-01 1.09847E-01 1.09434E-05-5.29966E-02-8.78729E-05 1.15018E-04
 -1     23430-9.73202E-02 9.73799E-02-1.01445E-04-3.79064E-02 1.16876E-04 2.86931E-04
 -1     23431-8.65695E-02 8.59520E-02 6.61068E-04 4.56554E-02 1.87165E-04-1.87270E-06
 -1     23432-8.44035E-02 8.44669E-02-1.00865E-04 5.36359E-02 7.42705E-04 2.61558E-04
 -1     23433-8.26305E-02 8.19714E-02 6.63102E-04 5.80461E-02-3.31599E-04 8.49828E-04
 -1     23434 2.63632E-02-2.62413E-02-5.38208E-05 1.51355E-01-6.43012E-05-1.15482E-04
 -1     23435-1.31713E-01 1.32881E-01-1.21130E-03-1.07051E-02 5.12482E-03-3.83540E-03
 -1     23436-7.95089E-02 7.91922E-02 3.49785E-04 9.10739E-02-2.05588E-05 3.95557E-04
 -1     23437 6.75481E-02-6.66728E-02-8.50170E-04 8.11512E-02-4.50571E-04 9.20504E-04
 -1     23438 6.78304E-02-6.65882E-02-1.23051E-03 8.51960E-02 1.79460E-04 1.28105E-03
 -1     23439 7.20144E-02-7.05493E-02-1.37689E-03 9.11180E-02-6.75526E-04 8.91358E-04
 -1     23440 7.05854E-02-7.09578E-02 4.23954E-04 8.53934E-02-5.89731E-04 3.11701E-04
 -1     23441-8.20456E-02 7.96489E-02 2.41061E-03 7.43668E-02 2.80866E-04 3.90728E-04
 -1     23442 1.23723E-02-1.22337E-02-1.74236E-04 4.69060E-02-5.60522E-04 5.53130E-04
 -1     23443 2.14993E-02-2.15506E-02 4.43565E-05 4.95973E-02-8.00366E-04 2.87165E-04
 -1     23444 2.69551E-02-2.69994E-02 4.89149E-05 5.80096E-02-2.36254E-04 4.98115E-05
 -1     23445 3.30041E-03-3.16934E-03-1.48335E-04 5.16068E-02-3.55351E-06 4.36358E-04
 -1     23446-7.33849E-04 4.96417E-04 2.85983E-04 1.52258E-01 4.94864E-05 1.23403E-05
 -1     23447-3.20616E-03 3.01556E-03 2.43195E-04 1.50354E-01 9.84843E-05 1.27767E-04
 -1     23448-3.57992E-03 3.33549E-03 3.05428E-04 1.38339E-01 3.28561E-04-1.74023E-04
 -1     23449-7.35518E-02 7.41476E-02-5.64961E-04 1.10379E-01-3.64383E-04 4.65197E-04
 -1     23450-8.01582E-02 8.02066E-02-1.93408E-05 1.13441E-01-3.75373E-04 2.53851E-04
 -1     23451 2.54569E-02-2.54678E-02 4.83866E-05 1.40208E-01-6.34473E-06-2.98984E-05
 -1     23452 2.13263E-02-2.11877E-02-8.97365E-05 1.40209E-01-5.43334E-05-1.13916E-05
 -1     23453-9.95550E-03 1.00434E-02-3.04452E-05 1.34657E-01 2.03666E-04 1.26407E-04
 -1     23454-6.78039E-03 6.85330E-03-2.17378E-05 1.48702E-01 8.29113E-05-7.92527E-05
 -1     23455 5.10100E-02-5.17762E-02 7.88334E-04 1.06433E-01-3.49550E-06 7.00599E-04
 -1     23456-1.42620E-02 1.41315E-02 1.66886E-04 1.20610E-01-1.19729E-05-1.65410E-04
 -1     23457-1.74947E-02 1.75987E-02-6.17472E-05 1.18140E-01 1.56226E-04-2.77734E-05
 -1     23458-1.08856E-01 1.08813E-01-4.24915E-05-8.43289E-03 3.08688E-04-6.56260E-04
 -1     23459-1.11263E-01 1.11500E-01-2.46889E-04-5.86452E-03 6.82421E-04-2.31638E-04
 -1     23460 5.23594E-02-5.22198E-02-9.33722E-05 1.41434E-01 3.14018E-04-1.33897E-04
 -1     23461 4.83469E-02-4.83736E-02 8.37299E-05 1.42773E-01 1.81321E-04-8.04787E-07
 -1     23462-8.14523E-02 7.97434E-02 1.69777E-03 9.90106E-02-1.89817E-04 3.53263E-04
 -1     23463-9.91309E-03 9.71641E-03 2.49129E-04 1.46533E-01 1.31302E-04 8.65397E-05
 -1     23464 5.83215E-02-5.84058E-02 1.21398E-04 7.11951E-02-2.68954E-04 5.02034E-04
 -1     23465 6.34702E-02-6.24083E-02-9.71509E-04 1.06163E-01-1.24533E-03-1.14026E-03
 -1     23466 6.71099E-02-6.72740E-02 1.97007E-04 1.07867E-01-2.58536E-04-1.12372E-03
 -1     23467 6.28161E-02-6.23310E-02-4.52114E-04 9.62373E-02-9.82118E-04 2.81605E-04
 -1     23468 6.05341E-02-5.95181E-02-9.88404E-04 9.81630E-02-8.22557E-04-7.10862E-04
 -1     23469 6.75836E-02-6.54788E-02-2.00383E-03 9.79087E-02-2.12872E-04-5.57272E-04
 -1     23470-1.20008E-01 1.15198E-01 4.65267E-03 1.79487E-03 6.33123E-03-3.06986E-03
 -1     23471-1.15892E-01 1.13358E-01 2.55066E-03 6.39130E-03 4.59188E-03-4.68993E-03
 -1     23472-9.02980E-02 8.70113E-02 3.19217E-03 2.57913E-02 4.17313E-03-3.05257E-03
 -1     23473-9.89181E-02 9.53975E-02 3.51506E-03 1.10459E-02 2.08300E-03-1.69342E-03
 -1     23474-8.29975E-02 8.32679E-02-2.81577E-04-6.73445E-03 1.30254E-04-6.13414E-05
 -1     23475-8.32875E-02 8.29656E-02 2.92873E-04-9.93213E-03 5.69186E-05 2.53925E-04
 -1     23476-8.73864E-02 8.76276E-02-2.83131E-04 3.68255E-02-1.19262E-04 3.99993E-04
 -1     23477 5.64421E-02-5.53068E-02-1.08124E-03 1.04960E-01-9.35704E-04-7.61977E-04
 -1     23478 8.55764E-03-8.86084E-03 3.41201E-04 1.34754E-01 8.55005E-05 1.02621E-04
 -1     23479 5.26251E-03-5.25523E-03 3.93045E-05 1.32980E-01-2.46945E-04-5.96592E-05
 -1     23480-8.04955E-02 7.97729E-02 7.15467E-04 2.38564E-02 2.39291E-04 1.44742E-04
 -1     23481-8.02367E-02 8.04425E-02-2.14561E-04 1.79167E-02 2.00815E-04 3.01154E-04
 -1     23482-9.67818E-02 9.64289E-02 3.19594E-04-2.73237E-02 2.22831E-04-1.17536E-04
 -1     23483-9.96781E-02 9.89833E-02 6.43872E-04-2.52767E-02 3.11788E-04-2.50388E-04
 -1     23484-9.97633E-02 9.93526E-02 3.59011E-04-2.16331E-02 9.28530E-05 4.90620E-05
 -1     23485-1.02690E-01 1.02713E-01-8.23537E-05-1.88139E-02 6.55107E-04-1.18052E-04
 -1     23486-8.72661E-02 8.72649E-02-1.75894E-05-9.99907E-03 1.70044E-04 2.95751E-04
 -1     23487 7.35722E-02-7.38487E-02 3.37432E-04 1.30129E-01-1.40170E-04-4.07347E-04
 -1     23488 7.06168E-02-7.08274E-02 2.43166E-04 1.32392E-01-8.88905E-05-6.09560E-04
 -1     23489 1.72359E-02-1.72139E-02 1.59198E-05 1.38510E-01-1.59953E-04 2.39076E-05
 -1     23490 1.30391E-02-1.31181E-02 1.29464E-04 1.36542E-01 7.05661E-06-8.25109E-05
 -1     23491 1.60300E-02-1.60095E-02 3.43766E-05 1.27314E-01-6.57718E-06-4.16649E-05
 -1     23492-1.72702E-02 1.73667E-02-4.21159E-05 1.29897E-01 8.92593E-05 6.40576E-05
 -1     23493 7.01139E-02-6.94344E-02-6.55147E-04 1.05131E-01-1.60635E-05-1.06195E-03
 -1     23494 6.88007E-02-6.91152E-02 4.20532E-04 1.13101E-01 8.50954E-04-1.28432E-03
 -1     23495 7.31587E-02-7.29427E-02-1.82708E-04 1.15909E-01-2.19250E-04-2.75838E-05
 -1     23496 7.09640E-02-6.96796E-02-1.25055E-03 1.01793E-01 2.81332E-04-1.26081E-04
 -1     23497 7.25069E-02-7.14236E-02-1.06773E-03 9.64058E-02-3.14676E-04 2.71800E-04
 -1     23498 7.41442E-02-7.37907E-02-2.66038E-04 1.05596E-01-1.64868E-04 7.08363E-04
 -1     23499 7.41406E-02-7.34194E-02-6.78696E-04 9.40830E-02-3.43359E-04 4.09442E-04
 -1     23500-1.01310E-01 1.01328E-01-5.91444E-05-4.07193E-02 1.24205E-04 7.62837E-05
 -1     23501-3.62562E-02 3.64336E-02-1.43730E-04 1.10837E-01 5.80099E-05 1.20798E-05
 -1     23502-4.01421E-02 3.99832E-02 1.87189E-04 1.10099E-01-3.47551E-05 4.29285E-05
 -1     23503 4.37596E-02-4.37192E-02 6.32797E-07 1.42370E-01 1.34419E-04-9.77203E-05
 -1     23504 3.86424E-02-3.86203E-02 3.11284E-05 1.42683E-01 2.81243E-04-9.50520E-05
 -1     23505 4.40222E-02-4.42891E-02 3.21906E-04 1.34172E-01 3.01829E-04-2.33028E-04
 -1     23506-2.18013E-02 2.18731E-02-3.50309E-05 1.15543E-01 1.14646E-04 9.66675E-05
 -1     23507-2.50442E-02 2.52263E-02-1.42490E-04 1.13229E-01 1.32694E-04 4.51678E-05
 -1     23508-2.54989E-02 2.55545E-02-1.67829E-05 1.01456E-01 9.51491E-05-2.44776E-05
 -1     23509 5.60060E-02-5.61509E-02 1.51487E-04 7.61998E-02-4.43371E-05 5.34237E-04
 -1     23510 6.15017E-02-6.16175E-02 1.43657E-04 7.87910E-02-2.53468E-04 4.08146E-04
 -1     23511-1.06296E-02 1.02653E-02 4.05991E-04 1.22873E-01-1.56674E-05 1.85359E-05
 -1     23512-1.71843E-02 1.76160E-02-3.85474E-04 1.07055E-01-2.80131E-04 1.27933E-04
 -1     23513-6.79611E-03 6.82626E-03 3.81905E-06 1.24970E-01-4.67133E-05-6.55510E-05
 -1     23514 6.65687E-02-6.68239E-02 2.81644E-04 8.37662E-02-4.39187E-04 2.83880E-04
 -1     23515 7.01575E-02-7.04104E-02 2.85790E-04 8.70776E-02-1.24185E-04 2.69423E-04
 -1     23516 6.58850E-02-6.59668E-02 1.24849E-04 8.81599E-02-2.29550E-04 3.64671E-04
 -1     23517-3.54557E-02 3.54622E-02-4.35600E-05 4.37062E-02 2.97290E-04 6.61742E-04
 -1     23518-2.07742E-02 2.07019E-02 5.25747E-05 4.90961E-02 8.95058E-05 6.10808E-04
 -1     23519-2.90476E-02 2.91141E-02-3.08002E-05 1.12014E-01 1.55138E-04 5.31638E-05
 -1     23520-3.29090E-02 3.28154E-02 1.15282E-04 1.10597E-01 6.90515E-05 5.10129E-05
 -1     23521-4.08171E-02 4.08454E-02 2.30837E-06 9.54652E-02 1.21491E-04 1.36525E-04
 -1     23522-3.33388E-02 3.33291E-02 4.49615E-05 9.70760E-02 1.58260E-04 7.10223E-05
 -1     23523-8.32321E-02 8.31663E-02 4.91357E-05-1.32432E-02 8.62095E-05 3.20473E-04
 -1     23524-8.37543E-02 8.37812E-02-6.01122E-05-1.61960E-02 1.07439E-04 1.54130E-04
 -1     23525-7.44470E-02 7.41030E-02 3.14184E-04 1.95514E-03 7.24985E-05 2.58185E-04
 -1     23526 6.78875E-02-6.75345E-02-3.00719E-04 1.34835E-01-6.78665E-05 5.87364E-05
 -1     23527 6.51024E-02-6.49790E-02-8.08302E-05 1.36752E-01 1.41142E-04-2.41101E-04
 -1     23528 7.04685E-02-6.96972E-02-7.16562E-04 1.26471E-01-1.99282E-04 1.60265E-04
 -1     23529-8.23180E-02 8.26690E-02-3.77720E-04-3.53375E-03 3.43004E-04 4.23423E-04
 -1     23530-7.40922E-02 7.41931E-02-1.34590E-04 9.04986E-03 9.32294E-05 2.37909E-04
 -1     23531-8.22666E-02 8.23330E-02-7.32446E-05 1.19339E-03 4.60799E-05 1.59794E-04
 -1     23532 5.72880E-02-5.70108E-02-2.39238E-04 1.39916E-01 1.62010E-04-9.90861E-05
 -1     23533 5.46233E-02-5.44462E-02-1.22051E-04 1.32710E-01-3.01757E-06-1.61946E-04
 -1     23534 6.07318E-02-6.04498E-02-2.32584E-04 1.38141E-01 2.79772E-05-7.84677E-05
 -1     23535-8.47471E-02 8.48720E-02-1.47952E-04-1.98966E-02 1.65024E-04 3.82631E-05
 -1     23536-8.59849E-02 8.58477E-02 9.97734E-05-2.21142E-02-4.29142E-05 1.91832E-05
 -1     23537-7.57422E-02 7.56276E-02 8.61765E-05-4.13256E-03-7.89769E-05 2.32934E-04
 -1     23538-8.27280E-02 8.04555E-02 2.26051E-03 8.42588E-02 3.91493E-04 4.69012E-04
 -1     23539 3.40964E-02-3.40747E-02 1.97540E-05 1.42259E-01 2.64838E-04-1.48208E-04
 -1     23540 3.00102E-02-3.00319E-02 6.54416E-05 1.41845E-01-2.37147E-07 2.28027E-05
 -1     23541 2.50398E-02-2.50432E-02 5.79084E-05 1.30991E-01 8.54723E-05-4.05768E-06
 -1     23542 3.44491E-02-3.45877E-02 1.94066E-04 1.31999E-01 2.48162E-04-9.14627E-05
 -1     23543-9.47653E-02 9.44415E-02 2.72551E-04-2.78595E-02 2.17202E-04-3.79393E-05
 -1     23544-8.52638E-02 8.51519E-02 7.77998E-05-1.40142E-02 7.24896E-05-1.07197E-04
 -1     23545-9.33921E-02 9.31236E-02 2.36104E-04-2.83350E-02 2.22386E-05-1.64278E-04
 -1     23546-8.39241E-02 8.45287E-02-5.86774E-04 5.38969E-02 8.68710E-05 2.30488E-04
 -1     23547-8.31701E-02 8.30113E-02 1.63755E-04 5.00250E-02 3.57862E-04 9.04725E-05
 -1     23548-8.07997E-02 8.09728E-02-1.73803E-04 3.02455E-02 1.55141E-04-2.22855E-04
 -1     23549-7.38024E-02 7.32163E-02 5.72809E-04 4.16247E-02 5.10325E-04 3.45754E-04
 -1     23550-8.13659E-02 8.15020E-02-1.41538E-04 3.55019E-02 3.10400E-04 5.45820E-05
 -1     23551 7.54501E-03-7.67936E-03 1.87513E-04 1.23656E-01 1.00222E-05 3.29797E-05
 -1     23552-8.20588E-02 8.18677E-02 1.92302E-04 4.59944E-02 1.13519E-04 1.75218E-04
 -1     23553-8.28220E-02 8.27547E-02 8.00128E-05 4.13907E-02 9.54647E-05 7.28658E-05
 -1     23554-7.60934E-02 7.60789E-02 1.64258E-06 5.35098E-02 1.74367E-04 2.79385E-04
 -1     23555-7.78254E-02 7.77465E-02 6.74859E-05 6.38565E-02 3.40716E-04 1.88071E-04
 -1     23556 7.47109E-02-7.48732E-02 2.04090E-04 1.12614E-01-7.46474E-04 4.88042E-04
 -1     23557 7.40633E-02-7.40175E-02 2.24126E-05 1.17957E-01-4.07155E-04 1.73075E-04
 -1     23558 7.51546E-02-7.56223E-02 5.05261E-04 1.20954E-01 2.55979E-04 1.22307E-04
 -1     23559 7.54677E-02-7.62121E-02 7.77898E-04 1.08522E-01-3.88873E-04 2.35224E-04
 -1     23560-1.04973E-01 1.04279E-01 6.36000E-04-1.46405E-02 5.09021E-04-5.99102E-04
 -1     23561-1.05765E-01 1.06355E-01-6.58668E-04-1.15835E-02 1.05206E-03-7.75000E-04
 -1     23562 7.17319E-02-7.24092E-02 7.13973E-04 9.19576E-02-2.71066E-04 1.54551E-04
 -1     23563 7.39146E-02-7.32811E-02-6.08253E-04 9.41714E-02-4.34660E-04-1.57499E-04
 -1     23564 7.47626E-02-7.44906E-02-2.17408E-04 1.01430E-01-1.61607E-04 3.70309E-04
 -1     23565 7.36981E-02-7.33930E-02-2.51772E-04 9.67805E-02-1.21236E-04 2.44072E-04
 -1     23566 1.10926E-03-9.63687E-04-1.10328E-04 1.29623E-01-1.05214E-04-6.71418E-05
 -1     23567-2.53326E-03 2.55265E-03 2.34705E-05 1.27771E-01 7.76678E-05-1.23679E-04
 -1     23568-1.05657E-03 1.26138E-03-1.50827E-04 1.18609E-01-8.66988E-05-1.18002E-04
 -1     23569-8.11172E-02 8.10421E-02 6.86020E-05 1.13883E-02 1.25423E-04 1.75474E-04
 -1     23570-8.16604E-02 8.17031E-02-6.12158E-05 6.64462E-03 1.24075E-04 2.78527E-04
 -1     23571-7.29389E-02 7.31687E-02-2.52834E-04 2.94428E-02 5.16326E-05 1.28674E-04
 -1     23572-8.94356E-02 8.89056E-02 5.09605E-04-3.01793E-03 7.53784E-04 2.75158E-04
 -1     23573-9.22464E-02 9.04760E-02 1.74692E-03 4.02928E-03 4.62427E-04 3.58525E-04
 -1     23574-8.66964E-02 8.69339E-02-2.61829E-04-2.40591E-02 1.78745E-04 3.97008E-05
 -1     23575-8.83032E-02 8.83071E-02-4.43872E-05-2.60479E-02-1.22363E-04 8.11044E-05
 -1     23576-7.72493E-02 7.70326E-02 1.80860E-04-9.77609E-03-1.55639E-04 1.23025E-04
 -1     23577-6.39275E-02 6.51320E-02-1.17837E-03 1.05454E-01 7.90942E-04-3.71130E-05
 -1     23578-6.82467E-02 6.92592E-02-1.00119E-03 1.07114E-01 5.15910E-04 6.20563E-05
 -1     23579-4.50197E-03 4.60805E-03-1.61990E-04 5.40373E-02-2.71796E-04 3.84499E-04
 -1     23580 7.99643E-03-7.85732E-03-1.49458E-04 5.71255E-02-4.67394E-04 3.07246E-04
 -1     23581-1.51894E-02 1.52858E-02-1.20030E-04 5.24435E-02-2.10813E-04-8.42595E-05
 -1     23582-7.43033E-02 7.53110E-02-1.00686E-03 9.51106E-02-5.91015E-04 8.39934E-04
 -1     23583 4.85359E-02-4.86201E-02 1.01907E-04 7.21125E-02-3.41309E-05 4.50974E-04
 -1     23584 5.33538E-02-5.33071E-02-1.69114E-05 8.02058E-02-8.39377E-05 4.49312E-04
 -1     23585 4.03883E-02-4.03973E-02-2.01415E-06 6.97021E-02-1.93608E-04 9.20101E-05
 -1     23586-5.95447E-02 5.98392E-02-2.74952E-04 1.02571E-01 3.60271E-04 1.10051E-04
 -1     23587-6.69589E-02 6.72647E-02-2.93054E-04 8.93163E-02 2.43550E-04 3.09961E-04
 -1     23588-5.36515E-02 5.40038E-02-3.22005E-04 1.04360E-01-9.83257E-06-1.42489E-04
 -1     23589-9.02591E-02 9.02342E-02-1.69085E-06-2.77416E-02 2.35297E-04 2.82894E-04
 -1     23590-9.19525E-02 9.16363E-02 2.69922E-04-2.77463E-02-1.26934E-05-1.06034E-04
 -1     23591-8.32659E-02 8.27809E-02 4.59093E-04-1.54321E-02 1.88123E-04-3.28306E-05
 -1     23592-7.93015E-02 7.92310E-02 3.88402E-05-1.32356E-02 1.53158E-04 1.63330E-04
 -1     23593 6.27848E-02-6.29030E-02 1.33529E-04 9.15832E-02-1.97038E-04 3.76279E-04
 -1     23594 6.85020E-02-6.85914E-02 1.20732E-04 9.48673E-02-2.33063E-04 5.98987E-04
 -1     23595 1.38338E-02-1.38219E-02 1.44829E-05 1.17215E-01-2.97556E-06 6.53391E-05
 -1     23596 9.06239E-03-9.12248E-03 9.76835E-05 1.15701E-01-7.59385E-06 4.04933E-07
 -1     23597 7.48126E-02-7.50337E-02 2.84498E-04 1.23014E-01-8.88826E-05-1.85849E-04
 -1     23598 7.45806E-02-7.48293E-02 2.82700E-04 1.26817E-01 5.64351E-05-4.47714E-04
 -1     23599-8.20868E-02 8.12162E-02 8.87519E-04 8.29936E-02-8.10385E-05 7.68189E-04
 -1     23600 2.10015E-02-2.07332E-02-2.98090E-04 6.24284E-02-3.29737E-04 1.55901E-04
 -1     23601 3.08148E-02-3.08235E-02 1.28437E-05 6.48371E-02-3.54161E-04-1.35056E-06
 -1     23602 3.58580E-02-3.59080E-02 6.18020E-05 7.18254E-02-7.23293E-05 1.41230E-04
 -1     23603 1.30017E-02-1.30614E-02 5.40137E-05 6.27826E-02-1.17926E-04 1.27142E-04
 -1     23604-7.56167E-02 7.54938E-02 9.54405E-05 9.09970E-04 2.84394E-04-7.95573E-05
 -1     23605-7.60991E-02 7.61568E-02-1.03491E-04 3.29088E-03-1.74898E-04 7.81510E-05
 -1     23606-7.13627E-02 7.11044E-02 2.84804E-04 3.09960E-02 5.53225E-04-1.06932E-03
 -1     23607-5.58242E-02 5.52891E-02 4.85008E-04 3.80310E-02 2.15316E-04-5.27981E-04
 -1     23608-5.14570E-02 5.18165E-02-4.12364E-04 3.81863E-02-8.83014E-05 7.16280E-04
 -1     23609-8.68666E-02 8.12882E-02 5.50725E-03 2.52362E-02 2.93662E-03-3.19125E-03
 -1     23610-7.89144E-02 8.06933E-02-1.76139E-03 8.27856E-02 5.56717E-05 1.21337E-04
 -1     23611-8.09361E-02 8.13886E-02-4.74977E-04 6.68989E-02-2.76286E-04 6.51253E-04
 -1     23612-7.21905E-02 7.29188E-02-7.73151E-04 1.65611E-02-7.88331E-04-8.60779E-04
 -1     23613-7.38941E-02 7.40863E-02-2.54194E-04 2.04914E-02-4.34172E-04-7.51341E-04
 -1     23614 7.51525E-02-7.52051E-02 1.05635E-04 1.21533E-01-1.04785E-04-6.56128E-04
 -1     23615 7.62501E-02-7.58083E-02-3.86746E-04 1.13554E-01 1.22750E-04-3.10187E-04
 -1     23616 7.40983E-02-7.37420E-02-3.32016E-04 1.16088E-01 1.46230E-04-3.60698E-04
 -1     23617-6.66561E-02 6.67813E-02-1.15496E-04 5.86619E-02 5.35924E-04 1.15016E-04
 -1     23618-6.67820E-02 6.66384E-02 1.51708E-04 5.28627E-02 2.45309E-04 3.29933E-04
 -1     23619-7.59898E-02 7.48190E-02 1.12739E-03 7.74128E-03-1.95164E-04-2.49185E-04
 -1     23620-7.65352E-02 7.46452E-02 1.84574E-03 1.06292E-02 1.34275E-04-2.16383E-04
 -1     23621-6.40658E-02 6.29995E-02 1.03696E-03 1.76481E-02-6.37462E-04-8.76026E-05
 -1     23622-4.29513E-02 4.28961E-02 8.98775E-05 1.12238E-01 1.93303E-04 1.36043E-04
 -1     23623-4.79559E-02 4.76669E-02 3.10817E-04 1.10304E-01 1.64961E-04 1.69776E-04
 -1     23624-4.69725E-02 4.69761E-02 2.11029E-05 9.72816E-02 3.05925E-04 7.62384E-05
 -1     23625 4.91452E-03-5.08440E-03 1.95882E-04 1.13727E-01-2.66333E-05 1.57410E-04
 -1     23626 6.82122E-04-8.69838E-04 2.26331E-04 1.11161E-01 8.81512E-05 3.57130E-05
 -1     23627 2.68629E-03-2.75628E-03 1.11813E-04 1.03653E-01-4.02868E-05 3.72198E-05
 -1     23628 7.60509E-02-7.71118E-02 1.11417E-03 1.16189E-01 4.03547E-04-3.69236E-04
 -1     23629-7.45690E-02 7.57381E-02-1.15006E-03 7.98564E-02 3.61276E-04-3.78166E-04
 -1     23630-7.35507E-02 7.43919E-02-8.28216E-04 7.60770E-02 3.50162E-04 4.86088E-04
 -1     23631 4.46748E-02-4.45044E-02-1.40633E-04 1.25669E-01 1.21501E-04 9.59398E-05
 -1     23632 3.95256E-02-3.94162E-02-6.89760E-05 1.25575E-01 1.17859E-04-1.99174E-04
 -1     23633-6.50168E-02 6.51823E-02-1.66835E-04 1.78992E-02 1.24953E-04 5.05834E-05
 -1     23634-6.56388E-02 6.51957E-02 4.26386E-04 1.48743E-02-7.02474E-05 3.46247E-04
 -1     23635-3.02341E-02 2.99904E-02 2.65996E-04 8.55486E-02 7.37090E-05-3.53976E-05
 -1     23636-3.45429E-02 3.46005E-02-3.86831E-05 8.32587E-02 2.80441E-04 6.88205E-05
 -1     23637 1.84558E-02-1.85501E-02 1.33717E-04 1.20206E-01 9.72115E-05-9.10925E-05
 -1     23638 1.16017E-02-1.14812E-02-7.83220E-05 1.08411E-01 6.43607E-05-3.56545E-05
 -1     23639 2.36052E-02-2.37642E-02 1.86262E-04 1.21197E-01 3.55316E-04-9.16688E-05
 -1     23640-5.60097E-02 5.58057E-02 2.35177E-04 9.32098E-02 2.06573E-04 6.82574E-05
 -1     23641-7.42695E-02 7.43754E-02-1.32860E-04 1.73945E-02 9.04550E-05 2.32316E-04
 -1     23642-4.69872E-02 4.69565E-02 5.54708E-05 7.84321E-02 1.47795E-04 1.13250E-04
 -1     23643-5.02219E-02 5.01777E-02 5.61796E-05 7.83499E-02 1.53365E-04 2.20401E-04
 -1     23644 6.33230E-02-6.32324E-02-3.29824E-05 1.30012E-01 1.13840E-04-1.83950E-04
 -1     23645 7.57934E-02-7.52990E-02-4.64423E-04 1.09972E-01 3.29327E-04-2.19130E-04
 -1     23646 7.54248E-02-7.44771E-02-9.02073E-04 1.03915E-01 3.60653E-04-2.92591E-04
 -1     23647 7.02820E-02-7.00789E-02-1.49363E-04 1.18602E-01-1.11503E-04-5.37001E-05
 -1     23648 6.82256E-02-6.79361E-02-2.59562E-04 1.20740E-01 7.51179E-05 2.05507E-04
 -1     23649 7.12129E-02-7.05252E-02-6.41753E-04 1.10712E-01 9.92933E-06-7.16757E-06
 -1     23650-9.40948E-03 9.41727E-03 3.67074E-05 1.12152E-01 2.21738E-05-2.72351E-04
 -1     23651-5.82538E-02 5.83209E-02-6.48412E-05 6.57125E-02 1.00886E-04 1.50470E-04
 -1     23652-5.26823E-02 5.25809E-02 1.26096E-04 8.27262E-02 1.69272E-04 1.72715E-04
 -1     23653-6.57235E-02 6.60513E-02-3.30743E-04 1.11107E-02 1.42712E-04 2.98867E-04
 -1     23654-6.68870E-02 6.65661E-02 3.01977E-04 7.81214E-03-9.44473E-05 2.90115E-04
 -1     23655-5.73664E-02 5.69721E-02 3.80923E-04 2.68128E-02-3.56559E-04 2.18450E-04
 -1     23656-5.86109E-02 5.90404E-02-4.61738E-04 2.74101E-02-5.62444E-04-2.24778E-04
 -1     23657-7.01352E-02 6.99592E-02 1.95747E-04 7.31568E-02 8.52145E-05 1.21365E-04
 -1     23658-5.53303E-02 5.51788E-02 1.67719E-04 8.46320E-02 2.84228E-04 1.87317E-04
 -1     23659 7.03989E-02-7.02176E-02-1.31015E-04 1.02959E-01-1.88860E-04 3.80030E-04
 -1     23660 7.25601E-02-7.24129E-02-1.26799E-04 1.00563E-01-5.60576E-05 3.45594E-04
 -1     23661-4.06926E-03 3.78681E-03 3.06757E-04 1.07760E-01 1.27256E-04 2.69992E-05
 -1     23662-8.15658E-03 7.95034E-03 2.37900E-04 1.04618E-01-2.20593E-04-1.04429E-04
 -1     23663-6.28475E-03 5.96191E-03 3.64094E-04 9.79043E-02 2.86353E-05 1.62774E-04
 -1     23664-8.11800E-02 7.98858E-02 1.21965E-03 1.88022E-02-2.03253E-04-1.17920E-03
 -1     23665-6.43652E-02 6.45665E-02-1.94039E-04 4.86939E-02 1.46080E-05 1.57756E-04
 -1     23666 5.03998E-02-5.05201E-02 1.63482E-04 1.26171E-01-2.27388E-04-5.45190E-05
 -1     23667 4.50935E-02-4.44570E-02-5.89459E-04 1.18368E-01 1.42896E-04 3.96607E-04
 -1     23668 5.56252E-02-5.53525E-02-2.46610E-04 1.25762E-01-3.09191E-04 1.63336E-05
 -1     23669-6.44712E-02 6.44928E-02-2.16445E-05 4.22568E-02 6.94333E-05 2.03972E-04
 -1     23670-2.56523E-02 2.67240E-02-1.08440E-03 5.19354E-02-5.22303E-04-5.66807E-04
 -1     23671-9.46140E-03 9.37971E-03 6.24240E-05 5.77001E-02-1.58489E-04 5.55415E-04
 -1     23672-6.85159E-02 6.78376E-02 6.82536E-04 4.19683E-03-1.49755E-04 1.20200E-04
 -1     23673-6.87339E-02 6.88339E-02-1.28748E-04 1.93506E-03-1.06711E-05-1.02602E-04
 -1     23674-5.87301E-02 5.87154E-02-7.63065E-06 1.94022E-02 6.45726E-05 1.30455E-04
 -1     23675-2.43826E-02 2.47452E-02-3.37027E-04 9.36644E-02 2.63373E-04 5.28733E-05
 -1     23676-3.31642E-02 3.32405E-02-5.51346E-05 7.54103E-02 6.09788E-05-1.49032E-04
 -1     23677-2.03813E-02 2.03430E-02 6.29059E-05 9.67745E-02-1.00862E-04-1.58462E-04
 -1     23678-6.83523E-02 6.78514E-02 5.18137E-04 6.75100E-02 5.36658E-04 5.23939E-05
 -1     23679-6.60476E-02 6.60201E-02 1.69781E-05 2.15719E-02 1.31713E-04 1.13354E-04
 -1     23680-5.75588E-02 5.72046E-02 3.49949E-04 3.44931E-02 1.47443E-04-2.50638E-05
 -1     23681-6.64757E-02 6.64984E-02-1.61713E-05 2.45980E-02 1.17499E-04 2.92621E-05
 -1     23682 5.64474E-02-5.65254E-02 1.03992E-04 8.71213E-02-1.22683E-04 3.19555E-04
 -1     23683 5.96994E-02-5.96518E-02-1.52950E-05 9.45649E-02-1.26140E-04 2.62380E-05
 -1     23684 4.90971E-02-4.90982E-02 1.12348E-05 8.32336E-02-9.31807E-06 4.98089E-04
 -1     23685-7.54797E-02 7.50267E-02 4.15457E-04-6.03751E-04 7.11265E-05-4.52208E-05
 -1     23686-6.40934E-02 6.39889E-02 7.24233E-05 1.29491E-02 3.41829E-04-1.31203E-04
 -1     23687-7.36575E-02 7.34722E-02 1.62764E-04-2.25781E-03-4.81656E-05-1.52104E-04
 -1     23688-6.12329E-02 6.16549E-02-4.32710E-04 3.12863E-02 6.53609E-05-1.64483E-04
 -1     23689-4.70566E-02 4.70451E-02-2.37426E-05 3.45508E-02-3.95426E-04 1.77036E-04
 -1     23690-4.31857E-02 4.30115E-02 1.77573E-04 3.86857E-02-6.54828E-04 1.91378E-04
 -1     23691-6.14081E-02 6.10917E-02 3.24001E-04 7.85439E-02 3.33213E-04-6.73013E-05
 -1     23692 7.61580E-02-7.67021E-02 5.98850E-04 1.07115E-01 9.94157E-04-5.61072E-05
 -1     23693 6.36916E-02-6.42250E-02 5.76957E-04 1.22529E-01 3.15461E-04-4.76544E-04
 -1     23694 5.94066E-02-5.91125E-02-2.63866E-04 1.24921E-01-7.69276E-05-3.44288E-04
 -1     23695 6.38772E-02-6.40086E-02 1.78486E-04 1.15087E-01 1.63681E-04-6.03939E-04
 -1     23696-4.91703E-02 4.89601E-02 2.23758E-04 4.20551E-02-5.07447E-04 5.79610E-05
 -1     23697-4.89786E-02 4.95360E-02-5.70189E-04 3.87580E-02-2.76549E-04 1.00638E-04
 -1     23698-4.41054E-02 4.52877E-02-1.21403E-03 3.92550E-02-4.60042E-05 3.16881E-04
 -1     23699 3.33451E-02-3.36909E-02 3.75901E-04 1.23848E-01 1.17519E-04 3.35696E-04
 -1     23700 2.85476E-02-2.90334E-02 5.31619E-04 1.22482E-01 2.19522E-04 8.81387E-05
 -1     23701 2.23224E-02-2.26742E-02 3.95273E-04 1.11957E-01 1.51639E-04 1.38565E-04
 -1     23702 3.34375E-02-3.30658E-02-3.30374E-04 1.16119E-01-4.72887E-05-8.74445E-05
 -1     23703 6.70291E-02-6.67563E-02-2.46587E-04 1.06522E-01-2.98409E-04 2.27770E-04
 -1     23704-3.79592E-02 3.78798E-02 1.12499E-04 8.32737E-02 3.50916E-05 5.05257E-05
 -1     23705-4.15962E-02 4.19134E-02-3.01837E-04 8.14117E-02 1.43873E-04 1.26270E-04
 -1     23706-5.06885E-02 5.08243E-02-1.15864E-04 6.44821E-02 3.59034E-05 7.11168E-05
 -1     23707-4.25420E-02 4.25686E-02-1.28547E-05 6.75660E-02 1.80277E-04-4.64590E-05
 -1     23708-1.05634E-03 1.23876E-03-1.66361E-04 9.37157E-02-7.57704E-05 1.21329E-04
 -1     23709-5.96373E-03 5.73435E-03 2.31214E-04 9.17276E-02-6.17794E-05-2.17182E-05
 -1     23710-5.86421E-02 5.85574E-02 8.30889E-05 5.13054E-02 8.81120E-06 1.63596E-04
 -1     23711-6.72675E-02 6.73407E-02-7.02838E-05 3.19593E-02 5.26558E-05 1.93032E-04
 -1     23712-6.76092E-02 6.75163E-02 8.01865E-05 2.63354E-02-9.09723E-06 1.49180E-04
 -1     23713-5.32264E-02 5.30452E-02 1.91471E-04 5.43798E-02 2.49313E-05-2.03705E-05
 -1     23714-3.65514E-02 3.79613E-02-1.44758E-03 4.35217E-02-4.04273E-04-3.66781E-04
 -1     23715-1.34790E-02 1.36816E-02-1.81464E-04 9.77445E-02-1.79636E-05-4.04823E-05
 -1     23716-1.83395E-02 1.79553E-02 4.08166E-04 9.51165E-02 1.02626E-05-6.93987E-05
 -1     23717-2.50611E-02 2.52040E-02-1.18824E-04 8.16689E-02 1.74278E-04-7.30209E-05
 -1     23718-1.68548E-02 1.69880E-02-9.84115E-05 8.71876E-02 1.31615E-04 5.89235E-05
 -1     23719-2.58717E-02 2.65702E-02-7.30251E-04 5.18840E-02-3.58331E-04-1.65759E-04
 -1     23720 3.36038E-03-2.82398E-03-5.04219E-04 9.63122E-02 7.84908E-05-9.65216E-05
 -1     23721-4.19486E-03 4.74154E-03-5.23210E-04 8.45316E-02 1.64215E-04-1.69671E-04
 -1     23722 8.10816E-03-7.51699E-03-5.77404E-04 9.82704E-02 3.36104E-04-1.70563E-06
 -1     23723-5.18940E-02 5.18315E-02 6.76812E-05 2.73227E-02-1.64364E-04 1.63544E-04
 -1     23724-5.16661E-02 5.12780E-02 3.73465E-04 3.02090E-02-4.80810E-04 3.73709E-04
 -1     23725-3.64673E-02 3.51337E-02 1.30287E-03 4.33212E-02-3.51977E-04 2.55760E-04
 -1     23726 5.48554E-02-5.50590E-02 2.51382E-04 1.18454E-01-2.22256E-05-1.88270E-04
 -1     23727 6.28196E-03-6.39894E-03 9.87904E-05 6.45855E-02 2.41324E-04 2.65117E-04
 -1     23728 1.83422E-02-1.84146E-02 7.07745E-05 6.93618E-02 3.22243E-05 3.34724E-04
 -1     23729-3.63271E-03 3.40538E-03 2.12125E-04 6.22766E-02 3.78987E-04 9.70655E-05
 -1     23730 3.05117E-02-3.05980E-02 8.13608E-05 7.47406E-02 2.35383E-04 7.20490E-05
 -1     23731 4.01891E-02-4.01854E-02 8.11564E-06 7.91645E-02-4.76562E-05 2.65328E-04
 -1     23732 4.42506E-02-4.43736E-02 1.30715E-04 8.51860E-02-2.14363E-05 2.46501E-04
 -1     23733 2.29463E-02-2.31306E-02 1.84590E-04 7.47184E-02 3.22798E-04 1.33477E-04
 -1     23734 4.40555E-02-4.37300E-02-3.09892E-04 1.11842E-01-4.02124E-05 9.60094E-05
 -1     23735 3.87510E-02-3.81988E-02-5.21439E-04 1.11070E-01 2.31342E-04 7.31919E-05
 -1     23736-3.41271E-02 3.44774E-02-3.45221E-04 6.86589E-02-2.36762E-04-2.89081E-04
 -1     23737-4.03875E-02 4.05253E-02-1.21112E-04 6.04859E-02-3.50195E-04-2.15450E-04
 -1     23738-4.89430E-02 4.94419E-02-4.91404E-04 3.42627E-02-4.50247E-06 9.33440E-05
 -1     23739-5.04519E-02 5.03133E-02 1.26107E-04 3.10913E-02 2.13784E-04-1.76188E-05
 -1     23740-4.10085E-02 4.18526E-02-8.39429E-04 4.95138E-02-2.67773E-04-9.32225E-05
 -1     23741 3.19762E-02-3.16226E-02-3.28623E-04 1.08981E-01 5.53669E-05 1.65604E-04
 -1     23742 2.60436E-02-2.59414E-02-7.27821E-05 1.07321E-01 4.09731E-04 1.00877E-04
 -1     23743 3.09173E-02-3.06873E-02-2.02279E-04 1.03368E-01 1.93246E-04-1.91132E-04
 -1     23744-8.39039E-03 8.14047E-03 2.65610E-04 9.06486E-02 3.21221E-05 2.95062E-04
 -1     23745-1.35414E-02 1.31846E-02 3.87648E-04 8.64246E-02 1.18510E-04 2.25441E-05
 -1     23746-1.22323E-02 1.19485E-02 3.12528E-04 8.05688E-02 1.04039E-04-1.35749E-04
 -1     23747-1.79772E-02 1.75119E-02 4.38705E-04 5.67536E-02-2.53241E-04 1.12966E-04
 -1     23748-1.01035E-02 1.02969E-02-1.82591E-04 6.10676E-02-1.96173E-04-1.24461E-04
 -1     23749 6.25999E-02-6.18374E-02-7.36116E-04 1.01032E-01 2.19474E-04-3.87169E-04
 -1     23750 6.35381E-02-6.34281E-02-6.22760E-05 1.08321E-01 3.58143E-04-4.04275E-04
 -1     23751 5.89040E-02-5.88757E-02-6.64155E-06 1.09878E-01 2.73007E-04-3.07787E-04
 -1     23752 5.54918E-02-5.53828E-02-9.49347E-05 9.68281E-02 2.36142E-04 6.35313E-06
 -1     23753-5.96393E-02 5.97137E-02-7.99149E-05 3.93100E-02 8.28580E-05 1.67281E-04
 -1     23754 3.66799E-03-4.23050E-03 5.54502E-04 6.83765E-02 1.35992E-04 3.29040E-04
 -1     23755-6.92869E-02 6.93672E-02-8.90658E-05-2.11570E-04 5.35600E-05-2.24941E-04
 -1     23756-7.05752E-02 7.03541E-02 1.87467E-04-1.66806E-03 1.26028E-04 6.33295E-05
 -1     23757-5.99960E-02 6.01997E-02-2.31992E-04 1.35502E-02 5.14092E-05-2.22632E-04
 -1     23758-7.20057E-02 7.20643E-02-7.39186E-05-2.85400E-03 3.32948E-04-1.75236E-04
 -1     23759-7.30027E-02 7.28479E-02 1.17891E-04-2.84160E-03-2.44811E-05-3.34915E-04
 -1     23760-6.32854E-02 6.30362E-02 2.26454E-04 9.80090E-03 1.03693E-04 8.10065E-06
 -1     23761-6.19314E-02 6.18858E-02 2.65971E-05 1.08661E-02 1.20272E-04-5.61414E-05
 -1     23762-5.28851E-02 5.30125E-02-1.52439E-04 2.40266E-02 3.40390E-04-2.71594E-04
 -1     23763-4.06654E-02 4.12664E-02-6.21783E-04 3.72603E-02 2.48068E-04 3.24811E-04
 -1     23764-5.31494E-02 5.41520E-02-1.01010E-03 2.23095E-02 7.47756E-04-1.51605E-04
 -1     23765-4.81244E-02 4.78447E-02 2.80693E-04 4.91704E-02-2.43732E-04-5.31927E-06
 -1     23766-4.84812E-02 4.84676E-02 2.65807E-05 5.25597E-02 1.40874E-04 7.48869E-06
 -1     23767 1.97918E-02-2.02939E-02 5.17584E-04 1.04408E-01 2.83243E-04-8.79055E-05
 -1     23768 1.45409E-02-1.42496E-02-2.61619E-04 1.01896E-01 3.00169E-04-6.84212E-05
 -1     23769 1.80866E-02-1.86915E-02 6.32494E-04 9.73650E-02 5.33905E-04-1.19769E-04
 -1     23770 5.40994E-02-5.40260E-02-4.00629E-05 1.11271E-01 9.78047E-05-3.62698E-05
 -1     23771 4.93220E-02-4.92650E-02-2.28062E-05 1.12221E-01-5.00457E-05 1.84602E-04
 -1     23772 4.27950E-02-4.21699E-02-6.01340E-04 1.04873E-01 9.66763E-05 1.25084E-04
 -1     23773 5.34141E-02-5.31078E-02-2.80828E-04 1.04127E-01 1.55111E-04 3.18984E-05
 -1     23774-5.21700E-02 5.20234E-02 1.49136E-04 5.28754E-02-8.18950E-05 4.52121E-05
 -1     23775-3.24453E-02 3.26309E-02-1.63266E-04 6.73182E-02-1.81225E-04-3.67932E-04
 -1     23776-2.16942E-02 2.17963E-02-8.24367E-05 5.37821E-02-6.09583E-04 6.66130E-04
 -1     23777-7.28223E-03 7.79766E-03-5.38631E-04 6.36861E-02-3.89739E-04 3.99124E-04
 -1     23778-2.57797E-02 2.50049E-02 7.60779E-04 5.08930E-02-6.48135E-05 6.39046E-04
 -1     23779 9.48738E-03-9.60762E-03 1.13263E-04 7.35893E-02 9.88627E-05 1.05302E-05
 -1     23780 1.69745E-02-1.71968E-02 2.27467E-04 7.55071E-02 1.54696E-04 1.20876E-04
 -1     23781 5.72655E-03-5.56042E-03-1.39892E-04 9.05209E-02 4.73836E-04-1.97651E-04
 -1     23782-3.19973E-02 3.22784E-02-2.75345E-04 6.29900E-02 7.27854E-05-2.77533E-04
 -1     23783 3.98924E-02-3.99932E-02 1.23559E-04 9.88817E-02-2.19206E-04 8.89905E-05
 -1     23784 3.48200E-02-3.43538E-02-4.39108E-04 9.89982E-02-7.64556E-05 6.49751E-06
 -1     23785-1.10684E-02 1.10340E-02 4.63437E-05 7.35538E-02 6.74780E-05-1.88042E-04
 -1     23786-1.51885E-02 1.55007E-02-3.08025E-04 7.08164E-02 4.63957E-05 3.54760E-05
 -1     23787 2.79908E-02-2.80265E-02 4.57311E-05 8.09256E-02-1.09764E-04 3.02055E-05
 -1     23788-1.79606E-02 1.80501E-02-7.64769E-05 6.97748E-02-1.00487E-04 3.94181E-04
 -1     23789-2.05027E-02 2.03266E-02 1.71566E-04 6.88654E-02-1.51209E-06-9.41269E-06
 -1     23790-2.49620E-02 2.48402E-02 1.29813E-04 5.92594E-02 2.99892E-04-2.49459E-04
 -1     23791-1.90471E-02 1.90606E-02-6.10049E-06 7.91740E-02 1.76051E-04 1.01504E-04
 -1     23792-2.52454E-02 2.52158E-02 4.55746E-05 7.23488E-02 6.15918E-05-5.53587E-06
 -1     23793-3.36493E-02 3.40051E-02-3.39881E-04 5.53790E-02 3.15921E-06-1.83730E-04
 -1     23794-2.10697E-02 2.08210E-02 2.71338E-04 7.23528E-02-5.41947E-07 2.57808E-05
 -1     23795 4.79573E-02-4.80514E-02 1.14650E-04 9.14918E-02 6.41021E-05 3.75902E-04
 -1     23796 5.13906E-02-5.10204E-02-3.31742E-04 9.77769E-02 3.13073E-04 6.83640E-05
 -1     23797 4.58933E-02-4.55028E-02-3.65164E-04 9.91528E-02-1.30271E-05 2.73512E-04
 -1     23798 3.89117E-02-3.91950E-02 2.96410E-04 8.70994E-02 3.81939E-05-4.99149E-05
 -1     23799-4.12470E-03 4.33058E-03-1.93657E-04 7.91811E-02 4.11117E-04-7.39515E-06
 -1     23800-1.46073E-02 1.48441E-02-2.23759E-04 6.61669E-02-1.01935E-04-1.11650E-04
 -1     23801 1.84549E-03-1.39102E-03-4.49276E-04 8.36284E-02 7.13247E-04-2.51614E-04
 -1     23802 3.73887E-02-3.71345E-02-2.40542E-04 9.26262E-02-1.54237E-04 1.08867E-04
 -1     23803-3.06892E-02 3.10867E-02-3.89919E-04 4.53540E-02 4.60528E-04 3.21595E-04
 -1     23804-2.90495E-02 2.92077E-02-1.69799E-04 4.85032E-02 1.09339E-04 5.37801E-04
 -1     23805 3.27176E-02-3.26359E-02-7.70779E-05 8.66976E-02 6.15083E-05-2.69364E-04
 -1     23806-4.10080E-04 7.87376E-04-3.81079E-04 7.03870E-02 9.38570E-05 2.12975E-04
 -1     23807 5.03414E-03-4.90575E-03-1.13162E-04 7.23890E-02-3.14922E-04 2.11760E-04
 -1     23808-1.61024E-02 1.58145E-02 2.69572E-04 5.96201E-02 7.04698E-04-5.42176E-05
 -1     23809-4.23131E-02 4.18268E-02 4.84025E-04 4.17192E-02 2.88624E-04-1.37719E-04
 -1     23810-5.18843E-02 5.11679E-02 7.30845E-04 2.67673E-02 8.83433E-05-1.50591E-04
 -1     23811 3.02215E-02-2.97211E-02-4.80898E-04 9.81326E-02 5.56709E-05-3.49945E-05
 -1     23812 2.33156E-02-2.32915E-02-8.29274E-06 9.61576E-02 2.29888E-04-1.44844E-04
 -1     23813 2.73284E-02-2.72428E-02-7.35538E-05 9.23757E-02 1.78389E-04-1.40421E-04
 -1     23814 1.63706E-02-1.63076E-02-5.48742E-05 7.96107E-02-1.27185E-04 7.02587E-05
 -1     23815-5.17409E-02 5.15949E-02 1.25924E-04 2.45219E-02 1.27745E-04-3.44146E-04
 -1     23816-3.53057E-02 3.48810E-02 4.22385E-04 5.16353E-02 5.86794E-05-6.61858E-05
 -1     23817 1.40457E-02-1.45702E-02 5.35883E-04 8.95184E-02 2.60408E-04 1.48665E-04
 -1     23818 8.89105E-03-9.17374E-03 3.01290E-04 8.60843E-02 7.98489E-04-2.00178E-04
 -1     23819-1.37282E-03 1.92863E-03-5.45891E-04 7.56297E-02 9.56037E-04-2.91132E-04
 -1     23820 1.34580E-02-1.31104E-02-3.39503E-04 8.58979E-02-1.29880E-04-3.37068E-04
 -1     23821-5.24557E-02 5.25911E-02-1.38783E-04 2.09134E-02 1.66773E-04 5.31103E-05
 -1     23822-5.30303E-02 5.37597E-02-7.46485E-04 2.12818E-02 9.18563E-05-3.57371E-05
 -1     23823-5.19587E-02 5.20231E-02-6.73230E-05 2.29931E-02-1.02345E-04-2.53484E-04
 -1     23824-5.23219E-02 5.23288E-02-3.01395E-05 2.24392E-02 7.23544E-05-1.50218E-04
 -1     23825-4.33202E-02 4.34219E-02-1.15290E-04 3.37491E-02-6.85793E-06-2.19168E-04
 -1     23826-4.33641E-02 4.32474E-02 1.07083E-04 3.59312E-02 1.32275E-04-2.71518E-04
 -1     23827-4.26598E-02 4.31703E-02-5.34492E-04 3.34423E-02 4.62665E-04-2.85446E-04
 -1     23828 2.15554E-02-2.13695E-02-1.81694E-04 8.58817E-02-3.10777E-05 5.18563E-05
 -1     23829 2.74857E-02-2.71778E-02-2.94144E-04 8.69447E-02-3.31815E-05 1.54266E-05
 -1     23830-3.46214E-02 3.51987E-02-5.89905E-04 4.37712E-02 8.57149E-04 2.60099E-05
 -1     23831-2.34214E-02 2.35502E-02-1.37918E-04 5.37904E-02 5.63493E-04 1.83732E-04
 -1     23832-6.84064E-03 7.11550E-03-2.75229E-04 6.79377E-02 2.64456E-04-4.20306E-04
 -1     23833-3.88956E-03 4.56420E-03-6.67458E-04 7.09433E-02 3.37053E-04-3.05833E-04
 -1     23834-3.49474E-02 3.53339E-02-3.83673E-04 4.27251E-02 8.64749E-05-9.27362E-05
 -1     23835-3.52495E-02 3.49691E-02 2.87589E-04 4.79425E-02-6.58063E-05-1.10541E-04
 -1     23836-3.51459E-02 3.47981E-02 3.34690E-04 4.71972E-02-3.83619E-05-1.55300E-04
 -1     23837-2.70959E-02 2.70496E-02 5.45349E-05 6.17802E-02 1.41966E-05-7.37232E-05
 -1     23838-3.24774E-02 3.24290E-02 5.42558E-05 4.79118E-02-1.37269E-04-5.79915E-05
 -1     23839-3.24798E-02 3.26032E-02-1.30297E-04 4.70185E-02 6.67336E-05-1.94945E-04
 -1     23840-1.72938E-02 1.72119E-02 7.78298E-05 6.18907E-02 1.64440E-04-1.27736E-04
 -1     23841-1.33624E-02 1.36849E-02-3.20473E-04 6.42381E-02 6.62024E-04-1.90917E-04
 -1     23842 7.57633E-03-8.05910E-03 4.93469E-04 7.94837E-02 6.72416E-05 2.07442E-04
 -1     23843-2.35286E-02 2.39639E-02-4.37359E-04 5.59813E-02-7.32028E-05-2.20423E-05
 -1     23844 1.74511E-02-1.73900E-02-4.62020E-05 8.45616E-02 1.15062E-04-6.28269E-05
 -1     23845 5.18012E-03-4.29769E-03-8.44473E-04 1.23679E-01 3.89229E-05 8.47212E-04
 -1     23846 5.67925E-03-4.75164E-03-8.78000E-04 1.14648E-01 5.27715E-04 5.19768E-05
 -1     23847 5.28615E-03-4.97251E-03-2.67331E-04 1.17397E-01 1.18510E-03-8.05089E-05
 -1     23848 8.98098E-03-9.84143E-03 9.10139E-04 1.12900E-01 1.71048E-04 4.03256E-04
 -1     23849 1.05529E-02-1.09560E-02 4.55014E-04 1.12321E-01-4.52365E-05 3.91201E-04
 -1     23850 1.88533E-02-1.91614E-02 3.58197E-04 1.20667E-01-3.11703E-04 8.36387E-05
 -1     23851 1.72450E-02-1.64023E-02-7.93357E-04 1.18081E-01 2.85014E-04 8.14384E-05
 -1     23852 2.44010E-02-2.41419E-02-2.00337E-04 1.41859E-01-3.64401E-04-7.85519E-04
 -1     23853 2.35272E-02-2.32322E-02-2.31945E-04 1.34918E-01-4.53517E-04-1.03860E-03
 -1     23854 2.76060E-02-2.74360E-02-9.59898E-05 1.68153E-01 8.45049E-05-1.24277E-04
 -1     23855 2.72958E-02-2.66342E-02-6.02602E-04 1.60459E-01-1.64891E-04 4.43055E-05
 -1     23856 2.94018E-02-2.95457E-02 2.14888E-04 1.95630E-01 1.06191E-04-2.17933E-04
 -1     23857 2.88843E-02-2.88699E-02 5.81235E-05 1.88495E-01 4.82021E-04-2.52062E-04
 -1     23858 2.92686E-02-2.91483E-02-3.74187E-05 2.19269E-01-4.25821E-04-1.97333E-04
 -1     23859 3.00849E-02-2.85375E-02-1.46346E-03 2.13635E-01 2.04255E-04-2.23271E-04
 -1     23860 2.76800E-02-2.69536E-02-6.32301E-04 2.37140E-01-2.52917E-04 4.53701E-04
 -1     23861 2.98508E-02-2.72359E-02-2.52656E-03 2.32653E-01-3.43541E-04-3.01190E-04
 -1     23862 2.63488E-02-2.55760E-02-6.74240E-04 2.47047E-01 5.09237E-04-2.15993E-04
 -1     23863 2.58197E-02-2.47181E-02-1.01321E-03 2.44915E-01 4.97592E-05 4.63969E-04
 -1     23864 2.36282E-02-2.29393E-02-5.91810E-04 2.52762E-01 2.54800E-04 2.91443E-04
 -1     23865 2.32454E-02-2.34147E-02 2.64525E-04 2.51752E-01 3.37026E-04 4.27470E-05
 -1     23866 2.16926E-02-2.13814E-02-2.09324E-04 2.52904E-01 2.97527E-04-2.15666E-04
 -1     23867 2.21563E-02-2.13669E-02-6.87498E-04 2.52922E-01 2.72518E-04-6.10479E-05
 -1     23868 2.00197E-02-1.91619E-02-7.59871E-04 2.47533E-01-3.12968E-05 1.41346E-04
 -1     23869 1.88382E-02-1.90727E-02 3.32175E-04 2.49566E-01 7.70565E-05 1.96556E-04
 -1     23870 1.57709E-02-1.51646E-02-5.23495E-04 2.39330E-01-7.02971E-04 2.82453E-04
 -1     23871 1.63653E-02-1.57534E-02-5.22205E-04 2.41103E-01-5.46466E-04-1.78086E-04
 -1     23872 9.86549E-03-7.66470E-03-2.11997E-03 2.20647E-01-7.76735E-04-9.26976E-04
 -1     23873 9.91517E-03-9.40728E-03-4.35155E-04 2.26820E-01-1.94851E-03-1.55520E-03
 -1     23874-5.04855E-03 4.09782E-03 1.01269E-03 1.88262E-01 1.14342E-03-8.80052E-04
 -1     23875-3.09153E-03 4.70837E-03-1.52544E-03 1.99003E-01-8.40245E-05 1.87344E-04
 -1     23876-5.56982E-02 5.85947E-02-2.86204E-03 1.34722E-01-4.44136E-05-5.24415E-04
 -1     23877-3.82739E-02 3.75353E-02 7.84416E-04 1.50316E-01-8.74840E-04-1.61367E-03
 -1     23878-7.98626E-02 7.95481E-02 3.27322E-04 1.54244E-01-8.00137E-04-1.04999E-04
 -1     23879-9.98566E-02 1.01071E-01-1.17434E-03 1.57420E-01 1.41112E-04-8.43932E-04
 -1     23880-9.12750E-02 8.94268E-02 1.89332E-03 1.60728E-01-5.37689E-04 1.70746E-03
 -1     23881-1.23725E-01 1.26099E-01-2.32399E-03 1.48150E-01-2.26538E-03-7.42259E-04
 -1     23882-1.17038E-01 1.17864E-01-7.85567E-04 1.51111E-01 9.84515E-04-1.65796E-06
 -1     23883-1.13590E-01 1.18859E-01-5.25300E-03 1.30014E-01-8.76284E-04-4.99829E-03
 -1     23884-1.17855E-01 1.19747E-01-1.87312E-03 1.25938E-01-2.41194E-03-2.40450E-03
 -1     23885-8.61267E-02 8.36625E-02 2.44127E-03 3.69784E-02-6.43682E-03 3.44568E-04
 -1     23886-7.56371E-02 7.53828E-02 2.39821E-04-3.13504E-02-1.84351E-03 2.87518E-03
 -1     23887-6.15231E-02 6.32719E-02-1.79882E-03-2.98914E-02 9.66220E-04 1.23451E-03
 -1     23888-9.59976E-02 9.71351E-02-1.18562E-03-5.38404E-02 7.91138E-04 1.46233E-03
 -1     23889-9.30078E-02 9.39462E-02-9.44814E-04-5.51282E-02 1.99099E-03 2.61361E-03
 -1     23890-1.24051E-01 1.23537E-01 4.67286E-04-7.79557E-02-3.05532E-04-5.36015E-04
 -1     23891-1.16307E-01 1.16644E-01-3.73679E-04-7.12551E-02 2.89766E-04-1.36280E-03
 -1     23892-1.41192E-01 1.40606E-01 5.19107E-04-9.30188E-02 4.58438E-04-1.44269E-05
 -1     23893-1.36764E-01 1.36950E-01-2.41556E-04-9.08936E-02 1.40104E-04-4.34908E-04
 -1     23894-1.53450E-01 1.52556E-01 8.19681E-04-1.06738E-01 4.82496E-04-8.58594E-05
 -1     23895-1.49416E-01 1.48882E-01 4.61324E-04-1.04514E-01 3.49122E-04-2.03381E-04
 -1     23896-1.61065E-01 1.61520E-01-5.30809E-04-1.15777E-01-2.75447E-04 1.42481E-04
 -1     23897-1.59905E-01 1.59988E-01-1.59359E-04-1.13883E-01 9.86417E-06-1.74168E-04
 -1     23898-1.66195E-01 1.65959E-01 1.53626E-04-1.21988E-01-3.27335E-04-7.12835E-05
 -1     23899-1.65740E-01 1.65293E-01 3.67889E-04-1.20420E-01-2.99710E-04-2.83123E-04
 -1     23900-1.70468E-01 1.70395E-01-1.38570E-05-1.25674E-01-8.93273E-05 1.60356E-04
 -1     23901-1.69207E-01 1.69051E-01 7.46626E-05-1.24708E-01-4.76050E-05-1.19912E-04
 -1     23902-1.74745E-01 1.74688E-01-2.84030E-05-1.28543E-01 1.02374E-04 3.22863E-04
 -1     23903-1.73824E-01 1.73644E-01 9.04560E-05-1.27949E-01 4.14325E-04 1.83867E-04
 -1     23904-1.79988E-01 1.82602E-01-2.70173E-03-1.31274E-01 1.52776E-03-1.90580E-03
 -1     23905-1.78555E-01 1.79253E-01-7.82602E-04-1.32565E-01 1.34135E-03-5.41351E-04
 -1     23906-1.89544E-01 1.97122E-01-7.82893E-03-1.36238E-01-1.55790E-03-1.88761E-03
 -1     23907-1.90400E-01 1.89040E-01 1.28494E-03-1.38358E-01-1.21519E-03 6.60079E-03
 -1     23908-2.49157E-01 2.60276E-01-1.13850E-02-1.60410E-01-1.25326E-03-4.52844E-02
 -1     23909-2.24686E-01 2.25864E-01-1.17386E-03-1.45683E-01-6.27485E-03-6.21782E-03
 -1     23910-2.07074E-01 1.98739E-01 7.90306E-03 1.24460E-01-2.92035E-03-1.14775E-03
 -1     23911-3.40944E-01 3.21397E-01 1.96989E-02-7.80821E-02-2.57017E-02-3.02884E-02
 -1     23912-2.87147E-01 2.54213E-01 3.26238E-02-2.80352E-02 7.03237E-03 2.10139E-02
 -1     23913-1.04420E-01 1.27302E-01-2.23213E-02 7.97904E-02-1.16149E-02 9.12348E-03
 -1     23914-2.36408E-02 2.50341E-02-1.24760E-03-1.65136E-02 4.50417E-03-1.09173E-04
 -1     23915-2.76556E-02 2.88951E-02-1.63186E-03 1.89939E-03 9.03233E-03-4.15616E-04
 -1     23916 3.70367E-03-1.56234E-03-2.10365E-03-2.98181E-02 1.83076E-03 2.16791E-03
 -1     23917 5.26489E-03 2.96760E-05-5.44134E-03-3.32222E-02 1.84776E-03 3.11555E-03
 -1     23918 8.66762E-03-7.15742E-03-1.44203E-03-2.18077E-02 9.51478E-04 3.89145E-04
 -1     23919 7.13083E-03-7.47381E-03 2.97457E-04-2.64326E-02 2.82795E-05-1.18768E-04
 -1     23920 1.41851E-02-1.41983E-02-5.85190E-05 5.73753E-03 1.33600E-03 1.24602E-03
 -1     23921 1.38627E-02-1.44461E-02 5.96050E-04-1.94339E-03 1.63993E-03 1.20937E-04
 -1     23922 1.66319E-02-1.39043E-02-2.70779E-03 3.68426E-02 5.30285E-04 1.83951E-03
 -1     23923 1.52030E-02-1.58625E-02 6.62472E-04 2.81999E-02-1.11362E-03-4.60079E-04
 -1     23924 1.38178E-02-1.36438E-02-1.59343E-04 6.93119E-02 1.07036E-03-1.06013E-03
 -1     23925 1.36553E-02-1.37823E-02 1.41259E-04 6.18735E-02 1.22930E-03-9.29937E-04
 -1     23926 1.08885E-02-1.05862E-02-2.60830E-04 9.65389E-02 2.64876E-05 1.03352E-03
 -1     23927 1.17017E-02-1.26727E-02 1.01684E-03 8.98908E-02 2.75709E-04 4.32544E-05
 -1     23928 5.42877E-03-5.94153E-03 5.56917E-04 1.13805E-01 2.15707E-04-1.53335E-07
 -1     23929 7.07921E-03-6.01818E-03-9.88687E-04 1.10921E-01 6.10902E-04 7.58551E-04
 -1     23930 9.41103E-04-1.44568E-03 5.47297E-04 1.19789E-01-5.43919E-04-1.04429E-04
 -1     23931 1.53526E-03-1.24587E-03-2.37099E-04 1.18834E-01-6.00217E-04 1.80762E-04
 -1     23932 3.16005E-04-3.58488E-04 1.00835E-04 1.19859E-01 2.21220E-04-3.61329E-04
 -1     23933 2.41789E-04-4.87667E-04 2.94721E-04 1.20065E-01-2.57488E-04-2.03636E-04
 -1     23934-5.16345E-02 5.34993E-02-1.78372E-03-7.51743E-03 5.43745E-03 2.42832E-03
 -1     23935-8.97247E-02 8.28478E-02 6.85870E-03 1.04728E-01 7.65050E-04 8.10806E-03
 -1     23936 5.91641E-03-6.27328E-03 4.06945E-04 1.19151E-01 8.34659E-04 2.39309E-04
 -1     23937 7.06813E-03-6.68541E-03-3.34647E-04 1.21240E-01-2.91679E-04 2.52739E-04
 -1     23938 8.21311E-03-8.96408E-03 8.01903E-04 1.12427E-01-6.71582E-04-4.13791E-04
 -1     23939 8.04505E-03-7.26616E-03-7.32335E-04 1.12687E-01-6.57597E-05 1.55493E-04
 -1     23940 1.33811E-02-1.33198E-02-1.47319E-05 1.15333E-01 3.59263E-04-4.64800E-05
 -1     23941 1.37139E-02-1.48675E-02 1.20593E-03 1.13238E-01 8.69806E-04-4.78225E-04
 -1     23942 2.09391E-02-2.07205E-02-1.67959E-04 1.30516E-01-2.44847E-04-5.38936E-04
 -1     23943 2.06532E-02-2.05664E-02-3.50924E-05 1.24891E-01-2.90816E-04-2.33593E-04
 -1     23944 2.69988E-02-2.58469E-02-1.09158E-03 1.54945E-01-2.27416E-04-2.23813E-04
 -1     23945 2.58918E-02-2.56793E-02-1.50748E-04 1.47792E-01 3.35877E-05-7.57165E-04
 -1     23946 2.94816E-02-2.97011E-02 2.94068E-04 1.82658E-01 6.04650E-04-3.12288E-04
 -1     23947 2.80701E-02-2.84604E-02 4.53452E-04 1.74928E-01 1.36029E-04-2.14842E-04
 -1     23948 2.92784E-02-2.85118E-02-6.89100E-04 2.08645E-01-5.31423E-05 1.41645E-04
 -1     23949 2.83765E-02-2.87914E-02 4.96026E-04 2.02083E-01-2.65032E-04-1.06773E-04
 -1     23950 2.89459E-02-2.83915E-02-4.74600E-04 2.28719E-01-1.57803E-04-1.10646E-04
 -1     23951 2.66092E-02-2.68593E-02 3.33472E-04 2.24140E-01-1.65710E-04-2.42345E-04
 -1     23952 2.74376E-02-2.64987E-02-8.47250E-04 2.42899E-01 7.12342E-04 2.79827E-04
 -1     23953 2.60270E-02-2.60309E-02 9.10085E-05 2.40342E-01 5.54011E-04 3.00386E-04
 -1     23954 2.43835E-02-2.45003E-02 2.17689E-04 2.51289E-01-5.07221E-04 3.70587E-04
 -1     23955 2.51287E-02-2.49992E-02-3.74480E-05 2.49207E-01-5.66549E-04 2.84555E-04
 -1     23956 2.30770E-02-2.27552E-02-2.24878E-04 2.53736E-01 9.20961E-05 4.74955E-04
 -1     23957 2.23333E-02-2.24960E-02 2.61942E-04 2.52895E-01 2.30996E-04 4.76961E-04
 -1     23958 2.04005E-02-2.01908E-02-1.10578E-04 2.50991E-01-4.88079E-05 2.46796E-04
 -1     23959 2.07966E-02-1.97852E-02-9.10458E-04 2.52127E-01-6.71647E-06-2.81147E-05
 -1     23960 1.78003E-02-1.77000E-02-1.11858E-05 2.43018E-01 3.41509E-04 2.23029E-04
 -1     23961 1.82763E-02-1.67298E-02-1.45343E-03 2.45815E-01 4.54661E-04-1.48989E-04
 -1     23962 1.34637E-02-1.38136E-02 4.26426E-04 2.30798E-01-2.82602E-03-1.41427E-03
 -1     23963 1.28480E-02-1.40899E-02 1.33117E-03 2.34618E-01-1.76696E-03-6.69676E-04
 -1     23964 8.45719E-03-6.75194E-03-1.63079E-03 2.06882E-01-1.00218E-03 5.98714E-05
 -1     23965 5.91492E-03-4.64314E-03-1.19522E-03 2.14526E-01-9.74080E-05-2.14246E-03
 -1     23966-1.91726E-02 1.53139E-02 3.90718E-03 1.59670E-01-1.83999E-03 1.96259E-04
 -1     23967-1.44309E-02 1.45885E-02-1.08296E-04 1.78939E-01 3.02818E-03 4.56205E-04
 -1     23968-8.83372E-02 8.90242E-02-6.32959E-04 1.64933E-01-5.92718E-06 2.64908E-04
 -1     23969-1.06634E-01 1.05991E-01 6.79468E-04 1.54723E-01 5.03266E-04-1.12644E-03
 -1     23970-1.01493E-01 1.00846E-01 6.88788E-04 1.66616E-01 3.01771E-03-1.19668E-03
 -1     23971-1.16491E-01 1.16143E-01 3.83736E-04 1.51512E-01 1.11528E-03 1.31383E-03
 -1     23972-1.05234E-01 1.01236E-01 4.05939E-03 1.57573E-01 4.23814E-03 2.27489E-04
 -1     23973-1.25250E-01 1.27488E-01-2.19434E-03 1.31099E-01 5.18990E-04 1.22745E-03
 -1     23974-1.30055E-01 1.27265E-01 2.81688E-03 1.35864E-01-3.80309E-03 1.23330E-05
 -1     23975 2.60398E-03-2.75878E-03 2.01789E-04 1.22109E-01-4.92744E-04-1.67506E-04
 -1     23976-1.03316E-01 9.79493E-02 5.39671E-03 1.10068E-01-5.22262E-04-3.05419E-03
 -1     23977-7.65107E-02 7.54136E-02 1.09000E-03-4.34014E-02-1.81186E-03 3.00783E-03
 -1     23978-6.37660E-02 6.23712E-02 1.33001E-03-9.15847E-04-2.75744E-03 2.68684E-03
 -1     23979-8.38157E-02 8.45239E-02-7.54037E-04-4.91346E-02 5.04241E-04 3.24726E-03
 -1     23980-5.61374E-02 5.93597E-02-3.29359E-03 3.64383E-02 5.26091E-03 7.36731E-03
 -1     23981-6.03237E-02 6.38048E-02-3.58212E-03-1.09432E-02 2.69805E-03 5.70925E-03
 -1     23982-7.19598E-02 7.04045E-02 1.51085E-03-1.78180E-02 2.26285E-04 1.73855E-03
 -1     23983-1.09565E-01 1.07916E-01 1.60562E-03-6.45960E-02 1.13871E-04-5.38620E-04
 -1     23984-1.03555E-01 1.03914E-01-4.13132E-04-5.90166E-02-1.90395E-04 1.49412E-03
 -1     23985-1.31398E-01 1.31271E-01 6.75411E-05-8.61402E-02-5.53410E-04-4.54337E-04
 -1     23986-1.27042E-01 1.27095E-01-1.11801E-04-7.99744E-02-4.69638E-04-8.10734E-04
 -1     23987-1.46715E-01 1.47025E-01-3.80299E-04-1.01166E-01 4.01705E-04 6.94063E-04
 -1     23988-1.44357E-01 1.43732E-01 5.58202E-04-9.81950E-02-9.40810E-05 6.73059E-04
 -1     23989-1.57660E-01 1.57521E-01 6.34080E-05-1.11047E-01 3.36660E-04-8.84174E-05
 -1     23990-1.55553E-01 1.54937E-01 5.40708E-04-1.09422E-01 1.77100E-04 1.16495E-04
 -1     23991-1.63991E-01 1.63858E-01 4.64135E-05-1.18563E-01 1.02842E-04-1.89718E-04
 -1     23992-1.62181E-01 1.62180E-01-7.63714E-05-1.17900E-01 5.01773E-04 5.93969E-05
 -1     23993-1.68268E-01 1.68045E-01 1.39540E-04-1.23462E-01 9.78006E-05-4.60677E-05
 -1     23994-1.67404E-01 1.66891E-01 4.31191E-04-1.23254E-01 1.62466E-04-8.07713E-05
 -1     23995-1.72398E-01 1.72099E-01 2.10385E-04-1.27180E-01 3.14232E-04 2.39194E-05
 -1     23996-1.71860E-01 1.71606E-01 1.72278E-04-1.26229E-01-1.71193E-04 1.39599E-04
 -1     23997-1.77534E-01 1.78419E-01-9.73213E-04-1.29856E-01-4.30477E-04-4.79581E-05
 -1     23998-1.76996E-01 1.76877E-01 3.30116E-05-1.28585E-01 4.07118E-04 4.22927E-05
 -1     23999-1.92145E-01 1.85864E-01 6.17607E-03-1.36937E-01 1.79224E-04 8.09099E-03
 -1     24000-1.87554E-01 1.85826E-01 1.61504E-03-1.31276E-01 8.40864E-04-1.92396E-03
 -1     24001-2.06264E-01 2.17397E-01-1.12802E-02-1.37825E-01-2.92303E-03-8.10674E-04
 -1     24002-2.03471E-01 2.07087E-01-3.68106E-03-1.43178E-01 1.73080E-03-2.36534E-03
 -1     24003 2.85693E-03-2.33943E-03-5.65291E-04-3.15298E-02 1.28378E-03-6.68899E-04
 -1     24004 5.40637E-03-3.71180E-03-1.72745E-03-1.19034E-02 1.19172E-03 9.01816E-04
 -1     24005 4.33865E-03-3.65031E-03-6.96388E-04-2.97284E-02 4.96114E-04-7.44540E-04
 -1     24006-4.58587E-02 4.50881E-02 1.16145E-03 1.30554E-02 1.07752E-02 1.45075E-03
 -1     24007-5.78366E-02 4.51560E-02 1.24979E-02 4.72402E-02 1.82187E-03-1.45630E-03
 -1     24008-6.02528E-03 8.38707E-03-2.30225E-03-3.23566E-02 3.16728E-03 1.07289E-03
 -1     24009-1.14314E-02 1.12350E-02-1.97440E-04-2.57391E-02 3.77117E-03 6.88378E-04
 -1     24010 1.13427E-02-1.14339E-02 5.23921E-05-9.92216E-03-1.07135E-05-1.31550E-03
 -1     24011-1.74696E-01 1.40407E-01 3.42872E-02 6.15026E-02-9.59326E-03 1.42346E-02
 -1     24012 1.33683E-02-1.33455E-02 3.00092E-05-8.79875E-03 1.04425E-03 3.67726E-04
 -1     24013 1.21369E-02-1.39112E-02 1.63905E-03-1.68493E-02 1.41854E-03-1.63989E-04
 -1     24014 1.33126E-02-1.37056E-02 3.96053E-04 2.18970E-02 3.60915E-04-3.20599E-05
 -1     24015 1.37456E-02-1.39093E-02 1.28241E-04 1.39741E-02 9.58535E-04 6.75715E-04
 -1     24016 1.49146E-02-1.51794E-02 2.70961E-04 5.47389E-02 9.95036E-04 1.36897E-03
 -1     24017 1.65071E-02-1.52148E-02-1.29729E-03 4.57923E-02 4.04186E-04 2.89613E-03
 -1     24018 1.26292E-02-1.43808E-02 1.78844E-03 8.33690E-02 7.57666E-04-2.85984E-04
 -1     24019 1.28252E-02-1.23908E-02-3.94193E-04 7.56477E-02 1.03525E-03 7.97412E-05
 -1     24020 9.22098E-03-8.57074E-03-6.19145E-04 1.05887E-01-2.04069E-04 1.04259E-03
 -1     24021 9.75816E-03-8.58372E-03-1.14381E-03 1.00939E-01-8.69122E-05 9.33189E-04
 -1     24022 2.71842E-03-2.08725E-03-5.96074E-04 1.17596E-01-6.77931E-04-1.49350E-05
 -1     24023 3.48674E-03-2.43405E-03-1.01236E-03 1.16503E-01-9.44100E-05 1.55477E-05
 -1     24024 1.45334E-03-2.23999E-03 8.39922E-04 1.18486E-01 3.50390E-04-1.69491E-04
 -1     24025 1.57520E-03-1.83049E-03 3.04428E-04 1.20364E-01-3.67534E-04-2.10711E-04
 -1     24026-7.99335E-02 7.47625E-02 5.30381E-03 8.58746E-02-2.36068E-03-2.53228E-03
 -1     24027 1.40006E-02-1.50738E-02 1.10430E-03 1.14311E-01 1.79229E-04 1.91982E-04
 -1     24028 2.75207E-02-2.78111E-02 3.28200E-04 1.22982E-01 1.37671E-04-2.14964E-05
 -1     24029 3.60726E-02-3.59709E-02-5.03897E-05 1.41618E-01-9.41630E-05 1.12056E-04
 -1     24030 4.00396E-02-4.00407E-02 6.40918E-05 1.64501E-01 4.06960E-04-2.68995E-05
 -1     24031 3.95273E-02-3.88526E-02-5.93009E-04 1.88831E-01 1.92149E-05 3.29152E-05
 -1     24032 3.60521E-02-3.58954E-02-5.81983E-05 2.09331E-01-1.15576E-04-1.79929E-04
 -1     24033 3.14298E-02-3.10784E-02-2.48709E-04 2.23121E-01-1.30642E-04-5.64529E-04
 -1     24034 2.72363E-02-2.67823E-02-3.47996E-04 2.31211E-01 1.50044E-04-4.48664E-04
 -1     24035 2.21862E-02-2.20281E-02-5.25403E-05 2.35364E-01 1.94127E-04 1.72048E-04
 -1     24036 1.85131E-02-1.77725E-02-6.36569E-04 2.34196E-01 2.44027E-04-2.69094E-04
 -1     24037 1.30110E-02-1.26967E-02-2.11358E-04 2.28695E-01-1.02651E-04-2.67129E-04
 -1     24038 6.31015E-03-6.17697E-03-3.67755E-05 2.18231E-01-4.07588E-04 7.29134E-04
 -1     24039-5.27957E-03 5.17969E-03 1.93314E-04 2.00663E-01 7.04513E-04-1.40642E-03
 -1     24040-3.47090E-02 3.55929E-02-8.31885E-04 1.71651E-01 1.13328E-03 1.55974E-03
 -1     24041-1.07728E-01 1.08125E-01-3.23228E-04 1.42925E-01-1.89276E-03 1.35468E-03
 -1     24042-8.69319E-02 8.66758E-02 1.95810E-04-3.00084E-02 7.68248E-04-1.90873E-04
 -1     24043-1.12546E-01 1.11379E-01 1.08860E-03-5.50190E-02-3.18464E-04 2.02582E-04
 -1     24044-1.33512E-01 1.32082E-01 1.36103E-03-7.77651E-02 3.44420E-04 6.95388E-04
 -1     24045-1.42507E-01 1.42146E-01 2.82233E-04-9.21923E-02 4.70227E-04-8.71938E-05
 -1     24046-1.50106E-01 1.49856E-01 1.71225E-04-1.03498E-01 8.55757E-05-1.12645E-05
 -1     24047-1.55367E-01 1.54919E-01 3.67935E-04-1.10565E-01-7.67620E-05 3.70540E-05
 -1     24048-1.59805E-01 1.59657E-01 7.22266E-05-1.14732E-01-1.48737E-04 1.46387E-04
 -1     24049-1.66254E-01 1.66997E-01-8.23001E-04-1.17534E-01 6.15296E-05-2.26761E-04
 -1     24050-1.74152E-01 1.76450E-01-2.39868E-03-1.20947E-01 1.63764E-03-5.50268E-04
 -1     24051-2.03651E-01 2.08112E-01-4.57936E-03-1.23608E-01-1.95389E-03 2.29763E-03
 -1     24052-3.39267E-02 3.38563E-02 1.03096E-04 7.22116E-04 2.38497E-03 1.49707E-03
 -1     24053 1.98443E-02-1.91634E-02-6.07064E-04-3.21151E-03 1.11866E-03-8.14012E-04
 -1     24054 2.35583E-02-2.70359E-02 3.61481E-03 2.18326E-02 1.24156E-03 1.65033E-04
 -1     24055 2.91658E-02-2.79838E-02-1.07690E-03 4.77697E-02-2.18512E-04 2.59668E-03
 -1     24056 2.46816E-02-2.28403E-02-1.68284E-03 7.62831E-02 6.15552E-04-9.16294E-04
 -1     24057 1.72596E-02-1.79840E-02 8.03784E-04 9.71498E-02-8.00452E-04 5.99436E-04
 -1     24058 9.12798E-03-9.02828E-03-3.73814E-05 1.12087E-01 2.72586E-04-2.85112E-04
 -1     24059 9.55840E-03-8.83933E-03-6.90319E-04 1.14098E-01-2.60985E-04 7.01116E-04
 -1     24060 2.09977E-02-2.06413E-02-3.16138E-04 1.19546E-01 7.67110E-05-7.08483E-06
 -1     24061 3.15338E-02-3.21171E-02 6.24298E-04 1.31752E-01 4.07723E-04-3.55766E-04
 -1     24062 3.85531E-02-3.82985E-02-1.99715E-04 1.52948E-01 3.01262E-04 2.90147E-04
 -1     24063 4.04727E-02-3.99624E-02-4.37363E-04 1.77146E-01 3.74643E-04-2.01738E-04
 -1     24064 3.77240E-02-3.72757E-02-3.53816E-04 1.99239E-01 3.22483E-05-2.77551E-04
 -1     24065 3.29577E-02-3.30314E-02 1.76647E-04 2.17113E-01-1.89128E-04-2.10692E-04
 -1     24066 2.92250E-02-2.87145E-02-3.94325E-04 2.29027E-01 4.51026E-04-3.42142E-04
 -1     24067 2.45936E-02-2.42834E-02-2.07134E-04 2.35262E-01-8.74731E-04-2.65390E-04
 -1     24068 2.06230E-02-1.99212E-02-5.94870E-04 2.35401E-01-9.93259E-06-1.79862E-04
 -1     24069 1.55399E-02-1.57220E-02 2.90588E-04 2.31650E-01-1.05936E-04 1.94913E-05
 -1     24070 9.69419E-03-9.68895E-03 9.81294E-05 2.24210E-01 6.35012E-04-5.01664E-04
 -1     24071 9.14657E-04-2.63140E-04-5.59460E-04 2.10421E-01-7.23107E-04-6.17431E-04
 -1     24072-1.70776E-02 1.90751E-02-1.91617E-03 1.88091E-01-1.01688E-03 2.61946E-04
 -1     24073-6.32291E-02 6.38857E-02-6.22999E-04 1.54009E-01-3.72583E-04 1.28129E-04
 -1     24074-1.63132E-01 1.63340E-01-2.86522E-04-1.16609E-01-5.54625E-05-1.52567E-04
 -1     24075-1.71606E-01 1.71152E-01 3.74569E-04-1.20530E-01-5.35173E-04-8.19819E-04
 -1     24076-1.89349E-01 1.87159E-01 2.15797E-03-1.22773E-01-1.97599E-03 4.91326E-03
 -1     24077-2.21934E-01 2.25052E-01-3.26068E-03-1.14987E-01-2.92198E-03 1.96524E-03
 -1     24078-7.92823E-03 8.86520E-03-9.94512E-04-1.30005E-02 3.33251E-03 1.91411E-03
 -1     24079 2.82812E-02-2.74188E-02-7.03200E-04 6.32692E-02-8.03886E-04 1.63263E-04
 -1     24080 2.26418E-02-2.43759E-02 1.81867E-03 8.73920E-02-2.81822E-04-2.32789E-04
 -1     24081 1.36775E-02-1.53263E-02 1.72746E-03 1.06512E-01 1.40560E-04 7.09678E-04
 -1     24082 3.66776E-03-4.11253E-03 5.02688E-04 1.16402E-01 9.75944E-05-4.97580E-05
 -1     24083 4.06666E-03-4.27063E-03 2.46825E-04 1.16672E-01 7.83072E-05-2.23898E-04
 -1     24084-1.57538E-01 1.57600E-01-1.42409E-04-1.12678E-01 2.22703E-04 2.12833E-04
 -1     24085-9.66679E-02 9.34113E-02 3.33745E-03 1.20637E-01 2.50759E-03-3.45640E-03
 -1     24086-1.52659E-01 1.52776E-01-1.96766E-04-1.06802E-01 1.72706E-04 1.46513E-04
 -1     24087-1.46599E-01 1.46617E-01-9.70590E-05-9.76427E-02 3.94364E-04-6.43875E-05
 -1     24088-1.37179E-01 1.36470E-01 6.29597E-04-8.57180E-02 6.91424E-04 1.22283E-04
 -1     24089-1.06604E-01 1.04905E-01 1.63259E-03-4.61272E-02 5.31590E-04 6.30709E-07
 -1     24090-1.24030E-01 1.23692E-01 2.64005E-04-6.69403E-02-5.91499E-04-2.78786E-04
 -1     24091-6.68683E-02 6.74993E-02-1.15220E-03 1.76986E-02 8.35507E-03 2.88598E-03
 -1     24092 2.81671E-02-2.72240E-02-7.93172E-04 3.38980E-02-7.68180E-04-1.04353E-03
 -1     24093 2.50277E-02-2.44805E-02-4.81353E-04 7.95357E-03 9.13141E-04-4.82235E-04
 -1     24094-1.47706E-01 1.47503E-01 1.35310E-04-1.01190E-01 1.44246E-04 2.12490E-04
 -1     24095-1.46478E-01 1.46390E-01 1.83391E-05-9.99366E-02 1.91826E-04 8.57709E-05
 -1     24096 2.63586E-02-2.63634E-02 5.89569E-05 1.18183E-01 5.37016E-05-1.20152E-04
 -1     24097 2.22807E-02-2.25409E-02 3.27734E-04 1.15607E-01-1.19130E-04-1.98371E-05
 -1     24098 3.99498E-02-3.92948E-02-6.07952E-04 1.31817E-01 4.25055E-04-1.81807E-04
 -1     24099 3.80046E-02-3.79186E-02-2.51367E-05 1.26512E-01 1.03324E-04-6.28902E-04
 -1     24100 4.75005E-02-4.79299E-02 4.96001E-04 1.50598E-01 2.21182E-04-1.25534E-04
 -1     24101 4.63381E-02-4.58891E-02-3.78914E-04 1.44692E-01 5.53250E-04-4.83575E-05
 -1     24102 4.75794E-02-4.75360E-02 3.87363E-05 1.72383E-01 2.79324E-04-4.81004E-04
 -1     24103 4.85883E-02-4.84790E-02-3.76911E-05 1.66531E-01-5.32083E-05-5.23752E-04
 -1     24104 4.35757E-02-4.42295E-02 7.24959E-04 1.92377E-01 1.61326E-04-5.18021E-04
 -1     24105 4.42974E-02-4.49674E-02 7.43152E-04 1.86938E-01-2.50519E-07-6.49940E-04
 -1     24106 3.70848E-02-3.75390E-02 5.36707E-04 2.06892E-01 8.31494E-06-4.11492E-04
 -1     24107 3.74210E-02-3.86417E-02 1.29431E-03 2.03415E-01 8.89110E-05-3.27837E-05
 -1     24108 2.93338E-02-2.97500E-02 4.96788E-04 2.14862E-01 9.82576E-04-6.74284E-04
 -1     24109 3.06367E-02-3.15387E-02 9.69834E-04 2.13008E-01 4.88975E-04-5.79473E-04
 -1     24110 2.35322E-02-2.34035E-02-5.04609E-05 2.18529E-01-1.25778E-04 7.10357E-05
 -1     24111 2.35045E-02-2.39086E-02 4.77567E-04 2.16955E-01-3.27220E-04 7.56460E-04
 -1     24112 1.76667E-02-1.74619E-02-1.24350E-04 2.18383E-01-2.46647E-04-6.77050E-04
 -1     24113 1.80980E-02-1.80209E-02 3.40524E-06 2.18315E-01-4.12611E-04-3.65248E-04
 -1     24114 1.04858E-02-1.06636E-02 2.51964E-04 2.13312E-01 1.11100E-05-1.48373E-04
 -1     24115 1.20088E-02-1.19753E-02 4.37806E-05 2.14816E-01-2.28018E-05 7.32276E-06
 -1     24116 2.97228E-03-2.75939E-03-1.43471E-04 2.05238E-01 2.82100E-04 3.12362E-05
 -1     24117 4.44966E-03-4.68252E-03 3.13440E-04 2.06700E-01 1.20285E-03-8.57535E-04
 -1     24118-9.38667E-03 9.19850E-03 2.44981E-04 1.91946E-01 2.39064E-04 1.07430E-05
 -1     24119-5.92290E-03 5.74181E-03 2.57366E-04 1.95143E-01-4.14537E-04-6.58283E-05
 -1     24120-3.47274E-02 3.41340E-02 6.41054E-04 1.72604E-01 6.22554E-04 4.08281E-04
 -1     24121-2.53922E-02 2.58228E-02-3.57653E-04 1.78318E-01 5.25084E-04 5.78420E-04
 -1     24122-8.61847E-02 8.58040E-02 4.43977E-04 1.59314E-01 9.65484E-04-1.11802E-03
 -1     24123-6.82393E-02 6.77091E-02 5.92441E-04 1.59931E-01 4.33381E-04 8.74983E-04
 -1     24124-8.08923E-02 8.88389E-02-7.95220E-03 1.22924E-01 1.56297E-03 5.26484E-03
 -1     24125-8.55982E-02 9.09356E-02-5.35219E-03 1.33274E-01-4.90944E-04 2.56238E-03
 -1     24126-1.53560E-01 1.53591E-01-1.09863E-04-1.05230E-01-1.31214E-04 1.44638E-04
 -1     24127-1.52259E-01 1.51767E-01 4.18924E-04-1.04246E-01 2.87502E-05 1.48435E-04
 -1     24128-9.21143E-02 9.19605E-02 1.69075E-04 1.68835E-01 7.68799E-04 7.00957E-04
 -1     24129-8.63092E-02 8.57818E-02 5.24742E-04-2.44309E-03 9.22449E-04-3.30823E-04
 -1     24130-7.79791E-02 7.74246E-02 5.64881E-04 3.45218E-03 8.37798E-04 5.00518E-04
 -1     24131-9.66383E-02 9.55857E-02 1.06413E-03 1.48099E-01 6.75036E-04-5.89492E-04
 -1     24132-9.51987E-02 9.50765E-02 1.48158E-04 1.52335E-01 2.54775E-03-6.59796E-04
 -1     24133-8.05706E-02 8.30010E-02-2.29824E-03 1.28913E-01 4.73520E-04 6.65059E-04
 -1     24134-1.42507E-01 1.42457E-01-1.60951E-05-9.43878E-02 1.53123E-04 2.77766E-04
 -1     24135-1.41539E-01 1.41818E-01-3.37570E-04-9.28324E-02 2.62634E-04 1.60615E-04
 -1     24136-6.68335E-02 6.72610E-02-4.88370E-04 6.12476E-02 6.69319E-04-1.32384E-03
 -1     24137-1.09046E-01 1.09627E-01-6.19248E-04-3.48541E-02 1.12445E-03 7.91874E-04
 -1     24138-1.03414E-01 1.03922E-01-5.41316E-04-2.95024E-02 1.84391E-05 1.38921E-04
 -1     24139-1.24515E-01 1.24156E-01 3.23249E-04-6.01264E-02-5.82873E-04-3.00749E-04
 -1     24140-1.21426E-01 1.20359E-01 1.02096E-03-5.71900E-02-6.40356E-06-9.75119E-05
 -1     24141-7.62749E-02 8.01301E-02-3.74429E-03 2.37057E-02 2.86149E-03-1.96386E-03
 -1     24142-9.69512E-02 1.06680E-01-9.83291E-03 3.36752E-02 4.28613E-03 3.53504E-03
 -1     24143-1.33170E-01 1.33821E-01-7.04230E-04-7.77251E-02 8.85260E-04 5.81597E-05
 -1     24144-1.31773E-01 1.32050E-01-3.25780E-04-7.37870E-02 8.46489E-04-3.09346E-04
 -1     24145-1.00697E-01 9.96361E-02 1.04973E-03-1.81685E-02-1.29659E-04 4.42564E-04
 -1     24146-9.33212E-02 9.21110E-02 1.19290E-03-1.16333E-02 5.75534E-05 1.15873E-04
 -1     24147-9.40610E-02 9.37664E-02 2.48463E-04-1.76887E-03 4.18447E-04 1.36398E-05
 -1     24148-1.40146E-01 1.40070E-01 1.15000E-05-9.02776E-02 1.60668E-04 1.58779E-04
 -1     24149-1.38058E-01 1.38021E-01-2.30123E-05-8.78512E-02-7.11731E-06 2.83776E-04
 -1     24150-1.30286E-01 1.30068E-01 1.50484E-04-7.78958E-02-1.18289E-04-4.83917E-05
 -1     24151-1.29715E-01 1.29343E-01 3.27318E-04-7.03224E-02 5.68057E-04-1.62644E-04
 -1     24152-1.26972E-01 1.26613E-01 3.15136E-04-6.65566E-02 1.28411E-04-2.45194E-04
 -1     24153-1.16780E-01 1.16806E-01-9.89863E-05-4.58343E-02-4.48923E-04-2.90107E-04
 -1     24154-1.21324E-01 1.21351E-01-1.01419E-04-5.55497E-02 4.75469E-04-4.02877E-04
 -1     24155-1.45222E-01 1.45039E-01 1.13277E-04-9.81851E-02 2.06816E-04 6.56391E-05
 -1     24156-1.43164E-01 1.43252E-01-1.50832E-04-9.67776E-02-1.18804E-04 2.93498E-04
 -1     24157-1.35215E-01 1.34743E-01 4.04655E-04-8.70048E-02 8.48155E-05-2.92519E-04
 -1     24158-1.36715E-01 1.36843E-01-1.86286E-04-8.41272E-02-4.04452E-05 4.52150E-04
 -1     24159-1.34720E-01 1.35047E-01-3.82124E-04-8.13892E-02 3.01741E-04 9.75379E-05
 -1     24160-1.24896E-01 1.25000E-01-1.66601E-04-6.43464E-02 4.39352E-04 5.96181E-04
 -1     24161-1.26677E-01 1.26917E-01-3.08078E-04-7.09146E-02-9.28067E-05 2.19890E-04
 -1     24162-1.50272E-01 1.49822E-01 3.74035E-04-1.03067E-01 2.20077E-04 2.35877E-05
 -1     24163-1.48465E-01 1.48422E-01-2.85728E-05-1.02281E-01-1.14906E-04 3.93223E-04
 -1     24164-1.41211E-01 1.40614E-01 5.31266E-04-9.20289E-02 1.43820E-04 5.03552E-05
 -1     24165-7.31190E-02 6.87670E-02 4.32997E-03 9.70037E-02 8.88986E-04-2.93226E-03
 -1     24166-8.42966E-02 7.88975E-02 5.38923E-03 1.03989E-01 1.30004E-03-2.62749E-03
 -1     24167-6.47823E-02 6.43501E-02 5.13076E-04 9.65015E-02-5.67000E-04 1.11841E-03
 -1     24168-6.12228E-02 6.54223E-02-4.11904E-03 4.45201E-02 2.39374E-03 1.39490E-03
 -1     24169-1.64405E-01 1.64043E-01 2.86588E-04-1.07894E-01-1.83579E-04 5.91071E-04
 -1     24170-1.61521E-01 1.60365E-01 1.07315E-03-1.06736E-01-1.63455E-03-9.20007E-04
 -1     24171-1.83158E-01 1.81696E-01 1.30538E-03-1.07779E-01-1.58399E-03 2.44292E-03
 -1     24172-1.80127E-01 1.77894E-01 2.12564E-03-1.06018E-01-1.93077E-03 2.85344E-03
 -1     24173-2.20308E-01 2.17185E-01 2.96418E-03-6.88590E-02-4.20501E-03 6.37239E-04
 -1     24174-2.02909E-01 2.02489E-01 3.61065E-04-8.63299E-02-2.01787E-03 3.93215E-03
 -1     24175-1.71356E-02 1.65302E-02 6.50465E-04 1.60438E-03 2.67676E-03 2.11242E-03
 -1     24176-2.57181E-02 2.31010E-02 2.49256E-03 5.39947E-03 3.39255E-03 1.92251E-03
 -1     24177-2.56336E-01 2.38709E-01 1.76377E-02 4.21339E-02 9.10506E-03 1.49337E-02
 -1     24178-2.09515E-01 2.09850E-01-3.91880E-04-4.98537E-02 1.63308E-02-8.04246E-03
 -1     24179-1.88790E-01 1.91052E-01-2.32939E-03-3.46180E-02-1.21012E-03-6.97045E-03
 -1     24180-1.48210E-01 1.47389E-01 6.51856E-04 2.31055E-02 8.96550E-03-2.53852E-04
 -1     24181 3.91963E-02-3.82821E-02-8.86690E-04 4.58052E-02 3.03304E-04 4.16288E-04
 -1     24182 3.75331E-02-3.56788E-02-1.81099E-03 3.97884E-02 5.64651E-04-1.58870E-03
 -1     24183 2.67470E-02-2.84367E-02 1.71804E-03 1.55658E-02 1.06326E-04 3.84112E-04
 -1     24184 2.30232E-02-2.28331E-02-3.05282E-04 1.17470E-02-8.66933E-05 9.43814E-04
 -1     24185 3.85176E-02-3.95768E-02 1.06770E-03 7.15922E-02-5.72845E-04 2.93223E-04
 -1     24186 3.94595E-02-4.06108E-02 1.18954E-03 6.39708E-02-1.31105E-03 1.38494E-03
 -1     24187 1.73889E-02-1.74627E-02 7.38046E-05 8.58588E-03 2.94934E-04 2.04777E-05
 -1     24188 1.32129E-02-1.35512E-02 2.61722E-04 5.13408E-03 1.87906E-04-8.63237E-04
 -1     24189 2.55572E-02-2.61630E-02 6.23267E-04 2.53701E-02 1.14755E-03 4.53471E-04
 -1     24190 3.74911E-02-3.91101E-02 1.66890E-03 5.82398E-02-1.04159E-03 2.60265E-03
 -1     24191 3.77734E-02-3.72963E-02-4.57624E-04 5.22185E-02-1.66092E-04 1.98425E-03
 -1     24192 4.66103E-02-4.66141E-02 1.09947E-04 5.82123E-02 2.07456E-04 8.76892E-04
 -1     24193 4.75661E-02-4.84073E-02 9.52317E-04 6.73978E-02-1.51317E-03 9.85063E-04
 -1     24194 2.95211E-02-3.01599E-02 6.80178E-04 9.39586E-02 1.09722E-06-9.55007E-05
 -1     24195 3.15881E-02-3.28261E-02 1.28799E-03 8.84639E-02-1.70062E-04-2.69714E-04
 -1     24196 1.84016E-02-1.80061E-02-3.62950E-04 1.09966E-01-6.94701E-05 1.39404E-04
 -1     24197 2.12165E-02-2.10713E-02-8.29059E-05 1.07184E-01-5.76089E-04 5.81066E-04
 -1     24198 5.50938E-03-6.04656E-03 5.79497E-04 1.15948E-01-2.96805E-04-1.91800E-04
 -1     24199 7.93210E-03-7.79428E-03-8.28213E-05 1.14675E-01-1.45756E-04-3.09490E-04
 -1     24200 1.10099E-02-9.54012E-03-1.41902E-03 1.14831E-01-5.67413E-05 4.07173E-04
 -1     24201 7.94206E-03-8.00037E-03 1.08160E-04 1.14951E-01-3.46036E-04 8.46778E-05
 -1     24202 3.85403E-03-5.00922E-03 1.20611E-03 1.16417E-01-2.19897E-04 2.03948E-05
 -1     24203-6.30170E-02 6.38481E-02-8.41404E-04 3.01994E-02-3.86542E-04 1.92710E-03
 -1     24204 2.79601E-03-2.56228E-03-1.89997E-04 1.19430E-01 9.08994E-05-4.02454E-04
 -1     24205-9.89643E-02 9.81870E-02 7.91535E-04 1.62527E-01 2.43834E-03 1.30493E-04
 -1     24206-9.59238E-02 9.53670E-02 5.71582E-04 1.66115E-01 1.63817E-04 3.25996E-04
 -1     24207-9.15261E-02 9.28166E-02-1.21246E-03 1.50775E-01-3.16875E-04-6.31762E-04
 -1     24208 1.66940E-02-1.68600E-02 2.14467E-04 1.15569E-01-1.99683E-05-4.25352E-05
 -1     24209 1.33292E-02-1.27523E-02-5.19125E-04 1.15041E-01 2.97757E-04 7.94999E-04
 -1     24210 1.33110E-02-1.16154E-02-1.65620E-03 1.15175E-01-1.24243E-04 1.15681E-04
 -1     24211 2.19108E-02-2.18381E-02-2.80405E-05 1.14693E-01 2.89953E-04-1.63291E-04
 -1     24212 3.74290E-02-3.86253E-02 1.18689E-03 3.54783E-02 3.06294E-03-2.56010E-03
 -1     24213 3.64937E-02-3.88389E-02 2.38812E-03 2.88801E-02 2.82567E-03-7.16070E-04
 -1     24214 4.79066E-02-4.73123E-02-5.55474E-04 4.60874E-02 2.20720E-03-2.25495E-03
 -1     24215-7.21465E-02 7.32611E-02-1.12321E-03 1.53684E-02-1.32428E-04-1.39120E-04
 -1     24216-6.92945E-02 6.81799E-02 1.14784E-03 2.11759E-02-3.06530E-04 1.08080E-03
 -1     24217-7.26099E-02 7.13866E-02 1.14714E-03 3.71369E-02 8.56224E-04-5.16860E-04
 -1     24218 8.64184E-03-9.37010E-03 8.08456E-04 2.12025E-01 1.24416E-05 6.99815E-05
 -1     24219 5.01471E-03-4.84406E-03-7.92454E-05 1.94812E-01-2.37918E-04-1.00758E-04
 -1     24220 6.60912E-03-6.38208E-03-1.46639E-04 2.10210E-01 1.05927E-04-2.38826E-04
 -1     24221 3.42932E-02-3.38209E-02-4.22180E-04 1.23379E-01 7.82852E-05 8.12275E-05
 -1     24222 3.10117E-02-3.14180E-02 4.64791E-04 1.21055E-01 8.08971E-05-2.99492E-04
 -1     24223 4.49556E-02-4.44477E-02-4.44395E-04 1.40641E-01 2.43531E-04 2.36611E-04
 -1     24224 4.33464E-02-4.32128E-02-7.09121E-05 1.35442E-01 1.82744E-04-4.10674E-04
 -1     24225 4.84454E-02-4.83497E-02-3.13658E-05 1.61146E-01-1.42501E-04-5.49118E-04
 -1     24226 4.75092E-02-4.78051E-02 3.65077E-04 1.56085E-01-1.33308E-05-1.27961E-04
 -1     24227 4.61346E-02-4.59526E-02-1.14286E-04 1.83037E-01-2.81231E-04 3.47577E-05
 -1     24228 4.79325E-02-4.78870E-02 2.56487E-05 1.77357E-01 3.87048E-05-2.88455E-04
 -1     24229 4.00952E-02-4.01228E-02 1.01292E-04 2.00343E-01-3.24602E-05 2.00408E-04
 -1     24230 4.25071E-02-4.27763E-02 3.37232E-04 1.95481E-01 7.64004E-05-4.88781E-05
 -1     24231 3.21919E-02-3.28654E-02 7.56253E-04 2.11306E-01 1.46913E-04-3.44344E-04
 -1     24232 3.43347E-02-3.49024E-02 6.32363E-04 2.08717E-01-7.62406E-05-3.10682E-04
 -1     24233 2.64403E-02-2.63102E-02-4.46422E-05 2.17428E-01 2.87053E-04 2.55542E-04
 -1     24234 2.80594E-02-2.76218E-02-3.65966E-04 2.16645E-01 5.66067E-04-1.91960E-04
 -1     24235 1.97517E-02-2.00384E-02 3.66036E-04 2.18848E-01 2.08118E-06-7.43155E-05
 -1     24236 2.06429E-02-2.08928E-02 3.31874E-04 2.19150E-01 4.91582E-05-1.29973E-04
 -1     24237 1.42959E-02-1.37065E-02-5.09311E-04 2.17074E-01-9.78490E-05 1.36334E-04
 -1     24238 1.57855E-02-1.54813E-02-2.22843E-04 2.17553E-01 3.42700E-05-3.57813E-04
 -1     24239 1.57496E-04 4.73226E-04-5.54415E-04 1.91698E-01-1.21042E-04-4.52063E-04
 -1     24240 3.21934E-02-3.27849E-02 6.28999E-04 1.18034E-01 1.38144E-06 1.83778E-04
 -1     24241-3.19630E-03 2.20643E-03 1.05453E-03 1.97855E-01 2.88015E-04-7.59595E-04
 -1     24242-6.27410E-05 3.09408E-04-1.67094E-04 2.01530E-01-1.49122E-04 1.98713E-04
 -1     24243-1.81993E-02 1.80631E-02 1.88923E-04 1.83438E-01 2.10014E-03 1.44149E-05
 -1     24244-1.49284E-02 1.51939E-02-1.93747E-04 1.88899E-01 1.47544E-03-1.75113E-04
 -1     24245-5.53481E-02 5.46005E-02 7.94048E-04 1.61714E-01 4.30786E-04 6.22159E-04
 -1     24246-4.29671E-02 4.27858E-02 2.57899E-04 1.69342E-01 6.67054E-04 6.64449E-04
 -1     24247-9.16721E-02 9.20673E-02-3.45444E-04 1.63219E-01 5.28683E-04 2.90218E-04
 -1     24248-8.46642E-02 8.40058E-02 6.11005E-04 1.81844E-02 8.12500E-04-2.13904E-04
 -1     24249 1.30532E-02-1.28529E-02-1.06078E-04 2.01143E-01-4.54072E-04-4.69718E-04
 -1     24250 2.08445E-02-2.04197E-02-3.26144E-04 2.03132E-01-3.01677E-04-2.10065E-04
 -1     24251-1.31995E-01 1.32218E-01-2.91635E-04-8.27119E-02 1.97630E-05-1.56044E-04
 -1     24252-1.13846E-01 1.13733E-01 7.02112E-05-4.42591E-02-5.23748E-04 3.72754E-04
 -1     24253-1.06283E-01 1.05035E-01 1.18643E-03-2.14988E-02 4.41319E-04 1.89484E-04
 -1     24254-1.18353E-01 1.18467E-01-1.28647E-04-5.30662E-02-6.90960E-04 8.60892E-05
 -1     24255 2.97394E-02-2.96485E-02 3.32314E-06 2.01936E-01 7.77935E-04-1.98131E-04
 -1     24256-1.10456E-01 1.09689E-01 6.77369E-04-3.53565E-02-3.71220E-04 2.15255E-04
 -1     24257-1.37136E-01 1.37027E-01 4.05912E-05-8.98675E-02-8.16792E-05-2.69111E-05
 -1     24258 3.91438E-02-3.97488E-02 7.00463E-04 1.95292E-01-1.14375E-04-1.13757E-04
 -1     24259 4.87219E-02-4.92967E-02 6.62933E-04 1.83077E-01 2.52493E-05 5.81046E-05
 -1     24260 5.46895E-02-5.52832E-02 6.66675E-04 1.66770E-01 3.65419E-04-2.86363E-04
 -1     24261 5.61045E-02-5.59469E-02-1.11437E-04 1.47357E-01 1.52836E-04-9.49534E-05
 -1     24262-1.49148E-01 1.62443E-01-1.34416E-02 8.90581E-03 9.00695E-03-1.97334E-03
 -1     24263-2.75779E-03-2.31177E-04 2.87172E-03 6.86255E-03-1.64133E-05 2.69901E-03
 -1     24264-1.62940E-02 1.36710E-02 2.56817E-03 1.95689E-02 3.22050E-05 9.16448E-04
 -1     24265 3.91447E-03-6.26267E-03 2.36391E-03 3.67610E-03-8.38212E-04-5.34705E-04
 -1     24266 2.76964E-02-2.76979E-02 7.35464E-05 9.80885E-02 3.15414E-04-2.36846E-05
 -1     24267 3.67089E-02-3.62307E-02-4.06758E-04 9.83056E-02 1.59162E-04-2.43300E-04
 -1     24268 2.52740E-02-2.66241E-02 1.38496E-03 1.02672E-01 1.11874E-04 5.48210E-04
 -1     24269-1.96169E-01 1.92527E-01 3.60747E-03-1.00258E-01-4.06100E-03 2.40876E-03
 -1     24270-1.83578E-01 1.79563E-01 4.02357E-03-8.65846E-02-1.87401E-03 1.14464E-04
 -1     24271-2.05675E-01 1.98426E-01 7.15068E-03-9.80366E-02-6.38026E-03 4.44001E-03
 -1     24272-1.57727E-01 1.57902E-01-2.54940E-04-1.05716E-01 1.61970E-04-5.18881E-04
 -1     24273-1.55257E-01 1.55611E-01-4.27592E-04-1.05745E-01-2.61926E-04 2.18365E-05
 -1     24274-1.70569E-01 1.70981E-01-5.19636E-04-1.07670E-01-3.23214E-04 4.76114E-04
 -1     24275-1.67814E-01 1.68425E-01-6.89349E-04-1.08537E-01 2.48579E-03 9.88284E-04
 -1     24276-1.97567E-01 1.91824E-01 5.66672E-03-6.89811E-02-6.58842E-03 2.32012E-03
 -1     24277-1.44431E-01 1.44200E-01 1.62848E-04-9.34179E-02-1.08280E-04 1.92716E-04
 -1     24278-3.76184E-02 3.82763E-02-7.29859E-04 9.46098E-03 1.85815E-03-8.55327E-04
 -1     24279-5.04609E-02 5.08393E-02-4.07797E-04 1.62002E-02 3.97705E-04-7.62692E-04
 -1     24280 2.98378E-02-3.09761E-02 1.10261E-03 1.90019E-02 6.46186E-04 4.51312E-04
 -1     24281 3.23836E-02-3.23642E-02 2.21888E-05 3.06353E-02 8.93342E-04 1.30420E-04
 -1     24282 3.28863E-02-3.40960E-02 1.22194E-03 2.42344E-02 9.88260E-04-3.06063E-04
 -1     24283 4.90698E-02-4.91200E-02 9.73043E-05 1.30059E-01 2.88819E-04 1.78932E-04
 -1     24284 1.31243E-02-1.32838E-02 1.59374E-04 2.17321E-02 3.79508E-04-6.21426E-04
 -1     24285-5.63052E-03 5.95052E-03-2.35502E-04 1.86116E-01-1.12765E-04 1.99726E-04
 -1     24286 3.29316E-02-3.33398E-02 4.42752E-04 8.38116E-02 6.31206E-04-8.49156E-04
 -1     24287 3.52719E-02-3.38616E-02-1.40579E-03 7.73476E-02 1.78658E-03-8.59849E-04
 -1     24288 3.05116E-02-3.03142E-02-1.26767E-04 1.05738E-01 4.54339E-04-1.39890E-05
 -1     24289 1.35460E-02-1.23202E-02-1.16909E-03 1.14671E-01-5.27568E-04-3.53253E-04
 -1     24290 1.11471E-02-1.13448E-02 2.32001E-04 1.14041E-01 5.81589E-05-2.57490E-04
 -1     24291 1.44421E-02-1.48160E-02 4.43972E-04 1.11338E-01 1.79550E-04-8.01733E-05
 -1     24292 1.72651E-02-1.62356E-02-9.62735E-04 1.14415E-01-1.79724E-04-3.58724E-04
 -1     24293 5.37489E-02-5.36628E-02-4.59889E-05 1.38290E-01 3.80455E-04 2.36128E-05
 -1     24294-7.68713E-02 7.63435E-02 5.75890E-04 1.59548E-01-4.98241E-04 5.00293E-04
 -1     24295-6.16287E-02 6.11311E-02 3.66511E-04 6.08751E-02-8.34539E-04 9.69772E-04
 -1     24296 8.80753E-03-8.14047E-03-5.72658E-04 1.98768E-01-1.46984E-04-7.56550E-05
 -1     24297 1.60704E-02-1.65319E-02 5.60245E-04 2.02461E-01-2.21761E-04-7.72958E-04
 -1     24298 2.50223E-02-2.53859E-02 4.59594E-04 2.01535E-01 1.95168E-04 6.26908E-04
 -1     24299 4.46252E-02-4.47882E-02 2.53741E-04 1.89854E-01-3.15718E-05 2.81294E-04
 -1     24300 5.24192E-02-5.28325E-02 4.90984E-04 1.75581E-01 3.08172E-05-1.73754E-04
 -1     24301 4.68146E-02-4.62425E-02-4.79150E-04 7.93620E-02 2.78583E-05 4.01651E-04
 -1     24302-8.02678E-02 8.08355E-02-6.46214E-04 2.59330E-02 9.52571E-05 3.80036E-04
 -1     24303 3.40139E-02-3.45638E-02 6.46975E-04 1.97680E-01-6.19401E-05-2.81190E-04
 -1     24304-1.57551E-01 1.56130E-01 1.38531E-03-9.46582E-02-5.49621E-04 6.00801E-04
 -1     24305 5.69876E-02-5.67902E-02-1.35860E-04 1.57031E-01 7.09933E-05-7.72622E-06
 -1     24306-5.45215E-02 5.38140E-02 7.56709E-04 1.60109E-01 7.77448E-04 9.20690E-04
 -1     24307-2.22215E-02 2.26902E-02-3.87023E-04 1.75605E-01 2.87232E-04 3.48764E-04
 -1     24308 4.18750E-02-4.18959E-02 6.64451E-05 1.22179E-01 4.07971E-05 2.63198E-04
 -1     24309-3.48056E-02 3.64226E-02-1.55088E-03 1.67663E-01 5.95139E-04 2.86906E-04
 -1     24310-1.28535E-02 1.29406E-02-1.22078E-06 1.79514E-01 4.49460E-05 4.29004E-04
 -1     24311-1.65575E-01 1.66426E-01-8.46929E-04-9.08602E-02-2.00059E-03-1.06222E-03
 -1     24312 2.12744E-02-2.01190E-02-1.09713E-03 1.11957E-01-3.10049E-04 1.66996E-04
 -1     24313-1.49713E-01 1.49719E-01-7.44653E-05-9.44944E-02 1.40477E-04-5.22992E-04
 -1     24314 4.14840E-02-4.21246E-02 6.78531E-04 3.89218E-02 6.57190E-04-3.80094E-04
 -1     24315-4.08800E-02 4.03423E-02 4.54295E-04 1.98358E-02 3.46154E-04 4.43863E-04
 -1     24316 4.09224E-02-4.13960E-02 5.44262E-04 8.86292E-02 8.98404E-05-1.45008E-04
 -1     24317-3.86641E-02 4.02634E-02-1.63517E-03 2.54135E-02 1.14998E-03-1.43927E-03
 -1     24318-5.27512E-02 5.23273E-02 3.53293E-04 2.72535E-02 4.02612E-04-1.35668E-03
 -1     24319-4.66083E-02 4.74341E-02-7.82035E-04 1.55937E-01 4.42531E-04 1.56279E-03
 -1     24320-3.73663E-02 3.92365E-02-1.80582E-03 1.60584E-01 9.14509E-04 1.17586E-05
 -1     24321 1.38985E-02-1.39883E-02 8.10778E-05 3.13530E-02 9.20479E-04-2.38911E-04
 -1     24322 6.23297E-03-6.92772E-03 6.56579E-04 3.11801E-02 5.02958E-04-2.19006E-04
 -1     24323-8.72576E-02 8.64704E-02 8.24920E-04 1.54240E-01 2.21387E-04-1.22589E-04
 -1     24324-7.67057E-02 7.52830E-02 1.47289E-03 1.51851E-01-4.62071E-04 2.32010E-04
 -1     24325-6.58476E-02 6.42352E-02 1.65103E-03 1.51182E-01 6.32192E-04 5.35716E-04
 -1     24326-5.55199E-02 5.44779E-02 1.11064E-03 1.52517E-01 8.41897E-04 8.84306E-04
 -1     24327-5.61167E-02 5.58415E-02 3.19047E-04 1.44004E-01 2.98676E-04 2.01700E-04
 -1     24328-7.45741E-02 7.34088E-02 1.19957E-03 1.42397E-01-2.54391E-04-1.88248E-05
 -1     24329 6.17646E-02-6.15389E-02-1.62757E-04 1.44110E-01-4.37222E-05-1.97035E-04
 -1     24330 6.14447E-02-6.13408E-02-3.18346E-05 1.39408E-01 4.79801E-04-3.48235E-04
 -1     24331 5.19185E-02-5.12386E-02-6.40133E-04 8.68314E-02-2.35161E-04-3.63971E-04
 -1     24332 5.38312E-02-5.60575E-02 2.25390E-03 8.15956E-02-1.45115E-03 2.38912E-04
 -1     24333 5.96511E-02-5.99801E-02 3.84927E-04 1.61231E-01 1.44591E-04 1.17801E-04
 -1     24334 6.10220E-02-6.12163E-02 2.57384E-04 1.56555E-01 1.63905E-04-5.85106E-05
 -1     24335 5.12409E-02-5.04067E-02-7.72688E-04 1.75139E-01-4.46718E-04 1.29559E-04
 -1     24336 5.36702E-02-5.32128E-02-3.98003E-04 1.72304E-01-3.96995E-04 4.44165E-05
 -1     24337-1.51073E-01 1.50024E-01 9.70900E-04-8.09991E-02-4.36316E-04 1.31487E-04
 -1     24338-1.45578E-01 1.45532E-01-1.84458E-05-8.06422E-02-3.32174E-04-3.19716E-05
 -1     24339-1.05333E-01 1.06498E-01-1.18368E-03-2.15245E-02-4.43356E-04 7.73794E-04
 -1     24340-1.01647E-01 1.01369E-01 2.53175E-04-1.47149E-02 2.11027E-04 7.74624E-04
 -1     24341-1.22914E-01 1.22837E-01 2.28037E-05-7.10267E-02 3.56037E-05-1.51940E-04
 -1     24342-1.22214E-01 1.22010E-01 1.57539E-04-6.86180E-02 2.72827E-05 6.90728E-05
 -1     24343 2.22967E-02-2.29729E-02 7.48475E-04 1.87779E-01-6.09742E-05 8.18373E-05
 -1     24344 2.53691E-02-2.59045E-02 5.95224E-04 1.88125E-01 4.18695E-04 1.03930E-04
 -1     24345 1.25833E-02-1.31531E-02 6.38032E-04 1.86365E-01-8.29021E-05-7.08534E-04
 -1     24346 1.48797E-02-1.49014E-02 8.96048E-05 1.87141E-01-1.21525E-04-4.76567E-04
 -1     24347-7.14995E-03 7.24528E-03-4.03556E-05 1.73277E-01 9.56903E-05-1.52058E-04
 -1     24348-6.24460E-03 6.06899E-03 2.40523E-04 1.75161E-01-3.99189E-04-1.81436E-04
 -1     24349 4.76160E-02-4.74491E-02-1.01358E-04 1.20239E-01 1.77940E-04-2.75791E-04
 -1     24350 4.34065E-02-4.28102E-02-5.27363E-04 1.18244E-01 3.67818E-04 2.49786E-04
 -1     24351-2.31266E-02 2.21524E-02 1.01622E-03 1.63329E-01 5.05269E-06-2.90157E-04
 -1     24352-1.90712E-02 1.84256E-02 7.04809E-04 1.65709E-01 6.90653E-05-1.02997E-04
 -1     24353-3.34995E-02 3.48671E-02-1.32268E-03 1.61075E-01 2.71506E-05-2.63305E-04
 -1     24354-2.64805E-02 2.80544E-02-1.51532E-03 1.62272E-01-6.31196E-04 7.84995E-04
 -1     24355-4.24841E-02 4.29103E-02-3.79104E-04 1.47734E-01-1.92907E-04-1.23154E-04
 -1     24356-7.09282E-02 6.96559E-02 1.28025E-03 8.21335E-02-4.71980E-04-8.79886E-04
 -1     24357-8.94446E-02 8.93052E-02 1.51841E-04 1.55875E-01 1.44886E-04 2.31636E-04
 -1     24358 5.96830E-02-6.00779E-02 4.58745E-04 1.36242E-01 2.60280E-04-3.08320E-04
 -1     24359 5.79344E-02-5.82575E-02 3.93261E-04 1.31653E-01 2.53127E-04-2.06864E-04
 -1     24360 6.46460E-02-6.47477E-02 1.51046E-04 1.33057E-01 1.09229E-04-3.95588E-04
 -1     24361-1.27880E-01 1.28091E-01-2.75189E-04-7.80395E-02 1.18908E-04 8.95030E-05
 -1     24362-1.27014E-01 1.26983E-01-2.65785E-05-7.65954E-02 5.75977E-05 1.27214E-04
 -1     24363 4.95635E-02-5.00742E-02 5.33435E-04 5.01706E-02 1.08406E-03-4.99437E-04
 -1     24364 4.55374E-02-4.50413E-02-4.89775E-04 4.56473E-02 6.00685E-04-5.37003E-04
 -1     24365 2.84439E-02-2.84397E-02 6.71532E-05 1.88078E-01 3.11701E-04 1.56821E-05
 -1     24366 3.04279E-02-3.03765E-02 1.21727E-05 1.86509E-01 2.07938E-04 1.59497E-04
 -1     24367 2.59825E-02-2.62494E-02 3.46143E-04 1.73139E-01 5.70291E-05-1.40442E-04
 -1     24368-1.43691E-02 1.40607E-02 3.62089E-04 1.68070E-01-3.13705E-04-2.26615E-05
 -1     24369-1.05568E-02 1.08695E-02-2.54226E-04 1.71009E-01-5.67137E-05 2.67281E-05
 -1     24370-2.46670E-02 2.47682E-02-3.46574E-05 1.51934E-01-2.64820E-04 1.26029E-04
 -1     24371-1.00447E-01 9.98293E-02 6.12713E-04-4.96741E-03 5.97113E-04 8.57342E-04
 -1     24372-9.65172E-02 9.59688E-02 5.26007E-04-1.36963E-04 1.15608E-04 4.19380E-05
 -1     24373-9.65212E-02 9.66999E-02-2.28908E-04 7.52674E-03-3.22433E-04 5.38783E-04
 -1     24374-1.20697E-01 1.20759E-01-1.12884E-04-6.51944E-02 1.22708E-05-3.77352E-05
 -1     24375-1.19280E-01 1.19212E-01 2.24365E-05-6.25590E-02-4.10874E-05 2.73989E-05
 -1     24376-1.11647E-01 1.11430E-01 1.60001E-04-5.32006E-02-7.73709E-05-2.47589E-05
 -1     24377-1.35842E-01 1.35962E-01-1.89602E-04-8.05530E-02 2.52637E-04 6.89425E-05
 -1     24378-1.33639E-01 1.33449E-01 1.28129E-04-8.01775E-02 2.11333E-04 2.73903E-04
 -1     24379 6.18323E-02-6.16199E-02-1.54403E-04 1.52942E-01 1.77923E-04-1.07602E-04
 -1     24380 6.26221E-02-6.23066E-02-2.50708E-04 1.48991E-01 8.98681E-06-3.70369E-04
 -1     24381 6.64738E-02-6.64436E-02 2.84977E-05 1.47676E-01 1.05651E-04-5.03977E-05
 -1     24382-1.81896E-01 1.74908E-01 6.88405E-03-4.41254E-02-3.00300E-03 2.49438E-03
 -1     24383-1.76204E-01 1.70155E-01 6.07177E-03-5.61408E-02-1.02957E-03 3.00448E-03
 -1     24384 4.10791E-02-4.07553E-02-3.05054E-04 4.06940E-02 7.73798E-04-2.07217E-04
 -1     24385 3.54670E-02-3.55328E-02 4.61425E-05 3.68820E-02 8.15467E-04-1.83142E-04
 -1     24386 4.84427E-02-4.81788E-02-2.26182E-04 5.39902E-02 4.94520E-04-2.32679E-04
 -1     24387-1.77330E-01 1.80944E-01-3.68288E-03-1.99634E-02 4.24665E-03-6.37965E-03
 -1     24388-1.75408E-01 1.72137E-01 3.26110E-03-2.93401E-02 2.01406E-03-1.48565E-03
 -1     24389-1.63367E-01 1.57663E-01 5.53052E-03-2.40173E-02 1.93161E-03 3.84987E-03
 -1     24390-1.28922E-01 1.36584E-01-7.85112E-03 1.85363E-02 5.09240E-03 4.15502E-03
 -1     24391 4.13554E-02-4.17175E-02 3.97514E-04 1.02770E-01-1.59974E-05-7.02974E-05
 -1     24392 4.37006E-02-4.33609E-02-2.90637E-04 9.84672E-02-7.06255E-05-3.90555E-04
 -1     24393 3.99581E-02-3.89265E-02-9.61742E-04 1.83733E-01-1.49662E-04 6.49429E-04
 -1     24394 4.36163E-02-4.23211E-02-1.24486E-03 1.82716E-01-4.74752E-05 7.75128E-04
 -1     24395-1.42045E-01 1.41619E-01 3.56521E-04-8.09984E-02-9.46047E-05 3.84686E-05
 -1     24396-1.39465E-01 1.39377E-01 2.39897E-05-8.02652E-02 2.73273E-04-1.67237E-05
 -1     24397-1.34709E-01 1.34576E-01 6.92336E-05-6.72131E-02-2.28720E-04-3.13543E-06
 -1     24398 5.58023E-02-5.64777E-02 7.31026E-04 1.28145E-01 3.03357E-04-3.17998E-04
 -1     24399 5.22094E-02-5.17749E-02-3.69277E-04 1.23704E-01 3.59724E-04-2.12479E-04
 -1     24400 5.33710E-02-5.34305E-02 1.04126E-04 1.17446E-01 3.39656E-04-2.56289E-04
 -1     24401 6.08066E-02-6.12972E-02 5.36209E-04 1.25220E-01 3.53757E-04-5.39786E-04
 -1     24402-1.74298E-01 1.72407E-01 1.73787E-03-6.64938E-02-1.93067E-03 8.69480E-04
 -1     24403-1.64900E-01 1.64401E-01 4.06521E-04-7.19801E-02-6.55245E-04-9.85259E-04
 -1     24404-1.61717E-01 1.56744E-01 4.86261E-03-4.57318E-02 1.42722E-03 6.13071E-03
 -1     24405 3.75420E-02-3.79364E-02 4.36933E-04 1.15522E-01-1.53094E-05 3.77814E-04
 -1     24406 3.33918E-02-3.32887E-02-4.03345E-05 1.13006E-01-4.08964E-05-3.32683E-04
 -1     24407 4.29834E-02-4.31241E-02 1.78509E-04 1.13706E-01-1.96853E-04 5.67160E-04
 -1     24408-8.49812E-02 8.53915E-02-4.32685E-04 1.36875E-01-6.70247E-04-7.81141E-04
 -1     24409-8.63258E-02 8.65036E-02-1.60970E-04 1.42666E-01-3.58109E-04-3.12653E-04
 -1     24410 3.15558E-03-2.93666E-03-1.58134E-04 1.81627E-01 5.93458E-04 1.85519E-05
 -1     24411 5.60149E-03-5.12740E-03-4.08743E-04 1.83184E-01 9.60667E-05 3.98615E-04
 -1     24412-8.36970E-02 8.35394E-02 1.64302E-04 4.23619E-02 4.12961E-04 4.37658E-04
 -1     24413-7.82755E-02 7.89907E-02-6.89179E-04 4.92014E-02 1.01430E-03-5.32753E-05
 -1     24414-1.38360E-03 1.91983E-03-4.73485E-04 1.77587E-01 2.74429E-06 2.34382E-04
 -1     24415 5.47270E-04-7.74485E-04 2.89999E-04 1.79566E-01 5.34086E-04 5.04177E-05
 -1     24416-2.77231E-03 2.38604E-03 4.64057E-04 1.64971E-01 9.68804E-04 6.75348E-05
 -1     24417-8.99481E-03 9.27916E-03-2.00894E-04 1.60240E-01-7.52662E-05 1.84029E-04
 -1     24418 2.86279E-02-2.86051E-02-1.35580E-05 3.37718E-02 7.58834E-04-3.31798E-04
 -1     24419 2.36763E-02-2.40002E-02 3.06227E-04 3.28026E-02 8.87630E-04-8.66636E-06
 -1     24420 1.77880E-02-1.79237E-02 1.32917E-04 4.34107E-02 5.05645E-04 2.56280E-04
 -1     24421 3.58688E-02-3.56120E-02-2.37412E-04 4.77182E-02 4.21787E-04-1.08227E-04
 -1     24422-7.96529E-03 7.55733E-03 3.82026E-04 3.01293E-02 5.67218E-04-9.86874E-04
 -1     24423-2.35515E-02 2.37293E-02-2.00563E-04 2.74468E-02 3.49896E-04-9.21107E-04
 -1     24424-3.47935E-02 3.49268E-02-1.79397E-04 3.40963E-02 3.23355E-05-1.69430E-03
 -1     24425-5.02570E-03 4.81550E-03 1.85309E-04 3.88594E-02 4.04613E-04 1.23696E-05
 -1     24426-9.21991E-02 9.26158E-02-4.28030E-04 1.97797E-02-1.70710E-04 4.10273E-04
 -1     24427-8.62980E-02 8.62885E-02 9.47460E-06 3.03786E-02 4.45094E-05-2.37695E-04
 -1     24428-8.30050E-02 8.36938E-02-7.19022E-04 6.09899E-02 3.02516E-04-4.41239E-05
 -1     24429-9.13079E-02 9.16270E-02-3.54466E-04 3.28445E-02 7.19090E-05-7.12733E-05
 -1     24430-1.31883E-01 1.31632E-01 1.85693E-04-7.92181E-02 1.68848E-04 2.74054E-04
 -1     24431-1.29880E-01 1.29837E-01-1.69259E-05-7.86017E-02 3.11308E-04-5.75045E-05
 -1     24432-1.22754E-01 1.22575E-01 1.24314E-04-6.70302E-02 2.63459E-04-4.94169E-06
 -1     24433-1.25750E-01 1.25509E-01 1.86296E-04-7.47339E-02 1.27864E-04-6.96248E-05
 -1     24434-1.24007E-01 1.23950E-01 4.96550E-06-7.32985E-02 1.03671E-04-2.53807E-04
 -1     24435-1.14237E-01 1.13989E-01 1.94605E-04-5.89033E-02 7.00188E-05-7.64351E-05
 -1     24436-1.16475E-01 1.16551E-01-1.29483E-04-6.23512E-02 1.07563E-04 1.45672E-04
 -1     24437 3.34510E-02-3.39353E-02 5.49659E-04 1.86256E-01 1.37633E-04 8.90339E-06
 -1     24438 3.59842E-02-3.71438E-02 1.21211E-03 1.84717E-01 2.04778E-04 1.53154E-04
 -1     24439 3.29782E-02-3.25740E-02-3.22647E-04 1.74151E-01-3.30604E-04 6.57488E-05
 -1     24440-7.59564E-02 7.44213E-02 1.42638E-03 2.13679E-02 6.52167E-04-1.32487E-03
 -1     24441-9.26311E-02 9.87751E-02-6.17880E-03 3.03594E-02 2.90188E-03 3.86908E-03
 -1     24442-1.28972E-01 1.35001E-01-6.05190E-03 1.54736E-02 6.39153E-03 2.88451E-03
 -1     24443-7.15222E-02 7.13261E-02 1.15821E-04 2.68535E-02 2.06172E-03-8.24514E-04
 -1     24444-6.96245E-02 6.95964E-02 7.83500E-05 6.98465E-02 9.89180E-04-3.98943E-04
 -1     24445-7.61394E-02 7.68430E-02-7.71523E-04 1.05696E-01 2.35650E-04-4.60651E-04
 -1     24446-1.07288E-01 1.08234E-01-9.70936E-04-2.67883E-02-3.91959E-04 1.13790E-04
 -1     24447-9.90621E-02 1.00316E-01-1.30615E-03-7.54965E-03-5.17672E-05 2.83580E-04
 -1     24448-1.09356E-01 1.09804E-01-4.76613E-04-3.25779E-02-1.36066E-04-4.19953E-04
 -1     24449 3.97577E-02-3.95308E-02-1.41728E-04 1.72143E-01-4.44949E-05 4.47762E-04
 -1     24450 5.02229E-02-4.94479E-02-7.31605E-04 9.03564E-02 1.37441E-04-1.72211E-04
 -1     24451 5.69148E-02-5.60028E-02-8.34673E-04 9.22660E-02 3.35033E-04-4.48180E-04
 -1     24452 4.67354E-02-4.67695E-02 7.88104E-05 9.42251E-02 1.80508E-04-2.51607E-04
 -1     24453 3.21409E-02-3.22350E-02 1.33955E-04 1.09689E-01 9.01661E-04 2.82265E-04
 -1     24454 2.67969E-02-2.64164E-02-3.22834E-04 1.11656E-01 2.47927E-04 1.98755E-04
 -1     24455 5.63158E-02-5.63865E-02 1.33157E-04 1.68668E-01-3.40674E-04-2.46789E-04
 -1     24456 5.71109E-02-5.75840E-02 5.37281E-04 1.63841E-01-1.19870E-04-3.55262E-04
 -1     24457 4.61336E-02-4.58829E-02-1.80214E-04 1.80644E-01-3.49544E-04-9.72978E-06
 -1     24458 4.82016E-02-4.83816E-02 2.37406E-04 1.76453E-01-3.38555E-04 1.65879E-05
 -1     24459-1.62936E-02 1.61655E-02 1.98340E-04 1.55905E-01 8.53792E-06-2.11408E-04
 -1     24460 1.77975E-02-1.73924E-02-3.37058E-04 1.87652E-01-3.01788E-04-6.69170E-05
 -1     24461 1.98983E-02-1.99901E-02 1.55075E-04 1.87046E-01-1.93385E-04 2.83247E-04
 -1     24462-8.58245E-02 8.54007E-02 4.67580E-04 1.36342E-01-6.55972E-04-1.43596E-03
 -1     24463-1.54198E-01 1.55363E-01-1.24770E-03-7.83614E-02 2.43941E-04-3.55699E-05
 -1     24464-1.41875E-01 1.41933E-01-1.19586E-04-6.37366E-02-2.47530E-05 2.60962E-04
 -1     24465-1.57661E-01 1.56309E-01 1.20354E-03-7.57396E-02-1.50309E-03 7.39858E-04
 -1     24466 5.26695E-02-5.25289E-02-5.82153E-05 1.65980E-01-3.13656E-04 1.99542E-04
 -1     24467-1.19191E-01 1.19310E-01-1.73301E-04-6.54224E-02 2.30814E-04-1.91452E-05
 -1     24468-3.34784E-02 3.38073E-02-2.70157E-04 1.48727E-01-1.51981E-04 9.81556E-06
 -1     24469 5.32931E-02-5.30825E-02-1.87686E-04 5.44548E-02 3.94361E-04-7.74283E-04
 -1     24470 5.64867E-02-5.57177E-02-7.18742E-04 6.18116E-02 4.00519E-04-4.94244E-04
 -1     24471 5.49822E-02-5.46836E-02-2.92024E-04 5.78263E-02 7.67370E-04 7.27702E-05
 -1     24472 6.28444E-02-6.27799E-02 6.56331E-06 1.54368E-01 7.63102E-05-2.78543E-04
 -1     24473 8.76234E-03-8.01761E-03-6.82906E-04 1.84843E-01-3.52162E-04 2.88371E-04
 -1     24474 1.05414E-02-1.01573E-02-3.17122E-04 1.85656E-01-3.91002E-04-9.49001E-05
 -1     24475-1.27241E-01 1.27119E-01 6.89846E-05-6.72770E-02 6.92865E-05 6.13168E-05
 -1     24476-1.18462E-01 1.17745E-01 6.70588E-04-5.93681E-02-3.79154E-04-3.07789E-04
 -1     24477-1.17704E-01 1.17153E-01 5.07317E-04-5.50412E-02-2.68443E-04 1.02665E-04
 -1     24478-1.09326E-01 1.09059E-01 2.15147E-04-4.64411E-02-3.25277E-04-9.20466E-05
 -1     24479 6.69669E-02-6.68158E-02-9.65073E-05 1.40357E-01 1.53768E-04-2.18889E-04
 -1     24480-7.38187E-02 7.45809E-02-7.53311E-04 6.09798E-02-4.00942E-04-1.69728E-03
 -1     24481-1.52184E-01 1.52430E-01-2.81490E-04-5.59747E-02 3.30856E-04-6.16269E-04
 -1     24482 2.22829E-02-2.22954E-02 4.65393E-05 1.13639E-01 2.14303E-04 7.21089E-05
 -1     24483-7.81800E-02 7.85077E-02-3.61001E-04 8.28781E-02-6.94151E-05 2.46622E-04
 -1     24484 4.64667E-02-4.57218E-02-6.62825E-04 1.70108E-01-4.82505E-04 5.67598E-04
 -1     24485-7.92394E-02 7.94040E-02-1.42457E-04 1.19889E-01 3.99082E-04-2.79571E-04
 -1     24486 5.44641E-02-5.47837E-02 3.43920E-04 7.63561E-02-1.14732E-03 3.91366E-04
 -1     24487 5.41650E-02-5.42389E-02 1.16092E-04 7.19500E-02-1.00708E-03 4.82387E-04
 -1     24488 5.83083E-02-5.96301E-02 1.41767E-03 8.46344E-02-7.93694E-04-8.09380E-05
 -1     24489-1.14998E-01 1.16106E-01-1.14936E-03-5.08686E-02-4.57526E-05-1.76914E-04
 -1     24490-1.13852E-01 1.14386E-01-5.70102E-04-4.71279E-02-1.69134E-04-2.05882E-04
 -1     24491-1.06556E-01 1.06667E-01-1.70686E-04-3.90025E-02-4.04160E-04-9.03801E-04
 -1     24492 3.67240E-02-3.68032E-02 1.27352E-04 1.05461E-01 3.61439E-04 3.03719E-04
 -1     24493-7.88147E-02 8.15063E-02-2.64272E-03 1.10147E-01 1.72055E-04-4.65990E-04
 -1     24494 3.40901E-03-2.70358E-03-6.24580E-04 1.67749E-01-2.46817E-04 6.28726E-04
 -1     24495 1.96400E-02-1.95529E-02-6.84191E-06 1.73777E-01-2.18957E-04-3.82107E-05
 -1     24496 8.15715E-03-7.88236E-03-1.94523E-04 1.70898E-01 4.53674E-06 7.04597E-05
 -1     24497 5.85400E-02-5.78700E-02-5.93956E-04 1.61294E-01-6.54033E-04 2.17374E-04
 -1     24498 5.16514E-02-5.10300E-02-5.42495E-04 9.98705E-02 1.99070E-04-4.80479E-04
 -1     24499 1.38025E-02-1.36779E-02-4.47150E-05 1.72036E-01 2.12655E-06-2.41110E-04
 -1     24500 5.64446E-02-5.64732E-02 5.53740E-05 6.27970E-02 6.46902E-04 1.82229E-04
 -1     24501 6.30302E-02-6.23656E-02-5.96976E-04 6.91063E-02 5.87802E-04-1.59979E-04
 -1     24502 5.67497E-02-5.62070E-02-5.15547E-04 7.01061E-02-2.47138E-04-3.89763E-06
 -1     24503 4.30021E-02-4.29215E-02-1.67022E-05 1.06920E-01 8.12124E-05 3.81035E-04
 -1     24504 8.49126E-03-8.21253E-03-2.22613E-04 1.57765E-01-1.60130E-04 2.12637E-05
 -1     24505 1.18287E-02-1.18998E-02 1.21167E-04 1.58187E-01-2.58113E-04-5.70556E-05
 -1     24506-8.08925E-02 8.26212E-02-1.70878E-03 9.90830E-02 6.76358E-04-5.35741E-05
 -1     24507-8.17683E-02 8.12624E-02 4.90594E-04 1.14095E-01-1.46917E-04-5.25207E-04
 -1     24508-8.01933E-02 8.25907E-02-2.37865E-03 8.76957E-02-3.01117E-05-1.52444E-04
 -1     24509-1.05525E-01 1.05094E-01 3.69917E-04-2.96533E-02-3.77427E-04-2.52855E-05
 -1     24510-1.13257E-01 1.13276E-01-5.47116E-05-4.17306E-02-2.71640E-05-2.99753E-04
 -1     24511 5.92521E-02-5.95328E-02 3.34702E-04 1.54713E-01-2.28139E-04 1.37987E-04
 -1     24512 6.21615E-02-6.22669E-02 1.61706E-04 1.51835E-01-8.95032E-05 1.01521E-04
 -1     24513 5.33435E-02-5.35211E-02 2.07576E-04 1.07319E-01 5.54370E-04-7.57547E-04
 -1     24514 5.78850E-02-5.66977E-02-1.15268E-03 1.05084E-01 1.30513E-03-9.57938E-05
 -1     24515-1.09956E-01 1.09922E-01-1.52518E-05-5.35256E-02 5.54426E-05-2.44160E-04
 -1     24516-1.08790E-01 1.08808E-01-6.29428E-05-5.25575E-02 5.83828E-06-4.23255E-04
 -1     24517 7.12724E-02-7.12238E-02 8.55745E-06 1.35669E-01-1.08803E-04-2.77919E-04
 -1     24518 7.10653E-02-7.10226E-02 2.53413E-05 1.32308E-01 1.69253E-04-3.56641E-04
 -1     24519-2.41648E-02 2.41878E-02 1.68975E-05 1.39322E-01 6.19883E-05 4.11272E-05
 -1     24520-2.02973E-02 2.02333E-02 1.15599E-04 1.41666E-01-1.00826E-04-8.18414E-05
 -1     24521-8.26365E-02 8.24958E-02 1.62760E-04 1.24141E-01-5.21657E-04-1.38846E-04
 -1     24522 2.22145E-02-2.22727E-02 1.17416E-04 1.60472E-01-3.93788E-05 1.24726E-05
 -1     24523 2.56166E-02-2.56459E-02 7.97322E-05 1.60540E-01 2.96031E-05-4.92788E-05
 -1     24524 6.91170E-02-6.92394E-02 1.49536E-04 1.28973E-01 1.66408E-04-2.26802E-04
 -1     24525 6.80185E-02-6.83829E-02 4.38447E-04 1.24982E-01 1.52876E-04-3.01312E-04
 -1     24526 7.40397E-02-7.41177E-02 1.26643E-04 1.24851E-01 6.21378E-04-5.38036E-04
 -1     24527 3.76008E-02-3.78657E-02 3.28694E-04 1.61495E-01-1.23145E-04 3.18800E-05
 -1     24528 4.02277E-02-4.02627E-02 8.67796E-05 1.61666E-01-2.75437E-05 3.11261E-04
 -1     24529-1.31237E-01 1.31748E-01-5.86884E-04-4.74661E-02-2.10017E-04-5.40725E-04
 -1     24530-1.28290E-01 1.28636E-01-4.06229E-04-5.09226E-02-3.28545E-04 1.33402E-04
 -1     24531-4.26485E-02 4.29454E-02-2.70144E-04 1.33565E-01-1.15986E-05 7.28543E-05
 -1     24532-3.82134E-02 3.77270E-02 5.31047E-04 1.34147E-01-1.95942E-04-1.64525E-05
 -1     24533-1.49126E-01 1.49346E-01-2.85411E-04-4.00424E-03 5.24302E-03 1.05555E-03
 -1     24534-1.46592E-01 1.43234E-01 3.30809E-03-1.34218E-02 3.14625E-03 4.99691E-03
 -1     24535-1.07338E-01 1.10813E-01-3.59179E-03 2.26574E-02 4.75587E-03 3.57467E-03
 -1     24536 1.53455E-02-1.52559E-02-3.18707E-05 1.58925E-01-2.22754E-04-3.11233E-05
 -1     24537 1.79704E-02-1.78294E-02-8.87156E-05 1.59657E-01-1.74109E-04 4.98296E-05
 -1     24538 1.74658E-02-1.73840E-02-1.79876E-05 1.46543E-01 5.61543E-05-4.25998E-05
 -1     24539 1.03524E-02-9.97740E-03-3.12269E-04 1.45281E-01-2.61011E-06-1.23126E-04
 -1     24540-3.31703E-02 3.30353E-02 1.74170E-04 1.35880E-01-3.64759E-04-4.98353E-05
 -1     24541-2.87414E-02 2.85773E-02 2.11797E-04 1.37452E-01-2.43422E-04 1.92521E-05
 -1     24542-4.23690E-02 4.22341E-02 1.87417E-04 1.20693E-01-2.04460E-04-1.31886E-05
 -1     24543-9.26210E-02 9.29885E-02-3.81464E-04 1.64183E-02 1.47191E-04 4.68875E-05
 -1     24544-9.13318E-02 9.25463E-02-1.20918E-03 2.58675E-02-1.44653E-03-3.38707E-04
 -1     24545-1.02749E-01 1.02499E-01 2.10013E-04-4.21286E-02 3.78998E-06-1.62002E-04
 -1     24546-1.01446E-01 1.01307E-01 1.02555E-04-3.83966E-02-1.38203E-04-2.23811E-04
 -1     24547-1.18674E-01 1.18649E-01-3.75565E-05-5.43383E-02-2.16937E-04-3.30527E-04
 -1     24548-1.15723E-01 1.15800E-01-1.23173E-04-5.47506E-02 8.04289E-05-9.02176E-05
 -1     24549-1.11458E-01 1.12024E-01-5.95363E-04-3.79479E-02 4.34803E-04-5.25481E-04
 -1     24550 6.16333E-02-6.11655E-02-4.55895E-04 9.93595E-02 1.20349E-03 3.31980E-04
 -1     24551 6.20738E-02-6.28401E-02 8.05010E-04 9.49248E-02 5.72836E-04-2.38273E-05
 -1     24552 6.42637E-02-6.39219E-02-2.38817E-04 1.06777E-01 9.49710E-04 2.79474E-04
 -1     24553 4.83467E-02-4.84213E-02 1.13045E-04 1.10223E-01 3.33109E-04-3.65142E-04
 -1     24554-1.13274E-01 1.13419E-01-2.05147E-04-5.50077E-02-6.41774E-05-1.72366E-04
 -1     24555-1.11999E-01 1.12247E-01-2.92242E-04-5.34809E-02 1.30243E-04-2.31316E-04
 -1     24556-1.04517E-01 1.04680E-01-1.99777E-04-4.17180E-02-4.12207E-06-1.27211E-04
 -1     24557-1.25024E-01 1.24764E-01 1.99034E-04-5.20351E-02-3.69460E-04 7.27975E-06
 -1     24558-1.20461E-01 1.20354E-01 5.57441E-05-5.36787E-02-2.51473E-04 4.94919E-05
 -1     24559-1.14606E-01 1.15303E-01-7.43941E-04-3.78193E-02-4.45811E-04 1.68161E-04
 -1     24560 5.26487E-02-5.25363E-02-9.33913E-05 6.23995E-02 3.76469E-04-2.00445E-04
 -1     24561 4.78030E-02-4.75438E-02-2.55683E-04 5.98259E-02 6.49547E-04-3.52217E-04
 -1     24562 4.47731E-02-4.50488E-02 3.36873E-04 1.61223E-01-1.26435E-04 1.50648E-04
 -1     24563 4.88579E-02-4.88057E-02-1.79943E-06 1.59191E-01 4.18695E-05 5.89703E-04
 -1     24564 4.31365E-02-4.30847E-02 1.47929E-05 1.50310E-01-1.27650E-04 6.87640E-05
 -1     24565 6.47765E-02-6.47476E-02 2.34958E-05 1.48875E-01-2.37034E-05-6.87291E-05
 -1     24566 6.70634E-02-6.66974E-02-3.06234E-04 1.45272E-01 1.30301E-04-1.09338E-04
 -1     24567 6.64942E-02-6.68190E-02 3.83681E-04 1.42792E-01 1.89456E-04 1.31326E-04
 -1     24568-3.28826E-03 3.49040E-03-1.50112E-04 1.52075E-01-4.92619E-05-6.46634E-05
 -1     24569-1.16603E-04 2.90837E-04-1.19456E-04 1.53832E-01 8.37475E-06 1.37615E-05
 -1     24570-1.48161E-01 1.43050E-01 5.04510E-03-2.82688E-02 1.01695E-03 4.18514E-03
 -1     24571-1.44156E-01 1.40799E-01 3.23977E-03-3.39821E-02-2.48488E-03 2.06405E-03
 -1     24572-1.30346E-01 1.28441E-01 1.88735E-03-9.46935E-03-1.01917E-03 1.54127E-03
 -1     24573 2.87652E-03-3.01566E-03 1.95223E-04 1.55459E-01-1.12424E-04-7.51216E-05
 -1     24574 5.36525E-03-5.17578E-03-1.36128E-04 1.56763E-01-9.78257E-05-3.13384E-04
 -1     24575 3.10254E-03-3.23390E-03 2.00736E-04 1.42869E-01-5.64762E-05 9.17874E-05
 -1     24576-2.89483E-03 3.12134E-03-1.65615E-04 1.39820E-01-5.62779E-05 2.29265E-07
 -1     24577 2.94863E-02-2.94475E-02 1.14899E-05 1.61831E-01-6.52528E-05 2.75512E-05
 -1     24578 3.29545E-02-3.30301E-02 1.25401E-04 1.61396E-01-7.82787E-05 3.63180E-04
 -1     24579 2.54557E-02-2.53319E-02-5.92386E-05 1.49106E-01-4.85666E-05 9.44524E-05
 -1     24580-9.70714E-02 9.69621E-02 8.45225E-05-1.67112E-02-3.84346E-04-1.13554E-04
 -1     24581-9.56280E-02 9.57534E-02-1.47768E-04-1.23638E-02-4.05549E-04 3.54409E-04
 -1     24582 5.42048E-02-5.34930E-02-6.18821E-04 1.12830E-01 1.07790E-03-3.53782E-04
 -1     24583-1.01444E-01 1.01888E-01-4.94806E-04-1.85083E-02 2.26194E-04-4.49086E-04
 -1     24584-9.46754E-02 9.51962E-02-5.39496E-04-6.12915E-03 2.77427E-06 9.08646E-05
 -1     24585-9.36532E-02 9.41250E-02-4.84669E-04-9.12468E-04 6.31148E-05-1.81872E-04
 -1     24586-8.69906E-02 8.70239E-02-7.22379E-05 6.96413E-03-6.75032E-05 9.79585E-05
 -1     24587-8.26708E-02 8.32755E-02-6.02290E-04 7.66181E-02-2.60820E-05-6.51508E-05
 -1     24588 5.57499E-02-5.58592E-02 1.64613E-04 1.56706E-01-2.87787E-05 2.36541E-04
 -1     24589 5.96769E-02-5.95364E-02-7.06856E-05 1.46262E-01-1.11154E-04 1.14972E-04
 -1     24590 5.26095E-02-5.29576E-02 4.08846E-04 1.58430E-01-2.85998E-05 1.75569E-04
 -1     24591-6.59898E-02 6.44061E-02 1.59800E-03 1.35303E-01 4.25809E-04 7.36773E-05
 -1     24592-5.64453E-02 5.67936E-02-2.94672E-04 1.38309E-01 5.84770E-04 2.25862E-05
 -1     24593 5.95735E-02-5.92730E-02-2.67421E-04 1.15738E-01 5.58903E-04 7.65802E-05
 -1     24594 3.44608E-02-3.44492E-02 5.41617E-05 1.50539E-01-9.04818E-05 4.45624E-06
 -1     24595-7.74617E-02 7.74535E-02 4.50533E-05 1.12188E-01-1.02802E-04-3.06712E-04
 -1     24596-7.97675E-02 8.08013E-02-1.01969E-03 1.32160E-01 9.12446E-05-2.61879E-04
 -1     24597 6.38512E-02-6.24917E-02-1.28548E-03 7.76290E-02-1.45212E-04-1.13591E-03
 -1     24598 6.68890E-02-6.63159E-02-5.38976E-04 7.79839E-02 7.57371E-04-2.90200E-04
 -1     24599 6.52038E-02-6.47992E-02-3.82870E-04 7.45350E-02 7.14758E-04-2.39830E-04
 -1     24600 2.23573E-02-2.22383E-02-1.16932E-04 5.10077E-02 5.67490E-04-2.72141E-04
 -1     24601 1.25652E-02-1.30370E-02 4.41101E-04 4.91700E-02 6.58238E-04-8.06509E-05
 -1     24602-7.22176E-02 7.08466E-02 1.40570E-03 1.30407E-01 4.45777E-04 3.86810E-05
 -1     24603-1.03761E-01 1.03492E-01 2.33136E-04-4.54773E-02-1.17246E-06-2.27726E-04
 -1     24604-9.39764E-02 9.35767E-02 3.57622E-04-3.05377E-02-1.37370E-04-1.32672E-04
 -1     24605-1.04746E-01 1.04844E-01-1.41191E-04-4.73882E-02 1.01178E-04-2.51521E-04
 -1     24606-9.33342E-02 9.36057E-02-2.75329E-04 1.21525E-02 1.73898E-05-3.80789E-04
 -1     24607-8.65077E-02 8.58635E-02 5.95570E-04 2.88637E-02 7.64689E-04-4.17867E-04
 -1     24608-9.36863E-02 9.39969E-02-3.29111E-04 4.62278E-03-7.93709E-05-1.99249E-04
 -1     24609-1.09101E-01 1.09099E-01-4.05677E-05-4.06830E-02-2.31168E-04 8.57092E-05
 -1     24610-1.00674E-01 1.00378E-01 2.63525E-04-3.50464E-02-1.03600E-04-1.82956E-04
 -1     24611-9.95881E-02 9.97540E-02-1.96278E-04-3.12953E-02-2.60883E-04-1.30816E-04
 -1     24612-9.22615E-02 9.20377E-02 1.85785E-04-2.37542E-02-2.38229E-05-1.54262E-04
 -1     24613-3.26037E-02 3.29564E-02-3.06173E-04 1.23307E-01-1.35027E-04 1.79415E-05
 -1     24614-2.92515E-02 2.90929E-02 1.23447E-04 3.77122E-02 3.61530E-04-1.11717E-03
 -1     24615-4.37680E-02 4.32719E-02 4.61132E-04 3.66846E-02 4.81867E-04-1.14845E-03
 -1     24616-8.65200E-04 7.52097E-04 9.71595E-05 4.57669E-02 6.04345E-04-1.95551E-04
 -1     24617-1.35443E-02 1.35388E-02-5.26625E-05 4.22059E-02 4.55888E-04-3.18766E-04
 -1     24618-2.36916E-02 2.35943E-02 5.98112E-05 4.37587E-02 1.37636E-04-3.37064E-04
 -1     24619 4.13396E-03-4.39150E-03 2.38623E-04 5.29856E-02 3.19978E-04 1.89645E-04
 -1     24620-1.41847E-01 1.39713E-01 2.04228E-03-3.84244E-02 2.57888E-05-1.00227E-03
 -1     24621-1.36036E-01 1.36107E-01-1.33475E-04-4.41211E-02-2.69221E-04-1.51847E-03
 -1     24622 6.16367E-02-6.24169E-02 8.13246E-04 9.16808E-02-3.11501E-04-5.09853E-04
 -1     24623 6.37790E-02-6.35596E-02-1.76461E-04 8.73905E-02-2.01294E-04-7.80699E-04
 -1     24624 6.60984E-02-6.54723E-02-5.14135E-04 9.77660E-02-2.36056E-04 3.56418E-04
 -1     24625-9.83984E-02 9.85140E-02-1.44186E-04-2.63365E-02-1.89885E-04-5.71847E-04
 -1     24626-9.67776E-02 9.70633E-02-3.10731E-04-2.21775E-02 2.25726E-05-7.33990E-04
 -1     24627-8.98981E-02 9.00107E-02-1.48189E-04-1.50454E-02-2.30448E-04-1.41161E-04
 -1     24628-8.96151E-02 8.93602E-02 2.59867E-04 3.30107E-02-6.15564E-04-5.50607E-04
 -1     24629-8.44783E-02 8.44083E-02 4.64006E-05 5.00629E-02 4.91001E-04-9.91154E-04
 -1     24630-8.50108E-02 8.35131E-02 1.45361E-03 4.24136E-02-8.09233E-05 8.75454E-04
 -1     24631 6.41227E-02-6.46151E-02 5.39521E-04 1.22194E-01 1.79512E-04 3.67104E-04
 -1     24632 6.19370E-02-6.25420E-02 6.87238E-04 1.18433E-01 4.84524E-04 3.37700E-04
 -1     24633 6.40055E-02-6.39941E-02 1.90492E-05 1.12928E-01 5.01571E-04 2.98344E-04
 -1     24634 6.95744E-02-6.99485E-02 4.11214E-04 1.16629E-01 3.98054E-04 2.03308E-04
 -1     24635 4.07994E-02-4.05638E-02-2.22195E-04 5.60147E-02 7.73692E-04-1.21781E-04
 -1     24636 3.26245E-02-3.28909E-02 2.44892E-04 5.43111E-02 8.19997E-04-2.41054E-04
 -1     24637 2.83584E-02-2.83199E-02-3.73861E-05 5.97484E-02 3.70298E-04-5.09211E-05
 -1     24638 4.52020E-02-4.52058E-02 3.11025E-05 6.48501E-02 2.52908E-04-3.80038E-04
 -1     24639-1.00815E-01 1.00709E-01 6.50907E-05-4.05356E-02 3.00115E-04-4.43459E-04
 -1     24640-1.65012E-02 1.62406E-02 3.06661E-04 1.43401E-01 2.37012E-04-1.11890E-04
 -1     24641-1.30051E-02 1.30168E-02 3.85771E-05 1.45465E-01-3.54365E-06 6.14834E-05
 -1     24642-2.43420E-02 2.41775E-02 2.22000E-04 1.27327E-01-5.93759E-05-8.80390E-05
 -1     24643 5.84889E-02-5.79977E-02-4.90159E-04 6.68957E-02 4.44224E-04-3.57780E-04
 -1     24644 5.84795E-02-5.81569E-02-2.77082E-04 7.16908E-02 2.10149E-04-2.92172E-04
 -1     24645 6.18552E-02-6.12313E-02-5.95531E-04 7.08468E-02 6.72499E-04-3.77429E-04
 -1     24646 5.22827E-02-5.23566E-02 1.39645E-04 1.50313E-01-5.91408E-05 8.21169E-05
 -1     24647 7.00721E-02-6.98691E-02-1.51182E-04 1.42542E-01 5.40340E-05 5.41840E-05
 -1     24648 7.00069E-02-7.03004E-02 3.53832E-04 1.39277E-01-2.97411E-05-3.26853E-05
 -1     24649-9.74632E-03 9.72337E-03 7.67125E-05 1.48293E-01 2.51712E-04-1.56620E-04
 -1     24650-6.34908E-03 6.21994E-03 1.83498E-04 1.49932E-01 1.06636E-04-1.31075E-04
 -1     24651-9.55778E-03 9.62028E-03-2.58147E-06 1.35978E-01-1.44593E-04 7.32641E-05
 -1     24652-1.68068E-02 1.68513E-02 1.18013E-05 1.31255E-01-9.47927E-05-1.24418E-05
 -1     24653-5.18783E-02 5.29379E-02-1.03267E-03 1.33650E-01-4.14135E-04 5.72363E-04
 -1     24654-4.84336E-02 4.83224E-02 1.61856E-04 1.32836E-01-2.61509E-04-4.19743E-04
 -1     24655-1.07095E-01 1.07179E-01-1.32086E-04-5.08219E-02 6.84639E-05-1.46823E-04
 -1     24656-1.05886E-01 1.06210E-01-3.64890E-04-4.91335E-02 1.60991E-04-1.75030E-04
 -1     24657-9.77435E-02 9.77007E-02 2.67891E-06-3.88713E-02-1.18077E-04-2.97817E-04
 -1     24658-1.28341E-01 1.25507E-01 2.81737E-03-2.31999E-02-1.43788E-03-3.02855E-04
 -1     24659 6.72823E-02-6.67556E-02-4.77131E-04 7.98517E-02 2.77023E-04-4.04642E-04
 -1     24660-6.59303E-02 6.75986E-02-1.71553E-03 2.96727E-02 2.66974E-03-3.34236E-03
 -1     24661-7.98209E-02 8.06650E-02-8.60481E-04 2.74352E-02 2.64913E-03 1.90571E-03
 -1     24662-1.04335E-01 1.04964E-01-7.42573E-04 1.94031E-02 1.06013E-03 2.57639E-03
 -1     24663-5.85308E-02 5.84523E-02 3.35825E-06 3.24935E-02 4.33835E-04-2.92889E-03
 -1     24664 7.47887E-02-7.46100E-02-1.24125E-04 1.30344E-01 2.30890E-04-2.67615E-04
 -1     24665-5.19345E-02 5.29355E-02-9.69273E-04 1.19812E-01 3.86038E-04 7.97847E-04
 -1     24666-8.88383E-02 8.89352E-02-1.41249E-04-5.04160E-03-1.49882E-04-1.27940E-04
 -1     24667-1.20437E-01 1.20166E-01 2.55433E-04-3.18880E-02 1.05140E-03-1.33970E-03
 -1     24668 7.19858E-02-7.16462E-02-2.83331E-04 1.37367E-01 2.03542E-04-1.10588E-04
 -1     24669-5.99197E-02 5.97030E-02 2.46292E-04 1.24175E-01 5.35902E-05 3.51165E-04
 -1     24670-9.98211E-02 1.00418E-01-6.54686E-04-2.75261E-02-5.37266E-04-2.64075E-04
 -1     24671-9.79023E-02 9.81222E-02-2.55066E-04-2.78619E-02-1.61972E-04-1.14864E-05
 -1     24672-6.13276E-02 6.06483E-02 6.99949E-04 1.05078E-01 4.72072E-04-1.15941E-04
 -1     24673-5.68854E-02 5.66357E-02 2.84385E-04 1.03951E-01-1.01609E-05-2.01831E-04
 -1     24674-7.19973E-02 7.04559E-02 1.59272E-03 1.24371E-01 1.16422E-03-2.93678E-04
 -1     24675 7.10286E-02-7.11368E-02 1.42718E-04 1.32364E-01 2.51194E-04 2.80716E-04
 -1     24676 7.36491E-02-7.32898E-02-2.95880E-04 1.29291E-01 4.13938E-04 6.42229E-05
 -1     24677-8.12308E-02 8.20695E-02-8.52322E-04 9.46002E-02 3.07186E-04-4.92990E-04
 -1     24678-7.77169E-02 7.65018E-02 1.22262E-03 1.04703E-01-1.56844E-04-1.13417E-04
 -1     24679-1.13536E-01 1.11873E-01 1.61034E-03-5.37878E-03-1.54304E-03-1.00847E-04
 -1     24680-1.10683E-01 1.10326E-01 3.06462E-04-1.19086E-02 3.54343E-04-8.04027E-04
 -1     24681 2.93746E-02-2.93308E-02 6.21071E-06 1.39344E-01-1.21605E-04 2.15207E-04
 -1     24682 3.41959E-02-3.40082E-02-1.46059E-04 1.41192E-01-1.13203E-04 3.41027E-05
 -1     24683 6.18017E-02-6.15406E-02-2.36655E-04 8.04485E-02 3.71047E-04-1.96649E-04
 -1     24684 5.70511E-02-5.68682E-02-1.72944E-04 7.74109E-02 3.81400E-04-2.18785E-04
 -1     24685 6.80919E-02-6.79051E-02-1.70512E-04 8.63853E-02 2.26960E-04-6.06123E-05
 -1     24686 6.95371E-02-6.93255E-02-1.66622E-04 8.41701E-02 2.28422E-04-6.32582E-04
 -1     24687 7.22845E-02-7.13177E-02-8.95570E-04 8.85240E-02 1.77527E-04-2.47332E-04
 -1     24688 7.03383E-02-7.08157E-02 5.31838E-04 9.37372E-02 1.85770E-04-7.41246E-04
 -1     24689-8.14117E-02 8.13359E-02 6.04803E-05 6.51037E-03-6.18449E-05 3.34371E-05
 -1     24690-8.04703E-02 8.04149E-02 4.65646E-05 1.20384E-02-1.51942E-04-5.95598E-05
 -1     24691 7.57291E-02-7.53294E-02-3.60102E-04 1.19581E-01 2.66455E-04-1.57692E-04
 -1     24692 7.45630E-02-7.38307E-02-6.37804E-04 1.15834E-01 3.29139E-04-2.35996E-04
 -1     24693 5.76563E-02-5.78756E-02 2.64540E-04 1.40368E-01-2.45481E-04 4.14436E-05
 -1     24694 6.13576E-02-6.14182E-02 1.09112E-04 1.38375E-01-1.41355E-04 1.42386E-05
 -1     24695-9.11986E-02 9.11018E-02 5.23465E-05-2.73839E-02-1.06574E-04-9.38371E-05
 -1     24696-8.98025E-02 8.97916E-02-1.38049E-05-2.75757E-02-1.15566E-05-2.63246E-04
 -1     24697-4.10941E-02 4.11896E-02-6.71606E-05 1.07812E-01-1.01312E-04 3.13459E-05
 -1     24698-3.67468E-02 3.69182E-02-1.37086E-04 1.09746E-01-1.11502E-05 2.07982E-04
 -1     24699 6.68524E-02-6.75274E-02 7.15838E-04 1.08155E-01 3.96671E-04 7.37503E-04
 -1     24700-1.11839E-01 1.10668E-01 1.07712E-03-1.62744E-02 9.74694E-04-9.50927E-04
 -1     24701-1.05613E-01 1.06039E-01-4.57632E-04-2.10819E-02 8.34291E-04-1.08424E-03
 -1     24702-9.45836E-02 9.54164E-02-8.54111E-04-1.71256E-03 7.07163E-04-7.03056E-04
 -1     24703 3.92740E-02-3.90942E-02-1.25868E-04 1.41693E-01-1.14235E-04-6.11391E-05
 -1     24704 4.41534E-02-4.38951E-02-2.18384E-04 1.40851E-01-1.44202E-04-1.51676E-04
 -1     24705 3.53976E-02-3.48976E-02-4.47007E-04 1.31480E-01-1.06620E-04 2.92908E-05
 -1     24706-9.50781E-02 9.52844E-02-2.56578E-04-2.80755E-02 2.41321E-05-5.98569E-05
 -1     24707-9.18294E-02 9.21171E-02-3.18644E-04-2.77412E-02-1.74351E-04 4.83681E-05
 -1     24708-8.52509E-02 8.52274E-02-1.63596E-05-1.44713E-02-6.72980E-05 6.65877E-06
 -1     24709-1.18542E-01 1.16558E-01 1.96827E-03 6.54685E-03-7.56577E-04 1.74786E-03
 -1     24710-1.16069E-01 1.12222E-01 3.73116E-03-1.46467E-03-2.11571E-03 8.75197E-04
 -1     24711-9.86305E-02 9.69108E-02 1.69126E-03 6.22133E-03-8.36933E-04-1.38782E-04
 -1     24712-9.00946E-02 8.89356E-02 1.10124E-03 2.48249E-02-1.08730E-03 1.68565E-03
 -1     24713-5.06756E-02 5.05179E-02 1.79266E-04 1.04895E-01-3.03957E-04-1.03546E-04
 -1     24714-4.56504E-02 4.60035E-02-3.22134E-04 1.06060E-01-2.32753E-04 3.54612E-05
 -1     24715-5.95244E-02 5.98081E-02-2.55127E-04 8.93753E-02-1.00706E-04-1.15781E-04
 -1     24716 7.50957E-02-7.46320E-02-4.29262E-04 1.25849E-01 4.74469E-04 1.97165E-04
 -1     24717 7.52562E-02-7.50522E-02-1.39985E-04 1.22443E-01 5.52616E-04-3.27149E-05
 -1     24718 7.63741E-02-7.63540E-02 2.65530E-05 1.14723E-01 2.73940E-04 4.19419E-04
 -1     24719 7.48573E-02-7.51134E-02 3.05341E-04 1.20865E-01 5.25542E-04 4.19503E-04
 -1     24720-1.02689E-01 1.03148E-01-5.48945E-04-2.29247E-02-8.20046E-05-5.74649E-04
 -1     24721-1.02029E-01 1.02517E-01-5.15543E-04-2.47067E-02-6.23747E-04-3.49221E-05
 -1     24722-8.94840E-02 9.02069E-02-7.45966E-04-1.30154E-02-5.19182E-04-5.34667E-04
 -1     24723-9.28124E-02 9.25180E-02 2.72746E-04-8.67631E-03 4.06240E-04-1.38504E-03
 -1     24724 6.54924E-02-6.55899E-02 1.40916E-04 1.36704E-01 2.13503E-04 1.26460E-04
 -1     24725 6.86060E-02-6.87075E-02 1.53586E-04 1.34503E-01 2.63503E-04-2.16518E-04
 -1     24726 6.40006E-02-6.40079E-02 5.43647E-05 1.30120E-01-1.02520E-04 1.18226E-04
 -1     24727 4.92751E-02-4.90988E-02-1.35232E-04 1.41445E-01-1.44736E-04 1.69677E-05
 -1     24728 5.30618E-02-5.30809E-02 6.35151E-05 1.40970E-01-1.02129E-04 1.94498E-04
 -1     24729 5.51220E-02-5.51149E-02 4.66313E-05 1.32379E-01-1.49042E-05 9.39638E-06
 -1     24730 4.50731E-02-4.45437E-02-4.72535E-04 1.32509E-01-1.43612E-04-1.04296E-04
 -1     24731-7.39511E-02 7.32460E-02 7.09677E-04 1.11257E-01 9.34915E-05-2.56127E-04
 -1     24732-6.76113E-02 6.70586E-02 5.61730E-04 1.13513E-01 3.87342E-05 7.07977E-04
 -1     24733-7.48520E-02 7.38294E-02 1.04153E-03 9.17664E-02-3.23947E-04-3.09951E-04
 -1     24734 7.03142E-02-7.01696E-02-9.25644E-05 1.26229E-01 3.96463E-04-1.28742E-04
 -1     24735 4.96016E-02-4.94254E-02-1.61733E-04 7.30133E-02 2.40482E-04-3.42551E-04
 -1     24736 4.26654E-02-4.25619E-02-9.91690E-05 7.03340E-02 2.11444E-04-3.80214E-04
 -1     24737 5.44740E-02-5.42982E-02-1.47036E-04 8.12026E-02 4.56211E-04-2.16609E-04
 -1     24738-6.29755E-02 6.31937E-02-1.76274E-04 1.09858E-01-2.66253E-04 8.99521E-04
 -1     24739-8.16344E-02 8.17184E-02-1.14228E-04-1.45306E-02 1.57512E-04-1.32921E-04
 -1     24740-6.83438E-02 6.77754E-02 5.77236E-04 9.52529E-02-5.57989E-05-8.27444E-05
 -1     24741 7.40077E-02-7.46453E-02 6.77466E-04 9.76383E-02 4.29488E-04-2.48250E-04
 -1     24742 7.19800E-02-7.16694E-02-2.77751E-04 9.33554E-02 7.00414E-05-2.38561E-04
 -1     24743-8.22539E-02 8.20511E-02 2.00212E-04 3.93170E-02 7.49746E-04-6.94759E-04
 -1     24744-8.08896E-02 8.08189E-02 9.40747E-05 4.42162E-02 5.48473E-04-7.12667E-04
 -1     24745-8.16295E-02 8.13819E-02 2.35665E-04 1.15412E-03-1.01443E-04 1.62983E-04
 -1     24746-7.35539E-02 7.34695E-02 6.24817E-05 1.76132E-02-9.57902E-05-5.92724E-05
 -1     24747-8.22793E-02 8.16900E-02 5.66193E-04-3.14639E-03-1.36187E-04-9.23957E-05
 -1     24748 3.27359E-02-3.26048E-02-1.21992E-04 6.57237E-02 2.07216E-04-2.90405E-04
 -1     24749 2.24549E-02-2.23973E-02-6.92642E-05 6.36506E-02 3.77950E-04-2.58660E-04
 -1     24750 3.74826E-02-3.77028E-02 2.23724E-04 7.32740E-02 1.69438E-04-2.49167E-04
 -1     24751-9.54694E-02 9.56476E-02-2.23098E-04-3.56720E-02 1.46893E-04-3.17018E-04
 -1     24752-2.73479E-03 2.71770E-03 5.97915E-05 1.28357E-01 2.41484E-05 1.22879E-04
 -1     24753 5.69955E-04-6.77399E-04 1.44343E-04 1.29540E-01-1.45884E-04-8.81354E-05
 -1     24754 4.60686E-03-4.11915E-03-4.45394E-04 1.30768E-01-5.55512E-05 1.08748E-04
 -1     24755 7.55386E-03-7.31710E-03-1.97821E-04 1.32155E-01-1.88520E-06 7.01375E-05
 -1     24756-1.97551E-03 2.20873E-03-1.85021E-04 1.16464E-01 3.78557E-04-9.52651E-05
 -1     24757 1.16783E-02-1.15541E-02-7.25925E-05 1.33298E-01 4.74724E-05 6.10267E-05
 -1     24758 1.60029E-02-1.59329E-02-3.20487E-05 1.34678E-01 5.60560E-05 3.91484E-05
 -1     24759 5.83100E-03-5.56725E-03-2.14928E-04 1.19992E-01 1.45974E-04 4.03794E-05
 -1     24760-8.80950E-02 8.73374E-02 7.23393E-04 1.72557E-02 1.90518E-04-5.76928E-04
 -1     24761 6.92953E-02-6.99093E-02 6.99586E-04 1.10213E-01-7.31818E-05 6.00815E-04
 -1     24762 6.97126E-02-7.01447E-02 4.41719E-04 1.04004E-01 4.12748E-04 8.27389E-04
 -1     24763 6.94629E-02-6.97642E-02 3.40429E-04 1.00668E-01 1.14453E-04-2.54436E-04
 -1     24764 7.34423E-02-7.32638E-02-1.35766E-04 1.13060E-01 5.53766E-04-2.01547E-04
 -1     24765-8.04396E-02 8.04746E-02-4.32279E-05 1.87332E-02-3.30720E-05-1.40099E-05
 -1     24766-8.00351E-02 7.98641E-02 1.62811E-04 2.42939E-02 7.24145E-05 9.06628E-05
 -1     24767-7.30307E-02 7.29876E-02 2.76903E-05 2.94008E-02-1.02592E-04 1.34482E-05
 -1     24768 1.07180E-02-1.05883E-02-1.34838E-04 5.93226E-02 5.62840E-04-2.97306E-04
 -1     24769-2.27970E-03 2.31379E-03-5.86857E-05 5.50648E-02 4.45195E-04 1.63282E-05
 -1     24770 1.60311E-02-1.60576E-02 1.65994E-05 6.60711E-02-4.34457E-05-9.84055E-05
 -1     24771-8.61543E-02 8.59180E-02 2.04441E-04-1.93044E-02-4.06924E-06-1.93121E-04
 -1     24772-8.50124E-02 8.48575E-02 1.33096E-04-1.57240E-02-8.90695E-05-1.44155E-04
 -1     24773 7.04890E-02-7.05717E-02 1.06082E-04 8.80888E-02 6.14313E-05-3.96825E-04
 -1     24774 6.73068E-02-6.71090E-02-1.81419E-04 8.46378E-02 2.09761E-04-1.67980E-04
 -1     24775-1.78402E-02 1.78163E-02 9.59971E-07 4.89697E-02 7.75975E-04-3.91499E-04
 -1     24776-3.08892E-02 3.11038E-02-2.59941E-04 4.43683E-02 2.25321E-04-5.18754E-04
 -1     24777-1.03137E-02 1.01885E-02 9.80333E-05 5.52803E-02-4.73797E-07 4.42474E-05
 -1     24778 2.07611E-02-2.07102E-02-1.14026E-05 1.36726E-01 3.75868E-05 2.74517E-06
 -1     24779 2.45516E-02-2.44676E-02-4.78366E-05 1.37291E-01-3.21780E-05 7.33211E-05
 -1     24780-3.29231E-02 3.28222E-02 1.27084E-04 1.10745E-01-8.75620E-05-5.34874E-05
 -1     24781-2.86577E-02 2.85608E-02 1.33930E-04 1.12366E-01-5.44742E-05 3.94805E-06
 -1     24782-4.09878E-02 4.09181E-02 9.78177E-05 9.50055E-02-1.00205E-04-6.87753E-05
 -1     24783-4.94404E-02 4.95415E-02-8.08439E-05 9.22065E-02-1.71828E-04-1.65327E-05
 -1     24784-8.36226E-02 8.43594E-02-7.11831E-04 6.79089E-02 9.01646E-05 4.85673E-05
 -1     24785 7.37953E-02-7.37312E-02-1.23782E-05 9.75117E-02 1.91946E-04 6.56444E-05
 -1     24786-1.61126E-02 1.60746E-02 8.10393E-05 1.20056E-01-4.05817E-05 2.42148E-06
 -1     24787-1.32712E-02 1.32946E-02 1.65141E-05 1.22397E-01 4.57103E-05-1.78204E-05
 -1     24788-8.91434E-02 8.89828E-02 1.21328E-04-2.64034E-02 8.95445E-05-1.27681E-04
 -1     24789-8.78032E-02 8.78548E-02-8.17470E-05-2.51745E-02-5.79336E-06-1.94222E-04
 -1     24790-7.98366E-02 7.96926E-02 1.13025E-04-1.33303E-02 2.05999E-04-3.59470E-04
 -1     24791 1.47134E-02-1.46141E-02-4.93842E-05 1.23493E-01 1.67036E-05 8.62251E-05
 -1     24792-5.02637E-02 5.05370E-02-3.09739E-04 3.74914E-02 7.03443E-04-9.17105E-04
 -1     24793-6.72308E-02 7.13742E-02-4.15449E-03 3.03884E-02 1.97758E-03-7.34586E-04
 -1     24794-8.17267E-02 8.31077E-02-1.44362E-03 2.15401E-02 3.51732E-04 1.45667E-03
 -1     24795-4.62072E-02 4.54254E-02 7.37468E-04 4.11865E-02-5.05967E-04-6.55488E-04
 -1     24796-9.16005E-03 9.65826E-03-4.50574E-04 1.25126E-01 1.70126E-04 7.59831E-05
 -1     24797-5.85045E-03 6.08471E-03-1.95125E-04 1.26849E-01 1.15988E-04-6.11798E-06
 -1     24798-1.61372E-02 1.63278E-02-1.46444E-04 1.09637E-01-1.57759E-04 2.17561E-04
 -1     24799 6.52354E-02-6.51251E-02-5.82289E-05 8.88280E-02 2.03232E-04-3.08024E-04
 -1     24800 2.46081E-02-2.44145E-02-1.40688E-04 1.27148E-01 5.55491E-05 1.14192E-05
 -1     24801 7.59323E-02-7.53812E-02-5.07973E-04 1.09977E-01 7.23147E-04-2.79449E-04
 -1     24802 6.84758E-02-6.85074E-02 6.74661E-05 1.21063E-01 2.89837E-05-9.56717E-05
 -1     24803 7.09993E-02-7.11683E-02 2.25554E-04 1.18554E-01 2.49653E-04-1.00945E-04
 -1     24804-7.88541E-02 7.87650E-02 1.07270E-04 3.86466E-02 2.18874E-04-6.05674E-04
 -1     24805-7.47540E-02 7.51332E-02-3.94227E-04 5.31656E-02 4.34717E-04-1.03985E-03
 -1     24806-7.93156E-02 7.94187E-02-1.08729E-04 3.32322E-02 3.44225E-05-2.93528E-04
 -1     24807-7.17064E-02 7.15231E-02 1.53640E-04-1.65429E-03-7.53017E-05-4.27678E-05
 -1     24808-7.07623E-02 7.07361E-02 8.86260E-06-1.33239E-03-1.50407E-04 1.93726E-04
 -1     24809 7.52625E-02-7.53513E-02 1.21799E-04 1.03497E-01 3.67382E-04-2.82357E-04
 -1     24810 7.64561E-02-7.61491E-02-2.47415E-04 1.06478E-01 2.07292E-04 2.20413E-04
 -1     24811-7.67797E-02 7.77392E-02-9.93353E-04 6.27954E-02 9.79276E-05-1.10321E-03
 -1     24812-8.08729E-02 8.14825E-02-5.98002E-04 5.48189E-02-7.06836E-04-3.22381E-04
 -1     24813 7.55401E-02-7.46262E-02-8.72819E-04 1.04629E-01 2.56589E-04 5.12618E-04
 -1     24814 7.20849E-02-7.23144E-02 2.50440E-04 1.00792E-01 3.71402E-04-9.39472E-06
 -1     24815 7.17765E-03-7.15830E-03 1.29653E-05 1.09967E-01 7.52172E-05 5.69517E-05
 -1     24816 1.20696E-02-1.21420E-02 9.56479E-05 1.12216E-01 4.57954E-05-3.27559E-05
 -1     24817-8.96873E-03 9.07565E-03-5.99962E-05 1.13793E-01 5.92898E-05 3.32455E-05
 -1     24818-5.72108E-02 5.75011E-02-2.74285E-04 7.85557E-02-1.84837E-04-4.55605E-05
 -1     24819-5.26406E-02 5.27640E-02-1.04439E-04 8.05044E-02-1.36457E-04-9.36131E-05
 -1     24820-8.72439E-02 8.73377E-02-1.36542E-04-2.41448E-02 1.55733E-04-2.29368E-04
 -1     24821-8.70507E-02 8.70186E-02 7.66791E-06-2.19763E-02 1.00802E-04-2.54853E-04
 -1     24822-7.80452E-02 7.79017E-02 1.15019E-04-7.83328E-03-6.99834E-05-8.03847E-05
 -1     24823-7.87347E-02 7.88254E-02-1.22540E-04-1.16930E-02 1.09760E-04-9.54832E-05
 -1     24824 6.83825E-02-6.84061E-02 5.29016E-05 9.55720E-02 2.60705E-04-5.77510E-04
 -1     24825 6.34712E-02-6.34844E-02 3.00962E-05 9.24074E-02 2.81834E-04-4.69137E-04
 -1     24826 7.01646E-02-7.04139E-02 3.04191E-04 1.03128E-01 3.45233E-04-3.64548E-04
 -1     24827-8.37031E-02 8.38036E-02-1.27745E-04-1.11688E-02-1.22895E-05-2.21756E-04
 -1     24828-8.28413E-02 8.26947E-02 1.29640E-04-7.87761E-03-6.20069E-05-2.15974E-04
 -1     24829-8.09307E-02 8.19138E-02-1.05828E-03 1.14815E-02 7.91005E-04 2.21966E-04
 -1     24830-8.30183E-02 8.28361E-02 1.59897E-04 7.88376E-03 5.95890E-04-2.00706E-05
 -1     24831 1.78857E-02-1.77447E-02-1.06541E-04 1.17031E-01-1.62794E-04 6.45587E-05
 -1     24832 2.35232E-02-2.32578E-02-2.41450E-04 1.19042E-01-5.62662E-04 9.04110E-05
 -1     24833 1.00858E-02-9.85193E-03-1.92883E-04 1.03639E-01-2.53980E-04-1.86940E-04
 -1     24834 2.91469E-02-2.91577E-02 4.66012E-05 1.20849E-01-3.80800E-04 3.72832E-05
 -1     24835 3.45520E-02-3.48592E-02 3.37875E-04 1.22649E-01-1.17294E-04-7.28328E-05
 -1     24836 2.24796E-02-2.22337E-02-1.99141E-04 1.10518E-01-7.15570E-04-5.21595E-04
 -1     24837-7.59278E-02 7.60100E-02-1.09095E-04-4.21748E-04-6.83086E-05-2.00591E-04
 -1     24838-7.98459E-02 7.95815E-02 2.74593E-04 6.14643E-02 1.06579E-04 2.64924E-04
 -1     24839-2.47231E-02 2.45189E-02 2.36056E-04 1.15443E-01-1.72016E-05-1.31126E-04
 -1     24840-2.09830E-02 2.09720E-02 5.15476E-05 1.17506E-01-8.69968E-05-4.95067E-05
 -1     24841-3.26860E-02 3.27394E-02-1.77534E-05 9.90894E-02 4.77852E-05-1.78001E-04
 -1     24842-2.41745E-02 2.41682E-02 4.58422E-05 1.04787E-01-6.63595E-05-4.69967E-05
 -1     24843-7.95504E-02 7.83344E-02 1.19406E-03 7.72571E-02-2.81915E-05-3.15293E-04
 -1     24844-7.39994E-02 7.36635E-02 3.73978E-04 8.59018E-02-3.20478E-04-5.41238E-05
 -1     24845-6.80946E-02 6.83715E-02-2.74720E-04 7.12884E-02-8.88462E-05-3.00294E-04
 -1     24846-6.27198E-02 6.30377E-02-3.08128E-04 7.20623E-02-2.01157E-04-1.42118E-04
 -1     24847 7.67975E-02-7.58523E-02-9.15624E-04 1.09944E-01 3.23393E-04 4.77165E-04
 -1     24848-7.43240E-02 7.41410E-02 1.61809E-04 8.67050E-03-2.37100E-04-2.71550E-05
 -1     24849-6.85472E-02 6.85978E-02-6.54677E-05 9.38451E-03 4.99775E-05-1.71293E-04
 -1     24850-6.75972E-02 6.78854E-02-2.95969E-04 1.40087E-02 4.99579E-05-1.85565E-04
 -1     24851-6.50284E-02 6.52224E-02-2.07114E-04 2.25601E-02 1.79822E-05-2.10477E-04
 -1     24852-6.48765E-02 6.49894E-02-1.06433E-04 2.65824E-02 1.19200E-05-1.46122E-04
 -1     24853-5.81594E-02 5.82907E-02-1.46016E-04 3.23278E-02 9.96448E-05-1.77681E-04
 -1     24854 5.72036E-02-5.70649E-02-1.16839E-04 8.80466E-02 3.76195E-04-1.60011E-04
 -1     24855 5.10232E-02-5.08914E-02-1.18783E-04 8.47616E-02 4.18175E-04-8.04158E-05
 -1     24856 6.00672E-02-5.99804E-02-5.67325E-05 9.52953E-02 3.58780E-04-3.24637E-04
 -1     24857-5.03224E-02 5.02660E-02 6.55596E-05 7.75023E-02-1.44265E-04-8.85325E-05
 -1     24858-4.61336E-02 4.61797E-02-2.59918E-05 7.83795E-02-2.00381E-04-1.45005E-04
 -1     24859-5.77856E-02 5.78455E-02-5.30548E-05 6.39333E-02-2.30067E-04-6.48849E-05
 -1     24860-7.32443E-02 7.34464E-02-2.21250E-04-1.61366E-03-1.12472E-04 4.24218E-05
 -1     24861-6.22433E-02 6.22077E-02 1.38139E-05 1.15093E-02 4.13738E-04-2.64765E-05
 -1     24862-7.56257E-02 7.57746E-02-1.89277E-04-1.72927E-03-9.22888E-05 1.25262E-04
 -1     24863-6.97277E-02 6.96984E-02 2.31451E-05 5.22851E-03-3.42393E-04 7.41634E-05
 -1     24864-6.16718E-02 6.13266E-02 3.24747E-04 1.97652E-02 2.59224E-05 1.02454E-04
 -1     24865-7.03915E-02 7.04706E-02-1.09766E-04 2.30574E-03-3.40106E-04 2.56534E-04
 -1     24866-6.68287E-02 6.67797E-02 3.72157E-05 2.69477E-02 6.74932E-05-6.31692E-05
 -1     24867-6.64375E-02 6.65127E-02-7.54662E-05 3.27809E-02-1.53005E-04 3.05327E-05
 -1     24868-5.80392E-02 5.80638E-02-2.21784E-05 4.09041E-02-2.51309E-04 5.56336E-05
 -1     24869-8.37900E-02 8.26498E-02 1.06397E-03 2.69466E-03 4.13669E-04-3.56643E-04
 -1     24870-8.03426E-02 7.93528E-02 9.72659E-04 1.31141E-03 7.87699E-04-5.95056E-04
 -1     24871-6.89438E-02 6.82683E-02 6.40462E-04 1.87423E-02 2.69002E-04 2.28602E-04
 -1     24872 4.24120E-02-4.23884E-02-1.46638E-05 8.00082E-02 1.87673E-04-1.10956E-04
 -1     24873 3.28812E-02-3.28715E-02-1.23232E-06 7.59674E-02 1.13751E-04-5.73090E-05
 -1     24874 4.64518E-02-4.64304E-02-1.91092E-06 8.66789E-02 5.02946E-04-1.46020E-04
 -1     24875 7.08234E-02-7.09184E-02 1.34976E-04 1.10446E-01 3.21900E-04-1.54035E-04
 -1     24876 7.37709E-02-7.40926E-02 3.48145E-04 1.15599E-01 3.08718E-04 3.00440E-04
 -1     24877-7.72433E-02 7.74713E-02-2.99974E-04-1.69622E-04 1.19900E-04-6.18222E-04
 -1     24878-7.67037E-02 7.72552E-02-5.72087E-04-2.18299E-03-3.95205E-04 2.10732E-05
 -1     24879-6.48345E-02 6.50280E-02-2.25820E-04 1.11576E-02-2.58911E-04 7.95092E-05
 -1     24880-6.84183E-02 6.79145E-02 4.91247E-04 1.16552E-02 9.79559E-04-4.54618E-04
 -1     24881 5.03457E-02-5.02669E-02-4.48909E-05 1.25520E-01 4.80580E-05-1.48979E-04
 -1     24882 5.59122E-02-5.55803E-02-2.87672E-04 1.25387E-01 7.31279E-05-2.19664E-04
 -1     24883-7.82946E-02 8.04311E-02-2.18161E-03 1.65784E-02 9.35396E-04 2.29958E-04
 -1     24884-1.65378E-02 1.67291E-02-1.61188E-04 1.00233E-01 3.97914E-04 9.21430E-05
 -1     24885-1.31728E-02 1.32447E-02-4.71400E-05 1.01673E-01 1.05850E-04-8.50662E-05
 -1     24886-9.13211E-03 9.58219E-03-4.25695E-04 1.02741E-01 1.15944E-04 8.09586E-05
 -1     24887-5.53188E-03 5.92776E-03-3.68588E-04 1.04732E-01 1.31556E-04-8.63742E-06
 -1     24888-1.59492E-02 1.59872E-02-4.32335E-06 8.96953E-02 2.27642E-04 7.76309E-05
 -1     24889-6.55795E-02 6.56957E-02-1.06258E-04 6.05131E-02-1.86226E-04-5.72696E-05
 -1     24890-5.78910E-02 5.80543E-02-1.67620E-04 5.16563E-02-1.89180E-06-9.97628E-05
 -1     24891-6.45958E-02 6.46599E-02-6.04656E-05 4.24530E-02-1.47200E-04-3.01346E-05
 -1     24892-6.64799E-02 6.61470E-02 2.96622E-04 2.70965E-02-1.15157E-04 4.08083E-04
 -1     24893-1.66085E-03 1.99523E-03-2.96722E-04 1.05813E-01 2.98481E-05 1.28741E-04
 -1     24894 2.65596E-03-2.50019E-03-1.30252E-04 1.07737E-01 1.86039E-05 7.07516E-05
 -1     24895-9.01534E-03 9.39432E-03-3.44988E-04 9.25256E-02 3.84359E-05 3.71022E-05
 -1     24896-2.62349E-03 2.86608E-03-2.54112E-04 6.10234E-02 1.59936E-04-1.41971E-04
 -1     24897-1.74161E-02 1.69898E-02 4.10936E-04 5.43732E-02-3.37778E-04-1.01587E-04
 -1     24898 6.41474E-02-6.49983E-02 8.98121E-04 1.22869E-01-3.44806E-04 3.69843E-04
 -1     24899 6.44057E-02-6.45838E-02 2.20181E-04 1.16130E-01-2.50490E-04 4.01489E-04
 -1     24900 6.06474E-02-6.07313E-02 1.18006E-04 1.25285E-01-1.62918E-04 1.32588E-04
 -1     24901-8.22124E-02 8.16405E-02 5.76166E-04 6.76673E-02 3.79413E-04 4.71970E-04
 -1     24902 2.16631E-02-2.14356E-02-2.25304E-04 7.16067E-02 3.26360E-06-3.98028E-04
 -1     24903 1.02133E-02-1.00201E-02-1.95828E-04 6.75474E-02-1.07515E-04-1.72650E-04
 -1     24904 3.47485E-03-2.99568E-03-4.91607E-04 6.60793E-02-2.16100E-04 3.96586E-05
 -1     24905 2.71858E-02-2.71731E-02-1.02625E-05 7.71403E-02-3.86381E-05 7.22399E-05
 -1     24906 5.57308E-02-5.59387E-02 2.50037E-04 1.18706E-01-3.68615E-04-7.50580E-05
 -1     24907-6.46130E-02 6.46827E-02-5.96529E-05 4.83059E-02-1.31058E-04-4.83232E-05
 -1     24908 7.36750E-02-7.34591E-02-1.39917E-04 1.00862E-01 4.08722E-04-3.71920E-04
 -1     24909-7.16512E-02 7.15666E-02 6.45152E-05 4.46153E-02-8.40407E-05-1.24109E-04
 -1     24910-3.25533E-02 3.23292E-02 2.42926E-04 8.89501E-02-3.49241E-05-1.87314E-05
 -1     24911-2.76629E-02 2.77565E-02-6.79518E-05 9.16330E-02-2.10260E-05-2.22296E-04
 -1     24912 7.57815E-02-7.59365E-02 2.14766E-04 1.12951E-01 3.93597E-04 2.56560E-04
 -1     24913-7.00256E-02 7.00939E-02-9.80592E-05-4.20603E-04 1.64436E-05-2.24168E-04
 -1     24914-6.96493E-02 6.96101E-02 3.17601E-05 1.66526E-04 1.73755E-04-2.49606E-04
 -1     24915-6.06086E-02 6.06016E-02-9.92269E-06 1.26562E-02-3.34824E-05 8.59228E-05
 -1     24916 4.02240E-02-4.02134E-02 2.63663E-05 1.23852E-01-2.91096E-04-1.67897E-04
 -1     24917 4.50215E-02-4.49695E-02-1.85603E-05 1.24231E-01-7.77972E-05-5.18756E-05
 -1     24918 3.41494E-02-3.44606E-02 3.52417E-04 1.14929E-01-4.33151E-04 1.72689E-04
 -1     24919-4.98981E-04 4.13056E-04 1.18125E-04 9.61645E-02 1.09540E-04 6.43006E-05
 -1     24920-3.30703E-02 3.18353E-02 1.21399E-03 4.72082E-02-3.37233E-04-1.10045E-03
 -1     24921-5.09377E-02 5.10369E-02-1.17519E-04 3.80382E-02-1.55380E-04-2.10474E-04
 -1     24922-5.28668E-02 5.25071E-02 3.20499E-04 3.31886E-02-6.96018E-05-2.80501E-04
 -1     24923-2.31957E-02 2.37939E-02-6.29235E-04 5.08762E-02 1.87754E-04 3.39753E-04
 -1     24924-7.07802E-02 7.07692E-02 3.80428E-05 7.13019E-02 2.08346E-04-1.00726E-03
 -1     24925-7.16662E-02 7.11465E-02 5.35922E-04 8.02383E-02-2.28839E-04-5.71787E-04
 -1     24926 4.52583E-02-4.52019E-02-1.89347E-05 1.16993E-01-1.14099E-04-2.99048E-04
 -1     24927 6.73835E-02-6.72649E-02-8.86658E-05 1.06635E-01 1.98545E-04-3.09448E-04
 -1     24928-1.13540E-02 1.12372E-02 1.33255E-04 8.05673E-02 2.25649E-06 4.06334E-05
 -1     24929-6.22421E-03 5.71210E-03 5.28145E-04 8.35494E-02 7.10469E-06 3.89488E-06
 -1     24930-2.02023E-02 1.98511E-02 3.77721E-04 9.79245E-02 1.33163E-04-1.65818E-04
 -1     24931-2.35715E-02 2.36327E-02-2.94143E-05 8.53925E-02-5.50595E-08 2.81674E-04
 -1     24932-2.44659E-02 2.38880E-02 6.03411E-04 9.55369E-02 1.23938E-04-5.69161E-05
 -1     24933-5.23784E-02 5.23870E-02-2.63467E-06 5.59288E-02-7.24363E-05-8.44405E-05
 -1     24934-5.00654E-02 4.98023E-02 2.83386E-04 6.58428E-02-1.17777E-04-8.09027E-05
 -1     24935-4.07414E-02 4.06173E-02 1.41359E-04 8.28016E-02-8.20295E-05-8.54935E-05
 -1     24936-5.03773E-02 5.04369E-02-5.88184E-05 5.50343E-02 7.04000E-05-8.58323E-05
 -1     24937 6.43146E-02-6.37200E-02-5.51754E-04 1.09015E-01-1.59364E-04 5.23144E-04
 -1     24938 6.35085E-02-6.27657E-02-7.11882E-04 1.01532E-01-3.01002E-05 1.33032E-04
 -1     24939 5.70553E-02-5.66947E-02-3.41469E-04 9.81235E-02 1.00444E-04-4.42176E-05
 -1     24940 6.05493E-02-6.04089E-02-1.16221E-04 1.11113E-01-1.64001E-04 3.75334E-04
 -1     24941 1.52815E-02-1.44603E-02-7.99086E-04 1.00473E-01-3.73192E-04-5.93502E-04
 -1     24942 2.04889E-02-2.02782E-02-1.93844E-04 1.02612E-01 1.89117E-04-6.99754E-04
 -1     24943-5.23721E-02 5.19390E-02 4.07496E-04 2.43368E-02-2.39188E-04-5.63140E-05
 -1     24944-5.05639E-02 5.04436E-02 1.15435E-04 2.41712E-02-4.28068E-05 4.61119E-05
 -1     24945-6.67966E-02 6.65787E-02 2.23639E-04 5.07649E-02-1.43924E-04-1.95036E-04
 -1     24946-3.64821E-02 3.66128E-02-1.05411E-04 8.58378E-02-9.88323E-05-2.24251E-04
 -1     24947-4.03965E-02 4.04585E-02-3.82244E-05 7.29492E-02-6.25201E-05-2.58692E-05
 -1     24948 1.47043E-03-1.38396E-03-6.45987E-05 9.10586E-02-2.48519E-04-9.91118E-05
 -1     24949 8.00633E-03-7.35786E-03-6.39237E-04 9.59390E-02-7.93006E-04-3.83762E-04
 -1     24950 6.89389E-03-6.23137E-03-6.33939E-04 8.78496E-02 1.17469E-04-4.47629E-04
 -1     24951-9.04988E-03 9.11745E-03-5.01786E-05 7.62804E-02-1.85345E-04 1.84348E-04
 -1     24952-6.95231E-02 6.96601E-02-1.69402E-04 4.38884E-04 1.74335E-04 4.97552E-06
 -1     24953-6.90648E-02 6.96633E-02-6.00835E-04 7.10772E-04 2.48491E-04 1.85382E-04
 -1     24954-6.19049E-02 6.20245E-02-1.35232E-04 1.43548E-02-2.50160E-04 1.23257E-04
 -1     24955-6.05133E-02 6.09200E-02-4.25138E-04 1.34070E-02 2.84361E-04-3.70905E-05
 -1     24956-3.17675E-02 3.16166E-02 1.79232E-04 7.97681E-02 1.24892E-04-3.61470E-05
 -1     24957-3.99341E-02 3.98718E-02 7.38930E-05 6.55613E-02 1.41053E-04 7.62691E-05
 -1     24958-3.51143E-02 3.49187E-02 2.05247E-04 6.90357E-02 9.17274E-05 1.57156E-05
 -1     24959-3.11290E-02 3.08776E-02 2.63479E-04 7.24419E-02 2.31644E-04 3.17803E-05
 -1     24960-2.70664E-02 2.69789E-02 1.03258E-04 7.52825E-02 2.94522E-04-4.41184E-05
 -1     24961-3.87616E-02 3.85110E-02 2.70885E-04 5.82567E-02 3.20454E-04-7.48114E-05
 -1     24962-5.17298E-02 5.14010E-02 3.29247E-04 3.91420E-02 3.09501E-04 1.83610E-04
 -1     24963-4.95405E-02 4.96355E-02-8.13548E-05 4.77162E-02 2.78083E-05-5.45098E-06
 -1     24964-5.67249E-02 5.69778E-02-2.74209E-04 2.99678E-02-4.69381E-04-6.23930E-04
 -1     24965-5.72015E-02 5.80015E-02-8.30451E-04 2.58610E-02-5.98605E-04-6.20474E-04
 -1     24966-4.13073E-02 4.21738E-02-8.89932E-04 3.97837E-02-1.24189E-03-5.75351E-04
 -1     24967 4.94507E-02-4.94514E-02 1.99426E-05 9.34235E-02 3.15268E-05-1.65342E-04
 -1     24968 4.14909E-02-4.16348E-02 1.55465E-04 8.85422E-02 9.75534E-05-6.37915E-05
 -1     24969 5.31489E-02-5.25879E-02-5.26746E-04 9.97642E-02-1.85655E-04 3.92100E-04
 -1     24970-1.46974E-02 1.49733E-02-2.60860E-04 7.99029E-02-3.24841E-05-1.93252E-04
 -1     24971-2.05756E-02 2.04964E-02 9.30424E-05 6.66227E-02-1.23800E-04 1.78116E-04
 -1     24972-1.81193E-02 1.84207E-02-2.95196E-04 7.84799E-02-1.91820E-04-5.55898E-05
 -1     24973-2.43696E-02 2.46604E-02-2.84906E-04 7.64791E-02 2.03016E-04 7.75289E-05
 -1     24974-2.08674E-02 2.09275E-02-4.15582E-05 7.80275E-02 1.42508E-04 1.30755E-04
 -1     24975-3.18809E-02 3.18405E-02 5.59904E-05 6.31269E-02 1.63547E-04-5.83887E-05
 -1     24976-5.29700E-02 5.31015E-02-1.27396E-04 2.28820E-02-4.70104E-04-4.88251E-04
 -1     24977-4.18508E-02 4.14325E-02 3.98044E-04 3.53297E-02 2.78201E-05-4.62974E-04
 -1     24978-5.35612E-02 5.32818E-02 2.44863E-04 2.23951E-02 2.34506E-04-7.74953E-04
 -1     24979 3.24994E-02-3.25522E-02 6.26878E-05 8.36404E-02 1.06064E-04 6.01882E-05
 -1     24980 2.24418E-02-2.25669E-02 1.41266E-04 7.90953E-02-9.13973E-06-6.28495E-06
 -1     24981 3.62496E-02-3.61854E-02-4.42925E-05 8.99558E-02-1.15473E-04 8.53276E-05
 -1     24982 5.12472E-02-5.14319E-02 2.10769E-04 1.12483E-01-2.98722E-04-4.21363E-04
 -1     24983 5.56806E-02-5.62589E-02 6.16448E-04 1.12213E-01-3.39556E-04 1.49163E-04
 -1     24984-5.45530E-02 5.41178E-02 4.45963E-04 3.13220E-02 3.21802E-04 1.92065E-04
 -1     24985-4.60043E-02 4.58687E-02 1.25397E-04 4.68591E-02 2.88857E-04 1.71866E-04
 -1     24986-4.17764E-02 4.16498E-02 1.43497E-04 5.07890E-02 1.63690E-04-3.67552E-05
 -1     24987-5.56037E-02 5.54704E-02 1.20897E-04 2.78638E-02-1.28079E-04 1.23775E-04
 -1     24988-4.60597E-02 4.59859E-02 7.79114E-05 5.78179E-02 3.37053E-05-7.82079E-06
 -1     24989-5.00582E-02 4.99583E-02 8.41738E-05 2.59640E-02 4.21475E-05 2.72357E-05
 -1     24990-4.98859E-02 4.99125E-02-2.65491E-05 2.62264E-02-7.37837E-05 2.11326E-05
 -1     24991-3.99790E-02 3.99699E-02 1.25548E-06 3.84308E-02-8.27899E-05 8.66751E-05
 -1     24992 2.65042E-02-2.66397E-02 1.65168E-04 1.05530E-01-1.54477E-04-5.54114E-04
 -1     24993 3.24863E-02-3.31354E-02 6.66880E-04 1.07779E-01-1.29403E-04-3.59948E-04
 -1     24994 1.94743E-02-1.90058E-02-4.34775E-04 9.60326E-02 1.16876E-04-8.01507E-04
 -1     24995 3.89570E-02-3.92977E-02 3.63383E-04 1.08875E-01-2.18554E-04 5.04359E-05
 -1     24996 4.45639E-02-4.44658E-02-6.66724E-05 1.09624E-01-4.17532E-04-3.81668E-04
 -1     24997 3.21066E-02-3.17527E-02-3.22748E-04 1.00754E-01 4.67999E-04-5.95420E-05
 -1     24998 1.04714E-02-1.02981E-02-1.77892E-04 7.28788E-02 5.48609E-05-2.72317E-04
 -1     24999-1.87023E-03 2.27774E-03-4.03157E-04 6.58100E-02-1.27930E-04-1.34109E-04
 -1     25000 1.69253E-02-1.70035E-02 8.28640E-05 7.82150E-02 1.68461E-05 2.40725E-04
 -1     25001 5.58138E-02-5.56285E-02-1.55488E-04 1.05647E-01-1.43536E-04 2.56783E-04
 -1     25002-1.41843E-02 1.41773E-02-1.84901E-05 5.77818E-02-5.16938E-04 3.93468E-04
 -1     25003-2.72346E-02 2.69138E-02 3.15516E-04 4.83535E-02-1.13508E-03 3.07130E-04
 -1     25004-3.12254E-02 3.14862E-02-2.79191E-04 4.58661E-02-1.58596E-03 1.07921E-04
 -1     25005-7.52534E-03 6.98781E-03 5.32292E-04 6.39568E-02-8.29037E-04-1.17317E-04
 -1     25006 4.41421E-02-4.44111E-02 2.99740E-04 1.03579E-01-3.92832E-04-2.28928E-04
 -1     25007 4.79910E-02-4.81762E-02 2.05925E-04 1.01328E-01 7.01328E-05-2.67063E-05
 -1     25008 4.06409E-02-4.05503E-02-7.15175E-05 9.75794E-02-1.26872E-04 1.38408E-04
 -1     25009-5.89857E-02 5.79705E-02 9.79486E-04 2.27355E-02 1.39236E-04-3.08037E-05
 -1     25010-5.59129E-02 5.54842E-02 4.21545E-04 2.12151E-02 3.09933E-04-3.21811E-04
 -1     25011-4.51309E-02 4.46886E-02 4.14173E-04 3.23475E-02 3.58374E-05-6.22750E-04
 -1     25012-4.47923E-02 4.64492E-02-1.68490E-03 3.49831E-02-8.53272E-04-1.13994E-03
 -1     25013 3.27119E-02-3.30014E-02 3.06729E-04 9.24469E-02-1.86031E-05 9.39235E-05
 -1     25014-3.11731E-02 3.15828E-02-4.26350E-04 4.60461E-02 2.04645E-04-5.54583E-04
 -1     25015-3.14615E-02 3.12356E-02 2.29916E-04 4.73214E-02 1.23523E-04 4.76387E-05
 -1     25016-5.42883E-02 5.40542E-02 2.41736E-04 2.77541E-02-4.78292E-04 3.54520E-05
 -1     25017-4.74343E-02 4.71794E-02 2.50366E-04 3.96108E-02-5.68629E-05 1.22313E-04
 -1     25018-5.32323E-02 5.33414E-02-1.28862E-04 2.62792E-02-3.44841E-04 2.09149E-05
 -1     25019-3.14758E-02 3.17109E-02-2.36760E-04 5.29599E-02-1.05328E-04-2.57252E-05
 -1     25020-2.84686E-02 2.86585E-02-1.83565E-04 5.37974E-02-2.53916E-05 1.27638E-05
 -1     25021-2.60077E-02 2.60802E-02-5.52397E-05 6.54333E-02-1.66465E-04-2.48361E-05
 -1     25022 1.13115E-02-1.16744E-02 3.77812E-04 8.79679E-02-3.31070E-04-1.01601E-03
 -1     25023 1.67407E-02-1.74723E-02 7.36830E-04 9.06694E-02 1.53424E-04-1.14121E-03
 -1     25024 2.16745E-02-2.15170E-02-1.41064E-04 9.19766E-02 8.50843E-04-4.53198E-04
 -1     25025 2.80802E-02-2.80441E-02-1.89778E-05 9.26975E-02 4.71253E-05 3.35395E-04
 -1     25026 2.28981E-02-2.30703E-02 1.77952E-04 8.51536E-02 2.81469E-05 1.12316E-04
 -1     25027 1.31082E-02-1.37513E-02 6.71519E-04 8.44171E-02 9.49324E-04-3.25291E-04
 -1     25028 1.17198E-02-1.18716E-02 1.61020E-04 7.78274E-02-1.58037E-05 6.63639E-05
 -1     25029-1.95193E-02 1.91116E-02 4.09795E-04 6.30727E-02-9.85598E-05 1.87786E-04
 -1     25030-1.13990E-02 1.14665E-02-6.36358E-05 7.07696E-02-3.67618E-04-1.70383E-04
 -1     25031-2.71396E-03 3.37692E-03-6.64219E-04 7.77375E-02-2.57658E-04-5.02544E-04
 -1     25032 4.98256E-03-4.15199E-03-8.24072E-04 8.30940E-02-1.27886E-04-1.09377E-03
 -1     25033 1.67805E-03-2.00051E-03 3.47527E-04 7.83752E-02-2.12330E-04-8.52667E-04
 -1     25034-1.23322E-02 1.30634E-02-7.11673E-04 6.53235E-02-2.60931E-04-6.02308E-05
 -1     25035-5.15293E-02 5.17418E-02-2.30515E-04 2.62841E-02 2.27695E-04-1.62160E-04
 -1     25036-5.16728E-02 5.21106E-02-4.31678E-04 2.59546E-02 2.57683E-04-7.21409E-05
 -1     25037-4.42466E-02 4.41792E-02 6.57602E-05 3.88438E-02-2.43323E-04-5.45880E-05
 -1     25038-4.13654E-02 4.13466E-02 1.49813E-05 3.91088E-02-6.83993E-05-1.60409E-05
 -1     25039 5.84164E-03-6.33740E-03 5.00540E-04 7.62541E-02 1.40720E-04-3.19311E-04
 -1     25040-2.79931E-04 3.67974E-04-1.03004E-04 7.01283E-02 1.64050E-05-3.29324E-04
 -1     25041-1.14174E-02 1.12537E-02 1.71121E-04 6.20978E-02-7.67230E-04 2.51043E-04
 -1     25042 1.33541E-03-3.12965E-03 1.78728E-03 7.59552E-02 4.45678E-04-9.31107E-04
 -1     25043-3.28436E-02 3.30758E-02-2.18781E-04 5.23696E-02 1.66034E-04-1.03934E-04
 -1     25044-3.56882E-02 3.55748E-02 1.06895E-04 5.14514E-02-2.51277E-04-3.30440E-04
 -1     25045-4.00536E-02 3.98926E-02 1.51748E-04 5.08633E-02-1.01457E-04-8.55209E-05
 -1     25046-3.69693E-02 3.67282E-02 2.54389E-04 5.19647E-02-4.01818E-04-2.23990E-04
 -1     25047-3.33656E-02 3.28224E-02 5.60372E-04 4.30885E-02 1.11040E-04-3.55375E-04
 -1     25048-2.33044E-02 2.36084E-02-3.20904E-04 5.52825E-02 3.39367E-04 5.94209E-04
 -1     25049-1.54757E-02 1.45417E-02 9.28291E-04 6.36367E-02-1.45343E-04 5.18786E-04
 -1     25050-3.62422E-02 3.56904E-02 5.19619E-04 4.26047E-02-1.61331E-04-1.07825E-04
 -1     25051-2.18464E-02 2.21101E-02-2.92134E-04 5.36614E-02-1.25682E-03 6.73029E-04
 -1     25052-3.45250E-02 3.60137E-02-1.49758E-03 4.23098E-02-1.12676E-03-5.77174E-04
 -1     25053-3.65402E-02 3.69843E-02-4.38583E-04 4.09386E-02-1.94593E-04-4.69770E-04
 -1     25054-1.61716E-02 1.63678E-02-2.03269E-04 5.96903E-02-1.12367E-04 3.46887E-04
 -1     25055-2.88821E-02 2.87882E-02 8.62071E-05 5.23825E-02-1.82609E-05 1.24698E-04
 -1     25056-6.06488E-03 5.37557E-03 6.84003E-04 7.11493E-02-5.34079E-06-5.02672E-04
 -1     25057-2.65106E-02 2.56958E-02 7.86429E-04 5.13229E-02-1.41761E-04 6.16282E-04
 -1     25058-1.58793E-02 1.53759E-02 5.37126E-04 6.17640E-02 3.55585E-04 6.09168E-04
 -1     25059-1.28855E-02 1.28613E-02 3.72296E-05 7.47239E-02 4.47678E-05 1.90292E-04
 -1     25060-7.63153E-03 7.71938E-03-6.77234E-05 8.76358E-02 6.95105E-05 9.29435E-05
 -1     25061-1.63417E-02 1.64172E-02-4.83477E-05 7.36022E-02-1.28904E-04 3.29114E-04
 -1     25062-1.61485E-01 1.61493E-01-8.81354E-05-1.17082E-01-4.03191E-04-1.10257E-04
 -1     25063-1.53635E-01 1.53490E-01 7.02006E-05-1.08468E-01-7.73352E-05-1.64841E-04
 -1     25064-1.50198E-01 1.50237E-01-1.13313E-04-1.04924E-01-2.90794E-04-1.17082E-04
 -1     25065-1.59979E-01 1.59866E-01 3.48408E-05-1.15185E-01-1.62765E-04-2.42344E-04
 -1     25066-1.63253E-01 1.63186E-01-1.37924E-05-1.18597E-01 4.53437E-05-2.10043E-05
 -1     25067-1.51908E-01 1.51846E-01-1.32320E-05-1.06622E-01 9.84061E-05-1.23233E-04
 -1     25068 6.91164E-02-6.90550E-02-4.25579E-06 1.40216E-01-1.45046E-04 4.32372E-05
 -1     25069 6.47677E-02-6.45854E-02-1.29126E-04 1.49307E-01-1.78685E-04 2.01395E-04
 -1     25070 6.63237E-02-6.62201E-02-4.59704E-05 1.43244E-01-1.38049E-05 1.76832E-04
 -1     25071 7.25986E-02-7.24600E-02-9.34723E-05 1.28858E-01-2.10427E-04 6.77160E-05
 -1     25072 7.26873E-02-7.25644E-02-7.76889E-05 1.28553E-01-2.27526E-04 9.31594E-06
 -1     25073 7.17980E-02-7.17990E-02 5.72301E-05 1.37320E-01-6.15481E-05 1.90715E-04
 -1     25074 7.49880E-02-7.50284E-02 8.96042E-05 1.25819E-01-8.41315E-05 3.73392E-04
 -1     25075 1.04579E-02-1.06749E-02 2.68807E-04 1.14724E-01-2.85046E-04 1.76951E-04
 -1     25076 1.57399E-02-1.56946E-02 8.46290E-06 1.13998E-01-4.47912E-04 2.10798E-04
 -1     25077 1.31684E-02-1.35650E-02 4.50211E-04 1.12333E-01 1.08762E-04 4.40733E-04
 -1     25078 2.96583E-02-2.96329E-02 2.34087E-05 1.40601E-01 1.04537E-04 6.59716E-05
 -1     25079 2.47194E-02-2.46425E-02-2.85922E-05 1.28717E-01 2.09049E-04 3.60950E-05
 -1     25080 2.96798E-02-2.96113E-02-2.71243E-05 1.30499E-01 2.35001E-04-1.58356E-04
 -1     25081-1.30300E-01 1.30336E-01-9.50674E-05-7.56770E-02-1.45946E-04 2.04910E-05
 -1     25082-1.21518E-01 1.21409E-01 5.59223E-05-6.33866E-02-1.12084E-04 2.00396E-04
 -1     25083-1.31371E-01 1.31568E-01-2.53860E-04-7.88425E-02 5.42246E-05-1.12986E-04
 -1     25084 5.08549E-02-5.11261E-02 3.35012E-04 9.94149E-02 3.81860E-04-1.72609E-04
 -1     25085 4.59613E-02-4.60316E-02 1.20663E-04 9.41002E-02-9.26016E-05 1.97196E-04
 -1     25086 5.44557E-02-5.43906E-02-9.70694E-06 9.56653E-02 4.70497E-04 2.72460E-04
 -1     25087 5.18508E-02-5.24484E-02 6.66639E-04 8.34510E-02-3.56054E-04-5.35483E-04
 -1     25088 5.56831E-02-5.46296E-02-1.00733E-03 7.92731E-02 3.73853E-04 6.09372E-04
 -1     25089 5.60602E-02-5.64817E-02 4.76835E-04 9.18548E-02-4.45874E-04-2.48096E-04
 -1     25090 5.48176E-02-5.50039E-02 2.41714E-04 7.94378E-02-2.53155E-04-9.84213E-04
 -1     25091 5.88623E-02-5.87798E-02-3.07750E-05 8.90438E-02-9.17248E-04 1.49918E-04
 -1     25092-1.27953E-01 1.30048E-01-2.04700E-03 1.44222E-01-1.24147E-03 2.58519E-03
 -1     25093-1.17761E-01 1.19801E-01-1.99286E-03 1.46837E-01 1.69961E-03 1.91559E-03
 -1     25094-1.25250E-01 1.20319E-01 4.96853E-03 1.43674E-01-1.96007E-03 7.81741E-04
 -1     25095-1.29665E-01 1.29414E-01 1.91289E-04-7.98250E-02 2.06013E-04-1.12060E-04
 -1     25096-1.38808E-01 1.38863E-01-1.21437E-04-9.19197E-02 5.95432E-06-4.83164E-05
 -1     25097-1.28729E-01 1.28336E-01 3.36405E-04-7.78191E-02 2.94687E-04 6.14747E-05
 -1     25098 1.80759E-02-1.78986E-02-1.57658E-04 9.37647E-02-3.72496E-06-2.34420E-04
 -1     25099 1.22242E-02-1.19375E-02-2.69142E-04 9.01770E-02 1.37725E-04-1.25578E-04
 -1     25100 9.81649E-03-9.94267E-03 1.42610E-04 8.56124E-02 3.86780E-05 2.53331E-06
 -1     25101 1.23989E-02-1.23942E-02-2.33987E-05 4.83659E-02 4.27885E-05 4.74480E-05
 -1     25102-1.51541E-03 1.51212E-03-5.69411E-06 4.57597E-02 4.34089E-04 1.28383E-04
 -1     25103 3.45431E-03-3.35690E-03-1.03390E-04 5.20517E-02 1.77672E-04 4.85228E-05
 -1     25104-9.95240E-03 9.92602E-03 3.58258E-06 4.95681E-02 2.04957E-04 1.32614E-04
 -1     25105-1.23103E-01 1.23040E-01 7.60104E-06-7.04060E-02 4.36104E-06 8.50763E-05
 -1     25106-1.24080E-01 1.24112E-01-8.78768E-05-7.24761E-02 2.51864E-05-1.60374E-04
 -1     25107-1.13643E-01 1.13511E-01 8.02838E-05-5.84687E-02-2.03528E-04 4.58434E-05
 -1     25108-1.14753E-01 1.14705E-01-9.33631E-07-6.04195E-02-7.43467E-05-2.23386E-04
 -1     25109 1.16710E-02-1.15146E-02-1.06024E-04 1.15020E-01-5.37489E-04 2.41001E-04
 -1     25110 4.55854E-03-4.49497E-03-6.78679E-06 1.15955E-01 1.53833E-04-4.61117E-04
 -1     25111 6.30822E-03-5.82863E-03-4.33238E-04 1.16478E-01-7.14492E-05-1.10141E-04
 -1     25112 8.45341E-03-8.15118E-03-2.61210E-04 1.15960E-01 1.74228E-04 3.29968E-04
 -1     25113-4.11901E-02 4.00800E-02 1.15130E-03 1.60392E-01-6.00332E-04-9.64834E-04
 -1     25114-1.35643E-02 1.29106E-02 7.07736E-04 1.67401E-01-2.03026E-03 5.78391E-04
 -1     25115-4.20113E-02 4.20944E-02-8.59352E-06 1.53092E-01-1.22039E-03 1.67120E-03
 -1     25116-5.24868E-02 5.30546E-02-5.24766E-04 1.55207E-01 1.41893E-03-2.38442E-03
 -1     25117-2.77072E-02 2.78075E-02-3.71165E-05 1.68038E-01-1.26784E-03-2.63068E-03
 -1     25118-2.99158E-02 3.18876E-02-1.90117E-03 1.60257E-01-1.13648E-03 3.60838E-04
 -1     25119-1.73696E-01 1.93317E-01-2.01266E-02 1.03716E-01-2.19015E-02-1.98611E-03
 -1     25120-1.76332E-01 1.75776E-01-3.14789E-04 6.55042E-02-1.28106E-02 7.05253E-03
 -1     25121-3.30306E-01 3.05827E-01 2.39351E-02 7.05247E-02-3.63593E-02 5.53317E-03
 -1     25122-3.11011E-01 3.51467E-01-4.09812E-02 7.51587E-02 2.03628E-02-4.04923E-02
 -1     25123-1.73375E-01 1.81355E-01-7.78832E-03 6.75950E-02 1.37899E-02-2.83773E-02
 -1     25124-2.85591E-01 2.82285E-01 3.23077E-03 4.95754E-02-5.87250E-03-3.55555E-03
 -1     25125 6.94078E-02-6.91144E-02-2.41451E-04 1.09142E-01 1.51182E-04 5.36756E-04
 -1     25126 6.61068E-02-6.57515E-02-3.03782E-04 1.04864E-01-9.21513E-05 3.31567E-04
 -1     25127 6.65111E-02-6.59441E-02-4.90811E-04 1.01630E-01 1.34739E-04 2.08558E-04
 -1     25128-7.94326E-02 8.48206E-02-5.40593E-03 1.02531E-01 1.43544E-03 4.16672E-04
 -1     25129-5.56265E-02 6.05227E-02-4.91559E-03 5.23865E-02-2.77452E-03 8.24788E-03
 -1     25130-8.17029E-02 9.13471E-02-9.60114E-03 9.67211E-02 5.95761E-04-5.69903E-03
 -1     25131-6.47376E-02 6.26548E-02 2.02601E-03 4.34370E-02 7.77571E-03 5.70384E-03
 -1     25132-4.94088E-02 5.45560E-02-5.10371E-03 4.86243E-02 1.11919E-03 1.42814E-04
 -1     25133 7.61891E-02-7.61358E-02-6.87386E-06 1.17096E-01 9.83155E-05 6.64518E-05
 -1     25134 7.49788E-02-7.50270E-02 9.12345E-05 1.12128E-01-3.38294E-05-1.90102E-04
 -1     25135 7.62045E-02-7.60027E-02-1.62803E-04 1.08840E-01-9.36642E-05-3.71318E-05
 -1     25136 6.12112E-02-6.11493E-02 5.56047E-07 1.57562E-01-1.56483E-04 1.90408E-04
 -1     25137 6.23576E-02-6.23470E-02 4.25618E-05 1.51498E-01 6.95892E-05 2.67837E-04
 -1     25138 6.95033E-02-6.94573E-02-1.57921E-05 8.30144E-02-3.91683E-04-5.76389E-05
 -1     25139 6.74415E-02-6.74391E-02 3.93097E-05 7.75620E-02 3.88421E-04-1.16393E-04
 -1     25140 7.00858E-02-7.00410E-02 1.06694E-05 8.57810E-02-2.70367E-04 2.49821E-05
 -1     25141 6.78094E-02-6.77786E-02 4.63187E-06 8.13769E-02 3.75064E-04 4.83280E-04
 -1     25142 2.22715E-02-2.19685E-02-1.99012E-04 2.60199E-01-1.33171E-05-4.33745E-04
 -1     25143 2.18238E-02-2.24090E-02 6.81680E-04 2.59938E-01 1.84723E-04-3.61430E-04
 -1     25144 2.20377E-02-2.18568E-02-7.76681E-05 2.59771E-01 1.65072E-04 2.30898E-04
 -1     25145-8.93745E-02 8.93680E-02-2.36158E-05-4.75256E-03-1.58876E-04 1.30406E-04
 -1     25146-8.15102E-02 8.14280E-02 6.98682E-05 6.79392E-03 2.43408E-05 7.11888E-05
 -1     25147-8.95896E-02 8.95573E-02 2.05843E-07-9.78733E-03-2.20092E-05 2.92625E-05
 -1     25148-2.01254E-02 1.99510E-02 1.71950E-04 5.76105E-02-1.80883E-04-2.40126E-05
 -1     25149-2.81444E-02 2.83928E-02-2.55578E-04 4.97985E-02-2.40741E-04 4.12908E-04
 -1     25150-1.17366E-02 1.18317E-02-9.67708E-05 6.56138E-02-2.14289E-04 3.55580E-04
 -1     25151 2.94284E-03-2.65249E-03-2.78038E-04 8.05288E-02 1.83715E-04 5.01152E-05
 -1     25152-5.31701E-03 5.31187E-03 1.79335E-05 7.35445E-02-1.04142E-04-2.96993E-04
 -1     25153-9.17970E-02 9.25071E-02-6.63216E-04 1.49416E-01-1.06103E-03-6.72840E-04
 -1     25154-8.36095E-02 8.57969E-02-2.15553E-03 1.53456E-01 2.04776E-03 2.51956E-05
 -1     25155-9.33428E-02 9.42191E-02-8.67234E-04 1.61705E-01 1.39790E-03-1.32526E-04
 -1     25156-1.00175E-01 1.00021E-01 1.77625E-04 1.69208E-01 2.61626E-04-1.13781E-03
 -1     25157-9.08221E-02 9.17497E-02-8.88661E-04 1.62019E-01 1.66803E-03-8.27185E-04
 -1     25158-9.47320E-02 9.56699E-02-8.95519E-04 1.68992E-01 2.33423E-03-1.18062E-03
 -1     25159-1.99357E-02 1.99643E-02-1.29046E-05 7.80089E-02 2.75788E-06-6.78151E-05
 -1     25160-2.81364E-02 2.81299E-02 1.76019E-05 6.46739E-02 6.08564E-05 5.08255E-05
 -1     25161-2.50755E-02 2.51161E-02-2.73889E-05 6.58813E-02 9.77916E-05-2.96027E-05
 -1     25162 4.17318E-03-3.80791E-03-2.82212E-04 2.11340E-01-9.99351E-05-3.78975E-05
 -1     25163 6.46461E-03-6.03056E-03-3.49911E-04 2.17227E-01-3.26599E-04-7.62871E-06
 -1     25164 1.88834E-02-1.87110E-02-7.17103E-05 2.46749E-01 3.15108E-04 2.16073E-04
 -1     25165 1.23464E-02-1.25044E-02 2.46978E-04 2.31532E-01-1.63548E-04-1.11351E-04
 -1     25166 1.46129E-02-1.48123E-02 2.97818E-04 2.37406E-01 6.77546E-05 4.15827E-04
 -1     25167-7.20048E-02 7.19713E-02 1.61842E-05-2.34874E-03-1.19708E-04 2.92203E-04
 -1     25168-7.04180E-02 7.03915E-02 8.52405E-07-1.14812E-03-6.67887E-05 4.03993E-06
 -1     25169-6.17065E-02 6.16725E-02 9.93675E-06 1.05639E-02-7.09248E-05-1.41253E-04
 -1     25170-6.09733E-02 6.09490E-02 6.42861E-06 1.17386E-02 1.21766E-04-8.31049E-05
 -1     25171-4.60022E-02 4.60393E-02 3.83884E-06 1.20431E-01-1.77561E-05-7.29257E-05
 -1     25172-3.67226E-02 3.68951E-02-1.31573E-04 1.35294E-01-2.23887E-04-7.26701E-05
 -1     25173-4.27495E-02 4.25198E-02 2.72791E-04 1.33382E-01-2.16101E-04 2.62700E-04
 -1     25174-4.10131E-02 4.12423E-02-2.00793E-04 1.34531E-01-8.15363E-05 3.49481E-04
 -1     25175-3.31822E-02 3.31500E-02 9.34808E-05 1.48573E-01-9.50363E-05 1.94294E-04
 -1     25176-3.71476E-02 3.71683E-02 1.24665E-06 8.46652E-02-8.69180E-06-7.19502E-05
 -1     25177-4.20173E-02 4.19885E-02 4.48730E-05 6.87802E-02-2.79793E-04 4.91946E-06
 -1     25178-3.29277E-02 3.29946E-02-4.73730E-05 8.74735E-02 8.48897E-05 7.15039E-06
 -1     25179-3.77047E-02 3.77219E-02-1.50207E-06 7.15101E-02-6.58326E-05-3.14389E-05
 -1     25180-3.49360E-02 3.50122E-02-6.16044E-05 6.90104E-02 1.50160E-04 1.28222E-04
 -1     25181-3.09733E-02 3.10324E-02-4.28423E-05 7.24921E-02 1.46534E-04 1.19277E-05
 -1     25182-3.80182E-02 3.80717E-02-4.79047E-05 6.00491E-02 8.62807E-05 1.91705E-05
 -1     25183-4.59800E-02 4.59228E-02 5.95795E-05 4.58312E-02 1.78920E-04 2.84286E-04
 -1     25184-4.20828E-02 4.19329E-02 1.53646E-04 4.95171E-02 6.57105E-05 9.05015E-05
 -1     25185-8.32790E-02 8.33411E-02-8.26587E-05-7.37150E-03 4.69846E-05-3.90794E-04
 -1     25186-8.24636E-02 8.24353E-02 9.85962E-06-2.99457E-03 1.92104E-04 2.97341E-04
 -1     25187-9.12001E-02 9.11673E-02 1.35781E-06-1.93772E-02 2.31844E-04 1.35826E-04
 -1     25188 2.67173E-02-2.64838E-02-1.78677E-04 1.21032E-01-3.90340E-04-3.91513E-04
 -1     25189 2.10371E-02-2.13711E-02 3.75490E-04 1.22353E-01 3.50881E-04-1.49518E-04
 -1     25190 3.01078E-02-3.04203E-02 3.67645E-04 1.23874E-01 3.21450E-04 4.27771E-04
 -1     25191 2.80602E-02-2.74246E-02-5.72109E-04 1.22408E-01-3.00393E-05-5.83687E-05
 -1     25192 1.85101E-02-1.85784E-02 1.12746E-04 1.20092E-01 1.09707E-04-5.52849E-04
 -1     25193 2.13585E-02-2.14168E-02 1.12037E-04 1.23061E-01 5.05970E-04 5.34522E-04
 -1     25194 6.11928E-02-6.12488E-02 1.08682E-04 1.10277E-01-1.07831E-04 5.26576E-04
 -1     25195 6.53216E-02-6.52809E-02 1.58718E-05 1.12777E-01 4.59209E-04 1.45960E-04
 -1     25196 6.11920E-02-6.13308E-02 1.94285E-04 1.16469E-01 3.33308E-04 3.07831E-04
 -1     25197-6.75697E-02 6.77721E-02-2.19856E-04 4.42905E-03 1.93872E-05 2.40408E-05
 -1     25198-6.67174E-02 6.68110E-02-1.09010E-04 7.41493E-03 8.53415E-05-2.85924E-04
 -1     25199-7.68018E-02 7.68114E-02-3.25454E-05-6.21236E-03-1.11584E-04 7.91255E-05
 -1     25200-7.78740E-02 7.78522E-02 5.41985E-07-8.81793E-03-1.17667E-04-2.81016E-04
 -1     25201-6.68818E-02 6.66091E-02 2.52397E-04 6.12231E-03-6.81224E-05 5.72684E-05
 -1     25202 1.18816E-02-1.23807E-02 5.78685E-04 2.17473E-01-1.41865E-04 1.53480E-04
 -1     25203 1.52549E-02-1.52563E-02 8.94996E-05 2.24626E-01 5.12576E-04-2.57308E-05
 -1     25204 1.05676E-02-1.07275E-02 2.42469E-04 2.03621E-01-3.12084E-04 3.10130E-04
 -1     25205 8.25367E-03-7.96444E-03-2.13581E-04 2.02141E-01-3.34668E-04 3.06058E-04
 -1     25206 1.39309E-02-1.33233E-02-5.24046E-04 2.23210E-01 4.48814E-04-1.60029E-04
 -1     25207 1.16274E-02-1.15821E-02 4.72679E-05 2.08960E-01-1.48098E-04-5.19916E-05
 -1     25208 2.07069E-02-2.11024E-02 4.56440E-04 1.50703E-01 1.92596E-04 1.98927E-04
 -1     25209 2.01095E-02-2.00921E-02 4.37269E-05 1.45794E-01 2.92166E-04-7.47606E-04
 -1     25210 2.79354E-02-2.79431E-02 6.23205E-05 1.49136E-01 6.06073E-04 4.52616E-04
 -1     25211 2.25400E-02-2.30181E-02 5.43246E-04 1.56331E-01 5.27401E-04 9.44546E-04
 -1     25212 2.17157E-02-2.16824E-02 2.50616E-05 1.51213E-01 6.24254E-04-1.27538E-04
 -1     25213 1.32845E-02-1.34441E-02 2.25008E-04 1.09424E-01-7.49661E-05-3.06016E-04
 -1     25214 1.51103E-02-1.48556E-02-2.01947E-04 1.05779E-01-5.91812E-04-6.48598E-04
 -1     25215 1.02840E-02-1.05317E-02 2.98221E-04 1.07750E-01 1.53029E-04-6.75406E-05
 -1     25216 8.74238E-03-9.35432E-03 6.95319E-04 1.08814E-01-7.34626E-04 1.65066E-04
 -1     25217 9.33215E-03-1.01078E-02 8.17798E-04 1.04756E-01-6.47273E-04-1.07925E-04
 -1     25218 5.71958E-02-5.69203E-02-2.09954E-04 1.65913E-01 1.37640E-04-5.17194E-06
 -1     25219 5.16319E-02-5.18107E-02 2.46177E-04 1.71104E-01-2.08411E-05-4.32957E-05
 -1     25220 5.08290E-02-5.10835E-02 3.25506E-04 1.76169E-01-1.22738E-04 1.34722E-04
 -1     25221 3.85569E-02-3.87663E-02 2.89415E-04 2.03169E-01-2.49814E-04-5.07532E-05
 -1     25222 4.55119E-02-4.55045E-02 6.76803E-05 1.88941E-01-1.22386E-04 6.78195E-05
 -1     25223 4.33389E-02-4.34589E-02 2.02303E-04 1.93341E-01-1.24785E-05-2.58917E-04
 -1     25224-6.44377E-02 6.43862E-02 4.74234E-05 4.24783E-02-5.14693E-05 1.09518E-04
 -1     25225-6.72344E-02 6.71397E-02 9.59212E-05 3.19790E-02-1.58582E-04 9.74158E-05
 -1     25226-5.58514E-02 5.58623E-02 2.53577E-07 6.14671E-02-1.69533E-05 1.15362E-05
 -1     25227-5.86472E-02 5.85887E-02 6.12419E-05 5.12934E-02 7.14108E-06-1.02617E-05
 -1     25228 5.85755E-02-5.87077E-02 1.97067E-04 1.61045E-01-4.99727E-04 3.67384E-04
 -1     25229 1.94243E-02-1.92311E-02-1.46695E-04 1.08300E-01-4.59324E-04 8.21872E-05
 -1     25230-9.75916E-02 9.73458E-02 2.84293E-04 1.66452E-01 4.51278E-05 3.09898E-05
 -1     25231-1.00193E-01 9.91146E-02 1.12748E-03 1.70537E-01 3.15288E-04 4.78099E-04
 -1     25232-9.38858E-02 9.39007E-02 4.23498E-05 1.67388E-01 7.35930E-04 8.31364E-06
 -1     25233 2.18966E-03-1.94216E-03-1.86283E-04 1.18663E-01-4.38843E-04-2.57848E-04
 -1     25234 1.77104E-03-2.13007E-03 4.14513E-04 1.17532E-01 1.01306E-04-2.70560E-04
 -1     25235 2.23126E-03-2.47009E-03 2.62793E-04 1.16827E-01-1.65327E-04 3.05628E-05
 -1     25236 2.68002E-03-2.48624E-03-1.85022E-04 1.18017E-01-1.29945E-04-1.81925E-04
 -1     25237 4.41600E-03-3.94394E-03-4.20632E-04 1.17230E-01-1.73368E-04 3.01769E-04
 -1     25238-1.27386E-01 1.27339E-01-8.09152E-06-7.45406E-02 1.55678E-04 1.91832E-05
 -1     25239-1.38083E-01 1.38126E-01-1.07835E-04-8.96594E-02 2.25245E-04-2.51167E-06
 -1     25240 6.88886E-02-6.89383E-02 7.86140E-05 9.50995E-02-2.52993E-05-1.55523E-04
 -1     25241 6.62479E-02-6.62163E-02 4.10397E-06 8.85875E-02 1.17897E-04 5.10053E-05
 -1     25242 7.13217E-02-7.12868E-02 2.00237E-06 9.25476E-02 1.41970E-04 5.09297E-05
 -1     25243 2.52143E-03-2.68203E-03 2.10420E-04 1.17462E-01 1.77431E-04-4.00279E-04
 -1     25244 1.98372E-03-1.69276E-03-2.31064E-04 1.18389E-01-7.60419E-05-2.44081E-04
 -1     25245 5.28335E-02-5.27544E-02-2.05175E-05 1.58525E-01 1.87586E-04-3.08221E-05
 -1     25246 4.91413E-02-4.90866E-02-4.40701E-06 1.59699E-01-1.01202E-04 3.61234E-05
 -1     25247 4.92305E-02-4.91751E-02 5.97219E-06 1.68170E-01 6.00790E-05 2.63175E-04
 -1     25248 4.32916E-02-4.35073E-02 2.73208E-04 1.55963E-01-1.78623E-05 1.11026E-04
 -1     25249 4.56990E-02-4.53880E-02-2.51969E-04 1.49994E-01-2.88378E-05-1.41238E-04
 -1     25250 3.68977E-02-3.74512E-02 6.08685E-04 1.61438E-01-2.21771E-04-1.60105E-04
 -1     25251 4.59935E-02-4.58583E-02-6.47455E-05 1.60465E-01 8.33212E-05 3.46169E-04
 -1     25252 5.52723E-02-5.50681E-02-1.40600E-04 1.48756E-01-7.94699E-05 4.73345E-05
 -1     25253 4.83894E-02-4.80761E-02-2.43208E-04 1.54479E-01-2.45279E-04 4.56306E-04
 -1     25254 7.41617E-02-7.39533E-02-1.46764E-04 1.25134E-01-4.54083E-05 2.55367E-04
 -1     25255 7.26066E-02-7.25283E-02-2.61435E-05 1.21140E-01 1.75512E-04-6.88992E-05
 -1     25256 6.93375E-02-6.92140E-02-7.35584E-05 1.29352E-01-1.22814E-04-1.74204E-05
 -1     25257 7.53877E-02-7.53384E-02-7.13710E-07 1.28089E-01 9.37440E-05 5.59968E-05
 -1     25258 7.09960E-02-7.10223E-02 9.28025E-05 1.32461E-01 9.09741E-05-1.72379E-04
 -1     25259-1.68469E-01 1.68388E-01-1.61040E-06-1.22345E-01 4.27682E-05 9.25281E-05
 -1     25260-1.67754E-01 1.67862E-01-1.90183E-04-1.22090E-01-1.38172E-04-3.89921E-05
 -1     25261-1.72002E-01 1.71681E-01 2.35863E-04-1.26937E-01 1.20075E-04 2.99614E-05
 -1     25262-1.58333E-01 1.58366E-01-1.11778E-04-1.12139E-01 7.28741E-05-2.09148E-04
 -1     25263-1.71446E-01 1.71388E-01-2.74151E-05-1.26467E-01 1.34347E-04-3.62135E-05
 -1     25264 1.92328E-02-1.99476E-02 8.18971E-04 2.52693E-01-1.80253E-04 5.01289E-04
 -1     25265 1.15766E-02-1.12514E-02-2.42307E-04 2.19930E-01 3.67558E-04 8.80055E-05
 -1     25266 1.47676E-02-1.47321E-02 5.60534E-05 2.34392E-01 2.46822E-05 3.43623E-04
 -1     25267 1.93106E-02-2.00479E-02 8.34374E-04 2.51577E-01-2.14978E-04-2.61171E-04
 -1     25268 1.46239E-02-1.43824E-02-1.54244E-04 2.33273E-01 2.39798E-04-6.12309E-04
 -1     25269 5.51543E-02-5.48532E-02-2.35813E-04 1.69273E-01 1.30175E-04-2.63612E-04
 -1     25270-1.55230E-01 1.52828E-01 2.15159E-03 4.76052E-02-2.07453E-03-8.97168E-03
 -1     25271-9.22071E-02 8.63010E-02 5.68826E-03 4.19340E-02 1.90187E-03-5.64737E-03
 -1     25272 1.92064E-02-1.90954E-02-9.16785E-06 2.53311E-01-5.02096E-04 3.82603E-04
 -1     25273 1.97325E-02-1.97032E-02 7.47265E-05 2.52007E-01 3.44810E-04-1.82238E-04
 -1     25274 1.07726E-02-1.06399E-02-4.52536E-05 2.19093E-01 4.15677E-04 9.87932E-05
 -1     25275 1.56659E-02-1.55047E-02-7.07736E-05 2.33684E-01 7.31119E-04 3.75777E-06
 -1     25276 3.85660E-02-3.83382E-02-1.60193E-04 7.37761E-02-2.29660E-04-6.27091E-05
 -1     25277 4.70136E-02-4.61026E-02-8.36152E-04 7.78066E-02-4.26041E-04-1.01732E-03
 -1     25278 3.40632E-02-3.42148E-02 2.08331E-04 8.12778E-02 5.13544E-04-1.13647E-03
 -1     25279 2.56693E-02-2.52502E-02-3.56392E-04 7.20426E-02-3.39771E-04 2.63234E-04
 -1     25280 3.87837E-02-3.78644E-02-8.77160E-04 6.77498E-02-8.06235E-04-2.11992E-04
 -1     25281 3.45282E-02-3.33266E-02-1.16523E-03 7.50785E-02 1.20243E-03-4.12807E-04
 -1     25282 6.94461E-03-7.10734E-03 2.31037E-04 1.87579E-01-4.40300E-05 8.09010E-05
 -1     25283 4.76180E-03-4.65661E-03-3.61822E-05 1.85916E-01-2.04998E-04-7.48361E-05
 -1     25284-1.00128E-01 1.01374E-01-1.27569E-03-6.61362E-02-9.65114E-04-2.54701E-03
 -1     25285-9.52423E-02 9.64370E-02-1.25942E-03-5.55649E-02-1.70682E-03-1.23771E-03
 -1     25286-1.04478E-01 1.05575E-01-1.13920E-03-7.21235E-02-6.68893E-04-1.29517E-03
 -1     25287-1.02120E-01 1.01198E-01 8.59941E-04-6.95020E-02-3.64987E-04-4.82837E-04
 -1     25288-9.22762E-02 9.21934E-02-1.13990E-06-5.40431E-02-4.33029E-04-1.71958E-03
 -1     25289-9.85683E-02 9.73673E-02 1.14261E-03-6.07674E-02-2.87325E-06-1.31880E-03
 -1     25290-8.10228E-02 8.12118E-02-1.88790E-04 6.03850E-02-6.10598E-04 6.45403E-05
 -1     25291-8.49930E-02 8.47251E-02 2.54043E-04 3.04816E-02-2.24653E-04 3.66383E-04
 -1     25292-8.52222E-02 8.53612E-02-1.58024E-04 4.99111E-02-8.19315E-06-8.76334E-05
 -1     25293 6.28982E-02-6.29200E-02 5.24350E-05 7.34051E-02 5.55127E-04-8.10523E-05
 -1     25294 2.11003E-02-2.11944E-02 1.96336E-04 2.55220E-01 6.86918E-04-2.68442E-04
 -1     25295 2.36016E-02-2.35165E-02 2.02356E-05 2.61467E-01-1.26411E-04 1.81137E-04
 -1     25296 1.99420E-02-1.98754E-02 3.56454E-05 2.45297E-01 2.97488E-04 5.13689E-05
 -1     25297 1.89049E-02-1.88659E-02 5.78121E-05 2.40553E-01 8.25133E-05 1.27041E-04
 -1     25298 1.74960E-02-1.75119E-02 1.06603E-04 2.30918E-01 3.15265E-04-7.31615E-05
 -1     25299 6.47816E-02-6.45290E-02-2.22487E-04 7.39604E-02 1.78121E-04-2.78250E-04
 -1     25300 5.42571E-02-5.40334E-02-1.88442E-04 6.12715E-02 5.02518E-04-3.31287E-04
 -1     25301 5.78530E-02-5.75461E-02-2.77088E-04 6.46195E-02-3.07749E-04 1.28661E-04
 -1     25302 5.22850E-02-5.14657E-02-7.84117E-04 5.61285E-02 1.04263E-03-2.73417E-04
 -1     25303-7.54252E-02 7.58799E-02-3.96605E-04 1.55816E-01-1.06026E-03 4.49872E-04
 -1     25304-8.47020E-02 8.50058E-02-2.59749E-04 1.49597E-01-5.98268E-04-8.79026E-04
 -1     25305-8.63181E-02 8.64981E-02-1.41280E-04 1.56421E-01 1.81821E-04 3.76495E-04
 -1     25306 3.60137E-03-3.87990E-03 3.50560E-04 1.04345E-01-1.02404E-04 6.86213E-04
 -1     25307 5.79852E-03-6.39892E-03 6.51336E-04 1.02596E-01-6.31051E-04 3.38238E-04
 -1     25308 2.30857E-03-2.55308E-03 3.44565E-04 1.07297E-01-5.06172E-04 5.71878E-04
 -1     25309 3.66946E-03-4.15209E-03 5.26344E-04 1.01001E-01-1.52289E-04 1.22594E-03
 -1     25310 2.78115E-03-2.91695E-03 1.81392E-04 1.04909E-01-5.50234E-04 7.05200E-04
 -1     25311 2.09605E-02-2.11920E-02 3.35576E-04 2.54917E-01 6.87100E-04-1.73634E-04
 -1     25312 1.84051E-02-1.85534E-02 2.42445E-04 2.39916E-01-1.95956E-04 1.13242E-04
 -1     25313 1.75349E-02-1.71954E-02-2.46920E-04 2.38647E-01-1.40776E-04-3.17053E-04
 -1     25314 1.23817E-02-1.21873E-02-1.50110E-04 9.96241E-02 4.86014E-04-5.99430E-04
 -1     25315 1.07432E-02-1.18025E-02 1.09321E-03 1.01231E-01-4.46258E-04 2.97642E-04
 -1     25316 1.63060E-02-1.57031E-02-5.45270E-04 1.01947E-01 7.25112E-04-1.27448E-03
 -1     25317 2.43871E-02-2.37696E-02-5.80416E-04 1.00376E-01 1.44196E-03-5.89258E-04
 -1     25318 1.95383E-02-2.08360E-02 1.38217E-03 9.97622E-02-1.99885E-04 2.23557E-04
 -1     25319-2.24568E-02 2.23647E-02 1.08219E-04 6.29724E-02 3.01596E-04-1.82873E-04
 -1     25320-2.52080E-02 2.52315E-02-1.65108E-05 6.21420E-02 6.16278E-05 5.97482E-05
 -1     25321 1.69937E-02-1.69339E-02 4.09708E-06 1.72718E-01-2.64023E-04 9.90049E-05
 -1     25322 1.98695E-02-1.97984E-02 9.62111E-07 1.74528E-01 2.25832E-04-3.46744E-04
 -1     25323 1.55955E-02-1.55844E-02 4.67521E-05 1.60175E-01-6.45642E-05-1.20140E-04
 -1     25324-3.98358E-02 4.01732E-02-3.33394E-04 4.28354E-02 1.05254E-04-2.36708E-04
 -1     25325-4.98574E-02 5.01222E-02-2.71238E-04 2.90743E-02 2.90187E-04-1.46387E-04
 -1     25326-4.25891E-02 4.26694E-02-8.32689E-05 4.22802E-02-7.28753E-05-4.45881E-04
 -1     25327-8.66032E-02 8.64027E-02 2.26177E-04 1.44621E-01-3.21579E-04-5.32166E-04
 -1     25328-8.99366E-02 8.99583E-02 7.43003E-06 1.50171E-01 3.02496E-04 5.99319E-04
 -1     25329-8.45459E-02 8.48226E-02-2.49814E-04 1.34028E-01 1.94219E-04 6.14958E-04
 -1     25330-7.36666E-02 7.06581E-02 3.05478E-03-4.16025E-02 8.79022E-04 5.80522E-03
 -1     25331-6.54096E-02 6.84982E-02-3.14366E-03-2.64109E-02-2.83360E-03 4.73946E-04
 -1     25332-7.76008E-02 7.65148E-02 1.06114E-03-6.49163E-02-1.83673E-03 3.29250E-03
 -1     25333-6.18717E-02 7.07155E-02-8.87526E-03-4.44150E-02-3.38057E-03-4.48352E-03
 -1     25334-7.56593E-02 8.28692E-02-7.20411E-03-6.27742E-02 7.85811E-04-2.29074E-03
 -1     25335-4.84644E-02 4.84954E-02-4.04070E-05 2.90762E-02-7.64404E-05 1.70338E-04
 -1     25336 2.59027E-02-2.57916E-02-5.20741E-05 1.62100E-01-1.83847E-04 1.37531E-05
 -1     25337 2.19930E-02-2.19368E-02-2.95586E-06 1.49792E-01-5.64939E-05-9.01480E-06
 -1     25338 2.59703E-02-2.59656E-02 5.46715E-05 1.49835E-01 2.97940E-05-1.16268E-04
 -1     25339 3.02096E-02-3.01556E-02 5.24817E-06 1.62433E-01-1.02848E-04-1.30939E-04
 -1     25340-8.20931E-02 8.21337E-02-7.20569E-05-1.46619E-02 2.41671E-04-8.69899E-05
 -1     25341-9.10884E-02 9.11222E-02-7.54017E-05-2.74204E-02-2.60534E-04-3.67574E-04
 -1     25342-8.07052E-02 8.06726E-02 7.96641E-07-1.46370E-02 4.58831E-05 8.00289E-05
 -1     25343-5.34721E-02 5.38258E-02-3.58834E-04 3.04456E-02 2.54634E-04 7.40307E-05
 -1     25344-4.53106E-02 4.55263E-02-2.16244E-04 4.14056E-02 1.88293E-05-2.27415E-04
 -1     25345-5.70956E-02 5.71518E-02-6.38040E-05 2.14253E-02 1.90038E-04-2.47602E-04
 -1     25346-5.34325E-02 5.33384E-02 8.93398E-05 2.87178E-02 2.47266E-04-3.88545E-04
 -1     25347-4.88491E-02 4.89962E-02-1.52057E-04 3.28392E-02 8.06547E-05-4.50078E-04
 -1     25348-5.18201E-02 5.18328E-02-2.06943E-05 2.38814E-02-7.89220E-05-2.80045E-05
 -1     25349-5.18087E-02 5.17947E-02-1.67174E-06 2.34769E-02-5.08447E-05-5.29993E-05
 -1     25350-4.13157E-02 4.13328E-02-2.36216E-05 3.72622E-02-1.86711E-04-3.76093E-05
 -1     25351-3.16006E-03 3.35113E-03-1.81650E-04 7.23853E-02-4.56089E-04-3.07370E-06
 -1     25352 7.59128E-03-7.57384E-03-4.49643E-06 8.36208E-02-5.19749E-04 1.87358E-04
 -1     25353-4.51444E-04 7.59694E-04-2.97175E-04 7.45412E-02-2.01618E-04 2.05021E-04
 -1     25354-1.08922E-01 1.09060E-01-1.82679E-04-4.59828E-02-1.52826E-04 1.56090E-04
 -1     25355-1.21550E-01 1.21284E-01 2.13539E-04-6.34365E-02-1.01490E-04-7.43610E-05
 -1     25356-1.22024E-01 1.21947E-01 2.10699E-05-6.61904E-02-2.29284E-05-5.14604E-05
 -1     25357-9.96878E-02 9.95194E-02 1.36271E-04-3.05143E-02-2.55576E-04-2.21782E-04
 -1     25358-1.12199E-01 1.12316E-01-1.58147E-04-5.10804E-02 5.02618E-05 2.94184E-04
 -1     25359-8.32727E-02 8.33393E-02-9.14203E-05-1.06408E-02-1.05868E-04-7.23473E-06
 -1     25360-7.46052E-02 7.45997E-02-1.02958E-05 4.81184E-03 2.33833E-05-1.73070E-04
 -1     25361-7.45785E-02 7.46492E-02-8.91546E-05 1.35241E-03 1.13076E-05 1.43651E-04
 -1     25362 4.79608E-02-4.79037E-02-3.93824E-06 1.50764E-01-3.19864E-05-3.13703E-05
 -1     25363 4.38248E-02-4.38080E-02 3.11367E-05 1.41808E-01 3.17483E-05-6.38647E-05
 -1     25364 3.87063E-02-3.87228E-02 6.50526E-05 1.42550E-01 1.71009E-04-1.02412E-04
 -1     25365 4.29472E-02-4.28899E-02-7.47499E-07 1.51013E-01 2.11958E-04-2.05633E-04
 -1     25366 5.47759E-02-5.50627E-02 3.13787E-04 1.01156E-01 5.77790E-05-8.32936E-05
 -1     25367 5.04351E-02-5.04446E-02 3.51788E-05 1.02557E-01-7.91990E-05-1.34901E-04
 -1     25368 4.71368E-02-4.72076E-02 9.35775E-05 9.59270E-02 1.69917E-04 6.98561E-05
 -1     25369-1.85719E-01 1.85854E-01-2.26016E-04-1.40164E-01-5.00355E-04 2.56084E-05
 -1     25370-1.86833E-01 1.86574E-01 1.46238E-04-1.43931E-01-5.93217E-05-2.85154E-05
 -1     25371-1.86955E-01 1.89951E-01-3.08796E-03-1.39189E-01 2.80919E-03-7.04127E-04
 -1     25372-1.31954E-03 1.35085E-03 4.59058E-05 1.80347E-01 1.32304E-03 1.94530E-03
 -1     25373-7.01647E-04 1.40459E-03-6.30627E-04 1.75656E-01-1.48240E-04 6.77797E-04
 -1     25374-1.70494E-02 1.75857E-02-4.77570E-04 1.66602E-01-8.82475E-04 1.25622E-03
 -1     25375 4.98217E-04-1.68177E-03 1.25389E-03 1.85746E-01 1.63982E-03-2.44094E-04
 -1     25376 1.74478E-03-7.87774E-04-8.79819E-04 1.80733E-01 5.53721E-04-5.39646E-04
 -1     25377-1.00723E-01 9.84022E-02 2.34656E-03 1.59551E-01 1.51042E-03 2.21053E-03
 -1     25378-9.50349E-02 9.51904E-02-7.25275E-05 1.59720E-01 4.25559E-04-3.27328E-05
 -1     25379-9.87424E-02 9.77042E-02 1.03483E-03 1.69958E-01 1.19830E-03 3.12095E-03
 -1     25380-1.08383E-01 1.07749E-01 6.78467E-04 1.61209E-01 1.30808E-03-5.16253E-04
 -1     25381-1.00423E-01 1.00148E-01 3.04385E-04 1.64871E-01 7.18601E-04-4.89098E-04
 -1     25382 2.11647E-02-2.11415E-02 2.45580E-05 1.38457E-01 5.82875E-05-4.40225E-05
 -1     25383 2.50090E-02-2.49513E-02-1.17319E-05 1.39333E-01-6.50013E-05 3.21389E-05
 -1     25384 3.00107E-02-2.99569E-02 3.37350E-07 1.50642E-01-5.42224E-05 7.44661E-05
 -1     25385 2.42376E-02-2.39096E-02-2.45276E-04 1.93708E-01 1.56880E-04-3.00867E-04
 -1     25386 2.51458E-02-2.45707E-02-4.95512E-04 1.98521E-01 1.87287E-04 1.88697E-04
 -1     25387 2.42744E-02-2.38338E-02-3.63364E-04 1.90952E-01 3.30376E-04 3.42808E-04
 -1     25388-4.68959E-02 6.51728E-02-1.80250E-02 1.57771E-01-9.86354E-03-3.54083E-05
 -1     25389-2.43958E-01 2.72056E-01-2.83107E-02 1.36705E-01-1.24486E-02-3.40606E-03
 -1     25390-7.37140E-02 7.36437E-02 4.48629E-05-2.07331E-03-3.94687E-05 3.19854E-04
 -1     25391-6.40448E-02 6.40005E-02 1.81716E-05 1.08286E-02 2.64339E-04-1.25862E-04
 -1     25392-7.56364E-02 7.56745E-02-6.94952E-05-1.71740E-03-3.10844E-04-2.34356E-04
 -1     25393-8.54793E-02 8.54705E-02-2.49155E-05-1.47163E-02-1.68205E-04-8.73284E-05
 -1     25394-1.84501E-02 1.83808E-02 1.36878E-04 1.82038E-01 6.16713E-04-5.19069E-05
 -1     25395-2.49321E-02 2.49635E-02 4.10489E-05 1.78534E-01-9.48190E-05 4.53864E-06
 -1     25396-9.22891E-03 8.95110E-03 3.33179E-04 1.94408E-01-6.18292E-04-3.74824E-04
 -1     25397-1.29859E-01 1.29801E-01 1.76564E-06-6.74722E-02-2.38966E-04-1.01322E-04
 -1     25398-1.18529E-01 1.18487E-01-1.68180E-05-5.40689E-02-2.22132E-05-2.31179E-04
 -1     25399-1.27402E-01 1.27351E-01-7.31715E-06-6.81147E-02-2.45819E-04-1.01956E-04
 -1     25400-8.90866E-02 8.95708E-02-5.20676E-04-8.94473E-03-2.03246E-04-1.55569E-04
 -1     25401-9.06197E-02 9.06689E-02-9.08396E-05-6.27388E-03 1.82329E-05-3.06789E-04
 -1     25402-1.01513E-01 1.01834E-01-3.63144E-04-2.13206E-02 3.21978E-05 1.17406E-04
 -1     25403 1.65070E-02-1.69589E-02 5.01992E-04 1.15649E-01-1.79666E-04-2.83883E-04
 -1     25404 1.74943E-02-1.73967E-02-3.75419E-05 1.17046E-01-3.23926E-04-2.29389E-04
 -1     25405 1.54393E-02-1.53487E-02-4.01815E-05 1.14514E-01-3.26095E-04-4.29265E-05
 -1     25406 2.09048E-02-2.11771E-02 3.18390E-04 1.14785E-01-6.04841E-04 1.59731E-04
 -1     25407 2.30249E-02-2.30765E-02 1.08537E-04 1.17284E-01-1.44271E-04-1.03087E-04
 -1     25408 2.25399E-02-2.22860E-02-2.09293E-04 1.16198E-01-1.17458E-04-1.30850E-04
 -1     25409 7.19932E-02-7.19672E-02 1.64971E-05 1.07772E-01 2.85055E-04-4.90132E-04
 -1     25410 7.36986E-02-7.36874E-02 2.36618E-05 1.05287E-01-1.67711E-04-5.21439E-04
 -1     25411 8.06514E-03-7.39159E-03-5.83838E-04 2.04879E-01 2.34292E-04 1.54821E-04
 -1     25412-3.71067E-04 2.98956E-04 1.35556E-04 1.81999E-01-1.45017E-04 5.16522E-05
 -1     25413 1.76027E-03-1.54312E-03-1.47827E-04 1.84380E-01 6.75462E-05-1.70777E-05
 -1     25414 5.71901E-03-6.10486E-03 4.67943E-04 1.99947E-01-1.37396E-04 7.28800E-05
 -1     25415 4.52272E-02-4.52640E-02 4.98303E-05 6.54612E-02 4.35043E-05 1.47624E-04
 -1     25416 4.91202E-02-4.91339E-02 2.65333E-05 7.26916E-02-3.05480E-06 6.24605E-05
 -1     25417 5.22818E-02-5.22681E-02 1.01660E-06 6.86297E-02 7.57438E-05 7.16806E-05
 -1     25418 1.23236E-02-1.23145E-02 6.60396E-05 1.90263E-01 3.56676E-04-3.40167E-05
 -1     25419 1.43241E-02-1.41532E-02-9.00996E-05 2.05596E-01-3.17712E-04-3.63225E-04
 -1     25420 1.67894E-02-1.65295E-02-1.68028E-04 2.21328E-01 3.84253E-05 3.27508E-04
 -1     25421 1.61770E-02-1.61070E-02-8.95587E-07 2.01502E-01 3.66167E-05-6.68886E-07
 -1     25422 1.75474E-02-1.74194E-02-4.20239E-05 2.17351E-01-4.21827E-04-1.70419E-04
 -1     25423 4.79523E-02-4.78662E-02-8.28155E-05 5.93440E-02 3.36151E-04 1.67544E-04
 -1     25424 4.00346E-02-3.98697E-02-1.40920E-04 5.59163E-02-2.21985E-04-1.44857E-04
 -1     25425 3.71145E-02-3.71139E-02-9.79060E-07 6.23012E-02 4.42243E-05-1.48057E-04
 -1     25426-1.49519E-01 1.49542E-01-9.51014E-05-1.03595E-01-1.37873E-04 2.75809E-04
 -1     25427 4.15355E-02-4.15186E-02-1.32075E-05 6.95086E-02 1.55843E-04 7.55954E-05
 -1     25428-3.87097E-02 3.84361E-02 2.61792E-04 3.78505E-02-2.88590E-04-1.40606E-04
 -1     25429-4.14056E-02 4.12577E-02 1.35657E-04 3.71636E-02-1.20422E-04-1.74352E-04
 -1     25430-4.98594E-02 4.98835E-02-5.01376E-05 2.64326E-02-2.00179E-05 6.62390E-05
 -1     25431-1.06967E-01 1.06923E-01-1.47143E-06-4.08810E-02 6.07823E-05 5.95879E-05
 -1     25432-1.08587E-01 1.08556E-01-1.59717E-05-4.05528E-02-3.34370E-04 1.28864E-04
 -1     25433-9.70484E-02 9.70014E-02 3.60793E-06-2.79391E-02-5.37776E-05 5.52836E-05
 -1     25434-8.33469E-02 8.33190E-02-4.41976E-06-1.49682E-02 1.35187E-04-6.20100E-05
 -1     25435-9.55231E-02 9.55147E-02-3.73873E-05-2.82333E-02 9.30650E-05-1.13092E-04
 -1     25436 4.83102E-03-4.54536E-03-1.55003E-04 9.97044E-02 2.37885E-04 4.21652E-04
 -1     25437 1.36410E-02-1.30182E-02-5.77606E-04 9.85561E-02 1.29489E-04-1.43074E-03
 -1     25438 8.83879E-03-8.62332E-03-1.83739E-04 1.01842E-01 7.18754E-04-2.62597E-04
 -1     25439 5.59510E-03-4.64882E-03-9.48790E-04 9.86635E-02 4.78388E-04-6.73764E-05
 -1     25440 9.61927E-03-8.79364E-03-7.32370E-04 1.00565E-01 4.88872E-04-4.31271E-04
 -1     25441-1.23144E-02 1.21957E-02 1.88391E-04 1.85530E-01 6.14258E-04-2.05201E-04
 -1     25442-1.94922E-02 1.89962E-02 5.55681E-04 1.73429E-01 3.08882E-04 3.50100E-04
 -1     25443-2.47975E-02 2.41382E-02 7.20205E-04 1.69781E-01 8.10470E-04 8.55340E-06
 -1     25444 2.32203E-03-2.70834E-03 4.33177E-04 1.09351E-01-2.49976E-04 7.62045E-04
 -1     25445 7.32708E-03-7.08570E-03-1.79760E-04 1.10901E-01 9.40565E-04 9.22093E-05
 -1     25446 8.01462E-03-7.83958E-03-1.21003E-04 1.06306E-01 2.28573E-04 7.73161E-05
 -1     25447-2.20983E-02 1.92226E-02 2.77236E-03-1.72512E-02-1.76926E-03-9.07000E-05
 -1     25448-1.70561E-02 1.57575E-02 1.19364E-03-3.07151E-02-8.12329E-04 1.02031E-03
 -1     25449-4.03835E-03 2.78028E-03 1.15978E-03-4.14388E-02-7.73262E-04 2.81305E-03
 -1     25450-5.72053E-03 3.61514E-03 1.99175E-03-3.47199E-02-4.20365E-03-2.37626E-05
 -1     25451-1.68015E-02 1.81569E-02-1.34295E-03-2.11319E-02-3.42324E-03-1.80747E-03
 -1     25452-2.61100E-02 2.62795E-02-1.84424E-04 5.01214E-02 3.18530E-04 5.51907E-04
 -1     25453-3.03087E-02 3.07955E-02-5.00972E-04 4.64999E-02 8.24668E-04 7.50141E-04
 -1     25454-3.99813E-02 4.04609E-02-5.00952E-04 4.05614E-02 1.84625E-04 3.09413E-04
 -1     25455 2.76271E-02-2.75107E-02-6.04980E-05 1.15744E-01-2.80203E-04-1.46321E-04
 -1     25456 2.63603E-02-2.62717E-02-3.50255E-05 1.19124E-01-5.57467E-04-1.20558E-04
 -1     25457 3.22040E-02-3.21702E-02 1.94735E-05 1.18816E-01-4.37698E-04 4.72894E-04
 -1     25458-1.33474E-01 1.33647E-01-2.36394E-04-7.81374E-02-2.10647E-04-4.03903E-06
 -1     25459-1.23444E-01 1.23962E-01-5.69524E-04-5.83972E-02-2.59236E-04-8.81818E-05
 -1     25460-1.25602E-01 1.25903E-01-3.56061E-04-6.31007E-02-3.31416E-04-3.22749E-04
 -1     25461 1.37472E-02-1.36907E-02-4.58040E-06 1.46880E-01-2.70626E-06-9.53893E-05
 -1     25462 1.25940E-02-1.25212E-02-2.63533E-05 1.35579E-01-3.12482E-06 4.35056E-05
 -1     25463 1.79723E-02-1.78494E-02-6.51957E-05 1.48251E-01-7.45534E-05 5.80023E-06
 -1     25464 2.34331E-03-2.60639E-03 3.13501E-04 1.10398E-01-4.43419E-04 4.26781E-04
 -1     25465 3.96761E-03-4.07805E-03 2.09626E-04 1.09733E-01-4.97905E-04 1.05938E-04
 -1     25466 1.06352E-03-7.38572E-04-2.60633E-04 1.14199E-01 1.24822E-04 1.24283E-05
 -1     25467 1.32373E-03-1.15418E-03-1.38402E-04 1.13157E-01 2.59842E-04 1.38130E-04
 -1     25468-1.95232E-02 1.95735E-02 4.95425E-06 1.54249E-01-2.64250E-04 5.23447E-06
 -1     25469-2.76510E-02 2.76223E-02 7.62113E-05 1.39171E-01 3.67043E-05-1.53718E-04
 -1     25470-2.40150E-02 2.40859E-02-2.21877E-05 1.39674E-01-1.85954E-04 8.07785E-06
 -1     25471 2.17845E-02-2.17212E-02-5.42559E-05 5.05286E-02 8.74800E-06-8.55191E-05
 -1     25472 1.66847E-02-1.66854E-02-1.04054E-05 5.63700E-02-1.47971E-04-8.79112E-05
 -1     25473-6.19162E-02 6.41525E-02-2.39218E-03 1.39809E-02-3.82846E-03-7.29751E-03
 -1     25474-7.35836E-02 7.32540E-02 1.99091E-04 1.81443E-02 3.15090E-04-3.08137E-03
 -1     25475-6.76295E-03 9.40319E-03-2.65228E-03-7.55409E-03 2.07953E-03 3.21298E-03
 -1     25476-6.32705E-02 6.84706E-02-5.12280E-03 2.12046E-02-3.35253E-03 3.23369E-03
 -1     25477-3.00152E-03 6.93614E-03-4.13914E-03 3.91575E-03 1.23892E-03-4.73198E-03
 -1     25478 1.26293E-02-1.25152E-02-6.15264E-05 5.59528E-02-7.76107E-04 4.16630E-04
 -1     25479 1.28747E-02-1.24081E-02-4.16767E-04 6.43358E-02-2.88652E-04 6.20456E-04
 -1     25480 2.69625E-02-2.69999E-02 6.75034E-05 5.82766E-02-6.97180E-04 4.08155E-04
 -1     25481 2.70902E-02-2.69723E-02-5.93510E-05 6.59313E-02-4.03930E-04 9.82464E-04
 -1     25482 1.14237E-02-1.25364E-02 1.17441E-03 4.27718E-02 4.51980E-04 3.47022E-04
 -1     25483 3.84035E-02-3.75026E-02-8.58264E-04 5.83078E-02 2.68089E-04 7.27922E-04
 -1     25484 2.71827E-02-2.62831E-02-8.58731E-04 5.56094E-02-5.57706E-05 1.92504E-04
 -1     25485 2.29325E-02-2.30879E-02 1.97566E-04 4.22111E-02 1.78789E-05-3.29306E-04
 -1     25486 3.46630E-02-3.45712E-02-5.21167E-05 4.55582E-02 2.72225E-04-3.56196E-04
 -1     25487 4.76703E-02-4.65007E-02-1.11793E-03 5.86674E-02-2.32903E-04-4.61683E-04
 -1     25488 6.45371E-02-6.35736E-02-9.09547E-04 1.19538E-01-3.36852E-04 3.60728E-04
 -1     25489 6.95468E-02-6.88474E-02-6.54653E-04 1.14367E-01-3.49187E-04 2.93833E-04
 -1     25490 3.24673E-02-3.25671E-02 1.10034E-04 6.58092E-02 2.11979E-06 2.94161E-04
 -1     25491 2.65414E-02-2.65390E-02-2.78209E-06 6.93076E-02 5.06098E-05-8.89975E-05
 -1     25492 2.17228E-02-2.17726E-02 4.32739E-05 6.28495E-02-4.68531E-05-5.41844E-05
 -1     25493-5.58474E-02 5.58984E-02-1.32761E-05 1.28988E-01-1.49606E-04-1.72930E-04
 -1     25494-6.11483E-02 6.12160E-02-2.87883E-05 1.31216E-01-7.98162E-04 9.12910E-05
 -1     25495-6.25416E-02 6.24920E-02 8.05813E-05 1.16578E-01 1.64648E-04 2.17461E-04
 -1     25496 2.69473E-02-2.71523E-02 2.87541E-04 2.13284E-01 9.20213E-05-9.19550E-05
 -1     25497 4.01337E-02-4.03091E-02 2.44114E-04 1.94243E-01 3.42938E-04 2.98509E-04
 -1     25498 3.34111E-02-3.36336E-02 3.06372E-04 1.99354E-01 3.71243E-04 2.60377E-04
 -1     25499 2.62419E-02-2.70340E-02 8.80257E-04 2.10983E-01-2.08768E-04-2.75695E-04
 -1     25500 3.35876E-02-3.35364E-02 3.08368E-05 1.97178E-01 2.55063E-05-2.89954E-04
 -1     25501 3.44350E-02-3.41984E-02-1.99384E-04 1.23481E-01-2.37655E-04 7.81289E-04
 -1     25502 2.80148E-02-2.80284E-02 4.45407E-05 1.13647E-01 8.36476E-05 3.45664E-04
 -1     25503 2.86925E-02-2.84956E-02-1.57769E-04 1.22072E-01 1.15976E-04 3.91066E-04
 -1     25504 2.58539E-02-2.58384E-02 1.03255E-05 1.06641E-01-2.24235E-05 8.38740E-05
 -1     25505 1.95546E-02-1.98170E-02 2.85530E-04 1.00234E-01-2.41293E-05-1.07211E-04
 -1     25506 1.74414E-02-1.73112E-02-1.06253E-04 9.44376E-02 9.03267E-05 4.05023E-04
 -1     25507 1.97553E-02-1.95826E-02-1.52702E-04 1.00946E-01 2.84673E-04 3.50109E-04
 -1     25508 3.60521E-02-3.62834E-02 3.11263E-04 2.00692E-01 3.27730E-05 1.52396E-04
 -1     25509 3.73217E-02-3.71812E-02-7.29894E-05 1.89295E-01 4.50104E-04 3.16158E-04
 -1     25510 4.00088E-02-3.92359E-02-7.07347E-04 1.87951E-01 2.50362E-04 2.03099E-04
 -1     25511 1.14400E-02-1.14045E-02-1.69510E-05 9.09828E-02-8.90817E-05-9.58164E-05
 -1     25512 5.26697E-02-5.21112E-02-4.89681E-04 1.74520E-01 4.30147E-04-2.17381E-04
 -1     25513 5.22906E-02-5.27058E-02 4.82459E-04 1.74368E-01 3.80795E-04 1.08221E-05
 -1     25514 4.61889E-02-4.56644E-02-4.46243E-04 1.86867E-01 4.02728E-04-2.50212E-04
 -1     25515 5.49662E-02-5.51918E-02 2.90679E-04 1.69282E-01 2.93176E-04 2.33194E-04
 -1     25516 7.41455E-02-7.41057E-02 9.31955E-06 1.30654E-01 2.63263E-04-9.05636E-05
 -1     25517 6.99801E-02-6.97530E-02-1.64890E-04 1.39079E-01-2.12607E-04 1.43776E-04
 -1     25518 7.38676E-02-7.38148E-02 4.00371E-07 1.34586E-01 2.28071E-04 3.16280E-04
 -1     25519-9.05808E-03 8.96704E-03 9.19330E-05 6.51281E-02 2.27780E-04-1.89258E-05
 -1     25520-2.09555E-02 2.11975E-02-2.45887E-04 5.57633E-02-2.70907E-04-5.63762E-04
 -1     25521-2.41272E-02 2.38191E-02 3.01035E-04 5.26819E-02-9.32694E-05 3.61551E-05
 -1     25522 2.67499E-03-2.81348E-03 1.49757E-04 7.81755E-02-1.42876E-04-1.58098E-04
 -1     25523 4.68910E-02-4.71014E-02 2.44974E-04 1.12878E-01-2.68051E-04-9.40521E-05
 -1     25524 5.29218E-02-5.26800E-02-2.08241E-04 1.14226E-01-8.80351E-05-2.04639E-04
 -1     25525 4.64266E-02-4.64475E-02 4.67619E-05 1.05158E-01-1.71140E-04-1.72126E-04
 -1     25526 4.40700E-02-4.41716E-02 1.21700E-04 1.01536E-01-1.26518E-04-3.16348E-05
 -1     25527 4.64370E-02-4.60897E-02-3.18529E-04 1.07597E-01-3.41054E-05-4.67454E-05
 -1     25528 3.49954E-02-3.50110E-02 3.78654E-05 9.68984E-02-3.81584E-05-3.84684E-05
 -1     25529 3.78490E-02-3.78444E-02 1.99196E-05 1.03105E-01-2.23225E-05 8.98120E-05
 -1     25530 7.15602E-02-7.14175E-02-9.60781E-05 1.36606E-01-2.85308E-04-1.30826E-05
 -1     25531 6.95916E-02-6.99545E-02 4.21932E-04 9.10435E-02 2.26291E-04 1.04522E-04
 -1     25532 7.05831E-02-7.09341E-02 3.93539E-04 9.71303E-02-1.63909E-04 4.65466E-04
 -1     25533 7.31142E-02-7.31897E-02 1.17730E-04 9.05520E-02 1.84236E-04-1.31482E-04
 -1     25534 7.40599E-02-7.41240E-02 1.03516E-04 9.77910E-02-2.63248E-04 9.46258E-05
 -1     25535-1.37570E-02 1.38592E-02-1.12782E-04 5.69784E-02-3.62629E-04 9.20994E-05
 -1     25536-5.75497E-03 5.70563E-03 4.40408E-05 6.28336E-02-1.12017E-04 2.37851E-04
 -1     25537-2.26822E-02 2.28692E-02-2.06474E-04 5.19959E-02 1.82192E-04 4.04868E-04
 -1     25538-2.75275E-02 2.78729E-02-3.62759E-04 4.99327E-02-1.94715E-04 3.85636E-04
 -1     25539-1.82514E-02 1.80439E-02 1.98720E-04 5.52066E-02 4.47662E-05-1.29745E-05
 -1     25540 6.22047E-02-6.24132E-02 2.50154E-04 8.04375E-02 7.00859E-04-3.79144E-04
 -1     25541 5.58350E-02-5.49772E-02-8.07678E-04 7.39545E-02 5.81545E-04-2.37361E-04
 -1     25542 5.83426E-02-5.86396E-02 3.40023E-04 8.16104E-02 8.88380E-04-5.19497E-04
 -1     25543 2.28213E-02-2.25070E-02-2.09838E-04 2.44691E-01 9.87944E-06-1.27013E-04
 -1     25544 2.32865E-02-2.29431E-02-2.40367E-04 2.53296E-01-4.05628E-04 1.10785E-04
 -1     25545 2.35059E-02-2.31527E-02-2.57786E-04 2.44364E-01-3.46035E-04 1.53206E-04
 -1     25546 2.13807E-02-2.13118E-02 2.34458E-05 2.34041E-01 1.97116E-04 3.80073E-05
 -1     25547 2.11122E-02-2.10009E-02-1.37867E-05 2.43343E-01 2.99345E-04 6.22810E-06
 -1     25548 2.20272E-02-2.17493E-02-1.76093E-04 2.42665E-01 7.22940E-05-8.06677E-05
 -1     25549 2.45509E-02-2.49362E-02 4.38740E-04 1.05140E-01-5.50762E-04 7.63198E-04
 -1     25550 1.50932E-02-1.54936E-02 4.69709E-04 1.05277E-01-9.91411E-04 4.09836E-04
 -1     25551 1.96659E-02-1.88125E-02-7.94377E-04 1.09196E-01-4.36702E-04 3.21461E-04
 -1     25552 6.36273E-03-6.17251E-03-1.50210E-04 1.21531E-01-4.15568E-05-9.29068E-05
 -1     25553 7.41189E-03-6.50022E-03-8.64969E-04 1.20366E-01 5.01928E-04 1.05140E-04
 -1     25554 4.36035E-03-4.08373E-03-2.21530E-04 1.21707E-01 8.30671E-05-3.10537E-04
 -1     25555 2.22445E-03-1.76888E-03-4.09346E-04 1.24272E-01 4.65393E-04-2.78404E-04
 -1     25556 4.69784E-03-4.02894E-03-6.07680E-04 1.21564E-01 4.79252E-05 1.26295E-05
 -1     25557 3.98203E-02-3.97261E-02-5.75817E-05 1.24931E-01-1.68133E-04-1.12444E-04
 -1     25558 3.35725E-02-3.36966E-02 1.60543E-04 1.15416E-01-3.76842E-05-3.96248E-04
 -1     25559 7.32329E-02-7.32909E-02 9.50032E-05 9.42575E-02 4.68026E-04-2.08786E-04
 -1     25560 7.49212E-02-7.47166E-02-1.51032E-04 1.01371E-01-2.03130E-04 8.11173E-04
 -1     25561 2.47954E-02-2.47961E-02 8.71816E-05 2.12431E-01-3.24083E-04 3.56270E-04
 -1     25562 2.72785E-02-2.71606E-02-3.37327E-05 2.13129E-01 4.81031E-05 2.27697E-06
 -1     25563 2.51472E-02-2.52748E-02 1.97830E-04 1.98558E-01-1.99746E-04-1.09717E-04
 -1     25564 3.04109E-03-3.30109E-03 3.00393E-04 1.14999E-01 4.06337E-04 6.48283E-04
 -1     25565 8.63956E-03-8.99324E-03 4.15135E-04 1.13436E-01-3.66480E-04 1.27798E-04
 -1     25566 5.80767E-03-6.40669E-03 6.42381E-04 1.12086E-01 1.29798E-04 7.39304E-04
 -1     25567 4.12639E-03-3.63728E-03-4.08237E-04 1.15743E-01 1.62075E-04 3.52584E-04
 -1     25568 7.30689E-03-7.33000E-03 6.79146E-05 1.12800E-01-2.02715E-04 6.06572E-05
 -1     25569 6.52577E-02-6.51999E-02-5.00006E-06 1.36193E-01-8.22319E-05-3.19687E-04
 -1     25570-5.80287E-02 5.78794E-02 1.47501E-04 3.01557E-02-1.45116E-04-1.23812E-04
 -1     25571-5.87690E-02 5.86454E-02 1.13673E-04 3.37731E-02 1.53065E-04 6.77733E-05
 -1     25572-6.65392E-02 6.65025E-02 3.51817E-05 1.72367E-02 8.48164E-05-1.01494E-04
 -1     25573-1.61638E-01 1.61496E-01 6.21943E-05-1.16524E-01-1.32364E-04-7.76749E-05
 -1     25574-1.60879E-01 1.60721E-01 7.90809E-05-1.15985E-01-5.81954E-05-1.47132E-05
 -1     25575-1.70594E-01 1.70664E-01-1.54918E-04-1.26070E-01 2.75238E-04 1.22024E-04
 -1     25576 1.11793E-03-6.00618E-04-4.54850E-04 1.14952E-01 1.02512E-04-5.76346E-04
 -1     25577-1.04003E-01 1.02899E-01 1.16969E-03 1.18121E-01-2.79248E-03 6.81689E-03
 -1     25578-9.36114E-02 8.90559E-02 4.57240E-03 8.76226E-02-2.64446E-05 5.07851E-03
 -1     25579-6.43324E-02 6.11866E-02 3.21680E-03 6.08821E-02 6.59681E-03-1.17278E-03
 -1     25580-9.44032E-02 1.00426E-01-6.03392E-03 1.13735E-01-3.67165E-03-4.37133E-03
 -1     25581 9.40711E-04-6.88646E-04-2.12160E-04 1.14837E-01 1.58537E-04-1.34330E-04
 -1     25582 2.69754E-03-2.58490E-03-1.67429E-05 1.16617E-01-2.77839E-04 2.48303E-05
 -1     25583 1.89962E-02-1.84353E-02-4.61420E-04 2.40516E-01 1.74586E-04-2.63377E-05
 -1     25584 2.01799E-02-2.00155E-02-7.34955E-05 2.41559E-01 1.13788E-04-3.28473E-04
 -1     25585 2.39555E-02-2.36956E-02-1.54623E-04 2.59115E-01 2.44752E-04-4.02804E-04
 -1     25586 2.38116E-02-2.39139E-02 2.08435E-04 2.58094E-01-9.26189E-05-3.10377E-04
 -1     25587 2.38036E-02-2.38341E-02 1.32866E-04 2.56458E-01 2.85223E-04-9.04417E-05
 -1     25588-4.09556E-02 4.17380E-02-7.27209E-04 1.55629E-01 7.57750E-04 1.15799E-04
 -1     25589-1.76616E-02 1.86908E-02-9.59965E-04 1.82727E-01 3.12134E-04-3.48986E-04
 -1     25590-3.14880E-02 3.08182E-02 7.29405E-04 1.65284E-01 2.03646E-04 1.46559E-04
 -1     25591-4.50181E-02 4.53495E-02-2.81548E-04 1.42398E-01 3.85873E-05 5.02371E-04
 -1     25592-2.41916E-02 2.48444E-02-5.85416E-04 1.70804E-01-4.19104E-04 5.71887E-05
 -1     25593-1.09508E-01 1.10169E-01-6.82758E-04-3.74759E-02-6.58449E-04 6.83461E-04
 -1     25594-1.13178E-01 1.12270E-01 8.37583E-04-5.86665E-02-9.26492E-04 7.81356E-04
 -1     25595-1.18476E-01 1.18478E-01-6.84682E-05-6.12771E-02-1.46611E-03-5.46106E-04
 -1     25596-8.15488E-02 8.07990E-02 7.12646E-04 5.87436E-03 1.33011E-04 2.69561E-04
 -1     25597-7.78359E-02 7.82738E-02-4.74047E-04 4.37821E-03 1.48295E-05 1.72611E-04
 -1     25598 4.05168E-03-4.00069E-03 4.87123E-06 1.15789E-01 1.53155E-04 3.09923E-04
 -1     25599 4.91167E-03-5.12005E-03 2.77254E-04 1.15574E-01-1.82741E-04 2.15044E-04
 -1     25600-3.12256E-02 3.11242E-02 1.16726E-04 6.32422E-02 2.26279E-05 1.08841E-04
 -1     25601-2.32696E-02 2.32251E-02 5.89333E-05 7.64101E-02 8.73172E-05 2.19894E-05
 -1     25602 1.84996E-02-1.83926E-02-9.33256E-06 2.47948E-01 1.35319E-04-2.37800E-04
 -1     25603 1.51828E-02-1.55533E-02 4.63063E-04 2.39313E-01-1.37363E-04-3.24375E-04
 -1     25604 1.73360E-02-1.72771E-02 3.72967E-05 2.44942E-01-6.63601E-04-2.77066E-04
 -1     25605 6.48112E-03-5.99401E-03-4.02386E-04 2.18153E-01 2.67988E-06-1.06907E-04
 -1     25606 4.44102E-03-4.64143E-03 2.81280E-04 2.13044E-01 2.82884E-05-9.71442E-05
 -1     25607 2.59185E-03-3.17659E-03 6.64467E-04 2.09795E-01-3.31366E-04 1.48690E-04
 -1     25608 2.60902E-02-2.71845E-02 1.18210E-03 2.18221E-01-6.05200E-04 1.55133E-04
 -1     25609-4.47338E-02 5.75195E-02-1.24113E-02 7.64729E-02 1.39571E-03 2.68907E-03
 -1     25610-3.17390E-02 3.18107E-02-3.89216E-05 7.96273E-02-2.63522E-04 2.68854E-04
 -1     25611-2.73584E-02 2.73734E-02 5.16192E-06 8.30092E-02 1.94199E-05-5.30247E-05
 -1     25612 1.09430E-03-8.65105E-04-1.59477E-04 1.12439E-01 5.98384E-04 1.10201E-04
 -1     25613 3.65621E-02-3.66114E-02 1.23605E-04 2.08193E-01 2.35625E-04 6.79730E-04
 -1     25614 3.31634E-02-3.31043E-02 2.52536E-05 2.14173E-01 5.47953E-05 2.51310E-04
 -1     25615 3.88830E-02-3.88678E-02 6.41959E-05 1.98805E-01-3.92414E-04-9.71122E-05
 -1     25616 3.20304E-02-3.17416E-02-1.97954E-04 2.22361E-01 3.65605E-04 5.59146E-04
 -1     25617 3.41430E-02-3.42158E-02 1.48228E-04 2.12967E-01-2.73270E-04 2.62607E-04
 -1     25618-4.13039E-02 4.13499E-02-3.57989E-05 6.13004E-02 1.61447E-04 1.15333E-05
 -1     25619-2.95123E-03 2.99102E-03 1.66819E-05 1.39687E-01-5.73652E-05 6.40194E-08
 -1     25620 2.90385E-04-2.45174E-04 1.70231E-06 1.41121E-01 1.76877E-04-5.48771E-06
 -1     25621-3.59904E-04 5.94548E-04-1.80220E-04 1.53614E-01 1.71882E-04-1.08468E-04
 -1     25622 2.81819E-03-2.61832E-03-1.40323E-04 1.54960E-01 3.93072E-04-7.95725E-05
 -1     25623-1.41431E-02 1.41158E-02 4.90478E-05 8.51993E-02-4.93801E-05-7.44018E-05
 -1     25624-7.09724E-03 7.10157E-03 3.50900E-05 9.65740E-02 1.76154E-04-1.38742E-04
 -1     25625-1.04050E-02 1.04038E-02 2.76292E-05 8.68312E-02-4.24676E-05 9.53882E-05
 -1     25626-3.46876E-03 3.47602E-03 1.81568E-05 9.77876E-02-5.69987E-05 1.86986E-04
 -1     25627 2.86861E-02-2.86828E-02 1.21822E-05 3.42604E-02 3.27110E-04-7.21198E-05
 -1     25628 3.55664E-02-3.57297E-02 1.54710E-04 3.75118E-02 1.51177E-04 5.86099E-05
 -1     25629 2.71124E-02-2.71220E-02-4.46665E-06 4.46241E-02-1.31373E-04-5.02608E-07
 -1     25630 3.54662E-02-3.55955E-02 1.29279E-04 4.68526E-02-3.00892E-04 1.07419E-05
 -1     25631-1.18670E-01 1.18934E-01-3.15249E-04-3.08486E-02-2.31512E-05 5.66736E-04
 -1     25632-1.09671E-01 1.08739E-01 8.74346E-04-1.47482E-02-4.27946E-04-2.22946E-04
 -1     25633-1.23897E-01 1.23810E-01 2.88483E-05-2.53663E-02-5.19884E-06 2.01182E-04
 -1     25634-6.91713E-02 6.91461E-02-8.79269E-06 1.55567E-02-2.64063E-04 6.18995E-04
 -1     25635 6.61123E-03-6.20912E-03-3.23875E-04 2.14284E-01 9.93118E-05 2.59415E-04
 -1     25636 6.36505E-03-5.58637E-03-6.99219E-04 2.07331E-01-2.03531E-04 5.60809E-04
 -1     25637 5.58745E-03-5.85340E-03 3.49284E-04 2.04914E-01-8.69342E-04-1.13291E-03
 -1     25638 3.35104E-03-4.69382E-03 1.43657E-03 1.97287E-01-2.16227E-04-1.45390E-03
 -1     25639-8.89462E-02 8.86819E-02 2.24393E-04-8.10543E-03 4.53127E-04 2.59843E-04
 -1     25640-8.78289E-02 8.77810E-02 1.10156E-05-1.41934E-02-8.83029E-05-2.24852E-04
 -1     25641-9.96331E-02 9.96068E-02-2.19648E-05-2.65296E-02-1.50954E-04-3.02831E-04
 -1     25642 1.31976E-03-1.20368E-03-7.67610E-05 1.29695E-01 7.33896E-05 2.27439E-04
 -1     25643 7.09101E-03-7.03622E-03 7.86706E-07 1.44249E-01-1.99447E-04 4.65374E-05
 -1     25644-1.25621E-03 1.19399E-03 1.09137E-04 1.18379E-01-2.86141E-06-5.70030E-05
 -1     25645 4.98839E-03-5.07616E-03 1.30477E-04 1.32487E-01-2.60993E-04-1.49284E-04
 -1     25646 3.10003E-02-3.09446E-02-4.79186E-05 7.55113E-02 1.84203E-04-2.07322E-04
 -1     25647 1.95059E-02-1.95812E-02 7.21369E-05 7.06841E-02 7.67800E-05 9.55944E-05
 -1     25648 2.49289E-02-2.48501E-02-7.19033E-05 7.60548E-02 6.34443E-05-2.26584E-04
 -1     25649 1.35879E-02-1.35940E-02 7.88820E-06 7.12458E-02 1.19702E-04 3.77377E-05
 -1     25650-5.41760E-03 5.45366E-03 3.69563E-06 1.15123E-01 4.74705E-05-1.53249E-04
 -1     25651 2.29681E-02-2.33061E-02 4.42585E-04 2.62879E-01-8.89431E-05-1.57061E-04
 -1     25652 2.38166E-02-2.37919E-02 7.66852E-05 2.61957E-01-4.73719E-04-6.28585E-05
 -1     25653 4.72057E-02-4.75055E-02 3.66153E-04 1.49717E-01-4.37572E-04 1.98980E-05
 -1     25654 5.42942E-02-5.42847E-02 5.43313E-05 1.44222E-01 5.39333E-05 4.02396E-04
 -1     25655 4.37426E-02-4.47582E-02 1.05706E-03 4.53685E-02 1.00089E-03-3.49447E-04
 -1     25656 4.48396E-02-4.54887E-02 6.82755E-04 4.93181E-02 1.15491E-03-6.03623E-04
 -1     25657 3.59252E-02-3.58931E-02-1.94122E-05 8.11599E-02-1.40543E-05 1.06665E-04
 -1     25658-1.58978E-01 1.56930E-01 1.96787E-03-7.64180E-03-1.12318E-03 5.88486E-04
 -1     25659-1.76485E-01 1.73396E-01 3.00528E-03-1.33423E-02 1.72725E-03-1.85600E-03
 -1     25660-1.38411E-01 1.37700E-01 6.08614E-04 7.94548E-03-8.10831E-04 5.75314E-04
 -1     25661 4.60755E-02-4.60573E-02-2.01647E-06 7.70520E-02 3.42220E-06-1.54634E-05
 -1     25662 3.63218E-02-3.62598E-02-5.19750E-05 7.31299E-02 1.21572E-05-2.03648E-05
 -1     25663-6.48271E-02 6.48165E-02-1.20121E-05 1.10221E-02 6.46382E-05 7.12518E-05
 -1     25664-7.65582E-02 7.64890E-02 3.76818E-05-1.21732E-03-1.35447E-04 1.72315E-04
 -1     25665-8.25815E-02 8.20726E-02 5.18939E-04 1.27041E-01-1.12159E-03 7.54373E-04
 -1     25666-7.98710E-02 7.99494E-02-4.87570E-05 1.15430E-01-2.15482E-04-2.15353E-04
 -1     25667-8.16523E-02 8.14461E-02 2.15192E-04 1.13888E-01 1.18344E-03-3.24186E-04
 -1     25668-8.07141E-02 8.06533E-02 7.35004E-05 1.02051E-01 9.13980E-04-1.45997E-03
 -1     25669-9.44725E-02 9.23618E-02 2.08418E-03-4.93549E-02-1.85220E-04-1.43323E-03
 -1     25670-9.56003E-02 9.50612E-02 5.13431E-04-3.63572E-02 1.81580E-04-3.49064E-04
 -1     25671-9.40548E-02 9.37364E-02 2.70278E-04-4.54147E-02 8.07625E-04-4.15414E-04
 -1     25672-8.76321E-02 8.77453E-02-1.33652E-04-2.17985E-02 4.64986E-04-1.78387E-03
 -1     25673-8.98486E-02 9.01155E-02-3.05160E-04-1.23573E-02-3.66516E-04-1.94903E-03
 -1     25674-8.87477E-02 8.87007E-02 2.53490E-05-9.58597E-03 3.15117E-04-7.58243E-04
 -1     25675-6.44899E-02 4.87374E-02 1.56471E-02-2.02655E-03-4.09515E-03 1.34728E-03
 -1     25676-8.83573E-02 6.98502E-02 1.84954E-02 4.89440E-02 1.07295E-02-6.67665E-03
 -1     25677-8.51525E-02 8.22109E-02 2.95741E-03 4.11758E-02-8.73425E-03-1.55683E-02
 -1     25678-5.42339E-02 5.45028E-02-2.70549E-04 3.33104E-02 7.60179E-05 7.69021E-05
 -1     25679-6.17542E-02 6.19117E-02-1.64957E-04 1.82956E-02 2.51000E-04 4.03992E-04
 -1     25680-6.68109E-02 6.65114E-02 2.82335E-04 1.39394E-02-8.10358E-06 1.83149E-05
 -1     25681-6.00500E-02 6.01368E-02-9.12858E-05 2.67785E-02 9.21914E-05-2.37367E-04
 -1     25682-5.48635E-02 5.48008E-02 5.71073E-05 3.06348E-02 2.90907E-04 6.75305E-05
 -1     25683-6.73024E-02 6.74064E-02-1.11532E-04 1.13777E-02 2.42531E-04 3.92581E-04
 -1     25684-1.69105E-01 1.68997E-01 2.45784E-05-1.23038E-01-1.51147E-05-2.60973E-04
 -1     25685 4.10627E-02-4.09667E-02-8.46431E-05 7.93445E-02-9.33606E-06 3.38550E-04
 -1     25686 2.69653E-02-2.70094E-02 4.88024E-05 5.86375E-02-1.44011E-04-5.09609E-06
 -1     25687 2.35636E-02-2.30735E-02-3.92477E-04 2.62307E-01 5.36474E-06 2.64266E-04
 -1     25688 2.22525E-02-2.19291E-02-2.25943E-04 2.51120E-01 2.47359E-04 1.25175E-04
 -1     25689 2.31206E-02-2.25781E-02-4.37189E-04 2.63315E-01-1.70380E-04-2.88500E-05
 -1     25690 2.18981E-02-2.17196E-02-8.22691E-05 2.51680E-01 5.58889E-05-1.46791E-04
 -1     25691-1.72668E-01 1.72512E-01 6.92890E-05-1.28229E-01-3.04508E-04-2.28483E-05
 -1     25692-1.70919E-01 1.70840E-01-5.25660E-06-1.26243E-01-1.81276E-05 4.74642E-05
 -1     25693-5.03853E-02 5.03440E-02 3.57852E-05 2.67002E-02-2.36694E-04 1.40978E-04
 -1     25694-5.88864E-02 5.89147E-02-3.95401E-05 1.53849E-02-1.48204E-04 1.09496E-04
 -1     25695-5.88552E-02 5.88607E-02-1.94010E-05 1.62390E-02 1.64303E-05 2.43360E-04
 -1     25696-6.05006E-02 6.04714E-02 8.64151E-06 1.23781E-02 5.64372E-05-1.10864E-04
 -1     25697-1.18590E-01 1.18597E-01-5.76257E-05-6.54526E-02-8.70856E-05 4.90055E-05
 -1     25698-1.20383E-01 1.20329E-01 2.69536E-08-6.62267E-02-1.07134E-04 1.46057E-04
 -1     25699-1.31163E-01 1.31225E-01-1.21597E-04-8.12005E-02-1.79918E-04 2.04070E-04
 -1     25700-1.29842E-01 1.29928E-01-1.46706E-04-8.05030E-02-2.49681E-06 6.50130E-05
 -1     25701-1.31619E-01 1.31417E-01 1.41101E-04-8.12018E-02 2.49882E-04 9.74001E-05
 -1     25702-9.93804E-02 9.94199E-02-6.07476E-05-3.92678E-03-3.24073E-04-1.10571E-04
 -1     25703-9.22657E-02 9.28535E-02-6.12742E-04 9.28494E-03 4.49579E-04 2.60222E-05
 -1     25704-9.16292E-02 9.22863E-02-6.78611E-04 1.57997E-02 2.29798E-04 3.70747E-04
 -1     25705-1.81990E-01 1.81921E-01-2.28331E-05-1.36113E-01-8.15195E-05 6.71769E-04
 -1     25706-1.69182E-01 1.69668E-01-5.67769E-04-1.18800E-01 3.13199E-04-1.53014E-05
 -1     25707-1.65970E-01 1.65578E-01 3.00844E-04-1.13379E-01-2.78052E-04 2.14624E-05
 -1     25708-1.67126E-01 1.66850E-01 1.90498E-04-1.19836E-01-7.84590E-05 5.55544E-04
 -1     25709-1.70768E-01 1.70885E-01-2.02212E-04-1.24503E-01-1.17971E-04 1.16832E-04
 -1     25710-1.54024E-01 1.53990E-01-3.84808E-05-1.01492E-01-1.29511E-04-1.00319E-04
 -1     25711-1.67017E-01 1.66994E-01-6.02866E-05-1.17834E-01-5.70240E-05 4.85963E-05
 -1     25712-1.49788E-01 1.49679E-01 3.55436E-05-9.41006E-02 1.07093E-04 1.98354E-04
 -1     25713-1.51166E-01 1.51201E-01-1.04697E-04-1.00802E-01 1.26996E-04 9.26525E-05
 -1     25714-1.61589E-01 1.61450E-01 5.51763E-05-1.11630E-01 4.75222E-05 2.37448E-04
 -1     25715-1.65560E-01 1.65523E-01-4.62736E-05-1.18745E-01-2.29603E-05-3.68606E-04
 -1     25716-1.80417E-01 1.79685E-01 6.42401E-04-1.35206E-01-3.16326E-04-3.86785E-05
 -1     25717 5.80770E-02-5.80835E-02 4.20068E-05 1.14437E-01-1.21015E-04 4.13858E-06
 -1     25718 5.81149E-02-5.78167E-02-2.68148E-04 1.07330E-01-2.37281E-04-1.17329E-04
 -1     25719 6.19769E-02-6.19588E-02 1.56825E-05 1.12676E-01-6.33644E-05-9.90384E-05
 -1     25720 5.67669E-02-5.67338E-02-1.63560E-05 8.77465E-02 5.71041E-05 1.49349E-04
 -1     25721 6.03670E-02-6.03385E-02 1.38892E-06 8.47290E-02 1.38842E-04 1.53558E-05
 -1     25722 6.01337E-02-6.00145E-02-8.87431E-05 9.42497E-02 1.93108E-04 2.10105E-05
 -1     25723 6.33727E-02-6.32452E-02-1.08091E-04 9.19114E-02 3.17975E-04 4.85477E-05
 -1     25724 1.91018E-02-1.95094E-02 5.07839E-04 2.50066E-01-5.86813E-04 3.76005E-04
 -1     25725 1.87972E-02-1.90618E-02 3.66032E-04 2.51182E-01-4.00852E-04-1.60646E-04
 -1     25726 1.64874E-02-1.65232E-02 1.30900E-04 2.41411E-01-2.23348E-05 1.82593E-04
 -1     25727 4.20932E-02-4.23031E-02 2.30609E-04 9.73054E-02 5.44728E-05 1.55097E-04
 -1     25728 4.03616E-02-4.02529E-02-9.29721E-05 8.74320E-02 5.90450E-05-1.47363E-05
 -1     25729 4.99299E-02-4.99585E-02 5.43646E-05 1.01099E-01-5.81351E-05 2.23507E-04
 -1     25730 3.51624E-02-3.52031E-02 5.45868E-05 8.85159E-02 8.25345E-05-1.72303E-04
 -1     25731 5.13508E-02-5.11603E-02-1.28069E-04 1.70063E-01 2.56971E-04-1.69481E-04
 -1     25732 4.77949E-02-4.76789E-02-4.97603E-05 1.79846E-01-8.50978E-05 1.53505E-05
 -1     25733 4.72084E-02-4.74209E-02 2.85206E-04 1.80390E-01 4.24913E-04 1.82061E-04
 -1     25734 2.30806E-02-2.32528E-02 2.77336E-04 2.61958E-01-2.24526E-04-9.95926E-05
 -1     25735 2.34780E-02-2.36284E-02 2.52247E-04 2.52018E-01-5.60547E-05 2.73876E-04
 -1     25736 2.24278E-02-2.25455E-02 2.15197E-04 2.44401E-01 1.30181E-04 2.87868E-05
 -1     25737 2.23877E-02-2.28062E-02 5.26768E-04 2.55727E-01-3.66735E-04 2.18967E-04
 -1     25738 2.32701E-02-2.34355E-02 2.73562E-04 2.64030E-01-4.19118E-04 7.35190E-05
 -1     25739 2.30710E-02-2.33370E-02 3.60280E-04 2.46391E-01-9.96029E-05 1.33643E-04
 -1     25740-1.51561E-01 1.51291E-01 1.96514E-04-1.04680E-01 1.83687E-04 2.61854E-04
 -1     25741-1.59695E-01 1.59600E-01 1.80640E-05-1.13057E-01 1.47623E-04 1.59137E-04
 -1     25742-1.47072E-01 1.47010E-01-8.06610E-06-9.95039E-02 9.79985E-05-6.37321E-05
 -1     25743-1.40239E-01 1.40156E-01 1.62059E-05-9.37720E-02 4.15363E-06-5.54423E-05
 -1     25744-1.53194E-01 1.52946E-01 1.71969E-04-1.07530E-01 1.97699E-04 1.01433E-04
 -1     25745-1.48549E-01 1.48543E-01-6.62628E-05-1.02225E-01-1.33227E-04 1.08076E-05
 -1     25746-1.31375E-01 1.31191E-01 1.00680E-04-8.30367E-02 4.80690E-04-9.69667E-04
 -1     25747-1.19889E-01 1.19463E-01 3.79017E-04-5.46451E-02-2.23640E-04 3.78369E-04
 -1     25748-1.23825E-01 1.24744E-01-9.57303E-04-6.04878E-02 1.81998E-07-7.18675E-04
 -1     25749-1.33104E-01 1.33289E-01-2.38289E-04-8.11941E-02-2.12164E-04-1.31465E-03
 -1     25750-1.28285E-01 1.27815E-01 4.06549E-04-7.42382E-02-8.16209E-05-1.50986E-05
 -1     25751-1.20183E-01 1.20230E-01-9.43152E-05-5.37571E-02-7.59747E-05-4.67299E-04
 -1     25752 3.60966E-02-3.60905E-02 4.80988E-05 1.09616E-01-1.56262E-04 1.46344E-04
 -1     25753 3.49817E-02-3.49543E-02 2.91770E-05 1.04733E-01-1.89721E-06 9.11603E-05
 -1     25754 4.15589E-02-4.14616E-02-2.38591E-05 1.06060E-01-1.81106E-04 6.99322E-04
 -1     25755-1.81752E-01 1.81678E-01-1.52435E-05-1.31466E-01-2.82748E-04-9.13778E-05
 -1     25756-1.83670E-01 1.81552E-01 2.02666E-03-1.33380E-01 2.09479E-04 2.64503E-04
 -1     25757-1.80063E-01 1.79149E-01 8.26317E-04-1.23672E-01-5.80894E-04-7.01071E-04
 -1     25758-1.87550E-01 1.87382E-01 7.83096E-05-1.35331E-01-4.38496E-04 2.55591E-04
 -1     25759-1.88637E-01 1.88265E-01 2.77099E-04-1.36993E-01-2.19525E-04 4.66619E-04
 -1     25760 6.70623E-03-6.43888E-03-1.77669E-04 2.17272E-01 7.02476E-04 1.12130E-03
 -1     25761 9.82413E-03-8.74631E-03-1.00026E-03 2.09347E-01 1.95253E-03-6.65840E-04
 -1     25762 6.07640E-03-6.88525E-03 8.84263E-04 2.11797E-01-2.96022E-04-2.83101E-04
 -1     25763-1.66553E-01 1.66422E-01 4.33528E-05-1.10105E-01-7.36353E-04 3.42758E-04
 -1     25764-1.70806E-01 1.69581E-01 1.13731E-03-1.11489E-01 3.42986E-04 6.31603E-04
 -1     25765-1.63491E-01 1.63757E-01-3.49031E-04-1.07996E-01 1.40337E-04 2.96826E-04
 -1     25766-1.77402E-01 1.76839E-01 4.68317E-04-1.23417E-01 6.40191E-04-3.60056E-04
 -1     25767-1.68508E-01 1.67794E-01 6.31229E-04-1.09041E-01 6.89854E-04-1.98635E-04
 -1     25768 5.98624E-02-6.02872E-02 4.71430E-04 1.02341E-01 4.99747E-05-6.68619E-05
 -1     25769-8.91579E-02 8.98363E-02-7.20063E-04-4.60409E-03 8.18627E-05 3.43984E-04
 -1     25770-7.67611E-02 7.69590E-02-2.28907E-04 1.02276E-02-2.59503E-04 3.29430E-04
 -1     25771-9.05882E-02 9.10625E-02-5.16428E-04-1.05138E-03 1.45403E-04 5.72336E-04
 -1     25772-1.79519E-01 1.79235E-01 1.94842E-04-1.31199E-01-2.62691E-04 3.90430E-04
 -1     25773-1.69229E-01 1.69158E-01-1.11638E-05-1.18281E-01 8.81691E-05-1.23813E-04
 -1     25774-1.63820E-01 1.63423E-01 3.12027E-04-1.07514E-01 1.27457E-05 1.57291E-04
 -1     25775-1.52665E-01 1.52588E-01 3.51551E-06-9.43777E-02 4.88283E-05-1.88731E-04
 -1     25776-7.34653E-02 7.48698E-02-1.45107E-03 1.57788E-02 2.09413E-04 8.61407E-06
 -1     25777-1.76480E-01 1.75986E-01 4.18376E-04-1.26128E-01 3.22110E-04-4.57803E-04
 -1     25778-1.78414E-01 1.78155E-01 1.81619E-04-1.29516E-01-1.74951E-04 3.09422E-05
 -1     25779-7.41186E-02 7.05075E-02 3.56077E-03-3.38930E-02 2.21372E-03 1.57662E-03
 -1     25780-7.03558E-02 7.03192E-02-1.71414E-05-4.07958E-02 5.50292E-03-2.38568E-03
 -1     25781-5.16905E-02 5.41887E-02-2.52603E-03-1.81789E-02 8.44588E-04 7.94898E-03
 -1     25782-4.94104E-02 4.93193E-02 7.15446E-05 2.85487E-02 2.52715E-04-2.65883E-04
 -1     25783-3.76874E-02 3.75891E-02 8.71561E-05 4.13819E-02-1.93415E-04 9.38936E-05
 -1     25784-3.89265E-02 3.93493E-02-4.35423E-04 3.81374E-02 3.18653E-04 1.46965E-04
 -1     25785 3.32271E-02-3.32918E-02 1.35539E-04 1.86560E-01 2.05293E-04-7.53987E-05
 -1     25786 3.21998E-02-3.22771E-02 1.50444E-04 1.74398E-01 3.48141E-04-5.78296E-04
 -1     25787 3.56555E-02-3.55833E-02-7.24819E-06 1.74211E-01 1.94192E-06-1.29750E-04
 -1     25788 1.25231E-02-1.21078E-02-3.38347E-04 2.05194E-01-2.37241E-04-1.11621E-04
 -1     25789 1.01849E-02-1.01850E-02 7.39957E-05 1.89502E-01-2.25909E-04 2.14931E-04
 -1     25790 2.45648E-02-2.40829E-02-3.79956E-04 2.43518E-01-9.79386E-06-3.39366E-05
 -1     25791 2.53662E-02-2.51133E-02-1.60121E-04 2.40657E-01 1.91254E-04-2.26642E-04
 -1     25792 2.41170E-02-2.38283E-02-1.86154E-04 2.50734E-01 2.23699E-05 7.93432E-05
 -1     25793 2.35214E-02-2.33614E-02-5.55037E-05 2.60858E-01-4.87145E-05-1.41890E-04
 -1     25794-1.73896E-01 1.74000E-01-1.83116E-04-1.09973E-01-4.40538E-04 6.80764E-05
 -1     25795-1.68457E-01 1.68642E-01-2.69467E-04-1.07081E-01 4.46715E-04 1.05298E-04
 -1     25796-1.83455E-01 1.81955E-01 1.40889E-03-1.25020E-01-6.28898E-04 4.97941E-04
 -1     25797-1.77469E-01 1.76930E-01 4.64558E-04-1.21743E-01-4.31595E-04-5.78766E-05
 -1     25798 4.59455E-02-4.60707E-02 1.93462E-04 1.70899E-01 2.60795E-04 3.08520E-05
 -1     25799 4.21393E-02-4.20938E-02 1.66979E-05 1.72760E-01-1.46508E-04 4.97043E-04
 -1     25800 3.90990E-02-3.92320E-02 2.08599E-04 1.89192E-01 2.04013E-04-2.88050E-04
 -1     25801 4.25991E-02-4.25466E-02 2.54935E-05 1.86030E-01 3.08840E-04 1.62085E-04
 -1     25802 3.24199E-03-3.45228E-03 2.69611E-04 1.28817E-01-5.21889E-05 4.70495E-04
 -1     25803 2.20019E-03-2.32117E-03 1.73308E-04 1.24312E-01-1.21414E-04-1.73997E-06
 -1     25804 2.62445E-03-2.83108E-03 2.60437E-04 1.28745E-01-3.32385E-04 1.60087E-04
 -1     25805 5.66861E-02-5.66058E-02-2.06164E-05 1.57090E-01 8.24750E-05-8.07943E-05
 -1     25806 6.10401E-02-6.09835E-02 5.03049E-06 1.53426E-01-2.29763E-04-3.60965E-06
 -1     25807 5.67966E-02-5.67387E-02 3.52581E-06 1.52485E-01 2.30807E-04 4.09376E-05
 -1     25808 6.19609E-02-6.20131E-02 1.16732E-04 1.49083E-01 2.47480E-04-1.81834E-04
 -1     25809 1.39721E-03-1.87290E-03 5.22837E-04 1.19567E-01-4.74873E-04-1.10918E-04
 -1     25810 1.86343E-03-2.07393E-03 2.43441E-04 1.18578E-01-5.65638E-05-2.52793E-04
 -1     25811-2.08691E-02 2.38276E-02-2.91841E-03 1.47130E-01-5.60161E-04 5.33797E-04
 -1     25812-2.16099E-02 1.81006E-02 3.56869E-03 1.50778E-01-2.08984E-03 6.95879E-04
 -1     25813-3.60113E-02 3.87428E-02-2.67284E-03 1.50512E-01-1.75779E-03 2.72321E-03
 -1     25814-1.26131E-03 3.25679E-03-1.94271E-03 1.60962E-01 7.15841E-04 9.15502E-04
 -1     25815-1.50095E-04-1.78550E-03 1.98812E-03 1.64715E-01-7.06784E-04-3.03994E-04
 -1     25816 1.06425E-02-1.06284E-02-7.06652E-06 8.31339E-02-1.80071E-04 2.11806E-04
 -1     25817 1.62710E-02-1.61182E-02-1.35518E-04 9.02708E-02-7.54776E-05-5.65837E-06
 -1     25818 1.58179E-03-1.36882E-03-1.65217E-04 1.21216E-01 2.59552E-04-4.09786E-05
 -1     25819 1.77712E-03-1.77739E-03 5.03438E-05 1.22246E-01-1.21027E-04-4.10611E-05
 -1     25820 1.13509E-03-1.06715E-03-8.91674E-06 1.20989E-01-2.45824E-04 4.65936E-05
 -1     25821-1.81078E-01 1.80326E-01 6.64423E-04-1.32130E-01 1.60435E-05-7.02433E-04
 -1     25822-1.82981E-01 1.82316E-01 5.77881E-04-1.38558E-01 2.43065E-04 4.93880E-04
 -1     25823-1.82788E-01 1.81869E-01 8.30371E-04-1.34918E-01-1.24037E-03-1.82657E-04
 -1     25824-6.03315E-02 6.03272E-02 6.23851E-06 4.16525E-02-2.95420E-05 2.08141E-04
 -1     25825 1.74395E-02-1.80932E-02 7.02996E-04 1.31977E-01 3.28818E-05 1.06489E-03
 -1     25826 1.79113E-02-1.70011E-02-8.50700E-04 1.34207E-01-8.29411E-05-7.99781E-05
 -1     25827 1.88199E-02-1.84717E-02-3.01316E-04 1.28491E-01 7.22772E-05-6.78759E-05
 -1     25828 1.87611E-02-1.92096E-02 4.99384E-04 1.27515E-01 5.81146E-05 7.09164E-04
 -1     25829 2.34531E-02-2.39714E-02 5.64395E-04 1.29804E-01-3.03131E-04 6.08325E-04
 -1     25830-3.14143E-02 3.15069E-02-9.34465E-05 4.66002E-02-2.15906E-04 3.55554E-04
 -1     25831-2.75225E-02 2.76458E-02-1.27233E-04 4.90948E-02-1.55383E-04 2.04111E-04
 -1     25832-2.17089E-02 2.16623E-02 3.96710E-05 5.68436E-02 1.03854E-04 3.26585E-04
 -1     25833 3.34545E-02-3.34960E-02 9.34730E-05 1.11911E-01-2.32102E-04 5.58224E-04
 -1     25834 2.71868E-02-2.72064E-02 7.44213E-05 1.10738E-01 3.18231E-04 1.16431E-04
 -1     25835 2.99940E-02-2.99958E-02 5.67637E-05 1.08735E-01 5.22327E-04 3.91326E-05
 -1     25836 1.75578E-02-1.77365E-02 2.26246E-04 1.16225E-01-1.95935E-04 9.48535E-05
 -1     25837 2.32619E-02-2.30583E-02-1.59515E-04 1.16999E-01-6.11938E-04 1.98759E-04
 -1     25838-9.30322E-02 9.30920E-02-1.07241E-04-2.32425E-05-2.65078E-04-8.22052E-04
 -1     25839-9.46458E-02 9.41562E-02 4.46096E-04-4.17428E-03-4.84027E-05-5.75451E-04
 -1     25840-3.39429E-02 3.35852E-02 3.39946E-04 4.56249E-02-4.55065E-04 1.25131E-04
 -1     25841-2.31840E-02 2.32577E-02-8.68383E-05 5.24321E-02 2.67412E-04 2.24420E-04
 -1     25842 2.45062E-02-2.46632E-02 2.01162E-04 1.22010E-01-5.49665E-05 6.14891E-04
 -1     25843 2.08556E-02-2.07514E-02-4.85617E-05 1.19684E-01 1.38818E-04-2.45455E-04
 -1     25844 3.05320E-02-3.05045E-02 2.31987E-05 1.20834E-01 4.50573E-05 3.65791E-05
 -1     25845 2.59628E-02-2.63948E-02 5.27222E-04 2.40611E-01 4.80198E-04 2.38043E-05
 -1     25846 2.59538E-02-2.65405E-02 6.82054E-04 2.37348E-01-9.21380E-05 4.20066E-04
 -1     25847 2.70603E-02-2.71253E-02 1.60274E-04 2.38913E-01 1.08855E-04 7.40587E-04
 -1     25848 1.75801E-02-1.71342E-02-4.44758E-04 9.58397E-03 6.75220E-04-1.92171E-04
 -1     25849 2.21873E-02-2.28744E-02 7.23948E-04 1.33862E-02 1.04849E-03-8.64599E-04
 -1     25850 2.24177E-02-2.15934E-02-8.20910E-04 1.11427E-02 2.06248E-03-6.65563E-04
 -1     25851 3.31321E-02-3.16216E-02-1.48110E-03 2.52631E-02 7.62123E-04 1.05847E-03
 -1     25852 3.21348E-02-3.17585E-02-3.52427E-04 2.87773E-02-2.53836E-04-1.97456E-04
 -1     25853 3.65866E-02-3.61981E-02-3.70866E-04 2.99045E-02 1.00308E-03 2.67579E-05
 -1     25854 8.68109E-03-9.24886E-03 5.69244E-04-1.83846E-02 2.04737E-04 1.19914E-03
 -1     25855 1.51474E-02-1.45527E-02-7.05984E-04-2.20889E-04 1.52311E-03 8.47454E-05
 -1     25856 5.20263E-03-4.50276E-03-7.51318E-04 4.16586E-04 1.29434E-03-9.42776E-05
 -1     25857-6.99724E-02 6.82609E-02 1.64687E-03-2.34010E-02 6.43117E-03 4.79441E-04
 -1     25858-7.32339E-02 7.15787E-02 1.62874E-03-4.54759E-02 3.31746E-03-1.36383E-03
 -1     25859-6.70187E-02 6.41867E-02 2.82272E-03-2.93255E-02 1.21834E-03 1.71673E-03
 -1     25860-6.77846E-02 6.84216E-02-7.00490E-04-2.81972E-02-7.37584E-04-1.21712E-03
 -1     25861-7.39341E-02 7.59015E-02-1.97854E-03-4.56869E-02-1.66214E-04-6.24853E-04
 -1     25862-7.30301E-02 7.27645E-02 2.80759E-04-4.85756E-02-1.93101E-04-5.02510E-04
 -1     25863 2.30595E-02-2.23653E-02-6.19463E-04 1.63507E-01-3.43396E-05 5.42037E-04
 -1     25864 2.34120E-02-2.25848E-02-7.58160E-04 1.69259E-01 2.62025E-04 1.11661E-04
 -1     25865 2.30000E-02-2.32545E-02 3.17378E-04 1.60896E-01 6.50313E-05 6.58615E-04
 -1     25866 2.81277E-02-2.81317E-02 5.55033E-05 1.13926E-01 5.46248E-05-3.05756E-04
 -1     25867 2.06474E-02-2.07905E-02 1.85163E-04 1.13240E-01 2.04440E-04-9.83469E-05
 -1     25868 2.17581E-02-2.16434E-02-6.57506E-05 1.13444E-01 1.18899E-04 3.96392E-04
 -1     25869 1.95874E-02-1.94348E-02-9.35528E-05 1.11833E-01-4.31621E-05 1.01810E-05
 -1     25870 2.17612E-02-2.18009E-02 1.46251E-04 2.57147E-01-5.79381E-05-1.09536E-04
 -1     25871 1.44154E-02-1.41758E-02-1.56753E-04 2.25692E-01 9.20086E-05-3.42238E-04
 -1     25872 2.10010E-02-2.10590E-02 1.56071E-04 2.56500E-01-1.69540E-04 1.81693E-04
 -1     25873 1.68470E-02-1.64799E-02-2.77402E-04 2.37805E-01 8.36234E-05-1.17793E-04
 -1     25874 5.02161E-02-4.99343E-02-2.14734E-04 1.77908E-01-7.92057E-05-6.89886E-06
 -1     25875 4.74641E-02-4.76007E-02 2.10619E-04 1.85701E-01 3.10149E-04-7.13105E-05
 -1     25876 5.77770E-03-3.36592E-03-2.42574E-03 3.08321E-03-1.04078E-03-2.76173E-03
 -1     25877 1.33885E-02-1.27541E-02-6.07809E-04 3.57742E-03-3.31958E-06-1.22193E-03
 -1     25878 7.64710E-03-7.08361E-03-5.47699E-04-1.79628E-02 2.36889E-04-8.68612E-05
 -1     25879 2.67403E-02-2.63670E-02-2.88486E-04 2.15402E-01 9.58876E-05-1.00498E-04
 -1     25880 3.28714E-02-3.30499E-02 2.77778E-04 2.03900E-01-9.62073E-05 6.61523E-05
 -1     25881 2.60125E-02-2.57742E-02-1.59047E-04 2.06354E-01-1.66327E-04-2.23000E-04
 -1     25882 2.61055E-02-2.56252E-02-3.99465E-04 2.10128E-01-6.03796E-04-2.14409E-04
 -1     25883 3.72433E-02-3.72552E-02 6.50000E-05 1.20764E-01 3.05707E-04 5.67252E-04
 -1     25884 3.34620E-02-3.36592E-02 2.48946E-04 1.24295E-01 3.14841E-04-1.90661E-04
 -1     25885-1.18963E-02 1.18973E-02 2.39538E-05 9.25172E-02-1.09551E-04-2.46073E-05
 -1     25886-8.61787E-03 8.55322E-03 9.34184E-05 1.04509E-01 5.82437E-05-2.57757E-05
 -1     25887-4.71515E-03 4.75310E-03-6.78130E-06 1.06215E-01 1.61403E-04 2.69460E-04
 -1     25888 1.31015E-03-5.92059E-04-7.69180E-04-3.89643E-02-9.04926E-04-1.01837E-03
 -1     25889 1.80448E-04-2.16891E-04-1.19598E-05-4.33700E-02 1.41089E-04-4.00996E-04
 -1     25890 1.09782E-03 1.18227E-03-2.41220E-03-3.56335E-02-1.19316E-03-9.17239E-04
 -1     25891-1.45236E-05-3.88412E-05 1.09384E-04-3.89440E-02 2.61816E-04 3.91869E-04
 -1     25892-1.68940E-03 8.17910E-04 8.94136E-04-4.30659E-02 1.80591E-03 1.30916E-03
 -1     25893 4.24322E-02-4.22700E-02-1.02034E-04 1.36339E-01-1.55158E-04-5.65195E-04
 -1     25894 3.28776E-02-3.27992E-02-2.03942E-05 1.37206E-01 1.16213E-04-4.89889E-04
 -1     25895 4.00965E-02-4.01679E-02 1.26054E-04 1.32414E-01 8.64986E-04-1.72955E-04
 -1     25896-7.86298E-02 7.86061E-02-1.49094E-07-1.20400E-02 5.54096E-05-1.44015E-04
 -1     25897-8.89531E-02 8.89081E-02 8.99039E-06-2.63558E-02 6.83909E-07-8.16542E-06
 -1     25898-8.76703E-02 8.75329E-02 1.08172E-04-2.44180E-02 2.18868E-04 7.95892E-05
 -1     25899 1.79383E-03-1.54348E-03-3.53797E-04-4.06161E-02-7.26358E-05-5.32320E-04
 -1     25900 1.04325E-03-1.08995E-03 4.49248E-05 6.43893E-02 1.41277E-05 4.49863E-04
 -1     25901 6.13455E-02-6.13921E-02 6.49896E-05 7.96575E-02-5.83278E-05 1.99721E-06
 -1     25902 6.30303E-02-6.30020E-02-1.23536E-06 7.56531E-02-3.19062E-04-1.94735E-04
 -1     25903 6.81574E-02-6.79637E-02-1.69587E-04 8.46988E-02 1.22648E-04-3.65898E-05
 -1     25904-7.41269E-02 7.40920E-02 1.81972E-05 1.75089E-02-1.11284E-04 1.26155E-04
 -1     25905-8.20450E-02 8.20690E-02-3.58370E-05 8.04509E-04 7.31475E-05-5.03552E-07
 -1     25906-1.48390E-01 1.48362E-01-4.23710E-05-1.01779E-01 2.96564E-04 1.47022E-04
 -1     25907-1.37040E-01 1.36870E-01 1.00989E-04-8.71906E-02 1.57346E-04-8.03174E-05
 -1     25908-8.97239E-04-2.34332E-03 3.17874E-03 4.61696E-03-6.95563E-04-1.49155E-03
 -1     25909-1.43258E-02 1.38447E-02 4.40573E-04 2.32641E-03 4.97777E-04-6.27682E-04
 -1     25910 2.36742E-03-1.31723E-03-1.09923E-03-1.40813E-02 7.14182E-04 6.90337E-04
 -1     25911 2.35531E-02-2.34995E-02 5.16436E-05 2.55316E-01-2.82804E-04-1.21136E-04
 -1     25912 2.53177E-02-2.52577E-02 3.91627E-05 2.43534E-01-1.31654E-04-2.90335E-04
 -1     25913 2.44462E-02-2.44893E-02 1.45861E-04 2.50842E-01-2.95631E-04-3.08997E-04
 -1     25914 2.43838E-02-2.41145E-02-1.71959E-04 2.51987E-01-1.60392E-05-3.41681E-07
 -1     25915-7.90792E-02 7.92697E-02-2.18626E-04 3.73969E-02 2.23047E-05 1.65234E-03
 -1     25916-1.84926E-01 1.85153E-01-3.20955E-04-1.37108E-01-5.81591E-04-2.46960E-04
 -1     25917-1.84720E-01 1.84928E-01-3.02027E-04-1.36801E-01-5.20033E-04-5.64293E-04
 -1     25918-1.77262E-01 1.76869E-01 3.07831E-04-1.26749E-01-7.62139E-05 1.79957E-04
 -1     25919-1.81390E-01 1.80802E-01 4.98184E-04-1.30841E-01 2.88859E-04 2.42172E-04
 -1     25920 5.27222E-02-5.27299E-02 5.49000E-05 1.41558E-01 1.28841E-04 1.63012E-04
 -1     25921 5.73790E-02-5.72834E-02-5.04752E-05 1.40496E-01-1.64170E-04 7.78704E-05
 -1     25922 5.47615E-02-5.45926E-02-1.17795E-04 1.32485E-01 2.86631E-05 3.34295E-05
 -1     25923 4.98522E-02-4.98162E-02 7.55785E-06 1.33209E-01 1.26442E-04 2.34707E-05
 -1     25924-5.52475E-02 4.08754E-02 1.37248E-02 1.01843E-01 3.85936E-04 2.36339E-04
 -1     25925-2.41980E-01 2.34526E-01 6.85521E-03 1.26298E-01-4.97247E-03 1.35724E-02
 -1     25926-5.15543E-02 3.98025E-02 1.09216E-02 9.63917E-02 9.88508E-03 4.73541E-03
 -1     25927-4.47100E-02 4.47374E-02-5.42493E-07 9.48025E-02 3.42957E-05 8.76424E-05
 -1     25928-3.64595E-02 3.64168E-02 7.58056E-05 1.10378E-01 1.27129E-04 3.91268E-04
 -1     25929-4.05006E-02 4.05849E-02-5.31284E-05 9.56441E-02-9.74948E-05 7.57564E-07
 -1     25930-1.07575E-02 1.16831E-02-1.05990E-03-2.16231E-02-3.33761E-04-6.35836E-04
 -1     25931-3.41433E-03 1.90590E-03 1.49353E-03-1.96598E-02 1.17631E-03-8.65347E-04
 -1     25932-6.20970E-03 7.29788E-03-1.10167E-03-2.10527E-02-2.14178E-03-2.77764E-03
 -1     25933-2.99270E-02 2.92125E-02 5.79221E-04 2.03851E-03-8.03434E-04 1.67566E-03
 -1     25934-2.56146E-02 2.38010E-02 1.78481E-03 1.08655E-03-3.48560E-04 2.05182E-04
 -1     25935-2.18727E-02 2.11227E-02 7.62477E-04 4.76753E-03 1.82111E-03-1.75010E-03
 -1     25936-4.13396E-04-1.13519E-03 1.50697E-03-2.77762E-02-2.30049E-04 1.78038E-04
 -1     25937 1.47023E-04-1.73145E-03 1.60377E-03-2.13270E-02 5.18932E-04-5.14732E-04
 -1     25938-1.14132E-02 1.08347E-02 5.19192E-04 2.40682E-03-6.20136E-04 7.49056E-04
 -1     25939-1.35588E-02 1.54592E-02-2.08712E-03 1.35942E-03 2.01013E-03 1.82148E-03
 -1     25940-1.00873E-02 1.09399E-02-8.61254E-04-2.28005E-03 1.37575E-03 8.32155E-04
 -1     25941-8.60986E-02 8.63626E-02-2.87679E-04 2.17494E-02 5.68782E-05-2.57160E-04
 -1     25942-8.76829E-02 8.76717E-02-3.53247E-06 1.22600E-02 1.19524E-04 1.88360E-04
 -1     25943-8.63262E-02 8.61114E-02 1.97234E-04 2.21888E-02 2.93701E-05-3.30765E-05
 -1     25944-9.41520E-02 9.41941E-02-6.20260E-05-5.79662E-04 3.00613E-04-4.84162E-05
 -1     25945-1.41777E-02 1.41800E-02-3.50791E-05 4.24032E-02 2.65265E-04 1.03147E-05
 -1     25946-2.38983E-02 2.38265E-02 5.01820E-05 4.45177E-02 2.22732E-04-1.26625E-04
 -1     25947-1.61684E-01 1.61682E-01-7.75664E-05-1.16689E-01-1.07029E-04 3.04389E-05
 -1     25948-1.62296E-01 1.62238E-01-2.17370E-05-1.16881E-01-2.37925E-05 9.38041E-05
 -1     25949-1.70949E-01 1.70769E-01 9.45625E-05-1.26863E-01 1.71756E-06-1.69395E-04
 -1     25950-1.54533E-01 1.54696E-01-2.38864E-04-1.08520E-01 9.39531E-05 2.23368E-05
 -1     25951-1.71366E-01 1.71347E-01-6.57348E-05-1.26862E-01 1.44505E-04-1.54005E-04
 -1     25952 5.08384E-03-5.20357E-03 1.10579E-04 9.34234E-02-2.46684E-05 9.91710E-05
 -1     25953 4.98610E-03-5.38734E-03 4.46889E-04 9.55181E-02-2.84620E-04-1.68741E-04
 -1     25954-6.69004E-02 6.69256E-02-3.38742E-05 1.66309E-02 6.15991E-05-2.67932E-04
 -1     25955-1.61084E-01 1.60893E-01 1.12737E-04-1.15518E-01-2.48594E-04 5.80118E-05
 -1     25956-1.33433E-01 1.30921E-01 2.43853E-03-1.42020E-02 1.26369E-03 4.18726E-03
 -1     25957-1.29953E-01 1.31723E-01-1.81599E-03-2.37712E-02-9.82753E-05 1.93626E-03
 -1     25958-1.73773E-01 1.68478E-01 5.22270E-03-2.71048E-02 5.02990E-04 4.53254E-03
 -1     25959-1.42326E-01 1.41895E-01 3.61171E-04-6.79459E-03-1.70327E-03 2.93724E-03
 -1     25960-1.65205E-01 1.67161E-01-2.01527E-03-3.62324E-02 4.94662E-04 4.09748E-03
 -1     25961-6.95765E-02 6.98573E-02-3.97565E-04 1.61807E-02 3.53720E-03 1.13513E-03
 -1     25962-7.47947E-02 7.59476E-02-1.19156E-03 2.71405E-02 3.89276E-03 1.42272E-03
 -1     25963-3.85541E-02 3.82235E-02 2.10255E-04 6.56817E-03-2.85261E-03 1.64139E-03
 -1     25964-4.00150E-02 3.97559E-02 2.18452E-04 1.60496E-03 2.22587E-03 9.97627E-04
 -1     25965-4.83935E-02 4.78154E-02 4.15826E-04 1.74430E-02 1.55857E-03-1.24547E-04
 -1     25966-1.59470E-01 1.59190E-01 2.02081E-04-1.14158E-01 2.38708E-04 6.85918E-05
 -1     25967-1.59778E-01 1.60051E-01-3.51001E-04-1.15039E-01 1.87987E-04-1.30588E-04
 -1     25968-2.84137E-02 2.84690E-02-3.09043E-06 1.50480E-01-2.45346E-05-1.26686E-04
 -1     25969-3.20520E-02 3.21798E-02-8.16133E-05 1.37648E-01-3.19167E-04 9.85513E-05
 -1     25970-3.64043E-02 3.64193E-02-3.75002E-05 4.38112E-02 3.47791E-04 2.80491E-04
 -1     25971-4.95443E-02 4.97719E-02-1.98197E-04 1.06096E-01-1.78272E-04-1.60180E-04
 -1     25972-5.79012E-02 5.79944E-02-7.37373E-05 8.87989E-02-2.54322E-05-1.65219E-04
 -1     25973-5.48992E-02 5.47059E-02 2.09752E-04 1.03086E-01 2.12017E-04-5.96957E-05
 -1     25974 1.96958E-02-1.92536E-02-3.36620E-04 2.49459E-01-2.20719E-04-4.50664E-04
 -1     25975-1.41885E-01 1.41934E-01-1.20382E-04-8.07970E-02-4.35263E-04-1.29612E-04
 -1     25976-1.38740E-01 1.38711E-01-3.42122E-05-8.04370E-02-1.06503E-04 7.76256E-05
 -1     25977-6.39388E-02 6.38607E-02 9.39741E-05 8.79585E-02-8.92537E-06-4.28953E-04
 -1     25978 3.20267E-02-3.20396E-02 5.65613E-06 5.36432E-02 4.41413E-05-1.00874E-04
 -1     25979-6.65117E-02 6.64322E-02 7.05440E-05 2.13303E-02-9.68976E-05 8.13196E-05
 -1     25980-5.75024E-02 5.74730E-02 2.65320E-05 3.52490E-02-1.06246E-05-1.56391E-04
 -1     25981-2.47728E-02 2.48558E-02-4.79708E-05 1.15065E-01 3.16172E-05-1.07354E-04
 -1     25982-2.91471E-02 2.91736E-02 1.40251E-06 1.00377E-01 1.02657E-04 7.15728E-05
 -1     25983-2.11742E-02 2.12205E-02-7.80921E-06 1.16716E-01-3.72276E-05-5.56263E-05
 -1     25984-6.68059E-02 6.68395E-02-2.44628E-05 7.03162E-02 1.30862E-04 6.65545E-05
 -1     25985 5.18592E-02-5.18567E-02 2.68810E-05 1.07769E-01-1.03782E-04 3.82894E-04
 -1     25986 5.27669E-02-5.26102E-02-1.22497E-04 1.14965E-01-1.53346E-04 3.84596E-04
 -1     25987 7.24513E-04-7.31889E-04-2.82933E-05 2.20204E-02-6.71171E-04 1.09480E-03
 -1     25988 1.05489E-02-1.16131E-02 1.04961E-03 1.98294E-02-1.31493E-03 8.88275E-04
 -1     25989-1.61638E-01 1.61400E-01 1.59441E-04-1.16158E-01-3.57414E-05 1.23721E-04
 -1     25990-1.08578E-01 1.08800E-01-2.70316E-04-5.10156E-02 1.49514E-04-5.53297E-04
 -1     25991-1.22000E-01 1.22257E-01-3.20939E-04-8.62881E-02-4.18122E-04 6.07335E-04
 -1     25992-1.03621E-01 1.05317E-01-1.74008E-03-4.17535E-02-6.34287E-04-8.35619E-04
 -1     25993-1.04826E-01 1.05380E-01-5.95051E-04-4.84850E-02 6.53190E-04-1.22667E-03
 -1     25994-1.19352E-01 1.20281E-01-9.87153E-04-8.43048E-02 8.86156E-04-1.01264E-03
 -1     25995-8.61567E-03 7.74378E-03 8.53708E-04 2.94934E-02 6.68509E-06 1.08545E-03
 -1     25996 5.64141E-03-6.25087E-03 5.70751E-04 3.01487E-02-6.30051E-04 9.01154E-04
 -1     25997-2.82724E-02 2.83194E-02-3.81422E-06 1.25730E-01 9.04441E-05 1.64322E-04
 -1     25998-3.27781E-02 3.29063E-02-9.31325E-05 1.10898E-01-4.82537E-05-1.06852E-04
 -1     25999-4.99751E-02 5.00358E-02-4.51217E-05 7.81184E-02 7.29883E-05 6.06802E-05
 -1     26000-3.71013E-02 3.71276E-02-1.06960E-06 9.56914E-02-4.19495E-06 7.83502E-05
 -1     26001-4.65396E-02 4.65582E-02 2.11390E-06 7.85410E-02 3.41732E-05 1.65560E-04
 -1     26002-5.23791E-02 5.27208E-02-3.40728E-04 3.88396E-02 1.88605E-04 3.65364E-05
 -1     26003-4.74038E-02 4.74341E-02-2.04194E-05 5.38091E-02 1.07231E-04-9.04660E-06
 -1     26004-4.43241E-02 4.43334E-02-2.61175E-06 5.23993E-02 2.26346E-04 2.85249E-05
 -1     26005-1.25033E-01 1.26452E-01-1.48361E-03-9.09053E-02-2.45195E-04-3.69849E-04
 -1     26006-1.30094E-01 1.30318E-01-2.92095E-04-9.37213E-02 5.15095E-04-2.27370E-04
 -1     26007-1.31293E-01 1.31233E-01-1.88870E-05-9.48235E-02-7.69669E-04-7.52175E-04
 -1     26008 3.63234E-02-3.71299E-02 8.29137E-04 5.50319E-02-2.64781E-04 1.00594E-03
 -1     26009 3.85932E-02-3.76462E-02-9.20422E-04 5.93697E-02 5.03888E-04-6.88729E-04
 -1     26010 4.88995E-02-4.85601E-02-2.90914E-04 6.60365E-02-4.62827E-04 6.16631E-04
 -1     26011 4.47216E-02-4.55360E-02 8.55966E-04 5.57948E-02 4.61373E-04-5.86798E-05
 -1     26012 3.49192E-02-3.56619E-02 7.95643E-04 4.69568E-02 4.07249E-04-7.06168E-04
 -1     26013-5.33619E-02 5.32900E-02 2.39715E-05 3.70644E-02-2.55213E-04-1.99400E-04
 -1     26014-9.00563E-02 9.01626E-02-1.51478E-04 2.16849E-02-2.59772E-04 6.22434E-04
 -1     26015-7.52367E-02 7.40768E-02 1.10077E-03 2.89679E-02-7.87565E-04 5.62210E-04
 -1     26016-3.90442E-02 3.90285E-02-1.81309E-05 4.06216E-02 6.92484E-05-2.89712E-04
 -1     26017-7.73888E-02 7.65770E-02 7.38758E-04 2.90840E-02 1.93255E-04 6.14839E-05
 -1     26018-2.03299E-01 1.96661E-01 6.48284E-03-9.74680E-02-4.52487E-03 1.77918E-03
 -1     26019-1.92534E-01 1.90522E-01 1.89871E-03-9.51791E-02-6.33779E-04 1.45313E-03
 -1     26020-1.98530E-01 1.98443E-01 2.17814E-05-1.15373E-01-8.28348E-04 5.92120E-04
 -1     26021-2.04685E-01 2.02498E-01 2.11414E-03-8.74768E-02-3.81809E-03 5.93326E-04
 -1     26022-1.96776E-01 1.94943E-01 1.72360E-03-8.66040E-02-1.24605E-03 1.02964E-03
 -1     26023 1.06922E-02-1.08596E-02 2.43459E-04 2.25004E-02-7.56871E-05 3.88939E-04
 -1     26024 3.34806E-02-3.36149E-02 1.70121E-04 3.37105E-02-2.18612E-04-5.18487E-04
 -1     26025 2.33598E-02-2.32184E-02-1.04258E-04 3.36407E-02-3.77629E-04 2.69838E-05
 -1     26026 1.08886E-02-1.15066E-02 6.69942E-04 1.41387E-02-2.57502E-04 2.33304E-04
 -1     26027 2.35719E-02-2.36419E-02 8.11744E-05 2.54058E-02-2.02493E-04 1.86597E-04
 -1     26028-1.91134E-01 1.88562E-01 2.48238E-03-1.15503E-01-2.10633E-04 3.41976E-04
 -1     26029-1.79219E-01 1.78116E-01 1.02106E-03-9.91480E-02-1.61044E-04 4.98886E-04
 -1     26030 2.12802E-02-2.06886E-02-4.88110E-04 2.52610E-01 3.94323E-04-4.83450E-05
 -1     26031 1.18406E-02-1.17834E-02 3.39945E-05 2.20545E-01 6.35935E-04-6.39550E-05
 -1     26032 1.97322E-02-2.00886E-02 4.59125E-04 2.53344E-01-1.84561E-04 1.50504E-05
 -1     26033 3.39165E-02-3.41169E-02 2.87977E-04 2.02340E-01 1.85550E-04 2.34662E-04
 -1     26034 3.60670E-02-3.62001E-02 2.05470E-04 1.89745E-01 1.51975E-04-5.17468E-04
 -1     26035-8.05600E-02 8.06126E-02-8.74287E-05 1.44384E-02 1.00617E-03-8.13727E-04
 -1     26036-1.01843E-01 1.01731E-01 6.09075E-05 1.06505E-03-1.62091E-03 4.11833E-04
 -1     26037-7.84467E-02 7.79030E-02 5.05057E-04 1.53010E-02 5.65664E-04-3.26850E-04
 -1     26038-6.61281E-02 6.59138E-02 1.72250E-04 3.03848E-02 8.18475E-04-2.96346E-04
 -1     26039-8.65993E-02 8.88783E-02-2.33278E-03 2.08208E-02-5.53552E-04 5.39790E-04
 -1     26040-2.40919E-02 2.41377E-02 4.71338E-06 1.27485E-01 3.93654E-05-2.50473E-05
 -1     26041-1.17811E-01 1.17778E-01-2.84810E-05-5.45064E-03-1.48385E-03-8.35727E-05
 -1     26042-1.19891E-01 1.20214E-01-3.98563E-04 7.70292E-03 7.79319E-04-7.24575E-04
 -1     26043-1.07072E-01 1.07727E-01-7.05560E-04 1.10869E-02-2.10986E-03-1.23083E-03
 -1     26044 1.23990E-02-1.28467E-02 4.89209E-04 4.39198E-02 4.73254E-04 3.16825E-06
 -1     26045 3.75804E-02-3.74202E-02-9.01735E-05 1.69436E-01 9.75320E-05-6.57606E-05
 -1     26046 4.61133E-02-4.58151E-02-2.33665E-04 1.57230E-01 1.22872E-04-4.69779E-04
 -1     26047 4.87667E-02-4.87610E-02 5.95291E-05 1.61386E-01 1.52557E-04-3.48941E-04
 -1     26048 2.22437E-02-2.22571E-02 1.21187E-04 2.60002E-01 9.37647E-06 3.64254E-05
 -1     26049 2.20619E-02-2.17563E-02-2.08426E-04 2.51895E-01 9.33327E-05-3.89426E-04
 -1     26050 2.01804E-02-2.02439E-02 1.62510E-04 2.40271E-01 4.94790E-05-3.30825E-04
 -1     26051 2.23051E-02-2.19352E-02-2.68740E-04 2.51787E-01 1.86909E-04 1.95807E-04
 -1     26052-8.03051E-02 8.07673E-02-4.52104E-04 1.36753E-01-5.68469E-04-6.88826E-04
 -1     26053-7.46561E-02 7.46699E-02 1.63057E-05 1.47830E-01 8.08388E-04-7.55985E-04
 -1     26054-1.27185E-01 1.29253E-01-2.10023E-03 1.32134E-01-8.24068E-03 2.31307E-03
 -1     26055-1.08721E-01 1.10584E-01-1.81034E-03 1.20001E-01-3.49444E-03 4.56474E-03
 -1     26056-9.06438E-02 8.71653E-02 3.49403E-03 1.05400E-01-1.66997E-03 3.95593E-03
 -1     26057-1.05559E-01 1.04296E-01 1.35885E-03 1.21278E-01-2.73917E-04-7.15020E-04
 -1     26058-1.29366E-01 1.26043E-01 3.38190E-03 1.30911E-01-4.09003E-03 4.55171E-03
 -1     26059-8.59219E-02 8.52924E-02 6.05718E-04 1.05975E-01 1.84230E-03 4.58871E-03
 -1     26060 2.35964E-02-2.26235E-02-9.00292E-04 1.77912E-01 4.08752E-04-2.25104E-04
 -1     26061 2.35413E-02-2.32210E-02-2.43602E-04 1.82755E-01 4.34961E-04-1.42069E-04
 -1     26062 2.35486E-02-2.37141E-02 2.39287E-04 1.84781E-01 5.78182E-05 3.61497E-04
 -1     26063-1.23835E-01 1.20915E-01 2.94296E-03 1.46081E-01-3.92644E-03 6.41780E-04
 -1     26064-1.17661E-01 1.17886E-01-1.81015E-04 1.50948E-01-3.36223E-04-6.23650E-04
 -1     26065-1.09521E-01 1.09827E-01-2.30450E-04 1.55994E-01 3.16981E-04 1.87342E-04
 -1     26066-4.30584E-02 4.25573E-02 5.55031E-04 1.65092E-01-3.16284E-04-8.65758E-04
 -1     26067-1.95497E-02 1.96185E-02 1.45677E-05 1.79779E-01-2.12757E-04-9.53302E-04
 -1     26068 2.50930E-02-2.51061E-02 1.08192E-04 2.38103E-01-1.23460E-04 3.67803E-04
 -1     26069 2.46591E-02-2.45016E-02-6.37922E-05 2.30147E-01 3.86580E-05-3.99508E-05
 -1     26070 2.31611E-02-2.30682E-02-2.95691E-07 2.35489E-01-5.10021E-06 1.09826E-05
 -1     26071 2.37079E-02-2.36966E-02 8.63460E-05 2.43455E-01-3.15080E-04 2.87340E-04
 -1     26072 2.50041E-02-2.50830E-02 1.75391E-04 2.29539E-01-6.21190E-05-2.16111E-04
 -1     26073-5.21360E-02 4.89464E-02 3.22847E-03 1.30499E-01-6.81930E-04-4.65717E-04
 -1     26074-5.36593E-02 5.29609E-02 7.38938E-04 1.36195E-01-2.23030E-03-5.42156E-04
 -1     26075-2.98658E-02 3.06688E-02-7.44156E-04 1.50280E-01 1.82569E-03 1.38941E-04
 -1     26076 3.99725E-02-3.99338E-02 4.86811E-06 1.32817E-01-4.40534E-05-6.19588E-05
 -1     26077 3.45053E-02-3.44428E-02-1.91992E-05 1.41556E-01 9.83741E-05 2.67903E-05
 -1     26078-7.55529E-02 7.32188E-02 2.29463E-03-4.26737E-02 1.88807E-03 3.52739E-03
 -1     26079-7.97201E-02 7.88672E-02 8.00568E-04-6.48009E-02-2.43058E-04 2.30543E-03
 -1     26080-6.36121E-02 6.14605E-02 2.15391E-03 3.91778E-03-2.19220E-03 3.36454E-03
 -1     26081-6.56318E-02 6.67121E-02-1.11268E-03-2.31491E-02-4.02030E-05 2.15731E-03
 -1     26082 1.22962E-02-1.17093E-02-5.46077E-04 1.13413E-01 2.15295E-04-7.46151E-04
 -1     26083 1.06005E-02-1.11501E-02 6.04440E-04 1.13936E-01 8.53056E-05-3.57779E-05
 -1     26084 1.48431E-02-1.51310E-02 3.31936E-04 1.14312E-01 2.26735E-04-3.47269E-05
 -1     26085 1.56276E-02-1.46710E-02-9.04593E-04 1.14692E-01-2.82944E-04-3.96597E-04
 -1     26086 1.20558E-02-1.18533E-02-1.58354E-04 1.14677E-01-1.43265E-04 4.08773E-04
 -1     26087 3.33251E-02-3.29335E-02-3.18844E-04 1.66552E-01-6.85326E-06 3.02898E-05
 -1     26088 3.52733E-02-3.51562E-02-4.70963E-05 1.67916E-01 3.30038E-04 1.60201E-04
 -1     26089 3.55839E-02-3.53945E-02-1.18513E-04 1.76412E-01 1.25044E-04-3.05381E-05
 -1     26090 3.33595E-02-3.32827E-02-6.64924E-06 1.74937E-01 2.75619E-04-1.65935E-04
 -1     26091 3.08974E-02-3.07082E-02-1.25420E-04 1.73309E-01 3.41877E-04-1.05511E-04
 -1     26092 1.42078E-02-1.41410E-02 6.01680E-06 1.72481E-01-8.26241E-05-5.90427E-05
 -1     26093 9.05081E-03-8.92435E-03-7.14441E-05 1.57961E-01-3.08890E-05 6.02954E-05
 -1     26094 1.11598E-02-1.10890E-02-8.01750E-07 1.71354E-01 2.11043E-05-2.73535E-04
 -1     26095-7.81676E-02 7.82750E-02-1.06046E-04 1.16668E-01-1.01177E-03 1.09367E-03
 -1     26096-6.94376E-02 6.95735E-02-7.44552E-05 9.35253E-02-4.46835E-04 2.10620E-03
 -1     26097-7.07339E-02 7.07754E-02 1.06856E-05 8.27352E-02-4.09962E-04-9.69397E-04
 -1     26098-6.50163E-02 6.52309E-02-2.46538E-04 6.21487E-02 6.07848E-04-9.22570E-04
 -1     26099 4.55904E-02-4.53655E-02-1.50003E-04 1.88959E-01 5.09849E-04-1.68010E-05
 -1     26100 4.74893E-02-4.74566E-02 4.08357E-05 1.85438E-01-1.14424E-04 1.13228E-04
 -1     26101 5.04348E-02-5.01736E-02-1.90337E-04 1.78519E-01 1.84965E-04-7.76485E-05
 -1     26102-7.37924E-02 7.23556E-02 1.47257E-03 1.49557E-01-1.59897E-03-3.12358E-04
 -1     26103-8.06911E-02 7.88889E-02 1.83983E-03 1.52531E-01-5.78471E-04 9.01018E-05
 -1     26104-5.10490E-02 5.10195E-02 6.76158E-05 1.35489E-01-2.17413E-03-1.43613E-03
 -1     26105-1.01416E-01 9.97239E-02 1.75575E-03 1.66651E-01-4.73232E-04-9.77180E-04
 -1     26106-9.74126E-02 9.80482E-02-6.02636E-04 1.71341E-01-5.23323E-04 1.03432E-03
 -1     26107-9.77958E-02 9.83148E-02-4.96079E-04 1.68855E-01-2.02158E-03-7.94925E-04
 -1     26108-9.84986E-02 9.76309E-02 8.90679E-04 1.62657E-01-9.39294E-04-4.80858E-04
 -1     26109-9.64853E-02 9.69939E-02-4.57938E-04 1.66628E-01-9.81301E-04 1.30714E-04
 -1     26110 2.19443E-02-2.19603E-02 1.15981E-04 2.51656E-01 5.44509E-04 2.54312E-05
 -1     26111 2.30320E-02-2.31498E-02 2.21331E-04 2.63187E-01 5.17249E-05-6.66215E-05
 -1     26112 2.12853E-02-2.09879E-02-1.97656E-04 2.43514E-01 1.79999E-04-5.94812E-05
 -1     26113 2.37516E-02-2.32944E-02-3.47632E-04 2.63294E-01 1.28978E-04 4.37268E-04
 -1     26114 1.92901E-02-2.00106E-02 8.22980E-04 2.48342E-01 1.16668E-03-8.82146E-05
 -1     26115 1.91489E-02-1.88895E-02-1.58511E-04 2.47883E-01 6.87697E-04 7.28449E-05
 -1     26116 6.76761E-03-6.52732E-03-1.52529E-04 2.23743E-01-2.99679E-04 2.38443E-04
 -1     26117 7.34736E-03-7.28341E-03 1.90536E-05 2.22625E-01-2.09933E-05 7.32622E-05
 -1     26118 4.73719E-03-4.50624E-03-1.46524E-04 2.17774E-01-1.17108E-04 3.91034E-04
 -1     26119-4.78586E-02 4.74977E-02 3.59356E-04 3.82825E-02-1.32957E-04 1.88229E-04
 -1     26120-4.92700E-02 4.89344E-02 3.35306E-04 3.82876E-02 9.07240E-05 2.16072E-04
 -1     26121-5.63198E-02 5.60914E-02 2.19474E-04 2.67076E-02-9.39759E-05 3.01469E-05
 -1     26122 3.41386E-02-3.38465E-02-2.18815E-04 2.13018E-01-4.71504E-04 2.75088E-04
 -1     26123 3.18958E-02-3.21222E-02 3.09870E-04 2.15639E-01-1.97582E-05 7.35289E-05
 -1     26124-7.21010E-02 7.18732E-02 1.89617E-04-5.01143E-02-1.64709E-03 1.22014E-03
 -1     26125-7.71486E-02 7.68770E-02 2.24730E-04-7.30664E-02-5.14530E-03-8.87788E-04
 -1     26126 2.43275E-02-2.45575E-02 3.08051E-04 1.93378E-01-9.65680E-06 4.81486E-06
 -1     26127 2.48443E-02-2.46267E-02-1.39571E-04 1.90902E-01 1.42888E-04-2.73468E-04
 -1     26128 2.52947E-02-2.52846E-02 6.28094E-05 1.98518E-01-6.33332E-05 2.07898E-04
 -1     26129-1.85602E-01 1.84964E-01 5.49134E-04-1.33945E-01-5.53560E-04 6.92069E-04
 -1     26130-1.86892E-01 1.83027E-01 3.77989E-03-1.30540E-01 1.01499E-04 6.84526E-04
 -1     26131-1.86273E-01 1.86725E-01-5.62182E-04-1.34556E-01-1.12600E-03-1.06396E-03
 -1     26132-1.87242E-01 1.91367E-01-4.21617E-03-1.44922E-01 6.23500E-04-1.55338E-03
 -1     26133-9.36460E-02 9.30666E-02 5.67299E-04 9.09766E-03 2.78263E-04 5.70228E-05
 -1     26134-1.01204E-01 1.01166E-01 3.70059E-06-1.41149E-02 2.70271E-04 6.16008E-05
 -1     26135-1.88831E-01 1.91539E-01-2.79162E-03-1.31348E-01 5.66470E-04 1.70676E-04
 -1     26136-1.89179E-01 1.93408E-01-4.32554E-03-1.31877E-01 6.12209E-04-6.47423E-04
 -1     26137-1.85548E-01 1.84312E-01 1.13778E-03-1.15897E-01-9.01545E-04 1.93311E-03
 -1     26138-4.53759E-02 4.53857E-02 5.64214E-06 6.89153E-02-7.76595E-05-2.80517E-04
 -1     26139-1.31246E-01 1.31083E-01 1.00588E-04-4.51475E-02-2.95357E-04-4.13419E-04
 -1     26140-1.16967E-01 1.16928E-01-1.42845E-05-3.41714E-02-1.36738E-04 2.78742E-05
 -1     26141-1.41816E-01 1.41660E-01 9.53457E-05-6.33239E-02 2.44482E-04-1.97323E-04
 -1     26142-1.27823E-01 1.27883E-01-1.14944E-04-5.06810E-02-3.07744E-04-1.35506E-04
 -1     26143-1.72079E-01 1.72913E-01-9.15203E-04-1.00055E-01 1.93368E-04 3.26825E-04
 -1     26144 4.28224E-02-4.34402E-02 6.87415E-04 1.91091E-01-1.15522E-04-4.24510E-04
 -1     26145 3.98457E-02-3.95631E-02-2.02465E-04 1.97185E-01-2.01971E-04 2.76449E-04
 -1     26146 4.92732E-02-4.97601E-02 5.62731E-04 1.81035E-01 9.75192E-06-4.78211E-04
 -1     26147 4.07408E-02-4.09173E-02 2.52314E-04 1.92006E-01-1.05108E-04-1.19727E-04
 -1     26148-3.10930E-02 3.10777E-02 9.31638E-06 4.87888E-02 1.38520E-04 3.25326E-04
 -1     26149-2.13562E-02 2.14143E-02-5.32928E-05 5.91591E-02-1.25248E-04 2.95380E-05
 -1     26150-1.95695E-02 1.95599E-02 1.56883E-05 6.40200E-02 7.95002E-05 6.12338E-06
 -1     26151-1.50401E-01 1.50360E-01-3.15717E-05-1.05179E-01 1.37070E-04 2.20263E-04
 -1     26152-1.39253E-01 1.39145E-01 4.14286E-05-9.25239E-02 7.12061E-05-1.06489E-04
 -1     26153-1.49290E-01 1.49231E-01-1.23012E-05-1.03900E-01 3.35763E-04 5.91112E-05
 -1     26154 1.40552E-02-1.33455E-02-6.52500E-04-8.48928E-03-1.15242E-03 2.50349E-05
 -1     26155 1.86004E-02-1.92040E-02 6.29903E-04-6.47092E-03-4.70766E-04-5.83632E-04
 -1     26156 1.92231E-02-1.88467E-02-3.42524E-04-4.90618E-04-5.10279E-04-3.44578E-04
 -1     26157 9.07302E-03-8.22546E-03-8.20755E-04-1.06721E-02 9.57918E-04 1.33277E-03
 -1     26158 7.52005E-03-7.07121E-03-4.25678E-04-1.71732E-02-7.86005E-04 3.56060E-04
 -1     26159 5.46017E-02-5.43632E-02-1.75187E-04 1.48603E-01-2.24740E-05-4.31335E-04
 -1     26160 7.32751E-03-7.34396E-03-1.08560E-05 4.08241E-02-2.00119E-04 4.85534E-04
 -1     26161 2.81655E-02-2.83189E-02 2.31273E-04 2.16875E-01 4.81912E-04 3.36135E-05
 -1     26162 3.23201E-02-3.27477E-02 5.15504E-04 2.10053E-01-8.69688E-05-2.50879E-04
 -1     26163 2.61179E-02-2.56242E-02-3.99974E-04 2.24503E-01-4.31203E-05-5.98540E-04
 -1     26164 2.81019E-02-2.77459E-02-2.72438E-04 2.13040E-01-6.01450E-05-3.49454E-05
 -1     26165 2.62416E-02-2.56284E-02-5.22799E-04 2.20825E-01-3.06740E-04-9.12813E-05
 -1     26166-5.24488E-03 6.00620E-03-7.03876E-04 1.55625E-01-2.20351E-03 9.00584E-04
 -1     26167-2.48216E-02 2.71820E-02-2.30254E-03 1.35871E-01-1.27836E-03-1.07108E-03
 -1     26168-5.97726E-03 3.98123E-03 2.06352E-03 1.58418E-01-1.42910E-03 1.33751E-03
 -1     26169 1.17994E-02-1.19065E-02 1.53894E-04 1.11075E-01-1.40856E-04-2.56652E-04
 -1     26170 1.21072E-02-1.13567E-02-7.02920E-04 1.12173E-01 6.01506E-04 3.03288E-04
 -1     26171 1.14657E-02-1.11250E-02-2.95434E-04 1.10572E-01 7.94319E-05 8.82454E-05
 -1     26172 2.00411E-02-2.00889E-02 1.48115E-04 2.53587E-01-1.13182E-04 1.91840E-04
 -1     26173 1.76637E-02-1.75638E-02 5.10079E-06 2.41370E-01-1.94715E-04 2.50911E-05
 -1     26174 1.29625E-02-1.26329E-02-2.35147E-04 2.22525E-01-1.74701E-05-1.88957E-04
 -1     26175-5.93730E-02 5.93758E-02-2.96456E-05 3.07907E-02-1.71192E-04 2.94937E-04
 -1     26176-4.49419E-02 4.50649E-02-1.51507E-04 3.73425E-02-3.95917E-04 3.03791E-04
 -1     26177-4.95989E-02 4.92503E-02 3.22648E-04 3.68291E-02-6.98447E-05 2.64821E-04
 -1     26178-6.35576E-02 6.37219E-02-1.96430E-04 2.20641E-02-3.22470E-04 4.28850E-04
 -1     26179 4.39509E-03-4.54107E-03 2.07089E-04 1.73668E-01 5.77457E-05 1.27275E-04
 -1     26180 1.02696E-02-9.90610E-03-2.89977E-04 1.88834E-01 1.29640E-05-3.65975E-05
 -1     26181 5.14160E-03-5.08563E-03 3.79759E-06 1.69516E-01 1.77840E-04-1.31433E-04
 -1     26182-3.20679E-02 3.05349E-02 1.58266E-03 1.49286E-01 6.12235E-04 2.12224E-03
 -1     26183-4.65740E-02 4.59459E-02 6.84885E-04 1.53643E-01 1.21713E-03 2.19820E-03
 -1     26184-8.96923E-04 9.15404E-04 6.41051E-05 2.03977E-01-5.75198E-04-6.88640E-05
 -1     26185-1.23496E-02 1.25122E-02-9.16457E-05 1.85590E-01-4.82777E-04 2.67178E-04
 -1     26186-8.90931E-03 9.04548E-03-5.94044E-05 1.89055E-01-2.80599E-04-3.90463E-05
 -1     26187-1.42881E-02 1.43758E-02-2.31507E-05 1.68994E-01-7.52554E-04-1.50129E-04
 -1     26188-1.09205E-02 1.09660E-02 1.79956E-05 1.71623E-01-1.58383E-05-9.14220E-05
 -1     26189-1.08893E-03 1.17012E-03 1.73351E-06 2.04324E-01 7.37860E-04 2.69317E-04
 -1     26190 6.61674E-03-6.68334E-03 1.54441E-04 2.20285E-01 5.08843E-04-1.45859E-04
 -1     26191 1.84881E-02-1.82851E-02-9.96871E-05 2.42868E-01-4.34916E-05-1.16678E-03
 -1     26192 9.58360E-03-9.99734E-03 5.04613E-04 2.25588E-01 1.71165E-04-1.53694E-05
 -1     26193 3.37094E-03-2.82770E-03-4.62573E-04 2.15627E-01 4.54889E-05-5.85150E-04
 -1     26194-1.29481E-01 1.29578E-01-1.54415E-04-9.14372E-02 1.27323E-03-4.74015E-04
 -1     26195-1.31704E-01 1.30888E-01 7.43422E-04-9.22525E-02-5.86761E-05-6.75708E-04
 -1     26196-1.23987E-01 1.24528E-01-6.14656E-04-8.45211E-02 1.33966E-03-1.31862E-03
 -1     26197-5.81788E-02 5.48029E-02 3.34248E-03 2.53890E-02-4.88821E-04 7.90131E-04
 -1     26198-5.70930E-02 5.80891E-02-9.74524E-04 7.65355E-02-2.58339E-03-2.77071E-03
 -1     26199-5.85171E-02 6.03617E-02-1.85662E-03 3.53743E-02-2.16438E-03-7.80958E-04
 -1     26200-6.22200E-02 5.58743E-02 6.33014E-03 2.38230E-03 8.18234E-05 7.78668E-04
 -1     26201-4.33332E-02 4.82401E-02-4.85329E-03 4.28151E-02-4.33407E-03-3.88737E-03
 -1     26202-5.10743E-02 5.20425E-02-9.35928E-04 5.39692E-02-7.50832E-03 5.75110E-04
 -1     26203 1.95228E-02-1.98454E-02 4.29478E-04 2.53648E-01 3.70169E-04-2.89563E-04
 -1     26204 1.92447E-02-1.97111E-02 5.66743E-04 2.49702E-01-8.55726E-04 7.05008E-06
 -1     26205-7.73461E-02 7.76632E-02-3.55556E-04 5.98095E-03-3.06009E-04-2.84209E-05
 -1     26206-6.55132E-02 6.55029E-02-1.26316E-05 1.25144E-02-1.16614E-04 2.07041E-04
 -1     26207 2.54884E-02-2.51743E-02-2.15815E-04 2.42530E-01 5.66065E-04-1.05914E-03
 -1     26208 2.48018E-02-2.49355E-02 2.30695E-04 2.44191E-01-5.08188E-05 4.70572E-04
 -1     26209 2.59931E-02-2.53829E-02-5.14835E-04 2.39894E-01-3.15149E-04-4.20768E-04
 -1     26210-3.06461E-02 3.02091E-02 4.28127E-04 4.80467E-02-1.07913E-04 4.67893E-04
 -1     26211-3.22701E-02 3.23889E-02-1.33200E-04 4.61179E-02-1.19646E-04-1.02808E-04
 -1     26212-9.40635E-02 9.43615E-02-2.59843E-04 1.67431E-01 4.04123E-04-3.53971E-04
 -1     26213-9.01022E-02 9.07404E-02-7.17458E-04-3.59766E-02-1.08311E-03-1.21898E-03
 -1     26214-8.93249E-02 8.93129E-02 7.26913E-06-4.49618E-02 6.08648E-04-6.66947E-04
 -1     26215-9.73838E-02 9.72286E-02 1.33057E-04-5.10886E-02-3.12441E-04-1.71097E-03
 -1     26216-9.22668E-02 9.39277E-02-1.69642E-03-4.71781E-02-2.69555E-04-1.35854E-03
 -1     26217-2.24524E-01 2.12504E-01 1.19094E-02-1.58325E-01-7.36580E-03 6.22283E-03
 -1     26218-2.22146E-01 2.19048E-01 2.95146E-03-1.46847E-01-9.95823E-04-1.23629E-03
 -1     26219-2.34911E-01 2.32434E-01 2.40665E-03-1.22555E-01-5.55974E-03 3.63603E-03
 -1     26220-2.04697E-01 1.90064E-01 1.45824E-02-1.44762E-01-3.61511E-04 9.19729E-04
 -1     26221-2.07367E-01 2.03297E-01 3.98491E-03-1.47253E-01-8.36270E-03 8.55398E-04
 -1     26222-9.22448E-02 9.23522E-02-1.29875E-04-1.70068E-02-6.80016E-04 1.16535E-04
 -1     26223-9.38408E-02 9.39024E-02-1.02916E-04-1.95175E-02 1.32670E-04-2.84953E-04
 -1     26224-9.93011E-02 9.90474E-02 2.26472E-04-3.17684E-02-1.60183E-04 2.07009E-05
 -1     26225-1.02910E-01 1.01996E-01 8.58826E-04-5.08578E-02-8.06201E-04 1.41804E-04
 -1     26226-1.03593E-01 1.02978E-01 5.77659E-04-5.03406E-02 1.18927E-04 5.58063E-04
 -1     26227 3.66607E-02-3.62788E-02-3.01072E-04 2.00940E-01 1.82471E-04-2.04262E-04
 -1     26228-2.05478E-01 2.07370E-01-1.97696E-03-8.87903E-02-9.14383E-05-1.87489E-03
 -1     26229-2.25143E-01 2.24053E-01 9.46703E-04-1.11155E-01-2.56625E-03 1.49821E-03
 -1     26230-2.21460E-01 2.23823E-01-2.46210E-03-7.03287E-02 2.45443E-03-1.22852E-03
 -1     26231-2.27576E-01 2.33916E-01-6.43175E-03-8.98631E-02-7.90924E-04-2.11144E-03
 -1     26232-2.47117E-01 2.48033E-01-9.85658E-04-1.11925E-01-2.74781E-03 5.48541E-03
 -1     26233-2.26193E-02 2.34738E-02-9.08004E-04 2.49368E-02 8.35548E-04-4.79259E-04
 -1     26234-3.87056E-02 3.95958E-02-9.32987E-04 2.37150E-02-6.51862E-04-1.45836E-03
 -1     26235-2.55823E-02 2.55883E-02-6.63231E-05 1.90391E-02 3.84842E-04 2.29823E-03
 -1     26236-2.04724E-01 2.07568E-01-2.93707E-03-1.17584E-01 1.04025E-03-4.53816E-03
 -1     26237 2.60920E-02-2.60106E-02 1.74793E-05 2.41850E-01 4.01965E-04-2.64125E-04
 -1     26238 2.58349E-02-2.59140E-02 1.70833E-04 2.40116E-01 9.77133E-05-4.90212E-05
 -1     26239 2.68242E-02-2.63430E-02-3.80484E-04 2.44723E-01 1.72821E-04-1.40432E-04
 -1     26240 1.04441E-02-1.01980E-02-1.56573E-04 2.04169E-01 3.21268E-05-6.16409E-06
 -1     26241 1.34450E-02-1.32244E-02-1.39125E-04 2.20325E-01 9.88831E-05-1.14276E-04
 -1     26242 1.50981E-02-1.46479E-02-3.62460E-04 2.21903E-01-1.31447E-04-1.68987E-05
 -1     26243-5.53888E-03 6.17128E-03-5.57673E-04 1.90213E-01-4.82269E-04-2.01804E-03
 -1     26244-1.45512E-02 1.48323E-02-2.36185E-04 1.87874E-01-1.03328E-03-7.86666E-04
 -1     26245-1.49490E-02 1.52711E-02-2.64864E-04 1.85264E-01 1.16322E-03 4.39646E-04
 -1     26246-7.96907E-03 8.56628E-03-5.06888E-04 1.81102E-01 9.76665E-05-1.21724E-03
 -1     26247-1.06262E-02 1.07579E-02-6.58940E-05 1.84780E-01-3.84374E-04-1.56702E-03
 -1     26248 4.91571E-04-9.28444E-04 3.55849E-04-4.02089E-02 6.41066E-05 8.85333E-04
 -1     26249 9.96319E-04-3.76117E-04-6.40224E-04-4.20547E-02-7.17667E-04-5.08528E-04
 -1     26250 4.63710E-03-5.35581E-03 7.20461E-04-3.10557E-02-1.06925E-04 5.34533E-04
 -1     26251 4.11585E-03-5.21608E-03 1.14904E-03-2.96581E-02-8.76171E-05 2.41938E-04
 -1     26252 4.53508E-03-4.89516E-03 3.92192E-04-3.23820E-02-8.14751E-04 1.57638E-04
 -1     26253-1.95772E-01 1.94366E-01 1.23208E-03-1.46409E-01 5.06246E-03 3.01778E-03
 -1     26254-1.90290E-01 1.92669E-01-2.41909E-03-1.47813E-01 2.86485E-03 1.63604E-04
 -1     26255-2.03108E-01 1.94764E-01 8.20136E-03-1.30138E-01 7.14046E-04 1.79424E-04
 -1     26256-2.01383E-01 1.98442E-01 2.81033E-03-1.39679E-01-9.78606E-05-9.77363E-04
 -1     26257 1.53002E-02-1.53163E-02 8.23897E-05 1.87138E-01-2.22859E-04-2.68416E-04
 -1     26258 1.81755E-02-1.80869E-02-4.09001E-06 2.03240E-01 1.78949E-04-3.86264E-04
 -1     26259 1.79292E-02-1.77985E-02-6.74825E-05 1.88028E-01-2.64317E-04 1.24227E-05
 -1     26260 2.37409E-03-2.33727E-03 1.96119E-06 1.19669E-01 2.23076E-05 6.51506E-05
 -1     26261 2.10875E-02-2.07637E-02-2.22028E-04 2.54799E-01 4.01866E-06-8.68864E-05
 -1     26262 2.13394E-02-2.14716E-02 2.29869E-04 2.45161E-01 4.07028E-05-8.20171E-05
 -1     26263 1.99533E-02-2.02410E-02 3.82941E-04 2.33722E-01 3.20292E-04 1.22640E-04
 -1     26264 2.33721E-02-2.38276E-02 5.51617E-04 2.62202E-01-2.20936E-04-4.66942E-04
 -1     26265 2.36741E-02-2.38704E-02 3.01593E-04 2.64161E-01-2.97307E-04-2.47264E-05
 -1     26266 2.15108E-02-2.14800E-02 6.60979E-05 2.34178E-01 1.60220E-04 1.49622E-04
 -1     26267 2.29235E-02-2.31695E-02 3.03703E-04 1.18344E-01 4.65472E-05 2.03737E-04
 -1     26268 1.76875E-02-1.78705E-02 2.27080E-04 1.18073E-01 4.61346E-04 1.56501E-04
 -1     26269-1.12436E-01 1.06993E-01 5.51621E-03 1.59761E-01 1.37247E-03 4.35403E-03
 -1     26270-1.57216E-01 1.56407E-01 7.35442E-04-1.13048E-01-1.30657E-06 6.20576E-04
 -1     26271-1.58273E-01 1.58556E-01-3.60339E-04-1.14954E-01 2.13433E-05-3.86715E-05
 -1     26272-1.58731E-01 1.58261E-01 4.00279E-04-1.14597E-01-1.56468E-04 6.64488E-04
 -1     26273-1.01153E-01 1.00381E-01 7.32028E-04-6.22964E-02-1.00667E-03-1.25602E-03
 -1     26274-1.02037E-01 1.01148E-01 8.23611E-04-6.02140E-02-4.52337E-04 9.12776E-04
 -1     26275-1.08842E-01 1.08765E-01 2.77218E-05-7.45878E-02-5.77727E-04-2.82477E-04
 -1     26276-1.07042E-01 1.06937E-01 5.81218E-05-3.91484E-02 2.73413E-04-1.75438E-04
 -1     26277-1.19604E-01 1.20016E-01-4.63529E-04-5.96005E-02-1.56050E-04-2.32026E-04
 -1     26278-9.85584E-02 9.84670E-02 6.35246E-05-2.62485E-02 1.13532E-04-5.91296E-05
 -1     26279-1.11321E-01 1.11762E-01-4.81702E-04-4.66147E-02 1.63441E-04 3.12610E-04
 -1     26280 1.89713E-02-1.86245E-02-2.46943E-04 2.51486E-01 4.72335E-04 6.94030E-05
 -1     26281 2.54778E-02-2.51625E-02-2.45298E-04 1.99371E-01-4.37217E-04-3.23697E-04
 -1     26282 2.28968E-02-2.28176E-02-1.22903E-05 1.74999E-01 1.40858E-04-2.06283E-04
 -1     26283 2.79046E-02-2.79192E-02 8.97613E-05 1.99308E-01-5.69704E-04 1.60289E-05
 -1     26284 2.56789E-02-2.56163E-02 6.60507E-06 1.74121E-01-5.96295E-05-3.67616E-05
 -1     26285 2.51534E-02-2.49297E-02-1.39444E-04 2.05099E-01 2.27078E-05 2.72427E-04
 -1     26286 2.49911E-02-2.48067E-02-1.03868E-04 2.00673E-01-1.91733E-04-3.96363E-04
 -1     26287 3.33119E-02-3.27078E-02-5.27400E-04 1.97988E-01-1.72021E-05-8.80161E-05
 -1     26288 2.74120E-02-2.73523E-02 2.38054E-05 2.11008E-01 4.62769E-04 1.27915E-04
 -1     26289 2.72395E-02-2.70461E-02-1.05876E-04 2.06268E-01-1.01163E-04 1.25462E-04
 -1     26290-4.16800E-02 4.11217E-02 6.12229E-04 1.54281E-01-9.23853E-05-2.25019E-04
 -1     26291-4.70894E-02 4.71178E-02 1.95526E-05 1.52187E-01-7.86033E-05-4.24875E-04
 -1     26292-5.41991E-02 5.37597E-02 4.82411E-04 1.40797E-01-3.64024E-04-4.33404E-04
 -1     26293 2.90628E-02-2.90045E-02 5.95000E-06 1.74259E-01-2.88641E-04-6.61532E-05
 -1     26294 2.25834E-02-2.25305E-02 6.58873E-06 1.62126E-01-2.78963E-05 2.36351E-05
 -1     26295-4.04518E-02 4.04938E-02-7.34562E-06 1.09699E-01-2.70595E-04-1.39527E-04
 -1     26296-4.72928E-02 4.72384E-02 8.42035E-05 9.67640E-02 5.21294E-05 1.73385E-04
 -1     26297-3.64062E-02 3.64559E-02-8.92101E-06 1.23253E-01 5.65590E-05-9.67336E-05
 -1     26298-4.37839E-02 4.37039E-02 1.06782E-04 1.10479E-01 1.73468E-04 2.48110E-04
 -1     26299 1.82516E-02-1.82131E-02 1.83768E-05 1.61117E-01-9.13482E-05-6.07091E-05
 -1     26300-1.14487E-01 1.14331E-01 1.07771E-04-3.68496E-02-9.83374E-05-4.65866E-05
 -1     26301 4.93831E-02-4.91891E-02-1.16680E-04 1.80690E-01 4.49839E-05 3.55053E-04
 -1     26302 4.25299E-02-4.21856E-02-2.68937E-04 1.87692E-01 9.12275E-05 2.47291E-04
 -1     26303 5.11199E-02-5.10336E-02-1.59267E-05 1.76057E-01 4.11097E-04 2.05557E-04
 -1     26304 5.17825E-02-5.16919E-02-2.84098E-05 1.50408E-01 3.74107E-04-1.63575E-04
 -1     26305-1.46809E-01 1.43538E-01 3.16453E-03 8.70991E-03-9.22553E-03 2.57590E-03
 -1     26306-1.41704E-01 1.44923E-01-3.34161E-03 9.83944E-03-1.42435E-03-2.17404E-04
 -1     26307-1.91893E-01 1.92676E-01-8.99311E-04-1.63915E-02 4.13783E-03-9.19046E-03
 -1     26308-3.92701E-02 3.93437E-02-9.15310E-05 3.68933E-02-2.56803E-04 3.49601E-04
 -1     26309 3.61356E-02-3.57214E-02-3.45530E-04 1.91204E-01-3.24172E-04 1.39924E-04
 -1     26310 2.56584E-02-2.58463E-02 2.69010E-04 2.04305E-01-2.69739E-04 2.65846E-04
 -1     26311 3.61603E-02-3.58294E-02-2.55101E-04 1.85167E-01 2.30422E-04-2.02034E-04
 -1     26312 3.20378E-02-3.21035E-02 1.51403E-04 1.93108E-01 3.16780E-04-7.30048E-05
 -1     26313 3.91714E-02-3.94188E-02 3.08531E-04 1.44338E-01-3.59900E-04-1.76957E-05
 -1     26314 3.42966E-02-3.48102E-02 5.73542E-04 1.51178E-01-3.67379E-06-1.00713E-04
 -1     26315 4.08142E-02-4.09483E-02 1.97083E-04 1.49598E-01-1.28427E-04 8.86709E-05
 -1     26316-1.75380E-01 1.76306E-01-1.01587E-03-1.24457E-01 9.37888E-04 2.30032E-04
 -1     26317-1.07591E-01 1.12017E-01-4.36112E-03 1.60432E-01-1.32267E-03-2.04925E-03
 -1     26318-1.01077E-01 1.02867E-01-1.85205E-03 1.53747E-01-1.02195E-03 1.41114E-03
 -1     26319-9.45319E-02 9.58584E-02-1.29049E-03 1.58679E-01 1.39275E-03 6.71341E-04
 -1     26320-1.03161E-01 1.05313E-01-2.09585E-03 1.66446E-01 1.01768E-03 1.11150E-03
 -1     26321-1.11809E-01 1.13392E-01-1.49197E-03 1.61299E-01 2.03070E-03-1.11681E-03
 -1     26322-5.99711E-02 6.14441E-02-1.42921E-03 2.80886E-03 4.72854E-04 3.61128E-03
 -1     26323-6.80668E-02 6.76785E-02 3.43924E-04-3.70682E-02-2.90315E-03 1.17219E-03
 -1     26324-6.25225E-02 6.48875E-02-2.37554E-03-1.93341E-02-1.72009E-03 3.17349E-03
 -1     26325-7.30130E-02 7.33468E-02-3.74980E-04-6.35737E-02-8.83815E-04 2.69253E-03
 -1     26326 1.14893E-02-1.09383E-02-5.04335E-04 1.11949E-01-1.70136E-05-2.74054E-04
 -1     26327 1.23662E-02-1.23489E-02 2.87456E-05 1.11873E-01 3.17454E-04-1.18398E-03
 -1     26328 1.16430E-02-1.18287E-02 2.25010E-04 1.11508E-01-2.69442E-04 1.42018E-04
 -1     26329-1.91886E-02 1.93099E-02-1.31863E-04 5.53673E-02 6.28074E-04 1.30039E-04
 -1     26330-1.56542E-01 1.57097E-01-6.31699E-04-9.48288E-02 4.43335E-04 1.20187E-03
 -1     26331-1.49479E-01 1.49478E-01-6.92219E-05-7.90444E-02-4.55581E-04-8.90592E-05
 -1     26332-1.62745E-01 1.62625E-01 3.51458E-05-9.36614E-02-7.78119E-04-8.70571E-04
 -1     26333-1.73836E-01 1.73630E-01 1.21388E-04-1.20300E-01-5.28697E-05 2.62879E-04
 -1     26334 2.52179E-02-2.54566E-02 3.37933E-04 2.50447E-01-4.47387E-05-3.19131E-04
 -1     26335 2.46011E-02-2.50879E-02 5.84951E-04 2.47186E-01-4.96266E-04 1.46405E-04
 -1     26336 2.51916E-02-2.44706E-02-6.21256E-04 2.48045E-01-1.24001E-04 6.54524E-04
 -1     26337 2.56536E-02-2.60399E-02 4.78419E-04 2.33251E-01-8.78914E-05-9.72819E-05
 -1     26338 3.76351E-02-3.76572E-02 9.96206E-05 2.08312E-01 3.08476E-04 2.28029E-04
 -1     26339 3.29678E-02-3.28448E-02-3.67092E-05 2.16429E-01-9.66125E-05 1.81771E-04
 -1     26340 2.60819E-02-2.63272E-02 3.37968E-04 2.31588E-01-5.33313E-05-1.29029E-04
 -1     26341 3.31840E-02-3.20773E-02-1.01759E-03 2.15204E-01 1.07410E-04-2.16759E-04
 -1     26342 4.18914E-02-4.22095E-02 3.87907E-04 1.92988E-01 2.85285E-04 8.27550E-04
 -1     26343 3.88208E-02-3.86660E-02-7.56033E-05 1.99336E-01 3.65992E-04 4.89508E-06
 -1     26344 3.03843E-02-3.06853E-02 3.80312E-04 1.89086E-01 4.27622E-04 6.47715E-05
 -1     26345 2.50704E-02-2.57629E-02 7.67118E-04 1.95566E-01 1.79833E-04 1.22301E-04
 -1     26346 3.88725E-02-3.89427E-02 1.47444E-04 1.86947E-01 1.05679E-04-1.16461E-04
 -1     26347 3.92324E-02-3.98355E-02 6.82630E-04 1.83847E-01 2.10765E-04-7.01886E-05
 -1     26348 3.31939E-02-3.34662E-02 3.50452E-04 1.92741E-01 1.73675E-04 2.18448E-04
 -1     26349 2.57850E-02-2.56345E-02-4.56775E-05 2.50190E-01 6.68933E-05-2.17962E-04
 -1     26350 5.92204E-02-5.91686E-02-2.40261E-06 1.32253E-01-9.19085E-05-1.16466E-04
 -1     26351 1.94841E-02-1.94007E-02 1.58441E-06 2.17633E-01-9.29279E-05 2.90878E-04
 -1     26352 1.62396E-02-1.59071E-02-2.62721E-04 2.01565E-01-3.49526E-05 4.36185E-04
 -1     26353-2.08918E-01 2.05068E-01 3.75029E-03-4.84780E-02-1.63702E-03 1.36128E-03
 -1     26354-1.91498E-01 1.86776E-01 4.60393E-03-3.28746E-02-5.36242E-04 5.16170E-04
 -1     26355-3.88052E-02 3.84848E-02 3.09274E-04 3.87938E-02-1.51921E-04 3.23027E-04
 -1     26356 5.71928E-03-5.56201E-03-1.51224E-04 9.75642E-02-1.39133E-04 2.24090E-04
 -1     26357 5.63876E-03-5.84872E-03 2.41715E-04 9.47951E-02-4.58107E-04 3.04854E-04
 -1     26358 6.33331E-03-5.96121E-03-2.69250E-04 9.00740E-02-7.01087E-05 2.32789E-04
 -1     26359 1.34075E-02-1.30783E-02-2.59021E-04 7.07377E-02-8.69559E-06 5.46154E-04
 -1     26360-8.53732E-02 8.89448E-02-3.59337E-03 8.72908E-02-7.48013E-03-1.78242E-03
 -1     26361-7.73591E-02 7.48069E-02 2.61038E-03 7.94174E-02-2.15559E-03 5.05969E-03
 -1     26362-1.33288E-01 1.34093E-01-6.95598E-04 1.35553E-01 2.25185E-03-9.44686E-03
 -1     26363-7.83929E-02 7.83398E-02 1.01057E-04 9.72884E-02-2.33865E-03-4.94184E-03
 -1     26364 3.71166E-02-3.68546E-02-2.31629E-04 6.86985E-02 1.27063E-04 2.02483E-04
 -1     26365 5.06579E-02-5.01903E-02-4.07834E-04 7.10753E-02-9.05316E-04-2.77677E-04
 -1     26366-1.17295E-01 1.15305E-01 2.03586E-03 1.48941E-01 7.87347E-05-3.00914E-03
 -1     26367-1.45553E-01 1.44909E-01 7.50695E-04 1.34974E-01 1.97578E-03 3.19247E-03
 -1     26368-1.13609E-01 1.11830E-01 1.72599E-03 1.33158E-01-2.26312E-03 3.05803E-03
 -1     26369-1.30935E-01 1.35558E-01-4.57871E-03 1.34191E-01 5.62084E-04-1.91942E-03
 -1     26370-1.38700E-01 1.37963E-01 8.01069E-04 1.40395E-01-4.08436E-05 1.09076E-03
 -1     26371-1.32780E-01 1.29651E-01 3.10586E-03 1.37033E-01 1.65806E-03 9.35097E-04
 -1     26372 6.69972E-02-6.69564E-02 5.54021E-06 1.28429E-01 9.41596E-05-2.00578E-05
 -1     26373 6.21799E-02-6.21671E-02 2.64205E-05 1.19207E-01 1.45852E-04 2.99075E-05
 -1     26374 6.22331E-02-6.21572E-02-3.57644E-05 1.19362E-01-4.76551E-05 1.94260E-04
 -1     26375 7.18386E-02-7.17914E-02-1.33578E-06 1.22916E-01 4.92315E-05-1.78261E-04
 -1     26376 7.20724E-02-7.17112E-02-3.15818E-04 1.23144E-01-2.26246E-04 3.72652E-04
 -1     26377 6.63361E-02-6.64242E-02 1.29510E-04 1.14066E-01 4.47167E-05-1.55668E-04
 -1     26378-3.42757E-03 1.93446E-03 1.51619E-03-3.95320E-02-1.55486E-03 9.97959E-04
 -1     26379-1.43529E-03 5.02783E-04 9.35904E-04-4.18401E-02-1.13906E-04 2.24073E-03
 -1     26380 4.10925E-02-4.10771E-02 5.82474E-05 1.98440E-01-2.55762E-04 3.14117E-05
 -1     26381 1.01785E-02-9.62885E-03-4.95138E-04 1.12469E-01-4.75193E-05-2.57644E-04
 -1     26382 1.10262E-02-1.02544E-02-7.10986E-04 1.14497E-01-3.88409E-04 3.23797E-04
 -1     26383 1.44017E-02-1.40315E-02-3.18121E-04 1.12077E-01 6.04598E-05 3.14899E-04
 -1     26384 1.37481E-02-1.32522E-02-4.29458E-04 1.12146E-01-2.72624E-04 5.07425E-05
 -1     26385 1.49101E-02-1.54741E-02 6.14493E-04 1.18501E-01 1.20807E-04-2.43841E-04
 -1     26386 1.68576E-02-1.74317E-02 6.31618E-04 1.17411E-01 3.48119E-04-4.23898E-04
 -1     26387 1.37314E-02-1.37444E-02 7.25702E-05 1.16741E-01 3.75236E-08 5.34128E-04
 -1     26388 1.55186E-02-1.51033E-02-3.69749E-04 1.19252E-01 1.74649E-04 3.61182E-04
 -1     26389 1.74020E-02-1.65800E-02-7.84577E-04 1.18161E-01 1.94818E-05 1.82437E-04
 -1     26390-1.14960E-01 1.16038E-01-1.03618E-03 1.52048E-01 5.18449E-04 2.54112E-03
 -1     26391-1.07247E-01 1.08426E-01-1.17823E-03 1.59564E-01-1.21593E-03 2.32942E-03
 -1     26392-1.11688E-01 1.12647E-01-9.17256E-04 1.46405E-01-2.99694E-03 1.06603E-03
 -1     26393-1.05742E-01 1.03737E-01 2.05828E-03 1.61413E-01 2.03037E-03-4.10322E-04
 -1     26394-1.09228E-01 1.08026E-01 1.26312E-03 1.51259E-01 3.44836E-03-1.92590E-03
 -1     26395-1.03592E-01 1.04266E-01-6.44007E-04 1.52257E-01 2.06441E-03-3.32649E-03
 -1     26396-1.96428E-01 1.98082E-01-1.72457E-03-8.98363E-02 3.26717E-03-5.15824E-03
 -1     26397-2.04023E-01 1.99950E-01 3.98090E-03-1.12754E-01 1.02358E-03 4.09588E-04
 -1     26398-1.91598E-01 1.93554E-01-2.04524E-03-9.90395E-02-9.80283E-04-1.86296E-03
 -1     26399 5.91602E-02-5.92692E-02 1.63140E-04 1.54704E-01 9.47801E-05-2.18734E-04
 -1     26400 6.34054E-02-6.33484E-02 1.17406E-06 1.45085E-01 1.76062E-04-8.08229E-05
 -1     26401 2.49815E-02-2.50327E-02 1.52631E-04 2.43938E-01 2.21128E-04 2.38300E-04
 -1     26402 2.51207E-02-2.50884E-02 6.04506E-05 2.42706E-01 3.64453E-05 3.44909E-04
 -1     26403 2.50698E-02-2.50268E-02 5.54477E-05 2.45457E-01 8.85879E-05 1.55001E-04
 -1     26404 1.23897E-02-1.26379E-02 3.25484E-04 1.90307E-01-5.44916E-05-4.43922E-05
 -1     26405 3.51595E-02-3.46787E-02-4.12967E-04 1.81825E-01 1.44710E-04-7.27107E-05
 -1     26406 3.04663E-02-3.01527E-02-2.46391E-04 1.86656E-01 2.17636E-04-1.75480E-04
 -1     26407 3.54689E-02-3.49070E-02-4.87127E-04 1.87641E-01 9.64819E-05-2.78923E-04
 -1     26408 4.38068E-02-4.37175E-02-1.49667E-05 1.82106E-01-2.94300E-04-2.85447E-05
 -1     26409 3.92555E-02-3.93644E-02 1.87620E-04 1.81439E-01-3.23423E-04 1.21881E-04
 -1     26410 4.50948E-02-4.51272E-02 3.66056E-05 4.46064E-02 3.61696E-04 3.10098E-04
 -1     26411 4.08022E-02-4.08147E-02 4.74629E-05 4.20165E-02-1.06548E-04 1.49077E-04
 -1     26412 4.25412E-02-4.25400E-02-2.65498E-06 4.99737E-02-1.65506E-04-2.62122E-05
 -1     26413 4.70640E-02-4.71472E-02 1.02292E-04 5.22855E-02-3.33674E-04 2.80688E-04
 -1     26414 1.72874E-02-1.67812E-02-4.51439E-04 1.15715E-01 1.56908E-05-3.19087E-04
 -1     26415 2.04164E-02-2.04426E-02 7.26985E-05 1.17100E-01-2.10328E-04-2.10941E-04
 -1     26416 5.17931E-02-5.17821E-02-4.04523E-07 5.71590E-02 1.15952E-04 1.87561E-04
 -1     26417 5.30189E-02-5.28077E-02-1.75216E-04 6.27422E-02 1.64424E-04-7.71684E-05
 -1     26418-4.86644E-02 4.87045E-02 1.01010E-05 1.51970E-01 1.13108E-04 2.95251E-04
 -1     26419-5.82429E-02 5.79343E-02 3.51713E-04 1.50144E-01 9.08368E-04 3.08376E-04
 -1     26420-5.82597E-02 5.74616E-02 8.44861E-04 1.41822E-01-7.01181E-05-2.09167E-04
 -1     26421 2.49239E-02-2.49967E-02 1.69005E-04 2.45336E-01 1.38948E-04-3.47126E-04
 -1     26422 2.45205E-02-2.38663E-02-5.77796E-04 1.85470E-01 2.51249E-04 5.35380E-05
 -1     26423 3.09078E-02-3.13605E-02 5.29257E-04 1.83904E-01 3.94735E-04-2.87107E-04
 -1     26424 2.66281E-02-2.60310E-02-5.25419E-04 1.75957E-01 4.22809E-04 1.66168E-04
 -1     26425 3.39984E-02-3.38226E-02-1.13684E-04 1.77640E-01 4.38366E-04-2.61107E-04
 -1     26426 1.12299E-02-1.07481E-02-4.37447E-04 1.10140E-01-1.66076E-04-1.33119E-04
 -1     26427 9.36909E-03-9.04354E-03-2.81441E-04 1.10693E-01-5.33696E-05-3.20719E-04
 -1     26428 8.98455E-03-9.57110E-03 6.32550E-04 1.11314E-01 4.20578E-05-5.63523E-04
 -1     26429-1.86897E-01 1.86482E-01 3.40352E-04-1.25316E-01 2.10263E-03 1.19704E-03
 -1     26430-1.87281E-01 1.87994E-01-7.93265E-04-1.31966E-01-1.94833E-03 1.34405E-04
 -1     26431-1.90942E-01 1.90266E-01 5.92132E-04-1.27761E-01 3.41897E-03-5.66680E-04
 -1     26432-1.90535E-01 1.90438E-01 1.93790E-06-1.38025E-01-4.67349E-04 1.55892E-03
 -1     26433-1.93882E-01 1.95350E-01-1.56468E-03-1.39097E-01 1.35350E-03-1.65109E-03
 -1     26434 5.35119E-02-5.34844E-02-2.81032E-06 9.02527E-02 1.04034E-04 1.25838E-04
 -1     26435 1.08840E-02-1.12490E-02 4.54470E-04 2.22394E-01-1.64964E-04-1.00428E-03
 -1     26436 1.05282E-02-1.08716E-02 4.29921E-04 2.18950E-01 3.79469E-04-1.76099E-04
 -1     26437 1.07373E-02-1.07647E-02 1.10095E-04 2.13759E-01 5.53536E-04-7.92831E-05
 -1     26438 1.80014E-02-1.79419E-02-6.90700E-05 4.24798E-02 1.06738E-04-2.57185E-05
 -1     26439 6.58904E-02-6.58294E-02 5.38600E-08 1.51511E-01 1.80599E-04 8.93507E-05
 -1     26440 6.33788E-02-6.33488E-02 3.27033E-05 1.54638E-01-5.94076E-05-5.21749E-05
 -1     26441 6.75064E-02-6.75733E-02 1.20241E-04 1.45604E-01-1.02522E-04-5.91089E-05
 -1     26442 5.31736E-02-5.27726E-02-3.53721E-04 1.17964E-01-9.20886E-05-5.90647E-04
 -1     26443 5.61831E-02-5.61344E-02 1.49983E-05 1.12926E-01 2.18647E-04 9.65987E-05
 -1     26444 5.81876E-02-5.80874E-02-4.27600E-05 1.22015E-01 1.44104E-04-5.18032E-04
 -1     26445 6.19313E-02-6.17619E-02-1.13384E-04 1.15638E-01-3.90598E-04-3.19459E-04
 -1     26446-8.88946E-02 8.70706E-02 1.74970E-03-6.23916E-02-5.27862E-03 2.77430E-03
 -1     26447-8.79049E-02 9.15142E-02-3.70238E-03-5.96414E-02-1.68594E-03-2.02292E-03
 -1     26448-8.19045E-02 8.17655E-02 9.34067E-05-5.86701E-02 5.90797E-05 2.21481E-03
 -1     26449-8.67252E-02 8.78788E-02-1.18443E-03-5.74631E-02-4.79590E-04-1.37598E-03
 -1     26450 6.24735E-02-6.24360E-02 1.68504E-05 9.96247E-02-9.10925E-05 6.15301E-04
 -1     26451 6.57744E-02-6.58346E-02 1.24004E-04 1.01981E-01-3.72335E-04 1.39381E-09
 -1     26452 6.26469E-02-6.25884E-02-1.44228E-05 9.26632E-02-4.09988E-04 3.11462E-04
 -1     26453 6.73438E-02-6.72810E-02-1.71391E-05 9.42520E-02-4.30090E-04-9.93993E-05
 -1     26454-3.69067E-06 3.44291E-05 2.40310E-06 1.09783E-01 1.71715E-04 1.28056E-04
 -1     26455-1.19382E-01 1.19051E-01 2.74641E-04-8.52303E-02 9.65312E-04 1.19203E-04
 -1     26456-1.17572E-01 1.16972E-01 5.44623E-04-8.38572E-02 2.03327E-04-1.52627E-04
 -1     26457-7.20489E-02 7.23710E-02-2.90524E-04 1.21720E-01 3.40833E-04 5.80247E-05
 -1     26458-7.44586E-02 7.52165E-02-7.21211E-04 1.32872E-01 8.90292E-04-4.76034E-04
 -1     26459-6.56546E-02 6.56913E-02-3.87129E-06 1.30567E-01 1.81770E-04-9.22609E-04
 -1     26460-6.07910E-02 6.13733E-02-5.50270E-04 1.42405E-01-5.07174E-04-2.20394E-04
 -1     26461-1.93452E-01 1.90645E-01 2.70897E-03-1.24146E-01-5.26949E-04-7.98885E-04
 -1     26462-1.94720E-01 1.96574E-01-1.97269E-03-1.31094E-01 1.50943E-03 5.93906E-03
 -1     26463-1.32672E-01 1.30957E-01 1.68059E-03-1.06408E-02-1.65106E-03 2.15025E-05
 -1     26464-1.64976E-01 1.65560E-01-6.86828E-04-2.51923E-02-5.85717E-04 2.59630E-03
 -1     26465-1.32564E-01 1.31329E-01 1.16571E-03-2.22447E-02 1.31285E-03-2.63727E-03
 -1     26466-1.65313E-01 1.65969E-01-7.14009E-04-3.56130E-02 2.43546E-05-1.58449E-04
 -1     26467 2.45986E-02-2.47322E-02 1.55998E-04 9.58875E-02-3.63608E-05 2.95078E-04
 -1     26468 2.55594E-02-2.59767E-02 4.44603E-04 1.03064E-01-1.06506E-04 3.12647E-05
 -1     26469 1.81383E-02-1.81316E-02 3.01196E-05 1.17954E-01 1.11712E-04-1.33009E-04
 -1     26470 2.01419E-02-2.00979E-02-1.91563E-06 1.27242E-01-1.79299E-05-4.41536E-05
 -1     26471-8.11384E-02 8.43936E-02-3.29719E-03-5.67797E-02-1.02601E-03-3.23190E-03
 -1     26472-6.50407E-02 6.64387E-02-1.49724E-03-2.89294E-02 5.57719E-03 5.08507E-03
 -1     26473-5.83278E-02 6.31096E-02-4.79555E-03 1.04682E-03-1.67906E-03-9.95886E-03
 -1     26474-6.33355E-02 5.94703E-02 3.83227E-03 9.26226E-03-2.32504E-03 4.61483E-03
 -1     26475-5.50934E-02 5.73285E-02-2.28914E-03 3.70058E-02-5.96864E-04-6.78039E-03
 -1     26476-8.87852E-02 9.05666E-02-1.82781E-03-6.33586E-02 2.74896E-03 5.02148E-04
 -1     26477-8.27945E-02 8.26081E-02 2.15344E-04 1.36906E-01-2.38840E-04-2.58207E-04
 -1     26478-8.20859E-02 8.23957E-02-2.98851E-04 8.61068E-02-3.69318E-04 3.02383E-04
 -1     26479-8.01363E-02 8.06089E-02-4.70442E-04 1.00117E-01 7.18710E-04-1.51364E-04
 -1     26480-1.53882E-01 1.53448E-01 3.58263E-04-1.10033E-01-1.02485E-04 4.68557E-04
 -1     26481-1.54834E-01 1.55698E-01-9.39986E-04-1.11512E-01-1.44038E-04 1.92346E-04
 -1     26482-1.47587E-01 1.47676E-01-1.60923E-04-1.01276E-01-7.88483E-05 2.89190E-04
 -1     26483-1.50217E-01 1.50240E-01-9.61621E-05-1.07865E-01-6.10693E-06-4.15862E-04
 -1     26484-1.51501E-01 1.52241E-01-8.13466E-04-1.08813E-01-1.52954E-04-4.07419E-04
 -1     26485-5.43420E-02 5.48019E-02-4.23492E-04 1.29597E-01-2.63390E-04 5.56229E-04
 -1     26486-5.01414E-02 5.02727E-02-9.43188E-05 1.28889E-01-6.63626E-05 3.50415E-04
 -1     26487 4.02054E-02-4.00802E-02-6.62041E-05 1.02539E-01 4.93344E-04-5.39659E-04
 -1     26488 3.28792E-02-3.28938E-02 6.71414E-05 1.01241E-01 3.39406E-04-3.15615E-04
 -1     26489-6.49069E-03 6.53390E-03 2.47021E-06 1.37132E-01-8.28062E-05-4.33673E-07
 -1     26490-8.00841E-02 8.04071E-02-3.25507E-04 2.41759E-02 3.58255E-04 4.96800E-04
 -1     26491-8.75416E-02 8.77223E-02-2.04479E-04 6.58177E-03 4.99744E-04 4.34540E-04
 -1     26492 3.29235E-02-3.20741E-02-7.47274E-04 2.20840E-01-2.44360E-05-1.88405E-04
 -1     26493 2.82549E-02-2.77297E-02-4.34175E-04 2.33365E-01-1.19438E-04 1.63618E-04
 -1     26494 3.07855E-02-3.03044E-02-3.90818E-04 2.27721E-01-1.78692E-04-2.38270E-04
 -1     26495 2.95948E-02-3.01291E-02 6.29476E-04 2.27578E-01 1.79778E-04-5.28498E-04
 -1     26496-7.80629E-02 7.79623E-02 1.27331E-04 1.23881E-01-3.73347E-04 4.97301E-04
 -1     26497-1.79716E-01 1.79648E-01-2.20290E-05-1.34198E-01-1.04869E-04-2.58763E-04
 -1     26498-1.79114E-01 1.78713E-01 3.12117E-04-1.33747E-01-5.06220E-04-2.16733E-04
 -1     26499-1.78862E-01 1.78695E-01 7.93860E-05-1.33636E-01-2.98988E-04-9.88720E-05
 -1     26500-2.29672E-01 2.36488E-01-7.01831E-03-1.46869E-01-4.73762E-03 1.99602E-02
 -1     26501-2.34202E-01 2.39993E-01-5.91283E-03-5.54606E-02-2.99383E-03 6.35140E-03
 -1     26502-2.39786E-01 2.41860E-01-2.41561E-03-6.12304E-02-4.16307E-04-7.03024E-03
 -1     26503-2.81488E-01 2.76484E-01 4.85782E-03-1.63323E-01 1.07373E-02 3.12778E-03
 -1     26504-2.59931E-01 2.58669E-01 1.22332E-03-1.36509E-01 1.04235E-02 1.89317E-02
 -1     26505-2.95433E-01 2.78667E-01 1.65592E-02-5.21637E-02-1.56647E-02-1.71618E-02
 -1     26506-1.69566E-01 1.69439E-01 4.39804E-05-1.23443E-01-3.79492E-05-3.51075E-04
 -1     26507-1.69380E-01 1.69427E-01-1.31444E-04-1.23508E-01-2.88553E-04-2.88638E-05
 -1     26508-4.95322E-02 5.02452E-02-6.68519E-04 1.43941E-01-9.51004E-05 6.93171E-04
 -1     26509-1.35126E-01 1.33283E-01 1.93714E-03 1.39559E-01-1.15495E-03 1.44809E-04
 -1     26510-1.27355E-01 1.28745E-01-1.36677E-03 1.28150E-01 3.40339E-03-2.84136E-03
 -1     26511-4.74106E-02 4.76977E-02-2.33340E-04 1.33304E-01-1.84096E-04-1.82955E-04
 -1     26512-4.53120E-02 4.53627E-02 2.11517E-06 1.42302E-01-1.37753E-04 3.36220E-04
 -1     26513-5.24349E-02 5.23684E-02 1.01494E-04 1.18905E-01 1.58958E-04 4.47188E-05
 -1     26514-8.83269E-03 8.79853E-03 7.60154E-05 1.13745E-01-2.68017E-04-4.67735E-05
 -1     26515-5.87276E-03 5.95727E-03-4.44360E-05 1.26604E-01 2.16194E-04 1.70944E-04
 -1     26516-2.49587E-03 2.53311E-03 1.12713E-05 1.27824E-01 2.04663E-04 1.24828E-04
 -1     26517-1.79614E-01 1.80290E-01-7.57500E-04-1.15260E-01 1.44179E-04 4.26235E-04
 -1     26518-1.73662E-01 1.74338E-01-7.53267E-04-9.95660E-02-4.12862E-04 1.05805E-03
 -1     26519-1.37391E-01 1.36757E-01 5.54082E-04-9.33125E-02 1.12517E-04 3.40433E-05
 -1     26520-1.45558E-01 1.45831E-01-3.50361E-04-1.04596E-01-1.13757E-03 1.66824E-04
 -1     26521-1.35046E-01 1.35353E-01-3.70637E-04-8.79216E-02-5.18348E-04 8.48019E-05
 -1     26522-1.38963E-01 1.38489E-01 4.13235E-04-9.04341E-02-1.13279E-04-5.40981E-05
 -1     26523-1.36119E-01 1.36355E-01-2.88445E-04-8.51902E-02-2.41841E-04 3.32211E-04
 -1     26524-1.72442E-01 1.72329E-01 2.84644E-05-1.27462E-01 1.35520E-04-1.00855E-04
 -1     26525-1.61485E-01 1.61396E-01 8.84169E-06-1.16276E-01 6.28911E-05-1.14371E-04
 -1     26526-1.65017E-01 1.64850E-01 8.70812E-05-1.19992E-01 1.63427E-04-5.01791E-06
 -1     26527-1.73443E-01 1.73494E-01-1.37117E-04-1.28891E-01-7.34236E-06-7.97597E-05
 -1     26528-1.54310E-01 1.54139E-01 9.46939E-05-1.08911E-01 1.21204E-04 1.10265E-05
 -1     26529-2.42341E-02 2.36159E-02 6.77336E-04 1.71317E-01 2.84352E-04 2.44402E-04
 -1     26530-3.77182E-02 3.79896E-02-2.22673E-04 1.48309E-01-4.89892E-04 3.27085E-04
 -1     26531-2.30518E-01 2.24622E-01 5.76520E-03-5.74820E-03-7.81007E-03 3.18088E-03
 -1     26532-2.23642E-01 2.34754E-01-1.12544E-02 5.57247E-03 1.68638E-02-9.90845E-03
 -1     26533 4.86246E-02-4.86772E-02 1.00988E-04 1.42167E-01 3.00119E-04-3.23593E-05
 -1     26534 1.00201E-02-1.03203E-02 3.40146E-04 1.12432E-01 1.96179E-05 1.98177E-04
 -1     26535 1.20975E-02-1.29689E-02 9.25377E-04 1.14185E-01-7.98376E-05 5.67820E-04
 -1     26536 9.32415E-03-9.20857E-03-6.94858E-05 1.11946E-01-2.00624E-04-3.46104E-04
 -1     26537 8.72572E-03-8.97820E-03 2.98419E-04 1.12001E-01-2.79919E-05 2.28719E-05
 -1     26538 9.29282E-03-9.52559E-03 2.81157E-04 1.13930E-01-2.48020E-04-4.37389E-04
 -1     26539-2.14509E-01 2.18516E-01-4.24334E-03-1.39287E-01-8.10740E-03 9.49640E-03
 -1     26540-1.91442E-01 1.88660E-01 2.79573E-03-1.59407E-01 7.80970E-03-9.66016E-03
 -1     26541-2.29635E-01 2.21817E-01 7.72182E-03-1.52176E-01-6.09003E-03-7.65803E-03
 -1     26542-2.52197E-01 2.50657E-01 1.34005E-03-1.20976E-01-3.80985E-03 1.37107E-02
 -1     26543-2.16818E-01 2.08966E-01 7.84231E-03-1.44273E-01 3.63231E-03-8.04954E-03
 -1     26544-3.86601E-02 3.84472E-02 2.56290E-04 1.47421E-01-3.10263E-04 7.97071E-05
 -1     26545 3.37151E-03-3.11225E-03-2.09637E-04 1.17671E-01 2.25779E-04 2.67087E-04
 -1     26546 1.13026E-02-1.13221E-02 7.03809E-05 1.10741E-01-2.27068E-04 5.64098E-04
 -1     26547 7.53212E-02-7.55334E-02 2.44390E-04 1.11293E-01 4.36036E-04 9.58987E-06
 -1     26548 7.41412E-02-7.42694E-02 1.93690E-04 1.17401E-01 8.01355E-06-3.48537E-04
 -1     26549 7.64855E-02-7.64354E-02 4.94765E-06 1.13288E-01-1.02858E-06 5.75542E-05
 -1     26550-1.17143E-01 1.17252E-01-1.64434E-04-8.01364E-02 1.04222E-03 6.13807E-04
 -1     26551-1.14687E-01 1.15002E-01-3.72335E-04-7.76004E-02 7.99099E-04-6.75176E-04
 -1     26552-1.10107E-01 1.09816E-01 2.41306E-04-7.54294E-02 1.57998E-03 2.87435E-04
 -1     26553 2.58178E-02-2.60596E-02 3.30259E-04 2.29580E-01-3.10836E-04 5.04519E-04
 -1     26554 2.59499E-02-2.61787E-02 3.19476E-04 2.31793E-01 4.25959E-04 6.25580E-05
 -1     26555 3.16778E-02-3.14797E-02-1.08963E-04 2.19706E-01-2.00913E-04 1.50612E-04
 -1     26556 3.76503E-02-3.75745E-02 7.24225E-06 2.05269E-01-4.43088E-04 5.79825E-05
 -1     26557 3.82714E-02-3.81905E-02 3.42170E-06 2.06875E-01-1.99577E-04-2.03767E-04
 -1     26558 4.47764E-02-4.47613E-02 3.33456E-05 1.33100E-01-9.60793E-05-1.26889E-05
 -1     26559-2.14434E-01 2.16827E-01-2.43505E-03-1.78019E-01-6.91805E-03 2.48437E-02
 -1     26560-1.87897E-01 2.01148E-01-1.33819E-02-2.05914E-01-3.92430E-03 1.75866E-02
 -1     26561-2.11274E-01 2.18997E-01-7.71552E-03-1.73413E-01 6.78245E-04 2.72115E-03
 -1     26562-1.97573E-01 1.94306E-01 3.14676E-03-1.48136E-01-1.41595E-02 1.46987E-02
 -1     26563-1.31967E-01 1.46686E-01-1.48197E-02-1.62815E-01-2.04117E-02-3.27161E-03
 -1     26564 9.14793E-04-1.06886E-03 1.99524E-04 1.18920E-01 3.81895E-04 2.05337E-04
 -1     26565 2.86149E-03-3.09577E-03 2.82149E-04 1.18107E-01 3.52385E-04 4.85905E-04
 -1     26566 1.95495E-03-1.65109E-03-2.56672E-04 1.19070E-01 2.12443E-04 6.19423E-04
 -1     26567 1.50261E-03-1.36015E-03-9.11853E-05 1.19073E-01-2.24375E-04-2.26127E-04
 -1     26568 2.06420E-03-2.13914E-03 1.18942E-04 1.17958E-01-7.88461E-05-3.30928E-04
 -1     26569 3.01672E-03-2.89932E-03-6.38975E-05 1.18013E-01-7.38246E-05-6.68063E-05
 -1     26570-3.46574E-01 3.32638E-01 1.39741E-02-9.67148E-02 4.30866E-03 1.48891E-02
 -1     26571-3.58906E-01 3.45589E-01 1.34397E-02-3.25693E-02 1.06060E-02 2.54142E-02
 -1     26572-5.27361E-02 5.11243E-02 1.26903E-03 1.36133E-02 4.42140E-03 9.55170E-04
 -1     26573-6.73301E-02 6.99819E-02-2.95679E-03 2.08633E-02-9.01970E-05 1.74513E-04
 -1     26574-7.09797E-02 7.15221E-02-8.22685E-04 2.71296E-02 1.92876E-03 3.49530E-03
 -1     26575-4.22239E-02 3.68041E-02 5.09147E-03 4.98878E-03-9.07639E-04 9.47579E-06
 -1     26576-8.54041E-02 8.68248E-02-1.42546E-03 2.65480E-02 2.72912E-03 3.53792E-04
 -1     26577-7.52803E-02 7.48357E-02 4.51537E-04 8.74785E-02-9.08768E-04 4.33287E-04
 -1     26578-7.42250E-02 7.42558E-02-1.18196E-05 8.18740E-02 1.43051E-05 1.09408E-05
 -1     26579-7.05256E-02 7.05474E-02-1.13241E-06 9.61762E-02-2.74822E-04 7.22445E-06
 -1     26580-4.90162E-02 4.90182E-02 1.64654E-06 4.86614E-02 8.76515E-06-2.40806E-06
 -1     26581-1.48676E-01 1.48691E-01-8.69914E-05-1.00328E-01 1.06677E-04 8.10897E-05
 -1     26582-1.60166E-01 1.60054E-01 3.17483E-05-1.12347E-01 3.63571E-05-2.77824E-04
 -1     26583-1.58281E-01 1.58223E-01-1.99296E-05-1.11460E-01-4.87359E-05-9.98881E-05
 -1     26584 2.75020E-04-3.46424E-04 1.29678E-04 1.20767E-01 4.38862E-04 3.61466E-04
 -1     26585-1.83545E-01 1.82910E-01 5.44188E-04-1.36994E-01-6.30190E-04-1.88963E-06
 -1     26586-1.84292E-01 1.84559E-01-3.57618E-04-1.35882E-01-2.35025E-04-4.04365E-04
 -1     26587-4.10696E-02 4.10378E-02 5.11521E-05 8.26969E-02-1.24784E-04-7.35269E-06
 -1     26588-5.05540E-02 5.06262E-02-6.00565E-05 6.45387E-02 9.45056E-05-9.09971E-05
 -1     26589 3.63868E-02-3.74542E-02 1.11793E-03 7.13631E-02-3.69741E-04 1.38936E-03
 -1     26590 4.70982E-02-4.74022E-02 3.59454E-04 7.58677E-02 6.31367E-04 6.57036E-04
 -1     26591 3.37328E-02-3.50136E-02 1.30788E-03 7.83356E-02 1.20213E-03 5.59115E-04
 -1     26592 2.30091E-02-2.32792E-02 3.10549E-04 7.57775E-02 9.75418E-05 8.62190E-04
 -1     26593 3.49053E-02-3.41694E-02-6.87078E-04 7.96087E-02 1.66415E-03-4.56227E-05
 -1     26594 4.47289E-02-4.46998E-02-2.44550E-06 4.39583E-02 1.35145E-05 2.86083E-04
 -1     26595 3.36291E-02-3.45069E-02 9.13714E-04 2.69646E-02 1.63252E-03-1.13122E-03
 -1     26596 5.58570E-02-5.58013E-02-4.54635E-06 1.49018E-01 7.82470E-05-1.65608E-04
 -1     26597-9.08690E-02 9.17336E-02-8.23712E-04 1.63943E-01 1.23845E-03 1.79614E-03
 -1     26598-1.03730E-01 1.02269E-01 1.49218E-03 1.61361E-01-9.18653E-04 3.00787E-04
 -1     26599-3.24834E-02 3.24510E-02 8.49499E-05 1.49563E-01-2.50215E-04 1.79792E-04
 -1     26600-2.02845E-02 1.99506E-02 3.95046E-04 1.72806E-01 1.53497E-04-2.74928E-04
 -1     26601 1.15371E-02-1.23135E-02 8.25163E-04 3.68819E-02 1.10489E-03 2.40800E-04
 -1     26602 2.31264E-02-2.32038E-02 1.15638E-04 3.63693E-02 6.48367E-04-1.50743E-04
 -1     26603-7.60814E-02 7.60600E-02-2.05334E-06-8.62889E-03 1.42822E-04 4.43847E-04
 -1     26604-8.71012E-02 8.70144E-02 5.49728E-05-2.33113E-02 1.01029E-04 2.00269E-05
 -1     26605-6.81722E-02 6.79670E-02 1.85619E-04 3.42777E-03-4.49838E-05 2.14383E-04
 -1     26606 3.12208E-02-3.09524E-02-1.96512E-04 2.89988E-02-4.91053E-04-8.87455E-04
 -1     26607 4.28411E-02-4.29188E-02 1.34634E-04 4.51682E-02-5.48584E-04 8.98446E-04
 -1     26608-1.60083E-01 1.60302E-01-2.95302E-04-1.15115E-01-1.98884E-04 1.26407E-04
 -1     26609-1.61474E-01 1.61499E-01-1.04840E-04-1.16395E-01-9.23678E-05-1.04619E-04
 -1     26610 1.96997E-02-1.93634E-02-2.46903E-04 1.44350E-02 7.87133E-04 5.64148E-04
 -1     26611 2.07111E-02-2.14469E-02 7.52373E-04 1.72802E-02-8.13547E-04-1.06230E-03
 -1     26612 3.47468E-02-3.37466E-02-9.96489E-04 3.36625E-02-8.43040E-04 1.13608E-03
 -1     26613-3.71859E-02 3.09343E-02 6.14857E-03 5.99152E-03 8.83167E-04 2.70470E-03
 -1     26614-5.09640E-02 4.49983E-02 5.56735E-03 4.36356E-02-1.83270E-03 2.39262E-03
 -1     26615-3.87858E-02 3.73949E-02 9.31167E-04 1.29854E-02-7.65641E-03-4.32400E-03
 -1     26616 6.09013E-02-6.08447E-02-1.28815E-06 1.03660E-01-1.02023E-05 4.05261E-05
 -1     26617 6.65955E-02-6.65257E-02-1.52147E-05 1.05538E-01 1.74236E-05 3.91443E-04
 -1     26618 6.22022E-02-6.23998E-02 2.42031E-04 9.92509E-02-3.54592E-04-2.09294E-04
 -1     26619 5.02434E-03-5.07483E-03 9.16570E-05 1.17802E-01-4.55916E-04 1.76447E-04
 -1     26620 3.09559E-03-3.37544E-03 3.29058E-04 1.18345E-01-9.63749E-04-1.87359E-04
 -1     26621 5.99863E-03-5.97848E-03 2.96561E-05 1.19647E-01-9.62502E-04 3.27748E-06
 -1     26622 2.80351E-03-3.27165E-03 5.19161E-04 1.19979E-01 4.00339E-04-1.28126E-05
 -1     26623 1.36355E-03-1.51936E-03 2.11296E-04 1.19073E-01 4.46100E-04 1.86869E-05
 -1     26624 1.22592E-03-1.83890E-03 6.57047E-04 1.20315E-01-3.23417E-04-4.82266E-06
 -1     26625 2.37343E-02-2.36390E-02-1.16291E-04 3.34407E-02 5.86707E-04-4.98666E-05
 -1     26626 1.32303E-02-1.29161E-02-3.06259E-04 3.06825E-02-2.44786E-04-6.84813E-05
 -1     26627 1.01099E-02-1.07721E-02 7.32781E-04 1.83871E-02 5.82370E-04 6.86598E-05
 -1     26628 1.16332E-02-1.15329E-02-7.06963E-05 1.02265E-02 1.09188E-04-7.94197E-04
 -1     26629 1.07981E-02-1.11048E-02 3.16622E-04 1.67348E-02-1.63410E-05-4.73463E-07
 -1     26630 7.56483E-02-7.55783E-02-2.82390E-05 1.12410E-01-6.46961E-05 4.52356E-05
 -1     26631 7.57104E-02-7.59518E-02 2.85246E-04 1.08532E-01-1.10621E-04-1.66502E-04
 -1     26632 7.38371E-02-7.41012E-02 3.00034E-04 1.04972E-01-3.91328E-05 3.14281E-04
 -1     26633-1.13146E-01 1.12795E-01 3.00816E-04-3.71298E-02 2.13736E-04 4.38739E-04
 -1     26634-1.11005E-01 1.10947E-01 2.47485E-05-3.18872E-02 2.18688E-04 3.11427E-04
 -1     26635-2.82364E-01 2.95163E-01-1.27313E-02-6.78679E-02-8.87119E-03 1.44027E-02
 -1     26636-2.78265E-01 2.80429E-01-2.22068E-03-4.58035E-02-4.17011E-03 3.04756E-04
 -1     26637-2.61210E-01 2.71059E-01-9.94952E-03 2.61017E-02-6.66360E-03-7.05873E-03
 -1     26638-2.24541E-01 2.28896E-01-4.38013E-03-4.23758E-02 3.30573E-03 1.23795E-03
 -1     26639-1.53838E-02 1.52622E-02 1.51574E-04 9.11378E-02 7.11997E-05 4.09499E-06
 -1     26640-1.23113E-02 1.24075E-02-6.93058E-05 1.01426E-01 2.51295E-04 2.01410E-04
 -1     26641 7.53572E-02-7.54937E-02 1.78412E-04 1.09194E-01-8.10242E-04 5.30040E-04
 -1     26642 7.53017E-02-7.52309E-02-3.03326E-05 1.01612E-01 3.04633E-04 6.14594E-05
 -1     26643-1.94307E-01 1.94723E-01-4.10670E-04-8.17981E-03-4.68527E-03-8.29977E-05
 -1     26644-1.54200E-01 1.60921E-01-6.96753E-03 3.04781E-02-7.91907E-03-7.64593E-03
 -1     26645 2.64822E-02-2.59480E-02-4.41524E-04 2.34942E-01 1.56701E-04 1.07132E-04
 -1     26646-9.53571E-02 9.49663E-02 3.62091E-04-6.27405E-03-5.80621E-04-9.66271E-05
 -1     26647-9.58704E-02 9.57595E-02 8.99863E-05-1.21580E-02-1.31804E-04 1.09804E-04
 -1     26648-1.03704E-01 1.03663E-01 9.63922E-06-2.50503E-02 8.41621E-05 2.43783E-04
 -1     26649 7.16240E-02-7.18171E-02 2.36692E-04 1.07759E-01-2.45333E-04 2.63203E-04
 -1     26650 1.72538E-02-1.75786E-02 4.14735E-04 2.16907E-01 2.74754E-04 2.74081E-04
 -1     26651 1.62130E-02-1.54648E-02-6.97457E-04 1.16241E-01 1.77104E-04 1.26139E-04
 -1     26652 1.67725E-02-1.69800E-02 2.51600E-04 1.15543E-01-4.09181E-04-2.77737E-04
 -1     26653 1.88753E-02-1.86896E-02-1.44829E-04 1.18049E-01-8.05334E-05-3.89105E-06
 -1     26654-1.00909E-01 1.01074E-01-1.90233E-04-1.30669E-02-6.26710E-04-8.27502E-04
 -1     26655-9.67291E-02 9.80323E-02-1.32198E-03 1.31506E-04 7.29533E-05 1.22507E-05
 -1     26656-9.52281E-02 9.54627E-02-2.75777E-04 9.16209E-03 1.07917E-04-5.07364E-04
 -1     26657 5.11550E-02-5.11714E-02 8.05467E-05 1.23991E-01 2.43427E-05-1.92464E-04
 -1     26658 1.14473E-02-1.25416E-02 1.12507E-03 4.60051E-02 4.71449E-04-2.44302E-04
 -1     26659 2.50575E-02-2.52398E-02 2.86275E-04 2.48579E-01-2.41427E-04 1.06013E-04
 -1     26660 3.14500E-02-3.15215E-02 1.60832E-04 2.20397E-01-4.71817E-04 3.89711E-04
 -1     26661 2.88766E-02-2.88026E-02 1.85680E-05 2.33200E-01-1.45889E-04 2.76201E-04
 -1     26662 2.73843E-02-2.75895E-02 2.95872E-04 2.29943E-01-3.12066E-04 3.56430E-04
 -1     26663 3.10563E-02-3.08175E-02-1.50581E-04 2.15135E-01 4.91239E-05 3.21002E-04
 -1     26664 5.65446E-02-5.67526E-02 2.52297E-04 1.06889E-01-2.46807E-04-3.30496E-04
 -1     26665 6.28022E-02-6.27425E-02-6.85625E-06 1.10959E-01-8.76479E-05-2.25700E-04
 -1     26666-2.76867E-01 2.80945E-01-4.36774E-03 7.03398E-02 1.05569E-02-4.02663E-03
 -1     26667-3.43289E-01 3.45068E-01-2.03904E-03-5.19841E-02 1.49865E-02 1.27489E-02
 -1     26668-3.44892E-01 3.15573E-01 2.85980E-02-5.46365E-02-2.25892E-03-3.24069E-03
 -1     26669 1.73586E-02-1.74059E-02 1.10813E-04 1.40164E-01 3.59975E-04-2.43361E-04
 -1     26670 1.69892E-02-1.68245E-02-1.10117E-04 1.37929E-01 6.06260E-04-4.19633E-04
 -1     26671 1.78065E-02-1.75814E-02-1.67360E-04 1.45168E-01-3.24224E-05-1.10108E-04
 -1     26672-9.43372E-02 9.43019E-02-1.79809E-07-3.26573E-02 3.46146E-05-4.62382E-05
 -1     26673-1.04348E-01 1.04187E-01 1.18557E-04-4.69043E-02-1.42401E-04-3.06354E-04
 -1     26674-9.58964E-02 9.57718E-02 8.80719E-05-3.47776E-02 3.12839E-05 1.78965E-05
 -1     26675-1.17185E-01 1.16901E-01 2.12406E-04-4.52094E-03 3.79535E-04 1.64200E-03
 -1     26676-1.05790E-01 1.05247E-01 4.90003E-04 1.39305E-02 1.27750E-03 1.44438E-03
 -1     26677-1.15193E-01 1.17374E-01-2.27157E-03 5.22618E-03-9.82557E-04 1.83972E-03
 -1     26678 6.81645E-02-6.79898E-02-1.23401E-04 1.34705E-01 1.54923E-04-1.18502E-04
 -1     26679 7.43469E-02-7.42888E-02-1.15577E-05 1.20310E-01 1.86953E-05 1.82727E-04
 -1     26680-6.62089E-03 6.57706E-03 1.13788E-04 1.78594E-01-3.37299E-04 9.67108E-04
 -1     26681 1.93950E-03-1.52778E-03-3.28468E-04 1.95586E-01 2.65129E-04-6.60587E-05
 -1     26682-3.60879E-03 3.36311E-03 3.15496E-04 1.79915E-01-4.80060E-04 1.45618E-04
 -1     26683-1.58945E-02 1.58348E-02 1.17592E-04 1.56358E-01-1.93381E-05-2.13236E-05
 -1     26684 4.18039E-02-4.17013E-02-7.45956E-05 3.77130E-02-6.37662E-05 1.00353E-03
 -1     26685 4.09208E-02-4.09136E-02 7.05906E-05 1.98895E-01 1.44045E-04 1.74019E-04
 -1     26686 3.88303E-02-3.86211E-02-1.30279E-04 2.03062E-01-9.84032E-05-1.64915E-05
 -1     26687 2.32032E-02-2.31084E-02 9.76476E-06 2.59929E-01 4.25267E-05-1.55776E-04
 -1     26688 1.70621E-02-1.68357E-02-1.38718E-04 2.28732E-01 2.35010E-04 1.73628E-04
 -1     26689 1.79968E-02-1.84474E-02 5.41845E-04 2.39807E-01 4.83395E-04 2.56170E-04
 -1     26690 7.51150E-02-7.47575E-02-3.09260E-04 1.25281E-01-2.35966E-04 2.26433E-05
 -1     26691-4.97216E-02 4.95349E-02 1.79105E-04 2.64196E-02-3.84084E-04 2.08769E-04
 -1     26692-1.19888E-01 1.19884E-01-4.75920E-05-5.29599E-02-2.10407E-04 2.75133E-05
 -1     26693-1.33467E-01 1.33298E-01 1.08111E-04-6.67984E-02 2.65029E-04 2.28744E-05
 -1     26694 8.83098E-03-8.07143E-03-7.82060E-04-5.35052E-03 1.01600E-03 1.51471E-03
 -1     26695 1.15799E-02-1.23257E-02 7.46210E-04-6.62721E-03 1.97131E-05 1.06423E-03
 -1     26696 4.54930E-03-4.72864E-03 1.26229E-04-8.40714E-03 1.06393E-04 6.52454E-04
 -1     26697 8.37262E-03-8.19264E-03-1.34139E-04 2.96585E-04 9.51878E-04 1.32124E-03
 -1     26698 1.62394E-02-1.54652E-02-7.00566E-04 2.17895E-03 1.06538E-03 1.19196E-03
 -1     26699 1.26123E-02-1.32935E-02 7.03528E-04-1.01270E-03 1.01504E-04 1.14580E-03
 -1     26700-1.76796E-01 1.76505E-01 2.03516E-04-1.25868E-01-2.16629E-04-1.31965E-04
 -1     26701-1.38860E-01 1.38794E-01 1.49896E-06-9.15708E-02 2.12619E-04-9.87999E-05
 -1     26702 4.72119E-02-4.66863E-02-4.80318E-04 4.96869E-02-1.30592E-03 2.30093E-05
 -1     26703 5.28386E-02-5.27693E-02-3.46778E-05 6.10338E-02-2.49527E-04 7.45283E-04
 -1     26704 4.63549E-02-4.64228E-02 1.25237E-04 5.51799E-02-1.67585E-03 4.39683E-05
 -1     26705 6.19119E-03-6.09851E-03-1.19442E-04-2.18494E-02-1.72747E-04-2.36965E-04
 -1     26706 6.70496E-03-6.85355E-03 1.12212E-04-2.00760E-02-1.08750E-03 4.56922E-04
 -1     26707 1.05399E-02-1.04543E-02-7.49499E-05-1.35708E-02-1.45816E-03-9.35421E-06
 -1     26708 5.75711E-03-5.30435E-03-3.55293E-04-2.18283E-02-6.75637E-04-3.16993E-04
 -1     26709 5.31699E-03-5.20534E-03-1.29975E-04-2.00107E-02-3.85921E-04 7.65886E-04
 -1     26710 6.55473E-02-6.55667E-02 7.35424E-05 1.11795E-01-2.80492E-04 1.26133E-04
 -1     26711 6.00100E-02-5.98471E-02-1.02780E-04 1.40386E-01 2.42166E-05-1.90645E-04
 -1     26712 5.40423E-02-5.39220E-02-6.03157E-05 1.43490E-01-3.94080E-06-3.53046E-04
 -1     26713-1.91902E-02 1.91452E-02 5.04794E-06 3.69100E-02 3.26585E-04-1.28844E-05
 -1     26714-3.40261E-02 3.40423E-02-8.06897E-05 3.44581E-02 2.73130E-04-8.15879E-04
 -1     26715-4.95595E-02 4.96376E-02-9.23963E-05 2.64793E-02 2.06208E-04 4.18199E-05
 -1     26716 1.31381E-02-1.30158E-02-4.45566E-05 6.76911E-02-5.22083E-04 2.44920E-04
 -1     26717 1.28711E-02-1.24506E-02-4.01779E-04 6.10608E-02-3.13788E-04 5.86281E-04
 -1     26718 1.95769E-02-2.12358E-02 1.76143E-03 6.48417E-03-5.68731E-04 3.03035E-04
 -1     26719 1.58237E-02-1.64957E-02 7.12359E-04-1.92537E-03-3.33292E-04-2.37585E-04
 -1     26720 1.84397E-02-1.95612E-02 1.13865E-03 5.82136E-03-3.85357E-04 2.34784E-05
 -1     26721 1.60076E-02-1.71194E-02 1.19091E-03 2.25529E-03-1.04647E-03-8.12932E-05
 -1     26722 1.16662E-02-1.32097E-02 1.52884E-03-5.54567E-03-5.28142E-04-1.95706E-04
 -1     26723-2.15387E-01 2.27178E-01-1.17191E-02-1.37359E-01-2.45533E-03 3.89365E-02
 -1     26724 1.76836E-02-1.74603E-02-1.60764E-04 1.43083E-01 2.79191E-04 6.57617E-05
 -1     26725 1.72055E-02-1.72649E-02 1.14236E-04 1.35701E-01 2.13549E-04 8.70527E-05
 -1     26726-2.88238E-02 2.68811E-02 1.76982E-03-6.67072E-03-3.36005E-03 1.36651E-03
 -1     26727-3.64623E-02 3.60161E-02 3.27995E-04 3.82882E-03 3.01867E-03 1.44551E-04
 -1     26728-7.28869E-02 7.27428E-02 1.50467E-04 5.07652E-02 2.22136E-05 2.68781E-04
 -1     26729-7.37089E-02 7.34216E-02 2.95574E-04 5.96168E-02-1.44675E-05 3.63974E-04
 -1     26730-6.59382E-02 6.59742E-02-2.54640E-05 6.18844E-02 4.99420E-05 5.08891E-05
 -1     26731-7.76999E-02 7.78279E-02-1.29589E-04 4.26816E-02-2.89433E-04 3.06383E-05
 -1     26732 1.61243E-02-1.59764E-02-5.49499E-05 2.36898E-01-3.16322E-04 7.14441E-05
 -1     26733 2.29903E-02-2.32155E-02 3.28319E-04 2.60950E-01 7.60091E-06 1.57085E-04
 -1     26734 2.31434E-02-2.31294E-02 9.05595E-05 2.61236E-01-1.95873E-05 1.24507E-04
 -1     26735-1.56008E-01 1.49568E-01 6.30210E-03 7.76285E-03-2.05672E-03-3.60634E-03
 -1     26736-1.62541E-01 1.66108E-01-3.65860E-03-1.58596E-02-3.12512E-03-3.96369E-04
 -1     26737 3.60731E-03-3.75166E-03 1.82106E-04 1.23957E-01-2.98991E-04 2.39586E-04
 -1     26738 3.53616E-03-3.56393E-03 7.93480E-05 1.29147E-01-3.75633E-04 4.36385E-04
 -1     26739 3.44136E-03-3.18989E-03-1.78297E-04 1.29153E-01 1.35034E-04 9.55416E-05
 -1     26740 2.37951E-03-2.00659E-03-3.12757E-04 1.26529E-01 2.86760E-04-2.75263E-04
 -1     26741 1.67048E-03-1.96534E-03 3.47987E-04 1.26177E-01-4.79292E-04 5.87609E-05
 -1     26742 7.57934E-02-7.55864E-02-1.71423E-04 1.07265E-01-4.70929E-04 2.10471E-04
 -1     26743 1.39897E-02-1.46216E-02 6.80069E-04 1.18650E-01-2.71144E-04-8.52349E-04
 -1     26744 1.44935E-02-1.40761E-02-3.67162E-04 1.18976E-01 2.09437E-04 4.96254E-05
 -1     26745 1.56895E-02-1.56272E-02-8.59208E-06 1.13836E-01 6.15149E-04 3.24485E-04
 -1     26746 9.79962E-03-9.87337E-03 1.14727E-04 1.14048E-01 1.93195E-04 4.75925E-04
 -1     26747 1.25785E-02-1.24287E-02-1.01486E-04 1.15144E-01 9.09431E-04 1.57033E-04
 -1     26748 7.62040E-02-7.68560E-02 7.01932E-04 1.14869E-01-1.12894E-04 7.61058E-05
 -1     26749 2.79644E-02-2.74935E-02-3.92880E-04 9.68331E-02-4.85985E-04 4.17177E-04
 -1     26750 2.94835E-02-2.95232E-02 9.09951E-05 9.25402E-02-6.36156E-04 7.57013E-04
 -1     26751 2.01318E-02-2.09149E-02 8.31880E-04 9.24921E-02-8.85027E-04 4.71196E-04
 -1     26752 6.63966E-02-6.64056E-02 5.23438E-05 7.91442E-02-1.09854E-04 1.40619E-04
 -1     26753 7.08455E-02-7.06857E-02-1.33235E-04 8.80620E-02 2.22425E-04-3.16142E-04
 -1     26754 5.98855E-03-5.75054E-03-1.86190E-04 1.20233E-01-5.42458E-04 1.39594E-04
 -1     26755 5.01171E-03-4.48765E-03-4.74694E-04 1.22214E-01 1.04823E-04 4.10595E-04
 -1     26756 1.98206E-03-2.10350E-03 1.57532E-04 1.23144E-01 1.54325E-04 4.35684E-04
 -1     26757 4.07405E-03-3.82099E-03-2.10580E-04 1.20824E-01-2.29745E-04 6.52201E-05
 -1     26758 1.12562E-02-1.20516E-02 7.93725E-04-1.74466E-02 6.57867E-04 2.43009E-04
 -1     26759 2.40693E-02-2.32625E-02-8.12439E-04 5.24040E-03 1.16455E-03-4.35299E-04
 -1     26760 1.98975E-02-2.09692E-02 1.00240E-03 3.25084E-03 2.99642E-04-3.06984E-04
 -1     26761 1.65433E-02-1.73597E-02 8.89860E-04-8.99228E-03-9.74111E-05-1.13052E-04
 -1     26762 1.85633E-02-1.76261E-02-9.22645E-04-7.08461E-03 4.89080E-04-1.06916E-03
 -1     26763 7.16293E-02-7.16525E-02 5.99612E-05 9.29494E-02 1.97255E-04 1.54832E-04
 -1     26764 7.33797E-02-7.31573E-02-1.78268E-04 9.74821E-02-2.07753E-04 1.86531E-04
 -1     26765-1.88863E-02 1.88595E-02 3.67364E-05 7.27832E-02-5.65155E-05 5.78647E-05
 -1     26766-1.04912E-01 1.05247E-01-3.61709E-04-1.95263E-02-8.61692E-04-1.31262E-04
 -1     26767-2.13275E-01 2.16698E-01-3.60308E-03-1.39427E-01-4.47147E-03-2.18214E-03
 -1     26768-1.15088E-01 1.15054E-01-6.86288E-06-4.10694E-02-2.53135E-04-3.89461E-04
 -1     26769-1.22840E-01 1.22386E-01 3.99476E-04-5.71881E-02-7.03430E-04-2.03575E-04
 -1     26770-1.21766E-01 1.22199E-01-4.86764E-04-5.79841E-02 3.86808E-04 2.41943E-04
 -1     26771-1.30743E-01 1.30471E-01 2.05673E-04-7.43434E-02 6.43918E-04-6.52840E-05
 -1     26772-1.84916E-01 1.82825E-01 2.01367E-03-4.91897E-02-5.14867E-04 2.12752E-03
 -1     26773-2.02834E-01 1.97401E-01 5.34654E-03-1.42589E-01 1.18249E-03 1.98952E-03
 -1     26774-2.02351E-01 2.09343E-01-7.11393E-03-1.43359E-01-1.59032E-03-4.01413E-03
 -1     26775-2.00538E-01 2.01552E-01-1.07150E-03-1.37869E-01-1.37199E-03-2.88680E-04
 -1     26776-1.92917E-01 1.89178E-01 3.62104E-03-1.40613E-01 2.63177E-03 3.57193E-04
 -1     26777-1.98486E-01 2.03386E-01-5.01316E-03-1.44498E-01-1.09714E-03-1.20133E-03
 -1     26778-7.10356E-02 7.11024E-02-5.64075E-05 7.45238E-02-1.79001E-04-2.81265E-04
 -1     26779-7.72252E-02 7.71263E-02 9.54197E-05 6.55710E-02 6.87193E-04-1.31799E-04
 -1     26780-7.44338E-02 7.42330E-02 2.08903E-04 6.07662E-02-2.61567E-04 7.47636E-05
 -1     26781-8.07637E-02 8.08434E-02-8.74069E-05 4.54904E-02 6.21719E-05 4.80604E-04
 -1     26782-8.08753E-02 8.09739E-02-9.36989E-05 5.13980E-02-4.81752E-04 2.64605E-04
 -1     26783 3.26513E-02-3.25597E-02-7.52165E-05 3.07978E-02 3.89523E-04 2.42824E-04
 -1     26784 3.07638E-02-3.07589E-02 6.83278E-07 2.64872E-02 3.89879E-04 5.85432E-05
 -1     26785-7.92272E-02 7.88151E-02 3.94734E-04 3.35218E-02-1.66903E-04 3.47846E-04
 -1     26786-8.05920E-02 8.04624E-02 1.36090E-04 7.54246E-02 8.01949E-04-2.26971E-04
 -1     26787-7.81676E-02 7.82134E-02-5.30697E-05 6.98830E-02 4.03051E-04-6.77412E-04
 -1     26788-2.03841E-01 2.13310E-01-9.65002E-03-1.46475E-01-2.21874E-03-1.03443E-02
 -1     26789-1.91274E-01 2.00907E-01-9.69811E-03-1.50368E-01 4.10754E-03 2.04049E-03
 -1     26790-1.12733E-01 1.13015E-01-2.39897E-04 1.18178E-01-9.33148E-04-3.17697E-03
 -1     26791-9.47639E-02 9.41880E-02 5.96322E-04 1.55329E-01 9.51219E-04-2.87112E-04
 -1     26792-1.42043E-01 1.41779E-01 1.97841E-04-9.21547E-02-1.46672E-04 5.43090E-05
 -1     26793-1.30377E-01 1.30172E-01 1.45672E-04-7.54409E-02 1.57766E-06 3.46077E-04
 -1     26794-1.39767E-01 1.39637E-01 6.57261E-05-8.89420E-02 2.37484E-04 2.40837E-06
 -1     26795-1.87898E-01 1.90866E-01-3.09148E-03-3.44935E-02 1.09262E-03-5.35515E-04
 -1     26796 1.15343E-04 2.74437E-05-1.08865E-04 1.21100E-01-5.07865E-05 1.62431E-04
 -1     26797 3.85908E-02-3.85753E-02-6.30844E-06 3.45469E-02 4.05799E-04 7.76821E-04
 -1     26798-8.57521E-02 8.55612E-02 1.79995E-04 3.28190E-02-4.16183E-04 2.50214E-04
 -1     26799-8.48096E-02 8.43407E-02 4.44883E-04 4.01746E-02 4.54897E-04 2.93370E-04
 -1     26800-8.05557E-02 8.05794E-02-2.95850E-05 4.24911E-02 3.55728E-05-1.25483E-04
 -1     26801 3.38862E-02-3.36294E-02-1.76571E-04 2.12000E-01 3.14956E-05-4.24135E-04
 -1     26802 3.09174E-02-3.09646E-02 1.43514E-04 2.24817E-01-1.30202E-04-7.77544E-05
 -1     26803 3.25918E-02-3.23905E-02-1.16036E-04 2.16404E-01-3.22697E-04 2.96498E-05
 -1     26804 2.68744E-02-2.73448E-02 5.66935E-04 2.38357E-01 2.41905E-04 2.24884E-05
 -1     26805 2.93853E-02-2.87717E-02-5.18974E-04 2.27811E-01-1.29396E-04-1.15720E-04
 -1     26806 2.92210E-02-2.88598E-02-2.67978E-04 2.30325E-01-4.22212E-04 5.98794E-05
 -1     26807-1.40564E-01 1.39320E-01 1.13626E-03 2.86691E-03-4.58389E-03-3.44304E-03
 -1     26808-1.71628E-01 1.71695E-01-1.52558E-04-1.27141E-01-3.35101E-05-1.04785E-04
 -1     26809-1.52954E-01 1.52765E-01 1.15489E-04-1.07414E-01 2.04547E-04-5.01509E-05
 -1     26810-1.72201E-01 1.72379E-01-2.63760E-04-1.27451E-01 1.73381E-05-8.61960E-05
 -1     26811 7.95093E-03-7.37712E-03-4.84688E-04 7.58366E-02 7.01801E-04-3.81206E-04
 -1     26812 7.10375E-03-7.05222E-03 7.83525E-06 7.81197E-02 2.97546E-04-3.12677E-04
 -1     26813 2.03572E-02-1.97643E-02-5.33916E-04 8.08618E-02 7.56610E-04-1.05204E-03
 -1     26814 1.37429E-02-1.34371E-02-2.97385E-04 7.33756E-02-2.05164E-04 1.79698E-04
 -1     26815 1.36147E-02-1.34882E-02-1.00912E-04 7.59854E-02-4.94862E-04 3.79430E-04
 -1     26816-1.00464E-01 1.00439E-01-1.25919E-05-3.45765E-02 7.97396E-05 1.12724E-04
 -1     26817-9.17363E-02 9.17156E-02-1.01156E-05-2.28558E-02-1.69030E-04 1.46410E-04
 -1     26818-1.48365E-01 1.48276E-01 1.92418E-05-1.01607E-01-3.78195E-04-1.70389E-04
 -1     26819-1.38010E-01 1.37858E-01 8.66959E-05-8.94368E-02-6.55090E-05-5.15871E-05
 -1     26820-1.49449E-01 1.49155E-01 2.22858E-04-1.03741E-01 8.67870E-05-2.96187E-04
 -1     26821-6.32070E-02 6.31164E-02 8.15540E-05 1.63108E-02 1.75254E-05-3.03809E-04
 -1     26822-7.57104E-02 7.56728E-02 1.59260E-05-3.05794E-03 6.99841E-06 1.74037E-04
 -1     26823 2.96074E-02-2.97495E-02 2.41932E-04 2.26012E-01 4.57540E-04 7.87600E-05
 -1     26824-1.62738E-01 1.62743E-01-8.44240E-05-1.17166E-01-1.99329E-04 1.39118E-04
 -1     26825-2.71077E-01 2.78859E-01-7.85739E-03-1.45546E-01-1.83730E-03-2.72826E-02
 -1     26826-2.81117E-01 2.84014E-01-3.33150E-03-1.22146E-01 1.25997E-02-7.42203E-03
 -1     26827-2.41893E-01 2.39421E-01 2.30031E-03-1.49567E-01-1.34559E-02 3.55923E-03
 -1     26828-2.81066E-01 2.63417E-01 1.77548E-02-1.70112E-01 3.05491E-02-1.04254E-02
 -1     26829-2.25944E-01 2.09231E-01 1.66128E-02-1.68995E-01 6.72455E-03 1.55277E-02
 -1     26830-1.30105E-02 1.30495E-02-5.08253E-06 1.11083E-01-1.36597E-04 1.57135E-05
 -1     26831-2.02127E-02 2.02767E-02-3.43087E-05 9.66150E-02-7.01505E-05-7.72398E-04
 -1     26832-1.68815E-02 1.69549E-02-4.39059E-05 9.90827E-02 1.06896E-04-2.38589E-05
 -1     26833-3.50229E-01 3.64138E-01-1.39547E-02-9.60466E-02-2.93353E-02-3.03564E-02
 -1     26834-2.67150E-01 2.48514E-01 1.87513E-02-1.06302E-01-1.92621E-02 2.96815E-02
 -1     26835-3.70994E-01 3.90983E-01-2.00230E-02-5.42833E-02 1.30571E-02-1.31565E-02
 -1     26836-2.92750E-01 3.21798E-01-2.93896E-02-1.79894E-01 1.11171E-02-3.39979E-02
 -1     26837-2.40626E-01 2.37017E-01 2.97645E-03-1.84728E-01 2.94254E-02 2.39112E-02
 -1     26838-6.84321E-02 7.08659E-02-2.37595E-03 4.48226E-02-9.52642E-03-2.20614E-03
 -1     26839-8.91963E-02 8.69624E-02 2.28134E-03 1.00002E-01 2.33567E-03 5.07780E-04
 -1     26840-6.64128E-02 6.68760E-02-4.24136E-04 1.53034E-01-8.02686E-04 4.68643E-04
 -1     26841-6.69595E-02 6.69919E-02 7.00936E-06 1.44141E-01-2.24836E-04 5.53160E-04
 -1     26842-6.14370E-02 5.97360E-02 1.70856E-03-3.65308E-02-2.61120E-04-4.51140E-03
 -1     26843-5.23196E-02 5.28746E-02-6.05651E-04 2.08968E-02-3.27320E-06 3.44407E-03
 -1     26844-3.42788E-02 3.43005E-02-2.37147E-05 4.43096E-02-1.25859E-04 1.83062E-04
 -1     26845-2.40915E-02 2.40793E-02 9.82245E-06 5.46426E-02-4.13388E-04-2.42129E-04
 -1     26846 7.67656E-03-7.53751E-03-8.92165E-05 1.22680E-01-6.04727E-04 4.59380E-04
 -1     26847 1.87433E-03-2.08699E-03 2.61604E-04 1.24496E-01-6.06732E-04 3.52264E-04
 -1     26848 2.22575E-03-2.32607E-03 1.58927E-04 1.27583E-01-3.97460E-04 4.13419E-04
 -1     26849-1.27266E-01 1.27630E-01-4.30877E-04-8.09461E-02 6.30801E-04-3.61693E-04
 -1     26850-1.39117E-01 1.39715E-01-6.76252E-04-1.00536E-01 7.73513E-04-2.89379E-04
 -1     26851-1.37654E-01 1.37684E-01-1.23086E-04-9.58764E-02 6.35716E-04-4.13903E-04
 -1     26852-1.25558E-01 1.25937E-01-4.27670E-04-7.60044E-02 2.17599E-04-5.21010E-04
 -1     26853-1.32401E-01 1.33055E-01-7.18579E-04-8.88817E-02 8.01790E-05-7.89469E-04
 -1     26854-1.02079E-01 1.02061E-01-2.41978E-05-4.14593E-02 7.85460E-05 1.19220E-04
 -1     26855-1.01477E-01 1.01440E-01 1.87167E-06-3.79961E-02-2.04713E-05 3.49634E-06
 -1     26856-9.25141E-02 9.24760E-02 5.62802E-06-2.61637E-02-1.79370E-05 1.71594E-04
 -1     26857-2.47132E-02 2.47644E-02-2.37052E-05 9.39678E-02 2.38078E-04 1.45807E-05
 -1     26858-2.84177E-02 2.85612E-02-1.19643E-04 9.01754E-02 1.69429E-04 1.52236E-04
 -1     26859-9.08467E-02 9.10681E-02-2.32942E-04 1.72545E-02 8.51207E-04-4.79392E-04
 -1     26860-9.09526E-02 9.10904E-02-1.59911E-04 2.45245E-02-3.16468E-04-1.25039E-05
 -1     26861 2.67906E-02-2.68218E-02 9.01242E-05 1.26078E-01-1.36706E-04-2.52041E-05
 -1     26862 4.12288E-03-4.12856E-03 3.64239E-05 1.11620E-01 5.21407E-05 9.90860E-05
 -1     26863 6.60955E-03-6.55951E-03-9.81248E-06 1.22244E-01 1.02123E-04 2.98556E-07
 -1     26864 1.06522E-02-1.06079E-02-4.04033E-06 1.23727E-01 5.08992E-05 6.56218E-05
 -1     26865 1.03446E-03-9.24433E-04-8.68059E-05 9.96944E-02 5.20890E-05 8.05886E-05
 -1     26866 5.73873E-03-5.76283E-03 5.23912E-05 1.02156E-01-9.26820E-05 2.33273E-04
 -1     26867 8.50399E-03-8.40766E-03-6.17658E-05 1.13391E-01 2.07039E-05 9.81782E-05
 -1     26868 4.47422E-02-4.45722E-02-1.08422E-04 1.45869E-01-2.18277E-04-8.50410E-05
 -1     26869 5.24033E-02-5.25885E-02 2.46634E-04 1.39452E-01-2.92651E-04 3.15660E-04
 -1     26870-1.85399E-01 1.86289E-01-9.73563E-04-6.67062E-02 7.23936E-04 1.68208E-03
 -1     26871-1.74926E-01 1.75777E-01-9.31412E-04-7.93200E-02-1.58400E-03 3.15558E-04
 -1     26872-1.76029E-01 1.76722E-01-7.52137E-04-7.91783E-02-2.92234E-04 9.82046E-04
 -1     26873-1.54028E-01 1.53920E-01 2.40856E-05-4.96205E-02-7.41221E-04-7.38663E-04
 -1     26874 3.40031E-02-3.39159E-02-3.22927E-05 1.32656E-01 3.24999E-04 6.81951E-04
 -1     26875 3.70875E-02-3.73927E-02 3.62482E-04 1.28161E-01 2.28092E-04-5.79148E-04
 -1     26876 2.59323E-02-2.63174E-02 4.39207E-04 1.31211E-01-4.41839E-04 6.34028E-04
 -1     26877 3.41353E-02-3.37511E-02-3.29418E-04 1.27560E-01-4.12519E-04-7.85004E-05
 -1     26878 1.40599E-02-1.41388E-02 1.30907E-04 5.71232E-02-3.60105E-04-1.15581E-03
 -1     26879 1.28032E-02-1.33586E-02 5.74040E-04 6.21439E-02-8.04480E-05 3.68966E-04
 -1     26880 1.25394E-02-1.26637E-02 1.29747E-04 5.44226E-02-5.52456E-04-3.02046E-04
 -1     26881 7.02104E-02-7.00937E-02-6.64495E-05 1.42396E-01 2.31171E-04 3.43339E-04
 -1     26882 1.14368E-02-1.08906E-02-4.70920E-04 2.01570E-01-4.48455E-04 1.34573E-04
 -1     26883-1.83625E-03 1.68763E-03 2.31535E-04 1.95572E-01 8.43892E-04-9.88494E-04
 -1     26884 7.40758E-03-4.97916E-03-2.35460E-03 1.91023E-01 1.67775E-03-4.19016E-04
 -1     26885 9.52088E-03-1.05475E-02 1.10390E-03 2.08620E-01-1.67979E-03-1.03496E-03
 -1     26886 6.31041E-03-5.60329E-03-6.23259E-04 1.99468E-01-6.67935E-04-7.97537E-05
 -1     26887 3.42734E-02-3.42652E-02 3.57332E-05 1.31882E-01 2.49156E-04-2.91375E-04
 -1     26888 6.11910E-02-6.14002E-02 2.50983E-04 7.88761E-02 5.37658E-06 5.28442E-04
 -1     26889-6.21891E-02 6.85244E-02-6.36422E-03-9.20498E-03 3.53138E-03 4.63254E-04
 -1     26890-5.92461E-02 5.70987E-02 2.20153E-03 4.19382E-02 6.74342E-03 5.24653E-03
 -1     26891 1.51489E-02-1.53185E-02 2.22467E-04 1.21723E-01-2.42688E-04 7.39951E-04
 -1     26892 1.52217E-02-1.53571E-02 1.82957E-04 1.22936E-01 1.26497E-04-2.82535E-04
 -1     26893 1.05690E-02-1.03693E-02-1.05405E-04 2.12480E-01 1.74015E-03-1.62382E-03
 -1     26894-1.42778E-01 1.42882E-01-1.60616E-04-9.94003E-02-5.79651E-04-4.90245E-04
 -1     26895 3.96951E-02-3.94376E-02-1.83678E-04 1.89935E-01 1.83626E-05 5.13669E-04
 -1     26896-1.77592E-01 1.77631E-01-1.26894E-04-1.32292E-01-2.26181E-04 1.25732E-05
 -1     26897-1.73384E-01 1.73355E-01-5.70052E-05-1.27740E-01 1.50852E-04-4.02994E-05
 -1     26898-1.68692E-01 1.68475E-01 1.32368E-04-1.23202E-01 2.09213E-05 4.11277E-05
 -1     26899-1.78054E-01 1.77525E-01 4.40644E-04-1.32894E-01 2.72042E-04 1.83593E-04
 -1     26900-1.73809E-01 1.73498E-01 2.24026E-04-1.28518E-01 1.90177E-04 3.70523E-05
 -1     26901 1.81535E-02-1.78411E-02-3.13987E-04 8.69505E-03-5.99978E-04-7.18998E-05
 -1     26902 1.11475E-02-1.07726E-02-3.94440E-04-1.42811E-02-2.21050E-04 1.74744E-04
 -1     26903 1.15407E-02-1.16732E-02 2.13627E-04 2.04553E-01 2.79658E-04 1.51835E-05
 -1     26904-4.54159E-02 4.56568E-02-2.37620E-04 4.56576E-02-4.07284E-05-1.15820E-04
 -1     26905-4.23871E-03 4.19910E-03 2.25441E-05 5.38360E-02-1.23028E-04 6.43301E-05
 -1     26906-2.13182E-02 2.11920E-02 1.07017E-04 4.85150E-02 1.95832E-04-9.11009E-05
 -1     26907-2.93642E-02 2.93280E-02 1.07336E-05 4.87057E-02-2.28125E-04-7.04854E-04
 -1     26908-1.21001E-02 1.20714E-02 2.79901E-05 5.39752E-02 6.36155E-05-8.81797E-05
 -1     26909-3.63428E-02 3.56369E-02 6.53976E-04 1.19041E-02 2.00633E-03 7.53936E-04
 -1     26910-7.61593E-03 8.42059E-03-9.02124E-04-1.22399E-02 4.84960E-04-9.76881E-04
 -1     26911-1.64243E-02 1.65408E-02-1.64695E-04-1.73585E-02 3.26194E-04-8.37269E-05
 -1     26912-5.23374E-02 5.17361E-02 5.81721E-04 2.94733E-02 4.42974E-04 7.61731E-04
 -1     26913-5.11044E-02 5.06925E-02 3.87237E-04 3.35134E-02 4.69285E-05 5.02930E-04
 -1     26914-8.09122E-02 8.02829E-02 5.92332E-04 1.06458E-02-3.16180E-05-9.93876E-05
 -1     26915-1.49006E-01 1.49233E-01-2.96414E-04-1.05950E-01-3.62120E-04-3.54153E-04
 -1     26916-1.41687E-01 1.41835E-01-2.15538E-04-9.26062E-02 2.45878E-04-5.84395E-04
 -1     26917-1.39226E-01 1.39370E-01-2.07454E-04-8.70868E-02 2.24672E-04-1.42481E-04
 -1     26918-1.41811E-01 1.41759E-01-2.08784E-05-9.27700E-02 1.84157E-04-1.76390E-04
 -1     26919-1.43378E-01 1.43911E-01-6.00256E-04-9.90173E-02 1.49502E-04-1.36132E-04
 -1     26920-1.34862E-01 1.35377E-01-5.80397E-04-7.98622E-02 3.44972E-04-4.43599E-04
 -1     26921-1.30930E-01 1.31122E-01-2.53236E-04-7.42031E-02 3.30661E-04-4.91952E-04
 -1     26922-1.28844E-01 1.28794E-01-1.43278E-06-7.36776E-02-1.76286E-04-4.34058E-04
 -1     26923-6.12995E-02 5.99025E-02 1.43473E-03 4.17834E-02 9.87572E-04 1.11785E-03
 -1     26924-6.59756E-02 6.42549E-02 1.67840E-03-4.71261E-03-3.42604E-03 3.56203E-03
 -1     26925-6.40338E-02 6.33382E-02 7.02849E-04 3.18501E-02-8.46705E-04 1.34557E-03
 -1     26926-5.78933E-02 5.79102E-02-4.77281E-05 7.32742E-02 3.30155E-04-1.49314E-04
 -1     26927-1.28078E-01 1.27705E-01 4.13877E-04 1.75924E-02-7.36454E-03-1.12017E-03
 -1     26928-1.11466E-01 1.22261E-01-1.09676E-02 3.81263E-02-9.97503E-03-1.89853E-02
 -1     26929-1.09205E-01 1.03241E-01 5.83958E-03 3.73708E-02 1.09487E-03 4.42928E-03
 -1     26930-9.00203E-02 8.17295E-02 8.05432E-03 1.97045E-02 7.65829E-03 9.09482E-03
 -1     26931-1.01909E-01 1.00778E-01 9.56677E-04 2.15033E-02 2.85021E-03-9.25233E-05
 -1     26932-2.48072E-02 2.48498E-02-9.38334E-06 1.03420E-01-4.42362E-05 1.04229E-04
 -1     26933-1.30484E-01 1.30022E-01 4.02186E-04-8.50456E-02 5.66448E-04-4.17191E-04
 -1     26934-1.28301E-01 1.28234E-01 4.74208E-06-7.97668E-02 3.59894E-04-1.00211E-03
 -1     26935-1.22909E-01 1.22912E-01-4.48790E-05-7.20115E-02 4.84214E-05-3.02698E-04
 -1     26936-9.31893E-02 9.32170E-02-6.09140E-05-2.91283E-02-9.01346E-05 2.23585E-04
 -1     26937-1.16517E-01 1.16000E-01 4.79998E-04-4.43419E-02-1.15294E-04 3.11178E-04
 -1     26938-1.17512E-01 1.17312E-01 1.57518E-04-4.98002E-02-1.74248E-04 5.10359E-04
 -1     26939-1.55300E-01 1.55340E-01-1.16599E-04-1.11168E-01-3.54099E-04-7.03867E-04
 -1     26940-1.52920E-01 1.53228E-01-3.85040E-04-1.08772E-01-3.32918E-04-8.91878E-05
 -1     26941-1.47132E-01 1.46557E-01 5.07425E-04-9.80904E-02-4.47563E-05-6.59121E-04
 -1     26942-1.39190E-01 1.39475E-01-3.49309E-04-8.71014E-02-1.88917E-04-3.05893E-04
 -1     26943-1.44992E-01 1.44896E-01 2.63146E-05-9.60384E-02 2.31372E-04-2.76898E-05
 -1     26944-6.22226E-02 6.32747E-02-1.07877E-03 2.02862E-02-2.99689E-05 2.18257E-05
 -1     26945-3.54003E-02 3.54869E-02-9.66533E-05 4.32941E-02-5.22250E-05-1.20378E-04
 -1     26946-4.08016E-02 4.06642E-02 1.13822E-04 3.83186E-02 2.27908E-04 2.41028E-04
 -1     26947-3.34259E-02 3.33385E-02 9.24813E-05 5.20497E-02 2.24238E-04 1.84342E-04
 -1     26948-1.03896E-01 1.03958E-01-1.09323E-04-1.70305E-02 3.72069E-04 2.46749E-04
 -1     26949-1.03901E-01 1.04180E-01-3.32515E-04-1.92280E-02 2.61219E-04 1.22189E-04
 -1     26950-1.01290E-01 1.00881E-01 3.63088E-04-2.02792E-02 4.76408E-04-1.53402E-04
 -1     26951-1.70461E-02 1.71396E-02-4.54862E-05 1.31005E-01-1.81449E-04 1.52431E-04
 -1     26952-1.31163E-02 1.31651E-02-5.13085E-06 1.32616E-01-2.23228E-05 1.97021E-04
 -1     26953-7.03771E-02 7.03465E-02-1.15042E-05-1.08780E-02-1.93492E-03 1.19067E-03
 -1     26954-1.27520E-01 1.28577E-01-1.13524E-03-7.79611E-02 6.44669E-04-1.44751E-03
 -1     26955-1.39630E-01 1.40436E-01-8.57053E-04-9.80300E-02 3.79212E-04-1.20592E-03
 -1     26956-1.35254E-01 1.35925E-01-7.22961E-04-9.11380E-02 8.86224E-05-5.14929E-04
 -1     26957-5.77732E-02 5.93315E-02-1.58624E-03-4.12092E-03-3.84655E-03-2.35585E-03
 -1     26958-1.04048E-01 1.04511E-01-4.87085E-04-1.54622E-02-4.24784E-04-8.29710E-05
 -1     26959-1.17582E-01 1.17533E-01-2.96298E-06-6.45164E-02 1.96365E-04-1.44764E-04
 -1     26960-1.29685E-01 1.29637E-01-8.61787E-06-8.03843E-02 1.63681E-05 1.33212E-04
 -1     26961-6.05041E-02 6.04904E-02 1.94102E-05 6.85057E-02-9.55474E-05 1.19060E-04
 -1     26962-6.64056E-02 6.64901E-02-7.59531E-05 5.14267E-02-3.51660E-06 1.97292E-04
 -1     26963-7.15706E-02 7.18066E-02-2.39831E-04 4.51131E-02 1.43332E-04 2.34731E-04
 -1     26964 3.03577E-02-3.05142E-02 1.75742E-04 9.63400E-02 5.22761E-05-8.61477E-05
 -1     26965-4.25058E-03 4.54356E-03-2.17156E-04 1.99863E-01-3.41837E-04-1.74166E-05
 -1     26966-7.62599E-03 8.49786E-03-8.01626E-04 1.94615E-01 3.91450E-04 1.46158E-04
 -1     26967-1.51349E-01 1.51120E-01 1.56073E-04-1.01120E-01 2.06843E-04-1.36878E-04
 -1     26968-1.43080E-01 1.42594E-01 4.19867E-04-8.79026E-02 7.55733E-05 6.76134E-05
 -1     26969-1.39915E-01 1.39855E-01-6.98564E-06-8.82070E-02 3.05888E-05-7.08683E-06
 -1     26970 2.12907E-02-2.12956E-02 6.20311E-05 1.32766E-01 6.65375E-04 7.98177E-04
 -1     26971 3.30695E-02-3.19371E-02-1.07108E-03 1.30420E-01 1.81987E-04-1.86884E-04
 -1     26972 1.62616E-02-1.61616E-02-4.56521E-05 1.30410E-01-1.49110E-05 1.05076E-03
 -1     26973 2.86034E-02-2.88183E-02 2.68381E-04 1.30584E-01-1.25797E-04 1.88396E-04
 -1     26974-2.06870E-02 2.07305E-02-1.16074E-05 1.05723E-01 6.04215E-05 1.33350E-04
 -1     26975-1.37825E-01 1.37983E-01-2.25558E-04-8.71260E-02-4.51762E-05 4.04738E-05
 -1     26976-1.40419E-01 1.40497E-01-1.43746E-04-9.32574E-02-1.18134E-04 5.75684E-05
 -1     26977-7.47787E-02 7.48982E-02-9.34464E-05 1.59412E-01-4.92422E-04 1.97384E-04
 -1     26978-8.76343E-02 8.75977E-02 7.61819E-05 1.61340E-01-1.10013E-04 5.99437E-04
 -1     26979-5.84825E-02 5.83806E-02 1.36701E-04 1.41724E-01 1.50793E-03 9.14387E-04
 -1     26980-7.87709E-02 7.94389E-02-6.30050E-04 1.52180E-01-4.23842E-04 6.51296E-04
 -1     26981-1.69339E-01 1.69364E-01-1.09571E-04-1.23151E-01-6.48931E-05-7.61621E-05
 -1     26982-1.70059E-01 1.69632E-01 3.43949E-04-1.23414E-01 1.46705E-05-1.65379E-04
 -1     26983 6.56137E-02-6.55974E-02 4.74789E-05 1.48250E-01 2.98615E-05-7.60278E-05
 -1     26984 6.08635E-02-6.08429E-02 4.68702E-05 1.56444E-01 1.12033E-05-1.30447E-06
 -1     26985 2.01111E-03-2.29318E-03 3.41038E-04 1.18279E-01 6.53558E-04-1.85727E-04
 -1     26986 1.88088E-02-1.75725E-02-1.13171E-03 9.63480E-02-3.88076E-04-2.66878E-04
 -1     26987 1.54636E-02-1.51511E-02-2.65877E-04 9.49755E-02-5.93514E-04-1.30052E-03
 -1     26988 9.18149E-03-8.66973E-03-4.64945E-04 9.78488E-02-2.36033E-04-3.54013E-04
 -1     26989 1.03567E-02-1.03620E-02 1.06780E-04 9.34448E-02-7.23632E-04-3.58834E-04
 -1     26990 1.73227E-02-1.74841E-02 2.14344E-04 1.14222E-01 1.58048E-04 5.02916E-04
 -1     26991 1.83089E-02-1.83374E-02 7.87526E-05 1.16196E-01-4.06647E-04-5.52995E-04
 -1     26992 4.02634E-02-4.00573E-02-1.60211E-04 6.23445E-02-8.41011E-04 3.89905E-04
 -1     26993 1.61500E-02-1.69838E-02 9.01801E-04 1.00370E-01-1.57866E-05-5.52453E-04
 -1     26994 9.04106E-03-8.26957E-03-7.46152E-04 1.05571E-01 7.70694E-04-6.20667E-04
 -1     26995 8.15892E-03-6.79113E-03-1.31146E-03 1.09377E-01 2.94715E-04-3.69367E-04
 -1     26996 1.62663E-02-1.56995E-02-5.09305E-04 1.04566E-01 1.42813E-04-1.51765E-03
 -1     26997 1.86756E-02-1.84522E-02-1.61428E-04 1.10792E-01 3.35900E-04 8.53669E-05
 -1     26998 2.38676E-02-2.39030E-02 8.24196E-05 1.07835E-01 2.41557E-04-3.45004E-04
 -1     26999 1.20099E-02-1.17869E-02-1.77685E-04 1.13431E-01-3.84821E-04-2.96744E-04
 -1     27000-7.17234E-02 7.61289E-02-4.34498E-03 8.71388E-02 1.82747E-03-9.04484E-04
 -1     27001-6.06542E-02 5.77758E-02 2.82107E-03 4.49716E-02 8.20297E-04-2.23336E-03
 -1     27002 1.79662E-02-1.85287E-02 6.01550E-04 1.17085E-01-1.49449E-05 4.37073E-05
 -1     27003-1.31666E-01 1.34383E-01-2.66393E-03 1.31991E-01-7.85328E-04-1.20049E-03
 -1     27004 1.80509E-03-1.43249E-03-3.18169E-04 1.19445E-01 5.13891E-04-1.88406E-04
 -1     27005-3.35655E-02 3.37744E-02-1.65890E-04 1.58375E-01 8.10655E-04 1.34757E-03
 -1     27006-3.27134E-02 3.30950E-02-3.00630E-04 1.68156E-01 1.27781E-03-5.72817E-04
 -1     27007-5.81817E-02 5.87374E-02-5.00723E-04 1.55376E-01 1.03085E-03-4.75537E-05
 -1     27008 1.30462E-02-1.23290E-02-6.73141E-04 1.13542E-01-2.73987E-04-4.22568E-04
 -1     27009 1.02798E-02-1.03921E-02 1.65326E-04 1.13931E-01-1.58237E-05-2.12698E-05
 -1     27010-8.35995E-02 8.36394E-02-3.88821E-05 5.80514E-02 1.61849E-04-5.35246E-05
 -1     27011-8.92296E-02 8.93288E-02-1.02289E-04 3.74325E-02-2.97289E-04-1.32952E-04
 -1     27012 2.63130E-02-2.59942E-02-2.28656E-04 2.28537E-01 7.84715E-05-2.47777E-05
 -1     27013 2.44991E-02-2.48897E-02 4.69137E-04 1.87819E-01-8.96809E-06 1.79812E-04
 -1     27014-4.12554E-02 4.14009E-02-1.05944E-04 1.21572E-01 2.06936E-04-2.14149E-04
 -1     27015-9.82648E-02 9.98290E-02-1.58900E-03-5.04933E-02-1.51833E-04-9.95869E-04
 -1     27016-9.64977E-02 9.69189E-02-4.48718E-04-3.97656E-02-3.70355E-04-3.34013E-04
 -1     27017-1.03789E-01 1.05143E-01-1.40442E-03-5.43252E-02 8.45674E-04-8.68429E-04
 -1     27018-1.03507E-01 1.04207E-01-7.82623E-04-6.26897E-02 1.32999E-03-1.94784E-03
 -1     27019-1.01989E-01 1.01733E-01 2.01850E-04-5.18209E-02 1.27433E-03-9.52898E-04
 -1     27020 1.34139E-02-1.27525E-02-6.09998E-04 1.15545E-01-4.06347E-04 3.98106E-05
 -1     27021 1.49174E-02-1.44517E-02-4.22337E-04 1.16674E-01 1.11259E-04 7.71219E-05
 -1     27022 4.43262E-02-4.43290E-02 7.38111E-05 1.76527E-01-4.14611E-04-3.77026E-05
 -1     27023 5.19008E-02-5.17218E-02-1.09129E-04 1.70935E-01-1.22987E-04 2.62042E-04
 -1     27024 4.88482E-02-4.87125E-02-6.78069E-05 1.66228E-01-1.38022E-04 1.81500E-05
 -1     27025 4.40468E-02-4.38828E-02-9.19193E-05 1.71493E-01 1.04972E-04 2.92272E-04
 -1     27026 4.15578E-02-4.15919E-02 7.71024E-05 1.23393E-01-4.81313E-04 5.76315E-04
 -1     27027-1.06585E-01 1.06799E-01-2.62266E-04-2.58009E-02 1.03307E-03-6.18815E-04
 -1     27028-1.02340E-01 1.02310E-01 2.99354E-06-1.08682E-02-1.13863E-04 2.51837E-04
 -1     27029 6.01264E-02-6.02721E-02 2.05766E-04 1.44697E-01 3.12787E-04-5.18437E-04
 -1     27030 5.60967E-02-5.60299E-02-3.15717E-06 1.61349E-01-3.32666E-04-1.66493E-04
 -1     27031-1.37424E-02 1.33239E-02 5.01280E-04 1.90193E-01 6.96828E-04 7.32392E-04
 -1     27032-5.44878E-03 4.73939E-03 7.92844E-04 1.96124E-01 1.24617E-04-7.65525E-04
 -1     27033-1.67488E-03 1.42241E-03 3.32523E-04 1.99732E-01-1.43372E-04-1.21069E-03
 -1     27034-1.03182E-02 9.13384E-03 1.26306E-03 1.93610E-01 5.76656E-04 5.07846E-04
 -1     27035-1.52231E-03-5.83150E-04 2.17417E-03 2.01114E-01 1.67089E-03-3.23649E-04
 -1     27036 4.32139E-02-4.29390E-02-2.02285E-04 1.82009E-01 1.41609E-04 4.09832E-04
 -1     27037 5.85387E-02-5.88256E-02 3.44785E-04 1.36769E-01-2.05551E-04-9.78648E-05
 -1     27038 4.41900E-02-4.45237E-02 4.01751E-04 1.73755E-01 3.92144E-04 6.09925E-05
 -1     27039 5.71369E-02-5.69877E-02-8.53283E-05 1.66209E-01 2.81523E-04 2.98864E-04
 -1     27040-8.57074E-02 8.55230E-02 1.70778E-04 2.78485E-02-2.61289E-05-1.24216E-04
 -1     27041-1.32980E-01 1.32325E-01 5.98331E-04-8.97052E-02 2.11571E-04 2.17909E-04
 -1     27042-1.41361E-01 1.40658E-01 6.27138E-04-1.02400E-01-6.71103E-04 5.50479E-04
 -1     27043-1.37450E-01 1.37525E-01-1.30580E-04-9.91079E-02-7.27684E-04 4.58373E-04
 -1     27044-1.12945E-01 1.13028E-01-1.28287E-04-4.28692E-02-2.34581E-04-3.85930E-04
 -1     27045-1.13833E-01 1.13893E-01-1.01304E-04-4.63961E-02 2.89969E-05-3.34939E-04
 -1     27046-1.04920E-01 1.04909E-01-3.28947E-05-2.97463E-02 1.03251E-05-1.26079E-04
 -1     27047 7.46059E-02-7.44254E-02-1.34432E-04 1.20731E-01-2.82545E-04 5.88696E-05
 -1     27048 4.49789E-02-4.49558E-02 3.28178E-05 1.27326E-01 4.09860E-05 2.19157E-04
 -1     27049 4.84902E-02-4.86048E-02 1.71132E-04 1.30411E-01-6.11475E-04 3.74476E-04
 -1     27050 2.16490E-04 2.17399E-04-3.86191E-04 1.20758E-01 5.04430E-05 9.83537E-05
 -1     27051-2.07238E-04 2.48482E-04 5.84789E-06 1.20636E-01 4.46330E-04 2.85165E-04
 -1     27052 1.48735E-03-4.77467E-04-9.55871E-04 1.18650E-01 7.65942E-05-6.31127E-04
 -1     27053 1.45636E-03-1.07796E-03-3.29251E-04 1.19664E-01 6.71941E-05-2.49154E-04
 -1     27054 8.26956E-05 3.70104E-04-4.00308E-04 1.20727E-01-1.90740E-04-1.98660E-04
 -1     27055 1.45736E-03-1.06235E-03-3.51069E-04 1.19190E-01-1.41505E-04-4.37951E-04
 -1     27056-1.01330E-01 1.02802E-01-1.51495E-03 4.46258E-03-2.02786E-03 9.00767E-05
 -1     27057-9.35166E-02 9.34496E-02 1.82108E-05 1.94356E-03-4.21531E-05 5.82165E-04
 -1     27058-9.17165E-02 9.21109E-02-4.10815E-04 1.71970E-02 6.77390E-04-1.29961E-03
 -1     27059-9.14655E-02 9.11965E-02 2.51475E-04 2.40133E-02-8.93884E-05 1.46186E-04
 -1     27060-8.63590E-02 8.63468E-02-4.45806E-06 3.16064E-02 2.35273E-04 3.12423E-04
 -1     27061-1.09686E-01 1.09541E-01 9.22558E-05-5.33444E-02-8.59813E-05-2.48193E-04
 -1     27062-1.08409E-01 1.08292E-01 6.96604E-05-5.23715E-02 9.26257E-05-1.68552E-04
 -1     27063-1.11473E-01 1.12077E-01-5.34493E-04 1.54964E-01 6.29938E-04-1.63287E-03
 -1     27064-1.00733E-01 1.02428E-01-1.66368E-03 1.50201E-01-1.24007E-03-1.97861E-03
 -1     27065-9.68638E-02 9.69098E-02-4.67132E-05 1.45714E-01 1.66647E-03-8.17941E-04
 -1     27066-9.67476E-02 9.65950E-02 1.61648E-04 1.53208E-01-8.75261E-04-3.03091E-03
 -1     27067-5.00764E-02 5.00220E-02-1.76700E-06 3.39119E-02-4.94406E-04-8.02444E-04
 -1     27068 2.40960E-02-2.30672E-02-9.29089E-04 7.42062E-02 8.05952E-04 3.24074E-04
 -1     27069 1.33439E-02-1.28063E-02-4.71801E-04 6.74003E-02 9.28891E-04 6.17535E-04
 -1     27070 2.40281E-02-2.43760E-02 4.06357E-04 7.99768E-02 3.03154E-04-7.44563E-04
 -1     27071-6.94964E-03 7.15216E-03-1.11893E-04 1.94970E-01-5.08814E-05 1.64682E-04
 -1     27072-2.54794E-02 2.59252E-02-3.78928E-04 1.77650E-01-1.45317E-03-7.17356E-04
 -1     27073-6.55632E-03 6.66256E-03-2.42171E-05 1.97212E-01 9.15301E-04-8.31748E-05
 -1     27074-2.38240E-02 2.34762E-02 4.09047E-04 1.79193E-01-9.32447E-04 2.92260E-04
 -1     27075-9.86385E-02 9.98178E-02-1.25355E-03 2.55683E-02 2.47955E-03 1.08323E-04
 -1     27076-9.51446E-02 9.49717E-02 1.00630E-04 2.19739E-02 1.07024E-03-1.79931E-03
 -1     27077-2.47876E-02 2.55508E-02-6.94640E-04 1.78148E-01-4.10310E-05-2.16812E-04
 -1     27078 5.95275E-03-5.99234E-03 1.22448E-04 2.15299E-01 6.61039E-04-2.58456E-05
 -1     27079-7.97166E-03 6.94946E-03 1.09688E-03 1.95083E-01-2.42986E-04 8.46046E-05
 -1     27080 7.22848E-02-7.21334E-02-1.12823E-04 1.15394E-01-2.55242E-04 1.86841E-04
 -1     27081 6.19576E-02-6.18305E-02-9.17239E-05 1.12034E-01-2.83185E-05 2.64757E-04
 -1     27082-7.18732E-02 7.28762E-02-1.00356E-03 4.38717E-02 7.61472E-03-1.03259E-02
 -1     27083 5.69843E-02-5.68906E-02-6.32859E-05 1.06455E-01 1.22124E-04 1.86422E-04
 -1     27084 5.71908E-02-5.72819E-02 1.25806E-04 1.13681E-01-3.76806E-05 1.15145E-04
 -1     27085-1.00755E-01 1.00977E-01-2.65292E-04-7.05359E-02 1.13859E-03 7.41124E-04
 -1     27086-8.79560E-02 8.71400E-02 7.98072E-04-4.22568E-02 1.08257E-03-6.92142E-04
 -1     27087-9.94048E-02 9.80210E-02 1.30542E-03-7.23270E-02 1.92502E-03 2.14141E-03
 -1     27088-9.40506E-02 9.31543E-02 8.09280E-04-5.68588E-02 1.03500E-03-5.83946E-04
 -1     27089-8.87264E-02 8.55710E-02 3.11701E-03-4.12494E-02 6.13252E-04 1.93828E-03
 -1     27090-6.97259E-02 7.05411E-02-7.83449E-04 2.14236E-02-2.25724E-04-7.30762E-04
 -1     27091-7.36125E-02 7.39629E-02-4.06452E-04-1.86496E-02-6.11742E-04 1.75569E-04
 -1     27092-6.80303E-02 6.79766E-02 1.96661E-05 4.33048E-02 8.01645E-04-4.79236E-04
 -1     27093-7.32576E-02 7.27471E-02 4.87645E-04 1.05191E-02 3.82670E-04 1.32700E-03
 -1     27094 6.09593E-02-6.07327E-02-1.95307E-04 1.04895E-01-5.82416E-05 2.21136E-04
 -1     27095 3.56033E-02-3.70500E-02 1.42968E-03 6.82054E-02-1.21401E-04-1.05542E-03
 -1     27096 3.95138E-02-3.87569E-02-7.01295E-04 6.59606E-02 2.92832E-04 7.92387E-04
 -1     27097 4.82966E-02-4.85233E-02 2.71272E-04 7.13602E-02 2.12872E-04 2.89179E-04
 -1     27098 3.60269E-02-3.66171E-02 6.50659E-04 7.35724E-02 2.80658E-04-1.35269E-04
 -1     27099 8.14117E-03-8.05055E-03-1.18664E-05 2.01924E-01 7.58346E-05-1.93654E-04
 -1     27100 5.02226E-03-5.05238E-03 9.96250E-05 1.86681E-01 1.36022E-04 1.35505E-04
 -1     27101 1.98094E-03-2.03992E-03 1.26306E-04 1.84907E-01 2.57588E-04 3.28611E-04
 -1     27102-1.72368E-01 1.72411E-01-1.28859E-04-1.27601E-01 1.40319E-04-4.57535E-05
 -1     27103 2.13026E-02-2.10885E-02-1.23174E-04 2.17795E-01-2.86681E-04 1.84430E-04
 -1     27104 2.26385E-02-2.28118E-02 2.56431E-04 2.19036E-01 1.67606E-05-2.43864E-04
 -1     27105-1.18363E-02 1.02457E-02 1.39382E-03-8.98334E-03 3.44096E-03-1.68326E-03
 -1     27106-1.06797E-02 9.31017E-03 1.56013E-03-2.57239E-02 9.76290E-04 4.42598E-04
 -1     27107-1.05908E-02 1.09103E-02-4.49044E-04-2.10149E-02-1.31486E-04-1.96663E-03
 -1     27108 4.35790E-03-4.95652E-03 6.21367E-04-1.45990E-02-2.47256E-04 2.64111E-04
 -1     27109 8.04620E-03-8.76619E-03 7.57816E-04-5.46745E-03 4.50026E-04 1.28230E-03
 -1     27110-8.65739E-02 8.66964E-02-1.36503E-04 2.72546E-02 3.18607E-04 1.12047E-04
 -1     27111-7.95698E-02 7.95841E-02-2.12672E-05 3.98308E-02 1.92537E-04 2.86415E-04
 -1     27112-7.25135E-02 6.95954E-02 3.40324E-03 3.53761E-02 7.78351E-04 7.28535E-03
 -1     27113-1.29258E-01 1.22138E-01 6.93924E-03 5.01288E-02 3.30069E-03-2.66805E-03
 -1     27114-7.51814E-02 6.84034E-02 6.72126E-03 4.59156E-02 7.00132E-03-5.92085E-03
 -1     27115-2.90361E-02 3.12499E-02-2.18345E-03 2.67367E-02 3.37156E-03 6.86982E-05
 -1     27116-4.27694E-02 4.87203E-02-5.73553E-03 5.78825E-02 1.52367E-03-8.89962E-04
 -1     27117-6.45558E-02 6.44562E-02 1.07115E-04 4.84409E-02-7.07569E-05-7.08749E-05
 -1     27118-8.99578E-02 8.95526E-02 4.01691E-04-5.62999E-02 5.67528E-04 2.40111E-04
 -1     27119-8.38790E-02 8.38302E-02 3.18305E-05-3.96068E-02-1.79797E-03 1.04839E-03
 -1     27120-8.51508E-02 8.77723E-02-2.61388E-03 8.54859E-02-9.07997E-04 5.03911E-03
 -1     27121-6.18501E-02 5.51550E-02 6.71709E-03 4.35677E-02 8.78749E-03-5.66382E-03
 -1     27122-1.01461E-01 9.97097E-02 1.82355E-03 1.07064E-01 9.22705E-04-3.56640E-03
 -1     27123-1.08749E-01 9.67055E-02 1.21769E-02 9.92911E-02 1.14595E-02-9.55556E-03
 -1     27124-8.41404E-02 8.34636E-02 6.75599E-04 1.20991E-01-1.85637E-03 1.46665E-03
 -1     27125-7.69462E-02 7.80634E-02-1.03700E-03 1.04553E-01-3.43597E-03-3.55477E-03
 -1     27126 4.33190E-03-4.02232E-03-3.23015E-04-3.14768E-02 4.23598E-07 7.47427E-04
 -1     27127 7.81388E-03-7.29273E-03-5.46399E-04-2.42088E-02-6.60106E-05 5.98671E-04
 -1     27128 2.53998E-03-2.58903E-03 1.59383E-05-3.67155E-02 9.66579E-06 4.53174E-04
 -1     27129 6.23260E-03-5.54625E-03-6.74014E-04-2.63436E-02-3.72376E-05 1.40385E-04
 -1     27130 9.97703E-03-9.08976E-03-8.63733E-04-1.98443E-02-4.23523E-06 1.02703E-05
 -1     27131 7.37502E-04-1.59846E-03 7.79997E-04-3.49009E-02 7.05604E-04 5.47874E-04
 -1     27132 1.91467E-02-1.90343E-02-2.30603E-05 2.17884E-01-8.10952E-05 2.01334E-05
 -1     27133 2.02394E-02-2.02040E-02 4.63472E-05 2.03423E-01 1.89221E-04-4.23852E-04
 -1     27134-3.29226E-02 3.29149E-02 4.33551E-05 9.89136E-02 4.19403E-05 1.20304E-04
 -1     27135 5.31765E-03-4.89807E-03-4.41458E-04-3.21464E-02-9.96043E-04 2.96644E-04
 -1     27136 6.15996E-03-5.53885E-03-6.37639E-04-2.75575E-02-9.76888E-04-1.36097E-04
 -1     27137 5.25721E-03-4.99211E-03-2.69593E-04-2.33408E-02-1.32388E-03 5.77035E-04
 -1     27138-1.19001E-01 1.19685E-01-5.45948E-04 1.46724E-01-8.41831E-04-1.80941E-03
 -1     27139-1.14910E-01 1.15289E-01-3.65433E-04 1.50818E-01-2.35253E-03 3.68916E-04
 -1     27140-6.77188E-02 6.77829E-02-4.61931E-06 1.61929E-01 5.36643E-04 2.22649E-03
 -1     27141-1.17999E-01 1.10998E-01 7.06239E-03 1.18076E-01-2.43574E-03 2.84740E-03
 -1     27142-1.10370E-01 1.10651E-01-3.14556E-04-4.04649E-02 1.03111E-03 1.17816E-04
 -1     27143-1.02274E-01 1.02026E-01 2.14399E-04-1.72691E-02 2.03784E-03 3.51307E-04
 -1     27144 7.59783E-02-7.61236E-02 1.91612E-04 1.17604E-01-4.14604E-04 1.50749E-05
 -1     27145-1.41690E-01 1.41693E-01-6.81867E-05-9.15425E-02 1.52723E-04-3.50674E-04
 -1     27146-1.40191E-01 1.40039E-01 8.85087E-05-8.96532E-02-9.54078E-06-4.02917E-05
 -1     27147-1.42676E-01 1.42803E-01-1.90271E-04-9.77076E-02 9.85269E-05-2.21260E-04
 -1     27148-1.46233E-01 1.46066E-01 1.05041E-04-1.03312E-01-2.50814E-04-2.34704E-04
 -1     27149-1.39423E-01 1.39934E-01-5.70900E-04-9.21029E-02 2.20353E-04-2.17148E-06
 -1     27150-1.36891E-01 1.37359E-01-5.38034E-04-8.80121E-02 2.90426E-04-6.27292E-04
 -1     27151-1.39786E-01 1.39977E-01-2.67553E-04-9.36244E-02 2.53315E-04-8.03162E-04
 -1     27152-1.44018E-01 1.43807E-01 1.46238E-04-9.50140E-02-3.95110E-04-6.05733E-04
 -1     27153-1.54246E-01 1.53830E-01 3.42463E-04-1.06797E-01-2.46119E-05-2.43168E-04
 -1     27154-1.52882E-01 1.52867E-01-5.80695E-05-1.05502E-01-6.54792E-05 4.39434E-05
 -1     27155-1.52659E-01 1.52181E-01 4.03687E-04-1.04594E-01-2.33743E-04-2.70463E-05
 -1     27156-1.01884E-01 1.04009E-01-2.07141E-03 1.55232E-01-1.42153E-03-8.83289E-04
 -1     27157-9.82298E-02 9.92482E-02-9.77496E-04 1.59754E-01-1.28816E-03 1.91041E-04
 -1     27158-1.25950E-01 1.22969E-01 3.02130E-03 1.44541E-01-9.98714E-04-2.57547E-03
 -1     27159-8.89259E-02 8.88854E-02 6.66486E-05 1.45661E-01-1.62548E-04-3.43800E-05
 -1     27160-8.64458E-02 8.17832E-02 4.68553E-03 1.11264E-01-2.79830E-03-1.88383E-03
 -1     27161-1.03232E-01 1.02434E-01 8.35841E-04 1.34059E-01-2.64795E-03 8.96991E-04
 -1     27162-1.11385E-01 1.10350E-01 1.12850E-03 1.30510E-01 2.06947E-03 3.57267E-03
 -1     27163-8.44048E-02 8.16174E-02 2.76509E-03 1.03404E-01 1.75830E-03 1.31660E-03
 -1     27164-1.01964E-01 1.03729E-01-1.76382E-03 1.27416E-01-4.50323E-04 3.89488E-03
 -1     27165-9.21238E-02 9.08750E-02 1.25571E-03 1.34593E-01 6.78259E-05 5.79423E-04
 -1     27166-8.77376E-02 9.06335E-02-2.87956E-03 1.32546E-01 2.15742E-04 1.07216E-03
 -1     27167-1.00704E-01 9.94623E-02 1.33205E-03 1.41334E-01 5.71200E-04-7.20766E-05
 -1     27168-1.11619E-01 1.11591E-01-1.92056E-05-5.34714E-02-1.00096E-04-7.50147E-06
 -1     27169-1.22298E-01 1.22257E-01-1.50208E-05-6.76234E-02-2.23642E-04 4.91058E-05
 -1     27170-1.77129E-01 1.77137E-01-8.56780E-05-1.19174E-01 7.02346E-05 2.53731E-04
 -1     27171-1.10472E-01 1.10436E-01 1.70675E-05 3.79786E-02 7.41761E-03 2.14710E-03
 -1     27172 1.68779E-02-1.73805E-02 5.60687E-04-9.75159E-03 5.68688E-04-4.62429E-04
 -1     27173 2.07876E-02-2.13501E-02 5.43828E-04 4.23177E-03-1.73554E-04 4.13786E-05
 -1     27174 1.26766E-02-1.13957E-02-1.26992E-03-1.44018E-02-4.01115E-04-1.14162E-04
 -1     27175 2.22729E-02-2.23428E-02 1.70330E-04 2.51705E-01-1.50547E-04 1.12011E-04
 -1     27176 2.09259E-02-2.12923E-02 4.63022E-04 2.41480E-01-1.07174E-04 2.56295E-04
 -1     27177 2.12136E-02-2.12466E-02 1.31570E-04 2.43290E-01 3.15145E-05-2.27713E-04
 -1     27178 2.04307E-02-2.03774E-02 4.19793E-05 2.43121E-01-3.30635E-04-1.99739E-04
 -1     27179 1.93716E-02-1.97090E-02 4.32180E-04 2.33766E-01-2.42604E-05 1.03807E-04
 -1     27180-9.85630E-02 9.77020E-02 9.06620E-04 1.47854E-01-1.75033E-04 9.24901E-04
 -1     27181-8.05159E-02 8.06107E-02-5.73348E-05 1.31234E-01-2.14210E-04 6.93260E-04
 -1     27182-8.81854E-02 8.84570E-02-2.54586E-04 1.43340E-01-2.11815E-03 1.79140E-03
 -1     27183-8.20011E-02 8.19453E-02 5.80375E-05 1.33135E-01-1.30672E-03-2.45967E-04
 -1     27184-8.07490E-02 8.04297E-02 3.52510E-04 1.23692E-01 7.14050E-04-6.69664E-04
 -1     27185-2.04833E-02 2.05235E-02 6.95850E-07 1.28346E-01 2.96197E-05-7.12686E-05
 -1     27186-1.59779E-02 1.60890E-02-6.15756E-05 1.43625E-01 2.51885E-04-1.15837E-05
 -1     27187-1.30631E-02 1.31023E-02 1.48373E-05 1.44916E-01 6.88794E-06-2.23250E-04
 -1     27188-1.44641E-01 1.44589E-01-1.43893E-05-6.07586E-02 4.10839E-04-3.12940E-04
 -1     27189-9.52423E-02 9.49069E-02 3.14308E-04 5.11685E-03 3.14505E-05 7.19330E-04
 -1     27190-9.64819E-02 9.66805E-02-2.40123E-04-8.22578E-03 5.80193E-04-7.67900E-04
 -1     27191-8.99691E-02 8.99353E-02 1.18794E-05 3.52353E-03-5.01247E-04-5.76844E-04
 -1     27192-8.87971E-02 8.83843E-02 3.76817E-04 1.55033E-02-6.19871E-04-1.31130E-04
 -1     27193-1.32452E-02 1.32616E-02 2.56609E-05 1.21651E-01-2.97867E-05-3.21597E-04
 -1     27194-9.62805E-03 9.60591E-03 6.43769E-05 1.24384E-01-2.92181E-05 1.63819E-04
 -1     27195-1.41169E-01 1.39085E-01 9.95386E-04 7.62899E-02 7.62839E-03-5.72089E-03
 -1     27196-1.80923E-01 1.75502E-01 6.15573E-03 6.26473E-02 2.83020E-03-1.03888E-02
 -1     27197-8.12605E-02 7.81296E-02 2.95969E-03 6.84335E-02 1.11089E-02-7.66616E-03
 -1     27198-3.64274E-02 3.60972E-02 3.38891E-04 5.89037E-02-1.27103E-05-1.20358E-04
 -1     27199 3.09718E-02-3.01551E-02-8.16499E-04 1.98430E-02-1.84648E-04 1.06086E-04
 -1     27200 2.73190E-02-2.75993E-02 3.07990E-04 1.56024E-02 2.47164E-04-2.27665E-04
 -1     27201 2.20677E-02-2.08101E-02-1.21682E-03 6.02969E-03 1.32637E-03-2.74549E-04
 -1     27202 4.55471E-03-4.39176E-03-1.10822E-04 1.16562E-01-9.09981E-05-1.71733E-04
 -1     27203 3.04012E-03-2.47245E-03-4.66873E-04-3.40086E-02 8.11593E-05 2.62270E-04
 -1     27204 2.25929E-03-2.04206E-03-3.32415E-04-3.82996E-02-1.83590E-04-2.33493E-04
 -1     27205-6.07033E-02 6.06770E-02 4.34920E-05 7.65364E-02 3.38090E-05 1.03974E-04
 -1     27206-5.19226E-02 5.19524E-02-3.28926E-06 9.49045E-02-4.98455E-06 1.09582E-04
 -1     27207 6.47328E-03-6.86267E-03 4.78799E-04 2.19143E-01-6.80621E-04-6.87264E-04
 -1     27208 3.32767E-03-3.14302E-03-1.00382E-04 2.15578E-01-9.35406E-05-7.95221E-04
 -1     27209 1.19708E-03-9.35971E-04-1.82316E-04 2.08883E-01-7.62241E-05 3.38676E-04
 -1     27210 4.92794E-02-4.95730E-02 3.26508E-04 5.03824E-02 6.72928E-04 1.22070E-04
 -1     27211 5.33783E-02-5.38783E-02 5.22241E-04 5.38418E-02-6.27811E-04 3.18200E-04
 -1     27212-1.02815E-01 1.07451E-01-4.59704E-03 2.76820E-02-2.90968E-03 1.71748E-03
 -1     27213-4.45617E-02 5.03046E-02-6.04372E-03 3.59833E-02-3.35537E-03-5.57445E-03
 -1     27214-6.93087E-02 7.21597E-02-2.84921E-03 9.12264E-02 9.34298E-04-4.60752E-03
 -1     27215-6.06556E-02 5.97247E-02 9.19499E-04 7.69446E-02 3.80966E-03-3.44473E-03
 -1     27216 2.63570E-03-3.73308E-03 1.05377E-03-2.41711E-02 1.01419E-03 1.86191E-03
 -1     27217-1.24559E-03 2.42992E-05 1.06236E-03 4.01020E-04 1.26826E-03-1.07345E-03
 -1     27218 3.63714E-02-3.64558E-02 7.25871E-05 3.88333E-02-2.56601E-04-6.76695E-04
 -1     27219-9.59540E-03 9.69838E-03-5.26536E-05 1.47641E-01 6.48551E-05 1.80116E-05
 -1     27220 1.43690E-02-1.44007E-02 1.19269E-04 2.21752E-01-3.23439E-04-3.72559E-04
 -1     27221-5.34662E-02 5.33012E-02 1.63277E-04 3.40083E-02 5.92300E-05 2.09348E-04
 -1     27222 3.14869E-03-3.10776E-03 7.41413E-06 1.20198E-01 1.70953E-04-7.58940E-05
 -1     27223-3.91914E-02 3.91165E-02 8.62830E-05 5.05538E-02-1.01173E-04 3.56018E-05
 -1     27224-3.84979E-02 3.83372E-02 1.72493E-04 5.09704E-02-4.44116E-05-7.69147E-05
 -1     27225-4.15996E-02 4.16419E-02-3.92511E-05 4.26092E-02 3.45242E-05-3.22508E-04
 -1     27226 1.42343E-02-1.42712E-02 9.80336E-05 1.13123E-01 2.06351E-04 5.88842E-04
 -1     27227 1.40427E-02-1.45458E-02 5.53728E-04 1.14383E-01 2.23533E-04 7.32659E-04
 -1     27228 1.55085E-02-1.55833E-02 1.22277E-04 1.14225E-01-5.79744E-04-3.43671E-04
 -1     27229 1.61031E-02-1.62855E-02 2.17527E-04 1.14707E-01-1.14735E-04 3.97027E-04
 -1     27230 5.03477E-03-4.55112E-03-4.55115E-04-1.99818E-02-2.64918E-06 8.59860E-04
 -1     27231 2.65747E-03-9.97888E-04-1.70669E-03 3.96456E-03-1.55788E-04-1.37078E-03
 -1     27232-9.26711E-02 9.34627E-02-7.53590E-04 1.55806E-01 2.42515E-04-5.97857E-04
 -1     27233-8.06982E-02 8.08180E-02-1.10967E-04 5.88097E-02 1.35636E-04-4.98427E-04
 -1     27234-8.17269E-02 8.18838E-02-1.70683E-04 4.87655E-02-6.02635E-04 2.85561E-04
 -1     27235-5.09044E-02 5.09852E-02-7.96275E-05 5.39995E-02 2.83450E-04-2.76993E-05
 -1     27236 6.16512E-03-6.34308E-03 2.57035E-04 2.12639E-01-5.23859E-05-9.45313E-05
 -1     27237 1.01432E-03-1.36591E-03 4.27640E-04 1.95896E-01-1.94931E-04-2.86535E-05
 -1     27238-3.00231E-03 3.07306E-03 3.82981E-06 1.89126E-01-1.16587E-05-3.27535E-04
 -1     27239 5.88356E-03-5.36206E-03-4.41053E-04 2.12086E-01 2.43074E-04 2.66796E-04
 -1     27240 2.07071E-02-2.02731E-02-3.40032E-04 2.34061E-01-6.64540E-05 1.84080E-04
 -1     27241 2.31179E-02-2.32521E-02 2.38415E-04 2.62979E-01-1.95516E-04 4.38377E-04
 -1     27242 2.48347E-02-2.47435E-02 2.72700E-06 2.40608E-01-2.38477E-04-2.41444E-04
 -1     27243 2.30868E-02-2.30056E-02 2.81754E-05 2.63258E-01-1.86866E-04 3.20737E-04
 -1     27244 2.48874E-02-2.46092E-02-1.80601E-04 2.45879E-01 2.45062E-04-1.00534E-04
 -1     27245 5.80723E-02-5.81505E-02 9.44765E-05 6.66233E-02 7.35791E-05 1.85439E-04
 -1     27246 5.80946E-02-5.81388E-02 7.19392E-05 7.16628E-02-1.69225E-04-3.61664E-06
 -1     27247 5.64064E-02-5.64394E-02 4.67353E-05 7.65837E-02-3.56128E-05 8.95406E-05
 -1     27248 5.38276E-02-5.38443E-02 4.04445E-05 8.07071E-02 3.65545E-05-2.74977E-05
 -1     27249-7.66404E-02 7.57757E-02 8.02999E-04-3.28286E-02 2.00838E-03-6.58422E-04
 -1     27250-8.37761E-02 8.12441E-02 2.53548E-03-5.03749E-02 1.50816E-03 3.76211E-04
 -1     27251 3.88921E-03-3.85385E-03 3.64551E-05-3.29150E-02 5.55033E-05 2.19821E-04
 -1     27252 1.73045E-03-1.62720E-03-5.33839E-05 1.18108E-01 1.64239E-04-5.74904E-04
 -1     27253-1.20723E-02 1.53950E-02-2.99372E-03-1.40023E-03-2.86495E-03-2.97958E-03
 -1     27254-2.08773E-01 2.01362E-01 7.23405E-03-1.07223E-01 7.20776E-03 2.64128E-03
 -1     27255-1.97531E-01 2.02307E-01-4.85812E-03-1.27012E-01-6.03638E-04-1.52008E-03
 -1     27256-1.92231E-01 2.03342E-01-1.12396E-02-1.32513E-01-2.95188E-03 5.70751E-04
 -1     27257 4.62448E-03-4.45582E-03-2.58576E-04-1.42797E-02 1.55943E-04-2.16963E-03
 -1     27258-9.77831E-02 9.70926E-02 6.16727E-04 1.96688E-02 8.10152E-04 9.17110E-04
 -1     27259-3.23159E-01 3.34200E-01-1.09994E-02 9.87822E-02 2.03706E-02-1.27750E-02
 -1     27260-2.53852E-01 2.51152E-01 2.16181E-03 1.17419E-01 8.53902E-03-2.10521E-04
 -1     27261 1.03924E-02-1.04689E-02 1.31123E-04 1.46398E-01 1.31107E-04-4.19567E-04
 -1     27262-2.40457E-01 2.77717E-01-3.71109E-02-1.18081E-01 1.27976E-02 8.25817E-03
 -1     27263-2.95858E-01 3.10361E-01-1.42126E-02 1.40425E-01 1.56872E-04 6.60952E-03
 -1     27264-1.19159E-01 1.19328E-01-2.25686E-04-6.69154E-02 4.48547E-05 1.66519E-05
 -1     27265-1.28448E-01 1.28573E-01-1.84894E-04-7.85940E-02 1.74691E-05-2.27304E-05
 -1     27266-1.66513E-01 1.66297E-01 1.32930E-04-1.23053E-01 2.14647E-04-7.10265E-04
 -1     27267-1.67581E-01 1.67363E-01 1.32076E-04-1.23717E-01-1.25062E-04 3.45462E-05
 -1     27268-1.65955E-01 1.66180E-01-3.10522E-04-1.21927E-01 5.02678E-04-1.12425E-04
 -1     27269 1.04994E-04-1.22528E-03 1.12251E-03-3.73486E-02 3.98247E-04 3.42682E-04
 -1     27270-1.39104E-01 1.39003E-01 3.55553E-05-9.22728E-02-1.45027E-04 1.05440E-04
 -1     27271-1.28239E-01 1.28060E-01 1.19210E-04-7.82562E-02-1.56296E-04 1.24283E-04
 -1     27272 3.25795E-02-3.23036E-02-2.18851E-04 1.15106E-01-5.12873E-04-7.32600E-04
 -1     27273 3.82855E-02-3.82006E-02-2.93462E-05 1.13149E-01-3.11108E-04 3.58574E-04
 -1     27274-1.70963E-01 1.70978E-01-9.95775E-05-1.22790E-01-4.30132E-06-1.05810E-04
 -1     27275-1.68682E-01 1.68892E-01-2.93930E-04-1.22542E-01-2.06997E-04 2.09424E-04
 -1     27276-1.79311E-01 1.78631E-01 5.88897E-04-1.33440E-01 1.09244E-04 2.23150E-04
 -1     27277 5.26281E-03-5.20721E-03-4.29886E-06 1.19295E-01-1.81589E-04-1.51474E-04
 -1     27278 6.50958E-03-6.99381E-03 5.27735E-04 1.21348E-01-2.50229E-04-6.55727E-04
 -1     27279 2.62181E-02-2.48043E-02-1.35368E-03 6.79608E-02 8.32459E-04-4.67066E-04
 -1     27280 1.82565E-02-1.79491E-02-2.07240E-04 2.45805E-01-5.46753E-04-7.33862E-04
 -1     27281-4.63086E-02 4.60252E-02 3.25583E-04 1.41286E-01 1.83331E-04 5.77034E-05
 -1     27282 1.48195E-02-1.45605E-02-1.65335E-04 2.36738E-01-2.12457E-04-1.51368E-04
 -1     27283 5.51667E-03-5.44774E-03 1.12845E-05 2.12685E-01 1.06367E-04-1.15545E-04
 -1     27284 1.02161E-02-9.92485E-03-2.04843E-04 2.19293E-01-2.95346E-04-4.00416E-04
 -1     27285 4.71030E-02-4.70387E-02-5.62000E-06 1.03002E-01 2.25004E-04 1.14683E-04
 -1     27286 6.64007E-02-6.63392E-02-4.22940E-06 1.44789E-01-1.58439E-05-2.14349E-04
 -1     27287 1.07252E-02-1.08463E-02 1.45345E-04 2.50478E-02 3.63678E-05 4.10351E-04
 -1     27288-1.68879E-01 1.68791E-01 3.90320E-06-1.22556E-01-4.85794E-05 8.59188E-05
 -1     27289 2.86912E-02-2.80250E-02-6.45607E-04 1.63210E-02-7.62597E-04-5.21582E-04
 -1     27290 2.58151E-02-2.57839E-02 4.22947E-05 1.65577E-01 4.91106E-04-1.20234E-04
 -1     27291 2.65641E-02-2.68476E-02 3.50820E-04 1.67768E-01 2.71474E-04 1.62178E-04
 -1     27292 2.84472E-02-2.76280E-02-7.50442E-04 1.58622E-01 2.59271E-04-2.00147E-04
 -1     27293 2.79835E-02-2.83045E-02 3.92203E-04 1.61551E-01-6.66673E-05 1.09767E-04
 -1     27294 3.28172E-02-3.22596E-02-4.62859E-04 2.18891E-01 7.70563E-05 2.20194E-04
 -1     27295 4.38537E-03-5.19148E-03 7.45668E-04-3.14211E-02-6.64789E-04 7.50249E-04
 -1     27296-1.55075E-01 1.55054E-01-5.29508E-05-1.07768E-01-9.34023E-05 1.68889E-04
 -1     27297-1.40481E-01 1.40202E-01 2.12130E-04-9.11736E-02-2.55876E-05-1.39593E-04
 -1     27298-1.55050E-01 1.54674E-01 3.00952E-04-1.07726E-01 4.33716E-04-1.83651E-04
 -1     27299 2.00658E-02-1.94013E-02-6.08907E-04 1.62485E-02 9.02117E-04 3.72878E-04
 -1     27300 2.39224E-02-2.35741E-02-3.42727E-04 2.44634E-02 5.42861E-04-2.35694E-04
 -1     27301 8.32481E-03-7.98321E-03-2.89371E-04 2.80773E-03 8.59746E-04 6.98762E-04
 -1     27302-9.31812E-02 9.31075E-02 3.93015E-05 1.91973E-02 4.02225E-04 3.89833E-05
 -1     27303-9.56871E-02 9.57026E-02-2.43345E-05 1.11172E-02 1.31727E-04 3.19051E-04
 -1     27304-9.77952E-02 9.72726E-02 5.00424E-04-5.11196E-03-8.19476E-04 4.80682E-04
 -1     27305 2.66606E-02-2.69544E-02 3.56377E-04 1.47048E-01-1.89963E-04-3.16297E-04
 -1     27306 4.02734E-02-4.00799E-02-1.34084E-04 1.47697E-01-1.03102E-04-3.09731E-04
 -1     27307 2.17462E-02-2.22932E-02 6.13433E-04 1.54487E-01-1.15377E-05-1.09585E-05
 -1     27308 2.59200E-02-2.61600E-02 3.33945E-04 2.35682E-01 5.52813E-05 1.80119E-04
 -1     27309 2.69363E-02-2.68051E-02-3.59016E-05 2.31867E-01 2.92348E-04-4.64056E-04
 -1     27310 5.62017E-03-5.60801E-03 3.97224E-05 1.56542E-01-3.35496E-05-3.23770E-05
 -1     27311 3.86474E-03-3.81701E-03 9.88883E-06 1.42994E-01-1.74638E-04 1.23814E-04
 -1     27312 5.40853E-03-5.70201E-03 2.87306E-04-2.74149E-02-3.16064E-04-2.91986E-04
 -1     27313 8.63562E-03-9.47312E-03 8.54902E-04-2.39841E-03-4.11448E-04-1.14236E-03
 -1     27314 1.77467E-02-1.65617E-02-1.12486E-03 4.68827E-03 8.75838E-04 4.26543E-04
 -1     27315 8.80320E-03-9.42252E-03 6.58066E-04 3.06642E-04-5.37559E-04-1.20328E-03
 -1     27316 8.72968E-03-7.90921E-03-8.49991E-04-7.69243E-03 6.49272E-04 1.33829E-03
 -1     27317 3.83643E-02-3.82093E-02-9.04678E-05 1.78303E-01-1.46337E-04-4.91313E-04
 -1     27318 3.77874E-02-3.75997E-02-1.27625E-04 1.62462E-01-3.66816E-05 4.38854E-05
 -1     27319 4.07789E-02-4.05146E-02-2.07967E-04 1.61955E-01-7.34806E-05 2.44767E-04
 -1     27320-8.02609E-02 8.12819E-02-1.11601E-03-4.77500E-02 8.43226E-04-5.65842E-04
 -1     27321 2.41623E-02-2.38508E-02-2.88841E-04 9.74845E-02-7.01339E-05 3.23692E-04
 -1     27322 3.87679E-02-3.87110E-02-2.57634E-05 1.10650E-01-2.09601E-04-8.25842E-05
 -1     27323-1.38145E-01 1.38429E-01-3.51895E-04-8.60050E-02 2.36477E-04-1.51606E-04
 -1     27324-1.46945E-01 1.47143E-01-2.70358E-04-1.05046E-01 2.28354E-04 2.69929E-04
 -1     27325-1.54358E-01 1.54341E-01-5.83015E-05-1.07089E-01 1.09114E-04-1.56059E-04
 -1     27326-1.20241E-01 1.20117E-01 7.68032E-05-5.88508E-02 5.21571E-05 1.43461E-04
 -1     27327-1.30136E-01 1.29588E-01 4.84632E-04-7.24499E-02 1.15528E-04-1.56872E-04
 -1     27328 1.02356E-02-9.62085E-03-5.68718E-04 1.10825E-01 1.01393E-04 1.22357E-04
 -1     27329 9.89024E-03-1.01741E-02 3.28364E-04 1.10702E-01 4.81280E-04 5.77284E-04
 -1     27330 5.34421E-02-5.33479E-02-6.33145E-05 1.08389E-01-3.67650E-05-4.15248E-04
 -1     27331 1.44190E-02-1.43678E-02-3.93155E-05 8.14416E-02-1.67513E-04 2.18665E-04
 -1     27332 2.48074E-02-2.47120E-02-7.37016E-05 8.89007E-02-6.48345E-05 3.83465E-04
 -1     27333 2.00597E-02-2.00677E-02 2.71201E-05 8.74924E-02-3.49788E-04 6.70844E-05
 -1     27334 1.42591E-02-1.37752E-02-4.78129E-04 8.68093E-02-1.28596E-04 1.23054E-04
 -1     27335 4.83612E-02-4.81794E-02-1.34684E-04 6.55409E-02-1.17817E-03-5.53346E-04
 -1     27336 3.93659E-02-3.95414E-02 2.34114E-04 6.41714E-02-1.47478E-04-5.90741E-04
 -1     27337 8.52365E-03-8.83041E-03 3.88819E-04 2.14356E-01 3.58712E-04-2.79114E-04
 -1     27338 3.66951E-03-4.19099E-03 5.99135E-04 1.97505E-01 4.15487E-05-4.95751E-05
 -1     27339-1.72752E-01 1.72628E-01 3.73299E-05-1.27906E-01-1.76803E-04 2.95721E-04
 -1     27340-1.71834E-01 1.71756E-01-9.80892E-06-1.27426E-01-2.50737E-04-9.81275E-06
 -1     27341-4.24970E-02 4.25243E-02-3.46845E-05 3.47592E-02 1.44311E-05 1.22096E-04
 -1     27342-3.15859E-03 3.63891E-03-4.11925E-04 1.80123E-01-2.42546E-04 1.97450E-04
 -1     27343-1.96611E-01 1.96827E-01-3.12581E-04-6.56900E-02 1.38361E-03 1.01611E-03
 -1     27344-1.92157E-01 1.91921E-01 1.26424E-04-1.31568E-01-7.65148E-04-2.43012E-03
 -1     27345-1.93665E-01 1.95373E-01-1.79692E-03-1.25327E-01-1.10891E-04-2.61266E-03
 -1     27346-6.29702E-02 6.29491E-02-1.08438E-06 1.06547E-02 4.55056E-04-8.38540E-05
 -1     27347-5.32782E-02 5.33467E-02-8.73974E-05 2.22767E-02 2.52178E-04 1.27388E-04
 -1     27348-5.22995E-02 5.23807E-02-9.10774E-05 2.19684E-02-8.12483E-05 3.32203E-04
 -1     27349-1.53344E-01 1.53394E-01-1.16268E-04-7.77032E-02-5.92634E-06-2.12265E-04
 -1     27350-5.87730E-02 5.91221E-02-3.61788E-04 1.64188E-02 2.05859E-04 9.24689E-05
 -1     27351 2.28947E-02-2.28924E-02 1.04721E-04 2.62436E-01 8.02776E-05 4.54378E-04
 -1     27352 2.52188E-02-2.50519E-02-6.94598E-05 2.46718E-01-4.84008E-04 1.67452E-04
 -1     27353 2.79590E-02-2.78738E-02 9.77287E-06 2.35383E-01-3.13278E-04 2.56218E-04
 -1     27354 2.49209E-02-2.46970E-02-1.28004E-04 2.45440E-01 1.85551E-04 4.74322E-04
 -1     27355-7.29485E-02 7.29317E-02 7.77198E-06 3.55917E-02 1.14171E-04 7.99135E-05
 -1     27356-7.32690E-02 7.31751E-02 8.49263E-05 2.93742E-02-1.81934E-05-1.33580E-05
 -1     27357-8.07329E-02 8.05310E-02 1.94202E-04 1.78958E-02 1.23057E-04-1.91325E-04
 -1     27358 3.22036E-02-3.21325E-02 2.62887E-06 2.00258E-01 3.67104E-04 4.54640E-04
 -1     27359 3.39957E-02-3.35609E-02-3.48906E-04 2.03994E-01 2.46766E-04-1.78263E-04
 -1     27360 2.92010E-02-2.91484E-02 3.81247E-05 2.11660E-01 3.58438E-04-1.66561E-04
 -1     27361 2.88890E-02-2.88747E-02 7.56360E-05 2.12115E-01-6.66233E-06 1.52445E-04
 -1     27362 2.34157E-02-2.30008E-02-3.09516E-04 2.64583E-01-9.81137E-05 5.97738E-04
 -1     27363-5.15292E-02 5.14029E-02 6.02126E-05 2.45791E-02 2.32689E-03-2.30703E-03
 -1     27364-7.95176E-02 7.99281E-02-5.02211E-04 1.98748E-02 1.66359E-03-2.89474E-03
 -1     27365 1.08376E-02-1.11306E-02 2.92362E-04-2.06102E-02-5.94549E-04-1.17494E-04
 -1     27366 5.12877E-03-4.94139E-03-1.30052E-04-3.18050E-02 3.15243E-05 9.47700E-04
 -1     27367 5.67967E-03-4.91282E-03-8.18837E-04-2.58907E-02 1.97688E-04 1.04400E-03
 -1     27368 5.77809E-03-6.40608E-03 5.72210E-04-2.49220E-02 6.42212E-04 2.69026E-04
 -1     27369 6.40350E-02-6.38284E-02-1.57150E-04 1.18644E-01-2.84473E-05-9.61622E-05
 -1     27370 6.92649E-02-6.89994E-02-2.19524E-04 1.13346E-01 4.00446E-04-1.73138E-04
 -1     27371 6.83704E-02-6.81925E-02-1.18923E-04 1.26034E-01-3.83381E-04 7.75505E-05
 -1     27372-1.03965E-01 1.04195E-01-2.75830E-04-3.78596E-02-2.16082E-04-1.61778E-03
 -1     27373-1.13149E-01 1.12503E-01 5.95670E-04-6.69100E-02 1.96091E-06-1.32005E-03
 -1     27374-1.19018E-01 1.19016E-01-5.80530E-05-8.20723E-02 7.27681E-04-9.28922E-04
 -1     27375-1.14973E-01 1.15000E-01-8.60732E-05-7.70740E-02 1.13743E-03-8.19478E-05
 -1     27376-1.22518E-01 1.22222E-01 2.36104E-04-8.49150E-02 2.35897E-04 8.32850E-05
 -1     27377 2.15575E-02-2.25690E-02 1.06984E-03 3.33606E-02 1.33913E-03-3.87763E-04
 -1     27378-8.23724E-02 8.18890E-02 4.57486E-04-4.41276E-03-5.04188E-04 1.17241E-03
 -1     27379-7.99985E-02 8.00971E-02-1.16777E-04 2.02632E-02-1.62541E-04-6.61878E-04
 -1     27380-7.30845E-02 7.23707E-02 6.71782E-04 2.66102E-02-5.61729E-04 3.55775E-04
 -1     27381-8.27115E-02 8.10023E-02 1.63825E-03 2.73470E-02-1.42551E-03 1.52786E-03
 -1     27382-1.00301E-01 1.00527E-01-2.75983E-04 1.60252E-02-3.35806E-03 5.43607E-04
 -1     27383-5.45180E-02 5.40139E-02 4.45491E-04 2.70698E-02-8.20324E-04-7.94781E-04
 -1     27384 1.24714E-02-1.23079E-02-1.05739E-04 1.58450E-01-2.35183E-04 4.03238E-04
 -1     27385-9.80662E-02 9.84035E-02-4.17608E-04-6.38703E-02-1.03973E-03 1.32287E-04
 -1     27386-5.85586E-02 5.79501E-02 6.39593E-04 6.85815E-02 7.85331E-04 2.15006E-03
 -1     27387-1.17918E-01 1.33898E-01-1.57086E-02 1.52364E-01-4.03817E-03 1.05182E-02
 -1     27388 4.42881E-02-4.40207E-02-2.15898E-04 1.15963E-01-2.75722E-04 5.92601E-04
 -1     27389 3.76421E-02-3.75852E-02-3.34637E-06 1.17169E-01 4.83065E-07 2.96826E-04
 -1     27390 3.44274E-03-3.73070E-03 3.41117E-04 1.05639E-01 4.50868E-04 3.36928E-04
 -1     27391 2.32610E-03-2.64763E-03 3.59485E-04 1.08690E-01 1.57285E-05 1.40762E-04
 -1     27392-1.40964E-01 1.40944E-01-4.67911E-05-8.92262E-02-5.27220E-05-3.85827E-05
 -1     27393-1.48568E-01 1.48622E-01-1.25599E-04-1.06649E-01 2.05163E-05-2.39896E-04
 -1     27394 5.00635E-02-5.01356E-02 8.74972E-05 8.40142E-02-1.11983E-05 1.45459E-04
 -1     27395 4.51993E-02-4.51521E-02-3.00018E-05 8.53630E-02 5.28278E-05 3.10328E-04
 -1     27396 7.49650E-03-7.62708E-03 1.84634E-04 7.25135E-02 8.03702E-05 5.81380E-04
 -1     27397 1.99131E-02-1.97335E-02-1.34873E-04 8.02067E-02 8.57027E-04-3.59299E-04
 -1     27398 1.02606E-02-1.09083E-02 7.04859E-04 6.83714E-02-2.53644E-04 9.98139E-04
 -1     27399 1.71696E-02-1.78307E-02 7.45459E-04 7.74665E-02-2.10646E-04 8.68606E-04
 -1     27400-8.34390E-03 8.26270E-03 9.25673E-05 7.77824E-02 1.46847E-04-5.91936E-04
 -1     27401 4.85705E-02-4.82963E-02-2.22465E-04 1.14159E-01-1.72182E-04 4.03883E-04
 -1     27402 4.88039E-02-4.87338E-02-1.66000E-05 1.17449E-01-1.55765E-04-4.13287E-04
 -1     27403-1.15416E-01 1.16857E-01-1.50610E-03-7.81854E-02 2.53614E-03-1.05412E-03
 -1     27404-1.08431E-01 1.08348E-01 2.55020E-05-7.50176E-02 1.01180E-04-1.54000E-03
 -1     27405-1.09440E-01 1.09913E-01-5.16474E-04-6.45058E-02 1.29514E-03-6.49948E-05
 -1     27406-1.69907E-02 1.70218E-02 3.75009E-06 1.08653E-01-5.22606E-04 6.56606E-04
 -1     27407-8.18090E-02 8.09265E-02 7.25176E-04 2.74900E-02-2.74356E-03-3.21652E-04
 -1     27408-2.43152E-02 2.52437E-02-1.20211E-03-7.11917E-03-4.85879E-04-3.50904E-03
 -1     27409-2.66418E-02 2.80616E-02-1.36805E-03 8.74309E-03-4.36953E-03-6.97442E-03
 -1     27410 4.24550E-02-4.23872E-02 1.91024E-06 1.11249E-01-8.44439E-05-2.39609E-04
 -1     27411 2.01065E-02-1.96431E-02-3.67394E-04 2.33797E-01 5.64406E-06-2.81423E-04
 -1     27412 1.66526E-02-1.62885E-02-2.79744E-04 2.22319E-01-3.14679E-05-2.13028E-04
 -1     27413 6.66983E-02-6.64219E-02-2.14674E-04 1.40910E-01-2.67037E-05 2.43015E-04
 -1     27414-4.91236E-02 4.90642E-02 1.63022E-05 3.98375E-02-1.02804E-04-3.97909E-04
 -1     27415-3.51592E-02 3.53935E-02-2.55124E-04 4.54426E-02 2.03360E-04 4.04624E-05
 -1     27416-3.31165E-03 3.40971E-03-4.37750E-05 1.51618E-01-1.98431E-04-8.53716E-05
 -1     27417-1.00628E-02 1.01397E-02-2.72954E-05 1.35534E-01-4.85610E-05 1.60748E-04
 -1     27418-1.25090E-01 1.24984E-01 5.21561E-05-6.30192E-02-6.25253E-05-6.55766E-05
 -1     27419-1.33429E-01 1.32797E-01 5.70395E-04-7.79657E-02-7.05244E-05 4.61021E-05
 -1     27420 7.31877E-02-7.31826E-02 3.18122E-05 1.14881E-01 2.33290E-04 5.48814E-05
 -1     27421-1.35690E-01 1.35790E-01-1.61294E-04-8.13038E-02 1.00427E-04-2.57116E-04
 -1     27422-1.26852E-01 1.26788E-01 6.14343E-06-6.71080E-02 1.13665E-04-5.19118E-04
 -1     27423-1.38511E-01 1.38300E-01 1.40584E-04-8.52009E-02 2.62399E-04-4.19380E-05
 -1     27424 6.09739E-02-6.07063E-02-2.04390E-04 1.45113E-01 3.10038E-05-2.31615E-04
 -1     27425 1.38595E-02-1.39704E-02 1.92683E-04 2.05995E-01 1.38400E-04 4.13277E-04
 -1     27426-1.82528E-01 1.82716E-01-2.80167E-04-1.33453E-01 1.25666E-03-1.30018E-04
 -1     27427 5.04501E-03-4.73252E-03-2.32706E-04-3.09584E-02-3.26748E-04 8.79059E-04
 -1     27428 7.13723E-03-6.68142E-03-3.01761E-04-2.70335E-02-5.33016E-04 1.14721E-04
 -1     27429 2.59013E-03-2.52297E-03-7.73326E-05-3.64111E-02-1.56838E-04 4.81673E-04
 -1     27430-1.91494E-01 1.85511E-01 5.87750E-03-1.31109E-01 3.10910E-04 3.14994E-03
 -1     27431-1.90665E-01 1.91408E-01-8.24204E-04-1.44761E-01 1.06833E-03-2.92766E-03
 -1     27432-1.14286E-01 1.07535E-01 6.95196E-03 7.30749E-02 1.17301E-02-1.40678E-02
 -1     27433-3.06208E-01 2.95476E-01 1.05960E-02 1.05769E-01 2.02844E-02-4.66717E-03
 -1     27434-2.73341E-01 2.68230E-01 5.08050E-03 9.41986E-02 5.27689E-03-9.37174E-03
 -1     27435-2.38749E-01 2.51848E-01-1.31441E-02-1.55024E-01-2.28723E-02 1.51786E-02
 -1     27436 1.27951E-03-1.39435E-03 1.09212E-04-3.42941E-02 9.57392E-04 6.32742E-04
 -1     27437-1.80983E-02 2.02881E-02-2.25860E-03-1.27475E-02-1.78855E-03-1.31722E-03
 -1     27438-7.24459E-02 7.33238E-02-1.07093E-03 1.80752E-02-5.20012E-03-2.40356E-03
 -1     27439-2.06891E-02 2.64333E-02-5.61496E-03 1.75401E-03-2.25143E-03 2.44116E-03
 -1     27440 3.38958E-02-3.43993E-02 5.94350E-04 2.04757E-01 1.53755E-05 1.15240E-04
 -1     27441 2.68430E-02-2.77131E-02 9.58097E-04 2.19663E-01 1.78985E-04 1.90228E-04
 -1     27442 3.30645E-02-3.23325E-02-6.46278E-04 2.11558E-01-7.08308E-05-1.22408E-04
 -1     27443 2.96315E-02-2.96064E-02 2.82519E-05 1.04999E-01-5.14207E-05 6.01060E-04
 -1     27444 2.03718E-02-2.02049E-02-1.09423E-04 1.46376E-01-2.27577E-04 1.87766E-04
 -1     27445 1.91999E-02-1.94952E-02 3.54124E-04 1.43016E-01 3.40589E-04-5.74700E-05
 -1     27446 5.57392E-02-5.53321E-02-3.48987E-04 7.12017E-02-2.15185E-04 5.34263E-04
 -1     27447 5.75065E-02-5.71931E-02-2.60036E-04 7.18888E-02 4.48504E-04-6.89240E-04
 -1     27448-1.89605E-01 1.89305E-01 2.08745E-04-1.44780E-01 1.80689E-03 3.15539E-03
 -1     27449-1.90913E-01 1.88893E-01 1.98830E-03-1.40511E-01 2.10721E-03 1.22050E-03
 -1     27450-1.92830E-01 1.89316E-01 3.38802E-03-1.47421E-01 1.40498E-03 3.86328E-03
 -1     27451 4.35406E-02-4.35148E-02 5.87576E-05 1.93501E-01 2.31555E-04 2.29288E-04
 -1     27452 3.11042E-02-3.18735E-02 8.68317E-04 2.22626E-01 7.84507E-05 2.21528E-04
 -1     27453 3.38079E-02-3.36478E-02-7.45565E-05 2.12900E-01-2.87861E-04 3.80956E-04
 -1     27454 4.03362E-02-4.00662E-02-1.86379E-04 1.99361E-01 2.42378E-04-9.34031E-05
 -1     27455-1.67766E-01 1.67724E-01-4.33171E-05-1.23329E-01-3.71876E-05 2.66368E-04
 -1     27456-1.67049E-01 1.66352E-01 6.15501E-04-1.23097E-01 1.08450E-04-4.44475E-04
 -1     27457-1.68580E-01 1.68124E-01 3.73052E-04-1.23785E-01 2.52019E-04 7.34331E-05
 -1     27458 2.62341E-02-2.60465E-02-9.49247E-05 2.31901E-01-6.94772E-04-2.11660E-04
 -1     27459 2.59336E-02-2.56990E-02-1.44890E-04 2.29198E-01 1.81155E-04-4.00119E-04
 -1     27460 2.56864E-02-2.59502E-02 3.52805E-04 2.27458E-01 1.04909E-04 2.02401E-05
 -1     27461-8.62244E-02 8.60966E-02 9.23358E-05 1.19753E-02 5.24696E-04-4.80094E-04
 -1     27462-1.81164E-01 1.81120E-01-4.63120E-05-1.33975E-01-2.49785E-04-3.13213E-04
 -1     27463-6.61723E-02 6.61246E-02 4.09915E-05 2.50137E-02 5.43342E-05-1.45092E-04
 -1     27464-5.71152E-02 5.71355E-02-1.45823E-05 3.87742E-02 5.36614E-05-1.65377E-04
 -1     27465-1.60207E-01 1.60181E-01-5.28094E-05-1.12554E-01 8.05445E-05 1.14998E-05
 -1     27466-1.48966E-01 1.48757E-01 1.37154E-04-1.00512E-01-2.26424E-06 2.90484E-05
 -1     27467-1.58584E-01 1.58276E-01 2.31047E-04-1.11528E-01 1.64888E-04-9.88937E-05
 -1     27468 5.80517E-02-5.78676E-02-1.47857E-04 1.21304E-01-1.54779E-05 5.14802E-05
 -1     27469-1.62597E-01 1.62229E-01 2.87595E-04-1.12668E-01 1.34344E-04-1.27109E-04
 -1     27470 2.62301E-02-2.64988E-02 3.70207E-04 2.44664E-01 1.26700E-04 1.23350E-04
 -1     27471 4.85545E-02-4.84714E-02-2.50296E-05 1.07916E-01-2.93661E-05 1.03198E-04
 -1     27472-1.72064E-01 1.71921E-01 5.79300E-05-1.27079E-01-9.67492E-05-7.01036E-05
 -1     27473 1.94056E-02-1.92765E-02-1.22057E-04 7.70002E-02 9.02447E-05-2.30233E-04
 -1     27474 1.35948E-02-1.35239E-02-6.49322E-05 7.61928E-02 4.88052E-05 2.48255E-05
 -1     27475 2.50964E-02-2.51092E-02 2.49955E-05 8.30845E-02 1.27485E-04-3.66707E-05
 -1     27476-1.37819E-01 1.37817E-01-6.54352E-05-9.02067E-02-1.85628E-04 1.28264E-04
 -1     27477 8.11746E-03-8.21030E-03 1.58221E-04 1.71004E-01-3.59131E-04-3.72310E-05
 -1     27478 1.61249E-02-1.61517E-02 1.10457E-04 2.22720E-01 1.83149E-04-1.71759E-04
 -1     27479-1.58296E-01 1.58341E-01-1.24353E-04-1.12093E-01-2.80424E-04 1.37592E-04
 -1     27480-1.55051E-01 1.55025E-01-5.04239E-05-1.09375E-01-1.94021E-04-6.98546E-05
 -1     27481-1.59561E-01 1.59361E-01 1.21164E-04-1.14397E-01 6.75100E-05-3.15149E-05
 -1     27482 9.89743E-03-9.94346E-03 1.31357E-04 2.15977E-01 3.09993E-05 1.93894E-04
 -1     27483 4.22622E-03-3.49580E-03-6.54183E-04 1.97940E-01-1.10902E-04 1.80006E-04
 -1     27484 6.38319E-03-6.21924E-03-8.18174E-05 2.00232E-01-3.16515E-05-3.60292E-05
 -1     27485-1.71609E-01 1.71547E-01-2.19518E-05-1.26957E-01 1.90858E-04 1.92434E-04
 -1     27486-1.64922E-01 1.64859E-01-1.74708E-05-1.20454E-01-1.35098E-04 1.03681E-04
 -1     27487-1.71499E-01 1.71522E-01-1.08306E-04-1.27378E-01 1.09004E-04-1.12221E-05
 -1     27488-1.71610E-01 1.71630E-01-1.04503E-04-1.27596E-01-2.08553E-04-4.11045E-05
 -1     27489-1.43644E-01 1.43607E-01-3.32302E-05-9.75134E-02 3.43067E-05-4.32558E-05
 -1     27490 5.58848E-02-5.50429E-02-7.92318E-04 7.44902E-02 2.01387E-04 7.51321E-04
 -1     27491 5.97634E-02-5.93920E-02-3.32650E-04 8.20385E-02 7.49469E-05 6.86516E-04
 -1     27492 3.08193E-02-3.12712E-02 4.85621E-04 8.71370E-02-1.10830E-03 3.10251E-04
 -1     27493 3.82142E-02-3.80939E-02-6.29761E-05 9.24021E-02-7.62197E-04 4.07864E-04
 -1     27494 4.00405E-02-4.00467E-02 7.13502E-05 8.80833E-02-2.15227E-04 1.18247E-03
 -1     27495-1.06048E-01 1.03558E-01 2.52910E-03 1.61957E-01 8.09706E-04-1.50453E-03
 -1     27496-1.34105E-01 1.33713E-01 3.33810E-04-9.33457E-02-5.52547E-04-6.36236E-04
 -1     27497-6.09800E-02 6.09185E-02 7.27486E-05 4.66211E-03 7.97229E-04 4.30720E-03
 -1     27498-6.58552E-02 6.48796E-02 9.10523E-04-1.55938E-02 2.39028E-03 2.49896E-03
 -1     27499-9.59118E-02 9.72158E-02-1.31631E-03-6.22374E-02 5.89625E-05 6.45922E-05
 -1     27500-8.18050E-02 8.05936E-02 1.12752E-03-5.09304E-02-1.26054E-03-1.35605E-04
 -1     27501-8.96868E-02 8.81243E-02 1.49931E-03-6.27579E-02 6.92679E-04-2.97071E-04
 -1     27502-7.25513E-02 7.26415E-02-1.19987E-04-2.33142E-03 1.42320E-04-2.40526E-04
 -1     27503 5.54846E-02-5.58740E-02 4.46460E-04 1.10190E-01 2.89161E-04-3.17240E-04
 -1     27504 5.51591E-02-5.55808E-02 4.85413E-04 1.13824E-01-3.05337E-04 7.11658E-04
 -1     27505-1.19797E-01 1.13042E-01 6.25528E-03 7.65636E-02 6.53210E-03-8.61158E-03
 -1     27506-6.81089E-03 1.07638E-03 5.44241E-03 6.54964E-02-3.39600E-03 1.93571E-03
 -1     27507-8.45435E-02 6.81600E-02 1.61863E-02 1.14869E-01 3.18443E-03 2.77421E-04
 -1     27508 6.13592E-02-6.13678E-02 5.58071E-05 1.38419E-01-5.96908E-05-7.98130E-05
 -1     27509 5.96155E-02-5.95605E-02 5.87239E-06 1.46461E-01 6.36238E-05-1.03416E-04
 -1     27510 1.47466E-02-1.53680E-02 6.72228E-04 1.20802E-01 2.13750E-04-2.61791E-04
 -1     27511 1.39713E-02-1.32168E-02-7.06417E-04 1.16297E-01 1.86634E-04-1.08291E-04
 -1     27512-8.81644E-02 8.80269E-02 1.79146E-04 1.63236E-01 1.10941E-03 2.73416E-04
 -1     27513-9.12691E-02 9.25881E-02-1.27897E-03 1.65151E-01-1.69620E-04-1.28101E-03
 -1     27514-8.27114E-02 8.30323E-02-2.78807E-04 1.58614E-01 9.51392E-04-9.04120E-04
 -1     27515 3.66109E-02-3.64342E-02-1.03383E-04 1.63243E-01 2.11994E-04 1.08986E-04
 -1     27516 3.91953E-02-3.86099E-02-5.29189E-04 1.56545E-01 1.24065E-04-1.71328E-04
 -1     27517 3.73693E-03-4.23496E-03 5.52443E-04 1.22388E-01 2.18724E-05 2.01263E-04
 -1     27518 8.22170E-03-8.86586E-03 6.93277E-04 1.23340E-01-2.70027E-04-5.82216E-05
 -1     27519 3.36190E-02-3.34017E-02-1.56253E-04 1.62586E-01-3.55480E-04 2.76823E-04
 -1     27520 3.07998E-02-3.08126E-02 8.58342E-05 1.87690E-01 1.56815E-04 7.06496E-04
 -1     27521 2.79620E-02-2.77933E-02-9.17510E-05 1.98244E-01-2.03862E-04-2.14213E-04
 -1     27522 5.48753E-03-4.36812E-03-1.13017E-03-2.87320E-02-5.60563E-05 4.41413E-04
 -1     27523-5.84208E-02 5.84615E-02-2.55009E-06 1.34865E-01-2.30753E-04 2.80731E-04
 -1     27524-4.36492E-02 5.12708E-02-8.06777E-03 1.03043E-01 8.20613E-03 2.10526E-02
 -1     27525-1.33777E-01 1.39629E-01-6.54257E-03 1.13798E-01 1.54570E-02-1.08996E-02
 -1     27526-1.06166E-01 1.05325E-01 8.10134E-04-2.29538E-02-5.62857E-04 8.01085E-04
 -1     27527-1.09241E-01 1.06487E-01 2.79502E-03 1.53630E-01-7.98644E-04-9.90907E-04
 -1     27528-2.01226E-01 2.08642E-01-7.51781E-03-1.55781E-01-5.91258E-03-2.20274E-02
 -1     27529-5.59022E-04-1.95823E-04 5.52084E-04-3.54640E-02-1.74439E-04 1.08929E-03
 -1     27530 2.09372E-03-8.83725E-04-1.30636E-03-3.56188E-02 6.24869E-04 1.15298E-03
 -1     27531-5.66446E-03 6.27336E-03-7.52625E-04-3.80907E-02-1.02942E-03 1.75589E-04
 -1     27532-3.46421E-03 5.15587E-03-1.48864E-03-3.84746E-02 3.73069E-05 1.35274E-04
 -1     27533-1.03285E-01 1.03198E-01 4.48815E-05-4.48345E-02 1.56258E-04-1.98377E-04
 -1     27534-1.12189E-01 1.12140E-01 2.25610E-06-5.62345E-02-2.31274E-05 1.05325E-04
 -1     27535 2.56872E-02-2.58018E-02 2.04993E-04 2.26302E-01-6.79998E-04 1.46595E-04
 -1     27536 5.97685E-02-5.96792E-02-2.89881E-05 1.40640E-01-3.59834E-05 2.90259E-04
 -1     27537 2.44957E-02-2.45163E-02 9.43411E-05 1.87403E-01 2.09814E-04-3.10418E-04
 -1     27538 2.31789E-02-2.36145E-02 5.12862E-04 1.80072E-01 1.21246E-06-3.90766E-04
 -1     27539 4.23030E-03-4.43685E-03 2.89181E-04 2.12204E-01 2.07114E-04 1.65636E-04
 -1     27540-8.66474E-03 8.72726E-03 6.32338E-06 1.83538E-01-2.45443E-04 1.57311E-04
 -1     27541-5.52635E-03 5.53339E-03 6.70047E-05 1.86686E-01 2.74536E-04 8.17569E-05
 -1     27542-7.76228E-02 7.80058E-02-3.51883E-04 1.10991E-01-6.98859E-05 8.86165E-04
 -1     27543-7.97486E-02 7.96826E-02 8.46453E-05 9.13527E-02 3.72512E-04 6.36987E-04
 -1     27544-1.09769E-01 1.09725E-01 3.41813E-07-4.94268E-02-2.99014E-05-7.17405E-06
 -1     27545-1.55291E-01 1.55331E-01-1.15932E-04-1.09486E-01-1.85393E-04 8.97745E-05
 -1     27546-1.24360E-02 1.24969E-02-2.16373E-06 1.58322E-01 3.84965E-04-2.23659E-04
 -1     27547-2.01968E-02 2.02124E-02 3.17646E-05 1.41893E-01 7.75219E-05-7.94731E-05
 -1     27548-6.03224E-02 5.94176E-02 9.30316E-04 1.14987E-01-6.85010E-04-2.98863E-04
 -1     27549-1.17566E-01 1.17528E-01-4.83828E-06-4.87161E-02 9.01705E-05-2.77942E-05
 -1     27550-1.15417E-01 1.15749E-01-3.71677E-04-4.34755E-02-2.83046E-04-4.41190E-05
 -1     27551 4.27975E-02-4.29865E-02 2.48338E-04 1.19199E-01 3.61455E-04-4.80809E-04
 -1     27552-4.37024E-02 4.37731E-02-1.61867E-05 1.63214E-01-3.19048E-04-6.97665E-04
 -1     27553-2.48569E-02 2.47693E-02 1.54094E-04 1.78476E-01 3.48044E-04 7.56720E-04
 -1     27554-1.59474E-03 1.70478E-03-4.88222E-05 1.70013E-01-8.12809E-05-1.03788E-04
 -1     27555-6.26919E-03 6.36917E-03-4.51137E-05 1.49169E-01-8.64962E-06 7.27392E-06
 -1     27556-8.25768E-05 1.41533E-04 2.43938E-06 1.65664E-01-3.12855E-04-2.66873E-04
 -1     27557 5.15878E-02-5.23323E-02 7.81813E-04 5.53252E-02-2.21892E-04 2.40707E-04
 -1     27558-2.23515E-01 2.13625E-01 9.84453E-03-1.31737E-01 6.87471E-03-6.39509E-03
 -1     27559-2.01146E-01 2.04311E-01-3.27749E-03-1.45756E-01-4.21458E-03-1.08571E-02
 -1     27560-1.91387E-01 1.92039E-01-7.26890E-04-1.15552E-01 1.89403E-03-2.00108E-04
 -1     27561-1.82770E-01 1.84334E-01-1.64265E-03-1.01155E-01-1.27253E-03 9.60554E-09
 -1     27562-1.15919E-01 1.15874E-01-1.00650E-05-5.48477E-02 9.13413E-05 1.02651E-04
 -1     27563-1.24239E-01 1.24182E-01 1.00714E-07-6.80716E-02 1.59396E-05 1.39102E-05
 -1     27564 4.71322E-02-4.72018E-02 1.18885E-04 1.22294E-01 2.29160E-04-2.93683E-04
 -1     27565 2.17405E-02-2.22537E-02 5.73043E-04 1.59291E-01-4.20098E-04 3.59849E-04
 -1     27566 3.38186E-02-3.35987E-02-1.53180E-04 1.52760E-01-4.69565E-04-5.29652E-04
 -1     27567 2.21080E-02-2.13914E-02-6.49047E-04 1.56196E-01-3.91933E-04 2.70713E-04
 -1     27568 6.43557E-02-6.42811E-02-1.62304E-05 1.33729E-01 1.35028E-04 4.94660E-04
 -1     27569 5.88921E-02-5.84340E-02-4.01302E-04 1.36872E-01-1.14389E-04 4.62496E-04
 -1     27570-9.19788E-02 9.14434E-02 5.54314E-04 1.60532E-01-8.31920E-04-2.45798E-04
 -1     27571 1.99649E-02-1.94953E-02-3.69174E-04 2.51311E-01-2.73413E-04 2.82690E-05
 -1     27572 1.91344E-02-1.88294E-02-2.04082E-04 2.49361E-01 7.74097E-05 3.93766E-04
 -1     27573-1.28199E-01 1.28841E-01-5.80463E-04 1.36751E-01-8.71835E-04-2.60162E-03
 -1     27574-1.26958E-01 1.30911E-01-3.91559E-03 1.37014E-01-1.08826E-03 2.32128E-04
 -1     27575 6.23802E-03-5.38937E-03-8.82336E-04-2.47283E-02 1.04933E-04-6.00175E-04
 -1     27576-1.48724E-01 1.52676E-01-4.00785E-03-1.12794E-02-5.47450E-04 2.13160E-03
 -1     27577-1.36774E-01 1.36809E-01-1.04460E-04-8.70598E-02-1.63762E-04-1.68027E-04
 -1     27578-1.43131E-01 1.43488E-01-4.28404E-04-9.44241E-02 7.91457E-05-8.39340E-05
 -1     27579-3.20209E-02 3.19981E-02 6.69455E-05 1.25199E-01 2.28002E-04-8.65235E-06
 -1     27580-1.05441E-01 1.05332E-01 6.92226E-05-4.89105E-02 9.88768E-05-7.44407E-05
 -1     27581 2.43837E-02-2.44377E-02 1.41746E-04 2.13571E-01-5.33884E-06 1.96787E-05
 -1     27582 2.66969E-02-2.69390E-02 3.26896E-04 2.13273E-01 4.82086E-05 1.26336E-04
 -1     27583 2.59130E-02-2.58973E-02 7.60664E-05 2.28508E-01 7.96436E-05-6.63593E-05
 -1     27584-6.22196E-03 6.28107E-03 1.90160E-07 1.62301E-01 1.86672E-04 4.20706E-05
 -1     27585 2.17450E-02-2.18115E-02 1.59506E-04 2.44986E-01 8.79784E-05 1.44089E-04
 -1     27586-1.22325E-01 1.22282E-01-3.95207E-06-6.02706E-02-2.10606E-04-3.44766E-04
 -1     27587-4.91763E-02 4.85895E-02 5.63754E-04 3.12651E-02 1.23419E-04-1.34824E-06
 -1     27588-5.92409E-02 5.92892E-02-5.23548E-05 3.98073E-02 2.38761E-05 8.47859E-05
 -1     27589-5.28434E-02 5.28815E-02-2.83798E-05 5.50139E-02-5.34060E-06-6.47191E-05
 -1     27590-9.69414E-02 9.70158E-02-9.23018E-05-1.70135E-02-4.03564E-04-8.76357E-05
 -1     27591-1.06008E-01 1.05967E-01-2.01005E-06-3.40105E-02-1.33376E-05-3.14640E-04
 -1     27592 6.07913E-02-6.06990E-02-3.69897E-05 1.25546E-01-2.49825E-05-1.24476E-04
 -1     27593 6.28773E-02-6.28079E-02-1.24293E-05 1.29917E-01-1.23294E-04-1.05726E-04
 -1     27594-1.44297E-02 1.43821E-02 5.60962E-05 6.49346E-02-1.78801E-04-3.72643E-04
 -1     27595-8.85473E-02 8.85160E-02 2.51620E-06 4.21533E-04 6.93530E-05 1.75844E-04
 -1     27596 1.27007E-02-1.27761E-02 1.14720E-04 1.13771E-01-1.70015E-04 4.82437E-04
 -1     27597 1.34957E-02-1.34004E-02-5.94122E-05 1.15672E-01-8.65422E-05 6.71626E-05
 -1     27598-5.12047E-02 5.11692E-02 3.13907E-05 2.98150E-02-1.55183E-04-2.78809E-04
 -1     27599-5.97909E-02 5.97864E-02-6.12170E-06 1.80323E-02-1.20072E-04-2.03721E-04
 -1     27600-1.02008E-01 1.02272E-01-2.98256E-04-1.90343E-02 6.29287E-04 1.28773E-04
 -1     27601 7.23896E-02-7.22963E-02-5.37613E-05 1.15339E-01 1.14679E-04-3.38733E-04
 -1     27602-1.55256E-01 1.55312E-01-1.27534E-04-1.09755E-01-2.15008E-04-1.30654E-04
 -1     27603-1.54426E-01 1.54399E-01-4.60692E-05-1.07496E-01-8.17684E-05-9.43314E-05
 -1     27604-1.47162E-01 1.47398E-01-3.07328E-04-9.93277E-02 3.42820E-04-1.94677E-04
 -1     27605-6.15169E-02 6.18292E-02-2.89940E-04 1.04010E-01-3.06011E-05-7.18618E-04
 -1     27606-1.08617E-01 1.08024E-01 5.55654E-04-2.73373E-02-4.67590E-04 7.30048E-05
 -1     27607-5.50344E-02 5.50308E-02 1.96959E-05 8.30533E-02 9.86185E-05 9.35460E-05
 -1     27608 2.46296E-02-2.51657E-02 6.31180E-04 3.17607E-02 7.54443E-04-7.50891E-05
 -1     27609 3.75225E-02-3.74678E-02-1.20296E-05 4.44828E-02-5.26845E-04-4.22738E-04
 -1     27610 1.26625E-02-1.29780E-02 3.46471E-04 3.54233E-02 2.48317E-05 5.25195E-04
 -1     27611 1.37740E-02-1.28861E-02-8.85964E-04 4.13776E-02 6.53855E-04 9.25424E-04
 -1     27612 1.21712E-02-1.10881E-02-1.05851E-03 2.58647E-02-5.74620E-04 3.17841E-04
 -1     27613 2.50660E-02-2.46307E-02-3.20864E-04 3.94646E-02 7.49962E-05-1.16038E-04
 -1     27614 1.32132E-02-1.13640E-02-1.78115E-03 3.21146E-02 4.57730E-04 7.83486E-04
 -1     27615 3.21560E-02-3.20944E-02-3.39420E-05 1.08712E-01-9.53198E-05 1.37283E-04
 -1     27616 6.95551E-02-6.95575E-02 5.26107E-05 1.02293E-01-4.39922E-04-2.61099E-04
 -1     27617 7.37968E-02-7.37415E-02 4.86760E-06 1.08606E-01 4.55844E-04 4.35052E-04
 -1     27618 7.41364E-02-7.42380E-02 1.64897E-04 1.04408E-01 2.90890E-04 5.20296E-04
 -1     27619-1.25073E-01 1.25119E-01-1.07232E-04-5.16914E-02-6.13919E-04-5.58275E-04
 -1     27620-1.38214E-01 1.38140E-01 1.17447E-05-6.60266E-02-3.40682E-04-1.37928E-04
 -1     27621 5.20470E-02-5.20981E-02 8.87402E-05 1.21395E-01-4.76107E-05 4.85145E-05
 -1     27622 7.47191E-03-7.36910E-03-2.67261E-05 1.88022E-01-1.91083E-04 1.08178E-04
 -1     27623 3.86134E-02-3.85523E-02-8.90040E-06 1.51763E-01 1.88242E-04-2.31554E-04
 -1     27624 4.50258E-02-4.48605E-02-9.92725E-05 1.61624E-01-2.63626E-04 3.06582E-05
 -1     27625 6.17574E-03-6.17087E-03-1.65943E-05 7.00097E-02 1.34837E-04-2.38615E-04
 -1     27626 1.04896E-03-1.09175E-03 4.20862E-05 6.90692E-02-6.70110E-05-1.20022E-04
 -1     27627 7.63774E-03-7.73240E-03 1.65710E-04 7.52155E-02 3.61506E-05 2.14578E-04
 -1     27628 7.30162E-03-7.23480E-03-7.34778E-05 8.36379E-02 4.91883E-04-4.66665E-05
 -1     27629 7.16443E-03-7.41468E-03 3.31255E-04 8.11488E-02 1.25541E-04 3.91310E-04
 -1     27630-2.11740E-02 2.11993E-02-5.40724E-07 8.42208E-02 2.62418E-04 1.09954E-04
 -1     27631 1.04318E-02-1.07820E-02 4.36236E-04 2.16593E-01 3.48488E-04-1.54030E-04
 -1     27632-8.50275E-02 8.50214E-02-2.18095E-05-1.81398E-02 1.85334E-05 2.18302E-05
 -1     27633-8.43992E-02 8.43633E-02 1.05962E-05-1.51718E-02 2.72349E-05 1.36306E-04
 -1     27634 1.00164E-02-1.05938E-02 6.40990E-04 7.09298E-02-4.54080E-04 1.93314E-04
 -1     27635-9.89781E-02 9.89391E-02 4.52145E-07-4.04027E-02-5.81314E-05 3.83478E-05
 -1     27636 6.96214E-02-6.94069E-02-1.67494E-04 1.07616E-01 1.02700E-04 3.43471E-06
 -1     27637 1.16211E-02-1.18985E-02 3.62058E-04 2.18757E-01 1.59243E-04-2.47330E-04
 -1     27638-8.60167E-02 8.60138E-02-2.32801E-05-2.11367E-02 7.94514E-05-2.28806E-05
 -1     27639 5.99660E-02-5.99078E-02-3.55486E-05 6.47036E-02-9.13742E-04 8.36317E-05
 -1     27640 7.09281E-03-7.55210E-03 4.83246E-04 9.28175E-02-4.07771E-04-1.59882E-04
 -1     27641 4.50578E-03-4.61063E-03 1.18612E-04 8.52682E-02-3.80117E-04-1.76884E-04
 -1     27642 1.37522E-02-1.37632E-02 3.50273E-05 9.78307E-02-4.94372E-04-2.08429E-04
 -1     27643 2.56173E-02-2.58651E-02 3.28407E-04 2.00581E-01-1.71286E-05-1.61632E-04
 -1     27644 5.42095E-02-5.43012E-02 1.15992E-04 1.00441E-01-1.04551E-04 3.02968E-04
 -1     27645 3.00573E-02-3.00427E-02 1.83560E-06 8.91070E-02 1.74893E-04 1.04706E-04
 -1     27646-3.33007E-02 3.33220E-02-1.76038E-05 4.94935E-02-8.23362E-05-1.29397E-04
 -1     27647 7.68658E-02-7.65471E-02-2.74596E-04 1.13681E-01-8.25693E-05-7.11678E-05
 -1     27648-9.74931E-02 9.73414E-02 1.05959E-04-3.78481E-02 1.06354E-04 1.40084E-04
 -1     27649-9.60897E-02 9.60553E-02-1.25982E-06-3.68893E-02 1.56355E-04 1.14694E-04
 -1     27650-1.06810E-01 1.06782E-01-1.63684E-05-5.09389E-02 2.12261E-04 8.46765E-05
 -1     27651 8.01647E-03-8.07480E-03 5.42925E-05 6.61058E-02 2.73217E-04 1.82347E-04
 -1     27652-2.87764E-02 2.88319E-02-4.18697E-05 7.12162E-02 3.27475E-04 7.88404E-06
 -1     27653-2.35076E-02 2.35712E-02-3.35027E-05 8.56192E-02-2.37425E-04 4.33019E-04
 -1     27654-7.38817E-02 7.38310E-02 3.48294E-05 9.29914E-03-1.93840E-04 1.21079E-04
 -1     27655-7.40002E-02 7.39839E-02-8.94491E-07 1.21941E-02-1.65144E-04 2.82276E-04
 -1     27656-5.03686E-02 5.00202E-02 3.38993E-04 2.84274E-02-1.59390E-05 2.98749E-05
 -1     27657-5.86453E-02 5.83112E-02 3.23126E-04 1.78057E-02-1.27589E-05-2.91369E-05
 -1     27658-1.17881E-01 1.17568E-01 2.61378E-04-2.97602E-02 6.34411E-04 6.65166E-04
 -1     27659-1.50524E-01 1.51120E-01-6.73916E-04-5.44048E-02 1.86486E-04-1.02978E-03
 -1     27660-8.99703E-02 9.00025E-02-6.76122E-05-2.74018E-02-6.66252E-05 1.96050E-04
 -1     27661 1.62534E-02-1.60254E-02-1.69321E-04 1.32132E-01 1.27501E-04 2.21896E-04
 -1     27662 2.14139E-02-2.09339E-02-4.39096E-04 1.34500E-01 6.09993E-04-8.89859E-05
 -1     27663 1.61855E-02-1.58094E-02-3.23784E-04 1.33870E-01 5.13945E-04-5.29019E-05
 -1     27664 1.25832E-02-1.23665E-02-1.11842E-04 2.32233E-01 2.55170E-04 4.25678E-04
 -1     27665 1.95748E-02-1.96559E-02 1.81694E-04 2.49330E-01-5.44037E-05 3.15440E-04
 -1     27666 1.65495E-02-1.69467E-02 4.90981E-04 2.41705E-01 3.78524E-04-1.62806E-04
 -1     27667 1.99205E-02-1.98206E-02 3.67844E-06 2.49340E-01-8.61032E-04 4.93694E-05
 -1     27668 2.03536E-02-2.01513E-02-1.28883E-04 1.87699E-01-2.09074E-04 6.84191E-04
 -1     27669 2.26396E-02-2.25646E-02 3.54930E-06 2.02633E-01 2.98633E-06 1.82403E-04
 -1     27670 2.49292E-02-2.49818E-02 1.49631E-04 2.44290E-01-1.69896E-04-4.08791E-05
 -1     27671 7.57779E-02-7.55776E-02-1.46144E-04 1.21623E-01-1.04306E-04-1.59697E-04
 -1     27672-9.78474E-02 9.77884E-02 3.69891E-05-2.16103E-02-2.05108E-04-1.75359E-04
 -1     27673 8.65412E-03-9.21623E-03 6.08816E-04 1.12274E-01 3.31665E-04-2.44807E-04
 -1     27674 5.75010E-03-5.56873E-03-1.21498E-04 1.15070E-01 4.11133E-04-3.63963E-04
 -1     27675 1.03943E-02-1.03595E-02 1.71118E-05 1.14449E-01-2.79400E-04 1.83841E-04
 -1     27676-1.19233E-01 1.18919E-01 2.67898E-04-8.09947E-02-4.64163E-04-1.53767E-03
 -1     27677-1.16429E-01 1.15406E-01 9.62025E-04-7.69037E-02-8.40972E-04 3.25042E-05
 -1     27678 5.44093E-03-5.58271E-03 2.03036E-04 1.15504E-01-1.46514E-04 4.21820E-04
 -1     27679 9.84435E-03-8.89524E-03-8.93876E-04 1.11813E-01 1.64744E-04-3.43474E-04
 -1     27680-1.88322E-01 1.84913E-01 3.30180E-03-1.37796E-01 9.62038E-04 1.29022E-03
 -1     27681 3.22335E-03-3.18064E-03-3.85200E-05 7.38414E-02 8.47615E-05-1.43884E-04
 -1     27682-1.04500E-02 1.03242E-02 1.17520E-04 6.12383E-02-1.32143E-05-4.84008E-05
 -1     27683 8.23934E-03-8.19547E-03-3.69540E-05 7.52038E-02-1.41800E-04-1.12552E-05
 -1     27684-1.44600E-02 1.48211E-02-3.71525E-04 5.78542E-02 3.36403E-04-3.62749E-04
 -1     27685 1.01386E-02-1.02309E-02 1.22949E-04 1.04543E-01 2.34782E-05 1.22046E-04
 -1     27686 1.40360E-02-1.38865E-02-1.25625E-04 9.84483E-02 2.57826E-05-1.99788E-05
 -1     27687 1.64226E-02-1.64017E-02 9.64983E-06 1.09159E-01-3.86827E-05 1.56448E-05
 -1     27688 1.10263E-02-1.21216E-02 1.16496E-03 3.00563E-02 1.61576E-03 3.55849E-04
 -1     27689 1.48213E-02-1.47925E-02-2.55130E-05 6.46336E-02 9.44243E-05-5.68140E-05
 -1     27690 3.54553E-02-3.67106E-02 1.28054E-03 5.39703E-02-2.84453E-04-3.02072E-04
 -1     27691 3.71777E-02-3.73965E-02 2.89577E-04 2.06869E-01 3.53086E-04-1.84627E-04
 -1     27692 3.90320E-02-3.90624E-02 1.07227E-04 1.99203E-01 4.39316E-04 1.52366E-05
 -1     27693-1.11844E-01 1.11759E-01 3.23159E-05-3.83316E-02-3.99319E-04-2.98300E-04
 -1     27694-8.98853E-02 8.98238E-02 2.94782E-05-1.44843E-02 3.21424E-04-9.16393E-05
 -1     27695-9.51867E-02 9.58009E-02-6.81604E-04 2.12359E-02 7.34642E-04 3.11863E-03
 -1     27696-1.26878E-01 1.26843E-01-2.65282E-05-6.67474E-02 2.26918E-05-2.29280E-04
 -1     27697-1.35652E-01 1.35362E-01 2.30330E-04-8.15606E-02 4.15411E-04-8.77701E-05
 -1     27698-1.20125E-01 1.20515E-01-4.33318E-04-6.64482E-02-1.81112E-03-7.80818E-04
 -1     27699-1.14367E-01 1.15565E-01-1.24955E-03-5.96219E-02-5.59903E-04-1.89870E-05
 -1     27700-1.23633E-01 1.24530E-01-9.53284E-04-7.49255E-02-8.27639E-04-1.21551E-03
 -1     27701-1.19930E-01 1.21353E-01-1.49000E-03-6.98135E-02 4.68218E-04-4.91504E-04
 -1     27702-2.88851E-02 2.90216E-02-9.70319E-05 1.11938E-01 9.01536E-05 6.06535E-06
 -1     27703-4.50697E-02 4.53003E-02-2.83116E-04 3.57515E-02 2.68544E-04-8.17865E-04
 -1     27704-3.06198E-02 3.07698E-02-1.79674E-04 3.78141E-02-2.63841E-04-3.18048E-04
 -1     27705-1.86069E-02 1.85985E-02 6.81983E-05 1.66312E-01 9.90501E-05-1.35009E-04
 -1     27706-1.37939E-01 1.37784E-01 8.67292E-05-8.73087E-02-3.54297E-05 1.56892E-04
 -1     27707-1.46808E-01 1.46714E-01 2.40303E-05-9.91936E-02-1.21318E-04 4.33345E-05
 -1     27708-4.50038E-03 4.58956E-03-7.20971E-05 7.75501E-02-1.78150E-04 6.63895E-05
 -1     27709-5.81290E-04 6.31834E-04-3.13579E-05 8.51468E-02 9.60002E-05-1.31310E-04
 -1     27710 5.11985E-03-5.06558E-03-3.29078E-05 8.70088E-02 2.07019E-04-1.45279E-04
 -1     27711 1.42354E-03-1.38934E-03-2.39347E-05 8.03719E-02-1.00027E-04-1.10733E-04
 -1     27712-1.03255E-01 1.03475E-01-1.50337E-04 1.61712E-01 2.67777E-03-2.69238E-03
 -1     27713-6.27063E-02 6.05571E-02 2.10647E-03-3.12159E-02 1.78786E-03 4.01577E-04
 -1     27714-1.68702E-01 1.68265E-01 3.55697E-04-8.20799E-02-1.23815E-04 2.60246E-04
 -1     27715-1.35723E-01 1.34051E-01 1.67853E-03 1.26508E-01 4.56261E-03-2.63711E-03
 -1     27716 7.16950E-03-6.26628E-03-8.15725E-04 2.18745E-01 1.45299E-04-4.81025E-05
 -1     27717-1.43327E-01 1.32831E-01 1.05571E-02 1.38973E-01-9.54707E-04 3.23171E-03
 -1     27718-1.01165E-01 9.68697E-02 4.36315E-03 1.14430E-01-7.35144E-04 6.07160E-03
 -1     27719-1.16145E-01 1.17181E-01-9.81577E-04 1.19883E-01-3.52006E-03 1.90787E-04
 -1     27720 5.24106E-02-5.23734E-02-5.89059E-07 1.22058E-01-1.12493E-04 4.44512E-05
 -1     27721 4.51440E-02-4.52043E-02 9.61398E-05 1.24697E-01 3.01038E-05 1.31844E-04
 -1     27722-6.91412E-02 6.89255E-02 1.54002E-04-3.03146E-02 1.63952E-03-1.03685E-02
 -1     27723-6.66459E-02 7.12227E-02-4.56104E-03-2.46224E-02 3.36912E-04-3.09187E-03
 -1     27724-6.38262E-02 5.91956E-02 4.60364E-03 3.39730E-02-2.10922E-03 4.39706E-03
 -1     27725 2.39286E-02-2.34017E-02-4.19210E-04 2.60921E-01-1.96215E-04 4.67656E-04
 -1     27726 5.15020E-02-5.13928E-02-4.69138E-05 1.40051E-01-6.84584E-05 2.68139E-04
 -1     27727 4.40449E-02-4.40056E-02 2.23529E-05 1.46674E-01-9.40174E-05 1.02351E-04
 -1     27728 2.60385E-02-2.58042E-02-1.42743E-04 2.28564E-01-5.55250E-04-2.34833E-04
 -1     27729 1.20592E-02-1.22195E-02 1.97060E-04 1.14049E-01-2.38662E-04-1.15186E-04
 -1     27730 1.63565E-02-1.61268E-02-1.75787E-04 1.15307E-01-3.71819E-04-1.64122E-04
 -1     27731 1.26322E-02-1.22324E-02-3.49145E-04 1.14205E-01 5.96742E-04-1.94124E-04
 -1     27732 1.12967E-02-1.09466E-02-2.98087E-04 1.13530E-01 8.76735E-05-6.44137E-04
 -1     27733 1.55984E-02-1.56302E-02 7.99389E-05 1.14473E-01-9.35036E-05-2.10967E-04
 -1     27734-1.66543E-02 1.66995E-02-7.36394E-06 1.19726E-01 1.13402E-04-1.20773E-05
 -1     27735 2.04885E-02-2.08704E-02 4.29728E-04 1.19377E-01-4.66850E-05-4.73390E-04
 -1     27736-1.80291E-01 1.79217E-01 9.80304E-04-1.10557E-01-1.29398E-04-9.22820E-04
 -1     27737-1.86555E-01 1.88302E-01-1.83460E-03-1.20013E-01-9.77743E-04 7.68602E-04
 -1     27738 1.20865E-02-1.10424E-02-1.00084E-03 1.11620E-01-8.25522E-05 4.97800E-04
 -1     27739 1.38999E-02-1.45122E-02 6.56106E-04 1.14821E-01 2.83381E-05-1.04271E-04
 -1     27740 1.44722E-02-1.43287E-02-1.02222E-04 1.13453E-01-4.38464E-04-1.45872E-04
 -1     27741 1.58555E-03-1.81763E-03 2.83798E-04 1.24136E-01-2.33695E-04-3.01445E-04
 -1     27742-1.37464E-01 1.38091E-01-7.03464E-04-3.70553E-02 2.34455E-04-4.82934E-04
 -1     27743-1.06294E-01 1.07186E-01-9.41051E-04-1.37969E-02-6.22264E-05-1.43647E-04
 -1     27744-1.17637E-01 1.17165E-01 3.94843E-04-1.25983E-02 4.09709E-04-5.09888E-04
 -1     27745 6.19578E-03-6.17209E-03 3.04646E-05 1.21163E-01-8.34513E-04-1.24238E-04
 -1     27746 7.60720E-03-7.73370E-03 1.77742E-04 1.22379E-01-1.07874E-04 1.07802E-04
 -1     27747-1.29159E-01 1.28217E-01 8.72137E-04-8.54768E-02-1.21532E-04-3.84880E-05
 -1     27748-1.22494E-01 1.22000E-01 4.28352E-04-7.03996E-02-8.39297E-04-6.04355E-04
 -1     27749-1.33250E-01 1.33274E-01-8.33041E-05-9.13995E-02-5.23414E-05 5.98079E-04
 -1     27750-1.27160E-01 1.27065E-01 4.16117E-05-8.22799E-02 2.59009E-04-1.49331E-03
 -1     27751-1.31170E-01 1.31923E-01-8.28023E-04-8.79100E-02 5.36709E-05-6.94601E-04
 -1     27752 9.39150E-03-8.96735E-03-3.84286E-04 1.11394E-01 3.64191E-04 1.66305E-04
 -1     27753 9.83355E-03-1.06691E-02 8.81196E-04 1.11372E-01 1.50476E-04-1.11296E-03
 -1     27754-6.84175E-02 6.85339E-02-1.02123E-04 9.10384E-02 8.92814E-05-7.88430E-06
 -1     27755-1.89166E-01 1.96163E-01-7.58226E-03 6.86555E-02-3.60070E-03-1.45098E-02
 -1     27756 3.57241E-02-3.55129E-02-1.25326E-04 2.05926E-01 1.82158E-04 4.22791E-04
 -1     27757-9.79184E-02 9.69076E-02 9.82679E-04-1.48087E-03 2.48349E-04 8.87199E-05
 -1     27758-9.22509E-02 9.16764E-02 5.65356E-04 1.37569E-02 4.56807E-04 6.68090E-04
 -1     27759-2.60433E-03 2.38627E-03 2.95925E-04 2.02782E-01 1.06058E-03-3.01519E-04
 -1     27760-2.26554E-03 2.89325E-03-5.43682E-04 2.02397E-01-3.10755E-04 3.37133E-04
 -1     27761-7.97467E-03 8.74510E-03-6.91989E-04 1.94168E-01-1.92953E-04 5.63552E-04
 -1     27762-3.07774E-03 3.71229E-03-5.52709E-04 2.02478E-01 6.55319E-04-2.88711E-04
 -1     27763 1.67420E-02-1.67313E-02 3.60346E-05 1.36922E-01 1.32557E-05 2.05329E-05
 -1     27764 5.58873E-03-5.25082E-03-2.53109E-04 1.95624E-01-9.23575E-04-8.49876E-04
 -1     27765 7.19829E-03-7.17823E-03 5.24191E-05 2.02108E-01-6.07488E-04-8.82836E-04
 -1     27766 5.01995E-03-4.52310E-03-4.18515E-04 1.88252E-01 8.67956E-04 4.23616E-04
 -1     27767-1.73241E-01 1.73035E-01 1.19960E-04-1.27813E-01-7.93562E-06 2.85691E-05
 -1     27768-2.27818E-02 2.42695E-02-1.42162E-03 1.75111E-01-3.92570E-04-1.05824E-04
 -1     27769 5.20224E-03-4.46449E-03-6.94411E-04 1.18406E-01-3.52750E-04 7.92859E-04
 -1     27770 2.98815E-03-2.58552E-03-3.58708E-04 1.19230E-01 5.58287E-04 4.76880E-04
 -1     27771 6.35361E-03-6.11471E-03-1.89492E-04 1.17217E-01 2.76203E-04 1.63622E-04
 -1     27772 6.37011E-03-6.33555E-03 1.50797E-05 1.21092E-01-3.12064E-04 8.24505E-04
 -1     27773 2.11208E-03-2.34369E-03 2.89169E-04 1.21982E-01-5.45590E-04 1.08582E-04
 -1     27774 3.58748E-03-4.38204E-03 8.31551E-04 1.21620E-01-1.25923E-03 1.83465E-04
 -1     27775-2.49325E-02 2.44285E-02 4.40433E-04 6.02347E-03 7.90112E-04-2.70296E-03
 -1     27776-2.39282E-03 2.40335E-03 1.35293E-05 9.03539E-02-3.47022E-05 3.99191E-04
 -1     27777 1.79929E-03-1.87493E-03 9.72265E-05 9.26797E-02 1.93356E-04-1.59812E-04
 -1     27778 1.57371E-02-1.57600E-02 7.39123E-05 1.25871E-01-2.19281E-05 2.43674E-04
 -1     27779 1.97197E-02-1.90625E-02-6.17285E-04 1.25790E-01 2.76834E-05-6.60742E-05
 -1     27780 1.61538E-02-1.58202E-02-2.78379E-04 1.27906E-01 1.80385E-04-7.83740E-04
 -1     27781-1.40777E-01 1.43688E-01-2.81831E-03 1.38230E-01 1.40996E-03-5.06275E-04
 -1     27782-1.15462E-01 1.15969E-01-4.05194E-04 1.36045E-01-1.15068E-03-4.15109E-04
 -1     27783-1.30698E-01 1.28830E-01 1.93241E-03 1.34570E-01 3.71403E-03 2.31353E-03
 -1     27784-1.44050E-01 1.38844E-01 5.26079E-03 1.36581E-01-2.95251E-03-1.06349E-03
 -1     27785 2.64129E-02-2.68685E-02 5.48159E-04 2.23058E-01 3.09739E-04-3.34037E-05
 -1     27786 2.69772E-02-2.68756E-02-1.75761E-05 2.21415E-01-6.35531E-05 3.80961E-04
 -1     27787-2.90175E-01 3.08373E-01-1.81309E-02-6.23186E-02-6.37639E-03-1.02665E-02
 -1     27788 3.44199E-02-3.44402E-02 9.93482E-05 2.12937E-01 5.90884E-05 1.63572E-04
 -1     27789 3.15746E-02-3.20609E-02 5.81705E-04 2.13634E-01 5.44561E-04 1.13019E-04
 -1     27790 3.74788E-02-3.71169E-02-2.81249E-04 2.06206E-01 1.73156E-04 8.92123E-05
 -1     27791 3.66569E-02-3.64609E-02-1.67248E-04 4.07983E-02 1.38997E-03-1.19548E-04
 -1     27792 3.42419E-02-3.39442E-02-2.67255E-04 3.84390E-02 1.15215E-04-5.71281E-04
 -1     27793 3.59791E-02-3.65454E-02 5.86356E-04 3.60408E-02 2.46098E-03-1.45968E-03
 -1     27794 8.03936E-03-7.94987E-03-5.63763E-05-1.42116E-02 5.34578E-04 2.06516E-03
 -1     27795 4.33551E-03-4.49359E-03 1.79238E-04-1.80897E-02-1.18642E-04 6.22866E-04
 -1     27796-1.11791E-01 1.11339E-01 4.12791E-04-4.26637E-02-5.77341E-04-4.02521E-04
 -1     27797 2.76026E-02-2.83804E-02 8.61116E-04 2.36539E-01 6.71373E-04-1.85335E-04
 -1     27798 2.54523E-02-2.47345E-02-6.19355E-04 2.50692E-01-2.72037E-05 7.06699E-05
 -1     27799 4.71549E-02-4.66038E-02-5.13890E-04 1.14200E-01-8.37512E-05 2.34013E-04
 -1     27800 3.96900E-02-3.96741E-02 1.83169E-05 1.16664E-01-1.38105E-04-2.25824E-05
 -1     27801-8.50109E-03 8.40468E-03 1.72003E-04 1.89993E-01 3.32376E-04 6.85253E-05
 -1     27802 2.85941E-02-2.82483E-02-2.56758E-04 2.33557E-01 5.53737E-04-5.71502E-04
 -1     27803 2.68451E-02-2.75570E-02 8.14159E-04 6.04858E-02-4.83134E-04-2.27265E-03
 -1     27804 2.60822E-02-2.60244E-02 3.53311E-05 6.63666E-02-5.23325E-04-1.24672E-03
 -1     27805 2.27762E-02-2.19702E-02-7.40077E-04 1.58668E-01 9.26244E-05 2.68641E-04
 -1     27806 4.57138E-02-4.54814E-02-1.69436E-04 1.51848E-01-2.06344E-04-3.47727E-04
 -1     27807 2.52057E-02-2.46104E-02-5.16443E-04 5.41913E-02 4.90510E-04 7.33013E-05
 -1     27808 1.39048E-02-1.27526E-02-1.07471E-03 4.82548E-02 8.31546E-04-1.03062E-03
 -1     27809-1.00626E-01 1.00649E-01-6.67135E-05-4.04704E-02 5.93173E-05-7.61286E-05
 -1     27810 9.39715E-03-9.15363E-03-1.91473E-04 1.14157E-01-4.77468E-04-2.22981E-04
 -1     27811 2.41059E-02-2.37214E-02-3.13614E-04 1.66202E-01-2.80013E-05 5.21094E-05
 -1     27812 3.44290E-02-3.47334E-02 3.69920E-04 1.56142E-01 1.19868E-04 1.47247E-04
 -1     27813 4.09982E-02-4.09276E-02-1.40045E-05 1.54799E-01-4.13084E-05-1.36691E-04
 -1     27814-6.52753E-02 6.56095E-02-2.80918E-04 1.49197E-01-1.72007E-03-6.99181E-04
 -1     27815-4.80939E-02 5.02364E-02-2.06253E-03 1.50221E-01 1.22433E-03 2.68301E-04
 -1     27816 1.92670E-02-1.85175E-02-6.94638E-04 1.38217E-01-3.44587E-04-3.58590E-04
 -1     27817 2.45079E-02-2.43417E-02-1.14206E-04 1.39983E-01-3.10235E-04 6.38320E-04
 -1     27818 1.69308E-02-1.73260E-02 4.45686E-04 1.38270E-01-1.51370E-04-6.28145E-05
 -1     27819 2.06516E-02-2.03694E-02-2.20863E-04 1.51379E-01-7.86944E-04-1.88359E-04
 -1     27820-1.28179E-01 1.27817E-01 3.00335E-04-8.40474E-02-1.29132E-04-3.79619E-04
 -1     27821 5.62764E-02-5.64731E-02 2.45728E-04 1.32878E-01-7.97371E-04-1.45922E-04
 -1     27822 5.56173E-02-5.52874E-02-2.77223E-04 1.33601E-01-9.07257E-05 2.35034E-04
 -1     27823 5.52113E-02-5.52504E-02 9.29696E-05 1.28537E-01 4.51192E-05-2.32100E-04
 -1     27824-1.40234E-01 1.40188E-01-1.82935E-05-8.84041E-02-3.79494E-05 3.35459E-04
 -1     27825-4.89700E-03 6.23267E-03-1.27194E-03 1.57702E-01-2.29261E-04 1.90013E-04
 -1     27826-1.68449E-03 3.37803E-03-1.63361E-03 1.64623E-01-9.89851E-04-1.17985E-03
 -1     27827-1.11113E-01 1.11073E-01-1.21430E-05-7.41056E-02-9.90628E-04 1.76724E-03
 -1     27828-1.03058E-01 1.03529E-01-5.21016E-04-6.90224E-02 7.66221E-05 1.94152E-03
 -1     27829 3.05678E-03-3.53496E-03 5.25482E-04 1.18635E-01 2.94188E-04-1.56310E-04
 -1     27830 5.87256E-03-6.15990E-03 3.37053E-04 1.16052E-01 6.54980E-05 2.49703E-04
 -1     27831 2.31198E-02-2.27883E-02-2.27655E-04 2.60977E-01-3.36488E-04 1.77473E-04
 -1     27832 2.11841E-02-2.01918E-02-8.90883E-04 2.54629E-01 5.25846E-04-4.27700E-04
 -1     27833 3.07010E-02-3.03927E-02-2.76492E-04 1.67285E-02-4.47069E-04-4.31158E-05
 -1     27834-5.51831E-04 2.08410E-04 3.86908E-04 1.73249E-01 3.72731E-03 7.39698E-04
 -1     27835 1.66997E-04-7.38443E-05-3.03768E-05 1.76418E-01 1.35871E-03 3.25076E-03
 -1     27836 1.41371E-02-1.32474E-02-7.97964E-04 2.18194E-01 1.18954E-04 1.06716E-03
 -1     27837 6.01796E-03-5.64671E-03-3.24177E-04 1.14316E-01-3.35024E-04-1.49492E-04
 -1     27838 5.63532E-03-6.00204E-03 4.13578E-04 1.16706E-01 3.86415E-05-1.53243E-04
 -1     27839-1.35822E-01 1.35305E-01 5.73478E-04 1.40068E-01 2.38355E-03 2.31999E-04
 -1     27840 6.61331E-03-5.80163E-03-7.67541E-04 1.12591E-01 7.86893E-04-8.47383E-04
 -1     27841-9.85729E-02 9.64537E-02 2.07790E-03-6.58247E-02-3.96708E-04 5.63097E-04
 -1     27842-3.12503E-03 5.29527E-04 2.49035E-03-2.17165E-02 1.40042E-03 1.63939E-03
 -1     27843-1.77864E-02 1.44893E-02 3.26119E-03-1.81019E-02-2.10926E-03-5.04693E-04
 -1     27844 3.59142E-03-4.69660E-03 1.16949E-03 9.71629E-02-6.05996E-04 6.29565E-04
 -1     27845-6.55425E-02 6.55783E-02 1.00956E-05 1.58953E-01-4.57169E-04 1.95874E-04
 -1     27846-5.75440E-02 5.82516E-02-6.51608E-04 1.61678E-01-1.77371E-03 1.02433E-03
 -1     27847 2.02737E-02-1.96354E-02-6.38239E-04 1.06455E-03-1.35465E-03-1.20095E-03
 -1     27848 2.05854E-02-2.12428E-02 6.20151E-04 6.64889E-04-1.40063E-03-6.46730E-04
 -1     27849 2.32163E-02-2.31887E-02-4.10918E-06 3.10704E-03-8.53666E-04 1.24263E-04
 -1     27850 3.13058E-02-3.17493E-02 4.53719E-04 1.87284E-02-5.61553E-04 4.44089E-04
 -1     27851-2.66317E-01 2.52200E-01 1.38880E-02 1.15849E-01 7.98343E-03-2.54166E-03
 -1     27852-1.17138E-02 1.13457E-02 4.86290E-04 1.22132E-02-2.22122E-04-3.12987E-04
 -1     27853-5.30608E-02 5.15699E-02 1.41201E-03 2.30259E-02-3.60601E-04 7.24424E-04
 -1     27854 2.40779E-02-2.33727E-02-6.81186E-04 4.79797E-03 2.28467E-03-1.68315E-04
 -1     27855 2.72073E-02-2.67154E-02-4.89338E-04 1.51258E-02 2.09370E-04 5.77661E-04
 -1     27856-4.35473E-02 4.66699E-02-3.25114E-03 4.74485E-02 1.53043E-02-7.74753E-03
 -1     27857-4.20936E-02 4.02672E-02 1.52567E-03 5.60890E-02 2.15768E-02-1.70953E-03
 -1     27858-8.13734E-02 8.67970E-02-5.06145E-03 3.96054E-02 9.80523E-03 1.00999E-02
 -1     27859 1.93948E-02-1.94096E-02 1.43570E-05 8.21039E-02 1.45763E-04-7.71900E-05
 -1     27860-1.66999E-01 1.67325E-01-4.15644E-04-8.21244E-02 2.36546E-04 1.39790E-03
 -1     27861-2.41218E-05-1.35278E-04-1.07360E-05-3.97049E-02-5.23775E-04-3.59691E-04
 -1     27862 3.01992E-03-3.36987E-03 4.15604E-04 1.14381E-01 3.86550E-04 3.58459E-04
 -1     27863-6.52420E-02 6.86319E-02-3.36865E-03 3.42671E-02-2.35340E-04 3.97064E-03
 -1     27864-1.40920E-02 1.60070E-02-1.95590E-03 1.89262E-02 1.79520E-03 1.34383E-03
 -1     27865 2.68891E-03-2.78653E-03 1.38918E-04 1.17299E-01 3.93151E-04 2.44954E-04
 -1     27866 2.90560E-03-2.94410E-03 1.12957E-04 1.16292E-01 9.01131E-05 1.48564E-04
 -1     27867 2.38499E-03-2.48074E-03 1.34458E-04 1.17904E-01-3.49688E-05 2.19025E-04
 -1     27868-5.32969E-02 5.33871E-02-3.64127E-05 1.60920E-01-1.53281E-04-3.65441E-04
 -1     27869 3.41186E-02-3.40300E-02-2.59787E-05 1.51350E-01 2.31957E-04-1.29199E-04
 -1     27870-4.42810E-02 4.44919E-02-1.51020E-04 1.67790E-01 4.21079E-04 6.64503E-04
 -1     27871-3.42866E-02 3.48178E-02-4.69162E-04 1.71919E-01-4.19597E-04 1.33058E-04
 -1     27872-1.46610E-01 1.47086E-01-5.46965E-04-1.05866E-01-6.00740E-04-4.04876E-06
 -1     27873-1.39654E-01 1.39833E-01-2.36368E-04-9.24591E-02-7.14372E-04 1.10620E-03
 -1     27874 5.46351E-02-5.52982E-02 7.08690E-04 1.04457E-01 4.59824E-04 7.89297E-04
 -1     27875-1.50223E-01 1.50148E-01-5.44094E-07-1.07740E-01-3.45026E-05 2.33179E-05
 -1     27876-1.44725E-01 1.44387E-01 2.68873E-04-9.95407E-02-2.57813E-04-1.68275E-04
 -1     27877 4.89709E-03-5.31900E-03 4.34420E-04-1.66004E-02-6.70439E-04 5.66436E-04
 -1     27878 1.65008E-02-1.57352E-02-7.09703E-04-1.56225E-04-2.33911E-03 1.42791E-03
 -1     27879 8.89132E-03-9.33570E-03 4.93650E-04-1.20525E-02-8.86546E-05-6.13829E-04
 -1     27880-1.47618E-01 1.46714E-01 8.26828E-04-1.06659E-01-6.13781E-04-5.10346E-05
 -1     27881 1.45475E-02-1.49327E-02 4.15580E-04 1.15278E-01-2.11040E-04-6.58403E-04
 -1     27882 1.27940E-02-1.33048E-02 5.64026E-04 1.13223E-01 1.73099E-04 2.00696E-04
 -1     27883-1.52942E-01 1.52616E-01 2.51303E-04-1.09340E-01-2.58963E-04 1.41483E-04
 -1     27884-1.33340E-01 1.33406E-01-1.29952E-04-7.99057E-02-2.25858E-04-1.61616E-04
 -1     27885-1.36055E-01 1.35692E-01 2.97313E-04-8.59622E-02 1.70203E-04-2.88518E-04
 -1     27886 1.51829E-02-1.51434E-02 3.73643E-06 1.25076E-01 8.59936E-05-5.66074E-05
 -1     27887-1.52889E-01 1.52976E-01-1.61047E-04-1.09839E-01 9.16556E-05 3.22367E-04
 -1     27888-3.83277E-02 3.72465E-02 1.01936E-03 2.27707E-02-4.65262E-04 1.88478E-03
 -1     27889-6.85184E-02 6.84491E-02 4.53767E-05 2.56409E-03-1.26843E-04-7.85668E-06
 -1     27890-1.20375E-01 1.20765E-01-4.56709E-04-7.40012E-02 8.08613E-04-8.74909E-04
 -1     27891-1.17100E-01 1.18706E-01-1.65015E-03-6.85156E-02 1.06597E-03-3.59866E-04
 -1     27892-1.19536E-01 1.20250E-01-7.72100E-04-7.53412E-02 6.97591E-04 1.38423E-04
 -1     27893-1.17538E-01 1.18692E-01-1.19762E-03-6.98355E-02 9.26879E-04 5.08740E-04
 -1     27894 5.94314E-03-6.03204E-03 1.32434E-04 1.16199E-01 2.24528E-04 3.01610E-04
 -1     27895-1.25303E-01 1.24246E-01 1.01585E-03-8.11494E-02 7.48434E-04-1.08139E-03
 -1     27896 4.61744E-02-4.59232E-02-1.80623E-04 1.64548E-01 6.37796E-05 3.02376E-04
 -1     27897 5.03640E-03-4.83647E-03-1.14915E-04 2.13780E-01-6.50802E-04 2.39363E-04
 -1     27898 4.58081E-03-4.27949E-03-2.19580E-04 2.10611E-01-3.86332E-04 4.11142E-05
 -1     27899 7.18975E-03-7.03917E-03-9.09013E-05 8.13108E-02 2.47378E-04-5.69006E-04
 -1     27900 1.33926E-02-1.32457E-02-6.88368E-05 7.91038E-02 2.59254E-04 1.46590E-04
 -1     27901 3.50082E-03-3.85429E-03 4.31447E-04 2.12054E-01 2.37427E-04-5.31567E-04
 -1     27902 1.02486E-02-1.08023E-02 6.46646E-04 2.28316E-01-3.12979E-04-2.82386E-04
 -1     27903-9.65309E-02 9.68304E-02-3.41030E-04 4.45968E-03-2.81318E-04-7.07888E-04
 -1     27904-1.45643E-01 1.45538E-01 3.38301E-05-1.02633E-01 1.53797E-04-1.52168E-04
 -1     27905 2.43929E-02-2.39863E-02-2.74095E-04 5.74744E-02 8.10842E-04-2.98766E-04
 -1     27906 2.75267E-02-2.76500E-02 1.74793E-04 5.17887E-02-1.64247E-04 1.14780E-03
 -1     27907 2.63702E-02-2.59073E-02-3.79066E-04 6.09775E-02 2.96754E-04 6.89501E-04
 -1     27908 1.26017E-02-1.23102E-02-2.56211E-04 5.92660E-02 9.78429E-04 2.21293E-04
 -1     27909 1.28141E-02-1.25935E-02-1.35849E-04 4.99167E-02 1.32378E-03-1.73772E-04
 -1     27910-7.77479E-02 7.75617E-02 2.37317E-04 1.53729E-01 8.86692E-04-1.13847E-03
 -1     27911 3.43347E-02-3.40540E-02-2.14778E-04 1.56749E-01 5.18212E-04 6.85443E-04
 -1     27912 2.96614E-02-2.97519E-02 1.55462E-04 1.59802E-01 8.27559E-04 7.17736E-04
 -1     27913 3.47408E-02-3.45880E-02-8.46613E-05 1.61684E-01 5.25646E-04 5.53715E-04
 -1     27914-1.11673E-01 1.13613E-01-1.85181E-03 1.28549E-01-4.87697E-04 7.07770E-04
 -1     27915-1.04835E-01 1.03159E-01 1.70915E-03 1.22162E-01 3.78994E-04 2.05339E-03
 -1     27916-9.91132E-02 9.93140E-02-1.55194E-04 1.18829E-01 7.01126E-04 2.18312E-03
 -1     27917-7.45971E-02 7.34987E-02 1.10878E-03 9.00800E-02-1.62488E-04-2.77436E-03
 -1     27918-1.61408E-01 1.61259E-01 6.90653E-05-1.16431E-01 1.80248E-05 2.75703E-04
 -1     27919-1.14581E-02 1.14046E-02 1.35970E-04 1.74750E-01 4.05073E-04 1.48866E-03
 -1     27920-3.64189E-02 3.60199E-02 4.54979E-04 1.74180E-01-8.81377E-05-1.10311E-03
 -1     27921-1.72878E-02 1.74726E-02-1.10099E-04 1.87307E-01-6.83502E-05-1.16477E-04
 -1     27922 1.35308E-02-1.34971E-02 5.91575E-05 2.31441E-01 1.70333E-04 1.67849E-04
 -1     27923 3.72237E-02-3.74954E-02 3.41860E-04 1.69817E-01-2.23596E-04 1.62404E-04
 -1     27924 2.68253E-02-2.68138E-02 5.77628E-05 1.81012E-01-1.54940E-04-1.54119E-04
 -1     27925 2.58776E-02-2.62906E-02 4.82963E-04 1.73077E-01-5.52164E-04-2.48620E-04
 -1     27926 5.57021E-02-5.56443E-02 2.75931E-06 1.65072E-01-4.36186E-05 3.23257E-04
 -1     27927 2.90975E-02-2.89937E-02-1.00580E-05 2.31498E-01-8.10160E-04 2.20788E-04
 -1     27928 1.01229E-02-1.08235E-02 7.61385E-04-1.67564E-02-6.39173E-04 4.27070E-04
 -1     27929 1.60909E-02-1.68036E-02 6.93995E-04-5.03451E-03-9.04181E-04-3.05932E-04
 -1     27930 7.56646E-02-7.58388E-02 2.17836E-04 1.21276E-01 1.09062E-04-2.57942E-04
 -1     27931 1.59063E-02-1.57898E-02-2.32059E-05 2.34842E-01 2.87787E-04-1.34229E-04
 -1     27932 2.08095E-02-2.00545E-02-6.55056E-04 2.51629E-01-3.98536E-04 3.51037E-04
 -1     27933 2.37619E-02-2.34714E-02-2.22801E-04 1.74448E-01 2.10207E-04-3.64431E-06
 -1     27934 1.52874E-02-1.49309E-02-3.05154E-04 1.14701E-01-4.99929E-04-4.59915E-04
 -1     27935 1.45136E-02-1.41081E-02-3.59352E-04 1.14870E-01-5.16416E-05 1.51814E-04
 -1     27936 8.59577E-03-8.51973E-03-2.31261E-05 1.23543E-01-1.05662E-04 2.51760E-04
 -1     27937 8.93002E-03-9.83675E-03 9.65606E-04 9.69870E-02-4.65260E-04 3.64334E-04
 -1     27938 3.74470E-03-4.03185E-03 3.77738E-04 1.00018E-01 1.08933E-06 1.80711E-04
 -1     27939 1.31931E-02-1.28119E-02-3.46167E-04 1.13000E-01 4.53242E-05-3.17164E-04
 -1     27940-8.60276E-02 9.02779E-02-4.27973E-03 1.27716E-01 2.51007E-04 2.20627E-03
 -1     27941-1.07744E-01 1.09957E-01-2.18030E-03 1.31339E-01 7.02171E-04 1.46394E-03
 -1     27942-1.70749E-01 1.70403E-01 2.69260E-04-1.19060E-01 2.98858E-04 2.30919E-05
 -1     27943-1.77174E-01 1.76764E-01 3.19068E-04-1.29777E-01-7.43677E-05-1.66167E-04
 -1     27944-1.74675E-01 1.74240E-01 3.45381E-04-1.24814E-01-1.16205E-04-4.71093E-04
 -1     27945 2.35692E-02-2.39958E-02 4.97570E-04 1.71639E-01 2.35238E-04-5.83483E-05
 -1     27946-1.82278E-01 1.82115E-01 7.36681E-05-1.34426E-01-1.09953E-04-2.02564E-04
 -1     27947-1.84040E-01 1.85026E-01-1.08909E-03-1.33238E-01 7.00061E-05-1.26472E-03
 -1     27948 5.14152E-03-6.54562E-03 1.37249E-03-2.33451E-02-3.98781E-04 9.23031E-04
 -1     27949-1.83919E-01 1.83957E-01-1.38099E-04-1.36680E-01 3.94147E-04 1.18323E-03
 -1     27950-1.82903E-01 1.83063E-01-2.66166E-04-1.32130E-01 3.11584E-04 8.56510E-05
 -1     27951-1.79142E-01 1.78942E-01 1.39028E-04-1.23173E-01-1.05247E-03-5.29782E-05
 -1     27952 2.47631E-02-2.51492E-02 4.85211E-04 2.46567E-01-4.96933E-05 8.24537E-05
 -1     27953-7.68657E-02 7.68839E-02 1.36407E-05 1.06087E-01-5.94633E-05-9.94961E-04
 -1     27954 2.11272E-02-2.15504E-02 5.23472E-04 2.57366E-01-8.99824E-05-5.21310E-04
 -1     27955 1.63163E-04 2.88334E-04-3.80712E-04 1.82416E-01-1.65244E-04 3.35961E-04
 -1     27956 1.56278E-02-1.56381E-02 1.05751E-04 2.26836E-01 1.93834E-05-9.72443E-05
 -1     27957-3.73588E-03 3.55394E-03 2.60481E-04 1.99809E-01 4.49726E-04-3.50860E-04
 -1     27958 2.00778E-02-1.99107E-02-6.44289E-05 2.46362E-01-7.71513E-04 4.73997E-04
 -1     27959 2.49267E-02-2.47261E-02-1.47556E-04 1.44816E-01-1.88991E-06-1.83463E-04
 -1     27960 2.38949E-02-2.41336E-02 2.96449E-04 1.41781E-01 2.45392E-04 9.39771E-05
 -1     27961 1.31545E-02-1.31931E-02 1.28936E-04 2.33950E-01 3.08201E-04 5.66895E-04
 -1     27962 1.60589E-02-1.65187E-02 5.54170E-04 2.39036E-01 7.63369E-04 6.96698E-05
 -1     27963-8.07651E-02 8.08648E-02-1.05133E-04 1.20379E-02 6.94757E-05 1.59442E-04
 -1     27964-1.02163E-01 1.02116E-01 3.39980E-06-4.09662E-02-1.40761E-05-1.88394E-04
 -1     27965 2.22773E-03-2.26631E-03 8.77632E-05 1.19173E-01 2.12723E-04-4.17633E-04
 -1     27966 1.05129E-03-1.14757E-03 1.43834E-04 1.19502E-01-4.71429E-04-1.17299E-04
 -1     27967 3.93433E-04-1.21650E-04-2.27919E-04 1.19101E-01 2.18157E-04-4.10012E-04
 -1     27968 1.37450E-03-1.81764E-03 4.83159E-04 1.20197E-01-4.47833E-04-7.76945E-05
 -1     27969 4.21477E-05 3.47763E-04-3.32588E-04 1.20422E-01 3.31444E-05-1.96857E-04
 -1     27970-1.13452E-01 1.13387E-01 1.16985E-05-5.44943E-02-1.11255E-04-2.30689E-04
 -1     27971 3.56850E-02-3.57900E-02 1.43137E-04 4.40377E-02 3.32469E-04-1.02259E-04
 -1     27972 1.41216E-02-1.42266E-02 1.45545E-04 1.14610E-01-3.91765E-04-3.20791E-05
 -1     27973 1.80240E-02-1.84090E-02 4.37987E-04 1.23668E-01 4.21832E-04 3.07630E-04
 -1     27974 1.74004E-02-1.71245E-02-2.22093E-04 1.21649E-01 2.77552E-04 1.34319E-04
 -1     27975-1.16224E-01 1.16259E-01-7.33046E-05-4.66921E-02-2.98453E-04 1.82761E-05
 -1     27976-1.22528E-01 1.22429E-01 5.22006E-05-6.87580E-02-7.45514E-04 5.07249E-04
 -1     27977 5.66247E-03-6.06364E-03 4.88324E-04 2.10958E-01 2.99513E-04-3.45392E-04
 -1     27978-1.29152E-01 1.29212E-01-1.23077E-04-7.22518E-02 1.03489E-04 2.21723E-04
 -1     27979 2.07627E-02-2.04464E-02-2.66295E-04 1.20139E-01-3.53634E-04 7.97635E-05
 -1     27980-1.23427E-01 1.23291E-01 8.05993E-05-8.91192E-02 6.62591E-04-1.59089E-06
 -1     27981-1.20412E-01 1.20821E-01-4.68290E-04-8.14574E-02 9.98671E-04 6.00521E-04
 -1     27982-7.32978E-02 7.32857E-02 1.91406E-06 2.31395E-02-3.28387E-05 1.68627E-04
 -1     27983 5.09279E-02-5.09062E-02 3.32814E-05 1.35011E-01-4.64367E-04 3.14925E-04
 -1     27984-5.53078E-03 5.60043E-03-1.00125E-04 3.81298E-02 2.21391E-05 6.58339E-04
 -1     27985 2.09647E-02-2.10117E-02 1.49235E-04 2.56593E-01-3.60687E-05 2.69269E-04
 -1     27986 2.13208E-02-2.07806E-02-4.38476E-04 2.57725E-01-4.51801E-05-7.50312E-05
 -1     27987 1.78807E-03-1.45040E-03-2.84360E-04 1.20126E-01 2.68540E-04 1.51749E-04
 -1     27988 3.58970E-04-5.18932E-05-2.76340E-04 1.21138E-01-3.99061E-05 1.67506E-04
 -1     27989 1.23805E-03-6.82543E-04-4.83136E-04 1.20134E-01 1.34150E-04 3.31983E-04
 -1     27990 2.37776E-02-2.34039E-02-2.77273E-04 2.60428E-01-1.91738E-05 3.45784E-04
 -1     27991 1.05497E-02-1.04240E-02-8.13272E-05 1.11117E-01 5.15929E-04-3.81851E-04
 -1     27992-2.00905E-02 2.04161E-02-2.56356E-04-1.43010E-02-2.60459E-04 6.39673E-04
 -1     27993-3.00511E-02 3.04143E-02-5.10966E-04-8.52808E-03 1.14250E-03-1.33771E-03
 -1     27994-1.06810E-01 1.08258E-01-1.41120E-03 1.12945E-01 3.20305E-03-9.57049E-04
 -1     27995-1.74799E-02 1.73044E-02 5.78868E-05-1.66011E-02-5.24555E-04-7.02588E-04
 -1     27996-1.01190E-02 1.08685E-02-9.98761E-04-3.40265E-02-1.54516E-03 9.10309E-04
 -1     27997-8.69641E-02 8.94452E-02-2.43191E-03 1.60011E-01-4.32946E-04 3.03110E-04
 -1     27998 2.67971E-02-2.64227E-02-3.63543E-04 2.41496E-02 8.98796E-04-6.98051E-04
 -1     27999 1.79204E-02-1.79460E-02-6.49169E-06 2.36688E-02 4.78794E-04 1.12755E-04
 -1     28000-2.20415E-02 2.20091E-02 1.36891E-05 5.30379E-02-4.36428E-04-1.72487E-04
 -1     28001-1.04879E-01 1.04819E-01 1.57098E-05-4.12027E-02-3.21264E-05-3.20226E-05
 -1     28002 7.57409E-03-7.83279E-03 3.06792E-04 1.02984E-01-4.77135E-04 3.21839E-04
 -1     28003-1.05166E-01 1.07623E-01-2.47095E-03 1.12205E-01 9.24935E-04-1.16297E-03
 -1     28004-1.08484E-01 1.08211E-01 3.43534E-04 1.44570E-01 7.58287E-04-1.91892E-03
 -1     28005-1.17870E-01 1.18362E-01-5.43411E-04-1.43894E-02-5.15707E-05-7.26922E-05
 -1     28006 2.66979E-03-2.74184E-03 1.16937E-04 1.17758E-01-4.05420E-05-4.73771E-04
 -1     28007 1.66468E-03-1.46366E-03-1.53836E-04 1.18449E-01-2.87428E-04-2.54784E-04
 -1     28008-3.24801E-02 3.13191E-02 1.13675E-03 4.65685E-02-1.01028E-04 4.39255E-06
 -1     28009-2.41242E-02 2.40736E-02 1.07398E-04 1.52207E-01 3.40768E-04-3.48031E-04
 -1     28010-6.74679E-02 6.75780E-02-1.29506E-04 3.84118E-03-1.65403E-05 3.01777E-04
 -1     28011 1.27599E-02-1.23761E-02-3.20605E-04 5.27965E-02-4.20541E-04 2.82939E-04
 -1     28012-1.77952E-01 1.78062E-01-2.00296E-04-1.32924E-01-3.61059E-04 1.06137E-04
 -1     28013-1.64724E-01 1.64703E-01-5.99997E-05-1.21315E-01-2.65732E-04-1.33552E-04
 -1     28014-1.47100E-01 1.47227E-01-2.03915E-04-9.98052E-02-1.01375E-06 1.63374E-04
 -1     28015-1.53639E-01 1.53811E-01-2.45268E-04-1.10012E-01 1.55952E-04-1.15313E-05
 -1     28016-1.57193E-01 1.56717E-01 3.99135E-04-1.12306E-01 1.18612E-04 2.45703E-04
 -1     28017-1.58723E-01 1.58591E-01 5.29354E-05-1.13452E-01-4.56680E-04-3.54933E-04
 -1     28018-1.59484E-01 1.59384E-01 2.05920E-05-1.14188E-01-7.60975E-05 2.77414E-04
 -1     28019-1.31844E-01 1.31479E-01 3.06360E-04-7.92087E-02-1.00986E-04-1.21771E-04
 -1     28020 3.31785E-04-7.69206E-05-2.08491E-04 1.20771E-01 7.03220E-05 3.25513E-04
 -1     28021-7.91676E-02 7.90961E-02 3.41586E-05-6.06382E-02 7.40614E-04 3.83063E-04
 -1     28022-9.13787E-02 9.03416E-02 1.00134E-03-6.48489E-02 9.20573E-04 1.79018E-03
 -1     28023-1.63335E-01 1.63701E-01-4.41799E-04-1.19047E-01 2.86017E-04-2.58550E-04
 -1     28024-1.57167E-01 1.57258E-01-1.68753E-04-1.11712E-01-1.15974E-04-2.13208E-04
 -1     28025-1.62277E-01 1.62047E-01 1.50731E-04-1.18033E-01-5.27917E-04-2.83466E-04
 -1     28026 2.97133E-02-3.05250E-02 8.85579E-04 2.17440E-01 9.74478E-05-9.79021E-05
 -1     28027-5.48965E-02 4.75611E-02 6.99310E-03 1.12103E-02 2.74058E-04 2.71745E-03
 -1     28028 3.36601E-03-2.85260E-03-4.64915E-04 1.17957E-01-5.23018E-04-4.40793E-04
 -1     28029-7.90888E-02 7.91709E-02-1.11438E-04-1.30112E-02-7.07533E-05-6.86883E-05
 -1     28030-6.39547E-02 6.40179E-02-6.25320E-05 8.48068E-03-2.69460E-03 5.32006E-03
 -1     28031-5.79191E-02 6.19729E-02-4.04869E-03 4.58332E-02 3.80864E-03-9.70581E-04
 -1     28032-5.69395E-03 5.77866E-03-3.30364E-04-3.31171E-02 4.70414E-04-5.24222E-04
 -1     28033-1.33768E-01 1.33720E-01-1.55194E-05-7.92940E-02-9.72520E-05-1.81592E-04
 -1     28034-1.53880E-01 1.53769E-01 3.74207E-05-1.06198E-01 3.48139E-04-1.01660E-04
 -1     28035-1.51338E-01 1.51508E-01-2.40460E-04-1.04142E-01 2.93307E-04 1.85870E-04
 -1     28036-7.49237E-02 7.51265E-02-2.04051E-04 9.88871E-02-2.16396E-04-4.80374E-04
 -1     28037-4.38227E-02 4.53374E-02-1.48915E-03 1.37117E-01 2.79080E-04-3.12088E-03
 -1     28038-7.61148E-02 7.55738E-02 5.55575E-04 1.55898E-01 1.27592E-03-6.09823E-04
 -1     28039-5.99476E-02 6.03782E-02-4.00494E-04 1.41896E-01 3.58882E-03 8.80993E-04
 -1     28040-4.53014E-02 4.75266E-02-2.17629E-03 1.32175E-01-4.76793E-03-2.11052E-03
 -1     28041 1.56620E-03-1.75944E-03 2.45269E-04 1.19360E-01 3.35705E-04-2.10832E-04
 -1     28042 9.94436E-03-1.11476E-02 1.28867E-03 2.16469E-01 4.57039E-04-5.26684E-04
 -1     28043-1.60955E-01 1.60969E-01-9.98123E-05-1.16866E-01-4.98956E-04 1.69791E-04
 -1     28044 1.24714E-02-1.23180E-02-9.64992E-05 1.09008E-01 2.78638E-04-3.22404E-04
 -1     28045 1.28092E-02-1.22823E-02-4.76288E-04 3.85072E-02 1.76318E-03-7.17471E-04
 -1     28046-8.33220E-02 8.28583E-02 4.81138E-04 1.60817E-01 1.34222E-03-6.08887E-04
 -1     28047-8.76724E-02 8.50896E-02 2.64652E-03 1.66245E-01 1.02781E-03-5.00348E-04
 -1     28048-8.14348E-02 8.07866E-02 6.87496E-04 1.58980E-01 3.35752E-04 5.86644E-04
 -1     28049-7.42459E-02 7.33679E-02 9.11473E-04 1.54488E-01-5.23806E-04-2.12674E-03
 -1     28050-1.43876E-01 1.43694E-01 1.10610E-04-9.45653E-02 1.66289E-04-6.23009E-05
 -1     28051-1.45945E-01 1.46073E-01-2.00686E-04-9.76243E-02 1.31031E-05 2.50395E-04
 -1     28052-9.12547E-02 9.16015E-02-3.31018E-04 1.63159E-01 1.77528E-04-2.18752E-04
 -1     28053-1.06966E-01 1.08353E-01-1.42679E-03-4.44487E-02-8.64224E-04-4.40655E-04
 -1     28054-1.82667E-01 1.82832E-01-2.54043E-04-1.35851E-01-4.13648E-05-3.99334E-04
 -1     28055-1.84843E-01 1.84830E-01-7.85518E-05-1.37373E-01-4.19694E-04-3.31057E-04
 -1     28056-1.21437E-01 1.22297E-01-9.16043E-04-8.07825E-02 5.65066E-04 2.77333E-05
 -1     28057 7.35065E-03-7.19154E-03-1.20513E-04 1.20391E-01 2.18460E-05 2.04623E-04
 -1     28058 3.56181E-02-3.57209E-02 1.76094E-04 1.79324E-01 1.48244E-04-2.54119E-04
 -1     28059 3.46488E-03-3.24276E-03-1.67200E-04 1.28798E-01 1.73451E-04 1.02717E-04
 -1     28060 7.99143E-03-7.89081E-03-5.11106E-05 1.23352E-01 1.71546E-04 1.02237E-04
 -1     28061-1.35154E-01 1.30455E-01 4.74939E-03 1.39397E-01 3.97687E-04-8.10544E-04
 -1     28062-1.42408E-01 1.43044E-01-6.07709E-04 1.36248E-01-1.56432E-03-2.03833E-03
 -1     28063-1.17991E-01 1.14835E-01 3.12918E-03 1.47641E-01 1.52884E-03 6.55987E-04
 -1     28064-1.31360E-01 1.32634E-01-1.23995E-03 1.40146E-01-1.74998E-03 5.14651E-04
 -1     28065-6.89162E-02 6.89101E-02 4.01926E-05 1.10771E-01-3.55206E-04-1.00425E-04
 -1     28066-6.24371E-02 6.22986E-02 1.75156E-04 1.20143E-01-1.02266E-03-1.76531E-04
 -1     28067-1.71739E-01 1.71481E-01 1.76025E-04-1.23397E-01 1.23092E-04-1.70521E-04
 -1     28068-1.77844E-01 1.77798E-01-3.88280E-05-1.30677E-01-5.78094E-04-2.32377E-04
 -1     28069 5.46253E-03-5.36286E-03-5.84629E-05-2.79603E-02-9.31335E-04 1.04070E-03
 -1     28070 4.35412E-03-3.80975E-03-6.48300E-04-3.47256E-02 4.65236E-04 4.80545E-04
 -1     28071 2.29613E-03-2.21664E-03-1.91845E-04-4.01343E-02-1.70800E-04-2.13535E-05
 -1     28072-9.26576E-02 9.25955E-02 2.26225E-05-2.78572E-02-4.95044E-05 2.41116E-04
 -1     28073 8.35314E-03-9.14858E-03 8.49814E-04-1.30644E-02 3.48264E-04 6.79802E-04
 -1     28074-1.04511E-01 1.04376E-01 9.31066E-05-3.50115E-02-1.29539E-03-4.36713E-04
 -1     28075 2.34181E-02-2.32481E-02-1.22129E-04 8.03735E-02 9.00521E-04-7.62650E-04
 -1     28076 2.12168E-02-2.23180E-02 1.18779E-03 7.76968E-02 3.08567E-04 5.28438E-04
 -1     28077 1.80446E-02-1.89335E-02 9.45146E-04 8.26787E-02 3.06629E-04 2.46355E-04
 -1     28078 4.92294E-03-4.93463E-03 8.48215E-05 9.12663E-02-2.39011E-04-8.72809E-04
 -1     28079 5.42431E-03-4.93929E-03-3.92970E-04 8.65572E-02 1.76021E-04-6.96232E-04
 -1     28080 1.03393E-02-9.96404E-03-2.51509E-04 9.10747E-02-6.18084E-04-4.01125E-05
 -1     28081 1.23229E-02-1.20394E-02-2.89092E-04 2.35817E-02 2.52330E-04-6.71697E-05
 -1     28082-2.10829E-01 2.08796E-01 1.92509E-03-1.20845E-01-2.91449E-03 1.92181E-03
 -1     28083 1.58173E-02-1.59412E-02 2.17715E-04 2.35868E-01-7.79211E-04-8.61410E-05
 -1     28084 1.48801E-02-1.51660E-02 3.86872E-04 2.33867E-01 6.52817E-04 4.96859E-04
 -1     28085 1.46659E-02-1.48227E-02 2.13067E-04-7.73516E-03-1.65001E-03-1.45241E-03
 -1     28086-8.33605E-02 8.16661E-02 1.71541E-03 1.54117E-01 6.79423E-04 1.06805E-03
 -1     28087 1.50685E-02-1.42970E-02-7.19207E-04 9.00313E-02 1.88775E-04-2.53163E-04
 -1     28088 1.52723E-02-1.40889E-02-1.14344E-03 9.32247E-02-8.36837E-04 4.34111E-04
 -1     28089-1.29125E-01 1.29025E-01 2.66504E-05-8.74352E-02-1.25023E-04-1.37446E-03
 -1     28090-1.26390E-01 1.24727E-01 1.60534E-03-8.57081E-02 3.27852E-04-7.43105E-04
 -1     28091-1.18563E-01 1.17776E-01 7.24196E-04-6.80300E-02 6.61169E-05 4.31480E-04
 -1     28092 4.74339E-03-4.51044E-03-1.82262E-04 1.16453E-01 1.31395E-04 3.02762E-04
 -1     28093 6.72835E-03-6.40099E-03-2.81901E-04 1.15340E-01 3.45947E-04 2.68479E-04
 -1     28094 4.26762E-03-4.58010E-03 3.69477E-04 1.16446E-01 6.26351E-04 3.86801E-05
 -1     28095 1.74798E-02-1.69141E-02-4.84362E-04 8.77565E-02 8.76681E-04 1.34259E-04
 -1     28096 3.02756E-02-2.91709E-02-1.05357E-03 9.17626E-02-4.07970E-04 8.58419E-04
 -1     28097 2.68584E-02-2.63336E-02-4.42874E-04 8.70352E-02 3.44894E-05 1.23319E-04
 -1     28098 1.14469E-02-1.13930E-02 6.69085E-06 8.51576E-02 9.33281E-04-3.17312E-04
 -1     28099 2.48721E-02-2.47655E-02-1.00468E-04 8.93574E-02 5.94452E-04 4.17800E-05
 -1     28100 8.73090E-03-8.94397E-03 2.05265E-04 5.81411E-02-2.89545E-05 3.81521E-04
 -1     28101 2.51167E-03-2.51028E-03-1.22400E-05 6.01094E-02-9.48940E-06 1.66749E-04
 -1     28102-9.08036E-02 8.93802E-02 1.48629E-03 1.54212E-01-2.01432E-03-7.99013E-04
 -1     28103 5.58795E-02-5.58633E-02 4.56622E-05 1.56466E-01 2.23963E-04 1.04166E-04
 -1     28104-1.15489E-01 1.14185E-01 1.34822E-03 1.41633E-01-2.02795E-03-8.20893E-04
 -1     28105-1.12367E-01 1.10631E-01 1.75329E-03 1.41646E-01 1.87443E-04 4.56427E-04
 -1     28106 1.07336E-02-1.03688E-02-3.32715E-04 8.70113E-02 3.09273E-04-1.81059E-04
 -1     28107 4.68829E-03-4.98801E-03 3.71050E-04 8.44233E-02 1.23194E-04-4.80197E-04
 -1     28108 1.78000E-02-1.67535E-02-9.63893E-04 8.83903E-02 6.12729E-05-1.32300E-03
 -1     28109 1.09139E-02-1.07758E-02-1.02648E-04 9.17039E-02-5.33212E-04-6.63289E-04
 -1     28110 7.11398E-03-6.90101E-03-8.66615E-05 8.61396E-02 2.05889E-04-1.09111E-03
 -1     28111-1.17807E-01 1.17980E-01-8.84374E-05 1.50816E-01 1.37320E-03-2.11754E-03
 -1     28112-1.30607E-01 1.33786E-01-3.14135E-03 1.45493E-01 3.66278E-03-2.11188E-03
 -1     28113-4.48158E-02 4.48300E-02 3.98290E-05 1.61504E-01-6.85048E-04 5.11897E-04
 -1     28114 2.05168E-02-2.02871E-02-1.68218E-04 1.49100E-01-4.38395E-04 2.22561E-04
 -1     28115 2.99337E-02-2.98316E-02-9.70648E-05 8.19173E-02-1.63756E-04 5.09501E-05
 -1     28116-7.00501E-02 6.97172E-02 2.95915E-04-2.06493E-02 2.19178E-03 1.43681E-03
 -1     28117 2.60760E-02-2.60327E-02 8.41238E-06 1.00465E-01 1.02196E-03-1.24675E-04
 -1     28118 1.79518E-02-1.84807E-02 6.12731E-04 9.59389E-02-1.54133E-04-3.45139E-05
 -1     28119-1.47583E-01 1.47536E-01-2.52670E-05-9.90883E-02 3.63587E-04-1.26639E-04
 -1     28120-1.53067E-01 1.52644E-01 3.49670E-04-1.06265E-01 7.49093E-05-3.25292E-04
 -1     28121-3.42953E-02 3.41648E-02 1.01606E-04 4.37242E-02-2.43433E-04-3.30556E-04
 -1     28122-8.01451E-02 8.03246E-02-2.19045E-04 2.67711E-02 2.80510E-04-9.41655E-04
 -1     28123 4.72195E-03-4.67053E-03-7.33394E-05-2.40577E-02-5.95326E-04 9.88376E-05
 -1     28124-1.34711E-01 1.35306E-01-6.48046E-04-7.97823E-02 1.55271E-04 1.01582E-04
 -1     28125-1.59854E-01 1.59572E-01 2.03670E-04-1.14782E-01 3.91275E-04-3.46227E-04
 -1     28126 1.19022E-02-1.04481E-02-1.48247E-03-1.81777E-02 9.83375E-04-2.61950E-04
 -1     28127 2.10847E-02-2.03329E-02-7.65156E-04 3.59163E-03 4.70462E-04-7.95753E-04
 -1     28128-4.89976E-02 4.88463E-02 1.26934E-04 3.31246E-02-8.88243E-04 1.18895E-04
 -1     28129 6.53258E-03-6.10100E-03-3.84556E-04 1.15485E-01-4.82918E-04-2.39547E-04
 -1     28130 3.40607E-03-2.95294E-03-4.07334E-04 1.17424E-01-1.28588E-04 1.10618E-04
 -1     28131 1.42529E-03-1.35502E-03-2.13912E-05 1.19654E-01 1.12509E-04 2.59414E-05
 -1     28132-1.74168E-01 1.74109E-01-2.81874E-05-1.29466E-01 2.72422E-05-1.26535E-04
 -1     28133-1.73116E-01 1.72841E-01 1.89193E-04-1.28516E-01-1.19242E-04-2.43964E-04
 -1     28134 3.64339E-02-3.63804E-02 2.81704E-05 1.98640E-01-1.58855E-04 6.04875E-05
 -1     28135 4.22421E-02-4.23619E-02 1.90053E-04 1.88189E-01-3.34873E-04-1.27250E-04
 -1     28136 2.00096E-02-1.95158E-02-3.89831E-04 2.52720E-01-8.25899E-05 3.96752E-04
 -1     28137 1.58542E-02-1.58180E-02 6.29380E-05 2.39483E-01-2.28101E-04 7.99641E-05
 -1     28138 1.81795E-02-1.83457E-02 2.62386E-04 2.48223E-01-2.13112E-04 2.21780E-04
 -1     28139-1.41272E-01 1.43813E-01-2.46938E-03 1.44540E-01 5.37286E-03 3.18281E-03
 -1     28140-1.38772E-01 1.41647E-01-2.80734E-03 1.35335E-01-2.21267E-04 6.12276E-03
 -1     28141 8.51154E-03-8.55508E-03 9.08671E-05 1.13599E-01-3.20203E-04-4.52206E-04
 -1     28142 1.36283E-02-1.33155E-02-2.31576E-04 9.57508E-02-8.58765E-04 1.46460E-04
 -1     28143 2.60145E-02-2.55875E-02-3.72917E-04 9.65291E-02-3.69876E-04 1.05076E-04
 -1     28144 5.43095E-03-5.35166E-03-3.32575E-05 1.15278E-01 1.88043E-04-3.09065E-04
 -1     28145 1.89819E-02-1.97670E-02 8.39086E-04 8.21045E-02 6.02511E-04-6.71538E-04
 -1     28146-3.80373E-02 3.76801E-02 3.30626E-04 4.17921E-02-3.81385E-04-1.34907E-04
 -1     28147 9.19709E-03-9.58585E-03 4.02260E-04 2.74456E-03-1.78611E-04-9.60708E-04
 -1     28148 1.14504E-02-1.18212E-02 4.31828E-04 7.84711E-03-1.72861E-04-6.01535E-04
 -1     28149 1.24991E-02-1.23957E-02-1.56054E-05 2.31207E-01 3.99553E-05 1.41830E-04
 -1     28150 1.27325E-02-1.25151E-02-1.24613E-04 2.32601E-01-1.28484E-04 6.05940E-06
 -1     28151-9.32241E-02 9.08547E-02 2.42400E-03 1.66869E-01 8.87670E-04 1.65613E-03
 -1     28152 3.14161E-02-3.09052E-02-4.30702E-04 2.13950E-01 1.18271E-04-1.08204E-04
 -1     28153 2.69679E-02-2.71053E-02 2.27103E-04 2.27345E-01-4.48593E-05 2.35235E-04
 -1     28154 6.10067E-02-6.13615E-02 3.85598E-04 1.05304E-01-1.44095E-05-2.07895E-05
 -1     28155 5.76413E-02-5.74090E-02-1.96235E-04 1.21198E-01-1.02523E-04 8.43421E-05
 -1     28156-1.70576E-01 1.70669E-01-1.78030E-04-1.26476E-01-8.20881E-05 1.56396E-04
 -1     28157-3.58705E-02 3.32938E-02 2.50374E-03 3.08100E-04-3.25808E-03-1.47979E-04
 -1     28158 6.61997E-03-6.79843E-03 2.61546E-04 2.14723E-01 1.16867E-04-7.66487E-05
 -1     28159 1.59335E-02-1.58657E-02 3.15247E-05 2.38006E-01-7.64630E-05-1.55167E-05
 -1     28160 1.84495E-02-1.89826E-02 6.30712E-04 2.51822E-01-1.19248E-04-6.30927E-04
 -1     28161-3.05140E-01 2.76598E-01 2.83094E-02-1.11332E-01 3.53794E-03 1.84972E-03
 -1     28162-3.35696E-01 3.56660E-01-2.10639E-02-5.46719E-02 2.44149E-02-2.57298E-02
 -1     28163-1.56390E-01 1.56647E-01-3.33959E-04-1.11342E-01-3.25720E-04-7.68804E-05
 -1     28164-1.75727E-01 1.75688E-01-4.84892E-05-1.29416E-01-2.01319E-04 2.90320E-04
 -1     28165-1.81749E-01 1.81576E-01 8.09950E-05-1.35061E-01 5.89663E-04 3.90623E-04
 -1     28166-1.79088E-01 1.79332E-01-3.31294E-04-1.33573E-01-5.42050E-04 4.98492E-04
 -1     28167-8.02983E-02 8.01219E-02 1.92106E-04 8.52299E-02-2.01597E-04-6.37546E-04
 -1     28168-7.94396E-02 7.84778E-02 9.38983E-04 9.47013E-02-2.33583E-03 4.74798E-04
 -1     28169-7.87185E-02 7.87165E-02 3.72762E-06 7.51460E-02 2.35609E-04-1.44875E-04
 -1     28170 2.30560E-02-2.19962E-02-9.52147E-04 8.58618E-02 7.92281E-04-5.69554E-04
 -1     28171 3.20443E-02-3.06945E-02-1.29253E-03 8.50517E-02 4.02129E-04-4.18305E-04
 -1     28172-1.17030E-02 1.21026E-02-2.87464E-04-1.52486E-02-1.27360E-03-1.38966E-03
 -1     28173-7.53748E-02 7.53618E-02-1.45745E-05 8.65275E-02 7.53121E-04-9.58517E-05
 -1     28174-7.53991E-02 7.52448E-02 1.61286E-04 5.30956E-02 2.57143E-04-3.35913E-04
 -1     28175-7.11906E-02 7.16033E-02-3.65204E-04 6.67528E-02 4.27164E-06 9.07875E-04
 -1     28176-7.37917E-02 7.39448E-02-1.68050E-04 1.06664E-01-6.74914E-04-1.44736E-04
 -1     28177-7.79293E-02 7.90789E-02-1.22502E-03-3.74586E-02-1.56788E-03 5.34312E-03
 -1     28178 2.84454E-02-2.84501E-02 9.42398E-05 2.25991E-01 3.29564E-04-1.11527E-04
 -1     28179-6.44032E-02 6.51772E-02-7.77881E-04-4.87978E-03-1.93017E-04 2.22071E-04
 -1     28180 2.92824E-02-2.93628E-02 1.53866E-04 2.19227E-01-7.36122E-05 5.34487E-04
 -1     28181 2.04031E-02-2.00233E-02-2.78993E-04 2.51287E-01-7.39952E-04 3.29895E-04
 -1     28182-9.54573E-02 9.47535E-02 6.54192E-04-6.83036E-02 8.92693E-04 4.26931E-05
 -1     28183-1.37900E-01 1.37832E-01-9.43251E-08-9.09228E-02 1.80664E-04-2.02930E-04
 -1     28184 1.57540E-02-1.49385E-02-7.08424E-04 2.30430E-01 1.90203E-04-2.14163E-05
 -1     28185 4.90150E-02-4.91608E-02 1.94180E-04 9.01305E-02 8.32384E-04 5.49034E-04
 -1     28186 1.23498E-02-1.31301E-02 8.51885E-04 2.27657E-01 4.24820E-05-6.62275E-04
 -1     28187 6.66878E-03-6.49624E-03-8.34329E-05 2.18632E-01-5.95111E-04 6.09181E-04
 -1     28188 6.01467E-03-6.69088E-03 7.55148E-04 2.17775E-01 7.66116E-04-5.19445E-04
 -1     28189-1.02481E-01 1.04719E-01-2.29483E-03 4.18323E-03-9.80339E-04-7.68858E-04
 -1     28190 7.65679E-03-7.49260E-03-1.48783E-04 8.38591E-02 9.22979E-04-1.20738E-03
 -1     28191-1.14942E-01 1.13940E-01 9.66736E-04-4.97778E-02 4.01977E-04 5.05031E-04
 -1     28192 1.24336E-02-1.32521E-02 8.04837E-04-7.10007E-03 5.54426E-04-9.46276E-05
 -1     28193 2.62895E-02-2.58735E-02-4.25837E-04 1.07848E-02 3.33150E-04 6.21053E-05
 -1     28194-1.15506E-02 1.17371E-02-1.74788E-04 7.20107E-02-3.90789E-04 3.91857E-04
 -1     28195 5.64056E-03-5.95476E-03 3.57886E-04 1.13612E-01 1.94337E-04 1.47331E-04
 -1     28196 6.36227E-03-6.63676E-03 3.19361E-04 1.15091E-01-6.05010E-04-6.35944E-04
 -1     28197 9.48618E-03-8.93542E-03-5.04856E-04 1.12160E-01-6.42390E-04-5.48218E-04
 -1     28198 1.50109E-02-1.44951E-02-4.82908E-04 9.03004E-02-2.71384E-04-7.02804E-04
 -1     28199 2.00973E-02-1.92952E-02-7.47819E-04 9.26673E-02-7.65112E-04-2.18078E-04
 -1     28200-8.53097E-02 8.52200E-02 9.74656E-05 4.55353E-02 2.65532E-05-4.37495E-05
 -1     28201-9.03163E-02 9.04511E-02-1.40809E-04 2.77300E-02 2.23542E-04 2.07512E-05
 -1     28202-8.52655E-02 8.51488E-02 1.01525E-04 4.16661E-02 3.63639E-04-2.11977E-04
 -1     28203 4.28591E-02-4.28113E-02 5.94116E-06 8.30412E-02 7.78829E-04 9.14146E-04
 -1     28204 1.25318E-02-1.15389E-02-9.97851E-04 1.80449E-02-1.05272E-05 7.05967E-04
 -1     28205-1.35393E-01 1.35320E-01 8.27196E-06-9.36055E-02-2.98543E-04-1.47307E-04
 -1     28206-4.15206E-02 4.15120E-02 7.61081E-06 3.59709E-02-5.98076E-05-9.59606E-05
 -1     28207 1.16732E-02-1.19330E-02 2.55066E-04 8.98959E-02-2.79333E-04-8.20856E-04
 -1     28208 2.18591E-02-2.28137E-02 1.03318E-03 8.68230E-02-5.20978E-04 3.38830E-04
 -1     28209-1.84659E-01 1.87594E-01-3.01795E-03-5.12289E-02-7.61511E-04 1.13736E-03
 -1     28210 1.53639E-02-1.54606E-02 2.02461E-04 2.39454E-01-4.65822E-04-1.90241E-04
 -1     28211 1.13424E-02-1.16470E-02 4.03342E-04 2.30345E-01-2.86723E-04-4.02768E-04
 -1     28212-4.08670E-02 3.82022E-02 2.48955E-03 2.64867E-03-4.09922E-03 4.48281E-05
 -1     28213-8.02786E-02 7.91276E-02 1.04839E-03 2.62193E-02 1.80152E-03 2.69482E-03
 -1     28214 2.32241E-02-2.30160E-02-1.36269E-04 1.88799E-01 7.27324E-05 6.88892E-05
 -1     28215-8.30784E-02 8.27101E-02 3.81759E-04 7.66180E-02 1.39831E-04 1.07007E-03
 -1     28216-8.22474E-02 8.19530E-02 2.74087E-04 5.86854E-02-7.18452E-04 7.40746E-04
 -1     28217 5.62248E-03-5.44863E-03-1.28772E-04 1.13491E-01 2.28515E-04-3.38806E-04
 -1     28218 5.69817E-03-5.79654E-03 1.44201E-04 1.14419E-01 2.06512E-04 4.23259E-04
 -1     28219 2.21367E-02-2.24496E-02 3.74002E-04 1.37131E-01-3.29626E-05 5.46201E-04
 -1     28220 5.51325E-03-5.87312E-03 4.08114E-04 1.18807E-01 6.24707E-04 1.07239E-04
 -1     28221 1.19255E-02-1.11420E-02-6.96471E-04 2.23558E-01 2.82759E-04-1.68745E-04
 -1     28222 2.01063E-03-2.19567E-03 2.40362E-04 1.21823E-01-6.33674E-04-3.49213E-04
 -1     28223 2.72026E-02-2.69841E-02-1.32097E-04 2.26877E-01 1.68431E-04-4.33971E-04
 -1     28224-8.29397E-02 8.29637E-02-6.69969E-05-2.68794E-02-3.68150E-04 7.30076E-04
 -1     28225 4.18143E-02-4.18766E-02 1.37900E-04 1.86566E-01-1.11885E-04-1.02340E-04
 -1     28226 1.93275E-02-1.88427E-02-3.87577E-04 2.52191E-01-3.66769E-04-1.48530E-04
 -1     28227 1.95065E-02-1.92836E-02-1.26223E-04 2.49287E-01-5.78879E-04 4.50329E-04
 -1     28228 7.54129E-02-7.54880E-02 1.31947E-04 1.22017E-01-6.54601E-05 5.50138E-05
 -1     28229 6.31640E-02-6.32049E-02 8.96185E-05 1.30243E-01 2.52657E-05-3.37512E-04
 -1     28230 1.97177E-02-1.95344E-02-7.51352E-05 2.45750E-01 8.84561E-05-1.20368E-04
 -1     28231 6.63083E-02-6.62775E-02 3.62944E-06 9.81954E-02 9.55836E-05-1.83836E-04
 -1     28232 3.07481E-02-3.09535E-02 3.08920E-04 2.22365E-01-2.79073E-06-2.89261E-05
 -1     28233 3.22282E-02-3.26380E-02 4.87247E-04 2.16585E-01-4.96341E-04-2.41015E-04
 -1     28234-1.00517E-01 9.81250E-02 2.49116E-03 1.25172E-01-5.39588E-04-1.84812E-03
 -1     28235-1.17740E-01 1.22200E-01-4.42104E-03 1.45921E-01 2.57065E-03-9.76111E-04
 -1     28236-8.68146E-02 8.71125E-02-3.13858E-04 4.48676E-02 7.68162E-04-6.30370E-05
 -1     28237-6.57029E-02 6.57013E-02-1.19922E-05 9.57693E-03 3.68675E-04-3.02190E-04
 -1     28238-1.43242E-01 1.42642E-01 5.33513E-04-9.45032E-02 4.66844E-04-3.01391E-05
 -1     28239 4.03885E-03-4.36597E-03 3.74887E-04 1.20159E-01-4.06608E-04-7.93979E-06
 -1     28240-1.33892E-01 1.33785E-01 4.12992E-05-7.95443E-02 3.88903E-04 1.74916E-04
 -1     28241-7.26346E-02 7.27490E-02-1.55188E-04 3.27808E-02 3.01478E-04-7.66021E-04
 -1     28242-1.50072E-01 1.50126E-01-1.26885E-04-1.03645E-01 2.99271E-05-2.29345E-04
 -1     28243-1.45079E-01 1.44948E-01 6.41012E-05-9.59889E-02 1.90371E-04-4.71417E-04
 -1     28244-3.09885E-02 3.10536E-02-6.20307E-05 5.00698E-02-1.34692E-04 2.60888E-04
 -1     28245-1.57107E-01 1.57642E-01-6.14272E-04-1.12486E-01-3.14771E-04-1.31853E-04
 -1     28246-1.48467E-01 1.48531E-01-1.31625E-04-9.98604E-02-2.64224E-04-2.05530E-04
 -1     28247 2.33036E-03-2.61975E-03 3.25119E-04 1.16095E-01 4.22114E-04 1.62731E-04
 -1     28248-1.47923E-01 1.47397E-01 4.50083E-04-1.00178E-01 4.22529E-04 2.58607E-04
 -1     28249-1.45657E-01 1.45774E-01-1.87331E-04-9.62858E-02 9.74088E-06 2.78326E-04
 -1     28250-1.43772E-01 1.42998E-01 6.97060E-04-1.04923E-01-8.53688E-04-1.41484E-05
 -1     28251-1.41304E-01 1.41199E-01 2.58919E-05-1.03468E-01-1.89552E-03 1.31451E-03
 -1     28252-7.20597E-02 7.24026E-02-3.61543E-04-2.94798E-02 9.33880E-04-1.42991E-03
 -1     28253-7.24204E-02 7.49501E-02-2.50513E-03-2.63981E-02 3.16200E-03-3.43280E-03
 -1     28254-2.76621E-02 2.03692E-02 7.25431E-03 5.96145E-03 3.80908E-03 1.62097E-03
 -1     28255-4.00308E-02 4.02591E-02-4.34690E-04-1.96236E-03-5.62486E-03-2.28097E-03
 -1     28256-5.11710E-03 5.11615E-03-4.35619E-04-1.65178E-02 5.67564E-04-5.09232E-04
 -1     28257-1.06198E-02 5.57385E-03 4.62981E-03-7.34000E-03-1.55582E-03 2.15527E-03
 -1     28258 5.06723E-03-5.08262E-03 6.21112E-05 1.16047E-01-4.40687E-04-1.41359E-04
 -1     28259 2.70191E-02-2.70989E-02 1.47194E-04 5.10922E-02 9.24798E-04-7.88652E-04
 -1     28260 8.87324E-03-9.17571E-03 3.23888E-04 9.07360E-03-3.70543E-04-2.18167E-05
 -1     28261-1.43684E-01 1.43574E-01 3.91347E-05-9.48382E-02 1.17973E-04-7.68151E-05
 -1     28262-1.27866E-01 1.28106E-01-2.94685E-04-7.74295E-02 8.63993E-05 1.48198E-04
 -1     28263-1.61483E-01 1.61442E-01-3.95249E-05-1.16516E-01 1.44274E-04 1.58083E-05
 -1     28264-1.60108E-01 1.60097E-01-6.66229E-05-1.15067E-01 1.75071E-04 3.23254E-05
 -1     28265-1.65075E-01 1.65025E-01-3.17762E-05-1.20129E-01 5.18076E-05 2.69988E-05
 -1     28266-1.41776E-01 1.41763E-01-5.18853E-05-9.14820E-02-5.45569E-04 4.56358E-04
 -1     28267 6.10549E-02-6.06454E-02-3.75670E-04 7.05082E-02 1.11053E-04-7.84753E-04
 -1     28268 1.67434E-02-1.73207E-02 6.34959E-04 1.36187E-01 5.46864E-04 5.88218E-04
 -1     28269-1.27800E-01 1.31564E-01-4.41607E-03 4.87067E-02 6.61393E-03-9.79411E-03
 -1     28270-1.04100E-01 1.01742E-01 2.30038E-03-7.40333E-02 1.92502E-03-1.70085E-04
 -1     28271-8.64627E-02 8.76786E-02-1.22931E-03-4.03741E-02-1.23119E-03-9.30669E-04
 -1     28272-1.42669E-01 1.42746E-01-1.45947E-04-9.16402E-02-6.57160E-04-5.31028E-04
 -1     28273-1.50993E-01 1.50952E-01-3.25906E-05-1.05094E-01 1.12374E-04 2.08238E-04
 -1     28274-1.49359E-01 1.49301E-01-1.08608E-05-1.03757E-01-1.37584E-04-1.39546E-04
 -1     28275-7.58076E-03 7.20774E-03 4.28881E-04 1.65037E-01-6.17207E-04-2.94800E-04
 -1     28276-1.61529E-01 1.61340E-01 1.12168E-04-1.16218E-01 1.25659E-04-1.78510E-04
 -1     28277-1.51021E-01 1.50822E-01 1.25960E-04-1.05019E-01-6.20692E-05-7.25586E-05
 -1     28278-4.71039E-02 5.11135E-02-4.15336E-03 1.75053E-02-4.04365E-04 5.12206E-03
 -1     28279 9.80588E-03-8.95243E-03-7.85557E-04 1.41929E-02-1.88425E-04-7.55459E-04
 -1     28280 2.15035E-02-1.98069E-02-1.60800E-03 2.11235E-02-4.75676E-04-6.14980E-04
 -1     28281 2.15112E-02-2.18239E-02 3.12670E-04 2.06273E-02 3.84930E-05-1.12755E-03
 -1     28282 2.43497E-02-2.41957E-02-4.79708E-05 2.98584E-02 4.20543E-04-2.69234E-04
 -1     28283-3.32502E-01 3.02236E-01 3.07499E-02-3.42659E-02 9.32183E-03 1.63444E-02
 -1     28284 5.62761E-02-5.65267E-02 2.85092E-04 6.06325E-02-2.98586E-04 1.05859E-03
 -1     28285 6.49590E-02-6.49535E-02 3.97853E-05 1.36777E-01 8.80980E-05 2.05463E-06
 -1     28286 3.45872E-02-3.46211E-02 9.32531E-05 9.72497E-02-1.94687E-04 2.53662E-04
 -1     28287 4.28464E-02-4.27463E-02-4.36931E-05 9.84947E-02-1.64579E-04-2.20364E-04
 -1     28288-1.73689E-01 1.73646E-01-4.33583E-05-1.24543E-01 8.03245E-05 2.01406E-04
 -1     28289-1.64532E-01 1.64089E-01 3.62162E-04-1.17925E-01-1.54871E-04 1.34339E-04
 -1     28290-8.08421E-02 8.14321E-02-6.08450E-04 6.87916E-02-3.67171E-04 1.10631E-03
 -1     28291 1.22695E-02-1.18475E-02-3.30021E-04 2.29253E-01-1.48375E-04 9.77690E-05
 -1     28292-1.10989E-01 1.12078E-01-1.01915E-03 1.50159E-01 3.06798E-03-6.43231E-04
 -1     28293-1.08937E-01 1.09695E-01-7.26074E-04 1.54168E-01-1.87790E-04-1.27019E-03
 -1     28294-7.60911E-03 7.66157E-03-7.27722E-05 5.90285E-02 5.35642E-05 3.42449E-05
 -1     28295-1.05368E-01 1.04086E-01 1.33063E-03 1.49485E-01 1.01690E-03-6.60921E-04
 -1     28296 2.34646E-02-2.49143E-02 1.56951E-03 6.81001E-02-8.39484E-04 9.18765E-05
 -1     28297 2.24777E-02-2.19670E-02-4.91510E-04 8.36726E-03 3.41911E-04-7.52593E-05
 -1     28298-8.16224E-02 8.32023E-02-1.53755E-03 1.59568E-01 2.46493E-03-1.36433E-03
 -1     28299-1.82579E-01 1.82764E-01-2.79207E-04-1.36773E-01 6.67415E-04 7.70608E-04
 -1     28300-6.70710E-02 6.86690E-02-1.55242E-03 1.47872E-01 1.76796E-04-1.09895E-03
 -1     28301 8.65983E-03-8.38149E-03-2.25071E-04-2.01890E-02 1.86011E-04 3.98392E-04
 -1     28302 1.65464E-02-1.67318E-02 1.72039E-04 2.07999E-03 2.20280E-03-4.12595E-04
 -1     28303 1.17974E-02-1.19992E-02 1.96283E-04-1.32626E-02-1.06797E-03-1.96011E-04
 -1     28304-1.26967E-01 1.26946E-01-3.79306E-05-7.41762E-02 2.02186E-04 1.15105E-04
 -1     28305-1.06511E-01 1.07811E-01-1.27606E-03 1.51417E-01-1.04758E-03 1.69579E-03
 -1     28306-1.05303E-01 1.06939E-01-1.53890E-03 1.44018E-01-3.73412E-04 9.59313E-04
 -1     28307-5.79506E-02 5.79085E-02 5.08206E-05 6.42195E-02-1.84223E-04 8.89471E-07
 -1     28308 1.52713E-02-1.49592E-02-2.54633E-04 1.25551E-01 4.19814E-05 1.19195E-03
 -1     28309 1.59173E-02-1.68691E-02 1.00520E-03 9.42212E-02-7.77157E-04-2.08184E-04
 -1     28310-1.75715E-01 1.75690E-01-5.91865E-05-1.27408E-01 1.13165E-03 4.04746E-04
 -1     28311-1.70328E-01 1.70399E-01-1.55073E-04-1.26122E-01-1.65435E-04 4.36857E-04
 -1     28312-1.45145E-01 1.45033E-01 4.50676E-05-8.05823E-02 2.82233E-06 1.15780E-04
 -1     28313 8.53247E-03-9.82304E-03 1.25765E-03-1.83407E-02-4.75684E-04-8.53453E-04
 -1     28314-9.47800E-02 9.55421E-02-8.20949E-04 2.16875E-02-1.14554E-03-1.67770E-03
 -1     28315 1.53768E-02-1.54846E-02 2.01232E-04 2.34334E-01-1.24372E-04 1.23264E-04
 -1     28316 2.00206E-02-1.97597E-02-1.65603E-04 2.53757E-01 8.14279E-05 4.61370E-04
 -1     28317 3.17410E-02-3.14090E-02-2.42901E-04 2.19724E-01-3.58087E-04 7.88985E-05
 -1     28318 2.89034E-02-2.90149E-02 2.08434E-04 2.31435E-01-1.75384E-04-2.49402E-04
 -1     28319-1.16712E-01 1.16077E-01 5.83815E-04-6.20214E-02-1.07581E-04-1.34334E-04
 -1     28320-1.01217E-01 1.01546E-01-3.54206E-04-2.75055E-02-5.00418E-04-3.96284E-04
 -1     28321-2.69211E-01 2.61628E-01 7.25153E-03-1.23650E-01 2.45565E-02-1.67320E-03
 -1     28322 2.36207E-02-2.34858E-02-1.00681E-04 1.19614E-01 6.86596E-05-1.91283E-04
 -1     28323 1.98946E-02-2.14858E-02 1.57999E-03 1.06810E-02-3.21137E-04 5.87111E-04
 -1     28324 4.34574E-02-4.35195E-02 1.21015E-04 1.41185E-01-2.01526E-04-1.08073E-04
 -1     28325 1.31597E-03-6.96320E-04-5.72644E-04 1.19304E-01 2.52615E-04-9.55501E-05
 -1     28326-1.11318E-01 1.11301E-01-3.18474E-05-5.29337E-02-1.20919E-04-7.87759E-05
 -1     28327-2.24807E-05 2.11497E-04-1.45715E-04 1.20639E-01 4.41848E-04 2.36004E-04
 -1     28328-1.30698E-01 1.31420E-01-7.84312E-04-9.19503E-02 6.32870E-04 1.72555E-05
 -1     28329-1.26846E-01 1.27210E-01-4.12750E-04-8.33322E-02 8.15740E-04-1.46845E-03
 -1     28330 2.74774E-02-2.62283E-02-1.17388E-03 4.40704E-02 7.13141E-05 8.73110E-04
 -1     28331 6.50554E-03-6.57539E-03 1.16158E-04 1.13543E-01-4.17814E-04 3.12339E-04
 -1     28332 1.87126E-02-1.93493E-02 7.27267E-04 2.50202E-01-1.62568E-04-5.96568E-05
 -1     28333 1.40632E-02-1.37503E-02-2.17587E-04 2.32169E-01-1.75832E-06-9.16073E-05
 -1     28334 3.52809E-02-3.51239E-02-9.95123E-05 1.34038E-01 1.13260E-03 3.87477E-04
 -1     28335 2.86193E-02-2.85007E-02-5.86604E-05 1.38388E-01 3.45011E-04-1.38930E-04
 -1     28336 2.83142E-02-2.82125E-02-4.35413E-05 1.36137E-01 1.15819E-04 3.47962E-04
 -1     28337 2.89028E-02-2.88234E-02-2.40525E-05 1.43862E-01-1.32784E-04 1.52208E-04
 -1     28338 3.20071E-02-3.17675E-02-1.78982E-04 1.49432E-01-5.25505E-04-1.01305E-04
 -1     28339 1.06153E-02-1.18297E-02 1.28984E-03 2.10695E-01-4.98139E-04-1.41636E-03
 -1     28340-8.84961E-02 7.82966E-02 1.01798E-02-2.40053E-02 8.35400E-03 6.12523E-03
 -1     28341 3.72948E-02-3.70567E-02-1.79338E-04 1.42534E-01 4.97884E-04 1.01617E-04
 -1     28342-6.70329E-02 6.70994E-02-6.34147E-05 2.69721E-02 8.11921E-05 2.47683E-04
 -1     28343 1.63055E-02-1.66967E-02 4.84746E-04 2.37153E-01-2.30776E-05-7.26972E-05
 -1     28344 6.36269E-03-5.77012E-03-4.53729E-04 9.21884E-02 5.10349E-05-9.86854E-04
 -1     28345-1.22561E-01 1.22405E-01 1.02784E-04-6.63767E-02-4.81372E-05-2.69762E-04
 -1     28346 8.08238E-03-7.81603E-03-1.83810E-04 2.13961E-01 6.05058E-04-6.46542E-05
 -1     28347 2.07932E-02-2.05366E-02-2.31342E-04 1.08293E-01-3.92800E-04-8.09455E-06
 -1     28348 1.55756E-02-1.60960E-02 6.20056E-04 2.37736E-01-7.51320E-04-6.23275E-05
 -1     28349 3.02087E-02-3.02584E-02 1.06098E-04 1.40178E-01-1.69078E-04 1.36687E-04
 -1     28350 2.19732E-02-2.18096E-02-1.11344E-04 1.28059E-01 7.78997E-05 2.11196E-04
 -1     28351 2.56165E-02-2.56513E-02 8.80939E-05 1.26406E-01 1.06620E-04 2.65699E-05
 -1     28352 2.41542E-02-2.35513E-02-5.50807E-04 1.29060E-01-1.10524E-04-5.94753E-04
 -1     28353-1.62501E-01 1.62489E-01-6.86046E-05-1.17701E-01-4.07349E-05 2.81292E-05
 -1     28354-1.36490E-01 1.35963E-01 4.61659E-04-8.37197E-02-3.44426E-04 2.34592E-04
 -1     28355-5.24003E-02 5.24202E-02 1.41216E-06 8.12487E-02-8.39124E-06 1.19347E-04
 -1     28356-1.96372E-01 1.99636E-01-3.76254E-03 3.47927E-02-2.15364E-03-1.53514E-02
 -1     28357 2.30509E-02-2.32553E-02 3.13141E-04 2.63238E-01-5.53117E-05-2.67969E-04
 -1     28358-4.45422E-02 4.83137E-02-4.20400E-03 1.86278E-02 5.66300E-03-2.42218E-03
 -1     28359-8.98322E-02 9.72926E-02-7.46440E-03 5.04188E-02-6.17696E-04-2.22480E-03
 -1     28360-1.88812E-01 1.91077E-01-2.35561E-03-1.30777E-01-1.05669E-03 1.02228E-03
 -1     28361-1.52627E-01 1.52105E-01 4.46305E-04-1.06734E-01 6.05925E-06 2.52301E-05
 -1     28362-1.00305E-01 9.90880E-02 1.24253E-03 1.67062E-01 1.05575E-04 7.14678E-04
 -1     28363-1.65612E-01 1.60759E-01 4.59559E-03 5.09956E-02 1.37514E-03-7.73370E-03
 -1     28364 8.18476E-03-8.04646E-03-9.89025E-05 1.14317E-01 5.22210E-06-1.97992E-04
 -1     28365 6.82517E-03-6.45292E-03-3.24387E-04 1.15321E-01 6.64557E-04-7.51289E-05
 -1     28366 6.43281E-03-6.54583E-03 1.54402E-04 1.14986E-01 1.65782E-04 4.04649E-04
 -1     28367 4.83826E-03-4.95224E-03 1.61755E-04 1.16478E-01-1.13894E-04 6.69269E-04
 -1     28368-7.19582E-05 3.98304E-04-2.31975E-04 2.08833E-01 3.52578E-04-4.47218E-04
 -1     28369 2.92759E-02-2.88203E-02-3.66311E-04 2.27381E-01-3.20539E-05-4.83076E-04
 -1     28370 2.82766E-02-2.75933E-02-5.75383E-04 2.33285E-01-2.98164E-05-2.78682E-05
 -1     28371 4.18013E-02-4.17479E-02 6.35603E-06 1.41390E-01 2.46411E-04 1.93442E-04
 -1     28372-9.74005E-02 9.98465E-02-2.46579E-03-3.30259E-02 2.27723E-04-3.83477E-05
 -1     28373-1.08954E-01 1.06097E-01 2.93290E-03 1.58015E-01-6.54557E-04-1.64558E-03
 -1     28374 1.64300E-02-1.53610E-02-9.86163E-04 8.73819E-02-3.93715E-04-6.98935E-05
 -1     28375 1.09619E-02-1.13534E-02 4.42254E-04 6.34665E-02-3.96377E-04-6.63234E-05
 -1     28376 7.47517E-04-1.18873E-03 3.85001E-04-3.41550E-02-3.43151E-04 7.79660E-04
 -1     28377 3.48767E-03-3.23089E-03-3.02761E-04-3.59342E-02 5.71316E-04 5.10029E-04
 -1     28378-1.04616E-01 1.04280E-01 2.87769E-04-7.17789E-02 8.44807E-04-1.18536E-04
 -1     28379 1.09947E-02-1.05189E-02-4.18962E-04 1.14347E-01 2.48063E-04-3.93227E-04
 -1     28380 8.42535E-03-8.37305E-03-1.13747E-05 1.33786E-01-1.38356E-06 2.90865E-04
 -1     28381-4.16907E-02 4.16758E-02 1.31765E-05 3.83899E-02-2.40299E-04 7.65260E-05
 -1     28382-4.20217E-02 3.94360E-02 2.90144E-03 6.88586E-02 3.41678E-03 1.82894E-03
 -1     28383-4.42252E-02 4.67845E-02-2.68939E-03 1.75194E-02-1.89659E-03-7.37892E-04
 -1     28384-1.60707E-01 1.60554E-01 7.35935E-05-1.16890E-01-4.17509E-04-2.20684E-04
 -1     28385-1.50085E-01 1.49735E-01 2.81760E-04-1.01908E-01-1.50014E-04 1.74870E-04
 -1     28386-6.21184E-02 6.11386E-02 9.97018E-04 7.00466E-02 5.08562E-03 7.33594E-04
 -1     28387 5.45730E-03-6.51100E-03 1.14171E-03 1.79240E-01-2.00415E-03 4.25179E-04
 -1     28388 4.79384E-03-6.27219E-03 1.53348E-03 1.83709E-01 1.98404E-03-1.62874E-03
 -1     28389 2.12125E-02-2.24344E-02 1.30804E-03 9.84028E-02 4.22328E-04-3.47499E-04
 -1     28390 1.97498E-03-2.07382E-03 1.35613E-04 1.19123E-01 3.54076E-04-8.58750E-05
 -1     28391-9.63680E-02 9.89859E-02-2.60177E-03 1.13625E-01-3.78335E-03 7.19839E-04
 -1     28392 2.17712E-02-2.09591E-02-7.37691E-04 1.04418E-01 4.93747E-04 1.79288E-04
 -1     28393 1.30253E-02-1.33991E-02 4.42986E-04 9.93090E-02-9.65787E-04 4.02872E-04
 -1     28394-1.52288E-01 1.51878E-01 3.33662E-04-1.03903E-01-3.54047E-04 5.26127E-05
 -1     28395-1.07769E-01 1.06425E-01 1.30267E-03-5.51427E-02 3.39955E-04-1.59443E-03
 -1     28396-2.02533E-01 2.00045E-01 2.40981E-03-1.19265E-01-2.12014E-03 6.83812E-04
 -1     28397 2.33273E-02-2.29732E-02-3.05469E-04 1.24506E-01-1.10376E-04-2.16710E-04
 -1     28398 3.19317E-02-3.16378E-02-2.36763E-04 1.45771E-01 1.22919E-04 1.55556E-04
 -1     28399 2.73284E-02-2.72437E-02-2.71247E-05 1.38552E-01 2.31568E-04-6.29194E-05
 -1     28400 2.65286E-02-2.63780E-02-9.91858E-05 1.34486E-01-2.16901E-04-2.19054E-05
 -1     28401-2.11667E-02 2.10573E-02 1.67454E-04 1.76878E-01 2.41471E-03-3.95308E-04
 -1     28402 3.45265E-02-3.43281E-02-1.18013E-04 1.93963E-01-1.48880E-04-2.72587E-04
 -1     28403-3.06121E-02 3.11516E-02-6.43825E-04-1.04562E-02-5.46966E-03-1.29907E-03
 -1     28404 8.22564E-03-7.96254E-03-2.72386E-04-1.60089E-02 2.64908E-04 2.00863E-03
 -1     28405 9.72323E-03-9.07048E-03-6.01526E-04 6.25011E-03-2.81987E-04-1.28267E-04
 -1     28406 2.65999E-02-2.62470E-02-2.59280E-04 2.39059E-01-1.36938E-04 4.29766E-04
 -1     28407 2.69997E-02-2.61850E-02-7.67866E-04 3.54716E-02-5.28598E-05 3.56727E-04
 -1     28408 2.92813E-03-2.82095E-03-5.87213E-05 1.20215E-01-3.42879E-05 1.44389E-04
 -1     28409 3.36651E-02-3.32028E-02-3.98706E-04 1.51006E-01 7.96915E-04 5.58212E-04
 -1     28410 3.64963E-02-3.60477E-02-3.61900E-04 2.01072E-01 1.88379E-04 1.02369E-04
 -1     28411-6.21911E-03 5.21348E-03 1.05827E-03 5.52391E-02 3.73825E-04-2.83918E-04
 -1     28412-3.18882E-01 3.41894E-01-2.27409E-02-6.48887E-02-3.68977E-03 8.47376E-03
 -1     28413-1.12177E-01 1.11794E-01 3.26689E-04-6.51038E-02 3.76605E-04-1.98575E-05
 -1     28414-5.29345E-02 5.25306E-02 4.49440E-04 1.53186E-01 6.63005E-04 1.16217E-03
 -1     28415-1.62822E-01 1.62575E-01 1.67614E-04-1.17543E-01-2.60183E-05 1.40878E-04
 -1     28416 3.19752E-02-3.22868E-02 3.98539E-04 2.15786E-01-1.06904E-04 3.26363E-05
 -1     28417 3.43595E-02-3.42464E-02-3.40237E-05 2.11493E-01-8.97040E-05-1.02677E-05
 -1     28418 2.88261E-02-2.91962E-02 4.60767E-04 2.30249E-01 2.03801E-05-3.59408E-04
 -1     28419 1.87554E-02-1.88689E-02 2.12102E-04 2.42405E-01-7.30062E-04-2.08179E-04
 -1     28420 2.22175E-02-2.24282E-02 3.11952E-04 2.52934E-01-2.07260E-04-5.70012E-05
 -1     28421-1.42967E-01 1.42938E-01-3.91364E-05-9.34114E-02-5.10888E-04 2.71647E-04
 -1     28422 2.79258E-02-2.77346E-02-9.31053E-05 2.33192E-01-3.55064E-05-1.51950E-04
 -1     28423-1.14024E-01 1.16240E-01-2.20997E-03 1.50174E-01 3.14667E-03 2.78735E-03
 -1     28424-1.60793E-01 1.60563E-01 1.51419E-04-1.15966E-01-1.52570E-04 1.48591E-04
 -1     28425-7.99276E-02 8.14126E-02-1.50290E-03-3.40438E-02-3.76332E-04-4.45629E-04
 -1     28426 2.26053E-02-2.36296E-02 1.06207E-03 7.23605E-02-1.04294E-05-2.00083E-04
 -1     28427-1.67360E-01 1.67119E-01 1.55934E-04-1.21690E-01-3.58101E-05-8.25515E-05
 -1     28428 1.11714E-02-1.11305E-02 5.89432E-05 2.29098E-01-4.37593E-04-3.73656E-04
 -1     28429 3.79999E-02-3.78546E-02-8.42960E-05 1.51586E-01-4.77952E-04-3.61443E-04
 -1     28430-2.02669E-01 1.98275E-01 4.29170E-03-1.26319E-01 1.72028E-03 1.49593E-03
 -1     28431 1.67022E-02-1.67631E-02 1.55636E-04 2.35520E-01-3.68603E-04-4.26498E-04
 -1     28432 1.51657E-02-1.55231E-02 4.08573E-04 9.43218E-02 1.70791E-04-2.92682E-04
 -1     28433 2.08349E-03-2.26958E-03 2.38312E-04 1.24925E-01 2.05238E-04 4.83214E-04
 -1     28434 4.52023E-03-4.32293E-03-1.57106E-04 1.24312E-01 8.94227E-05 3.63990E-04
 -1     28435-1.33292E-01 1.33128E-01 1.00901E-04-8.22418E-02 9.49220E-05-5.03931E-04
 -1     28436 3.55641E-02-3.54346E-02-5.47422E-05 1.96663E-01-5.11940E-04-3.19399E-04
 -1     28437 1.27280E-03-8.08506E-04-4.86944E-04-2.35694E-02 1.20626E-03 1.28461E-03
 -1     28438 2.71852E-02-2.69282E-02-1.56124E-04 2.34841E-01-1.81651E-04 4.21296E-04
 -1     28439 2.54934E-03-2.16738E-03-3.26449E-04 1.25184E-01 3.16614E-04 1.87275E-04
 -1     28440 3.64599E-02-3.61876E-02-1.80115E-04 2.03502E-01-6.64301E-06-2.96355E-04
 -1     28441 1.19105E-02-1.27386E-02 8.25263E-04-1.51001E-02-1.33822E-03 2.42869E-04
 -1     28442-1.93094E-01 1.89681E-01 3.36161E-03-1.30296E-01-1.72448E-04 6.33134E-04
 -1     28443 1.64571E-02-1.60891E-02-3.12619E-04 1.13391E-01-1.48956E-04-2.45859E-04
 -1     28444-7.08187E-02 6.81010E-02 2.71096E-03-2.84333E-02 8.44806E-05-3.10877E-04
 -1     28445-1.12663E-01 1.13578E-01-9.65078E-04-7.24655E-02 1.24816E-03-5.27583E-04
 -1     28446-1.07996E-01 1.07898E-01 4.44513E-05-6.19378E-02 1.54967E-04-2.20983E-04
 -1     28447-1.39338E-01 1.39142E-01 1.33258E-04-9.02105E-02-2.95051E-04-2.94554E-04
 -1     28448-9.08855E-02 9.60791E-02-5.23538E-03 9.89739E-02-6.10078E-04-3.73708E-03
 -1     28449-2.08660E-01 2.06867E-01 1.68941E-03-1.27082E-01 1.64992E-03 3.00907E-03
 -1     28450-1.62964E-01 1.62652E-01 2.31796E-04-1.17102E-01 5.77303E-05-3.57627E-05
 -1     28451 3.28752E-02-3.28249E-02 3.91867E-05 2.17131E-01 4.29276E-05-1.57511E-04
 -1     28452-1.61004E-01 1.60845E-01 8.07559E-05-1.16130E-01-2.45123E-04-1.04336E-04
 -1     28453-1.55891E-01 1.55768E-01 4.91388E-05-1.09584E-01-6.53911E-06-5.05263E-05
 -1     28454 2.62223E-02-2.61883E-02 2.36406E-05 4.31331E-02 1.13640E-03-2.05736E-04
 -1     28455-9.30442E-02 8.28109E-02 1.02395E-02-2.83584E-02-4.49802E-03 7.09471E-03
 -1     28456-1.41020E-01 1.40495E-01 4.63560E-04-9.14112E-02 2.11941E-04 4.37088E-04
 -1     28457 1.80135E-02-1.77363E-02-1.85704E-04 2.38649E-01-9.28255E-05-8.39612E-05
 -1     28458 1.26087E-02-1.28830E-02 3.65598E-04 2.31606E-01 8.71616E-06-3.65180E-04
 -1     28459-6.91045E-02 6.46566E-02 4.08234E-03 7.22747E-02 1.66106E-03-2.75242E-03
 -3
    1PSTEP                         4           1           1          
  100CL  101 1.000000000        8053                     0    1           1
 -4  FORC        4    1
 -5  F1          1    2    1    0
 -5  F2          1    2    2    0
 -5  F3          1    2    3    0
 -5  ALL         1    2    0    0    1ALL
 -1     20407-3.38771E-10 3.80711E-10 5.71119E-01
 -1     20408-1.39497E-10-5.34686E-10-1.97855E-01
 -1     20409-1.42607E-01-1.39776E-01 1.23758E-01
 -1     20410-8.13083E-02-1.52727E-01 1.20696E-01
 -1     20411 1.98464E-10-5.24612E-10-4.96407E-01
 -1     20412-6.14558E-11-3.21904E-10 8.32681E-02
 -1     20413 1.92515E+00-1.63833E+00 2.32497E+00
 -1     20414 4.77320E+00-1.35917E+01-1.68235E+00
 -1     20415 4.03862E-10-1.05770E-09-6.84365E-02
 -1     20416-2.13289E-10 2.81781E-10-9.66215E-02
 -1     20417 2.74280E-10-1.91659E-10-4.69779E-01
 -1     20418-8.25396E-10-1.03247E-09-3.18951E-01
 -1     20419-2.35435E-10-1.36072E-10-4.19593E-01
 -1     20420 5.02586E-11 5.09856E-10-2.26062E-01
 -1     20421-6.44731E-12-2.85043E-10-2.35880E-01
 -1     20422-2.47893E-10 1.98849E-10-2.21685E-01
 -1     20423-7.91130E-11-1.06460E-10-2.74666E-01
 -1     20424 1.91161E-11-1.19543E-10-3.10423E-02
 -1     20425 1.26889E-10 3.10911E-10-8.11571E-02
 -1     20426-2.93825E-11-1.29090E-10-9.64146E-02
 -1     20427 1.84295E-11 6.45357E-10-1.12886E-01
 -1     20428-5.68780E-11 1.37822E-11-1.61698E-01
 -1     20429-1.71889E-11 1.91892E-10 1.15738E-02
 -1     20430 8.39104E-11 1.83853E-10-1.68710E-01
 -1     20431-1.03777E-10 3.23657E-11-9.58859E-02
 -1     20432-2.82279E-11 1.87083E-10-1.32026E-01
 -1     20433 1.89488E-11-1.05043E-10-1.23387E-01
 -1     20434-9.31071E-12-1.77093E-10-1.11912E-01
 -1     20435 3.66633E-11 1.16339E-10-2.63865E-01
 -1     20436-1.09836E-11 4.95083E-11-2.74847E-02
 -1     20437-9.15071E-11 4.38599E-11-2.74365E-01
 -1     20438-1.83024E-11-4.02851E-11-5.81921E-02
 -1     20439-2.20608E-11 2.02259E-11-7.84105E-02
 -1     20440-3.42757E-11 3.75363E-11-3.02970E-02
 -1     20441 3.23736E-11-3.69787E-11-1.39569E-01
 -1     20442 1.65299E-11-5.22803E-12-1.09143E-01
 -1     20443-2.21861E-11 1.33926E-10-1.57316E-01
 -1     20444 3.45355E-11-4.35624E-11 1.48558E-01
 -1     20445-2.78316E-12 1.36890E-11-5.02563E-02
 -1     20446-5.94667E-12-6.01466E-12 3.37695E-02
 -1     20447 7.60544E-10-2.39723E-10 8.46791E-01
 -1     20448 6.34413E-10-1.65652E-10-1.37920E-01
 -1     20449 5.05801E-10 1.08058E-09 2.87708E-01
 -1     20450 3.63363E-10-2.14159E-10-2.77294E-03
 -1     20451 1.00155E-10 3.50272E-10 1.26216E-01
 -1     20452 2.24726E-10 2.06786E-10 8.67934E-02
 -1     20453 3.20899E-10 2.29939E-10 2.27544E-01
 -1     20454 1.23777E-11-1.93271E-11 2.35903E-01
 -1     20455 3.10264E-10-5.52918E-11 1.62485E-01
 -1     20456-2.64637E-10-4.54124E-11 1.48990E-01
 -1     20457-5.25827E-12 7.05730E-11 1.95313E-01
 -1     20458 1.08330E-12 3.97588E-12 2.79153E-01
 -1     20459 1.08291E-10 3.01497E-10 2.31274E-01
 -1     20460 4.60438E-11 9.82929E-11 2.05361E-01
 -1     20461 1.07067E-11 3.75264E-11 2.80606E-01
 -1     20462 2.74615E-10 1.61461E-11 1.24873E-01
 -1     20463-3.14544E-11 5.62881E-11 9.79633E-02
 -1     20464-6.99082E-12-7.87796E-11 1.59771E-01
 -1     20465-2.32574E-11 6.11766E-11 4.61558E-02
 -1     20466-2.77527E-11-6.06508E-11-5.49952E-02
 -1     20467 1.59461E-11-5.16450E-12 5.53407E-02
 -1     20468 3.27912E-11-1.64231E-12 3.78609E-02
 -1     20469 2.96745E-12 2.36671E-12 4.75068E-02
 -1     20470-6.87029E-11-4.55394E-12 1.10246E-01
 -1     20471-3.56565E-12 5.02271E-11 2.80136E-01
 -1     20472 7.63210E-11 1.49358E-10 1.53614E-01
 -1     20473 3.38312E-11-4.91952E-11 2.81732E-01
 -1     20474 2.19103E-11-2.24507E-11-2.57983E-02
 -1     20475 3.47182E-11-5.26435E-12-2.11958E-01
 -1     20476 3.49143E-11-3.02521E-11 1.45558E-01
 -1     20477 7.48809E-13-2.95359E-12-3.71107E-02
 -1     20478-1.37005E-11 1.05367E-12 1.22588E-02
 -1     20479 6.71500E-10-7.58847E-10-4.30674E+00
 -1     20480 1.07150E-11-4.49733E-10-4.24969E-01
 -1     20481-5.47910E-10 4.23929E-10-1.10825E+00
 -1     20482 3.38057E-10-7.42191E-10-4.94255E-01
 -1     20483 5.27347E-10 1.15317E-09 2.67413E-01
 -1     20484 1.12013E-10 2.77264E-10 4.83498E-01
 -1     20485 1.32239E-10 4.05535E-10 8.49308E-01
 -1     20486 1.09391E-10 1.19896E-09 1.41118E+00
 -1     20487-7.20811E-10-1.03384E-09 3.34188E-01
 -1     20488-2.99157E-10 2.18100E-10 2.89929E-01
 -1     20489 7.40243E-10-1.99638E-09-5.08863E-03
 -1     20490-2.32973E-10-2.27961E-10-2.63753E-01
 -1     20491-6.12518E-10-1.14308E-10 3.10643E-01
 -1     20492-4.33325E-10 3.21453E-10-2.79942E-01
 -1     20493 2.15413E-11-2.19360E-11-1.30179E+00
 -1     20494-1.68869E-11 6.55719E-11 7.45120E-01
 -1     20495 4.17327E-11-3.84351E-11 1.05591E-01
 -1     20496 1.53504E-10 4.16367E-11-3.01399E-02
 -1     20497-2.67509E-11 1.36432E-10 1.13354E-02
 -1     20498-7.13194E-11 9.39551E-11 1.32694E-01
 -1     20499-5.95615E-11 1.20679E-12 2.09680E-01
 -1     20500 6.21451E-11-8.21726E-11 1.20252E-01
 -1     20501-2.40435E-10 2.10468E-10 2.18981E-01
 -1     20502-1.82247E-12 2.15420E-11 2.09310E-01
 -1     20503-1.05069E-10 6.04661E-12 1.59330E-01
 -1     20504 1.62180E-10-9.44691E-11 1.79187E-01
 -1     20505 1.14128E-10 6.90952E-11 2.02707E-01
 -1     20506 1.11559E-10-3.74536E-10 1.43202E-01
 -1     20507-1.79566E-10-2.11231E-11 1.16505E-01
 -1     20508 2.27459E-10-2.17855E-10 1.61089E-01
 -1     20509-5.06905E-10-2.14325E-10 1.73057E-01
 -1     20510-1.17336E-10 4.81840E-11 2.96269E-01
 -1     20511-5.52342E-10 6.96907E-10 2.46965E-01
 -1     20512-8.27738E-11-3.97966E-10 1.18860E-01
 -1     20513 2.28340E-10 3.92699E-10 1.97405E-01
 -1     20514 8.40683E-10-7.25381E-10 1.92435E-01
 -1     20515 6.96830E-10-1.82118E-10-5.05135E-01
 -1     20516 5.35134E-10-9.68878E-10-5.51790E-01
 -1     20517 7.79215E-11-7.48465E-10 2.33472E+00
 -1     20518-1.74084E-12 1.37324E-11-7.87781E-01
 -1     20519-3.00426E-11 1.19779E-11-1.50995E+00
 -1     20520 7.41706E-11-2.76776E-11 1.51937E+00
 -1     20521 9.95435E-11-5.94914E-11-7.33069E-01
 -1     20522 7.40186E-11-2.78691E-11-1.30183E-01
 -1     20523-6.29003E-11 4.03123E-11-3.44106E-01
 -1     20524 4.98358E-11-1.82868E-11-2.09113E-01
 -1     20525-7.82635E-12-2.79510E-11-8.38233E-02
 -1     20526 8.91144E-11-1.80910E-10-1.40283E-01
 -1     20527 1.09793E-10-2.98359E-11-1.68420E-01
 -1     20528-8.05640E-11-3.09483E-10-1.57609E-01
 -1     20529 2.61033E-10-9.10005E-11-2.28778E-01
 -1     20530 1.55853E-10 2.21254E-10-9.42152E-02
 -1     20531 5.23293E-10-7.27666E-10-2.09752E-01
 -1     20532-4.43957E-11-2.84648E-10-2.24224E-01
 -1     20533-5.53335E-11 1.04551E-10-2.07849E-01
 -1     20534-2.80699E-10-1.40234E-10-2.22417E-01
 -1     20535 2.05110E-10-6.99313E-10-1.88727E-01
 -1     20536-7.57059E-10 1.93334E-13-1.11895E-01
 -1     20537 1.66970E-10-1.27803E-10-2.13662E-01
 -1     20538 5.06806E-11 4.11455E-10-3.80217E-01
 -1     20539 1.28163E-09-6.74705E-10 1.20058E-01
 -1     20540-3.36212E-10-4.20176E-12-8.01090E-01
 -1     20541-4.60695E-11-1.03585E-10-9.91561E-01
 -1     20542 5.97896E-10-7.37336E-10-1.88422E+00
 -1     20543 3.71740E-02 1.00536E-01 4.34993E-02
 -1     20544 3.07375E-01 5.95051E-01 8.70165E-02
 -1     20545 3.44598E-01 1.12879E+00-6.38367E-01
 -1     20546-8.71517E-01 3.04607E+00 5.77178E-01
 -1     20547 5.63215E-01 3.15471E+00-1.65122E+00
 -1     20548 4.78433E-01 8.18106E-01 6.93614E-01
 -1     20549 2.63310E-01 2.29540E+00-4.69495E-01
 -1     20550 2.31632E-01 1.27801E+00-2.49050E-01
 -1     20551 3.17569E-01-2.50235E-01-5.43662E-01
 -1     20552 2.17789E+00 4.07823E-01-3.87469E+00
 -1     20553 1.06332E+00-2.01539E-01-9.27544E-01
 -1     20554 2.46418E+00-2.09132E+00-2.58954E+00
 -1     20555 2.00422E-01-3.14045E+00 2.72124E-01
 -1     20556 1.43800E+00-4.59141E-01 7.49071E-01
 -1     20557 1.93850E+00-1.83248E+00 1.01917E+00
 -1     20558 8.85818E-01 7.22216E-01-8.78448E-01
 -1     20559-4.82258E+00-1.92748E+00-2.51805E+00
 -1     20560-5.33330E+00-7.12052E+00-8.81484E-01
 -1     20561-3.26511E-02-3.49406E+00-8.52798E+00
 -1     20562 8.76883E+00-1.34253E+01 5.68929E+00
 -1     20563-2.00878E+00 1.88029E+01-5.62320E+00
 -1     20564 1.17698E-01-3.16468E-01 7.16108E-02
 -1     20565-6.61363E-03-4.40999E-01-3.68481E-01
 -1     20566-4.77068E-01 5.84348E-01-4.34940E-01
 -1     20567-4.83452E-01 1.93649E+00-2.05103E-01
 -1     20568-1.52237E+00 3.73582E+00-6.28840E-01
 -1     20569-9.81372E-01 3.57555E+00-1.40748E+00
 -1     20570 9.52072E-01 6.42352E+00 2.22578E+00
 -1     20571 1.45873E+00 2.64291E+00-5.78168E-01
 -1     20572 6.39737E-01-1.11673E+00-1.37857E+00
 -1     20573 2.03889E+00-8.88270E-01 1.69108E-02
 -1     20574 1.97230E+00-1.68621E+00-1.57049E+00
 -1     20575 1.81151E+00-1.73263E+00-5.22736E-01
 -1     20576 7.28699E-01 4.77683E-01 1.55454E+00
 -1     20577 5.48645E-01-1.34981E+00-5.57430E-01
 -1     20578 2.47303E+00-4.24747E+00-1.00006E+00
 -1     20579 2.58971E+00-5.83254E+00 1.28921E+00
 -1     20580-2.29942E+00-3.97717E+00-8.95835E-01
 -1     20581-3.20814E+00-1.58586E+01 2.70105E+00
 -1     20582-1.70129E+00-2.50592E+01-4.35302E-02
 -1     20583-5.59279E+00-1.11152E+01 1.94750E+00
 -1     20584-8.45174E+00-1.18118E+01 9.53867E+00
 -1     20585 1.38196E-10 3.52242E-10 3.01903E-01
 -1     20586-1.19387E-09 2.81982E-09 5.93075E-01
 -1     20587 1.09283E-10-2.96448E-10-1.19762E-02
 -1     20588 5.28030E-10 1.24382E-09-1.49437E-01
 -1     20589 4.52434E-11 2.65969E-10 7.30829E-02
 -1     20590 4.19885E-10-3.91264E-10 8.09958E-02
 -1     20591 3.79468E-10 1.16256E-09 6.25224E-01
 -1     20592 7.12157E-11-1.31663E-10-3.27090E-01
 -1     20593-5.10400E-11 2.23839E-10 6.91831E-02
 -1     20594 7.31954E-11-1.87151E-10-7.95488E-02
 -1     20595 1.96908E-10-1.98638E-10-6.83730E-03
 -1     20596-5.66354E-12 7.47135E-11 3.83713E-01
 -1     20597-2.53531E-10 2.42712E-10-3.23130E-01
 -1     20598-3.22649E-11 1.13654E-10-1.15691E-01
 -1     20599 8.21237E-13-3.82498E-11-2.11591E-01
 -1     20600 9.82677E-13 1.82546E-11-4.45649E-02
 -1     20601-1.61576E-12-1.46078E-11-4.78827E-01
 -1     20602-2.00010E-12 2.31213E-12 2.61096E+00
 -1     20603-1.56245E-11 1.55455E-11-2.05195E-01
 -1     20604 8.34764E-12-1.25385E-11-4.80626E-01
 -1     20605 4.51297E-12-2.25369E-12 1.56250E+00
 -1     20606-6.91286E-12-6.66692E-12-2.19797E+00
 -1     20607-3.22928E-12 5.21498E-13 1.71186E+00
 -1     20608-4.10476E-13-2.74331E-12-2.40717E+00
 -1     20609-1.25329E-11-6.95016E-12-1.37960E+01
 -1     20610 7.06993E-12 1.85630E-12-3.95352E+00
 -1     20611-9.63640E-12-6.18945E-11-6.77284E-01
 -1     20612 5.67503E-11-9.43604E-12 5.54787E-01
 -1     20613 3.72612E-10-3.02334E-10 4.12720E-01
 -1     20614-1.07380E-11-1.24809E-10 6.91961E-02
 -1     20615 7.33439E-10-1.15280E-09-1.72358E-01
 -1     20616 2.74899E-10-8.16548E-10-3.50857E-01
 -1     20617-9.41247E-10 1.21155E-10-5.35514E-01
 -1     20618 3.82187E-10-1.39762E-10 2.06483E-01
 -1     20619-3.30900E-10 1.24687E-09-2.45407E-01
 -1     20620-4.05880E-11 1.89664E-10 1.56915E-01
 -1     20621 1.36001E-09 9.08411E-11 1.84993E+00
 -1     20622 9.71836E-10-4.60872E-10-2.67326E+00
 -1     20623-3.47478E-11-1.44811E-09 2.90636E+00
 -1     20624 1.98997E-10-4.46241E-10-5.81311E-01
 -1     20625-2.71337E-09 4.54063E-10 4.88504E-01
 -1     20626 7.26583E-10-7.43412E-10 2.08206E-01
 -1     20627-2.29241E-10-1.24671E-10 3.03710E-01
 -1     20628 8.12524E-11 6.05668E-10-8.82034E-02
 -1     20629-4.87815E-10-1.88948E-10 7.00199E-02
 -1     20630-3.56462E-11-5.60513E-10-1.34496E-01
 -1     20631 1.36449E-10 3.40782E-11-5.75420E-02
 -1     20632-1.52399E-11-9.82002E-11 1.90093E-01
 -1     20633 5.14133E-11 1.42686E-11 3.78992E-01
 -1     20634-1.03850E-10-1.67511E-10 1.16735E-01
 -1     20635 1.80359E-11 1.65204E-11-6.58992E-02
 -1     20636-1.27591E-10-1.64336E-10 1.22447E-01
 -1     20637 3.60359E-11-1.13474E-11-3.34562E-02
 -1     20638 6.33464E-12-1.75592E-11 3.36711E-02
 -1     20639 2.43772E-11 1.22572E-11-2.35901E-01
 -1     20640 6.21440E-13-3.04764E-12 4.20708E-03
 -1     20641 6.17927E-12 4.63340E-12 2.05043E-02
 -1     20642-1.99100E-11 4.04345E-11-1.36213E-01
 -1     20643 5.95612E-13-1.30879E-12-8.38496E-01
 -1     20644 1.71719E-12 2.50178E-12 2.78092E-01
 -1     20645 4.27570E-12-1.03521E-11 7.27955E-01
 -1     20646-6.94520E-13-3.54236E-12-9.76001E-02
 -1     20647 7.88796E-13 4.62739E-13 9.68600E-02
 -1     20648 1.77004E-12-4.13929E-13-1.31375E+00
 -1     20649 2.57711E-14-2.05105E-12-2.13258E+00
 -1     20650-5.62712E-11 7.65384E-13 6.35932E-02
 -1     20651-3.62390E-11 2.28675E-11-9.97295E+00
 -1     20652-7.94605E-11 8.12028E-11 7.81455E-02
 -1     20653 2.59262E-11-1.38618E-10-1.35900E-01
 -1     20654-1.09397E-10-9.44021E-11-2.76595E-02
 -1     20655-8.42595E-11 9.52633E-11 1.06598E-01
 -1     20656 9.35488E-10-3.80782E-11 1.54488E-01
 -1     20657 1.30109E-10-8.14233E-10 2.33403E-01
 -1     20658-2.45207E-09-7.52327E-10-5.60544E-01
 -1     20659 6.05853E-10 1.04058E-09 6.12495E-01
 -1     20660-1.21298E-09-3.51177E-10-5.95605E-01
 -1     20661 2.19743E-09 5.68136E-09 3.62372E-01
 -1     20662 3.46494E-09-3.29864E-10-6.45116E-01
 -1     20663-4.44277E-10-1.19670E-10 2.01867E+00
 -1     20664-4.40350E-10-4.12742E-10 3.17717E-01
 -1     20665-4.23545E-10-2.55563E-10 2.87951E-02
 -1     20666 2.97896E-10 2.36851E-10 1.86648E-01
 -1     20667-2.06372E-09-4.57311E-09-7.10150E-01
 -1     20668-3.45276E-11-9.93816E-11 4.93022E-01
 -1     20669 7.38150E-10 6.31132E-10-1.03532E-01
 -1     20670-2.04199E-10-4.68577E-11 1.61911E-01
 -1     20671 2.56505E-10-1.57140E-09 1.06821E+00
 -1     20672-1.55551E-10 7.41175E-10 1.56993E-01
 -1     20673 3.04137E-10-2.83606E-11 6.81604E-01
 -1     20674 1.54269E-10 1.61856E-10 5.96957E-01
 -1     20675 4.68917E-10-1.19237E-10 9.78403E-02
 -1     20676 2.55422E-12 2.92405E-11-9.89481E-02
 -1     20677-5.05282E-12 8.92437E-12 8.95160E-02
 -1     20678-5.53027E-11-8.85849E-11-2.48806E-01
 -1     20679-4.45942E-12-1.94988E-13-1.20081E-02
 -1     20680 3.85513E-11-7.82279E-11 1.13369E+00
 -1     20681 1.35323E-11 3.49987E-11-3.09092E-01
 -1     20682 2.85026E-13-8.79574E-12-6.02829E-01
 -1     20683-1.11349E-11-3.00392E-11 4.70132E-01
 -1     20684-1.77875E-10-6.07259E-11-1.12616E+00
 -1     20685 1.99272E-11-4.52388E-12 5.40393E-02
 -1     20686-3.89508E-11-1.32176E-10-1.95181E-01
 -1     20687-2.21145E-11-4.45715E-12 2.90728E-01
 -1     20688 8.22449E-13 1.14690E-11 1.70176E+00
 -1     20689-1.27783E-11-1.15896E-12 2.35791E+00
 -1     20690 5.78244E-12-1.86729E-11 3.91432E-01
 -1     20691 1.23807E-10 1.20647E-10-3.48054E-01
 -1     20692-3.33493E-11-4.57101E-11 8.50613E+00
 -1     20693-5.77873E-11 4.31672E-10-8.71557E-04
 -1     20694 3.25982E-10 5.76533E-11-2.99430E-01
 -1     20695-1.05008E-10-1.28845E-10-8.03832E-03
 -1     20696 1.13147E-10 4.96206E-11 2.88292E-01
 -1     20697-3.29522E-10 1.31614E-10-1.57938E-01
 -1     20698 1.19908E-10 2.17903E-10 9.19862E-03
 -1     20699-3.66567E-10 5.04760E-10-7.28234E-03
 -1     20700 2.24143E-09-1.85485E-11-3.84057E-01
 -1     20701 2.91439E-09-2.58244E-09 2.62058E-01
 -1     20702-5.75903E-09-1.26978E-10 3.15054E+00
 -1     20703-2.16004E-09-1.64313E-09 3.25841E+00
 -1     20704-2.98400E-09 1.22502E-09 1.01986E+00
 -1     20705-1.14381E-09 1.51159E-09 1.34223E-01
 -1     20706-4.88933E-10 1.33359E-10-6.97776E-02
 -1     20707 1.47957E-11-1.91436E-11 4.53184E-01
 -1     20708-1.86729E-11 1.23561E-10-2.34705E-02
 -1     20709 3.68678E-10 2.36070E-10-3.44349E-03
 -1     20710-3.49114E-10 4.42806E-10-8.84126E-02
 -1     20711-7.67026E-10-1.54427E-09 1.23822E+00
 -1     20712 1.55453E-10-3.35817E-11 1.68757E-02
 -1     20713-3.94621E-10-1.19018E-10-2.28986E-03
 -1     20714-2.02841E-10-2.29988E-10-3.97183E-01
 -1     20715 1.93487E-10 1.25518E-10-2.31526E-02
 -1     20716-5.59754E-11-3.71341E-12 8.68538E-03
 -1     20717 7.38622E-11-3.64864E-11-1.80898E-01
 -1     20718 8.04124E-11 2.88414E-10-6.12534E-01
 -1     20719 1.57451E-10 3.59192E-11 1.65184E-01
 -1     20720-2.64423E-11-2.33444E-11 3.71984E-01
 -1     20721-1.50033E-11 9.63381E-12 3.22400E-01
 -1     20722 2.34861E-11 2.77835E-11 2.40317E-01
 -1     20723 1.54992E-11 2.96698E-12-2.08588E+00
 -1     20724 1.03858E-10-2.76953E-11 3.28297E-01
 -1     20725 8.82099E-12 3.60467E-12 1.07945E+00
 -1     20726-2.62992E-12 1.01428E-11 1.42597E+00
 -1     20727-4.37890E-10-3.74789E-10 8.42394E-01
 -1     20728 1.51812E-10-4.26497E-11 3.08953E-03
 -1     20729 6.76601E-11 1.21557E-09-6.30353E-01
 -1     20730 3.59164E-11 1.69583E-10-7.38818E-01
 -1     20731-3.97598E-12 3.42826E-09-7.17702E-01
 -1     20732 1.56879E-09-1.61696E-09-4.23713E-01
 -1     20733-1.44439E-09 9.87283E-10 3.63178E-01
 -1     20734-2.46032E-10-2.78272E-09 9.43185E-01
 -1     20735-4.03906E-10-1.78228E-09 5.42550E-01
 -1     20736 3.23476E-10-9.26378E-11-3.13592E-01
 -1     20737 5.23419E-12-4.43886E-10 2.35703E-01
 -1     20738-1.46883E-10 2.42349E-10 4.70687E-03
 -1     20739 1.66157E-14 2.01535E-10-2.10345E-01
 -1     20740-1.98806E-10 2.35622E-10-3.72803E-01
 -1     20741 1.24036E-10 2.07840E-10-1.65409E-01
 -1     20742-1.18489E-10 8.12696E-11-1.50254E-01
 -1     20743-2.06642E-10 9.34068E-11 1.27820E-01
 -1     20744 1.53894E-10 7.86846E-11-6.32562E-01
 -1     20745 7.00269E-11-2.84220E-10-1.99903E-01
 -1     20746-4.52351E-11-7.94683E-11 6.02175E-01
 -1     20747-1.50305E-11-3.74381E-12 8.33041E-01
 -1     20748 4.52627E-10-7.38433E-11 2.98696E-01
 -1     20749 7.31562E-12-1.93508E-11 4.08036E-01
 -1     20750 2.42448E-11-6.61058E-11-5.36065E-01
 -1     20751 1.83990E-11-2.61646E-11 9.61672E-01
 -1     20752 1.03447E-11-4.41268E-11-1.74172E-01
 -1     20753 2.60969E-11-1.47664E-11-1.10307E-01
 -1     20754 9.30633E-10-3.42517E-10 5.70015E-01
 -1     20755 4.33600E-11-7.75616E-11 2.49237E+00
 -1     20756 2.03832E-09 1.06652E-09 6.58098E-01
 -1     20757-3.79122E-10 6.70704E-11-2.88210E-01
 -1     20758 9.01066E-12-3.34789E-11 1.86673E-01
 -1     20759-4.07263E-10 9.34611E-10 1.14803E-01
 -1     20760 3.25477E-11-6.68497E-10 8.27321E-02
 -1     20761-1.39636E-10 3.51616E-09 1.51441E-01
 -1     20762-6.46247E-10-7.41219E-10 1.43299E-01
 -1     20763 2.36057E-09-1.15568E-09-1.19890E+00
 -1     20764 4.93053E-11 2.11979E-11 1.07227E+00
 -1     20765 4.28453E-10-3.32486E-10 5.49504E-02
 -1     20766 1.97718E-10 1.73348E-09 6.59559E-02
 -1     20767 7.79146E-10-1.65547E-10 1.05103E-01
 -1     20768-4.77053E-11 1.86479E-10 1.50365E-01
 -1     20769 2.83736E-10-9.98437E-11 1.66747E-02
 -1     20770-2.06128E-09-1.46582E-09-8.91521E-01
 -1     20771 4.11290E-10 7.13076E-12 2.25418E-01
 -1     20772-8.87944E-11-9.26492E-10-1.66712E-01
 -1     20773-1.98818E-11-2.63607E-10-4.16217E-02
 -1     20774 1.11774E-09 1.00822E-10-1.56797E-03
 -1     20775-1.06143E-10-1.92016E-10-2.11200E-01
 -1     20776-1.46983E-09-1.62115E-09 2.07952E-01
 -1     20777 1.15772E-11 2.10150E-13 7.05796E-01
 -1     20778-2.68571E-10-2.38931E-10-1.90579E-01
 -1     20779-1.69945E-11 2.64993E-12 7.66568E-01
 -1     20780-6.75701E-10 9.84403E-10-2.49054E-01
 -1     20781-1.79427E-11-4.19167E-12-2.05161E-01
 -1     20782 4.85075E-10-1.21264E-09 3.65164E-02
 -1     20783 1.40016E-09-1.97199E-09-1.41702E-01
 -1     20784-1.06313E-09-1.77155E-09 2.76595E-01
 -1     20785 1.34342E-09 1.12381E-09 8.03506E-01
 -1     20786 2.02229E-10-6.23897E-10 2.02988E-01
 -1     20787-9.74153E-11 1.79786E-11 1.34692E-01
 -1     20788-2.23432E-10-1.89461E-10-3.81585E-01
 -1     20789 3.80687E-10-1.39912E-09 2.09545E-01
 -1     20790 1.76435E-11 2.54217E-10 6.89964E-02
 -1     20791 1.76693E-12 8.28514E-11 6.68169E-02
 -1     20792-4.19727E-10-6.40054E-10-5.51981E-01
 -1     20793 1.22071E-11-9.39462E-11 1.46305E+00
 -1     20794 1.51954E-09-1.77182E-09 2.15519E-01
 -1     20795-7.62910E-10 2.30288E-09-9.17848E-01
 -1     20796-3.63730E-10-2.56128E-10-5.88292E-01
 -1     20797-7.03271E-12 1.97894E-11 1.15378E-02
 -1     20798 7.87949E-10-1.86706E-09-1.09092E+00
 -1     20799-5.51119E-10 1.82429E-09-1.74753E+00
 -1     20800-4.10498E-11-4.77961E-11 1.11602E-01
 -1     20801-2.93990E-10 8.21739E-10 1.78881E-01
 -1     20802-4.14586E-11 2.06255E-11 1.71196E+00
 -1     20803 7.80907E-10-1.97196E-10 1.40910E-01
 -1     20804 1.39463E-10-1.28252E-10-5.13248E-01
 -1     20805 1.05699E-09-1.19439E-09 4.34231E-01
 -1     20806-5.03116E-11-6.77921E-11-7.60809E-02
 -1     20807-2.94680E-10 1.43054E-10 1.79366E-02
 -1     20808 8.01890E-10 9.49494E-10 1.14026E+00
 -1     20809 1.07139E-09 1.95181E-09-5.39283E-01
 -1     20810-1.19608E-09 1.11463E-10 3.40212E-02
 -1     20811 5.26331E-10 1.57375E-10-3.05790E-01
 -1     20812-7.13275E-11-1.04012E-10-2.04515E-01
 -1     20813 1.78490E-10 8.50875E-11 5.82247E-01
 -1     20814-2.21730E-12-2.45707E-10-8.93913E-01
 -1     20815 3.21065E-12-3.03413E-10-6.54294E-01
 -1     20816 6.32898E-10 1.42485E-09-6.28896E-01
 -1     20817 2.40771E-10 1.51628E-11 5.18802E-01
 -1     20818 3.90980E-10 3.98740E-10-1.35855E-01
 -1     20819 1.86762E-09 1.81400E-09-3.00901E-01
 -1     20820-2.71930E-11 2.60777E-11-3.66579E-02
 -1     20821 1.04772E-10 1.47311E-10 2.84838E-01
 -1     20822 1.93596E-11-3.24691E-10-1.89987E-02
 -1     20823-1.19946E-09-2.49611E-09-1.43237E-01
 -1     20824 4.20050E-11-4.16665E-11 1.63711E-01
 -1     20825 1.05615E-09-9.83144E-10 3.87135E-01
 -1     20826 9.06151E-10-3.93608E-10-9.02588E-02
 -1     20827 6.33396E-10 3.42305E-10-6.39349E-01
 -1     20828-1.75969E-10 1.81667E-09-1.31600E+00
 -1     20829-3.34303E-10 2.03900E-10-5.90365E-01
 -1     20830-1.66186E-10-2.71539E-10-6.28057E-01
 -1     20831 4.10880E-11 2.87069E-10 5.75418E-01
 -1     20832-1.50323E-11-1.52616E-10-6.84723E-01
 -1     20833-1.27644E-09 5.84200E-10 3.07396E-01
 -1     20834 5.25415E-10 1.60804E-10 4.92646E-02
 -1     20835 8.10599E-11 1.39982E-10-1.33675E-01
 -1     20836-6.40395E-10 1.16363E-10-3.46782E-02
 -1     20837 3.34848E-11-1.04518E-10 8.84022E-02
 -1     20838 2.77970E-12 3.27319E-12 3.64155E-01
 -1     20839-6.91591E-11-1.94726E-10-2.61814E-01
 -1     20840-1.29354E-09-3.96501E-09-1.25511E-01
 -1     20841 1.03992E-09-9.09077E-11-5.37162E-01
 -1     20842 2.30391E-12-2.30000E-11-1.16844E-01
 -1     20843-3.16934E-11 2.32954E-11-1.62625E+00
 -1     20844 7.85253E-12 6.96561E-12-2.48696E-02
 -1     20845 2.59659E-10 1.06210E-09-1.59647E-01
 -1     20846 1.59631E-09-5.29937E-10-8.63499E-01
 -1     20847-2.45616E-10 4.96673E-10 8.15978E-02
 -1     20848-5.89270E-10-2.36107E-09-4.58004E-01
 -1     20849-2.46112E-11 1.90649E-12-2.51576E-01
 -1     20850 1.60525E-09 2.80691E-09-6.04783E-01
 -1     20851 1.01946E-10-7.70676E-11-6.83543E-01
 -1     20852 4.07196E-11-5.42152E-11 8.45125E-02
 -1     20853 1.39511E-10 5.49182E-10 2.10856E-01
 -1     20854-2.36752E-09 5.91433E-09-2.65368E-01
 -1     20855 1.03390E-10 4.00700E-10 3.47496E-02
 -1     20856 1.59064E-10 2.99467E-10 2.69962E-01
 -1     20857-8.15570E-10 1.97843E-09 2.18608E-01
 -1     20858-1.74660E-11 1.63057E-12 1.80609E+00
 -1     20859 5.48420E-10 4.92686E-11 4.38776E-01
 -1     20860 1.80859E-11 2.02840E-11-2.19693E-02
 -1     20861-1.81941E-11 7.53669E-12-5.80621E-02
 -1     20862-5.69223E-10-1.94219E-10-2.73486E-01
 -1     20863-6.73907E-10 3.13026E-10 5.35120E-02
 -1     20864-4.76868E-10 1.10569E-09-8.53703E-02
 -1     20865-3.55007E-11-2.70051E-10 3.49165E-01
 -1     20866 1.56026E-11 1.54793E-10 3.76492E-02
 -1     20867 4.31300E-11-5.57883E-11-4.09345E-02
 -1     20868-2.30916E-10-6.80031E-10 6.23672E-02
 -1     20869-2.53836E-11 2.34079E-10-5.17430E-01
 -1     20870 1.86916E-11-1.69016E-10-2.28768E-01
 -1     20871-1.59998E-10-9.73038E-11-1.54662E-01
 -1     20872 2.13990E-10-4.62388E-10 8.08036E-02
 -1     20873 4.76257E-11 9.44471E-10 2.79402E-01
 -1     20874-1.59792E-11 3.26347E-11-4.67472E-01
 -1     20875 2.06340E-10 4.58641E-11 1.54897E-01
 -1     20876-8.50441E-11 5.12082E-11-3.52077E-01
 -1     20877-3.28431E-11 2.37334E-12 5.81039E-02
 -1     20878-6.39359E-10-1.00970E-10 2.33095E-01
 -1     20879-3.68805E-10-2.77336E-10 2.77211E-01
 -1     20880-1.03219E-10-5.48938E-11-5.00701E-02
 -1     20881-5.32957E-10 2.03316E-10 3.08125E-01
 -1     20882-8.29465E-11 3.14463E-10-5.52742E-01
 -1     20883 6.19686E-10-6.59921E-10 7.68118E-01
 -1     20884-2.25619E-10-4.12173E-10 8.36407E-02
 -1     20885 2.70194E-10-5.34971E-11-1.42921E-01
 -1     20886 1.08322E-10 1.64008E-09-2.75436E-01
 -1     20887 2.49982E-10-1.22257E-11 1.64421E-02
 -1     20888 4.02300E-11 2.03553E-09 7.72270E-01
 -1     20889 5.35048E-11-8.20218E-11-5.56743E-02
 -1     20890-6.21054E-11-6.93801E-11-5.23694E-02
 -1     20891-7.22934E-11-1.51916E-10-4.83482E-01
 -1     20892 4.37109E-10 3.89086E-10-1.14629E-02
 -1     20893 5.26269E-10-3.48917E-10 1.04102E-01
 -1     20894-3.18831E-10-1.46348E-10-4.54037E-01
 -1     20895 3.85818E-10 2.31518E-09-3.05520E-01
 -1     20896 9.98903E-11-9.02771E-11-2.02350E-01
 -1     20897 5.81171E-12 4.00917E-11-2.67264E-01
 -1     20898-9.39926E-10 2.05189E-09 4.73919E-01
 -1     20899 2.68420E-10-8.86066E-11 2.74531E-02
 -1     20900 1.72375E-10 2.00306E-10-2.67420E-01
 -1     20901-6.45160E-10 1.38772E-10 5.49872E-02
 -1     20902-4.21842E-11 1.98763E-10 3.19322E-02
 -1     20903-1.53138E-11-2.47949E-11 7.89561E-02
 -1     20904-1.20828E-11 1.25994E-10-4.62430E-03
 -1     20905-1.11205E-10 7.74852E-11 1.13137E+00
 -1     20906-1.58890E-10 3.25209E-11 7.90685E-01
 -1     20907 8.14216E-11 3.97807E-11 3.35638E-02
 -1     20908-9.13441E-10-5.92966E-10 7.34877E-02
 -1     20909 1.64222E-10-8.06705E-11-9.04763E-01
 -1     20910-1.32314E-09 9.51374E-10-1.49970E-01
 -1     20911-1.88001E-13 7.90185E-10 1.77393E-01
 -1     20912-2.62546E-11 4.06099E-10 3.81771E-01
 -1     20913-1.11636E-10 5.80179E-11 5.08522E-02
 -1     20914-2.49275E-10 1.46713E-09-3.22565E-02
 -1     20915 2.36571E-10-5.36479E-10 1.48856E-01
 -1     20916 9.93801E-10 4.20957E-10-9.35953E-02
 -1     20917 1.04023E-10 1.15540E-12 7.73877E-01
 -1     20918 3.09892E-10 1.93824E-10-3.43023E-01
 -1     20919-5.80113E-10 8.45019E-10 7.12110E-02
 -1     20920 8.63381E-11-1.01801E-12-1.73496E-02
 -1     20921-1.50078E-11-5.28162E-11-9.64944E-01
 -1     20922 1.76308E-10-1.14887E-10-1.71153E-03
 -1     20923-2.15098E-10-9.35132E-10 1.06724E-01
 -1     20924-1.63450E-10 2.34621E-10 7.32818E-02
 -1     20925-4.47151E-11 1.10185E-10-4.61787E-01
 -1     20926-2.22954E-10-3.24282E-10 1.09177E-01
 -1     20927 1.40469E-11 2.90887E-11-3.62906E-02
 -1     20928 1.63849E-12 6.37725E-11-6.95078E-03
 -1     20929-1.84646E-10-1.19377E-10 4.40699E-02
 -1     20930-8.09920E-11 1.26502E-10-9.22692E-02
 -1     20931 3.79359E-10 1.05541E-09-1.84006E-01
 -1     20932-2.43865E-10-3.98033E-10 1.11598E-01
 -1     20933-4.95956E-10 9.51424E-10-2.33368E-02
 -1     20934-5.06291E-10-5.03835E-10 4.44875E-02
 -1     20935-3.83151E-11 4.46882E-11 2.09522E-01
 -1     20936-6.29519E-11-7.69143E-11-3.57688E-01
 -1     20937-4.75140E-11-2.95150E-11-2.74583E-01
 -1     20938 4.19605E-11 4.94443E-11-2.09225E-01
 -1     20939-4.38993E-10-2.61373E-10-3.84835E-03
 -1     20940 7.17609E-11 2.44114E-10-6.77306E-02
 -1     20941 1.60247E-10 7.86178E-11-2.10057E-01
 -1     20942-1.77502E-10-1.39863E-10 1.62093E-01
 -1     20943-1.75071E-11-2.09761E-10-8.96691E-01
 -1     20944-8.99856E-13 3.06983E-11 7.05826E-03
 -1     20945 1.48463E-10-2.65131E-10-2.87953E-01
 -1     20946-2.19630E-10-6.34098E-10 3.73145E-01
 -1     20947-7.93268E-11 1.38533E-10-2.69209E-04
 -1     20948 1.43076E-10 1.51813E-10-2.45541E-02
 -1     20949 3.29417E-11-4.93276E-11 9.51744E-03
 -1     20950-7.78733E-11-4.28901E-11 7.63453E-01
 -1     20951 7.35658E-12 7.62875E-11-1.95058E-01
 -1     20952 2.86016E-11 1.19468E-10-3.32103E-02
 -1     20953-5.14496E-10-1.44265E-10 1.61883E-01
 -1     20954 3.26195E-10 5.29310E-10 6.04659E-03
 -1     20955 2.89312E-11-1.84430E-10 4.44298E-01
 -1     20956-1.22413E-11 1.47571E-10 1.15106E-01
 -1     20957 3.61847E-10 9.33402E-10-3.87024E-01
 -1     20958 1.42649E-10 1.52081E-11 3.28947E-01
 -1     20959-1.67994E-10-1.39361E-10-6.69429E-02
 -1     20960 4.83263E-10 1.53738E-10 7.51742E-01
 -1     20961-1.71546E-10-1.39662E-10-4.07951E-01
 -1     20962 6.72872E-12-5.40891E-12-6.20977E-02
 -1     20963 3.29454E-10 1.02723E-10-1.76254E-01
 -1     20964-8.72611E-11-2.69758E-11 2.06566E-01
 -1     20965 7.92660E-11 3.44477E-10-4.54084E-01
 -1     20966-2.09636E-11-7.55467E-12-1.79676E-01
 -1     20967 3.74846E-12 2.51030E-11 4.41508E-01
 -1     20968-2.36503E-11 2.58712E-10 2.52877E-01
 -1     20969 8.04429E-11-1.67606E-10 4.63557E-01
 -1     20970-5.36814E-11-1.84260E-11-9.29162E-02
 -1     20971 2.43630E-10-1.14028E-10 8.27726E-02
 -1     20972 5.80672E-11-1.14893E-10-2.05993E-02
 -1     20973 5.39482E-13 9.73594E-11 1.27495E-01
 -1     20974-2.24817E-10 2.93161E-10-9.78428E-02
 -1     20975-5.43376E-10-1.31071E-09-2.18565E-01
 -1     20976 5.08521E-10 5.95748E-10-2.66752E-01
 -1     20977-1.04219E-11-1.27888E-10 4.90923E-02
 -1     20978 3.36048E-10 1.25317E-09-2.49516E-01
 -1     20979 5.27155E-10 6.34401E-11 1.21747E-01
 -1     20980 5.06225E-10-1.44970E-09 3.16259E-01
 -1     20981-6.53682E-10 1.53731E-10-3.70902E-01
 -1     20982 1.15493E-09 6.81434E-10-8.06209E-01
 -1     20983-2.84615E-10 5.32466E-10-1.60815E+00
 -1     20984-1.69641E-09 7.45549E-10-3.44580E+00
 -1     20985-2.24601E-09-2.64303E-10 4.16898E+00
 -1     20986 2.02464E-09-1.25157E-09-4.42882E-01
 -1     20987 3.09849E-10 1.52411E-09-8.12858E-01
 -1     20988 3.35818E-09-9.57199E-10 4.78287E-01
 -1     20989 4.39675E-11 1.73710E-10-3.99118E-02
 -1     20990 1.08944E-10-3.06873E-10-8.89240E-03
 -1     20991 7.31842E-11 5.39210E-10-3.94936E-03
 -1     20992 1.69422E-10-8.39745E-11-3.11243E-02
 -1     20993 2.43975E-11 3.11954E-10 3.38895E-02
 -1     20994 2.66820E-11-1.43247E-10-8.06873E-03
 -1     20995 1.28834E-11-1.11429E-10 2.54566E+00
 -1     20996 3.79978E-12 4.49062E-11 1.37427E+00
 -1     20997-2.53813E-12 1.78973E-11-4.62685E+00
 -1     20998 7.94950E-12 6.90576E-12-3.05659E+00
 -1     20999 6.57089E-13-6.18364E-12-6.30749E-02
 -1     21000 2.86702E-12-1.67401E-11-1.59965E+00
 -1     21001-9.09904E-12 1.11039E-12 1.37633E+00
 -1     21002-7.48957E-12-5.98911E-12-1.34245E-01
 -1     21003-1.18402E-12-3.01713E-12 7.76047E-04
 -1     21004 1.71537E-12 2.35813E-12-3.99602E-01
 -1     21005-1.17502E-11-1.94690E-11-4.29105E-01
 -1     21006 1.97455E-12-6.51538E-12 7.17723E-03
 -1     21007-9.51189E-10-2.32506E-10-5.37064E-01
 -1     21008-3.40126E-12 1.14072E-12-4.61942E-04
 -1     21009 2.91274E-11 4.03092E-11 4.13461E-02
 -1     21010 3.41420E-11 1.02583E-10-8.97273E-02
 -1     21011 9.32639E-11 1.63935E-10 4.27904E-01
 -1     21012-7.83589E-11 2.55175E-11-2.28842E-01
 -1     21013 5.43054E-10 7.89604E-10 2.22245E-01
 -1     21014-2.17366E-10 5.39364E-11 1.73912E-02
 -1     21015-6.94863E-11 2.51146E-11 1.79442E-03
 -1     21016 1.17012E-10-5.18448E-11-1.61663E-01
 -1     21017 2.37022E-10-1.92415E-10-1.65136E-02
 -1     21018 7.44850E-11-4.95876E-10-2.20327E-02
 -1     21019 8.33799E-11 1.61783E-10-4.12971E-01
 -1     21020-1.63138E-10-2.33148E-10-8.86540E-04
 -1     21021-7.44799E-11 7.12402E-10 4.49613E-02
 -1     21022 8.27122E-11-2.08811E-09 1.66415E-01
 -1     21023 3.03383E-09-1.77962E-09 4.06418E-01
 -1     21024 7.03333E-11 8.56820E-10-6.14517E-02
 -1     21025-3.89081E-11-5.47848E-10-4.83080E-01
 -1     21026-2.14540E-09-6.17062E-10-2.13158E+00
 -1     21027 1.19369E-09 2.50026E-09 4.35198E-01
 -1     21028 2.50152E-09-1.50269E-09 3.14211E-01
 -1     21029-4.53620E-10 4.66713E-10-1.97515E-02
 -1     21030 2.67366E-10 4.67540E-10 1.50054E-01
 -1     21031 3.46185E-10-1.28838E-11 2.98005E-01
 -1     21032 5.57164E-11 4.58288E-10 1.14135E-01
 -1     21033-3.96160E-10-3.58289E-11-3.03742E-02
 -1     21034-2.40327E-10 3.60927E-11-1.36766E-01
 -1     21035-1.66341E-10 1.09317E-10 9.36527E-01
 -1     21036-2.51542E-11-7.23139E-12-1.45912E-01
 -1     21037 3.88783E-12 1.58950E-11 1.87648E+00
 -1     21038 2.04310E-11-2.64991E-11-1.39528E+01
 -1     21039 1.92862E-12-1.91597E-13-1.17353E+00
 -1     21040-4.46654E-12 1.74149E-12 3.39746E+00
 -1     21041-3.89989E-12 4.57519E-13-1.05343E+00
 -1     21042-9.23735E-12-3.20690E-12 2.63139E-01
 -1     21043 9.86115E-12-2.45075E-11-1.16399E+00
 -1     21044 6.55559E-12-3.76419E-12-5.65057E-01
 -1     21045-1.98783E-11-1.88904E-11 1.52688E-01
 -1     21046 2.51369E-10 4.79458E-11 6.72504E-03
 -1     21047-8.63256E-11-1.15236E-10 4.26393E-01
 -1     21048 1.36377E-11-1.97181E-11 9.04653E-02
 -1     21049 8.56200E-11 4.06564E-11 8.65831E-03
 -1     21050-3.04102E-10-1.54792E-10-1.71851E-01
 -1     21051 1.11826E-10-3.86179E-10-2.95670E-01
 -1     21052-1.25318E-10 6.97693E-10-5.85297E-01
 -1     21053-1.87589E-10-7.86125E-11-4.01524E-01
 -1     21054 2.70361E-10-2.90400E-11 7.99556E-02
 -1     21055-5.03015E-10 4.14179E-10-3.20229E-01
 -1     21056 1.78807E-10-2.93364E-10-1.62025E-02
 -1     21057 3.07504E-10-7.55642E-11 4.18539E-01
 -1     21058-9.68921E-11-4.64712E-10 8.81065E-03
 -1     21059-4.29689E-10 1.68231E-09-4.67307E-01
 -1     21060 2.39799E-10 7.60483E-09-1.19702E-01
 -1     21061-2.49686E-10 7.57709E-10-5.45811E-01
 -1     21062-8.02996E-11-7.44965E-11 1.61119E-02
 -1     21063-1.04953E-09-2.09975E-10 3.77001E-01
 -1     21064-3.76078E-10 7.43740E-09-2.06682E-01
 -1     21065-2.48025E-10 1.93109E-10-9.88040E-03
 -1     21066 1.93505E-09-8.04381E-10-2.21153E-01
 -1     21067 1.20100E-09 1.40222E-09-4.64159E-01
 -1     21068 2.23323E-12-6.43967E-12-7.94591E+00
 -1     21069 1.04779E-09 2.07180E-09 2.11853E-01
 -1     21070 2.43369E-10 3.32642E-10 2.54469E-01
 -1     21071-1.93650E-10-3.22369E-10 4.69357E-01
 -1     21072 4.07490E-10 1.58050E-10 6.40202E-04
 -1     21073 3.45278E-10-2.03216E-10 2.20568E-01
 -1     21074 1.87636E-10-3.15170E-10-1.23976E-03
 -1     21075-3.66566E-10 8.34039E-10 3.05988E-02
 -1     21076-1.57140E-09-1.27847E-09-2.37533E+00
 -1     21077-1.00276E-09-9.26848E-11 7.75000E-02
 -1     21078 1.19454E-11-5.93546E-11 4.44861E-02
 -1     21079-1.33862E-10 1.08819E-10-3.76305E+00
 -1     21080-1.65236E-13-3.37336E-12-2.03513E+00
 -1     21081 1.36133E-12-1.71580E-11-3.61043E+00
 -1     21082-3.29815E-13-8.35975E-12 1.16756E+00
 -1     21083 2.97092E-11-2.22084E-11 1.44642E+00
 -1     21084-1.40410E-11 2.30260E-11 9.59251E-01
 -1     21085 7.26191E-12-3.08133E-12-1.26294E+00
 -1     21086 9.84029E-13 9.61715E-12-9.90172E-01
 -1     21087-2.83382E-11 3.45524E-11 4.68056E-01
 -1     21088 2.03562E-11-3.65027E-11 6.08248E-01
 -1     21089-2.19644E-11-1.96954E-11-2.53260E-02
 -1     21090-4.19321E-10-7.15219E-10 1.49841E+00
 -1     21091 4.97205E-11 1.59021E-10-1.09251E-01
 -1     21092 1.25767E-11-6.62160E-12 2.03492E-01
 -1     21093 1.00511E-09 2.26177E-10-2.79758E+00
 -1     21094-3.78355E-10 5.00096E-10-1.23325E-01
 -1     21095 2.21719E-10-1.19755E-10-7.54132E-02
 -1     21096-2.79284E-10-2.19753E-10 8.60136E-01
 -1     21097 7.50003E-11-7.69464E-11 5.16884E-01
 -1     21098-2.93103E-11 3.44678E-11-8.88352E-03
 -1     21099 7.31419E-11-8.09969E-11 7.31626E-03
 -1     21100 3.47293E-11 2.58615E-10 2.83534E-02
 -1     21101 3.59475E-11-9.07812E-11-1.48201E-02
 -1     21102 8.54455E-11-2.95732E-10 2.16146E-01
 -1     21103-9.70627E-11-4.73580E-10-3.98753E-01
 -1     21104-6.92163E-10-1.97674E-09 1.09773E-01
 -1     21105 8.82794E-10-7.41387E-10-2.59751E-01
 -1     21106-4.50833E-10-2.77923E-09 8.98250E-01
 -1     21107 9.25978E-10 7.04010E-10 1.51763E-01
 -1     21108-5.75474E-12-4.03751E-12-1.78315E-02
 -1     21109 1.01769E-10-4.49771E-11-1.40076E-01
 -1     21110 1.63106E-10-6.91255E-11-4.38737E+00
 -1     21111 1.54295E-11-6.50486E-11-4.84035E-03
 -1     21112-6.53049E-11-1.52009E-10-1.50579E+00
 -1     21113 5.61282E-12 6.60148E-12 1.03113E+00
 -1     21114-2.70290E-11-2.27246E-11 5.07038E-01
 -1     21115-4.72486E-11 3.04315E-11 1.04001E+00
 -1     21116-2.64197E-11 6.38562E-13-4.99458E-03
 -1     21117-1.25596E-12-1.44462E-11-2.80388E-01
 -1     21118-1.09627E-09 6.28793E-10-3.80267E-02
 -1     21119-1.19997E-11 1.37207E-11-5.58434E-01
 -1     21120-1.58463E-09-3.79992E-09 1.97901E+00
 -1     21121-1.10191E-09 4.10632E-09-2.94303E-02
 -1     21122 7.08973E-11-8.93037E-11-4.37662E-01
 -1     21123-6.31920E-11 8.95243E-11 7.76026E-02
 -1     21124 2.42615E-10 1.08444E-10 1.91137E-01
 -1     21125 1.02978E-11 4.31864E-10 4.94583E-02
 -1     21126-2.35316E-11 8.22099E-11 3.77116E-01
 -1     21127 3.27835E-10-7.83237E-10-4.26379E-01
 -1     21128 3.04436E-10 3.42883E-10-1.76695E-01
 -1     21129-5.98640E-10 4.84858E-10 3.62358E-01
 -1     21130 4.70469E-11-9.08926E-10 4.31200E-01
 -1     21131-1.27846E-09-2.07664E-10 2.63498E-01
 -1     21132 5.04144E-11 2.36082E-10-3.48946E-01
 -1     21133 2.90251E-10 2.39840E-09 3.84440E-01
 -1     21134-2.21973E-10 8.86850E-10 1.96877E-01
 -1     21135-2.42267E-10-1.53872E-10-1.66059E-02
 -1     21136-5.36767E-10-3.08577E-11-1.63111E-01
 -1     21137-5.94434E-13-1.26503E-11-8.79958E-01
 -1     21138 5.34817E-11-4.03571E-10-3.42306E-02
 -1     21139 1.32536E-09 8.20475E-10-1.01910E-01
 -1     21140-6.23433E-10-1.61325E-09 7.34244E-01
 -1     21141 5.68809E-10-8.40883E-10 2.17296E-01
 -1     21142-1.44865E-11-3.30546E-10 4.91199E-02
 -1     21143 7.64366E-11 2.07260E-11 4.78798E-02
 -1     21144-2.72210E-11 8.77814E-11 1.31396E-01
 -1     21145 3.34817E-11-2.37541E-11-9.68189E-01
 -1     21146 1.05812E-11-1.35466E-11-5.33316E-02
 -1     21147-5.48502E-11 1.12456E-10-6.22864E-02
 -1     21148-2.78497E-10-6.29618E-10 5.59211E-02
 -1     21149-6.31665E-10 2.06059E-10 1.34708E-01
 -1     21150-5.65064E-11-2.06962E-10 8.44229E-01
 -1     21151 1.26807E-10 2.93466E-11 2.08209E+00
 -1     21152-8.59159E-11 4.15283E-11 1.50845E-01
 -1     21153-1.37198E-10 1.79488E-09 8.36857E-01
 -1     21154 1.00375E-09-1.01249E-10-4.13992E-02
 -1     21155 6.97523E-10 3.09088E-09 1.21575E+00
 -1     21156-1.29615E-09 1.39712E-09 2.11488E-01
 -1     21157 4.96171E-12-3.20984E-12-8.43880E-01
 -1     21158 3.64237E-12 8.44492E-12-2.20645E-01
 -1     21159-2.07383E-09 3.85950E-09 4.11555E-01
 -1     21160 3.74440E-10-2.93545E-10-2.57749E-03
 -1     21161 1.00155E-09 1.77905E-10-8.04768E-02
 -1     21162-1.77334E-10-2.99041E-10 3.00943E-01
 -1     21163 1.98852E-11-5.39228E-11-1.21285E+00
 -1     21164-9.26052E-10-3.54990E-09-1.33151E+00
 -1     21165 9.11465E-10-1.46882E-09-4.40681E-01
 -1     21166-1.82305E-11 4.56170E-11 8.96314E-01
 -1     21167 1.43185E-10 3.50915E-10-1.47227E-01
 -1     21168 1.76647E-11-1.34939E-09-9.95679E-01
 -1     21169-1.13244E-09-2.11841E-10-2.15987E-01
 -1     21170 2.50051E-10-6.06664E-11 2.21410E+00
 -1     21171-1.01097E-10 3.62926E-11 3.06205E-01
 -1     21172-9.08273E-10-4.22555E-10 2.43879E-01
 -1     21173-1.10422E-10-2.51356E-10-4.91696E-01
 -1     21174 6.07477E-12 1.01263E-11 2.83457E-02
 -1     21175 2.07922E-09 1.17152E-09-5.10225E-01
 -1     21176 1.24923E-11-2.17497E-11-4.66469E-01
 -1     21177-1.33548E-10 2.38316E-10 9.05294E-02
 -1     21178-2.60447E-09-9.85476E-10 5.01297E-02
 -1     21179 1.34619E-10-3.85192E-10-2.25272E-01
 -1     21180-2.63068E-10-5.34294E-11 3.19857E-01
 -1     21181-4.56777E-11-5.18384E-11-4.92074E-02
 -1     21182 2.83320E-10-7.43177E-10 1.86680E-01
 -1     21183 1.30234E-10 1.44327E-10-7.53715E-01
 -1     21184-6.68449E-10 1.33432E-09-2.11956E-03
 -1     21185 5.86553E-10 3.18110E-10-6.23132E-02
 -1     21186 7.08923E-11 5.03953E-10 2.59876E-01
 -1     21187 3.17034E-10 2.13004E-10-1.46008E-01
 -1     21188-1.30299E-10-1.23036E-10-5.55401E-01
 -1     21189 2.70489E-10-3.22233E-10 3.90915E-01
 -1     21190-3.60644E-11 7.26581E-13-1.14660E+00
 -1     21191 7.65293E-11-1.12092E-10-1.37612E-01
 -1     21192 4.69825E-10-9.45754E-10-6.77534E-02
 -1     21193 5.88639E-11-5.36162E-11-1.54742E-03
 -1     21194-1.00842E-10 8.16169E-11 3.59248E-02
 -1     21195-3.51035E-10 2.36364E-10 1.22365E-01
 -1     21196 5.10634E-11 7.27152E-11-4.40038E-03
 -1     21197 5.47268E-10-2.73093E-10 6.04836E-02
 -1     21198 1.42966E-10-9.63020E-11-9.55824E-01
 -1     21199-2.10289E-11-1.67126E-11-2.38572E-01
 -1     21200-1.27771E-10-2.81269E-10-1.11590E-01
 -1     21201 2.67111E-10 7.03827E-10 4.62053E-01
 -1     21202 7.24588E-11 1.06279E-09 1.06093E-01
 -1     21203-6.92318E-11-5.29545E-11 6.57223E-02
 -1     21204-8.30205E-10 2.93531E-09-3.24278E-01
 -1     21205-9.56704E-11 2.97102E-11-2.11084E-02
 -1     21206-5.92329E-10-1.46858E-09-4.94435E-01
 -1     21207 1.99993E-09-1.15075E-09 4.66587E-01
 -1     21208 1.66233E-11-1.89224E-10-2.34251E-01
 -1     21209-4.56677E-10 4.46762E-10 7.22524E-03
 -1     21210-2.45855E-09 4.19479E-09 1.50525E-01
 -1     21211 8.61119E-11 1.06839E-11-4.26250E-01
 -1     21212-6.70500E-12-4.70029E-11-2.97805E-01
 -1     21213 4.02109E-10-7.37815E-10 1.87349E-02
 -1     21214-2.54839E-11-3.78815E-10 1.52472E-02
 -1     21215 1.33207E-10 2.50837E-10-1.12863E-01
 -1     21216 7.66157E-11 1.02512E-11 5.88193E-01
 -1     21217 6.59308E-11-1.71171E-11 1.78996E-03
 -1     21218-4.90596E-11 2.46118E-11-2.04290E+00
 -1     21219-1.07382E-10 2.29091E-11 1.09415E-01
 -1     21220-1.85909E-10-4.98158E-10-1.13092E+00
 -1     21221-7.02730E-10 5.73229E-09 1.11687E+00
 -1     21222-3.62326E-12-1.09961E-11 6.57067E-02
 -1     21223 2.42325E-11-3.19410E-12-4.97596E-01
 -1     21224-1.25708E-09 1.66969E-10 1.35211E-01
 -1     21225 6.68708E-11-4.95337E-11-8.49594E-02
 -1     21226 3.77189E-10 8.24315E-11 4.85740E-02
 -1     21227-1.60134E-09-1.33451E-09-2.29811E-01
 -1     21228-3.31813E-11 6.46099E-10 1.82441E-02
 -1     21229 2.16082E-10 4.47700E-10 7.30061E-02
 -1     21230-7.16902E-12 1.67534E-11 8.48477E-02
 -1     21231-2.84549E-11 1.11862E-10-4.58498E-01
 -1     21232 1.55198E-10-8.91651E-10-3.32364E-01
 -1     21233-4.05756E-11 5.37525E-11 4.62163E-02
 -1     21234-1.26927E-09 2.88576E-09 7.86953E-01
 -1     21235 8.27109E-12-7.68367E-11-8.16287E-01
 -1     21236-5.49707E-10-6.91664E-10 1.14248E+00
 -1     21237-1.31096E-11 6.73039E-11 4.65230E-01
 -1     21238-1.86742E-11 4.49113E-11 1.00786E+00
 -1     21239-2.55229E-11 1.14877E-09-6.16045E-02
 -1     21240-9.93022E-12-2.24636E-11 1.72657E-01
 -1     21241 1.22612E-10-6.90387E-12 3.27854E-01
 -1     21242-4.58304E-11-7.13195E-10 1.40755E-01
 -1     21243-3.45140E-10-1.91520E-10 1.00784E-01
 -1     21244-3.33665E-11 9.08071E-11 5.22877E-03
 -1     21245-2.26607E-10-4.87131E-11-5.08764E-02
 -1     21246 3.59724E-10-4.50416E-10 4.52283E-02
 -1     21247 2.03927E-11 1.90684E-11 1.18172E-02
 -1     21248 3.46365E-10 4.98578E-10 1.54917E-01
 -1     21249-2.75849E-11-2.64560E-11-6.88044E-03
 -1     21250 4.78232E-11-1.12944E-10 2.33687E-02
 -1     21251-2.94399E-10 6.03653E-11-2.59375E-02
 -1     21252 1.53919E-10 9.69646E-11-3.95125E-02
 -1     21253-7.95158E-10 4.01874E-09 5.63700E-01
 -1     21254 4.12702E-11-2.36163E-10 2.15231E-01
 -1     21255-1.21347E-11-2.81675E-10 2.50776E-01
 -1     21256 2.73113E-10-5.75197E-11-3.13486E-02
 -1     21257-1.61998E-09-1.44297E-09-3.85527E-01
 -1     21258-2.98739E-11-1.47041E-10-8.35061E-02
 -1     21259-9.58241E-11 1.37810E-09 8.98982E-02
 -1     21260-7.62424E-11-4.96778E-10-1.54517E-01
 -1     21261 2.59788E-10-9.66936E-10-5.72347E-02
 -1     21262 7.36302E-11-5.12948E-11 6.01374E-01
 -1     21263 4.62094E-10-7.28100E-10-4.13711E-01
 -1     21264-3.88900E-11 9.50828E-11 1.38486E-01
 -1     21265 6.17758E-10-2.29130E-10-4.26552E-01
 -1     21266 1.90296E-11 2.09187E-11 3.49663E-01
 -1     21267 7.59302E-12-1.21508E-12-2.38780E-01
 -1     21268 1.93372E-10 7.75233E-10 2.82144E-02
 -1     21269-4.36602E-10-2.26657E-10-1.70976E-01
 -1     21270-3.49802E-10-7.51724E-10-1.83749E-01
 -1     21271 1.60070E-10-8.86674E-10 3.14315E-01
 -1     21272-8.62989E-11 3.04010E-11 2.85139E-01
 -1     21273 1.79369E-10-6.60740E-10-2.95274E-01
 -1     21274 3.82022E-11-4.56296E-11-4.61993E-01
 -1     21275-1.72669E-09 4.06505E-10-2.44876E-01
 -1     21276 2.32637E-10 1.70277E-10-3.43031E-01
 -1     21277 3.15128E-10 2.28362E-09 5.52772E-01
 -1     21278-4.53837E-11-1.91996E-11-1.18530E-03
 -1     21279 2.29853E-10 1.85592E-10-9.78716E-01
 -1     21280 1.26944E-10 2.34213E-09-3.44089E-01
 -1     21281 6.01205E-10 8.74789E-10-2.21391E-01
 -1     21282 1.00652E-10-7.52678E-11-4.86586E-02
 -1     21283 1.52538E-10 2.18268E-10-2.24062E-01
 -1     21284-3.53358E-11 1.15107E-11 2.98874E-01
 -1     21285 8.48503E-11 3.96942E-10 1.28430E-01
 -1     21286-3.18528E-10-2.72483E-10 7.27088E-01
 -1     21287-5.13412E-10 1.80830E-09-2.48558E-01
 -1     21288-3.94372E-10-2.95218E-10-5.15491E-01
 -1     21289-1.73971E-10 3.90263E-10 1.77426E-01
 -1     21290 7.00931E-11 1.41382E-10 3.35950E-01
 -1     21291-1.41893E-09-4.79804E-10 1.56610E-01
 -1     21292 1.82378E-10-2.86726E-10-6.03493E-01
 -1     21293 6.51560E-11-1.69567E-10 2.74219E-01
 -1     21294-1.22381E-09-1.77684E-09 8.98307E-02
 -1     21295 7.29301E-11-1.97647E-11 3.70963E-02
 -1     21296-5.20844E-11 1.01480E-10 3.59371E-01
 -1     21297 2.12848E-11-3.54525E-10 3.53561E-01
 -1     21298 2.36511E-12-6.15731E-11 1.30562E-02
 -1     21299 4.53962E-10-1.46456E-10 8.38348E-03
 -1     21300-7.37825E-10 5.26828E-10-9.71767E-02
 -1     21301 2.35253E-10-2.23096E-11-4.32973E-02
 -1     21302 2.11196E-11-3.93258E-11 5.83428E-01
 -1     21303-1.02705E-11 8.43110E-11 9.48173E-03
 -1     21304-7.70857E-11-1.91008E-11 3.20063E-01
 -1     21305-5.72696E-10 1.37113E-09-1.25722E-01
 -1     21306 6.95167E-10-1.51229E-09 3.03666E-02
 -1     21307-2.21284E-10 3.52844E-10 9.57561E-02
 -1     21308 1.12431E-11 1.80323E-11 3.65549E-02
 -1     21309-4.33504E-10 4.09940E-10-1.17723E-01
 -1     21310 1.86779E-11 7.17434E-10-1.15272E-01
 -1     21311-1.65554E-10-1.24542E-09 5.15783E-02
 -1     21312 9.22418E-11-6.14714E-11-9.87644E-03
 -1     21313 6.50373E-11 6.67167E-11-2.27474E-02
 -1     21314-2.60456E-10 7.08280E-10-8.90962E-02
 -1     21315 2.29400E-10 1.16065E-10-6.59407E-01
 -1     21316 1.83422E-10 7.29708E-11-4.99543E-03
 -1     21317 8.62075E-10-8.96134E-11 9.20427E-02
 -1     21318-6.69898E-10 2.75295E-10-3.29388E-01
 -1     21319-5.89190E-11 3.49715E-11-1.99384E-02
 -1     21320-1.80287E-11 2.69669E-11-3.91762E-02
 -1     21321 3.72551E-10-4.84281E-10-3.99878E-01
 -1     21322-3.75817E-10-3.37581E-10-3.01407E-01
 -1     21323-1.16985E-11 3.12895E-11 6.49409E-03
 -1     21324-4.40932E-11-2.70448E-10 9.01001E-02
 -1     21325-3.81940E-11 2.62838E-12 1.36682E-02
 -1     21326-1.37592E-10 1.20910E-11 2.55751E-03
 -1     21327 4.68348E-10-3.10597E-10-4.01405E-01
 -1     21328 1.77784E-11-4.75732E-11-3.50868E-02
 -1     21329-3.91247E-12-2.84058E-11-4.00531E-01
 -1     21330 8.68928E-11-4.80849E-11 4.61159E-02
 -1     21331-3.33039E-11-8.09992E-11 2.31027E-02
 -1     21332-1.28194E-10-4.21347E-11 4.28579E-01
 -1     21333 1.17533E-10-4.75080E-11 9.16886E-02
 -1     21334-1.45921E-10-2.89358E-10 2.68266E-01
 -1     21335 4.12667E-12-3.92377E-11 1.65472E-02
 -1     21336-1.60319E-10 1.16330E-10-1.58833E-01
 -1     21337-2.31132E-10-1.10784E-10 2.23314E-02
 -1     21338 1.40576E-10 9.58950E-11-3.17523E-02
 -1     21339 4.51653E-11-3.19149E-10 3.61048E-01
 -1     21340 4.64951E-11 5.83090E-13-1.03649E-02
 -1     21341-1.12816E-11-6.25708E-11 5.75995E-01
 -1     21342-7.31732E-10 3.19554E-10 5.68334E-10
 -1     21343-6.15438E-10 3.17414E-10-4.33391E-10
 -1     21344-2.47068E-01-2.73917E-01 8.36096E-02
 -1     21345-1.78340E-01-3.17496E-01 2.16566E-01
 -1     21346-1.33291E-09-2.31501E-10-5.25827E-10
 -1     21347-6.82732E-10-1.18936E-10-5.02994E-10
 -1     21348 9.65542E+00-3.69458E+01-4.06791E+00
 -1     21349-2.94833E+00-2.63580E+01-3.98914E+01
 -1     21350-6.61728E-10 6.48217E-10 8.06959E-10
 -1     21351-7.95059E-10-1.29833E-09 1.86708E-10
 -1     21352-7.40962E-10 1.07596E-10 6.43353E-10
 -1     21353 4.26726E-10 2.86164E-10 6.53462E-10
 -1     21354 3.65435E-10-9.56149E-10-2.12509E-10
 -1     21355-4.42566E-10-1.09779E-10 5.66963E-10
 -1     21356 4.15409E-10-4.05470E-10-3.97570E-10
 -1     21357 2.89370E-10-3.14174E-10 1.24561E-10
 -1     21358-8.82277E-11-1.34875E-10 4.85366E-11
 -1     21359-2.01513E-11-2.76860E-11 1.42862E-10
 -1     21360 5.20744E-11-4.05520E-10-2.21128E-10
 -1     21361 5.07801E-11 9.41305E-11-2.55319E-11
 -1     21362-1.46743E-11-6.18031E-11 9.23369E-11
 -1     21363-8.03714E-11-9.88442E-11 3.20763E-11
 -1     21364-3.64800E-11 3.23731E-13 2.32032E-11
 -1     21365 4.73324E-11 2.26618E-11 1.80209E-11
 -1     21366-6.59976E-12-2.32747E-11-3.08495E-11
 -1     21367-2.07554E-11 1.68196E-11-1.00330E-12
 -1     21368 6.39936E-12 1.33609E-12 1.70453E-11
 -1     21369-1.94724E-11 3.52716E-11 3.07244E-11
 -1     21370-2.05840E-11 1.43974E-11 2.97035E-11
 -1     21371 2.97483E-11 2.47495E-11-5.86749E-11
 -1     21372 1.50451E-11 1.14609E-10-9.60401E-11
 -1     21373 1.56625E-10 1.96089E-10-8.28709E-11
 -1     21374-1.07480E-10 2.51442E-10-1.10406E-10
 -1     21375-8.21266E-11 4.23527E-10 6.75509E-11
 -1     21376-1.84045E-10-7.19780E-10-6.45000E-11
 -1     21377-2.57664E-10-1.54133E-09-6.63137E-10
 -1     21378 1.74861E-10-3.25256E-10 5.33596E-10
 -1     21379 2.43562E-11-2.63852E-10 9.37318E-10
 -1     21380 7.52622E-11-1.54240E-09-4.54071E-10
 -1     21381 3.36177E-10-7.01691E-10-5.20867E-10
 -1     21382-1.37797E-09-2.77341E-10-4.82946E-10
 -1     21383 3.98813E-10-2.08231E-09-4.29065E-10
 -1     21384-4.51222E-10-3.02935E-10 2.05283E-10
 -1     21385 2.05887E-09-2.77397E-10-2.82376E-10
 -1     21386 9.25790E-11 3.37419E-11-3.63209E-10
 -1     21387 1.00790E-09 1.12620E-09-1.46774E-10
 -1     21388 3.79392E-10-1.85688E-10-1.54203E-10
 -1     21389-1.43193E-10 1.06842E-09 2.32249E-10
 -1     21390 1.08405E-11 2.20410E-11-1.14137E-10
 -1     21391-9.86004E-12-6.84225E-11 4.87264E-11
 -1     21392 5.57843E-11 1.49477E-12-3.05477E-11
 -1     21393-7.51586E-11 1.19314E-10-3.80301E-11
 -1     21394-1.51168E-10 6.85969E-11-1.41772E-10
 -1     21395 1.31515E-10 1.06415E-10-1.12245E-10
 -1     21396 2.45892E-11-2.22213E-12-5.12818E-11
 -1     21397 2.72537E-11 1.16601E-10-1.23083E-11
 -1     21398-2.16282E-11-1.89823E-12 2.52985E-11
 -1     21399-8.59648E-12-4.76814E-11-1.32425E-12
 -1     21400 2.84875E-11-2.23952E-10 7.85523E-12
 -1     21401-3.06709E-11-8.48158E-11-2.65201E-11
 -1     21402 3.58666E-11 4.92551E-11-8.64177E-11
 -1     21403 1.24792E-10 8.92664E-11-7.22070E-11
 -1     21404-3.45747E-10 6.46140E-11-3.26108E-11
 -1     21405 1.71850E-10 4.26602E-11-5.33503E-10
 -1     21406 9.54418E-11-7.16504E-10-1.64185E-10
 -1     21407 4.13173E-11-4.63166E-10 5.23858E-11
 -1     21408-5.30004E-10-4.81789E-10-8.79852E-10
 -1     21409 5.72694E-10-4.03165E-10-8.55991E-11
 -1     21410 1.68750E-10-1.09114E-09-4.39570E-10
 -1     21411-1.02435E-10-2.40926E-09 9.70586E-10
 -1     21412 1.27721E-10 1.81983E-09-1.72867E-11
 -1     21413 2.02141E-10-1.29319E-09 3.68472E-10
 -1     21414 2.52876E-09-5.40733E-10-6.04782E-10
 -1     21415-1.78591E-09 1.05737E-09 5.93658E-10
 -1     21416 1.48315E-09-1.50512E-09 3.90900E-10
 -1     21417-8.02987E-10-1.08145E-09-9.93862E-10
 -1     21418 6.99490E-10-1.65451E-10-4.36448E-10
 -1     21419 7.41346E-11-1.81036E-10 2.09334E-10
 -1     21420-7.83444E-10 3.90735E-10 1.21392E-10
 -1     21421-5.99185E-10-2.67823E-10 5.73570E-10
 -1     21422 2.15928E-09-6.12879E-10-1.14528E-10
 -1     21423-5.37648E-11-5.04244E-10 5.86282E-11
 -1     21424 8.39621E-10-2.39556E-10 1.13768E-09
 -1     21425 1.27028E-09-2.54182E-09-8.08757E-10
 -1     21426 3.15348E-11-1.03669E-10-6.01208E-12
 -1     21427-3.29626E-12 4.13187E-12 5.02848E-13
 -1     21428 1.07550E-10-3.02179E-10-5.79979E-11
 -1     21429 1.20710E-10 4.65962E-11-8.77544E-11
 -1     21430 9.61470E-10-9.08066E-11 3.47525E-10
 -1     21431-3.08764E-10 3.77277E-11-8.10252E-11
 -1     21432 1.00755E-10 3.84702E-10-3.40569E-10
 -1     21433 3.36284E-10-5.15897E-10 8.14966E-10
 -1     21434 5.80710E-10-2.34648E-10 5.15989E-10
 -1     21435-2.94439E-10 4.93467E-10-5.54119E-10
 -1     21436-9.40169E-11-7.36672E-11-4.67207E-10
 -1     21437 2.82471E-09-1.20049E-09 1.59084E-09
 -1     21438-8.21905E-10-2.00241E-10-9.55288E-10
 -1     21439-1.63530E-10-3.21687E-09 4.32957E-10
 -1     21440-7.92025E-11-2.15407E-09-4.47338E-10
 -1     21441 4.96476E-10-3.27403E-09 8.29848E-10
 -1     21442 1.83475E-09 4.03098E-10 2.12723E-09
 -1     21443 3.14527E-10-2.14096E-10-2.01118E-10
 -1     21444-2.90417E-10-6.42536E-10 2.25273E-10
 -1     21445 1.27283E-11 1.82531E-10 5.43533E-11
 -1     21446 2.01682E-10 5.65448E-10-4.08700E-10
 -1     21447 3.61233E-10 1.03421E-09-8.24668E-10
 -1     21448 6.92119E-11-1.28418E-10-1.01111E-11
 -1     21449-1.53869E-10 4.56682E-10-2.58831E-10
 -1     21450-9.59035E-11-1.46321E-10 1.78764E-11
 -1     21451 2.93495E-12 2.53501E-10-6.64045E-11
 -1     21452-2.17753E-11 1.73098E-11-5.98666E-12
 -1     21453 2.67446E-11 1.59532E-11-6.54397E-11
 -1     21454 4.78953E-11 9.74336E-11 1.93988E-11
 -1     21455 6.03546E-11-1.85231E-11-7.51066E-13
 -1     21456-1.45871E-10-3.25633E-10-1.16025E-10
 -1     21457 1.19726E-11 3.05828E-11 1.47986E-10
 -1     21458 8.87276E-11-3.24138E-10 1.94928E-10
 -1     21459 4.99431E-10 8.19875E-10-3.57092E-10
 -1     21460-1.48736E-10-4.11285E-10-5.65353E-11
 -1     21461-1.11547E-09 1.10109E-09-3.85028E-10
 -1     21462 1.14222E-10 6.58950E-10 3.49867E-10
 -1     21463-6.99316E-10 2.42100E-12 3.14338E-10
 -1     21464-4.89771E-10 2.03505E-09 8.85878E-11
 -1     21465 2.04542E-10 4.16754E-10 7.55099E-10
 -1     21466-3.21774E-10-3.59500E-10 1.14422E-09
 -1     21467-5.16226E-10 4.76078E-10-5.42486E-10
 -1     21468 6.90168E-11-1.15510E-11 4.61952E-10
 -1     21469 1.59451E-10 7.55813E-11 3.92331E-10
 -1     21470 1.68376E-10-1.20143E-10 4.49079E-10
 -1     21471 1.89719E-10-1.82456E-10 3.39148E-11
 -1     21472 2.01814E-10-1.15282E-12-3.99288E-11
 -1     21473 6.93243E-11-1.66177E-10 1.10298E-11
 -1     21474-1.63749E-11 3.22127E-11-8.42826E-12
 -1     21475-3.37044E-01 8.38570E-02-1.82814E-01
 -1     21476-6.56784E-02-4.36238E-01 8.44503E-02
 -1     21477-9.36317E-01-1.12564E+00-4.35138E-01
 -1     21478 7.98222E-01 6.65595E-01 8.47422E-01
 -1     21479 2.85004E+00 3.77851E-01 7.27039E-01
 -1     21480 4.87373E-01 1.23064E-01-2.83792E-01
 -1     21481 2.30005E+00 1.30526E+00 1.84881E+00
 -1     21482-1.62998E+00-2.05669E+00 1.84396E+00
 -1     21483-1.86043E+00 6.42923E-01-1.94582E+00
 -1     21484 9.51895E+00-8.03274E+00 1.15540E+00
 -1     21485 7.30216E+00-4.04756E+00 2.98246E+00
 -1     21486-2.21954E+01 3.06456E+01 1.22641E+00
 -1     21487 1.05527E+01-3.02576E+01-1.18266E+01
 -1     21488 1.52827E+01 1.20474E+01-4.31653E+01
 -1     21489-1.90782E+01-2.01739E+00-7.11487E+00
 -1     21490 5.68210E+00-3.27458E+00 1.17613E+00
 -1     21491 2.02640E+00 7.56249E-01 3.26005E-01
 -1     21492 2.32289E+00 9.23943E-02-1.05621E-01
 -1     21493 1.66507E+00-3.21145E+00-3.31969E+00
 -1     21494 1.21627E+00-2.72418E+00 1.91634E+00
 -1     21495-1.43187E+00 2.65069E-01-1.63610E-02
 -1     21496 2.21946E+00 4.36767E-01-1.84499E+00
 -1     21497 5.54330E-01-4.49874E-01 6.88291E-01
 -1     21498-2.85742E-01-5.25227E-02 7.99463E-02
 -1     21499-6.67544E-01 1.13684E+00-1.80361E+00
 -1     21500-3.68730E-01-4.89322E-01 4.56601E-01
 -1     21501 2.19181E+00-3.26766E+00-1.27759E+00
 -1     21502 2.06000E+00 2.22264E+00-1.92934E-01
 -1     21503 1.42214E+00 1.54274E+00 3.76519E+00
 -1     21504 3.08187E+00 1.25364E+00-5.29274E-01
 -1     21505-1.88241E+00 2.77761E+00-1.15803E+00
 -1     21506 2.95529E+00-5.25723E+00 8.01135E-01
 -1     21507 7.48470E-02-1.57969E-01 5.83600E-01
 -1     21508 1.01288E+00-4.57669E+00 3.47828E+00
 -1     21509 2.06403E+00-7.58388E-01-1.58692E+00
 -1     21510-1.74017E-01 4.73981E-01 1.26255E+00
 -1     21511 1.57430E+00-2.38118E+00-3.38661E+00
 -1     21512 6.62069E-01-2.15378E+00-1.93983E+00
 -1     21513-4.18142E-01-4.80538E-01 2.01576E-01
 -1     21514 1.49070E+00 1.96813E-01 2.10758E-02
 -1     21515 2.22692E-01-1.53881E+00 5.88458E-01
 -1     21516 2.91730E-09 6.94302E-10-2.52316E-10
 -1     21517 2.30787E-09 1.43837E-09 7.02558E-10
 -1     21518 7.29456E-10-1.34874E-09-4.63844E-10
 -1     21519 4.10518E-10-4.31029E-10 2.04220E-10
 -1     21520-3.80612E-10-5.76740E-10-2.45207E-10
 -1     21521 4.34699E-10-1.32335E-09-3.09364E-10
 -1     21522-4.74798E-10-7.62428E-11 6.36558E-10
 -1     21523-6.49663E-10 1.22121E-09-1.98812E-10
 -1     21524-3.04396E-09 3.16928E-10 2.15357E-09
 -1     21525 1.34580E-12 4.19476E-10-1.25900E-10
 -1     21526-9.67721E-12-6.27149E-11-1.97635E-11
 -1     21527 2.88156E-11 1.32508E-11-4.07159E-11
 -1     21528-3.07585E-11-5.19208E-11 2.83559E-11
 -1     21529-7.66783E-10-4.18152E-09 4.34486E-10
 -1     21530 6.17566E-11 4.85126E-10-2.47725E-11
 -1     21531 4.18035E-10 1.14840E-09 4.84546E-10
 -1     21532 1.66734E-10 3.61392E-10 9.00985E-11
 -1     21533-1.99738E-11-1.13795E-09-2.22502E-11
 -1     21534-4.43904E-10 6.08865E-10-5.82862E-11
 -1     21535 1.27943E-10-3.13143E-10 2.54161E-11
 -1     21536 9.87296E-11 3.81995E-11 2.97743E-11
 -1     21537 7.00306E-10 2.41829E-09-9.12642E-10
 -1     21538-1.47052E-10 1.12974E-10-6.56531E-11
 -1     21539 1.72356E-09 2.46003E-10 8.76268E-10
 -1     21540 2.83081E-11-2.98328E-10-9.94079E-11
 -1     21541 1.67386E-11-5.69605E-11 4.73445E-11
 -1     21542 1.34953E-09 9.26595E-10-1.96368E-09
 -1     21543 1.90223E-10-5.01077E-10-9.50466E-11
 -1     21544 1.70302E-10-3.47570E-10-2.61410E-11
 -1     21545 2.08327E-11-4.39598E-10 1.53817E-10
 -1     21546-7.98424E-11-1.52441E-10-5.93732E-11
 -1     21547-7.05560E-10 5.59841E-10 3.83948E-10
 -1     21548 9.26938E-10-6.70616E-10 2.13213E-11
 -1     21549 4.50757E-10-1.89317E-10 5.43627E-11
 -1     21550 2.67579E-10-1.49685E-10-3.18476E-10
 -1     21551-2.25193E-09-1.13084E-09 7.12689E-11
 -1     21552 1.49558E-09 7.96660E-10-8.46027E-10
 -1     21553-4.87205E-10 1.91218E-09-4.04532E-10
 -1     21554 1.75638E-10-2.07457E-11-4.01834E-11
 -1     21555 5.95553E-12-1.30694E-11-2.88508E-12
 -1     21556 8.92241E-11-9.20729E-11-1.20547E-10
 -1     21557 7.70498E-10-1.65181E-09 4.69467E-10
 -1     21558 8.32990E-11-1.52600E-11 2.38292E-11
 -1     21559 7.27488E-10-2.89228E-09-8.18377E-10
 -1     21560 5.23332E-11 1.80350E-10-8.10270E-11
 -1     21561-2.09328E-11-2.20315E-11-5.90283E-12
 -1     21562 1.84150E-12 2.23573E-12-2.60825E-12
 -1     21563-6.25967E-12 1.38177E-12-1.59053E-13
 -1     21564-1.39750E-10 2.53698E-10 5.56760E-10
 -1     21565-1.56534E-10 5.91679E-10-3.41335E-10
 -1     21566-8.11624E-10-1.40735E-09-3.11744E-10
 -1     21567 7.40226E-10-1.60256E-09 1.63439E-09
 -1     21568 1.81948E-11 1.39455E-11 1.30881E-12
 -1     21569-2.36177E-11-7.15971E-11-4.13642E-11
 -1     21570 1.57513E-10-1.93331E-12 4.63334E-11
 -1     21571-1.06002E-10 6.59294E-10 2.18701E-10
 -1     21572-3.68536E-13 3.93486E-13-3.55938E-13
 -1     21573-6.19985E-10 7.64429E-11-4.86084E-11
 -1     21574 3.35973E-12 3.38597E-12-4.11515E-12
 -1     21575-4.30104E-11-8.84961E-10 3.99584E-10
 -1     21576-4.44252E-10 9.46744E-10-1.39882E-10
 -1     21577 1.66000E-09-2.30551E-09 1.14935E-09
 -1     21578 3.09097E-10 3.00578E-11 2.59207E-10
 -1     21579 6.05348E-11 1.42596E-10-2.29091E-10
 -1     21580 7.85086E-12 6.81111E-11-4.19230E-12
 -1     21581-6.68887E-10 1.76727E-10-1.34358E-10
 -1     21582-2.06486E-10-1.86885E-11 1.40766E-11
 -1     21583 3.36922E-10 4.36629E-10 3.02495E-10
 -1     21584 7.10826E-10-4.39174E-10 6.82854E-11
 -1     21585-6.43605E-11 2.50221E-10-1.52895E-10
 -1     21586-3.63545E-12-6.75609E-12-1.22301E-11
 -1     21587-4.56267E-10 8.19904E-10 2.49086E-10
 -1     21588 4.45747E-11 3.00066E-11 4.62851E-11
 -1     21589-1.84609E-09-1.42171E-09 1.04466E-10
 -1     21590-1.16051E-10-4.70931E-11-3.24461E-10
 -1     21591 1.05624E-12-7.12896E-12-2.57305E-12
 -1     21592-4.56083E-12-4.68332E-12-7.84489E-12
 -1     21593-8.88150E-12 1.34754E-12 1.68961E-11
 -1     21594-1.41063E-11-1.89173E-12 1.46039E-12
 -1     21595-3.76615E-12-1.95422E-11 8.57819E-12
 -1     21596 1.43082E-12-2.89033E-10-7.15644E-11
 -1     21597 1.23754E-09 8.67403E-11-1.07816E-10
 -1     21598 1.60204E-10 8.08434E-10-4.47402E-10
 -1     21599-7.55106E-11 8.79855E-11 1.10815E-11
 -1     21600 8.27770E-11-1.09538E-10-8.23711E-11
 -1     21601-3.70852E-10 1.29713E-10 3.60107E-11
 -1     21602 3.98023E-09 4.51832E-10 4.28167E-10
 -1     21603-9.20615E-11-1.84435E-10 3.27803E-11
 -1     21604-3.01543E-11 3.77991E-11-2.87171E-11
 -1     21605 4.62287E-10-1.09511E-10-1.33830E-10
 -1     21606 3.88023E-12 3.98017E-12-3.60107E-12
 -1     21607 5.96050E-10 5.74104E-10 6.14194E-10
 -1     21608 9.62524E-11 2.41843E-10 9.67926E-10
 -1     21609-2.61246E-11-1.43685E-12-1.28220E-12
 -1     21610 1.99185E-09-5.37823E-10 5.03530E-10
 -1     21611-7.57778E-10 8.57053E-10 9.47044E-10
 -1     21612-1.12540E-12 2.17076E-12-1.42311E-12
 -1     21613 5.08272E-10 1.66608E-09-8.56094E-10
 -1     21614-4.85726E-10-1.31366E-09 1.49261E-10
 -1     21615-7.26561E-10 4.30313E-10 4.07114E-10
 -1     21616-3.30069E-13 1.73514E-13-5.14792E-13
 -1     21617-3.80937E-11 4.71765E-11 1.23355E-10
 -1     21618 2.92715E-10 3.49556E-10 6.21862E-10
 -1     21619-1.05269E-11-1.11976E-11 8.66363E-13
 -1     21620-1.49387E-11 3.62964E-12 7.73004E-12
 -1     21621 1.55779E-12-1.75416E-10 9.40775E-10
 -1     21622 1.40705E-10 7.91531E-11-5.26167E-11
 -1     21623 1.63544E-11 4.29323E-12 9.26846E-12
 -1     21624 3.40066E-10 2.29991E-10 2.28115E-09
 -1     21625 9.55527E-12 1.43705E-10 2.65065E-11
 -1     21626 1.68307E-11-2.83985E-10 1.54642E-11
 -1     21627 2.51741E-12-1.97736E-12 2.05486E-12
 -1     21628-9.73093E-12 3.38717E-10 1.42196E-10
 -1     21629 1.04596E-10-1.71651E-10-4.36470E-10
 -1     21630 1.93525E-10-8.68204E-11 2.91955E-11
 -1     21631 3.56323E-09-2.33080E-09 2.35253E-09
 -1     21632 2.02637E-10 7.62529E-10 1.24199E-10
 -1     21633-8.61186E-10-2.69116E-10-2.05906E-09
 -1     21634-7.19755E-10 2.87435E-10-4.53255E-10
 -1     21635 9.71684E-11 3.97386E-10 1.82653E-11
 -1     21636 6.45016E-12 3.16472E-12 8.27116E-13
 -1     21637 4.33450E-11-1.67615E-10-3.83551E-11
 -1     21638 5.02141E-11-3.29779E-12 9.25653E-11
 -1     21639 4.22581E-11-2.78284E-10-1.18057E-11
 -1     21640 4.25062E-09-4.24665E-10 3.65137E-10
 -1     21641-2.03430E-10-2.09337E-09-6.42757E-10
 -1     21642-2.02070E-11 6.60335E-10 8.36928E-11
 -1     21643 2.31956E-09 9.98490E-10 5.01173E-10
 -1     21644 1.37446E-11 2.47299E-11-2.87917E-11
 -1     21645 1.29277E-10 6.78924E-11-9.69879E-11
 -1     21646-1.66889E-10-5.34409E-10 3.99876E-10
 -1     21647-2.31200E-11 2.70752E-10-2.18251E-10
 -1     21648-3.92750E-11-4.46471E-11 1.46320E-11
 -1     21649 9.38462E-11-2.65827E-10 3.72163E-10
 -1     21650 9.23405E-10-5.03777E-10-3.81222E-10
 -1     21651-4.85800E-13 7.00056E-13-9.19706E-13
 -1     21652-6.83541E-13 2.03724E-12-1.39588E-12
 -1     21653 5.87088E-10-2.90855E-10 2.76405E-10
 -1     21654-8.42158E-12-6.30129E-12-7.96457E-12
 -1     21655-3.58556E-10 3.00238E-10 8.11854E-10
 -1     21656-4.31537E-12-2.36282E-12-6.17090E-13
 -1     21657 3.04892E-09 3.64278E-10-6.24026E-10
 -1     21658-3.33515E-10-1.57854E-10 1.92218E-10
 -1     21659 7.45793E-11-2.24603E-10-3.86423E-11
 -1     21660 9.71728E-10 6.24618E-12-1.02373E-09
 -1     21661 6.05483E-12 2.81798E-12-1.14569E-12
 -1     21662 1.90738E-12-1.48196E-12-4.12181E-12
 -1     21663 6.32301E-12 8.41624E-12 3.86602E-12
 -1     21664-1.96903E-09 1.53857E-11 2.12364E-10
 -1     21665-3.66795E-11 3.74890E-11 5.00535E-11
 -1     21666-1.04474E-10 3.65163E-10-2.67034E-10
 -1     21667 2.91965E-10 1.19423E-09 1.07083E-10
 -1     21668 1.60272E-09-1.03873E-09-3.23787E-10
 -1     21669 1.09671E-11-7.71597E-12-7.58268E-12
 -1     21670 2.45905E-10 3.54311E-10-3.53719E-10
 -1     21671 4.26320E-12 1.65064E-11-2.74247E-12
 -1     21672 8.09425E-11 4.21391E-09 7.96027E-10
 -1     21673 8.79650E-11-2.84802E-10-1.14654E-10
 -1     21674 6.64201E-12-4.30888E-10-4.44688E-10
 -1     21675-2.97485E-09-1.04110E-09 3.21345E-10
 -1     21676-8.80812E-10 9.41687E-10-6.69682E-11
 -1     21677-4.07296E-11-2.12065E-10 8.20856E-11
 -1     21678-5.90683E-12 2.39149E-11-8.89846E-13
 -1     21679 1.19882E-10-1.81241E-10-1.61192E-10
 -1     21680-1.25397E-09-6.99846E-10-1.48280E-09
 -1     21681 8.92671E-10 2.77929E-09-7.66021E-10
 -1     21682 1.08069E-12 5.16084E-12 2.54464E-12
 -1     21683-8.72540E-11 1.00666E-10 3.08372E-10
 -1     21684-3.05216E-10 6.97242E-10-1.97365E-10
 -1     21685 3.19508E-10-3.94633E-10 6.87215E-11
 -1     21686-2.72526E-12 4.75325E-12-8.95312E-13
 -1     21687-2.13921E-11 1.00138E-10-6.94216E-11
 -1     21688-3.85021E-12-1.11928E-12-6.86207E-12
 -1     21689-4.88571E-10 1.57783E-09-2.21374E-09
 -1     21690-6.52107E-10 7.14006E-10-8.10076E-10
 -1     21691 5.06144E-12-3.03742E-11 2.81256E-12
 -1     21692-2.36403E-12-4.81360E-12-3.50164E-12
 -1     21693 2.43805E-12-1.53501E-11 1.49092E-12
 -1     21694 7.43583E-10-3.30165E-10-1.63324E-10
 -1     21695 3.25108E-10 4.08765E-10 5.55616E-10
 -1     21696 7.01039E-12 1.38103E-11 4.86396E-12
 -1     21697 8.36466E-11-3.21740E-10-4.47994E-10
 -1     21698-1.98041E-12 6.07180E-12-2.11675E-12
 -1     21699-2.72292E-10-1.90680E-09-2.31928E-10
 -1     21700-1.35551E-11 8.70842E-10 2.47719E-10
 -1     21701 4.40176E-13-7.04721E-13 3.10280E-13
 -1     21702-3.47873E-10 5.24002E-10 5.76805E-11
 -1     21703-1.32222E-12 1.12088E-12-1.23157E-12
 -1     21704 9.71813E-13 1.02687E-10-3.43452E-11
 -1     21705-1.80753E-12-4.66711E-12 6.40948E-12
 -1     21706-2.37871E-13 6.31308E-12 1.04666E-12
 -1     21707 1.22309E-10-1.08075E-10-3.95297E-11
 -1     21708-1.24598E-09 1.28148E-09 9.59210E-10
 -1     21709-1.83103E-11 4.02200E-11 1.98690E-12
 -1     21710-5.00933E-13-3.13151E-12 2.63162E-13
 -1     21711-8.86358E-10-1.86282E-09 7.19615E-10
 -1     21712-2.51641E-09 2.21116E-11-1.14656E-09
 -1     21713 3.28041E-10-8.72787E-10-5.41022E-10
 -1     21714 5.82978E-12-3.28347E-11 1.64219E-11
 -1     21715 1.23988E-11-5.06401E-12-2.52398E-12
 -1     21716-4.70934E-10-2.28194E-09 3.19144E-11
 -1     21717-1.09220E-11-6.70167E-12 6.04486E-12
 -1     21718-1.11238E-11 5.71197E-12-8.53097E-12
 -1     21719-4.89172E-10-1.58592E-09-7.95559E-10
 -1     21720-9.03126E-10-1.82780E-09 3.46838E-10
 -1     21721 3.60827E-10-8.95778E-10-7.73610E-10
 -1     21722-2.89806E-10-5.48084E-10-7.69747E-10
 -1     21723 4.49027E-10 1.43519E-09 5.75803E-10
 -1     21724 4.80175E-12 5.39813E-12 4.72627E-12
 -1     21725 3.53939E-12-7.33094E-12 1.47478E-11
 -1     21726 2.19404E-11-1.62735E-10 8.30053E-11
 -1     21727-6.87450E-11-2.64076E-11 8.15383E-11
 -1     21728 1.10130E-09 4.37418E-10 6.53526E-11
 -1     21729 7.30718E-10 1.12150E-09-1.35807E-10
 -1     21730-2.07082E-09-6.96354E-11 2.35931E-10
 -1     21731 1.46111E-09-5.54621E-09-1.72160E-10
 -1     21732 8.83803E-11 1.65305E-09 1.08202E-09
 -1     21733-6.61919E-10-1.05464E-09-2.87374E-10
 -1     21734 1.24165E-09 2.87256E-10 1.29820E-09
 -1     21735 5.01495E-11-1.32424E-11 2.51115E-11
 -1     21736-2.34429E-12 3.52041E-12 3.02713E-12
 -1     21737-3.88965E-12 1.94224E-12-1.72122E-13
 -1     21738 2.65336E-10 3.47222E+00-1.88899E-10
 -1     21739-8.42020E-10 2.49650E+00-5.81468E-10
 -1     21740-6.10298E-10 2.49650E+00 2.38708E-11
 -1     21741-3.51925E+00-3.51952E+00-1.86807E-01
 -1     21742-2.67942E+00-2.85629E+00-8.51935E-02
 -1     21743-2.30418E+00-2.50756E+00-2.67116E-01
 -1     21744-4.88988E-11 1.38745E-11-2.98101E+00
 -1     21745-1.34207E-10-9.58184E-11-4.68951E+00
 -1     21746 1.97603E-10 1.18323E-09-5.67378E+00
 -1     21747-2.83346E-11-3.80309E-10-6.05882E+00
 -1     21748 1.50149E-10-3.72558E-11-6.27874E+00
 -1     21749-2.75313E-10-5.01846E-11-6.59365E+00
 -1     21750-6.73707E-11 1.40833E-10-6.63100E+00
 -1     21751 3.64517E-10-2.04877E-10-6.91552E+00
 -1     21752 1.04889E-10 7.52480E-10-7.18830E+00
 -1     21753-5.97892E-11-2.87007E-11-7.09840E+00
 -1     21754 2.50762E-10 6.04981E-10-7.11324E+00
 -1     21755-4.50063E-11 1.50766E-10-7.13090E+00
 -1     21756 4.97019E-11-2.58449E-10-7.01004E+00
 -1     21757 1.67191E-10-2.74133E-10-6.89154E+00
 -1     21758-4.37718E-11 2.11698E-10-6.90765E+00
 -1     21759-2.07076E-10-4.58912E-11-6.65030E+00
 -1     21760 5.83211E-11-1.87786E-10-6.41107E+00
 -1     21761-5.70508E-11-2.17642E-10-6.36989E+00
 -1     21762 1.92013E-11 1.32942E-10-5.86081E+00
 -1     21763-4.39189E-11-7.48161E-11-5.74767E+00
 -1     21764 1.05250E-11-8.75241E-11-5.13741E+00
 -1     21765-4.83622E-11-2.14592E-10-4.73186E+00
 -1     21766 6.26105E-11 1.08904E-11-4.23154E+00
 -1     21767-3.54960E-11 3.96192E-12-3.93433E+00
 -1     21768 3.09287E-11 3.89213E-11-3.54655E+00
 -1     21769 1.61679E-11-7.34704E-13-3.09239E+00
 -1     21770 5.38877E-12 1.15148E-11-2.94670E+00
 -1     21771-2.58529E-11 9.29626E-11-2.79113E+00
 -1     21772 1.93204E-11-6.88918E-11-2.79620E+00
 -1     21773 3.83220E-12-2.75341E-11-3.00639E+00
 -1     21774-2.05819E-11 5.30223E-12-3.70675E+00
 -1     21775 7.40809E-13-1.19479E-12-2.34232E+00
 -1     21776-1.02683E-12-4.48316E-13-3.00469E+00
 -1     21777 1.84686E-10-2.27166E-10 3.14648E+00
 -1     21778-2.21695E-11-2.71286E-10 4.94373E+00
 -1     21779-1.03061E-10-7.13934E-10 5.94231E+00
 -1     21780 1.87726E-10 2.13351E-10 6.00770E+00
 -1     21781-2.58535E-10-1.01414E-09 6.42679E+00
 -1     21782-3.27363E-11-2.59731E-10 6.86493E+00
 -1     21783-2.36280E-10-1.65689E-10 6.88568E+00
 -1     21784-8.45484E-11 2.18425E-10 6.92989E+00
 -1     21785-2.56435E-10-2.14922E-10 7.00334E+00
 -1     21786-1.88865E-10-1.99740E-12 7.02525E+00
 -1     21787 9.45740E-11 1.99197E-10 7.06718E+00
 -1     21788 2.11514E-10 6.98101E-11 7.04237E+00
 -1     21789-2.25550E-11-1.20353E-10 6.89973E+00
 -1     21790-1.45212E-10-4.76729E-10 6.98464E+00
 -1     21791-3.58664E-11 2.10108E-10 6.93664E+00
 -1     21792-3.30568E-12 1.41210E-11 6.69052E+00
 -1     21793-1.65566E-10-3.32670E-11 6.62992E+00
 -1     21794 7.33254E-11-4.62758E-11 6.17355E+00
 -1     21795-6.60356E-12 8.24331E-11 6.05562E+00
 -1     21796 1.63352E-10 1.47273E-10 5.71223E+00
 -1     21797 3.62420E-11-5.18860E-11 5.30826E+00
 -1     21798-7.89909E-11-6.90136E-12 4.92488E+00
 -1     21799 6.08390E-11-1.57882E-10 4.56623E+00
 -1     21800-2.85038E-12 5.35648E-11 3.90239E+00
 -1     21801 5.48524E-12-5.09348E-11 3.76373E+00
 -1     21802 1.99126E-11-8.64291E-11 3.46652E+00
 -1     21803-1.04699E-11 2.97228E-11 3.21718E+00
 -1     21804 1.01794E-11-6.60464E-11 2.86653E+00
 -1     21805-1.51802E-11 8.80346E-12 2.79691E+00
 -1     21806-5.36613E-12-1.16686E-11 3.04862E+00
 -1     21807 1.57050E-12-2.51062E-11 3.71124E+00
 -1     21808 4.69276E-12-1.53345E-11 2.47956E+00
 -1     21809-7.05577E-13 7.24357E-13 2.93349E+00
 -1     21810-5.76384E-10 3.47222E+00 2.58008E-10
 -1     21811-5.94236E-10 2.77294E+00-1.36181E-10
 -1     21812 2.52520E-10 2.28634E+00-4.58403E-10
 -1     21813-8.26331E-10 3.47222E+00-6.30412E-01
 -1     21814 3.09442E-10 3.65101E+00-4.04408E+00
 -1     21815-2.62556E-10 3.26500E+00-4.56440E+00
 -1     21816-1.79652E-10 3.26500E+00-3.92963E+00
 -1     21817-1.30772E-10 5.46004E+00-3.78202E+00
 -1     21818-1.38859E-10 3.75915E+00-4.45637E+00
 -1     21819-2.96540E-10 3.47926E+00-3.36328E+00
 -1     21820 1.34917E-10 3.47222E+00-2.40382E+00
 -1     21821 1.87836E-11 2.51224E+00 1.28782E-01
 -1     21822 4.41693E-10 3.14086E+00 4.72746E+00
 -1     21823 2.45796E-10 3.54075E+00 4.68661E+00
 -1     21824-2.05017E-10 4.22408E+00 4.94033E+00
 -1     21825-2.54425E-10 4.95663E+00 4.34766E+00
 -1     21826-8.14630E-11 3.04027E+00 3.80399E+00
 -1     21827-4.39615E-11 3.40672E+00 2.74408E+00
 -1     21828 2.18412E-10 3.59465E+00 1.71961E+00
 -1     21829 3.88280E+01-2.31076E+01 5.40931E+00
 -1     21830 1.93537E+01-3.72605E+01 5.11746E+01
 -1     21831 4.36045E+01-2.09066E+01 2.79514E+00
 -1     21832 4.08325E-12-8.65221E-12 8.12963E+00
 -1     21833-6.54704E-12-2.22656E-11 5.88608E+00
 -1     21834-1.84317E-11-7.96488E-12 6.53937E+00
 -1     21835-1.51997E-10 7.14790E-11 6.06269E+00
 -1     21836-2.75753E-12-4.57775E-11 6.11313E+00
 -1     21837-1.86281E-12-9.40113E-11 5.82304E+00
 -1     21838 8.68142E-11 6.49644E-11 5.75340E+00
 -1     21839 1.66998E-10-7.45900E-11 5.75561E+00
 -1     21840-2.35913E-10-3.00249E-10 5.69579E+00
 -1     21841 1.98822E-10 3.10440E-11 5.61222E+00
 -1     21842 1.41293E-10-3.05897E-10 5.61754E+00
 -1     21843-6.55464E-11 1.42738E-11 5.59956E+00
 -1     21844-1.08381E-10 1.54629E-10 5.54883E+00
 -1     21845 1.88110E-10-7.78155E-11 5.47117E+00
 -1     21846 7.34542E-11-2.87973E-10 5.25955E+00
 -1     21847 1.49206E-10-2.75121E-10 5.12214E+00
 -1     21848 3.13785E-11 1.24085E-10 4.87474E+00
 -1     21849 3.29247E-10 2.47362E-10 4.57368E+00
 -1     21850 3.22825E-11 5.32284E-11 4.16321E+00
 -1     21851-3.07190E-11-3.60485E-10 4.09728E+00
 -1     21852 1.68901E-12-2.59037E-10 3.78787E+00
 -1     21853-2.42708E-11 5.10414E-10 3.99107E+00
 -1     21854-6.08209E-10-5.98342E-10 4.02679E+00
 -1     21855-5.16707E-10-7.18574E-10 4.54620E+00
 -1     21856 1.44112E-10-2.02041E-10 2.99711E+00
 -1     21857 8.84561E-11-6.94148E-10-1.68726E-01
 -1     21858 2.69746E-11 2.61902E-13-7.51213E+00
 -1     21859 6.38703E-12 1.10916E-11-4.79636E+00
 -1     21860 4.98343E-11-1.55959E-11-4.70094E+00
 -1     21861-4.71398E-11-7.01374E-11-5.76800E+00
 -1     21862 2.00845E-11 7.22635E-11-5.38074E+00
 -1     21863 3.93289E-11-1.03503E-11-5.72492E+00
 -1     21864-1.00588E-10 8.12004E-11-5.70123E+00
 -1     21865-6.85275E-11-1.69777E-11-5.69736E+00
 -1     21866 3.84628E-11 5.42585E-11-5.70529E+00
 -1     21867-3.87575E-11-1.30381E-10-5.65079E+00
 -1     21868-5.17110E-11 1.54364E-10-5.59940E+00
 -1     21869-3.26813E-10-7.00050E-11-5.58736E+00
 -1     21870 1.63724E-11-4.57443E-10-5.48144E+00
 -1     21871-4.02201E-10-1.79559E-10-5.41839E+00
 -1     21872 1.65203E-10 6.69574E-11-5.31698E+00
 -1     21873-1.93800E-10 4.32532E-12-5.13263E+00
 -1     21874 2.03083E-10 2.75736E-10-5.06017E+00
 -1     21875-1.56590E-10-2.53945E-10-4.75204E+00
 -1     21876 5.25088E-10 3.02737E-11-4.93756E+00
 -1     21877 4.06632E-10 4.52486E-10-4.38719E+00
 -1     21878 3.44422E-10-2.56337E-10-4.42354E+00
 -1     21879 6.42208E-10-1.50402E-10-3.71961E+00
 -1     21880-6.71808E-10-7.06159E-10-3.94816E+00
 -1     21881 7.57528E-10-6.00482E-10-3.09449E+00
 -1     21882-3.06296E-10 3.24281E-10-2.33787E+00
 -1     21883 1.00733E-10 4.80400E-10 5.62555E-01
 -1     21884-3.21914E+00-3.13905E+00-3.09531E+00
 -1     21885-3.69033E+00-3.54050E+00-2.73998E+00
 -1     21886-3.69080E+00-4.03704E+00-3.86015E+00
 -1     21887-3.11920E+00-4.91906E+00-3.77774E+00
 -1     21888-3.10293E+00-7.95606E+00-2.59800E+00
 -1     21889-3.22377E+00-2.84987E+00-4.49281E+00
 -1     21890-4.57625E+00-4.25590E+00-3.39271E+00
 -1     21891-4.17871E+00-4.55200E+00-3.60433E+00
 -1     21892-4.33338E+00-2.48238E+00-4.32548E+00
 -1     21893-5.15314E+00-1.71287E+00-5.33207E+00
 -1     21894-5.94470E+00-1.08725E+00-2.50282E+00
 -1     21895-5.17462E+00-3.02083E-01-1.95644E+00
 -1     21896-3.43152E+00 4.37884E+00-1.98464E+00
 -1     21897-2.99614E+00 1.60819E+00-2.74795E+00
 -1     21898-1.27542E+00 1.38122E+00-1.95256E+00
 -1     21899-3.00745E+00 2.16272E+00-1.69282E+00
 -1     21900 4.21365E+00-2.81644E-01 1.56230E+00
 -1     21901 1.01022E+01 1.02483E+01 5.68006E+00
 -1     21902 1.44867E+01 8.67696E+00 5.77594E+00
 -1     21903 3.46887E-01 4.79513E+00 2.71678E+01
 -1     21904 7.15434E+00-5.61291E+00-1.48100E+00
 -1     21905 2.17510E+01-6.64094E+00 2.64056E+01
 -1     21906-2.32521E+00-2.18466E+00 2.62914E+00
 -1     21907-2.98058E+00-2.32931E+00 2.61187E+00
 -1     21908-2.92912E+00-2.63334E+00 4.32670E+00
 -1     21909-3.60472E+00-4.22953E+00 3.29778E+00
 -1     21910-3.20668E+00-6.03514E+00 3.02734E+00
 -1     21911-3.85826E+00-6.65576E+00 2.40587E+00
 -1     21912-2.62776E+00-1.06764E+01 5.19769E+00
 -1     21913-5.67743E+00-4.25481E+00 4.34159E+00
 -1     21914-5.96740E+00-3.29434E+00 4.00140E+00
 -1     21915-6.22847E+00 8.54114E-02 6.47501E+00
 -1     21916-5.12679E+00 7.11048E-01 5.88700E+00
 -1     21917-4.88563E+00 8.65231E-01 5.49298E+00
 -1     21918-5.90358E+00 9.81858E-01 4.49538E+00
 -1     21919-1.02363E+00 1.26572E+00 2.57762E+00
 -1     21920-4.11013E+00 3.24126E+00-1.83387E-01
 -1     21921-1.11137E+00 3.69867E+00 2.07106E+00
 -1     21922 2.97957E+00 9.01795E+00-1.75115E+00
 -1     21923 7.70338E+00 6.98343E+00-5.87623E+00
 -1     21924 9.76571E+00 3.20259E+01-4.11929E+00
 -1     21925 1.00386E+01 1.02700E+01-5.42905E+00
 -1     21926 1.68137E+01 1.42009E+01-2.22819E+01
 -1     21927 2.10607E+01 1.07199E+01-3.77523E+01
 -1     21928 2.37975E-10-4.28648E-10 1.63187E-10
 -1     21929-2.97486E-10-1.17549E-10-3.56615E-10
 -1     21930-9.16933E-11 9.45381E-10 2.70855E-10
 -1     21931-5.57217E-10 6.88860E-10-5.68059E-10
 -1     21932-4.07762E-10 3.12077E-11-7.07140E-11
 -1     21933-1.57929E-10 2.28688E-10-3.26379E-10
 -1     21934 4.62865E-10-1.07748E-10-6.63372E-11
 -1     21935 1.28467E-09-1.05507E-09 2.20556E-11
 -1     21936 8.35290E-10 6.69118E-10 5.67679E-10
 -1     21937 4.34202E-10 3.66783E-10 1.37268E-10
 -1     21938-1.24713E-11-2.61568E-10-5.55028E-10
 -1     21939-1.89106E-10 3.24947E-10-1.42870E-10
 -1     21940-1.04185E-09 3.73178E-10 2.67403E-10
 -1     21941 1.06017E-10 3.09058E-10 1.63288E-10
 -1     21942-6.61855E-11-1.48608E-10 3.25113E-11
 -1     21943-2.97552E-10-1.09515E-10-6.14611E-11
 -1     21944-1.24094E-10 3.05905E-10 3.13705E-10
 -1     21945-7.29209E-10 8.35207E-10 3.60747E-10
 -1     21946-2.50027E-10 2.79315E-10 4.79518E-10
 -1     21947 3.22311E-10-1.42440E-10-3.73879E-11
 -1     21948-6.78343E-11 9.07454E-11-1.52645E-10
 -1     21949-2.14323E-10 3.31733E-10-2.38270E-10
 -1     21950-1.34352E-10-7.29919E-11-2.00326E-10
 -1     21951-1.78626E-10 2.15832E-10 2.14060E-10
 -1     21952-2.82413E-11-1.49671E-11-4.46171E-12
 -1     21953-5.92025E-11 1.48102E-11 5.74296E-11
 -1     21954-8.42332E-11 1.72871E-10 4.35944E-11
 -1     21955-2.04297E-11-7.81391E-12-3.75154E-11
 -1     21956 7.13486E-11-5.06251E-11 3.70981E-11
 -1     21957-1.10142E-10-5.25548E-11-5.81111E-11
 -1     21958 2.03913E-11-1.05277E-10-1.06148E-12
 -1     21959-1.39733E-10 2.61426E-11 7.84086E-11
 -1     21960-2.19140E-11 8.04214E-12-1.43516E-10
 -1     21961-1.40660E-11-4.22015E-11-4.95159E-12
 -1     21962 3.76882E-11 6.19554E-11 1.10099E-11
 -1     21963-2.09407E-11-3.62358E-11-5.54484E-12
 -1     21964 2.16534E-11-6.02560E-11 1.36636E-11
 -1     21965 1.95451E-12 4.57559E-12-1.96784E-12
 -1     21966-1.32781E-12-7.32508E-12-3.23790E-12
 -1     21967 6.27330E-12 5.57939E-12 5.94490E-14
 -1     21968 1.44511E-12 6.86333E-15-3.26467E-12
 -1     21969 2.40896E-11-7.20419E-12 1.31233E-11
 -1     21970 5.63036E-12 1.03600E-11 2.83268E-12
 -1     21971 2.92191E-11-1.79335E-11 2.59494E-11
 -1     21972 8.00827E-12 9.68381E-12 1.64120E-11
 -1     21973-3.48394E-12 4.32626E-11 1.49185E-11
 -1     21974 3.57094E-11 6.01704E-11 1.69509E-12
 -1     21975-7.13052E-11 1.03979E-10-4.90050E-11
 -1     21976-6.97738E-11 7.57729E-11-7.66872E-11
 -1     21977-1.38348E-10 3.52991E-10 1.18199E-11
 -1     21978-2.38040E-11 7.55892E-11-1.35011E-11
 -1     21979-3.65004E-11 1.20457E-10-6.00706E-11
 -1     21980 1.13913E-10 2.28375E-11-4.21331E-11
 -1     21981 4.32188E-11 8.96129E-11 5.02412E-12
 -1     21982 1.55452E-10 6.66236E-12-5.89864E-11
 -1     21983-1.15437E-10-2.58949E-10 5.32343E-11
 -1     21984 2.62200E-10 3.91360E-11 9.59512E-11
 -1     21985 6.20915E-11 9.89365E-11 8.96101E-11
 -1     21986 3.95028E-11 1.45660E-10 2.60466E-11
 -1     21987-3.23406E-10 2.31340E-11-2.88849E-10
 -1     21988-4.29699E-11 2.96872E-10-2.10324E-10
 -1     21989-2.21221E-13 4.22727E-10 3.10072E-11
 -1     21990-3.78926E-10 8.66032E-11-1.03438E-10
 -1     21991 1.91037E-10-1.09102E-10-2.54824E-10
 -1     21992-4.41188E-10-1.27454E-10 6.81455E-11
 -1     21993-2.57049E-10-1.22509E-09-4.50874E-11
 -1     21994 8.75272E-11-4.12760E-10 1.49799E-10
 -1     21995 1.62306E-10-9.65148E-10 1.13016E-10
 -1     21996-2.14835E-10-5.93913E-11 3.23475E-12
 -1     21997-2.18376E-10 1.61423E-10-9.00111E-10
 -1     21998 7.38814E-10-1.41215E-11 3.34873E-10
 -1     21999-7.00277E-10-9.02715E-10-4.01489E-10
 -1     22000-1.23919E-09 2.63074E-11 5.86834E-10
 -1     22001 3.86112E-10-1.25151E-10-1.97218E-10
 -1     22002-7.10548E-13-1.31894E-11-1.44607E-13
 -1     22003-2.49921E-11 8.13169E-12 5.47290E-12
 -1     22004-1.78816E-11-6.35195E-11-4.80014E-11
 -1     22005-6.68556E-10 1.80446E-09 2.89794E-10
 -1     22006 6.39505E-10-1.48137E-10 2.27846E-11
 -1     22007 4.06113E-10-4.18217E-10-8.82394E-10
 -1     22008-3.50081E-10-6.85223E-10-1.73361E-10
 -1     22009 7.77200E-10-8.43913E-10-1.18264E-10
 -1     22010 1.49932E-09-2.97841E-10-7.73674E-10
 -1     22011 8.47976E-10-8.43629E-10 3.14929E-10
 -1     22012 4.12529E-10-6.80359E-11 4.89136E-10
 -1     22013-5.20272E-10 6.32648E-10-1.71565E-11
 -1     22014 4.11525E-12 1.21146E-10-5.67619E-10
 -1     22015-7.43239E-11-5.44647E-10 3.56682E-10
 -1     22016 8.53639E-11 8.02698E-10 3.51531E-11
 -1     22017-4.67524E-10 2.49393E-10 4.59898E-10
 -1     22018-4.08002E-10-3.45231E-10 3.36511E-10
 -1     22019 5.17461E-11-3.97822E-10 1.02804E-11
 -1     22020-1.88417E-10 1.30326E-09 6.14410E-10
 -1     22021-4.62067E-11 7.82724E-11 3.96616E-11
 -1     22022 1.36683E-10-4.59859E-11-3.08990E-10
 -1     22023 1.11320E-10 2.36103E-10-5.03002E-11
 -1     22024-1.17787E-10-5.11082E-11-7.86686E-11
 -1     22025 1.17662E-10 5.79495E-11 1.12635E-10
 -1     22026-2.06480E-10-2.41469E-11-1.83357E-10
 -1     22027 4.51602E-12-8.82847E-11-1.61130E-10
 -1     22028 3.74045E-11 1.30030E-10 5.59108E-12
 -1     22029 6.12790E-11 9.68491E-11 5.25009E-11
 -1     22030-5.86684E-11 1.96731E-10-8.97225E-11
 -1     22031-1.86901E-11 3.51578E-12-2.72151E-11
 -1     22032 6.17737E-11 2.59539E-11-2.74167E-11
 -1     22033 3.74035E-12-2.09712E-12 1.10610E-10
 -1     22034-2.05983E-11 2.48841E-11 2.60957E-11
 -1     22035-4.02486E-11 4.47524E-12 1.08460E-11
 -1     22036 2.77254E-11-1.39739E-11 9.25859E-12
 -1     22037 3.96515E-11 7.64291E-11 2.94361E-11
 -1     22038 3.12021E-11-1.91498E-11 3.41276E-11
 -1     22039 3.84470E-11-1.97029E-11 7.47846E-13
 -1     22040-7.40726E-11 2.07356E-11-4.63658E-11
 -1     22041 9.53668E-11 1.42607E-11-7.13418E-11
 -1     22042 1.72251E-11-1.57298E-11 2.85300E-12
 -1     22043-7.65031E-12-6.49328E-12 1.62157E-11
 -1     22044-4.69322E-12-4.70257E-12 2.28445E-12
 -1     22045-4.90959E-12 2.06629E-11 3.64790E-11
 -1     22046 5.25329E-11-7.75562E-11 1.91850E-11
 -1     22047-1.66308E-11 7.01413E-11-3.77146E-11
 -1     22048-3.22161E-12 1.81973E-11-2.52940E-11
 -1     22049-7.14294E-11 1.51105E-10-5.25827E-11
 -1     22050-5.60092E-11 9.59956E-11-1.82707E-11
 -1     22051-2.86002E-11 9.77143E-11-3.43682E-11
 -1     22052 1.25882E-10 2.09184E-11 3.40032E-11
 -1     22053 8.42225E-12-2.06812E-10 1.16886E-10
 -1     22054-2.15830E-12 1.77181E-10-8.99814E-12
 -1     22055 1.28290E-10-5.34427E-11 8.35565E-11
 -1     22056 9.68250E-11-3.68536E-10 1.27842E-10
 -1     22057-5.74648E-10-3.06682E-10-3.99382E-11
 -1     22058-2.68831E-10 2.83071E-10 3.33213E-10
 -1     22059-4.41250E-11 1.23729E-10 1.82902E-10
 -1     22060 9.42691E-11 3.07517E-10-2.07439E-10
 -1     22061-1.20119E-10 1.57792E-10 2.37584E-10
 -1     22062-1.59008E-10-3.00454E-10-8.24021E-11
 -1     22063 1.42818E-10-1.24087E-10-8.63694E-11
 -1     22064 5.67446E-11 1.69904E-10-2.15168E-11
 -1     22065 9.54913E-11-8.14330E-11 5.32143E-11
 -1     22066 6.04675E-11 6.95810E-11 7.73066E-11
 -1     22067-7.41787E-11 5.84216E-10 9.41380E-11
 -1     22068-3.31928E-10-2.26031E-10 3.18573E-10
 -1     22069 2.87106E-11-1.67811E-10 4.39302E-11
 -1     22070-6.69890E-10 7.83748E-10-4.65293E-10
 -1     22071 3.11454E-10 1.53781E-10 4.80887E-10
 -1     22072 8.85608E-10-1.09055E-09 1.08008E-09
 -1     22073 4.93818E-10-2.25138E-09 8.26477E-11
 -1     22074-3.51689E-10 1.10443E-09 3.00682E-12
 -1     22075 8.07273E-11-2.73984E-10-9.48575E-13
 -1     22076 4.63986E-10-2.22162E-10 1.34418E-10
 -1     22077 5.31100E-11-2.36471E-11 2.30037E-10
 -1     22078-8.08707E-11-6.27781E-10 1.15874E-10
 -1     22079-7.68882E-10 1.11717E-09 2.08767E-10
 -1     22080 5.45134E-11 9.54311E-11-1.52460E-11
 -1     22081-6.53144E-11 1.95812E-10-7.28528E-11
 -1     22082-2.80284E-11-2.86145E-10-2.38027E-11
 -1     22083-7.22472E-11-1.56120E-10-2.30121E-11
 -1     22084-1.26215E-11 4.59605E-11-6.73318E-11
 -1     22085 5.03523E-11-7.89203E-12-1.79777E-11
 -1     22086-1.69780E-11 2.48514E-11-7.74558E-12
 -1     22087-7.79540E-12-1.01470E-11-2.21390E-12
 -1     22088 9.67654E-11-6.77840E-11-1.85000E-11
 -1     22089-9.69490E-12 2.75725E-11 1.49424E-11
 -1     22090-4.57848E-11-9.99840E-11-6.70253E-12
 -1     22091 1.89430E-11 8.22255E-13 2.01325E-11
 -1     22092-1.97241E-10 5.45958E-10-2.98717E-12
 -1     22093 1.11805E-10-2.16686E-10 9.44222E-11
 -1     22094-6.33838E-11-9.42503E-11-1.49998E-10
 -1     22095 3.67510E-10 4.90685E-11 4.56664E-11
 -1     22096 2.34946E-10 9.66680E-11 1.60338E-10
 -1     22097 2.33839E-10-2.53766E-10 4.79721E-10
 -1     22098-2.59793E-10-5.34110E-11 1.72934E-10
 -1     22099 5.39849E-10-1.66096E-09-5.93726E-10
 -1     22100 2.15722E-10-3.10304E-10 4.40472E-10
 -1     22101-5.04200E-10-1.02993E-09 3.10016E-11
 -1     22102 8.37779E-11 1.56234E-10 1.57231E-10
 -1     22103-1.19628E-10-3.36312E-11 9.41085E-11
 -1     22104-8.26668E-11 1.68203E-10-4.55955E-11
 -1     22105-2.50177E-12 9.51564E-12-3.67535E-11
 -1     22106 1.94723E-11 1.14120E-10 2.28614E-12
 -1     22107 6.77945E-11 4.37663E-11-3.68361E-11
 -1     22108 3.33539E-11 1.07897E-10 2.87637E-12
 -1     22109 3.09572E-10-3.13262E-11 2.52660E-10
 -1     22110 8.41374E-11 3.01529E-10 7.98304E-11
 -1     22111-5.25057E-11 1.47854E-10-2.40973E-10
 -1     22112-1.90322E-10 7.22907E-12-1.05380E-09
 -1     22113 2.60323E-10 1.93107E-10-2.86267E-10
 -1     22114 4.06738E-10-2.28570E-11 7.97096E-12
 -1     22115 7.46940E-10-3.55235E-10-4.30941E-10
 -1     22116 1.07280E-09-7.09232E-10-1.00313E-10
 -1     22117 1.90547E-10-3.21663E-10 1.51188E-09
 -1     22118 1.33932E-10-2.82181E-11-5.11235E-11
 -1     22119-1.30084E-10 2.83680E-11 1.22166E-10
 -1     22120-1.99301E-11 6.47099E-10-4.61880E-10
 -1     22121-2.07101E-11 3.26084E-12 9.32010E-12
 -1     22122-9.54340E-11-8.10330E-11 1.84875E-11
 -1     22123 5.45874E-11 5.55204E-11-1.27671E-11
 -1     22124 5.63728E-11-9.61598E-11 1.26472E-11
 -1     22125-1.24678E-10 9.70030E-11 3.35200E-11
 -1     22126 6.78691E-10 7.48967E-10 2.11783E-10
 -1     22127 5.83469E-11 3.39649E-10 1.83056E-11
 -1     22128-4.06892E-10 2.13106E-10-2.77061E-10
 -1     22129 1.78342E-10-3.08665E-10 4.34145E-10
 -1     22130 7.74722E-11 6.91439E-10 3.89702E-10
 -1     22131-1.38198E-10-1.11658E-11 5.19882E-10
 -1     22132 2.67955E-10-3.19213E-11 7.10920E-11
 -1     22133 1.45551E-11-6.94834E-11-5.32012E-11
 -1     22134-3.00650E-10 1.02633E-12 2.62830E-11
 -1     22135-1.56367E-10-3.47653E-11-9.93083E-12
 -1     22136 1.20239E-10 8.16485E-10 5.27311E-10
 -1     22137-2.42079E-10 1.22961E-10-2.42476E-10
 -1     22138 2.53594E-10 2.87857E-10-7.91593E-11
 -1     22139 1.96862E-11 9.76003E-10 4.21558E-10
 -1     22140-5.77257E-10 3.99913E-10-4.20273E-10
 -1     22141-5.16798E-11-4.87255E-10-7.75154E-11
 -1     22142 1.89795E-10 4.26222E-10 7.92537E-10
 -1     22143 5.83375E-11-5.48026E-11 6.59977E-11
 -1     22144 1.44715E-11-4.70127E-11 7.38267E-11
 -1     22145 2.72820E-10 2.10615E-11 7.07483E-11
 -1     22146-1.28174E-10-4.63235E-10-2.02511E-10
 -1     22147-5.30491E-10-3.42669E-10 4.13032E-10
 -1     22148 2.41861E-10-7.64015E-10-1.39832E-10
 -1     22149 6.31163E-11-1.07160E-11-5.63113E-11
 -1     22150-2.12027E-10-5.51701E-11-9.99770E-11
 -1     22151-4.85520E-11-1.66065E-10-1.26978E-10
 -1     22152 4.21160E-11 3.31657E-10 1.16505E-10
 -1     22153 3.61960E-11 1.07223E-10 4.58064E-11
 -1     22154-1.81745E-10-1.14173E-11-1.84913E-11
 -1     22155-7.77024E-11 1.20358E-10 8.18738E-11
 -1     22156 6.78242E-12-1.43322E-10-1.10318E-11
 -1     22157 6.51492E-11-1.06121E-11 4.76052E-11
 -1     22158 1.99602E-11-1.22354E-10-3.26849E-11
 -1     22159-5.84932E-11 1.53564E-10 1.30308E-11
 -1     22160-1.65413E-10 1.95491E-10 7.64207E-11
 -1     22161-7.66875E-11-7.85112E-13 3.56672E-11
 -1     22162-1.28761E-11-4.81522E-13-4.80898E-11
 -1     22163-1.40389E-10 8.66412E-11-9.90666E-11
 -1     22164 3.35528E-12-1.27178E-11-1.86691E-11
 -1     22165-3.57351E-10-4.75938E-10 4.21455E-10
 -1     22166 1.55181E-11 2.77208E-11 5.47312E-13
 -1     22167 1.81580E-11-1.16950E-11-1.02514E-11
 -1     22168-4.07094E-10 1.68751E-10-4.26445E-10
 -1     22169 1.01561E-10-8.48037E-10 1.67838E-10
 -1     22170-8.47304E-10 1.79645E-09-5.57729E-11
 -1     22171 1.35050E-11 3.82309E-11-1.38371E-11
 -1     22172-9.61203E-10-9.07230E-10 4.22148E-10
 -1     22173 5.32186E-10-7.64296E-10-9.84568E-11
 -1     22174 5.19687E-10-4.42296E-10-1.21097E-10
 -1     22175 1.60266E-11 1.53698E-10-1.77520E-10
 -1     22176-1.21552E-10 9.01157E-11 1.20546E-10
 -1     22177 9.63636E-11 9.44173E-11 1.52988E-11
 -1     22178-1.39805E-10-4.67322E-10-1.20267E-10
 -1     22179 1.56521E-09-1.20435E-09-4.25154E-10
 -1     22180 2.70201E-09-3.04405E-09-1.53121E-09
 -1     22181-1.44875E-10 2.86447E-10 4.47229E-10
 -1     22182 2.63784E-11 1.25007E-10-3.81435E-11
 -1     22183-2.82364E-11 4.81880E-10 3.45857E-12
 -1     22184-6.57597E-12-6.57085E-11-2.56809E-11
 -1     22185 3.66009E-12 9.86688E-12 4.67982E-11
 -1     22186-2.44124E-09 7.41287E+00 5.32144E-11
 -1     22187 9.22772E-10 5.05702E+00-4.17139E-10
 -1     22188-1.63289E-10 6.71359E+00 3.35372E-10
 -1     22189-2.72153E-10 4.79858E+00-5.34862E-11
 -1     22190 2.93700E-10 4.57043E+00-5.13186E-10
 -1     22191 4.10082E-10 4.86597E+00-2.20143E-10
 -1     22192-2.06343E-10 4.78165E+00 9.68629E-10
 -1     22193-9.52492E-10 7.70270E+00-5.02501E-10
 -1     22194 1.49746E-09 6.78705E+00-6.37308E-10
 -1     22195-1.29941E-10 8.64768E+00-2.04674E-10
 -1     22196-3.42043E-10 1.00332E+01-1.38653E-10
 -1     22197-7.84690E-12 6.58321E+00-6.06986E-10
 -1     22198-3.85596E-11 6.21659E+00 1.04223E-10
 -1     22199 4.55370E-11 6.09115E+00-9.37933E-11
 -1     22200 8.69807E-10 6.77114E+00-1.12547E-09
 -1     22201-2.90638E-10 6.28084E+00-6.00197E-10
 -1     22202 2.80743E-10 4.99299E+00-5.54899E-11
 -1     22203-9.71672E-10 6.70644E+00-5.92427E-10
 -1     22204 4.04657E-10 7.84832E+00-3.86278E-10
 -1     22205 1.03761E-09 8.58603E+00 4.63392E-11
 -1     22206 1.04872E-10 7.31429E+00 7.24398E-10
 -1     22207-1.00349E-10 7.85536E+00-1.69671E-10
 -1     22208-4.34525E-11 7.33974E+00-4.24340E-11
 -1     22209 4.09222E-10 8.93372E+00-1.63729E-12
 -1     22210 3.05296E-10 7.61962E+00 1.80073E-10
 -1     22211 7.24433E-11 1.20195E+01-1.23864E-09
 -1     22212-5.46833E-10 1.06346E+01 6.85674E-11
 -1     22213 2.94452E-10 7.07750E+00-6.35244E-10
 -1     22214 1.09558E-09 6.53001E+00 7.03320E-10
 -1     22215 7.75113E-10 8.16490E+00 1.54238E-10
 -1     22216-4.71521E-10 8.38603E+00 1.82554E-10
 -1     22217-1.49544E-09 7.75930E+00-1.50914E-10
 -1     22218 2.65004E-10 9.30070E+00-8.48900E-10
 -1     22219-4.59029E-10 6.73132E+00 6.02291E-10
 -1     22220 3.16937E-10 7.24014E+00 3.63642E-12
 -1     22221-2.40316E-10 5.85013E+00-3.24900E-10
 -1     22222 2.15821E-10 6.38716E+00-3.93850E-10
 -1     22223-1.61757E-09 5.41027E+00 2.05579E-10
 -1     22224 3.67335E-10 1.16361E+01 1.44515E-10
 -1     22225 2.79202E-10 5.87808E+00 1.87766E-10
 -1     22226 9.32119E-10 4.85129E+00 4.14349E-10
 -1     22227 2.90245E-09 1.22561E+01-1.54382E-10
 -1     22228 4.81208E-10 7.46683E+00 1.38583E-09
 -1     22229 2.44024E-09 8.96163E+00 7.63479E-11
 -1     22230-1.89662E-09 7.87526E+00-7.40980E-11
 -1     22231 1.02734E-09 7.46351E+00-8.09866E-10
 -1     22232-2.72417E-10 7.53146E+00-1.47598E-09
 -1     22233-6.45928E-10 6.64091E+00 8.12696E-10
 -1     22234-3.15293E-10 7.40736E+00-5.89674E-10
 -1     22235 4.54997E-10 5.76498E+00-9.53581E-10
 -1     22236-5.86207E-10 6.57771E+00 2.90901E-10
 -1     22237 6.13864E-10 6.71071E+00 1.53463E-10
 -1     22238-1.39881E-09 7.11357E+00-4.83435E-10
 -1     22239 1.51159E-09 9.29397E+00 8.33870E-10
 -1     22240-6.21259E-10 8.72365E+00-4.91593E-11
 -1     22241 6.10625E-10 6.61730E+00-3.98984E-11
 -1     22242 1.18138E-10 7.31632E+00 6.05573E-10
 -1     22243 1.48840E-10 6.67458E+00-3.78667E-10
 -1     22244-2.83463E-11 1.70541E-11-2.93299E-12
 -1     22245 9.63538E-12-2.00918E-11 1.82711E-11
 -1     22246-2.30805E-11 6.76480E-11 1.77001E-11
 -1     22247-4.36346E-12 7.15119E-12-1.00704E-11
 -1     22248 9.20602E-12-1.54656E-11-3.80684E-12
 -1     22249-2.07754E-11-1.20594E-11 8.55938E-12
 -1     22250-1.22136E-11-8.08899E-12 9.94804E-12
 -1     22251 2.02826E-11-1.50338E-10-9.27550E-11
 -1     22252-1.55649E-12 3.24903E-11-4.35501E-11
 -1     22253-3.39488E-11 7.90073E-11-1.50326E-11
 -1     22254-6.99224E-12-1.54750E-11 1.40614E-11
 -1     22255 4.55254E-11 1.41069E-10-6.54302E-11
 -1     22256 1.66831E-10-5.34098E-12 1.98171E-11
 -1     22257 5.20309E-11 2.96664E-11 7.29377E-11
 -1     22258 6.10074E-11-7.85376E-11-1.52237E-11
 -1     22259-1.85924E-10-2.33136E-10 1.22249E-10
 -1     22260 1.68112E-10-3.33477E-10 4.29956E-10
 -1     22261-2.91125E-10-1.59244E-10-6.52714E-10
 -1     22262 5.77821E-10-3.64153E-10-5.57844E-10
 -1     22263 4.60570E-11 1.82444E-11 3.50972E-10
 -1     22264 9.19287E-12-2.47006E-10-8.63469E-11
 -1     22265 9.41832E-10-1.64705E-09-2.27796E-10
 -1     22266-7.47593E-10 1.13513E-09-7.17184E-10
 -1     22267-6.17850E-10 2.54142E-10-1.20656E-10
 -1     22268-1.22503E-09 4.58748E-10-1.22941E-10
 -1     22269-2.72151E-10 7.67133E-10 5.09254E-12
 -1     22270 2.91500E-10-2.36861E-09 7.53222E-10
 -1     22271 1.42302E-09-1.25286E-09-4.60808E-10
 -1     22272 1.27475E-09 3.56525E-10 8.66593E-10
 -1     22273-7.30499E-10 4.56169E-10-4.23024E-11
 -1     22274 9.39478E-11-6.03418E-10-1.71185E-11
 -1     22275-9.60275E-10 8.44208E-10-9.00107E-10
 -1     22276-6.10846E-10-1.39120E-10-3.72066E-10
 -1     22277 9.61636E-10-9.72773E-10-8.62511E-10
 -1     22278 7.65045E-10 1.14526E-09-1.36314E-10
 -1     22279 3.13253E-12 2.82173E-09 2.73999E-10
 -1     22280-2.57429E-10 1.48597E-09-2.24869E-10
 -1     22281-2.05245E-10-2.39796E-10-1.53279E-10
 -1     22282-1.28904E-09-2.25778E-10 7.65775E-10
 -1     22283 1.80074E-10 2.11363E-10 7.26390E-10
 -1     22284 8.31527E-10 8.30995E-10 2.25824E-10
 -1     22285-6.62393E-10-3.09880E-09-1.81241E-10
 -1     22286-1.58918E-10 3.97792E-10 2.17442E-09
 -1     22287 1.28842E-09-2.54029E-09 2.41018E-10
 -1     22288 7.49001E-10-1.10065E-09 1.00445E-09
 -1     22289-2.72690E-10 5.92325E-10 6.76379E-10
 -1     22290-4.59600E-10-1.60700E-09 2.06848E-10
 -1     22291 5.96101E-12 1.01820E-09-2.42214E-11
 -1     22292-1.67797E-10-6.82624E-10 5.66227E-10
 -1     22293-9.28350E-10-5.01136E-11 4.49349E-11
 -1     22294 7.00039E-10-5.74772E-10 9.88645E-11
 -1     22295 3.50333E-10-5.34871E-10-3.27468E-10
 -1     22296-5.61088E-10-6.13743E-10-4.74997E-10
 -1     22297-3.39564E-10 2.38208E-10 6.10894E-11
 -1     22298 1.32197E-10 5.43192E-10 2.87903E-11
 -1     22299-2.38681E-10-3.76955E-10 1.69649E-10
 -1     22300 9.25323E-11-3.49840E-10-1.41472E-10
 -1     22301 4.66535E-10 8.61154E-11-1.24175E-10
 -1     22302-2.47718E-10 6.85502E-11-2.84128E-10
 -1     22303 3.19152E-11 9.83579E-11-3.22269E-11
 -1     22304 2.77573E-12 1.43908E-10 9.47968E-11
 -1     22305-2.01292E-10-6.18583E-11-8.54239E-11
 -1     22306-5.02688E-11-6.67413E-11-2.70940E-11
 -1     22307 5.32391E-11-5.85186E-11 3.34313E-11
 -1     22308-1.24460E-11-5.38056E-11-5.62686E-12
 -1     22309-6.38997E-12 5.16836E-11-4.10924E-11
 -1     22310-3.97083E-11 6.55235E-11 4.80305E-11
 -1     22311-1.00045E-10 6.59988E-11-4.91824E-11
 -1     22312 4.57584E-13 4.95184E-11 6.18953E-11
 -1     22313 8.16796E-11-1.35144E-11-1.39540E-11
 -1     22314 1.60443E-10-1.22246E-10-1.18242E-10
 -1     22315-1.08082E-10 1.13484E-10-1.07084E-12
 -1     22316-1.21083E-10 2.16985E-11-8.93076E-11
 -1     22317-3.35615E-11 5.70869E-11-1.76816E-11
 -1     22318 8.87082E-13 2.25353E-11-7.00737E-11
 -1     22319-1.40063E-10-3.98805E-11-7.74014E-11
 -1     22320-3.07572E-11 6.49979E-12 3.40172E-13
 -1     22321 1.34117E-10 7.44996E-11-9.83493E-11
 -1     22322 1.15068E-10 8.25907E-11 5.10923E-11
 -1     22323-3.06674E-10-3.74098E-10 2.90274E-10
 -1     22324 2.26920E-10-2.29800E-10-1.78209E-11
 -1     22325-2.60879E-10 4.49344E-10-1.05804E-10
 -1     22326 4.57776E-11 2.76341E-10 2.75359E-10
 -1     22327-3.89447E-10 1.32762E-10-3.48647E-10
 -1     22328 3.35352E-10-2.71509E-10 6.07664E-10
 -1     22329-3.71255E-10 6.35332E-10-3.26076E-10
 -1     22330-6.47118E-10 4.73966E-10-2.57359E-10
 -1     22331 1.02202E-09 5.02251E-10 2.66961E-10
 -1     22332-1.25963E-09-2.44343E-10-4.34237E-11
 -1     22333-2.96659E-10-2.33720E-09 2.81835E-10
 -1     22334 2.68786E-10 4.53076E-10-3.05211E-10
 -1     22335 9.63007E-10-1.43391E-09-4.87760E-10
 -1     22336-1.28289E-09-4.79314E-11 4.17498E-10
 -1     22337 1.47416E-09-2.59597E-10 1.42827E-10
 -1     22338 1.58286E-09-4.37059E-10 9.38643E-10
 -1     22339 2.58580E-10-1.54602E-09 1.42086E-10
 -1     22340-2.20042E-11-1.78296E-09-2.50987E-10
 -1     22341-3.15232E-12-3.96567E-10-2.65986E-10
 -1     22342 2.96796E-10-4.58249E-10 2.12865E-10
 -1     22343 1.42650E-10 6.37746E-11-1.98067E-10
 -1     22344 5.78097E-10-7.59502E-10-1.88871E-10
 -1     22345 1.75814E-10-3.46664E-09 6.64142E-10
 -1     22346 2.78708E-10-4.96133E-10 1.46065E-10
 -1     22347 1.29043E-10 6.98722E-10 8.33195E-11
 -1     22348-4.64537E-10 5.14809E-10 3.13036E-11
 -1     22349 1.26088E-10 1.69647E-09-1.53140E-11
 -1     22350-1.47449E-09 2.01665E-09 4.91114E-10
 -1     22351 5.23452E-11 1.42936E-09-1.09802E-10
 -1     22352-5.50781E-10 5.78666E-10 4.51879E-11
 -1     22353-6.76017E-11 4.40460E-11-4.64338E-10
 -1     22354-5.39977E-10 2.97877E-11-6.56579E-10
 -1     22355 3.19123E-10-4.74527E-10 2.19540E-10
 -1     22356-1.04969E-10-5.94444E-10 5.13962E-11
 -1     22357-1.00444E-12 1.27961E-10-5.16033E-11
 -1     22358 6.68564E-11-7.07544E-10-8.34901E-11
 -1     22359 9.98039E-10-5.12958E-10 7.29276E-11
 -1     22360-2.74672E-10-3.75377E-10 1.25786E-10
 -1     22361 1.50932E-10-1.94168E-10 6.27548E-11
 -1     22362-6.24267E-11-2.54941E-10-2.87763E-10
 -1     22363 7.13483E-11-2.38310E-10-1.59715E-10
 -1     22364-9.51637E-11 4.81258E-10-5.86134E-11
 -1     22365 2.32954E-11 5.13204E-11-8.43651E-11
 -1     22366 3.52290E-11 9.23503E-11-1.70386E-12
 -1     22367 4.33256E-11-9.75429E-11 1.30400E-11
 -1     22368 9.65909E-12-8.91488E-11 3.43232E-11
 -1     22369-3.90186E-11-1.35105E-10-6.73276E-11
 -1     22370 1.91289E-10-3.22659E-11-9.02831E-11
 -1     22371-2.75494E-10-3.97487E-10-1.51219E-10
 -1     22372-2.51736E-11 8.20326E-12 3.98421E-11
 -1     22373-6.93924E-11 9.11988E-10 2.82392E-10
 -1     22374-9.19271E-10-9.40116E-10 1.11594E-09
 -1     22375 4.79982E-10-1.05544E-10-8.82209E-11
 -1     22376 2.25397E-10-1.08896E-09-5.83014E-11
 -1     22377 2.30175E-10 1.58880E-10-2.19230E-10
 -1     22378-8.11040E-10-7.33462E-11-2.12091E-10
 -1     22379 8.32520E-11 1.94898E-10 2.52727E-10
 -1     22380 1.93976E-10 2.75570E-11 1.43141E-10
 -1     22381 8.84708E-11-1.79614E-10 5.75662E-11
 -1     22382 3.52313E-11 1.45528E-11 1.42873E-11
 -1     22383 2.48553E-11-2.42197E-11 1.37202E-11
 -1     22384-4.46507E-10 9.03643E-11 3.20025E-10
 -1     22385 2.87649E-10-7.47594E-10 6.11644E-12
 -1     22386 4.26973E-10 8.08844E-10 1.57480E-10
 -1     22387-8.84180E-10 1.03841E-09 5.40050E-10
 -1     22388 4.92673E-12 1.31108E-11-7.32819E-12
 -1     22389 5.52734E-11-7.63265E-11-3.15662E-11
 -1     22390-2.49685E-10 1.17820E-10 2.75072E-10
 -1     22391-6.35049E-11 2.61037E-11-1.83416E-10
 -1     22392 1.26250E-10-2.06600E-10 3.10132E-10
 -1     22393 1.06011E-09-2.82942E-10-4.32750E-10
 -1     22394 3.78148E-12 1.08904E-11 2.80606E-11
 -1     22395 3.22829E-11 9.43718E-11-1.20735E-11
 -1     22396 2.08411E-11-2.19675E-11-6.05682E-11
 -1     22397 2.27464E-10 2.55048E-10 2.62416E-10
 -1     22398 6.53494E-10-2.30884E-09 7.23948E-10
 -1     22399 4.24031E-10-1.89119E-10 1.28875E-10
 -1     22400 8.74739E-11-2.27430E-10-3.49223E-10
 -1     22401-2.51577E-11-3.89880E-11 7.79088E-11
 -1     22402-3.78935E-11 1.04945E-10-2.23659E-10
 -1     22403-1.76059E-10 2.79891E-10-1.17408E-11
 -1     22404 7.64820E-11-3.96941E-11 7.51652E-11
 -1     22405 1.90589E-11 8.37809E-11 1.09246E-13
 -1     22406-1.69597E-11-1.01955E-10-4.19809E-11
 -1     22407-4.30347E-11 4.52808E-10 6.94955E-11
 -1     22408-1.35829E-10-2.01380E-10-1.11937E-11
 -1     22409-3.55362E-10 1.71409E-10-5.75962E-11
 -1     22410 6.15611E-11-9.76150E-11-2.71112E-10
 -1     22411-2.94450E-10 4.39622E-11 3.46080E-10
 -1     22412-5.28360E-11 1.93000E-10 2.77816E-10
 -1     22413 3.88837E-10-2.38581E-10 5.48425E-11
 -1     22414 1.22346E-10 4.91998E-10 1.74024E-10
 -1     22415-1.27905E-09 2.42581E-10 2.12250E-11
 -1     22416-4.38463E-10-1.76742E-10-2.24157E-10
 -1     22417-2.34703E-10-2.17904E-10-3.73874E-10
 -1     22418 1.13825E-09-7.14709E-10-3.48616E-10
 -1     22419 2.78427E-10-1.19899E-09-3.37099E-10
 -1     22420 2.57976E-10 3.96294E-10-1.00549E-09
 -1     22421-3.04583E-10 6.83804E-10 1.09369E-10
 -1     22422 1.24926E-09 8.22201E-11-1.28536E-09
 -1     22423-2.14460E-10 4.46455E-10-5.47241E-11
 -1     22424 3.80190E-11 1.80903E-11-6.84519E-12
 -1     22425-2.77315E-09 5.46986E-10-1.50819E-10
 -1     22426 5.47698E-11-8.97039E-11 1.08898E-10
 -1     22427-1.28225E-10-1.74371E-10-4.32946E-11
 -1     22428 1.09538E-09 8.33286E-10-1.91307E-09
 -1     22429 2.71286E-11 5.58343E-10-4.18031E-10
 -1     22430-5.75508E-11-7.70382E-10 6.64747E-10
 -1     22431 9.94504E-10 2.66093E-10 4.44145E-10
 -1     22432-2.30470E-11 1.44404E-10-1.28413E-11
 -1     22433 2.41579E-10 2.43703E-10-4.97896E-10
 -1     22434 2.16634E-09-3.70136E-09-1.76701E-09
 -1     22435-1.86372E-10-6.58714E-11 3.85034E-10
 -1     22436 2.49971E-11 9.19273E-11-7.77756E-12
 -1     22437 2.52823E-10-3.31064E-10 7.76020E-11
 -1     22438 1.75510E-11-2.75509E-10-1.15350E-10
 -1     22439 5.08137E-12 9.98530E-11-2.55213E-11
 -1     22440-5.60815E-11-5.81962E-11 5.38972E-11
 -1     22441 2.84814E-11-3.78809E-11-5.27600E-12
 -1     22442 7.93198E-11-2.00906E-12-1.36901E-10
 -1     22443-1.12160E-09-1.48799E-09-1.07536E-09
 -1     22444 2.11631E-10-1.59025E-10-3.99682E-11
 -1     22445 8.59602E-10-1.25675E-09-8.08959E-10
 -1     22446-7.51239E+00-7.02828E+00 1.75602E-01
 -1     22447-4.80229E+00-4.64171E+00-9.97011E-02
 -1     22448-6.93949E+00-6.33312E+00 1.36185E-01
 -1     22449-4.91154E+00-4.11697E+00 3.19129E-01
 -1     22450-4.73723E+00-4.06659E+00-1.90051E-01
 -1     22451-4.57998E+00-4.67943E+00-1.74417E-01
 -1     22452-4.43443E+00-4.86241E+00 2.70405E-01
 -1     22453-6.50786E+00-6.23676E+00-2.60449E-01
 -1     22454-6.04256E+00-6.15377E+00-5.76792E-02
 -1     22455-8.33192E+00-7.06567E+00-5.07366E-01
 -1     22456-5.39462E+00-6.01176E+00 7.30357E-01
 -1     22457-1.29063E+01-5.65558E+00-5.20771E+00
 -1     22458-6.88762E+00-4.71279E+00 4.52979E+00
 -1     22459-7.98542E+00-2.92552E+00-6.10868E-01
 -1     22460-4.88842E+00-3.82102E+00 1.62424E+00
 -1     22461-8.68683E+00-1.74008E+00 8.29966E-01
 -1     22462-7.35391E+00-2.63339E+00-3.06156E+00
 -1     22463-3.11800E+00-1.97906E+00-1.63552E+00
 -1     22464-5.67947E+00-8.30319E-01-2.80411E+00
 -1     22465-1.20088E+00 4.69426E+00 1.55036E+00
 -1     22466 7.93149E-01 8.38984E-01 2.08781E+00
 -1     22467 1.27852E+00 2.07442E+00 9.22880E-01
 -1     22468-5.47366E+00 2.28844E+00-6.40103E+00
 -1     22469 2.08260E+01 1.05016E+01 5.34003E+00
 -1     22470 2.46203E+00-4.58673E+00-1.03166E+01
 -1     22471 2.40467E+01-1.45191E+01 8.85952E+00
 -1     22472 1.65349E+01 5.63002E+00 6.96172E+00
 -1     22473 2.61349E+01 3.16729E+00 1.40607E+01
 -1     22474 2.04741E+01 4.39784E+00-2.30184E+00
 -1     22475 2.69585E+01 1.55409E+01-2.20843E+01
 -1     22476 5.75690E+01 1.39469E+01 1.15926E+00
 -1     22477 8.41160E+01 4.54745E+01-3.32483E+01
 -1     22478 7.09937E+01-1.08694E+01 9.20669E+00
 -1     22479 3.64856E-01 2.54799E+01-2.33367E+01
 -1     22480-2.67300E+01-1.92306E+00 7.38565E+01
 -1     22481 1.84241E+01-2.03328E+01 1.52766E+01
 -1     22482 1.87486E+01 2.62230E+01 6.30312E+00
 -1     22483 2.90468E+01 2.36241E+01-5.76256E+00
 -1     22484 2.12854E+01-2.26792E+00-9.68062E+00
 -1     22485 1.72572E+01 6.24919E+00 2.87059E+00
 -1     22486 5.79900E+00-9.81448E+00-3.28911E+00
 -1     22487 1.32219E+00 2.58246E+00 1.69902E+00
 -1     22488 8.07478E-01 3.32059E-02 3.23842E+00
 -1     22489-4.76310E+00-4.76424E-01-1.60375E+00
 -1     22490-1.58645E+00 3.99143E+00-6.13455E-01
 -1     22491-7.29958E+00 8.95172E-01 1.18228E+00
 -1     22492-5.01680E+00-1.19776E+00-3.98291E-01
 -1     22493-1.05893E+01-1.57409E+00 4.77873E+00
 -1     22494-6.22412E+00-3.26184E+00-1.29055E+00
 -1     22495-7.43040E+00-3.31583E+00-6.74868E-01
 -1     22496-8.84571E+00-3.72010E+00 2.94543E-01
 -1     22497-5.72570E+00-5.89025E+00-5.49489E-01
 -1     22498-7.27389E+00-5.50458E+00 3.66764E-01
 -1     22499-3.71131E+00-4.58844E+00-1.99640E+00
 -1     22500-9.94777E+00-6.47584E+00 4.02088E+00
 -1     22501-6.91128E+00-7.30307E+00 4.04505E-01
 -1     22502-5.97308E+00-6.01817E+00 2.03959E-01
 -1     22503-7.10049E+00-7.39059E+00 1.89289E-01
 -1     22504-4.90103E+00-6.27476E+00 8.53035E-01
 -1     22505-6.22466E+00-6.21178E+00-7.77159E-03
 -1     22506-6.63301E+00-6.45182E+00 2.26641E-01
 -1     22507-6.11108E+00-7.30540E+00 2.58672E+00
 -1     22508-1.05924E+01-8.64051E+00 7.95777E-01
 -1     22509-8.66092E+00-7.22228E+00 1.49129E+00
 -1     22510-5.18042E+00-5.22261E+00 2.43271E-01
 -1     22511-5.30485E+00-4.64130E+00-3.54506E-02
 -1     22512-7.61213E+00-6.78023E+00 3.40088E-01
 -1     22513-1.36488E+01-8.28736E+00-2.73228E+00
 -1     22514-3.99594E+00-3.75628E+00-2.51035E-01
 -1     22515-9.40252E+00-6.31877E+00 7.35598E-01
 -1     22516-6.88947E+00-6.57476E+00-9.59459E-01
 -1     22517-8.36204E+00-2.76289E+00-1.95000E+00
 -1     22518-8.38692E+00-5.32326E+00-1.17523E+00
 -1     22519-6.79590E+00 7.35156E-01 2.75929E-02
 -1     22520-6.45963E+00-1.73497E+00 2.48594E-01
 -1     22521-3.36123E+00-6.67221E-02-7.73663E-01
 -1     22522-6.84384E+00 6.42608E-02-1.46632E+00
 -1     22523 2.54067E+00 5.04093E+00 4.95069E-02
 -1     22524-3.16335E+00 1.33184E+00 3.33449E+00
 -1     22525 1.58574E+01 1.35079E+01 3.02589E+00
 -1     22526 1.80371E+01 2.83210E+00 1.85040E+00
 -1     22527 7.95826E+00 9.78208E+00 3.61163E+00
 -1     22528 7.51989E+00 2.22768E+00-6.10279E+00
 -1     22529 2.23923E+01 6.10008E+00-6.72024E+00
 -1     22530 3.86561E+00 2.66233E+00 2.63847E+00
 -1     22531 1.97228E+01 1.08448E+01-9.31448E+00
 -1     22532 4.29114E+00 1.83167E+00 1.57814E+00
 -1     22533 6.68277E+00 2.82665E+00 1.49234E+00
 -1     22534 6.56754E+00 7.09077E+00 1.98249E+00
 -1     22535-4.74226E+00-8.06557E-01-1.16733E+00
 -1     22536 8.33251E+00 7.46833E+00 2.24865E+00
 -1     22537-4.43221E+00-2.88515E-01-1.55533E+00
 -1     22538-3.48910E+00 2.84231E+00 1.53595E+00
 -1     22539-5.45076E+00-3.74263E-02-1.46276E+00
 -1     22540-9.42803E+00-3.20960E+00 1.70189E+00
 -1     22541-7.94886E+00-4.20922E+00 1.43154E+00
 -1     22542-7.84872E+00-3.41774E+00 2.11234E+00
 -1     22543-8.21646E+00-4.01090E+00-1.92079E-01
 -1     22544-8.54730E+00-7.01650E+00 5.75016E-01
 -1     22545-3.67299E+00-4.24416E+00-1.52022E+00
 -1     22546-7.58019E+00-3.90266E+00 1.95556E-01
 -1     22547-7.26382E+00-5.94428E+00 8.55819E-01
 -1     22548-6.62349E+00-6.37412E+00 8.41931E-02
 -1     22549-7.62853E+00-7.75798E+00-1.25040E-01
 -1     22550-6.03112E+00-5.71527E+00-1.45743E-01
 -1     22551-9.22641E+00-3.64220E+00 1.51150E+00
 -1     22552-8.34035E+00-4.41166E+00 1.05682E+00
 -1     22553-7.78581E+00-3.47506E+00-2.31968E+00
 -1     22554-4.04017E+00-7.27710E-01 2.25743E-01
 -1     22555-1.54403E+00-1.49888E+00-2.44544E+00
 -1     22556-3.56888E+00 1.18222E+00-2.36542E+00
 -1     22557-1.04832E+01 2.64458E+00 1.80791E+00
 -1     22558-9.75598E+00-2.82501E+00-8.58376E-01
 -1     22559-6.77009E+00-4.16097E+00-6.91059E-01
 -1     22560-9.47520E+00-8.24469E+00 6.91052E-01
 -1     22561-6.89771E+00-4.32380E+00-1.04148E+00
 -1     22562-3.43106E+00-3.75963E-01-1.40366E+00
 -1     22563-3.27770E+00 2.23207E+00 2.60525E+00
 -1     22564-1.67358E+01 6.39138E+00-1.22039E+01
 -1     22565-6.89155E+00-5.25609E+00 4.95050E-01
 -1     22566-6.22166E+00-5.56955E+00-1.71183E-01
 -1     22567-6.87834E+00-5.92336E+00-7.02620E-01
 -1     22568-4.17974E+00-3.65573E+00-6.66557E-01
 -1     22569-6.49860E+00-2.36459E-01-7.51679E-01
 -1     22570-1.08280E+01-5.04311E+00 1.74638E+00
 -1     22571-1.23203E+01-3.18818E+00 6.15762E-01
 -1     22572-7.48881E+00-5.37935E+00-2.05041E-01
 -1     22573-2.91699E+00 1.88487E+00 1.46797E+01
 -1     22574-9.35018E+00-1.52400E+00-6.67322E-01
 -1     22575-3.81953E+00 1.66689E+00-1.08532E-01
 -1     22576-5.50412E+00-2.31992E+00 2.61163E+00
 -1     22577-9.86693E+00-3.60545E+00 3.22206E-03
 -1     22578-4.98509E+00-9.64286E-01 1.13293E+00
 -1     22579-5.42019E+00-5.95534E+00 6.46743E-01
 -1     22580-1.75068E+00 5.13606E-01 1.56176E+00
 -1     22581-8.60510E+00-2.29809E-01-2.41708E+00
 -1     22582-7.38253E+00-6.53612E+00-9.48488E-01
 -1     22583-6.90620E+00-5.67621E+00-1.16422E-01
 -1     22584-7.55413E+00-5.85601E+00-6.02851E-01
 -1     22585-7.85245E+00-4.86787E+00-3.95658E-01
 -1     22586-8.63251E+00-5.54844E+00-3.63078E-01
 -1     22587-7.89011E+00-1.38652E+00-2.84649E+00
 -1     22588-8.30389E+00-1.42444E+00-1.06996E-01
 -1     22589-7.23136E+00-2.30164E+00-1.54509E+00
 -1     22590-8.67689E+00-4.84416E+00-5.48656E-01
 -1     22591-5.93241E+00 2.59470E+00 2.56737E+00
 -1     22592-5.49793E+00 3.92448E+00 9.76081E-01
 -1     22593-8.66507E+00-9.47798E-01-1.03410E+00
 -1     22594-6.15488E+00-5.35287E+00-2.13214E+00
 -1     22595 9.84708E+00-2.82887E-01-4.15854E+00
 -1     22596-5.27427E-01-4.85556E-01 8.56266E-01
 -1     22597 4.17650E+00 9.68846E+00 8.31401E+00
 -1     22598 8.76911E+00 5.45622E+00 2.51245E+00
 -1     22599-5.06729E+00 7.03511E+00-6.74532E+00
 -1     22600-9.18335E+00-5.95298E+00 5.42828E-01
 -1     22601 3.31984E+01-1.28549E+01-7.11351E+00
 -1     22602-2.18033E+00 2.72611E+00 1.33806E+01
 -1     22603 4.27250E+01-5.27588E+01-2.36500E+00
 -1     22604-6.14026E+00-5.24191E+00-5.02634E-01
 -1     22605-5.19979E+00-4.97037E+00 1.01302E+00
 -1     22606-8.89726E+00-1.61420E+00 2.30473E+00
 -1     22607-8.47729E+00-1.54602E+00 3.55845E+00
 -1     22608-1.47032E+00 1.87823E+00 7.68970E-01
 -1     22609-5.39385E+00-6.78711E+00 9.19873E-01
 -1     22610 5.43465E+01 3.64392E+00 4.70133E+00
 -1     22611-6.62914E+00-6.40199E+00-8.15684E-01
 -1     22612-6.17227E+00-6.29897E+00-1.22055E-01
 -1     22613-5.28032E+00-5.16619E+00 1.25742E+00
 -1     22614-4.74900E+00 5.42779E-01 2.51649E+00
 -1     22615-6.27929E+00-6.88093E+00-2.46625E-01
 -1     22616-5.27750E-10 2.84731E-10-7.52403E+00
 -1     22617 3.70451E-10-2.32736E-10-5.65841E+00
 -1     22618-7.66637E-11-6.52641E-10-9.98392E+00
 -1     22619-2.20987E-10 1.04509E-10-1.06487E+01
 -1     22620-2.75055E-10 5.28927E-11-1.20832E+01
 -1     22621-5.17989E-12-2.78472E-11-1.18112E+01
 -1     22622 2.34521E-10 3.11951E-10-1.29075E+01
 -1     22623 5.01507E-11-8.41017E-11-1.24581E+01
 -1     22624-2.44844E-10 4.00505E-10-1.31700E+01
 -1     22625 8.88694E-12-5.72480E-10-1.32199E+01
 -1     22626 2.97081E-10 1.31921E-10-1.32973E+01
 -1     22627-1.62007E-10 1.97413E-11-1.34090E+01
 -1     22628-3.98086E-11 1.37443E-10-1.31724E+01
 -1     22629-2.49040E-10 2.17556E-10-1.34150E+01
 -1     22630 9.15925E-12-1.74752E-11-1.22137E+01
 -1     22631 3.05678E-11-9.68662E-14-1.29975E+01
 -1     22632-5.44940E-11-1.91458E-10-1.20309E+01
 -1     22633 3.73666E-10-7.02902E-11-1.25842E+01
 -1     22634 8.57708E-11 9.85427E-11-1.12276E+01
 -1     22635 8.10083E-11-3.25327E-10-1.14721E+01
 -1     22636 4.38102E-12-3.54593E-11-1.01600E+01
 -1     22637 5.35334E-11-7.69534E-11-1.02546E+01
 -1     22638-2.37472E-11 1.89562E-12-8.57992E+00
 -1     22639 5.84571E-11-1.83572E-11-9.04969E+00
 -1     22640 1.74648E-11-2.25070E-11-7.07834E+00
 -1     22641 1.54574E-11 5.65364E-11-7.35307E+00
 -1     22642-3.23362E-11 4.21101E-11-5.91711E+00
 -1     22643 2.93280E-11-4.30393E-11-6.22477E+00
 -1     22644-2.39665E-11-1.38552E-11-6.25774E+00
 -1     22645 9.13819E-12 3.13338E-11-5.98047E+00
 -1     22646 2.24666E-11 9.46041E-12-6.51496E+00
 -1     22647-8.36907E-12 1.12489E-11-7.70227E+00
 -1     22648-8.97786E-13-2.19311E-12-5.03895E+00
 -1     22649 1.36853E-11 1.15354E-11-8.48077E+00
 -1     22650 6.83413E-12 3.99283E-13-6.61579E+00
 -1     22651-3.46441E-12-3.60054E-12-8.93659E+00
 -1     22652-1.93105E-11 3.88520E-12-6.02877E+00
 -1     22653 2.78999E-12-6.92406E-14-9.34928E+00
 -1     22654-2.35507E-12 1.58246E-12-7.57705E+00
 -1     22655 5.91870E-12-2.78183E-12-8.12408E+00
 -1     22656-1.06913E-12 3.41020E-12-5.71704E+00
 -1     22657-2.50257E-12-1.18491E-12-6.96319E+00
 -1     22658 2.59298E-14-3.21983E-12-4.10134E+00
 -1     22659 8.77275E-13-4.24157E-13-5.67457E+00
 -1     22660-2.66057E-12 2.92307E-12-6.32690E+00
 -1     22661 1.54597E-12 6.41237E-13 5.31393E-01
 -1     22662-1.87675E-15-1.64238E-13-2.58729E+00
 -1     22663 9.61065E-13 7.49522E-13 3.88124E+00
 -1     22664 1.77859E-12 2.87956E-13 6.16335E-01
 -1     22665 1.04161E-12 5.19182E-13 1.26789E+01
 -1     22666 1.16037E-12-1.63938E-12 5.57105E+00
 -1     22667 3.93782E-13-1.43442E-12 1.22051E+01
 -1     22668 5.12783E-13 4.00418E-13 1.60297E+01
 -1     22669 3.50597E-12 5.33998E-12 1.84801E+01
 -1     22670 2.93703E-13-6.04357E-12 4.21246E+01
 -1     22671 9.76497E-13-2.90463E-12 4.92667E+01
 -1     22672-1.06143E-11 1.62829E-11 1.92172E+01
 -1     22673-3.18964E-11 3.05707E-11 1.34235E+01
 -1     22674 2.94644E-11-2.51646E-11 1.18323E+01
 -1     22675 5.12856E-12-1.62154E-10 1.12040E+01
 -1     22676 1.28217E-11 1.63475E-11 1.13131E+01
 -1     22677 6.38237E-11-5.89783E-11 1.10815E+01
 -1     22678-1.59202E-11-5.15153E-11 1.11471E+01
 -1     22679 3.71958E-10-3.64277E-11 1.08387E+01
 -1     22680-1.70152E-10 1.88688E-10 1.10230E+01
 -1     22681 1.07727E-10-2.77948E-10 1.07309E+01
 -1     22682-1.35150E-10-6.65122E-11 1.08036E+01
 -1     22683-1.23373E-10 1.43832E-10 1.03948E+01
 -1     22684-2.66094E-10-1.08308E-10 1.05201E+01
 -1     22685 1.02214E-10-3.99859E-11 9.97278E+00
 -1     22686 8.95971E-11-6.13358E-11 1.00167E+01
 -1     22687 5.60437E-10-3.20315E-11 8.65610E+00
 -1     22688-3.52792E-10 1.40391E-10 9.39942E+00
 -1     22689 7.11635E-11-1.11270E-10 7.78426E+00
 -1     22690-2.69819E-10-7.02726E-10 8.04845E+00
 -1     22691 2.68401E-10-5.85265E-10 6.44543E+00
 -1     22692-2.63086E-11-4.09215E-10 7.42019E+00
 -1     22693-7.65425E-10 1.17068E-09 6.47383E+00
 -1     22694 8.67944E-10 1.21269E-09 4.95184E+00
 -1     22695-5.71794E-11-8.88293E-11-1.71007E+00
 -1     22696-3.67924E-10 3.88825E-10 6.45548E+00
 -1     22697-8.32537E-11 7.60653E-11 1.63336E-01
 -1     22698 7.94381E-11 2.25980E-10-5.81851E+00
 -1     22699-7.27834E-10 4.91949E-10-9.69392E-01
 -1     22700 1.88192E-11 2.47158E-10-8.12735E+00
 -1     22701 1.48727E-10 1.06228E-09-8.58409E+00
 -1     22702-6.34788E-10 2.00011E-10-6.32768E+00
 -1     22703 6.26657E-10-6.87176E-10-4.42572E+00
 -1     22704-6.66583E-10-3.70232E-10-3.40187E+00
 -1     22705 1.88618E-10-1.82227E-10-9.17783E+00
 -1     22706-3.48293E-10 3.46953E-10-8.62486E+00
 -1     22707-5.36747E-10-1.71421E-10-1.13623E+01
 -1     22708-2.74354E-10 5.64167E-11-1.10447E+01
 -1     22709 1.02333E-10-9.64435E-11-1.28273E+01
 -1     22710 2.95467E-10 7.67853E-11-1.21948E+01
 -1     22711-2.41227E-11 1.24675E-09-1.30461E+01
 -1     22712 9.98335E-11-1.57817E-10-1.29220E+01
 -1     22713 2.10251E-10 2.66110E-10-1.37162E+01
 -1     22714 1.11011E-10 1.51544E-11-1.31126E+01
 -1     22715-3.78238E-11-2.51141E-10-1.32176E+01
 -1     22716 2.57093E-11 2.68357E-10-1.36761E+01
 -1     22717-1.98866E-10 2.93896E-10-1.30033E+01
 -1     22718-2.42781E-11 2.37014E-10-1.32796E+01
 -1     22719 1.08146E-10-9.01369E-11-1.21739E+01
 -1     22720 9.61670E-11 1.04348E-10-1.32626E+01
 -1     22721-7.83906E-12-1.56590E-10-1.16846E+01
 -1     22722 4.82277E-11 1.35347E-10-1.20134E+01
 -1     22723 1.30120E-10 6.58590E-13-1.07201E+01
 -1     22724-1.12307E-10-3.40579E-11-1.07298E+01
 -1     22725 1.09687E-11-2.14557E-11-9.61663E+00
 -1     22726-6.26056E-12-7.95923E-11-9.26597E+00
 -1     22727 8.98892E-11-6.53303E-11-7.76623E+00
 -1     22728-5.60196E-11-4.35387E-11-7.84253E+00
 -1     22729 3.47083E-11-5.47044E-12-6.37565E+00
 -1     22730-2.72856E-11-3.08615E-11-6.76241E+00
 -1     22731-8.45111E-12 2.20093E-11-6.15224E+00
 -1     22732 3.19758E-12 3.57856E-11-5.70412E+00
 -1     22733-2.13913E-12-2.79471E-11-7.17987E+00
 -1     22734 3.27535E-11-8.32143E-12-6.65126E+00
 -1     22735 4.55818E-13-2.25314E-12-4.57410E+00
 -1     22736-1.17191E-12 1.42881E-12-4.81831E+00
 -1     22737-1.01422E-12 8.99827E-12-5.26874E+00
 -1     22738-1.37764E-11-8.00603E-12-7.08033E+00
 -1     22739 2.57485E-12-6.93296E-12-7.99664E+00
 -1     22740 2.04877E-13-2.76789E-12-5.33097E+00
 -1     22741-6.57775E-12 3.70003E-11-7.28234E+00
 -1     22742-7.16374E-12 6.67042E-13-8.34455E+00
 -1     22743-5.21787E-12-3.83326E-12-6.69763E+00
 -1     22744 3.18920E-12-4.86793E-12-6.64828E+00
 -1     22745-4.52076E-12 2.33253E-12-9.53787E+00
 -1     22746-4.60957E-13 2.04789E-12-5.51400E+00
 -1     22747-1.32182E-13-3.13132E-12-8.57602E+00
 -1     22748-2.04156E-12 1.51167E-12-7.11648E+00
 -1     22749-3.09062E-12-1.72176E-12-5.60092E+00
 -1     22750 3.31100E-13-1.07356E-12-7.28077E+00
 -1     22751 4.65672E-13-3.96743E-13-2.68301E+00
 -1     22752-4.00386E-13 2.79128E-13-2.81333E+00
 -1     22753 2.27999E-13-2.53623E-13 4.76826E+00
 -1     22754-5.56230E-13 2.66728E-13-9.96105E-01
 -1     22755 1.51246E-12-3.00423E-13 1.01319E+01
 -1     22756 1.33980E-12-5.10814E-13 6.52773E-01
 -1     22757-1.56420E-13-1.70823E-13 4.30334E+00
 -1     22758 3.39173E-13 7.88598E-13 1.30078E+01
 -1     22759 1.30673E-10-4.39221E-11 1.15595E+01
 -1     22760-1.99425E-11 7.79489E-11 1.04164E+01
 -1     22761-4.03238E-11 5.75672E-11 1.13171E+01
 -1     22762 2.49454E-11-1.06671E-11 1.20032E+01
 -1     22763 8.81643E-12-6.64876E-12 2.87273E+01
 -1     22764 7.56087E-11-5.63215E-11 1.20291E+01
 -1     22765-1.21954E-11-1.88639E-11 1.09400E+01
 -1     22766 2.01209E-10-2.42604E-11 1.02101E+01
 -1     22767-1.23185E-11-5.90422E-12-2.57767E+00
 -1     22768-1.97238E-10 4.55200E-11 1.10412E+01
 -1     22769-7.06297E-11 8.64645E-11 1.11695E+01
 -1     22770-2.13391E-11-2.46101E-10 1.07782E+01
 -1     22771-1.87625E-12 1.80221E-10 1.10294E+01
 -1     22772 3.22551E-10 2.10720E-10 1.05537E+01
 -1     22773 8.24403E-12 1.80063E-11 1.06920E+01
 -1     22774 2.36361E-10 4.11540E-10 1.03425E+01
 -1     22775-6.39039E-11-6.77956E-12 1.01275E+01
 -1     22776 2.76825E-10-9.97000E-11 9.35825E+00
 -1     22777-8.33171E-11-1.25529E-10 9.48816E+00
 -1     22778 2.92424E-10 2.63510E-10 8.20671E+00
 -1     22779 9.00517E-11-2.58342E-10 8.74743E+00
 -1     22780-1.83345E-10 6.50184E-11 6.92766E+00
 -1     22781-3.22398E-10 2.46994E-10 7.33916E+00
 -1     22782-1.18034E-10 3.01850E-10 5.45939E+00
 -1     22783 3.13616E-10 1.51730E-10 6.92423E+00
 -1     22784 1.03721E-09 8.19205E-10 1.38982E+00
 -1     22785-1.26006E-10-7.51776E-10 5.06397E+00
 -1     22786 1.51123E-10-2.36331E-10-1.12702E+01
 -1     22787 3.12242E-10 7.03797E-10-6.82053E+00
 -1     22788-2.18483E-10 2.84771E-10-4.55376E+00
 -1     22789-3.73538E-10 2.72433E-11-9.38181E+00
 -1     22790 3.81765E-10 9.38016E-10-9.08492E+00
 -1     22791-1.19518E-10 5.60152E-10-6.53132E+00
 -1     22792-5.50731E-10-1.48554E-09-9.74476E+00
 -1     22793 3.03712E-10-2.72547E-10-6.83148E+00
 -1     22794 2.65008E-10-9.23048E-11-5.64106E+00
 -1     22795-1.04005E-09-9.17826E-11-5.21828E+00
 -1     22796 9.41560E-11 2.49356E-10-5.84572E+00
 -1     22797 4.13494E-10-5.97940E-11-1.25552E+01
 -1     22798-9.84335E-11-2.29184E-10-1.18222E+01
 -1     22799-3.94542E-11 1.95401E-10-6.99429E+00
 -1     22800 1.12839E-10 3.63704E-10-1.07597E+01
 -1     22801 2.78834E-10 3.45593E-10-1.15383E+01
 -1     22802 2.89402E-10-2.11809E-10-1.21426E+01
 -1     22803 2.27304E-10-2.68064E-10-1.25928E+01
 -1     22804-2.69343E-10 6.45671E-10-1.24947E+01
 -1     22805-7.58347E-11-2.18370E-10-1.23892E+01
 -1     22806 1.38100E-10 6.71702E-11-1.22956E+01
 -1     22807-2.34558E-10 1.57543E-10-1.17250E+01
 -1     22808-5.13163E-11-1.01707E-11-1.05985E+01
 -1     22809-1.19918E-11 3.19647E-11-9.37437E+00
 -1     22810 1.04832E-11 1.58206E-11-8.41506E+00
 -1     22811 4.18159E-12-9.63082E-12-6.49791E+00
 -1     22812-3.69311E-11 1.11195E-11-6.18303E+00
 -1     22813 4.54758E-12-4.15068E-11-5.98159E+00
 -1     22814 1.24883E-11-2.09707E-11-6.52313E+00
 -1     22815 2.30920E-12-3.25959E-14-7.60533E+00
 -1     22816-1.75927E-12 1.32560E-12-8.74407E+00
 -1     22817-9.23880E-13 2.74032E-12-1.25266E+01
 -1     22818 1.18577E-13 6.81015E-13-7.03245E+00
 -1     22819 6.52174E-13-1.16518E-12-3.54164E+00
 -1     22820 7.03566E-13-1.12850E-12 5.12753E+00
 -1     22821-1.66205E-12-1.01294E-13 1.18252E+01
 -1     22822 1.07164E-10-5.22270E-13 1.07239E+01
 -1     22823-8.09132E-11-1.36413E-11 1.01145E+01
 -1     22824 6.83975E-11 4.23097E-11 1.01661E+01
 -1     22825-2.53724E-10-3.11959E-10 9.86519E+00
 -1     22826-3.91011E-10-1.59198E-10 9.60662E+00
 -1     22827-2.39636E-10-3.34534E-11 9.09681E+00
 -1     22828-5.60545E-10 9.79899E-10 8.05770E+00
 -1     22829-4.68404E-10-8.72857E-10 6.98184E+00
 -1     22830 5.69981E-10 2.39997E-10 6.98395E+00
 -1     22831 2.46707E-10 2.94853E-09 3.14989E+00
 -1     22832 2.42349E-10-2.14727E-09-8.41957E+00
 -1     22833 1.36661E-09 5.06604E-10-5.04290E+00
 -1     22834-1.25012E-10 1.74855E-10-1.27221E+01
 -1     22835-1.74554E-10 2.85415E-10-1.26897E+01
 -1     22836 2.88646E-10-9.69192E-10-1.23956E+01
 -1     22837-4.07475E-11-7.86225E-11-1.21025E+01
 -1     22838-3.83255E-11 2.38589E-10-1.15490E+01
 -1     22839-2.37379E-11 2.87502E-10-1.04331E+01
 -1     22840 2.27344E-12 6.25535E-11-8.87758E+00
 -1     22841-1.70013E-11-3.61889E-11-7.65106E+00
 -1     22842-1.68934E-11-3.18569E-11-6.09971E+00
 -1     22843 3.56846E-13-2.68185E-11-5.75111E+00
 -1     22844-4.59536E-13-1.22622E-11-7.29908E+00
 -1     22845 3.93112E-13-2.32159E-11-7.12156E+00
 -1     22846 1.17569E-12 1.05097E-12-7.87048E+00
 -1     22847-5.65697E-14 4.09357E-13-3.01648E+00
 -1     22848 4.97766E-13 4.38703E-13-1.62371E+00
 -1     22849-2.46245E-13 1.63398E-12 9.45169E+00
 -1     22850-1.06856E-12 3.46299E-13 1.89824E+01
 -1     22851-5.53312E-11 2.34214E-11 1.03651E+01
 -1     22852 1.27879E-10-2.72701E-10 9.72888E+00
 -1     22853 1.54651E-10 1.05009E-10 9.04788E+00
 -1     22854-1.27474E-10 6.01257E-10 8.32721E+00
 -1     22855-1.76646E-10-2.62711E-10 7.52995E+00
 -1     22856 1.57609E-10 1.91395E-11 6.93421E+00
 -1     22857-3.35896E-10 2.49621E-09 6.80753E+00
 -1     22858 8.73909E-11-3.99965E-10 3.40183E+00
 -1     22859 1.20322E-10 4.97141E-10-8.98797E+00
 -1     22860-2.01849E-12 3.75438E-12-8.36534E+00
 -1     22861 1.73523E-12 5.35726E-13-8.92778E+00
 -1     22862 1.17822E-11 3.00916E-12 1.11259E+01
 -1     22863 4.22389E-10-5.85702E-10 1.01057E+01
 -1     22864 1.53046E-10 1.15351E-10 1.02482E+01
 -1     22865 5.95703E-10 7.25984E-10-1.02941E+01
 -1     22866 5.35817E-10 2.94792E-10-9.60589E+00
 -1     22867-9.40638E-10-2.98577E-09 2.50720E-01
 -1     22868-4.44548E-10-1.73604E-09-1.04897E+01
 -1     22869 9.09983E-10 1.44625E-09-1.07241E+01
 -1     22870 3.51724E-10 2.52090E-09-7.08714E+00
 -1     22871 1.04810E-09 1.96700E-10-5.98089E+00
 -1     22872 4.31352E-10 4.19827E-10-1.14956E+01
 -1     22873 4.50170E-10-5.27976E-11-1.13932E+01
 -1     22874-2.27236E-10 7.54867E-11-1.03169E+01
 -1     22875 1.91190E-10-3.66009E-10-1.03331E+01
 -1     22876 3.09799E-10-8.78783E-11-9.61976E+00
 -1     22877-2.09475E-09-1.52061E-09-9.63455E+00
 -1     22878 1.40641E-10-2.40241E-10-1.12224E+01
 -1     22879 2.30579E-10 1.93887E-10-1.17064E+01
 -1     22880-5.40518E-11-8.75493E-11-1.10671E+01
 -1     22881 1.03891E-09-2.56343E-10-1.28193E+01
 -1     22882-1.40322E-11 1.69789E-10-1.12346E+01
 -1     22883 3.04665E-10-2.68259E-10-1.07711E+01
 -1     22884-4.98771E-11 1.12923E-10-1.11144E+01
 -1     22885-2.11859E-10-2.59905E-10-1.00032E+01
 -1     22886-8.91534E-11 1.65460E-10-1.03156E+01
 -1     22887-3.09227E-10 1.04694E-10-9.60127E+00
 -1     22888-1.47533E-11-2.26283E-11-9.31491E+00
 -1     22889-1.77335E-11 1.54529E-10-8.98148E+00
 -1     22890 7.44478E-11-3.57398E-11-7.97930E+00
 -1     22891 3.26070E-11 1.69364E-11-8.31236E+00
 -1     22892 1.59057E-12 8.92182E-11-6.96817E+00
 -1     22893 1.65177E-10 2.45362E-10-7.24938E+00
 -1     22894 3.73286E-11-4.76474E-11-6.36905E+00
 -1     22895 4.13821E-11 4.85634E-11-5.93918E+00
 -1     22896-6.84071E-12 2.75140E-11-8.43639E+00
 -1     22897 5.83003E-12-2.77853E-11-7.46159E+00
 -1     22898-2.61181E-12-9.54003E-12-6.59747E+00
 -1     22899-2.75343E-12 2.34452E-12-5.65044E+00
 -1     22900-8.87253E-12-2.65802E-11-5.91686E+00
 -1     22901-6.47763E-13-3.98881E-11-9.69499E+00
 -1     22902-1.20859E-11-3.63840E-11-6.74803E+00
 -1     22903 9.32265E-12 3.97671E-13-6.28206E+00
 -1     22904 1.85341E-11-2.01398E-11-7.30211E+00
 -1     22905 4.54214E-11 6.14507E-11-7.29572E+00
 -1     22906 5.83386E-13 6.98960E-12-4.19412E+00
 -1     22907 1.55762E-11 1.71212E-11-3.14648E+00
 -1     22908-2.24002E-12 2.25828E-12-7.05102E+00
 -1     22909 1.58458E-11-4.95147E-12-6.58265E+00
 -1     22910 1.75191E-10 7.70026E-11 1.28740E+01
 -1     22911 5.40007E-11-4.15020E-12 1.80553E+01
 -1     22912-1.18334E-12-2.33568E-12-2.95081E+00
 -1     22913 3.27396E-13-1.31476E-11-4.15463E+00
 -1     22914 6.26142E-12 1.16245E-11-8.57621E+00
 -1     22915 1.29012E-11 2.48946E-11-6.79651E+00
 -1     22916 1.11407E-11-2.28866E-11-6.54275E+00
 -1     22917 2.36969E-11 5.78153E-11-7.52772E+00
 -1     22918 2.96906E-11-2.98740E-11-7.88334E+00
 -1     22919-6.63342E-12-3.25423E-12-1.61433E+00
 -1     22920 4.11886E-12 5.97887E-12-1.43035E+00
 -1     22921 2.90799E-12 3.30617E-13 3.39064E+00
 -1     22922 1.06822E-12 3.02343E-12 4.13943E-02
 -1     22923-5.46915E-14 3.69885E-12 1.12242E+01
 -1     22924-4.85301E-12 2.92179E-13 3.86097E+00
 -1     22925-2.53860E-11-3.50760E-12 3.06314E+01
 -1     22926 1.48306E-12-1.48819E-12 1.11645E+01
 -1     22927-9.99390E-12-1.98433E-11 1.10549E+01
 -1     22928-2.91087E-11 1.90048E-11 1.08361E+01
 -1     22929-2.01224E-11 1.09489E-11 6.29386E+00
 -1     22930 3.64366E-12-1.95314E-12 6.47920E+00
 -1     22931-6.72970E-11 1.96879E-11-2.25989E-01
 -1     22932 4.10086E-11-2.20855E-11 3.22143E+01
 -1     22933-3.17076E-11-2.61903E-10 9.03215E+00
 -1     22934 6.67013E-11 1.86489E-11 9.13350E+00
 -1     22935-5.78303E-11 3.38258E-10 9.94304E+00
 -1     22936-1.83686E-10-4.37593E-11 9.98789E+00
 -1     22937-2.37560E-10-1.89859E-10 8.42602E+00
 -1     22938-2.69137E-10-1.95261E-10 8.60265E+00
 -1     22939 7.83495E-11 2.24770E-10 9.28091E+00
 -1     22940 2.03284E-10 4.41637E-11 1.03667E+01
 -1     22941 1.59619E-10 8.23845E-11 9.06127E+00
 -1     22942-2.07210E-10 4.09404E-10 8.81182E+00
 -1     22943 1.09037E-10 6.72916E-10 9.34858E+00
 -1     22944 6.63898E-10-6.14456E-12 8.38100E+00
 -1     22945 1.76524E-10-5.05443E-11 7.55691E+00
 -1     22946-3.14599E-10-2.53744E-10 8.13027E+00
 -1     22947 4.24695E-11 5.49159E-10 6.82985E+00
 -1     22948-7.91456E-11 7.69332E-11 7.33559E+00
 -1     22949-2.81269E-10 1.27003E-09 6.02888E+00
 -1     22950-2.04145E-09-1.32319E-09 5.89256E+00
 -1     22951-4.95156E-10-4.64110E-10 4.08366E+00
 -1     22952-3.65390E-10-7.60828E-10 3.95140E+00
 -1     22953-1.39308E-09 2.72634E-09-4.91977E-01
 -1     22954 1.37259E-10 1.35649E-10 2.78665E+00
 -1     22955 1.47129E-09 3.65449E-09-2.73843E+00
 -1     22956 8.55367E-10 1.91147E-09-1.53100E+00
 -1     22957-2.04191E-09 1.85444E-10 4.13446E+00
 -1     22958-7.58795E-11 6.37269E-10 1.32852E+00
 -1     22959-2.20825E-10-9.59243E-10-4.65444E+00
 -1     22960-2.57092E-09-4.32947E-10-1.21380E+00
 -1     22961 6.24113E-10-9.17881E-11-9.84502E+00
 -1     22962-3.96800E-10 1.24745E-09-9.08772E+00
 -1     22963-6.25291E-11-2.70504E-10-8.99600E+00
 -1     22964-5.11815E-10-8.70264E-10-6.39389E+00
 -1     22965 3.25519E-11 2.85710E-10-4.23734E+00
 -1     22966 1.30929E-09-2.53024E-09-7.38509E+00
 -1     22967 1.46455E-09-4.07540E-10-5.25556E+00
 -1     22968-3.65434E-12 2.19071E-12-5.94688E+00
 -1     22969 1.52373E-12-3.42345E-12-6.90424E+00
 -1     22970 1.31334E-11 1.13248E-11-8.04757E+00
 -1     22971-7.32696E-12 1.00030E-11-8.27483E+00
 -1     22972-4.70305E-10-4.51370E-10-1.08505E+01
 -1     22973 1.41717E-10 9.47312E-10-1.08960E+01
 -1     22974-1.64890E-10 2.03577E-10-1.04408E+01
 -1     22975-1.82683E-10 7.69985E-11-1.06284E+01
 -1     22976 1.66138E-10-3.20409E-10-1.13552E+01
 -1     22977 7.95780E-12 3.47089E-10-1.11706E+01
 -1     22978 1.07039E-10-3.69367E-10-1.08210E+01
 -1     22979-2.65115E-11 5.22012E-11-1.09304E+01
 -1     22980-6.06022E-11-7.70140E-11 9.48794E+00
 -1     22981 6.29975E-11-9.17985E-12 9.17957E+00
 -1     22982-6.64237E-11 1.16250E-10 8.52909E+00
 -1     22983-9.92106E-12 1.15630E-09-9.62721E+00
 -1     22984 4.77241E-10-2.15464E-10-8.13285E+00
 -1     22985 1.66459E-09-8.29827E-10-8.86351E+00
 -1     22986 1.59924E-10-1.13030E-11-1.02218E+01
 -1     22987-1.00809E-10 1.55024E-10-1.03398E+01
 -1     22988-3.11607E-10-1.41005E-10-9.73652E+00
 -1     22989-1.39726E-09-3.98512E-10-5.69993E+00
 -1     22990-3.44863E-13-4.80085E-10-1.11015E+01
 -1     22991-1.78298E-12 3.90092E-10-1.09730E+01
 -1     22992-4.32648E-11 1.88716E-10-1.09529E+01
 -1     22993-1.05031E-10 4.87814E-11-1.10326E+01
 -1     22994-1.04079E-10 2.43527E-10-1.11742E+01
 -1     22995 8.72418E-11 2.35793E-10-1.09126E+01
 -1     22996 1.56301E-11 2.13646E-10-1.10298E+01
 -1     22997 7.77987E-11 1.66825E-10-1.05550E+01
 -1     22998-2.04776E-10-5.66757E-11-1.07434E+01
 -1     22999 6.44558E-11-2.04628E-10-1.00641E+01
 -1     23000-9.74828E-12 1.89279E-10-9.06362E+00
 -1     23001 7.03599E-11-2.17031E-10-9.32794E+00
 -1     23002 4.60712E-11-4.15989E-11-8.58910E+00
 -1     23003 5.76888E-11-9.54312E-11-8.14118E+00
 -1     23004 1.45837E-10 4.82508E-11-6.63565E+00
 -1     23005 8.45829E-11 8.80174E-11-7.70613E+00
 -1     23006-2.38155E-11-6.88631E-11-6.53471E+00
 -1     23007-3.90420E-11 3.73196E-12-6.52104E+00
 -1     23008 2.36983E-12 1.10626E-13-3.84519E+00
 -1     23009-7.44712E-12 1.82425E-11-5.04897E+00
 -1     23010-2.25697E-12-7.83749E-13-2.92894E+00
 -1     23011 1.83823E-12 4.58701E-11-6.73599E+00
 -1     23012 1.02201E-11-3.95278E-11-6.65713E+00
 -1     23013-1.86157E-11-9.26620E-12-6.78673E+00
 -1     23014-2.78687E-11-1.27084E-11-6.76191E+00
 -1     23015 4.84324E-12 3.95017E-12-6.96442E+00
 -1     23016 3.33402E-11 9.89465E-12-7.56381E+00
 -1     23017-2.74680E-12 7.78277E-12 3.88956E+00
 -1     23018 1.01635E-11 1.44069E-12-3.06381E+00
 -1     23019-6.73741E-14 6.71023E-13 3.57573E+00
 -1     23020 5.83544E-12-1.83659E-11 1.06655E+01
 -1     23021-2.86909E-12 7.80158E-11 1.14408E+01
 -1     23022 2.88485E-11 8.92601E-11 1.08650E+01
 -1     23023-2.06009E-10 8.60343E-11-1.05631E+01
 -1     23024-6.87548E-13-5.05408E-12-4.49135E+00
 -1     23025-1.25122E-10-2.51288E-11 1.15895E+01
 -1     23026-9.51982E-13-5.75632E-12 2.46089E+00
 -1     23027-8.38815E-12-8.66810E-12 8.72121E-01
 -1     23028-7.01335E-13 3.59098E-13 7.38301E+00
 -1     23029 6.35490E-11-1.46905E-11-5.98524E+00
 -1     23030 4.80089E-12-2.53058E-12-1.38454E+00
 -1     23031 2.12952E-12 2.74364E-12 4.75886E+00
 -1     23032 9.47194E-14 1.19814E-13 1.10796E+01
 -1     23033-4.51544E-12-1.33852E-12 6.88729E+00
 -1     23034 7.08814E-11-1.60556E-10 9.68429E+00
 -1     23035-6.76227E-11-5.12250E-11 1.00556E+01
 -1     23036 4.02954E-11 2.78049E-11 9.47027E+00
 -1     23037-3.63126E-10 3.69593E-11 9.67134E+00
 -1     23038-3.85131E-11-6.32499E-13 8.82921E+00
 -1     23039-3.89097E-10 2.43763E-10 9.44706E+00
 -1     23040-5.38313E-10-2.60500E-10 8.36077E+00
 -1     23041 6.55806E-11 5.45345E-13 8.95283E+00
 -1     23042 8.63372E-10-2.29654E-09 9.08977E+00
 -1     23043 7.67990E-10-6.26463E-10 7.37070E+00
 -1     23044-2.97602E-10 7.61660E-11 7.23601E+00
 -1     23045 1.77016E-10-6.40996E-10 8.03168E+00
 -1     23046-2.39292E-10 7.33788E-10 9.40224E+00
 -1     23047-7.51057E-10 1.44402E-10 7.46187E+00
 -1     23048 1.14181E-10-1.63995E-10 8.07516E+00
 -1     23049-2.05495E-09 2.67910E-09 7.81212E+00
 -1     23050 3.32230E-10 3.01506E-11 6.33194E+00
 -1     23051-1.12751E-10 1.13035E-10 4.98813E+00
 -1     23052-5.66216E-10 4.80902E-11 5.54665E+00
 -1     23053 2.78401E-09-1.09071E-09 5.51711E+00
 -1     23054-2.01528E-09 6.45881E-10 5.34853E+00
 -1     23055 7.80012E-10 1.40316E-09 3.35671E+00
 -1     23056 1.15488E-10 2.91148E-10 3.69071E+00
 -1     23057-4.08880E-09-3.08810E-09 3.49813E+00
 -1     23058 1.89971E-09-1.14181E-09 3.05745E+00
 -1     23059 1.37932E-10-4.63726E-11 8.68447E+00
 -1     23060-1.78722E-11 2.03009E-10-4.48844E+00
 -1     23061 3.80834E-10-8.96301E-10-5.74917E+00
 -1     23062 9.41688E-11 9.55049E-10-5.57892E+00
 -1     23063 1.72726E-09 1.06225E-09-8.70348E+00
 -1     23064 2.68761E-09 2.37101E-09-7.23782E+00
 -1     23065-6.55118E-11-5.25612E-11-6.71775E+00
 -1     23066 4.06584E-11-8.57159E-13-6.88500E+00
 -1     23067-1.25232E-11 5.32456E-11-9.68476E+00
 -1     23068 1.15062E-09-8.81594E-11-6.47713E+00
 -1     23069 1.64999E-09 5.08098E-10-4.94989E+00
 -1     23070-4.72189E-10-1.13577E-10 6.83461E+00
 -1     23071-1.71838E-09 9.86871E-10-9.07589E+00
 -1     23072-1.33926E-10-6.88155E-11 9.18225E+00
 -1     23073-1.04803E-11-1.01043E-11 2.03232E+00
 -1     23074 2.58803E-10-2.10445E-11-6.37581E+00
 -1     23075 6.44950E-11 1.37763E-10-7.35565E+00
 -1     23076 2.02364E-10-1.60145E-10-8.39083E+00
 -1     23077-1.98011E-10 2.76598E-10-7.07661E+00
 -1     23078 7.36640E-10-2.52077E-10-1.13271E+01
 -1     23079 1.05743E-11-1.51396E-11-7.74658E+00
 -1     23080 1.09278E-11 4.11513E-10-1.06174E+01
 -1     23081-7.15760E-11 4.51822E-12-9.25666E+00
 -1     23082-3.09878E-11-1.49069E-11-6.18814E+00
 -1     23083-1.02984E-11-4.33126E-14 9.22248E+00
 -1     23084 6.20795E-11-4.55414E-10 7.84236E+00
 -1     23085-6.51160E-10 1.65380E-10 5.84149E+00
 -1     23086-7.27845E-10-2.00775E-12-4.44492E+00
 -1     23087-4.30213E-10-4.17934E-10-8.79082E+00
 -1     23088-3.36098E-11-1.96415E-10-9.61561E+00
 -1     23089 1.36769E-11 6.40092E-11-7.83736E+00
 -1     23090 7.66746E-11-5.76910E-11-8.01782E+00
 -1     23091 7.31301E-11 4.13162E-10-9.10122E+00
 -1     23092 2.49616E-10-3.79432E-11-9.44676E+00
 -1     23093 4.77968E-11-9.61477E-12-8.26928E+00
 -1     23094 7.16666E-11 1.95326E-10-8.26378E+00
 -1     23095-6.43478E-11-1.91026E-10-8.56593E+00
 -1     23096 6.49640E-11 1.56581E-10-8.74884E+00
 -1     23097-1.95990E-09 6.61769E-10-4.83116E+00
 -1     23098-2.33483E-11-9.48230E-12-7.08332E+00
 -1     23099 1.96671E-10 7.43066E-11-6.94728E+00
 -1     23100 2.94041E-10-1.39727E-10-6.58220E+00
 -1     23101 1.22129E-10 2.70485E-10-8.77103E+00
 -1     23102 3.56108E-11-1.05711E-10-9.22881E+00
 -1     23103-2.38558E-10-5.44933E-11-8.03598E+00
 -1     23104 8.87245E-11 2.71303E-10-7.98117E+00
 -1     23105-4.65710E-11 1.86186E-10-8.09161E+00
 -1     23106 3.48716E-10 1.55526E-12-7.73605E+00
 -1     23107 7.52155E-12-2.80786E-11-7.81226E+00
 -1     23108-2.50282E-11 4.51091E-11-7.64715E+00
 -1     23109-4.15898E-11 3.00298E-10-6.18258E+00
 -1     23110-2.69672E-11 4.89800E-11-6.60368E+00
 -1     23111 5.31436E-11-5.39019E-11-6.02181E+00
 -1     23112 8.95632E-12-1.08362E-11-4.13550E+00
 -1     23113-3.03181E-13 4.91514E-12-4.35682E+00
 -1     23114-2.53937E-11 5.12752E-11 8.38753E+00
 -1     23115-1.70174E-11-2.21699E-12 1.04314E+01
 -1     23116 6.28218E-11 6.72051E-11-8.31477E+00
 -1     23117-7.24043E-11-3.18374E-11-9.61300E+00
 -1     23118-1.96300E-10-5.91834E-11-8.21399E+00
 -1     23119 3.33690E-10 4.46895E-10-8.22390E+00
 -1     23120-4.72397E-12 1.50030E-12 4.94085E+00
 -1     23121-2.70053E-12 3.40348E-12 4.14977E+00
 -1     23122-3.47798E-12 1.78024E-11-7.07783E+00
 -1     23123 1.87154E-11-9.00466E-12-5.82120E+00
 -1     23124-1.34384E-11-1.10524E-11-6.94548E+00
 -1     23125 1.72016E-11 7.53080E-11-5.80680E+00
 -1     23126-9.67039E-12 4.57575E-12-4.09733E-01
 -1     23127 6.19032E-12 1.25131E-11-2.42186E+00
 -1     23128 1.08310E-11 3.17709E-12 7.17662E+00
 -1     23129 1.95767E-11-7.96863E-13 7.03715E+00
 -1     23130 3.19119E-13 6.10813E-12 5.31419E+00
 -1     23131-3.31980E-11 1.59637E-11 6.90226E+00
 -1     23132-1.46342E-11-6.17626E-12-4.26270E+00
 -1     23133-3.06398E-11 2.33883E-11-6.98203E+00
 -1     23134 1.40125E-11 2.34376E-12-6.69071E+00
 -1     23135-2.88305E-09-1.02030E-09 4.76989E+00
 -1     23136-5.17124E-10 1.37754E-10 5.03778E+00
 -1     23137-9.63071E-12 4.41144E-11 9.36443E+00
 -1     23138-4.01202E-11 2.71055E-11 9.50388E+00
 -1     23139 3.58542E-11-2.91101E-11-5.13076E+00
 -1     23140 5.41144E-10 6.92163E-10 5.95955E+00
 -1     23141-2.67006E-10 3.47286E-10 6.43099E+00
 -1     23142-1.38108E-10-4.67712E-11-8.91504E+00
 -1     23143 1.23037E-10-2.60261E-10-9.42789E+00
 -1     23144-6.97887E-10 8.60183E-11-8.85417E+00
 -1     23145 5.33994E-11-1.48484E-10-9.29697E+00
 -1     23146-1.17417E-11-1.33663E-12 8.15308E+00
 -1     23147 4.11253E-11-1.33857E-11 1.24660E+01
 -1     23148-2.62786E-11 2.18213E-11 9.36263E+00
 -1     23149 3.82160E-11 2.48755E-11 9.97382E+00
 -1     23150-1.15239E-10 3.21353E-10 7.94809E+00
 -1     23151 1.81039E-09-3.29240E-10 8.22144E+00
 -1     23152-1.66589E-10 2.54457E-11 7.39189E+00
 -1     23153 2.50847E-10 5.04958E-10 7.96750E+00
 -1     23154 3.87547E-10 8.86532E-10 7.21485E+00
 -1     23155 5.35370E-11-3.44640E-10 6.67985E+00
 -1     23156-1.08949E-11 4.22443E-10 6.09909E+00
 -1     23157-4.88707E-10 3.38704E-10 6.86806E+00
 -1     23158-5.37447E-10-1.11314E-10 6.77845E+00
 -1     23159 2.33602E-10-1.36762E-10 6.17486E+00
 -1     23160-2.50907E-09-4.16788E-09-3.51216E+00
 -1     23161-1.98292E-09 7.29996E-09-1.98354E+00
 -1     23162-1.00364E-11 1.80946E-11-1.99608E+00
 -1     23163-3.12619E-11-5.44921E-12-4.11237E+00
 -1     23164-5.82507E-11 2.34363E-11-4.84544E+00
 -1     23165 5.44122E-12-2.68521E-11-3.24663E+00
 -1     23166-1.55997E-10-6.91217E-10 7.16796E+00
 -1     23167 4.71336E-10 3.05164E-10 7.35519E+00
 -1     23168 7.49624E-12-1.53500E-11 6.88234E+00
 -1     23169 1.18659E-09-6.21580E-10 6.40398E+00
 -1     23170 6.00325E-10-5.11836E-10 5.21905E+00
 -1     23171-4.10979E-10-3.70940E-10 5.19595E+00
 -1     23172-9.78056E-10-5.69089E-10 4.78874E+00
 -1     23173-4.10338E-10-3.69282E-10 7.77177E+00
 -1     23174 2.47247E-10 1.33715E-10 8.03391E+00
 -1     23175 2.21329E-10-2.27929E-10 7.05852E+00
 -1     23176 2.91904E-10 6.01898E-10 6.44190E+00
 -1     23177 1.09233E-10-1.41317E-10-8.04915E+00
 -1     23178-1.35606E-10 4.66101E-10-7.95946E+00
 -1     23179 1.45296E-10 7.08691E-11-8.39465E+00
 -1     23180-8.58307E-11-3.76781E-10-1.05729E+01
 -1     23181 2.75273E-10-2.31094E-11-8.75337E+00
 -1     23182 3.39370E-09-5.03543E-09-5.10763E+00
 -1     23183-5.12855E-11 7.93165E-10-3.93080E+00
 -1     23184 9.78456E-11 2.92477E-11 8.12564E+00
 -1     23185-2.43905E-11 3.05437E-11 9.01932E+00
 -1     23186-1.48837E-10 6.45532E-11-9.29775E+00
 -1     23187-1.74797E-10-5.31559E-10-9.23008E+00
 -1     23188-6.95618E-11-4.22704E-10-8.86117E+00
 -1     23189-8.92059E-11-4.28456E-11-6.11517E+00
 -1     23190-6.75119E-11 1.69550E-10-6.36602E+00
 -1     23191 3.97942E-11 7.62827E-11-6.33559E+00
 -1     23192-3.93132E-10 8.94295E-11-7.57904E+00
 -1     23193-1.56221E-10 3.26434E-10-6.79505E+00
 -1     23194-5.53270E-10 7.26564E-10-6.79883E+00
 -1     23195 2.65435E-10 1.03597E-10 8.41346E+00
 -1     23196-6.31143E-11-6.20094E-10 8.60087E+00
 -1     23197-2.71885E-10-5.44276E-11 7.18778E+00
 -1     23198-8.50688E-10 1.94234E-09-7.67902E+00
 -1     23199-8.37935E-10 7.29420E-10-5.83647E+00
 -1     23200-6.99221E-10-2.67598E-10-5.86975E+00
 -1     23201 2.59938E-12-2.61324E-12 3.29900E+00
 -1     23202-8.90416E-13 2.64275E-13 1.85808E+00
 -1     23203 1.79673E-12 4.23634E-12 3.12879E+00
 -1     23204 2.18171E-10 5.41361E-11 8.48920E+00
 -1     23205-1.08437E-10-2.06839E-10 8.84658E+00
 -1     23206 3.74401E-10 3.63630E-10 8.00470E+00
 -1     23207-3.31192E-12 1.68527E-12 1.83513E+00
 -1     23208-5.23366E-12 2.28819E-12-4.29441E-01
 -1     23209 1.00036E-11 2.73596E-11-1.32400E+00
 -1     23210-8.03096E-12 1.57119E-11 5.80554E-01
 -1     23211 2.22476E-10-1.27083E-09-6.64513E+00
 -1     23212-8.50812E-11 4.01907E-11-7.06152E+00
 -1     23213 4.45722E-11 6.02645E-10-9.09834E+00
 -1     23214 1.06084E-10 3.06260E-11-8.99845E+00
 -1     23215 1.26704E-10-1.68050E-10-9.13695E+00
 -1     23216 9.68363E-12 9.61977E-12-6.17815E+00
 -1     23217-9.20832E-12 6.84169E-12-4.90289E+00
 -1     23218-2.73864E-10-3.61607E-10-9.19222E+00
 -1     23219-1.90617E-10-3.98543E-10-9.51855E+00
 -1     23220 6.75099E-10-1.55851E-10-8.90222E+00
 -1     23221-2.04842E-10 1.73687E-12 7.93811E+00
 -1     23222 2.70585E-10 4.00088E-10-7.87521E+00
 -1     23223-1.00935E-11-9.49712E-11-7.25384E+00
 -1     23224-4.27924E-10 2.11859E-10-8.11971E+00
 -1     23225 1.83700E-10-3.27302E-09-5.75097E+00
 -1     23226 1.92389E-10-1.49492E-10-4.80657E+00
 -1     23227 1.39120E-10-4.09335E-09 1.58586E+00
 -1     23228 9.39890E-10 2.96981E-10-1.78159E+00
 -1     23229-1.61904E-10 5.95984E-10-8.42018E+00
 -1     23230-6.22642E-10 1.22869E-09-9.71304E+00
 -1     23231 6.87116E-10-1.13148E-09-9.27164E+00
 -1     23232-4.79524E-11-2.17314E-11-6.73503E+00
 -1     23233 2.85212E-12-1.73182E-10-6.27251E+00
 -1     23234-4.69917E-11-2.13339E-11-7.02381E+00
 -1     23235-1.14038E-11 4.50046E-11 9.10119E+00
 -1     23236 6.24126E-11 5.15544E-11 6.64185E+00
 -1     23237 4.03434E-11 3.33592E-11 9.73035E+00
 -1     23238 2.38565E-09-4.26999E-10 4.21181E+00
 -1     23239 1.50486E-10 7.90556E-10 4.06218E+00
 -1     23240 1.70905E-09 1.39676E-10 4.65056E+00
 -1     23241 2.61348E-10-3.48339E-10-9.61008E+00
 -1     23242 2.19598E-10 2.76860E-10-8.88713E+00
 -1     23243-1.77852E-09-1.63798E-10-8.26188E+00
 -1     23244-6.92358E-11 1.86386E-10-6.28153E+00
 -1     23245-6.00540E-11-1.85941E-11-6.62562E+00
 -1     23246 3.50501E-10-2.98719E-10-8.64956E+00
 -1     23247 1.93248E-10-3.25908E-10-8.52058E+00
 -1     23248 8.35530E-10-5.66359E-10-8.47709E+00
 -1     23249-8.80920E-11-4.75432E-11-9.54741E+00
 -1     23250 2.59913E-11 4.61522E-11-7.08177E+00
 -1     23251-1.03797E-11 2.88769E-11-7.02768E+00
 -1     23252 1.47832E-10-1.90773E-11-9.52285E+00
 -1     23253 3.67156E-11-2.07873E-12 1.19853E+01
 -1     23254-9.14462E-10 3.96547E-09-5.95910E+00
 -1     23255-7.51938E-12 3.51669E-10 6.01721E+00
 -1     23256 2.20944E-10 7.78716E-10 5.84915E+00
 -1     23257 2.85660E-10 2.42932E-09 6.04313E+00
 -1     23258-3.80408E-09 3.34147E-09-4.30976E+00
 -1     23259 5.09750E-10 3.70843E-09-2.40490E+00
 -1     23260 1.15483E-09-5.77169E-10 3.97016E+00
 -1     23261-1.65110E-09 1.76586E-10 2.65686E+00
 -1     23262 4.12030E-10-6.20481E-11 4.70198E+00
 -1     23263-1.07957E-09-3.24982E-11 3.69975E+00
 -1     23264-3.44227E-10 7.41249E-10 3.34781E+00
 -1     23265-8.42873E-10 2.16129E-09 2.94889E+00
 -1     23266 2.42995E-10 2.64518E-10-9.14722E+00
 -1     23267 5.23683E-11 1.74424E-11 8.53345E+00
 -1     23268-7.73113E-10 1.25768E-09-8.99185E+00
 -1     23269 1.32201E-11-2.43907E-11-5.35971E+00
 -1     23270 6.54077E-12 1.40034E-11-5.94950E+00
 -1     23271-4.94294E-12-1.86521E-11-7.97122E+00
 -1     23272 1.93812E-11-1.13042E-11-6.99272E+00
 -1     23273-2.44057E-09 2.36130E-09 4.58411E-01
 -1     23274 1.42134E-11-1.51386E-10-7.89972E+00
 -1     23275 2.38676E-10-3.79539E-11-5.78169E+00
 -1     23276 7.56697E-10-1.75286E-09 1.74539E+00
 -1     23277-2.02042E-10-1.08100E-09 2.81201E+00
 -1     23278 1.73160E-10-1.68729E-09 3.21833E+00
 -1     23279-1.50073E-10-3.36063E-11 5.30100E+00
 -1     23280 2.22365E-09-1.79789E-09-2.83144E+00
 -1     23281-3.35228E-09 2.08351E-09-3.18251E+00
 -1     23282 8.84387E-11 4.24842E-11-7.50375E+00
 -1     23283 4.98170E-11-8.08073E-11-7.52924E+00
 -1     23284 3.65952E-10 3.79642E-10-7.53512E+00
 -1     23285-2.11181E-10-6.46973E-11-8.00423E+00
 -1     23286-5.27624E-11 1.93662E-11 7.69764E+00
 -1     23287 2.53182E-11 9.63342E-12 6.15882E+00
 -1     23288 6.34440E-12-2.70617E-11 4.90535E+00
 -1     23289 1.16471E-09-4.45825E-10-8.01212E+00
 -1     23290 1.11429E-10-9.75244E-10-7.68823E+00
 -1     23291 1.32181E-09 3.74107E-10 1.50771E+00
 -1     23292-4.35967E-12-4.09882E-11-3.60793E+00
 -1     23293 4.49999E-11-5.03752E-11-3.53789E+00
 -1     23294-3.93609E-11-9.71326E-11-5.87969E+00
 -1     23295 4.73623E-10-8.82769E-10-9.29963E+00
 -1     23296-2.14669E-10 5.32868E-10-8.54033E+00
 -1     23297-1.21444E-09 2.30109E-10-7.90067E+00
 -1     23298-5.74296E-11 3.50427E-11-9.19085E+00
 -1     23299-6.90754E-12 1.05866E-10-6.85633E+00
 -1     23300-3.07394E-11 4.34897E-11-7.43394E+00
 -1     23301 2.40682E-10-1.06283E-10 2.64629E+00
 -1     23302-5.92756E-10 1.50519E-10 2.57595E+00
 -1     23303-2.24515E-09-1.38050E-09 3.60780E+00
 -1     23304 5.33355E-10 1.13415E-09 3.60529E+00
 -1     23305 6.83629E-10-1.28489E-09 2.88342E+00
 -1     23306 5.32231E-11 4.61961E-10 3.74168E+00
 -1     23307-9.81948E-11-3.41135E-10 3.01305E+00
 -1     23308-7.91359E-10 3.47130E-11 4.90822E+00
 -1     23309 2.68585E-10 3.53855E-10 5.36262E+00
 -1     23310 3.46164E-10-6.26731E-10 4.02403E+00
 -1     23311 7.38467E-10-1.38141E-09-7.91370E+00
 -1     23312-5.83709E-10-3.36160E-10-7.30164E+00
 -1     23313-1.97311E-10-2.95148E-10-7.06959E+00
 -1     23314-4.19269E-10 1.81776E-09-5.32270E+00
 -1     23315 3.04594E-10-1.24838E-10 7.60273E+00
 -1     23316-2.09907E-10-5.06468E-11 7.31233E+00
 -1     23317 1.84966E-10 1.57685E-09 3.57901E+00
 -1     23318-5.08466E-10-1.49961E-10 3.33747E+00
 -1     23319-1.04864E-10 1.23129E-09 3.04749E+00
 -1     23320 7.00181E-11-1.10656E-10 7.63663E+00
 -1     23321 1.48423E-10-4.53990E-11 8.47208E+00
 -1     23322-7.08240E-12-3.67494E-11 6.82188E+00
 -1     23323 1.08661E-10 4.12171E-10-7.21654E+00
 -1     23324 2.40664E-11 4.07491E-11-6.97725E+00
 -1     23325-4.09672E-11 5.55291E-12-6.47765E+00
 -1     23326 9.38224E-10 1.97171E-09-7.36462E+00
 -1     23327 5.63373E-10 1.91001E-10-6.15524E+00
 -1     23328 8.57058E-10 5.54892E-10-5.29174E+00
 -1     23329 5.06643E-10-2.01674E-09 3.60961E+00
 -1     23330 4.66686E-10-2.21819E-10 3.87476E+00
 -1     23331-6.65602E-10-9.69554E-10 4.14414E+00
 -1     23332-1.63429E-09-1.14969E-09 3.76349E+00
 -1     23333-2.61576E-10-2.42933E-10 6.79354E+00
 -1     23334-1.91369E-10-1.03093E-10 7.21903E+00
 -1     23335-8.60695E-10 5.66042E-10-5.57020E+00
 -1     23336-4.33097E-10 1.45108E-09-6.13276E+00
 -1     23337 1.14001E-10 2.72620E-10-3.88151E+00
 -1     23338 1.52647E-11-9.46032E-12 3.80211E+00
 -1     23339 2.62124E-11 6.27104E-12 2.67573E+00
 -1     23340 1.38350E-10 1.21339E-10 6.95731E+00
 -1     23341 8.23242E-11 6.49889E-11 7.30497E+00
 -1     23342 1.68543E-10-5.70671E-11 5.92476E+00
 -1     23343 9.21770E-12 9.95411E-11-5.47720E+00
 -1     23344 1.08569E-11-8.86909E-11-5.13781E+00
 -1     23345-1.52272E-11 3.77519E-11-5.48395E+00
 -1     23346 3.14960E-11 8.36609E-11-6.42873E+00
 -1     23347 7.47047E-10 1.59883E-09-6.75863E+00
 -1     23348-9.64982E-10 4.66311E-10-6.61827E+00
 -1     23349-2.22205E-11-1.39828E-11-1.13060E+00
 -1     23350 2.00934E-11 3.80499E-11-3.43641E+00
 -1     23351-3.45378E-10 6.13207E-10-7.34415E+00
 -1     23352-5.12162E-10 9.19501E-10-8.14044E+00
 -1     23353 6.58477E-10-3.75446E-10-7.37752E+00
 -1     23354 2.10466E-10 2.19716E-10 6.63709E+00
 -1     23355 8.71694E-11 4.95607E-10 5.74510E+00
 -1     23356-2.25342E-10 2.26204E-10 6.49520E+00
 -1     23357-7.09204E-10 1.49431E-10-6.56963E+00
 -1     23358 2.23822E-10-7.72314E-10-7.33235E+00
 -1     23359-1.00329E-10 5.36492E-10-7.18103E+00
 -1     23360-9.43354E-11 9.33397E-10-1.24768E+00
 -1     23361 2.25755E-09-3.54223E-09 2.81645E+00
 -1     23362 8.68147E-10 2.85020E-11 1.83651E+00
 -1     23363 1.68838E-10 1.87063E-10-7.10168E+00
 -1     23364 5.99925E-10-4.30381E-10-6.83685E+00
 -1     23365 6.83065E-10-8.77874E-11-7.24533E+00
 -1     23366 1.62674E-10 1.24077E-10-7.34293E+00
 -1     23367-1.14284E-11-2.82760E-10-7.35817E+00
 -1     23368 9.48846E-12-1.03965E-10-7.74688E+00
 -1     23369 1.62244E-10 1.76068E-10-6.98734E+00
 -1     23370 2.07257E-10 1.58022E-10-7.64231E+00
 -1     23371 1.44627E-11-2.75734E-12-5.01090E+00
 -1     23372 2.02183E-11 7.45610E-11-4.01786E+00
 -1     23373 4.46121E-11-1.20047E-09-6.75360E+00
 -1     23374 1.14861E-10 9.39341E-11-6.45161E+00
 -1     23375-1.58440E-10-2.00417E-09-7.55440E+00
 -1     23376-1.22971E-10-4.45132E-10-7.72183E+00
 -1     23377-3.39477E-10-8.09563E-10-7.07335E+00
 -1     23378 8.79572E-11 3.09084E-11-7.89387E+00
 -1     23379 1.10412E-11-4.33605E-10-7.74986E+00
 -1     23380 7.20362E-11-7.70476E-11-7.26999E+00
 -1     23381 6.99443E-11-4.25178E-10-7.46745E+00
 -1     23382-1.54953E-10 2.66750E-10 5.43093E+00
 -1     23383 2.71303E-10 2.89617E-10 5.57059E+00
 -1     23384-8.74831E-10-4.24856E-10 4.48430E+00
 -1     23385-5.10351E-12 2.14274E-11-4.85672E+00
 -1     23386 2.54036E-11 3.35996E-11-5.13933E+00
 -1     23387-8.64972E-13 1.97293E-12-2.63465E+00
 -1     23388-3.39121E-11-2.40921E-12-1.48937E+00
 -1     23389-3.84763E-11-3.02076E-11-1.97013E+00
 -1     23390 2.86546E-11-2.35095E-11 3.97276E-01
 -1     23391-2.24587E-10-1.47568E-10-7.37136E+00
 -1     23392 1.10580E-10 2.96983E-10-7.53263E+00
 -1     23393-7.31157E-11 4.01115E-10-7.30219E+00
 -1     23394-1.47053E-10 6.47440E-11-7.29978E+00
 -1     23395 1.26095E-09 3.12401E-10-6.34587E+00
 -1     23396-1.37343E-10-4.24308E-09-6.21032E+00
 -1     23397 6.07594E-10 4.45880E-10-5.58993E+00
 -1     23398 3.50752E-09-3.27798E-09-2.74208E+00
 -1     23399 3.06397E-10 4.94094E-11-3.22112E+00
 -1     23400 5.89020E-12 1.76339E-11 5.85303E+00
 -1     23401-1.05742E-12-1.84026E-11 6.50534E+00
 -1     23402-1.76281E-11 2.28438E-11 8.33941E+00
 -1     23403-3.06601E-11 1.53072E-11 5.76919E+00
 -1     23404 1.04606E-12-1.41603E-11 4.84086E+00
 -1     23405-2.85201E-11-5.51086E-11 4.28046E+00
 -1     23406 1.67499E-12-3.73948E-12 6.35698E+00
 -1     23407-6.22377E-12-7.94807E-11 8.96488E+00
 -1     23408 4.38105E-11 2.75950E-11 6.01407E+00
 -1     23409-6.25436E-10 1.05702E-09 5.78943E+00
 -1     23410 9.41976E-11-2.12235E-10 6.22570E+00
 -1     23411 2.47740E-10 4.19606E-10 4.89225E+00
 -1     23412 6.39194E-11 6.59907E-11-6.39978E+00
 -1     23413-6.53802E-10 1.91270E-10 2.38419E+00
 -1     23414-4.16792E-10 9.53550E-10 2.57813E+00
 -1     23415 5.98142E-11-1.67904E-09 1.74748E+00
 -1     23416-2.92781E-10 1.05049E-10-7.94872E+00
 -1     23417 1.92561E-10 1.89677E-10-7.83472E+00
 -1     23418-1.98481E-11 2.46295E-10-7.33153E+00
 -1     23419-2.37008E-09-1.12990E-09 5.75595E-02
 -1     23420-3.06175E-11-2.00218E-11 7.27041E+00
 -1     23421 8.84207E-11-2.07429E-10-6.74874E+00
 -1     23422-8.69522E-10-1.13937E-09-2.14457E+00
 -1     23423-5.60837E-11-3.01193E-12 6.31052E+00
 -1     23424-8.40720E-11 7.49465E-10-6.02540E+00
 -1     23425-2.14278E-10 1.36045E-10-5.69654E+00
 -1     23426-1.42148E-10 1.77037E-09-4.84494E+00
 -1     23427-8.73083E-11 1.20220E-09-5.01792E+00
 -1     23428-1.49637E-10 9.00914E-10 5.77349E+00
 -1     23429-7.37096E-10 6.31751E-10 6.50842E+00
 -1     23430 4.78710E-10-5.63270E-11 5.47373E+00
 -1     23431-3.19559E-10-1.41489E-09 4.00500E-01
 -1     23432 8.55455E-11-6.34876E-10 2.09705E+00
 -1     23433 1.75690E-09-6.40558E-10 1.68624E+00
 -1     23434-3.60319E-10-1.35497E-10-7.03968E+00
 -1     23435 1.68177E-11-7.41602E-11 7.07882E+00
 -1     23436-2.36756E-10-9.72085E-10-1.27407E+00
 -1     23437 6.26589E-12-8.11277E-12-4.76946E+00
 -1     23438 5.94071E-12-1.21173E-11-4.82374E+00
 -1     23439 7.98283E-12-5.26144E-11-5.57022E+00
 -1     23440-7.64639E-11-1.46781E-10-6.27564E+00
 -1     23441-1.74593E-09 7.58322E-10-6.05322E-01
 -1     23442 5.35725E-12 8.16994E-12 2.26904E+00
 -1     23443 2.02049E-11-3.03486E-11 6.27060E-01
 -1     23444 2.22545E-12-1.83055E-11 8.77147E-02
 -1     23445-2.65019E-11 3.45778E-11 2.08635E+00
 -1     23446 2.23962E-10-5.81881E-10-7.36500E+00
 -1     23447 3.12214E-10 8.95075E-10-7.40803E+00
 -1     23448 2.76747E-10-4.34817E-10-7.14519E+00
 -1     23449-2.25881E-10-1.87802E-09-3.26181E+00
 -1     23450 2.27437E-09 8.03516E-10-3.13569E+00
 -1     23451-8.81931E-10 1.34921E-10-6.34018E+00
 -1     23452-4.33328E-10 3.09685E-10-6.18638E+00
 -1     23453-9.79497E-10 8.31232E-10-6.82299E+00
 -1     23454 1.16887E-10-7.22782E-11-7.76456E+00
 -1     23455 2.15302E-11 1.65496E-11-6.60934E+00
 -1     23456 1.47867E-10-1.41591E-09-5.90553E+00
 -1     23457-2.14541E-10-5.96234E-10-5.27265E+00
 -1     23458 7.36418E-11-3.10049E-11 5.83599E+00
 -1     23459-8.18256E-12-1.09381E-10 4.72135E+00
 -1     23460-3.22521E-10-2.42669E-10-6.59660E+00
 -1     23461-6.22539E-11 1.23480E-10-6.17407E+00
 -1     23462 1.26370E-09 1.48078E-09-1.29506E+00
 -1     23463 5.85924E-10 1.36493E-09-7.17752E+00
 -1     23464 1.45314E-11-1.22092E-11-3.78181E+00
 -1     23465-1.13989E-11-3.35185E-11-8.92351E+00
 -1     23466 2.26134E-11-1.11387E-11-6.84470E+00
 -1     23467-1.92563E-11-2.09470E-11-6.34703E+00
 -1     23468 1.62695E-11 3.19107E-11-6.51597E+00
 -1     23469 1.69208E-11 4.70790E-11-7.56721E+00
 -1     23470-1.64980E-12 1.01838E-11 7.34133E+00
 -1     23471-4.20572E-11-8.51980E-13 4.14837E+00
 -1     23472 1.27967E-11 2.33170E-11 6.09393E+00
 -1     23473 6.74349E-12-2.74268E-11 4.19232E+00
 -1     23474-8.18440E-11 2.18727E-10 2.90057E+00
 -1     23475 2.76357E-10 4.51190E-10 3.29285E+00
 -1     23476-5.44078E-10-1.56427E-09 1.87244E+00
 -1     23477 3.27262E-11-5.74555E-11-7.84414E+00
 -1     23478-2.06238E-10 3.11937E-10-6.17481E+00
 -1     23479-1.08136E-10 5.82768E-10-5.61629E+00
 -1     23480-5.37207E-10-1.27616E-09 2.17237E+00
 -1     23481 4.03836E-10 1.07681E-09 1.37963E+00
 -1     23482 1.23728E-10 7.02085E-12 5.38807E+00
 -1     23483 3.32676E-10-2.67240E-10 5.56296E+00
 -1     23484 5.46856E-11 1.33405E-11 5.90266E+00
 -1     23485-1.19238E-10 1.85490E-12 6.28054E+00
 -1     23486 1.87718E-10-2.24858E-10 4.59119E+00
 -1     23487 2.48695E-11 1.44619E-11-7.16998E+00
 -1     23488 5.25750E-11 6.96400E-11-6.27225E+00
 -1     23489-8.24086E-10-1.79037E-11-6.24248E+00
 -1     23490 3.19367E-11 2.29542E-10-6.00996E+00
 -1     23491 3.31625E-10 1.49674E-10-5.37607E+00
 -1     23492 6.72219E-10 1.80556E-11-6.71162E+00
 -1     23493-1.89701E-11 3.97083E-11-5.51448E+00
 -1     23494 3.92006E-11-4.26906E-11-8.19321E+00
 -1     23495 2.30020E-11 3.47737E-11-4.58870E+00
 -1     23496 3.32842E-11 2.22541E-12-7.44485E+00
 -1     23497-3.65485E-12-1.05356E-11-4.50741E+00
 -1     23498 6.70508E-11 1.38986E-12-5.60763E+00
 -1     23499-5.93592E-11 3.50272E-11-5.89212E+00
 -1     23500 4.36461E-10 1.49459E-10 5.49627E+00
 -1     23501 3.21241E-10 4.57195E-11-4.51570E+00
 -1     23502 1.27683E-09 1.52599E-09-4.05896E+00
 -1     23503-4.19612E-12-9.42934E-11-6.46867E+00
 -1     23504 6.59427E-11 3.31520E-10-6.25254E+00
 -1     23505-2.42588E-10-1.42454E-10-5.78527E+00
 -1     23506-5.16932E-10-2.45493E-10-5.78205E+00
 -1     23507 2.44222E-10-2.58224E-10-5.11764E+00
 -1     23508 8.10985E-10 6.35184E-10-5.02478E+00
 -1     23509-3.08633E-11-4.99449E-11-2.21638E+00
 -1     23510-3.63908E-12-3.47646E-12-2.95389E+00
 -1     23511 2.91493E-10-2.80031E-10-5.71966E+00
 -1     23512-3.01655E-10-7.13934E-10-4.76196E+00
 -1     23513 5.53730E-11 1.21055E-09-5.51577E+00
 -1     23514-3.35481E-11 1.78516E-10-3.85087E+00
 -1     23515 7.20206E-11-7.83828E-11-5.27869E+00
 -1     23516-1.42106E-11-4.70993E-11-4.67159E+00
 -1     23517-6.95056E-11 2.32836E-11 3.99603E+00
 -1     23518 2.04603E-11 1.89050E-11 3.46428E+00
 -1     23519-2.21733E-11-5.49237E-10-5.62569E+00
 -1     23520 9.07349E-10-1.92605E-09-4.58921E+00
 -1     23521-7.88937E-11-1.81221E-10-4.25323E+00
 -1     23522-1.71287E-10-1.19698E-10-4.53580E+00
 -1     23523 1.87185E-10-1.83097E-11 3.43507E+00
 -1     23524-2.56398E-10-8.12944E-11 3.72616E+00
 -1     23525 3.13704E-10-1.70773E-10 2.68519E+00
 -1     23526 1.42807E-10 1.88728E-10-6.31420E+00
 -1     23527 1.57477E-10-3.20046E-10-6.21185E+00
 -1     23528 2.78201E-11 7.66399E-12-6.31838E+00
 -1     23529-2.86330E-10-6.94046E-10 2.38583E+00
 -1     23530 1.26259E-10-7.78263E-10 2.43692E+00
 -1     23531 3.64896E-10 1.31127E-10 2.12322E+00
 -1     23532 1.17149E-10-2.39292E-10-6.14125E+00
 -1     23533 2.66354E-11-3.71785E-10-6.15721E+00
 -1     23534-2.68804E-12-5.70838E-10-6.16676E+00
 -1     23535 1.46090E-10 6.08078E-10 3.91778E+00
 -1     23536 4.60670E-10 1.92495E-10 3.59783E+00
 -1     23537 7.61848E-10-8.39293E-11 2.22323E+00
 -1     23538 3.57026E-10 4.24923E-09 3.10646E-03
 -1     23539-3.41289E-10-2.99649E-10-6.52061E+00
 -1     23540 7.84080E-13-2.28352E-10-6.13059E+00
 -1     23541 1.71448E-11-2.64499E-11-5.64654E+00
 -1     23542 8.74572E-12-1.04976E-10-5.69193E+00
 -1     23543-4.44204E-10-1.12406E-10 5.29122E+00
 -1     23544 1.65648E-10 4.15602E-13 4.42673E+00
 -1     23545 3.31979E-10-1.39734E-10 5.07110E+00
 -1     23546-2.34031E-10 1.49321E-09 1.01935E-01
 -1     23547-1.59727E-11 7.86332E-10 1.63719E+00
 -1     23548-9.45465E-11 3.46852E-10 1.03460E+00
 -1     23549-4.32020E-11-3.95059E-10 8.49181E-01
 -1     23550-7.04057E-10 6.88006E-10 1.01348E+00
 -1     23551 2.15070E-10-4.85044E-10-5.19821E+00
 -1     23552 4.13331E-10-1.96944E-10 7.24237E-01
 -1     23553-3.21296E-10-5.38520E-10 4.84141E-01
 -1     23554-5.96197E-10-8.20016E-10 4.75494E-01
 -1     23555 5.52089E-10-1.15883E-09-1.43437E-01
 -1     23556-7.53700E-11-8.07364E-11-4.67261E+00
 -1     23557 1.11674E-10 1.99333E-10-7.42952E+00
 -1     23558-5.62263E-11-5.26023E-11-6.42243E+00
 -1     23559-1.56855E-10 1.02821E-10-4.93581E+00
 -1     23560 3.27516E-11-1.82341E-11 6.54450E+00
 -1     23561-5.47497E-11 2.13161E-12 6.79201E+00
 -1     23562 3.47133E-11-2.30754E-10-6.00824E+00
 -1     23563 1.25951E-10 2.57531E-10-5.59440E+00
 -1     23564 9.61427E-12 7.56042E-11-4.89288E+00
 -1     23565-9.04681E-11-1.40210E-10-6.37898E+00
 -1     23566-9.48648E-11 6.72793E-10-5.65787E+00
 -1     23567-1.01661E-09-5.86754E-11-6.31971E+00
 -1     23568-3.18017E-11-1.72403E-11-5.56695E+00
 -1     23569 6.14537E-10-2.87237E-10 1.67304E+00
 -1     23570 5.45283E-10 1.13730E-09 1.91075E+00
 -1     23571-8.75569E-10-9.33520E-10 1.34856E+00
 -1     23572-5.48704E-11 2.96825E-12 4.97964E+00
 -1     23573-5.44914E-11 4.70137E-11 5.38309E+00
 -1     23574-4.05464E-10 7.66663E-11 4.38419E+00
 -1     23575 8.25864E-11-4.78988E-10 4.72922E+00
 -1     23576-1.63774E-10 7.74436E-11 3.70119E+00
 -1     23577-1.30364E-09-1.07092E-11-3.77003E+00
 -1     23578-6.16309E-10-2.83996E-10-3.63870E+00
 -1     23579-2.74052E-11 7.55827E-11 2.47366E+00
 -1     23580-4.82057E-11-4.45201E-11 1.54880E+00
 -1     23581-3.72319E-11 9.46933E-11 3.15737E+00
 -1     23582 5.73128E-11 7.51999E-10-1.75313E+00
 -1     23583-2.67142E-11-3.89442E-11-1.52505E+00
 -1     23584 2.81164E-11 4.58292E-11-2.83428E+00
 -1     23585 4.74951E-13 7.76305E-11-7.76450E-01
 -1     23586 5.69256E-10-9.40916E-10-4.27790E+00
 -1     23587-1.05647E-09 3.55174E-09-2.40070E+00
 -1     23588 2.18503E-10 5.19214E-10-3.79916E+00
 -1     23589-6.91550E-11-1.03860E-10 4.57182E+00
 -1     23590-2.12748E-10 4.97362E-10 4.84334E+00
 -1     23591 4.89612E-10-4.51071E-10 4.14681E+00
 -1     23592-1.87328E-10 5.96782E-10 3.80679E+00
 -1     23593-6.14557E-12-1.62517E-10-3.31144E+00
 -1     23594-3.35094E-11 7.59704E-11-4.13750E+00
 -1     23595-3.99179E-10 6.84160E-10-4.71020E+00
 -1     23596-3.08580E-11 1.98230E-10-4.46547E+00
 -1     23597-1.24836E-11-1.18304E-10-7.18408E+00
 -1     23598-2.64364E-11 1.51708E-10-6.49939E+00
 -1     23599 6.79427E-10-6.71555E-09-1.05112E+00
 -1     23600 1.97878E-11-2.63405E-11 7.37431E-01
 -1     23601-7.30859E-12-4.52595E-11-4.95208E-01
 -1     23602-8.47442E-11-2.41733E-11-9.97612E-01
 -1     23603 4.91628E-11 1.99764E-11 8.90076E-01
 -1     23604 9.54024E-11 2.60672E-10 3.60041E+00
 -1     23605 1.28816E-11-2.12091E-10 4.65025E+00
 -1     23606 3.80413E-12-7.03409E-11 3.38331E+00
 -1     23607 6.77437E-11 2.45411E-11 6.99436E+00
 -1     23608 5.18340E-11 6.25912E-11 5.14572E+00
 -1     23609 4.10747E-11-1.84903E-11 5.11065E+00
 -1     23610 2.24942E-09 1.43448E-09-1.11117E+00
 -1     23611-6.44234E-10 1.23431E-09-2.95943E-02
 -1     23612 1.10896E-10-3.80881E-11 5.95605E+00
 -1     23613 3.51536E-11-5.87993E-11 6.45520E+00
 -1     23614 2.47888E-12-6.07012E-11-6.66515E+00
 -1     23615 3.28196E-11-1.92648E-11-6.89627E+00
 -1     23616-2.17410E-11 3.89554E-11-5.50852E+00
 -1     23617 2.30155E-12-7.89140E-10-1.11277E+00
 -1     23618-4.14294E-10 1.23335E-09-7.27451E-01
 -1     23619 1.06850E-11-1.29175E-10 4.84940E+00
 -1     23620 6.19376E-11-2.35910E-11 5.44570E+00
 -1     23621-2.53564E-10-1.77264E-10 3.97287E+00
 -1     23622-1.57615E-09-2.44563E-09-3.51639E+00
 -1     23623-1.17646E-09-1.25467E-09-3.61090E+00
 -1     23624 1.82305E-09 1.81694E-10-3.23483E+00
 -1     23625-7.30028E-11-2.55994E-10-4.41063E+00
 -1     23626-1.39693E-10 2.61834E-10-4.27980E+00
 -1     23627 6.34609E-10-6.51399E-10-3.68486E+00
 -1     23628-1.17563E-11 7.66896E-12-7.03159E+00
 -1     23629 4.28650E-10-1.01171E-09-1.27402E+00
 -1     23630 1.53502E-09 3.72105E-10-1.61687E+00
 -1     23631 3.06712E-11 8.76868E-11-5.08512E+00
 -1     23632 5.49355E-11 1.70208E-10-4.76933E+00
 -1     23633-1.57081E-11-3.17840E-10 1.09901E+00
 -1     23634 2.14316E-10-1.42486E-10 1.74797E+00
 -1     23635-5.59844E-10-5.97716E-10-3.55584E+00
 -1     23636 8.26848E-10-5.91178E-10-3.75473E+00
 -1     23637-2.12496E-10-2.15326E-10-4.67495E+00
 -1     23638 5.43048E-10 2.19266E-10-4.03616E+00
 -1     23639 1.94564E-10-4.24092E-10-4.86818E+00
 -1     23640 7.70737E-10-1.65633E-10-3.12377E+00
 -1     23641 3.57032E-10 4.24980E-10 1.85971E+00
 -1     23642-8.18206E-10 5.31307E-10-3.28757E+00
 -1     23643 4.19188E-10-7.88988E-10-2.69869E+00
 -1     23644-1.39029E-10-3.23847E-10-5.79837E+00
 -1     23645 1.04327E-10-4.19780E-11-6.63833E+00
 -1     23646-3.54844E-11-2.19628E-11-6.57511E+00
 -1     23647-3.26344E-11 9.70909E-11-6.06864E+00
 -1     23648 1.61939E-10 4.51418E-11-5.62049E+00
 -1     23649-4.96329E-11 2.38181E-11-5.56063E+00
 -1     23650-2.90217E-10-3.40137E-10-5.58533E+00
 -1     23651-6.45289E-10-1.45132E-10-1.55633E+00
 -1     23652 3.00428E-10-6.69458E-10-2.72069E+00
 -1     23653 1.18535E-11-2.14487E-10 1.88146E+00
 -1     23654 4.52237E-10 2.64839E-11 2.29623E+00
 -1     23655 9.05668E-11-5.06134E-10 1.04516E+00
 -1     23656-8.88635E-11 3.87481E-11 5.44807E+00
 -1     23657-1.39875E-09-2.05218E-09-2.72020E+00
 -1     23658-6.38394E-10 2.06747E-10-2.56250E+00
 -1     23659 3.20507E-11-1.04065E-10-5.50845E+00
 -1     23660 4.25618E-11 3.84506E-11-5.18113E+00
 -1     23661-1.47344E-10 1.50698E-10-4.26544E+00
 -1     23662-7.14974E-11-4.45283E-10-4.08754E+00
 -1     23663-5.02484E-10-1.05334E-09-3.29264E+00
 -1     23664-4.56156E-11 1.52208E-11 3.22873E+00
 -1     23665-1.06950E-09-6.12099E-10-7.09755E-01
 -1     23666-1.49536E-10 1.02095E-10-5.04854E+00
 -1     23667 2.65988E-11-4.06322E-11-4.51583E+00
 -1     23668-6.88819E-11-1.63490E-11-4.72021E+00
 -1     23669 3.80128E-10-6.95087E-11 2.70914E-01
 -1     23670 3.73919E-12-6.87821E-11 3.65100E+00
 -1     23671-5.89498E-11 8.47067E-12 2.28692E+00
 -1     23672 6.90300E-11-2.69497E-10 1.76486E+00
 -1     23673-4.46640E-11 1.81875E-10 2.84865E+00
 -1     23674-1.87766E-10 1.42553E-10 1.68265E+00
 -1     23675 2.25549E-10 4.66461E-10-3.83982E+00
 -1     23676 1.14305E-09-3.03395E-10-2.70446E+00
 -1     23677-5.28864E-10-3.43335E-10-3.91362E+00
 -1     23678 1.15038E-10-3.34783E-10-1.77780E+00
 -1     23679-6.72278E-10 2.59845E-10 1.27028E+00
 -1     23680 7.58598E-12-1.99542E-10 2.57823E-01
 -1     23681-9.03678E-10-5.75413E-10 5.67857E-01
 -1     23682-4.10550E-11 7.72868E-11-2.67265E+00
 -1     23683-1.65594E-11-3.12122E-11-3.27003E+00
 -1     23684 7.33254E-11 2.94524E-11-2.02232E+00
 -1     23685-1.97145E-10 8.95009E-11 3.95534E+00
 -1     23686 4.98595E-10 2.11709E-10 3.04832E+00
 -1     23687 1.52530E-10 3.18622E-12 3.69587E+00
 -1     23688 1.42420E-10-1.82152E-10 3.27557E+00
 -1     23689-5.08503E-13 1.48847E-10 3.67890E+00
 -1     23690 3.06488E-12 1.72725E-11 2.83379E+00
 -1     23691-2.02356E-10 2.13257E-10-2.00172E+00
 -1     23692 4.95088E-12-3.10075E-11-6.82615E+00
 -1     23693-6.86741E-12-4.05977E-11-5.49742E+00
 -1     23694 3.62487E-11 8.83921E-11-4.98509E+00
 -1     23695-8.27922E-11-1.35027E-11-5.22825E+00
 -1     23696 1.61561E-10-8.46349E-11-8.03072E-01
 -1     23697-1.82957E-10-1.10601E-11 3.28103E-01
 -1     23698-4.59631E-11 2.98491E-10 3.33984E+00
 -1     23699 1.96560E-10 3.51455E-11-4.92237E+00
 -1     23700 2.29297E-11-4.95240E-11-4.94138E+00
 -1     23701-3.40463E-10-1.40403E-10-4.36543E+00
 -1     23702 2.99005E-11-2.13806E-10-4.29666E+00
 -1     23703 3.18813E-11-1.19454E-11-4.92010E+00
 -1     23704-7.35278E-10 2.20530E-11-3.55815E+00
 -1     23705-5.51219E-10 6.35969E-10-3.08460E+00
 -1     23706 1.48716E-10 4.53416E-10-2.16969E+00
 -1     23707 6.74215E-10 1.42915E-11-2.16924E+00
 -1     23708-4.98860E-10-3.61350E-11-3.03289E+00
 -1     23709 2.76510E-10 8.42297E-10-2.67070E+00
 -1     23710-1.03300E-10-2.43668E-10-2.95612E-01
 -1     23711-4.57495E-10 3.71532E-10 2.17934E-01
 -1     23712-6.74006E-10-3.10029E-11 5.24464E-01
 -1     23713-1.29850E-10 7.29785E-10-7.47627E-01
 -1     23714 3.72146E-11 5.05394E-12 4.34431E+00
 -1     23715 2.04556E-10 2.67764E-10-4.30309E+00
 -1     23716-1.24266E-11-7.42413E-10-4.05779E+00
 -1     23717 1.61104E-10 4.52280E-10-2.83012E+00
 -1     23718-8.34735E-12 2.20152E-10-3.82885E+00
 -1     23719 2.53632E-11-1.70622E-11 3.04257E+00
 -1     23720 1.84549E-12-1.56828E-10-3.07647E+00
 -1     23721-4.63608E-12-6.90756E-10-2.49185E+00
 -1     23722 6.39148E-11 4.15013E-10-3.35226E+00
 -1     23723-6.13676E-11-4.99351E-11 2.33968E+00
 -1     23724 2.99618E-11-5.79863E-12 3.64464E+00
 -1     23725-4.91960E-12 1.50965E-11 2.58567E+00
 -1     23726 2.95135E-11-8.53433E-11-4.85274E+00
 -1     23727-1.05665E-11 5.63506E-11 9.95219E-01
 -1     23728 5.06719E-11 5.27582E-11 2.64403E-01
 -1     23729-3.12027E-11-9.39138E-11 1.60905E+00
 -1     23730 6.01659E-11-1.95618E-11-6.22878E-01
 -1     23731-1.08137E-10-4.11951E-11-1.22915E+00
 -1     23732-2.00213E-11 6.85409E-12-1.98887E+00
 -1     23733-4.47475E-11 2.98591E-12-1.23683E-01
 -1     23734-8.62850E-12-5.30648E-12-3.21592E+00
 -1     23735 9.10775E-11-5.70169E-10-4.16741E+00
 -1     23736 1.15918E-10-5.52583E-10-1.98905E+00
 -1     23737 5.82096E-12 5.36807E-10-1.85062E+00
 -1     23738-2.35564E-10 7.55060E-10 2.66472E-01
 -1     23739 1.42233E-10 1.78126E-10 8.09201E-01
 -1     23740 1.15417E-10-2.75372E-10-8.91540E-01
 -1     23741-1.13737E-10-1.90641E-10-3.34872E+00
 -1     23742-1.81120E-10-2.69758E-10-3.14644E+00
 -1     23743 3.48142E-10-2.01132E-10-2.91241E+00
 -1     23744 5.04944E-10-3.90763E-10-2.68521E+00
 -1     23745 2.96847E-11-1.58533E-10-2.38235E+00
 -1     23746-4.96045E-10-1.28171E-10-1.86801E+00
 -1     23747 1.59148E-11-9.13167E-11 1.93375E+00
 -1     23748 3.69546E-12-7.55694E-11 1.42531E+00
 -1     23749-5.79044E-12-3.22996E-11-3.82997E+00
 -1     23750 4.92551E-11 9.47657E-11-4.70289E+00
 -1     23751-5.88706E-11-4.07664E-11-3.94564E+00
 -1     23752 2.91449E-11-3.75152E-12-2.97067E+00
 -1     23753 5.80849E-10-4.87406E-10 1.69185E-01
 -1     23754 1.52926E-10 4.10471E-11 8.65210E-01
 -1     23755 1.66310E-10-5.15307E-12 2.84141E+00
 -1     23756-9.29101E-11 1.12073E-10 3.51102E+00
 -1     23757 3.30194E-11 4.01323E-10 2.25407E+00
 -1     23758-1.81120E-12-5.62616E-10 2.83992E+00
 -1     23759-3.28260E-10-1.93960E-11 3.45498E+00
 -1     23760-2.22120E-10-8.47297E-10 2.80225E+00
 -1     23761 2.52229E-10 2.26297E-10 1.94506E+00
 -1     23762 2.58479E-11-1.38197E-10 2.51790E+00
 -1     23763-3.89668E-12 2.15254E-10 2.11636E+00
 -1     23764 9.77024E-12-5.16332E-11 2.04573E+00
 -1     23765-8.48490E-11-4.41583E-10-6.04828E-01
 -1     23766 2.68298E-10 9.76310E-10-1.29841E+00
 -1     23767-7.38087E-12 1.35120E-11-3.10295E+00
 -1     23768-1.76361E-12 2.08174E-10-3.48390E+00
 -1     23769 4.51548E-11-1.80949E-10-3.13779E+00
 -1     23770-9.30650E-11-7.73502E-11-4.00730E+00
 -1     23771-2.98099E-11 5.19636E-11-3.87391E+00
 -1     23772 8.60135E-12-3.78002E-11-3.11204E+00
 -1     23773-2.99076E-11-6.39107E-11-3.46755E+00
 -1     23774-3.97234E-10-2.45383E-10-7.63049E-01
 -1     23775 2.26978E-10 1.59722E-10-2.43092E+00
 -1     23776-3.27033E-11 3.97978E-11 5.52164E-01
 -1     23777-3.11861E-11 3.16245E-11 1.32017E+00
 -1     23778-1.61063E-11-7.11388E-11 1.91106E+00
 -1     23779-9.97591E-11 3.88553E-10 1.18767E-01
 -1     23780-3.65181E-11 9.35776E-11-5.32148E-01
 -1     23781 5.23364E-12-2.31326E-11-2.75001E+00
 -1     23782 6.14097E-11 5.24419E-11-1.37979E+00
 -1     23783-1.91861E-11 2.84169E-11-2.57555E+00
 -1     23784 1.47365E-11 9.50228E-11-2.46433E+00
 -1     23785 6.83310E-11-1.52523E-11-1.94925E+00
 -1     23786 4.29066E-10-3.92516E-11-1.48471E+00
 -1     23787-9.26633E-11-1.13851E-10-9.47535E-01
 -1     23788 1.36336E-10 6.55792E-10-1.72146E+00
 -1     23789 1.11175E-10-2.60587E-10-1.12925E+00
 -1     23790 5.15559E-10-3.67023E-10-9.56389E-01
 -1     23791-4.47365E-10 6.57701E-11-2.35203E+00
 -1     23792 1.59896E-10 1.07881E-09-2.54258E+00
 -1     23793 1.57250E-10-2.60630E-10-1.46101E+00
 -1     23794-1.34750E-10 5.09157E-11-1.76399E+00
 -1     23795 4.76896E-11 7.74122E-11-2.23796E+00
 -1     23796-1.02776E-11-9.77274E-12-3.31997E+00
 -1     23797 1.59600E-11-6.85327E-12-2.81290E+00
 -1     23798 2.71419E-11-8.95290E-12-1.84123E+00
 -1     23799-2.86309E-10 5.28325E-10-2.00506E+00
 -1     23800-3.22626E-10-3.52007E-10-1.06376E+00
 -1     23801 5.03018E-11-1.45403E-10-1.64383E+00
 -1     23802 1.06074E-12 2.70841E-11-2.17817E+00
 -1     23803 2.61326E-11-3.01327E-11 6.59996E-01
 -1     23804-2.10804E-11-3.47778E-11 1.06948E+00
 -1     23805 2.97844E-11 9.73609E-11-1.31955E+00
 -1     23806-2.02878E-11-3.64372E-10-1.54092E+00
 -1     23807 4.14692E-12-5.40705E-11 4.98443E-01
 -1     23808 8.88929E-11-3.21841E-11 2.22688E-01
 -1     23809-2.38039E-11-7.04646E-11 8.56953E-02
 -1     23810 1.60323E-10 1.75399E-10 3.34044E-01
 -1     23811 3.38537E-12 1.17878E-10-1.88707E+00
 -1     23812 6.03655E-11-3.14817E-11-1.98948E+00
 -1     23813-1.36816E-10-4.85642E-11-1.26035E+00
 -1     23814-3.07434E-11 3.44117E-11-5.30104E-01
 -1     23815-7.19410E-11-2.04304E-10 1.57288E+00
 -1     23816-1.16472E-10-2.52050E-10-1.00952E+00
 -1     23817-6.82573E-11-1.08911E-10-2.14832E+00
 -1     23818 1.00871E-10 1.57994E-10-2.30874E+00
 -1     23819 5.77324E-11-1.48132E-10-1.09940E+00
 -1     23820 5.14748E-11 4.92951E-12-1.41691E+00
 -1     23821-4.25301E-10-1.11506E-10 1.61538E+00
 -1     23822 2.16301E-10 7.37237E-10 2.21109E+00
 -1     23823 3.33645E-10-5.83744E-10 1.57517E+00
 -1     23824-2.77151E-10 1.70102E-10 2.01093E+00
 -1     23825 2.14187E-11 2.66156E-10 8.94551E-01
 -1     23826 6.44121E-10-3.24901E-10-1.95067E-01
 -1     23827-9.94626E-12 2.42289E-11 1.79788E+00
 -1     23828-2.30639E-11 3.85773E-11-1.02902E+00
 -1     23829-6.35618E-11 3.28942E-11-1.71948E+00
 -1     23830 3.13226E-11-1.40551E-10 8.43316E-01
 -1     23831-1.16596E-10-1.91665E-10 5.59031E-01
 -1     23832 2.98044E-11-1.47149E-11-4.06091E-01
 -1     23833 2.71540E-11 1.46216E-10-5.35369E-01
 -1     23834-9.40571E-11 9.97512E-11 9.76247E-01
 -1     23835-4.50039E-10-1.07685E-09-1.19114E-01
 -1     23836 2.70903E-10-2.61558E-10 1.60817E-01
 -1     23837 2.68521E-10-1.55619E-09-1.16015E+00
 -1     23838 6.78717E-11 2.07488E-10-1.59931E-02
 -1     23839-3.22625E-10-1.43790E-10 6.47022E-01
 -1     23840-2.58407E-10-8.40809E-11 2.32748E-01
 -1     23841-1.63375E-10 9.83207E-11-7.28205E-01
 -1     23842 2.47786E-11-1.65615E-10-8.04994E-01
 -1     23843 7.10477E-11 4.64471E-10-3.14397E-01
 -1     23844-4.57357E-13 1.36320E-10-1.47386E+00
 -1     23845 4.15469E-12-2.71602E-12 5.15995E+00
 -1     23846-1.14106E-11-2.13470E-11 7.51736E+00
 -1     23847-2.26791E-12-8.37439E-12 6.56107E+00
 -1     23848-3.97121E-11 3.62675E-11 5.83588E+00
 -1     23849 2.18070E-11 5.86059E-13 6.20073E+00
 -1     23850 4.02988E-11-3.17900E-11 7.00089E+00
 -1     23851 2.61427E-12 6.55316E-11 7.07300E+00
 -1     23852 1.39316E-11-5.86298E-11 8.20394E+00
 -1     23853 7.76949E-11 3.09682E-11 7.58247E+00
 -1     23854 6.91733E-11 1.78525E-10 9.29789E+00
 -1     23855 3.34954E-11 4.82721E-12 8.54513E+00
 -1     23856-7.12262E-12-1.51570E-12 9.99827E+00
 -1     23857-1.32959E-10-2.74612E-11 1.02767E+01
 -1     23858-8.78124E-12 6.52225E-11 1.12979E+01
 -1     23859-1.16134E-10 1.44485E-10 1.16010E+01
 -1     23860 5.09607E-11-1.92926E-10 1.23282E+01
 -1     23861-2.73543E-10-7.39892E-11 1.25179E+01
 -1     23862 2.56657E-10 3.40774E-10 1.32072E+01
 -1     23863 4.29895E-12-8.64818E-11 1.26972E+01
 -1     23864 1.18669E-10-1.15381E-10 1.34535E+01
 -1     23865 3.30023E-10-3.88949E-11 1.33397E+01
 -1     23866 7.50089E-11 7.25033E-11 1.32629E+01
 -1     23867-2.54311E-10 6.67296E-12 1.35195E+01
 -1     23868 9.94333E-11 4.38262E-11 1.31104E+01
 -1     23869 1.66190E-10-2.76742E-10 1.34031E+01
 -1     23870-4.26538E-10 6.98873E-10 1.26674E+01
 -1     23871-1.65704E-11-3.17869E-10 1.28506E+01
 -1     23872-8.19004E-11 9.68930E-11 1.26943E+01
 -1     23873-2.11987E-10-3.67213E-10 1.16794E+01
 -1     23874 3.65237E-10-3.73230E-11 1.04613E+01
 -1     23875-5.66259E-10-4.25910E-12 1.08166E+01
 -1     23876 2.95282E-10-1.30272E-09 5.52475E+00
 -1     23877-1.58986E-11 8.42882E-11 7.46007E+00
 -1     23878-6.21521E-10 1.59610E-09 4.24092E+00
 -1     23879 1.06485E-09 5.58055E-10 6.30609E+00
 -1     23880-6.41939E-10-5.56727E-10 6.13335E+00
 -1     23881-9.87183E-10 2.40891E-11 8.10006E+00
 -1     23882 9.65538E-10-1.41441E-10 8.31611E+00
 -1     23883-1.01297E-09 2.78780E-10 6.82884E+00
 -1     23884-2.98077E-10 4.22903E-11 7.21524E+00
 -1     23885-1.05360E-10 1.84081E-10 2.41536E+00
 -1     23886-4.27153E-10 5.91117E-10-4.00422E+00
 -1     23887 7.66844E-10-1.52054E-09-4.89547E+00
 -1     23888-5.83307E-10 7.77396E-10-7.01772E+00
 -1     23889-6.59878E-10-2.80084E-10-6.42279E+00
 -1     23890 3.69785E-10-4.70769E-10-8.28544E+00
 -1     23891-2.89117E-10-4.41418E-10-7.80270E+00
 -1     23892 5.66581E-11 2.00555E-10-9.00821E+00
 -1     23893 1.33197E-09 5.45594E-12-8.84725E+00
 -1     23894-8.62194E-11-1.64504E-11-9.67654E+00
 -1     23895 7.36054E-11 3.75548E-10-9.59619E+00
 -1     23896 2.79650E-10-3.67433E-11-1.02209E+01
 -1     23897-4.76430E-11 2.62524E-10-1.01190E+01
 -1     23898 4.46041E-10-2.08132E-10-1.05456E+01
 -1     23899 4.52532E-10-2.76038E-10-1.04423E+01
 -1     23900-1.51507E-10-8.34620E-11-1.08916E+01
 -1     23901 1.40317E-10 3.18541E-11-1.07017E+01
 -1     23902 3.04544E-11-1.40559E-10-1.10229E+01
 -1     23903 6.32599E-11-7.11717E-11-1.09878E+01
 -1     23904-1.06221E-10 8.76667E-11-1.15026E+01
 -1     23905-1.68942E-10 1.55999E-10-1.08704E+01
 -1     23906 2.66241E-11-5.28806E-11-1.50084E+01
 -1     23907-3.81272E-12-1.64550E-11-1.20174E+01
 -1     23908 1.21604E-11-5.51070E-12-2.40349E+01
 -1     23909 6.94974E-12 4.57932E-12-4.97116E+00
 -1     23910 5.29543E-12 1.86088E-12-3.05249E+01
 -1     23911 1.10397E-11 1.10173E-12-1.85201E+01
 -1     23912 7.42005E-12-2.38504E-12-1.57468E+01
 -1     23913-6.26235E-14-1.97428E-12-7.85345E+00
 -1     23914-6.86926E-13-1.57525E-12-1.07682E+01
 -1     23915-7.49471E-13-3.24268E-13-1.94719E+01
 -1     23916-2.92930E-13 4.97088E-13-2.92887E+00
 -1     23917-4.54856E-13 2.09094E-12-9.46030E+00
 -1     23918 1.45408E-13-4.17652E-14 3.84829E+00
 -1     23919 7.08065E-13-1.01418E-12-3.64009E+00
 -1     23920-1.24397E-14-3.34998E-13 4.22731E-01
 -1     23921 8.09465E-14-2.16321E-13 5.67402E+00
 -1     23922 2.24411E-12-1.63363E-13 7.34138E+00
 -1     23923-1.40923E-12-7.82408E-13 4.52252E+00
 -1     23924-4.96222E-13 4.10226E-12 6.92365E+00
 -1     23925 1.12353E-12 7.62345E-13 7.23783E+00
 -1     23926-1.81724E-12-4.62773E-12 7.02972E+00
 -1     23927 7.50256E-12-7.82558E-12 9.04171E+00
 -1     23928-8.36909E-12 4.28441E-12 8.23377E+00
 -1     23929-2.92390E-12-3.98971E-12 8.05680E+00
 -1     23930-4.77806E-12 1.88333E-12 7.42651E+00
 -1     23931-2.62380E-12-9.06132E-12 7.41613E+00
 -1     23932-1.61773E-12 2.54194E-12 7.02996E+00
 -1     23933-8.01809E-12-4.62130E-11 7.97427E+00
 -1     23934 2.75396E-10 3.43629E-11-2.07929E+00
 -1     23935-1.64862E-09-7.28352E-11 5.71415E+00
 -1     23936-2.79800E-12 2.67353E-12 5.18405E+00
 -1     23937 7.11613E-13-2.31174E-13 4.56135E+00
 -1     23938-2.19377E-11-4.87042E-11 6.43813E+00
 -1     23939 7.65443E-12 2.72640E-11 6.58185E+00
 -1     23940-1.61378E-11-3.20282E-11 5.96996E+00
 -1     23941-2.18579E-11-2.35027E-11 6.43128E+00
 -1     23942-7.80361E-11-4.93262E-11 7.08908E+00
 -1     23943 4.95421E-11 1.21057E-10 7.65370E+00
 -1     23944-1.25841E-11-1.25473E-11 8.97316E+00
 -1     23945 6.30202E-11 8.22771E-11 7.99267E+00
 -1     23946 1.00391E-10-3.31359E-11 9.78896E+00
 -1     23947-4.09397E-11-1.11658E-11 9.37238E+00
 -1     23948 1.16646E-10-3.57654E-11 1.05495E+01
 -1     23949 3.05931E-12 7.73348E-12 1.12994E+01
 -1     23950-3.75309E-11 5.21242E-11 1.17322E+01
 -1     23951-7.99115E-11 1.53648E-10 1.20638E+01
 -1     23952 3.03878E-11-1.01237E-10 1.27278E+01
 -1     23953 6.64041E-11-1.69062E-10 1.28177E+01
 -1     23954-2.79296E-10 3.23846E-10 1.33708E+01
 -1     23955 2.71900E-10 4.79323E-10 1.31066E+01
 -1     23956-7.40243E-10 1.06413E-10 1.33190E+01
 -1     23957 6.71024E-11-7.43899E-11 1.33371E+01
 -1     23958-2.66490E-10 1.64540E-10 1.32185E+01
 -1     23959-5.65807E-11-2.13024E-10 1.35184E+01
 -1     23960 1.70571E-10 8.65528E-11 1.29733E+01
 -1     23961 6.71114E-13 1.48216E-10 1.30001E+01
 -1     23962 1.01753E-10 2.34344E-10 1.23039E+01
 -1     23963-5.54843E-11 1.45954E-10 1.24137E+01
 -1     23964-2.58881E-10 7.38297E-10 1.12110E+01
 -1     23965 2.82182E-10 1.81076E-10 1.08851E+01
 -1     23966-4.60703E-10-5.17633E-10 8.33495E+00
 -1     23967 3.13083E-10 1.42589E-10 1.03819E+01
 -1     23968 7.48434E-10-3.93595E-10 6.49609E+00
 -1     23969-4.03762E-10-1.44719E-10 5.79174E+00
 -1     23970-4.56384E-10 4.89540E-10 6.61146E+00
 -1     23971-3.84388E-10 7.04119E-10 6.25115E+00
 -1     23972 1.60776E-10-7.50421E-10 7.79940E+00
 -1     23973-9.90364E-11 3.82145E-10 6.78229E+00
 -1     23974 3.50226E-10 4.32407E-10 6.69148E+00
 -1     23975 1.39203E-12 3.00154E-12 4.74685E+00
 -1     23976 6.63434E-10-3.89027E-10 4.91938E+00
 -1     23977-4.73450E-10-6.93928E-10-4.17237E+00
 -1     23978 6.72880E-10-9.20012E-10-4.97175E+00
 -1     23979 1.40864E-10 7.29838E-10-6.63930E+00
 -1     23980 9.12909E-10 2.28099E-09-4.86863E+00
 -1     23981-3.29162E-10 6.22584E-11-2.66389E+00
 -1     23982 7.51509E-10-4.47394E-10-5.45921E+00
 -1     23983 1.92040E-10 6.77225E-11-7.86392E+00
 -1     23984 1.40214E-09 2.10045E-11-7.36582E+00
 -1     23985-7.11619E-10 9.05804E-11-8.33850E+00
 -1     23986-8.85329E-10 1.88495E-10-8.62004E+00
 -1     23987-3.55184E-11 6.17530E-11-9.19290E+00
 -1     23988 8.99759E-11-6.77299E-11-9.24705E+00
 -1     23989-1.40688E-10 2.44238E-10-9.99314E+00
 -1     23990-4.54003E-10 2.79096E-10-9.80372E+00
 -1     23991-5.19127E-11 1.90737E-10-1.04519E+01
 -1     23992-5.96204E-10 5.16161E-10-1.04358E+01
 -1     23993-2.27249E-10 2.48158E-10-1.06765E+01
 -1     23994 4.93077E-10-3.83548E-10-1.06357E+01
 -1     23995-6.31590E-11 3.11805E-10-1.09746E+01
 -1     23996 1.58686E-10 6.94614E-11-1.08077E+01
 -1     23997 3.92098E-11-2.08921E-11-1.12517E+01
 -1     23998-1.07232E-10-2.85278E-11-1.08608E+01
 -1     23999-1.79086E-11-6.45141E-11-1.02250E+01
 -1     24000 5.57307E-11-3.46524E-11-1.17246E+01
 -1     24001 4.26439E-11-3.81625E-11-1.68054E+01
 -1     24002 2.83921E-11 3.17545E-11-1.18719E+01
 -1     24003-4.61643E-13-2.16126E-13-4.81006E+00
 -1     24004-2.82738E-12 5.29593E-12-5.58825E+00
 -1     24005-9.67929E-13-3.11582E-13-2.27028E-01
 -1     24006 1.37248E-12-1.43344E-13-8.84093E+00
 -1     24007-2.57526E-12 1.31442E-12-2.32816E+01
 -1     24008 1.09748E-12-3.33964E-12-1.58111E+00
 -1     24009-7.38676E-13-1.10683E-12-1.72301E+01
 -1     24010-1.18656E-11 2.54422E-12-3.31950E+00
 -1     24011 6.34231E-12-4.52433E-13-2.10794E+01
 -1     24012-6.23651E-13 7.29378E-13 4.18814E+00
 -1     24013-2.09316E-15 6.84013E-13-2.37474E+00
 -1     24014-1.31817E-12-1.62185E-12 5.77639E+00
 -1     24015-1.13915E-13-1.24475E-14 4.98064E+00
 -1     24016-2.46553E-12 3.82136E-12 7.99834E+00
 -1     24017-1.21114E-12-1.42576E-12 5.06405E+00
 -1     24018 3.75761E-12-3.46198E-12 7.69471E+00
 -1     24019-1.70852E-11-5.44892E-12 1.03994E+01
 -1     24020 5.73060E-12-1.83372E-12 7.99337E+00
 -1     24021-1.67567E-11-2.04043E-12 8.56626E+00
 -1     24022 6.77279E-12 1.37398E-11 7.16962E+00
 -1     24023 2.29114E-12-3.51596E-13 8.16911E+00
 -1     24024-2.27294E-12-3.73144E-11 8.18966E+00
 -1     24025 3.24387E-13 3.62999E-13 5.16556E+00
 -1     24026-3.97264E-10-5.32767E-10 7.34926E+00
 -1     24027 1.06772E-11-8.64811E-11 5.54333E+00
 -1     24028 4.89106E-11-1.06235E-10 7.19158E+00
 -1     24029 4.54341E-11 9.35540E-11 7.93429E+00
 -1     24030 3.18917E-11 6.59254E-11 8.94555E+00
 -1     24031-9.51358E-11 8.30129E-11 1.00915E+01
 -1     24032-1.94897E-11-9.74063E-11 1.14382E+01
 -1     24033 3.28598E-11-1.73505E-10 1.21872E+01
 -1     24034-1.56662E-10-1.13935E-10 1.27401E+01
 -1     24035 9.53803E-11 3.15303E-10 1.27881E+01
 -1     24036-2.36225E-10-3.55492E-10 1.26303E+01
 -1     24037-2.46689E-11 1.37347E-10 1.25167E+01
 -1     24038 8.55782E-11 2.19425E-11 1.20229E+01
 -1     24039 7.28624E-10-5.51163E-10 1.03370E+01
 -1     24040-1.35134E-09 1.74434E-09 8.51268E+00
 -1     24041-3.78184E-10-5.65113E-10 7.21260E+00
 -1     24042-1.83253E-09 2.05748E-09-6.37423E+00
 -1     24043-7.93278E-11-1.91204E-09-7.97158E+00
 -1     24044-1.16986E-09 1.18887E-09-8.20188E+00
 -1     24045 2.03373E-10 1.08855E-10-9.01015E+00
 -1     24046 3.22874E-10-3.78439E-10-9.56949E+00
 -1     24047-1.80647E-10 1.44761E-10-9.81765E+00
 -1     24048 1.54341E-10-9.42307E-11-9.93291E+00
 -1     24049-1.04153E-10-6.32153E-11-1.03756E+01
 -1     24050 2.93736E-11 4.58831E-11-1.08661E+01
 -1     24051-2.98419E-11-1.81973E-11-1.22507E+01
 -1     24052 2.73443E-12-3.53116E-12-1.62099E+00
 -1     24053-1.65510E-13 1.40492E-12 2.87733E+00
 -1     24054 1.15433E-12 5.84345E-13 8.18037E+00
 -1     24055 4.64353E-12 3.19952E-12 1.01777E+01
 -1     24056 1.37773E-12 4.92501E-12 1.01591E+01
 -1     24057 5.18732E-12 1.31460E-11 8.66077E+00
 -1     24058 1.73933E-11-1.88350E-11 6.89376E+00
 -1     24059-1.42788E-11-1.87023E-11 5.81539E+00
 -1     24060-6.06347E-11 1.21345E-10 6.98747E+00
 -1     24061-9.63791E-12-3.26626E-11 7.33628E+00
 -1     24062 1.05826E-10-1.01600E-10 8.18471E+00
 -1     24063-8.40240E-12-8.56711E-11 9.34081E+00
 -1     24064 1.31058E-10 7.60748E-11 1.06313E+01
 -1     24065 6.78451E-11-4.18751E-11 1.14337E+01
 -1     24066-4.92015E-11-6.50062E-11 1.24115E+01
 -1     24067-2.88627E-10-5.18825E-10 1.26924E+01
 -1     24068-1.50472E-10-7.88974E-11 1.27381E+01
 -1     24069-2.04676E-10-6.19511E-11 1.27954E+01
 -1     24070 2.05745E-10 1.92978E-10 1.23662E+01
 -1     24071-7.71179E-10-9.15838E-10 1.12610E+01
 -1     24072 7.37439E-10 5.37109E-10 1.00551E+01
 -1     24073-1.05194E-10 1.05901E-10 7.64820E+00
 -1     24074 1.35737E-10-2.04181E-11-1.01733E+01
 -1     24075-1.00979E-11 4.98103E-11-1.00849E+01
 -1     24076 1.34218E-10 4.99204E-12-1.16732E+01
 -1     24077-1.04068E-13-2.06204E-11-1.44719E+01
 -1     24078 2.00693E-12 3.44648E-12-8.51871E+00
 -1     24079 5.68556E-12-1.43555E-12 1.03308E+01
 -1     24080-3.69198E-12-6.45225E-12 8.85394E+00
 -1     24081-8.98728E-12 1.78285E-11 8.82183E+00
 -1     24082-1.08385E-12-8.99052E-12 7.43089E+00
 -1     24083-7.08226E-12-1.60118E-11 7.53635E+00
 -1     24084-3.47536E-11 3.12600E-10-9.96939E+00
 -1     24085-3.89719E-10 4.91368E-10 7.64861E+00
 -1     24086-1.58007E-11 4.64972E-11-9.71148E+00
 -1     24087 2.71653E-10-5.62368E-10-9.40257E+00
 -1     24088-2.39446E-10 8.84710E-10-8.88586E+00
 -1     24089 4.03564E-10 7.20637E-10-7.04644E+00
 -1     24090-4.10842E-09 4.37983E-10-8.26332E+00
 -1     24091 1.28183E-12-7.29858E-13-2.80907E+01
 -1     24092 1.87032E-12 5.12975E-14 9.58015E+00
 -1     24093-1.17195E-12 3.01042E-13 3.28564E+00
 -1     24094-9.93269E-11 8.42233E-11-9.05653E+00
 -1     24095-3.41182E-10-2.15472E-10-8.93588E+00
 -1     24096-3.82816E-11-1.23621E-12 8.45653E+00
 -1     24097 3.05014E-11-3.40147E-11 7.77963E+00
 -1     24098-5.98824E-11-2.96676E-10 7.83929E+00
 -1     24099-1.17207E-11 2.90125E-10 7.63144E+00
 -1     24100-3.50723E-11 1.52289E-10 8.48451E+00
 -1     24101 1.07505E-11-5.71047E-11 8.37477E+00
 -1     24102-1.11013E-11-1.66846E-11 9.28246E+00
 -1     24103-1.36535E-10 6.23511E-10 9.16967E+00
 -1     24104-7.83517E-12 2.11553E-10 1.02113E+01
 -1     24105-6.66835E-12-1.79454E-10 9.76522E+00
 -1     24106 1.30513E-10 4.25490E-11 1.09946E+01
 -1     24107 1.44279E-10-1.29052E-10 1.06243E+01
 -1     24108 1.13162E-10-3.25463E-10 1.16926E+01
 -1     24109 3.00567E-10-4.75013E-10 1.11660E+01
 -1     24110 2.03439E-10-1.18440E-10 1.14779E+01
 -1     24111-2.35449E-10-3.12658E-10 1.11037E+01
 -1     24112 2.58095E-10 1.50530E-09 1.15756E+01
 -1     24113 1.81923E-10-6.70495E-10 1.13295E+01
 -1     24114-3.51687E-11-3.62868E-10 1.09198E+01
 -1     24115 4.10014E-11 2.70715E-10 1.09513E+01
 -1     24116-2.67797E-10 1.97792E-10 1.06336E+01
 -1     24117-4.86560E-10 3.42802E-11 1.05179E+01
 -1     24118-4.37224E-10 5.70011E-10 9.34064E+00
 -1     24119-1.18943E-10 9.96914E-11 1.02037E+01
 -1     24120 1.35923E-09 4.44083E-10 8.31281E+00
 -1     24121-2.83325E-10-9.62753E-10 9.82077E+00
 -1     24122 1.26282E-09-1.35076E-10 7.40422E+00
 -1     24123 1.64528E-10-7.37436E-10 7.56009E+00
 -1     24124-4.86603E-10-5.07756E-10 1.76515E+00
 -1     24125 1.69132E-09 4.47144E-10 4.07768E+00
 -1     24126 1.56629E-10 7.04123E-12-9.59610E+00
 -1     24127 8.34737E-12-1.41479E-10-9.34986E+00
 -1     24128-2.41862E-09 1.39796E-10 5.70741E+00
 -1     24129 2.23399E-09-5.00958E-10-3.70364E+00
 -1     24130 1.38453E-09 1.79101E-09-3.99483E+00
 -1     24131-1.12494E-09-2.11444E-10 6.10507E+00
 -1     24132-2.93503E-10-8.37574E-10 4.88250E+00
 -1     24133-4.98573E-10-4.66972E-09 4.23591E+00
 -1     24134 1.84093E-10 8.02166E-12-8.65099E+00
 -1     24135-1.06532E-10-2.36768E-10-8.28881E+00
 -1     24136 9.18344E-10-1.08315E-09-1.00904E+00
 -1     24137 5.27374E-11-1.40211E-10-4.86945E+00
 -1     24138-1.15304E-09-8.63687E-10-5.04669E+00
 -1     24139 4.84888E-10 5.23125E-10-6.60753E+00
 -1     24140 2.80081E-10 1.75462E-09-8.09129E+00
 -1     24141 1.02178E-11 4.70256E-13-3.12767E+00
 -1     24142-3.64766E-11 1.45796E-11 5.55961E+00
 -1     24143-3.16839E-10 8.59840E-11-8.38671E+00
 -1     24144 9.43915E-10-5.50656E-10-7.45914E+00
 -1     24145-1.74274E-09-1.85798E-10-4.67764E+00
 -1     24146 1.22401E-09-3.12825E-09-5.64852E+00
 -1     24147-2.58876E-09-2.91441E-10-5.55340E+00
 -1     24148 1.54566E-10-4.09458E-11-9.25753E+00
 -1     24149 1.42786E-10-3.16383E-10-8.20706E+00
 -1     24150 4.73583E-10 3.97641E-10-7.88841E+00
 -1     24151-3.01534E-10-1.08315E-13-7.14280E+00
 -1     24152-1.18556E-10-2.24686E-10-6.97088E+00
 -1     24153 1.36028E-10-1.11022E-10-6.98936E+00
 -1     24154-5.03767E-10-3.90729E-11-7.42143E+00
 -1     24155-2.16981E-10 3.85400E-10-9.25541E+00
 -1     24156 1.20901E-11 1.19957E-10-8.65917E+00
 -1     24157-2.30203E-11 3.97172E-10-8.22565E+00
 -1     24158-9.47459E-11-1.70780E-10-8.07218E+00
 -1     24159 2.23556E-10 4.61800E-10-7.79986E+00
 -1     24160-5.31791E-10 5.16070E-10-7.31703E+00
 -1     24161-4.19146E-10 4.77568E-12-7.68784E+00
 -1     24162-2.01875E-10 9.23456E-11-9.33294E+00
 -1     24163 1.01358E-10 2.71906E-10-9.27677E+00
 -1     24164-2.05346E-10-2.04931E-10-8.51629E+00
 -1     24165 9.86967E-10 1.19573E-09 6.04756E+00
 -1     24166-4.48639E-10 3.48867E-10 2.63331E+00
 -1     24167 1.49571E-09 7.04773E-10 5.99154E+00
 -1     24168-1.08732E-09-3.60369E-10-4.59545E-01
 -1     24169-5.06466E-11-2.91330E-11-9.86672E+00
 -1     24170-5.72126E-10 2.02384E-10-9.54411E+00
 -1     24171-4.95233E-11 8.49188E-11-1.17857E+01
 -1     24172 7.90489E-11-2.06389E-11-1.06375E+01
 -1     24173-1.18990E-12 5.99401E-11-1.39415E+01
 -1     24174-2.70298E-12-2.88090E-11-1.03006E+01
 -1     24175 6.10898E-13 7.71976E-13-2.55310E+00
 -1     24176 2.57381E-13-5.10779E-12-9.63041E+00
 -1     24177-9.83753E-12-4.14855E-12-1.11168E+01
 -1     24178 6.06842E-11-2.72645E-11-1.43593E+01
 -1     24179-1.76559E-12-1.45098E-11-1.23720E+01
 -1     24180-1.39723E-11-4.32087E-11-1.25068E+01
 -1     24181-4.96965E-13 2.85292E-11 2.54053E+00
 -1     24182 1.22940E-13-1.51987E-12 3.56659E+00
 -1     24183 5.10975E-12-3.32073E-12-5.11787E+00
 -1     24184-5.27159E-12-4.45661E-12-1.39495E-01
 -1     24185 3.10989E-12-7.91815E-12 6.27188E+00
 -1     24186 1.13044E-12-1.14614E-11 4.52198E+00
 -1     24187-1.27089E-11-5.54944E-12-6.79702E-01
 -1     24188 3.64495E-12 4.32329E-12-2.41102E+00
 -1     24189 8.28232E-12 1.42588E-11 9.35211E-01
 -1     24190 6.77267E-13-1.20121E-12 5.62144E+00
 -1     24191-2.31609E-12-1.89440E-11 5.02020E+00
 -1     24192 1.09396E-12 2.57342E-11 7.74249E+00
 -1     24193 4.07766E-12 8.73764E-12 8.10977E+00
 -1     24194 9.07148E-12-4.57845E-12 6.79126E+00
 -1     24195-2.45116E-11-3.51283E-11 6.80722E+00
 -1     24196-8.04972E-13-1.99931E-11 7.49010E+00
 -1     24197-7.82910E-12 1.08745E-11 7.71874E+00
 -1     24198-8.75245E-12 3.87485E-12 6.62622E+00
 -1     24199 2.27381E-11-1.28356E-11 6.75351E+00
 -1     24200 1.31457E-11-1.45404E-11 5.73428E+00
 -1     24201 3.68357E-12-8.68278E-13 6.85148E+00
 -1     24202 9.34075E-12 3.15211E-11 7.46615E+00
 -1     24203-5.90658E-10-1.81463E-09 1.14588E+00
 -1     24204-7.86412E-12-4.42252E-12 5.48555E+00
 -1     24205 2.68316E-10-6.88098E-11 4.65068E+00
 -1     24206 4.32630E-10 1.84882E-10 6.43174E+00
 -1     24207-1.24447E-09 2.24986E-09 4.71943E+00
 -1     24208-5.95051E-11-2.30578E-11 6.45586E+00
 -1     24209-2.20153E-11 3.36652E-11 5.42759E+00
 -1     24210 8.06979E-11-5.23689E-12 5.72702E+00
 -1     24211 4.63569E-11 3.50641E-11 5.70576E+00
 -1     24212 7.11107E-12-3.02904E-12 3.65340E+00
 -1     24213 2.18912E-12-2.60044E-12 1.06039E+00
 -1     24214 2.84649E-12-4.12433E-12 5.82869E+00
 -1     24215 1.64986E-09-1.29820E-09-6.54370E-01
 -1     24216-2.49333E-09-1.63998E-09 1.41423E-01
 -1     24217 1.55223E-10 5.09715E-10-4.30140E+00
 -1     24218-2.84348E-10-3.43516E-10 1.09028E+01
 -1     24219-1.39970E-10-9.10369E-11 1.06470E+01
 -1     24220 5.66132E-10 1.44128E-10 1.09766E+01
 -1     24221 5.46696E-11 2.95650E-10 7.90225E+00
 -1     24222-2.40226E-10 2.81639E-10 8.19372E+00
 -1     24223 6.86271E-11-1.33221E-11 8.11821E+00
 -1     24224-7.67856E-11-2.43798E-10 7.37448E+00
 -1     24225-1.94360E-11 8.88169E-11 8.26702E+00
 -1     24226 1.27986E-10-1.49101E-10 8.69829E+00
 -1     24227-6.48397E-11 2.00051E-10 9.53564E+00
 -1     24228 2.50942E-11 3.47914E-12 9.35281E+00
 -1     24229-1.03992E-10 9.14111E-11 1.02453E+01
 -1     24230-1.10315E-10-1.79888E-10 9.94156E+00
 -1     24231-1.76929E-11 8.12852E-11 1.10075E+01
 -1     24232 8.01229E-11-1.40660E-10 1.04415E+01
 -1     24233 9.75957E-11 2.40776E-10 1.14333E+01
 -1     24234 3.07020E-10 1.01141E-10 1.08931E+01
 -1     24235-1.54160E-10 4.54335E-10 1.13687E+01
 -1     24236 1.93026E-10 7.99054E-10 1.15859E+01
 -1     24237-4.30203E-10 3.62711E-11 1.17542E+01
 -1     24238-4.54202E-10-6.14340E-10 1.12605E+01
 -1     24239-5.36662E-12-7.92707E-11 1.02056E+01
 -1     24240 1.98382E-12 1.11192E-11 8.68802E+00
 -1     24241-1.18125E-09-1.43773E-09 9.99216E+00
 -1     24242-5.88779E-10-3.72648E-10 1.07638E+01
 -1     24243 1.18247E-10 4.03538E-10 8.72038E+00
 -1     24244-1.18141E-09 5.05639E-10 9.63494E+00
 -1     24245-1.82341E-09 1.11834E-09 7.52223E+00
 -1     24246 1.42925E-10 1.24699E-09 9.21621E+00
 -1     24247 1.01283E-09-2.69987E-10 7.64765E+00
 -1     24248 8.75965E-10-1.13332E-10-4.09280E+00
 -1     24249 1.31100E-10-5.56287E-10 1.09366E+01
 -1     24250-4.71870E-10 1.87986E-10 1.10355E+01
 -1     24251-3.44004E-11-4.99072E-11-8.12104E+00
 -1     24252-5.47970E-10 1.79945E-11-7.15092E+00
 -1     24253-1.15544E-09-5.19470E-10-6.04571E+00
 -1     24254-1.35764E-09-2.17969E-10-5.68896E+00
 -1     24255-3.87994E-11-7.48213E-11 1.10282E+01
 -1     24256 3.69660E-10-6.51924E-10-6.34379E+00
 -1     24257-2.88332E-10 1.19889E-11-8.44009E+00
 -1     24258-2.03645E-10-1.26779E-10 1.05529E+01
 -1     24259 8.25627E-11-1.34620E-10 9.92158E+00
 -1     24260-8.66657E-11 1.06870E-10 9.05863E+00
 -1     24261-9.69758E-12-3.77732E-12 7.80234E+00
 -1     24262 2.78769E-11-2.94844E-11-1.48749E+01
 -1     24263 1.39663E-12-1.13452E-12-6.07266E+00
 -1     24264 4.11074E-12-1.88219E-12-6.24080E+00
 -1     24265 9.91579E-13-4.63170E-12-3.23787E+00
 -1     24266-5.76568E-12 1.16992E-12 9.50986E+00
 -1     24267-5.59721E-11 3.93261E-13 7.89316E+00
 -1     24268-9.08442E-12-5.41956E-11 8.79069E+00
 -1     24269 4.66676E-11-2.32794E-11-1.09330E+01
 -1     24270-3.62282E-11 8.71898E-11-7.89229E+00
 -1     24271 1.14831E-11 6.22922E-11-1.18145E+01
 -1     24272-1.23126E-10 3.49401E-10-9.68380E+00
 -1     24273 1.54837E-10 3.25991E-11-9.54102E+00
 -1     24274 1.61776E-10-8.46507E-11-9.23119E+00
 -1     24275-8.70463E-12 2.96956E-11-1.05764E+01
 -1     24276-6.55844E-11-1.76006E-11-7.55943E+00
 -1     24277-1.25481E-10-1.87470E-10-8.74894E+00
 -1     24278 4.79218E-13 7.02675E-12-1.24735E+01
 -1     24279 1.04434E-12 8.27427E-13-1.03035E+01
 -1     24280-2.15751E-12 4.97601E-13 6.38924E-02
 -1     24281 2.63863E-11 2.10252E-11 3.16892E+00
 -1     24282 1.51370E-11 2.30781E-12 1.23450E+00
 -1     24283-8.97225E-12-2.25130E-10 7.55533E+00
 -1     24284-8.56561E-12 6.18559E-12-1.46535E+00
 -1     24285-9.80882E-11 1.37573E-09 9.57590E+00
 -1     24286 1.86613E-11-3.97698E-11 5.96596E+00
 -1     24287 3.64583E-13 1.02299E-11 6.24081E+00
 -1     24288 4.53923E-11-6.03085E-11 7.07449E+00
 -1     24289-9.27947E-12 1.32080E-11 6.59882E+00
 -1     24290 2.00862E-11 1.41859E-11 6.73965E+00
 -1     24291 2.67990E-11-6.30376E-12 7.97510E+00
 -1     24292-4.58859E-11 5.71972E-11 6.69026E+00
 -1     24293 3.18669E-11-7.44299E-11 7.36666E+00
 -1     24294 5.61118E-10 4.04482E-09 8.08717E+00
 -1     24295-2.56305E-09 1.42173E-09-3.57856E+00
 -1     24296-4.81899E-11-1.40462E-10 1.07775E+01
 -1     24297-1.41300E-10 3.46224E-10 1.12033E+01
 -1     24298-6.33534E-11-1.25997E-10 1.12300E+01
 -1     24299 1.62882E-10-1.95227E-10 1.02193E+01
 -1     24300-1.64247E-10 7.63575E-11 9.42128E+00
 -1     24301-1.84460E-11-1.87497E-11 7.36671E+00
 -1     24302-1.18193E-11 1.83323E-11-1.09467E+01
 -1     24303-1.10202E-12 1.46129E-10 1.09694E+01
 -1     24304 1.50138E-12-5.14207E-11-8.44485E+00
 -1     24305 5.57342E-10-1.27806E-10 8.65969E+00
 -1     24306-1.73973E-09 8.87656E-10 7.04375E+00
 -1     24307 5.99728E-10-6.16914E-11 8.95330E+00
 -1     24308 2.00261E-11 3.69569E-11 7.76952E+00
 -1     24309-1.06301E-10 3.12598E-10 8.76550E+00
 -1     24310 6.25187E-11-6.55116E-10 9.76890E+00
 -1     24311-1.19474E-10 1.74267E-11-7.94325E+00
 -1     24312 1.94415E-11 6.90227E-12 8.26583E+00
 -1     24313-5.47597E-12-2.08030E-10-8.88771E+00
 -1     24314-6.56133E-13 4.46819E-11 4.27894E+00
 -1     24315-3.27388E-12-2.09359E-11-4.10527E+00
 -1     24316-3.15413E-11-3.51493E-11 7.86612E+00
 -1     24317 3.24500E-12 9.00976E-12-5.97971E+00
 -1     24318-1.02829E-11-8.04298E-13-7.64475E+00
 -1     24319 3.09527E-10 5.05414E-11 6.63860E+00
 -1     24320-5.70298E-11 5.12896E-10 7.14420E+00
 -1     24321 3.48818E-12 4.21003E-13-1.59767E+00
 -1     24322-1.10025E-14-9.53561E-13-3.53461E+00
 -1     24323-2.51438E-09-1.62878E-09 6.00857E+00
 -1     24324-8.28541E-10 9.69162E-10 7.21164E+00
 -1     24325-2.74281E-09-1.59383E-10 5.87952E+00
 -1     24326-8.98127E-11-9.77782E-11 7.48335E+00
 -1     24327 6.07527E-10 3.40857E-10 5.57572E+00
 -1     24328 9.48953E-10-2.87374E-09 5.90985E+00
 -1     24329 4.46355E-11 7.09357E-11 8.00594E+00
 -1     24330-2.75770E-11-9.57581E-11 8.23883E+00
 -1     24331 8.95292E-14 1.03956E-10 6.69477E+00
 -1     24332 1.21656E-11 2.03834E-11 5.95939E+00
 -1     24333-3.32303E-11-1.44809E-10 8.26685E+00
 -1     24334-1.13479E-10 4.58477E-10 8.31189E+00
 -1     24335-1.74457E-10-3.39643E-10 8.65143E+00
 -1     24336 4.08102E-11-1.14973E-10 8.44658E+00
 -1     24337 2.25571E-10-6.91270E-12-9.10497E+00
 -1     24338-3.72705E-10-8.87825E-11-8.71179E+00
 -1     24339 5.76696E-10-2.96785E-10-3.09094E+00
 -1     24340-1.24882E-10 2.75629E-10-4.13210E+00
 -1     24341 4.65819E-10 8.10216E-11-7.01352E+00
 -1     24342-4.07494E-12-9.14363E-11-6.63412E+00
 -1     24343 2.90246E-10-6.57242E-10 8.87611E+00
 -1     24344-2.29394E-11-3.49801E-11 9.36945E+00
 -1     24345 1.61940E-10 1.32550E-10 9.72112E+00
 -1     24346-2.56046E-10-1.93824E-09 8.87221E+00
 -1     24347 2.74284E-10-1.21025E-10 8.80997E+00
 -1     24348 2.05632E-10-3.56260E-10 8.92194E+00
 -1     24349 5.13292E-11-1.91610E-10 7.47422E+00
 -1     24350 1.19543E-10 1.21722E-10 7.96871E+00
 -1     24351-7.32977E-10 9.38804E-10 7.61527E+00
 -1     24352 3.96425E-11-4.03117E-10 7.79002E+00
 -1     24353 5.96640E-10 9.34870E-10 7.71183E+00
 -1     24354 2.54511E-10-8.44497E-10 7.74522E+00
 -1     24355-4.05796E-12 3.61511E-10 6.15315E+00
 -1     24356-3.60281E-09 1.56449E-09 3.67925E+00
 -1     24357-1.04332E-09 3.86727E-09 4.07391E+00
 -1     24358-4.29700E-11 2.48526E-13 8.00970E+00
 -1     24359 4.68535E-11 5.94303E-11 8.23696E+00
 -1     24360 2.82336E-10 1.69332E-10 7.72254E+00
 -1     24361 3.50044E-10-1.61196E-10-7.70028E+00
 -1     24362 2.05539E-10-2.60686E-11-7.37051E+00
 -1     24363 8.48672E-12-1.04151E-13 4.02784E+00
 -1     24364-1.19666E-12 2.86321E-11 2.26964E+00
 -1     24365-1.47362E-10 9.17741E-11 9.69773E+00
 -1     24366-3.65096E-10 2.26177E-10 9.63610E+00
 -1     24367 2.84539E-10-4.05090E-10 8.94852E+00
 -1     24368-1.13504E-09 2.73804E-09 8.66385E+00
 -1     24369 7.00607E-10 7.34719E-10 8.69402E+00
 -1     24370-1.73535E-10-2.27684E-09 7.62230E+00
 -1     24371-5.50106E-10-1.38738E-09-3.24325E+00
 -1     24372-3.57783E-10 2.56994E-10-4.98307E+00
 -1     24373-5.20830E-10-7.29335E-10-3.55173E+00
 -1     24374-1.39505E-11-8.78123E-11-6.64296E+00
 -1     24375 4.04392E-10-5.48374E-10-7.25447E+00
 -1     24376-4.15741E-11-1.68063E-09-6.17702E+00
 -1     24377 1.34029E-10 2.49914E-10-8.28414E+00
 -1     24378 8.29675E-11 1.18099E-10-7.93493E+00
 -1     24379 7.05301E-12 1.18668E-10 8.08940E+00
 -1     24380-9.29727E-11-3.13765E-11 7.53285E+00
 -1     24381-9.91614E-11 5.91144E-11 8.05881E+00
 -1     24382-2.66904E-11-3.19127E-11-1.04542E+01
 -1     24383 7.18777E-11 9.46176E-12-7.43418E+00
 -1     24384 1.49272E-11 1.93696E-12 2.69736E+00
 -1     24385-8.92530E-12-9.84472E-13 2.62799E-01
 -1     24386-4.82956E-12 4.13844E-11 3.12122E+00
 -1     24387 3.37123E-11-1.68470E-11-1.09422E+01
 -1     24388 3.42236E-11 7.22234E-12-8.59039E+00
 -1     24389-2.34957E-11-1.20857E-11-1.05721E+01
 -1     24390-1.08114E-11 8.27267E-12-1.37869E+01
 -1     24391 3.62629E-11-4.00441E-11 7.81583E+00
 -1     24392 1.25105E-10-1.27096E-10 8.01920E+00
 -1     24393 2.97062E-10 2.09811E-10 9.18523E+00
 -1     24394 7.59902E-11-2.71095E-10 8.52055E+00
 -1     24395 6.77022E-10-7.02413E-11-8.62715E+00
 -1     24396 2.09106E-10-2.96844E-10-8.22023E+00
 -1     24397 1.80530E-10 8.14296E-12-7.85307E+00
 -1     24398-1.54886E-10 1.07495E-10 6.03714E+00
 -1     24399 9.67032E-11 1.45982E-10 7.98891E+00
 -1     24400 6.71756E-12 1.38749E-10 7.78988E+00
 -1     24401 3.32357E-11 1.77061E-10 6.44072E+00
 -1     24402-6.38319E-11 5.48129E-11-8.43008E+00
 -1     24403 1.24830E-10-8.62079E-11-9.07925E+00
 -1     24404-1.35832E-11 5.91680E-11-9.02469E+00
 -1     24405-3.07815E-11-2.40465E-10 8.50405E+00
 -1     24406 3.96773E-11 3.08396E-11 8.66590E+00
 -1     24407-5.99892E-11-2.27100E-10 7.80204E+00
 -1     24408-2.49206E-09-9.23466E-11 2.73874E+00
 -1     24409-1.34050E-09-1.32350E-09 4.60026E+00
 -1     24410-5.69771E-10-4.26163E-11 9.05439E+00
 -1     24411 2.09534E-10-6.50536E-10 9.69397E+00
 -1     24412 1.98251E-09 5.05367E-10-1.34892E+00
 -1     24413-2.71046E-09-2.91841E-09-2.00340E+00
 -1     24414-3.68015E-10-1.98674E-11 9.13887E+00
 -1     24415-8.29187E-11 1.95623E-10 9.04989E+00
 -1     24416-6.18297E-11 3.59468E-11 8.76240E+00
 -1     24417-3.58312E-10-1.09887E-10 8.83919E+00
 -1     24418-6.66993E-12 1.05664E-12 7.48598E-01
 -1     24419 3.84042E-12 1.02971E-12-1.81864E+00
 -1     24420-5.30149E-12 5.04731E-12-5.98275E-01
 -1     24421 1.00728E-11-4.46181E-12 1.43360E+00
 -1     24422-9.80893E-12 8.39016E-12-4.14904E+00
 -1     24423 6.61168E-12-8.00185E-15-5.39976E+00
 -1     24424 1.99162E-12 5.00725E-12-5.56154E+00
 -1     24425-5.05162E-12-1.51719E-11-3.15318E+00
 -1     24426-2.33688E-09-1.05469E-09-2.59090E+00
 -1     24427 1.21329E-09-2.99618E-10-3.36428E+00
 -1     24428-2.14501E-11-2.23635E-10-2.05968E+00
 -1     24429 1.53596E-09-2.84194E-09-3.18603E+00
 -1     24430-2.23815E-10 2.51927E-10-7.90250E+00
 -1     24431 4.24077E-11 1.56420E-10-7.81088E+00
 -1     24432-4.92866E-10-2.68176E-10-7.19394E+00
 -1     24433-1.35171E-10-3.61957E-10-7.24888E+00
 -1     24434 1.11791E-11-1.60694E-10-7.53600E+00
 -1     24435 7.03228E-10 1.43240E-10-5.85346E+00
 -1     24436 2.76837E-10 1.05474E-10-6.58622E+00
 -1     24437-7.84709E-10-2.54634E-10 9.00601E+00
 -1     24438-1.72889E-10-2.18398E-10 8.97528E+00
 -1     24439 1.10436E-10-4.72524E-11 9.14008E+00
 -1     24440-6.05041E-12-4.70545E-12-1.08553E+01
 -1     24441 8.43995E-11-7.24224E-12-7.29462E+00
 -1     24442-6.55058E-12 2.03500E-11-9.09215E+00
 -1     24443-8.39481E-12 3.47782E-11-7.13806E+00
 -1     24444 4.20172E-09 3.54035E-09 3.34251E+00
 -1     24445 2.49538E-09-9.78601E-10-6.45911E-01
 -1     24446-6.19299E-10 8.35938E-10-3.51039E+00
 -1     24447 1.04925E-09 3.14902E-10-4.76706E+00
 -1     24448 2.36600E-10-4.11052E-10-4.98033E+00
 -1     24449 6.33258E-10 1.36141E-11 8.87171E+00
 -1     24450-1.61322E-11-1.53616E-10 6.80909E+00
 -1     24451 2.05999E-11-2.45365E-12 6.94019E+00
 -1     24452 4.63872E-11 1.38919E-10 6.97133E+00
 -1     24453-4.81699E-11-1.85166E-11 8.22502E+00
 -1     24454-5.18861E-11-1.96042E-12 9.02593E+00
 -1     24455-2.91154E-10 5.86914E-11 9.39549E+00
 -1     24456 2.87076E-11-6.94259E-11 8.46559E+00
 -1     24457 1.00324E-10 2.89658E-10 1.06043E+01
 -1     24458 6.67002E-11-2.61159E-11 8.57270E+00
 -1     24459 9.16010E-10 5.86278E-10 7.93978E+00
 -1     24460-1.30251E-10 6.21836E-10 9.53834E+00
 -1     24461-4.46166E-10-1.78510E-10 9.92560E+00
 -1     24462-1.58867E-09 2.54556E-10 4.35105E+00
 -1     24463-5.06859E-11 3.95541E-10-7.63438E+00
 -1     24464 2.77870E-10-5.04053E-10-7.79265E+00
 -1     24465 4.63475E-11-2.32240E-11-1.05714E+01
 -1     24466-1.07716E-10-1.73287E-10 8.66272E+00
 -1     24467-1.72053E-10 9.64369E-11-6.49186E+00
 -1     24468-1.39939E-10 3.74104E-10 7.17306E+00
 -1     24469-1.46941E-11 2.68628E-12 3.65203E+00
 -1     24470 4.03423E-11 5.09838E-12 4.78344E+00
 -1     24471-3.51724E-12-1.41777E-11 4.28447E+00
 -1     24472-5.94809E-10-9.26550E-11 8.13061E+00
 -1     24473-1.33127E-10-2.53150E-11 9.11451E+00
 -1     24474-1.57579E-10-2.60913E-10 9.45024E+00
 -1     24475 1.63752E-10-3.92019E-10-7.06228E+00
 -1     24476-2.39981E-10-2.69183E-10-6.27634E+00
 -1     24477 4.30075E-10 8.00498E-11-6.15585E+00
 -1     24478-8.39314E-10-6.51364E-10-5.62565E+00
 -1     24479-9.20392E-11 2.94262E-10 8.25471E+00
 -1     24480 1.27195E-09 5.98138E-11 1.09328E+00
 -1     24481 2.42529E-10-5.83864E-10-1.16478E+01
 -1     24482-1.14895E-11 3.50030E-11 7.12877E+00
 -1     24483 2.45367E-10-4.39854E-09-9.87754E-01
 -1     24484-8.28810E-11-5.21410E-11 9.32570E+00
 -1     24485 2.08123E-09-1.08257E-10 3.56679E+00
 -1     24486 1.02187E-11 1.43639E-11 6.03260E+00
 -1     24487 1.00504E-11 9.05309E-12 6.13772E+00
 -1     24488-2.76436E-12 8.34327E-12 6.98616E+00
 -1     24489-1.26550E-10 2.30810E-11-6.01160E+00
 -1     24490-1.41218E-10-5.17498E-10-5.67911E+00
 -1     24491 3.91645E-10-3.34636E-10-5.78490E+00
 -1     24492-6.54342E-11 2.08807E-11 8.20993E+00
 -1     24493-2.89838E-10-4.74221E-09 3.29374E+00
 -1     24494-5.47130E-12-9.44781E-11 8.88959E+00
 -1     24495 5.04984E-10-1.35553E-10 9.20593E+00
 -1     24496-4.81744E-10-1.90137E-10 8.83824E+00
 -1     24497-1.58663E-11 3.11027E-10 8.35733E+00
 -1     24498 2.10445E-11 1.56502E-11 7.45710E+00
 -1     24499-4.70042E-10-2.98271E-10 8.98851E+00
 -1     24500 1.85278E-11 1.83659E-12 5.35140E+00
 -1     24501-9.11270E-12-2.93730E-11 5.59196E+00
 -1     24502 1.33153E-11-1.26018E-11 6.23044E+00
 -1     24503 1.36176E-11-3.60480E-10 7.85775E+00
 -1     24504-3.41870E-10-3.16621E-11 7.70604E+00
 -1     24505 3.75937E-10-1.91541E-10 8.03812E+00
 -1     24506 2.33672E-09-2.37570E-09 2.83840E-01
 -1     24507 1.35529E-09 1.94673E-09 2.02882E+00
 -1     24508-6.45131E-10 1.94765E-09 1.07026E+00
 -1     24509-1.24623E-09-1.74156E-10-5.57056E+00
 -1     24510 7.10732E-10 1.34465E-10-5.31369E+00
 -1     24511 2.45524E-10-2.52636E-10 7.25576E+00
 -1     24512-2.36111E-10 1.13859E-11 7.26683E+00
 -1     24513 1.26877E-11 7.03059E-11 6.68610E+00
 -1     24514 2.08743E-11-2.52253E-11 6.58045E+00
 -1     24515-4.65895E-11 1.22548E-10-6.39210E+00
 -1     24516-4.60443E-10 1.55076E-11-5.72198E+00
 -1     24517 3.39258E-11-1.01007E-10 7.35065E+00
 -1     24518 1.57015E-10-8.25758E-11 7.92554E+00
 -1     24519-3.96220E-10-1.49481E-09 6.79318E+00
 -1     24520 2.31589E-10-6.55836E-11 6.88467E+00
 -1     24521 2.67662E-09 1.41781E-09 4.33330E+00
 -1     24522-7.32720E-11 4.85288E-10 7.94829E+00
 -1     24523-8.09785E-10 1.13327E-10 8.14460E+00
 -1     24524 4.83414E-11 2.08852E-10 6.58867E+00
 -1     24525-4.66399E-11-2.18791E-10 7.52965E+00
 -1     24526-8.56517E-11-6.08054E-11 7.83281E+00
 -1     24527-4.79488E-10-1.67408E-10 7.89158E+00
 -1     24528-3.31568E-10-2.14177E-10 8.06584E+00
 -1     24529 4.01664E-10 6.86174E-11-8.47361E+00
 -1     24530-8.46109E-11 1.94359E-10-7.17033E+00
 -1     24531-2.94776E-11-4.67956E-10 5.47072E+00
 -1     24532 1.12564E-09 2.88429E-10 5.85002E+00
 -1     24533-5.25321E-12-3.26351E-12-8.32664E+00
 -1     24534-5.41031E-11 1.29515E-11-7.51807E+00
 -1     24535-4.72188E-12 1.35416E-11-8.69334E+00
 -1     24536 3.54523E-10-2.60281E-10 7.79992E+00
 -1     24537 3.36389E-10-8.50551E-11 8.28117E+00
 -1     24538 1.96296E-10 2.47492E-10 7.38911E+00
 -1     24539-3.27545E-10 5.10602E-10 7.29251E+00
 -1     24540 6.70792E-10 4.50833E-10 6.48036E+00
 -1     24541-6.52660E-10-6.62337E-11 6.47149E+00
 -1     24542-7.01463E-10 2.69538E-10 5.52124E+00
 -1     24543-2.85338E-10 2.71937E-10-2.20673E+00
 -1     24544 6.10769E-10 4.60029E-10-1.70192E+00
 -1     24545 1.69005E-10 3.68046E-10-5.39107E+00
 -1     24546-6.14767E-10 1.69791E-10-4.79162E+00
 -1     24547 7.23591E-10-2.64854E-10-7.01487E+00
 -1     24548 2.22760E-10-1.51709E-11-6.75703E+00
 -1     24549 5.26200E-11-3.09435E-10-5.21483E+00
 -1     24550-1.28505E-11-2.56455E-11 5.66813E+00
 -1     24551 2.47655E-12 3.34294E-11 5.57670E+00
 -1     24552-3.13375E-11-3.88426E-11 7.97073E+00
 -1     24553 1.09271E-10 7.02307E-11 8.10287E+00
 -1     24554-7.33887E-10-2.19152E-10-6.49992E+00
 -1     24555-6.07794E-11-1.27364E-11-6.16270E+00
 -1     24556-1.83070E-10 9.62999E-11-5.68904E+00
 -1     24557-1.66172E-10 3.12413E-10-7.23823E+00
 -1     24558 5.49954E-10-4.17563E-10-6.97602E+00
 -1     24559-2.49828E-10-2.09406E-11-4.82090E+00
 -1     24560 4.90660E-11 8.54607E-11 3.40356E+00
 -1     24561-2.08882E-11-7.70060E-12 1.32818E+00
 -1     24562 1.76750E-11 4.52554E-11 7.80668E+00
 -1     24563 4.36597E-12 3.15875E-10 7.88912E+00
 -1     24564-1.90277E-10-2.61425E-10 7.28160E+00
 -1     24565-1.46804E-11-1.86063E-10 7.33169E+00
 -1     24566 4.15888E-11 7.16363E-10 7.34551E+00
 -1     24567 8.02633E-11 2.62394E-10 7.15974E+00
 -1     24568-4.87553E-10 2.79653E-10 7.15934E+00
 -1     24569 8.27816E-10-6.71681E-10 6.85336E+00
 -1     24570 3.72296E-11 1.99482E-11-7.67660E+00
 -1     24571 4.02890E-11 9.35343E-11-8.15879E+00
 -1     24572 2.65363E-11 3.42896E-12-5.88659E+00
 -1     24573 7.50091E-10-6.93751E-10 8.04153E+00
 -1     24574 6.90270E-10 1.20768E-09 7.25013E+00
 -1     24575-1.27467E-10 3.97457E-10 7.37690E+00
 -1     24576-3.38034E-10-3.18579E-10 7.04630E+00
 -1     24577-4.11994E-10-3.21336E-10 7.95107E+00
 -1     24578-2.46080E-10 9.45395E-11 8.13683E+00
 -1     24579-6.01551E-10-1.72970E-10 7.36084E+00
 -1     24580-4.47274E-10 1.51406E-10-3.37659E+00
 -1     24581 1.18479E-09 1.82019E-09-3.31341E+00
 -1     24582 4.19970E-12-2.62198E-11 8.30593E+00
 -1     24583-1.57496E-09-1.33007E-09-4.38150E+00
 -1     24584 2.81388E-10-4.03942E-10-3.86690E+00
 -1     24585-5.24950E-10-3.00889E-09-3.24745E+00
 -1     24586-2.52822E-10-9.45467E-10-3.11028E+00
 -1     24587-1.24868E-09-2.19157E-09 3.61853E-01
 -1     24588-1.60150E-10 7.24809E-11 7.99489E+00
 -1     24589 1.00859E-10-1.81012E-10 7.42891E+00
 -1     24590-2.61644E-10-1.08590E-10 7.46807E+00
 -1     24591 4.96298E-10 1.10038E-09 3.70952E+00
 -1     24592 1.24659E-11-1.26549E-10 4.66436E+00
 -1     24593-3.56383E-11-1.65934E-11 6.71022E+00
 -1     24594-8.95365E-11-3.84459E-10 7.36324E+00
 -1     24595 2.94788E-11-4.25092E-10 3.28342E+00
 -1     24596-8.38377E-10-4.06466E-10 3.90844E+00
 -1     24597 2.99199E-11-6.84928E-12 7.23668E+00
 -1     24598 3.80903E-11-3.49417E-11 6.73538E+00
 -1     24599 2.42825E-11-1.87391E-11 4.17090E+00
 -1     24600 9.67853E-12-1.65433E-12-2.47607E-01
 -1     24601 9.46111E-12 1.48601E-11-2.26843E+00
 -1     24602-9.04647E-10 3.14855E-10 4.87001E+00
 -1     24603 3.98094E-10-1.07599E-10-5.39175E+00
 -1     24604 1.26950E-10-1.47694E-12-4.40537E+00
 -1     24605-2.25038E-10 4.81142E-10-5.44395E+00
 -1     24606 4.97260E-10 9.62121E-10-2.24388E+00
 -1     24607-4.08561E-10 3.44817E-10-2.40139E+00
 -1     24608-2.05151E-10-4.96596E-10-2.93182E+00
 -1     24609-7.12585E-11 3.61144E-10-5.93763E+00
 -1     24610-5.30388E-12-3.29615E-10-4.73721E+00
 -1     24611 7.42912E-10 2.76575E-10-4.31264E+00
 -1     24612-1.15161E-09-1.70422E-10-4.12528E+00
 -1     24613 1.64294E-10 1.54833E-09 5.98289E+00
 -1     24614-4.25396E-11-1.04702E-11-4.96220E+00
 -1     24615-3.52669E-11 5.16923E-11-6.11553E+00
 -1     24616 2.13265E-11-1.23531E-11-2.58966E+00
 -1     24617-6.14145E-12 2.17059E-12-3.70869E+00
 -1     24618-3.21353E-11 1.26816E-11-4.13580E+00
 -1     24619-2.30625E-11-1.91348E-12-1.81716E+00
 -1     24620 1.09069E-11-3.69864E-11-5.72620E+00
 -1     24621-5.55891E-11-1.11476E-11-7.11783E+00
 -1     24622 1.38198E-10-1.19727E-10 4.35714E+00
 -1     24623 1.65824E-12 5.84010E-12 5.56627E+00
 -1     24624-1.04728E-11-3.96686E-11 6.67662E+00
 -1     24625 1.96584E-09 1.60370E-10-3.53966E+00
 -1     24626 1.34454E-09 9.56642E-10-3.03643E+00
 -1     24627-2.52397E-10 5.22799E-10-3.99913E+00
 -1     24628-1.94895E-10 2.46521E-10-1.58690E+00
 -1     24629 1.04663E-09-5.01116E-10-1.57961E+00
 -1     24630 3.69633E-11-1.65362E-10-1.70791E+00
 -1     24631-2.13146E-11-1.30939E-11 7.13005E+00
 -1     24632 4.22227E-11 1.79498E-11 8.09883E+00
 -1     24633-1.13762E-11-2.94744E-11 6.32751E+00
 -1     24634 5.97821E-11 1.10688E-11 6.67132E+00
 -1     24635-1.71585E-11-3.25422E-11 1.75577E+00
 -1     24636-1.72448E-11-3.01033E-11-5.06341E-01
 -1     24637 1.12298E-11 3.42230E-11 2.05029E-01
 -1     24638 1.20308E-11-1.97049E-11 1.94170E+00
 -1     24639-1.92208E-10-3.98041E-10-5.58758E+00
 -1     24640 2.23530E-09 1.50806E-09 6.19747E+00
 -1     24641-6.00838E-10-1.16660E-09 6.77044E+00
 -1     24642-4.81780E-10 3.78386E-11 6.45565E+00
 -1     24643-3.50486E-11 2.92665E-11 2.76573E+00
 -1     24644-1.03217E-11 3.94772E-11 3.78563E+00
 -1     24645 5.26185E-11-3.88778E-12 5.08904E+00
 -1     24646 4.41768E-10 1.77803E-10 7.23976E+00
 -1     24647-3.82972E-11 2.46134E-10 7.38575E+00
 -1     24648 4.30494E-11-1.97163E-10 7.58696E+00
 -1     24649 3.59853E-10-6.65453E-10 7.14147E+00
 -1     24650 5.95489E-10-1.14895E-09 7.29152E+00
 -1     24651-1.03837E-09 3.19092E-10 6.74649E+00
 -1     24652 1.02631E-09 2.25705E-10 6.65284E+00
 -1     24653-1.71591E-10-4.27265E-10 4.40878E+00
 -1     24654 6.77848E-10 1.03116E-10 5.71307E+00
 -1     24655-6.46299E-10-1.09639E-10-5.92515E+00
 -1     24656-1.10483E-09-3.59574E-10-5.56422E+00
 -1     24657 8.12490E-11-4.92814E-10-5.37358E+00
 -1     24658 2.87990E-11-1.98803E-11-5.79269E+00
 -1     24659 4.40078E-11 6.30606E-11 5.38243E+00
 -1     24660 5.24126E-12 1.44338E-11-5.85061E+00
 -1     24661 2.28186E-12 6.02952E-12-6.30338E+00
 -1     24662 1.48848E-11 2.90721E-11-7.68448E+00
 -1     24663-3.01562E-11 6.70734E-13-6.42851E+00
 -1     24664-1.60198E-10-1.49053E-10 7.38087E+00
 -1     24665-4.62417E-11 3.32184E-10 4.61502E+00
 -1     24666-3.25754E-10 5.04925E-10-3.67646E+00
 -1     24667 1.14706E-10 1.38816E-10-5.54224E+00
 -1     24668 1.81499E-10-1.41262E-10 6.73429E+00
 -1     24669-4.55688E-10-1.07422E-10 3.33324E+00
 -1     24670 3.03364E-10-4.87452E-10-5.06918E+00
 -1     24671-2.00784E-11 3.14924E-11-5.30131E+00
 -1     24672-2.86638E-11-5.34121E-10 3.89467E+00
 -1     24673 9.31339E-10 2.06340E-09 4.33584E+00
 -1     24674-2.98574E-10-6.28848E-10 3.81362E+00
 -1     24675-5.40497E-11-4.52988E-11 6.15532E+00
 -1     24676 3.32389E-11 2.49432E-11 7.05341E+00
 -1     24677 3.78290E-09 1.57438E-09 9.73566E-01
 -1     24678-1.52070E-10-1.40204E-09 2.52754E+00
 -1     24679-2.23055E-12 9.47829E-12-5.62717E+00
 -1     24680 2.88542E-11 5.42569E-11-5.83940E+00
 -1     24681 1.40565E-10-1.50549E-10 6.35563E+00
 -1     24682-6.23431E-10 2.25270E-10 6.68133E+00
 -1     24683-9.81029E-12 9.11867E-11 2.87850E+00
 -1     24684 4.56240E-12-3.07673E-11 2.28588E+00
 -1     24685-2.39734E-11 6.47046E-11 5.79147E+00
 -1     24686 8.05753E-11-7.01301E-11 5.88799E+00
 -1     24687-2.87698E-11 3.76214E-11 7.69239E+00
 -1     24688 1.70874E-11 1.43888E-10 5.00977E+00
 -1     24689-6.53788E-10-9.18965E-10-1.93125E+00
 -1     24690-9.31987E-10-4.03999E-10-1.66627E+00
 -1     24691-4.59870E-11-3.48877E-11 6.98514E+00
 -1     24692 2.00216E-11-9.00799E-13 8.03140E+00
 -1     24693-2.38308E-10-1.55212E-10 5.94736E+00
 -1     24694 9.13906E-11-3.06533E-10 5.99524E+00
 -1     24695 1.11830E-10 3.63006E-10-4.84694E+00
 -1     24696-2.92177E-10 1.21067E-10-4.33888E+00
 -1     24697-1.75996E-09 1.94845E-10 4.29650E+00
 -1     24698 2.52952E-10-8.26462E-10 4.41130E+00
 -1     24699 1.03173E-11 6.03657E-11 6.40729E+00
 -1     24700-3.02358E-11-3.54929E-11-6.78169E+00
 -1     24701-1.45919E-11-6.32004E-12-5.27408E+00
 -1     24702 5.83016E-12-1.05629E-10-4.75368E+00
 -1     24703 1.75523E-10 1.66001E-10 6.30398E+00
 -1     24704 4.09103E-10 1.99587E-10 6.51782E+00
 -1     24705 4.51798E-10 1.71493E-10 5.82164E+00
 -1     24706-6.59170E-10-4.66732E-10-5.11101E+00
 -1     24707 7.94920E-11-7.74101E-11-5.02714E+00
 -1     24708 5.40079E-11-8.08193E-11-4.54717E+00
 -1     24709-1.18209E-11-4.13003E-11-4.80485E+00
 -1     24710 4.81031E-12 3.39859E-11-6.33493E+00
 -1     24711 6.73394E-13-5.37374E-12-4.75406E+00
 -1     24712-2.18858E-11 1.99187E-11-5.48694E+00
 -1     24713-3.07496E-10 4.53087E-10 3.79323E+00
 -1     24714 6.93896E-10-1.04131E-09 4.33184E+00
 -1     24715 2.88440E-10-9.02170E-10 3.21153E+00
 -1     24716-3.35835E-12 1.47364E-12 6.29207E+00
 -1     24717-4.27517E-11-1.36161E-10 7.26244E+00
 -1     24718-2.70418E-11 7.34618E-11 6.61192E+00
 -1     24719-3.50655E-11 1.17380E-11 6.38989E+00
 -1     24720-5.76635E-11 1.06726E-11-6.78130E+00
 -1     24721 1.06295E-10-7.23471E-11-5.24312E+00
 -1     24722-3.66167E-12-2.01081E-10-4.62566E+00
 -1     24723 9.64705E-11-5.92223E-11-4.61357E+00
 -1     24724 3.45638E-10 8.91832E-11 6.12203E+00
 -1     24725-2.71776E-11-3.16431E-10 6.12596E+00
 -1     24726-1.13901E-11-1.45236E-10 5.83587E+00
 -1     24727 2.66497E-10 7.06307E-11 6.20709E+00
 -1     24728-3.46332E-10-2.32899E-10 6.59754E+00
 -1     24729-7.44502E-11 2.80844E-10 5.78071E+00
 -1     24730-1.83509E-10 2.65550E-10 6.13698E+00
 -1     24731-5.30044E-10-3.46298E-10 2.71942E+00
 -1     24732-1.80702E-10 2.79444E-12 2.55168E+00
 -1     24733 3.89445E-09-3.05876E-09 8.03685E-01
 -1     24734-5.39610E-11 1.57048E-10 6.14453E+00
 -1     24735-4.68686E-12 4.89975E-11 1.65720E+00
 -1     24736-6.37361E-11 8.44771E-11 1.02353E+00
 -1     24737-7.25166E-11 4.33138E-11 2.87810E+00
 -1     24738-1.77870E-10-1.49171E-10 3.93398E+00
 -1     24739 4.58336E-11 9.54666E-11-3.76888E+00
 -1     24740 1.68591E-09-1.86516E-10 2.16446E+00
 -1     24741-1.55665E-10-8.76537E-11 6.71630E+00
 -1     24742-1.83372E-10 1.63707E-11 5.68486E+00
 -1     24743-5.20178E-11 9.62614E-10-7.95759E-01
 -1     24744 3.05319E-10-4.82241E-10 4.03134E-02
 -1     24745 9.17303E-10 5.98473E-10-2.15787E+00
 -1     24746-2.07715E-11-9.29656E-10-1.88512E+00
 -1     24747 5.55421E-11-3.35038E-11-2.77815E+00
 -1     24748-3.39126E-11-3.18520E-11 5.81115E-01
 -1     24749 3.90528E-11 1.69125E-11-4.65658E-01
 -1     24750-1.89067E-11 2.66194E-11 1.04932E+00
 -1     24751 2.57391E-10-4.55678E-10-4.73574E+00
 -1     24752 6.64957E-10-1.05895E-09 6.21735E+00
 -1     24753-4.67264E-10-4.27337E-10 5.58093E+00
 -1     24754 3.67269E-10-2.24818E-10 6.01840E+00
 -1     24755-5.02281E-10-3.16774E-11 6.44225E+00
 -1     24756-2.57843E-10 6.87649E-10 5.43287E+00
 -1     24757 2.26855E-10-2.20305E-10 6.25947E+00
 -1     24758-2.10726E-10-1.30194E-10 6.55300E+00
 -1     24759 7.88124E-10 3.69595E-10 5.67958E+00
 -1     24760 7.85826E-11 1.13257E-10-2.65037E+00
 -1     24761 2.53058E-11-1.03843E-11 7.80661E+00
 -1     24762 1.53090E-11-2.44495E-11 5.14674E+00
 -1     24763-6.41816E-11 1.09920E-11 6.46746E+00
 -1     24764 2.45579E-11 4.15444E-11 5.08101E+00
 -1     24765 8.88597E-11-2.19047E-10-1.34782E+00
 -1     24766-6.32837E-10 2.41759E-10-1.26700E+00
 -1     24767 2.34673E-10 9.93607E-10-1.28680E+00
 -1     24768 4.07592E-12-2.41044E-11-1.38459E+00
 -1     24769-9.16571E-13 7.06862E-12-2.05021E+00
 -1     24770-1.69160E-11-1.91570E-11-6.16178E-01
 -1     24771-2.60476E-10 6.69164E-11-3.63324E+00
 -1     24772-5.70366E-10 6.86463E-10-3.43643E+00
 -1     24773 4.57604E-11-3.07062E-11 4.84035E+00
 -1     24774 1.03822E-11-5.18279E-11 3.83498E+00
 -1     24775-1.36771E-11 1.61850E-11-3.68095E+00
 -1     24776 2.89977E-13 5.99528E-11-3.64764E+00
 -1     24777 3.99797E-11-9.57978E-11-2.55597E+00
 -1     24778-5.09011E-11-1.53304E-10 6.40510E+00
 -1     24779 8.56303E-11-1.31995E-10 6.51091E+00
 -1     24780 2.16578E-10-1.77621E-10 4.59468E+00
 -1     24781 3.25046E-10-2.40294E-10 5.45796E+00
 -1     24782 3.02458E-10 6.32563E-10 4.17452E+00
 -1     24783 3.55497E-10-9.33492E-11 3.34347E+00
 -1     24784 4.51455E-10-1.23406E-09 8.69713E-01
 -1     24785-7.59871E-12 1.98379E-10 5.41799E+00
 -1     24786 2.10877E-10 9.60174E-10 5.25963E+00
 -1     24787-5.57713E-10 9.58103E-10 5.77237E+00
 -1     24788-5.61768E-11 1.26455E-09-4.70747E+00
 -1     24789 5.45729E-10 2.33758E-10-3.84794E+00
 -1     24790 5.96349E-10-2.67226E-10-4.34569E+00
 -1     24791 1.87545E-10-5.72785E-10 5.80190E+00
 -1     24792-7.31007E-13-4.08866E-11-6.57539E+00
 -1     24793-9.39858E-12 2.12908E-11-5.01165E+00
 -1     24794 1.29077E-11-6.10842E-12-5.81264E+00
 -1     24795-8.51176E-11-4.04433E-12-5.15705E+00
 -1     24796 3.58958E-11-5.83178E-10 5.99773E+00
 -1     24797 9.17190E-10-6.08477E-11 5.55607E+00
 -1     24798 6.62245E-10 7.26278E-11 4.92116E+00
 -1     24799 3.65638E-11 9.08484E-12 4.52897E+00
 -1     24800 1.12038E-10-2.16398E-10 5.75302E+00
 -1     24801-6.49810E-11-1.92656E-10 5.98942E+00
 -1     24802-4.10670E-11 1.22509E-10 5.04266E+00
 -1     24803 2.29334E-11-4.52509E-11 5.90868E+00
 -1     24804-7.35705E-13-3.12395E-11-2.61493E-01
 -1     24805 7.28894E-10 3.58152E-11-1.94240E-01
 -1     24806-3.11451E-10 1.74464E-09-1.47943E+00
 -1     24807 6.58140E-11 8.17374E-11-3.70656E+00
 -1     24808-1.29935E-10-1.42118E-10-2.91939E+00
 -1     24809 1.19238E-12 2.82918E-11 6.89780E+00
 -1     24810-2.92054E-12-8.45227E-11 7.27663E+00
 -1     24811 2.41824E-10-1.30461E-09-6.12930E-01
 -1     24812 3.65574E-10 7.08246E-10 2.82242E-01
 -1     24813-7.30326E-11 8.65759E-11 5.74656E+00
 -1     24814-1.26897E-11-6.45325E-12 4.69444E+00
 -1     24815 5.63666E-10-3.35301E-11 4.85157E+00
 -1     24816 4.98186E-10-1.38122E-09 4.82858E+00
 -1     24817-2.05035E-10-5.23061E-10 5.21552E+00
 -1     24818-4.06206E-11 9.81237E-11 1.96589E+00
 -1     24819 1.28399E-09-4.10244E-10 2.41274E+00
 -1     24820-7.22698E-11 5.43961E-12-4.08929E+00
 -1     24821 2.56686E-10-4.73157E-10-3.78388E+00
 -1     24822 5.44793E-10 4.08717E-10-2.27729E+00
 -1     24823-1.18359E-09 1.48848E-10-3.39544E+00
 -1     24824-3.02543E-11-1.59290E-10 3.99113E+00
 -1     24825-4.72849E-11 8.60803E-11 3.24255E+00
 -1     24826-5.03068E-11-8.58618E-12 5.35665E+00
 -1     24827-5.68905E-10 8.95872E-10-3.22329E+00
 -1     24828-9.39363E-11 1.01264E-09-2.94668E+00
 -1     24829-6.23500E-13-6.00247E-11-6.26192E+00
 -1     24830 1.05433E-12 3.56222E-11-4.32004E+00
 -1     24831-1.38361E-10-4.19111E-10 4.86230E+00
 -1     24832-1.78429E-10 2.18276E-11 4.10921E+00
 -1     24833-1.35879E-10-9.48540E-10 4.76203E+00
 -1     24834 3.49509E-10-6.00778E-11 3.41069E+00
 -1     24835-5.73101E-11-8.34792E-10 5.00597E+00
 -1     24836-3.45379E-11-1.35213E-10 4.59582E+00
 -1     24837-1.13343E-09 7.67824E-10-2.59482E+00
 -1     24838-1.78417E-09-1.46258E-09-8.00654E-01
 -1     24839 5.62543E-10 5.62950E-11 4.95016E+00
 -1     24840-4.49872E-10 4.10133E-10 5.69964E+00
 -1     24841 1.28058E-10-8.20271E-10 4.51265E+00
 -1     24842 4.86354E-10 2.69094E-10 4.74253E+00
 -1     24843-6.14562E-10 2.62923E-10 4.77222E-01
 -1     24844 8.36393E-10-2.94324E-09 2.24930E+00
 -1     24845 2.50019E-10 4.80393E-10 1.98421E+00
 -1     24846 2.28572E-11 4.77629E-10 1.96080E+00
 -1     24847 2.51412E-11 9.41797E-12 5.83439E+00
 -1     24848 3.05520E-10 2.62961E-10-1.83228E+00
 -1     24849-8.00443E-10 9.91437E-10-1.15940E+00
 -1     24850 4.84801E-10 7.09222E-11-1.25701E+00
 -1     24851-1.02929E-11-1.43674E-10-1.33882E+00
 -1     24852 7.95121E-10 6.19650E-11-7.80157E-01
 -1     24853 1.11314E-11 1.41731E-11-4.42860E-01
 -1     24854-3.46349E-11-1.20501E-10 2.61417E+00
 -1     24855 1.98470E-11-8.03045E-12 2.06752E+00
 -1     24856 1.09945E-10 1.10669E-10 3.38373E+00
 -1     24857-1.50727E-11-1.12271E-09 2.37320E+00
 -1     24858 1.74586E-11 7.27651E-11 3.23585E+00
 -1     24859-1.23374E-09 8.77442E-10 1.18778E+00
 -1     24860 1.77017E-11 2.36384E-10-3.55439E+00
 -1     24861 4.02737E-10-1.99319E-10-2.46123E+00
 -1     24862-3.37979E-10 6.72167E-11-3.74813E+00
 -1     24863 1.96630E-10 4.09863E-10-2.06032E+00
 -1     24864 3.05803E-10-6.20020E-11-1.30765E+00
 -1     24865 3.35352E-10 5.45306E-12-2.38648E+00
 -1     24866-9.96668E-10 6.10367E-10-5.43421E-01
 -1     24867-6.36484E-10 7.59379E-10-2.16604E-01
 -1     24868 3.30071E-10-1.56798E-09-2.61213E-01
 -1     24869-4.17586E-12-8.93988E-11-5.32221E+00
 -1     24870 1.96007E-11-4.77278E-11-3.89461E+00
 -1     24871 4.09581E-11 6.13089E-11-3.84082E+00
 -1     24872 4.99265E-11 6.73015E-11 1.46476E+00
 -1     24873 3.28631E-11-9.39253E-11 8.69074E-01
 -1     24874-7.62234E-11 7.76120E-12 2.05668E+00
 -1     24875 8.60068E-12 9.89541E-11 5.14259E+00
 -1     24876 1.33361E-12-1.01245E-10 5.34564E+00
 -1     24877 6.72345E-12 6.96596E-11-5.09010E+00
 -1     24878 1.95828E-10-5.54558E-10-3.35227E+00
 -1     24879 2.44846E-11 8.01118E-11-2.53335E+00
 -1     24880-3.63096E-11-1.17492E-10-3.33495E+00
 -1     24881-1.39904E-12 1.01256E-10 4.89555E+00
 -1     24882-3.94242E-11-1.25599E-10 5.09260E+00
 -1     24883 3.68481E-11-5.87349E-11-4.68825E+00
 -1     24884 2.94435E-10-2.07956E-10 4.19085E+00
 -1     24885-1.73531E-10 2.95740E-10 3.72648E+00
 -1     24886 7.92677E-10 4.93322E-10 4.12575E+00
 -1     24887 3.41201E-10 4.50902E-10 4.64446E+00
 -1     24888-2.36412E-10 1.79591E-10 3.48110E+00
 -1     24889-2.53877E-09-1.63925E-09 1.39918E+00
 -1     24890 5.15025E-10-1.70985E-09 4.22735E-01
 -1     24891 1.29721E-09 5.18482E-11-2.88364E-01
 -1     24892 4.79795E-12 6.13635E-11-5.48194E+00
 -1     24893-6.40839E-10-3.52401E-10 4.51429E+00
 -1     24894-2.39942E-10 1.45108E-10 4.81620E+00
 -1     24895 8.73839E-11-8.37076E-11 3.80310E+00
 -1     24896 1.77920E-11-2.56940E-11-1.90550E+00
 -1     24897 2.07645E-11 1.03191E-10-2.23410E+00
 -1     24898 5.79676E-11-1.63750E-10 5.26919E+00
 -1     24899-1.23410E-10 1.19137E-12 4.72835E+00
 -1     24900-1.47243E-11 8.51069E-11 4.92063E+00
 -1     24901 4.14746E-09 5.81514E-10-7.87378E-01
 -1     24902-6.44222E-11 8.22274E-11-4.52723E-02
 -1     24903-1.55174E-11 6.75949E-11-5.19542E-01
 -1     24904-2.09444E-12 1.00586E-10-1.03624E+00
 -1     24905-3.64882E-11 1.02615E-11 4.16780E-01
 -1     24906 7.32414E-11-2.16084E-10 4.34084E+00
 -1     24907 4.03505E-10 3.74128E-11 5.62378E-01
 -1     24908 6.77855E-11 4.07290E-11 7.54044E+00
 -1     24909 2.67044E-10-1.22208E-09-7.62791E-01
 -1     24910 4.41392E-10-5.60463E-10 3.16675E+00
 -1     24911 9.23000E-10 1.24413E-09 3.85756E+00
 -1     24912-4.59419E-12-2.71310E-11 6.52955E+00
 -1     24913-1.69677E-10 1.27382E-10-3.50486E+00
 -1     24914-3.23736E-11 1.85208E-10-2.27647E+00
 -1     24915-9.99714E-11-7.68057E-10-1.91269E+00
 -1     24916 4.37938E-10-1.19129E-10 4.79515E+00
 -1     24917-3.54257E-11-3.70654E-10 4.72671E+00
 -1     24918-7.28567E-11-1.73624E-10 3.96263E+00
 -1     24919 1.91415E-10-8.26453E-10 4.16062E+00
 -1     24920 2.01242E-11 3.28361E-11-3.03039E+00
 -1     24921 1.62184E-11-4.27903E-11-3.78402E+00
 -1     24922-2.13938E-11-1.55129E-11-4.13242E+00
 -1     24923 4.49219E-11-1.82233E-11-2.48646E+00
 -1     24924 4.59723E-11 7.56068E-10 1.47444E+00
 -1     24925-1.88597E-09 2.24127E-09 1.79382E+00
 -1     24926-3.06283E-11-7.68110E-11 4.78215E+00
 -1     24927 1.02830E-10 1.47848E-10 4.42953E+00
 -1     24928 1.32800E-10 1.50023E-10 2.96697E+00
 -1     24929-1.71685E-10-3.54694E-10 3.38333E+00
 -1     24930 7.90219E-10-1.05585E-09 3.95394E+00
 -1     24931-7.93576E-10-2.68166E-10 3.17289E+00
 -1     24932-3.08055E-11-4.08930E-10 3.55119E+00
 -1     24933-4.18979E-10 9.27010E-10 9.88455E-01
 -1     24934 1.73494E-10 3.01006E-09 2.03431E+00
 -1     24935 2.75125E-10-1.29487E-09 2.93995E+00
 -1     24936-5.30771E-10-5.70114E-10 1.18515E+00
 -1     24937 4.69117E-11 4.00366E-11 4.29276E+00
 -1     24938-7.88156E-11-3.95524E-11 3.73318E+00
 -1     24939-1.27408E-11 7.67645E-11 3.06012E+00
 -1     24940 1.37796E-11 2.94363E-11 3.57410E+00
 -1     24941 9.69529E-11-6.59909E-11 3.15806E+00
 -1     24942 5.97087E-11 5.50864E-11 2.99341E+00
 -1     24943-9.18692E-11 2.32930E-10-2.37684E+00
 -1     24944 9.38021E-11 5.06270E-10-1.51832E+00
 -1     24945-7.82182E-10 1.35968E-09 9.26174E-01
 -1     24946 6.69055E-10-1.07747E-09 3.54545E+00
 -1     24947 4.75293E-10-1.26516E-10 2.49273E+00
 -1     24948-2.90849E-10 3.67555E-10 4.54644E+00
 -1     24949-7.73809E-11-2.58758E-10 2.71202E+00
 -1     24950 1.05606E-10-1.69489E-10 2.69884E+00
 -1     24951 3.66056E-10-4.64316E-10 2.30178E+00
 -1     24952-1.90196E-10 1.97656E-10-2.85573E+00
 -1     24953 6.25715E-12-2.83947E-10-1.89402E+00
 -1     24954-4.52562E-11 7.20089E-11-1.60406E+00
 -1     24955-9.18478E-11-5.93938E-10-2.02306E+00
 -1     24956-4.05656E-10-6.28536E-10 3.00425E+00
 -1     24957 6.52076E-10-1.34390E-09 2.03968E+00
 -1     24958 2.01785E-10-1.59897E-10 1.66516E+00
 -1     24959-7.85395E-10-4.17486E-10 1.90976E+00
 -1     24960-2.03704E-10 1.53508E-09 2.22123E+00
 -1     24961 9.42822E-11-3.00667E-10 1.40669E+00
 -1     24962-3.92351E-10 3.31645E-10 1.34272E-01
 -1     24963-2.25496E-10 8.62419E-10 7.37949E-01
 -1     24964 6.46009E-11-5.62883E-11-3.12043E+00
 -1     24965-5.05296E-11 1.49823E-10-3.07412E+00
 -1     24966 5.19783E-12 1.34854E-11-2.88541E+00
 -1     24967-6.34105E-11-4.03907E-11 2.59055E+00
 -1     24968 1.11319E-12-1.17936E-10 1.92226E+00
 -1     24969 3.51385E-11-2.15389E-12 2.99352E+00
 -1     24970-3.14680E-10-9.26905E-10 2.97214E+00
 -1     24971-3.54725E-10-9.35234E-11 2.02052E+00
 -1     24972-8.01267E-11-6.71216E-10 2.63906E+00
 -1     24973 2.84552E-10-2.98402E-10 2.05177E+00
 -1     24974 1.59136E-10 9.64180E-11 2.39717E+00
 -1     24975 1.26362E-09-9.16661E-10 2.06673E+00
 -1     24976-2.03994E-11 3.58166E-11-1.77046E+00
 -1     24977-1.00896E-10-1.26937E-10-1.61561E+00
 -1     24978-6.08670E-13-1.34966E-10-2.85190E+00
 -1     24979 1.26873E-12 9.78097E-11 1.27158E+00
 -1     24980 4.84456E-11-4.29753E-11 1.01449E+00
 -1     24981-2.50295E-11-4.32324E-11 2.18689E+00
 -1     24982 6.25192E-11-3.96324E-11 3.39551E+00
 -1     24983 1.13341E-10-7.33926E-11 3.54529E+00
 -1     24984-1.25078E-10 2.63230E-10 2.55656E-02
 -1     24985-7.58605E-12-1.31792E-10 9.27571E-02
 -1     24986-1.22207E-10-3.97388E-10 7.13576E-01
 -1     24987-1.33136E-10-3.55392E-11-6.61753E-01
 -1     24988 5.43072E-11 3.47413E-10 1.43340E+00
 -1     24989-9.44658E-11-6.41465E-10-1.93722E+00
 -1     24990-1.28065E-10 3.78874E-10-9.72476E-01
 -1     24991 9.17988E-10 4.35831E-11-4.75881E-01
 -1     24992 7.85865E-11-9.65744E-11 3.49571E+00
 -1     24993 1.37423E-10-4.44470E-11 3.68338E+00
 -1     24994 8.54964E-11-1.88943E-10 3.02544E+00
 -1     24995-4.24778E-11 1.74253E-10 4.37528E+00
 -1     24996 1.89212E-12-1.41390E-10 3.90698E+00
 -1     24997 1.60002E-11 2.31176E-11 3.45349E+00
 -1     24998 1.59214E-10-1.00207E-10-3.28395E-01
 -1     24999 8.03946E-12-1.43365E-10-4.51070E-01
 -1     25000 3.31622E-11 5.87898E-11 2.86684E-01
 -1     25001 9.99678E-12 2.70021E-10 3.02396E+00
 -1     25002-5.71669E-11 1.11943E-10-1.87262E+00
 -1     25003-7.08152E-11-3.86766E-11-1.78045E+00
 -1     25004 4.03235E-12 2.86401E-11-1.79965E+00
 -1     25005-4.43449E-11-9.62042E-11-7.68737E-01
 -1     25006-1.90622E-11 1.45331E-10 3.17104E+00
 -1     25007 3.29531E-12-5.32177E-11 2.69337E+00
 -1     25008 5.01285E-11-5.40382E-11 2.76173E+00
 -1     25009-7.24101E-11 2.33734E-11-2.48450E+00
 -1     25010 2.25615E-10 3.00739E-10-3.30182E+00
 -1     25011-3.32651E-11 1.45622E-10-2.11251E+00
 -1     25012 5.50011E-11 3.90216E-11-2.63681E+00
 -1     25013-2.92571E-12-5.99664E-11 2.67777E+00
 -1     25014 1.67590E-10 8.44750E-11-1.05900E+00
 -1     25015-8.53420E-11-4.14232E-10-5.28226E-01
 -1     25016-1.03329E-10 4.37026E-10-5.64620E-01
 -1     25017 1.19963E-10 1.83843E-10-7.99133E-02
 -1     25018 1.22406E-10 1.68167E-10-1.12027E+00
 -1     25019-8.53177E-11-1.76273E-10 8.48523E-01
 -1     25020-3.32161E-10-1.65553E-10 6.40612E-01
 -1     25021 3.49613E-11-4.16550E-13 1.89425E+00
 -1     25022 7.68786E-11 1.52441E-10 1.72432E+00
 -1     25023 1.27095E-10 1.74687E-10 1.76620E+00
 -1     25024-6.62947E-11-6.11899E-12 1.97153E+00
 -1     25025 2.10875E-10-2.92999E-10 2.68209E+00
 -1     25026-4.19184E-11 2.76395E-12 1.19610E+00
 -1     25027 3.92606E-11 8.83220E-11 1.67251E+00
 -1     25028-5.60391E-11-1.73681E-10 1.29459E+00
 -1     25029 1.98725E-11-2.07111E-10 8.68188E-01
 -1     25030-1.17501E-10 2.06365E-10 1.80163E+00
 -1     25031-1.98349E-10 2.21474E-10 1.39300E+00
 -1     25032-1.21401E-10-8.26801E-11 1.31253E+00
 -1     25033 5.01461E-11 5.73726E-11 1.50795E+00
 -1     25034-3.41553E-11-1.65472E-10 4.96300E-01
 -1     25035-8.80990E-11 1.24127E-10-1.47538E+00
 -1     25036 1.29867E-10 1.39822E-10-6.18538E-01
 -1     25037 2.82264E-11-1.83341E-10-1.06180E-01
 -1     25038 1.32742E-10-2.08543E-10-3.31093E-01
 -1     25039-3.58089E-11 1.99031E-10 4.23601E-01
 -1     25040-7.87705E-11-1.31912E-10 5.56078E-02
 -1     25041 1.16942E-12 7.33725E-11-4.55822E-01
 -1     25042 2.44167E-11 6.69223E-12 8.48660E-01
 -1     25043 1.73971E-10 1.21159E-10 8.99391E-01
 -1     25044-9.86012E-11-4.30795E-11 3.30049E-01
 -1     25045 9.21881E-11-3.10430E-10 3.13843E-01
 -1     25046 6.92733E-11 1.24019E-10 9.52636E-01
 -1     25047 2.11205E-11 5.41924E-12-4.11242E-01
 -1     25048 2.22643E-11-1.06699E-10-5.59251E-01
 -1     25049-2.84328E-11 2.11816E-11 3.50455E-02
 -1     25050-3.88625E-11 6.91721E-11-1.55632E+00
 -1     25051-3.77691E-12 1.03078E-10-1.52661E+00
 -1     25052 4.22227E-11-7.84025E-11-1.49263E+00
 -1     25053 2.78980E-11-1.40592E-10-1.66848E+00
 -1     25054-7.13075E-11-1.95691E-11-1.22152E+00
 -1     25055 6.85418E-11 4.19493E-11-3.20962E-03
 -1     25056 2.60490E-10 1.98172E-10-5.25082E-01
 -1     25057 7.69690E-12-1.01239E-10-1.19367E+00
 -1     25058 7.61910E-11-9.15177E-11 6.44674E-01
 -1     25059 3.26103E-10 8.78547E-10-2.52136E-10
 -1     25060 1.84488E-11 1.60782E-09-3.51894E-10
 -1     25061 4.26512E-10 3.33279E-10-9.84116E-11
 -1     25062-6.31831E-10-1.04380E-11 5.31173E-10
 -1     25063 5.45554E-11 5.08255E-10 5.14135E-10
 -1     25064 3.27882E-11 2.68937E-10-4.22459E-10
 -1     25065-4.30558E-10 1.76863E-10 8.19335E-10
 -1     25066 1.12239E-10 1.50946E-10 7.69531E-11
 -1     25067-3.79185E-10-1.12201E-10-1.17811E-10
 -1     25068-8.95589E-11-1.01849E-09-1.24163E-10
 -1     25069 9.55303E-11-3.10004E-10-1.66445E-11
 -1     25070 3.81537E-10 1.00648E-10-2.05898E-10
 -1     25071 1.63214E-10-7.08302E-10-1.10666E-10
 -1     25072-7.28735E-12 6.94470E-10 1.76766E-10
 -1     25073 5.78144E-10-1.75619E-10 4.80057E-11
 -1     25074-6.67687E-11 1.15754E-11 3.73814E-11
 -1     25075-6.72336E-11-6.10822E-11-1.33908E-11
 -1     25076 9.47806E-12-3.53513E-11 1.56816E-11
 -1     25077 2.73283E-11 1.32403E-12-1.84965E-11
 -1     25078-1.62716E-10-1.97168E-10-1.01739E-10
 -1     25079-2.77009E-10 3.71203E-10-9.26301E-11
 -1     25080 1.18715E-10 2.81269E-10-6.96444E-11
 -1     25081-1.96781E-10-2.68150E-09 1.85072E-10
 -1     25082-1.80206E-10 5.19863E-10 3.51755E-10
 -1     25083 1.26851E-09-4.90250E-10 4.28980E-10
 -1     25084-5.18431E-11 2.40973E-10 3.53784E-11
 -1     25085 5.85894E-11 2.80797E-11-3.07716E-11
 -1     25086-2.43429E-11-9.67870E-11 6.21119E-11
 -1     25087 8.67998E-11 7.26666E-11-9.53670E-12
 -1     25088-2.09524E-11-5.97399E-11-2.67656E-11
 -1     25089 9.13384E-12-7.28203E-11-6.09557E-12
 -1     25090-7.39145E-11 2.01173E-11 5.45688E-11
 -1     25091 4.38376E-11-2.14922E-10-1.74549E-11
 -1     25092 1.02557E-09-1.73450E-09-4.93176E-10
 -1     25093-1.24159E-09 4.83366E-10-5.11086E-12
 -1     25094-1.52691E-09 7.26270E-10-6.73678E-10
 -1     25095-3.05055E-11-4.34802E-10-9.20028E-10
 -1     25096-8.73748E-10 4.60696E-11-3.87111E-10
 -1     25097 1.43603E-09 3.01270E-10-5.75771E-10
 -1     25098 2.30468E-10-1.45624E-10-2.00060E-10
 -1     25099 9.71536E-11 1.66847E-10 2.57546E-11
 -1     25100 1.57932E-11 3.08732E-10 4.37933E-11
 -1     25101-5.63718E-11-4.05124E-11-3.78703E-12
 -1     25102-2.34171E-11 2.68210E-11-1.49802E-11
 -1     25103 2.90086E-11-4.28301E-11 3.23976E-11
 -1     25104 4.03154E-11 3.52051E-11-1.68493E-11
 -1     25105 1.47380E-09-6.01952E-10 2.18483E-10
 -1     25106-1.22956E-09 1.15915E-09 2.34735E-10
 -1     25107 1.57106E-09 5.82050E-10-2.90402E-10
 -1     25108-9.10893E-10 6.06071E-11-7.51869E-11
 -1     25109 5.54005E-11 7.95527E-11-1.44289E-11
 -1     25110-7.34583E-12-3.41348E-11 1.74483E-12
 -1     25111-2.94130E-11-1.96048E-11-4.70141E-12
 -1     25112-4.32225E-11 6.07997E-12-1.00613E-11
 -1     25113-3.87274E-10 2.22470E-09 3.96726E-11
 -1     25114 1.42710E-09-1.91465E-09-2.06237E-10
 -1     25115 7.62783E-10 1.48383E-09-1.89370E-10
 -1     25116 1.48113E-09-1.19330E-09-1.14665E-09
 -1     25117 2.75412E-09 2.47845E-09-8.77327E-10
 -1     25118 6.46481E-10-2.03104E-09 4.92240E-10
 -1     25119 3.22534E-13 7.64912E-12 5.88329E-12
 -1     25120 1.10998E-11 2.32368E-12-2.42872E-12
 -1     25121 6.25958E-13-3.42421E-11 1.83800E-11
 -1     25122 4.94178E-12-4.65642E-11-5.71143E-12
 -1     25123-1.18969E-11 2.62164E-11-6.00409E-13
 -1     25124 2.61192E-11 2.03384E-11-2.31033E-11
 -1     25125-1.29536E-10 2.46865E-10 1.58371E-11
 -1     25126 3.84652E-11 1.82695E-11 7.25667E-11
 -1     25127-4.19468E-11 8.40092E-11-4.31618E-11
 -1     25128-3.47465E-09 4.71276E-10-2.94360E-10
 -1     25129-1.01035E-11 1.03226E-09-2.04791E-10
 -1     25130-3.35829E-09 2.54595E-09 1.49637E-09
 -1     25131 4.36297E-10-4.77306E-10 1.42193E-09
 -1     25132 1.51552E-09-4.87679E-10 4.99298E-10
 -1     25133-8.40403E-12-4.05558E-11 3.97621E-11
 -1     25134-1.40010E-10 1.41883E-10-1.53848E-10
 -1     25135-3.77877E-10-2.42100E-10 1.52374E-11
 -1     25136 1.04085E-09 1.05220E-09-7.96672E-10
 -1     25137 1.74870E-10 1.73874E-10-1.23756E-10
 -1     25138-3.58228E-12 1.09139E-10 2.48708E-11
 -1     25139-1.74104E-10 1.18204E-10-5.57986E-11
 -1     25140-1.09035E-11-3.81920E-11-3.55022E-12
 -1     25141-8.83462E-11 3.96171E-11-2.49468E-12
 -1     25142 8.53820E-11 5.51375E-10-3.99911E-11
 -1     25143-1.52050E-10-1.36511E-10 4.60503E-10
 -1     25144 8.18702E-11-4.95235E-10-1.57578E-10
 -1     25145-2.54249E-12-8.26802E-10-3.14934E-10
 -1     25146-3.60352E-10 9.02139E-10-4.70654E-10
 -1     25147-2.32332E-10-1.29228E-09-2.48619E-10
 -1     25148 1.73921E-10 1.57989E-10 6.82692E-11
 -1     25149-5.69035E-10-5.70882E-10 1.68700E-12
 -1     25150 1.88555E-10 2.18273E-10 1.70286E-10
 -1     25151 1.20317E-10-1.74515E-10 4.77185E-10
 -1     25152 1.22658E-10-3.62272E-11 8.81130E-11
 -1     25153 1.51330E-10-1.12360E-09-6.73797E-10
 -1     25154-3.19850E-10 1.90890E-10 6.52816E-10
 -1     25155 1.10885E-09 1.84327E-10 5.57505E-10
 -1     25156 7.43647E-10 7.28582E-10-1.77719E-10
 -1     25157 1.71285E-09-1.24301E-09-3.77050E-10
 -1     25158 2.91090E-10-2.01423E-09-9.94624E-10
 -1     25159-2.02754E-10 4.35019E-10 9.73627E-11
 -1     25160 6.26120E-10 1.30236E-10-5.10448E-10
 -1     25161 6.32493E-11-1.15302E-09-1.18506E-10
 -1     25162 9.71741E-11-5.05066E-10-1.88653E-10
 -1     25163-3.56837E-09 1.97584E-09-5.13831E-11
 -1     25164-1.27051E-09 4.71644E-09 1.83738E-10
 -1     25165-2.65239E-09 7.75883E-10-1.55778E-09
 -1     25166-7.22044E-10-5.48402E-10 2.71032E-09
 -1     25167 3.39301E-10 2.74519E-10-1.51650E-11
 -1     25168-5.71140E-10 7.08552E-10-5.88558E-11
 -1     25169-9.01894E-10 1.14871E-09 8.23052E-11
 -1     25170-3.94879E-10 2.00845E-12-2.58148E-10
 -1     25171-2.54164E-09-1.01721E-09-1.38100E-09
 -1     25172-4.94157E-10 1.23497E-09 2.38785E-10
 -1     25173 5.59678E-10-8.52769E-10 5.61374E-10
 -1     25174-3.26892E-12 8.80058E-10 5.56082E-10
 -1     25175 1.31516E-09-5.61481E-10 1.19541E-09
 -1     25176 3.05696E-10-1.78099E-09 3.60874E-11
 -1     25177 3.64192E-10 1.92896E-09-3.97331E-11
 -1     25178-1.30338E-09 2.45315E-10-1.62949E-10
 -1     25179 2.20874E-10-4.43049E-09 3.10291E-10
 -1     25180 2.16641E-09-7.87815E-10-3.10838E-10
 -1     25181-5.09774E-10 3.40046E-10-7.30674E-11
 -1     25182-8.36218E-10 1.57881E-10 1.07578E-10
 -1     25183-4.67732E-11 8.99598E-10-7.54973E-10
 -1     25184 1.04550E-09-1.96057E-09-9.06001E-11
 -1     25185 4.19557E-10-3.12627E-10 2.37262E-10
 -1     25186 2.46693E-09 3.49236E-11-1.05527E-09
 -1     25187 1.33548E-09-7.01611E-10 1.01096E-10
 -1     25188 1.78430E-11-3.28231E-11 5.07592E-11
 -1     25189 4.95456E-11 1.45352E-10 1.27592E-11
 -1     25190-4.49444E-12-3.85594E-10-1.58337E-10
 -1     25191 6.56239E-11-3.71663E-11 7.82695E-11
 -1     25192 1.96739E-11-2.95847E-11 4.86470E-11
 -1     25193-1.51048E-11-1.58877E-10-4.33142E-11
 -1     25194-2.36245E-11-9.74446E-11 1.84783E-10
 -1     25195 6.00260E-11-6.73889E-11-8.76355E-13
 -1     25196 5.88989E-11-5.05035E-11-3.89431E-11
 -1     25197-4.14512E-10-4.52774E-10-4.73005E-10
 -1     25198-5.70963E-11-6.02255E-10 3.75357E-10
 -1     25199 4.35276E-10-1.12153E-09 1.82525E-10
 -1     25200 3.73917E-10 5.84941E-10 9.97435E-11
 -1     25201 4.48621E-10 1.00663E-09-3.90324E-11
 -1     25202-5.18941E-10-1.15796E-10-8.19320E-10
 -1     25203 4.84555E-11 8.69238E-11-4.77026E-10
 -1     25204 7.15231E-10 7.96562E-10 3.92878E-10
 -1     25205-6.97533E-10 6.48794E-10 4.51837E-11
 -1     25206-2.25804E-10 1.08150E-09 2.89218E-10
 -1     25207-2.47975E-10-2.14265E-10-6.08152E-12
 -1     25208 1.20038E-11 3.13884E-11-8.86275E-11
 -1     25209 3.04945E-12-2.22261E-10 3.04049E-11
 -1     25210-8.52184E-11 8.25781E-11-4.80683E-11
 -1     25211-9.45625E-13-1.11348E-10-1.64970E-10
 -1     25212 1.42984E-11-1.06029E-10-3.07541E-11
 -1     25213 3.13252E-11 1.33543E-13 4.30981E-11
 -1     25214 1.63235E-11 3.61539E-11 1.18530E-11
 -1     25215 3.51184E-11 1.65568E-11-3.41002E-12
 -1     25216-7.48208E-12-3.34438E-11 4.94396E-13
 -1     25217-3.36005E-14 9.39379E-12 3.58276E-12
 -1     25218-1.50421E-10 1.21855E-11 6.06124E-11
 -1     25219 3.21321E-10-5.18525E-11-2.23610E-11
 -1     25220-4.28583E-11-1.05870E-10 7.96130E-11
 -1     25221-1.37170E-10-1.72510E-10-4.19744E-11
 -1     25222-2.05700E-10-4.99602E-10-2.21681E-10
 -1     25223 3.01396E-10-6.06999E-10 4.24056E-11
 -1     25224 1.25331E-09 5.38994E-10-2.88850E-10
 -1     25225-2.14457E-09-1.30672E-09-1.57555E-10
 -1     25226 4.17179E-10 1.40443E-09-9.02983E-10
 -1     25227 8.32485E-10-1.66975E-10 1.03441E-09
 -1     25228 3.48575E-10-9.48219E-10-1.63870E-10
 -1     25229-6.17754E-11-3.10243E-11 6.91089E-12
 -1     25230 2.53757E-11 1.09541E-09-7.20726E-10
 -1     25231 1.20449E-09 4.61955E-10-3.07444E-10
 -1     25232 1.09555E-09-2.53974E-09 5.39227E-10
 -1     25233-2.90258E-11 3.65659E-12-6.38412E-12
 -1     25234 1.35038E-11-2.99728E-12 2.60506E-11
 -1     25235 1.98412E-11-1.03235E-12 9.73188E-12
 -1     25236-7.34004E-13 9.04051E-12-2.47347E-12
 -1     25237-1.95469E-11 1.18782E-11 3.93074E-11
 -1     25238-2.86985E-10-1.17025E-09-2.44335E-10
 -1     25239 2.05792E-10 4.55595E-11-8.53826E-11
 -1     25240 6.43239E-11 5.92140E-10-5.22092E-11
 -1     25241 6.91024E-11 3.09916E-11-6.69978E-11
 -1     25242-1.22492E-10 6.52307E-11-3.83789E-11
 -1     25243 2.01894E-11 2.19666E-11-4.30767E-12
 -1     25244 2.01680E-11-2.01851E-11-1.05743E-11
 -1     25245-1.69109E-11-6.47059E-11-1.14353E-10
 -1     25246 2.34889E-10-1.18313E-09-4.43984E-11
 -1     25247-1.36539E-10 7.31846E-10 2.55436E-10
 -1     25248 2.48308E-10-4.17045E-10 1.75371E-10
 -1     25249-4.41915E-11-6.94189E-11 4.06495E-11
 -1     25250 3.18762E-11-2.18165E-10-1.40570E-10
 -1     25251 1.95221E-10 4.53223E-11 5.48956E-11
 -1     25252 2.14846E-13-1.62095E-10-1.27398E-10
 -1     25253-7.79225E-11 4.72275E-11 4.06941E-11
 -1     25254 4.58675E-10 6.25663E-11-4.49791E-11
 -1     25255 1.26231E-10-1.44385E-10 1.25766E-10
 -1     25256 1.97984E-11 2.80485E-11-1.12613E-10
 -1     25257-2.36954E-10-1.32929E-10-1.26325E-10
 -1     25258-1.52680E-10 1.59266E-10 3.57696E-11
 -1     25259 1.92418E-10-4.09953E-10-2.01072E-10
 -1     25260 6.56625E-10-1.51094E-10-1.11559E-10
 -1     25261 8.05480E-10-4.54012E-10 5.52228E-10
 -1     25262-4.18742E-10 9.78884E-10 1.03996E-10
 -1     25263-2.30586E-10-3.69803E-10 2.12016E-10
 -1     25264-4.97723E-10-2.04261E-09 1.21541E-10
 -1     25265 2.76872E-10 2.37981E-09 3.44055E-11
 -1     25266 5.28685E-10-9.02477E-11 1.17865E-09
 -1     25267 7.56320E-10-4.99053E-10-6.98080E-10
 -1     25268-8.25105E-10-1.62344E-09 1.95309E-10
 -1     25269 1.83167E-10-8.66168E-10 4.22919E-10
 -1     25270 5.62669E-11 4.27768E-11 3.02120E-11
 -1     25271-5.38718E-12 4.20559E-12 1.62892E-12
 -1     25272 2.98975E-10-5.47190E-10 9.97317E-10
 -1     25273-1.01512E-10 5.69870E-11-5.71873E-10
 -1     25274 1.59127E-09-1.02885E-09 1.19177E-09
 -1     25275-8.73619E-12-4.32124E-10-6.14596E-10
 -1     25276-3.83330E-11 3.96530E-11-1.07461E-11
 -1     25277-5.65862E-11 6.86269E-12 4.18837E-11
 -1     25278-1.06567E-11 4.03531E-11 1.93640E-11
 -1     25279 2.79446E-12 2.28464E-11 3.96190E-12
 -1     25280 1.53357E-11-1.20743E-11 3.83027E-13
 -1     25281 1.23931E-11 2.04328E-11 1.03265E-11
 -1     25282-1.80840E-10-1.20823E-09 1.12618E-09
 -1     25283-1.56011E-09-1.43674E-09-9.21330E-10
 -1     25284 1.86959E-09 5.22936E-10-1.36800E-10
 -1     25285-1.67567E-09 1.47684E-09 1.64846E-10
 -1     25286 1.29864E-09-3.56077E-10-9.38862E-10
 -1     25287-4.11182E-09-2.03839E-09-8.39514E-11
 -1     25288 6.61040E-10 1.71883E-09 7.52579E-10
 -1     25289 2.82099E-09-9.37612E-10 1.50361E-09
 -1     25290-5.83470E-10-4.14942E-09-1.00896E-09
 -1     25291-2.81059E-09 1.82199E-09-2.25230E-10
 -1     25292 6.11796E-10 2.25972E-10 1.17066E-09
 -1     25293 4.90233E-11 1.56763E-11-6.14353E-12
 -1     25294-6.29392E-11 8.25285E-11-2.91378E-10
 -1     25295-4.48578E-10 3.82150E-10-2.18274E-11
 -1     25296 4.60518E-10-3.04165E-10-1.21709E-10
 -1     25297 4.21245E-10 1.45998E-10 5.50989E-10
 -1     25298-2.97808E-10 3.02231E-10-3.90447E-10
 -1     25299 6.71849E-11-9.00867E-11-5.98506E-11
 -1     25300-7.51075E-12 8.18835E-11-5.40623E-11
 -1     25301 4.93134E-11-1.62307E-10 4.22854E-11
 -1     25302 6.13011E-11-1.20527E-10 2.53109E-11
 -1     25303-1.35535E-09 3.90906E-09 8.34271E-10
 -1     25304-4.94108E-10-3.97343E-09-7.33115E-10
 -1     25305-9.37889E-10-3.28030E-09 1.59765E-09
 -1     25306-3.59931E-13 1.00849E-12-7.66651E-13
 -1     25307-2.20795E-12 5.77680E-12-1.55559E-12
 -1     25308 5.35909E-12 2.99571E-12 7.21456E-13
 -1     25309-3.66206E-13-1.29294E-11 3.98149E-12
 -1     25310-1.50857E-11-9.73868E-13-8.07299E-13
 -1     25311 6.77642E-10 1.44285E-10 1.94927E-09
 -1     25312 1.87820E-10-1.52492E-10 3.01633E-10
 -1     25313-4.71991E-10 6.89972E-10-8.81156E-10
 -1     25314-7.76058E-12-8.00773E-12-7.88646E-12
 -1     25315-2.64174E-11 2.90579E-11-1.43119E-11
 -1     25316 4.28293E-11 8.32534E-12 1.77156E-11
 -1     25317 5.33341E-11-6.60842E-11-7.67386E-13
 -1     25318-1.40727E-11 3.28197E-11-5.15143E-13
 -1     25319-2.35575E-10 1.16269E-10-1.46858E-10
 -1     25320 5.36379E-10-5.70018E-10-2.84808E-11
 -1     25321 7.96051E-10-3.58514E-11-6.51853E-10
 -1     25322 3.00753E-10-6.21543E-10-2.83063E-10
 -1     25323-3.48864E-10 9.85151E-10 7.41486E-11
 -1     25324-2.25295E-10-5.38311E-11-3.45051E-10
 -1     25325-1.93557E-10-3.63620E-10-1.50145E-10
 -1     25326-5.62947E-11-2.67951E-10 5.48220E-10
 -1     25327-1.46783E-09 8.38495E-10 2.88705E-10
 -1     25328 1.41815E-09 2.87188E-09 6.27816E-10
 -1     25329-5.33105E-09-8.64144E-10 1.37623E-09
 -1     25330-2.10255E-09 6.91252E-10 5.99696E-10
 -1     25331 1.02786E-09 1.75822E-09 2.81477E-10
 -1     25332-1.49453E-09 9.49302E-10 1.06228E-09
 -1     25333-2.87452E-10 2.56560E-10 2.04161E-10
 -1     25334 1.11088E-09-1.52692E-10-7.17167E-10
 -1     25335-2.42041E-10-3.93826E-10-8.77239E-11
 -1     25336 1.82092E-10-5.56325E-11-2.57794E-11
 -1     25337-9.25357E-11 8.10267E-10-3.09862E-10
 -1     25338 3.77663E-10-2.47730E-10 1.67552E-10
 -1     25339 1.78911E-10 2.25448E-10-1.74696E-10
 -1     25340 7.03216E-10-1.61954E-10 1.45942E-10
 -1     25341 6.63961E-10-2.79769E-10 3.13861E-11
 -1     25342 1.38474E-10-7.99447E-10-1.52201E-10
 -1     25343 2.49746E-10 1.20642E-10-5.51763E-10
 -1     25344 5.05746E-10 6.40205E-10 1.81962E-10
 -1     25345-4.04879E-10 3.07096E-10 3.79443E-10
 -1     25346-3.71738E-10 6.08572E-10-2.22705E-10
 -1     25347-2.42514E-10 7.74133E-10-1.92354E-12
 -1     25348 2.38911E-10-4.76545E-10 6.45549E-11
 -1     25349 8.51938E-11-2.55269E-10-2.78577E-10
 -1     25350-1.06534E-09 1.48830E-09 3.42773E-10
 -1     25351-1.20641E-10-1.20709E-10 4.52455E-11
 -1     25352 6.26832E-11-2.93624E-10-1.08903E-10
 -1     25353 1.54024E-10 2.65997E-11 1.90530E-11
 -1     25354 8.70002E-10 1.76154E-09-3.45269E-10
 -1     25355 3.07601E-09-1.60585E-09-1.38583E-09
 -1     25356 2.36267E-09-4.19080E-10 7.64429E-10
 -1     25357-8.95480E-10 1.29305E-09-2.03619E-10
 -1     25358-1.70199E-09-3.53203E-10 3.90287E-10
 -1     25359-1.02804E-10-6.55728E-11 2.43008E-10
 -1     25360 1.14650E-09 8.20119E-10-1.54485E-10
 -1     25361 7.89070E-10 1.75891E-10 3.86808E-10
 -1     25362 6.22545E-10-6.09443E-10 7.88236E-12
 -1     25363 1.80602E-10 6.75451E-10 2.78430E-11
 -1     25364 2.14107E-12 4.87046E-11 2.36700E-11
 -1     25365 1.04881E-11-2.82230E-10-5.11021E-11
 -1     25366-3.74783E-11-6.80740E-11 2.48492E-10
 -1     25367-4.19437E-11-9.89459E-11-3.36739E-11
 -1     25368 1.80991E-10 1.21156E-10 1.95400E-10
 -1     25369 3.71245E-11-1.00532E-10 3.02780E-12
 -1     25370 6.81871E-12-2.21772E-11-4.26905E-11
 -1     25371 8.70942E-11-4.62228E-11-1.73391E-10
 -1     25372 2.07199E-10 2.23169E-10 6.98610E-10
 -1     25373-9.73865E-10 8.68978E-10 2.06325E-10
 -1     25374 6.26132E-10-4.79935E-10 8.22545E-10
 -1     25375-8.31229E-10-1.84712E-09 2.45683E-10
 -1     25376-4.47484E-11-1.76777E-09 1.22612E-10
 -1     25377 7.04403E-10 1.86659E-09 9.33404E-10
 -1     25378 1.41102E-09-4.80592E-09 1.12607E-09
 -1     25379 1.01321E-09-2.38496E-09 1.32959E-09
 -1     25380-4.72420E-10-1.85493E-10 2.16057E-09
 -1     25381-6.62726E-10-1.41858E-09-1.61099E-09
 -1     25382 5.95286E-10 5.48960E-10 1.34270E-10
 -1     25383-5.54876E-10-9.66910E-10 1.41728E-10
 -1     25384 6.36990E-12-1.13227E-09 1.14330E-10
 -1     25385 2.95562E-11-1.87657E-10-1.15940E-10
 -1     25386 5.18731E-12 3.88907E-10-2.98577E-10
 -1     25387-5.02778E-10 2.73627E-10 1.81100E-11
 -1     25388 1.98161E-13 3.82559E-12 8.31335E-12
 -1     25389 2.03327E-12-3.49535E-11-9.58444E-12
 -1     25390 5.34568E-10 1.33464E-10-7.84660E-11
 -1     25391 9.66998E-10-6.07100E-10 2.76052E-10
 -1     25392-2.19781E-10 9.53460E-11 9.40639E-11
 -1     25393 1.09160E-10 2.20115E-10 2.28163E-11
 -1     25394 1.76699E-09-1.03686E-09 1.78367E-09
 -1     25395 8.98366E-10-4.24715E-09-3.64095E-09
 -1     25396-1.99310E-09 1.36600E-09 1.62943E-10
 -1     25397 2.82767E-11-4.62190E-10 6.08180E-12
 -1     25398 1.86336E-11-1.08206E-10 2.00999E-10
 -1     25399-9.86336E-11-4.17652E-10-3.95550E-10
 -1     25400-5.07317E-10 3.23654E-10 6.77968E-11
 -1     25401 8.82638E-11 1.10982E-10-1.92690E-12
 -1     25402 2.93195E-11 2.79338E-10-1.39123E-10
 -1     25403 5.76181E-11-3.36999E-11 4.32576E-12
 -1     25404-3.74827E-11-1.56330E-10 7.96391E-11
 -1     25405 7.55558E-11-2.95414E-10-1.71758E-11
 -1     25406-7.99949E-11-9.28931E-11-7.24454E-11
 -1     25407-1.02432E-10-9.85182E-11-1.18562E-10
 -1     25408-9.93743E-11 1.02843E-10-5.72254E-11
 -1     25409 1.62715E-10 3.09542E-11 1.32229E-11
 -1     25410-2.13001E-10-3.14140E-10 4.31571E-11
 -1     25411 4.06346E-10 5.20045E-10-2.44919E-10
 -1     25412 4.01115E-10 1.85802E-09 1.09351E-10
 -1     25413 6.94996E-10 9.39740E-10 6.09241E-10
 -1     25414-7.47817E-10 1.29226E-09-2.33854E-10
 -1     25415 7.69680E-12-2.07397E-11-1.03027E-11
 -1     25416-1.14961E-10-4.33320E-11-1.57400E-11
 -1     25417-2.18863E-11-9.43809E-11-8.11695E-12
 -1     25418 7.24474E-10-8.93961E-10 3.66313E-10
 -1     25419-1.58404E-10-2.13953E-10-2.52744E-11
 -1     25420 1.46314E-10 4.06963E-10-3.51323E-10
 -1     25421 6.01379E-10 3.88950E-10 6.08610E-10
 -1     25422-2.58667E-10 1.01521E-09-5.10544E-10
 -1     25423-2.06484E-11-8.88830E-11 1.05539E-11
 -1     25424 3.09561E-11 5.25600E-11 1.86208E-11
 -1     25425 4.73839E-11-2.14429E-11 3.11120E-12
 -1     25426-2.22367E-10 7.56012E-10 3.77023E-10
 -1     25427-1.04294E-10 1.69943E-11 1.07748E-11
 -1     25428 1.38766E-10 2.77065E-10-1.78198E-10
 -1     25429 7.71974E-11 1.59115E-10-3.44870E-11
 -1     25430-1.76419E-10 7.10405E-11 8.09461E-11
 -1     25431-9.52276E-10 2.33078E-10-3.18803E-11
 -1     25432 5.83189E-10-1.28627E-10 1.17618E-10
 -1     25433 4.53713E-11-4.04415E-10-1.56727E-10
 -1     25434-5.42871E-10-8.41824E-11-2.46338E-10
 -1     25435 5.82741E-10-2.79829E-10 1.51089E-10
 -1     25436-4.14758E-12 6.32448E-12-8.38440E-13
 -1     25437 1.71669E-12-3.30861E-11 4.62963E-13
 -1     25438 8.62886E-13-2.76642E-12 1.48592E-12
 -1     25439-2.31114E-12 9.01669E-12 4.95604E-13
 -1     25440 2.30690E-12-2.78833E-11 8.11689E-12
 -1     25441-4.00259E-11 1.82743E-09 9.72200E-11
 -1     25442-1.27823E-09 2.09436E-09-6.04742E-10
 -1     25443-3.13318E-10-2.05156E-09-3.20780E-10
 -1     25444-6.77737E-12 9.33247E-12-1.11213E-12
 -1     25445 2.09096E-11-1.81233E-11-2.51132E-13
 -1     25446 1.50155E-11 1.65116E-12 1.10134E-13
 -1     25447 1.91306E-12-6.68545E-12-6.75460E-13
 -1     25448-2.12178E-12 7.88954E-13-1.09512E-12
 -1     25449 2.91268E-12 2.84058E-12 4.55858E-13
 -1     25450 5.31658E-14-1.78753E-13 6.87894E-13
 -1     25451 1.20774E-13 1.15044E-12-1.69553E-12
 -1     25452 3.68212E-11 1.77975E-10 1.18139E-12
 -1     25453 3.39542E-11-2.54837E-10 3.16229E-11
 -1     25454 2.60724E-11-2.78406E-10-9.66294E-12
 -1     25455 1.38317E-10-1.22415E-10-2.41369E-11
 -1     25456-1.31208E-10 2.63560E-11-4.26091E-11
 -1     25457-1.14845E-10-2.86331E-10 7.14643E-11
 -1     25458 3.98296E-10 1.49731E-09 1.10560E-09
 -1     25459-1.28229E-09 8.85726E-10 1.38386E-09
 -1     25460 9.58674E-10-8.94388E-10 7.22080E-10
 -1     25461-9.31104E-10 9.95025E-10-7.75184E-11
 -1     25462-2.18164E-10 4.48323E-10-5.13692E-11
 -1     25463 2.08215E-10-2.15038E-09-1.45691E-10
 -1     25464 4.01343E-12-9.61114E-14 1.14816E-12
 -1     25465-1.49494E-12 8.26397E-12 1.50946E-12
 -1     25466-3.01325E-12 7.20993E-14 1.03856E-12
 -1     25467-9.89202E-13 2.12048E-12 3.34932E-12
 -1     25468 4.99490E-10 4.03699E-10-3.15964E-10
 -1     25469-1.65428E-10 1.70057E-09-3.22722E-10
 -1     25470-2.73557E-09-4.30081E-11 1.00947E-10
 -1     25471 2.20469E-11 2.18165E-11-3.22159E-12
 -1     25472 7.62498E-11 4.72559E-11 5.41367E-12
 -1     25473 3.56138E-12-2.88800E-12-1.88827E-12
 -1     25474 3.43628E-12 5.64299E-12 1.19782E-12
 -1     25475-7.83243E-13 4.38165E-12-9.41025E-13
 -1     25476-2.10267E-12 1.14689E-11-1.07558E-12
 -1     25477-2.33699E-12-9.23675E-13 4.16112E-13
 -1     25478-6.78395E-12-7.14124E-13 3.41714E-12
 -1     25479 3.13925E-12-1.91720E-11 2.54255E-12
 -1     25480 1.46723E-11 9.29753E-12 1.28932E-11
 -1     25481-8.36173E-12-2.32958E-11-1.55138E-11
 -1     25482-5.92816E-12-1.02285E-12-5.83142E-12
 -1     25483-1.58163E-11-2.53477E-11 1.82222E-11
 -1     25484 3.74224E-12-6.23752E-12-3.38940E-11
 -1     25485 3.82587E-12 9.10677E-12 8.29292E-12
 -1     25486-1.61956E-12-1.34984E-12 2.49223E-12
 -1     25487-1.63729E-11 2.00296E-11-9.04543E-12
 -1     25488 2.97192E-10 7.58622E-11 7.35645E-11
 -1     25489 1.79786E-11-1.81538E-10-1.06475E-10
 -1     25490-5.45492E-11-1.92677E-11-3.85679E-11
 -1     25491 1.80907E-11-1.50235E-11-2.05663E-12
 -1     25492-4.93639E-11 8.00429E-11 3.16591E-11
 -1     25493 2.59193E-09 3.35806E-10-9.85089E-11
 -1     25494-1.57033E-09 5.85574E-11-1.05651E-09
 -1     25495-9.17524E-10-6.85899E-11 1.34441E-10
 -1     25496-2.78761E-10 5.23419E-10 4.71751E-10
 -1     25497 2.13341E-10 1.23011E-10 1.63568E-10
 -1     25498-1.08850E-10 3.87190E-11 5.75448E-10
 -1     25499-6.55515E-11 2.00798E-10 1.06068E-10
 -1     25500-1.63604E-10-1.02157E-11-1.59118E-10
 -1     25501-1.01173E-10-5.42485E-11-1.59180E-11
 -1     25502-1.71441E-10 1.61255E-10 1.02357E-11
 -1     25503 4.66909E-10 2.23746E-10 8.03925E-11
 -1     25504-2.35320E-10-1.80045E-10 1.26603E-10
 -1     25505-4.03937E-12 7.55801E-10-4.58814E-11
 -1     25506 1.87776E-10 3.02505E-10 5.18312E-11
 -1     25507 2.93617E-10-2.99369E-10-4.63715E-11
 -1     25508 5.38992E-11 6.04891E-10-2.53317E-11
 -1     25509-1.03539E-10 5.70169E-10-2.71914E-11
 -1     25510-2.02774E-10-1.39810E-09-4.86427E-10
 -1     25511 3.50241E-10 3.45184E-10 1.65541E-10
 -1     25512-2.64871E-10 1.17675E-09 3.42401E-10
 -1     25513-7.40014E-10 4.27285E-10 1.19999E-10
 -1     25514-2.57349E-10-4.54298E-10 6.38286E-11
 -1     25515 9.94853E-11 1.41410E-10 2.59447E-10
 -1     25516-3.56657E-11-2.42411E-10-4.43258E-11
 -1     25517 1.74145E-10-7.53763E-10-7.11594E-11
 -1     25518 3.45851E-10 2.05560E-10 1.43185E-10
 -1     25519 1.27180E-10-1.64124E-10 6.27469E-11
 -1     25520 1.73701E-10 1.62369E-10 2.50209E-10
 -1     25521 1.97588E-10-2.86866E-11-1.40434E-10
 -1     25522-1.20280E-10 1.02705E-10 1.78107E-10
 -1     25523 3.20631E-10 3.67855E-10 1.94422E-10
 -1     25524 4.33862E-11 9.21004E-11 1.16396E-10
 -1     25525-2.48413E-11 3.39120E-10 1.17391E-11
 -1     25526-5.58649E-11 3.83279E-12 7.28443E-11
 -1     25527 2.28951E-10 1.24171E-10-2.61380E-11
 -1     25528-1.14156E-10-2.59107E-11-3.22851E-12
 -1     25529-5.41464E-11-2.80170E-10 9.61174E-12
 -1     25530 1.21868E-10-4.85520E-12-1.95715E-11
 -1     25531-7.39915E-11 7.72952E-11 1.96152E-12
 -1     25532-7.84790E-11 2.42843E-10-7.84650E-12
 -1     25533 6.59762E-11-5.60527E-10 1.01781E-10
 -1     25534-3.72352E-11 3.10358E-10 2.74555E-11
 -1     25535 5.03942E-11-6.31692E-11 3.82581E-11
 -1     25536-1.28686E-11 3.02757E-10-1.61567E-11
 -1     25537-1.75482E-10 7.84839E-11 2.10667E-11
 -1     25538 6.81570E-11-2.08839E-10 5.77114E-11
 -1     25539-5.13637E-11-1.59310E-10-7.05225E-11
 -1     25540 1.11762E-10 1.29773E-10-6.58846E-11
 -1     25541 7.90969E-12 2.45120E-11 4.46801E-11
 -1     25542 7.13758E-12 2.38657E-10 3.14829E-11
 -1     25543 6.90311E-10-8.49630E-10 6.12677E-11
 -1     25544 3.89255E-10 3.54111E-10 4.55127E-11
 -1     25545 8.89238E-10-2.47322E-09-9.80805E-11
 -1     25546 1.37899E-09-1.37153E-09 7.38773E-10
 -1     25547-1.26889E-10 1.87108E-10-3.89024E-10
 -1     25548-1.04999E-09-2.59608E-10-4.44012E-10
 -1     25549 3.25153E-12 4.16022E-12-2.79683E-11
 -1     25550 2.59858E-11-1.77908E-11-1.02665E-11
 -1     25551-1.74999E-11 4.51698E-11-2.23886E-11
 -1     25552 1.44917E-11-8.58149E-12-2.82619E-11
 -1     25553-2.09722E-11-5.44822E-12-2.45937E-12
 -1     25554 2.41327E-12-1.04075E-11 2.59691E-11
 -1     25555 1.25889E-13 6.68794E-12-5.72609E-12
 -1     25556 1.48725E-11-8.33161E-12-4.81617E-12
 -1     25557 4.40906E-10 1.53608E-10 3.03489E-11
 -1     25558-3.03355E-12-2.37622E-10-9.09280E-11
 -1     25559-4.22646E-11-2.02133E-10 1.32556E-11
 -1     25560 2.01368E-10-1.15601E-10 3.15183E-11
 -1     25561-1.40668E-10 5.36646E-10-1.35647E-11
 -1     25562 1.56485E-10 4.42981E-10 2.72963E-10
 -1     25563-4.22058E-11-1.02731E-11 9.31359E-11
 -1     25564-1.06529E-11 3.17456E-12-8.96172E-13
 -1     25565-2.82054E-11-5.14245E-11-3.13383E-12
 -1     25566-3.22910E-11 3.16611E-12-2.02394E-13
 -1     25567-5.31323E-12-2.32687E-12 4.82397E-12
 -1     25568 7.69444E-12-1.44056E-11 6.07014E-14
 -1     25569-3.17068E-11 1.34514E-10-3.05320E-11
 -1     25570-1.36589E-10 7.87259E-10-3.64104E-10
 -1     25571-8.78267E-10 9.39790E-10 1.54722E-10
 -1     25572 5.77785E-10-1.05386E-09-5.67077E-11
 -1     25573-6.32105E-10 2.07488E-10-5.44203E-10
 -1     25574-1.85575E-10 2.96918E-10 5.73378E-10
 -1     25575 6.77567E-11 1.08760E-10 2.13088E-10
 -1     25576 2.48422E-12-1.88301E-12-1.87038E-12
 -1     25577 2.11757E-10 6.94704E-10-4.27625E-09
 -1     25578 8.58969E-10-3.70782E-10-8.12308E-10
 -1     25579 2.79973E-09-2.60383E-09 3.15494E-10
 -1     25580 2.45664E-10-2.49033E-09-5.06534E-10
 -1     25581-3.73518E-12-5.35421E-12 5.49299E-12
 -1     25582-6.75038E-12-1.17215E-11-4.59699E-12
 -1     25583 4.19079E-10-8.89415E-11-2.90346E-10
 -1     25584-5.68582E-10-1.01471E-09-2.62462E-10
 -1     25585 1.76806E-10 5.60256E-10 2.18269E-10
 -1     25586-4.50873E-11-3.56117E-11-1.83371E-10
 -1     25587-3.58049E-11-2.42146E-10-2.75471E-10
 -1     25588-7.33142E-10 1.23919E-11 3.08817E-10
 -1     25589-5.68013E-10-3.17268E-10-1.00765E-10
 -1     25590 1.95406E-09 1.32423E-09 5.00155E-10
 -1     25591 1.09706E-09 8.30316E-10 3.21366E-10
 -1     25592 1.81613E-09-1.62960E-09-9.38678E-10
 -1     25593 8.74930E-10 1.54904E-09 4.30295E-10
 -1     25594 1.35274E-09 2.78578E-09 2.00854E-10
 -1     25595 3.50323E-09-2.03868E-09-5.30964E-10
 -1     25596-1.42105E-10-1.86608E-10 8.94654E-11
 -1     25597 8.36653E-11-3.99794E-10-5.88538E-11
 -1     25598 4.13446E-11 6.95743E-12-5.05684E-12
 -1     25599 1.23069E-11 6.06034E-12-6.46971E-12
 -1     25600 9.22491E-10-2.26548E-10 1.61432E-10
 -1     25601-7.62767E-10 1.61346E-09 3.53060E-10
 -1     25602 4.95487E-10 1.63488E-09-1.89739E-10
 -1     25603 2.77813E-10-1.07325E-09 1.47406E-10
 -1     25604-5.84712E-10-2.32393E-10 5.52731E-10
 -1     25605 8.88226E-10 4.54701E-10-4.21219E-12
 -1     25606-1.33199E-09 2.08712E-10-1.09598E-09
 -1     25607 5.65746E-10-1.15526E-10 2.00825E-10
 -1     25608 5.54163E-10-1.28439E-10-5.19351E-11
 -1     25609 1.17462E-12 6.50205E-13-6.14286E-13
 -1     25610-4.75776E-10 1.06356E-09-1.12330E-10
 -1     25611-4.24332E-10-9.35496E-10-3.68722E-10
 -1     25612-1.96444E-12 1.66331E-12 2.27418E-12
 -1     25613 1.95754E-10 8.15686E-11-5.83948E-11
 -1     25614 3.14827E-10 8.50724E-10-1.56173E-10
 -1     25615 8.20520E-10-9.09572E-11-1.92249E-10
 -1     25616-1.22587E-10-2.81865E-10 8.39302E-10
 -1     25617 2.97617E-10-6.32590E-10 8.53539E-11
 -1     25618-6.09917E-10-3.69802E-09 3.12605E-10
 -1     25619-3.35918E-10-9.49791E-10-1.90148E-12
 -1     25620-6.17239E-11-1.22705E-09 7.24021E-10
 -1     25621 1.45002E-09 1.40088E-09 5.07437E-10
 -1     25622 1.09646E-10-6.87128E-10-5.17546E-10
 -1     25623 8.53379E-10 5.82666E-10-8.38387E-11
 -1     25624 7.18523E-10 7.67812E-10-3.76777E-10
 -1     25625-2.23815E-10-3.13834E-10 6.47924E-11
 -1     25626-1.60199E-10-1.60654E-10 1.05063E-10
 -1     25627-1.57088E-11-4.29778E-11 8.31502E-13
 -1     25628 5.44340E-13-2.52034E-11 1.15026E-11
 -1     25629-4.00095E-12-3.91508E-11-8.48976E-12
 -1     25630-2.79757E-11 1.39056E-11-7.88058E-12
 -1     25631-3.82920E-10-9.38044E-11 9.50061E-11
 -1     25632 1.07212E-11 3.99631E-11 1.31202E-10
 -1     25633 1.85743E-11 4.27393E-11-2.01426E-10
 -1     25634 2.41455E-10-7.03549E-11-2.06032E-10
 -1     25635-2.45967E-10-1.52864E-09 9.79021E-10
 -1     25636 1.51487E-10 2.31744E-09 2.58539E-09
 -1     25637 1.10990E-09 2.43838E-09-1.48954E-09
 -1     25638-6.76424E-11 3.79014E-09 1.63540E-10
 -1     25639 6.84350E-11 4.44234E-12-1.70518E-10
 -1     25640 2.80076E-10 4.47092E-10 1.81501E-11
 -1     25641-1.10524E-09 3.48426E-10-1.56852E-10
 -1     25642 5.62100E-10-1.01246E-09-3.83650E-11
 -1     25643 1.60397E-10-4.63648E-10-1.86791E-11
 -1     25644-1.02252E-09 8.56601E-11-3.65750E-11
 -1     25645 6.74923E-10 1.02269E-09 1.02393E-10
 -1     25646 2.53511E-10-2.24347E-10-7.38348E-11
 -1     25647-1.32548E-10 4.46094E-11-1.99862E-11
 -1     25648-6.43087E-11-1.61178E-10-8.50008E-12
 -1     25649-2.26649E-12 5.34843E-11-3.30427E-11
 -1     25650-7.63294E-10 9.63187E-11 1.39220E-10
 -1     25651 4.66917E-10 6.96023E-10 3.01861E-10
 -1     25652 3.14811E-10 4.32697E-11 3.03922E-10
 -1     25653-2.19053E-12 5.25879E-11 3.15244E-11
 -1     25654 8.16716E-11 1.00260E-11-6.65246E-12
 -1     25655-2.30379E-11 3.17956E-11 1.94467E-11
 -1     25656 4.76444E-12 4.27824E-11 1.09021E-11
 -1     25657 4.39796E-11 6.56183E-11 4.29084E-11
 -1     25658-5.09940E-11 3.79407E-11-2.09284E-11
 -1     25659 8.33558E-11 3.94439E-11 6.97195E-11
 -1     25660 1.25443E-12-7.32755E-12 3.98162E-11
 -1     25661 1.27303E-10-1.19566E-10-7.23059E-13
 -1     25662-9.35237E-11-7.26589E-11-2.11887E-11
 -1     25663-1.25397E-10-3.65909E-10-2.54996E-10
 -1     25664 3.68492E-10-1.61094E-11-2.77268E-10
 -1     25665 2.20555E-09-2.02214E-09-1.25809E-09
 -1     25666 4.90577E-09 2.92556E-09-9.67734E-10
 -1     25667 3.04784E-09 4.81358E-09-4.80334E-11
 -1     25668-6.32261E-09-6.87301E-10-9.78545E-10
 -1     25669 2.92443E-09 3.69404E-10 1.44417E-09
 -1     25670-1.75533E-10 3.31756E-10-3.11245E-10
 -1     25671 2.63059E-09-4.04728E-10-7.14599E-11
 -1     25672-5.56432E-09 1.61425E-10-4.94320E-10
 -1     25673-7.56236E-10-3.55298E-10 2.37687E-10
 -1     25674-7.42150E-11 1.16033E-09-2.66024E-10
 -1     25675-3.89821E-10 8.88518E-10-1.37974E-09
 -1     25676 1.92884E-09 4.69155E-10-2.03971E-10
 -1     25677 1.11966E-09 1.47645E-09-4.49214E-10
 -1     25678-2.25823E-10 1.25801E-09 7.91165E-11
 -1     25679-2.10673E-10 8.57266E-10 3.42464E-10
 -1     25680 8.56138E-10-1.26736E-10-2.76432E-10
 -1     25681 6.37377E-10-1.43115E-09-2.37744E-10
 -1     25682 1.58304E-10 1.29499E-09 4.09703E-10
 -1     25683-8.30976E-10 2.39071E-10 1.84330E-10
 -1     25684-1.43200E-09 7.21543E-10 7.81408E-11
 -1     25685-7.92070E-11 1.28888E-10 4.73808E-11
 -1     25686-2.17027E-11 2.47316E-12-8.38724E-12
 -1     25687-7.87847E-10 5.29768E-10-1.96041E-10
 -1     25688 6.86943E-10 3.92328E-11-1.07116E-10
 -1     25689-3.25034E-10 2.37859E-10-3.45945E-11
 -1     25690 3.21070E-10-5.19277E-10 1.31605E-10
 -1     25691-1.71242E-10 3.07798E-10 9.16828E-12
 -1     25692 7.13529E-12-9.36353E-11-2.10432E-10
 -1     25693-8.10497E-10 1.02092E-09-1.94141E-10
 -1     25694 6.60157E-10 8.74047E-10 2.18337E-10
 -1     25695-3.39238E-10-3.43154E-10 7.28818E-10
 -1     25696 1.50344E-10-1.05375E-09-3.54702E-11
 -1     25697 4.53767E-10-1.98520E-10-2.00738E-10
 -1     25698-1.90430E-10 7.69743E-10 4.05548E-10
 -1     25699 6.12042E-10-7.95461E-10 4.26943E-10
 -1     25700 1.30809E-09-1.07946E-10-4.02483E-10
 -1     25701 1.03413E-09 1.05728E-09 1.39379E-10
 -1     25702 2.68750E-09 1.52740E-09 1.05618E-09
 -1     25703-3.95762E-09-1.10858E-09 3.85230E-10
 -1     25704-3.28314E-10 8.65206E-10 1.10766E-09
 -1     25705 1.14907E-09-6.90751E-10-7.35000E-10
 -1     25706-3.79970E-10-3.72987E-10 7.44264E-10
 -1     25707 2.29827E-10-4.39132E-10-1.06961E-09
 -1     25708-3.42604E-10-1.71264E-11-5.23984E-10
 -1     25709-2.18727E-10 1.28647E-11 8.23351E-10
 -1     25710-7.17966E-10 3.22417E-10-1.42798E-10
 -1     25711 6.99073E-10 4.52932E-10 1.44207E-11
 -1     25712 8.69169E-10 6.39032E-10 7.04632E-10
 -1     25713-6.41073E-10-4.00484E-11-4.04483E-10
 -1     25714 3.34336E-10 2.03856E-10 2.23441E-10
 -1     25715 4.10877E-10-1.37980E-10 4.03433E-12
 -1     25716 2.26420E-10 2.52959E-10-2.38507E-10
 -1     25717 1.91720E-10 6.48037E-12 3.11412E-11
 -1     25718-7.83040E-11-6.60821E-11-2.02223E-10
 -1     25719-1.57143E-10 2.81073E-12-1.31357E-10
 -1     25720 3.79237E-11-2.97637E-10-3.30452E-12
 -1     25721 7.21349E-12-2.12596E-10 1.04695E-10
 -1     25722 7.92306E-12 9.28085E-11 3.26018E-11
 -1     25723-1.16921E-10 6.46452E-11-2.56322E-11
 -1     25724 4.01450E-10-2.85901E-09 6.84639E-11
 -1     25725 3.07586E-10-1.29961E-09 4.22894E-10
 -1     25726-1.64341E-09-2.93668E-09-4.10612E-10
 -1     25727 1.19922E-10 2.17814E-10 1.66125E-10
 -1     25728 2.20859E-10 5.30767E-11 3.28198E-11
 -1     25729-1.14925E-10 1.64552E-10-1.48090E-11
 -1     25730-1.57713E-10-8.30425E-11 3.77016E-11
 -1     25731-2.21317E-10 6.17212E-10 1.51796E-10
 -1     25732 2.15414E-10 5.23115E-10-2.32771E-10
 -1     25733-1.24739E-10-8.81271E-10-2.99176E-10
 -1     25734 6.65279E-10-6.31016E-10-2.37432E-10
 -1     25735 2.23339E-09-2.75049E-09 9.95417E-10
 -1     25736-6.65250E-10 2.66313E-10-1.27384E-10
 -1     25737 6.32470E-10 5.01019E-10-4.46414E-10
 -1     25738 5.52400E-11 1.78717E-09-5.66895E-10
 -1     25739-5.76072E-10 1.17863E-09-9.33712E-10
 -1     25740 1.13654E-10-1.52158E-10 7.73230E-11
 -1     25741-2.04635E-11-2.09172E-10 1.26195E-10
 -1     25742-3.66901E-10-1.16993E-09-5.08792E-10
 -1     25743-6.33225E-11-8.36168E-10-1.57423E-10
 -1     25744-9.29347E-10-2.86262E-10-1.75345E-10
 -1     25745-1.86238E-10-8.22857E-10 1.32269E-09
 -1     25746 1.65761E-09 2.36384E-09-3.79428E-10
 -1     25747 1.00387E-09 1.04453E-09 4.48368E-10
 -1     25748 9.04908E-11 2.39178E-09-2.86406E-10
 -1     25749-3.99990E-09-6.03074E-09 2.61140E-09
 -1     25750 2.09854E-09-2.79339E-09-2.14285E-10
 -1     25751-2.22265E-09 2.20428E-09 1.70382E-09
 -1     25752-2.26465E-11 7.69966E-11-9.54400E-12
 -1     25753 6.11891E-11 2.17351E-10 1.34082E-11
 -1     25754 1.43214E-11 1.90081E-11-2.54283E-11
 -1     25755 2.48332E-10 3.35698E-10 2.43941E-10
 -1     25756 2.41157E-11-4.29828E-11 2.06965E-10
 -1     25757-6.96883E-11 1.96960E-10 1.73308E-10
 -1     25758-3.41241E-10-5.40484E-11-2.28162E-11
 -1     25759 1.07040E-11-4.17050E-11-1.13386E-10
 -1     25760-4.82848E-10 1.26803E-09-6.33180E-10
 -1     25761-1.89783E-10-5.08453E-10 9.36853E-11
 -1     25762 3.92063E-10-1.06372E-09-2.05758E-09
 -1     25763 1.36042E-10-3.78988E-11-2.22510E-10
 -1     25764 1.79573E-11-2.12618E-10-5.45858E-11
 -1     25765 1.19904E-09 3.91237E-10 3.26085E-10
 -1     25766-8.11754E-10-1.93763E-10-2.15059E-10
 -1     25767 2.31538E-10 4.21254E-10 2.27278E-10
 -1     25768 9.59731E-13 6.55045E-11-7.53911E-11
 -1     25769-1.10505E-11-2.54494E-10 7.72658E-11
 -1     25770 2.57224E-10 1.97077E-10-1.56978E-10
 -1     25771 1.45709E-12 1.70138E-10 4.23918E-11
 -1     25772 6.66053E-11 2.76646E-10-1.47130E-10
 -1     25773-1.12205E-10 4.41887E-11-2.48477E-11
 -1     25774-3.58408E-10 1.99798E-10-1.52051E-10
 -1     25775-8.33151E-10-1.81668E-12-6.44720E-11
 -1     25776 3.55762E-10-3.46304E-11 7.33386E-11
 -1     25777-2.10715E-10-3.27151E-10 2.79192E-11
 -1     25778-2.99273E-10-2.01905E-10 3.61426E-10
 -1     25779 5.23034E-10-6.18288E-10-1.14261E-09
 -1     25780-6.73706E-10 8.33870E-09 4.08460E-10
 -1     25781 1.02084E-09-2.14537E-09 2.68442E-10
 -1     25782 1.96869E-11-6.38950E-10 1.40049E-10
 -1     25783-1.22323E-10 7.45743E-11 8.13072E-11
 -1     25784-1.48941E-12 2.74353E-11-2.85258E-11
 -1     25785-4.33055E-10 5.68774E-10 1.08724E-10
 -1     25786-8.59561E-11 2.97347E-11 9.31659E-11
 -1     25787 4.51926E-10-1.81716E-09 3.08948E-10
 -1     25788-2.25202E-10-1.56717E-09 1.83917E-10
 -1     25789 2.80697E-10-1.41730E-10 1.75624E-10
 -1     25790 1.98783E-11-1.01639E-09-5.32169E-10
 -1     25791 2.12587E-10 9.27201E-10-9.71485E-11
 -1     25792 1.90433E-10-7.15299E-10 4.12277E-10
 -1     25793 3.49447E-10-1.25601E-09-6.28801E-11
 -1     25794-1.69683E-10-9.75017E-11-7.61517E-11
 -1     25795-3.03156E-10 2.91463E-10 4.43292E-10
 -1     25796 2.10479E-10 7.35296E-11-7.85674E-11
 -1     25797 1.36455E-10 2.51733E-10-8.07556E-11
 -1     25798 2.94089E-10 9.18995E-10 4.55616E-10
 -1     25799 9.55307E-11-2.15472E-09-1.85135E-10
 -1     25800-2.42528E-10 3.38915E-10-1.07636E-10
 -1     25801-4.82054E-10 1.14492E-09-1.23713E-10
 -1     25802 7.09077E-12 6.67178E-12-5.85976E-13
 -1     25803-4.54240E-12-6.95250E-12 1.57374E-12
 -1     25804 7.02000E-13-7.71650E-12 8.31557E-14
 -1     25805-1.01555E-10-1.63879E-11 1.45990E-10
 -1     25806 3.38143E-10-6.08158E-10-3.59841E-11
 -1     25807 3.36405E-10 3.59641E-10 4.44254E-11
 -1     25808-7.94087E-11-4.72630E-11-9.09888E-11
 -1     25809 2.87426E-11-2.32059E-11 7.32414E-12
 -1     25810-3.81852E-12-6.43473E-12 5.04435E-12
 -1     25811-6.65717E-10 4.39103E-10-3.89401E-10
 -1     25812-1.03078E-09-1.65625E-09-7.63273E-11
 -1     25813 1.21639E-09 7.00850E-10-3.00530E-10
 -1     25814-2.00276E-09 1.29322E-09 3.32877E-10
 -1     25815 9.37768E-10 3.25552E-09-1.28939E-10
 -1     25816 2.48733E-10-2.37111E-10-2.16320E-10
 -1     25817 1.01784E-10 5.96682E-10 8.02355E-11
 -1     25818 2.72388E-12-1.05238E-11 1.11903E-11
 -1     25819-3.04170E-12-1.47585E-11 1.93394E-12
 -1     25820 3.46590E-12 1.21124E-13-1.29635E-12
 -1     25821 4.98589E-11 1.23400E-10-1.04963E-10
 -1     25822 9.37722E-11 2.60388E-10 2.37054E-11
 -1     25823-2.01728E-11 3.48300E-10 5.45062E-11
 -1     25824 1.46823E-10 2.05411E-09-4.53318E-10
 -1     25825-1.39092E-10 2.07398E-10 1.17035E-10
 -1     25826-4.42165E-11 2.52180E-11-1.09504E-10
 -1     25827 4.04972E-11 1.02407E-10-1.50695E-10
 -1     25828-1.22389E-10-2.51172E-10-2.30800E-11
 -1     25829 8.54476E-11-3.29271E-11-1.32254E-10
 -1     25830-3.52533E-10-1.07702E-10-1.46845E-10
 -1     25831-7.82215E-12 1.83594E-10-5.67224E-11
 -1     25832 1.69382E-10 1.19635E-11 4.40150E-11
 -1     25833-1.01807E-10 1.13972E-10-1.42223E-11
 -1     25834-4.16364E-12 1.52058E-10 2.24954E-11
 -1     25835-3.25962E-11-1.69131E-11-2.71367E-11
 -1     25836 9.71467E-11-2.12663E-10 7.96889E-12
 -1     25837 2.27998E-10 4.35348E-10 2.14504E-11
 -1     25838-3.90077E-11 2.53035E-10 2.94711E-11
 -1     25839-5.85628E-11 8.12486E-12 5.16371E-11
 -1     25840-7.23619E-12-1.86537E-10 2.09164E-10
 -1     25841-1.55019E-10 3.38741E-10-1.59811E-10
 -1     25842-1.16249E-10 2.96522E-11-5.78801E-11
 -1     25843 1.76433E-11-4.57519E-10 3.42386E-11
 -1     25844 1.64818E-10-2.03886E-10 2.32357E-11
 -1     25845-5.19352E-12-1.03767E-10 6.16440E-11
 -1     25846 3.06681E-10-2.89359E-10-3.20212E-11
 -1     25847 1.51963E-10 2.91341E-10 2.48376E-10
 -1     25848-2.63185E-12-8.54964E-13-2.19443E-14
 -1     25849 4.97072E-12-4.86018E-12 1.97536E-13
 -1     25850-1.75585E-12-9.20624E-13 1.29575E-12
 -1     25851-3.14050E-15-4.70199E-13-8.38253E-14
 -1     25852-2.98605E-11 6.88470E-12 1.80407E-11
 -1     25853 1.06996E-11 1.36573E-11-2.12421E-12
 -1     25854 4.08120E-12 2.33186E-12 9.61644E-13
 -1     25855-9.57635E-12-3.89069E-12-2.40075E-12
 -1     25856 4.28567E-12-3.73651E-12 2.60370E-12
 -1     25857-8.77719E-10 2.01117E-09 1.55276E-09
 -1     25858-1.58890E-09 8.80311E-10 4.92262E-11
 -1     25859-1.74628E-09 1.95941E-09 9.10681E-10
 -1     25860-2.87370E-09-2.74803E-10 9.09432E-10
 -1     25861-4.07860E-10-4.13734E-09-1.64309E-09
 -1     25862 1.52523E-09 2.42524E-11-1.27676E-09
 -1     25863-3.41874E-11-2.38055E-10 5.66569E-12
 -1     25864 1.03209E-10-6.13630E-11 1.43655E-10
 -1     25865-5.19907E-11 1.90876E-11 1.02630E-10
 -1     25866 5.74061E-11-2.68993E-10 1.83892E-11
 -1     25867 1.97669E-11 6.45151E-11-4.93992E-11
 -1     25868-1.00317E-11-2.94565E-10-1.00538E-10
 -1     25869 7.22985E-12-7.64546E-11-2.64461E-12
 -1     25870-7.15437E-12-5.97905E-10-1.85509E-10
 -1     25871-9.88195E-10 5.64227E-10 4.57694E-10
 -1     25872 5.85717E-10 1.21718E-09 1.35828E-11
 -1     25873 6.94728E-10-4.11505E-11 3.35308E-10
 -1     25874-4.22700E-10 2.45585E-10 1.38736E-10
 -1     25875 6.90530E-12-1.83372E-11 1.92385E-10
 -1     25876 1.13031E-11 9.95171E-12 1.71674E-12
 -1     25877 5.43892E-12 1.20414E-11-6.27498E-13
 -1     25878 2.40465E-12 7.22741E-12 1.77469E-12
 -1     25879 3.06269E-10-1.68166E-11-1.04268E-10
 -1     25880 2.17347E-12-2.46914E-10-4.54365E-11
 -1     25881-1.66889E-10 4.97709E-10 2.43902E-12
 -1     25882 5.68169E-12 1.71235E-10 1.67632E-10
 -1     25883 6.82447E-11 5.38987E-10 1.19572E-10
 -1     25884-2.46459E-11-2.23358E-10 1.16187E-11
 -1     25885 1.05723E-10 2.85933E-10-3.93345E-10
 -1     25886 6.72927E-10-3.14082E-10-1.93016E-10
 -1     25887 1.88500E-10-2.05049E-10-1.32378E-10
 -1     25888 1.40649E-12 6.71588E-13-1.55143E-12
 -1     25889 4.38493E-13-6.82806E-13 1.28231E-12
 -1     25890-2.62596E-13 9.52934E-13 3.91820E-12
 -1     25891-1.84719E-12-1.58873E-13-5.11297E-13
 -1     25892 1.65104E-12 1.85226E-12 5.24365E-13
 -1     25893 8.83530E-11 2.31763E-10 2.92807E-11
 -1     25894 5.48363E-11-5.13223E-10 9.69751E-11
 -1     25895-3.33128E-10-5.49648E-10-1.76117E-11
 -1     25896-1.89301E-10-6.87827E-10-3.34834E-11
 -1     25897 4.17817E-10 7.92481E-10 8.27864E-11
 -1     25898 1.82513E-09 2.45350E-10-7.75934E-11
 -1     25899 1.02329E-12 5.17271E-12 8.18456E-13
 -1     25900-2.42403E-11 8.30108E-11 1.32194E-11
 -1     25901 5.44924E-11 8.63987E-11 5.14659E-11
 -1     25902 4.14409E-11 3.01572E-11-2.97868E-11
 -1     25903-7.92705E-12-1.90390E-10 4.72355E-11
 -1     25904 2.28779E-10-2.11226E-09 7.56164E-11
 -1     25905-2.22824E-09-5.87047E-10 5.64854E-10
 -1     25906 2.17033E-10-7.82422E-10-2.67953E-10
 -1     25907-3.98299E-10 1.07426E-09 4.88479E-10
 -1     25908-1.70952E-12-1.32892E-11-7.69829E-13
 -1     25909-1.68022E-12-1.24315E-11 6.89089E-12
 -1     25910-6.03357E-12 4.88807E-12-2.65565E-13
 -1     25911-2.03794E-11 3.31721E-10-2.47795E-10
 -1     25912 1.38497E-10 9.03681E-12 6.14841E-11
 -1     25913 2.68271E-10 2.33799E-11 1.98472E-11
 -1     25914 2.68650E-11-1.19252E-10 2.80272E-10
 -1     25915-3.63891E-09-5.41686E-10-3.33879E-10
 -1     25916 1.66366E-11 2.76782E-10 7.43139E-11
 -1     25917 3.31646E-10 1.81535E-10 8.06797E-11
 -1     25918 3.34794E-10 2.89816E-10 5.28290E-11
 -1     25919 1.04126E-10 1.47874E-10 1.32550E-10
 -1     25920-1.29531E-10-3.86287E-10 1.11701E-10
 -1     25921-7.75349E-11-4.26417E-10 1.15410E-10
 -1     25922-7.67073E-10-5.07043E-10 5.86368E-11
 -1     25923-6.61511E-10 1.19444E-09 1.84425E-10
 -1     25924-5.57904E-12 7.21923E-13 1.01821E-11
 -1     25925-1.98188E-11 5.73852E-12-1.19436E-11
 -1     25926 2.08132E-12-1.36559E-12-1.84586E-12
 -1     25927 6.38419E-10-2.19483E-09-5.67930E-10
 -1     25928-4.55427E-10-5.09093E-10-4.21407E-11
 -1     25929 1.42231E-09 3.20831E-10 1.19880E-10
 -1     25930-2.87573E-12-6.25217E-12 1.52239E-12
 -1     25931 2.75323E-12 1.25378E-11 5.95790E-12
 -1     25932-3.88316E-13-3.45700E-12-4.19947E-12
 -1     25933 3.24104E-12-1.54648E-11-3.95595E-12
 -1     25934-7.64833E-13 2.67903E-12 6.94556E-12
 -1     25935-2.58876E-11 6.34675E-12 1.40621E-12
 -1     25936-2.93034E-12 3.93023E-12 2.21378E-12
 -1     25937 1.18779E-12-1.28096E-11-3.31624E-13
 -1     25938 8.86523E-12-3.45496E-12-2.82782E-12
 -1     25939-8.46033E-14-4.67136E-12-3.71569E-12
 -1     25940 5.90611E-12 1.65365E-12 7.99538E-12
 -1     25941-2.56668E-09 1.26414E-09-2.43786E-10
 -1     25942-1.36608E-09-1.82032E-09 4.51084E-10
 -1     25943-2.18377E-09-1.05466E-09-8.81797E-10
 -1     25944 1.03588E-09-9.68848E-10 2.14784E-10
 -1     25945 1.19624E-11 3.50585E-11-1.73585E-11
 -1     25946-2.41277E-11-9.87522E-11 1.36109E-11
 -1     25947 6.16236E-11-4.14123E-10 4.07826E-10
 -1     25948 7.89535E-10 1.28426E-10 1.05877E-10
 -1     25949-3.29391E-10 8.24292E-10-4.32055E-10
 -1     25950 3.59466E-10-3.03387E-11-1.55088E-10
 -1     25951 3.06421E-10 2.28815E-12 3.60813E-10
 -1     25952 4.30164E-13 7.15004E-13 1.27040E-12
 -1     25953-4.31001E-12 6.27683E-12 4.08318E-12
 -1     25954-6.63930E-10 1.45417E-10-3.20217E-10
 -1     25955 6.40852E-10-9.08788E-10 3.37578E-10
 -1     25956-1.42663E-11-2.12314E-11 1.97756E-11
 -1     25957 2.67037E-11 1.52340E-10 9.54938E-11
 -1     25958 7.93318E-11-4.39448E-12 3.56420E-11
 -1     25959-1.31016E-11-4.44167E-11 3.47430E-11
 -1     25960 6.06312E-11-3.27065E-10 2.05083E-10
 -1     25961 7.70731E-12 6.07934E-13 3.98748E-12
 -1     25962 6.45348E-12 7.53900E-12 1.24178E-12
 -1     25963-1.81435E-12 2.67656E-12-8.19023E-12
 -1     25964-7.35904E-12 3.83322E-13-2.17715E-13
 -1     25965 2.77603E-11-8.57697E-12 7.08344E-12
 -1     25966-6.56704E-10 9.30316E-10 1.87181E-10
 -1     25967 2.89765E-11-2.81292E-10 6.43192E-10
 -1     25968 1.16676E-09-5.63860E-09-1.04697E-09
 -1     25969-9.38607E-10 1.24015E-09 6.58713E-10
 -1     25970-2.19470E-11-1.80431E-10 3.82300E-11
 -1     25971 3.90423E-10 7.37122E-10 4.89594E-10
 -1     25972-1.60863E-09 1.47545E-09-1.04622E-09
 -1     25973 9.15680E-10-9.54830E-10 1.94025E-10
 -1     25974-8.47000E-10 2.61338E-09 2.37947E-10
 -1     25975-2.03967E-10 4.09808E-11 1.39490E-10
 -1     25976 6.70061E-10-8.34135E-10-2.38259E-10
 -1     25977-1.23833E-09-6.89356E-10 4.17871E-10
 -1     25978 1.43993E-11-4.05893E-11-7.01342E-12
 -1     25979-6.44780E-10 8.89857E-10-9.64042E-10
 -1     25980 8.11291E-10-1.53663E-09-1.20771E-11
 -1     25981 2.84366E-09-4.37228E-10-2.27756E-10
 -1     25982 1.23650E-10 6.25638E-11 2.90920E-11
 -1     25983-3.05979E-09 2.52328E-10-5.93094E-10
 -1     25984-5.08031E-10-2.76783E-09 5.57787E-10
 -1     25985-1.37518E-10 5.01577E-11-8.23265E-11
 -1     25986 2.50588E-11-3.64933E-11 2.72510E-11
 -1     25987 9.14760E-12 2.27051E-12 1.06185E-12
 -1     25988 3.36876E-12 3.16564E-12-1.71518E-12
 -1     25989 3.28781E-10 3.82939E-10-6.12496E-10
 -1     25990 5.59065E-10 1.52210E-10-2.80982E-10
 -1     25991 1.30407E-11-5.34218E-10 5.69468E-10
 -1     25992 9.94194E-10-7.94799E-11-1.76872E-10
 -1     25993-8.17276E-10-4.59819E-10 4.45733E-10
 -1     25994 8.24862E-11 8.95151E-10-1.22634E-10
 -1     25995 5.20717E-13 5.08637E-13 1.76094E-12
 -1     25996-8.60661E-12-6.99777E-12-1.82346E-12
 -1     25997-5.19114E-10-1.05340E-09-4.11487E-10
 -1     25998-7.82483E-11-1.57288E-09-7.35857E-11
 -1     25999 7.77710E-10 6.30686E-10-4.30450E-10
 -1     26000 2.15677E-09 6.16026E-10 5.64507E-10
 -1     26001 1.94369E-10-6.25347E-10 2.68577E-10
 -1     26002-5.21067E-10-1.39592E-11 2.94949E-10
 -1     26003 6.73752E-10 5.16085E-10-4.39376E-10
 -1     26004 9.47704E-11 1.81999E-09 4.99407E-11
 -1     26005-2.67566E-10 6.70805E-10-9.54169E-10
 -1     26006 3.27542E-10-1.79511E-09 2.82596E-10
 -1     26007-8.29187E-11-1.27525E-09 4.18372E-10
 -1     26008 4.67447E-12 2.60080E-11 2.12590E-11
 -1     26009 8.85488E-12 4.15550E-12 4.92628E-12
 -1     26010 9.13213E-13-2.21203E-12 1.43179E-11
 -1     26011-1.07085E-11 1.65285E-11-1.10152E-11
 -1     26012 5.53383E-12 1.30806E-11 6.71818E-12
 -1     26013-5.51158E-11 1.28906E-10-2.94677E-11
 -1     26014 1.11666E-10-1.28170E-12-9.28615E-11
 -1     26015-2.74620E-11-4.64379E-11 6.27143E-12
 -1     26016 4.13061E-11 1.87306E-12-4.27054E-11
 -1     26017 4.62121E-12-1.96507E-11-2.57307E-11
 -1     26018-8.08430E-13 8.71692E-11 2.73336E-11
 -1     26019-1.19984E-10 7.90861E-11-7.46729E-11
 -1     26020 1.17762E-10 2.87801E-10-3.06158E-10
 -1     26021-9.32347E-11 7.73289E-11 1.35635E-11
 -1     26022 1.46464E-10-2.80591E-12 4.60503E-11
 -1     26023-1.78040E-12-1.10259E-12-1.99507E-13
 -1     26024 1.03336E-11-1.47541E-11 4.86253E-12
 -1     26025 3.76970E-12 1.18474E-12-3.47830E-12
 -1     26026-5.30855E-12-8.78066E-12 5.98949E-12
 -1     26027 3.86995E-12 8.78735E-12-2.76423E-12
 -1     26028-1.24350E-10 1.32371E-10 1.77662E-11
 -1     26029 1.23316E-10 2.43924E-10 1.28105E-10
 -1     26030 2.45366E-10-1.33644E-09 2.59968E-10
 -1     26031-2.49963E-10 2.44116E-10-5.95727E-10
 -1     26032-3.97269E-10-5.61770E-11 7.83639E-10
 -1     26033 1.98290E-10-1.03698E-09 6.41777E-10
 -1     26034-4.39340E-10 1.07975E-12-6.53648E-11
 -1     26035-5.63577E-11-1.94408E-11 1.17803E-10
 -1     26036-1.03720E-10-7.82217E-11-3.94214E-11
 -1     26037 8.46111E-11-3.13510E-11-4.97846E-12
 -1     26038-8.84537E-11 2.89195E-11-3.28271E-12
 -1     26039 4.30886E-11 5.70118E-11 1.83893E-11
 -1     26040 1.99968E-09 5.22916E-10 3.33379E-10
 -1     26041 2.39402E-12 4.33494E-11 4.95614E-11
 -1     26042 2.42826E-11 6.92748E-11 3.51568E-11
 -1     26043-1.78642E-11 3.47430E-11-3.27928E-11
 -1     26044-8.31423E-12 9.75233E-12 3.05739E-12
 -1     26045 1.92956E-10 1.02902E-10-9.72203E-11
 -1     26046-1.98559E-10-1.17523E-10-1.44840E-10
 -1     26047-7.52146E-11 3.89991E-11 3.81020E-11
 -1     26048 1.90830E-10-4.31881E-10 8.77085E-11
 -1     26049-5.53698E-11 5.25812E-10-4.17448E-11
 -1     26050 4.14600E-10 6.09090E-10 1.64402E-11
 -1     26051-5.51056E-10 6.11024E-11 1.01710E-09
 -1     26052-1.22552E-09 6.54536E-09-9.83725E-10
 -1     26053 1.77705E-09 1.10647E-09 4.02224E-10
 -1     26054 3.40598E-10-3.00858E-10 6.58462E-10
 -1     26055-1.53116E-09-1.59810E-09-8.21160E-10
 -1     26056 1.61528E-09 1.17048E-09 4.75913E-10
 -1     26057-1.14554E-09 9.37197E-10 2.39781E-10
 -1     26058-1.91541E-09 1.50448E-09-3.09193E-10
 -1     26059 8.57189E-10 1.28647E-09 4.87523E-10
 -1     26060 1.24643E-10-1.55644E-10-1.37184E-10
 -1     26061 6.47399E-11-3.37883E-10 3.54485E-11
 -1     26062 2.72647E-10 2.71881E-10 5.24816E-11
 -1     26063 8.97056E-10-7.43415E-10 5.41578E-10
 -1     26064 2.67167E-10 1.76118E-10 2.56178E-10
 -1     26065 5.83558E-10 1.42531E-09-1.33938E-09
 -1     26066-2.13410E-10-2.34113E-10-5.04526E-11
 -1     26067-1.27874E-09-1.32700E-11 1.75133E-09
 -1     26068 1.28081E-09-2.07490E-09 3.67805E-10
 -1     26069 1.05663E-10-6.84329E-10-2.14081E-10
 -1     26070 5.34467E-10 1.00382E-09 2.97083E-10
 -1     26071-1.15461E-09 3.24923E-09-7.56009E-11
 -1     26072 4.23669E-10 3.01761E-10-5.59111E-11
 -1     26073-1.10361E-10-8.26489E-10-2.14244E-10
 -1     26074 3.73385E-10 9.75369E-10 3.85890E-10
 -1     26075 4.21747E-10 1.09074E-09 8.06456E-10
 -1     26076 1.35148E-11-1.23559E-10 1.91631E-10
 -1     26077 1.14026E-10-3.08431E-10 3.49876E-12
 -1     26078 6.10724E-10-1.99913E-09-1.67113E-10
 -1     26079 1.25345E-09 5.00911E-10 1.30948E-09
 -1     26080 5.26531E-12-3.06625E-09-2.22812E-09
 -1     26081 1.00845E-09-2.93064E-09 7.00639E-10
 -1     26082-1.11331E-11 2.37084E-11-1.82610E-11
 -1     26083 9.74234E-11 1.34873E-10 1.24978E-11
 -1     26084-9.94889E-11-1.36740E-10-2.29158E-11
 -1     26085 7.78464E-12 1.19901E-10 1.34844E-10
 -1     26086 8.64033E-12-6.38895E-12-3.67767E-11
 -1     26087-1.17118E-10-1.97554E-10-2.20446E-12
 -1     26088-1.56447E-11 3.02303E-10 1.40546E-10
 -1     26089 4.65104E-10-1.06644E-10 2.22715E-10
 -1     26090-3.41153E-10 1.54361E-10-1.01360E-10
 -1     26091-5.19921E-11-3.47942E-10 9.94381E-12
 -1     26092-1.05878E-09 1.22043E-09 4.76347E-10
 -1     26093-1.98457E-10-1.92150E-10 1.76400E-10
 -1     26094 7.09223E-10-4.60521E-10-3.28151E-11
 -1     26095-1.78464E-09-7.57635E-09-1.10797E-09
 -1     26096-9.18459E-10-3.97202E-09-1.46196E-09
 -1     26097-3.32231E-09 9.92337E-10 6.71621E-10
 -1     26098 1.35027E-09 8.05144E-10 1.08066E-09
 -1     26099 1.69677E-11 1.36167E-10 3.51290E-11
 -1     26100-5.91622E-11-8.02411E-10-4.07044E-10
 -1     26101-5.97336E-11 2.14100E-10-8.53476E-11
 -1     26102-7.46355E-10 1.25917E-09-5.62599E-10
 -1     26103-2.05622E-09 2.48608E-10 2.45111E-09
 -1     26104-1.00129E-09-1.29976E-09-6.78942E-10
 -1     26105-2.52804E-10 2.55489E-10 1.57268E-09
 -1     26106 2.43236E-10 5.11871E-10-1.94491E-09
 -1     26107 1.04081E-09-5.68931E-09 1.48484E-09
 -1     26108 5.31881E-10-3.84324E-10 7.88602E-10
 -1     26109 2.22191E-09 3.13545E-09 1.09592E-09
 -1     26110-6.70833E-10 2.76547E-10-7.84182E-11
 -1     26111-1.27567E-10 5.04226E-10 1.35178E-10
 -1     26112 1.38375E-10 6.69529E-10 1.92786E-10
 -1     26113 8.48414E-10-6.91258E-10-6.10550E-10
 -1     26114-2.06247E-10-1.05399E-09-1.08660E-09
 -1     26115-8.31896E-10-1.00420E-09 9.10318E-10
 -1     26116 7.13147E-10 7.35894E-10 8.98447E-10
 -1     26117 9.66350E-11 2.31602E-10-2.28570E-10
 -1     26118-5.36140E-10 4.64838E-10-6.87228E-11
 -1     26119-1.12337E-10-4.11766E-10-2.59706E-10
 -1     26120-4.01894E-10 3.83471E-10 3.59985E-10
 -1     26121-4.60028E-10 1.78453E-10-2.62941E-10
 -1     26122 2.00919E-10-6.45063E-10-4.60270E-11
 -1     26123 6.40115E-10-5.19747E-10-2.29488E-10
 -1     26124-2.65746E-09-4.89097E-09-5.41495E-10
 -1     26125-8.32613E-10 1.62057E-09 2.00253E-10
 -1     26126 4.38587E-10 4.91659E-10 9.68781E-11
 -1     26127-3.55788E-11-2.59276E-10-6.23724E-11
 -1     26128 1.91028E-10 8.46793E-11 8.30839E-11
 -1     26129 2.22082E-10-1.49709E-11 3.49596E-11
 -1     26130 3.62019E-11 1.21576E-10 1.14769E-12
 -1     26131 6.72781E-11 7.69252E-11-3.16640E-11
 -1     26132 2.13983E-10-1.71851E-10-5.26101E-11
 -1     26133-1.16510E-09-1.40530E-09 3.25483E-10
 -1     26134 8.88427E-10-1.00399E-10 7.47584E-10
 -1     26135-1.03037E-10-3.32395E-11-7.13627E-11
 -1     26136 3.02378E-10-1.83448E-10 3.98625E-11
 -1     26137 3.22819E-11 7.33642E-11-1.39083E-10
 -1     26138 1.96576E-10 1.84706E-09-3.95806E-10
 -1     26139 9.74774E-10 1.12282E-10-1.74152E-11
 -1     26140 9.79594E-11-1.15462E-10 6.35088E-11
 -1     26141 7.51208E-10 3.71202E-10 2.01353E-10
 -1     26142-8.32431E-10 4.20383E-10-4.48337E-11
 -1     26143-3.22230E-10 3.79239E-11 2.21911E-10
 -1     26144-1.79826E-10 2.81644E-10-1.15922E-10
 -1     26145-4.26167E-10-1.03973E-11-5.94269E-11
 -1     26146-6.05486E-10 1.90455E-10-3.01476E-10
 -1     26147-2.41127E-11-3.06229E-10-7.55680E-11
 -1     26148-2.38517E-10 2.37325E-10 4.21072E-12
 -1     26149-2.02406E-10 6.95691E-11-1.44575E-11
 -1     26150 7.80458E-10-4.67994E-11 1.49652E-10
 -1     26151 1.83091E-11 1.77709E-10 5.08422E-11
 -1     26152 6.74412E-11 1.25487E-10 3.68243E-10
 -1     26153 6.56082E-10-2.98057E-10-6.50495E-11
 -1     26154-1.11962E-12 2.00287E-13 2.13337E-12
 -1     26155-3.45253E-12 6.71226E-12 2.75627E-12
 -1     26156 1.95968E-12 2.17097E-12-1.74347E-12
 -1     26157-9.35883E-14-8.98942E-13-3.47167E-13
 -1     26158 3.40852E-13 3.37051E-13-2.24265E-13
 -1     26159 2.20254E-10-2.33674E-10-1.02099E-10
 -1     26160-1.98844E-12-2.92371E-12-3.95944E-12
 -1     26161-1.69663E-11-7.78614E-11-2.05533E-11
 -1     26162 3.14884E-10-1.70437E-10 1.01077E-11
 -1     26163-5.71242E-11 1.68660E-10-1.45035E-10
 -1     26164 1.66816E-10 1.06109E-10-1.21759E-11
 -1     26165 3.95103E-11-1.66847E-10-1.10463E-10
 -1     26166 6.55049E-10 9.43449E-10 3.91536E-10
 -1     26167 6.57069E-10 4.78384E-10-1.15584E-09
 -1     26168 2.49364E-10 7.47692E-10-2.45887E-10
 -1     26169 6.53667E-11-2.59176E-11-2.15321E-12
 -1     26170-1.13593E-12 1.25864E-10 5.29132E-12
 -1     26171-7.62424E-11 7.41764E-11 4.17016E-11
 -1     26172-7.72119E-10-1.08628E-09-6.67180E-10
 -1     26173-2.96449E-10-1.52362E-11-4.05299E-10
 -1     26174-1.10055E-09-1.24552E-09 3.73030E-10
 -1     26175-1.05569E-10 7.31994E-12-6.98487E-11
 -1     26176-1.14989E-11-1.48518E-12 7.05941E-11
 -1     26177-3.36301E-11-4.72216E-11-1.49975E-10
 -1     26178-2.00272E-10 5.35897E-10 2.22311E-10
 -1     26179-7.94884E-10-2.59621E-10-4.84539E-10
 -1     26180 8.00151E-10 1.35740E-09 7.33910E-10
 -1     26181-3.39686E-10-3.74040E-09 6.65284E-10
 -1     26182-4.25544E-10-7.66218E-10 8.49445E-10
 -1     26183-1.67144E-09 6.83267E-10-1.31581E-09
 -1     26184-9.96133E-10-1.81071E-09-1.55547E-09
 -1     26185 1.08718E-09 1.45168E-11-5.57144E-10
 -1     26186 1.29411E-09-1.83391E-09 2.81225E-10
 -1     26187 5.52850E-10-2.45280E-09 8.49916E-10
 -1     26188 2.72610E-09 5.37497E-10-3.85701E-10
 -1     26189-1.46802E-09-7.28600E-10 5.98292E-10
 -1     26190-1.52943E-10 7.58008E-10-1.00275E-10
 -1     26191-1.07090E-09 2.49544E-10-9.92718E-11
 -1     26192-3.45802E-10-6.51145E-10 1.61385E-09
 -1     26193-8.45155E-10-3.98250E-10-8.65987E-10
 -1     26194 1.32913E-09 1.04884E-09 1.05487E-09
 -1     26195 9.11134E-10 1.86587E-09 1.26187E-09
 -1     26196-1.41224E-09-3.84713E-11 1.89787E-10
 -1     26197 7.39768E-10-9.70978E-11-1.49126E-09
 -1     26198-2.46281E-10 1.31189E-10 6.38427E-10
 -1     26199 7.99349E-10 4.28217E-09-1.56301E-09
 -1     26200 3.55020E-10 3.11092E-11 1.14547E-09
 -1     26201-1.36569E-09-1.61069E-09 4.93550E-10
 -1     26202-6.26343E-10-2.04846E-09-9.00225E-10
 -1     26203-1.23235E-09 7.84734E-10-1.44583E-10
 -1     26204-3.32026E-10 1.37928E-09 3.93504E-10
 -1     26205 2.18914E-11 2.71432E-10-3.23682E-10
 -1     26206 1.76997E-10-5.88474E-11-2.68032E-11
 -1     26207 1.01447E-10-1.34110E-10-1.99175E-10
 -1     26208 3.68966E-10 1.93199E-10 1.56543E-10
 -1     26209-3.41385E-11-2.40047E-10-7.27089E-11
 -1     26210 1.73148E-10-4.58487E-10-1.03293E-10
 -1     26211 8.01729E-11-3.35768E-10-8.42600E-11
 -1     26212-1.90505E-10-6.48110E-09 5.43607E-10
 -1     26213 2.20420E-09-1.68616E-09 2.18519E-11
 -1     26214 2.34418E-09 3.84951E-09-1.66792E-09
 -1     26215-1.00359E-09-7.04237E-11-3.76906E-10
 -1     26216 6.61615E-10 1.05088E-09 1.05869E-09
 -1     26217 1.76586E-10-1.08204E-10 7.25729E-11
 -1     26218-2.58706E-10-2.01073E-11 1.80257E-11
 -1     26219-1.83016E-10 1.76549E-10 1.83322E-11
 -1     26220-1.05368E-11 5.03518E-10-5.63019E-11
 -1     26221 2.28337E-10-9.05508E-11 8.17053E-11
 -1     26222 9.41406E-10-2.10911E-09 8.15951E-10
 -1     26223 4.52565E-09-5.07452E-09 9.66110E-10
 -1     26224-9.38806E-10 1.52075E-09-3.59979E-10
 -1     26225 1.76053E-10 2.03056E-10-3.68238E-10
 -1     26226-1.53769E-09 4.01046E-09-6.69951E-10
 -1     26227-2.42380E-11-1.31337E-10 2.05973E-10
 -1     26228-3.09395E-10-1.57489E-10 4.21350E-11
 -1     26229-3.05617E-10-5.93012E-11-7.42920E-11
 -1     26230 2.61545E-10 2.88979E-10-9.28350E-11
 -1     26231-1.78890E-10-4.53177E-11 1.60046E-10
 -1     26232 1.04058E-10-2.24514E-10 6.78217E-11
 -1     26233-1.57436E-11 7.63934E-12-5.87813E-13
 -1     26234-3.64657E-12-2.06622E-12-1.29191E-12
 -1     26235-3.53003E-12 7.73681E-12 8.02025E-13
 -1     26236-1.29794E-10-6.97892E-11 9.73124E-11
 -1     26237-1.02181E-11-7.99466E-10 9.62409E-11
 -1     26238-1.06119E-11 1.40375E-10 3.68531E-11
 -1     26239 1.48907E-10 1.42466E-10-3.19809E-10
 -1     26240-3.02508E-10-2.57208E-11-2.52479E-10
 -1     26241 2.27029E-10-1.16513E-09-5.50808E-10
 -1     26242-2.75639E-10 1.04691E-09 2.58190E-10
 -1     26243-2.12520E-09 3.96901E-09-9.93262E-10
 -1     26244 2.44789E-09-3.29356E-09-9.92023E-10
 -1     26245 5.20784E-10-3.87330E-09-1.01701E-10
 -1     26246-1.59011E-09 4.09689E-09 3.92988E-10
 -1     26247-7.93898E-10 2.59201E-10 8.63383E-10
 -1     26248 4.30304E-13 6.99717E-13 2.41751E-13
 -1     26249-5.40104E-13-5.46702E-13 3.42615E-13
 -1     26250 3.41515E-12-6.30571E-13 1.38933E-12
 -1     26251 1.45931E-12 6.56861E-13-8.67528E-13
 -1     26252-1.11496E-12-7.51043E-13-2.22045E-12
 -1     26253-9.10069E-11-4.39326E-11-2.97491E-11
 -1     26254 1.21203E-10-2.40188E-12-5.13131E-12
 -1     26255 9.98605E-11-2.40390E-11 8.41683E-11
 -1     26256 2.82698E-11-7.34993E-11-1.30118E-11
 -1     26257-6.44672E-10-6.50158E-10 7.35791E-11
 -1     26258-5.12819E-10 8.14014E-10-6.73158E-10
 -1     26259 7.47829E-10 2.03600E-09-6.11596E-10
 -1     26260-1.31023E-09-7.43759E-10 3.82822E-11
 -1     26261-2.58867E-10-1.67606E-10 4.30234E-10
 -1     26262 5.81371E-10-1.02588E-09 2.80939E-10
 -1     26263 4.44044E-10 8.85729E-10 4.25864E-10
 -1     26264-1.90397E-10-1.38189E-10 5.93107E-11
 -1     26265 1.54250E-10 9.81571E-10 3.00427E-10
 -1     26266-1.73415E-10-4.06618E-10 5.36054E-10
 -1     26267 6.78854E-11 5.09616E-11-1.64328E-10
 -1     26268 1.62662E-11 3.64140E-11 1.71945E-11
 -1     26269 3.09601E-10 5.67915E-10-4.35820E-10
 -1     26270 5.35318E-10 2.28634E-10 6.18077E-11
 -1     26271 2.66429E-10 3.58355E-10-1.08865E-10
 -1     26272 2.61219E-10-1.04489E-09-7.18329E-10
 -1     26273-1.83032E-09-9.00302E-10 1.29228E-09
 -1     26274-1.16748E-09-9.40965E-10-5.97316E-10
 -1     26275 2.48669E-09-2.00222E-09 4.54925E-11
 -1     26276 1.16026E-09-3.20405E-10-3.70139E-10
 -1     26277 3.23925E-09-2.13472E-09-5.03599E-10
 -1     26278 1.58108E-09-1.03981E-10-8.58850E-10
 -1     26279 1.51917E-09-8.28394E-10 1.82606E-09
 -1     26280 4.04422E-10-2.76494E-10-7.25530E-10
 -1     26281-1.30706E-09-3.83510E-10 6.00225E-10
 -1     26282-3.95281E-10-2.14836E-09-4.99780E-10
 -1     26283 2.14040E-10 2.84678E-10-7.41945E-10
 -1     26284 8.45094E-11 6.11601E-10-3.56562E-10
 -1     26285 1.00220E-10 8.90140E-11 2.60206E-11
 -1     26286-3.17750E-10 1.74075E-10-3.36738E-10
 -1     26287-1.05446E-10 1.15641E-10-5.10025E-11
 -1     26288 9.81846E-11-7.99652E-11 2.55904E-11
 -1     26289 1.02052E-10 1.05006E-11 4.07634E-11
 -1     26290 4.00386E-10 2.73431E-10 6.80441E-10
 -1     26291-2.73071E-10 1.89159E-09 1.38583E-09
 -1     26292-2.77315E-09-4.10286E-10 7.78668E-10
 -1     26293 1.05424E-09 1.37213E-09 8.51109E-10
 -1     26294 2.85862E-10 7.82075E-10 6.30278E-11
 -1     26295-1.17536E-09 1.23813E-10 2.43399E-10
 -1     26296 2.47518E-10-9.07927E-10 3.79437E-10
 -1     26297-4.31565E-10-1.39428E-09-5.48134E-10
 -1     26298-5.21568E-10 6.65996E-10-7.49189E-10
 -1     26299-1.15998E-09-3.64291E-11 5.12874E-10
 -1     26300 1.08043E-10-2.29006E-10-1.19769E-10
 -1     26301 3.19437E-10 1.52660E-10 4.36484E-12
 -1     26302 6.28637E-11-2.58239E-10-2.19433E-10
 -1     26303-1.78486E-10 2.57656E-10 1.39660E-10
 -1     26304 1.14967E-09 2.26956E-10-3.15278E-11
 -1     26305 4.90184E-11 2.75187E-11 1.95005E-12
 -1     26306-6.60828E-11 1.52854E-10 2.81908E-11
 -1     26307 1.62295E-11 1.04315E-11-6.23244E-11
 -1     26308-4.72063E-10-7.36751E-10-1.47347E-10
 -1     26309-2.28724E-11-4.26572E-10 1.68060E-10
 -1     26310-2.96533E-11 2.60862E-10 4.88054E-11
 -1     26311 1.62111E-10-1.96532E-11 3.78068E-10
 -1     26312-8.48752E-11 5.27762E-11 2.29984E-10
 -1     26313 2.90139E-11 9.49059E-11 6.47985E-11
 -1     26314-3.72798E-11-1.09008E-10 3.63816E-11
 -1     26315 3.60573E-11 4.74506E-12-2.74279E-10
 -1     26316-1.87172E-10 1.08975E-10 3.15923E-11
 -1     26317 1.71494E-11-7.08088E-09-1.32147E-10
 -1     26318 1.75102E-09-3.33654E-09 2.95527E-09
 -1     26319-1.53199E-09-1.37854E-09-1.84103E-09
 -1     26320 2.56903E-09 2.11699E-09 1.13668E-10
 -1     26321 7.24635E-10-4.73347E-10 1.45059E-09
 -1     26322 4.26223E-10-7.54974E-10 8.33390E-11
 -1     26323 8.98960E-10-1.46289E-09-1.13545E-09
 -1     26324 6.40428E-10-2.44074E-09 9.58970E-10
 -1     26325-1.85012E-10 9.44840E-10-2.71741E-10
 -1     26326 4.46938E-11-1.48499E-10 2.43914E-11
 -1     26327-6.46642E-12 1.09107E-11 2.39219E-11
 -1     26328 5.40798E-12 3.98959E-11-9.68519E-11
 -1     26329 7.44064E-11-3.36843E-11 1.72833E-10
 -1     26330 1.11884E-10-2.90428E-10 9.18352E-11
 -1     26331-2.03258E-10-6.13121E-10 2.80433E-10
 -1     26332 3.01185E-10-3.78200E-10-3.83219E-11
 -1     26333 9.27690E-11-1.71969E-10-1.23718E-10
 -1     26334 3.05004E-10-4.74112E-10-3.00894E-10
 -1     26335-6.19815E-11-7.49910E-10-3.91883E-10
 -1     26336-1.31399E-10-1.56496E-10-3.13344E-11
 -1     26337-1.66683E-10 4.55104E-10 2.82989E-10
 -1     26338 1.87309E-10 9.44340E-10-3.64548E-10
 -1     26339 1.39155E-10-2.34008E-10 1.58031E-10
 -1     26340-4.15990E-10 9.42682E-11-1.24729E-10
 -1     26341-3.32501E-10 5.01146E-11-2.97251E-11
 -1     26342-6.48034E-11 5.98741E-10 7.69456E-11
 -1     26343 2.69253E-10-2.05700E-11-5.12076E-10
 -1     26344 1.43508E-10-2.24286E-10 3.64298E-11
 -1     26345 1.46198E-10-1.56158E-11-1.49307E-10
 -1     26346 3.84153E-10-1.83292E-10-1.09034E-10
 -1     26347 2.29593E-10-5.24336E-10-2.48564E-10
 -1     26348 4.28939E-10 2.77180E-10-9.36051E-12
 -1     26349-2.32370E-10 1.07384E-09 4.53418E-10
 -1     26350 4.04147E-10 3.13709E-10-1.36193E-10
 -1     26351 9.57074E-10 1.46955E-09-3.67708E-10
 -1     26352 9.89185E-10 5.63191E-12-2.20887E-10
 -1     26353 5.69246E-11-1.04029E-10 5.28917E-11
 -1     26354-1.23121E-10 9.35138E-11-1.56892E-11
 -1     26355-3.84843E-10-2.09322E-10-7.87966E-11
 -1     26356 1.07173E-13-1.01190E-12 4.17000E-13
 -1     26357 3.95404E-12-3.80284E-12-5.21189E-12
 -1     26358-6.87471E-14-7.62667E-12-1.08391E-12
 -1     26359-1.35904E-11 1.92794E-12 7.59712E-13
 -1     26360 1.05606E-10 1.36171E-09 1.85005E-10
 -1     26361 3.91722E-10-3.07963E-09 8.58242E-10
 -1     26362 2.95292E-09 1.98022E-10 1.07255E-09
 -1     26363-3.16372E-09-2.98495E-09 1.97020E-09
 -1     26364-7.39057E-12-2.48127E-11 3.34621E-13
 -1     26365 3.17866E-11 1.90009E-11-2.03899E-11
 -1     26366 9.85587E-10-8.06406E-10 8.78397E-11
 -1     26367 5.76378E-10 9.30708E-10-4.94558E-10
 -1     26368 2.09326E-10 1.74805E-09-8.11264E-10
 -1     26369-6.63416E-10 2.39220E-09-1.45216E-09
 -1     26370-9.84408E-10-1.31063E-09-1.90226E-09
 -1     26371-1.06479E-09-6.85757E-10-1.83858E-09
 -1     26372 3.28889E-10 2.69793E-10-2.20039E-10
 -1     26373-2.04602E-10-3.22474E-10 2.41382E-10
 -1     26374 1.67088E-10 1.77525E-10-1.81458E-10
 -1     26375-4.88393E-11 3.38584E-12 1.34765E-10
 -1     26376 1.30951E-10 2.46422E-10-1.86171E-10
 -1     26377 7.71499E-11 1.33691E-10 1.19802E-10
 -1     26378-6.08798E-13-1.56115E-12 1.32339E-12
 -1     26379 2.49858E-12-2.00772E-12-1.00209E-12
 -1     26380-2.02270E-10-1.40461E-10 8.63190E-11
 -1     26381 4.21755E-12 1.79914E-11-3.31957E-14
 -1     26382 1.09618E-12-3.77791E-11 4.95012E-11
 -1     26383-2.14257E-11-4.92465E-11-3.37521E-11
 -1     26384 4.38571E-11-1.49015E-11-7.09123E-12
 -1     26385-5.43729E-11 1.72096E-11-6.53144E-12
 -1     26386-9.36737E-11 3.60096E-11 1.79056E-10
 -1     26387-5.42866E-11 1.12011E-12 1.74113E-11
 -1     26388-4.29084E-11 3.86044E-10-1.48725E-11
 -1     26389 5.12549E-11-7.22111E-11 3.97232E-12
 -1     26390 1.23855E-09 1.47267E-09 2.65774E-09
 -1     26391 4.42230E-10 1.72439E-09-2.13535E-10
 -1     26392-4.42962E-10 7.38548E-10-4.04298E-10
 -1     26393 1.30255E-09-1.29990E-09 1.47818E-09
 -1     26394-4.85159E-10 1.18607E-09-2.12117E-09
 -1     26395 3.65914E-10 6.40726E-10-5.24941E-10
 -1     26396-3.12486E-11 4.15355E-10-9.56495E-11
 -1     26397-1.01777E-10-2.10767E-11-1.02556E-11
 -1     26398 7.39514E-11 1.47063E-10 7.79420E-11
 -1     26399-4.42877E-10 7.34044E-10 1.33940E-10
 -1     26400-1.63176E-10-4.19359E-10-1.08140E-10
 -1     26401-4.23068E-10 6.53895E-10-3.56312E-10
 -1     26402 4.82134E-10 3.31515E-10 5.36944E-11
 -1     26403-4.90941E-10 3.77968E-10 2.31385E-10
 -1     26404-3.53809E-10-2.02488E-10-5.70017E-10
 -1     26405-1.86501E-10-3.86454E-10-2.41425E-11
 -1     26406 4.40655E-11-1.01877E-10-8.53224E-11
 -1     26407-1.91848E-10-5.05264E-11 5.14238E-11
 -1     26408-1.91129E-10 1.95074E-11 8.21357E-11
 -1     26409-3.64531E-10-1.34940E-10 1.79236E-10
 -1     26410 5.02417E-11 5.31594E-11 6.21807E-12
 -1     26411 1.40427E-11 8.98565E-11-4.23839E-12
 -1     26412-5.24428E-11-3.39520E-11-1.28421E-12
 -1     26413 1.18403E-10-3.40006E-11 4.05911E-11
 -1     26414 6.59492E-11 1.72589E-10-2.53635E-11
 -1     26415-3.65702E-11 1.96312E-11-8.36584E-11
 -1     26416 1.82795E-11 9.97189E-11-2.53014E-11
 -1     26417-5.38828E-11 5.12337E-11-2.06484E-11
 -1     26418-6.52307E-10 1.80929E-09-1.49320E-09
 -1     26419-4.96571E-10-7.05034E-09-1.09564E-10
 -1     26420 1.71410E-09-1.03726E-08 7.53660E-10
 -1     26421 7.42483E-10-5.85759E-10 2.48716E-10
 -1     26422-8.12831E-11 2.72664E-10-1.07298E-10
 -1     26423-3.54452E-10-3.09376E-10 8.37184E-11
 -1     26424-1.05065E-10-1.53703E-11 6.92779E-13
 -1     26425-2.90849E-10-3.24467E-11 1.28028E-10
 -1     26426-3.61658E-11 1.32526E-12-3.09411E-11
 -1     26427-1.29706E-11-7.71245E-12-2.35040E-11
 -1     26428-9.18337E-12 1.83637E-11 3.28830E-11
 -1     26429-3.40719E-11-1.56476E-10-1.87953E-10
 -1     26430 3.09957E-10 1.15042E-10 4.40348E-11
 -1     26431 4.26167E-11-3.93796E-12-3.95577E-11
 -1     26432-3.02041E-10 1.23354E-10 3.91914E-11
 -1     26433 6.10524E-11-5.00812E-11 1.27203E-10
 -1     26434 1.24228E-11-2.10347E-10 1.03148E-11
 -1     26435 8.19298E-10-1.53987E-09-5.86738E-10
 -1     26436-7.51337E-10 1.29426E-09 1.03903E-09
 -1     26437 4.27356E-10 2.58846E-09 1.24906E-09
 -1     26438-1.90091E-12-5.80228E-12 8.11348E-12
 -1     26439 2.83426E-10 3.33693E-10-1.69644E-10
 -1     26440 1.03424E-10 1.91926E-11 9.86956E-11
 -1     26441 3.54368E-10 1.00836E-09 5.19672E-11
 -1     26442-1.46891E-10-1.83716E-10-4.01174E-11
 -1     26443-2.13367E-10 8.59237E-11-1.56369E-10
 -1     26444 1.13663E-11-2.96417E-10-7.36040E-11
 -1     26445-3.80713E-12 1.12991E-10-2.46416E-11
 -1     26446-4.05984E-10 4.10121E-10-1.22336E-09
 -1     26447 4.07917E-10 2.03050E-10-1.48028E-10
 -1     26448-3.71200E-10 6.95385E-11 8.29842E-10
 -1     26449-8.42205E-12-4.19613E-09 1.15892E-09
 -1     26450-8.60305E-11-9.23447E-11 2.79410E-11
 -1     26451-2.94434E-11-1.29597E-10-9.27391E-12
 -1     26452-3.07006E-11 4.57277E-11 6.14009E-11
 -1     26453-3.93567E-11 4.92069E-11-1.54366E-11
 -1     26454 5.83046E-10-3.46939E-10-9.39311E-11
 -1     26455 3.42991E-11-5.81940E-10-4.56611E-10
 -1     26456 1.20899E-10 4.31412E-10-3.80476E-10
 -1     26457-1.58634E-09-5.79964E-10-2.86721E-11
 -1     26458 3.71350E-09 5.45684E-09-5.37046E-10
 -1     26459-1.13002E-09-1.84272E-10 3.96307E-10
 -1     26460 8.39409E-10-3.81570E-10 4.44687E-10
 -1     26461 1.55004E-11-6.20329E-11-1.14450E-10
 -1     26462-2.65104E-10-2.85374E-10 9.35363E-11
 -1     26463 7.95196E-11-1.41086E-11 5.67662E-11
 -1     26464 1.57380E-10 5.42401E-11-4.61461E-11
 -1     26465-1.55673E-10-2.12995E-10 2.27500E-11
 -1     26466 9.45819E-12-1.29554E-10 7.33813E-11
 -1     26467-2.43928E-11 1.22651E-11 1.77788E-10
 -1     26468 1.74415E-10-1.21903E-10 2.77758E-10
 -1     26469-1.63229E-10 1.60511E-10-3.65452E-11
 -1     26470 3.70915E-11 2.95611E-10 2.73677E-10
 -1     26471 2.84415E-09-2.70225E-09-2.24161E-10
 -1     26472 1.42682E-10-1.40626E-09 1.88923E-09
 -1     26473-1.80230E-09-4.02136E-10-1.09943E-09
 -1     26474-7.86733E-11-3.77607E-10 1.12832E-09
 -1     26475 2.29887E-10 3.97133E-09 3.49522E-10
 -1     26476-1.09324E-09 1.82555E-09-3.05509E-09
 -1     26477 1.20771E-10 2.99876E-09-9.28721E-10
 -1     26478 1.85871E-09 1.07403E-09 5.66469E-10
 -1     26479 1.73238E-09-7.75115E-10-4.34480E-10
 -1     26480-5.44368E-10 8.72028E-10 2.07331E-10
 -1     26481 3.10688E-11 1.30852E-09-8.49675E-10
 -1     26482-3.72732E-11 1.84471E-09-2.63876E-10
 -1     26483-5.34202E-11-2.11293E-09 8.34723E-11
 -1     26484 8.22012E-11-1.48397E-11 7.56218E-10
 -1     26485-4.32840E-11-2.08798E-09-2.53999E-10
 -1     26486-7.46275E-10-2.86780E-10 8.13499E-10
 -1     26487-1.92056E-10 5.50317E-11 1.82603E-11
 -1     26488-1.26035E-11-3.85517E-11-5.07656E-11
 -1     26489-6.52090E-10-1.28779E-09 4.87483E-10
 -1     26490-2.53767E-09 3.65161E-09 5.04093E-11
 -1     26491 3.17005E-10 1.79348E-09 4.88160E-10
 -1     26492 1.47283E-10-9.84404E-11 1.43347E-10
 -1     26493 1.20306E-10-3.20703E-10 2.27962E-10
 -1     26494 7.60229E-11 2.30495E-10 5.60519E-11
 -1     26495-5.36478E-11-8.64563E-11 1.08420E-10
 -1     26496 1.62578E-10-7.24376E-09 9.91097E-10
 -1     26497 2.10734E-10-8.70369E-11 9.58739E-11
 -1     26498 2.21237E-10 2.27882E-10-3.38501E-10
 -1     26499-4.93696E-11-4.79231E-11 1.67522E-10
 -1     26500 5.83958E-11 9.65351E-11-5.96656E-12
 -1     26501 1.37479E-10-4.75676E-11-5.06972E-12
 -1     26502-7.94093E-12 2.08157E-11-2.51852E-11
 -1     26503-1.26746E-10-2.02546E-10 3.97378E-11
 -1     26504-3.79613E-11 5.42857E-11-3.87139E-11
 -1     26505-6.67413E-11-4.28100E-11-4.82778E-11
 -1     26506-1.01059E-10 3.14805E-11-4.86606E-11
 -1     26507 4.41244E-10-1.48398E-10-4.98655E-10
 -1     26508 1.16949E-09-6.37779E-11-4.88638E-10
 -1     26509-2.36593E-10-1.46940E-09-1.64481E-09
 -1     26510 1.56236E-09 5.49823E-10-2.03755E-10
 -1     26511 3.75968E-10 9.70495E-10 4.04743E-10
 -1     26512 2.08911E-10-3.69287E-09-6.71838E-11
 -1     26513-1.40698E-09 3.73031E-10-6.66340E-10
 -1     26514-6.50077E-10-4.71615E-10-1.77534E-11
 -1     26515 7.53447E-10-1.31558E-09 2.77869E-11
 -1     26516 1.55203E-10-2.54621E-09 2.63140E-10
 -1     26517 6.66501E-11 1.17662E-10-8.65592E-11
 -1     26518 1.57353E-10-4.79824E-10 2.41651E-10
 -1     26519-4.25169E-10 3.00759E-10 1.54402E-10
 -1     26520-2.71100E-10-6.85168E-10 2.00816E-10
 -1     26521-7.54258E-10 1.16401E-09 5.62237E-11
 -1     26522 1.32472E-09 2.69242E-09 8.81221E-10
 -1     26523-7.41608E-10-2.65710E-09-1.60538E-09
 -1     26524-7.93557E-11 2.92286E-10-7.81713E-10
 -1     26525 1.22182E-10 1.35800E-10 1.59271E-10
 -1     26526 6.08565E-10 1.51235E-10 1.92981E-10
 -1     26527 6.73930E-10-2.35887E-10 2.26078E-10
 -1     26528-5.54230E-10-2.23093E-10 6.75552E-10
 -1     26529-5.87582E-10-4.80593E-10 6.07265E-11
 -1     26530-1.90218E-10 1.03051E-09-7.31782E-10
 -1     26531 6.27479E-11-5.56651E-11-6.25540E-11
 -1     26532 2.51172E-11 7.58335E-11-4.09095E-12
 -1     26533 2.54829E-10 1.54110E-10 1.22393E-10
 -1     26534-2.89833E-11-4.24483E-11-2.15122E-11
 -1     26535-5.72240E-11-1.94594E-11 4.77973E-11
 -1     26536 2.18240E-11 4.70951E-11 4.28617E-11
 -1     26537 2.80564E-11 3.53257E-12-2.39144E-11
 -1     26538 5.21071E-11 4.05135E-11-4.00204E-11
 -1     26539 1.72337E-11-3.42564E-12 7.19852E-11
 -1     26540 1.49631E-11-1.30566E-10-4.10046E-11
 -1     26541 1.72097E-10 3.42084E-11-8.73177E-11
 -1     26542 1.22483E-10-1.04803E-10 1.26639E-10
 -1     26543 6.02275E-11-3.98859E-11-2.99550E-11
 -1     26544-1.33428E-10-1.10138E-09-2.74268E-10
 -1     26545-2.57614E-12-1.18779E-11 2.01361E-11
 -1     26546 2.18893E-11 8.18907E-11 2.08451E-11
 -1     26547-2.55739E-11 2.36087E-10 1.94013E-11
 -1     26548-1.22327E-10 1.55827E-10 8.67116E-11
 -1     26549-2.16298E-11-1.55530E-10 6.24918E-11
 -1     26550 5.61476E-11-3.06622E-10-5.58115E-10
 -1     26551-1.10252E-10 2.01012E-09-1.50302E-09
 -1     26552 2.47613E-09-1.88417E-09-8.72646E-10
 -1     26553-6.57452E-11-1.66813E-10-1.44738E-10
 -1     26554 2.44098E-10 1.53845E-10 3.66866E-10
 -1     26555 1.58103E-10 1.90028E-10-4.99748E-11
 -1     26556 1.27785E-10 4.18220E-12-1.36437E-10
 -1     26557-1.50660E-10 1.10046E-10-3.19516E-10
 -1     26558-1.43047E-10-2.00396E-10-4.55701E-11
 -1     26559 3.02289E-11-4.77885E-11-5.66897E-12
 -1     26560-1.17072E-11-1.64229E-11-2.21867E-11
 -1     26561-6.98585E-11-1.68054E-11 6.07034E-11
 -1     26562-1.04443E-10 2.15441E-10-3.82246E-11
 -1     26563 6.73780E-12-1.81763E-12-4.52154E-11
 -1     26564-4.56230E-12 5.89441E-12 1.06430E-11
 -1     26565 8.82142E-12-1.02718E-11-1.99857E-11
 -1     26566 5.17552E-12 1.06343E-11-1.57558E-11
 -1     26567 1.35931E-11 8.41413E-12-5.19584E-12
 -1     26568-4.09516E-11 4.20001E-12 3.61964E-11
 -1     26569-3.70091E-12-3.06655E-11-5.93658E-12
 -1     26570 1.96073E-11 1.34477E-11-4.01621E-11
 -1     26571 1.57233E-11-1.07627E-10 4.13998E-11
 -1     26572-5.90369E-13 1.12921E-13 9.35696E-13
 -1     26573-9.22206E-12-9.05434E-12 3.58646E-12
 -1     26574-1.85830E-11 7.85087E-13-1.00080E-11
 -1     26575-3.00186E-12 2.32071E-13-2.49134E-12
 -1     26576 6.65907E-12 5.92848E-11 1.76392E-12
 -1     26577 4.33877E-09 3.44344E-10-9.14561E-10
 -1     26578-2.77916E-10-6.96437E-10-4.61816E-10
 -1     26579 2.05624E-09-5.29364E-11-1.97432E-10
 -1     26580-4.58514E-10-1.42404E-09 2.34726E-10
 -1     26581-5.66323E-10-2.24459E-10-7.91862E-11
 -1     26582-7.63674E-10 1.73582E-10 2.96413E-10
 -1     26583 2.84217E-11 6.77196E-10 1.22190E-10
 -1     26584-2.36494E-12 1.49678E-12-4.60687E-13
 -1     26585-6.08768E-10 1.85415E-10 4.45268E-10
 -1     26586 6.68164E-11 3.33114E-10 2.85516E-11
 -1     26587-5.31729E-10-1.34602E-09 1.07351E-10
 -1     26588-5.26635E-10-1.65622E-09 5.50249E-10
 -1     26589 1.44660E-11-1.90397E-11-4.95004E-12
 -1     26590 1.84237E-11-3.29535E-11-2.90074E-11
 -1     26591 2.44835E-12 2.04381E-11-1.75593E-12
 -1     26592-6.10853E-12-1.88579E-11-2.08273E-11
 -1     26593-4.49659E-11-6.01582E-11-2.02641E-11
 -1     26594 1.77757E-11-8.22976E-12 9.47529E-12
 -1     26595-1.01932E-11 1.15290E-11-4.69069E-12
 -1     26596-2.85903E-11-8.21231E-10-1.59776E-10
 -1     26597 1.26630E-09 1.32514E-11-2.70232E-09
 -1     26598-6.71075E-10 3.34254E-10 2.40370E-10
 -1     26599 8.54945E-10-1.71888E-09-3.67008E-10
 -1     26600 3.88532E-10 1.77588E-09-6.02251E-10
 -1     26601-7.92314E-13-1.21768E-12-3.83096E-12
 -1     26602 3.62028E-12 3.79246E-12 2.47269E-12
 -1     26603-8.84379E-10 2.15915E-11 6.18192E-11
 -1     26604-1.90428E-09 3.17834E-10 2.93126E-11
 -1     26605 9.62839E-10 6.31231E-10-2.12651E-10
 -1     26606-7.83382E-12-7.43181E-12 1.89010E-12
 -1     26607 1.73631E-11 1.34101E-12-9.35940E-12
 -1     26608 1.02184E-10-5.43458E-10-1.00404E-09
 -1     26609 1.66894E-11-4.98650E-10 9.05498E-12
 -1     26610-2.16661E-12 1.94772E-12-1.16473E-12
 -1     26611 1.47029E-11 2.09356E-11 5.31918E-12
 -1     26612 4.70116E-12 1.25007E-11-8.13483E-12
 -1     26613-1.02713E-12 4.34760E-13-3.69926E-13
 -1     26614-3.82784E-13-1.03253E-12-2.74170E-12
 -1     26615-1.39114E-11-9.37746E-12-4.30565E-13
 -1     26616 4.85228E-12-1.95993E-11 1.82484E-11
 -1     26617 3.76993E-12-1.34836E-10 3.83623E-11
 -1     26618-7.78959E-11 2.52674E-11 4.18085E-11
 -1     26619 1.73251E-12-1.30354E-11 6.07708E-13
 -1     26620-1.08009E-11-6.57456E-12-2.18475E-11
 -1     26621-1.06270E-12 1.39005E-12-1.88203E-11
 -1     26622-6.32717E-12-9.83686E-12 5.93181E-12
 -1     26623-2.14074E-11-2.70908E-12 1.84552E-11
 -1     26624 3.57845E-12-1.87571E-13 1.03850E-12
 -1     26625-3.24760E-12 5.65755E-12 1.83007E-12
 -1     26626 1.51731E-11 1.82642E-11 7.32955E-12
 -1     26627-3.69146E-12 3.49316E-13 7.56395E-13
 -1     26628 4.84057E-13-1.19391E-12-3.33622E-13
 -1     26629-1.37895E-12 3.28939E-12-6.02504E-13
 -1     26630-4.37904E-11 1.43329E-10-7.03126E-11
 -1     26631-1.70121E-10 1.48918E-10 1.04332E-10
 -1     26632 1.11696E-10 2.91379E-11 9.99227E-11
 -1     26633-2.70238E-09 2.67852E-10 6.63780E-10
 -1     26634-1.18750E-09-4.76551E-09 5.29471E-10
 -1     26635-2.13072E-11-5.54028E-11 1.07452E-10
 -1     26636-1.39192E-10-1.55072E-10-2.13423E-11
 -1     26637 7.96051E-11 1.91979E-11-3.55282E-12
 -1     26638-2.50922E-10-1.08033E-10 1.31349E-10
 -1     26639-1.88019E-09-9.55699E-10 6.92318E-10
 -1     26640 6.01014E-10 1.43101E-09-3.05492E-10
 -1     26641 1.42660E-10-1.67220E-10 5.99485E-11
 -1     26642-1.07908E-10 5.77804E-11-5.18733E-11
 -1     26643-4.73140E-11 1.01903E-10-1.71134E-11
 -1     26644-4.86458E-11-1.20315E-10-3.24540E-12
 -1     26645 4.00242E-11-6.99225E-11 2.05649E-10
 -1     26646-1.48473E-09 4.09041E-10 5.42955E-10
 -1     26647 3.59496E-10-3.18762E-10-1.38841E-10
 -1     26648-4.44975E-10 1.78408E-09-1.32583E-12
 -1     26649 1.23861E-10 6.62456E-11-1.20446E-10
 -1     26650 2.67148E-10 2.73729E-10 1.28157E-10
 -1     26651-6.73364E-11 1.66196E-10 1.76262E-11
 -1     26652 7.28507E-11 4.33909E-11-1.91262E-11
 -1     26653 9.54358E-12-7.88458E-12 4.10643E-11
 -1     26654 1.29934E-09-3.22157E-10-1.42246E-09
 -1     26655-9.37298E-10-2.60712E-09-1.36754E-10
 -1     26656-1.69799E-09-6.88011E-10-3.59790E-10
 -1     26657 4.25605E-11-2.43809E-10 5.22630E-11
 -1     26658 4.99505E-12 4.28140E-13 1.83455E-11
 -1     26659-1.87821E-10-5.19447E-10-4.80560E-10
 -1     26660-5.10445E-11-8.75875E-10-9.31237E-11
 -1     26661 3.68479E-10 5.72420E-10-7.30855E-11
 -1     26662 3.05707E-10-9.57521E-11 4.80525E-10
 -1     26663 3.45679E-10 4.14090E-10-1.02339E-09
 -1     26664 7.20103E-11-5.44145E-11-5.66613E-12
 -1     26665 4.47039E-11 1.08033E-11 9.76450E-11
 -1     26666 7.69847E-11-6.28018E-11 6.40243E-12
 -1     26667-1.24893E-11 1.36385E-10-9.05054E-12
 -1     26668 9.06259E-11 3.86180E-11 2.56666E-11
 -1     26669 2.97221E-11 2.33000E-11-1.85050E-11
 -1     26670-8.40916E-11 1.36667E-10-8.97278E-11
 -1     26671 5.17767E-11-4.04422E-10-4.31120E-11
 -1     26672 4.28045E-10-1.08743E-09-2.24472E-10
 -1     26673 2.66473E-10 1.15822E-09-2.63089E-10
 -1     26674-5.94287E-10 1.87762E-10-2.50221E-10
 -1     26675-9.82694E-12-2.33613E-12-5.90012E-11
 -1     26676 5.86294E-12 7.06030E-11-7.29434E-11
 -1     26677-2.94709E-11-1.17830E-10-1.72899E-11
 -1     26678-2.90452E-10-1.61877E-10-1.55301E-10
 -1     26679 1.08772E-10 1.73575E-10 4.24301E-11
 -1     26680 1.27124E-09 1.46670E-09 4.16580E-10
 -1     26681 2.01908E-10-5.12932E-10-6.31571E-11
 -1     26682-8.75174E-11 1.63266E-09-1.18640E-09
 -1     26683-1.72599E-09-2.80784E-10-8.61484E-10
 -1     26684 1.49337E-11 5.26792E-12 7.29955E-12
 -1     26685-2.80499E-10-4.74330E-10 6.19654E-11
 -1     26686-1.79681E-10 1.14899E-09-2.39205E-10
 -1     26687 1.23652E-10-1.43291E-09 4.20264E-10
 -1     26688-9.43341E-11 2.52674E-10 7.78880E-11
 -1     26689 2.75181E-10 7.77605E-10-6.05062E-10
 -1     26690-3.80355E-10 7.28919E-11 1.60827E-11
 -1     26691-4.57940E-10 2.21949E-10-8.99653E-11
 -1     26692-1.22861E-10 6.69230E-11-4.84277E-11
 -1     26693 9.04207E-11-9.70654E-11-1.44336E-10
 -1     26694-4.42858E-13-1.05088E-12 5.42705E-13
 -1     26695 1.72070E-13 8.05928E-13-8.31578E-13
 -1     26696-3.82808E-14 2.21395E-13-3.30565E-13
 -1     26697-1.34010E-12-8.92655E-13 3.16636E-13
 -1     26698-1.56247E-12-8.93881E-13-7.98174E-13
 -1     26699 4.12370E-13 3.74601E-13-5.29903E-13
 -1     26700 9.37218E-11-4.37372E-11-1.28534E-11
 -1     26701-5.82913E-10-2.30643E-09-6.31373E-10
 -1     26702 7.01857E-12 6.68557E-12-7.95652E-12
 -1     26703-1.71585E-12 8.40189E-11-1.17580E-11
 -1     26704 8.16193E-12 2.08885E-11 1.27788E-12
 -1     26705 3.11634E-12 3.51939E-12 1.76609E-13
 -1     26706 3.27248E-13 6.39266E-12-6.75793E-13
 -1     26707 7.74082E-13-8.39338E-13 8.77798E-13
 -1     26708-3.71795E-13-1.58094E-12 8.19345E-14
 -1     26709 5.14562E-13 1.31225E-14-1.30166E-12
 -1     26710-3.55642E-11-1.00339E-10-6.82889E-11
 -1     26711-3.75102E-10-4.31504E-10 1.33889E-10
 -1     26712-2.35595E-10-1.38161E-10 9.46989E-11
 -1     26713-2.96343E-12-2.15572E-11 5.34639E-12
 -1     26714 2.75602E-12 3.68155E-11 6.99973E-12
 -1     26715 1.09200E-10 2.43403E-10 2.21065E-10
 -1     26716-6.92241E-12 6.56801E-12-5.24603E-12
 -1     26717-5.50157E-12 1.20213E-12 4.16611E-12
 -1     26718-1.33987E-12-2.81267E-12 7.46181E-13
 -1     26719 1.71080E-12 3.41809E-12-7.61918E-13
 -1     26720 6.70657E-14 3.24243E-12-7.58282E-14
 -1     26721 5.83297E-13-1.54484E-13 3.20188E-13
 -1     26722-8.38615E-13 9.34271E-13 5.46563E-13
 -1     26723-6.62119E-11 4.08659E-11-1.24254E-11
 -1     26724 2.51469E-11-2.43926E-11 2.05060E-10
 -1     26725-7.14416E-11-4.97983E-11-3.08953E-11
 -1     26726-3.51144E-12 1.20014E-12-1.11577E-12
 -1     26727-3.55048E-13-4.79402E-13 2.21076E-12
 -1     26728 4.13888E-10 3.56275E-10-8.29379E-10
 -1     26729-1.99772E-09-9.09758E-10-1.02981E-10
 -1     26730 1.73942E-09-2.89602E-10 7.44126E-10
 -1     26731 1.16550E-09-2.26634E-09-7.48231E-10
 -1     26732-1.35528E-10-1.41209E-09 8.40950E-10
 -1     26733 5.09062E-10 9.01043E-10-1.19195E-10
 -1     26734 2.47460E-11 2.71095E-10 1.87361E-10
 -1     26735-3.19881E-11-6.35338E-11 3.07985E-11
 -1     26736 4.49944E-11 6.39230E-11 4.88584E-12
 -1     26737-7.67189E-12 1.95199E-11-1.29536E-11
 -1     26738-1.35092E-11 1.29406E-11-4.69647E-12
 -1     26739-6.96080E-12 4.45615E-12 6.33368E-13
 -1     26740 2.40976E-12 1.74724E-12-1.14730E-12
 -1     26741-1.43314E-12 2.70015E-12-2.17464E-12
 -1     26742-1.15272E-10 2.28075E-10-1.18553E-10
 -1     26743-2.32206E-10-1.44458E-10 9.59754E-12
 -1     26744 9.55342E-11 1.35346E-10-3.10141E-11
 -1     26745 9.45102E-11 1.82771E-11-8.41784E-11
 -1     26746 1.89663E-11-1.05902E-11-1.64894E-11
 -1     26747 5.73359E-11 2.46508E-11 8.48090E-12
 -1     26748-2.08768E-10-1.05478E-10 2.74725E-11
 -1     26749 2.23164E-11 5.75774E-11-2.52279E-11
 -1     26750-5.72040E-11 3.05883E-11 5.38980E-11
 -1     26751-2.35427E-11 1.78862E-13 7.00676E-13
 -1     26752 7.19907E-11 2.06329E-11 5.94713E-12
 -1     26753 9.05910E-11 2.29942E-10-1.19045E-11
 -1     26754-1.43510E-11-2.50197E-12 4.20775E-12
 -1     26755 6.98984E-12-1.53655E-11 5.15421E-13
 -1     26756-6.85645E-12 6.78205E-12 3.99902E-12
 -1     26757 2.61667E-12-2.67008E-12 1.20903E-11
 -1     26758 6.70075E-12 4.77387E-12 3.13122E-12
 -1     26759 1.09000E-12 1.81627E-11 5.73080E-12
 -1     26760 5.78704E-12 9.61696E-13 9.47864E-12
 -1     26761-1.70002E-12-4.04171E-12-2.89935E-12
 -1     26762-2.61110E-12-4.04574E-13-1.55298E-12
 -1     26763 9.74271E-11-1.99995E-10-3.82402E-11
 -1     26764-1.64148E-10-1.67064E-10 6.72418E-12
 -1     26765 3.97942E-11 1.07712E-09-5.40833E-11
 -1     26766 1.35653E-09-4.76581E-10-1.44311E-11
 -1     26767-2.98015E-11 9.38245E-11 1.31681E-11
 -1     26768 4.23024E-09 5.51937E-09 4.18299E-10
 -1     26769 5.27013E-10 6.99601E-10-4.67813E-10
 -1     26770 1.20526E-10 2.76125E-09-1.66329E-09
 -1     26771 2.28658E-09-3.73507E-09-4.45973E-10
 -1     26772 1.24248E-10 2.80762E-11-4.90311E-11
 -1     26773-1.90095E-12 1.09175E-10-1.35506E-11
 -1     26774-7.84319E-11 5.83353E-11-7.41184E-11
 -1     26775-1.54304E-10-3.03851E-11 1.26222E-10
 -1     26776-1.12186E-10 7.25198E-11 1.64859E-10
 -1     26777 7.66954E-12 2.43015E-10-8.75201E-11
 -1     26778 6.73974E-10 5.89056E-09 1.07917E-09
 -1     26779 5.53584E-11-2.74162E-09 9.27743E-10
 -1     26780-1.83720E-09 2.19502E-09 8.40069E-10
 -1     26781-1.00962E-09-4.93280E-09 5.37099E-10
 -1     26782-6.95932E-10-7.68263E-10-8.95907E-10
 -1     26783-3.53195E-12 1.08810E-12 3.72874E-12
 -1     26784 9.76500E-13 4.85779E-12-4.55103E-12
 -1     26785-7.43050E-10 1.45499E-11-9.03266E-10
 -1     26786 1.07404E-09-6.44436E-10-5.37419E-10
 -1     26787 1.17670E-09-2.68464E-09 3.23005E-10
 -1     26788 1.15417E-10 4.15309E-11 4.79838E-12
 -1     26789 6.13206E-11-7.28930E-12-3.04647E-10
 -1     26790-1.82259E-09 7.96281E-10-1.66197E-10
 -1     26791 2.08793E-09-6.05649E-09 2.30267E-10
 -1     26792-6.41479E-10 3.03355E-11 3.65181E-10
 -1     26793-7.44838E-10 4.08214E-10-4.61331E-10
 -1     26794 5.33915E-10-5.26870E-10 6.68253E-10
 -1     26795 4.22193E-12 2.35046E-11 6.49918E-11
 -1     26796 2.58859E-12 1.72819E-12 5.96323E-12
 -1     26797 5.77556E-12-1.96949E-11-1.18551E-14
 -1     26798 2.58933E-10 5.85455E-10-3.21825E-10
 -1     26799 1.65549E-10-4.21654E-10-6.30790E-10
 -1     26800 4.34658E-10-5.59744E-10-9.03936E-10
 -1     26801 1.53147E-10-1.38256E-10-2.17402E-10
 -1     26802 6.43894E-11-1.29429E-10-3.30740E-10
 -1     26803 6.42459E-10-2.05990E-10 1.26839E-10
 -1     26804-1.01785E-10-4.69278E-10-1.80160E-10
 -1     26805 2.60570E-10 1.12887E-09 4.62188E-11
 -1     26806-6.78375E-10-3.46885E-10 2.13913E-10
 -1     26807-1.17084E-11-2.53806E-11 2.13842E-11
 -1     26808 2.70062E-10 1.57902E-10-3.38760E-11
 -1     26809 2.23968E-10 2.05605E-10-6.48722E-10
 -1     26810-2.60682E-10-2.33736E-10-8.12194E-11
 -1     26811-1.70721E-12-1.11272E-11-4.31527E-12
 -1     26812 1.99627E-12-4.02663E-12 1.10650E-12
 -1     26813 6.34099E-12-1.15119E-12-2.27324E-12
 -1     26814-6.78601E-12 1.72680E-11-6.53999E-12
 -1     26815 5.77483E-12-5.82463E-12 2.18836E-12
 -1     26816 1.05031E-09-1.01990E-09-6.57035E-11
 -1     26817 5.12095E-11 2.30439E-09 4.17887E-10
 -1     26818 2.85390E-10-4.61787E-10-3.83334E-10
 -1     26819 3.10174E-10-7.64985E-11 9.99778E-12
 -1     26820-3.00584E-11-1.70129E-09-4.67811E-10
 -1     26821 1.67782E-10 9.06667E-10-2.82935E-10
 -1     26822-2.05626E-10 6.95617E-10-3.26291E-10
 -1     26823-1.74917E-10-2.74620E-10-2.71380E-10
 -1     26824-2.34816E-10 8.51482E-10 1.45699E-10
 -1     26825-4.88187E-11 7.25307E-12 7.28628E-12
 -1     26826-5.60250E-12-3.24934E-11-2.53506E-11
 -1     26827 2.80863E-10-1.39918E-10 1.08167E-10
 -1     26828-1.47215E-10 6.11146E-11 1.27502E-11
 -1     26829-1.59423E-10 2.98806E-10-2.50356E-11
 -1     26830-2.48877E-10-9.41606E-10-2.31053E-10
 -1     26831-1.42393E-10 7.23617E-10-3.01889E-11
 -1     26832-8.18085E-10 2.51018E-10 1.10953E-10
 -1     26833 6.14040E-12 2.40070E-11-6.32239E-12
 -1     26834-5.36205E-12-2.10445E-11 8.83937E-12
 -1     26835-1.98285E-11 3.99336E-11 5.46452E-13
 -1     26836 2.54444E-11-1.29944E-10 1.89969E-11
 -1     26837 2.92115E-11 2.32555E-11 7.09521E-12
 -1     26838 1.33635E-09-8.02699E-10 9.14523E-10
 -1     26839 3.87892E-10 3.84387E-10-7.71613E-10
 -1     26840-3.39807E-09 1.04823E-09 1.36016E-11
 -1     26841 3.62762E-09 4.84220E-10 7.75782E-11
 -1     26842-5.30020E-10 7.62705E-10-6.98875E-10
 -1     26843-1.63031E-09-5.96723E-10 1.97211E-10
 -1     26844 4.70248E-10-1.35215E-09-1.47948E-10
 -1     26845-1.61360E-10 1.04318E-10-1.92726E-11
 -1     26846 1.50575E-11 2.55846E-12 1.02945E-11
 -1     26847-2.71075E-12 6.45974E-12 6.22913E-12
 -1     26848-5.66934E-12 6.29252E-12 4.99986E-12
 -1     26849-7.89162E-10-3.86875E-10-6.94436E-10
 -1     26850-7.11746E-10 4.16127E-10-3.35527E-10
 -1     26851 4.92751E-10 1.81684E-10-6.05081E-10
 -1     26852 8.65190E-10 1.81070E-09-8.90034E-10
 -1     26853 4.24842E-10 8.36962E-11 3.03034E-10
 -1     26854-9.46458E-10-1.03809E-09 8.19126E-10
 -1     26855 1.17386E-09 1.60384E-09 3.66956E-10
 -1     26856 3.43955E-10 9.62498E-10-1.19142E-10
 -1     26857-4.60134E-10 2.71749E-10 2.64995E-10
 -1     26858 2.71717E-09 2.37132E-09-4.64011E-10
 -1     26859 8.38383E-10 1.59237E-09-5.25615E-10
 -1     26860 4.15021E-10-1.41747E-09 1.19567E-10
 -1     26861 3.96219E-11-1.07379E-10-7.86171E-12
 -1     26862-2.64910E-10-6.00860E-10-1.28631E-10
 -1     26863 2.68988E-11-6.78134E-10 1.43348E-10
 -1     26864 5.35334E-11-7.67395E-10-3.40251E-12
 -1     26865-6.11076E-12-7.59935E-10 8.52848E-11
 -1     26866 1.17374E-09 5.74194E-10-2.10253E-10
 -1     26867 2.44330E-10 6.13139E-10-3.57935E-11
 -1     26868-1.41864E-10-4.76520E-12 6.24660E-11
 -1     26869 1.46679E-10-5.99132E-10-5.84079E-11
 -1     26870-1.79995E-10-1.04405E-11 6.52900E-11
 -1     26871-2.46244E-10 2.77298E-10-1.64321E-10
 -1     26872-1.84296E-10 6.84075E-11 1.02720E-11
 -1     26873-9.27093E-11-3.45743E-10 7.03553E-11
 -1     26874-5.55641E-11-2.22916E-11-1.30074E-10
 -1     26875-5.01181E-11 5.42807E-11-2.55108E-11
 -1     26876 6.86303E-11 5.96503E-11-3.07909E-11
 -1     26877-2.35274E-11 6.31610E-10 5.22187E-11
 -1     26878-5.50630E-12 3.45031E-12-4.24810E-12
 -1     26879 3.02774E-12-3.17012E-12-1.05858E-11
 -1     26880 4.42997E-13 2.20038E-12-5.80336E-12
 -1     26881 1.45973E-10 1.05998E-11-6.60939E-11
 -1     26882-7.58173E-10-6.59276E-10-5.25037E-10
 -1     26883-1.32523E-09-3.87930E-10-7.57806E-10
 -1     26884 1.06302E-09-3.47882E-11 4.48516E-10
 -1     26885 7.55639E-10-1.22168E-09 1.28230E-10
 -1     26886 1.66817E-10-3.38912E-09 1.63126E-10
 -1     26887-1.57902E-10 8.24832E-11 2.88800E-11
 -1     26888-1.56961E-11-7.36102E-11-3.76144E-12
 -1     26889 3.91354E-11-1.20807E-09-2.07265E-11
 -1     26890 2.99524E-10-1.15156E-09-5.09871E-11
 -1     26891 6.08093E-11 2.99167E-11-7.28397E-11
 -1     26892-1.68819E-10 3.02120E-11 4.72136E-11
 -1     26893-2.17017E-10 2.03962E-09 1.22455E-09
 -1     26894 1.67632E-10 1.98692E-09 1.70062E-09
 -1     26895 3.22931E-10-1.98344E-10 2.37035E-10
 -1     26896 4.22256E-10 2.11045E-10 1.16124E-11
 -1     26897-1.96292E-10 1.16853E-10 3.20659E-10
 -1     26898-1.28227E-10 1.86565E-10-6.29088E-11
 -1     26899 6.42659E-11 5.46863E-10-3.97198E-11
 -1     26900-1.02692E-10 1.63271E-10 4.60498E-11
 -1     26901-3.15082E-13-2.36214E-11 2.70639E-12
 -1     26902 9.08719E-13 5.07789E-12-1.30507E-13
 -1     26903-8.50716E-10-1.33572E-09-1.97495E-10
 -1     26904-1.48385E-10 3.99814E-10 3.70618E-10
 -1     26905-2.55711E-11 1.14594E-10 9.95976E-12
 -1     26906-5.60719E-11-6.52736E-11-2.43096E-11
 -1     26907-2.38055E-11-1.30382E-10 1.34556E-11
 -1     26908 4.30847E-13-1.84429E-10-2.94401E-11
 -1     26909 2.68587E-11-1.59325E-11 6.11067E-13
 -1     26910-6.36290E-12-1.63639E-11-3.00315E-14
 -1     26911-6.01824E-13 6.66084E-12-3.10152E-12
 -1     26912-3.12990E-11 1.15216E-11 9.68877E-11
 -1     26913-1.38177E-10 2.52250E-10-5.30576E-12
 -1     26914 9.48306E-11-1.22141E-10-6.26891E-11
 -1     26915-2.22793E-10 8.63194E-10-7.10371E-10
 -1     26916-3.07901E-09 1.31640E-09-2.72137E-10
 -1     26917-6.11064E-10 1.14772E-09-1.42403E-09
 -1     26918 1.15967E-09-4.46961E-10 7.81205E-11
 -1     26919 2.76045E-10 9.42215E-11-7.53884E-10
 -1     26920-2.18706E-09 3.33574E-09-1.65027E-10
 -1     26921 9.68801E-10-3.52230E-10-7.91223E-10
 -1     26922 8.73952E-10-4.61556E-09 1.23842E-09
 -1     26923-6.17226E-09-4.99885E-09-1.87950E-09
 -1     26924-1.70797E-09 4.05441E-09-5.77466E-10
 -1     26925-2.24291E-09 4.21083E-10-2.70281E-10
 -1     26926-1.78459E-09-6.75397E-10-7.51218E-10
 -1     26927 4.76308E-11-3.34921E-12 2.35971E-11
 -1     26928-6.87916E-11-2.48381E-11-1.16627E-11
 -1     26929-1.37335E-11-5.24872E-11 4.20419E-12
 -1     26930 7.82876E-11-2.07736E-11 1.96210E-12
 -1     26931 3.06936E-11 2.92247E-11 5.63605E-12
 -1     26932-3.72297E-10 1.52149E-09-5.62374E-10
 -1     26933-4.18231E-10-5.78318E-10-1.11054E-10
 -1     26934 1.58958E-09-1.53502E-09 4.49517E-10
 -1     26935-1.39037E-09-1.38149E-09 6.64240E-10
 -1     26936-1.04885E-09 3.11209E-11 4.66449E-11
 -1     26937-2.21146E-09 1.27985E-09-1.07177E-09
 -1     26938 1.90593E-09-1.36425E-09 1.10451E-09
 -1     26939 9.82554E-11-2.99060E-11 1.82874E-10
 -1     26940-1.48564E-09 1.98407E-10-2.73506E-10
 -1     26941-8.45837E-10-1.94212E-11 7.00482E-10
 -1     26942-1.25585E-10 6.53045E-10-2.69882E-10
 -1     26943-7.07594E-10-9.72310E-11-3.47656E-10
 -1     26944 9.51107E-11-5.40395E-11-5.61501E-11
 -1     26945 1.92268E-10 1.61794E-10 6.01344E-12
 -1     26946-3.48963E-11-2.01145E-10 2.30454E-11
 -1     26947-3.09100E-11-9.76325E-10-2.24138E-10
 -1     26948 1.55292E-10 3.34317E-10 1.73630E-10
 -1     26949 5.22412E-10 4.00947E-10-9.50992E-11
 -1     26950-4.94281E-10 3.53230E-10 3.59091E-11
 -1     26951-3.50377E-10 5.32005E-10-1.43360E-10
 -1     26952 1.97295E-10 7.30298E-10 3.22771E-11
 -1     26953-1.44709E-09-2.51700E-09-5.44649E-10
 -1     26954 2.45513E-11-2.35254E-10 8.63105E-10
 -1     26955-7.24530E-11-9.33325E-10-6.99671E-10
 -1     26956-5.73740E-10-7.58222E-10 3.61517E-10
 -1     26957 2.11645E-09 4.64501E-09 1.83879E-09
 -1     26958-5.75670E-10 3.35806E-09-8.69917E-10
 -1     26959-5.17680E-10-6.33206E-10 2.37848E-11
 -1     26960 3.38735E-10-4.21996E-10-4.48075E-10
 -1     26961 1.87661E-09-2.43235E-09 4.39839E-10
 -1     26962-4.91332E-10-3.66646E-10 1.17055E-09
 -1     26963 2.89413E-09-8.59499E-10 6.72187E-10
 -1     26964 2.81968E-10-1.43092E-10 8.45004E-11
 -1     26965-2.48392E-10-1.76212E-10-1.43995E-09
 -1     26966 6.39967E-10-3.53603E-09-6.45328E-10
 -1     26967 3.68615E-10 4.30836E-10-9.63989E-11
 -1     26968-4.18177E-10-3.46537E-10-2.48357E-11
 -1     26969 5.49615E-10-6.51893E-10 3.92900E-10
 -1     26970-1.38076E-10-5.15768E-10 1.03105E-10
 -1     26971-9.36004E-11-1.40116E-10 2.56797E-10
 -1     26972 4.10106E-11-2.60463E-10 1.65047E-11
 -1     26973 6.93632E-11 6.29479E-11 2.11532E-10
 -1     26974-2.12923E-10-7.20997E-10 5.06707E-10
 -1     26975 2.94456E-10 6.76942E-10 1.59329E-10
 -1     26976 5.80570E-10 8.62898E-10-5.72844E-11
 -1     26977 1.27533E-09-4.34967E-09 6.12549E-10
 -1     26978 8.87365E-10 6.92204E-10 2.55740E-09
 -1     26979-2.00932E-10-1.46120E-09 1.14476E-10
 -1     26980 3.53629E-10 1.14341E-09-6.48876E-10
 -1     26981 4.21707E-11 2.21622E-10-1.33373E-11
 -1     26982-3.58669E-10 1.94691E-10 3.24594E-10
 -1     26983-2.75733E-10 2.66379E-10 9.96306E-11
 -1     26984 2.28077E-10 9.20001E-11-1.75746E-10
 -1     26985 3.30409E-11 7.15370E-12-8.90749E-12
 -1     26986-1.53854E-11-1.37263E-11-7.58477E-12
 -1     26987 4.41859E-12 6.72779E-12 9.09606E-13
 -1     26988 8.25889E-12-1.29146E-11-1.58600E-11
 -1     26989 9.44767E-12 7.15760E-12-2.99671E-12
 -1     26990-4.82112E-11-3.04125E-11-2.83007E-11
 -1     26991 6.75763E-11-1.62725E-10-2.67983E-11
 -1     26992 6.38492E-12 4.31285E-12-1.62537E-13
 -1     26993 1.12781E-12-1.08030E-11 6.31983E-12
 -1     26994-4.05161E-12-2.19700E-11 1.40776E-12
 -1     26995 7.85093E-12-1.78998E-11 2.34563E-11
 -1     26996 1.15583E-11 2.72099E-11-1.16067E-11
 -1     26997-9.04160E-11-8.11525E-11 3.23016E-11
 -1     26998-2.94268E-11 1.73382E-11-1.33269E-11
 -1     26999 7.71733E-11 1.86579E-11-4.24363E-11
 -1     27000 6.13381E-10 7.36800E-10-9.45358E-10
 -1     27001-2.92166E-09 5.08353E-09-5.21308E-10
 -1     27002 8.90242E-11-1.94181E-10-1.32000E-11
 -1     27003 1.71595E-09 1.45990E-09 1.55053E-09
 -1     27004 2.05217E-11-3.77458E-12-1.15409E-11
 -1     27005-1.73427E-09 6.58851E-10 2.48792E-10
 -1     27006-4.18722E-10 1.64814E-09-1.74819E-10
 -1     27007 1.99175E-10-2.75028E-09-2.46818E-10
 -1     27008 2.18312E-11-2.73874E-12-3.95924E-11
 -1     27009 1.99203E-11-1.34817E-10 2.45342E-11
 -1     27010-1.42235E-09 1.14703E-09-1.39201E-09
 -1     27011-2.59404E-09-4.36154E-09 3.59172E-10
 -1     27012 4.61418E-11-9.09046E-11-1.32034E-10
 -1     27013-4.00990E-11-7.81935E-11 4.82745E-11
 -1     27014 1.24729E-09 1.81417E-09 4.63044E-10
 -1     27015-1.81745E-11 2.51601E-09-1.21034E-10
 -1     27016 1.05237E-09 9.05495E-10 4.68598E-11
 -1     27017 1.80238E-09 1.26305E-10-3.73746E-10
 -1     27018-6.03604E-11-2.74606E-10-5.69408E-10
 -1     27019-1.57505E-10 8.29066E-10 3.60316E-10
 -1     27020-4.92676E-11 6.36883E-12 1.04075E-10
 -1     27021 9.54002E-12-6.33416E-11 8.63674E-11
 -1     27022-2.29775E-10 4.81733E-11-6.90289E-11
 -1     27023-4.35426E-10 2.05443E-10 1.70873E-10
 -1     27024-1.23913E-10-6.93984E-10-1.45131E-10
 -1     27025-6.41521E-11-2.35681E-10-9.50289E-11
 -1     27026-8.20055E-11 1.11440E-10 3.58134E-11
 -1     27027-8.97996E-10 1.10733E-09-1.28176E-10
 -1     27028-6.28028E-10-4.27866E-09-2.54076E-10
 -1     27029 1.53384E-10 1.77841E-10 9.40639E-11
 -1     27030-2.92669E-10-1.49499E-09-2.68455E-10
 -1     27031-2.78024E-10 1.02290E-09 2.41492E-10
 -1     27032-2.08592E-09-3.40964E-09-1.58627E-10
 -1     27033 7.39030E-10 1.11253E-09 1.44335E-10
 -1     27034-1.00101E-09 1.68432E-09 6.96168E-10
 -1     27035-1.82626E-10-8.52540E-10-4.63865E-10
 -1     27036-2.33151E-11 1.48644E-11-1.93290E-10
 -1     27037-2.43872E-11 7.94511E-11 1.13951E-11
 -1     27038 7.24427E-10 3.15250E-10 5.99170E-11
 -1     27039 5.29616E-11-3.60745E-10 1.05885E-10
 -1     27040 1.32437E-09 1.56478E-10 1.60176E-09
 -1     27041 5.07962E-10 6.79853E-10-5.02012E-10
 -1     27042-3.18646E-10-3.26841E-10 3.81295E-10
 -1     27043 2.40925E-10 8.06301E-11 2.90191E-10
 -1     27044 1.91906E-10 1.18068E-09-8.52395E-10
 -1     27045 5.67420E-10-1.84713E-10 1.01823E-09
 -1     27046-2.27453E-09 7.10458E-10-9.26246E-10
 -1     27047 1.48302E-11 6.06255E-11-4.48552E-11
 -1     27048-4.14553E-10-1.28804E-10 3.89249E-11
 -1     27049 1.86612E-10-1.65583E-10-1.01968E-10
 -1     27050 5.81494E-14 9.77662E-12 1.29102E-11
 -1     27051 7.97334E-12 9.13461E-13 2.56856E-12
 -1     27052 2.29881E-11 4.24257E-11 2.83029E-12
 -1     27053-1.18933E-14-6.83277E-12 5.76117E-12
 -1     27054-1.38192E-11-1.85428E-11-1.67761E-11
 -1     27055-3.22995E-11 4.33327E-12-1.15935E-11
 -1     27056 3.12601E-11-9.99424E-11-3.20904E-12
 -1     27057 7.50427E-11-1.16865E-10 2.93916E-11
 -1     27058 3.61992E-10-1.24112E-09 6.52466E-10
 -1     27059-1.32391E-10 1.14921E-10 5.59369E-10
 -1     27060 1.76032E-09-2.59661E-09 9.51928E-10
 -1     27061 4.20804E-10 3.97516E-10 1.46526E-10
 -1     27062 2.03112E-09-1.21528E-09-1.14109E-11
 -1     27063 4.79554E-10-7.54992E-09 1.76233E-09
 -1     27064 5.06489E-10 4.72533E-09-7.42715E-10
 -1     27065-2.77203E-09-4.72282E-09 6.93089E-10
 -1     27066 1.03112E-09 7.97972E-10 4.44775E-10
 -1     27067 2.09105E-11-1.38571E-11 7.72982E-12
 -1     27068-9.29396E-12 1.25054E-11-9.72333E-13
 -1     27069-4.49692E-12 7.99132E-13-4.11449E-12
 -1     27070-3.62133E-11-9.00373E-12-1.81620E-11
 -1     27071 1.60804E-09-5.79579E-09-7.77746E-10
 -1     27072 2.32722E-09-3.11745E-09-1.86938E-09
 -1     27073-1.29626E-10-9.73325E-10 2.18608E-09
 -1     27074-6.18485E-11 2.29735E-09 2.61067E-09
 -1     27075 3.78639E-12 7.37645E-11-2.32365E-11
 -1     27076 1.07461E-10-2.40591E-11-1.47295E-11
 -1     27077-1.25073E-09-2.09250E-09-3.76150E-10
 -1     27078-1.83493E-10-9.78100E-11 8.00666E-10
 -1     27079 3.56008E-10 1.68934E-10-7.41676E-10
 -1     27080-1.15698E-10 1.14724E-11 4.17807E-11
 -1     27081-7.46946E-11 4.37926E-11-8.69003E-11
 -1     27082 1.08808E-10-8.98427E-10 1.85550E-10
 -1     27083-5.97711E-11-1.45366E-10 1.25686E-10
 -1     27084 9.27427E-12-5.71746E-12 5.31455E-11
 -1     27085 6.73925E-10-1.03295E-09-5.85129E-10
 -1     27086 2.52518E-10 1.50462E-09 1.70445E-09
 -1     27087-9.89112E-10 1.21790E-09 8.40660E-10
 -1     27088-1.11939E-09-2.23254E-09-1.89048E-10
 -1     27089-1.54783E-10 9.47076E-10-1.00058E-09
 -1     27090-1.10504E-09-1.63803E-09 3.13942E-10
 -1     27091 1.37559E-09-1.57518E-09-2.57090E-10
 -1     27092-1.47575E-09-1.89912E-09-1.54378E-09
 -1     27093 2.23838E-09 3.94806E-09 1.75394E-10
 -1     27094-4.22689E-11-1.42019E-11-1.21347E-10
 -1     27095-5.86573E-12-8.13445E-12 9.09307E-12
 -1     27096 2.33987E-12 1.17013E-11 2.14050E-12
 -1     27097-5.80666E-12 1.27113E-12-3.62034E-11
 -1     27098 8.51380E-12-1.64310E-12 7.45071E-13
 -1     27099 6.36623E-10-3.59715E-10-6.68540E-11
 -1     27100-2.26733E-10 8.72582E-10-4.37994E-10
 -1     27101-7.67779E-10-4.50598E-10-4.16855E-10
 -1     27102-2.65993E-12-9.44545E-11-7.04720E-11
 -1     27103-2.54447E-11-1.14090E-10 4.72566E-10
 -1     27104-7.16611E-10-1.06349E-09 7.23351E-10
 -1     27105 4.88691E-14 2.59827E-13-2.23599E-13
 -1     27106 7.65175E-13-1.50088E-12 5.89251E-13
 -1     27107-7.83940E-13 2.20044E-13 3.02147E-13
 -1     27108 6.07283E-13 4.56463E-13-2.04427E-13
 -1     27109 3.68080E-13 9.51495E-13-2.19491E-13
 -1     27110-1.05537E-09 3.07316E-10-3.04547E-10
 -1     27111 1.60114E-09 5.13699E-10 1.41305E-09
 -1     27112 1.83134E-11-4.07417E-11-2.65032E-12
 -1     27113 3.47907E-12-2.67686E-12-7.68607E-13
 -1     27114 9.73867E-12 2.93049E-11-2.21734E-12
 -1     27115-5.34851E-12-1.12848E-11 1.95510E-12
 -1     27116-9.16737E-12-2.73436E-12-7.56006E-13
 -1     27117 1.54081E-09 1.25313E-09 1.80912E-10
 -1     27118 2.34126E-09-4.53167E-09-7.21761E-10
 -1     27119-1.23182E-09-1.70912E-09-1.31790E-09
 -1     27120-1.06371E-09 3.82722E-10 2.15467E-09
 -1     27121-2.72221E-10-2.98035E-09 1.82208E-09
 -1     27122 5.71050E-10 4.21479E-10 2.46051E-10
 -1     27123-9.01718E-10-1.96908E-09 4.11471E-10
 -1     27124 5.61625E-09 4.39686E-09-3.76024E-10
 -1     27125-8.00366E-10-6.35148E-09-8.33081E-10
 -1     27126-4.60036E-12-4.16081E-12 3.43292E-12
 -1     27127-1.68123E-12-5.06551E-12 1.32994E-12
 -1     27128 5.77376E-12-4.18679E-13-8.02969E-13
 -1     27129 1.35359E-12-4.31078E-12-1.39266E-12
 -1     27130 4.81746E-12 4.58738E-12 2.43508E-12
 -1     27131 3.38711E-14 2.75175E-12-1.11389E-12
 -1     27132-1.01778E-09-7.04872E-11-1.94120E-10
 -1     27133 3.61117E-10 9.36537E-10 5.61928E-10
 -1     27134-1.11092E-09-8.27614E-10 7.85524E-11
 -1     27135-1.05749E-14 3.21158E-13-1.80078E-13
 -1     27136 1.35632E-12-1.95051E-12-2.51021E-13
 -1     27137-7.10739E-13-6.56385E-14 1.93415E-13
 -1     27138-7.94651E-12-1.03416E-09-1.18300E-09
 -1     27139-6.46098E-10-1.48296E-10-1.71151E-09
 -1     27140 1.79477E-10 7.57993E-10 1.68037E-10
 -1     27141 9.59665E-10-5.07987E-10-1.13238E-09
 -1     27142-1.65539E-09 1.61568E-09-4.81514E-10
 -1     27143-1.46263E-09 4.86262E-09-2.21295E-09
 -1     27144-2.30814E-12 2.72679E-11-4.02285E-11
 -1     27145-1.79382E-10 2.40232E-10 5.66681E-10
 -1     27146 2.16682E-10 1.45135E-09-2.84281E-10
 -1     27147-1.08979E-09-1.69216E-09 2.47218E-10
 -1     27148-1.09775E-09 3.20350E-09 2.31720E-10
 -1     27149-1.60596E-09-2.64639E-10-4.20078E-10
 -1     27150 1.35029E-09-3.03983E-09-1.37356E-11
 -1     27151 3.65514E-10 1.94072E-10-2.46055E-10
 -1     27152 5.30317E-10 4.62389E-11 1.32162E-09
 -1     27153-4.97665E-10 1.01320E-09 1.22205E-09
 -1     27154-5.75095E-10 1.15452E-10 3.23671E-10
 -1     27155-3.98239E-10-2.26947E-10 7.21500E-10
 -1     27156 3.43506E-10 4.86980E-10-7.10314E-10
 -1     27157 5.03401E-10 1.37423E-10 1.69106E-09
 -1     27158-3.61105E-10-8.45267E-10-1.56494E-09
 -1     27159-4.80351E-09-2.24462E-09 6.35254E-10
 -1     27160 6.19304E-10-2.05912E-10 2.14157E-10
 -1     27161 1.65137E-09-1.44374E-09 1.27876E-09
 -1     27162 4.76899E-10 2.68728E-09 3.79527E-10
 -1     27163 1.21219E-09-3.88507E-09 1.73054E-09
 -1     27164 6.39803E-10 2.61547E-09 7.91297E-10
 -1     27165 1.33972E-10-4.60648E-09 5.47033E-10
 -1     27166 2.34356E-09 1.76376E-09-4.50633E-10
 -1     27167-1.76408E-09 1.69340E-09 2.74400E-10
 -1     27168-9.35090E-10-4.67196E-10-5.86278E-10
 -1     27169-3.57398E-10-4.55479E-10 2.92588E-10
 -1     27170 4.15219E-10 5.19331E-10-6.22875E-11
 -1     27171 3.84497E-11 9.11070E-11-2.99319E-11
 -1     27172-2.22328E-12-5.76491E-12-8.06008E-13
 -1     27173-1.93707E-12 4.75057E-12-6.49952E-13
 -1     27174 1.51171E-12 2.13965E-11-3.09469E-12
 -1     27175 1.53930E-10 1.22132E-10 1.33103E-10
 -1     27176 4.97754E-10 1.03528E-09-1.08824E-12
 -1     27177 1.11533E-09-2.53492E-10 1.50012E-10
 -1     27178-1.69718E-10 1.61427E-10 6.63073E-10
 -1     27179 2.04783E-11 1.45454E-10 1.60079E-10
 -1     27180-2.77738E-09 2.68588E-09-6.80621E-10
 -1     27181 7.98513E-10 8.82111E-09 9.57616E-10
 -1     27182-1.34795E-09 1.94092E-09-1.29045E-09
 -1     27183-7.54505E-10-1.46355E-09-1.19669E-09
 -1     27184-1.08960E-09-5.78717E-09 8.70042E-10
 -1     27185-6.98070E-10-3.57374E-10-9.02541E-11
 -1     27186 1.17411E-09-1.45074E-10-8.16918E-10
 -1     27187-1.90941E-09-1.31970E-09 6.87872E-10
 -1     27188-4.94923E-10 1.08213E-10-2.39176E-10
 -1     27189-1.97016E-09-5.44159E-09 4.29484E-11
 -1     27190 1.02417E-09 6.90258E-09 8.21376E-10
 -1     27191 1.99825E-09-1.19832E-09 3.74571E-10
 -1     27192-7.25102E-10 1.22005E-09-9.87217E-10
 -1     27193-2.43796E-09 1.60532E-09-1.94864E-10
 -1     27194 5.63814E-11-4.92654E-10-2.07605E-10
 -1     27195-3.38056E-12-7.23299E-12-1.86728E-12
 -1     27196-1.07422E-11 5.05894E-11 5.13545E-12
 -1     27197 6.64859E-12 1.67705E-11 1.20033E-11
 -1     27198 4.96553E-10-3.03829E-10 2.57881E-10
 -1     27199 8.94792E-13 7.30473E-12 5.24654E-12
 -1     27200 9.70658E-12 1.19289E-12-3.75235E-12
 -1     27201-4.80374E-13-5.96365E-13 2.01492E-13
 -1     27202 3.63622E-11 6.43766E-12 1.92405E-11
 -1     27203-1.11359E-12-6.21763E-13-3.30687E-13
 -1     27204 9.05823E-13 1.94292E-12 7.91502E-14
 -1     27205 6.27519E-10 2.98579E-09-1.43591E-09
 -1     27206 3.64760E-10-2.10677E-09 2.87120E-10
 -1     27207 3.96600E-10 5.50296E-10-1.27592E-10
 -1     27208 4.61835E-11-3.68916E-10-9.38437E-11
 -1     27209-1.83060E-09 5.83070E-10 1.58391E-10
 -1     27210 1.23559E-12-2.20978E-11-2.01798E-11
 -1     27211-6.50287E-11 9.68829E-12-1.96254E-11
 -1     27212 3.89901E-11 2.08113E-11-4.28102E-13
 -1     27213 1.13190E-12-8.11718E-12 1.12343E-11
 -1     27214-3.63331E-09 2.40406E-09-7.76272E-10
 -1     27215 2.74458E-09-2.53087E-10 1.49968E-10
 -1     27216 6.47831E-13 3.28871E-12-3.06311E-12
 -1     27217-7.24116E-12-4.60959E-12-6.52811E-13
 -1     27218 2.58527E-12 5.30309E-12-1.05294E-12
 -1     27219 4.92874E-10 1.16399E-09-9.65124E-10
 -1     27220 1.79066E-10 2.23481E-11 1.91994E-10
 -1     27221-2.86300E-11-3.79236E-10 1.22248E-10
 -1     27222 3.75513E-12-1.12215E-11-1.23001E-11
 -1     27223-9.43507E-10 7.09385E-10 1.82564E-10
 -1     27224-1.59008E-10-5.34519E-10-1.33985E-10
 -1     27225-9.47968E-10-4.79395E-10-3.21784E-10
 -1     27226-8.74293E-12 1.72361E-11 1.61536E-11
 -1     27227-7.31899E-12-8.34657E-11 2.17757E-11
 -1     27228 7.24358E-11-3.75630E-11-2.63222E-11
 -1     27229 1.18453E-11 4.84444E-11-1.08782E-11
 -1     27230 2.72400E-13-2.45882E-12-2.12452E-12
 -1     27231-9.27675E-13-7.13425E-13 2.72052E-12
 -1     27232 3.98816E-10-3.49647E-09 1.29541E-09
 -1     27233-3.10179E-09 1.45697E-09 1.33569E-10
 -1     27234-1.45681E-09 6.77823E-09 8.69412E-10
 -1     27235 9.61668E-10-1.45268E-09 7.25142E-10
 -1     27236 1.14734E-09 1.71744E-09 1.09629E-09
 -1     27237-1.21591E-09-8.71784E-10-1.94099E-11
 -1     27238-2.34225E-09 4.97107E-10 6.60408E-10
 -1     27239 1.83826E-09-2.47163E-10-3.01636E-10
 -1     27240 6.55361E-10-9.88696E-10 4.03815E-10
 -1     27241 1.19980E-09-1.77566E-09 5.42797E-10
 -1     27242-2.96665E-10 3.53354E-09-5.65729E-10
 -1     27243-6.10922E-11-4.69833E-10 5.13474E-10
 -1     27244 1.53111E-10-6.98447E-10 1.19607E-09
 -1     27245 1.87954E-11-4.28707E-12-1.76820E-11
 -1     27246-7.25409E-11 2.14500E-12 1.59530E-11
 -1     27247-2.17107E-11-3.08714E-11-5.69766E-11
 -1     27248-3.31553E-11-7.67219E-11-2.30101E-11
 -1     27249-1.38240E-09-5.09262E-10-1.41282E-10
 -1     27250-1.57748E-09-1.38798E-10 1.43834E-10
 -1     27251 6.60857E-13 1.07524E-12-4.40759E-13
 -1     27252 3.13649E-11-4.54248E-11-2.43813E-11
 -1     27253-2.20708E-12 9.17761E-14-9.82936E-13
 -1     27254 2.35672E-11-2.88902E-11 6.96168E-11
 -1     27255 1.07709E-11-5.50099E-11 2.23048E-10
 -1     27256 1.68414E-11-1.12714E-10 2.31570E-10
 -1     27257 3.02643E-12 4.11683E-12-1.79767E-12
 -1     27258-8.55216E-11 1.70304E-10 7.84928E-12
 -1     27259 4.74694E-12 9.97745E-12-8.31690E-12
 -1     27260-9.70934E-12-1.15991E-11-5.69855E-12
 -1     27261 1.81120E-10 3.23184E-10-1.67091E-11
 -1     27262 2.67991E-11 3.63883E-13 1.43676E-11
 -1     27263-8.85455E-12-1.91951E-11 4.46818E-12
 -1     27264 8.89100E-10 4.63576E-10 2.19731E-10
 -1     27265-3.04842E-10-3.42275E-10-6.66042E-10
 -1     27266-3.42178E-10 3.69990E-10-2.68515E-10
 -1     27267-6.91549E-11 1.45940E-09 6.42624E-10
 -1     27268 5.40877E-12 4.95494E-10 3.59727E-10
 -1     27269 1.29295E-12-3.27410E-12-1.75057E-12
 -1     27270-2.18815E-11 1.51170E-10-1.38899E-11
 -1     27271-2.00045E-09 4.66914E-10-7.09189E-11
 -1     27272 1.39380E-10-1.89900E-10 3.54161E-11
 -1     27273 3.35193E-10-2.55537E-10 1.69832E-11
 -1     27274 5.82531E-11-1.18854E-10-3.25949E-10
 -1     27275 1.84055E-11-9.32456E-11 2.46590E-10
 -1     27276 7.54629E-11-3.81809E-10-7.91274E-11
 -1     27277-2.08413E-11 6.64438E-12-2.47258E-11
 -1     27278 1.77086E-12 6.74322E-12 3.22142E-12
 -1     27279 5.33147E-12 3.14347E-12-7.79021E-12
 -1     27280-3.66770E-10-1.75569E-10-1.11441E-10
 -1     27281 1.69401E-09 8.41384E-10-1.23076E-09
 -1     27282 1.01631E-09 1.46508E-09-3.66903E-10
 -1     27283-7.87632E-10 1.25896E-09 2.29794E-11
 -1     27284-3.01060E-10 1.35158E-10 9.32878E-10
 -1     27285 1.20226E-10-3.53527E-10-1.86745E-11
 -1     27286-5.56150E-11-7.17596E-11 1.78453E-11
 -1     27287-3.25443E-12 7.28089E-14-7.02105E-13
 -1     27288-2.34220E-10-7.52490E-11-7.86136E-11
 -1     27289 1.24887E-11 2.18314E-12 2.64430E-12
 -1     27290 4.54638E-11 2.15607E-11 3.12200E-11
 -1     27291-6.76572E-12-1.18130E-10-1.72558E-10
 -1     27292-2.78426E-11-9.12466E-11-2.33355E-13
 -1     27293 1.68349E-10-9.14731E-11-2.47062E-11
 -1     27294 1.91052E-10 5.57744E-10 2.10578E-10
 -1     27295-1.20091E-13 6.86903E-12 1.88294E-13
 -1     27296 2.16618E-11 5.75111E-10-1.75137E-09
 -1     27297 1.54269E-10 9.75031E-10-6.00140E-10
 -1     27298-2.37526E-10-4.93794E-11 5.68221E-10
 -1     27299-7.73834E-13 1.92499E-12 6.15064E-13
 -1     27300 1.20767E-11 1.24520E-11 3.74878E-12
 -1     27301 9.32266E-14 9.45713E-14-3.03757E-13
 -1     27302 1.75766E-09 8.61512E-09 8.04807E-10
 -1     27303-6.98318E-09-9.09301E-10-1.00505E-10
 -1     27304 9.20869E-10-2.05010E-09-6.93752E-11
 -1     27305 1.52549E-10-3.91845E-11-3.33698E-11
 -1     27306-6.23024E-11 2.11505E-10 2.52470E-10
 -1     27307 6.48262E-11 2.05257E-10 1.18623E-10
 -1     27308-9.95968E-12 9.76905E-11-1.83338E-10
 -1     27309 3.66024E-10 3.90759E-10-1.35907E-09
 -1     27310 7.73569E-10-9.12120E-10 3.54235E-10
 -1     27311 4.69395E-10 2.45502E-09-5.68958E-10
 -1     27312 2.40298E-13-3.44903E-13-3.62765E-14
 -1     27313 1.64194E-13-5.39065E-14 6.76681E-14
 -1     27314-7.82980E-13 3.13609E-13 1.29709E-12
 -1     27315 9.07671E-13-2.99923E-13-3.60462E-13
 -1     27316 9.10294E-14-4.28437E-13-4.62755E-13
 -1     27317 2.46681E-10-9.50990E-10 1.63800E-10
 -1     27318 3.84278E-10 4.02415E-10-5.84151E-11
 -1     27319-3.44270E-10-5.12271E-10 2.60414E-10
 -1     27320 1.33122E-09-1.40085E-09-3.49568E-10
 -1     27321-2.27290E-10-3.63903E-10 8.96703E-11
 -1     27322 3.05012E-10-2.61239E-10-2.53353E-13
 -1     27323 2.46489E-09-2.31663E-09-3.32250E-10
 -1     27324 1.95466E-09 5.12512E-10-1.13411E-09
 -1     27325-1.26304E-10-9.29837E-11 2.26513E-10
 -1     27326-1.35823E-09-6.70526E-10-6.45967E-10
 -1     27327 1.23232E-09-4.30757E-10-9.11079E-10
 -1     27328 1.67554E-11-4.18330E-11 7.42295E-13
 -1     27329 2.39173E-11 1.56424E-10-4.10454E-11
 -1     27330-4.60981E-11 8.98642E-11-1.03141E-10
 -1     27331-8.15449E-11-5.73900E-10 9.90623E-11
 -1     27332-5.41598E-11-1.12078E-10 4.76132E-11
 -1     27333-4.16404E-11 5.60537E-10-2.21140E-11
 -1     27334 2.72981E-10-5.07588E-10 1.24297E-11
 -1     27335 1.31794E-11-2.48716E-12-5.39235E-12
 -1     27336 2.42234E-12 3.78042E-11 1.93435E-11
 -1     27337-1.15305E-10 1.27507E-09-5.04669E-10
 -1     27338 4.48753E-10 9.55738E-10-9.59418E-10
 -1     27339 9.81149E-11-3.65839E-10-9.25721E-10
 -1     27340-3.66782E-11 7.21026E-10 1.88690E-10
 -1     27341 6.38199E-10-2.23159E-10-1.80223E-10
 -1     27342 2.46370E-10 2.91353E-10-7.72261E-11
 -1     27343-2.50183E-10-6.11180E-11-3.57248E-11
 -1     27344 1.05063E-10 7.11517E-11-2.30496E-10
 -1     27345-1.33417E-11 1.32526E-11 5.92009E-11
 -1     27346-1.37155E-09-3.35908E-10 1.34437E-10
 -1     27347-7.61238E-10 8.88500E-10-3.34324E-11
 -1     27348-2.31662E-10 3.48198E-10-3.97939E-11
 -1     27349 9.48782E-10 3.42344E-10-8.44969E-11
 -1     27350-3.83930E-11 7.10479E-10 1.26445E-10
 -1     27351 8.06999E-10 1.30892E-10-3.04883E-10
 -1     27352 2.17901E-10-2.02497E-10-2.59836E-10
 -1     27353 5.56588E-11-3.70893E-10 1.60206E-10
 -1     27354 2.32878E-10 1.66918E-10-7.95908E-11
 -1     27355-8.85484E-10-3.18268E-10 1.01807E-10
 -1     27356-3.16782E-10 6.19552E-10-1.39546E-10
 -1     27357 1.34771E-09 7.14758E-10 1.35570E-10
 -1     27358-7.01445E-10 1.88816E-10 3.68448E-10
 -1     27359 8.42235E-10 2.79519E-10-4.22302E-10
 -1     27360-4.32140E-10-6.97989E-10-6.42686E-10
 -1     27361 1.49833E-10 9.41712E-10 2.22113E-10
 -1     27362 3.12077E-10-8.53415E-10 8.69272E-11
 -1     27363-8.90268E-12 1.89643E-11-1.14184E-11
 -1     27364 1.64641E-11-5.02181E-11 4.15756E-12
 -1     27365-1.22224E-12-8.05212E-12 5.22360E-14
 -1     27366 1.84214E-12 1.65300E-12-1.17506E-12
 -1     27367-1.15693E-13 1.78750E-12 2.80637E-13
 -1     27368-2.49587E-13 7.41332E-13-2.21212E-14
 -1     27369-2.21639E-11-4.81712E-10-6.79427E-11
 -1     27370-1.63906E-10-2.93861E-10 4.44567E-11
 -1     27371 1.63037E-10-1.73723E-10 9.47167E-11
 -1     27372 1.07884E-09-2.30224E-09 1.12076E-09
 -1     27373-1.75247E-10 1.60067E-09-3.21845E-09
 -1     27374 3.23177E-09-1.03189E-09 4.93567E-10
 -1     27375-1.83946E-09-4.69847E-10 1.75800E-10
 -1     27376-2.61452E-09-3.23841E-10-1.02595E-09
 -1     27377 1.01642E-14 8.84015E-14 1.37301E-12
 -1     27378-2.30992E-09 5.73695E-11 9.04762E-10
 -1     27379-1.80168E-09-1.78454E-09 2.52652E-11
 -1     27380 3.28586E-11 1.35951E-10 4.54354E-11
 -1     27381-1.03967E-11-5.83528E-11 5.20139E-12
 -1     27382 3.37780E-11 7.44703E-11-1.42805E-11
 -1     27383 1.66002E-11 1.24351E-11 3.86552E-12
 -1     27384 3.78146E-10 5.89663E-10 2.75569E-10
 -1     27385-1.67165E-09 2.60066E-09-1.63801E-09
 -1     27386 4.19961E-10-1.00021E-09-5.87155E-10
 -1     27387 9.86004E-12-2.10610E-12 4.40892E-12
 -1     27388-8.51208E-11-1.58614E-10 7.57031E-11
 -1     27389-2.18936E-10 5.35924E-10-3.62831E-11
 -1     27390 2.45507E-12 2.78407E-12 3.88606E-13
 -1     27391-1.04330E-11 1.82338E-13 5.28894E-12
 -1     27392 6.68808E-12 1.65680E-10-5.10221E-10
 -1     27393 2.42941E-10-3.78602E-11 3.42180E-10
 -1     27394-1.44038E-11 3.94865E-10-5.35771E-11
 -1     27395-1.67425E-10 7.80729E-11-5.51348E-11
 -1     27396-4.77242E-12-3.90653E-12 3.45468E-12
 -1     27397 1.38845E-12-7.12361E-12 2.56239E-13
 -1     27398 2.79128E-12 9.82985E-13-3.24085E-12
 -1     27399-2.23880E-12 7.10472E-12 7.36966E-12
 -1     27400 8.37247E-11-8.87604E-10-3.97092E-11
 -1     27401-1.91481E-10-1.56044E-10 1.41385E-11
 -1     27402 4.67488E-10-2.55785E-10-8.51573E-11
 -1     27403-3.03149E-10-4.87357E-10 1.54701E-09
 -1     27404-4.64717E-10-2.58169E-09 2.49046E-10
 -1     27405 1.49984E-09-1.82894E-09-4.81028E-10
 -1     27406 4.68272E-10-1.57564E-09 6.37997E-10
 -1     27407 7.75343E-12-3.44112E-12 1.13292E-11
 -1     27408 4.39931E-13-2.40050E-12 1.61648E-13
 -1     27409-8.03725E-13-2.50523E-12 2.44740E-12
 -1     27410-1.77551E-10 1.31411E-10-2.30884E-11
 -1     27411-2.29022E-10-5.70297E-10-5.93107E-10
 -1     27412 6.54321E-10-5.36802E-10 5.43882E-10
 -1     27413 9.23191E-11 4.36281E-10 2.58726E-12
 -1     27414 9.14383E-11 1.47356E-10 8.54339E-12
 -1     27415 1.15892E-10 1.23041E-10 4.16677E-11
 -1     27416-1.35617E-09 1.30304E-09-1.73503E-10
 -1     27417 4.16233E-10-1.72577E-09 3.64479E-10
 -1     27418-2.26831E-09-5.61813E-10-2.39513E-10
 -1     27419 1.71753E-09 6.70092E-10-1.04767E-09
 -1     27420-1.45971E-10 8.08096E-11 1.07801E-10
 -1     27421-6.99913E-10-2.14477E-10 7.52346E-11
 -1     27422-1.29730E-09-3.36517E-09 5.64080E-11
 -1     27423-2.91548E-10-1.47643E-10-3.80929E-10
 -1     27424 2.77784E-10-6.06797E-12-4.79887E-11
 -1     27425-4.46468E-10 9.95316E-10 2.26175E-10
 -1     27426-4.07155E-11 1.83565E-10-1.55673E-10
 -1     27427-3.98932E-13 7.67587E-13 5.59885E-13
 -1     27428-1.27051E-12 7.91932E-13 7.28362E-13
 -1     27429-2.34614E-14-5.87969E-13 2.11497E-13
 -1     27430 4.51544E-12-1.96213E-10 4.41478E-11
 -1     27431-7.88820E-12 9.56755E-11-1.12224E-10
 -1     27432 2.17552E-11 9.05149E-12-2.23288E-12
 -1     27433 4.83513E-12-1.03787E-11-1.58522E-11
 -1     27434 3.30630E-12-3.41028E-11 6.57963E-12
 -1     27435 4.01387E-13 3.86792E-11 1.45572E-11
 -1     27436 3.31607E-13 2.60386E-12-4.62430E-12
 -1     27437 2.09338E-12 6.09755E-14 1.82343E-12
 -1     27438 3.78485E-12 2.11382E-11-3.54250E-12
 -1     27439-4.40540E-13 2.41315E-12 7.54952E-14
 -1     27440-1.27340E-11-6.35973E-10-2.79677E-10
 -1     27441 2.39315E-10 1.15684E-10 1.63180E-10
 -1     27442 2.34648E-10-1.16012E-10-1.93911E-10
 -1     27443 7.13921E-12 8.93738E-11 1.63379E-11
 -1     27444-7.63942E-11-8.21666E-11 7.81117E-11
 -1     27445 6.78922E-11 8.12369E-11-1.49289E-10
 -1     27446 4.59392E-11-7.16807E-11 3.78095E-11
 -1     27447-2.24352E-11 2.69278E-11 1.37481E-11
 -1     27448-5.66801E-11 1.06579E-10-6.27195E-11
 -1     27449 3.87394E-11 2.14859E-10-9.29714E-11
 -1     27450 9.47370E-12-3.98231E-11 1.03871E-10
 -1     27451 2.55898E-10-2.99926E-10-2.10328E-10
 -1     27452-1.76307E-10 4.91835E-11 4.13979E-11
 -1     27453-1.30521E-10 2.39538E-10-8.65905E-11
 -1     27454 4.13633E-10-5.56543E-10 2.57880E-10
 -1     27455 2.11891E-10-9.42142E-10 2.75552E-10
 -1     27456-5.48766E-11-1.22820E-10-2.28574E-10
 -1     27457 7.77015E-11-2.54082E-11-4.61318E-10
 -1     27458-2.53295E-11-3.33232E-10 2.94991E-11
 -1     27459-1.67286E-10-3.35948E-10 8.89333E-11
 -1     27460 4.69830E-10-7.10336E-10 5.80318E-11
 -1     27461-1.91374E-09-7.74666E-10 1.14046E-09
 -1     27462-3.20750E-11 5.95334E-10-1.47160E-13
 -1     27463-8.49105E-10 2.64066E-09-4.35240E-10
 -1     27464 2.41963E-10-2.57362E-09-1.34886E-11
 -1     27465-1.96114E-10-9.87699E-10-9.91016E-11
 -1     27466 1.99071E-10 3.88913E-10-2.26556E-10
 -1     27467 6.26662E-11-2.30345E-10 2.26246E-10
 -1     27468-3.45901E-10-1.19795E-10 1.28814E-10
 -1     27469-2.14979E-10 2.69318E-10 2.61628E-10
 -1     27470-1.13168E-10-3.53184E-11 3.05933E-10
 -1     27471-2.40901E-10 9.87657E-11 2.00501E-12
 -1     27472 1.24737E-10 5.91997E-11 7.57199E-11
 -1     27473-5.27722E-11 5.20245E-11 1.79504E-12
 -1     27474 2.69761E-10 2.75894E-10-3.87991E-11
 -1     27475 2.31291E-10-1.97311E-10 3.19823E-11
 -1     27476 3.40858E-10-1.34044E-09-2.57605E-10
 -1     27477-8.52565E-11 8.08958E-10-8.63764E-10
 -1     27478 1.14917E-09-3.03930E-10-1.69057E-10
 -1     27479 3.82130E-10 1.38723E-09 5.44269E-10
 -1     27480 5.68290E-11 2.12715E-09 7.37475E-10
 -1     27481-4.50582E-10 8.23847E-10-5.10992E-10
 -1     27482 2.67103E-10 1.72222E-09-4.27221E-10
 -1     27483 1.34552E-09 3.39528E-10 3.79428E-10
 -1     27484 1.05758E-10 3.49449E-10-7.58467E-10
 -1     27485 9.77982E-11-4.08088E-11 2.04434E-10
 -1     27486-4.07162E-10 3.72321E-10-1.26228E-10
 -1     27487 4.22694E-11 1.18065E-10-3.95487E-10
 -1     27488 3.25654E-10 4.41568E-10 9.50791E-11
 -1     27489 4.03919E-10-1.95076E-10 6.13219E-10
 -1     27490 2.68719E-11-3.99997E-11 1.29012E-11
 -1     27491-1.64559E-11 3.42275E-11 5.93920E-11
 -1     27492 7.79153E-11 2.04048E-11 1.68724E-11
 -1     27493-1.67573E-11 7.14462E-11-5.75102E-11
 -1     27494-3.86719E-11-8.38693E-11 1.40707E-11
 -1     27495-1.64626E-09-4.45660E-10-8.87146E-10
 -1     27496 1.21356E-09 2.49511E-10 4.13056E-10
 -1     27497 1.49810E-09-4.30221E-09 9.63637E-10
 -1     27498-6.14541E-10 2.17604E-09-2.57111E-10
 -1     27499-6.91051E-10 3.58355E-09-7.45090E-10
 -1     27500 6.94816E-10 5.29579E-10 1.17658E-09
 -1     27501-3.73206E-10-3.01508E-10-6.78473E-10
 -1     27502 2.43220E-10 1.62115E-09-6.10995E-11
 -1     27503 6.79909E-11 2.54987E-10-2.15015E-11
 -1     27504 2.83526E-11 1.99546E-10-1.02148E-10
 -1     27505-5.91402E-12-3.76564E-12-1.18314E-11
 -1     27506-6.69736E-13-4.16960E-13 1.09984E-12
 -1     27507 2.42730E-12-6.32461E-13 9.26842E-13
 -1     27508 2.86424E-10 1.83844E-10-9.82432E-11
 -1     27509-3.45905E-10 1.98226E-10 8.75100E-11
 -1     27510-1.25242E-10 5.29811E-11-6.03816E-11
 -1     27511 1.49133E-10 5.37916E-11-2.24291E-11
 -1     27512-4.36326E-10-1.18531E-09 1.83277E-09
 -1     27513 1.02489E-10 1.70310E-09 1.60232E-10
 -1     27514-1.37148E-09 3.09878E-09-8.46265E-10
 -1     27515 3.64671E-12 9.34438E-11 7.08977E-12
 -1     27516 3.01705E-11-5.87313E-11-7.18458E-11
 -1     27517 5.98571E-12-7.29244E-14-6.24126E-12
 -1     27518 1.37805E-11-2.48199E-11 7.05837E-12
 -1     27519-3.43627E-10 8.85391E-10 3.72308E-10
 -1     27520 2.78147E-10-1.26001E-09 1.40643E-10
 -1     27521 3.07157E-10 4.55709E-10-3.74481E-10
 -1     27522 3.04756E-14-1.37288E-13 9.51378E-13
 -1     27523 1.13273E-09 3.82886E-10 1.47483E-10
 -1     27524-2.59414E-12-1.71468E-11 1.78302E-12
 -1     27525-9.30097E-12-2.72971E-13 8.51874E-13
 -1     27526 3.17592E-09 8.76525E-10-2.13008E-10
 -1     27527 2.06510E-09-1.55050E-09-1.21697E-09
 -1     27528-6.72964E-11-1.00632E-10 1.88259E-11
 -1     27529 1.66609E-12 1.83675E-12-1.82065E-12
 -1     27530 7.36615E-12-5.37060E-13-1.18771E-12
 -1     27531-9.36149E-13-2.53915E-12-1.78031E-12
 -1     27532 1.68545E-12-2.50980E-14 6.16396E-13
 -1     27533-5.74285E-10 1.29052E-09 1.31828E-10
 -1     27534 1.00034E-09 8.34658E-10 8.80870E-11
 -1     27535 7.46155E-11 1.78434E-10 3.58708E-11
 -1     27536 3.00908E-11-4.07222E-10 4.24233E-11
 -1     27537-2.80436E-10-1.59156E-11-5.60838E-11
 -1     27538-3.79793E-11 1.12344E-10 1.32839E-11
 -1     27539-2.16116E-12-2.88984E-09-7.74120E-10
 -1     27540-1.07191E-10 7.18518E-10 1.46795E-09
 -1     27541-8.97570E-10 3.66828E-09 1.37684E-09
 -1     27542 1.30848E-11-3.71305E-10 6.35089E-10
 -1     27543-1.44644E-09-2.11166E-09-1.60458E-09
 -1     27544-2.40963E-10-1.62842E-09 1.93848E-10
 -1     27545 4.25808E-10-4.71580E-10-2.75607E-10
 -1     27546 2.69667E-10 4.79725E-10-5.04954E-10
 -1     27547-1.80971E-09-1.61820E-09-2.23917E-10
 -1     27548 1.64064E-09-1.74357E-09 1.28627E-09
 -1     27549 7.26431E-10 6.29503E-10-7.11651E-11
 -1     27550-4.89212E-10 1.69863E-09-4.67886E-10
 -1     27551-1.29313E-10 1.28899E-10-2.11755E-11
 -1     27552-7.25533E-10 3.81967E-09-1.36434E-09
 -1     27553-4.23471E-10-3.13160E-10-7.93978E-10
 -1     27554-1.07205E-10-1.11665E-11 1.63164E-09
 -1     27555-6.49081E-10-1.37384E-09-3.95749E-10
 -1     27556 2.12332E-09 2.33754E-09 5.07629E-11
 -1     27557-2.56845E-11-2.23669E-11-1.58042E-11
 -1     27558-3.57975E-12-1.37448E-10 8.28269E-11
 -1     27559-3.18579E-11 2.89166E-11 1.15907E-12
 -1     27560 1.97612E-10 7.64396E-11-4.35144E-11
 -1     27561 2.99248E-12 2.35885E-11-8.59504E-11
 -1     27562-4.71873E-10 5.07959E-10 4.59077E-10
 -1     27563 1.18684E-09-1.93579E-10 2.73087E-10
 -1     27564-3.98494E-10-1.08950E-10 8.30628E-12
 -1     27565-1.47078E-10 1.55995E-10 1.80179E-11
 -1     27566 1.44242E-11 6.67999E-11-1.78377E-11
 -1     27567 7.74962E-11 5.53501E-11 2.54350E-11
 -1     27568 3.79124E-10 4.41998E-10 7.76171E-11
 -1     27569-2.00715E-10-1.03567E-10 1.59258E-11
 -1     27570-1.39806E-09 1.78197E-09 4.58477E-10
 -1     27571 3.90083E-10 3.23780E-10-1.55047E-10
 -1     27572-6.31069E-10-3.39793E-11-2.92283E-10
 -1     27573-4.60918E-10 2.41084E-10 1.03311E-09
 -1     27574 3.62599E-10 7.40598E-10 5.23991E-10
 -1     27575-1.85845E-14 2.00150E-12-1.57474E-12
 -1     27576-6.83372E-11-3.24155E-12-4.58504E-11
 -1     27577-2.35987E-10 2.24952E-10 8.05792E-10
 -1     27578 1.03832E-09-2.90166E-10-6.95307E-10
 -1     27579-7.50327E-10 3.13088E-09-3.13878E-10
 -1     27580 8.19706E-10 6.22502E-10-1.14276E-10
 -1     27581-9.10345E-11-4.10117E-10 1.34908E-10
 -1     27582-4.44255E-10-7.48226E-10-2.28695E-10
 -1     27583 2.42442E-10-5.76405E-10 9.12882E-11
 -1     27584 7.11602E-10-1.46821E-09-1.21455E-10
 -1     27585-6.88237E-11 7.10314E-10-2.81303E-10
 -1     27586 1.90909E-09 6.77754E-10-9.85178E-10
 -1     27587 1.37513E-10-7.91933E-10-7.69282E-11
 -1     27588 2.89278E-10 1.27105E-09-1.07135E-10
 -1     27589 2.37473E-09-3.03183E-09 4.80599E-10
 -1     27590-1.64395E-10 2.65019E-09-1.96762E-10
 -1     27591 3.75181E-10-1.45474E-09 9.93508E-10
 -1     27592-1.69777E-10 1.61012E-09 1.38743E-10
 -1     27593-6.13353E-10-1.22485E-10-8.25334E-11
 -1     27594 8.17646E-11-9.95560E-11 2.46411E-12
 -1     27595 1.57981E-09-1.72850E-11 2.77582E-11
 -1     27596-5.33196E-11 6.01309E-11 2.12558E-11
 -1     27597-7.31533E-10 7.58495E-10 7.09238E-11
 -1     27598 1.85288E-10-9.03612E-10-9.35909E-11
 -1     27599-1.79279E-10 9.56964E-10-4.14215E-10
 -1     27600-1.46361E-09-2.77410E-10 1.40401E-10
 -1     27601-4.94818E-13 8.91613E-11-4.74287E-11
 -1     27602-4.95459E-10 4.44596E-10-8.63858E-11
 -1     27603-5.30464E-10 6.40191E-11-5.86603E-11
 -1     27604-7.79534E-10 1.32393E-10 1.43534E-09
 -1     27605-1.55543E-09 7.36100E-10-2.01587E-10
 -1     27606-1.99284E-09-2.00203E-09 2.03116E-10
 -1     27607-3.39657E-09-1.19058E-09-9.71969E-10
 -1     27608-1.28261E-14 5.25607E-12 5.15277E-12
 -1     27609-7.79602E-12-1.94527E-11 6.88303E-13
 -1     27610-1.02547E-12-4.04145E-12-1.94170E-12
 -1     27611-7.26908E-13 1.28734E-13 3.32112E-12
 -1     27612 7.73509E-13 1.52830E-12 6.05072E-15
 -1     27613-7.63134E-13 1.04577E-12 9.61731E-13
 -1     27614 3.41612E-13-1.03812E-12 1.07911E-12
 -1     27615-4.59530E-10-3.08346E-10-8.44208E-11
 -1     27616-1.88398E-11-1.51409E-10-3.65041E-13
 -1     27617 1.01008E-10 8.86916E-11 7.43624E-11
 -1     27618-7.10411E-11-6.18712E-11-6.26643E-12
 -1     27619 2.11244E-10 4.32241E-10 1.26643E-10
 -1     27620-2.95212E-10-2.96795E-10-1.24369E-10
 -1     27621 5.78975E-11 8.42448E-10-4.79249E-11
 -1     27622 4.39935E-10-1.13062E-09-4.61996E-11
 -1     27623 1.46471E-10 6.57309E-10 2.90509E-10
 -1     27624 3.36340E-10 2.03323E-10-3.05931E-11
 -1     27625 9.86749E-11-9.07295E-11-4.65111E-11
 -1     27626 1.04557E-10-3.24453E-10 5.02609E-12
 -1     27627-3.82180E-12 1.10775E-12 6.78116E-13
 -1     27628-3.46702E-12-6.10598E-12-1.92280E-12
 -1     27629-7.20631E-12 5.97220E-12 3.08917E-12
 -1     27630-3.44284E-10 4.36167E-10-1.88022E-10
 -1     27631-2.39163E-11 1.83347E-10 3.66088E-10
 -1     27632 7.79057E-10 3.44129E-10-1.59288E-11
 -1     27633 2.47215E-10 1.05859E-09-1.62205E-10
 -1     27634 3.05550E-12-6.23785E-12 9.94839E-12
 -1     27635 1.74459E-09-2.04513E-09 9.07867E-11
 -1     27636-7.51957E-11 1.50485E-11-1.24640E-11
 -1     27637-1.59184E-13-1.86481E-10-9.66814E-10
 -1     27638 1.77925E-10 1.20606E-10 4.60932E-10
 -1     27639 6.50294E-12 6.31021E-11 2.94833E-11
 -1     27640-5.04281E-10 1.55382E-09-2.42491E-10
 -1     27641-2.95143E-10 3.32753E-10-1.37294E-10
 -1     27642-1.01334E-10 1.26436E-10-1.10830E-10
 -1     27643-2.29865E-10-3.52593E-10 1.32140E-10
 -1     27644-1.20739E-10-5.56792E-10 7.59135E-11
 -1     27645-1.87844E-10-9.91899E-11-3.98470E-12
 -1     27646 6.92637E-10 1.89878E-09-1.36663E-10
 -1     27647-1.43848E-10-1.85828E-10 1.45022E-11
 -1     27648-4.63654E-10-8.71458E-10-4.58983E-11
 -1     27649 1.20011E-09-3.38321E-09-9.50651E-10
 -1     27650-9.08695E-10 3.31731E-10-8.50735E-11
 -1     27651 1.74737E-10-1.47030E-10 3.27568E-11
 -1     27652-1.28716E-10 2.35579E-10-1.02820E-11
 -1     27653 1.42535E-09-4.47662E-11 5.61853E-10
 -1     27654-1.81979E-09-1.30352E-09 8.72621E-10
 -1     27655-2.07259E-10 1.31569E-09 2.06429E-10
 -1     27656 1.09297E-09-4.02608E-10 2.11931E-10
 -1     27657 4.06971E-10 3.70833E-10-1.90660E-10
 -1     27658-6.18331E-10-1.53292E-10-3.56916E-10
 -1     27659 1.05406E-10-2.48218E-10-2.33618E-10
 -1     27660-2.66584E-11-6.13428E-10-2.09482E-10
 -1     27661 7.05132E-11 3.88224E-12-1.15465E-10
 -1     27662-8.81325E-12 1.39757E-10-7.80402E-11
 -1     27663-2.84427E-11-3.89216E-10 1.97597E-11
 -1     27664-1.07062E-10 8.77213E-10 2.42559E-10
 -1     27665-1.48693E-10 1.62755E-09 3.82336E-10
 -1     27666 7.97948E-10 8.92814E-10 2.42932E-10
 -1     27667 1.62973E-10-2.16806E-09-8.37377E-10
 -1     27668-2.39177E-10-4.42104E-10 1.36758E-10
 -1     27669-4.29198E-10-9.58270E-10-1.69991E-10
 -1     27670 9.32354E-11-9.26137E-12 2.12053E-10
 -1     27671 1.47752E-10 1.31287E-10 5.62557E-11
 -1     27672-6.27395E-10-3.90915E-10-2.30087E-10
 -1     27673-1.46757E-11-6.07361E-12-1.77606E-11
 -1     27674 2.12211E-11-4.00676E-11 1.20427E-11
 -1     27675-1.45668E-12 3.39941E-11-2.37482E-12
 -1     27676 1.39279E-09 2.20854E-09-2.20664E-10
 -1     27677-2.01866E-10 5.42171E-10 1.40221E-11
 -1     27678-1.10724E-12-2.91790E-12-1.44860E-11
 -1     27679 2.28479E-11 2.06345E-11 4.42735E-12
 -1     27680 7.39462E-11 6.93466E-11-8.45372E-11
 -1     27681 1.41022E-10-1.94355E-11-4.97494E-11
 -1     27682-2.27124E-10-2.98249E-11 1.84948E-11
 -1     27683-6.35454E-11 1.01035E-10-2.16550E-11
 -1     27684-1.69787E-10-1.20526E-10 2.25273E-11
 -1     27685-7.60191E-11 1.64233E-09-1.50907E-10
 -1     27686 1.67479E-10 1.00167E-09 2.05507E-10
 -1     27687-4.11183E-10-8.41908E-10-2.35967E-10
 -1     27688 1.72655E-12 2.86403E-14-2.19447E-12
 -1     27689-1.02063E-11-2.61929E-11-6.10968E-12
 -1     27690-5.68815E-12-2.69610E-11 5.09694E-12
 -1     27691 9.73096E-11-1.68110E-10-7.71925E-11
 -1     27692-2.44371E-10-7.86738E-10 2.22181E-10
 -1     27693-1.51369E-10 2.32630E-10 2.27196E-12
 -1     27694 1.12940E-09-2.38499E-09 6.43391E-10
 -1     27695-5.56199E-12-4.48052E-11-9.75375E-12
 -1     27696 6.40043E-10-6.56044E-10 9.22727E-10
 -1     27697-6.78786E-10 4.89961E-11-7.33907E-11
 -1     27698 6.19019E-10 1.24786E-09-4.61676E-10
 -1     27699-1.43902E-09-1.41816E-09 9.27039E-10
 -1     27700-6.94279E-10-1.29600E-09-2.79129E-11
 -1     27701-2.59196E-10-2.78026E-09 1.61198E-10
 -1     27702 2.16727E-10 7.31853E-10-2.62117E-10
 -1     27703-1.36619E-11 2.22117E-11 2.62734E-13
 -1     27704-2.91474E-12-5.18712E-11 9.78329E-12
 -1     27705-9.04573E-10-3.01418E-10-3.98623E-10
 -1     27706 1.43677E-10-3.81168E-10 1.15592E-09
 -1     27707 2.48381E-10-9.86189E-11-5.21766E-10
 -1     27708-2.19792E-10-2.13227E-10-1.66619E-10
 -1     27709 9.99793E-10-1.58659E-09-1.18537E-10
 -1     27710-1.56513E-10-2.95985E-10 2.21261E-11
 -1     27711 3.04730E-10-1.51263E-10 9.80703E-11
 -1     27712 7.38463E-11 6.73208E-10-1.98938E-09
 -1     27713-1.94229E-09-2.66738E-09-1.72941E-09
 -1     27714 1.56507E-11-4.04272E-11-3.16209E-11
 -1     27715 1.13952E-09-2.93737E-09 6.44929E-10
 -1     27716 3.37380E-10 2.22342E-11 1.44384E-09
 -1     27717 2.26318E-09 6.58413E-10-3.91730E-10
 -1     27718-1.20667E-09 7.68138E-10-3.70303E-10
 -1     27719-4.02973E-09 3.31969E-10-1.53735E-10
 -1     27720 1.80494E-10 2.15425E-11 4.01425E-10
 -1     27721 1.33941E-10-6.02076E-10 2.60571E-10
 -1     27722 7.84168E-10 3.06402E-10 1.02309E-10
 -1     27723-9.05437E-11 3.84680E-09-1.84207E-09
 -1     27724 8.65854E-11-3.37266E-10 1.09584E-09
 -1     27725 5.76261E-10-5.83564E-10-5.37213E-10
 -1     27726-3.62075E-10-3.55702E-10-3.92499E-11
 -1     27727 6.38683E-11-1.76496E-11-1.49805E-10
 -1     27728-7.25570E-12-4.85533E-10 3.35452E-10
 -1     27729 4.44171E-12 2.45416E-12 2.22844E-12
 -1     27730-1.23785E-11 4.14341E-12-2.01057E-11
 -1     27731 3.87553E-11-1.85881E-10-7.80600E-11
 -1     27732-1.77114E-11-3.12593E-11 1.03971E-10
 -1     27733 4.67372E-11 1.20216E-11-5.25257E-11
 -1     27734-8.43228E-10 1.25977E-09 8.05445E-11
 -1     27735-8.93839E-11-4.63891E-11-1.06867E-10
 -1     27736 1.12943E-11-1.77723E-12-1.44131E-10
 -1     27737-1.91168E-10-3.07411E-10 1.10624E-10
 -1     27738-1.26828E-10 9.67867E-11-4.66491E-12
 -1     27739-4.06490E-11 9.60889E-11-7.15596E-11
 -1     27740 3.32412E-11 1.36940E-10-8.26881E-11
 -1     27741-7.19071E-13 5.53491E-12 1.48798E-12
 -1     27742 1.94267E-10 2.58021E-11 6.40327E-11
 -1     27743-2.18557E-11-8.31227E-11-4.38478E-11
 -1     27744 1.03991E-11 9.34347E-11-4.66991E-11
 -1     27745 1.14749E-11 2.92650E-11-1.33558E-11
 -1     27746 4.23212E-12-4.34870E-11 1.37474E-11
 -1     27747 1.17405E-09-5.79446E-10 2.00351E-11
 -1     27748-7.40100E-10 3.02491E-10 3.19236E-10
 -1     27749-7.54009E-10 2.93038E-09 5.16956E-10
 -1     27750 2.17627E-09-1.01927E-09-1.52922E-09
 -1     27751-1.22653E-09 7.84540E-10-1.09577E-09
 -1     27752 9.00874E-12 7.48636E-11 1.45214E-11
 -1     27753-3.65140E-11 1.58107E-12 4.62451E-11
 -1     27754-3.80721E-10 4.41455E-09-2.31679E-10
 -1     27755-5.83864E-11-8.36915E-11-3.22595E-11
 -1     27756 6.40946E-11 1.46863E-10-3.76607E-12
 -1     27757-2.66055E-09-8.51780E-10-9.76655E-10
 -1     27758 1.46971E-09 2.11392E-09 3.52441E-10
 -1     27759-2.47403E-09 2.31775E-10-1.55556E-09
 -1     27760 1.77943E-10-5.40981E-09 1.13712E-09
 -1     27761-9.64441E-11-9.23015E-10 1.32377E-09
 -1     27762-5.61714E-10 1.48873E-09 4.83940E-10
 -1     27763 4.12092E-10-4.22197E-10-2.71861E-10
 -1     27764-1.76655E-10-1.54279E-09-5.97159E-10
 -1     27765 2.15271E-10-1.58052E-09 9.04095E-11
 -1     27766-3.05890E-10 2.34855E-09 4.38022E-10
 -1     27767-1.48101E-11 1.23331E-10 1.76734E-10
 -1     27768 6.83180E-10-8.84933E-10 5.61449E-11
 -1     27769 1.22736E-12-4.13276E-11 4.17657E-11
 -1     27770-1.64536E-11-1.93774E-12 3.67778E-12
 -1     27771 1.82956E-11 3.92864E-11-3.90317E-11
 -1     27772-1.53962E-11-3.63013E-12-1.84044E-11
 -1     27773 1.01367E-12-1.59535E-12-8.03446E-12
 -1     27774 2.98290E-12 7.79400E-12-5.11147E-13
 -1     27775-6.72950E-12-2.28126E-12-3.58907E-13
 -1     27776-5.44380E-11-1.52319E-10 1.08765E-11
 -1     27777 1.68456E-10 6.37417E-10-1.56826E-10
 -1     27778 3.96775E-11 4.40555E-11 9.71255E-11
 -1     27779 1.15771E-10 1.46617E-10-6.82879E-11
 -1     27780 7.79890E-12 1.52246E-10 7.71092E-12
 -1     27781-1.42317E-09-1.22689E-10 2.88471E-10
 -1     27782-1.12351E-09-1.04666E-09-2.13838E-11
 -1     27783 1.13239E-09 1.50016E-10-4.78013E-10
 -1     27784 2.20019E-09 8.55690E-10 9.25167E-10
 -1     27785 1.99253E-10 3.41181E-10 4.39498E-10
 -1     27786 1.69720E-10-1.04492E-10-5.01903E-10
 -1     27787-1.05124E-11-7.15507E-11 3.77491E-11
 -1     27788-1.45417E-10 9.80411E-11 2.26073E-10
 -1     27789-2.87590E-10 7.24002E-10 1.62154E-10
 -1     27790 1.22956E-10-4.02590E-10 7.22227E-11
 -1     27791 3.21011E-12-1.17634E-11 5.63431E-12
 -1     27792 6.15589E-12 3.71670E-12-1.87601E-12
 -1     27793-6.77383E-12-1.21271E-12-8.75744E-13
 -1     27794 4.37753E-14-1.53797E-12 9.13158E-15
 -1     27795 2.46520E-13-3.43780E-14-7.66748E-15
 -1     27796-1.37090E-09 3.82341E-09 1.20444E-10
 -1     27797-1.73060E-10-7.66295E-10-5.57621E-10
 -1     27798 3.17318E-11-3.58301E-11 1.05579E-10
 -1     27799 2.02127E-10-2.27246E-10-1.25817E-10
 -1     27800-1.01736E-10 9.22888E-10 1.06994E-10
 -1     27801-2.23643E-09-4.55446E-09-2.21235E-10
 -1     27802 5.39773E-11-2.40334E-10-1.51117E-10
 -1     27803-6.30403E-12-4.33078E-12-6.82787E-14
 -1     27804-2.53973E-12-1.96371E-14-8.43747E-12
 -1     27805-1.78439E-11-1.84550E-10 1.23194E-11
 -1     27806 7.31054E-11 2.68616E-11-1.83407E-11
 -1     27807 5.77763E-12-7.75196E-12-4.80505E-12
 -1     27808-4.07826E-13 1.06665E-13-3.97338E-12
 -1     27809-3.86420E-10-8.17486E-10 1.75216E-10
 -1     27810 2.55242E-11-1.81141E-11-2.25347E-11
 -1     27811-2.33793E-11-4.44552E-10 4.85982E-11
 -1     27812-1.17251E-10-2.99636E-10 1.59859E-10
 -1     27813-2.82492E-10 1.11216E-10 7.16616E-11
 -1     27814-2.72505E-10-9.55607E-11-4.45926E-10
 -1     27815 7.84621E-11-5.42911E-10-8.30657E-10
 -1     27816 2.14588E-11 1.27957E-10 9.77591E-11
 -1     27817 1.17673E-11 1.30980E-10 3.29746E-11
 -1     27818-1.35607E-10 1.27679E-11-6.68935E-11
 -1     27819-2.50589E-10-8.06997E-12 7.73366E-11
 -1     27820-3.08088E-10-6.09732E-10-1.35806E-09
 -1     27821-1.36290E-10 9.12678E-10-3.70817E-11
 -1     27822 1.53297E-10-9.74454E-10-1.81467E-10
 -1     27823-4.55914E-11-7.90294E-10 1.92966E-11
 -1     27824 8.00688E-11-3.05073E-10 7.05977E-11
 -1     27825 1.99859E-10 2.13388E-10-9.61592E-10
 -1     27826-3.79084E-10-1.18248E-11 1.85848E-10
 -1     27827-6.71524E-11-1.16273E-09 3.49020E-11
 -1     27828 8.06562E-10 1.86272E-09 5.80470E-11
 -1     27829 9.26843E-12-4.45276E-12-7.34046E-12
 -1     27830-2.49333E-11-1.31367E-10 1.49715E-11
 -1     27831-2.40448E-10 8.55687E-10 5.58376E-11
 -1     27832 3.81650E-10-3.66585E-10 1.09923E-10
 -1     27833 1.60250E-12 7.01854E-13 7.17426E-13
 -1     27834-4.46553E-11 3.57684E-10-3.47767E-10
 -1     27835-9.02144E-10-4.22405E-10 2.15827E-09
 -1     27836 2.10997E-10-2.60363E-09-2.26795E-10
 -1     27837-6.10421E-11 7.31309E-11-1.06620E-12
 -1     27838 2.61675E-12-3.48255E-11 1.88499E-12
 -1     27839 5.94533E-10 2.36608E-10-1.25220E-10
 -1     27840-5.28729E-12-1.39088E-12-7.16760E-13
 -1     27841-1.23560E-10-2.13216E-09-2.55783E-11
 -1     27842-1.82052E-12-1.40864E-12 3.68450E-12
 -1     27843 3.12628E-12-4.88633E-13 2.23821E-12
 -1     27844 5.89794E-12-2.69943E-12-5.79561E-12
 -1     27845 1.69270E-10-5.25759E-09-6.58686E-11
 -1     27846-1.20652E-09 7.84235E-10 9.65230E-10
 -1     27847-3.49380E-12-3.10985E-13-2.02864E-12
 -1     27848 1.30456E-12 4.45268E-12 2.13343E-13
 -1     27849 1.95221E-12-1.63513E-12 2.80609E-12
 -1     27850-5.69822E-12 4.53309E-12 5.22138E-13
 -1     27851-2.30926E-13 5.70640E-12-3.28371E-12
 -1     27852-5.76383E-13-1.50681E-13 1.87406E-13
 -1     27853 1.29743E-12 1.55249E-12 1.95932E-12
 -1     27854 1.00410E-12 2.14101E-11-3.19298E-12
 -1     27855 4.01280E-12 7.98437E-12 5.85705E-13
 -1     27856-3.26584E-13-9.87168E-13 3.46390E-13
 -1     27857 1.81309E-11-1.22228E-12 6.41265E-13
 -1     27858 4.00295E-12 3.03773E-12-6.59739E-12
 -1     27859 3.38933E-11 1.35938E-10-3.87340E-12
 -1     27860 4.84364E-11 1.32172E-10 1.93988E-11
 -1     27861-2.25585E-13 1.60391E-12 1.50724E-12
 -1     27862-9.66669E-12-1.56060E-12-1.05902E-11
 -1     27863-1.46381E-09-8.22858E-10-9.73406E-10
 -1     27864 5.04316E-12-6.79315E-12-6.43394E-12
 -1     27865-4.32553E-12-9.31752E-12-3.53539E-12
 -1     27866-1.19456E-12 8.02418E-13 7.75402E-12
 -1     27867 2.20793E-12-1.79737E-12 1.11705E-12
 -1     27868-5.86838E-10 3.70312E-10 9.17557E-10
 -1     27869 3.89894E-11-1.61039E-10 2.47419E-11
 -1     27870-1.22203E-09-1.36749E-09-1.31771E-09
 -1     27871 2.05153E-10 1.90777E-09-2.39041E-10
 -1     27872 2.66495E-09-3.36219E-09 5.64276E-10
 -1     27873 2.63313E-09-2.44187E-10 4.08442E-10
 -1     27874-1.89537E-10 1.79153E-11-6.36664E-11
 -1     27875-6.65703E-10 6.69083E-10-1.12912E-10
 -1     27876-8.62696E-10 4.09929E-10-3.74310E-10
 -1     27877-4.32535E-13 6.22770E-14 1.26676E-13
 -1     27878 3.97547E-13 9.99316E-13-7.39853E-13
 -1     27879-8.28070E-15-2.52881E-13-4.52305E-13
 -1     27880-3.71806E-10-2.73931E-10 5.93353E-10
 -1     27881-4.07444E-11 7.61096E-11-4.41582E-11
 -1     27882 4.00985E-11-2.09807E-11 3.15414E-11
 -1     27883-3.38108E-10 6.78451E-10 2.38070E-10
 -1     27884-3.09981E-09 5.05432E-09-7.46438E-10
 -1     27885 3.05253E-10-4.64288E-11 8.81645E-10
 -1     27886-2.48922E-10 1.24203E-09 1.41977E-10
 -1     27887 1.07392E-09-3.34695E-10 5.72347E-11
 -1     27888-1.08976E-11-4.63400E-12-8.01581E-14
 -1     27889-1.01397E-10 1.20093E-10-1.12227E-10
 -1     27890-6.10175E-10-3.79378E-10 1.54879E-10
 -1     27891-2.25216E-12 1.79433E-11 1.04477E-09
 -1     27892 6.86634E-13 2.02021E-09 1.94430E-09
 -1     27893-6.78178E-10-7.98588E-10-2.59298E-10
 -1     27894-2.71795E-12-1.48858E-10 2.55233E-11
 -1     27895 2.98498E-10-1.16307E-09 3.28846E-10
 -1     27896 8.21670E-11 2.36276E-10 1.08009E-10
 -1     27897-2.62703E-11-6.43321E-10-2.09828E-10
 -1     27898 5.92560E-10 7.26199E-10-5.08001E-10
 -1     27899 4.28743E-13 4.11628E-12 4.63768E-13
 -1     27900 8.26116E-12 2.04627E-12 4.95659E-12
 -1     27901 4.70619E-10 1.39459E-09 1.16323E-09
 -1     27902-1.04961E-09-1.06032E-09-9.26360E-11
 -1     27903-8.84056E-11 3.53388E-09-3.93060E-10
 -1     27904 4.69738E-10-2.40252E-10 4.80213E-10
 -1     27905-5.25691E-12 5.01815E-12 6.27409E-12
 -1     27906 4.23616E-12 1.01726E-11 2.48912E-13
 -1     27907 2.69020E-12-6.96732E-13-3.30314E-13
 -1     27908-4.35182E-12 2.37071E-12 1.11083E-12
 -1     27909-1.20621E-12-3.60682E-12-5.58353E-12
 -1     27910-6.50289E-11 1.68973E-09 1.11201E-09
 -1     27911 7.06595E-11-4.86101E-11-6.20804E-11
 -1     27912-7.93202E-11-1.53303E-10-2.00040E-10
 -1     27913 3.16172E-11 2.04223E-10 3.30320E-11
 -1     27914 6.94698E-10-1.11063E-09 8.27782E-11
 -1     27915 2.83297E-10-8.42889E-10 1.45248E-10
 -1     27916-2.52362E-09-8.97126E-10-8.89178E-10
 -1     27917-1.00686E-09-2.40832E-09-1.23265E-09
 -1     27918-3.10763E-10-6.20739E-11 1.88365E-10
 -1     27919 2.34259E-10 1.09097E-10-3.01464E-10
 -1     27920 1.68895E-09 2.94420E-09 1.35920E-09
 -1     27921 2.22469E-09-6.67741E-09-5.05131E-10
 -1     27922 2.46663E-10 1.08779E-10-1.31832E-09
 -1     27923-3.06544E-11-3.27387E-13-6.89151E-11
 -1     27924-1.36906E-10-1.64531E-10-5.26712E-12
 -1     27925-3.20545E-11-9.12849E-11 6.13481E-11
 -1     27926-5.53375E-10 1.69976E-10-1.34390E-11
 -1     27927-2.47893E-10-3.67061E-10 3.99644E-10
 -1     27928-1.56647E-12 2.86143E-12-3.42781E-13
 -1     27929 2.14100E-13 6.55999E-12 2.80174E-12
 -1     27930 1.57361E-10 1.69508E-10-7.98998E-11
 -1     27931-2.36512E-10-9.98675E-10-5.47727E-10
 -1     27932-6.52464E-10-3.61377E-10-2.45768E-10
 -1     27933 8.58745E-11-7.02812E-11-2.73263E-11
 -1     27934-4.52998E-12-1.03593E-10-3.74764E-11
 -1     27935-1.21226E-11-1.29468E-11-1.31744E-10
 -1     27936-2.38868E-12 2.03236E-11-4.29726E-13
 -1     27937 9.90399E-12 9.53616E-12-4.53805E-12
 -1     27938 2.58548E-12 4.05662E-12-2.25082E-12
 -1     27939 6.44905E-11-1.44590E-10 3.65154E-12
 -1     27940 4.80937E-09 2.50486E-09 3.53433E-10
 -1     27941 1.39613E-09-6.74106E-10-1.27414E-10
 -1     27942 5.51617E-10-1.78001E-10-1.72413E-10
 -1     27943 1.67434E-10 1.46208E-10-1.86147E-10
 -1     27944-1.07985E-10-4.21365E-11 3.20121E-10
 -1     27945-1.31011E-11-3.35937E-11 8.86740E-11
 -1     27946-1.13291E-10-9.40199E-11 1.63833E-11
 -1     27947 1.47393E-10-1.42741E-10 1.72653E-10
 -1     27948 1.59022E-12 4.98779E-13-5.60108E-14
 -1     27949-1.96045E-10-3.11301E-10-5.00191E-11
 -1     27950-1.41907E-10 8.81931E-11 9.98424E-12
 -1     27951-6.47973E-11-8.50369E-11-1.52606E-10
 -1     27952-2.91260E-10 1.51066E-09-3.12690E-10
 -1     27953 3.20392E-10 2.63051E-09-1.04597E-09
 -1     27954-5.70659E-11-2.20786E-10-6.20955E-10
 -1     27955 5.81348E-10-4.54378E-10-9.70677E-10
 -1     27956 2.58819E-10-7.32338E-13-6.42514E-10
 -1     27957-1.15385E-09 1.63184E-09 3.76494E-11
 -1     27958-4.89505E-10 1.07300E-09 3.38824E-10
 -1     27959 7.19680E-11 1.63467E-11 7.63056E-11
 -1     27960-2.22586E-10-1.11430E-10-1.70528E-10
 -1     27961-1.37825E-10 3.68934E-10-5.13355E-10
 -1     27962 5.96781E-10-2.82721E-10-1.95838E-10
 -1     27963-6.25650E-10 1.37778E-09-2.50938E-10
 -1     27964-2.04824E-10 5.21287E-10 3.55068E-11
 -1     27965 8.74191E-12-1.12479E-11 1.96331E-11
 -1     27966-1.82143E-11-2.78139E-12-1.25563E-11
 -1     27967 2.23636E-11 3.28998E-11 2.16034E-11
 -1     27968-7.08346E-12 1.09364E-12 5.19185E-12
 -1     27969-1.34985E-11-3.50064E-12 1.01297E-12
 -1     27970 6.17957E-10 5.48179E-10-6.44378E-11
 -1     27971-1.00727E-11-8.42166E-12-6.21692E-12
 -1     27972 1.61936E-11 1.29616E-10 3.91421E-11
 -1     27973-1.56370E-12-1.91518E-10-2.36431E-10
 -1     27974 7.87564E-11 1.78310E-10 1.46937E-10
 -1     27975-2.38351E-10 4.79477E-09-1.45605E-10
 -1     27976-2.02155E-09 3.11416E-09-1.10436E-09
 -1     27977-1.13547E-09-8.91329E-10-9.06653E-10
 -1     27978 4.54853E-10 9.32533E-10-5.42926E-10
 -1     27979 5.27488E-11 9.04412E-12-5.41722E-12
 -1     27980-3.80584E-10 5.48526E-10 3.06034E-10
 -1     27981 5.00366E-10-3.76050E-10 5.41881E-10
 -1     27982-1.37627E-09-1.26132E-09 2.84569E-10
 -1     27983-1.42763E-10 1.40901E-10-2.68429E-11
 -1     27984 7.25574E-12 3.70335E-12-3.71037E-12
 -1     27985 3.00447E-10-5.13236E-10-6.47158E-10
 -1     27986 4.72461E-11-9.69551E-10-1.69417E-10
 -1     27987-3.43340E-12-9.42239E-12 2.98850E-12
 -1     27988-3.59317E-12-9.87958E-13 2.78988E-12
 -1     27989-1.71657E-11-9.85836E-12-3.48854E-12
 -1     27990 4.23414E-10-4.89253E-10-1.38622E-10
 -1     27991-5.63749E-11-4.01155E-11 7.55352E-11
 -1     27992-7.20290E-12-8.14914E-13-6.05849E-13
 -1     27993 6.48658E-12-3.37278E-12 8.12683E-14
 -1     27994 1.68182E-09 1.69506E-09 8.84440E-10
 -1     27995-4.77852E-13-2.69016E-12 1.30719E-12
 -1     27996-2.05551E-13-8.84502E-13 9.76996E-15
 -1     27997-5.04566E-10 1.39576E-09 2.73586E-10
 -1     27998-1.16608E-11-1.64243E-11 6.62269E-13
 -1     27999 1.95987E-13 1.82501E-11-2.72915E-12
 -1     28000 2.79922E-10-1.86286E-11-4.84841E-11
 -1     28001-1.08884E-09 3.21242E-10 1.64533E-10
 -1     28002 5.53337E-12 4.02544E-11-1.66162E-12
 -1     28003-1.45286E-09 1.89022E-09 8.03246E-10
 -1     28004-5.63113E-10-7.14420E-10 1.78759E-09
 -1     28005 5.09035E-11 1.64042E-10 6.00053E-11
 -1     28006 3.90062E-11 8.74080E-12-1.63169E-11
 -1     28007 1.23850E-11 2.25185E-11-9.33476E-13
 -1     28008 1.71520E-10 3.16055E-10-6.85012E-11
 -1     28009-1.78665E-09 5.53293E-10-7.69807E-10
 -1     28010-1.72499E-10-6.63953E-10 3.86860E-11
 -1     28011-3.00923E-13-3.82832E-12 2.16904E-12
 -1     28012-3.39211E-10 3.24784E-11-5.91982E-12
 -1     28013 1.49075E-10 3.38802E-10-2.52665E-11
 -1     28014 6.72111E-10-2.41597E-10-7.29789E-10
 -1     28015-1.05866E-09-1.02011E-09 3.14558E-11
 -1     28016 1.51331E-10-9.16399E-10 7.13198E-10
 -1     28017 2.72606E-11-9.67463E-10 9.22500E-10
 -1     28018 7.47918E-10-8.73867E-10 5.32166E-10
 -1     28019 8.33814E-10 6.40332E-10-3.67406E-10
 -1     28020-7.75858E-12-7.13494E-13-2.79665E-12
 -1     28021-1.90069E-10 1.00521E-09 1.48500E-09
 -1     28022-1.58000E-09 1.78624E-09 1.69344E-10
 -1     28023-5.15274E-10 5.73287E-10 7.38264E-11
 -1     28024-3.61139E-10 2.27845E-10-1.65463E-10
 -1     28025-5.33605E-10 1.01860E-09-2.77691E-12
 -1     28026 8.34751E-11-3.95555E-10-2.60251E-11
 -1     28027 5.47906E-12 4.07277E-12 1.64022E-13
 -1     28028 1.43140E-11 6.76417E-11-1.86224E-11
 -1     28029 2.75859E-10 4.69738E-10-2.36877E-10
 -1     28030-1.85149E-09-5.58106E-09 3.13591E-10
 -1     28031 4.50066E-10-4.72350E-09-2.74005E-09
 -1     28032-8.71318E-13-7.24023E-13-4.44089E-16
 -1     28033 8.47230E-10-2.07650E-09-2.56938E-10
 -1     28034-1.60480E-10 4.26443E-10-5.57826E-10
 -1     28035 5.50217E-10 6.01309E-11-3.78168E-10
 -1     28036-7.03229E-09 2.62831E-09-3.42896E-10
 -1     28037 8.35543E-11 5.85866E-10 1.51051E-10
 -1     28038 4.39267E-11 1.29628E-09 2.10493E-09
 -1     28039-6.60270E-10 2.87473E-10 4.67548E-11
 -1     28040-8.67070E-10 4.39453E-10 1.66907E-09
 -1     28041-2.93949E-11-4.28872E-12-1.06208E-11
 -1     28042-3.92837E-10 2.10146E-09-1.81739E-10
 -1     28043 1.23488E-10 7.10837E-10 2.62718E-10
 -1     28044-9.65665E-12-8.93935E-12-3.76316E-11
 -1     28045 2.28080E-12 1.26719E-12 3.71203E-13
 -1     28046 3.95048E-10 5.83844E-10 1.23195E-10
 -1     28047-3.89953E-10 3.25921E-09 1.27301E-09
 -1     28048 1.86259E-10-1.10331E-09-9.96602E-10
 -1     28049-1.57515E-09-3.30522E-10 8.88444E-10
 -1     28050-9.43863E-11-1.99659E-10 1.58362E-10
 -1     28051-1.06232E-09 9.82365E-11-3.75268E-10
 -1     28052-1.47935E-09-1.79757E-09-7.19588E-10
 -1     28053 6.89404E-10 1.50292E-09-8.51582E-10
 -1     28054-1.07494E-10 2.37699E-11-4.22783E-11
 -1     28055-6.73412E-11 3.26714E-10 2.99448E-10
 -1     28056-2.00954E-10-1.11380E-09-3.91928E-10
 -1     28057-1.18067E-12 3.42406E-12-1.02087E-11
 -1     28058 7.96759E-11 1.82523E-10-9.26811E-11
 -1     28059 7.01445E-12 5.27680E-13-2.96074E-12
 -1     28060 7.61823E-13-2.66680E-12 1.40851E-12
 -1     28061-1.08342E-09 7.10243E-10-2.79409E-10
 -1     28062-1.49783E-10-1.41616E-09 8.57355E-10
 -1     28063 2.38766E-09 1.56879E-11 3.21297E-10
 -1     28064 1.45965E-09-9.73464E-10 3.25202E-10
 -1     28065 2.47973E-09 4.43091E-09-5.72542E-10
 -1     28066-2.93539E-10-2.12644E-09-3.55067E-10
 -1     28067-3.85352E-11-1.20615E-10 1.84866E-10
 -1     28068-3.97856E-11 1.34631E-10-8.69391E-11
 -1     28069-2.53677E-12 8.80605E-13-4.10727E-13
 -1     28070-3.82772E-12-2.19810E-12 3.55493E-13
 -1     28071-8.39369E-14 7.62996E-13 1.17451E-12
 -1     28072 8.53812E-10-1.50427E-09-3.25571E-10
 -1     28073 1.56463E-12 1.66094E-13 2.47108E-13
 -1     28074 6.72899E-10 3.28408E-09 5.56578E-10
 -1     28075 2.18833E-12-5.60861E-13-1.65339E-11
 -1     28076-1.31623E-12-2.74762E-11-1.92957E-13
 -1     28077-1.82243E-11-2.84152E-12-3.25107E-12
 -1     28078-1.07022E-12-1.10171E-12 2.82863E-12
 -1     28079 2.68423E-12 3.10490E-12 2.26630E-12
 -1     28080-4.39475E-12-1.65150E-11 9.01279E-13
 -1     28081 5.45168E-13-5.63957E-13 1.46044E-12
 -1     28082 8.52733E-11 1.16158E-10 6.71372E-11
 -1     28083 5.83572E-10 4.50354E-10 6.62745E-11
 -1     28084-3.67393E-10 3.50303E-10 9.44626E-10
 -1     28085 1.20939E-12 7.74765E-13-2.49044E-13
 -1     28086-3.16024E-09-1.03034E-09 6.23880E-10
 -1     28087 4.44741E-12 4.81147E-12-5.50782E-13
 -1     28088-7.16135E-12-4.50907E-11 1.70863E-11
 -1     28089 1.47922E-10 3.82804E-10 3.49620E-10
 -1     28090-1.09932E-09-9.54302E-10 1.35334E-09
 -1     28091-1.57335E-09-1.12692E-09 6.44445E-10
 -1     28092 4.28995E-11 7.21070E-11 1.82737E-11
 -1     28093 3.81960E-11 6.58506E-12-7.00758E-12
 -1     28094-2.48861E-11-2.91662E-11-3.08777E-11
 -1     28095-2.80107E-12 2.08438E-11-3.46070E-12
 -1     28096 2.29603E-11 3.66074E-12-1.08609E-11
 -1     28097 5.20482E-12-6.06695E-11 5.26668E-12
 -1     28098-7.42407E-13-3.89133E-11 3.70634E-12
 -1     28099-2.44091E-11 2.66511E-11 5.91543E-12
 -1     28100 1.22295E-11-6.28952E-11-1.57276E-11
 -1     28101-8.06108E-11-1.49366E-11-1.83918E-11
 -1     28102 5.73543E-10-1.94546E-10 1.14828E-09
 -1     28103 8.51476E-10 1.19027E-09 1.70834E-10
 -1     28104-3.14094E-09 7.02199E-11 6.61201E-10
 -1     28105 1.55672E-09-7.21874E-10-8.42677E-10
 -1     28106 2.65863E-13-8.20227E-12 1.71721E-12
 -1     28107 6.06207E-13-1.12917E-12 8.10463E-13
 -1     28108-5.17743E-12-5.51107E-12-4.60256E-12
 -1     28109 4.43399E-12-7.79600E-12 3.39306E-12
 -1     28110-2.02771E-12-2.58910E-12-2.29614E-12
 -1     28111 3.53747E-11 1.39290E-09 2.90182E-11
 -1     28112 1.54408E-09-5.82511E-10 2.99297E-10
 -1     28113 1.56982E-09 4.18095E-09-1.69459E-10
 -1     28114-1.34887E-10 2.46897E-10-4.32709E-11
 -1     28115 2.65307E-11 8.20412E-11 1.51265E-11
 -1     28116-3.98915E-10-2.59382E-09-3.20306E-09
 -1     28117 6.65331E-11-2.42047E-12 2.71672E-12
 -1     28118 1.20616E-11 2.44626E-11-7.06415E-12
 -1     28119-2.80549E-10 9.21709E-10 5.86323E-10
 -1     28120-7.18547E-10 6.70317E-11 4.99461E-10
 -1     28121-5.71068E-11-1.12104E-10 3.77249E-11
 -1     28122-1.43577E-11 1.07670E-11 2.78786E-11
 -1     28123 3.45649E-13 5.76068E-13 5.48561E-13
 -1     28124-6.78294E-10-1.50351E-09-5.80251E-10
 -1     28125-8.11618E-10-8.11410E-10 2.96567E-10
 -1     28126-4.45983E-12-3.52033E-12 5.57887E-13
 -1     28127 4.19017E-12 2.43506E-11-3.70082E-12
 -1     28128 1.14271E-10 3.25276E-10-5.08753E-11
 -1     28129 2.49008E-11-3.10678E-11-1.79177E-11
 -1     28130 7.28057E-12 6.77358E-11 2.80773E-11
 -1     28131-6.72163E-12-6.62907E-11 1.46776E-11
 -1     28132 1.97346E-10-2.40488E-10-9.19199E-11
 -1     28133-8.23994E-11 2.43868E-10-4.44934E-10
 -1     28134 7.67770E-11-3.81060E-11 3.87278E-11
 -1     28135 4.06814E-10 1.75208E-10 5.07550E-11
 -1     28136-6.92999E-10 1.01149E-09 4.44218E-10
 -1     28137-5.76708E-11 1.04315E-09-3.09885E-11
 -1     28138 3.80271E-11-4.22603E-10 4.89965E-10
 -1     28139-1.63790E-10 4.62051E-10-6.14176E-11
 -1     28140 9.36510E-10-3.73860E-10 1.79909E-11
 -1     28141 3.28726E-11-3.51758E-11-6.23245E-11
 -1     28142 9.74565E-12 2.16145E-11-2.57955E-12
 -1     28143 1.83933E-11-9.04460E-11 1.09761E-11
 -1     28144-4.44620E-11-2.15402E-11 8.56573E-11
 -1     28145 4.25196E-12-4.17768E-13-3.35909E-12
 -1     28146 6.80061E-11 3.35438E-11 3.66497E-11
 -1     28147 6.37623E-13 1.35091E-13-8.69554E-13
 -1     28148-1.07956E-12 7.14374E-13-9.16420E-14
 -1     28149 9.13571E-10 2.41451E-09-4.03668E-10
 -1     28150-5.11346E-10-1.37886E-09-5.56188E-10
 -1     28151-1.49935E-09-6.81762E-10-1.09527E-09
 -1     28152-1.03498E-10 1.67542E-10 2.59971E-10
 -1     28153-4.77643E-10-9.90779E-10 1.15243E-10
 -1     28154 2.22184E-11-3.25397E-11 1.95626E-10
 -1     28155 3.25687E-10-7.46814E-10-5.56504E-11
 -1     28156-3.46398E-10-6.56976E-11 5.77197E-10
 -1     28157-3.04268E-12-1.92426E-12-1.81277E-12
 -1     28158-1.15725E-09-1.64339E-09-4.22387E-10
 -1     28159-2.32201E-09 7.45865E-10-1.00135E-09
 -1     28160-3.29777E-10-1.94161E-09-5.63546E-10
 -1     28161-1.66380E-11 7.44457E-11 5.84022E-12
 -1     28162-7.38834E-11 1.68980E-11-6.03606E-12
 -1     28163 9.14339E-10 3.97942E-10 4.12556E-10
 -1     28164-3.61550E-11-2.13006E-10 3.17739E-11
 -1     28165-7.54870E-11-2.99223E-10 2.19656E-11
 -1     28166-4.35187E-11 2.39538E-11 9.43181E-11
 -1     28167-1.79842E-09-1.38087E-09 2.52422E-10
 -1     28168 2.08324E-10-4.09367E-09 4.20930E-10
 -1     28169-3.44520E-09-4.58098E-09 9.61552E-10
 -1     28170 7.75512E-13-6.28643E-12-1.03045E-11
 -1     28171-1.01710E-11-9.20234E-11 7.01128E-12
 -1     28172-7.33918E-13-3.53984E-13-8.80185E-13
 -1     28173 6.31518E-09 1.51776E-09-5.88612E-10
 -1     28174-3.35005E-09 3.02331E-09 1.84644E-09
 -1     28175-2.04804E-09 1.03967E-09 1.88164E-11
 -1     28176 2.56586E-09-6.54447E-09-2.17545E-09
 -1     28177-5.71848E-10-2.16351E-09-1.78901E-10
 -1     28178-2.11363E-10-8.93371E-11 3.62653E-10
 -1     28179 2.54357E-09-3.23772E-09 4.67699E-10
 -1     28180 2.90552E-10 1.00015E-10-2.76300E-10
 -1     28181-1.30836E-10 5.96388E-10 1.25367E-10
 -1     28182 3.08589E-10 4.80865E-09 1.29099E-09
 -1     28183 1.06673E-10 1.89867E-09 5.44224E-10
 -1     28184-8.54170E-10-6.86652E-10-8.80761E-10
 -1     28185-6.47215E-11-7.83854E-11-5.41067E-13
 -1     28186-3.79714E-10-1.75502E-10 1.07668E-10
 -1     28187 7.16589E-11 5.40066E-10-2.05545E-10
 -1     28188 4.30777E-10-3.24395E-10 6.09701E-10
 -1     28189 9.77684E-12-1.90877E-10 3.04559E-11
 -1     28190 2.92937E-12 6.02055E-12 2.77532E-12
 -1     28191-8.25892E-10 1.34375E-09 1.15123E-09
 -1     28192-5.64931E-13 9.88957E-13-3.60788E-13
 -1     28193-7.10922E-13 9.98635E-13-1.73650E-12
 -1     28194-1.03717E-10 2.56862E-10 2.38350E-11
 -1     28195 1.19784E-11 7.92399E-11-3.25854E-11
 -1     28196-1.18999E-12 2.65638E-11 1.12959E-11
 -1     28197 4.20681E-12 2.77045E-11 4.87307E-11
 -1     28198 1.62432E-12-5.35696E-13 1.00808E-12
 -1     28199 1.03584E-11 6.93283E-12-7.71005E-12
 -1     28200-2.69628E-09-1.02611E-09-3.91620E-10
 -1     28201 9.67126E-10-7.60576E-09-2.78835E-10
 -1     28202 3.57099E-09 1.55907E-09-1.55693E-09
 -1     28203-3.30566E-12-9.09722E-11 9.92673E-12
 -1     28204 2.47178E-12-6.57228E-13 2.17909E-13
 -1     28205 1.48510E-10-3.71360E-10 7.01301E-10
 -1     28206-5.60243E-10 3.88126E-10-1.50856E-10
 -1     28207 1.03698E-11-1.84365E-11 7.85028E-12
 -1     28208-2.37151E-11-9.71717E-12 2.26016E-12
 -1     28209 8.68398E-11-2.26998E-11-8.79783E-11
 -1     28210 1.82870E-10 4.90202E-11-9.19234E-11
 -1     28211 1.63936E-10 4.24799E-10 2.90693E-10
 -1     28212 1.53632E-12-4.07787E-12-2.01572E-12
 -1     28213 2.54548E-12 8.56170E-12-5.04818E-12
 -1     28214 2.30962E-10 1.25605E-10 1.64348E-10
 -1     28215-2.19494E-09 8.48005E-10 1.28219E-09
 -1     28216 1.97205E-09 1.62363E-09 8.52294E-11
 -1     28217 4.85432E-11 1.26868E-10 1.22589E-10
 -1     28218-6.76268E-11 1.61777E-11 4.35031E-11
 -1     28219 8.29807E-11 8.93015E-11-3.28738E-11
 -1     28220 1.43339E-13 1.47463E-11-1.48628E-11
 -1     28221-5.36946E-11-3.30694E-10-3.21928E-10
 -1     28222-8.66832E-13 7.39360E-12-1.80211E-12
 -1     28223 6.24810E-10-4.75751E-10-7.40279E-11
 -1     28224 9.24521E-09 2.34792E-09 2.75865E-10
 -1     28225-4.78102E-10 7.72152E-10 3.38243E-10
 -1     28226 2.30392E-10-2.35717E-10 2.86017E-11
 -1     28227 6.64135E-10-9.82196E-11 3.15479E-10
 -1     28228-6.78398E-11-1.50676E-10 9.02062E-11
 -1     28229-9.57555E-10-1.49735E-10 8.44510E-12
 -1     28230 9.54824E-11 9.11887E-12 7.51182E-11
 -1     28231 2.41350E-10 3.40318E-11 6.45318E-11
 -1     28232 5.28737E-11-2.97685E-10 4.36524E-10
 -1     28233 4.25334E-10-4.74067E-10 2.69972E-10
 -1     28234-2.19826E-10 1.10707E-09-7.88577E-10
 -1     28235-3.56017E-10-1.10647E-09-5.02473E-11
 -1     28236-8.83607E-10 3.84551E-09-1.94653E-10
 -1     28237 1.09282E-09 4.84882E-11 1.97895E-11
 -1     28238 9.48913E-10-5.43970E-10 2.29992E-10
 -1     28239 2.24462E-12-1.23327E-13-4.05694E-12
 -1     28240-1.18395E-09 3.40569E-09 3.01572E-10
 -1     28241 3.05936E-09-1.59972E-09 3.45465E-10
 -1     28242 4.02048E-10-1.80620E-10 1.88811E-10
 -1     28243 1.37995E-09-2.17787E-10-1.44031E-09
 -1     28244-1.83806E-10 5.93041E-10-6.70147E-11
 -1     28245 7.53990E-11-3.31852E-10-1.12001E-09
 -1     28246-6.51715E-11-2.29156E-09 2.22709E-11
 -1     28247 4.33023E-12 1.12417E-12-5.15565E-12
 -1     28248-4.81328E-10 7.73164E-10-4.88423E-10
 -1     28249 9.81841E-11 1.22825E-09 3.78196E-10
 -1     28250-7.36407E-10-3.14312E-10 3.57422E-11
 -1     28251 2.67632E-10-4.75263E-11 3.22510E-10
 -1     28252-8.00239E-10-1.19487E-09 1.03513E-09
 -1     28253 7.74830E-10-5.43219E-11-1.48552E-09
 -1     28254-8.14389E-13-5.48405E-13-2.34535E-13
 -1     28255 8.25492E-13-3.55885E-12-1.85363E-12
 -1     28256-8.76417E-14 2.95479E-13-1.04450E-12
 -1     28257 1.68603E-13 1.43735E-13-2.10942E-15
 -1     28258 3.62559E-12-4.81139E-11-2.40309E-11
 -1     28259 9.48831E-12-4.21328E-13 1.19211E-11
 -1     28260-5.80370E-12-2.19827E-12 1.03534E-12
 -1     28261 1.18090E-09-9.54117E-10 9.17595E-10
 -1     28262-7.99056E-10-8.96961E-10-2.36569E-10
 -1     28263-9.23160E-11-9.82669E-11 1.84975E-11
 -1     28264-2.86701E-11-3.30233E-10-4.71044E-10
 -1     28265 1.14443E-10 2.85888E-10-5.50461E-11
 -1     28266-1.00387E-10 1.15022E-09-5.28900E-10
 -1     28267 4.93252E-11 9.94312E-11-2.14944E-11
 -1     28268 3.43446E-11 5.89716E-11 4.57738E-11
 -1     28269-6.53808E-12-1.57226E-11-2.32614E-12
 -1     28270 8.04175E-10-2.62404E-09-5.92522E-11
 -1     28271 1.26491E-10-2.75509E-10-7.02350E-10
 -1     28272 6.37966E-10-2.30401E-09 2.38743E-09
 -1     28273-4.30349E-11-1.41450E-10-6.91024E-10
 -1     28274-4.55698E-10-9.02928E-10-6.19123E-10
 -1     28275 2.79691E-10 1.38903E-10 5.72983E-10
 -1     28276-1.62443E-10-5.26042E-10 1.08102E-10
 -1     28277-8.12866E-10 2.63658E-10 3.06274E-10
 -1     28278 2.84771E-12-5.62475E-12 3.25395E-12
 -1     28279 2.78772E-12-6.19281E-13 3.22247E-12
 -1     28280-5.65603E-12 8.66153E-13-3.12572E-12
 -1     28281 3.48261E-12 1.53361E-12-7.74288E-12
 -1     28282-9.28651E-13 1.53148E-12 6.04627E-12
 -1     28283 1.85633E-12-4.39637E-11 4.80060E-12
 -1     28284 2.63009E-11 3.33051E-11-1.42533E-11
 -1     28285 6.46866E-11-1.42278E-10-7.67769E-11
 -1     28286 4.81940E-11-1.14545E-10 2.81874E-11
 -1     28287 5.68673E-11 1.05600E-11-1.99418E-12
 -1     28288 1.59878E-10 1.51769E-10 6.54315E-10
 -1     28289 2.06132E-10-5.68419E-10 4.00438E-10
 -1     28290-7.15874E-10-1.87290E-09-1.31197E-09
 -1     28291 5.91812E-10-2.37445E-10-8.91924E-10
 -1     28292 7.84784E-10-1.82246E-09 1.27360E-09
 -1     28293-7.98295E-10-6.08921E-10 1.15473E-09
 -1     28294-1.40987E-10 5.73472E-11 2.37639E-11
 -1     28295-1.79080E-09 1.83928E-09-9.17400E-10
 -1     28296-7.38553E-12 9.48728E-12-1.91069E-12
 -1     28297-3.00873E-12-9.77536E-12 8.42423E-13
 -1     28298 7.46003E-10 1.48499E-10-1.95133E-09
 -1     28299-2.61874E-10-3.46034E-10 5.43785E-10
 -1     28300-1.61263E-10 1.01923E-09-1.63201E-09
 -1     28301 2.13142E-12-4.81271E-12-1.58096E-13
 -1     28302 5.06866E-12-9.92052E-12-1.46511E-12
 -1     28303-1.07426E-12-6.21973E-12 1.81266E-12
 -1     28304-9.50615E-10 1.32386E-10 4.30088E-10
 -1     28305 1.14972E-09-9.10679E-10 1.35848E-09
 -1     28306 1.72195E-09 5.40154E-09-1.13294E-09
 -1     28307-5.29778E-10 9.92780E-10-1.92784E-10
 -1     28308 1.85934E-10-1.00437E-10-3.09671E-11
 -1     28309 8.39267E-12-7.93206E-12-1.06840E-11
 -1     28310 1.13617E-11-2.62924E-11-1.00852E-10
 -1     28311-3.08672E-10-4.35671E-10-7.57767E-11
 -1     28312-5.69257E-10 5.34663E-10 6.71845E-11
 -1     28313-7.30684E-13-3.44425E-12-2.61191E-12
 -1     28314 5.53751E-11-3.76089E-11 2.38671E-11
 -1     28315-1.26701E-10-9.47911E-11 3.31697E-11
 -1     28316 9.23846E-11-1.30208E-10-6.81487E-11
 -1     28317 2.94355E-10-3.66341E-10-9.29361E-10
 -1     28318-3.00587E-10 4.55252E-11 2.75364E-11
 -1     28319-1.47827E-10-3.01696E-09 4.41621E-10
 -1     28320 6.45069E-10 1.16699E-09 6.47956E-10
 -1     28321 8.27231E-11-1.51553E-11 2.12774E-12
 -1     28322-1.05144E-09 2.47671E-10 4.12752E-10
 -1     28323 9.80674E-13 3.09471E-12-5.76705E-13
 -1     28324 5.41215E-10-4.48474E-11 1.19367E-10
 -1     28325-1.17519E-11-2.85409E-11-1.95305E-11
 -1     28326-2.38827E-10 8.96099E-10 3.99002E-10
 -1     28327 1.60004E-12-7.65767E-12-2.91175E-12
 -1     28328 1.29354E-10-8.62317E-10 1.85304E-11
 -1     28329-1.45359E-11-1.07746E-09-5.06203E-10
 -1     28330 2.98018E-12-6.47956E-12-5.46230E-12
 -1     28331 2.86717E-11-1.65022E-10-3.25198E-11
 -1     28332-1.93170E-10 1.27340E-09-1.86581E-10
 -1     28333-4.05750E-10 1.01487E-09 2.29012E-11
 -1     28334-3.03301E-10-2.89716E-10-7.26329E-12
 -1     28335-3.37430E-10-4.10553E-10 6.47993E-11
 -1     28336-1.27577E-10-4.83600E-11-1.13180E-10
 -1     28337-1.00444E-11 1.60346E-11 3.26487E-11
 -1     28338 2.68225E-10-1.93407E-10 6.58832E-11
 -1     28339 5.01554E-10-2.27034E-09-2.49565E-10
 -1     28340-1.53585E-10 1.91891E-10 6.26051E-11
 -1     28341-5.12675E-10-1.42119E-10 9.63243E-11
 -1     28342 3.23609E-10 6.87573E-10 1.38588E-10
 -1     28343-3.10316E-10 2.14457E-10 9.89059E-11
 -1     28344-1.32891E-12-3.75549E-12 1.04191E-12
 -1     28345 1.71422E-09-9.70403E-12-2.34420E-10
 -1     28346-9.66104E-10-1.61636E-10-6.25393E-10
 -1     28347 4.70782E-10-9.30330E-10-1.36120E-10
 -1     28348 3.93372E-10-3.30497E-10 9.74587E-11
 -1     28349-3.45460E-10 1.44406E-10 6.13194E-11
 -1     28350-6.06089E-11 1.91252E-10-4.83037E-11
 -1     28351 4.90739E-11 1.82925E-12 2.32687E-10
 -1     28352 3.02340E-11 3.29397E-11-3.45307E-11
 -1     28353 1.86621E-10 7.54853E-10-3.49969E-10
 -1     28354 8.81417E-11-1.88188E-09-5.44311E-10
 -1     28355 3.09169E-11 1.65584E-10-2.81733E-10
 -1     28356-1.02828E-10-6.81269E-12-4.13536E-12
 -1     28357 3.33504E-10-1.07957E-10-4.52901E-10
 -1     28358-3.45127E-12-1.25041E-11 1.72640E-13
 -1     28359-6.97105E-12-3.04218E-12 2.31370E-12
 -1     28360 4.92533E-11-1.57365E-10 6.18881E-11
 -1     28361-1.31268E-10 1.34192E-09-1.05867E-09
 -1     28362-8.42612E-10 1.75692E-09 2.39311E-10
 -1     28363 7.47157E-12 1.25697E-12-3.14060E-12
 -1     28364-4.78124E-11 8.02988E-11-5.46359E-11
 -1     28365-2.39839E-11 3.14181E-11-2.28222E-11
 -1     28366 6.42736E-12 2.46879E-11-1.42179E-11
 -1     28367 1.65434E-11-4.61648E-11 2.64974E-11
 -1     28368-8.40292E-10-1.11156E-09-1.68592E-10
 -1     28369 1.80959E-11 2.49901E-10 2.34213E-10
 -1     28370 8.95406E-11-4.52711E-10 1.44093E-10
 -1     28371-1.64695E-10-6.36280E-11 2.84575E-11
 -1     28372 1.53864E-09-2.63988E-11 1.28149E-09
 -1     28373 2.80022E-10-8.63627E-10 1.02920E-09
 -1     28374 1.85942E-12-8.24930E-12 1.66651E-11
 -1     28375 1.51171E-12 6.25296E-12-1.48570E-12
 -1     28376 5.76984E-13 1.36649E-12-8.17624E-13
 -1     28377 4.38829E-12-2.00167E-12 1.95295E-12
 -1     28378-9.40135E-10-1.92297E-10-6.69787E-10
 -1     28379-5.52668E-12-4.43782E-11 3.94658E-11
 -1     28380 1.81642E-10-2.89334E-10 1.20304E-10
 -1     28381 4.92774E-10-9.90886E-10 2.03761E-10
 -1     28382 3.47195E-12-1.27971E-12-2.34479E-13
 -1     28383 4.60514E-13 1.44943E-12 7.72715E-13
 -1     28384 2.50621E-10-3.23536E-10 3.23399E-10
 -1     28385 9.83413E-11-1.14016E-10-6.62583E-10
 -1     28386 9.90560E-10 1.04088E-10-2.16352E-09
 -1     28387-1.42286E-09-2.35381E-09-5.24053E-10
 -1     28388 2.78900E-10-3.09760E-11-4.28144E-10
 -1     28389-1.17603E-12-1.03904E-11 7.21412E-12
 -1     28390 1.29069E-11-1.68516E-11-1.54332E-12
 -1     28391-1.78472E-09 4.01081E-10-1.12101E-09
 -1     28392-4.68089E-11-3.37217E-11 1.28036E-11
 -1     28393-8.33517E-14-2.65458E-12-8.96311E-13
 -1     28394 4.76286E-10-6.49233E-10-3.16543E-10
 -1     28395-1.76888E-10-2.99753E-09 2.70394E-09
 -1     28396 1.03160E-10-1.55624E-11 2.53474E-11
 -1     28397 1.00971E-11 6.03265E-11-2.46421E-11
 -1     28398-7.28730E-12 8.60315E-11-4.17033E-12
 -1     28399 4.12124E-10 1.05954E-10 1.71562E-10
 -1     28400 2.17402E-11-9.04110E-12 2.34893E-11
 -1     28401 6.56561E-10 4.62586E-10-6.16162E-10
 -1     28402 1.42124E-10 3.87188E-11-1.05242E-11
 -1     28403-4.27800E-12-7.57140E-13 2.11831E-13
 -1     28404-1.26171E-13-4.60170E-13-5.69184E-13
 -1     28405 2.78385E-13-2.96711E-13 2.10415E-13
 -1     28406-3.54291E-11-9.37436E-11-3.39504E-10
 -1     28407 2.93820E-12 2.59790E-12 9.11028E-13
 -1     28408 3.23504E-12 6.43649E-12-1.39293E-11
 -1     28409-3.03619E-11-2.63306E-10 6.70392E-12
 -1     28410 2.79186E-11-4.89750E-10 5.78371E-11
 -1     28411 3.15543E-12 3.78196E-14-2.74067E-12
 -1     28412-3.06300E-11 4.74174E-12-1.13269E-11
 -1     28413 1.83545E-10 2.01310E-10 2.08336E-10
 -1     28414 9.53740E-10-8.22815E-10 2.29091E-10
 -1     28415-5.58080E-10-6.83310E-10 2.16992E-10
 -1     28416-5.94316E-11 1.42154E-10 1.26242E-10
 -1     28417-6.28074E-11 5.85723E-11 3.07157E-10
 -1     28418 8.08781E-11-5.25050E-10-2.28059E-10
 -1     28419 2.06659E-10-1.19139E-10 2.38842E-10
 -1     28420-3.96969E-10 1.36943E-09-7.95398E-11
 -1     28421-7.12317E-10-9.63451E-10 4.31299E-10
 -1     28422 2.20071E-10 2.53382E-10-3.25307E-10
 -1     28423-5.11095E-10 1.79230E-09 5.09384E-10
 -1     28424-3.82431E-10 6.63286E-11-4.03727E-10
 -1     28425 1.39124E-09-2.61298E-10 2.24777E-10
 -1     28426 2.78113E-12 4.97402E-12 4.85700E-12
 -1     28427 1.77160E-10-5.47809E-11-2.53567E-11
 -1     28428-3.55336E-10 7.64506E-10 9.39022E-10
 -1     28429 2.67744E-11 7.99061E-11-6.69653E-11
 -1     28430 1.27825E-10-4.86791E-11 7.98555E-11
 -1     28431 3.14393E-10 5.72633E-10-1.62345E-10
 -1     28432-8.72657E-13 3.19237E-11-6.10519E-12
 -1     28433 6.31856E-12 9.91212E-12-1.01708E-11
 -1     28434 2.61075E-12-5.50041E-11 5.29576E-14
 -1     28435 3.52256E-09-1.60524E-10-3.12063E-10
 -1     28436 3.29424E-10 8.35041E-11-1.10023E-12
 -1     28437-2.74209E-12-1.60670E-13-5.29032E-12
 -1     28438-4.35063E-10 4.55059E-10 1.81827E-10
 -1     28439-6.31822E-12-1.95104E-12 4.26453E-12
 -1     28440 1.21871E-10-7.22831E-11 3.69636E-10
 -1     28441-3.74631E-13-1.97201E-12-2.08633E-12
 -1     28442-1.32105E-10-9.26481E-11-7.28720E-11
 -1     28443-1.48041E-10-4.79255E-11-6.47260E-12
 -1     28444 4.75181E-10 6.94523E-10 2.41794E-09
 -1     28445-1.62547E-10 5.82196E-10-6.93020E-10
 -1     28446-6.17093E-10-2.55070E-10-1.11370E-09
 -1     28447 1.30843E-09-1.08661E-09 8.10422E-10
 -1     28448-1.44311E-09-1.90594E-10 8.27526E-10
 -1     28449-2.70051E-11 3.46464E-11 7.71556E-11
 -1     28450-1.50050E-10-1.44924E-10-1.70950E-10
 -1     28451 3.76297E-10 5.52268E-11 1.79886E-10
 -1     28452 4.00952E-10-3.74834E-10-2.96249E-10
 -1     28453-5.42159E-11-1.09059E-09-2.87131E-10
 -1     28454-5.21885E-12 3.50310E-14 1.50058E-12
 -1     28455-2.15201E-09-1.76175E-09-1.39530E-09
 -1     28456-7.44771E-13-6.21309E-10-6.57132E-11
 -1     28457-5.14894E-10 7.25804E-10 6.81663E-11
 -1     28458-1.01260E-09-8.22864E-10 4.17973E-10
 -1     28459-4.28348E-12-4.39669E-12-6.10978E-12
 -3
    1PSTEP                         5           1           1          
  100CL  101 1.000000000        8053                     0    1           1
 -4  ERROR       1    1
 -5  STR(%)      1    1    0    0
 -1     20407 2.12781E+01
 -1     20408 1.59606E+01
 -1     20409 7.28587E+00
 -1     20410 1.46765E+01
 -1     20411 5.31933E+01
 -1     20412 4.23687E+01
 -1     20413 4.35039E+01
 -1     20414 5.43049E+01
 -1     20415 2.66751E+01
 -1     20416 2.09620E+01
 -1     20417 9.78859E+00
 -1     20418 8.75815E+00
 -1     20419 6.58214E+00
 -1     20420 6.58214E+00
 -1     20421 3.40503E+00
 -1     20422 5.15389E+00
 -1     20423 4.72253E+00
 -1     20424 4.01240E+00
 -1     20425 4.93058E+00
 -1     20426 5.29403E+00
 -1     20427 5.97490E+00
 -1     20428 5.65656E+00
 -1     20429 6.74995E+00
 -1     20430 5.65309E+00
 -1     20431 5.24104E+00
 -1     20432 4.85656E+00
 -1     20433 6.94310E+00
 -1     20434 6.94310E+00
 -1     20435 3.58126E+00
 -1     20436 5.12531E+00
 -1     20437 1.26936E+01
 -1     20438 1.26936E+01
 -1     20439 1.14140E+01
 -1     20440 8.21578E+00
 -1     20441 1.84151E+01
 -1     20442 1.58981E+01
 -1     20443 1.12941E+01
 -1     20444 7.76418E+00
 -1     20445 1.07782E+01
 -1     20446 9.08118E+00
 -1     20447 1.47802E+01
 -1     20448 1.84964E+01
 -1     20449 9.15114E+00
 -1     20450 2.01527E+01
 -1     20451 1.39383E+01
 -1     20452 8.22975E+00
 -1     20453 6.62200E+00
 -1     20454 6.94148E+00
 -1     20455 6.12804E+00
 -1     20456 6.47654E+00
 -1     20457 5.15378E+00
 -1     20458 5.26674E+00
 -1     20459 6.46392E+00
 -1     20460 5.32476E+00
 -1     20461 6.25621E+00
 -1     20462 1.18116E+01
 -1     20463 1.18116E+01
 -1     20464 9.73581E+00
 -1     20465 9.73581E+00
 -1     20466 5.53311E+00
 -1     20467 7.87124E+00
 -1     20468 7.44142E+00
 -1     20469 8.16555E+00
 -1     20470 9.38185E+00
 -1     20471 9.54708E+00
 -1     20472 1.09975E+01
 -1     20473 1.41154E+01
 -1     20474 1.41154E+01
 -1     20475 6.97579E+00
 -1     20476 6.97579E+00
 -1     20477 1.10755E+01
 -1     20478 1.10755E+01
 -1     20479 5.31933E+01
 -1     20480 3.84848E+01
 -1     20481 3.47020E+01
 -1     20482 4.02628E+01
 -1     20483 3.63958E+01
 -1     20484 3.09261E+01
 -1     20485 3.37149E+01
 -1     20486 4.23687E+01
 -1     20487 3.09177E+01
 -1     20488 3.09177E+01
 -1     20489 2.51585E+01
 -1     20490 1.70430E+01
 -1     20491 1.50078E+01
 -1     20492 1.59606E+01
 -1     20493 4.21525E+01
 -1     20494 4.38167E+01
 -1     20495 2.67671E+01
 -1     20496 2.28895E+01
 -1     20497 8.35125E+00
 -1     20498 3.05716E+00
 -1     20499 3.53110E+00
 -1     20500 3.53110E+00
 -1     20501 3.33885E+00
 -1     20502 3.46472E+00
 -1     20503 4.33753E+00
 -1     20504 4.33753E+00
 -1     20505 7.54807E+00
 -1     20506 1.10368E+01
 -1     20507 8.47496E+00
 -1     20508 9.27604E+00
 -1     20509 9.36505E+00
 -1     20510 1.69982E+01
 -1     20511 2.45850E+01
 -1     20512 1.34529E+01
 -1     20513 1.75918E+01
 -1     20514 2.17637E+01
 -1     20515 3.48488E+01
 -1     20516 5.02555E+01
 -1     20517 5.31933E+01
 -1     20518 4.33642E+01
 -1     20519 3.92566E+01
 -1     20520 4.13591E+01
 -1     20521 2.56038E+01
 -1     20522 2.12349E+01
 -1     20523 9.36898E+00
 -1     20524 5.36848E+00
 -1     20525 2.88297E+00
 -1     20526 3.43554E+00
 -1     20527 2.73835E+00
 -1     20528 5.00621E+00
 -1     20529 5.09887E+00
 -1     20530 6.47322E+00
 -1     20531 6.47322E+00
 -1     20532 3.53896E+00
 -1     20533 5.91676E+00
 -1     20534 1.01255E+01
 -1     20535 2.03565E+01
 -1     20536 1.87999E+01
 -1     20537 2.07578E+01
 -1     20538 1.79498E+01
 -1     20539 4.00219E+01
 -1     20540 3.71464E+01
 -1     20541 4.61533E+01
 -1     20542 4.61533E+01
 -1     20543 1.24931E+01
 -1     20544 1.87719E+01
 -1     20545 1.70021E+01
 -1     20546 2.33605E+01
 -1     20547 3.27010E+01
 -1     20548 3.31519E+01
 -1     20549 3.89518E+01
 -1     20550 4.66709E+01
 -1     20551 3.07556E+01
 -1     20552 4.16348E+01
 -1     20553 4.05943E+01
 -1     20554 4.05943E+01
 -1     20555 5.06353E+01
 -1     20556 4.92438E+01
 -1     20557 5.43246E+01
 -1     20558 5.43246E+01
 -1     20559 5.20315E+01
 -1     20560 5.04593E+01
 -1     20561 5.25409E+01
 -1     20562 5.81683E+01
 -1     20563 5.81683E+01
 -1     20564 1.72048E+01
 -1     20565 7.90350E+00
 -1     20566 1.02680E+01
 -1     20567 1.80761E+01
 -1     20568 2.08716E+01
 -1     20569 3.34823E+01
 -1     20570 3.81117E+01
 -1     20571 4.05115E+01
 -1     20572 4.05115E+01
 -1     20573 3.69882E+01
 -1     20574 3.96395E+01
 -1     20575 5.20015E+01
 -1     20576 4.97038E+01
 -1     20577 5.42191E+01
 -1     20578 5.42191E+01
 -1     20579 4.89712E+01
 -1     20580 4.89712E+01
 -1     20581 5.33219E+01
 -1     20582 5.60790E+01
 -1     20583 5.25468E+01
 -1     20584 5.69357E+01
 -1     20585 2.12354E+01
 -1     20586 3.12523E+01
 -1     20587 7.46430E+00
 -1     20588 7.71341E+00
 -1     20589 6.20529E+00
 -1     20590 6.28281E+00
 -1     20591 5.94841E+00
 -1     20592 7.93255E+00
 -1     20593 1.42215E+01
 -1     20594 1.54068E+01
 -1     20595 8.94817E+00
 -1     20596 1.09523E+01
 -1     20597 6.96981E+00
 -1     20598 1.51949E+01
 -1     20599 1.58981E+01
 -1     20600 1.54596E+01
 -1     20601 2.10573E+01
 -1     20602 3.89518E+01
 -1     20603 3.43881E+01
 -1     20604 4.48309E+01
 -1     20605 5.06353E+01
 -1     20606 5.30844E+01
 -1     20607 5.55590E+01
 -1     20608 5.39987E+01
 -1     20609 5.81683E+01
 -1     20610 5.33423E+01
 -1     20611 2.71580E+01
 -1     20612 1.20167E+01
 -1     20613 5.55433E+00
 -1     20614 3.79234E+00
 -1     20615 5.79732E+00
 -1     20616 7.55453E+00
 -1     20617 9.00232E+00
 -1     20618 1.24106E+01
 -1     20619 2.38657E+01
 -1     20620 3.85857E+01
 -1     20621 4.37731E+01
 -1     20622 4.58771E+01
 -1     20623 3.77746E+01
 -1     20624 2.57739E+01
 -1     20625 1.74313E+01
 -1     20626 3.12523E+01
 -1     20627 7.71341E+00
 -1     20628 6.20529E+00
 -1     20629 6.28281E+00
 -1     20630 6.00742E+00
 -1     20631 5.94841E+00
 -1     20632 1.11677E+01
 -1     20633 1.42215E+01
 -1     20634 1.54068E+01
 -1     20635 7.24362E+00
 -1     20636 1.08170E+01
 -1     20637 1.74709E+01
 -1     20638 1.14709E+01
 -1     20639 1.36926E+01
 -1     20640 1.54596E+01
 -1     20641 1.36926E+01
 -1     20642 3.31519E+01
 -1     20643 3.89518E+01
 -1     20644 3.62883E+01
 -1     20645 4.26828E+01
 -1     20646 5.06353E+01
 -1     20647 5.55590E+01
 -1     20648 5.20315E+01
 -1     20649 5.25409E+01
 -1     20650 8.19564E+00
 -1     20651 5.06062E+01
 -1     20652 2.28895E+01
 -1     20653 4.19336E+00
 -1     20654 6.21630E+00
 -1     20655 6.09485E+00
 -1     20656 9.08356E+00
 -1     20657 1.24106E+01
 -1     20658 1.44857E+01
 -1     20659 2.45850E+01
 -1     20660 3.93641E+01
 -1     20661 4.45505E+01
 -1     20662 4.45505E+01
 -1     20663 4.02628E+01
 -1     20664 2.27867E+01
 -1     20665 6.96857E+00
 -1     20666 8.13700E+00
 -1     20667 2.04324E+01
 -1     20668 7.64803E+00
 -1     20669 7.71341E+00
 -1     20670 1.02898E+01
 -1     20671 7.97874E+00
 -1     20672 8.72147E+00
 -1     20673 1.42215E+01
 -1     20674 1.54068E+01
 -1     20675 6.04956E+00
 -1     20676 1.09523E+01
 -1     20677 1.28968E+01
 -1     20678 1.80090E+01
 -1     20679 1.05502E+01
 -1     20680 3.41848E+01
 -1     20681 1.36926E+01
 -1     20682 4.26828E+01
 -1     20683 3.43881E+01
 -1     20684 4.59094E+01
 -1     20685 4.48309E+01
 -1     20686 2.36314E+01
 -1     20687 4.69246E+01
 -1     20688 5.55590E+01
 -1     20689 4.72550E+01
 -1     20690 5.69965E+01
 -1     20691 1.52362E+01
 -1     20692 5.69965E+01
 -1     20693 8.52436E+00
 -1     20694 7.76958E+00
 -1     20695 1.17987E+01
 -1     20696 8.37899E+00
 -1     20697 8.52436E+00
 -1     20698 1.12831E+01
 -1     20699 1.39198E+01
 -1     20700 1.90787E+01
 -1     20701 3.24658E+01
 -1     20702 3.72528E+01
 -1     20703 4.37731E+01
 -1     20704 3.77746E+01
 -1     20705 1.36150E+01
 -1     20706 1.76801E+01
 -1     20707 3.66862E+01
 -1     20708 8.13700E+00
 -1     20709 1.02898E+01
 -1     20710 6.21630E+00
 -1     20711 3.12523E+01
 -1     20712 8.88003E+00
 -1     20713 8.72147E+00
 -1     20714 8.53194E+00
 -1     20715 1.11677E+01
 -1     20716 7.54208E+00
 -1     20717 1.09523E+01
 -1     20718 8.69057E+00
 -1     20719 1.80090E+01
 -1     20720 4.56874E+01
 -1     20721 1.16661E+01
 -1     20722 2.10631E+01
 -1     20723 5.30844E+01
 -1     20724 2.25074E+01
 -1     20725 5.49090E+01
 -1     20726 5.50320E+01
 -1     20727 9.63153E+00
 -1     20728 4.80318E+00
 -1     20729 1.33436E+01
 -1     20730 1.17987E+01
 -1     20731 1.61299E+01
 -1     20732 2.90421E+01
 -1     20733 3.61429E+01
 -1     20734 3.55811E+01
 -1     20735 1.07199E+01
 -1     20736 8.53194E+00
 -1     20737 9.06330E+00
 -1     20738 9.45718E+00
 -1     20739 6.91854E+00
 -1     20740 1.05819E+01
 -1     20741 1.54064E+01
 -1     20742 9.76398E+00
 -1     20743 8.88787E+00
 -1     20744 1.54064E+01
 -1     20745 2.41732E+01
 -1     20746 2.60663E+01
 -1     20747 3.40326E+01
 -1     20748 7.47688E+00
 -1     20749 3.69710E+01
 -1     20750 1.66788E+01
 -1     20751 3.67066E+01
 -1     20752 3.73815E+01
 -1     20753 2.66166E+01
 -1     20754 2.18136E+01
 -1     20755 4.53141E+01
 -1     20756 1.56269E+01
 -1     20757 9.45718E+00
 -1     20758 3.62303E+01
 -1     20759 8.55066E+00
 -1     20760 9.72856E+00
 -1     20761 1.47569E+01
 -1     20762 9.34839E+00
 -1     20763 2.83953E+01
 -1     20764 2.42252E+01
 -1     20765 9.72856E+00
 -1     20766 1.55594E+01
 -1     20767 6.76498E+00
 -1     20768 2.19299E+01
 -1     20769 1.05819E+01
 -1     20770 2.04324E+01
 -1     20771 1.52362E+01
 -1     20772 8.53550E+00
 -1     20773 1.90190E+01
 -1     20774 1.36150E+01
 -1     20775 9.09269E+00
 -1     20776 1.88807E+01
 -1     20777 4.74295E+01
 -1     20778 8.66763E+00
 -1     20779 4.08489E+01
 -1     20780 1.02898E+01
 -1     20781 2.25540E+01
 -1     20782 9.24747E+00
 -1     20783 2.19299E+01
 -1     20784 2.27569E+01
 -1     20785 3.76323E+01
 -1     20786 8.42888E+00
 -1     20787 2.41732E+01
 -1     20788 4.53141E+01
 -1     20789 2.75556E+01
 -1     20790 9.24747E+00
 -1     20791 1.48026E+01
 -1     20792 9.27539E+00
 -1     20793 1.87233E+01
 -1     20794 1.56269E+01
 -1     20795 3.06016E+01
 -1     20796 2.98192E+01
 -1     20797 2.41290E+01
 -1     20798 3.24658E+01
 -1     20799 1.92266E+01
 -1     20800 1.53711E+01
 -1     20801 9.76398E+00
 -1     20802 3.40326E+01
 -1     20803 9.92467E+00
 -1     20804 1.58276E+01
 -1     20805 8.76913E+00
 -1     20806 1.75775E+01
 -1     20807 2.18136E+01
 -1     20808 1.51157E+01
 -1     20809 1.87629E+01
 -1     20810 1.35070E+01
 -1     20811 9.45573E+00
 -1     20812 9.70893E+00
 -1     20813 1.67346E+01
 -1     20814 2.79317E+01
 -1     20815 1.55454E+01
 -1     20816 1.58944E+01
 -1     20817 1.67551E+01
 -1     20818 9.71998E+00
 -1     20819 2.33192E+01
 -1     20820 3.98292E+01
 -1     20821 1.02972E+01
 -1     20822 2.41732E+01
 -1     20823 1.05976E+01
 -1     20824 2.22512E+01
 -1     20825 9.56390E+00
 -1     20826 1.18459E+01
 -1     20827 1.05819E+01
 -1     20828 3.41327E+01
 -1     20829 9.65434E+00
 -1     20830 6.43091E+00
 -1     20831 9.06330E+00
 -1     20832 2.25540E+01
 -1     20833 1.05976E+01
 -1     20834 1.04298E+01
 -1     20835 7.48153E+00
 -1     20836 1.18246E+01
 -1     20837 1.75451E+01
 -1     20838 2.73772E+01
 -1     20839 6.64546E+00
 -1     20840 8.86191E+00
 -1     20841 2.81653E+01
 -1     20842 2.82226E+01
 -1     20843 3.34743E+01
 -1     20844 4.53141E+01
 -1     20845 1.24287E+01
 -1     20846 2.75556E+01
 -1     20847 1.04298E+01
 -1     20848 2.19299E+01
 -1     20849 1.11673E+01
 -1     20850 3.41327E+01
 -1     20851 2.08945E+01
 -1     20852 2.76816E+01
 -1     20853 1.00719E+01
 -1     20854 2.33192E+01
 -1     20855 1.15311E+01
 -1     20856 1.03580E+01
 -1     20857 1.26873E+01
 -1     20858 3.33950E+01
 -1     20859 1.11242E+01
 -1     20860 1.85312E+01
 -1     20861 3.33950E+01
 -1     20862 2.15589E+01
 -1     20863 1.12644E+01
 -1     20864 2.52179E+01
 -1     20865 1.06292E+01
 -1     20866 1.02972E+01
 -1     20867 7.83086E+00
 -1     20868 1.15311E+01
 -1     20869 2.06081E+01
 -1     20870 2.06081E+01
 -1     20871 1.02371E+01
 -1     20872 9.70189E+00
 -1     20873 1.31043E+01
 -1     20874 1.63982E+01
 -1     20875 1.26873E+01
 -1     20876 1.54734E+01
 -1     20877 4.27015E+01
 -1     20878 1.05976E+01
 -1     20879 2.01589E+01
 -1     20880 9.54772E+00
 -1     20881 2.15589E+01
 -1     20882 1.11242E+01
 -1     20883 1.82724E+01
 -1     20884 1.02598E+01
 -1     20885 1.18459E+01
 -1     20886 3.41327E+01
 -1     20887 2.52179E+01
 -1     20888 2.51016E+01
 -1     20889 1.89149E+01
 -1     20890 1.21910E+01
 -1     20891 1.20606E+01
 -1     20892 1.12644E+01
 -1     20893 1.66515E+01
 -1     20894 1.79688E+01
 -1     20895 2.34434E+01
 -1     20896 3.98292E+01
 -1     20897 1.86066E+01
 -1     20898 2.51016E+01
 -1     20899 1.50012E+01
 -1     20900 1.23342E+01
 -1     20901 1.72836E+01
 -1     20902 6.77417E+00
 -1     20903 2.65627E+01
 -1     20904 2.82619E+01
 -1     20905 3.33950E+01
 -1     20906 2.44480E+01
 -1     20907 1.11420E+01
 -1     20908 2.52179E+01
 -1     20909 1.89741E+01
 -1     20910 1.25515E+01
 -1     20911 2.10407E+01
 -1     20912 1.38490E+01
 -1     20913 2.01589E+01
 -1     20914 2.06664E+01
 -1     20915 1.22892E+01
 -1     20916 1.46175E+01
 -1     20917 8.71838E+00
 -1     20918 2.20656E+01
 -1     20919 1.59290E+01
 -1     20920 1.11242E+01
 -1     20921 2.66336E+01
 -1     20922 2.00494E+01
 -1     20923 2.06664E+01
 -1     20924 2.15589E+01
 -1     20925 1.63982E+01
 -1     20926 2.82619E+01
 -1     20927 2.46679E+01
 -1     20928 9.54772E+00
 -1     20929 2.20656E+01
 -1     20930 1.07803E+01
 -1     20931 1.95244E+01
 -1     20932 1.93762E+01
 -1     20933 1.75185E+01
 -1     20934 2.00972E+01
 -1     20935 1.72836E+01
 -1     20936 2.25315E+01
 -1     20937 2.77610E+01
 -1     20938 3.09657E+01
 -1     20939 9.58201E+00
 -1     20940 2.25889E+01
 -1     20941 1.38490E+01
 -1     20942 2.10407E+01
 -1     20943 2.46679E+01
 -1     20944 1.23342E+01
 -1     20945 2.00494E+01
 -1     20946 1.76307E+01
 -1     20947 2.82619E+01
 -1     20948 1.07803E+01
 -1     20949 8.67321E+00
 -1     20950 2.59374E+01
 -1     20951 2.77610E+01
 -1     20952 1.96682E+01
 -1     20953 2.26369E+01
 -1     20954 1.93762E+01
 -1     20955 2.25889E+01
 -1     20956 1.40635E+01
 -1     20957 2.22052E+01
 -1     20958 2.59374E+01
 -1     20959 2.48304E+01
 -1     20960 2.25889E+01
 -1     20961 1.35508E+01
 -1     20962 2.59374E+01
 -1     20963 2.36588E+01
 -1     20964 1.82886E+01
 -1     20965 2.36588E+01
 -1     20966 8.84781E+00
 -1     20967 9.75944E+00
 -1     20968 1.42659E+01
 -1     20969 9.81026E+00
 -1     20970 8.16555E+00
 -1     20971 6.83920E+00
 -1     20972 9.73581E+00
 -1     20973 1.18116E+01
 -1     20974 1.44723E+01
 -1     20975 5.54511E+00
 -1     20976 6.22591E+00
 -1     20977 7.87607E+00
 -1     20978 7.69185E+00
 -1     20979 1.39383E+01
 -1     20980 1.84964E+01
 -1     20981 1.91810E+01
 -1     20982 2.30656E+01
 -1     20983 3.81894E+01
 -1     20984 4.40226E+01
 -1     20985 5.06685E+01
 -1     20986 4.53860E+01
 -1     20987 2.26361E+01
 -1     20988 1.46707E+01
 -1     20989 1.29203E+01
 -1     20990 7.04730E+00
 -1     20991 5.62504E+00
 -1     20992 3.85029E+00
 -1     20993 3.13668E+00
 -1     20994 1.84056E+01
 -1     20995 4.13591E+01
 -1     20996 4.59094E+01
 -1     20997 5.43049E+01
 -1     20998 5.50320E+01
 -1     20999 5.31772E+01
 -1     21000 4.93145E+01
 -1     21001 4.98892E+01
 -1     21002 3.96395E+01
 -1     21003 3.30525E+01
 -1     21004 3.81117E+01
 -1     21005 2.08716E+01
 -1     21006 6.15437E+00
 -1     21007 5.25414E+01
 -1     21008 1.10755E+01
 -1     21009 9.31687E+00
 -1     21010 1.62959E+01
 -1     21011 8.72428E+00
 -1     21012 9.38185E+00
 -1     21013 6.70769E+00
 -1     21014 8.28363E+00
 -1     21015 9.63508E+00
 -1     21016 1.44723E+01
 -1     21017 6.81297E+00
 -1     21018 5.52147E+00
 -1     21019 7.14595E+00
 -1     21020 8.46574E+00
 -1     21021 9.79479E+00
 -1     21022 9.37178E+00
 -1     21023 1.91810E+01
 -1     21024 3.14899E+01
 -1     21025 2.93904E+01
 -1     21026 4.37731E+01
 -1     21027 3.29666E+01
 -1     21028 2.26361E+01
 -1     21029 1.31119E+01
 -1     21030 1.29203E+01
 -1     21031 6.14899E+00
 -1     21032 4.45268E+00
 -1     21033 2.88297E+00
 -1     21034 6.35589E+00
 -1     21035 2.56038E+01
 -1     21036 2.94662E+01
 -1     21037 5.44554E+01
 -1     21038 5.69357E+01
 -1     21039 5.33219E+01
 -1     21040 4.98892E+01
 -1     21041 5.20015E+01
 -1     21042 3.69882E+01
 -1     21043 4.05115E+01
 -1     21044 3.34823E+01
 -1     21045 2.07659E+01
 -1     21046 7.45441E+00
 -1     21047 1.40974E+01
 -1     21048 1.48026E+01
 -1     21049 7.14192E+00
 -1     21050 8.14606E+00
 -1     21051 8.28363E+00
 -1     21052 9.63508E+00
 -1     21053 1.44723E+01
 -1     21054 8.23328E+00
 -1     21055 7.07993E+00
 -1     21056 9.60155E+00
 -1     21057 9.22795E+00
 -1     21058 9.42314E+00
 -1     21059 9.98645E+00
 -1     21060 2.04324E+01
 -1     21061 4.00673E+01
 -1     21062 4.43898E+00
 -1     21063 3.76323E+01
 -1     21064 3.81894E+01
 -1     21065 1.04141E+01
 -1     21066 2.90421E+01
 -1     21067 2.69111E+01
 -1     21068 5.53787E+01
 -1     21069 1.51855E+01
 -1     21070 3.24658E+01
 -1     21071 1.04141E+01
 -1     21072 1.59153E+01
 -1     21073 8.52967E+00
 -1     21074 1.15122E+01
 -1     21075 4.56688E+00
 -1     21076 4.40226E+01
 -1     21077 1.84056E+01
 -1     21078 2.15821E+01
 -1     21079 2.94662E+01
 -1     21080 5.31772E+01
 -1     21081 3.31670E+01
 -1     21082 3.94048E+01
 -1     21083 4.93145E+01
 -1     21084 2.54321E+01
 -1     21085 4.13134E+01
 -1     21086 3.83756E+01
 -1     21087 2.13030E+01
 -1     21088 1.64525E+01
 -1     21089 9.40650E+00
 -1     21090 3.14899E+01
 -1     21091 1.62959E+01
 -1     21092 5.12641E+01
 -1     21093 4.24461E+01
 -1     21094 8.46574E+00
 -1     21095 1.80090E+01
 -1     21096 1.01877E+01
 -1     21097 6.48145E+00
 -1     21098 8.14606E+00
 -1     21099 7.14135E+00
 -1     21100 8.72752E+00
 -1     21101 9.59543E+00
 -1     21102 8.22523E+00
 -1     21103 9.60155E+00
 -1     21104 8.76913E+00
 -1     21105 9.42314E+00
 -1     21106 1.67145E+01
 -1     21107 2.69462E+01
 -1     21108 5.31772E+01
 -1     21109 2.13030E+01
 -1     21110 3.01092E+01
 -1     21111 4.87617E+00
 -1     21112 1.84056E+01
 -1     21113 3.95767E+01
 -1     21114 4.23085E+01
 -1     21115 2.66052E+01
 -1     21116 1.06893E+01
 -1     21117 3.08810E+01
 -1     21118 1.43085E+01
 -1     21119 2.74350E+01
 -1     21120 1.75995E+01
 -1     21121 1.62970E+01
 -1     21122 1.11529E+01
 -1     21123 2.11378E+01
 -1     21124 8.14606E+00
 -1     21125 7.12249E+00
 -1     21126 8.37899E+00
 -1     21127 2.69462E+01
 -1     21128 9.09234E+00
 -1     21129 8.53550E+00
 -1     21130 8.42888E+00
 -1     21131 9.50726E+00
 -1     21132 1.45640E+01
 -1     21133 1.25906E+01
 -1     21134 1.25906E+01
 -1     21135 1.01877E+01
 -1     21136 6.76498E+00
 -1     21137 2.05081E+01
 -1     21138 9.59543E+00
 -1     21139 9.50726E+00
 -1     21140 2.98192E+01
 -1     21141 1.04141E+01
 -1     21142 7.95778E+00
 -1     21143 8.88787E+00
 -1     21144 3.01092E+01
 -1     21145 2.66718E+01
 -1     21146 3.23154E+01
 -1     21147 2.41732E+01
 -1     21148 9.65434E+00
 -1     21149 7.76958E+00
 -1     21150 1.31636E+01
 -1     21151 3.01092E+01
 -1     21152 1.90190E+01
 -1     21153 2.47231E+01
 -1     21154 9.60155E+00
 -1     21155 3.76323E+01
 -1     21156 7.37774E+00
 -1     21157 2.73772E+01
 -1     21158 3.69710E+01
 -1     21159 3.06016E+01
 -1     21160 6.76498E+00
 -1     21161 9.09234E+00
 -1     21162 9.65434E+00
 -1     21163 3.31651E+01
 -1     21164 3.76323E+01
 -1     21165 1.91261E+01
 -1     21166 1.81101E+01
 -1     21167 5.14972E+00
 -1     21168 9.76398E+00
 -1     21169 8.35334E+00
 -1     21170 2.15821E+01
 -1     21171 2.24389E+01
 -1     21172 8.76211E+00
 -1     21173 1.51633E+01
 -1     21174 1.81253E+01
 -1     21175 1.56269E+01
 -1     21176 2.24389E+01
 -1     21177 9.45573E+00
 -1     21178 2.15414E+01
 -1     21179 1.55695E+01
 -1     21180 6.64546E+00
 -1     21181 1.79344E+01
 -1     21182 1.11673E+01
 -1     21183 1.11529E+01
 -1     21184 9.90047E+00
 -1     21185 1.04298E+01
 -1     21186 1.71720E+01
 -1     21187 9.65434E+00
 -1     21188 1.89821E+01
 -1     21189 1.32923E+01
 -1     21190 2.61703E+01
 -1     21191 9.92467E+00
 -1     21192 1.32923E+01
 -1     21193 2.95833E+01
 -1     21194 1.05692E+01
 -1     21195 1.09660E+01
 -1     21196 2.11378E+01
 -1     21197 1.10957E+01
 -1     21198 1.65197E+01
 -1     21199 1.75451E+01
 -1     21200 9.44733E+00
 -1     21201 5.94223E+00
 -1     21202 8.76211E+00
 -1     21203 2.11586E+01
 -1     21204 9.00366E+00
 -1     21205 9.87752E+00
 -1     21206 1.67551E+01
 -1     21207 1.95308E+01
 -1     21208 8.17213E+00
 -1     21209 1.58187E+01
 -1     21210 2.33192E+01
 -1     21211 1.49465E+01
 -1     21212 2.72646E+01
 -1     21213 1.01741E+01
 -1     21214 2.95833E+01
 -1     21215 1.18441E+01
 -1     21216 4.27015E+01
 -1     21217 4.27015E+01
 -1     21218 1.89821E+01
 -1     21219 2.11378E+01
 -1     21220 1.67551E+01
 -1     21221 3.41327E+01
 -1     21222 1.70460E+01
 -1     21223 2.52776E+01
 -1     21224 9.90047E+00
 -1     21225 1.75451E+01
 -1     21226 7.81794E+00
 -1     21227 9.24747E+00
 -1     21228 1.58187E+01
 -1     21229 9.72856E+00
 -1     21230 2.20006E+01
 -1     21231 1.79031E+01
 -1     21232 1.88457E+01
 -1     21233 8.04622E+00
 -1     21234 3.00015E+01
 -1     21235 2.11586E+01
 -1     21236 1.11322E+01
 -1     21237 1.54734E+01
 -1     21238 1.47416E+01
 -1     21239 1.96822E+01
 -1     21240 1.71720E+01
 -1     21241 8.14964E+00
 -1     21242 1.86678E+01
 -1     21243 1.02371E+01
 -1     21244 1.73215E+01
 -1     21245 9.44733E+00
 -1     21246 1.50012E+01
 -1     21247 2.15943E+01
 -1     21248 1.32923E+01
 -1     21249 8.37543E+00
 -1     21250 1.79031E+01
 -1     21251 5.88589E+00
 -1     21252 8.17213E+00
 -1     21253 2.34434E+01
 -1     21254 1.63982E+01
 -1     21255 1.47416E+01
 -1     21256 2.95833E+01
 -1     21257 2.15589E+01
 -1     21258 3.09657E+01
 -1     21259 1.13536E+01
 -1     21260 1.25710E+01
 -1     21261 1.25710E+01
 -1     21262 1.89149E+01
 -1     21263 1.67346E+01
 -1     21264 2.72646E+01
 -1     21265 1.52587E+01
 -1     21266 1.54734E+01
 -1     21267 4.27015E+01
 -1     21268 1.06587E+01
 -1     21269 1.05976E+01
 -1     21270 1.00719E+01
 -1     21271 1.37276E+01
 -1     21272 2.05121E+01
 -1     21273 1.03450E+01
 -1     21274 8.45757E+00
 -1     21275 2.14423E+01
 -1     21276 1.86678E+01
 -1     21277 2.80284E+01
 -1     21278 1.13386E+01
 -1     21279 1.72836E+01
 -1     21280 1.66559E+01
 -1     21281 1.52587E+01
 -1     21282 1.54734E+01
 -1     21283 2.53528E+01
 -1     21284 1.89689E+01
 -1     21285 1.68450E+01
 -1     21286 1.39382E+01
 -1     21287 1.03580E+01
 -1     21288 2.53528E+01
 -1     21289 2.53528E+01
 -1     21290 1.59635E+01
 -1     21291 1.95244E+01
 -1     21292 2.05638E+01
 -1     21293 2.28833E+01
 -1     21294 1.96822E+01
 -1     21295 2.20032E+01
 -1     21296 3.09657E+01
 -1     21297 2.20032E+01
 -1     21298 8.14964E+00
 -1     21299 1.44840E+01
 -1     21300 2.10407E+01
 -1     21301 2.10407E+01
 -1     21302 2.66336E+01
 -1     21303 5.88589E+00
 -1     21304 3.09657E+01
 -1     21305 2.06664E+01
 -1     21306 1.86678E+01
 -1     21307 1.39382E+01
 -1     21308 1.89689E+01
 -1     21309 1.88429E+01
 -1     21310 1.44840E+01
 -1     21311 1.95244E+01
 -1     21312 9.08952E+00
 -1     21313 2.50102E+01
 -1     21314 2.26369E+01
 -1     21315 1.70447E+01
 -1     21316 1.77044E+01
 -1     21317 2.06664E+01
 -1     21318 2.13112E+01
 -1     21319 2.38521E+01
 -1     21320 1.15461E+01
 -1     21321 2.00661E+01
 -1     21322 2.18678E+01
 -1     21323 2.23509E+01
 -1     21324 2.48304E+01
 -1     21325 6.04185E+00
 -1     21326 2.28833E+01
 -1     21327 2.00661E+01
 -1     21328 2.14267E+01
 -1     21329 1.60019E+01
 -1     21330 2.48304E+01
 -1     21331 2.53132E+01
 -1     21332 3.12846E+01
 -1     21333 2.72883E+01
 -1     21334 2.18678E+01
 -1     21335 2.50102E+01
 -1     21336 2.05597E+01
 -1     21337 2.72883E+01
 -1     21338 2.18678E+01
 -1     21339 2.73287E+01
 -1     21340 3.12846E+01
 -1     21341 3.12846E+01
 -1     21342 2.75653E+01
 -1     21343 2.28018E+01
 -1     21344 1.27831E+01
 -1     21345 1.87144E+01
 -1     21346 4.28747E+01
 -1     21347 4.64770E+01
 -1     21348 5.77891E+01
 -1     21349 5.82748E+01
 -1     21350 2.79074E+01
 -1     21351 1.31710E+01
 -1     21352 1.16601E+01
 -1     21353 2.01527E+01
 -1     21354 7.77345E+00
 -1     21355 8.11170E+00
 -1     21356 4.94967E+00
 -1     21357 5.26674E+00
 -1     21358 4.45373E+00
 -1     21359 8.82164E+00
 -1     21360 8.49387E+00
 -1     21361 6.22375E+00
 -1     21362 7.44142E+00
 -1     21363 1.11439E+01
 -1     21364 1.25827E+01
 -1     21365 9.16140E+00
 -1     21366 6.82465E+00
 -1     21367 1.14009E+01
 -1     21368 2.22461E+01
 -1     21369 1.88076E+01
 -1     21370 1.84151E+01
 -1     21371 1.26731E+01
 -1     21372 7.86949E+00
 -1     21373 4.00138E+00
 -1     21374 8.49387E+00
 -1     21375 6.49002E+00
 -1     21376 6.74995E+00
 -1     21377 5.51227E+00
 -1     21378 5.10498E+00
 -1     21379 8.53221E+00
 -1     21380 3.77721E+00
 -1     21381 5.37371E+00
 -1     21382 2.09620E+01
 -1     21383 5.21561E+00
 -1     21384 1.04454E+01
 -1     21385 2.51102E+01
 -1     21386 6.48528E+00
 -1     21387 6.12804E+00
 -1     21388 5.26674E+00
 -1     21389 6.46392E+00
 -1     21390 7.05345E+00
 -1     21391 7.74443E+00
 -1     21392 8.49387E+00
 -1     21393 7.87124E+00
 -1     21394 7.56459E+00
 -1     21395 1.00801E+01
 -1     21396 1.91510E+01
 -1     21397 6.49009E+00
 -1     21398 1.90333E+01
 -1     21399 1.12272E+01
 -1     21400 8.01001E+00
 -1     21401 1.26936E+01
 -1     21402 6.31470E+00
 -1     21403 6.94310E+00
 -1     21404 5.13275E+00
 -1     21405 5.91212E+00
 -1     21406 5.97490E+00
 -1     21407 5.06693E+00
 -1     21408 8.53221E+00
 -1     21409 4.81952E+00
 -1     21410 5.56313E+00
 -1     21411 8.75815E+00
 -1     21412 2.51102E+01
 -1     21413 3.91253E+01
 -1     21414 4.64770E+01
 -1     21415 3.03037E+01
 -1     21416 3.63958E+01
 -1     21417 1.37212E+01
 -1     21418 2.55222E+01
 -1     21419 3.37149E+01
 -1     21420 4.17444E+01
 -1     21421 3.47020E+01
 -1     21422 3.09188E+01
 -1     21423 7.34477E+00
 -1     21424 3.03037E+01
 -1     21425 3.91253E+01
 -1     21426 4.85986E+01
 -1     21427 5.25215E+01
 -1     21428 3.92566E+01
 -1     21429 1.28063E+01
 -1     21430 5.93683E+00
 -1     21431 3.29206E+00
 -1     21432 4.09385E+00
 -1     21433 5.12165E+00
 -1     21434 6.11301E+00
 -1     21435 6.41223E+00
 -1     21436 2.03565E+01
 -1     21437 2.07578E+01
 -1     21438 5.01164E+01
 -1     21439 4.96141E+01
 -1     21440 4.57741E+01
 -1     21441 4.96141E+01
 -1     21442 5.11144E+01
 -1     21443 1.36110E+01
 -1     21444 2.06168E+01
 -1     21445 8.99047E+00
 -1     21446 8.59448E+00
 -1     21447 7.84453E+00
 -1     21448 3.93955E+00
 -1     21449 2.78441E+00
 -1     21450 3.12238E+00
 -1     21451 5.81137E+00
 -1     21452 4.38167E+01
 -1     21453 2.00330E+01
 -1     21454 9.36898E+00
 -1     21455 4.69202E+01
 -1     21456 3.29206E+00
 -1     21457 4.22530E+00
 -1     21458 4.09385E+00
 -1     21459 6.11301E+00
 -1     21460 3.84661E+00
 -1     21461 8.28833E+00
 -1     21462 1.87999E+01
 -1     21463 2.29591E+01
 -1     21464 3.18320E+01
 -1     21465 7.84880E+00
 -1     21466 1.31387E+01
 -1     21467 1.53341E+01
 -1     21468 1.10368E+01
 -1     21469 4.50720E+00
 -1     21470 3.93955E+00
 -1     21471 3.53110E+00
 -1     21472 5.35775E+00
 -1     21473 2.67671E+01
 -1     21474 4.38167E+01
 -1     21475 2.22461E+01
 -1     21476 1.87144E+01
 -1     21477 1.90333E+01
 -1     21478 1.58256E+01
 -1     21479 4.19067E+01
 -1     21480 2.95345E+01
 -1     21481 3.37430E+01
 -1     21482 5.13499E+01
 -1     21483 5.42191E+01
 -1     21484 5.01221E+01
 -1     21485 5.60790E+01
 -1     21486 5.45948E+01
 -1     21487 5.82748E+01
 -1     21488 5.77891E+01
 -1     21489 5.41379E+01
 -1     21490 5.04296E+01
 -1     21491 5.66205E+01
 -1     21492 3.40795E+01
 -1     21493 3.76656E+01
 -1     21494 4.66709E+01
 -1     21495 3.99702E+01
 -1     21496 2.41096E+01
 -1     21497 1.73241E+01
 -1     21498 1.02680E+01
 -1     21499 2.49400E+01
 -1     21500 1.90333E+01
 -1     21501 4.56971E+01
 -1     21502 3.03191E+01
 -1     21503 4.33026E+01
 -1     21504 4.89459E+01
 -1     21505 5.51288E+01
 -1     21506 5.45102E+01
 -1     21507 3.84533E+01
 -1     21508 5.51288E+01
 -1     21509 5.02519E+01
 -1     21510 3.37430E+01
 -1     21511 3.76656E+01
 -1     21512 4.56971E+01
 -1     21513 2.70021E+01
 -1     21514 1.48761E+01
 -1     21515 1.87719E+01
 -1     21516 3.30322E+01
 -1     21517 5.25414E+01
 -1     21518 8.52436E+00
 -1     21519 1.08170E+01
 -1     21520 8.53194E+00
 -1     21521 9.60155E+00
 -1     21522 5.61675E+00
 -1     21523 1.17987E+01
 -1     21524 1.51633E+01
 -1     21525 1.59153E+01
 -1     21526 5.13499E+01
 -1     21527 4.48309E+01
 -1     21528 2.10573E+01
 -1     21529 9.27539E+00
 -1     21530 8.94817E+00
 -1     21531 1.05819E+01
 -1     21532 8.83805E+00
 -1     21533 9.59543E+00
 -1     21534 1.02898E+01
 -1     21535 2.37250E+01
 -1     21536 1.91608E+01
 -1     21537 1.39074E+01
 -1     21538 3.62303E+01
 -1     21539 1.58944E+01
 -1     21540 2.11378E+01
 -1     21541 4.53141E+01
 -1     21542 2.95833E+01
 -1     21543 2.44480E+01
 -1     21544 1.13386E+01
 -1     21545 1.23342E+01
 -1     21546 2.53132E+01
 -1     21547 2.28833E+01
 -1     21548 2.25889E+01
 -1     21549 2.59374E+01
 -1     21550 3.12846E+01
 -1     21551 3.81894E+01
 -1     21552 5.25414E+01
 -1     21553 6.47654E+00
 -1     21554 9.38185E+00
 -1     21555 3.27010E+01
 -1     21556 6.21630E+00
 -1     21557 9.22795E+00
 -1     21558 2.27672E+01
 -1     21559 1.92476E+01
 -1     21560 7.87124E+00
 -1     21561 4.19067E+01
 -1     21562 5.45102E+01
 -1     21563 4.98892E+01
 -1     21564 5.97490E+00
 -1     21565 1.42215E+01
 -1     21566 3.12523E+01
 -1     21567 5.02555E+01
 -1     21568 1.87719E+01
 -1     21569 1.84151E+01
 -1     21570 8.16555E+00
 -1     21571 1.54068E+01
 -1     21572 5.04296E+01
 -1     21573 8.40900E+00
 -1     21574 5.33054E+01
 -1     21575 4.22530E+00
 -1     21576 2.14953E+01
 -1     21577 2.79074E+01
 -1     21578 8.94817E+00
 -1     21579 9.73581E+00
 -1     21580 1.91510E+01
 -1     21581 1.18116E+01
 -1     21582 4.13591E+01
 -1     21583 4.93058E+00
 -1     21584 9.27604E+00
 -1     21585 1.44723E+01
 -1     21586 4.02240E+01
 -1     21587 3.37149E+01
 -1     21588 1.11538E+01
 -1     21589 5.11144E+01
 -1     21590 4.39475E+00
 -1     21591 5.69357E+01
 -1     21592 5.02519E+01
 -1     21593 4.06523E+01
 -1     21594 1.87144E+01
 -1     21595 4.16348E+01
 -1     21596 3.29206E+00
 -1     21597 1.10368E+01
 -1     21598 7.71341E+00
 -1     21599 1.09523E+01
 -1     21600 2.67671E+01
 -1     21601 5.26674E+00
 -1     21602 4.43364E+01
 -1     21603 1.51949E+01
 -1     21604 4.38167E+01
 -1     21605 4.50720E+00
 -1     21606 5.20015E+01
 -1     21607 9.22795E+00
 -1     21608 3.10157E+01
 -1     21609 2.08716E+01
 -1     21610 1.44857E+01
 -1     21611 8.46574E+00
 -1     21612 5.66205E+01
 -1     21613 3.37149E+01
 -1     21614 2.01527E+01
 -1     21615 1.29203E+01
 -1     21616 5.51288E+01
 -1     21617 9.38185E+00
 -1     21618 8.53221E+00
 -1     21619 4.56971E+01
 -1     21620 5.53787E+01
 -1     21621 2.01584E+01
 -1     21622 2.32603E+01
 -1     21623 2.22461E+01
 -1     21624 2.79074E+01
 -1     21625 1.26731E+01
 -1     21626 8.94817E+00
 -1     21627 5.49090E+01
 -1     21628 7.93255E+00
 -1     21629 5.35775E+00
 -1     21630 5.85448E+00
 -1     21631 4.17444E+01
 -1     21632 6.46392E+00
 -1     21633 1.91810E+01
 -1     21634 2.45850E+01
 -1     21635 8.28363E+00
 -1     21636 5.55590E+01
 -1     21637 4.13591E+01
 -1     21638 1.88076E+01
 -1     21639 1.91510E+01
 -1     21640 5.01164E+01
 -1     21641 1.61192E+01
 -1     21642 9.59396E+00
 -1     21643 3.91253E+01
 -1     21644 5.06062E+01
 -1     21645 4.19840E+01
 -1     21646 5.51227E+00
 -1     21647 3.79504E+00
 -1     21648 3.34823E+01
 -1     21649 9.63508E+00
 -1     21650 3.85857E+01
 -1     21651 5.06353E+01
 -1     21652 5.49090E+01
 -1     21653 5.42711E+00
 -1     21654 3.99702E+01
 -1     21655 7.84453E+00
 -1     21656 5.81683E+01
 -1     21657 2.26361E+01
 -1     21658 7.87124E+00
 -1     21659 1.26936E+01
 -1     21660 3.53691E+01
 -1     21661 4.66709E+01
 -1     21662 4.48309E+01
 -1     21663 1.90333E+01
 -1     21664 7.78332E+00
 -1     21665 1.30523E+01
 -1     21666 1.84056E+01
 -1     21667 8.01755E+00
 -1     21668 8.22975E+00
 -1     21669 3.30525E+01
 -1     21670 9.22795E+00
 -1     21671 3.69882E+01
 -1     21672 2.79074E+01
 -1     21673 1.74709E+01
 -1     21674 1.11677E+01
 -1     21675 4.12468E+01
 -1     21676 3.85857E+01
 -1     21677 1.26731E+01
 -1     21678 2.22461E+01
 -1     21679 4.69202E+01
 -1     21680 4.89486E+01
 -1     21681 2.51102E+01
 -1     21682 5.60790E+01
 -1     21683 1.44977E+01
 -1     21684 8.65479E+00
 -1     21685 9.52220E+00
 -1     21686 5.51288E+01
 -1     21687 1.84151E+01
 -1     21688 3.31519E+01
 -1     21689 4.17444E+01
 -1     21690 2.01527E+01
 -1     21691 3.99702E+01
 -1     21692 5.69357E+01
 -1     21693 1.87719E+01
 -1     21694 4.53860E+01
 -1     21695 1.10368E+01
 -1     21696 4.66709E+01
 -1     21697 4.22530E+00
 -1     21698 5.45102E+01
 -1     21699 5.25414E+01
 -1     21700 5.97490E+00
 -1     21701 5.66205E+01
 -1     21702 2.45850E+01
 -1     21703 5.00377E+01
 -1     21704 5.25215E+01
 -1     21705 5.60790E+01
 -1     21706 5.42191E+01
 -1     21707 1.28968E+01
 -1     21708 2.07578E+01
 -1     21709 1.24487E+01
 -1     21710 5.41379E+01
 -1     21711 5.11144E+01
 -1     21712 4.17444E+01
 -1     21713 2.38657E+01
 -1     21714 4.56971E+01
 -1     21715 5.20015E+01
 -1     21716 2.38657E+01
 -1     21717 3.62883E+01
 -1     21718 5.82748E+01
 -1     21719 2.62749E+01
 -1     21720 5.31933E+01
 -1     21721 1.82000E+01
 -1     21722 4.02628E+01
 -1     21723 2.03565E+01
 -1     21724 4.05115E+01
 -1     21725 1.02680E+01
 -1     21726 1.91510E+01
 -1     21727 5.82748E+01
 -1     21728 4.53860E+01
 -1     21729 2.38657E+01
 -1     21730 3.85857E+01
 -1     21731 5.11144E+01
 -1     21732 2.19299E+01
 -1     21733 2.53528E+01
 -1     21734 2.75556E+01
 -1     21735 4.99367E+01
 -1     21736 5.53787E+01
 -1     21737 5.66205E+01
 -1     21738 2.44217E+01
 -1     21739 2.51835E+01
 -1     21740 1.93812E+01
 -1     21741 1.00345E+01
 -1     21742 1.57487E+01
 -1     21743 1.66954E+01
 -1     21744 2.39766E+01
 -1     21745 2.38186E+01
 -1     21746 1.53753E+01
 -1     21747 9.27337E+00
 -1     21748 7.67015E+00
 -1     21749 6.58214E+00
 -1     21750 4.99358E+00
 -1     21751 4.27946E+00
 -1     21752 4.93821E+00
 -1     21753 4.36746E+00
 -1     21754 4.47149E+00
 -1     21755 5.11231E+00
 -1     21756 5.63447E+00
 -1     21757 5.81573E+00
 -1     21758 6.20325E+00
 -1     21759 6.20152E+00
 -1     21760 5.44707E+00
 -1     21761 5.04880E+00
 -1     21762 5.89983E+00
 -1     21763 6.94310E+00
 -1     21764 5.26218E+00
 -1     21765 4.35328E+00
 -1     21766 8.90948E+00
 -1     21767 1.26936E+01
 -1     21768 1.20538E+01
 -1     21769 9.81488E+00
 -1     21770 1.33155E+01
 -1     21771 1.71566E+01
 -1     21772 1.35961E+01
 -1     21773 9.52913E+00
 -1     21774 9.27120E+00
 -1     21775 9.92970E+00
 -1     21776 8.18352E+00
 -1     21777 1.53704E+01
 -1     21778 1.66383E+01
 -1     21779 1.38238E+01
 -1     21780 1.46519E+01
 -1     21781 1.70455E+01
 -1     21782 1.10840E+01
 -1     21783 7.42588E+00
 -1     21784 6.78174E+00
 -1     21785 6.53476E+00
 -1     21786 6.30229E+00
 -1     21787 5.81516E+00
 -1     21788 5.21026E+00
 -1     21789 5.86533E+00
 -1     21790 5.89434E+00
 -1     21791 5.79048E+00
 -1     21792 9.03391E+00
 -1     21793 1.18116E+01
 -1     21794 1.07737E+01
 -1     21795 9.73581E+00
 -1     21796 7.63446E+00
 -1     21797 6.70217E+00
 -1     21798 7.65633E+00
 -1     21799 7.80348E+00
 -1     21800 8.77370E+00
 -1     21801 9.46446E+00
 -1     21802 1.02723E+01
 -1     21803 1.25564E+01
 -1     21804 1.41154E+01
 -1     21805 1.05456E+01
 -1     21806 6.97579E+00
 -1     21807 9.02564E+00
 -1     21808 1.10755E+01
 -1     21809 1.28760E+01
 -1     21810 4.80340E+01
 -1     21811 4.46758E+01
 -1     21812 4.44228E+01
 -1     21813 5.31933E+01
 -1     21814 4.58391E+01
 -1     21815 3.65934E+01
 -1     21816 3.74824E+01
 -1     21817 3.83293E+01
 -1     21818 3.36609E+01
 -1     21819 3.23205E+01
 -1     21820 2.74965E+01
 -1     21821 4.23687E+01
 -1     21822 3.66432E+01
 -1     21823 3.09177E+01
 -1     21824 2.80381E+01
 -1     21825 2.11008E+01
 -1     21826 1.60254E+01
 -1     21827 1.54842E+01
 -1     21828 1.59606E+01
 -1     21829 5.06465E+01
 -1     21830 5.80320E+01
 -1     21831 5.62899E+01
 -1     21832 4.28282E+01
 -1     21833 4.29846E+01
 -1     21834 3.52919E+01
 -1     21835 2.48283E+01
 -1     21836 1.56204E+01
 -1     21837 5.70420E+00
 -1     21838 3.29413E+00
 -1     21839 3.53110E+00
 -1     21840 3.43497E+00
 -1     21841 3.40178E+00
 -1     21842 3.90113E+00
 -1     21843 4.33753E+00
 -1     21844 5.94280E+00
 -1     21845 9.29244E+00
 -1     21846 9.75589E+00
 -1     21847 8.87550E+00
 -1     21848 9.32055E+00
 -1     21849 1.31816E+01
 -1     21850 2.07916E+01
 -1     21851 1.90190E+01
 -1     21852 1.55224E+01
 -1     21853 1.96778E+01
 -1     21854 2.83063E+01
 -1     21855 4.25522E+01
 -1     21856 5.17244E+01
 -1     21857 5.31933E+01
 -1     21858 4.88345E+01
 -1     21859 4.13104E+01
 -1     21860 4.03078E+01
 -1     21861 3.34815E+01
 -1     21862 2.34194E+01
 -1     21863 1.53020E+01
 -1     21864 7.36873E+00
 -1     21865 4.12573E+00
 -1     21866 3.15926E+00
 -1     21867 3.08695E+00
 -1     21868 3.87228E+00
 -1     21869 5.05254E+00
 -1     21870 5.78605E+00
 -1     21871 6.47322E+00
 -1     21872 5.00609E+00
 -1     21873 4.72786E+00
 -1     21874 8.02113E+00
 -1     21875 1.52410E+01
 -1     21876 1.95782E+01
 -1     21877 1.97789E+01
 -1     21878 1.93538E+01
 -1     21879 2.89858E+01
 -1     21880 3.85841E+01
 -1     21881 4.16499E+01
 -1     21882 4.61533E+01
 -1     21883 4.42610E+01
 -1     21884 9.88946E+00
 -1     21885 1.56325E+01
 -1     21886 1.78870E+01
 -1     21887 2.01813E+01
 -1     21888 2.80307E+01
 -1     21889 3.29265E+01
 -1     21890 3.60519E+01
 -1     21891 4.28114E+01
 -1     21892 3.87133E+01
 -1     21893 3.61952E+01
 -1     21894 4.11146E+01
 -1     21895 4.05943E+01
 -1     21896 4.56148E+01
 -1     21897 4.99396E+01
 -1     21898 5.17842E+01
 -1     21899 5.43246E+01
 -1     21900 5.31781E+01
 -1     21901 5.12454E+01
 -1     21902 5.15001E+01
 -1     21903 5.53546E+01
 -1     21904 5.81683E+01
 -1     21905 5.08361E+01
 -1     21906 1.59407E+01
 -1     21907 1.25542E+01
 -1     21908 9.08574E+00
 -1     21909 1.41720E+01
 -1     21910 1.94738E+01
 -1     21911 2.71769E+01
 -1     21912 3.57970E+01
 -1     21913 3.93116E+01
 -1     21914 4.05115E+01
 -1     21915 3.87498E+01
 -1     21916 3.83139E+01
 -1     21917 4.58205E+01
 -1     21918 5.08526E+01
 -1     21919 5.19614E+01
 -1     21920 5.42191E+01
 -1     21921 5.15951E+01
 -1     21922 4.89712E+01
 -1     21923 5.11466E+01
 -1     21924 5.47005E+01
 -1     21925 5.43129E+01
 -1     21926 5.47413E+01
 -1     21927 5.56203E+01
 -1     21928 2.71202E+01
 -1     21929 2.53546E+01
 -1     21930 2.77363E+01
 -1     21931 1.45658E+01
 -1     21932 1.79864E+01
 -1     21933 2.05392E+01
 -1     21934 1.39756E+01
 -1     21935 1.04056E+01
 -1     21936 1.50782E+01
 -1     21937 1.70455E+01
 -1     21938 2.01527E+01
 -1     21939 7.19772E+00
 -1     21940 8.00160E+00
 -1     21941 7.11987E+00
 -1     21942 7.52659E+00
 -1     21943 5.05173E+00
 -1     21944 5.71311E+00
 -1     21945 5.86533E+00
 -1     21946 5.26674E+00
 -1     21947 5.35497E+00
 -1     21948 4.88925E+00
 -1     21949 1.03166E+01
 -1     21950 1.03166E+01
 -1     21951 9.11484E+00
 -1     21952 9.11484E+00
 -1     21953 7.04749E+00
 -1     21954 5.87843E+00
 -1     21955 7.80348E+00
 -1     21956 7.44142E+00
 -1     21957 1.03455E+01
 -1     21958 1.02629E+01
 -1     21959 1.33490E+01
 -1     21960 1.17901E+01
 -1     21961 8.06860E+00
 -1     21962 1.16384E+01
 -1     21963 8.95006E+00
 -1     21964 6.90022E+00
 -1     21965 1.48949E+01
 -1     21966 1.20920E+01
 -1     21967 1.50577E+01
 -1     21968 1.09321E+01
 -1     21969 1.65121E+01
 -1     21970 1.56636E+01
 -1     21971 7.29442E+00
 -1     21972 8.80144E+00
 -1     21973 1.73529E+01
 -1     21974 1.50508E+01
 -1     21975 1.33155E+01
 -1     21976 1.84151E+01
 -1     21977 1.26834E+01
 -1     21978 1.20435E+01
 -1     21979 6.49740E+00
 -1     21980 1.02816E+01
 -1     21981 5.47224E+00
 -1     21982 3.79132E+00
 -1     21983 6.67521E+00
 -1     21984 7.71848E+00
 -1     21985 6.07156E+00
 -1     21986 5.86553E+00
 -1     21987 6.20325E+00
 -1     21988 6.74995E+00
 -1     21989 5.40315E+00
 -1     21990 5.74358E+00
 -1     21991 4.55869E+00
 -1     21992 5.01778E+00
 -1     21993 6.84305E+00
 -1     21994 6.62737E+00
 -1     21995 5.17967E+00
 -1     21996 3.59112E+00
 -1     21997 7.06593E+00
 -1     21998 5.97792E+00
 -1     21999 2.09620E+01
 -1     22000 1.53753E+01
 -1     22001 2.72913E+01
 -1     22002 1.12382E+01
 -1     22003 1.02411E+01
 -1     22004 7.18337E+00
 -1     22005 8.43787E+00
 -1     22006 1.26842E+01
 -1     22007 1.21918E+01
 -1     22008 1.52991E+01
 -1     22009 9.33756E+00
 -1     22010 2.18033E+01
 -1     22011 1.99452E+01
 -1     22012 1.26842E+01
 -1     22013 9.10941E+00
 -1     22014 1.91406E+01
 -1     22015 6.71338E+00
 -1     22016 6.55364E+00
 -1     22017 6.30229E+00
 -1     22018 6.12804E+00
 -1     22019 5.26674E+00
 -1     22020 5.21026E+00
 -1     22021 5.89434E+00
 -1     22022 6.46392E+00
 -1     22023 9.43253E+00
 -1     22024 6.65483E+00
 -1     22025 8.74012E+00
 -1     22026 9.77802E+00
 -1     22027 7.01349E+00
 -1     22028 9.11484E+00
 -1     22029 7.65633E+00
 -1     22030 7.87124E+00
 -1     22031 8.47322E+00
 -1     22032 7.86507E+00
 -1     22033 1.05388E+01
 -1     22034 9.81358E+00
 -1     22035 1.66332E+01
 -1     22036 1.66332E+01
 -1     22037 6.65737E+00
 -1     22038 6.73294E+00
 -1     22039 6.73294E+00
 -1     22040 7.12714E+00
 -1     22041 5.45882E+00
 -1     22042 1.50544E+01
 -1     22043 1.50544E+01
 -1     22044 1.68235E+01
 -1     22045 1.26489E+01
 -1     22046 8.89208E+00
 -1     22047 1.48212E+01
 -1     22048 1.35627E+01
 -1     22049 9.71200E+00
 -1     22050 8.11290E+00
 -1     22051 1.26936E+01
 -1     22052 1.26936E+01
 -1     22053 4.94798E+00
 -1     22054 5.72000E+00
 -1     22055 6.94310E+00
 -1     22056 6.94310E+00
 -1     22057 5.18690E+00
 -1     22058 4.99466E+00
 -1     22059 6.33104E+00
 -1     22060 5.78261E+00
 -1     22061 5.97490E+00
 -1     22062 5.81573E+00
 -1     22063 4.99876E+00
 -1     22064 5.18048E+00
 -1     22065 6.62737E+00
 -1     22066 6.27230E+00
 -1     22067 4.11227E+00
 -1     22068 4.98670E+00
 -1     22069 6.07263E+00
 -1     22070 6.07263E+00
 -1     22071 9.27337E+00
 -1     22072 8.75815E+00
 -1     22073 2.58927E+01
 -1     22074 2.30361E+01
 -1     22075 7.93755E+00
 -1     22076 7.12936E+00
 -1     22077 7.11987E+00
 -1     22078 5.10821E+00
 -1     22079 5.86533E+00
 -1     22080 5.75359E+00
 -1     22081 8.28303E+00
 -1     22082 8.49387E+00
 -1     22083 7.04749E+00
 -1     22084 7.50300E+00
 -1     22085 1.06120E+01
 -1     22086 1.58669E+01
 -1     22087 1.29290E+01
 -1     22088 1.50174E+01
 -1     22089 1.32126E+01
 -1     22090 1.26834E+01
 -1     22091 7.09210E+00
 -1     22092 5.47224E+00
 -1     22093 6.81331E+00
 -1     22094 6.20107E+00
 -1     22095 6.36242E+00
 -1     22096 5.28960E+00
 -1     22097 6.81860E+00
 -1     22098 6.67586E+00
 -1     22099 4.67017E+00
 -1     22100 7.06593E+00
 -1     22101 2.30361E+01
 -1     22102 8.11915E+00
 -1     22103 7.35881E+00
 -1     22104 7.65633E+00
 -1     22105 9.35426E+00
 -1     22106 1.13314E+01
 -1     22107 1.41562E+01
 -1     22108 5.81139E+00
 -1     22109 6.33104E+00
 -1     22110 5.74358E+00
 -1     22111 5.08596E+00
 -1     22112 8.53221E+00
 -1     22113 4.29836E+00
 -1     22114 5.46842E+00
 -1     22115 1.48601E+01
 -1     22116 2.65088E+01
 -1     22117 1.83852E+01
 -1     22118 5.26674E+00
 -1     22119 5.53886E+00
 -1     22120 7.29849E+00
 -1     22121 7.71848E+00
 -1     22122 5.15804E+00
 -1     22123 1.48212E+01
 -1     22124 1.02816E+01
 -1     22125 1.03415E+01
 -1     22126 2.65088E+01
 -1     22127 5.38950E+00
 -1     22128 5.38950E+00
 -1     22129 1.27632E+01
 -1     22130 5.29466E+00
 -1     22131 7.90954E+00
 -1     22132 8.49387E+00
 -1     22133 7.71848E+00
 -1     22134 5.16684E+00
 -1     22135 5.00830E+00
 -1     22136 8.32196E+00
 -1     22137 7.50874E+00
 -1     22138 5.98809E+00
 -1     22139 5.02733E+00
 -1     22140 5.61651E+00
 -1     22141 6.90170E+00
 -1     22142 6.48279E+00
 -1     22143 1.51891E+01
 -1     22144 1.89793E+01
 -1     22145 7.11723E+00
 -1     22146 7.65583E+00
 -1     22147 5.13124E+00
 -1     22148 5.77533E+00
 -1     22149 8.49387E+00
 -1     22150 6.58342E+00
 -1     22151 5.93631E+00
 -1     22152 5.11256E+00
 -1     22153 6.87806E+00
 -1     22154 7.65546E+00
 -1     22155 7.71704E+00
 -1     22156 1.19188E+01
 -1     22157 1.01291E+01
 -1     22158 1.13766E+01
 -1     22159 9.04505E+00
 -1     22160 1.02964E+01
 -1     22161 1.19050E+01
 -1     22162 1.39845E+01
 -1     22163 6.43859E+00
 -1     22164 7.82575E+00
 -1     22165 7.36688E+00
 -1     22166 1.52171E+01
 -1     22167 2.06397E+01
 -1     22168 6.98688E+00
 -1     22169 1.02091E+01
 -1     22170 6.66829E+00
 -1     22171 1.45354E+01
 -1     22172 7.33013E+00
 -1     22173 8.32196E+00
 -1     22174 2.51102E+01
 -1     22175 6.81331E+00
 -1     22176 5.60184E+00
 -1     22177 5.21432E+00
 -1     22178 6.21941E+00
 -1     22179 1.63111E+01
 -1     22180 2.30361E+01
 -1     22181 8.00425E+00
 -1     22182 1.54989E+01
 -1     22183 5.65240E+00
 -1     22184 7.09297E+00
 -1     22185 1.19085E+01
 -1     22186 4.80340E+01
 -1     22187 4.28012E+01
 -1     22188 4.10000E+01
 -1     22189 4.44228E+01
 -1     22190 4.64770E+01
 -1     22191 4.28012E+01
 -1     22192 4.44228E+01
 -1     22193 3.06107E+01
 -1     22194 3.06107E+01
 -1     22195 2.67194E+01
 -1     22196 3.07771E+01
 -1     22197 1.48409E+01
 -1     22198 1.43645E+01
 -1     22199 2.07414E+01
 -1     22200 2.07414E+01
 -1     22201 1.96217E+01
 -1     22202 2.41620E+01
 -1     22203 2.65437E+01
 -1     22204 3.06401E+01
 -1     22205 3.06401E+01
 -1     22206 2.96186E+01
 -1     22207 3.37149E+01
 -1     22208 3.23205E+01
 -1     22209 3.90701E+01
 -1     22210 3.63353E+01
 -1     22211 3.83293E+01
 -1     22212 3.63958E+01
 -1     22213 3.65934E+01
 -1     22214 3.47020E+01
 -1     22215 4.61593E+01
 -1     22216 3.09182E+01
 -1     22217 3.06113E+01
 -1     22218 2.80387E+01
 -1     22219 1.21939E+01
 -1     22220 2.18703E+01
 -1     22221 1.11763E+01
 -1     22222 3.06107E+01
 -1     22223 3.63362E+01
 -1     22224 3.36573E+01
 -1     22225 1.05330E+01
 -1     22226 3.83904E+01
 -1     22227 3.55908E+01
 -1     22228 3.77297E+01
 -1     22229 3.74824E+01
 -1     22230 4.61593E+01
 -1     22231 3.88051E+01
 -1     22232 3.69137E+01
 -1     22233 3.03037E+01
 -1     22234 3.91253E+01
 -1     22235 3.47145E+01
 -1     22236 3.47145E+01
 -1     22237 2.37181E+01
 -1     22238 3.47145E+01
 -1     22239 3.28104E+01
 -1     22240 3.90701E+01
 -1     22241 2.45446E+01
 -1     22242 3.25029E+01
 -1     22243 2.77328E+01
 -1     22244 4.99708E+01
 -1     22245 5.34367E+01
 -1     22246 5.31939E+01
 -1     22247 5.34132E+01
 -1     22248 5.53982E+01
 -1     22249 5.05601E+01
 -1     22250 4.79429E+01
 -1     22251 4.03078E+01
 -1     22252 3.92566E+01
 -1     22253 1.70206E+01
 -1     22254 1.92051E+01
 -1     22255 5.65265E+00
 -1     22256 7.65290E+00
 -1     22257 3.36380E+00
 -1     22258 3.08751E+00
 -1     22259 4.55003E+00
 -1     22260 3.41610E+00
 -1     22261 5.79743E+00
 -1     22262 5.11026E+00
 -1     22263 4.82599E+00
 -1     22264 6.29312E+00
 -1     22265 8.26887E+00
 -1     22266 6.16449E+00
 -1     22267 1.95782E+01
 -1     22268 2.03565E+01
 -1     22269 1.93538E+01
 -1     22270 2.07578E+01
 -1     22271 4.36314E+01
 -1     22272 4.50692E+01
 -1     22273 4.78837E+01
 -1     22274 4.78837E+01
 -1     22275 4.40714E+01
 -1     22276 4.59637E+01
 -1     22277 4.76941E+01
 -1     22278 4.61255E+01
 -1     22279 4.43244E+01
 -1     22280 4.80340E+01
 -1     22281 4.62444E+01
 -1     22282 4.76941E+01
 -1     22283 5.14037E+01
 -1     22284 4.99348E+01
 -1     22285 4.29816E+01
 -1     22286 5.06850E+01
 -1     22287 3.59401E+01
 -1     22288 4.24826E+01
 -1     22289 1.35320E+01
 -1     22290 1.56014E+01
 -1     22291 1.88075E+01
 -1     22292 2.26009E+01
 -1     22293 9.13326E+00
 -1     22294 9.17776E+00
 -1     22295 9.81565E+00
 -1     22296 8.53472E+00
 -1     22297 6.09103E+00
 -1     22298 7.69630E+00
 -1     22299 3.70213E+00
 -1     22300 4.13854E+00
 -1     22301 3.15775E+00
 -1     22302 3.06163E+00
 -1     22303 3.08977E+00
 -1     22304 3.32674E+00
 -1     22305 1.43504E+01
 -1     22306 7.08131E+00
 -1     22307 4.38167E+01
 -1     22308 3.52919E+01
 -1     22309 4.53756E+01
 -1     22310 3.06960E+01
 -1     22311 2.96448E+01
 -1     22312 2.28184E+01
 -1     22313 1.53020E+01
 -1     22314 1.10877E+01
 -1     22315 9.36898E+00
 -1     22316 4.30884E+01
 -1     22317 4.51422E+01
 -1     22318 1.64197E+01
 -1     22319 7.65290E+00
 -1     22320 4.97209E+01
 -1     22321 3.08751E+00
 -1     22322 4.33027E+00
 -1     22323 3.48183E+00
 -1     22324 3.83042E+00
 -1     22325 4.59636E+00
 -1     22326 4.55003E+00
 -1     22327 6.29312E+00
 -1     22328 6.29312E+00
 -1     22329 4.88168E+00
 -1     22330 3.69279E+00
 -1     22331 1.43224E+01
 -1     22332 9.20692E+00
 -1     22333 1.97789E+01
 -1     22334 1.87999E+01
 -1     22335 3.65378E+01
 -1     22336 3.14905E+01
 -1     22337 2.04544E+01
 -1     22338 2.23614E+01
 -1     22339 3.89927E+01
 -1     22340 3.44892E+01
 -1     22341 8.56242E+00
 -1     22342 8.41963E+00
 -1     22343 8.16188E+00
 -1     22344 4.09742E+01
 -1     22345 5.03642E+01
 -1     22346 1.32958E+01
 -1     22347 1.33749E+01
 -1     22348 1.88619E+01
 -1     22349 1.82851E+01
 -1     22350 2.02755E+01
 -1     22351 1.68778E+01
 -1     22352 1.23496E+01
 -1     22353 1.61662E+01
 -1     22354 8.22164E+00
 -1     22355 9.29244E+00
 -1     22356 1.10368E+01
 -1     22357 4.42237E+00
 -1     22358 4.42237E+00
 -1     22359 3.63920E+00
 -1     22360 3.70213E+00
 -1     22361 3.53110E+00
 -1     22362 3.53110E+00
 -1     22363 6.85450E+00
 -1     22364 4.20745E+00
 -1     22365 2.67671E+01
 -1     22366 2.48283E+01
 -1     22367 4.29846E+01
 -1     22368 4.38167E+01
 -1     22369 4.61444E+00
 -1     22370 3.75868E+00
 -1     22371 4.09385E+00
 -1     22372 5.61733E+00
 -1     22373 4.97981E+00
 -1     22374 7.35028E+00
 -1     22375 1.95782E+01
 -1     22376 1.79755E+01
 -1     22377 9.81565E+00
 -1     22378 6.17586E+00
 -1     22379 3.93955E+00
 -1     22380 3.15775E+00
 -1     22381 4.24006E+00
 -1     22382 1.62893E+01
 -1     22383 4.38167E+01
 -1     22384 6.11301E+00
 -1     22385 5.12942E+00
 -1     22386 1.43224E+01
 -1     22387 1.97789E+01
 -1     22388 4.62077E+01
 -1     22389 4.30884E+01
 -1     22390 4.60775E+00
 -1     22391 4.15957E+00
 -1     22392 3.29206E+00
 -1     22393 4.07231E+01
 -1     22394 3.52919E+01
 -1     22395 5.58456E+00
 -1     22396 3.32674E+00
 -1     22397 3.36198E+00
 -1     22398 1.21623E+01
 -1     22399 4.22337E+00
 -1     22400 9.44067E+00
 -1     22401 4.77594E+01
 -1     22402 6.48309E+00
 -1     22403 5.96919E+00
 -1     22404 9.30886E+00
 -1     22405 1.29222E+01
 -1     22406 7.59017E+00
 -1     22407 4.30052E+00
 -1     22408 4.30052E+00
 -1     22409 3.03823E+00
 -1     22410 3.03823E+00
 -1     22411 6.97877E+00
 -1     22412 4.01670E+00
 -1     22413 4.08242E+00
 -1     22414 6.22055E+00
 -1     22415 7.35375E+00
 -1     22416 7.13052E+00
 -1     22417 7.70135E+00
 -1     22418 8.63940E+00
 -1     22419 1.78453E+01
 -1     22420 2.04867E+01
 -1     22421 1.97084E+01
 -1     22422 1.69483E+01
 -1     22423 1.59693E+01
 -1     22424 4.53685E+01
 -1     22425 2.18584E+01
 -1     22426 4.15367E+01
 -1     22427 3.30119E+01
 -1     22428 4.96141E+01
 -1     22429 8.57491E+00
 -1     22430 1.71844E+01
 -1     22431 5.06154E+01
 -1     22432 4.08242E+00
 -1     22433 3.61580E+00
 -1     22434 4.14732E+01
 -1     22435 8.57491E+00
 -1     22436 3.41158E+00
 -1     22437 5.64729E+00
 -1     22438 4.52960E+00
 -1     22439 2.34000E+01
 -1     22440 4.73396E+00
 -1     22441 4.53685E+01
 -1     22442 7.36336E+00
 -1     22443 5.03642E+01
 -1     22444 5.84771E+00
 -1     22445 1.18112E+01
 -1     22446 1.26381E+01
 -1     22447 2.04802E+01
 -1     22448 1.75146E+01
 -1     22449 1.66954E+01
 -1     22450 1.87144E+01
 -1     22451 2.04802E+01
 -1     22452 1.79596E+01
 -1     22453 1.46506E+01
 -1     22454 1.34684E+01
 -1     22455 1.83486E+01
 -1     22456 1.69508E+01
 -1     22457 4.00092E+01
 -1     22458 3.76945E+01
 -1     22459 3.50230E+01
 -1     22460 3.50230E+01
 -1     22461 3.66913E+01
 -1     22462 3.53656E+01
 -1     22463 5.05269E+01
 -1     22464 5.16757E+01
 -1     22465 5.42191E+01
 -1     22466 5.42191E+01
 -1     22467 4.95467E+01
 -1     22468 4.95467E+01
 -1     22469 5.60790E+01
 -1     22470 5.47005E+01
 -1     22471 5.57653E+01
 -1     22472 5.35708E+01
 -1     22473 5.62899E+01
 -1     22474 5.76053E+01
 -1     22475 5.64348E+01
 -1     22476 5.82748E+01
 -1     22477 5.80320E+01
 -1     22478 5.79787E+01
 -1     22479 5.77891E+01
 -1     22480 5.80320E+01
 -1     22481 5.79787E+01
 -1     22482 5.79787E+01
 -1     22483 5.33394E+01
 -1     22484 5.61531E+01
 -1     22485 5.32691E+01
 -1     22486 5.43099E+01
 -1     22487 5.23771E+01
 -1     22488 5.12306E+01
 -1     22489 5.29321E+01
 -1     22490 5.54725E+01
 -1     22491 3.73369E+01
 -1     22492 4.23574E+01
 -1     22493 3.96502E+01
 -1     22494 3.91300E+01
 -1     22495 4.66709E+01
 -1     22496 3.87133E+01
 -1     22497 3.65611E+01
 -1     22498 3.94610E+01
 -1     22499 2.37350E+01
 -1     22500 2.84053E+01
 -1     22501 1.80480E+01
 -1     22502 1.71631E+01
 -1     22503 1.73696E+01
 -1     22504 1.02680E+01
 -1     22505 1.46506E+01
 -1     22506 1.41720E+01
 -1     22507 2.29058E+01
 -1     22508 2.03828E+01
 -1     22509 2.92111E+01
 -1     22510 1.34684E+01
 -1     22511 1.81191E+01
 -1     22512 1.30468E+01
 -1     22513 3.34233E+01
 -1     22514 1.88738E+01
 -1     22515 4.31043E+01
 -1     22516 4.19044E+01
 -1     22517 3.36536E+01
 -1     22518 3.54153E+01
 -1     22519 4.76521E+01
 -1     22520 4.14711E+01
 -1     22521 5.15825E+01
 -1     22522 4.93248E+01
 -1     22523 5.20500E+01
 -1     22524 5.46739E+01
 -1     22525 5.52946E+01
 -1     22526 5.39161E+01
 -1     22527 5.17407E+01
 -1     22528 5.24848E+01
 -1     22529 4.55000E+01
 -1     22530 4.72661E+01
 -1     22531 4.72661E+01
 -1     22532 5.59635E+01
 -1     22533 5.24699E+01
 -1     22534 5.32709E+01
 -1     22535 5.47267E+01
 -1     22536 5.47267E+01
 -1     22537 5.04436E+01
 -1     22538 4.97479E+01
 -1     22539 3.71687E+01
 -1     22540 3.71687E+01
 -1     22541 3.42106E+01
 -1     22542 3.96502E+01
 -1     22543 4.23245E+01
 -1     22544 4.61840E+01
 -1     22545 2.98516E+01
 -1     22546 3.00770E+01
 -1     22547 1.59391E+01
 -1     22548 1.91183E+01
 -1     22549 1.56325E+01
 -1     22550 1.87719E+01
 -1     22551 4.38019E+01
 -1     22552 2.99268E+01
 -1     22553 3.85228E+01
 -1     22554 5.01479E+01
 -1     22555 5.46739E+01
 -1     22556 5.34362E+01
 -1     22557 3.76656E+01
 -1     22558 4.61840E+01
 -1     22559 3.34862E+01
 -1     22560 1.94928E+01
 -1     22561 1.80480E+01
 -1     22562 5.15825E+01
 -1     22563 5.26254E+01
 -1     22564 5.27792E+01
 -1     22565 2.55559E+01
 -1     22566 1.61001E+01
 -1     22567 2.05090E+01
 -1     22568 1.90333E+01
 -1     22569 4.73263E+01
 -1     22570 3.20310E+01
 -1     22571 3.76158E+01
 -1     22572 4.28337E+01
 -1     22573 4.65241E+01
 -1     22574 4.21683E+01
 -1     22575 5.58746E+01
 -1     22576 3.57043E+01
 -1     22577 4.21657E+01
 -1     22578 3.39113E+01
 -1     22579 2.06397E+01
 -1     22580 4.27147E+01
 -1     22581 3.86911E+01
 -1     22582 1.53509E+01
 -1     22583 1.99676E+01
 -1     22584 2.45248E+01
 -1     22585 4.09384E+01
 -1     22586 4.38019E+01
 -1     22587 3.85228E+01
 -1     22588 3.37430E+01
 -1     22589 3.81027E+01
 -1     22590 4.61840E+01
 -1     22591 4.95989E+01
 -1     22592 5.08009E+01
 -1     22593 3.57043E+01
 -1     22594 3.39924E+01
 -1     22595 5.51288E+01
 -1     22596 5.46739E+01
 -1     22597 5.26254E+01
 -1     22598 5.02759E+01
 -1     22599 5.23162E+01
 -1     22600 3.36001E+01
 -1     22601 4.62956E+01
 -1     22602 5.51084E+01
 -1     22603 5.61920E+01
 -1     22604 1.89026E+01
 -1     22605 2.59710E+01
 -1     22606 3.39924E+01
 -1     22607 4.56971E+01
 -1     22608 5.54198E+01
 -1     22609 3.24551E+01
 -1     22610 5.43663E+01
 -1     22611 1.25720E+01
 -1     22612 1.37961E+01
 -1     22613 1.89026E+01
 -1     22614 5.27832E+01
 -1     22615 1.81787E+01
 -1     22616 2.39552E+01
 -1     22617 2.12567E+01
 -1     22618 2.05204E+01
 -1     22619 2.61072E+01
 -1     22620 7.02322E+00
 -1     22621 8.11123E+00
 -1     22622 5.55922E+00
 -1     22623 7.14777E+00
 -1     22624 5.46391E+00
 -1     22625 5.67959E+00
 -1     22626 5.60669E+00
 -1     22627 5.14760E+00
 -1     22628 5.96166E+00
 -1     22629 5.62122E+00
 -1     22630 7.34125E+00
 -1     22631 6.79455E+00
 -1     22632 9.73128E+00
 -1     22633 9.93730E+00
 -1     22634 1.11749E+01
 -1     22635 1.01317E+01
 -1     22636 6.26472E+00
 -1     22637 7.94564E+00
 -1     22638 1.18230E+01
 -1     22639 8.03880E+00
 -1     22640 9.19190E+00
 -1     22641 9.83173E+00
 -1     22642 1.68050E+01
 -1     22643 1.17053E+01
 -1     22644 1.35961E+01
 -1     22645 1.58981E+01
 -1     22646 1.31189E+01
 -1     22647 1.16119E+01
 -1     22648 1.07871E+01
 -1     22649 1.62309E+01
 -1     22650 1.71157E+01
 -1     22651 2.68791E+01
 -1     22652 2.22089E+01
 -1     22653 3.89518E+01
 -1     22654 3.60519E+01
 -1     22655 3.25719E+01
 -1     22656 4.05295E+01
 -1     22657 4.27126E+01
 -1     22658 4.32329E+01
 -1     22659 5.06353E+01
 -1     22660 4.56148E+01
 -1     22661 5.37045E+01
 -1     22662 5.11641E+01
 -1     22663 5.37953E+01
 -1     22664 5.49418E+01
 -1     22665 5.32698E+01
 -1     22666 5.22290E+01
 -1     22667 5.81683E+01
 -1     22668 5.81683E+01
 -1     22669 4.84231E+01
 -1     22670 5.57553E+01
 -1     22671 5.57553E+01
 -1     22672 4.77474E+01
 -1     22673 2.69625E+01
 -1     22674 3.54873E+01
 -1     22675 1.01840E+01
 -1     22676 1.74531E+01
 -1     22677 4.54272E+00
 -1     22678 4.30574E+00
 -1     22679 3.56560E+00
 -1     22680 3.66172E+00
 -1     22681 5.06742E+00
 -1     22682 4.63102E+00
 -1     22683 7.55130E+00
 -1     22684 5.94603E+00
 -1     22685 8.73864E+00
 -1     22686 1.00196E+01
 -1     22687 1.08878E+01
 -1     22688 1.08433E+01
 -1     22689 2.42254E+01
 -1     22690 2.04320E+01
 -1     22691 2.80888E+01
 -1     22692 2.60193E+01
 -1     22693 3.93110E+01
 -1     22694 3.27684E+01
 -1     22695 4.95352E+01
 -1     22696 4.80663E+01
 -1     22697 5.31933E+01
 -1     22698 4.21809E+01
 -1     22699 4.95352E+01
 -1     22700 3.90187E+01
 -1     22701 3.62383E+01
 -1     22702 2.83500E+01
 -1     22703 3.10849E+01
 -1     22704 2.74751E+01
 -1     22705 1.91967E+01
 -1     22706 2.20532E+01
 -1     22707 2.00052E+01
 -1     22708 2.05204E+01
 -1     22709 7.14777E+00
 -1     22710 7.14777E+00
 -1     22711 5.67959E+00
 -1     22712 4.80516E+00
 -1     22713 5.14760E+00
 -1     22714 5.50267E+00
 -1     22715 5.65073E+00
 -1     22716 5.46900E+00
 -1     22717 5.80249E+00
 -1     22718 5.96166E+00
 -1     22719 8.41042E+00
 -1     22720 8.95884E+00
 -1     22721 9.53904E+00
 -1     22722 9.73128E+00
 -1     22723 1.11749E+01
 -1     22724 1.11749E+01
 -1     22725 6.18446E+00
 -1     22726 5.41244E+00
 -1     22727 1.17553E+01
 -1     22728 1.17553E+01
 -1     22729 1.28434E+01
 -1     22730 1.44425E+01
 -1     22731 1.36845E+01
 -1     22732 1.49430E+01
 -1     22733 1.07284E+01
 -1     22734 1.24933E+01
 -1     22735 1.39763E+01
 -1     22736 1.22704E+01
 -1     22737 1.31189E+01
 -1     22738 1.53474E+01
 -1     22739 1.45761E+01
 -1     22740 1.71157E+01
 -1     22741 1.73750E+01
 -1     22742 1.85265E+01
 -1     22743 3.31519E+01
 -1     22744 3.29265E+01
 -1     22745 4.28114E+01
 -1     22746 3.89518E+01
 -1     22747 3.89616E+01
 -1     22748 3.35220E+01
 -1     22749 4.16386E+01
 -1     22750 4.16386E+01
 -1     22751 4.99396E+01
 -1     22752 5.06353E+01
 -1     22753 5.49418E+01
 -1     22754 5.49418E+01
 -1     22755 5.12454E+01
 -1     22756 5.20315E+01
 -1     22757 5.53546E+01
 -1     22758 5.25409E+01
 -1     22759 8.27345E+00
 -1     22760 1.01062E+01
 -1     22761 5.62640E+00
 -1     22762 4.72114E+01
 -1     22763 4.63793E+01
 -1     22764 2.28895E+01
 -1     22765 2.48283E+01
 -1     22766 6.87499E+00
 -1     22767 5.19742E+01
 -1     22768 3.86223E+00
 -1     22769 3.86223E+00
 -1     22770 4.84051E+00
 -1     22771 4.77757E+00
 -1     22772 5.21619E+00
 -1     22773 5.21619E+00
 -1     22774 1.00602E+01
 -1     22775 8.31581E+00
 -1     22776 1.08433E+01
 -1     22777 1.04428E+01
 -1     22778 1.57420E+01
 -1     22779 1.19254E+01
 -1     22780 1.90190E+01
 -1     22781 2.45850E+01
 -1     22782 3.05639E+01
 -1     22783 2.84779E+01
 -1     22784 4.74030E+01
 -1     22785 3.96997E+01
 -1     22786 1.93583E+01
 -1     22787 4.15176E+01
 -1     22788 4.52138E+01
 -1     22789 2.43418E+01
 -1     22790 4.11625E+01
 -1     22791 3.96263E+01
 -1     22792 3.83293E+01
 -1     22793 4.02628E+01
 -1     22794 2.20110E+01
 -1     22795 2.82508E+01
 -1     22796 2.68564E+01
 -1     22797 6.20529E+00
 -1     22798 7.71341E+00
 -1     22799 1.93333E+01
 -1     22800 3.12523E+01
 -1     22801 7.58886E+00
 -1     22802 6.95935E+00
 -1     22803 6.24405E+00
 -1     22804 6.14511E+00
 -1     22805 5.94841E+00
 -1     22806 9.55014E+00
 -1     22807 1.42215E+01
 -1     22808 1.54068E+01
 -1     22809 8.09590E+00
 -1     22810 1.08846E+01
 -1     22811 1.22204E+01
 -1     22812 1.33329E+01
 -1     22813 1.47954E+01
 -1     22814 2.71046E+01
 -1     22815 3.89518E+01
 -1     22816 3.53382E+01
 -1     22817 4.37569E+01
 -1     22818 5.06353E+01
 -1     22819 5.43217E+01
 -1     22820 5.37953E+01
 -1     22821 5.32698E+01
 -1     22822 2.50237E+01
 -1     22823 4.87385E+00
 -1     22824 5.00432E+00
 -1     22825 5.94608E+00
 -1     22826 8.31904E+00
 -1     22827 1.07065E+01
 -1     22828 1.34482E+01
 -1     22829 2.42254E+01
 -1     22830 3.89749E+01
 -1     22831 4.41618E+01
 -1     22832 3.90187E+01
 -1     22833 2.42803E+01
 -1     22834 6.28281E+00
 -1     22835 5.97792E+00
 -1     22836 6.94048E+00
 -1     22837 1.26946E+01
 -1     22838 1.48142E+01
 -1     22839 1.21775E+01
 -1     22840 9.09796E+00
 -1     22841 8.89340E+00
 -1     22842 1.63329E+01
 -1     22843 1.36845E+01
 -1     22844 1.45761E+01
 -1     22845 3.60519E+01
 -1     22846 4.66591E+01
 -1     22847 5.18599E+01
 -1     22848 5.55590E+01
 -1     22849 5.30151E+01
 -1     22850 5.53546E+01
 -1     22851 1.74531E+01
 -1     22852 6.82469E+00
 -1     22853 9.04294E+00
 -1     22854 1.24106E+01
 -1     22855 1.91757E+01
 -1     22856 3.15854E+01
 -1     22857 4.15686E+01
 -1     22858 4.52138E+01
 -1     22859 3.30183E+01
 -1     22860 4.05596E+01
 -1     22861 3.66700E+01
 -1     22862 3.88821E+01
 -1     22863 6.00681E+00
 -1     22864 3.99285E+00
 -1     22865 7.34099E+00
 -1     22866 7.21643E+00
 -1     22867 4.45505E+01
 -1     22868 7.17114E+00
 -1     22869 7.92520E+00
 -1     22870 1.89318E+01
 -1     22871 2.08339E+01
 -1     22872 6.96542E+00
 -1     22873 6.92666E+00
 -1     22874 7.71341E+00
 -1     22875 7.71341E+00
 -1     22876 7.34099E+00
 -1     22877 7.92520E+00
 -1     22878 8.14860E+00
 -1     22879 8.28630E+00
 -1     22880 6.96358E+00
 -1     22881 6.96358E+00
 -1     22882 9.94460E+00
 -1     22883 8.32701E+00
 -1     22884 1.42215E+01
 -1     22885 1.42215E+01
 -1     22886 1.54068E+01
 -1     22887 1.54068E+01
 -1     22888 6.64659E+00
 -1     22889 7.49887E+00
 -1     22890 1.08846E+01
 -1     22891 1.09523E+01
 -1     22892 1.51838E+01
 -1     22893 9.93328E+00
 -1     22894 1.47399E+01
 -1     22895 1.66020E+01
 -1     22896 1.36926E+01
 -1     22897 2.18511E+01
 -1     22898 1.58038E+01
 -1     22899 1.54596E+01
 -1     22900 3.65683E+01
 -1     22901 3.65683E+01
 -1     22902 1.73750E+01
 -1     22903 1.36926E+01
 -1     22904 1.36926E+01
 -1     22905 1.21214E+01
 -1     22906 4.66591E+01
 -1     22907 4.26828E+01
 -1     22908 3.53382E+01
 -1     22909 3.43881E+01
 -1     22910 3.65337E+01
 -1     22911 4.82578E+01
 -1     22912 4.37569E+01
 -1     22913 4.48309E+01
 -1     22914 4.37569E+01
 -1     22915 2.90097E+01
 -1     22916 3.12916E+01
 -1     22917 2.89081E+01
 -1     22918 2.90097E+01
 -1     22919 5.00045E+01
 -1     22920 4.87800E+01
 -1     22921 5.55590E+01
 -1     22922 5.55590E+01
 -1     22923 5.06268E+01
 -1     22924 4.96433E+01
 -1     22925 5.75824E+01
 -1     22926 5.47687E+01
 -1     22927 1.36264E+01
 -1     22928 1.90628E+01
 -1     22929 5.51694E+01
 -1     22930 5.75824E+01
 -1     22931 5.69965E+01
 -1     22932 5.38013E+01
 -1     22933 7.16084E+00
 -1     22934 7.37033E+00
 -1     22935 5.98147E+00
 -1     22936 6.66196E+00
 -1     22937 9.67661E+00
 -1     22938 8.94677E+00
 -1     22939 6.96666E+00
 -1     22940 8.28732E+00
 -1     22941 8.07429E+00
 -1     22942 7.30961E+00
 -1     22943 7.16084E+00
 -1     22944 1.01615E+01
 -1     22945 1.01427E+01
 -1     22946 1.01833E+01
 -1     22947 1.31652E+01
 -1     22948 1.31652E+01
 -1     22949 2.14722E+01
 -1     22950 1.67822E+01
 -1     22951 3.55258E+01
 -1     22952 2.85254E+01
 -1     22953 4.05130E+01
 -1     22954 3.83084E+01
 -1     22955 4.41618E+01
 -1     22956 4.37731E+01
 -1     22957 4.05130E+01
 -1     22958 4.41618E+01
 -1     22959 3.90187E+01
 -1     22960 3.77746E+01
 -1     22961 1.05397E+01
 -1     22962 2.24336E+01
 -1     22963 1.02918E+01
 -1     22964 2.02334E+01
 -1     22965 2.17270E+01
 -1     22966 4.07738E+01
 -1     22967 2.16095E+01
 -1     22968 4.07586E+01
 -1     22969 3.64873E+01
 -1     22970 3.55372E+01
 -1     22971 4.07586E+01
 -1     22972 7.17114E+00
 -1     22973 7.17114E+00
 -1     22974 8.13700E+00
 -1     22975 7.89252E+00
 -1     22976 8.28630E+00
 -1     22977 8.28630E+00
 -1     22978 8.96891E+00
 -1     22979 1.02898E+01
 -1     22980 6.21630E+00
 -1     22981 5.00432E+00
 -1     22982 7.37033E+00
 -1     22983 3.12523E+01
 -1     22984 3.12523E+01
 -1     22985 2.24336E+01
 -1     22986 1.15508E+01
 -1     22987 1.15508E+01
 -1     22988 1.21434E+01
 -1     22989 4.07738E+01
 -1     22990 7.33494E+00
 -1     22991 8.35011E+00
 -1     22992 8.32701E+00
 -1     22993 7.24018E+00
 -1     22994 7.26968E+00
 -1     22995 8.72147E+00
 -1     22996 9.41087E+00
 -1     22997 1.26946E+01
 -1     22998 1.11677E+01
 -1     22999 1.21434E+01
 -1     23000 8.24512E+00
 -1     23001 1.14744E+01
 -1     23002 1.09523E+01
 -1     23003 9.09796E+00
 -1     23004 7.83019E+00
 -1     23005 9.75378E+00
 -1     23006 1.66020E+01
 -1     23007 1.77400E+01
 -1     23008 4.81614E+01
 -1     23009 4.41851E+01
 -1     23010 4.81614E+01
 -1     23011 1.37821E+01
 -1     23012 1.15685E+01
 -1     23013 1.47954E+01
 -1     23014 2.71075E+01
 -1     23015 1.58067E+01
 -1     23016 3.00075E+01
 -1     23017 5.30844E+01
 -1     23018 5.00045E+01
 -1     23019 5.43217E+01
 -1     23020 2.48327E+01
 -1     23021 3.42084E+01
 -1     23022 2.26984E+01
 -1     23023 9.94460E+00
 -1     23024 4.63060E+01
 -1     23025 5.14529E+01
 -1     23026 5.52340E+01
 -1     23027 5.52340E+01
 -1     23028 5.34703E+01
 -1     23029 1.48376E+01
 -1     23030 5.43217E+01
 -1     23031 5.10820E+01
 -1     23032 5.37864E+01
 -1     23033 5.45153E+01
 -1     23034 1.88718E+01
 -1     23035 8.91358E+00
 -1     23036 1.08241E+01
 -1     23037 4.49827E+00
 -1     23038 6.28638E+00
 -1     23039 4.29776E+00
 -1     23040 8.52436E+00
 -1     23041 9.00526E+00
 -1     23042 1.11730E+01
 -1     23043 1.23134E+01
 -1     23044 1.28771E+01
 -1     23045 1.04411E+01
 -1     23046 9.67661E+00
 -1     23047 1.36317E+01
 -1     23048 1.17987E+01
 -1     23049 1.53078E+01
 -1     23050 1.42703E+01
 -1     23051 2.68136E+01
 -1     23052 2.64539E+01
 -1     23053 2.40604E+01
 -1     23054 3.07540E+01
 -1     23055 3.77535E+01
 -1     23056 3.73643E+01
 -1     23057 3.43044E+01
 -1     23058 3.66979E+01
 -1     23059 5.50974E+00
 -1     23060 3.06775E+01
 -1     23061 3.79219E+01
 -1     23062 1.90562E+01
 -1     23063 2.09861E+01
 -1     23064 1.40756E+01
 -1     23065 1.80090E+01
 -1     23066 2.76240E+01
 -1     23067 1.14744E+01
 -1     23068 1.55761E+01
 -1     23069 3.66778E+01
 -1     23070 1.50248E+01
 -1     23071 2.09861E+01
 -1     23072 1.24339E+01
 -1     23073 5.11435E+01
 -1     23074 1.54529E+01
 -1     23075 9.82143E+00
 -1     23076 8.50093E+00
 -1     23077 1.07937E+01
 -1     23078 8.25534E+00
 -1     23079 1.09523E+01
 -1     23080 1.26946E+01
 -1     23081 6.79582E+00
 -1     23082 1.26793E+01
 -1     23083 5.60142E+01
 -1     23084 1.15409E+01
 -1     23085 1.76043E+01
 -1     23086 2.66306E+01
 -1     23087 8.53194E+00
 -1     23088 9.41087E+00
 -1     23089 1.00078E+01
 -1     23090 1.00078E+01
 -1     23091 9.08933E+00
 -1     23092 9.08933E+00
 -1     23093 6.48405E+00
 -1     23094 7.23031E+00
 -1     23095 1.29944E+01
 -1     23096 9.73098E+00
 -1     23097 3.75137E+01
 -1     23098 1.11082E+01
 -1     23099 1.41516E+01
 -1     23100 1.20485E+01
 -1     23101 1.19927E+01
 -1     23102 1.04659E+01
 -1     23103 9.92008E+00
 -1     23104 7.46872E+00
 -1     23105 7.90320E+00
 -1     23106 8.97558E+00
 -1     23107 1.20485E+01
 -1     23108 1.31793E+01
 -1     23109 1.54064E+01
 -1     23110 2.91790E+01
 -1     23111 2.26182E+01
 -1     23112 3.58769E+01
 -1     23113 3.43746E+01
 -1     23114 4.55145E+01
 -1     23115 4.45323E+01
 -1     23116 7.50948E+00
 -1     23117 1.14418E+01
 -1     23118 9.02940E+00
 -1     23119 7.19771E+00
 -1     23120 4.21130E+01
 -1     23121 4.59400E+01
 -1     23122 1.88709E+01
 -1     23123 1.36145E+01
 -1     23124 1.41724E+01
 -1     23125 2.04260E+01
 -1     23126 4.48955E+01
 -1     23127 4.18156E+01
 -1     23128 4.62068E+01
 -1     23129 4.23183E+01
 -1     23130 3.71763E+01
 -1     23131 3.57071E+01
 -1     23132 3.46497E+01
 -1     23133 3.57237E+01
 -1     23134 2.63414E+01
 -1     23135 1.89717E+01
 -1     23136 1.78667E+01
 -1     23137 3.39107E+01
 -1     23138 4.56117E+01
 -1     23139 1.73439E+01
 -1     23140 1.34550E+01
 -1     23141 1.37128E+01
 -1     23142 1.03125E+01
 -1     23143 9.08933E+00
 -1     23144 9.45718E+00
 -1     23145 9.61058E+00
 -1     23146 4.66134E+01
 -1     23147 4.66134E+01
 -1     23148 3.51315E+01
 -1     23149 4.10698E+01
 -1     23150 6.67692E+00
 -1     23151 8.16012E+00
 -1     23152 9.12646E+00
 -1     23153 7.97243E+00
 -1     23154 1.32778E+01
 -1     23155 1.32778E+01
 -1     23156 1.51919E+01
 -1     23157 1.05735E+01
 -1     23158 8.93638E+00
 -1     23159 1.20526E+01
 -1     23160 3.19882E+01
 -1     23161 3.30849E+01
 -1     23162 3.55749E+01
 -1     23163 3.49563E+01
 -1     23164 2.51458E+01
 -1     23165 3.04659E+01
 -1     23166 9.12646E+00
 -1     23167 9.12646E+00
 -1     23168 9.72856E+00
 -1     23169 9.53848E+00
 -1     23170 1.47396E+01
 -1     23171 1.44515E+01
 -1     23172 1.86865E+01
 -1     23173 6.49064E+00
 -1     23174 5.78408E+00
 -1     23175 7.65782E+00
 -1     23176 8.24677E+00
 -1     23177 1.44492E+01
 -1     23178 1.77724E+01
 -1     23179 9.73098E+00
 -1     23180 1.24017E+01
 -1     23181 1.05819E+01
 -1     23182 2.04324E+01
 -1     23183 1.90562E+01
 -1     23184 1.24339E+01
 -1     23185 1.52362E+01
 -1     23186 8.62848E+00
 -1     23187 8.25712E+00
 -1     23188 8.99634E+00
 -1     23189 1.85140E+01
 -1     23190 1.85140E+01
 -1     23191 1.78489E+01
 -1     23192 1.36150E+01
 -1     23193 2.24336E+01
 -1     23194 1.77724E+01
 -1     23195 8.43114E+00
 -1     23196 8.73584E+00
 -1     23197 8.82168E+00
 -1     23198 2.50665E+01
 -1     23199 1.48003E+01
 -1     23200 1.62479E+01
 -1     23201 5.11693E+01
 -1     23202 5.14943E+01
 -1     23203 4.22003E+01
 -1     23204 8.52331E+00
 -1     23205 9.14958E+00
 -1     23206 8.88016E+00
 -1     23207 4.82040E+01
 -1     23208 4.69666E+01
 -1     23209 3.87777E+01
 -1     23210 4.41392E+01
 -1     23211 1.55761E+01
 -1     23212 1.22348E+01
 -1     23213 1.02898E+01
 -1     23214 1.02898E+01
 -1     23215 9.41087E+00
 -1     23216 2.96201E+01
 -1     23217 2.84710E+01
 -1     23218 9.76863E+00
 -1     23219 8.44775E+00
 -1     23220 9.76863E+00
 -1     23221 1.19519E+01
 -1     23222 1.44492E+01
 -1     23223 2.19299E+01
 -1     23224 1.48216E+01
 -1     23225 2.15946E+01
 -1     23226 2.02185E+01
 -1     23227 3.77034E+01
 -1     23228 3.74426E+01
 -1     23229 1.01730E+01
 -1     23230 8.20381E+00
 -1     23231 8.48041E+00
 -1     23232 2.91790E+01
 -1     23233 2.41732E+01
 -1     23234 2.39023E+01
 -1     23235 3.39107E+01
 -1     23236 4.53141E+01
 -1     23237 3.02751E+01
 -1     23238 2.18427E+01
 -1     23239 2.46846E+01
 -1     23240 2.33171E+01
 -1     23241 8.44775E+00
 -1     23242 8.69224E+00
 -1     23243 9.24747E+00
 -1     23244 1.64058E+01
 -1     23245 1.38497E+01
 -1     23246 8.70620E+00
 -1     23247 8.70620E+00
 -1     23248 9.26143E+00
 -1     23249 2.65557E+01
 -1     23250 2.11773E+01
 -1     23251 2.14483E+01
 -1     23252 2.06386E+01
 -1     23253 4.07722E+01
 -1     23254 1.96565E+01
 -1     23255 1.34550E+01
 -1     23256 1.56269E+01
 -1     23257 1.44852E+01
 -1     23258 2.91690E+01
 -1     23259 2.55761E+01
 -1     23260 3.15337E+01
 -1     23261 2.98219E+01
 -1     23262 2.94307E+01
 -1     23263 2.44489E+01
 -1     23264 2.86874E+01
 -1     23265 3.02104E+01
 -1     23266 8.48041E+00
 -1     23267 3.02751E+01
 -1     23268 8.48219E+00
 -1     23269 3.44799E+01
 -1     23270 3.04076E+01
 -1     23271 2.33415E+01
 -1     23272 2.53728E+01
 -1     23273 3.68876E+01
 -1     23274 1.51045E+01
 -1     23275 1.69108E+01
 -1     23276 3.24658E+01
 -1     23277 3.15337E+01
 -1     23278 3.43044E+01
 -1     23279 1.55932E+01
 -1     23280 1.98295E+01
 -1     23281 2.09917E+01
 -1     23282 1.50869E+01
 -1     23283 1.53887E+01
 -1     23284 1.01730E+01
 -1     23285 9.76398E+00
 -1     23286 3.51315E+01
 -1     23287 3.40326E+01
 -1     23288 3.96733E+01
 -1     23289 9.23008E+00
 -1     23290 9.17677E+00
 -1     23291 3.50490E+01
 -1     23292 2.09470E+01
 -1     23293 2.12221E+01
 -1     23294 2.15961E+01
 -1     23295 8.45307E+00
 -1     23296 8.24127E+00
 -1     23297 9.02226E+00
 -1     23298 1.64919E+01
 -1     23299 1.64919E+01
 -1     23300 1.64743E+01
 -1     23301 2.46846E+01
 -1     23302 2.18136E+01
 -1     23303 1.53713E+01
 -1     23304 1.49363E+01
 -1     23305 2.02883E+01
 -1     23306 1.71612E+01
 -1     23307 2.02883E+01
 -1     23308 1.41320E+01
 -1     23309 1.14277E+01
 -1     23310 1.43113E+01
 -1     23311 8.94230E+00
 -1     23312 8.99384E+00
 -1     23313 9.69020E+00
 -1     23314 1.90536E+01
 -1     23315 9.18828E+00
 -1     23316 1.24726E+01
 -1     23317 1.61470E+01
 -1     23318 1.61807E+01
 -1     23319 1.77487E+01
 -1     23320 2.15840E+01
 -1     23321 3.66229E+01
 -1     23322 1.88203E+01
 -1     23323 1.54759E+01
 -1     23324 1.23044E+01
 -1     23325 1.65615E+01
 -1     23326 1.53495E+01
 -1     23327 1.89121E+01
 -1     23328 1.47547E+01
 -1     23329 1.61910E+01
 -1     23330 1.61910E+01
 -1     23331 1.59354E+01
 -1     23332 1.67448E+01
 -1     23333 9.13532E+00
 -1     23334 9.40633E+00
 -1     23335 1.84671E+01
 -1     23336 2.10999E+01
 -1     23337 1.96068E+01
 -1     23338 3.84001E+01
 -1     23339 4.36294E+01
 -1     23340 9.69496E+00
 -1     23341 9.48243E+00
 -1     23342 1.00086E+01
 -1     23343 2.41732E+01
 -1     23344 2.15961E+01
 -1     23345 1.94879E+01
 -1     23346 2.41732E+01
 -1     23347 9.93648E+00
 -1     23348 9.68335E+00
 -1     23349 2.94789E+01
 -1     23350 2.32382E+01
 -1     23351 9.04792E+00
 -1     23352 9.92684E+00
 -1     23353 9.50981E+00
 -1     23354 1.01983E+01
 -1     23355 1.07829E+01
 -1     23356 9.30541E+00
 -1     23357 1.05819E+01
 -1     23358 1.01730E+01
 -1     23359 1.05819E+01
 -1     23360 3.30138E+01
 -1     23361 3.23672E+01
 -1     23362 3.19760E+01
 -1     23363 9.70916E+00
 -1     23364 9.55576E+00
 -1     23365 9.70916E+00
 -1     23366 6.67472E+00
 -1     23367 6.95389E+00
 -1     23368 9.06330E+00
 -1     23369 8.97558E+00
 -1     23370 1.23044E+01
 -1     23371 2.33415E+01
 -1     23372 2.25540E+01
 -1     23373 9.93648E+00
 -1     23374 1.05976E+01
 -1     23375 9.92252E+00
 -1     23376 9.48264E+00
 -1     23377 1.01772E+01
 -1     23378 9.94348E+00
 -1     23379 8.18470E+00
 -1     23380 7.20003E+00
 -1     23381 8.27241E+00
 -1     23382 1.05865E+01
 -1     23383 1.07766E+01
 -1     23384 1.26658E+01
 -1     23385 2.18057E+01
 -1     23386 1.66864E+01
 -1     23387 2.08852E+01
 -1     23388 3.20419E+01
 -1     23389 2.48142E+01
 -1     23390 3.41131E+01
 -1     23391 7.06117E+00
 -1     23392 8.61369E+00
 -1     23393 8.61369E+00
 -1     23394 6.53818E+00
 -1     23395 8.81553E+00
 -1     23396 1.53959E+01
 -1     23397 9.72974E+00
 -1     23398 2.36959E+01
 -1     23399 2.54611E+01
 -1     23400 3.11276E+01
 -1     23401 3.28021E+01
 -1     23402 3.11276E+01
 -1     23403 3.54279E+01
 -1     23404 3.52226E+01
 -1     23405 3.66517E+01
 -1     23406 3.08485E+01
 -1     23407 4.53141E+01
 -1     23408 4.53141E+01
 -1     23409 1.10786E+01
 -1     23410 1.10786E+01
 -1     23411 1.21266E+01
 -1     23412 1.97722E+01
 -1     23413 2.75556E+01
 -1     23414 2.46846E+01
 -1     23415 2.86874E+01
 -1     23416 9.94348E+00
 -1     23417 9.94348E+00
 -1     23418 1.00421E+01
 -1     23419 2.82803E+01
 -1     23420 3.66229E+01
 -1     23421 6.95622E+00
 -1     23422 2.12729E+01
 -1     23423 1.00031E+01
 -1     23424 2.19299E+01
 -1     23425 2.19299E+01
 -1     23426 1.89121E+01
 -1     23427 1.53959E+01
 -1     23428 1.04479E+01
 -1     23429 8.96611E+00
 -1     23430 1.17980E+01
 -1     23431 3.23672E+01
 -1     23432 3.41327E+01
 -1     23433 3.32993E+01
 -1     23434 1.04298E+01
 -1     23435 3.96733E+01
 -1     23436 3.28988E+01
 -1     23437 2.37556E+01
 -1     23438 2.25118E+01
 -1     23439 2.17243E+01
 -1     23440 1.83611E+01
 -1     23441 3.03156E+01
 -1     23442 3.75556E+01
 -1     23443 3.42652E+01
 -1     23444 2.75294E+01
 -1     23445 3.37554E+01
 -1     23446 1.01809E+01
 -1     23447 9.65970E+00
 -1     23448 9.81791E+00
 -1     23449 2.33192E+01
 -1     23450 2.12729E+01
 -1     23451 1.09805E+01
 -1     23452 1.09805E+01
 -1     23453 1.02150E+01
 -1     23454 9.80273E+00
 -1     23455 1.97722E+01
 -1     23456 1.13796E+01
 -1     23457 1.15226E+01
 -1     23458 3.06634E+01
 -1     23459 3.93545E+01
 -1     23460 1.08531E+01
 -1     23461 1.04441E+01
 -1     23462 2.57423E+01
 -1     23463 9.80273E+00
 -1     23464 1.98982E+01
 -1     23465 1.69511E+01
 -1     23466 1.80543E+01
 -1     23467 2.05426E+01
 -1     23468 1.86272E+01
 -1     23469 2.05426E+01
 -1     23470 3.93545E+01
 -1     23471 3.37138E+01
 -1     23472 3.08088E+01
 -1     23473 3.33950E+01
 -1     23474 1.83373E+01
 -1     23475 1.75330E+01
 -1     23476 3.08442E+01
 -1     23477 1.70472E+01
 -1     23478 1.05946E+01
 -1     23479 1.03601E+01
 -1     23480 2.19904E+01
 -1     23481 2.09762E+01
 -1     23482 1.01746E+01
 -1     23483 1.04632E+01
 -1     23484 1.02972E+01
 -1     23485 1.00031E+01
 -1     23486 1.04632E+01
 -1     23487 7.65620E+00
 -1     23488 7.13089E+00
 -1     23489 1.09805E+01
 -1     23490 1.07279E+01
 -1     23491 1.15311E+01
 -1     23492 1.04778E+01
 -1     23493 1.95696E+01
 -1     23494 1.90928E+01
 -1     23495 1.80768E+01
 -1     23496 2.15811E+01
 -1     23497 2.15811E+01
 -1     23498 2.06081E+01
 -1     23499 2.07513E+01
 -1     23500 1.15066E+01
 -1     23501 1.04173E+01
 -1     23502 9.54949E+00
 -1     23503 9.73294E+00
 -1     23504 9.67811E+00
 -1     23505 1.04130E+01
 -1     23506 1.17311E+01
 -1     23507 1.18509E+01
 -1     23508 1.28958E+01
 -1     23509 1.93247E+01
 -1     23510 1.69717E+01
 -1     23511 1.13796E+01
 -1     23512 1.26873E+01
 -1     23513 1.11256E+01
 -1     23514 1.65093E+01
 -1     23515 1.56505E+01
 -1     23516 1.59358E+01
 -1     23517 3.80879E+01
 -1     23518 4.12654E+01
 -1     23519 1.05976E+01
 -1     23520 1.05976E+01
 -1     23521 1.04173E+01
 -1     23522 1.18509E+01
 -1     23523 1.68329E+01
 -1     23524 1.59917E+01
 -1     23525 2.08589E+01
 -1     23526 7.98931E+00
 -1     23527 8.09659E+00
 -1     23528 8.68929E+00
 -1     23529 1.83373E+01
 -1     23530 2.15589E+01
 -1     23531 1.91570E+01
 -1     23532 1.08531E+01
 -1     23533 1.11242E+01
 -1     23534 8.88483E+00
 -1     23535 1.50485E+01
 -1     23536 1.53505E+01
 -1     23537 1.92156E+01
 -1     23538 3.11490E+01
 -1     23539 9.95709E+00
 -1     23540 1.03448E+01
 -1     23541 1.08955E+01
 -1     23542 9.98087E+00
 -1     23543 1.07829E+01
 -1     23544 1.12375E+01
 -1     23545 1.18459E+01
 -1     23546 3.41327E+01
 -1     23547 3.08442E+01
 -1     23548 2.19904E+01
 -1     23549 2.52179E+01
 -1     23550 2.35158E+01
 -1     23551 1.13978E+01
 -1     23552 2.63286E+01
 -1     23553 2.34576E+01
 -1     23554 2.51598E+01
 -1     23555 2.96172E+01
 -1     23556 1.97615E+01
 -1     23557 1.72301E+01
 -1     23558 1.39891E+01
 -1     23559 1.97615E+01
 -1     23560 1.09500E+01
 -1     23561 2.00614E+01
 -1     23562 1.39441E+01
 -1     23563 1.64776E+01
 -1     23564 1.63344E+01
 -1     23565 1.37670E+01
 -1     23566 1.03601E+01
 -1     23567 1.04142E+01
 -1     23568 1.12644E+01
 -1     23569 1.66931E+01
 -1     23570 1.67033E+01
 -1     23571 2.09347E+01
 -1     23572 1.12441E+01
 -1     23573 2.27930E+01
 -1     23574 1.51987E+01
 -1     23575 1.45680E+01
 -1     23576 1.81206E+01
 -1     23577 1.96689E+01
 -1     23578 2.33813E+01
 -1     23579 3.98292E+01
 -1     23580 3.37554E+01
 -1     23581 4.12654E+01
 -1     23582 2.33813E+01
 -1     23583 2.04289E+01
 -1     23584 1.75024E+01
 -1     23585 2.29919E+01
 -1     23586 2.04980E+01
 -1     23587 2.42725E+01
 -1     23588 2.35158E+01
 -1     23589 1.30842E+01
 -1     23590 1.34235E+01
 -1     23591 1.34235E+01
 -1     23592 1.64850E+01
 -1     23593 1.43662E+01
 -1     23594 1.39038E+01
 -1     23595 1.44074E+01
 -1     23596 1.44074E+01
 -1     23597 7.91873E+00
 -1     23598 7.12785E+00
 -1     23599 2.87260E+01
 -1     23600 2.71222E+01
 -1     23601 2.69700E+01
 -1     23602 2.25846E+01
 -1     23603 3.31960E+01
 -1     23604 1.94456E+01
 -1     23605 1.92796E+01
 -1     23606 3.08088E+01
 -1     23607 3.34346E+01
 -1     23608 3.80483E+01
 -1     23609 3.33950E+01
 -1     23610 2.87260E+01
 -1     23611 3.41327E+01
 -1     23612 1.83195E+01
 -1     23613 2.89215E+01
 -1     23614 7.30252E+00
 -1     23615 8.95809E+00
 -1     23616 9.48643E+00
 -1     23617 2.52179E+01
 -1     23618 2.52179E+01
 -1     23619 1.46357E+01
 -1     23620 1.55826E+01
 -1     23621 2.36180E+01
 -1     23622 1.07067E+01
 -1     23623 1.72407E+01
 -1     23624 1.13943E+01
 -1     23625 1.62859E+01
 -1     23626 1.61526E+01
 -1     23627 1.91622E+01
 -1     23628 1.28445E+01
 -1     23629 2.87880E+01
 -1     23630 2.42725E+01
 -1     23631 1.24866E+01
 -1     23632 1.17754E+01
 -1     23633 2.08589E+01
 -1     23634 2.01589E+01
 -1     23635 1.66768E+01
 -1     23636 1.68853E+01
 -1     23637 1.19101E+01
 -1     23638 1.47864E+01
 -1     23639 1.12745E+01
 -1     23640 1.88266E+01
 -1     23641 1.91052E+01
 -1     23642 1.26076E+01
 -1     23643 1.24273E+01
 -1     23644 1.03360E+01
 -1     23645 9.41740E+00
 -1     23646 1.16013E+01
 -1     23647 8.27462E+00
 -1     23648 9.13305E+00
 -1     23649 9.93019E+00
 -1     23650 1.19759E+01
 -1     23651 1.99177E+01
 -1     23652 1.77275E+01
 -1     23653 2.11122E+01
 -1     23654 2.01690E+01
 -1     23655 2.11122E+01
 -1     23656 2.17110E+01
 -1     23657 2.51016E+01
 -1     23658 1.88847E+01
 -1     23659 1.17381E+01
 -1     23660 1.33077E+01
 -1     23661 1.35967E+01
 -1     23662 1.35967E+01
 -1     23663 1.84849E+01
 -1     23664 3.33950E+01
 -1     23665 1.99177E+01
 -1     23666 1.11242E+01
 -1     23667 1.24866E+01
 -1     23668 1.11242E+01
 -1     23669 1.56345E+01
 -1     23670 3.46676E+01
 -1     23671 3.32314E+01
 -1     23672 1.91609E+01
 -1     23673 1.90091E+01
 -1     23674 2.10575E+01
 -1     23675 1.66768E+01
 -1     23676 2.06664E+01
 -1     23677 1.66768E+01
 -1     23678 2.51598E+01
 -1     23679 2.15589E+01
 -1     23680 2.08589E+01
 -1     23681 2.15589E+01
 -1     23682 1.63982E+01
 -1     23683 1.43662E+01
 -1     23684 1.75024E+01
 -1     23685 1.94456E+01
 -1     23686 2.82619E+01
 -1     23687 2.00539E+01
 -1     23688 2.89215E+01
 -1     23689 2.18210E+01
 -1     23690 2.45580E+01
 -1     23691 2.51598E+01
 -1     23692 1.54877E+01
 -1     23693 9.54772E+00
 -1     23694 1.03360E+01
 -1     23695 9.13305E+00
 -1     23696 2.11122E+01
 -1     23697 2.20656E+01
 -1     23698 3.35747E+01
 -1     23699 1.02411E+01
 -1     23700 1.05201E+01
 -1     23701 1.15347E+01
 -1     23702 1.23147E+01
 -1     23703 1.05263E+01
 -1     23704 1.63144E+01
 -1     23705 1.50610E+01
 -1     23706 1.70710E+01
 -1     23707 2.00954E+01
 -1     23708 1.83299E+01
 -1     23709 2.02085E+01
 -1     23710 1.60680E+01
 -1     23711 1.70850E+01
 -1     23712 1.95387E+01
 -1     23713 1.85214E+01
 -1     23714 2.55408E+01
 -1     23715 1.56808E+01
 -1     23716 1.63923E+01
 -1     23717 2.03818E+01
 -1     23718 1.80131E+01
 -1     23719 2.56508E+01
 -1     23720 1.72836E+01
 -1     23721 1.83299E+01
 -1     23722 1.47864E+01
 -1     23723 2.53967E+01
 -1     23724 2.07528E+01
 -1     23725 2.35997E+01
 -1     23726 1.03360E+01
 -1     23727 3.37951E+01
 -1     23728 2.71619E+01
 -1     23729 2.71973E+01
 -1     23730 2.87642E+01
 -1     23731 2.47862E+01
 -1     23732 2.36820E+01
 -1     23733 2.93634E+01
 -1     23734 1.03531E+01
 -1     23735 1.17155E+01
 -1     23736 2.13660E+01
 -1     23737 2.13660E+01
 -1     23738 2.23272E+01
 -1     23739 2.13191E+01
 -1     23740 2.23272E+01
 -1     23741 1.38490E+01
 -1     23742 1.23147E+01
 -1     23743 1.17155E+01
 -1     23744 2.10407E+01
 -1     23745 1.84849E+01
 -1     23746 2.02085E+01
 -1     23747 2.46679E+01
 -1     23748 2.56508E+01
 -1     23749 1.23342E+01
 -1     23750 1.05263E+01
 -1     23751 1.09410E+01
 -1     23752 1.43662E+01
 -1     23753 1.95387E+01
 -1     23754 2.62145E+01
 -1     23755 1.90091E+01
 -1     23756 1.75253E+01
 -1     23757 2.00494E+01
 -1     23758 1.63160E+01
 -1     23759 1.47383E+01
 -1     23760 2.29463E+01
 -1     23761 1.88400E+01
 -1     23762 2.82619E+01
 -1     23763 2.53967E+01
 -1     23764 2.82619E+01
 -1     23765 2.04126E+01
 -1     23766 2.11127E+01
 -1     23767 1.07803E+01
 -1     23768 1.15347E+01
 -1     23769 1.23147E+01
 -1     23770 9.11047E+00
 -1     23771 9.89871E+00
 -1     23772 9.12761E+00
 -1     23773 1.05037E+01
 -1     23774 2.05417E+01
 -1     23775 2.10814E+01
 -1     23776 2.53027E+01
 -1     23777 2.53027E+01
 -1     23778 2.42344E+01
 -1     23779 2.62145E+01
 -1     23780 2.77610E+01
 -1     23781 1.40320E+01
 -1     23782 2.13431E+01
 -1     23783 1.41707E+01
 -1     23784 1.46251E+01
 -1     23785 1.99603E+01
 -1     23786 2.10066E+01
 -1     23787 2.93634E+01
 -1     23788 1.93762E+01
 -1     23789 2.02085E+01
 -1     23790 2.10066E+01
 -1     23791 1.92589E+01
 -1     23792 2.13431E+01
 -1     23793 2.25889E+01
 -1     23794 2.18148E+01
 -1     23795 1.52309E+01
 -1     23796 1.31989E+01
 -1     23797 1.13684E+01
 -1     23798 2.25146E+01
 -1     23799 1.97444E+01
 -1     23800 2.24210E+01
 -1     23801 1.64928E+01
 -1     23802 1.68658E+01
 -1     23803 2.70996E+01
 -1     23804 2.42344E+01
 -1     23805 2.09123E+01
 -1     23806 2.53839E+01
 -1     23807 2.47492E+01
 -1     23808 2.59374E+01
 -1     23809 2.25889E+01
 -1     23810 2.13191E+01
 -1     23811 1.15664E+01
 -1     23812 1.36999E+01
 -1     23813 1.66095E+01
 -1     23814 2.62957E+01
 -1     23815 2.13191E+01
 -1     23816 2.25889E+01
 -1     23817 1.98932E+01
 -1     23818 1.83588E+01
 -1     23819 2.40713E+01
 -1     23820 1.97441E+01
 -1     23821 2.06448E+01
 -1     23822 2.59604E+01
 -1     23823 1.91690E+01
 -1     23824 1.79597E+01
 -1     23825 2.09737E+01
 -1     23826 2.04387E+01
 -1     23827 2.59604E+01
 -1     23828 2.22493E+01
 -1     23829 2.37146E+01
 -1     23830 2.59604E+01
 -1     23831 2.47981E+01
 -1     23832 2.59374E+01
 -1     23833 2.59374E+01
 -1     23834 2.36588E+01
 -1     23835 2.09826E+01
 -1     23836 1.88324E+01
 -1     23837 2.09826E+01
 -1     23838 2.04627E+01
 -1     23839 2.31478E+01
 -1     23840 2.29320E+01
 -1     23841 2.40713E+01
 -1     23842 2.53839E+01
 -1     23843 2.31478E+01
 -1     23844 1.91906E+01
 -1     23845 1.41401E+01
 -1     23846 7.91180E+00
 -1     23847 9.96164E+00
 -1     23848 1.19374E+01
 -1     23849 8.36762E+00
 -1     23850 1.26317E+01
 -1     23851 1.41907E+01
 -1     23852 9.59605E+00
 -1     23853 9.67867E+00
 -1     23854 7.80348E+00
 -1     23855 8.16555E+00
 -1     23856 6.18615E+00
 -1     23857 7.35522E+00
 -1     23858 9.73581E+00
 -1     23859 9.73581E+00
 -1     23860 1.18116E+01
 -1     23861 1.18116E+01
 -1     23862 9.89855E+00
 -1     23863 1.03643E+01
 -1     23864 5.40592E+00
 -1     23865 6.00451E+00
 -1     23866 6.35123E+00
 -1     23867 5.68985E+00
 -1     23868 7.40878E+00
 -1     23869 7.00206E+00
 -1     23870 7.96080E+00
 -1     23871 7.15692E+00
 -1     23872 1.70455E+01
 -1     23873 1.39383E+01
 -1     23874 1.84964E+01
 -1     23875 1.38238E+01
 -1     23876 1.75708E+01
 -1     23877 1.69806E+01
 -1     23878 1.75708E+01
 -1     23879 1.90367E+01
 -1     23880 1.95131E+01
 -1     23881 3.16739E+01
 -1     23882 2.76162E+01
 -1     23883 3.74701E+01
 -1     23884 3.74701E+01
 -1     23885 4.42610E+01
 -1     23886 4.39075E+01
 -1     23887 4.84109E+01
 -1     23888 3.16679E+01
 -1     23889 4.27039E+01
 -1     23890 2.07180E+01
 -1     23891 2.16970E+01
 -1     23892 1.23981E+01
 -1     23893 1.75136E+01
 -1     23894 8.22965E+00
 -1     23895 9.41855E+00
 -1     23896 6.76026E+00
 -1     23897 6.76026E+00
 -1     23898 5.31562E+00
 -1     23899 5.36196E+00
 -1     23900 3.64292E+00
 -1     23901 3.29432E+00
 -1     23902 4.25258E+00
 -1     23903 3.00983E+00
 -1     23904 1.98203E+01
 -1     23905 1.38873E+01
 -1     23906 4.13591E+01
 -1     23907 3.34815E+01
 -1     23908 4.46368E+01
 -1     23909 4.25830E+01
 -1     23910 5.43049E+01
 -1     23911 4.88345E+01
 -1     23912 5.01071E+01
 -1     23913 5.56203E+01
 -1     23914 5.55555E+01
 -1     23915 5.37894E+01
 -1     23916 5.10742E+01
 -1     23917 5.32496E+01
 -1     23918 5.17668E+01
 -1     23919 4.91428E+01
 -1     23920 4.97965E+01
 -1     23921 5.20542E+01
 -1     23922 3.96395E+01
 -1     23923 4.58205E+01
 -1     23924 3.67820E+01
 -1     23925 3.50204E+01
 -1     23926 3.81117E+01
 -1     23927 3.93116E+01
 -1     23928 2.08716E+01
 -1     23929 2.71769E+01
 -1     23930 8.21117E+00
 -1     23931 1.21152E+01
 -1     23932 8.37565E+00
 -1     23933 9.55790E+00
 -1     23934 4.93474E+01
 -1     23935 4.74550E+01
 -1     23936 1.10755E+01
 -1     23937 1.10755E+01
 -1     23938 8.14633E+00
 -1     23939 8.14633E+00
 -1     23940 1.52056E+01
 -1     23941 1.52056E+01
 -1     23942 9.13568E+00
 -1     23943 9.86087E+00
 -1     23944 8.77370E+00
 -1     23945 9.38185E+00
 -1     23946 7.28946E+00
 -1     23947 7.07455E+00
 -1     23948 9.00972E+00
 -1     23949 6.90837E+00
 -1     23950 1.07233E+01
 -1     23951 9.68544E+00
 -1     23952 1.03643E+01
 -1     23953 1.31420E+01
 -1     23954 6.63844E+00
 -1     23955 6.06887E+00
 -1     23956 5.33762E+00
 -1     23957 5.39411E+00
 -1     23958 6.63700E+00
 -1     23959 6.81125E+00
 -1     23960 7.54387E+00
 -1     23961 7.70361E+00
 -1     23962 1.18666E+01
 -1     23963 9.01227E+00
 -1     23964 9.26146E+00
 -1     23965 1.47623E+01
 -1     23966 1.69806E+01
 -1     23967 1.88387E+01
 -1     23968 2.11233E+01
 -1     23969 2.32489E+01
 -1     23970 2.72777E+01
 -1     23971 2.42665E+01
 -1     23972 3.48397E+01
 -1     23973 3.01540E+01
 -1     23974 2.72744E+01
 -1     23975 1.41401E+01
 -1     23976 4.17295E+01
 -1     23977 4.04598E+01
 -1     23978 4.72208E+01
 -1     23979 4.18975E+01
 -1     23980 5.16050E+01
 -1     23981 4.93474E+01
 -1     23982 4.45795E+01
 -1     23983 2.68622E+01
 -1     23984 2.54582E+01
 -1     23985 2.14963E+01
 -1     23986 2.07180E+01
 -1     23987 9.51431E+00
 -1     23988 1.16187E+01
 -1     23989 9.69678E+00
 -1     23990 8.22965E+00
 -1     23991 5.62393E+00
 -1     23992 6.31111E+00
 -1     23993 3.59552E+00
 -1     23994 4.72944E+00
 -1     23995 2.88297E+00
 -1     23996 3.15926E+00
 -1     23997 7.86243E+00
 -1     23998 5.86219E+00
 -1     23999 2.56038E+01
 -1     24000 2.34194E+01
 -1     24001 3.43614E+01
 -1     24002 3.54126E+01
 -1     24003 5.17133E+01
 -1     24004 5.38163E+01
 -1     24005 5.17133E+01
 -1     24006 5.47413E+01
 -1     24007 5.69357E+01
 -1     24008 5.33219E+01
 -1     24009 5.47005E+01
 -1     24010 5.18850E+01
 -1     24011 5.56203E+01
 -1     24012 5.20542E+01
 -1     24013 5.20542E+01
 -1     24014 5.20015E+01
 -1     24015 5.08526E+01
 -1     24016 3.69882E+01
 -1     24017 3.83139E+01
 -1     24018 4.05115E+01
 -1     24019 4.05115E+01
 -1     24020 3.34823E+01
 -1     24021 3.57970E+01
 -1     24022 1.94210E+01
 -1     24023 2.08187E+01
 -1     24024 7.50109E+00
 -1     24025 9.48949E+00
 -1     24026 4.82820E+01
 -1     24027 1.30277E+01
 -1     24028 1.14951E+01
 -1     24029 9.59605E+00
 -1     24030 7.43662E+00
 -1     24031 7.56141E+00
 -1     24032 9.68544E+00
 -1     24033 1.31420E+01
 -1     24034 1.06427E+01
 -1     24035 5.53329E+00
 -1     24036 6.68593E+00
 -1     24037 8.17090E+00
 -1     24038 8.74332E+00
 -1     24039 1.16551E+01
 -1     24040 1.88387E+01
 -1     24041 3.37899E+01
 -1     24042 3.91763E+01
 -1     24043 2.26361E+01
 -1     24044 1.38913E+01
 -1     24045 1.29203E+01
 -1     24046 6.59815E+00
 -1     24047 5.03886E+00
 -1     24048 3.36663E+00
 -1     24049 4.74629E+00
 -1     24050 2.20047E+01
 -1     24051 3.54126E+01
 -1     24052 5.41770E+01
 -1     24053 4.96019E+01
 -1     24054 5.09454E+01
 -1     24055 3.83139E+01
 -1     24056 3.67820E+01
 -1     24057 3.57970E+01
 -1     24058 2.08187E+01
 -1     24059 9.53816E+00
 -1     24060 1.52809E+01
 -1     24061 9.26727E+00
 -1     24062 8.77370E+00
 -1     24063 6.77344E+00
 -1     24064 9.00972E+00
 -1     24065 1.07233E+01
 -1     24066 1.44723E+01
 -1     24067 6.17904E+00
 -1     24068 5.87369E+00
 -1     24069 7.51101E+00
 -1     24070 8.07879E+00
 -1     24071 1.18666E+01
 -1     24072 1.39341E+01
 -1     24073 1.91810E+01
 -1     24074 3.00983E+00
 -1     24075 1.23807E+01
 -1     24076 3.34815E+01
 -1     24077 3.76878E+01
 -1     24078 5.32496E+01
 -1     24079 3.50204E+01
 -1     24080 3.93116E+01
 -1     24081 2.71769E+01
 -1     24082 1.34601E+01
 -1     24083 9.08234E+00
 -1     24084 4.15148E+00
 -1     24085 3.67065E+01
 -1     24086 5.88702E+00
 -1     24087 9.98382E+00
 -1     24088 1.30161E+01
 -1     24089 2.78014E+01
 -1     24090 1.86534E+01
 -1     24091 5.59838E+01
 -1     24092 4.58205E+01
 -1     24093 4.98892E+01
 -1     24094 5.65235E+00
 -1     24095 5.95354E+00
 -1     24096 1.41817E+01
 -1     24097 1.51966E+01
 -1     24098 1.23064E+01
 -1     24099 1.17634E+01
 -1     24100 7.65374E+00
 -1     24101 8.26189E+00
 -1     24102 7.49263E+00
 -1     24103 7.42687E+00
 -1     24104 9.00972E+00
 -1     24105 8.28363E+00
 -1     24106 1.07233E+01
 -1     24107 9.63508E+00
 -1     24108 1.44723E+01
 -1     24109 1.44723E+01
 -1     24110 6.88919E+00
 -1     24111 7.52313E+00
 -1     24112 6.65292E+00
 -1     24113 6.30070E+00
 -1     24114 8.73881E+00
 -1     24115 8.37375E+00
 -1     24116 8.45990E+00
 -1     24117 8.84684E+00
 -1     24118 1.16807E+01
 -1     24119 9.60896E+00
 -1     24120 1.42414E+01
 -1     24121 9.67912E+00
 -1     24122 1.98067E+01
 -1     24123 1.98067E+01
 -1     24124 3.47288E+01
 -1     24125 3.91283E+01
 -1     24126 3.78783E+00
 -1     24127 3.66098E+00
 -1     24128 2.17490E+01
 -1     24129 3.52994E+01
 -1     24130 4.15091E+01
 -1     24131 3.81894E+01
 -1     24132 3.48397E+01
 -1     24133 3.91283E+01
 -1     24134 8.01958E+00
 -1     24135 8.28156E+00
 -1     24136 4.73456E+01
 -1     24137 2.58391E+01
 -1     24138 2.58391E+01
 -1     24139 2.00115E+01
 -1     24140 2.07909E+01
 -1     24141 5.52054E+01
 -1     24142 5.61572E+01
 -1     24143 1.40529E+01
 -1     24144 1.40529E+01
 -1     24145 2.75510E+01
 -1     24146 3.27162E+01
 -1     24147 3.07540E+01
 -1     24148 8.28156E+00
 -1     24149 8.73071E+00
 -1     24150 1.04141E+01
 -1     24151 1.44178E+01
 -1     24152 1.45136E+01
 -1     24153 2.14132E+01
 -1     24154 1.55504E+01
 -1     24155 6.49117E+00
 -1     24156 7.07735E+00
 -1     24157 7.99204E+00
 -1     24158 9.27977E+00
 -1     24159 1.22163E+01
 -1     24160 1.33489E+01
 -1     24161 1.09632E+01
 -1     24162 3.72493E+00
 -1     24163 4.20858E+00
 -1     24164 4.50293E+00
 -1     24165 4.40226E+01
 -1     24166 3.67065E+01
 -1     24167 4.20449E+01
 -1     24168 4.73456E+01
 -1     24169 1.84056E+01
 -1     24170 1.23807E+01
 -1     24171 3.14706E+01
 -1     24172 2.35930E+01
 -1     24173 3.76878E+01
 -1     24174 2.94662E+01
 -1     24175 5.31772E+01
 -1     24176 5.32496E+01
 -1     24177 4.37360E+01
 -1     24178 3.95382E+01
 -1     24179 3.13166E+01
 -1     24180 4.50514E+01
 -1     24181 3.95222E+01
 -1     24182 4.57031E+01
 -1     24183 4.96019E+01
 -1     24184 4.93145E+01
 -1     24185 2.92423E+01
 -1     24186 3.12101E+01
 -1     24187 4.53140E+01
 -1     24188 4.78844E+01
 -1     24189 4.53140E+01
 -1     24190 3.76819E+01
 -1     24191 3.90076E+01
 -1     24192 3.88902E+01
 -1     24193 3.19039E+01
 -1     24194 2.97074E+01
 -1     24195 3.09072E+01
 -1     24196 1.86620E+01
 -1     24197 2.49674E+01
 -1     24198 7.78043E+00
 -1     24199 1.50862E+01
 -1     24200 9.58297E+00
 -1     24201 9.36168E+00
 -1     24202 7.73562E+00
 -1     24203 4.38979E+01
 -1     24204 9.96164E+00
 -1     24205 3.14899E+01
 -1     24206 2.72777E+01
 -1     24207 3.48397E+01
 -1     24208 1.62959E+01
 -1     24209 1.30277E+01
 -1     24210 1.28512E+01
 -1     24211 1.51966E+01
 -1     24212 5.16328E+01
 -1     24213 5.05766E+01
 -1     24214 4.53344E+01
 -1     24215 4.39160E+01
 -1     24216 4.31096E+01
 -1     24217 4.00392E+01
 -1     24218 8.17090E+00
 -1     24219 9.03364E+00
 -1     24220 8.46574E+00
 -1     24221 1.33667E+01
 -1     24222 1.61375E+01
 -1     24223 9.78479E+00
 -1     24224 9.99899E+00
 -1     24225 6.59457E+00
 -1     24226 7.32350E+00
 -1     24227 8.21484E+00
 -1     24228 7.49263E+00
 -1     24229 8.38821E+00
 -1     24230 8.43858E+00
 -1     24231 1.15999E+01
 -1     24232 1.02696E+01
 -1     24233 8.20420E+00
 -1     24234 1.20339E+01
 -1     24235 6.87335E+00
 -1     24236 6.88517E+00
 -1     24237 8.37375E+00
 -1     24238 7.91373E+00
 -1     24239 8.84684E+00
 -1     24240 1.60532E+01
 -1     24241 9.28196E+00
 -1     24242 8.23049E+00
 -1     24243 9.39746E+00
 -1     24244 1.16807E+01
 -1     24245 1.79477E+01
 -1     24246 1.76054E+01
 -1     24247 2.59612E+01
 -1     24248 3.50490E+01
 -1     24249 8.34074E+00
 -1     24250 8.22926E+00
 -1     24251 9.47189E+00
 -1     24252 2.47912E+01
 -1     24253 2.79942E+01
 -1     24254 2.08085E+01
 -1     24255 1.20339E+01
 -1     24256 2.69287E+01
 -1     24257 6.01065E+00
 -1     24258 9.18130E+00
 -1     24259 7.71249E+00
 -1     24260 8.14606E+00
 -1     24261 6.81169E+00
 -1     24262 4.42729E+01
 -1     24263 5.31772E+01
 -1     24264 5.31772E+01
 -1     24265 5.38163E+01
 -1     24266 2.97074E+01
 -1     24267 2.13030E+01
 -1     24268 2.73926E+01
 -1     24269 3.57342E+01
 -1     24270 2.58457E+01
 -1     24271 2.97877E+01
 -1     24272 5.61603E+00
 -1     24273 4.00642E+00
 -1     24274 2.20047E+01
 -1     24275 1.84056E+01
 -1     24276 2.97877E+01
 -1     24277 4.65757E+00
 -1     24278 4.64493E+01
 -1     24279 4.73044E+01
 -1     24280 4.60989E+01
 -1     24281 4.58115E+01
 -1     24282 4.60989E+01
 -1     24283 1.24952E+01
 -1     24284 4.72453E+01
 -1     24285 8.99854E+00
 -1     24286 3.35583E+01
 -1     24287 2.98289E+01
 -1     24288 1.88777E+01
 -1     24289 1.00479E+01
 -1     24290 1.57276E+01
 -1     24291 1.57805E+01
 -1     24292 1.34926E+01
 -1     24293 8.66482E+00
 -1     24294 1.85734E+01
 -1     24295 4.32344E+01
 -1     24296 9.60155E+00
 -1     24297 7.65258E+00
 -1     24298 8.91436E+00
 -1     24299 8.38821E+00
 -1     24300 8.21484E+00
 -1     24301 2.60186E+01
 -1     24302 4.74777E+01
 -1     24303 1.15999E+01
 -1     24304 1.84056E+01
 -1     24305 7.31375E+00
 -1     24306 1.33505E+01
 -1     24307 9.42314E+00
 -1     24308 1.64058E+01
 -1     24309 9.70480E+00
 -1     24310 9.09614E+00
 -1     24311 1.99938E+01
 -1     24312 1.35709E+01
 -1     24313 1.16409E+01
 -1     24314 4.67863E+01
 -1     24315 4.63770E+01
 -1     24316 2.39541E+01
 -1     24317 4.20291E+01
 -1     24318 3.52289E+01
 -1     24319 1.21475E+01
 -1     24320 1.18658E+01
 -1     24321 3.43742E+01
 -1     24322 4.03061E+01
 -1     24323 1.90159E+01
 -1     24324 1.71570E+01
 -1     24325 1.65058E+01
 -1     24326 1.31417E+01
 -1     24327 1.53028E+01
 -1     24328 1.69482E+01
 -1     24329 8.81720E+00
 -1     24330 9.14744E+00
 -1     24331 2.38715E+01
 -1     24332 2.32849E+01
 -1     24333 8.14606E+00
 -1     24334 8.14606E+00
 -1     24335 7.13192E+00
 -1     24336 7.70306E+00
 -1     24337 1.33923E+01
 -1     24338 1.33923E+01
 -1     24339 2.69287E+01
 -1     24340 2.69462E+01
 -1     24341 8.81101E+00
 -1     24342 9.75323E+00
 -1     24343 8.38439E+00
 -1     24344 9.06546E+00
 -1     24345 7.75440E+00
 -1     24346 8.32706E+00
 -1     24347 9.36761E+00
 -1     24348 8.98650E+00
 -1     24349 1.46833E+01
 -1     24350 1.62865E+01
 -1     24351 1.10069E+01
 -1     24352 1.06799E+01
 -1     24353 1.10069E+01
 -1     24354 1.10069E+01
 -1     24355 1.34495E+01
 -1     24356 4.12567E+01
 -1     24357 2.45447E+01
 -1     24358 8.66482E+00
 -1     24359 1.01877E+01
 -1     24360 1.06703E+01
 -1     24361 5.66593E+00
 -1     24362 7.10969E+00
 -1     24363 3.58861E+01
 -1     24364 3.14083E+01
 -1     24365 9.59543E+00
 -1     24366 1.20339E+01
 -1     24367 9.06546E+00
 -1     24368 9.13820E+00
 -1     24369 9.36761E+00
 -1     24370 1.10489E+01
 -1     24371 2.83827E+01
 -1     24372 2.94307E+01
 -1     24373 2.83827E+01
 -1     24374 1.04141E+01
 -1     24375 1.04141E+01
 -1     24376 9.75323E+00
 -1     24377 6.41697E+00
 -1     24378 6.19838E+00
 -1     24379 8.51696E+00
 -1     24380 7.68466E+00
 -1     24381 8.51696E+00
 -1     24382 2.97877E+01
 -1     24383 3.01092E+01
 -1     24384 3.44902E+01
 -1     24385 3.79931E+01
 -1     24386 2.35899E+01
 -1     24387 3.27412E+01
 -1     24388 3.08908E+01
 -1     24389 3.12123E+01
 -1     24390 4.38470E+01
 -1     24391 2.27381E+01
 -1     24392 2.27381E+01
 -1     24393 9.19093E+00
 -1     24394 9.64470E+00
 -1     24395 1.30876E+01
 -1     24396 6.32288E+00
 -1     24397 8.07429E+00
 -1     24398 1.16757E+01
 -1     24399 1.39831E+01
 -1     24400 1.38638E+01
 -1     24401 1.16757E+01
 -1     24402 3.01092E+01
 -1     24403 2.58457E+01
 -1     24404 3.01092E+01
 -1     24405 1.85140E+01
 -1     24406 1.65582E+01
 -1     24407 1.67915E+01
 -1     24408 3.14562E+01
 -1     24409 2.81065E+01
 -1     24410 9.60155E+00
 -1     24411 9.60155E+00
 -1     24412 3.50490E+01
 -1     24413 3.76323E+01
 -1     24414 7.92174E+00
 -1     24415 8.48964E+00
 -1     24416 8.48964E+00
 -1     24417 8.44250E+00
 -1     24418 3.83459E+01
 -1     24419 3.43453E+01
 -1     24420 2.74061E+01
 -1     24421 2.70245E+01
 -1     24422 4.50741E+01
 -1     24423 4.50741E+01
 -1     24424 3.39260E+01
 -1     24425 3.22030E+01
 -1     24426 2.98219E+01
 -1     24427 3.15337E+01
 -1     24428 3.41169E+01
 -1     24429 3.02104E+01
 -1     24430 5.60198E+00
 -1     24431 5.66593E+00
 -1     24432 7.36138E+00
 -1     24433 8.27338E+00
 -1     24434 8.81101E+00
 -1     24435 9.09234E+00
 -1     24436 7.92866E+00
 -1     24437 1.20633E+01
 -1     24438 9.19093E+00
 -1     24439 9.62488E+00
 -1     24440 3.63709E+01
 -1     24441 4.42719E+01
 -1     24442 3.27402E+01
 -1     24443 3.20231E+01
 -1     24444 4.00392E+01
 -1     24445 3.88498E+01
 -1     24446 2.30186E+01
 -1     24447 2.30362E+01
 -1     24448 1.75207E+01
 -1     24449 9.65434E+00
 -1     24450 2.23576E+01
 -1     24451 1.96239E+01
 -1     24452 1.97065E+01
 -1     24453 1.77357E+01
 -1     24454 1.52749E+01
 -1     24455 6.71668E+00
 -1     24456 6.64789E+00
 -1     24457 9.69953E+00
 -1     24458 8.45267E+00
 -1     24459 9.50726E+00
 -1     24460 8.28929E+00
 -1     24461 8.29331E+00
 -1     24462 2.11613E+01
 -1     24463 1.99938E+01
 -1     24464 1.49805E+01
 -1     24465 2.15821E+01
 -1     24466 8.44324E+00
 -1     24467 6.76498E+00
 -1     24468 1.25906E+01
 -1     24469 3.68515E+01
 -1     24470 2.14735E+01
 -1     24471 3.09219E+01
 -1     24472 6.64789E+00
 -1     24473 9.18183E+00
 -1     24474 7.92102E+00
 -1     24475 7.86368E+00
 -1     24476 1.27887E+01
 -1     24477 1.33378E+01
 -1     24478 1.27887E+01
 -1     24479 1.00204E+01
 -1     24480 3.76323E+01
 -1     24481 2.58457E+01
 -1     24482 1.23933E+01
 -1     24483 3.76323E+01
 -1     24484 9.70916E+00
 -1     24485 3.79108E+01
 -1     24486 2.17787E+01
 -1     24487 2.82505E+01
 -1     24488 1.96315E+01
 -1     24489 1.35696E+01
 -1     24490 1.54062E+01
 -1     24491 1.53951E+01
 -1     24492 2.01610E+01
 -1     24493 3.11777E+01
 -1     24494 9.18183E+00
 -1     24495 8.44442E+00
 -1     24496 8.59549E+00
 -1     24497 6.13611E+00
 -1     24498 2.11417E+01
 -1     24499 8.39111E+00
 -1     24500 3.09219E+01
 -1     24501 2.24389E+01
 -1     24502 3.04073E+01
 -1     24503 2.15961E+01
 -1     24504 8.94230E+00
 -1     24505 8.90454E+00
 -1     24506 3.11777E+01
 -1     24507 2.31323E+01
 -1     24508 2.95868E+01
 -1     24509 1.55982E+01
 -1     24510 1.53775E+01
 -1     24511 6.88397E+00
 -1     24512 5.89759E+00
 -1     24513 2.10538E+01
 -1     24514 1.80222E+01
 -1     24515 8.96611E+00
 -1     24516 8.96611E+00
 -1     24517 1.00204E+01
 -1     24518 1.11529E+01
 -1     24519 9.70387E+00
 -1     24520 9.70387E+00
 -1     24521 1.95704E+01
 -1     24522 9.48264E+00
 -1     24523 1.00126E+01
 -1     24524 1.41625E+01
 -1     24525 1.36798E+01
 -1     24526 1.41625E+01
 -1     24527 9.65434E+00
 -1     24528 9.65434E+00
 -1     24529 2.02821E+01
 -1     24530 1.36805E+01
 -1     24531 1.29414E+01
 -1     24532 1.29414E+01
 -1     24533 2.92428E+01
 -1     24534 2.81398E+01
 -1     24535 2.96677E+01
 -1     24536 9.13900E+00
 -1     24537 9.23008E+00
 -1     24538 1.01772E+01
 -1     24539 9.69020E+00
 -1     24540 1.29414E+01
 -1     24541 1.13998E+01
 -1     24542 1.32923E+01
 -1     24543 2.82647E+01
 -1     24544 2.97012E+01
 -1     24545 9.83077E+00
 -1     24546 1.04917E+01
 -1     24547 9.36781E+00
 -1     24548 9.46191E+00
 -1     24549 1.57424E+01
 -1     24550 1.96239E+01
 -1     24551 2.11378E+01
 -1     24552 1.95361E+01
 -1     24553 1.93686E+01
 -1     24554 9.52676E+00
 -1     24555 8.93036E+00
 -1     24556 1.10309E+01
 -1     24557 1.24494E+01
 -1     24558 1.21447E+01
 -1     24559 1.77509E+01
 -1     24560 1.90266E+01
 -1     24561 2.21084E+01
 -1     24562 9.55083E+00
 -1     24563 9.60566E+00
 -1     24564 9.55083E+00
 -1     24565 5.54597E+00
 -1     24566 7.04414E+00
 -1     24567 6.29384E+00
 -1     24568 9.18183E+00
 -1     24569 8.76211E+00
 -1     24570 2.56339E+01
 -1     24571 2.56339E+01
 -1     24572 2.36644E+01
 -1     24573 8.88288E+00
 -1     24574 8.71627E+00
 -1     24575 9.22970E+00
 -1     24576 8.88288E+00
 -1     24577 9.73647E+00
 -1     24578 9.76593E+00
 -1     24579 1.01537E+01
 -1     24580 1.61910E+01
 -1     24581 1.61623E+01
 -1     24582 1.62492E+01
 -1     24583 1.73478E+01
 -1     24584 1.75501E+01
 -1     24585 1.93284E+01
 -1     24586 1.81429E+01
 -1     24587 2.60715E+01
 -1     24588 7.64731E+00
 -1     24589 7.40879E+00
 -1     24590 8.96806E+00
 -1     24591 1.60578E+01
 -1     24592 1.50636E+01
 -1     24593 1.55490E+01
 -1     24594 9.76593E+00
 -1     24595 2.24303E+01
 -1     24596 2.04593E+01
 -1     24597 2.02821E+01
 -1     24598 1.86927E+01
 -1     24599 1.86927E+01
 -1     24600 2.73209E+01
 -1     24601 2.73498E+01
 -1     24602 1.98081E+01
 -1     24603 9.63323E+00
 -1     24604 1.03717E+01
 -1     24605 9.63323E+00
 -1     24606 2.82647E+01
 -1     24607 2.95833E+01
 -1     24608 2.43547E+01
 -1     24609 1.37429E+01
 -1     24610 1.11291E+01
 -1     24611 1.35037E+01
 -1     24612 1.12066E+01
 -1     24613 1.15964E+01
 -1     24614 3.98363E+01
 -1     24615 3.67913E+01
 -1     24616 3.50683E+01
 -1     24617 3.98363E+01
 -1     24618 4.27015E+01
 -1     24619 3.49831E+01
 -1     24620 2.45457E+01
 -1     24621 2.02821E+01
 -1     24622 2.11378E+01
 -1     24623 1.96315E+01
 -1     24624 2.11378E+01
 -1     24625 1.59592E+01
 -1     24626 1.61910E+01
 -1     24627 1.42996E+01
 -1     24628 3.19760E+01
 -1     24629 3.23672E+01
 -1     24630 3.18580E+01
 -1     24631 1.36169E+01
 -1     24632 1.51048E+01
 -1     24633 1.74902E+01
 -1     24634 1.71090E+01
 -1     24635 2.59747E+01
 -1     24636 2.63274E+01
 -1     24637 2.62711E+01
 -1     24638 2.14113E+01
 -1     24639 1.11315E+01
 -1     24640 9.70387E+00
 -1     24641 8.63911E+00
 -1     24642 9.90047E+00
 -1     24643 1.90266E+01
 -1     24644 1.75451E+01
 -1     24645 1.99920E+01
 -1     24646 8.80973E+00
 -1     24647 7.98200E+00
 -1     24648 8.35291E+00
 -1     24649 8.31260E+00
 -1     24650 9.42451E+00
 -1     24651 9.00479E+00
 -1     24652 9.57397E+00
 -1     24653 1.50636E+01
 -1     24654 1.42046E+01
 -1     24655 8.24677E+00
 -1     24656 9.41045E+00
 -1     24657 1.04479E+01
 -1     24658 2.00703E+01
 -1     24659 1.62458E+01
 -1     24660 2.64408E+01
 -1     24661 2.75828E+01
 -1     24662 2.40854E+01
 -1     24663 3.23510E+01
 -1     24664 9.48545E+00
 -1     24665 1.45555E+01
 -1     24666 1.67551E+01
 -1     24667 1.89821E+01
 -1     24668 6.88008E+00
 -1     24669 1.58187E+01
 -1     24670 1.72114E+01
 -1     24671 1.44346E+01
 -1     24672 1.73322E+01
 -1     24673 1.60690E+01
 -1     24674 1.95689E+01
 -1     24675 6.99422E+00
 -1     24676 7.93208E+00
 -1     24677 2.57715E+01
 -1     24678 2.66604E+01
 -1     24679 2.11586E+01
 -1     24680 2.00703E+01
 -1     24681 1.05049E+01
 -1     24682 1.03933E+01
 -1     24683 1.65093E+01
 -1     24684 1.65093E+01
 -1     24685 1.64334E+01
 -1     24686 1.85902E+01
 -1     24687 1.48440E+01
 -1     24688 1.79397E+01
 -1     24689 1.82187E+01
 -1     24690 1.82187E+01
 -1     24691 1.41625E+01
 -1     24692 1.71720E+01
 -1     24693 8.16089E+00
 -1     24694 7.39755E+00
 -1     24695 1.48818E+01
 -1     24696 1.49175E+01
 -1     24697 1.17647E+01
 -1     24698 1.00688E+01
 -1     24699 1.90919E+01
 -1     24700 1.81518E+01
 -1     24701 1.81518E+01
 -1     24702 1.92400E+01
 -1     24703 9.55083E+00
 -1     24704 9.44733E+00
 -1     24705 1.02898E+01
 -1     24706 1.29836E+01
 -1     24707 1.30485E+01
 -1     24708 1.64521E+01
 -1     24709 2.38823E+01
 -1     24710 2.13764E+01
 -1     24711 2.13764E+01
 -1     24712 2.17974E+01
 -1     24713 1.32923E+01
 -1     24714 1.32923E+01
 -1     24715 1.60690E+01
 -1     24716 8.09669E+00
 -1     24717 9.76419E+00
 -1     24718 1.27737E+01
 -1     24719 8.21082E+00
 -1     24720 1.84426E+01
 -1     24721 1.72114E+01
 -1     24722 1.79031E+01
 -1     24723 1.76123E+01
 -1     24724 6.26567E+00
 -1     24725 5.91406E+00
 -1     24726 7.01777E+00
 -1     24727 8.80973E+00
 -1     24728 8.17213E+00
 -1     24729 8.16089E+00
 -1     24730 8.80973E+00
 -1     24731 2.33813E+01
 -1     24732 1.96310E+01
 -1     24733 2.67224E+01
 -1     24734 6.96605E+00
 -1     24735 1.69717E+01
 -1     24736 2.08379E+01
 -1     24737 1.59358E+01
 -1     24738 1.96310E+01
 -1     24739 1.68345E+01
 -1     24740 2.11446E+01
 -1     24741 1.47416E+01
 -1     24742 1.48440E+01
 -1     24743 2.95833E+01
 -1     24744 2.95833E+01
 -1     24745 1.91570E+01
 -1     24746 2.06206E+01
 -1     24747 1.67015E+01
 -1     24748 2.81217E+01
 -1     24749 2.91152E+01
 -1     24750 2.36820E+01
 -1     24751 9.95134E+00
 -1     24752 1.01786E+01
 -1     24753 1.04046E+01
 -1     24754 1.10134E+01
 -1     24755 1.12479E+01
 -1     24756 1.19623E+01
 -1     24757 1.12479E+01
 -1     24758 1.15004E+01
 -1     24759 1.25710E+01
 -1     24760 2.45570E+01
 -1     24761 1.79804E+01
 -1     24762 2.00263E+01
 -1     24763 2.00263E+01
 -1     24764 1.80434E+01
 -1     24765 1.67448E+01
 -1     24766 1.81327E+01
 -1     24767 1.82084E+01
 -1     24768 2.72646E+01
 -1     24769 3.49831E+01
 -1     24770 2.91152E+01
 -1     24771 1.27164E+01
 -1     24772 1.29140E+01
 -1     24773 1.52099E+01
 -1     24774 1.65093E+01
 -1     24775 4.27015E+01
 -1     24776 4.27015E+01
 -1     24777 3.49831E+01
 -1     24778 1.05443E+01
 -1     24779 1.02681E+01
 -1     24780 1.02490E+01
 -1     24781 1.02490E+01
 -1     24782 1.04173E+01
 -1     24783 1.17647E+01
 -1     24784 3.03016E+01
 -1     24785 1.51075E+01
 -1     24786 9.65970E+00
 -1     24787 9.41702E+00
 -1     24788 1.24474E+01
 -1     24789 1.17281E+01
 -1     24790 1.61977E+01
 -1     24791 1.16149E+01
 -1     24792 3.16068E+01
 -1     24793 2.12563E+01
 -1     24794 2.10532E+01
 -1     24795 3.16068E+01
 -1     24796 9.55354E+00
 -1     24797 9.67432E+00
 -1     24798 1.02085E+01
 -1     24799 1.54734E+01
 -1     24800 1.08955E+01
 -1     24801 1.80434E+01
 -1     24802 7.17173E+00
 -1     24803 8.25189E+00
 -1     24804 2.55128E+01
 -1     24805 2.55128E+01
 -1     24806 2.04865E+01
 -1     24807 1.68345E+01
 -1     24808 1.86678E+01
 -1     24809 1.59568E+01
 -1     24810 1.59568E+01
 -1     24811 2.88058E+01
 -1     24812 2.88058E+01
 -1     24813 1.30401E+01
 -1     24814 1.34060E+01
 -1     24815 1.49273E+01
 -1     24816 1.39712E+01
 -1     24817 1.08493E+01
 -1     24818 1.49741E+01
 -1     24819 1.34465E+01
 -1     24820 1.24936E+01
 -1     24821 1.27164E+01
 -1     24822 1.52587E+01
 -1     24823 1.44932E+01
 -1     24824 1.54734E+01
 -1     24825 1.54734E+01
 -1     24826 1.34060E+01
 -1     24827 1.79610E+01
 -1     24828 1.85984E+01
 -1     24829 2.00637E+01
 -1     24830 1.81452E+01
 -1     24831 1.37518E+01
 -1     24832 1.39886E+01
 -1     24833 1.70643E+01
 -1     24834 1.25352E+01
 -1     24835 1.16928E+01
 -1     24836 1.53916E+01
 -1     24837 2.03058E+01
 -1     24838 3.10806E+01
 -1     24839 1.01292E+01
 -1     24840 9.80273E+00
 -1     24841 1.04778E+01
 -1     24842 1.02150E+01
 -1     24843 2.90150E+01
 -1     24844 2.57359E+01
 -1     24845 2.01440E+01
 -1     24846 1.73673E+01
 -1     24847 1.15585E+01
 -1     24848 2.34559E+01
 -1     24849 2.03058E+01
 -1     24850 2.53528E+01
 -1     24851 2.53528E+01
 -1     24852 2.34559E+01
 -1     24853 2.53528E+01
 -1     24854 1.57184E+01
 -1     24855 1.61808E+01
 -1     24856 1.57184E+01
 -1     24857 1.48807E+01
 -1     24858 1.50610E+01
 -1     24859 1.80902E+01
 -1     24860 1.77825E+01
 -1     24861 1.96158E+01
 -1     24862 1.92334E+01
 -1     24863 1.90710E+01
 -1     24864 2.41181E+01
 -1     24865 1.90710E+01
 -1     24866 2.06206E+01
 -1     24867 1.96822E+01
 -1     24868 2.25175E+01
 -1     24869 1.96624E+01
 -1     24870 1.99531E+01
 -1     24871 2.04861E+01
 -1     24872 2.36820E+01
 -1     24873 3.09657E+01
 -1     24874 2.34646E+01
 -1     24875 9.89809E+00
 -1     24876 9.69242E+00
 -1     24877 1.99531E+01
 -1     24878 1.99531E+01
 -1     24879 2.12835E+01
 -1     24880 2.20032E+01
 -1     24881 8.16089E+00
 -1     24882 8.14964E+00
 -1     24883 2.08354E+01
 -1     24884 1.24145E+01
 -1     24885 1.29188E+01
 -1     24886 1.61971E+01
 -1     24887 1.68059E+01
 -1     24888 1.77624E+01
 -1     24889 1.90491E+01
 -1     24890 1.96033E+01
 -1     24891 1.96033E+01
 -1     24892 1.97405E+01
 -1     24893 1.68059E+01
 -1     24894 1.68059E+01
 -1     24895 2.10407E+01
 -1     24896 2.69491E+01
 -1     24897 3.46676E+01
 -1     24898 5.88589E+00
 -1     24899 7.17173E+00
 -1     24900 7.01777E+00
 -1     24901 3.20671E+01
 -1     24902 3.09657E+01
 -1     24903 2.91152E+01
 -1     24904 2.87997E+01
 -1     24905 3.09657E+01
 -1     24906 7.01777E+00
 -1     24907 1.81295E+01
 -1     24908 1.68282E+01
 -1     24909 1.90884E+01
 -1     24910 1.55122E+01
 -1     24911 1.53692E+01
 -1     24912 9.85703E+00
 -1     24913 1.86678E+01
 -1     24914 1.61977E+01
 -1     24915 1.86678E+01
 -1     24916 1.16928E+01
 -1     24917 1.10552E+01
 -1     24918 1.39382E+01
 -1     24919 1.91622E+01
 -1     24920 3.08352E+01
 -1     24921 1.97405E+01
 -1     24922 1.89689E+01
 -1     24923 2.28013E+01
 -1     24924 2.42145E+01
 -1     24925 2.34371E+01
 -1     24926 1.10439E+01
 -1     24927 1.19655E+01
 -1     24928 1.99418E+01
 -1     24929 1.80632E+01
 -1     24930 1.24145E+01
 -1     24931 1.44840E+01
 -1     24932 1.22780E+01
 -1     24933 1.96033E+01
 -1     24934 1.95244E+01
 -1     24935 1.50610E+01
 -1     24936 2.24386E+01
 -1     24937 8.77354E+00
 -1     24938 1.22815E+01
 -1     24939 1.25265E+01
 -1     24940 7.48770E+00
 -1     24941 2.09276E+01
 -1     24942 1.94742E+01
 -1     24943 2.16003E+01
 -1     24944 2.06524E+01
 -1     24945 1.66952E+01
 -1     24946 1.49412E+01
 -1     24947 2.00954E+01
 -1     24948 1.71642E+01
 -1     24949 1.69448E+01
 -1     24950 2.10275E+01
 -1     24951 1.79438E+01
 -1     24952 1.57160E+01
 -1     24953 1.64816E+01
 -1     24954 2.02939E+01
 -1     24955 1.81861E+01
 -1     24956 1.75752E+01
 -1     24957 2.06664E+01
 -1     24958 1.75752E+01
 -1     24959 1.78976E+01
 -1     24960 1.78976E+01
 -1     24961 2.09888E+01
 -1     24962 2.30096E+01
 -1     24963 2.30096E+01
 -1     24964 2.14105E+01
 -1     24965 2.29276E+01
 -1     24966 2.14105E+01
 -1     24967 1.37548E+01
 -1     24968 2.12559E+01
 -1     24969 1.03178E+01
 -1     24970 2.05534E+01
 -1     24971 1.94545E+01
 -1     24972 2.05534E+01
 -1     24973 1.81759E+01
 -1     24974 2.14543E+01
 -1     24975 2.15895E+01
 -1     24976 2.14573E+01
 -1     24977 2.24939E+01
 -1     24978 2.21770E+01
 -1     24979 2.78981E+01
 -1     24980 2.78981E+01
 -1     24981 1.81883E+01
 -1     24982 7.09575E+00
 -1     24983 5.96387E+00
 -1     24984 2.41181E+01
 -1     24985 2.17749E+01
 -1     24986 2.20973E+01
 -1     24987 2.28833E+01
 -1     24988 2.30096E+01
 -1     24989 1.93669E+01
 -1     24990 1.93669E+01
 -1     24991 2.13515E+01
 -1     24992 1.76824E+01
 -1     24993 1.76824E+01
 -1     24994 2.32185E+01
 -1     24995 1.49700E+01
 -1     24996 1.20758E+01
 -1     24997 1.87143E+01
 -1     24998 2.78981E+01
 -1     24999 2.57320E+01
 -1     25000 2.48304E+01
 -1     25001 7.56568E+00
 -1     25002 2.59734E+01
 -1     25003 2.21410E+01
 -1     25004 2.45826E+01
 -1     25005 2.50718E+01
 -1     25006 1.10219E+01
 -1     25007 8.79400E+00
 -1     25008 1.37740E+01
 -1     25009 2.66439E+01
 -1     25010 2.66439E+01
 -1     25011 2.68178E+01
 -1     25012 2.75684E+01
 -1     25013 2.04161E+01
 -1     25014 2.48196E+01
 -1     25015 2.49626E+01
 -1     25016 2.23756E+01
 -1     25017 2.23756E+01
 -1     25018 1.97861E+01
 -1     25019 2.00661E+01
 -1     25020 1.94545E+01
 -1     25021 2.09669E+01
 -1     25022 2.50102E+01
 -1     25023 2.32185E+01
 -1     25024 2.09932E+01
 -1     25025 1.82808E+01
 -1     25026 2.26951E+01
 -1     25027 2.27850E+01
 -1     25028 2.26951E+01
 -1     25029 2.30656E+01
 -1     25030 2.21665E+01
 -1     25031 2.21665E+01
 -1     25032 2.61493E+01
 -1     25033 2.61493E+01
 -1     25034 2.72883E+01
 -1     25035 2.02678E+01
 -1     25036 1.97861E+01
 -1     25037 2.18678E+01
 -1     25038 2.09669E+01
 -1     25039 2.39442E+01
 -1     25040 2.60796E+01
 -1     25041 2.63210E+01
 -1     25042 2.61695E+01
 -1     25043 2.09669E+01
 -1     25044 2.18678E+01
 -1     25045 2.15895E+01
 -1     25046 2.18678E+01
 -1     25047 2.68178E+01
 -1     25048 2.92865E+01
 -1     25049 2.92865E+01
 -1     25050 3.12846E+01
 -1     25051 2.82989E+01
 -1     25052 2.75684E+01
 -1     25053 3.12846E+01
 -1     25054 2.93067E+01
 -1     25055 2.07399E+01
 -1     25056 2.73085E+01
 -1     25057 3.12846E+01
 -1     25058 2.93067E+01
 -1     25059 1.91095E+01
 -1     25060 2.02085E+01
 -1     25061 1.97211E+01
 -1     25062 5.82170E+00
 -1     25063 6.97574E+00
 -1     25064 7.37033E+00
 -1     25065 6.21630E+00
 -1     25066 5.82170E+00
 -1     25067 7.37033E+00
 -1     25068 6.18657E+00
 -1     25069 5.79031E+00
 -1     25070 6.53818E+00
 -1     25071 8.88476E+00
 -1     25072 8.64042E+00
 -1     25073 6.71188E+00
 -1     25074 9.41008E+00
 -1     25075 1.99633E+01
 -1     25076 1.49250E+01
 -1     25077 2.00162E+01
 -1     25078 1.00687E+01
 -1     25079 1.04593E+01
 -1     25080 1.06960E+01
 -1     25081 1.32232E+01
 -1     25082 1.53951E+01
 -1     25083 1.34810E+01
 -1     25084 2.14483E+01
 -1     25085 2.00131E+01
 -1     25086 1.84167E+01
 -1     25087 3.17771E+01
 -1     25088 3.36924E+01
 -1     25089 1.99305E+01
 -1     25090 3.29843E+01
 -1     25091 2.18459E+01
 -1     25092 3.16739E+01
 -1     25093 2.76162E+01
 -1     25094 3.72926E+01
 -1     25095 1.04455E+01
 -1     25096 1.01642E+01
 -1     25097 1.04455E+01
 -1     25098 2.36820E+01
 -1     25099 2.54738E+01
 -1     25100 2.54738E+01
 -1     25101 2.75583E+01
 -1     25102 3.36321E+01
 -1     25103 3.51916E+01
 -1     25104 4.12654E+01
 -1     25105 8.80835E+00
 -1     25106 8.80835E+00
 -1     25107 9.41045E+00
 -1     25108 9.41045E+00
 -1     25109 1.42837E+01
 -1     25110 2.09116E+01
 -1     25111 1.52319E+01
 -1     25112 2.01091E+01
 -1     25113 2.35775E+01
 -1     25114 2.35775E+01
 -1     25115 2.79074E+01
 -1     25116 2.26694E+01
 -1     25117 1.83394E+01
 -1     25118 2.26694E+01
 -1     25119 5.76053E+01
 -1     25120 5.56203E+01
 -1     25121 5.62899E+01
 -1     25122 5.82748E+01
 -1     25123 5.76053E+01
 -1     25124 5.62899E+01
 -1     25125 2.08729E+01
 -1     25126 1.98345E+01
 -1     25127 2.18459E+01
 -1     25128 4.77128E+01
 -1     25129 4.77128E+01
 -1     25130 4.95092E+01
 -1     25131 5.07450E+01
 -1     25132 4.95092E+01
 -1     25133 9.85703E+00
 -1     25134 1.13386E+01
 -1     25135 1.30401E+01
 -1     25136 6.31330E+00
 -1     25137 7.06117E+00
 -1     25138 1.53870E+01
 -1     25139 1.91333E+01
 -1     25140 1.79205E+01
 -1     25141 2.16667E+01
 -1     25142 5.71311E+00
 -1     25143 6.30229E+00
 -1     25144 6.47654E+00
 -1     25145 1.67551E+01
 -1     25146 1.82187E+01
 -1     25147 1.67551E+01
 -1     25148 2.92865E+01
 -1     25149 2.92865E+01
 -1     25150 2.86110E+01
 -1     25151 2.66128E+01
 -1     25152 2.66128E+01
 -1     25153 3.37149E+01
 -1     25154 3.37149E+01
 -1     25155 3.37149E+01
 -1     25156 3.33736E+01
 -1     25157 3.33736E+01
 -1     25158 3.33736E+01
 -1     25159 2.18148E+01
 -1     25160 2.22283E+01
 -1     25161 2.13275E+01
 -1     25162 8.99854E+00
 -1     25163 7.16613E+00
 -1     25164 7.39554E+00
 -1     25165 8.45990E+00
 -1     25166 6.62749E+00
 -1     25167 1.81493E+01
 -1     25168 1.93586E+01
 -1     25169 1.81493E+01
 -1     25170 1.93586E+01
 -1     25171 1.76111E+01
 -1     25172 1.72602E+01
 -1     25173 1.76111E+01
 -1     25174 2.19299E+01
 -1     25175 1.72602E+01
 -1     25176 1.63144E+01
 -1     25177 2.00954E+01
 -1     25178 1.68853E+01
 -1     25179 2.06664E+01
 -1     25180 2.06664E+01
 -1     25181 2.09888E+01
 -1     25182 2.17749E+01
 -1     25183 2.17749E+01
 -1     25184 2.20973E+01
 -1     25185 2.02342E+01
 -1     25186 1.83373E+01
 -1     25187 1.34799E+01
 -1     25188 1.66020E+01
 -1     25189 1.63329E+01
 -1     25190 1.77400E+01
 -1     25191 1.82121E+01
 -1     25192 1.68050E+01
 -1     25193 1.79430E+01
 -1     25194 1.82544E+01
 -1     25195 1.93577E+01
 -1     25196 1.82721E+01
 -1     25197 1.89238E+01
 -1     25198 1.89238E+01
 -1     25199 1.67656E+01
 -1     25200 1.67656E+01
 -1     25201 2.04306E+01
 -1     25202 8.09012E+00
 -1     25203 9.41100E+00
 -1     25204 8.96891E+00
 -1     25205 8.62479E+00
 -1     25206 9.06688E+00
 -1     25207 9.94567E+00
 -1     25208 8.47322E+00
 -1     25209 9.38185E+00
 -1     25210 9.38185E+00
 -1     25211 8.47322E+00
 -1     25212 9.38185E+00
 -1     25213 3.33171E+01
 -1     25214 3.62170E+01
 -1     25215 3.67263E+01
 -1     25216 3.65611E+01
 -1     25217 3.94610E+01
 -1     25218 8.54712E+00
 -1     25219 8.54712E+00
 -1     25220 8.54712E+00
 -1     25221 1.01085E+01
 -1     25222 8.86163E+00
 -1     25223 1.01085E+01
 -1     25224 1.71499E+01
 -1     25225 1.86004E+01
 -1     25226 1.70710E+01
 -1     25227 1.85214E+01
 -1     25228 7.29968E+00
 -1     25229 2.72727E+01
 -1     25230 2.53561E+01
 -1     25231 2.79095E+01
 -1     25232 2.67323E+01
 -1     25233 2.22089E+01
 -1     25234 2.25834E+01
 -1     25235 2.84053E+01
 -1     25236 2.80307E+01
 -1     25237 2.68791E+01
 -1     25238 1.11064E+01
 -1     25239 1.11064E+01
 -1     25240 1.54734E+01
 -1     25241 1.54734E+01
 -1     25242 1.54734E+01
 -1     25243 1.36058E+01
 -1     25244 1.95667E+01
 -1     25245 1.01730E+01
 -1     25246 9.76398E+00
 -1     25247 1.01730E+01
 -1     25248 1.01696E+01
 -1     25249 1.08846E+01
 -1     25250 1.02373E+01
 -1     25251 1.02373E+01
 -1     25252 1.08846E+01
 -1     25253 1.09523E+01
 -1     25254 1.33492E+01
 -1     25255 1.63587E+01
 -1     25256 1.33492E+01
 -1     25257 1.01081E+01
 -1     25258 1.01081E+01
 -1     25259 4.47780E+00
 -1     25260 4.77815E+00
 -1     25261 4.77757E+00
 -1     25262 5.91652E+00
 -1     25263 5.07792E+00
 -1     25264 8.49897E+00
 -1     25265 8.87057E+00
 -1     25266 8.90380E+00
 -1     25267 7.47551E+00
 -1     25268 7.88034E+00
 -1     25269 7.04895E+00
 -1     25270 5.76053E+01
 -1     25271 5.69357E+01
 -1     25272 8.88008E+00
 -1     25273 7.19092E+00
 -1     25274 9.25167E+00
 -1     25275 7.21464E+00
 -1     25276 4.27416E+01
 -1     25277 3.57181E+01
 -1     25278 3.36287E+01
 -1     25279 3.68524E+01
 -1     25280 3.89417E+01
 -1     25281 2.98289E+01
 -1     25282 9.76863E+00
 -1     25283 9.42451E+00
 -1     25284 3.41725E+01
 -1     25285 4.19858E+01
 -1     25286 3.07724E+01
 -1     25287 3.36477E+01
 -1     25288 4.48612E+01
 -1     25289 4.14611E+01
 -1     25290 3.50490E+01
 -1     25291 3.24658E+01
 -1     25292 3.15337E+01
 -1     25293 2.45278E+01
 -1     25294 6.81860E+00
 -1     25295 5.01778E+00
 -1     25296 6.73140E+00
 -1     25297 7.69739E+00
 -1     25298 7.61019E+00
 -1     25299 1.91333E+01
 -1     25300 3.68944E+01
 -1     25301 3.35888E+01
 -1     25302 3.68944E+01
 -1     25303 1.85734E+01
 -1     25304 1.90159E+01
 -1     25305 2.04324E+01
 -1     25306 3.99702E+01
 -1     25307 3.99702E+01
 -1     25308 3.99702E+01
 -1     25309 4.09384E+01
 -1     25310 4.09384E+01
 -1     25311 8.53221E+00
 -1     25312 9.41100E+00
 -1     25313 9.06688E+00
 -1     25314 4.09384E+01
 -1     25315 3.94610E+01
 -1     25316 4.04292E+01
 -1     25317 3.80457E+01
 -1     25318 3.70775E+01
 -1     25319 1.91095E+01
 -1     25320 1.97211E+01
 -1     25321 8.39111E+00
 -1     25322 8.44442E+00
 -1     25323 9.13900E+00
 -1     25324 2.13275E+01
 -1     25325 2.22283E+01
 -1     25326 2.22283E+01
 -1     25327 2.01782E+01
 -1     25328 2.71234E+01
 -1     25329 2.37400E+01
 -1     25330 5.18279E+01
 -1     25331 5.18279E+01
 -1     25332 5.11144E+01
 -1     25333 5.10778E+01
 -1     25334 5.03642E+01
 -1     25335 2.13275E+01
 -1     25336 1.00126E+01
 -1     25337 1.04298E+01
 -1     25338 1.04298E+01
 -1     25339 1.00126E+01
 -1     25340 1.50012E+01
 -1     25341 1.30485E+01
 -1     25342 1.68345E+01
 -1     25343 2.24745E+01
 -1     25344 2.27361E+01
 -1     25345 2.23272E+01
 -1     25346 2.27361E+01
 -1     25347 2.25889E+01
 -1     25348 1.84782E+01
 -1     25349 1.84782E+01
 -1     25350 1.91773E+01
 -1     25351 2.59374E+01
 -1     25352 2.59374E+01
 -1     25353 2.59374E+01
 -1     25354 1.49601E+01
 -1     25355 1.51633E+01
 -1     25356 1.49601E+01
 -1     25357 1.51395E+01
 -1     25358 1.51395E+01
 -1     25359 1.94299E+01
 -1     25360 2.34559E+01
 -1     25361 2.27558E+01
 -1     25362 9.60566E+00
 -1     25363 9.57461E+00
 -1     25364 9.67811E+00
 -1     25365 9.70916E+00
 -1     25366 1.41489E+01
 -1     25367 1.19402E+01
 -1     25368 2.16500E+01
 -1     25369 1.60681E+01
 -1     25370 1.77868E+01
 -1     25371 2.20011E+01
 -1     25372 1.88387E+01
 -1     25373 2.21456E+01
 -1     25374 1.92143E+01
 -1     25375 1.88720E+01
 -1     25376 2.21789E+01
 -1     25377 3.86628E+01
 -1     25378 3.43066E+01
 -1     25379 3.73883E+01
 -1     25380 3.37592E+01
 -1     25381 2.94031E+01
 -1     25382 1.09805E+01
 -1     25383 1.07043E+01
 -1     25384 1.01537E+01
 -1     25385 7.87124E+00
 -1     25386 7.04749E+00
 -1     25387 7.87124E+00
 -1     25388 5.56203E+01
 -1     25389 5.62899E+01
 -1     25390 1.62048E+01
 -1     25391 2.44129E+01
 -1     25392 2.30825E+01
 -1     25393 1.48745E+01
 -1     25394 1.37612E+01
 -1     25395 2.25798E+01
 -1     25396 2.25798E+01
 -1     25397 8.43114E+00
 -1     25398 8.74478E+00
 -1     25399 8.16012E+00
 -1     25400 2.11755E+01
 -1     25401 2.11755E+01
 -1     25402 2.04838E+01
 -1     25403 1.91559E+01
 -1     25404 1.77234E+01
 -1     25405 1.77284E+01
 -1     25406 1.85849E+01
 -1     25407 1.85800E+01
 -1     25408 1.71525E+01
 -1     25409 1.34060E+01
 -1     25410 1.34060E+01
 -1     25411 9.43847E+00
 -1     25412 9.26143E+00
 -1     25413 9.42451E+00
 -1     25414 8.46171E+00
 -1     25415 2.37644E+01
 -1     25416 1.93247E+01
 -1     25417 1.98982E+01
 -1     25418 9.35933E+00
 -1     25419 8.68486E+00
 -1     25420 9.41087E+00
 -1     25421 8.48041E+00
 -1     25422 7.80593E+00
 -1     25423 2.44615E+01
 -1     25424 2.70245E+01
 -1     25425 2.63274E+01
 -1     25426 8.71186E+00
 -1     25427 2.19421E+01
 -1     25428 2.68178E+01
 -1     25429 3.12846E+01
 -1     25430 2.66439E+01
 -1     25431 1.03430E+01
 -1     25432 1.31199E+01
 -1     25433 1.38115E+01
 -1     25434 1.34235E+01
 -1     25435 1.14059E+01
 -1     25436 4.38019E+01
 -1     25437 4.38019E+01
 -1     25438 4.19067E+01
 -1     25439 4.19044E+01
 -1     25440 4.00092E+01
 -1     25441 1.04380E+01
 -1     25442 1.79186E+01
 -1     25443 1.79186E+01
 -1     25444 3.24551E+01
 -1     25445 2.92111E+01
 -1     25446 3.76945E+01
 -1     25447 5.49445E+01
 -1     25448 5.57288E+01
 -1     25449 5.52946E+01
 -1     25450 5.35256E+01
 -1     25451 5.39598E+01
 -1     25452 2.53132E+01
 -1     25453 2.82989E+01
 -1     25454 2.45826E+01
 -1     25455 1.60532E+01
 -1     25456 1.61375E+01
 -1     25457 1.80090E+01
 -1     25458 1.41630E+01
 -1     25459 1.60226E+01
 -1     25460 1.49176E+01
 -1     25461 9.92467E+00
 -1     25462 1.07279E+01
 -1     25463 1.01772E+01
 -1     25464 3.34862E+01
 -1     25465 3.65611E+01
 -1     25466 3.00770E+01
 -1     25467 2.90459E+01
 -1     25468 9.13820E+00
 -1     25469 9.18459E+00
 -1     25470 1.00524E+01
 -1     25471 2.75294E+01
 -1     25472 2.74731E+01
 -1     25473 5.55672E+01
 -1     25474 5.57957E+01
 -1     25475 5.41379E+01
 -1     25476 5.55672E+01
 -1     25477 5.43663E+01
 -1     25478 3.53591E+01
 -1     25479 3.53591E+01
 -1     25480 4.12483E+01
 -1     25481 4.12483E+01
 -1     25482 3.92870E+01
 -1     25483 4.48309E+01
 -1     25484 3.92870E+01
 -1     25485 4.25465E+01
 -1     25486 4.80904E+01
 -1     25487 4.80904E+01
 -1     25488 1.82721E+01
 -1     25489 1.83416E+01
 -1     25490 2.59201E+01
 -1     25491 2.87642E+01
 -1     25492 2.69137E+01
 -1     25493 1.58944E+01
 -1     25494 1.96068E+01
 -1     25495 1.96689E+01
 -1     25496 1.19503E+01
 -1     25497 1.21775E+01
 -1     25498 8.72102E+00
 -1     25499 1.11749E+01
 -1     25500 7.94564E+00
 -1     25501 1.01138E+01
 -1     25502 1.23593E+01
 -1     25503 1.09563E+01
 -1     25504 1.38936E+01
 -1     25505 1.99378E+01
 -1     25506 1.98932E+01
 -1     25507 1.83588E+01
 -1     25508 8.78279E+00
 -1     25509 9.24619E+00
 -1     25510 9.24619E+00
 -1     25511 1.83588E+01
 -1     25512 7.86582E+00
 -1     25513 9.02940E+00
 -1     25514 9.76505E+00
 -1     25515 8.21253E+00
 -1     25516 9.31724E+00
 -1     25517 8.18470E+00
 -1     25518 7.64974E+00
 -1     25519 2.66331E+01
 -1     25520 2.93067E+01
 -1     25521 2.86110E+01
 -1     25522 2.66331E+01
 -1     25523 1.31362E+01
 -1     25524 1.02419E+01
 -1     25525 1.41681E+01
 -1     25526 1.60012E+01
 -1     25527 1.09581E+01
 -1     25528 1.78350E+01
 -1     25529 1.27919E+01
 -1     25530 8.97558E+00
 -1     25531 2.10162E+01
 -1     25532 2.08729E+01
 -1     25533 1.78180E+01
 -1     25534 1.76748E+01
 -1     25535 2.66336E+01
 -1     25536 2.56508E+01
 -1     25537 2.59734E+01
 -1     25538 2.59734E+01
 -1     25539 2.49906E+01
 -1     25540 2.97862E+01
 -1     25541 3.14781E+01
 -1     25542 3.29843E+01
 -1     25543 5.73034E+00
 -1     25544 5.74358E+00
 -1     25545 5.96166E+00
 -1     25546 7.24018E+00
 -1     25547 7.02210E+00
 -1     25548 7.25342E+00
 -1     25549 2.73926E+01
 -1     25550 3.34823E+01
 -1     25551 2.49674E+01
 -1     25552 2.06397E+01
 -1     25553 2.22461E+01
 -1     25554 1.90333E+01
 -1     25555 2.06397E+01
 -1     25556 2.06397E+01
 -1     25557 1.16482E+01
 -1     25558 1.38936E+01
 -1     25559 1.78180E+01
 -1     25560 1.76748E+01
 -1     25561 8.91436E+00
 -1     25562 9.59543E+00
 -1     25563 9.06546E+00
 -1     25564 2.88205E+01
 -1     25565 3.29265E+01
 -1     25566 2.90459E+01
 -1     25567 3.29265E+01
 -1     25568 3.31519E+01
 -1     25569 1.01081E+01
 -1     25570 2.27558E+01
 -1     25571 2.34559E+01
 -1     25572 2.34559E+01
 -1     25573 6.23196E+00
 -1     25574 6.23196E+00
 -1     25575 5.07792E+00
 -1     25576 2.86308E+01
 -1     25577 4.74550E+01
 -1     25578 4.74550E+01
 -1     25579 5.25414E+01
 -1     25580 4.95092E+01
 -1     25581 3.29265E+01
 -1     25582 3.27010E+01
 -1     25583 6.81125E+00
 -1     25584 6.35123E+00
 -1     25585 5.97490E+00
 -1     25586 5.97490E+00
 -1     25587 5.81573E+00
 -1     25588 1.26588E+01
 -1     25589 1.16653E+01
 -1     25590 1.49009E+01
 -1     25591 1.42425E+01
 -1     25592 1.32490E+01
 -1     25593 2.58391E+01
 -1     25594 2.26361E+01
 -1     25595 2.26361E+01
 -1     25596 2.32256E+01
 -1     25597 2.32256E+01
 -1     25598 2.10573E+01
 -1     25599 2.68791E+01
 -1     25600 2.19500E+01
 -1     25601 1.85364E+01
 -1     25602 5.70880E+00
 -1     25603 6.78394E+00
 -1     25604 6.63827E+00
 -1     25605 6.63827E+00
 -1     25606 6.78394E+00
 -1     25607 7.71341E+00
 -1     25608 1.19503E+01
 -1     25609 5.69357E+01
 -1     25610 2.06664E+01
 -1     25611 1.75752E+01
 -1     25612 3.31519E+01
 -1     25613 1.42215E+01
 -1     25614 1.15298E+01
 -1     25615 1.15298E+01
 -1     25616 1.42215E+01
 -1     25617 1.15298E+01
 -1     25618 2.06664E+01
 -1     25619 9.16300E+00
 -1     25620 9.28378E+00
 -1     25621 9.52595E+00
 -1     25622 9.64673E+00
 -1     25623 2.10407E+01
 -1     25624 2.10407E+01
 -1     25625 2.10407E+01
 -1     25626 2.10407E+01
 -1     25627 4.50817E+01
 -1     25628 4.30106E+01
 -1     25629 3.41131E+01
 -1     25630 3.20419E+01
 -1     25631 2.30150E+01
 -1     25632 2.17150E+01
 -1     25633 2.72786E+01
 -1     25634 2.78663E+01
 -1     25635 9.22795E+00
 -1     25636 1.46547E+01
 -1     25637 1.59092E+01
 -1     25638 1.93274E+01
 -1     25639 1.75386E+01
 -1     25640 1.42662E+01
 -1     25641 1.35745E+01
 -1     25642 1.04046E+01
 -1     25643 9.45573E+00
 -1     25644 1.13090E+01
 -1     25645 1.03601E+01
 -1     25646 3.09657E+01
 -1     25647 2.93634E+01
 -1     25648 3.09657E+01
 -1     25649 2.93634E+01
 -1     25650 1.13090E+01
 -1     25651 5.40315E+00
 -1     25652 5.63447E+00
 -1     25653 1.09523E+01
 -1     25654 1.08846E+01
 -1     25655 5.13070E+01
 -1     25656 4.53773E+01
 -1     25657 3.09657E+01
 -1     25658 3.12003E+01
 -1     25659 3.42728E+01
 -1     25660 3.46977E+01
 -1     25661 1.75024E+01
 -1     25662 2.47862E+01
 -1     25663 2.51326E+01
 -1     25664 1.63162E+01
 -1     25665 2.19748E+01
 -1     25666 2.03840E+01
 -1     25667 2.64442E+01
 -1     25668 2.48534E+01
 -1     25669 4.14611E+01
 -1     25670 3.57762E+01
 -1     25671 3.86515E+01
 -1     25672 4.02396E+01
 -1     25673 3.73643E+01
 -1     25674 3.45548E+01
 -1     25675 5.31933E+01
 -1     25676 4.80340E+01
 -1     25677 5.31933E+01
 -1     25678 2.41181E+01
 -1     25679 2.15211E+01
 -1     25680 2.27558E+01
 -1     25681 2.53528E+01
 -1     25682 2.41181E+01
 -1     25683 2.27558E+01
 -1     25684 4.20058E+00
 -1     25685 2.47862E+01
 -1     25686 2.73209E+01
 -1     25687 5.51227E+00
 -1     25688 7.02210E+00
 -1     25689 5.28960E+00
 -1     25690 6.79944E+00
 -1     25691 4.44591E+00
 -1     25692 4.84051E+00
 -1     25693 2.04387E+01
 -1     25694 2.13191E+01
 -1     25695 2.06284E+01
 -1     25696 1.93586E+01
 -1     25697 6.76498E+00
 -1     25698 6.76498E+00
 -1     25699 7.64467E+00
 -1     25700 7.64467E+00
 -1     25701 7.64467E+00
 -1     25702 2.82472E+01
 -1     25703 2.43547E+01
 -1     25704 2.82647E+01
 -1     25705 1.02173E+01
 -1     25706 1.21712E+01
 -1     25707 1.64517E+01
 -1     25708 1.00572E+01
 -1     25709 5.77679E+00
 -1     25710 1.20112E+01
 -1     25711 6.85321E+00
 -1     25712 1.30876E+01
 -1     25713 6.69317E+00
 -1     25714 6.08217E+00
 -1     25715 5.00575E+00
 -1     25716 5.16579E+00
 -1     25717 9.11007E+00
 -1     25718 1.07119E+01
 -1     25719 1.03959E+01
 -1     25720 1.61808E+01
 -1     25721 1.59358E+01
 -1     25722 1.41489E+01
 -1     25723 1.39038E+01
 -1     25724 6.50258E+00
 -1     25725 4.81584E+00
 -1     25726 7.54121E+00
 -1     25727 1.85823E+01
 -1     25728 2.25146E+01
 -1     25729 1.31989E+01
 -1     25730 1.94470E+01
 -1     25731 1.05819E+01
 -1     25732 1.01730E+01
 -1     25733 1.05819E+01
 -1     25734 5.38950E+00
 -1     25735 5.52869E+00
 -1     25736 5.40592E+00
 -1     25737 5.86533E+00
 -1     25738 5.98809E+00
 -1     25739 6.00451E+00
 -1     25740 4.18096E+00
 -1     25741 4.70590E+00
 -1     25742 5.09182E+00
 -1     25743 6.54562E+00
 -1     25744 6.15970E+00
 -1     25745 7.07056E+00
 -1     25746 2.38657E+01
 -1     25747 2.14722E+01
 -1     25748 2.14722E+01
 -1     25749 1.92682E+01
 -1     25750 1.92682E+01
 -1     25751 1.68747E+01
 -1     25752 2.15961E+01
 -1     25753 2.27381E+01
 -1     25754 2.41732E+01
 -1     25755 8.38012E+00
 -1     25756 7.11018E+00
 -1     25757 1.58347E+01
 -1     25758 1.58058E+01
 -1     25759 1.45359E+01
 -1     25760 2.00052E+01
 -1     25761 2.05204E+01
 -1     25762 2.00052E+01
 -1     25763 1.84056E+01
 -1     25764 1.84056E+01
 -1     25765 1.34073E+01
 -1     25766 1.34073E+01
 -1     25767 1.34073E+01
 -1     25768 1.99305E+01
 -1     25769 1.73726E+01
 -1     25770 2.17110E+01
 -1     25771 1.83195E+01
 -1     25772 7.17291E+00
 -1     25773 7.15791E+00
 -1     25774 8.39400E+00
 -1     25775 1.33923E+01
 -1     25776 2.44480E+01
 -1     25777 1.14534E+01
 -1     25778 1.64517E+01
 -1     25779 5.02555E+01
 -1     25780 4.99348E+01
 -1     25781 5.17244E+01
 -1     25782 2.97733E+01
 -1     25783 2.69081E+01
 -1     25784 2.97733E+01
 -1     25785 1.19648E+01
 -1     25786 9.52631E+00
 -1     25787 9.55576E+00
 -1     25788 9.94567E+00
 -1     25789 9.52595E+00
 -1     25790 5.96166E+00
 -1     25791 5.96166E+00
 -1     25792 5.97490E+00
 -1     25793 5.97490E+00
 -1     25794 1.64459E+01
 -1     25795 9.02026E+00
 -1     25796 1.76385E+01
 -1     25797 1.02128E+01
 -1     25798 9.76398E+00
 -1     25799 9.70916E+00
 -1     25800 9.30102E+00
 -1     25801 9.30102E+00
 -1     25802 1.75146E+01
 -1     25803 1.73696E+01
 -1     25804 1.47660E+01
 -1     25805 9.54918E+00
 -1     25806 8.51696E+00
 -1     25807 8.71687E+00
 -1     25808 7.68466E+00
 -1     25809 1.90297E+01
 -1     25810 1.79667E+01
 -1     25811 2.79074E+01
 -1     25812 2.72913E+01
 -1     25813 2.79074E+01
 -1     25814 2.79074E+01
 -1     25815 2.72913E+01
 -1     25816 2.53839E+01
 -1     25817 1.97441E+01
 -1     25818 1.87719E+01
 -1     25819 1.56325E+01
 -1     25820 1.87719E+01
 -1     25821 8.88899E+00
 -1     25822 1.19333E+01
 -1     25823 1.38873E+01
 -1     25824 1.86004E+01
 -1     25825 1.13766E+01
 -1     25826 1.11101E+01
 -1     25827 1.35090E+01
 -1     25828 1.37755E+01
 -1     25829 1.50720E+01
 -1     25830 2.74717E+01
 -1     25831 2.86110E+01
 -1     25832 2.67449E+01
 -1     25833 1.78489E+01
 -1     25834 1.65656E+01
 -1     25835 2.03129E+01
 -1     25836 1.77234E+01
 -1     25837 1.71525E+01
 -1     25838 2.28033E+01
 -1     25839 2.08847E+01
 -1     25840 2.49906E+01
 -1     25841 2.56253E+01
 -1     25842 1.58684E+01
 -1     25843 1.47304E+01
 -1     25844 1.61375E+01
 -1     25845 1.00668E+01
 -1     25846 1.03558E+01
 -1     25847 9.93730E+00
 -1     25848 5.13184E+01
 -1     25849 5.09454E+01
 -1     25850 5.02623E+01
 -1     25851 4.81614E+01
 -1     25852 4.88445E+01
 -1     25853 4.77883E+01
 -1     25854 5.52340E+01
 -1     25855 5.52340E+01
 -1     25856 5.49090E+01
 -1     25857 5.06154E+01
 -1     25858 5.06154E+01
 -1     25859 5.11144E+01
 -1     25860 5.11144E+01
 -1     25861 5.06154E+01
 -1     25862 5.11144E+01
 -1     25863 8.16555E+00
 -1     25864 7.80348E+00
 -1     25865 7.86507E+00
 -1     25866 1.53881E+01
 -1     25867 1.66291E+01
 -1     25868 1.79198E+01
 -1     25869 1.78066E+01
 -1     25870 8.27488E+00
 -1     25871 8.80955E+00
 -1     25872 8.06463E+00
 -1     25873 8.85662E+00
 -1     25874 8.85221E+00
 -1     25875 9.43277E+00
 -1     25876 5.46822E+01
 -1     25877 5.50072E+01
 -1     25878 5.46822E+01
 -1     25879 1.11749E+01
 -1     25880 1.21775E+01
 -1     25881 7.94564E+00
 -1     25882 7.94564E+00
 -1     25883 1.80090E+01
 -1     25884 1.33667E+01
 -1     25885 1.84849E+01
 -1     25886 1.36413E+01
 -1     25887 1.42500E+01
 -1     25888 5.26693E+01
 -1     25889 5.04296E+01
 -1     25890 5.26693E+01
 -1     25891 5.34703E+01
 -1     25892 5.12306E+01
 -1     25893 9.25041E+00
 -1     25894 8.39003E+00
 -1     25895 1.13535E+01
 -1     25896 1.58482E+01
 -1     25897 1.24474E+01
 -1     25898 1.30781E+01
 -1     25899 5.47096E+01
 -1     25900 2.71973E+01
 -1     25901 1.65093E+01
 -1     25902 1.75451E+01
 -1     25903 1.65093E+01
 -1     25904 2.06206E+01
 -1     25905 1.91570E+01
 -1     25906 8.97384E+00
 -1     25907 1.11064E+01
 -1     25908 5.38437E+01
 -1     25909 5.38437E+01
 -1     25910 5.38437E+01
 -1     25911 6.36242E+00
 -1     25912 6.95372E+00
 -1     25913 7.34125E+00
 -1     25914 6.79455E+00
 -1     25915 3.50490E+01
 -1     25916 6.85450E+00
 -1     25917 5.35775E+00
 -1     25918 6.88337E+00
 -1     25919 6.88337E+00
 -1     25920 9.64816E+00
 -1     25921 9.64816E+00
 -1     25922 9.64816E+00
 -1     25923 9.64816E+00
 -1     25924 5.57369E+01
 -1     25925 5.55473E+01
 -1     25926 5.55473E+01
 -1     25927 1.02371E+01
 -1     25928 1.00688E+01
 -1     25929 1.04173E+01
 -1     25930 5.52946E+01
 -1     25931 5.45102E+01
 -1     25932 5.52946E+01
 -1     25933 5.55555E+01
 -1     25934 5.47711E+01
 -1     25935 5.47711E+01
 -1     25936 5.47096E+01
 -1     25937 5.47096E+01
 -1     25938 5.08826E+01
 -1     25939 5.08826E+01
 -1     25940 5.10820E+01
 -1     25941 2.45570E+01
 -1     25942 1.91468E+01
 -1     25943 2.41731E+01
 -1     25944 1.89445E+01
 -1     25945 3.84001E+01
 -1     25946 4.12654E+01
 -1     25947 8.40244E+00
 -1     25948 7.94627E+00
 -1     25949 4.61575E+00
 -1     25950 8.01199E+00
 -1     25951 4.15957E+00
 -1     25952 4.56971E+01
 -1     25953 4.56971E+01
 -1     25954 2.53528E+01
 -1     25955 8.44878E+00
 -1     25956 3.77116E+01
 -1     25957 3.77116E+01
 -1     25958 3.31698E+01
 -1     25959 4.07722E+01
 -1     25960 3.31698E+01
 -1     25961 5.53787E+01
 -1     25962 5.52054E+01
 -1     25963 5.52054E+01
 -1     25964 5.52054E+01
 -1     25965 5.50320E+01
 -1     25966 9.13595E+00
 -1     25967 8.46017E+00
 -1     25968 1.72602E+01
 -1     25969 1.07263E+01
 -1     25970 2.21410E+01
 -1     25971 1.76111E+01
 -1     25972 1.91970E+01
 -1     25973 1.91970E+01
 -1     25974 6.21831E+00
 -1     25975 8.07429E+00
 -1     25976 7.76958E+00
 -1     25977 2.19737E+01
 -1     25978 2.73772E+01
 -1     25979 2.34559E+01
 -1     25980 2.53528E+01
 -1     25981 1.04778E+01
 -1     25982 1.17311E+01
 -1     25983 1.03580E+01
 -1     25984 2.32720E+01
 -1     25985 1.05037E+01
 -1     25986 1.17292E+01
 -1     25987 5.40431E+01
 -1     25988 5.43681E+01
 -1     25989 7.94627E+00
 -1     25990 2.28023E+01
 -1     25991 1.46290E+01
 -1     25992 2.42925E+01
 -1     25993 2.66118E+01
 -1     25994 1.84385E+01
 -1     25995 4.50741E+01
 -1     25996 5.03034E+01
 -1     25997 1.02490E+01
 -1     25998 1.05976E+01
 -1     25999 1.48807E+01
 -1     26000 1.05976E+01
 -1     26001 1.50610E+01
 -1     26002 2.41181E+01
 -1     26003 2.30096E+01
 -1     26004 2.17749E+01
 -1     26005 1.73170E+01
 -1     26006 2.30402E+01
 -1     26007 2.10561E+01
 -1     26008 3.76819E+01
 -1     26009 4.09095E+01
 -1     26010 4.16033E+01
 -1     26011 4.48628E+01
 -1     26012 4.41691E+01
 -1     26013 3.80483E+01
 -1     26014 3.93545E+01
 -1     26015 4.40078E+01
 -1     26016 3.80879E+01
 -1     26017 3.93942E+01
 -1     26018 3.57342E+01
 -1     26019 2.69171E+01
 -1     26020 3.25420E+01
 -1     26021 3.54126E+01
 -1     26022 2.65956E+01
 -1     26023 4.67773E+01
 -1     26024 5.08009E+01
 -1     26025 4.73263E+01
 -1     26026 5.08009E+01
 -1     26027 5.13499E+01
 -1     26028 3.25420E+01
 -1     26029 2.26536E+01
 -1     26030 6.84305E+00
 -1     26031 8.90380E+00
 -1     26032 8.53221E+00
 -1     26033 1.16552E+01
 -1     26034 9.14762E+00
 -1     26035 2.89215E+01
 -1     26036 3.48810E+01
 -1     26037 2.24801E+01
 -1     26038 2.69536E+01
 -1     26039 3.29131E+01
 -1     26040 1.02490E+01
 -1     26041 3.32363E+01
 -1     26042 3.57422E+01
 -1     26043 3.34542E+01
 -1     26044 3.53656E+01
 -1     26045 8.11494E+00
 -1     26046 8.76234E+00
 -1     26047 8.82999E+00
 -1     26048 5.81516E+00
 -1     26049 6.74081E+00
 -1     26050 7.50424E+00
 -1     26051 6.84286E+00
 -1     26052 2.18758E+01
 -1     26053 1.83647E+01
 -1     26054 4.01861E+01
 -1     26055 4.58334E+01
 -1     26056 4.68941E+01
 -1     26057 4.01861E+01
 -1     26058 3.91253E+01
 -1     26059 4.58334E+01
 -1     26060 7.65633E+00
 -1     26061 7.09297E+00
 -1     26062 7.87124E+00
 -1     26063 3.90701E+01
 -1     26064 2.93937E+01
 -1     26065 3.99669E+01
 -1     26066 1.49837E+01
 -1     26067 2.52499E+01
 -1     26068 7.78517E+00
 -1     26069 7.77192E+00
 -1     26070 5.74676E+00
 -1     26071 5.76000E+00
 -1     26072 7.57027E+00
 -1     26073 2.53546E+01
 -1     26074 2.77363E+01
 -1     26075 2.79074E+01
 -1     26076 9.57461E+00
 -1     26077 9.95709E+00
 -1     26078 5.06850E+01
 -1     26079 5.06850E+01
 -1     26080 4.78324E+01
 -1     26081 4.78324E+01
 -1     26082 1.51524E+01
 -1     26083 1.51573E+01
 -1     26084 1.91559E+01
 -1     26085 1.77234E+01
 -1     26086 1.37248E+01
 -1     26087 8.84387E+00
 -1     26088 7.43662E+00
 -1     26089 7.28946E+00
 -1     26090 8.69672E+00
 -1     26091 8.01840E+00
 -1     26092 8.42888E+00
 -1     26093 8.94230E+00
 -1     26094 8.48041E+00
 -1     26095 3.89209E+01
 -1     26096 4.19202E+01
 -1     26097 4.01103E+01
 -1     26098 4.31096E+01
 -1     26099 9.73098E+00
 -1     26100 1.29944E+01
 -1     26101 1.05819E+01
 -1     26102 2.67148E+01
 -1     26103 2.19340E+01
 -1     26104 2.19340E+01
 -1     26105 3.24050E+01
 -1     26106 2.80489E+01
 -1     26107 3.73883E+01
 -1     26108 3.66172E+01
 -1     26109 3.22611E+01
 -1     26110 6.89934E+00
 -1     26111 5.26674E+00
 -1     26112 6.89934E+00
 -1     26113 5.21026E+00
 -1     26114 9.33756E+00
 -1     26115 6.89644E+00
 -1     26116 9.73528E+00
 -1     26117 1.21764E+01
 -1     26118 1.10686E+01
 -1     26119 2.23756E+01
 -1     26120 2.28833E+01
 -1     26121 2.28833E+01
 -1     26122 1.03248E+01
 -1     26123 1.16552E+01
 -1     26124 5.11144E+01
 -1     26125 5.11144E+01
 -1     26126 6.47478E+00
 -1     26127 6.26472E+00
 -1     26128 7.94564E+00
 -1     26129 1.92051E+01
 -1     26130 2.41855E+01
 -1     26131 2.28184E+01
 -1     26132 2.14001E+01
 -1     26133 2.56984E+01
 -1     26134 2.04699E+01
 -1     26135 1.82657E+01
 -1     26136 2.18790E+01
 -1     26137 2.46644E+01
 -1     26138 1.95244E+01
 -1     26139 1.56455E+01
 -1     26140 1.43455E+01
 -1     26141 1.51249E+01
 -1     26142 1.38249E+01
 -1     26143 2.10653E+01
 -1     26144 8.28363E+00
 -1     26145 9.43277E+00
 -1     26146 8.61590E+00
 -1     26147 8.61590E+00
 -1     26148 2.26369E+01
 -1     26149 2.49626E+01
 -1     26150 2.07399E+01
 -1     26151 6.18733E+00
 -1     26152 7.98939E+00
 -1     26153 6.48852E+00
 -1     26154 5.20542E+01
 -1     26155 5.20542E+01
 -1     26156 4.98892E+01
 -1     26157 5.20542E+01
 -1     26158 5.42191E+01
 -1     26159 8.64922E+00
 -1     26160 3.74322E+01
 -1     26161 8.38875E+00
 -1     26162 9.00972E+00
 -1     26163 9.11484E+00
 -1     26164 9.00972E+00
 -1     26165 9.73581E+00
 -1     26166 1.61760E+01
 -1     26167 1.75708E+01
 -1     26168 1.69806E+01
 -1     26169 1.75246E+01
 -1     26170 1.51891E+01
 -1     26171 1.89793E+01
 -1     26172 8.28872E+00
 -1     26173 8.24164E+00
 -1     26174 9.03364E+00
 -1     26175 2.24801E+01
 -1     26176 2.48806E+01
 -1     26177 2.29127E+01
 -1     26178 2.48806E+01
 -1     26179 9.52595E+00
 -1     26180 1.02898E+01
 -1     26181 9.52595E+00
 -1     26182 2.05392E+01
 -1     26183 2.35442E+01
 -1     26184 1.18511E+01
 -1     26185 1.16653E+01
 -1     26186 1.13383E+01
 -1     26187 8.76913E+00
 -1     26188 8.99854E+00
 -1     26189 1.08104E+01
 -1     26190 1.02448E+01
 -1     26191 7.14777E+00
 -1     26192 7.71341E+00
 -1     26193 1.08104E+01
 -1     26194 2.45850E+01
 -1     26195 2.26009E+01
 -1     26196 2.30402E+01
 -1     26197 4.84957E+01
 -1     26198 4.92092E+01
 -1     26199 5.18279E+01
 -1     26200 5.06850E+01
 -1     26201 4.80663E+01
 -1     26202 5.13985E+01
 -1     26203 7.85661E+00
 -1     26204 8.50070E+00
 -1     26205 2.63549E+01
 -1     26206 2.51326E+01
 -1     26207 1.03166E+01
 -1     26208 1.18116E+01
 -1     26209 1.18116E+01
 -1     26210 3.12846E+01
 -1     26211 3.12846E+01
 -1     26212 2.67323E+01
 -1     26213 3.89749E+01
 -1     26214 4.18502E+01
 -1     26215 3.85857E+01
 -1     26216 3.89749E+01
 -1     26217 4.30884E+01
 -1     26218 4.53685E+01
 -1     26219 4.41396E+01
 -1     26220 4.03078E+01
 -1     26221 4.25879E+01
 -1     26222 3.55258E+01
 -1     26223 3.27162E+01
 -1     26224 2.93704E+01
 -1     26225 3.24303E+01
 -1     26226 2.96208E+01
 -1     26227 1.00029E+01
 -1     26228 4.36342E+01
 -1     26229 4.36342E+01
 -1     26230 4.59094E+01
 -1     26231 4.64148E+01
 -1     26232 4.64148E+01
 -1     26233 4.50741E+01
 -1     26234 4.52794E+01
 -1     26235 5.02161E+01
 -1     26236 4.48630E+01
 -1     26237 8.53993E+00
 -1     26238 8.41042E+00
 -1     26239 8.95884E+00
 -1     26240 9.60155E+00
 -1     26241 8.37375E+00
 -1     26242 8.71787E+00
 -1     26243 2.26343E+01
 -1     26244 2.57053E+01
 -1     26245 2.81812E+01
 -1     26246 2.21789E+01
 -1     26247 1.97030E+01
 -1     26248 5.27792E+01
 -1     26249 5.23771E+01
 -1     26250 5.53439E+01
 -1     26251 5.29943E+01
 -1     26252 5.49418E+01
 -1     26253 4.03078E+01
 -1     26254 4.13591E+01
 -1     26255 4.13591E+01
 -1     26256 4.13591E+01
 -1     26257 8.48041E+00
 -1     26258 8.37859E+00
 -1     26259 8.32706E+00
 -1     26260 1.19177E+01
 -1     26261 6.27230E+00
 -1     26262 5.75984E+00
 -1     26263 7.26968E+00
 -1     26264 5.26674E+00
 -1     26265 5.86533E+00
 -1     26266 7.03853E+00
 -1     26267 1.66020E+01
 -1     26268 1.57454E+01
 -1     26269 4.10036E+01
 -1     26270 8.56242E+00
 -1     26271 8.87550E+00
 -1     26272 8.93526E+00
 -1     26273 3.07724E+01
 -1     26274 3.53057E+01
 -1     26275 2.46170E+01
 -1     26276 1.56269E+01
 -1     26277 1.53951E+01
 -1     26278 1.61910E+01
 -1     26279 1.59592E+01
 -1     26280 7.85661E+00
 -1     26281 9.06546E+00
 -1     26282 8.53550E+00
 -1     26283 9.52631E+00
 -1     26284 8.99634E+00
 -1     26285 8.18255E+00
 -1     26286 6.70217E+00
 -1     26287 8.07744E+00
 -1     26288 8.38875E+00
 -1     26289 6.90837E+00
 -1     26290 1.47547E+01
 -1     26291 2.35733E+01
 -1     26292 1.47547E+01
 -1     26293 9.52631E+00
 -1     26294 9.48264E+00
 -1     26295 9.54949E+00
 -1     26296 1.13943E+01
 -1     26297 1.10771E+01
 -1     26298 1.29219E+01
 -1     26299 9.23008E+00
 -1     26300 1.46397E+01
 -1     26301 1.21775E+01
 -1     26302 1.21775E+01
 -1     26303 8.24512E+00
 -1     26304 1.00146E+01
 -1     26305 4.65830E+01
 -1     26306 4.58045E+01
 -1     26307 3.46987E+01
 -1     26308 2.74717E+01
 -1     26309 8.94817E+00
 -1     26310 7.94564E+00
 -1     26311 8.94817E+00
 -1     26312 8.94817E+00
 -1     26313 1.00994E+01
 -1     26314 9.19079E+00
 -1     26315 1.00994E+01
 -1     26316 1.84056E+01
 -1     26317 4.17444E+01
 -1     26318 3.86628E+01
 -1     26319 3.86628E+01
 -1     26320 4.17444E+01
 -1     26321 4.17444E+01
 -1     26322 5.16050E+01
 -1     26323 4.93474E+01
 -1     26324 5.08914E+01
 -1     26325 4.86339E+01
 -1     26326 1.66332E+01
 -1     26327 1.66332E+01
 -1     26328 1.91510E+01
 -1     26329 2.63210E+01
 -1     26330 8.39400E+00
 -1     26331 9.00526E+00
 -1     26332 1.40186E+01
 -1     26333 8.30232E+00
 -1     26334 9.46304E+00
 -1     26335 1.07629E+01
 -1     26336 1.03643E+01
 -1     26337 1.09830E+01
 -1     26338 1.24017E+01
 -1     26339 9.16317E+00
 -1     26340 9.67713E+00
 -1     26341 7.85734E+00
 -1     26342 1.54068E+01
 -1     26343 1.29944E+01
 -1     26344 8.40971E+00
 -1     26345 7.58596E+00
 -1     26346 8.40971E+00
 -1     26347 8.94817E+00
 -1     26348 7.58596E+00
 -1     26349 9.89855E+00
 -1     26350 9.63692E+00
 -1     26351 8.53194E+00
 -1     26352 8.53194E+00
 -1     26353 4.10698E+01
 -1     26354 3.28483E+01
 -1     26355 2.69608E+01
 -1     26356 3.95879E+01
 -1     26357 4.29605E+01
 -1     26358 4.34474E+01
 -1     26359 3.91590E+01
 -1     26360 5.17244E+01
 -1     26361 4.46904E+01
 -1     26362 4.61593E+01
 -1     26363 4.25012E+01
 -1     26364 2.92423E+01
 -1     26365 3.51315E+01
 -1     26366 2.45446E+01
 -1     26367 3.09673E+01
 -1     26368 3.31924E+01
 -1     26369 3.31440E+01
 -1     26370 3.28588E+01
 -1     26371 3.50356E+01
 -1     26372 7.71681E+00
 -1     26373 1.09410E+01
 -1     26374 9.11007E+00
 -1     26375 8.61225E+00
 -1     26376 1.04432E+01
 -1     26377 1.18364E+01
 -1     26378 5.24848E+01
 -1     26379 5.45102E+01
 -1     26380 1.01589E+01
 -1     26381 3.30916E+01
 -1     26382 2.59309E+01
 -1     26383 2.63215E+01
 -1     26384 2.61564E+01
 -1     26385 1.68050E+01
 -1     26386 1.68050E+01
 -1     26387 1.84151E+01
 -1     26388 1.84151E+01
 -1     26389 1.84151E+01
 -1     26390 4.17444E+01
 -1     26391 3.73883E+01
 -1     26392 3.77297E+01
 -1     26393 3.77297E+01
 -1     26394 3.63353E+01
 -1     26395 3.23205E+01
 -1     26396 3.48172E+01
 -1     26397 2.54415E+01
 -1     26398 2.31162E+01
 -1     26399 6.88397E+00
 -1     26400 6.64546E+00
 -1     26401 7.02458E+00
 -1     26402 8.17269E+00
 -1     26403 7.78517E+00
 -1     26404 9.41087E+00
 -1     26405 7.35522E+00
 -1     26406 7.87124E+00
 -1     26407 7.35522E+00
 -1     26408 7.89369E+00
 -1     26409 8.40971E+00
 -1     26410 3.32669E+01
 -1     26411 3.95076E+01
 -1     26412 3.16892E+01
 -1     26413 2.54485E+01
 -1     26414 1.53109E+01
 -1     26415 1.71730E+01
 -1     26416 2.23667E+01
 -1     26417 2.13797E+01
 -1     26418 1.29404E+01
 -1     26419 1.63045E+01
 -1     26420 1.60957E+01
 -1     26421 8.02967E+00
 -1     26422 7.63144E+00
 -1     26423 8.40971E+00
 -1     26424 7.91845E+00
 -1     26425 9.23519E+00
 -1     26426 1.41562E+01
 -1     26427 1.01576E+01
 -1     26428 1.26346E+01
 -1     26429 2.30749E+01
 -1     26430 2.50137E+01
 -1     26431 2.48283E+01
 -1     26432 2.30749E+01
 -1     26433 2.48283E+01
 -1     26434 1.61808E+01
 -1     26435 1.26842E+01
 -1     26436 1.44554E+01
 -1     26437 1.59064E+01
 -1     26438 3.41419E+01
 -1     26439 7.53230E+00
 -1     26440 6.03413E+00
 -1     26441 6.43038E+00
 -1     26442 1.49852E+01
 -1     26443 1.78509E+01
 -1     26444 1.42850E+01
 -1     26445 1.71507E+01
 -1     26446 4.41304E+01
 -1     26447 5.06154E+01
 -1     26448 4.36314E+01
 -1     26449 5.01164E+01
 -1     26450 2.18459E+01
 -1     26451 2.11378E+01
 -1     26452 2.18459E+01
 -1     26453 2.18459E+01
 -1     26454 1.68059E+01
 -1     26455 1.47861E+01
 -1     26456 1.48651E+01
 -1     26457 2.33192E+01
 -1     26458 2.10999E+01
 -1     26459 1.96068E+01
 -1     26460 1.73876E+01
 -1     26461 3.25420E+01
 -1     26462 3.14908E+01
 -1     26463 4.53141E+01
 -1     26464 4.07722E+01
 -1     26465 4.53141E+01
 -1     26466 4.07722E+01
 -1     26467 2.09696E+01
 -1     26468 1.99378E+01
 -1     26469 1.14739E+01
 -1     26470 1.10949E+01
 -1     26471 4.14732E+01
 -1     26472 5.10778E+01
 -1     26473 5.10778E+01
 -1     26474 5.25414E+01
 -1     26475 5.25414E+01
 -1     26476 4.50692E+01
 -1     26477 1.84130E+01
 -1     26478 2.78371E+01
 -1     26479 2.24303E+01
 -1     26480 9.13326E+00
 -1     26481 9.27604E+00
 -1     26482 9.43500E+00
 -1     26483 9.29221E+00
 -1     26484 9.43500E+00
 -1     26485 1.58565E+01
 -1     26486 1.45933E+01
 -1     26487 2.27381E+01
 -1     26488 2.77439E+01
 -1     26489 9.41702E+00
 -1     26490 2.23743E+01
 -1     26491 1.81327E+01
 -1     26492 1.07233E+01
 -1     26493 1.07233E+01
 -1     26494 1.18116E+01
 -1     26495 1.07233E+01
 -1     26496 2.12729E+01
 -1     26497 3.96292E+00
 -1     26498 3.96292E+00
 -1     26499 3.96292E+00
 -1     26500 4.87632E+01
 -1     26501 5.19583E+01
 -1     26502 5.38013E+01
 -1     26503 4.96024E+01
 -1     26504 4.77594E+01
 -1     26505 5.27975E+01
 -1     26506 4.57393E+00
 -1     26507 4.45440E+00
 -1     26508 1.51014E+01
 -1     26509 3.98658E+01
 -1     26510 3.88051E+01
 -1     26511 1.89121E+01
 -1     26512 1.89121E+01
 -1     26513 1.45933E+01
 -1     26514 1.08047E+01
 -1     26515 9.95444E+00
 -1     26516 1.04587E+01
 -1     26517 1.60670E+01
 -1     26518 1.66783E+01
 -1     26519 1.95999E+01
 -1     26520 1.78453E+01
 -1     26521 2.21111E+01
 -1     26522 1.50024E+01
 -1     26523 1.75136E+01
 -1     26524 4.01017E+00
 -1     26525 6.37483E+00
 -1     26526 4.01017E+00
 -1     26527 4.22530E+00
 -1     26528 6.37483E+00
 -1     26529 1.79186E+01
 -1     26530 1.72602E+01
 -1     26531 4.72526E+01
 -1     26532 4.57209E+01
 -1     26533 1.02858E+01
 -1     26534 1.49807E+01
 -1     26535 1.89842E+01
 -1     26536 8.82193E+00
 -1     26537 1.26489E+01
 -1     26538 1.28255E+01
 -1     26539 4.53685E+01
 -1     26540 4.38167E+01
 -1     26541 4.72114E+01
 -1     26542 4.87632E+01
 -1     26543 4.72114E+01
 -1     26544 2.19299E+01
 -1     26545 1.73750E+01
 -1     26546 1.89793E+01
 -1     26547 1.89149E+01
 -1     26548 1.80434E+01
 -1     26549 1.80434E+01
 -1     26550 2.60193E+01
 -1     26551 2.60984E+01
 -1     26552 2.80888E+01
 -1     26553 8.74012E+00
 -1     26554 8.68975E+00
 -1     26555 9.68544E+00
 -1     26556 1.01589E+01
 -1     26557 1.01085E+01
 -1     26558 1.02858E+01
 -1     26559 4.72114E+01
 -1     26560 4.63793E+01
 -1     26561 4.72114E+01
 -1     26562 4.38167E+01
 -1     26563 4.29846E+01
 -1     26564 1.71157E+01
 -1     26565 1.42560E+01
 -1     26566 1.59121E+01
 -1     26567 1.99146E+01
 -1     26568 1.82585E+01
 -1     26569 1.70548E+01
 -1     26570 4.77290E+01
 -1     26571 5.09520E+01
 -1     26572 5.65073E+01
 -1     26573 5.57288E+01
 -1     26574 5.69357E+01
 -1     26575 5.65073E+01
 -1     26576 5.61572E+01
 -1     26577 2.67224E+01
 -1     26578 2.57359E+01
 -1     26579 2.34434E+01
 -1     26580 2.30096E+01
 -1     26581 5.20996E+00
 -1     26582 4.90506E+00
 -1     26583 4.70455E+00
 -1     26584 1.78870E+01
 -1     26585 5.64729E+00
 -1     26586 4.24006E+00
 -1     26587 1.50610E+01
 -1     26588 1.95244E+01
 -1     26589 4.05596E+01
 -1     26590 3.96095E+01
 -1     26591 3.53382E+01
 -1     26592 3.84703E+01
 -1     26593 3.75202E+01
 -1     26594 4.84758E+01
 -1     26595 5.16328E+01
 -1     26596 9.37702E+00
 -1     26597 2.44964E+01
 -1     26598 2.40200E+01
 -1     26599 2.19299E+01
 -1     26600 1.32490E+01
 -1     26601 3.92870E+01
 -1     26602 4.25465E+01
 -1     26603 1.75088E+01
 -1     26604 1.38437E+01
 -1     26605 1.81582E+01
 -1     26606 5.16757E+01
 -1     26607 4.85187E+01
 -1     26608 9.82161E+00
 -1     26609 8.15294E+00
 -1     26610 5.04436E+01
 -1     26611 5.11267E+01
 -1     26612 4.79697E+01
 -1     26613 5.47413E+01
 -1     26614 5.69357E+01
 -1     26615 5.57653E+01
 -1     26616 1.96239E+01
 -1     26617 2.11378E+01
 -1     26618 2.11378E+01
 -1     26619 1.57410E+01
 -1     26620 1.57410E+01
 -1     26621 1.90333E+01
 -1     26622 1.90333E+01
 -1     26623 1.57410E+01
 -1     26624 1.90333E+01
 -1     26625 4.10812E+01
 -1     26626 4.43715E+01
 -1     26627 4.54231E+01
 -1     26628 5.04436E+01
 -1     26629 4.21657E+01
 -1     26630 1.12403E+01
 -1     26631 1.16996E+01
 -1     26632 1.34060E+01
 -1     26633 2.29949E+01
 -1     26634 2.30124E+01
 -1     26635 5.25975E+01
 -1     26636 5.20921E+01
 -1     26637 5.76356E+01
 -1     26638 5.14529E+01
 -1     26639 1.52065E+01
 -1     26640 1.28742E+01
 -1     26641 1.59734E+01
 -1     26642 1.34011E+01
 -1     26643 4.66134E+01
 -1     26644 5.69661E+01
 -1     26645 9.73128E+00
 -1     26646 1.71662E+01
 -1     26647 1.61520E+01
 -1     26648 1.55645E+01
 -1     26649 1.18364E+01
 -1     26650 9.41087E+00
 -1     26651 1.49430E+01
 -1     26652 1.87831E+01
 -1     26653 1.68050E+01
 -1     26654 2.72509E+01
 -1     26655 2.72509E+01
 -1     26656 2.86874E+01
 -1     26657 1.51045E+01
 -1     26658 4.12483E+01
 -1     26659 1.06111E+01
 -1     26660 1.16552E+01
 -1     26661 7.79400E+00
 -1     26662 1.20339E+01
 -1     26663 9.21674E+00
 -1     26664 2.26555E+01
 -1     26665 1.95361E+01
 -1     26666 5.58086E+01
 -1     26667 5.34367E+01
 -1     26668 5.09705E+01
 -1     26669 1.19085E+01
 -1     26670 1.26731E+01
 -1     26671 1.26834E+01
 -1     26672 1.09994E+01
 -1     26673 9.95134E+00
 -1     26674 1.13014E+01
 -1     26675 4.53141E+01
 -1     26676 3.93545E+01
 -1     26677 3.96733E+01
 -1     26678 6.15840E+00
 -1     26679 9.69242E+00
 -1     26680 9.02226E+00
 -1     26681 9.25167E+00
 -1     26682 9.39133E+00
 -1     26683 9.13820E+00
 -1     26684 4.39980E+01
 -1     26685 1.29944E+01
 -1     26686 1.24017E+01
 -1     26687 5.79076E+00
 -1     26688 8.38317E+00
 -1     26689 8.20892E+00
 -1     26690 9.57828E+00
 -1     26691 2.59242E+01
 -1     26692 1.28062E+01
 -1     26693 8.73584E+00
 -1     26694 5.00706E+01
 -1     26695 5.32548E+01
 -1     26696 5.34362E+01
 -1     26697 5.04436E+01
 -1     26698 5.02623E+01
 -1     26699 5.36279E+01
 -1     26700 6.77670E+00
 -1     26701 1.01615E+01
 -1     26702 4.70164E+01
 -1     26703 3.89833E+01
 -1     26704 4.80904E+01
 -1     26705 5.42191E+01
 -1     26706 5.54198E+01
 -1     26707 5.54198E+01
 -1     26708 5.54198E+01
 -1     26709 5.66205E+01
 -1     26710 1.90919E+01
 -1     26711 1.09850E+01
 -1     26712 8.97946E+00
 -1     26713 3.69710E+01
 -1     26714 3.39260E+01
 -1     26715 2.97733E+01
 -1     26716 3.54857E+01
 -1     26717 3.16858E+01
 -1     26718 5.36279E+01
 -1     26719 5.32548E+01
 -1     26720 5.02623E+01
 -1     26721 5.36279E+01
 -1     26722 5.66205E+01
 -1     26723 4.53685E+01
 -1     26724 1.26834E+01
 -1     26725 1.20435E+01
 -1     26726 5.57288E+01
 -1     26727 5.55555E+01
 -1     26728 2.74006E+01
 -1     26729 2.73425E+01
 -1     26730 2.33301E+01
 -1     26731 2.55128E+01
 -1     26732 9.06688E+00
 -1     26733 4.93058E+00
 -1     26734 4.99876E+00
 -1     26735 4.66134E+01
 -1     26736 3.62303E+01
 -1     26737 2.04802E+01
 -1     26738 1.87144E+01
 -1     26739 2.04802E+01
 -1     26740 2.04802E+01
 -1     26741 1.87144E+01
 -1     26742 1.88900E+01
 -1     26743 1.38888E+01
 -1     26744 1.54989E+01
 -1     26745 1.48555E+01
 -1     26746 2.01091E+01
 -1     26747 1.64267E+01
 -1     26748 1.51267E+01
 -1     26749 3.35000E+01
 -1     26750 3.35000E+01
 -1     26751 4.19044E+01
 -1     26752 1.66864E+01
 -1     26753 1.52099E+01
 -1     26754 2.05090E+01
 -1     26755 2.22461E+01
 -1     26756 2.05090E+01
 -1     26757 2.05090E+01
 -1     26758 5.48891E+01
 -1     26759 5.36518E+01
 -1     26760 5.43217E+01
 -1     26761 5.43217E+01
 -1     26762 5.36518E+01
 -1     26763 1.52846E+01
 -1     26764 1.51075E+01
 -1     26765 2.05534E+01
 -1     26766 2.72334E+01
 -1     26767 4.03078E+01
 -1     26768 2.15205E+01
 -1     26769 2.14132E+01
 -1     26770 1.54003E+01
 -1     26771 1.52930E+01
 -1     26772 3.31698E+01
 -1     26773 3.43756E+01
 -1     26774 3.43756E+01
 -1     26775 3.43756E+01
 -1     26776 2.67671E+01
 -1     26777 2.67671E+01
 -1     26778 2.19737E+01
 -1     26779 2.65650E+01
 -1     26780 2.42145E+01
 -1     26781 2.73425E+01
 -1     26782 2.88058E+01
 -1     26783 4.81196E+01
 -1     26784 5.11995E+01
 -1     26785 2.74006E+01
 -1     26786 3.20671E+01
 -1     26787 3.10806E+01
 -1     26788 4.29003E+01
 -1     26789 4.29003E+01
 -1     26790 4.14226E+01
 -1     26791 3.35355E+01
 -1     26792 1.11053E+01
 -1     26793 1.33378E+01
 -1     26794 1.40418E+01
 -1     26795 4.10698E+01
 -1     26796 1.87719E+01
 -1     26797 4.46166E+01
 -1     26798 2.95833E+01
 -1     26799 3.18580E+01
 -1     26800 2.95833E+01
 -1     26801 1.11677E+01
 -1     26802 1.26946E+01
 -1     26803 1.00029E+01
 -1     26804 1.15216E+01
 -1     26805 8.82985E+00
 -1     26806 7.37509E+00
 -1     26807 3.51315E+01
 -1     26808 4.08242E+00
 -1     26809 6.37483E+00
 -1     26810 4.22530E+00
 -1     26811 4.05115E+01
 -1     26812 3.50230E+01
 -1     26813 4.05819E+01
 -1     26814 4.05819E+01
 -1     26815 3.50934E+01
 -1     26816 1.33005E+01
 -1     26817 1.26755E+01
 -1     26818 9.67661E+00
 -1     26819 1.17987E+01
 -1     26820 8.94677E+00
 -1     26821 1.90710E+01
 -1     26822 1.77088E+01
 -1     26823 1.26946E+01
 -1     26824 7.86912E+00
 -1     26825 4.58891E+01
 -1     26826 4.97209E+01
 -1     26827 4.30884E+01
 -1     26828 4.97209E+01
 -1     26829 4.69202E+01
 -1     26830 1.15161E+01
 -1     26831 1.35856E+01
 -1     26832 1.35856E+01
 -1     26833 5.08195E+01
 -1     26834 5.53982E+01
 -1     26835 5.53982E+01
 -1     26836 4.79429E+01
 -1     26837 5.25215E+01
 -1     26838 4.59117E+01
 -1     26839 4.40370E+01
 -1     26840 1.77976E+01
 -1     26841 1.75889E+01
 -1     26842 4.93474E+01
 -1     26843 5.25414E+01
 -1     26844 2.31478E+01
 -1     26845 2.54735E+01
 -1     26846 1.48949E+01
 -1     26847 1.79596E+01
 -1     26848 1.66954E+01
 -1     26849 2.38657E+01
 -1     26850 2.04320E+01
 -1     26851 2.07916E+01
 -1     26852 2.42254E+01
 -1     26853 2.42254E+01
 -1     26854 9.95880E+00
 -1     26855 1.26631E+01
 -1     26856 1.20381E+01
 -1     26857 1.35856E+01
 -1     26858 1.66768E+01
 -1     26859 2.85694E+01
 -1     26860 2.97012E+01
 -1     26861 1.30976E+01
 -1     26862 1.68059E+01
 -1     26863 1.20511E+01
 -1     26864 1.20511E+01
 -1     26865 1.91622E+01
 -1     26866 1.72836E+01
 -1     26867 1.49273E+01
 -1     26868 1.00994E+01
 -1     26869 1.05024E+01
 -1     26870 2.99777E+01
 -1     26871 3.45195E+01
 -1     26872 2.69171E+01
 -1     26873 3.77116E+01
 -1     26874 1.27849E+01
 -1     26875 1.08105E+01
 -1     26876 1.06987E+01
 -1     26877 1.51838E+01
 -1     26878 4.16348E+01
 -1     26879 3.96502E+01
 -1     26880 3.96502E+01
 -1     26881 7.81380E+00
 -1     26882 1.95810E+01
 -1     26883 2.16551E+01
 -1     26884 2.30361E+01
 -1     26885 1.95810E+01
 -1     26886 2.30361E+01
 -1     26887 1.04171E+01
 -1     26888 3.28627E+01
 -1     26889 4.93474E+01
 -1     26890 5.25414E+01
 -1     26891 1.33155E+01
 -1     26892 1.32126E+01
 -1     26893 1.39943E+01
 -1     26894 1.95999E+01
 -1     26895 8.94817E+00
 -1     26896 3.29206E+00
 -1     26897 3.54355E+00
 -1     26898 3.54355E+00
 -1     26899 3.08751E+00
 -1     26900 3.33901E+00
 -1     26901 5.24368E+01
 -1     26902 5.21117E+01
 -1     26903 1.02898E+01
 -1     26904 2.24745E+01
 -1     26905 4.12654E+01
 -1     26906 4.27015E+01
 -1     26907 4.27015E+01
 -1     26908 4.12654E+01
 -1     26909 5.41770E+01
 -1     26910 5.39161E+01
 -1     26911 5.47005E+01
 -1     26912 2.36582E+01
 -1     26913 2.21410E+01
 -1     26914 2.17084E+01
 -1     26915 8.03582E+00
 -1     26916 1.21018E+01
 -1     26917 1.18493E+01
 -1     26918 1.11345E+01
 -1     26919 1.13870E+01
 -1     26920 1.52005E+01
 -1     26921 1.52005E+01
 -1     26922 1.45782E+01
 -1     26923 4.42866E+01
 -1     26924 4.41618E+01
 -1     26925 4.37731E+01
 -1     26926 4.38979E+01
 -1     26927 5.34666E+01
 -1     26928 5.34362E+01
 -1     26929 5.69661E+01
 -1     26930 5.69661E+01
 -1     26931 5.34362E+01
 -1     26932 1.15881E+01
 -1     26933 2.38657E+01
 -1     26934 2.42254E+01
 -1     26935 2.38657E+01
 -1     26936 1.11969E+01
 -1     26937 1.88645E+01
 -1     26938 1.57374E+01
 -1     26939 1.03846E+01
 -1     26940 9.66628E+00
 -1     26941 1.18821E+01
 -1     26942 1.44178E+01
 -1     26943 1.11638E+01
 -1     26944 2.78663E+01
 -1     26945 2.82989E+01
 -1     26946 2.82989E+01
 -1     26947 2.13275E+01
 -1     26948 1.70784E+01
 -1     26949 2.17150E+01
 -1     26950 1.73726E+01
 -1     26951 9.92252E+00
 -1     26952 9.80273E+00
 -1     26953 4.37731E+01
 -1     26954 2.38657E+01
 -1     26955 2.04320E+01
 -1     26956 2.38657E+01
 -1     26957 5.18279E+01
 -1     26958 2.33171E+01
 -1     26959 8.24677E+00
 -1     26960 9.12646E+00
 -1     26961 2.09369E+01
 -1     26962 2.09369E+01
 -1     26963 2.33301E+01
 -1     26964 1.47764E+01
 -1     26965 1.39229E+01
 -1     26966 1.16396E+01
 -1     26967 5.24646E+00
 -1     26968 6.69317E+00
 -1     26969 6.78727E+00
 -1     26970 1.27849E+01
 -1     26971 1.28968E+01
 -1     26972 1.14884E+01
 -1     26973 1.14884E+01
 -1     26974 1.13796E+01
 -1     26975 6.19086E+00
 -1     26976 7.37033E+00
 -1     26977 1.85734E+01
 -1     26978 2.04324E+01
 -1     26979 3.06401E+01
 -1     26980 2.96186E+01
 -1     26981 4.57393E+00
 -1     26982 4.29406E+00
 -1     26983 8.51696E+00
 -1     26984 7.53230E+00
 -1     26985 1.84415E+01
 -1     26986 4.38019E+01
 -1     26987 4.56971E+01
 -1     26988 4.38019E+01
 -1     26989 4.56971E+01
 -1     26990 1.54135E+01
 -1     26991 1.54085E+01
 -1     26992 4.09095E+01
 -1     26993 3.76945E+01
 -1     26994 3.76945E+01
 -1     26995 3.34823E+01
 -1     26996 3.76945E+01
 -1     26997 2.01120E+01
 -1     26998 1.87578E+01
 -1     26999 1.87831E+01
 -1     27000 4.85460E+01
 -1     27001 4.85460E+01
 -1     27002 1.71730E+01
 -1     27003 3.79744E+01
 -1     27004 1.56626E+01
 -1     27005 1.91810E+01
 -1     27006 1.92143E+01
 -1     27007 2.35442E+01
 -1     27008 1.44552E+01
 -1     27009 1.04566E+01
 -1     27010 3.23672E+01
 -1     27011 3.06016E+01
 -1     27012 9.68544E+00
 -1     27013 8.40971E+00
 -1     27014 1.76111E+01
 -1     27015 3.85857E+01
 -1     27016 3.85857E+01
 -1     27017 3.85857E+01
 -1     27018 3.85857E+01
 -1     27019 3.85857E+01
 -1     27020 1.84151E+01
 -1     27021 1.84151E+01
 -1     27022 7.82793E+00
 -1     27023 7.49887E+00
 -1     27024 6.37862E+00
 -1     27025 6.96040E+00
 -1     27026 1.64058E+01
 -1     27027 2.79942E+01
 -1     27028 2.83827E+01
 -1     27029 9.85243E+00
 -1     27030 7.09781E+00
 -1     27031 3.12523E+01
 -1     27032 2.57053E+01
 -1     27033 1.91792E+01
 -1     27034 2.47262E+01
 -1     27035 2.47262E+01
 -1     27036 8.94817E+00
 -1     27037 1.05024E+01
 -1     27038 7.49887E+00
 -1     27039 7.93335E+00
 -1     27040 2.95833E+01
 -1     27041 2.22413E+01
 -1     27042 1.95999E+01
 -1     27043 2.22413E+01
 -1     27044 1.53725E+01
 -1     27045 1.54062E+01
 -1     27046 1.55982E+01
 -1     27047 9.58474E+00
 -1     27048 1.38497E+01
 -1     27049 1.15422E+01
 -1     27050 1.02680E+01
 -1     27051 1.37961E+01
 -1     27052 1.56626E+01
 -1     27053 1.91907E+01
 -1     27054 1.02680E+01
 -1     27055 1.56626E+01
 -1     27056 3.93545E+01
 -1     27057 2.89215E+01
 -1     27058 2.75556E+01
 -1     27059 2.86874E+01
 -1     27060 2.85694E+01
 -1     27061 8.96611E+00
 -1     27062 1.04479E+01
 -1     27063 3.99669E+01
 -1     27064 3.99669E+01
 -1     27065 3.81894E+01
 -1     27066 3.99669E+01
 -1     27067 3.41313E+01
 -1     27068 3.67820E+01
 -1     27069 3.67820E+01
 -1     27070 4.05819E+01
 -1     27071 1.70329E+01
 -1     27072 2.57053E+01
 -1     27073 2.25798E+01
 -1     27074 3.12523E+01
 -1     27075 4.47057E+01
 -1     27076 3.35989E+01
 -1     27077 1.19469E+01
 -1     27078 1.13328E+01
 -1     27079 3.12523E+01
 -1     27080 1.00285E+01
 -1     27081 1.05263E+01
 -1     27082 4.74550E+01
 -1     27083 1.23342E+01
 -1     27084 1.09410E+01
 -1     27085 4.21791E+01
 -1     27086 4.48612E+01
 -1     27087 4.27039E+01
 -1     27088 4.48612E+01
 -1     27089 4.53860E+01
 -1     27090 4.31096E+01
 -1     27091 4.45795E+01
 -1     27092 3.98495E+01
 -1     27093 4.13194E+01
 -1     27094 1.23342E+01
 -1     27095 3.91605E+01
 -1     27096 4.32329E+01
 -1     27097 4.07586E+01
 -1     27098 3.80115E+01
 -1     27099 9.60155E+00
 -1     27100 9.60155E+00
 -1     27101 8.48964E+00
 -1     27102 3.86730E+00
 -1     27103 8.25534E+00
 -1     27104 6.76193E+00
 -1     27105 5.43129E+01
 -1     27106 5.60790E+01
 -1     27107 4.72661E+01
 -1     27108 5.29321E+01
 -1     27109 4.99396E+01
 -1     27110 2.56984E+01
 -1     27111 2.74006E+01
 -1     27112 5.75520E+01
 -1     27113 5.40525E+01
 -1     27114 5.38629E+01
 -1     27115 5.73624E+01
 -1     27116 5.79787E+01
 -1     27117 1.56761E+01
 -1     27118 4.53860E+01
 -1     27119 4.53860E+01
 -1     27120 4.46904E+01
 -1     27121 5.17244E+01
 -1     27122 5.31933E+01
 -1     27123 4.61593E+01
 -1     27124 3.89209E+01
 -1     27125 4.08986E+01
 -1     27126 5.50189E+01
 -1     27127 5.22216E+01
 -1     27128 5.51288E+01
 -1     27129 5.50189E+01
 -1     27130 5.22216E+01
 -1     27131 5.45102E+01
 -1     27132 8.37859E+00
 -1     27133 8.10199E+00
 -1     27134 1.04778E+01
 -1     27135 5.29943E+01
 -1     27136 5.29943E+01
 -1     27137 5.52340E+01
 -1     27138 4.17444E+01
 -1     27139 4.17444E+01
 -1     27140 1.98067E+01
 -1     27141 4.14226E+01
 -1     27142 2.58391E+01
 -1     27143 2.90421E+01
 -1     27144 9.05639E+00
 -1     27145 1.21234E+01
 -1     27146 1.20828E+01
 -1     27147 1.49099E+01
 -1     27148 1.24640E+01
 -1     27149 1.20398E+01
 -1     27150 1.91757E+01
 -1     27151 1.67298E+01
 -1     27152 1.24529E+01
 -1     27153 1.06381E+01
 -1     27154 1.08182E+01
 -1     27155 1.06381E+01
 -1     27156 2.77328E+01
 -1     27157 2.33767E+01
 -1     27158 3.90701E+01
 -1     27159 3.68852E+01
 -1     27160 3.96959E+01
 -1     27161 3.65718E+01
 -1     27162 3.83079E+01
 -1     27163 4.26347E+01
 -1     27164 3.95107E+01
 -1     27165 3.79820E+01
 -1     27166 3.91283E+01
 -1     27167 3.79820E+01
 -1     27168 8.93036E+00
 -1     27169 7.36138E+00
 -1     27170 1.70064E+01
 -1     27171 5.61876E+01
 -1     27172 5.25090E+01
 -1     27173 5.22216E+01
 -1     27174 5.22216E+01
 -1     27175 6.81846E+00
 -1     27176 6.73126E+00
 -1     27177 5.46900E+00
 -1     27178 5.60669E+00
 -1     27179 7.40737E+00
 -1     27180 3.68852E+01
 -1     27181 3.79820E+01
 -1     27182 3.04732E+01
 -1     27183 3.32923E+01
 -1     27184 2.65592E+01
 -1     27185 1.02490E+01
 -1     27186 9.58793E+00
 -1     27187 9.57397E+00
 -1     27188 1.84091E+01
 -1     27189 2.98219E+01
 -1     27190 3.07540E+01
 -1     27191 3.24658E+01
 -1     27192 3.15337E+01
 -1     27193 1.00719E+01
 -1     27194 1.02085E+01
 -1     27195 5.57553E+01
 -1     27196 5.16395E+01
 -1     27197 5.55657E+01
 -1     27198 2.14903E+01
 -1     27199 4.77883E+01
 -1     27200 4.60989E+01
 -1     27201 4.98892E+01
 -1     27202 1.51871E+01
 -1     27203 5.46739E+01
 -1     27204 5.20500E+01
 -1     27205 1.69969E+01
 -1     27206 1.29219E+01
 -1     27207 1.49738E+01
 -1     27208 1.70455E+01
 -1     27209 1.70301E+01
 -1     27210 3.77446E+01
 -1     27211 3.86652E+01
 -1     27212 5.75824E+01
 -1     27213 5.63816E+01
 -1     27214 4.42866E+01
 -1     27215 4.82820E+01
 -1     27216 5.49090E+01
 -1     27217 5.49090E+01
 -1     27218 4.64674E+01
 -1     27219 9.24747E+00
 -1     27220 8.28630E+00
 -1     27221 2.15211E+01
 -1     27222 2.06397E+01
 -1     27223 2.23756E+01
 -1     27224 2.27361E+01
 -1     27225 2.25889E+01
 -1     27226 1.91510E+01
 -1     27227 1.71730E+01
 -1     27228 1.91510E+01
 -1     27229 1.71730E+01
 -1     27230 5.47096E+01
 -1     27231 5.47096E+01
 -1     27232 2.78946E+01
 -1     27233 3.41327E+01
 -1     27234 3.18580E+01
 -1     27235 2.24386E+01
 -1     27236 8.68247E+00
 -1     27237 8.70620E+00
 -1     27238 8.68247E+00
 -1     27239 9.22795E+00
 -1     27240 7.02671E+00
 -1     27241 6.46392E+00
 -1     27242 8.02967E+00
 -1     27243 6.46392E+00
 -1     27244 8.02967E+00
 -1     27245 1.90266E+01
 -1     27246 1.75451E+01
 -1     27247 1.69717E+01
 -1     27248 1.63982E+01
 -1     27249 4.77512E+01
 -1     27250 4.77512E+01
 -1     27251 5.19401E+01
 -1     27252 1.49526E+01
 -1     27253 5.53369E+01
 -1     27254 4.39467E+01
 -1     27255 3.28545E+01
 -1     27256 3.37709E+01
 -1     27257 5.44828E+01
 -1     27258 3.92396E+01
 -1     27259 5.82748E+01
 -1     27260 5.80320E+01
 -1     27261 9.69020E+00
 -1     27262 5.53982E+01
 -1     27263 5.82748E+01
 -1     27264 9.12646E+00
 -1     27265 8.80835E+00
 -1     27266 9.29244E+00
 -1     27267 9.44067E+00
 -1     27268 1.10368E+01
 -1     27269 5.25156E+01
 -1     27270 8.52436E+00
 -1     27271 9.12646E+00
 -1     27272 1.65582E+01
 -1     27273 1.90190E+01
 -1     27274 4.82398E+00
 -1     27275 3.21437E+00
 -1     27276 4.33027E+00
 -1     27277 1.47751E+01
 -1     27278 1.39265E+01
 -1     27279 3.30525E+01
 -1     27280 7.14777E+00
 -1     27281 1.89121E+01
 -1     27282 9.22795E+00
 -1     27283 9.22795E+00
 -1     27284 9.25167E+00
 -1     27285 2.41732E+01
 -1     27286 8.88787E+00
 -1     27287 4.19975E+01
 -1     27288 4.45440E+00
 -1     27289 4.84069E+01
 -1     27290 1.11079E+01
 -1     27291 8.69585E+00
 -1     27292 1.18230E+01
 -1     27293 9.41090E+00
 -1     27294 1.42215E+01
 -1     27295 5.28406E+01
 -1     27296 1.15039E+01
 -1     27297 1.34810E+01
 -1     27298 1.01425E+01
 -1     27299 5.06353E+01
 -1     27300 5.04436E+01
 -1     27301 5.06353E+01
 -1     27302 3.02104E+01
 -1     27303 2.98192E+01
 -1     27304 2.94307E+01
 -1     27305 1.10377E+01
 -1     27306 1.17553E+01
 -1     27307 1.01291E+01
 -1     27308 7.78517E+00
 -1     27309 8.76399E+00
 -1     27310 8.76780E+00
 -1     27311 9.22970E+00
 -1     27312 5.49418E+01
 -1     27313 5.31103E+01
 -1     27314 5.09454E+01
 -1     27315 5.04737E+01
 -1     27316 4.94176E+01
 -1     27317 9.24619E+00
 -1     27318 9.65434E+00
 -1     27319 9.65434E+00
 -1     27320 4.77512E+01
 -1     27321 1.77597E+01
 -1     27322 1.17601E+01
 -1     27323 1.27547E+01
 -1     27324 8.94114E+00
 -1     27325 1.08182E+01
 -1     27326 1.53951E+01
 -1     27327 1.42534E+01
 -1     27328 1.50508E+01
 -1     27329 1.88076E+01
 -1     27330 9.18805E+00
 -1     27331 2.26951E+01
 -1     27332 2.01140E+01
 -1     27333 1.70553E+01
 -1     27334 2.32485E+01
 -1     27335 4.48309E+01
 -1     27336 4.48309E+01
 -1     27337 7.74034E+00
 -1     27338 8.70620E+00
 -1     27339 4.68333E+00
 -1     27340 4.88232E+00
 -1     27341 2.31478E+01
 -1     27342 9.27539E+00
 -1     27343 3.87947E+01
 -1     27344 2.52461E+01
 -1     27345 2.52461E+01
 -1     27346 1.90973E+01
 -1     27347 2.21113E+01
 -1     27348 2.11633E+01
 -1     27349 1.56068E+01
 -1     27350 2.01466E+01
 -1     27351 5.26674E+00
 -1     27352 9.43253E+00
 -1     27353 1.31420E+01
 -1     27354 1.31420E+01
 -1     27355 2.09762E+01
 -1     27356 1.66931E+01
 -1     27357 1.67346E+01
 -1     27358 1.15969E+01
 -1     27359 8.77976E+00
 -1     27360 1.20339E+01
 -1     27361 9.15845E+00
 -1     27362 5.86533E+00
 -1     27363 4.73044E+01
 -1     27364 3.68047E+01
 -1     27365 5.53439E+01
 -1     27366 5.51288E+01
 -1     27367 5.46739E+01
 -1     27368 5.48891E+01
 -1     27369 1.56627E+01
 -1     27370 1.91549E+01
 -1     27371 1.28666E+01
 -1     27372 2.66118E+01
 -1     27373 2.35164E+01
 -1     27374 2.07578E+01
 -1     27375 2.35164E+01
 -1     27376 1.69483E+01
 -1     27377 4.75414E+01
 -1     27378 4.07644E+01
 -1     27379 3.68876E+01
 -1     27380 3.52733E+01
 -1     27381 4.13478E+01
 -1     27382 3.96733E+01
 -1     27383 3.84791E+01
 -1     27384 8.90454E+00
 -1     27385 4.72264E+01
 -1     27386 5.07450E+01
 -1     27387 5.82748E+01
 -1     27388 1.67915E+01
 -1     27389 1.85140E+01
 -1     27390 3.65611E+01
 -1     27391 3.65611E+01
 -1     27392 1.25957E+01
 -1     27393 9.47950E+00
 -1     27394 1.63982E+01
 -1     27395 2.36820E+01
 -1     27396 4.21683E+01
 -1     27397 4.36616E+01
 -1     27398 3.69770E+01
 -1     27399 4.14796E+01
 -1     27400 1.80632E+01
 -1     27401 1.93686E+01
 -1     27402 1.46833E+01
 -1     27403 2.96718E+01
 -1     27404 3.07724E+01
 -1     27405 3.24303E+01
 -1     27406 1.15161E+01
 -1     27407 5.61876E+01
 -1     27408 5.47583E+01
 -1     27409 5.49868E+01
 -1     27410 2.15961E+01
 -1     27411 7.37893E+00
 -1     27412 8.25785E+00
 -1     27413 8.97558E+00
 -1     27414 3.16068E+01
 -1     27415 3.40073E+01
 -1     27416 9.00479E+00
 -1     27417 9.56004E+00
 -1     27418 1.59153E+01
 -1     27419 1.45136E+01
 -1     27420 1.88900E+01
 -1     27421 1.41630E+01
 -1     27422 1.46295E+01
 -1     27423 1.24588E+01
 -1     27424 9.85243E+00
 -1     27425 1.02898E+01
 -1     27426 1.06077E+01
 -1     27427 5.51288E+01
 -1     27428 5.51288E+01
 -1     27429 5.51288E+01
 -1     27430 3.34815E+01
 -1     27431 3.06960E+01
 -1     27432 5.80320E+01
 -1     27433 5.57901E+01
 -1     27434 5.33239E+01
 -1     27435 5.06062E+01
 -1     27436 5.17407E+01
 -1     27437 5.47583E+01
 -1     27438 5.61876E+01
 -1     27439 5.47583E+01
 -1     27440 1.18452E+01
 -1     27441 1.19503E+01
 -1     27442 9.53789E+00
 -1     27443 2.11831E+01
 -1     27444 1.19188E+01
 -1     27445 1.02629E+01
 -1     27446 3.57237E+01
 -1     27447 3.36349E+01
 -1     27448 2.41855E+01
 -1     27449 3.20631E+01
 -1     27450 3.34815E+01
 -1     27451 1.24017E+01
 -1     27452 1.19283E+01
 -1     27453 9.23656E+00
 -1     27454 9.70999E+00
 -1     27455 7.84453E+00
 -1     27456 7.69630E+00
 -1     27457 6.09103E+00
 -1     27458 6.94792E+00
 -1     27459 6.89377E+00
 -1     27460 6.75568E+00
 -1     27461 3.43044E+01
 -1     27462 3.75856E+00
 -1     27463 2.15589E+01
 -1     27464 2.34559E+01
 -1     27465 4.37672E+00
 -1     27466 5.02787E+00
 -1     27467 4.24986E+00
 -1     27468 1.02419E+01
 -1     27469 5.98632E+00
 -1     27470 8.95884E+00
 -1     27471 2.41732E+01
 -1     27472 3.48183E+00
 -1     27473 2.93634E+01
 -1     27474 2.62957E+01
 -1     27475 2.62957E+01
 -1     27476 8.52436E+00
 -1     27477 8.64703E+00
 -1     27478 8.28630E+00
 -1     27479 6.03086E+00
 -1     27480 8.15294E+00
 -1     27481 5.30102E+00
 -1     27482 8.46574E+00
 -1     27483 8.87057E+00
 -1     27484 9.03364E+00
 -1     27485 4.96715E+00
 -1     27486 4.96715E+00
 -1     27487 4.50720E+00
 -1     27488 4.42237E+00
 -1     27489 1.01615E+01
 -1     27490 3.44799E+01
 -1     27491 3.36924E+01
 -1     27492 3.20714E+01
 -1     27493 2.24672E+01
 -1     27494 2.51183E+01
 -1     27495 3.66172E+01
 -1     27496 2.26009E+01
 -1     27497 5.08914E+01
 -1     27498 5.03925E+01
 -1     27499 4.77512E+01
 -1     27500 4.82502E+01
 -1     27501 5.06154E+01
 -1     27502 1.63160E+01
 -1     27503 2.26555E+01
 -1     27504 1.79702E+01
 -1     27505 5.16900E+01
 -1     27506 5.41030E+01
 -1     27507 5.16715E+01
 -1     27508 7.39755E+00
 -1     27509 7.40879E+00
 -1     27510 1.30962E+01
 -1     27511 1.46551E+01
 -1     27512 2.54865E+01
 -1     27513 3.04698E+01
 -1     27514 2.41699E+01
 -1     27515 1.02373E+01
 -1     27516 1.09523E+01
 -1     27517 2.05090E+01
 -1     27518 1.56636E+01
 -1     27519 1.00421E+01
 -1     27520 1.19648E+01
 -1     27521 9.59543E+00
 -1     27522 5.46739E+01
 -1     27523 1.58565E+01
 -1     27524 5.76053E+01
 -1     27525 5.82748E+01
 -1     27526 2.72334E+01
 -1     27527 2.83761E+01
 -1     27528 4.38167E+01
 -1     27529 5.52946E+01
 -1     27530 5.39161E+01
 -1     27531 5.60790E+01
 -1     27532 5.47005E+01
 -1     27533 9.76126E+00
 -1     27534 9.22037E+00
 -1     27535 9.73581E+00
 -1     27536 9.94014E+00
 -1     27537 7.87124E+00
 -1     27538 7.65633E+00
 -1     27539 8.47068E+00
 -1     27540 8.24127E+00
 -1     27541 8.47068E+00
 -1     27542 2.33192E+01
 -1     27543 2.66604E+01
 -1     27544 1.25855E+01
 -1     27545 8.61290E+00
 -1     27546 9.39133E+00
 -1     27547 1.00524E+01
 -1     27548 1.73701E+01
 -1     27549 1.57424E+01
 -1     27550 1.75207E+01
 -1     27551 1.64058E+01
 -1     27552 2.06194E+01
 -1     27553 1.50724E+01
 -1     27554 9.42451E+00
 -1     27555 9.24747E+00
 -1     27556 9.42451E+00
 -1     27557 3.87081E+01
 -1     27558 4.62951E+01
 -1     27559 4.29003E+01
 -1     27560 2.33072E+01
 -1     27561 1.94806E+01
 -1     27562 9.75835E+00
 -1     27563 8.25422E+00
 -1     27564 1.48026E+01
 -1     27565 1.02816E+01
 -1     27566 1.18230E+01
 -1     27567 1.26936E+01
 -1     27568 1.31812E+01
 -1     27569 1.31117E+01
 -1     27570 2.53158E+01
 -1     27571 7.02373E+00
 -1     27572 6.31649E+00
 -1     27573 3.02638E+01
 -1     27574 3.31434E+01
 -1     27575 5.42191E+01
 -1     27576 3.51315E+01
 -1     27577 1.17987E+01
 -1     27578 1.13589E+01
 -1     27579 9.38120E+00
 -1     27580 9.72856E+00
 -1     27581 8.78709E+00
 -1     27582 9.15845E+00
 -1     27583 7.77192E+00
 -1     27584 8.31260E+00
 -1     27585 5.39411E+00
 -1     27586 1.42645E+01
 -1     27587 2.51294E+01
 -1     27588 2.06206E+01
 -1     27589 1.96033E+01
 -1     27590 1.61910E+01
 -1     27591 1.56269E+01
 -1     27592 1.42850E+01
 -1     27593 1.27970E+01
 -1     27594 2.47467E+01
 -1     27595 1.67448E+01
 -1     27596 1.48212E+01
 -1     27597 1.39712E+01
 -1     27598 2.22283E+01
 -1     27599 2.27361E+01
 -1     27600 1.73428E+01
 -1     27601 9.89809E+00
 -1     27602 9.29567E+00
 -1     27603 1.00602E+01
 -1     27604 1.31000E+01
 -1     27605 1.73701E+01
 -1     27606 2.43624E+01
 -1     27607 1.46037E+01
 -1     27608 4.64674E+01
 -1     27609 4.70164E+01
 -1     27610 4.01454E+01
 -1     27611 3.83139E+01
 -1     27612 4.76521E+01
 -1     27613 4.44948E+01
 -1     27614 4.58205E+01
 -1     27615 1.38936E+01
 -1     27616 2.08729E+01
 -1     27617 1.97615E+01
 -1     27618 1.97615E+01
 -1     27619 1.25937E+01
 -1     27620 8.52331E+00
 -1     27621 1.02532E+01
 -1     27622 9.94567E+00
 -1     27623 9.65434E+00
 -1     27624 9.70916E+00
 -1     27625 2.78168E+01
 -1     27626 2.47492E+01
 -1     27627 3.87133E+01
 -1     27628 4.66709E+01
 -1     27629 4.66709E+01
 -1     27630 1.72906E+01
 -1     27631 7.74034E+00
 -1     27632 1.35417E+01
 -1     27633 1.43829E+01
 -1     27634 3.35220E+01
 -1     27635 1.11673E+01
 -1     27636 2.00263E+01
 -1     27637 8.73881E+00
 -1     27638 1.35417E+01
 -1     27639 2.42526E+01
 -1     27640 2.16105E+01
 -1     27641 2.14910E+01
 -1     27642 2.13912E+01
 -1     27643 7.94564E+00
 -1     27644 1.43662E+01
 -1     27645 2.22493E+01
 -1     27646 1.97211E+01
 -1     27647 1.42553E+01
 -1     27648 1.17980E+01
 -1     27649 1.10786E+01
 -1     27650 9.72856E+00
 -1     27651 2.75128E+01
 -1     27652 2.07042E+01
 -1     27653 1.75752E+01
 -1     27654 2.15589E+01
 -1     27655 2.15589E+01
 -1     27656 2.25889E+01
 -1     27657 2.13191E+01
 -1     27658 1.98421E+01
 -1     27659 2.26727E+01
 -1     27660 1.49175E+01
 -1     27661 1.21554E+01
 -1     27662 1.27849E+01
 -1     27663 1.27849E+01
 -1     27664 7.96080E+00
 -1     27665 8.22975E+00
 -1     27666 8.72885E+00
 -1     27667 8.72885E+00
 -1     27668 8.33108E+00
 -1     27669 8.10601E+00
 -1     27670 7.46010E+00
 -1     27671 1.12458E+01
 -1     27672 1.61910E+01
 -1     27673 2.08716E+01
 -1     27674 2.08187E+01
 -1     27675 2.00162E+01
 -1     27676 2.07578E+01
 -1     27677 2.35164E+01
 -1     27678 2.67863E+01
 -1     27679 2.71769E+01
 -1     27680 2.50137E+01
 -1     27681 2.60796E+01
 -1     27682 2.50718E+01
 -1     27683 2.48304E+01
 -1     27684 2.50718E+01
 -1     27685 1.47864E+01
 -1     27686 1.91133E+01
 -1     27687 1.45671E+01
 -1     27688 4.27126E+01
 -1     27689 2.69137E+01
 -1     27690 4.48309E+01
 -1     27691 9.63508E+00
 -1     27692 9.23656E+00
 -1     27693 1.34085E+01
 -1     27694 1.59354E+01
 -1     27695 3.67683E+01
 -1     27696 1.55504E+01
 -1     27697 1.44178E+01
 -1     27698 2.32509E+01
 -1     27699 2.36106E+01
 -1     27700 2.36106E+01
 -1     27701 2.45850E+01
 -1     27702 1.05976E+01
 -1     27703 3.21777E+01
 -1     27704 3.52226E+01
 -1     27705 1.53495E+01
 -1     27706 6.19086E+00
 -1     27707 5.91652E+00
 -1     27708 1.96250E+01
 -1     27709 1.71642E+01
 -1     27710 2.16105E+01
 -1     27711 2.40713E+01
 -1     27712 2.97444E+01
 -1     27713 5.06850E+01
 -1     27714 1.94806E+01
 -1     27715 3.91253E+01
 -1     27716 9.64057E+00
 -1     27717 3.06597E+01
 -1     27718 4.17786E+01
 -1     27719 4.36217E+01
 -1     27720 1.17292E+01
 -1     27721 1.25312E+01
 -1     27722 4.99348E+01
 -1     27723 4.92814E+01
 -1     27724 4.96021E+01
 -1     27725 5.74358E+00
 -1     27726 9.75378E+00
 -1     27727 1.08170E+01
 -1     27728 8.20420E+00
 -1     27729 1.75246E+01
 -1     27730 1.54085E+01
 -1     27731 1.89793E+01
 -1     27732 1.73529E+01
 -1     27733 1.52368E+01
 -1     27734 1.02150E+01
 -1     27735 1.51949E+01
 -1     27736 1.92483E+01
 -1     27737 2.34927E+01
 -1     27738 1.91510E+01
 -1     27739 1.32111E+01
 -1     27740 1.51891E+01
 -1     27741 1.88738E+01
 -1     27742 2.90205E+01
 -1     27743 2.61898E+01
 -1     27744 3.66229E+01
 -1     27745 1.88738E+01
 -1     27746 1.50577E+01
 -1     27747 2.14963E+01
 -1     27748 2.32509E+01
 -1     27749 2.21111E+01
 -1     27750 2.07180E+01
 -1     27751 2.13328E+01
 -1     27752 1.49807E+01
 -1     27753 9.06478E+00
 -1     27754 2.11446E+01
 -1     27755 5.41058E+01
 -1     27756 1.54068E+01
 -1     27757 2.75556E+01
 -1     27758 2.85694E+01
 -1     27759 2.01555E+01
 -1     27760 1.70301E+01
 -1     27761 1.47651E+01
 -1     27762 1.47623E+01
 -1     27763 1.09805E+01
 -1     27764 1.54538E+01
 -1     27765 1.83852E+01
 -1     27766 2.51102E+01
 -1     27767 3.61529E+00
 -1     27768 2.12708E+01
 -1     27769 1.76492E+01
 -1     27770 1.59121E+01
 -1     27771 1.19153E+01
 -1     27772 1.50544E+01
 -1     27773 1.81191E+01
 -1     27774 1.88738E+01
 -1     27775 4.70435E+01
 -1     27776 1.83299E+01
 -1     27777 1.72836E+01
 -1     27778 1.05563E+01
 -1     27779 1.56559E+01
 -1     27780 1.04534E+01
 -1     27781 3.74824E+01
 -1     27782 4.07548E+01
 -1     27783 3.79744E+01
 -1     27784 3.74824E+01
 -1     27785 1.02698E+01
 -1     27786 1.01317E+01
 -1     27787 5.19742E+01
 -1     27788 1.20308E+01
 -1     27789 1.20308E+01
 -1     27790 9.61835E+00
 -1     27791 4.57031E+01
 -1     27792 5.16757E+01
 -1     27793 5.16328E+01
 -1     27794 5.32548E+01
 -1     27795 5.66205E+01
 -1     27796 2.58391E+01
 -1     27797 9.22836E+00
 -1     27798 7.34125E+00
 -1     27799 1.30916E+01
 -1     27800 1.38936E+01
 -1     27801 1.08104E+01
 -1     27802 9.55014E+00
 -1     27803 4.32329E+01
 -1     27804 3.89616E+01
 -1     27805 8.77370E+00
 -1     27806 9.49127E+00
 -1     27807 4.32329E+01
 -1     27808 4.32329E+01
 -1     27809 1.11315E+01
 -1     27810 1.02801E+01
 -1     27811 8.01752E+00
 -1     27812 9.34324E+00
 -1     27813 9.49127E+00
 -1     27814 2.79074E+01
 -1     27815 2.26694E+01
 -1     27816 9.46446E+00
 -1     27817 1.10275E+01
 -1     27818 1.19085E+01
 -1     27819 1.26936E+01
 -1     27820 2.16265E+01
 -1     27821 1.19903E+01
 -1     27822 1.31117E+01
 -1     27823 1.27970E+01
 -1     27824 7.08371E+00
 -1     27825 2.35442E+01
 -1     27826 2.35775E+01
 -1     27827 2.21123E+01
 -1     27828 3.11431E+01
 -1     27829 1.29290E+01
 -1     27830 9.63665E+00
 -1     27831 4.47149E+00
 -1     27832 6.62737E+00
 -1     27833 5.17725E+01
 -1     27834 2.65088E+01
 -1     27835 2.65088E+01
 -1     27836 1.46519E+01
 -1     27837 9.71223E+00
 -1     27838 1.17621E+01
 -1     27839 4.02628E+01
 -1     27840 2.71769E+01
 -1     27841 4.77512E+01
 -1     27842 5.32709E+01
 -1     27843 5.42545E+01
 -1     27844 4.28337E+01
 -1     27845 1.37172E+01
 -1     27846 1.49504E+01
 -1     27847 5.48524E+01
 -1     27848 5.32548E+01
 -1     27849 5.14868E+01
 -1     27850 4.84069E+01
 -1     27851 4.84047E+01
 -1     27852 5.59635E+01
 -1     27853 5.61531E+01
 -1     27854 5.17668E+01
 -1     27855 5.11995E+01
 -1     27856 5.57653E+01
 -1     27857 5.73624E+01
 -1     27858 5.69357E+01
 -1     27859 2.48304E+01
 -1     27860 2.26536E+01
 -1     27861 5.26841E+01
 -1     27862 2.29058E+01
 -1     27863 4.65651E+01
 -1     27864 5.40431E+01
 -1     27865 1.83486E+01
 -1     27866 2.08716E+01
 -1     27867 1.94738E+01
 -1     27868 2.39834E+01
 -1     27869 9.76593E+00
 -1     27870 1.46081E+01
 -1     27871 2.48743E+01
 -1     27872 1.43224E+01
 -1     27873 1.74211E+01
 -1     27874 2.26555E+01
 -1     27875 8.95441E+00
 -1     27876 1.23056E+01
 -1     27877 5.29321E+01
 -1     27878 5.36279E+01
 -1     27879 5.66205E+01
 -1     27880 1.52410E+01
 -1     27881 1.89793E+01
 -1     27882 1.89793E+01
 -1     27883 7.09777E+00
 -1     27884 1.44857E+01
 -1     27885 1.20398E+01
 -1     27886 1.20511E+01
 -1     27887 6.85004E+00
 -1     27888 4.34159E+01
 -1     27889 2.06284E+01
 -1     27890 2.36106E+01
 -1     27891 2.45850E+01
 -1     27892 2.20657E+01
 -1     27893 2.30402E+01
 -1     27894 9.93847E+00
 -1     27895 2.07180E+01
 -1     27896 7.78588E+00
 -1     27897 9.56152E+00
 -1     27898 1.13328E+01
 -1     27899 4.35912E+01
 -1     27900 4.36616E+01
 -1     27901 8.49944E+00
 -1     27902 9.01227E+00
 -1     27903 2.86874E+01
 -1     27904 1.66154E+01
 -1     27905 3.50204E+01
 -1     27906 3.69882E+01
 -1     27907 3.50204E+01
 -1     27908 3.50204E+01
 -1     27909 3.69882E+01
 -1     27910 2.35442E+01
 -1     27911 8.77370E+00
 -1     27912 8.77370E+00
 -1     27913 8.16555E+00
 -1     27914 3.61312E+01
 -1     27915 3.75192E+01
 -1     27916 4.26347E+01
 -1     27917 4.82820E+01
 -1     27918 3.82267E+00
 -1     27919 2.65088E+01
 -1     27920 1.54391E+01
 -1     27921 1.93274E+01
 -1     27922 7.71662E+00
 -1     27923 8.38291E+00
 -1     27924 6.55173E+00
 -1     27925 7.32375E+00
 -1     27926 8.85221E+00
 -1     27927 7.94575E+00
 -1     27928 5.60898E+01
 -1     27929 5.48524E+01
 -1     27930 1.50339E+01
 -1     27931 7.36875E+00
 -1     27932 7.70361E+00
 -1     27933 7.24013E+00
 -1     27934 1.91510E+01
 -1     27935 1.53109E+01
 -1     27936 1.68235E+01
 -1     27937 4.00971E+01
 -1     27938 3.94610E+01
 -1     27939 1.91510E+01
 -1     27940 3.77182E+01
 -1     27941 3.23797E+01
 -1     27942 6.98166E+00
 -1     27943 5.74558E+00
 -1     27944 5.45604E+00
 -1     27945 7.80348E+00
 -1     27946 1.38873E+01
 -1     27947 1.98203E+01
 -1     27948 5.60898E+01
 -1     27949 1.56060E+01
 -1     27950 2.05864E+01
 -1     27951 2.20047E+01
 -1     27952 7.55385E+00
 -1     27953 3.30138E+01
 -1     27954 7.07280E+00
 -1     27955 8.32656E+00
 -1     27956 9.15367E+00
 -1     27957 1.06859E+01
 -1     27958 1.10840E+01
 -1     27959 1.26834E+01
 -1     27960 1.10275E+01
 -1     27961 1.41912E+01
 -1     27962 1.52991E+01
 -1     27963 1.67033E+01
 -1     27964 1.14708E+01
 -1     27965 1.39406E+01
 -1     27966 1.46506E+01
 -1     27967 9.55790E+00
 -1     27968 1.34684E+01
 -1     27969 9.08574E+00
 -1     27970 9.90181E+00
 -1     27971 4.54947E+01
 -1     27972 1.87831E+01
 -1     27973 1.42342E+01
 -1     27974 1.50268E+01
 -1     27975 2.08574E+01
 -1     27976 2.32509E+01
 -1     27977 1.44583E+01
 -1     27978 1.51744E+01
 -1     27979 1.68050E+01
 -1     27980 1.74741E+01
 -1     27981 1.88073E+01
 -1     27982 1.81669E+01
 -1     27983 9.43914E+00
 -1     27984 4.22003E+01
 -1     27985 7.07280E+00
 -1     27986 7.24705E+00
 -1     27987 1.59121E+01
 -1     27988 1.87719E+01
 -1     27989 1.87719E+01
 -1     27990 5.97490E+00
 -1     27991 1.73529E+01
 -1     27992 5.57288E+01
 -1     27993 5.55555E+01
 -1     27994 4.17295E+01
 -1     27995 5.60790E+01
 -1     27996 5.60790E+01
 -1     27997 2.92772E+01
 -1     27998 4.71989E+01
 -1     27999 4.84362E+01
 -1     28000 3.46676E+01
 -1     28001 1.14059E+01
 -1     28002 4.04292E+01
 -1     28003 4.58334E+01
 -1     28004 3.67793E+01
 -1     28005 3.21481E+01
 -1     28006 1.06482E+01
 -1     28007 1.13583E+01
 -1     28008 3.40073E+01
 -1     28009 1.57186E+01
 -1     28010 2.02788E+01
 -1     28011 3.33978E+01
 -1     28012 3.29206E+00
 -1     28013 1.10368E+01
 -1     28014 1.03518E+01
 -1     28015 9.41855E+00
 -1     28016 8.22965E+00
 -1     28017 9.51667E+00
 -1     28018 9.69678E+00
 -1     28019 1.27887E+01
 -1     28020 1.80480E+01
 -1     28021 4.29816E+01
 -1     28022 4.01174E+01
 -1     28023 1.10368E+01
 -1     28024 1.10368E+01
 -1     28025 1.10368E+01
 -1     28026 1.44723E+01
 -1     28027 5.61572E+01
 -1     28028 1.67530E+01
 -1     28029 1.83183E+01
 -1     28030 4.76095E+01
 -1     28031 5.16050E+01
 -1     28032 5.60790E+01
 -1     28033 1.55393E+01
 -1     28034 1.31000E+01
 -1     28035 1.18789E+01
 -1     28036 2.33813E+01
 -1     28037 2.45927E+01
 -1     28038 3.08111E+01
 -1     28039 2.74965E+01
 -1     28040 2.77363E+01
 -1     28041 1.48864E+01
 -1     28042 1.34791E+01
 -1     28043 9.81565E+00
 -1     28044 2.71769E+01
 -1     28045 4.27126E+01
 -1     28046 3.08111E+01
 -1     28047 2.70736E+01
 -1     28048 2.41699E+01
 -1     28049 2.41699E+01
 -1     28050 1.29203E+01
 -1     28051 1.29203E+01
 -1     28052 2.67323E+01
 -1     28053 2.69806E+01
 -1     28054 4.44443E+00
 -1     28055 4.20745E+00
 -1     28056 1.78874E+01
 -1     28057 2.22461E+01
 -1     28058 8.09590E+00
 -1     28059 1.75146E+01
 -1     28060 1.68235E+01
 -1     28061 3.83293E+01
 -1     28062 3.55908E+01
 -1     28063 3.92261E+01
 -1     28064 3.45541E+01
 -1     28065 2.33813E+01
 -1     28066 1.96689E+01
 -1     28067 4.97454E+00
 -1     28068 4.87625E+00
 -1     28069 5.53439E+01
 -1     28070 5.25156E+01
 -1     28071 5.26254E+01
 -1     28072 1.34235E+01
 -1     28073 5.66205E+01
 -1     28074 2.75510E+01
 -1     28075 3.75202E+01
 -1     28076 3.53382E+01
 -1     28077 4.05295E+01
 -1     28078 4.61840E+01
 -1     28079 4.66709E+01
 -1     28080 4.34474E+01
 -1     28081 5.20015E+01
 -1     28082 3.54126E+01
 -1     28083 1.70455E+01
 -1     28084 2.01527E+01
 -1     28085 5.54198E+01
 -1     28086 3.37149E+01
 -1     28087 4.61840E+01
 -1     28088 4.29605E+01
 -1     28089 1.97789E+01
 -1     28090 1.97789E+01
 -1     28091 2.16970E+01
 -1     28092 1.73750E+01
 -1     28093 1.73750E+01
 -1     28094 2.09645E+01
 -1     28095 4.61840E+01
 -1     28096 3.46642E+01
 -1     28097 3.51511E+01
 -1     28098 4.66709E+01
 -1     28099 3.51511E+01
 -1     28100 3.35469E+01
 -1     28101 3.35469E+01
 -1     28102 3.37149E+01
 -1     28103 8.85221E+00
 -1     28104 3.78159E+01
 -1     28105 3.90187E+01
 -1     28106 4.61840E+01
 -1     28107 4.66709E+01
 -1     28108 4.31043E+01
 -1     28109 4.56971E+01
 -1     28110 4.31043E+01
 -1     28111 4.10036E+01
 -1     28112 4.10036E+01
 -1     28113 1.83061E+01
 -1     28114 1.26936E+01
 -1     28115 2.93634E+01
 -1     28116 4.73335E+01
 -1     28117 3.16048E+01
 -1     28118 4.00092E+01
 -1     28119 1.15039E+01
 -1     28120 9.82161E+00
 -1     28121 4.27015E+01
 -1     28122 3.80975E+01
 -1     28123 5.54725E+01
 -1     28124 1.40529E+01
 -1     28125 9.44067E+00
 -1     28126 5.46739E+01
 -1     28127 5.41066E+01
 -1     28128 2.21436E+01
 -1     28129 1.61055E+01
 -1     28130 1.27505E+01
 -1     28131 1.51882E+01
 -1     28132 3.83042E+00
 -1     28133 3.48183E+00
 -1     28134 8.28363E+00
 -1     28135 8.61590E+00
 -1     28136 4.62975E+00
 -1     28137 7.54121E+00
 -1     28138 6.50258E+00
 -1     28139 3.09667E+01
 -1     28140 3.09667E+01
 -1     28141 1.02353E+01
 -1     28142 4.28337E+01
 -1     28143 3.99409E+01
 -1     28144 1.37737E+01
 -1     28145 4.05115E+01
 -1     28146 2.39223E+01
 -1     28147 5.11267E+01
 -1     28148 5.02519E+01
 -1     28149 8.47068E+00
 -1     28150 6.78394E+00
 -1     28151 2.82508E+01
 -1     28152 9.94460E+00
 -1     28153 8.76399E+00
 -1     28154 1.39038E+01
 -1     28155 1.17292E+01
 -1     28156 4.42237E+00
 -1     28157 5.57288E+01
 -1     28158 8.68247E+00
 -1     28159 9.22795E+00
 -1     28160 7.85661E+00
 -1     28161 5.25975E+01
 -1     28162 5.53982E+01
 -1     28163 8.38347E+00
 -1     28164 8.89489E+00
 -1     28165 9.93310E+00
 -1     28166 4.61444E+00
 -1     28167 3.28988E+01
 -1     28168 3.30138E+01
 -1     28169 3.76323E+01
 -1     28170 4.31747E+01
 -1     28171 3.21418E+01
 -1     28172 5.51084E+01
 -1     28173 3.76323E+01
 -1     28174 3.76323E+01
 -1     28175 3.74426E+01
 -1     28176 3.77034E+01
 -1     28177 4.92814E+01
 -1     28178 1.03816E+01
 -1     28179 5.18279E+01
 -1     28180 8.32701E+00
 -1     28181 7.92497E+00
 -1     28182 3.35748E+01
 -1     28183 8.52702E+00
 -1     28184 2.01527E+01
 -1     28185 2.26642E+01
 -1     28186 2.01527E+01
 -1     28187 1.70301E+01
 -1     28188 2.01527E+01
 -1     28189 3.32363E+01
 -1     28190 4.05115E+01
 -1     28191 2.64539E+01
 -1     28192 5.66205E+01
 -1     28193 5.17725E+01
 -1     28194 1.98408E+01
 -1     28195 9.46937E+00
 -1     28196 1.18012E+01
 -1     28197 9.06478E+00
 -1     28198 4.28114E+01
 -1     28199 4.23245E+01
 -1     28200 3.41327E+01
 -1     28201 3.19760E+01
 -1     28202 3.08442E+01
 -1     28203 3.04966E+01
 -1     28204 5.16757E+01
 -1     28205 2.21111E+01
 -1     28206 2.04627E+01
 -1     28207 4.31043E+01
 -1     28208 4.31043E+01
 -1     28209 2.93688E+01
 -1     28210 9.22795E+00
 -1     28211 8.45990E+00
 -1     28212 5.53787E+01
 -1     28213 5.53787E+01
 -1     28214 8.38439E+00
 -1     28215 3.20671E+01
 -1     28216 3.41327E+01
 -1     28217 9.77119E+00
 -1     28218 1.04082E+01
 -1     28219 1.26731E+01
 -1     28220 1.50544E+01
 -1     28221 2.01527E+01
 -1     28222 1.90333E+01
 -1     28223 1.20339E+01
 -1     28224 4.23750E+01
 -1     28225 9.70999E+00
 -1     28226 8.08471E+00
 -1     28227 7.92497E+00
 -1     28228 1.02010E+01
 -1     28229 8.84868E+00
 -1     28230 7.24705E+00
 -1     28231 1.39038E+01
 -1     28232 1.14382E+01
 -1     28233 1.14382E+01
 -1     28234 3.96959E+01
 -1     28235 3.90701E+01
 -1     28236 3.23672E+01
 -1     28237 2.13739E+01
 -1     28238 1.03518E+01
 -1     28239 1.50544E+01
 -1     28240 1.45782E+01
 -1     28241 3.74426E+01
 -1     28242 6.21630E+00
 -1     28243 1.31000E+01
 -1     28244 2.13515E+01
 -1     28245 1.07574E+01
 -1     28246 1.22549E+01
 -1     28247 2.24906E+01
 -1     28248 9.13918E+00
 -1     28249 1.08433E+01
 -1     28250 2.03565E+01
 -1     28251 2.03565E+01
 -1     28252 4.74438E+01
 -1     28253 4.69448E+01
 -1     28254 5.33394E+01
 -1     28255 5.39598E+01
 -1     28256 5.33394E+01
 -1     28257 5.61531E+01
 -1     28258 1.08828E+01
 -1     28259 4.48309E+01
 -1     28260 5.16757E+01
 -1     28261 1.06561E+01
 -1     28262 1.05735E+01
 -1     28263 4.33899E+00
 -1     28264 4.33899E+00
 -1     28265 4.22530E+00
 -1     28266 1.40418E+01
 -1     28267 1.99920E+01
 -1     28268 1.26731E+01
 -1     28269 5.34362E+01
 -1     28270 3.01747E+01
 -1     28271 4.23750E+01
 -1     28272 1.34761E+01
 -1     28273 8.12568E+00
 -1     28274 7.16084E+00
 -1     28275 9.58793E+00
 -1     28276 5.00432E+00
 -1     28277 8.79800E+00
 -1     28278 5.61531E+01
 -1     28279 5.20015E+01
 -1     28280 5.20015E+01
 -1     28281 5.20015E+01
 -1     28282 5.20015E+01
 -1     28283 5.34132E+01
 -1     28284 2.32872E+01
 -1     28285 8.09659E+00
 -1     28286 2.77439E+01
 -1     28287 2.27381E+01
 -1     28288 1.04268E+01
 -1     28289 4.45440E+00
 -1     28290 3.58825E+01
 -1     28291 8.47068E+00
 -1     28292 4.02628E+01
 -1     28293 4.10036E+01
 -1     28294 2.69491E+01
 -1     28295 3.92261E+01
 -1     28296 3.89616E+01
 -1     28297 5.11995E+01
 -1     28298 2.74751E+01
 -1     28299 1.19333E+01
 -1     28300 2.45714E+01
 -1     28301 5.52340E+01
 -1     28302 5.55590E+01
 -1     28303 5.24368E+01
 -1     28304 1.32778E+01
 -1     28305 3.81894E+01
 -1     28306 3.67793E+01
 -1     28307 1.56367E+01
 -1     28308 1.42476E+01
 -1     28309 3.95879E+01
 -1     28310 1.64517E+01
 -1     28311 6.17586E+00
 -1     28312 8.37899E+00
 -1     28313 5.55590E+01
 -1     28314 3.36573E+01
 -1     28315 8.17090E+00
 -1     28316 7.29689E+00
 -1     28317 1.03248E+01
 -1     28318 1.44723E+01
 -1     28319 2.16970E+01
 -1     28320 2.75510E+01
 -1     28321 4.92155E+01
 -1     28322 1.17107E+01
 -1     28323 5.06353E+01
 -1     28324 1.03136E+01
 -1     28325 1.60428E+01
 -1     28326 1.19246E+01
 -1     28327 1.46506E+01
 -1     28328 2.45850E+01
 -1     28329 2.45850E+01
 -1     28330 3.83139E+01
 -1     28331 1.21732E+01
 -1     28332 8.00160E+00
 -1     28333 8.46574E+00
 -1     28334 1.27849E+01
 -1     28335 1.12417E+01
 -1     28336 1.12417E+01
 -1     28337 1.17450E+01
 -1     28338 1.17553E+01
 -1     28339 1.49301E+01
 -1     28340 4.91578E+01
 -1     28341 1.17450E+01
 -1     28342 2.06206E+01
 -1     28343 7.94681E+00
 -1     28344 4.31043E+01
 -1     28345 1.27887E+01
 -1     28346 8.87057E+00
 -1     28347 1.85348E+01
 -1     28348 8.84684E+00
 -1     28349 9.59605E+00
 -1     28350 1.51838E+01
 -1     28351 1.74709E+01
 -1     28352 1.51838E+01
 -1     28353 4.03779E+00
 -1     28354 1.37988E+01
 -1     28355 1.34465E+01
 -1     28356 5.34666E+01
 -1     28357 5.22142E+00
 -1     28358 5.63816E+01
 -1     28359 5.81683E+01
 -1     28360 1.47682E+01
 -1     28361 1.01564E+01
 -1     28362 2.82508E+01
 -1     28363 5.75824E+01
 -1     28364 1.62501E+01
 -1     28365 1.99325E+01
 -1     28366 1.59300E+01
 -1     28367 1.33725E+01
 -1     28368 1.70455E+01
 -1     28369 1.11677E+01
 -1     28370 9.55014E+00
 -1     28371 8.89340E+00
 -1     28372 3.55258E+01
 -1     28373 3.99669E+01
 -1     28374 4.28114E+01
 -1     28375 3.89616E+01
 -1     28376 5.23162E+01
 -1     28377 5.19401E+01
 -1     28378 2.80888E+01
 -1     28379 1.62501E+01
 -1     28380 1.05946E+01
 -1     28381 2.13275E+01
 -1     28382 5.81683E+01
 -1     28383 5.81683E+01
 -1     28384 9.75589E+00
 -1     28385 1.00196E+01
 -1     28386 5.25414E+01
 -1     28387 2.58927E+01
 -1     28388 2.51102E+01
 -1     28389 3.72044E+01
 -1     28390 1.71157E+01
 -1     28391 4.28986E+01
 -1     28392 3.14849E+01
 -1     28393 3.95879E+01
 -1     28394 1.00602E+01
 -1     28395 2.68622E+01
 -1     28396 4.13591E+01
 -1     28397 1.79430E+01
 -1     28398 9.38185E+00
 -1     28399 9.82145E+00
 -1     28400 9.93328E+00
 -1     28401 1.88720E+01
 -1     28402 8.07744E+00
 -1     28403 5.46887E+01
 -1     28404 5.20542E+01
 -1     28405 5.08526E+01
 -1     28406 6.95372E+00
 -1     28407 4.58205E+01
 -1     28408 1.71157E+01
 -1     28409 9.38185E+00
 -1     28410 1.54068E+01
 -1     28411 5.39134E+01
 -1     28412 5.19558E+01
 -1     28413 3.00405E+01
 -1     28414 1.91810E+01
 -1     28415 6.17586E+00
 -1     28416 9.68544E+00
 -1     28417 9.73581E+00
 -1     28418 1.31420E+01
 -1     28419 5.60669E+00
 -1     28420 5.22142E+00
 -1     28421 1.08433E+01
 -1     28422 1.44723E+01
 -1     28423 3.90701E+01
 -1     28424 5.15226E+00
 -1     28425 4.45795E+01
 -1     28426 3.62883E+01
 -1     28427 3.08751E+00
 -1     28428 7.71341E+00
 -1     28429 1.08846E+01
 -1     28430 2.69625E+01
 -1     28431 7.40751E+00
 -1     28432 4.19044E+01
 -1     28433 2.22461E+01
 -1     28434 2.22461E+01
 -1     28435 1.91757E+01
 -1     28436 1.21775E+01
 -1     28437 5.34703E+01
 -1     28438 7.93255E+00
 -1     28439 2.22461E+01
 -1     28440 9.00972E+00
 -1     28441 5.55590E+01
 -1     28442 4.13591E+01
 -1     28443 1.77234E+01
 -1     28444 4.69448E+01
 -1     28445 2.73525E+01
 -1     28446 2.73525E+01
 -1     28447 1.10023E+01
 -1     28448 4.18379E+01
 -1     28449 3.45710E+01
 -1     28450 3.33901E+00
 -1     28451 9.63508E+00
 -1     28452 5.61221E+00
 -1     28453 7.69953E+00
 -1     28454 4.37569E+01
 -1     28455 4.73614E+01
 -1     28456 1.04476E+01
 -1     28457 7.58175E+00
 -1     28458 8.84684E+00
 -1     28459 5.41030E+01
 -3
 9999
