    1C
    1UUSER                                                              
    1UDATE              18.february.2021                                
    1UTIME              19:26:56                                        
    1UHOST                                                              
    1UPGM               CalculiX                                        
    1UVERSION           Version 2.17                             
    1UCOMPILETIME       Thu Jul 23 21:43:50 CEST 2020                    
    1UDIR                                                               
    1UDBN                                                               
    1UMAT    1STEEL                                                     
    2C                            35                                     1
 -1         1 1.16500E+00 8.12831E-01 0.00000E+00
 -1         2-3.05640E-15 1.00000E+00 0.00000E+00
 -1         3 1.35239E-16 1.29150E+00 0.00000E+00
 -1         4 1.26688E+00 1.05788E+00 0.00000E+00
 -1         5 3.88952E-15 1.58300E+00 0.00000E+00
 -1         6 1.36939E+00 1.30442E+00 0.00000E+00
 -1         7 1.73501E-16 2.16649E+00 0.00000E+00
 -1         8 1.57569E+00 1.80060E+00 0.00000E+00
 -1         9-4.65605E-15 2.75000E+00 0.00000E+00
 -1        10 1.78300E+00 2.29921E+00 0.00000E+00
 -1        11 1.78302E+00 4.53000E-01 0.00000E+00
 -1        12 1.95559E+00 6.00127E-01 0.00000E+00
 -1        13 2.12969E+00 7.48564E-01 0.00000E+00
 -1        14 2.48028E+00 1.04748E+00 0.00000E+00
 -1        15 2.83277E+00 1.34800E+00 0.00000E+00
 -1        16 2.00000E+00 1.09117E-14 0.00000E+00
 -1        17 2.20850E+00-1.29659E-20 0.00000E+00
 -1        18 2.41700E+00 2.86282E-24 0.00000E+00
 -1        19 2.83348E+00-8.96472E-34 0.00000E+00
 -1        20 3.25000E+00 9.31453E-15 0.00000E+00
 -1        21 5.90531E-01 9.55415E-01 0.00000E+00
 -1        22 6.44794E-01 1.23523E+00 0.00000E+00
 -1        23 6.99455E-01 1.51527E+00 0.00000E+00
 -1        24 8.09559E-01 2.07618E+00 0.00000E+00
 -1        25 9.20210E-01 2.63746E+00 0.00000E+00
 -1        26 1.49321E+00 6.65266E-01 0.00000E+00
 -1        27 1.63688E+00 8.67005E-01 0.00000E+00
 -1        28 1.78156E+00 1.06977E+00 0.00000E+00
 -1        29 2.07263E+00 1.47725E+00 0.00000E+00
 -1        30 2.36495E+00 1.88628E+00 0.00000E+00
 -1        31 1.93761E+00 2.47828E-01 0.00000E+00
 -1        32 2.13824E+00 3.23170E-01 0.00000E+00
 -1        33 2.33896E+00 3.99010E-01 0.00000E+00
 -1        34 2.74013E+00 5.51513E-01 0.00000E+00
 -1        35 3.14145E+00 7.04781E-01 0.00000E+00
 -3
    3C                            48                                     1
 -1         1    7    0    1
 -2         4        22         1
 -1         2    7    0    1
 -2        19        20        34
 -1         3    7    0    1
 -2        14        34        35
 -1         4    7    0    1
 -2        21        22         3
 -1         5    7    0    1
 -2         2        21         3
 -1         6    7    0    1
 -2        35        15        14
 -1         7    7    0    1
 -2        21         1        22
 -1         8    7    0    1
 -2        35        34        20
 -1         9    7    0    1
 -2        33        34        13
 -1        10    7    0    1
 -2         6        23         4
 -1        11    7    0    1
 -2         3        22         5
 -1        12    7    0    1
 -2        22         4        23
 -1        13    7    0    1
 -2        23         5        22
 -1        14    7    0    1
 -2        14        13        34
 -1        15    7    0    1
 -2         5        23        24
 -1        16    7    0    1
 -2        19        34        18
 -1        17    7    0    1
 -2        33        18        34
 -1        18    7    0    1
 -2         6         8        23
 -1        19    7    0    1
 -2         7         5        24
 -1        20    7    0    1
 -2         8        24        23
 -1        21    7    0    1
 -2        18        33        17
 -1        22    7    0    1
 -2        33        13        32
 -1        23    7    0    1
 -2         7        24        25
 -1        24    7    0    1
 -2         8        10        24
 -1        25    7    0    1
 -2        25        24        10
 -1        26    7    0    1
 -2         9         7        25
 -1        27    7    0    1
 -2        32        17        33
 -1        28    7    0    1
 -2        12        32        13
 -1        29    7    0    1
 -2        31        16        32
 -1        30    7    0    1
 -2        32        12        31
 -1        31    7    0    1
 -2         4         1        26
 -1        32    7    0    1
 -2        26        11        27
 -1        33    7    0    1
 -2        12        27        11
 -1        34    7    0    1
 -2        27         4        26
 -1        35    7    0    1
 -2         4        27         6
 -1        36    7    0    1
 -2        28         6        27
 -1        37    7    0    1
 -2        27        12        28
 -1        38    7    0    1
 -2        13        28        12
 -1        39    7    0    1
 -2         8         6        29
 -1        40    7    0    1
 -2        29         6        28
 -1        41    7    0    1
 -2        29        28        14
 -1        42    7    0    1
 -2        14        28        13
 -1        43    7    0    1
 -2        10         8        30
 -1        44    7    0    1
 -2        29        14        15
 -1        45    7    0    1
 -2        30         8        29
 -1        46    7    0    1
 -2        30        29        15
 -1        47    7    0    1
 -2        17        32        16
 -1        48    7    0    1
 -2        11        31        12
 -3
    1PSTEP                         1           1           1          
  100CL  101 1.000000000          35                     0    1           1
 -4  DISP        4    1
 -5  D1          1    2    1    0
 -5  D2          1    2    2    0
 -5  D3          1    2    3    0
 -5  ALL         1    2    0    0    1ALL
 -1         1-4.23452E-06 3.43216E-04 0.00000E+00
 -1         2 0.00000E+00 4.50223E-04 0.00000E+00
 -1         3 0.00000E+00 4.52930E-04 0.00000E+00
 -1         4 2.77969E-05 3.25447E-04 0.00000E+00
 -1         5 0.00000E+00 4.54457E-04 0.00000E+00
 -1         6 5.39705E-05 3.12009E-04 0.00000E+00
 -1         7 0.00000E+00 4.51243E-04 0.00000E+00
 -1         8 1.00996E-04 2.99222E-04 0.00000E+00
 -1         9 0.00000E+00 4.52655E-04 0.00000E+00
 -1        10 1.55305E-04 2.87136E-04 0.00000E+00
 -1        11-1.84844E-05 1.68091E-04 0.00000E+00
 -1        12-3.13929E-06 1.37258E-04 0.00000E+00
 -1        13 9.10982E-06 1.21026E-04 0.00000E+00
 -1        14 4.49496E-05 9.56873E-05 0.00000E+00
 -1        15 9.18039E-05 6.28541E-05 0.00000E+00
 -1        16-4.09187E-05 0.00000E+00 0.00000E+00
 -1        17-4.18018E-05 0.00000E+00 0.00000E+00
 -1        18-3.91882E-05 0.00000E+00 0.00000E+00
 -1        19-2.22606E-05 0.00000E+00 0.00000E+00
 -1        20-1.36028E-05 0.00000E+00 0.00000E+00
 -1        21-1.86244E-06 4.25310E-04 0.00000E+00
 -1        22 1.96000E-05 4.19356E-04 0.00000E+00
 -1        23 3.83647E-05 4.13799E-04 0.00000E+00
 -1        24 6.82232E-05 4.10533E-04 0.00000E+00
 -1        25 1.00708E-04 4.10977E-04 0.00000E+00
 -1        26-1.05837E-05 2.65983E-04 0.00000E+00
 -1        27 1.87414E-05 2.36302E-04 0.00000E+00
 -1        28 4.13749E-05 2.17075E-04 0.00000E+00
 -1        29 8.85891E-05 1.94389E-04 0.00000E+00
 -1        30 1.46616E-04 1.67686E-04 0.00000E+00
 -1        31-2.57198E-05 8.56006E-05 0.00000E+00
 -1        32-2.56069E-05 6.21091E-05 0.00000E+00
 -1        33-1.99813E-05 5.30250E-05 0.00000E+00
 -1        34-6.07904E-06 3.17324E-05 0.00000E+00
 -1        35 2.02019E-05 5.68463E-06 0.00000E+00
 -3
    1PSTEP                         2           1           1          
  100CL  101 1.000000000          35                     0    1           1
 -4  STRESS      6    1
 -5  SXX         1    4    1    1
 -5  SYY         1    4    2    2
 -5  SZZ         1    4    3    3
 -5  SXY         1    4    1    2
 -5  SYZ         1    4    2    3
 -5  SZX         1    4    3    1
 -1         1 7.54749E+06 3.57511E+06-8.72679E+03-5.86184E+06 1.31217E-08-1.91358E-09
 -1         2-1.02303E+05 1.90710E+06-4.04168E+04-3.35094E+06-1.75060E-08 3.63798E-12
 -1         3 4.98166E+06 1.74082E+06-2.66120E+03-2.05961E+06-5.84987E-09-2.56114E-09
 -1         4 9.48051E+06 5.81802E+06 9.39479E+03-7.27228E+06 4.38740E-09-3.23053E-09
 -1         5 1.34442E+07 3.87787E+06 2.91239E+04-2.46578E+06 8.76025E-09 1.36788E-09
 -1         6 1.06265E+07 1.20895E+07 4.83357E+04-7.38229E+06 5.85533E-09-3.19824E-09
 -1         7 2.18990E+07 7.08579E+06-2.97760E+03-2.81719E+06-2.04282E-08-3.65344E-09
 -1         8 1.42796E+07 1.26886E+07 1.32285E+04-6.19357E+06 2.19552E-09 7.29301E-09
 -1         9 2.54278E+07 8.13992E+06 1.08514E+04-3.63427E+06-3.50265E-08-2.56364E-11
 -1        10 1.77524E+07 1.27123E+07-2.87509E+04-6.14858E+06 4.37831E-09 1.53159E-08
 -1        11 1.46361E+07 2.56787E+07 4.01185E+05-1.59338E+07 1.31695E-08 1.94996E-09
 -1        12 9.38339E+06 2.77881E+07 3.10054E+04-1.17984E+07 1.16997E-08 2.29193E-10
 -1        13 8.39354E+06 2.65097E+07 1.69859E+05-4.40763E+06 3.71801E-09-1.77533E-09
 -1        14 8.99018E+06 1.79140E+07 1.88865E+05-2.02305E+06 8.23138E-09-2.25918E-09
 -1        15 9.77738E+06 1.42812E+07 1.36246E+05-1.88214E+06 1.82372E-08-1.82445E-09
 -1        16 1.40044E+07 5.48403E+07 5.07774E+05-4.85123E+06-2.03581E-08-2.93949E-09
 -1        17 1.26362E+07 3.83145E+07-9.09394E+04 1.15212E+06 6.79165E-10 2.15368E-09
 -1        18 1.22906E+07 2.50014E+07 6.43704E+03 1.11724E+06-2.91038E-11 3.63070E-09
 -1        19 1.10984E+07 1.54311E+07 6.28922E+04 2.78969E+06 0.00000E+00 4.39468E-09
 -1        20 9.47978E+06 8.70276E+06 2.96095E+04 9.48038E+05 1.45519E-11 2.76486E-10
 -1        21 3.74723E+06 1.42581E+06-2.86330E+04-2.48563E+06-8.77480E-09-1.64709E-09
 -1        22 8.25675E+06 2.21189E+06-2.60894E+03-3.16239E+06 1.45519E-09-2.87764E-09
 -1        23 1.25082E+07 6.14286E+06 1.15962E+04-4.48552E+06 5.85214E-09 5.47016E-09
 -1        24 1.79954E+07 8.55196E+06-2.00733E+03-4.26530E+06 3.65117E-09 7.11134E-09
 -1        25 2.23074E+07 9.48536E+06 1.69978E+03-3.89158E+06-2.77287E-08-7.42148E-10
 -1        26 1.17593E+07 1.05964E+07 8.45019E+04-1.09306E+07-2.95404E-09 3.47791E-09
 -1        27 9.94891E+06 1.42991E+07-7.77942E+04-1.11191E+07 1.09358E-08-2.36469E-09
 -1        28 8.55725E+06 1.97928E+07 1.62079E+05-7.41270E+06 1.64182E-08-4.75848E-09
 -1        29 1.05763E+07 1.65535E+07 8.68099E+04-5.18280E+06 1.10595E-09-5.11227E-09
 -1        30 1.28569E+07 1.49131E+07 8.35261E+04-5.04123E+06-2.93039E-09-2.18824E-09
 -1        31 1.35585E+07 4.67123E+07 5.02477E+05-1.43970E+07-1.05792E-08-2.18279E-09
 -1        32 1.07870E+07 4.08909E+07 6.83122E+03-5.77146E+06-1.26165E-08-8.14907E-10
 -1        33 1.11824E+07 3.21415E+07 1.16618E+05-1.38583E+06 8.65839E-10 7.05768E-10
 -1        34 1.01130E+07 1.81076E+07 5.13303E+04-3.46905E+04-4.51109E-10 1.55705E-09
 -1        35 9.77582E+06 1.05990E+07 2.04721E+05 3.82529E+05 1.68347E-09-1.28057E-09
 -3
    1PSTEP                         3           1           1          
  100CL  101 1.000000000          35                     0    1           1
 -4  TOSTRAIN    6    1
 -5  EXX         1    4    1    1
 -5  EYY         1    4    2    2
 -5  EZZ         1    4    3    3
 -5  EXY         1    4    1    2
 -5  EYZ         1    4    2    3
 -5  EZX         1    4    3    1
 -1         1 3.08456E-05 6.25466E-06-1.59310E-05-3.62876E-05 8.12324E-20-1.18585E-20
 -1         2-3.15385E-06 9.28531E-06-2.77074E-06-2.07439E-05-1.08420E-19 2.64698E-23
 -1         3 2.12391E-05 1.17675E-06-9.61621E-06-1.27500E-05-3.62636E-20-1.58554E-20
 -1         4 3.68204E-05 1.41478E-05-2.18103E-05-4.50189E-05 2.71051E-20-1.99582E-20
 -1         5 5.84387E-05-7.81607E-07-2.46072E-05-1.52643E-05 5.42101E-20 8.47364E-21
 -1         6 3.32628E-05 4.23191E-05-3.22213E-05-4.56999E-05 3.62636E-20-1.97398E-20
 -1         7 9.41628E-05 2.46175E-06-4.14211E-05-1.74397E-05-1.26453E-19-2.26184E-20
 -1         8 4.98524E-05 4.00036E-05-3.84629E-05-3.83411E-05 1.35922E-20 4.51475E-20
 -1         9 1.09441E-04 2.42063E-06-4.79021E-05-2.24979E-05-2.16787E-19-1.59232E-22
 -1        10 6.64157E-05 3.52155E-05-4.36579E-05-3.80626E-05 2.71051E-20 9.48081E-20
 -1        11 3.24387E-05 1.00798E-04-5.56822E-05-9.86377E-05 8.15269E-20 1.20702E-20
 -1        12 4.94120E-06 1.18875E-04-5.29545E-05-7.30377E-05 7.24213E-20 1.33176E-21
 -1        13 1.85552E-06 1.14003E-04-4.90530E-05-2.72854E-05 2.30022E-20-1.11173E-20
 -1        14 1.69492E-05 7.21917E-05-3.75351E-05-1.25236E-05 5.09676E-20-1.39496E-20
 -1        15 2.59626E-05 5.38433E-05-3.37206E-05-1.16513E-05 1.12894E-19-1.12993E-20
 -1        16-1.23813E-05 2.40413E-04-9.59316E-05-3.00314E-05-1.25943E-19-1.85288E-20
 -1        17 5.56748E-06 1.64528E-04-7.32198E-05 7.13215E-06 4.19960E-21 1.35525E-20
 -1        18 2.28010E-05 1.01487E-04-5.32435E-05 6.91622E-06-1.38966E-22 2.27111E-20
 -1        19 3.07151E-05 5.75370E-05-3.75999E-05 1.72695E-05 0.00000E+00 2.72109E-20
 -1        20 3.26670E-05 2.78569E-05-2.58341E-05 5.86881E-06 1.05879E-22 1.74701E-21
 -1        21 1.58480E-05 1.47731E-06-7.52641E-06-1.53872E-05-5.42895E-20-1.02041E-20
 -1        22 3.61618E-05-1.25882E-06-1.49676E-05-1.95767E-05 8.99973E-21-1.78009E-20
 -1        23 5.07709E-05 1.13663E-05-2.65892E-05-2.77675E-05 3.62371E-20 3.38946E-20
 -1        24 7.34783E-05 1.50187E-05-3.79344E-05-2.64042E-05 2.26019E-20 4.40126E-20
 -1        25 9.26730E-05 1.32982E-05-4.54102E-05-2.40907E-05-1.71630E-19-4.59251E-21
 -1        26 4.07380E-05 3.35394E-05-3.15342E-05-6.76657E-05-1.81053E-20 2.16523E-20
 -1        27 2.70596E-05 5.39895E-05-3.50105E-05-6.88325E-05 6.77097E-20-1.46643E-20
 -1        28 1.22419E-05 8.17950E-05-3.97282E-05-4.58881E-05 1.01617E-19-2.94344E-20
 -1        29 2.65913E-05 6.35933E-05-3.83435E-05-3.20840E-05 6.84244E-21-3.16446E-20
 -1        30 3.97993E-05 5.25287E-05-3.92737E-05-3.12076E-05-1.81450E-20-1.35393E-20
 -1        31-2.88560E-06 2.02352E-04-8.37083E-05-8.91245E-05-6.52215E-20-1.35525E-20
 -1        32-7.05847E-06 1.79299E-04-7.37931E-05-3.57281E-05-7.79800E-20-5.13514E-21
 -1        33 7.16632E-06 1.36914E-04-6.13360E-05-8.57892E-06 5.29396E-21 4.39398E-21
 -1        34 2.22158E-05 7.17063E-05-4.00708E-05-2.14751E-07-2.75286E-21 9.68794E-21
 -1        35 3.11176E-05 3.62136E-05-2.81320E-05 2.36804E-06 1.04192E-20-7.88799E-21
 -3
    1PSTEP                         4           1           1          
  100CL  101 1.000000000          35                     0    1           1
 -4  ERROR       1    1
 -5  STR(%)      1    1    0    0
 -1         1 0.00000E+00
 -1         2 0.00000E+00
 -1         3 0.00000E+00
 -1         4 0.00000E+00
 -1         5 0.00000E+00
 -1         6 0.00000E+00
 -1         7 0.00000E+00
 -1         8 0.00000E+00
 -1         9 0.00000E+00
 -1        10 0.00000E+00
 -1        11 0.00000E+00
 -1        12 0.00000E+00
 -1        13 0.00000E+00
 -1        14 0.00000E+00
 -1        15 0.00000E+00
 -1        16 0.00000E+00
 -1        17 0.00000E+00
 -1        18 0.00000E+00
 -1        19 0.00000E+00
 -1        20 0.00000E+00
 -1        21 0.00000E+00
 -1        22 0.00000E+00
 -1        23 0.00000E+00
 -1        24 0.00000E+00
 -1        25 0.00000E+00
 -1        26 0.00000E+00
 -1        27 0.00000E+00
 -1        28 0.00000E+00
 -1        29 0.00000E+00
 -1        30 0.00000E+00
 -1        31 0.00000E+00
 -1        32 0.00000E+00
 -1        33 0.00000E+00
 -1        34 0.00000E+00
 -1        35 0.00000E+00
 -3
 9999
