    1C
    1UHash: PXJD0WWr, Date: 03/11/2021, Unit system: MM_TON_S_C         
    1UUSER                                                              
    1UDATE              13.march.2021                                   
    1UTIME              18:36:08                                        
    1UHOST                                                              
    1UPGM               CalculiX                                        
    1UVERSION           Version 2.17                             
    1UCOMPILETIME       Thu Jul 23 21:43:50 CEST 2020                    
    1UDIR                                                               
    1UDBN                                                               
    1UMAT    1RUBBER                                                    
    2C                           162                                     1
 -1       719 4.80000E+01 4.40000E+01 0.00000E+00
 -1       720 4.80000E+01 4.40000E+01 5.00000E+00
 -1       721 0.00000E+00 0.00000E+00 0.00000E+00
 -1       722 0.00000E+00 0.00000E+00 5.00000E+00
 -1       723 4.80000E+01 6.00000E+01 0.00000E+00
 -1       724 4.80000E+01 6.00000E+01 5.00000E+00
 -1       725 0.00000E+00 4.40000E+01 0.00000E+00
 -1       726 0.00000E+00 4.40000E+01 5.00000E+00
 -1       727 4.20000E+01 3.85000E+01 0.00000E+00
 -1       728 3.60000E+01 3.30000E+01 0.00000E+00
 -1       729 3.00000E+01 2.75000E+01 0.00000E+00
 -1       730 2.40000E+01 2.20000E+01 0.00000E+00
 -1       731 1.80000E+01 1.65000E+01 0.00000E+00
 -1       732 1.20000E+01 1.10000E+01 0.00000E+00
 -1       733 6.00000E+00 5.50000E+00 0.00000E+00
 -1       734 4.20000E+01 3.85000E+01 5.00000E+00
 -1       735 3.60000E+01 3.30000E+01 5.00000E+00
 -1       736 3.00000E+01 2.75000E+01 5.00000E+00
 -1       737 2.40000E+01 2.20000E+01 5.00000E+00
 -1       738 1.80000E+01 1.65000E+01 5.00000E+00
 -1       739 1.20000E+01 1.10000E+01 5.00000E+00
 -1       740 6.00000E+00 5.50000E+00 5.00000E+00
 -1       741 4.80000E+01 5.80000E+01 0.00000E+00
 -1       742 4.80000E+01 5.60000E+01 0.00000E+00
 -1       743 4.80000E+01 5.40000E+01 0.00000E+00
 -1       744 4.80000E+01 5.20000E+01 0.00000E+00
 -1       745 4.80000E+01 5.00000E+01 0.00000E+00
 -1       746 4.80000E+01 4.80000E+01 0.00000E+00
 -1       747 4.80000E+01 4.60000E+01 0.00000E+00
 -1       748 4.80000E+01 5.80000E+01 5.00000E+00
 -1       749 4.80000E+01 5.60000E+01 5.00000E+00
 -1       750 4.80000E+01 5.40000E+01 5.00000E+00
 -1       751 4.80000E+01 5.20000E+01 5.00000E+00
 -1       752 4.80000E+01 5.00000E+01 5.00000E+00
 -1       753 4.80000E+01 4.80000E+01 5.00000E+00
 -1       754 4.80000E+01 4.60000E+01 5.00000E+00
 -1       755 6.00000E+00 4.60000E+01 0.00000E+00
 -1       756 1.20000E+01 4.80000E+01 0.00000E+00
 -1       757 1.80000E+01 5.00000E+01 0.00000E+00
 -1       758 2.40000E+01 5.20000E+01 0.00000E+00
 -1       759 3.00000E+01 5.40000E+01 0.00000E+00
 -1       760 3.60000E+01 5.60000E+01 0.00000E+00
 -1       761 4.20000E+01 5.80000E+01 0.00000E+00
 -1       762 6.00000E+00 4.60000E+01 5.00000E+00
 -1       763 1.20000E+01 4.80000E+01 5.00000E+00
 -1       764 1.80000E+01 5.00000E+01 5.00000E+00
 -1       765 2.40000E+01 5.20000E+01 5.00000E+00
 -1       766 3.00000E+01 5.40000E+01 5.00000E+00
 -1       767 3.60000E+01 5.60000E+01 5.00000E+00
 -1       768 4.20000E+01 5.80000E+01 5.00000E+00
 -1       769 0.00000E+00 5.50000E+00 0.00000E+00
 -1       770 0.00000E+00 1.10000E+01 0.00000E+00
 -1       771 0.00000E+00 1.65000E+01 0.00000E+00
 -1       772 0.00000E+00 2.20000E+01 0.00000E+00
 -1       773 0.00000E+00 2.75000E+01 0.00000E+00
 -1       774 0.00000E+00 3.30000E+01 0.00000E+00
 -1       775 0.00000E+00 3.85000E+01 0.00000E+00
 -1       776 0.00000E+00 5.50000E+00 5.00000E+00
 -1       777 0.00000E+00 1.10000E+01 5.00000E+00
 -1       778 0.00000E+00 1.65000E+01 5.00000E+00
 -1       779 0.00000E+00 2.20000E+01 5.00000E+00
 -1       780 0.00000E+00 2.75000E+01 5.00000E+00
 -1       781 0.00000E+00 3.30000E+01 5.00000E+00
 -1       782 0.00000E+00 3.85000E+01 5.00000E+00
 -1       783 4.20000E+01 4.09375E+01 0.00000E+00
 -1       784 4.20000E+01 4.33750E+01 0.00000E+00
 -1       785 4.20000E+01 4.58125E+01 0.00000E+00
 -1       786 4.20000E+01 4.82500E+01 0.00000E+00
 -1       787 4.20000E+01 5.06875E+01 0.00000E+00
 -1       788 4.20000E+01 5.31250E+01 0.00000E+00
 -1       789 4.20000E+01 5.55625E+01 0.00000E+00
 -1       790 3.60000E+01 3.58750E+01 0.00000E+00
 -1       791 3.60000E+01 3.87500E+01 0.00000E+00
 -1       792 3.60000E+01 4.16250E+01 0.00000E+00
 -1       793 3.60000E+01 4.45000E+01 0.00000E+00
 -1       794 3.60000E+01 4.73750E+01 0.00000E+00
 -1       795 3.60000E+01 5.02500E+01 0.00000E+00
 -1       796 3.60000E+01 5.31250E+01 0.00000E+00
 -1       797 3.00000E+01 3.08125E+01 0.00000E+00
 -1       798 3.00000E+01 3.41250E+01 0.00000E+00
 -1       799 3.00000E+01 3.74375E+01 0.00000E+00
 -1       800 3.00000E+01 4.07500E+01 0.00000E+00
 -1       801 3.00000E+01 4.40625E+01 0.00000E+00
 -1       802 3.00000E+01 4.73750E+01 0.00000E+00
 -1       803 3.00000E+01 5.06875E+01 0.00000E+00
 -1       804 2.40000E+01 2.57500E+01 0.00000E+00
 -1       805 2.40000E+01 2.95000E+01 0.00000E+00
 -1       806 2.40000E+01 3.32500E+01 0.00000E+00
 -1       807 2.40000E+01 3.70000E+01 0.00000E+00
 -1       808 2.40000E+01 4.07500E+01 0.00000E+00
 -1       809 2.40000E+01 4.45000E+01 0.00000E+00
 -1       810 2.40000E+01 4.82500E+01 0.00000E+00
 -1       811 1.80000E+01 2.06875E+01 0.00000E+00
 -1       812 1.80000E+01 2.48750E+01 0.00000E+00
 -1       813 1.80000E+01 2.90625E+01 0.00000E+00
 -1       814 1.80000E+01 3.32500E+01 0.00000E+00
 -1       815 1.80000E+01 3.74375E+01 0.00000E+00
 -1       816 1.80000E+01 4.16250E+01 0.00000E+00
 -1       817 1.80000E+01 4.58125E+01 0.00000E+00
 -1       818 1.20000E+01 1.56250E+01 0.00000E+00
 -1       819 1.20000E+01 2.02500E+01 0.00000E+00
 -1       820 1.20000E+01 2.48750E+01 0.00000E+00
 -1       821 1.20000E+01 2.95000E+01 0.00000E+00
 -1       822 1.20000E+01 3.41250E+01 0.00000E+00
 -1       823 1.20000E+01 3.87500E+01 0.00000E+00
 -1       824 1.20000E+01 4.33750E+01 0.00000E+00
 -1       825 6.00000E+00 1.05625E+01 0.00000E+00
 -1       826 6.00000E+00 1.56250E+01 0.00000E+00
 -1       827 6.00000E+00 2.06875E+01 0.00000E+00
 -1       828 6.00000E+00 2.57500E+01 0.00000E+00
 -1       829 6.00000E+00 3.08125E+01 0.00000E+00
 -1       830 6.00000E+00 3.58750E+01 0.00000E+00
 -1       831 6.00000E+00 4.09375E+01 0.00000E+00
 -1       832 6.00000E+00 1.05625E+01 5.00000E+00
 -1       833 6.00000E+00 1.56250E+01 5.00000E+00
 -1       834 6.00000E+00 2.06875E+01 5.00000E+00
 -1       835 6.00000E+00 2.57500E+01 5.00000E+00
 -1       836 6.00000E+00 3.08125E+01 5.00000E+00
 -1       837 6.00000E+00 3.58750E+01 5.00000E+00
 -1       838 6.00000E+00 4.09375E+01 5.00000E+00
 -1       839 1.20000E+01 1.56250E+01 5.00000E+00
 -1       840 1.20000E+01 2.02500E+01 5.00000E+00
 -1       841 1.20000E+01 2.48750E+01 5.00000E+00
 -1       842 1.20000E+01 2.95000E+01 5.00000E+00
 -1       843 1.20000E+01 3.41250E+01 5.00000E+00
 -1       844 1.20000E+01 3.87500E+01 5.00000E+00
 -1       845 1.20000E+01 4.33750E+01 5.00000E+00
 -1       846 1.80000E+01 2.06875E+01 5.00000E+00
 -1       847 1.80000E+01 2.48750E+01 5.00000E+00
 -1       848 1.80000E+01 2.90625E+01 5.00000E+00
 -1       849 1.80000E+01 3.32500E+01 5.00000E+00
 -1       850 1.80000E+01 3.74375E+01 5.00000E+00
 -1       851 1.80000E+01 4.16250E+01 5.00000E+00
 -1       852 1.80000E+01 4.58125E+01 5.00000E+00
 -1       853 2.40000E+01 2.57500E+01 5.00000E+00
 -1       854 2.40000E+01 2.95000E+01 5.00000E+00
 -1       855 2.40000E+01 3.32500E+01 5.00000E+00
 -1       856 2.40000E+01 3.70000E+01 5.00000E+00
 -1       857 2.40000E+01 4.07500E+01 5.00000E+00
 -1       858 2.40000E+01 4.45000E+01 5.00000E+00
 -1       859 2.40000E+01 4.82500E+01 5.00000E+00
 -1       860 3.00000E+01 3.08125E+01 5.00000E+00
 -1       861 3.00000E+01 3.41250E+01 5.00000E+00
 -1       862 3.00000E+01 3.74375E+01 5.00000E+00
 -1       863 3.00000E+01 4.07500E+01 5.00000E+00
 -1       864 3.00000E+01 4.40625E+01 5.00000E+00
 -1       865 3.00000E+01 4.73750E+01 5.00000E+00
 -1       866 3.00000E+01 5.06875E+01 5.00000E+00
 -1       867 3.60000E+01 3.58750E+01 5.00000E+00
 -1       868 3.60000E+01 3.87500E+01 5.00000E+00
 -1       869 3.60000E+01 4.16250E+01 5.00000E+00
 -1       870 3.60000E+01 4.45000E+01 5.00000E+00
 -1       871 3.60000E+01 4.73750E+01 5.00000E+00
 -1       872 3.60000E+01 5.02500E+01 5.00000E+00
 -1       873 3.60000E+01 5.31250E+01 5.00000E+00
 -1       874 4.20000E+01 4.09375E+01 5.00000E+00
 -1       875 4.20000E+01 4.33750E+01 5.00000E+00
 -1       876 4.20000E+01 4.58125E+01 5.00000E+00
 -1       877 4.20000E+01 4.82500E+01 5.00000E+00
 -1       878 4.20000E+01 5.06875E+01 5.00000E+00
 -1       879 4.20000E+01 5.31250E+01 5.00000E+00
 -1       880 4.20000E+01 5.55625E+01 5.00000E+00
 -3
    3C                            64                                     1
 -1       568    1    0    1
 -2       720       719       727       734       754       747       783       874
 -1       569    1    0    1
 -2       754       747       783       874       753       746       784       875
 -1       570    1    0    1
 -2       753       746       784       875       752       745       785       876
 -1       571    1    0    1
 -2       752       745       785       876       751       744       786       877
 -1       572    1    0    1
 -2       751       744       786       877       750       743       787       878
 -1       573    1    0    1
 -2       750       743       787       878       749       742       788       879
 -1       574    1    0    1
 -2       749       742       788       879       748       741       789       880
 -1       575    1    0    1
 -2       748       741       789       880       724       723       761       768
 -1       576    1    0    1
 -2       734       727       728       735       874       783       790       867
 -1       577    1    0    1
 -2       874       783       790       867       875       784       791       868
 -1       578    1    0    1
 -2       875       784       791       868       876       785       792       869
 -1       579    1    0    1
 -2       876       785       792       869       877       786       793       870
 -1       580    1    0    1
 -2       877       786       793       870       878       787       794       871
 -1       581    1    0    1
 -2       878       787       794       871       879       788       795       872
 -1       582    1    0    1
 -2       879       788       795       872       880       789       796       873
 -1       583    1    0    1
 -2       880       789       796       873       768       761       760       767
 -1       584    1    0    1
 -2       735       728       729       736       867       790       797       860
 -1       585    1    0    1
 -2       867       790       797       860       868       791       798       861
 -1       586    1    0    1
 -2       868       791       798       861       869       792       799       862
 -1       587    1    0    1
 -2       869       792       799       862       870       793       800       863
 -1       588    1    0    1
 -2       870       793       800       863       871       794       801       864
 -1       589    1    0    1
 -2       871       794       801       864       872       795       802       865
 -1       590    1    0    1
 -2       872       795       802       865       873       796       803       866
 -1       591    1    0    1
 -2       873       796       803       866       767       760       759       766
 -1       592    1    0    1
 -2       736       729       730       737       860       797       804       853
 -1       593    1    0    1
 -2       860       797       804       853       861       798       805       854
 -1       594    1    0    1
 -2       861       798       805       854       862       799       806       855
 -1       595    1    0    1
 -2       862       799       806       855       863       800       807       856
 -1       596    1    0    1
 -2       863       800       807       856       864       801       808       857
 -1       597    1    0    1
 -2       864       801       808       857       865       802       809       858
 -1       598    1    0    1
 -2       865       802       809       858       866       803       810       859
 -1       599    1    0    1
 -2       866       803       810       859       766       759       758       765
 -1       600    1    0    1
 -2       737       730       731       738       853       804       811       846
 -1       601    1    0    1
 -2       853       804       811       846       854       805       812       847
 -1       602    1    0    1
 -2       854       805       812       847       855       806       813       848
 -1       603    1    0    1
 -2       855       806       813       848       856       807       814       849
 -1       604    1    0    1
 -2       856       807       814       849       857       808       815       850
 -1       605    1    0    1
 -2       857       808       815       850       858       809       816       851
 -1       606    1    0    1
 -2       858       809       816       851       859       810       817       852
 -1       607    1    0    1
 -2       859       810       817       852       765       758       757       764
 -1       608    1    0    1
 -2       738       731       732       739       846       811       818       839
 -1       609    1    0    1
 -2       846       811       818       839       847       812       819       840
 -1       610    1    0    1
 -2       847       812       819       840       848       813       820       841
 -1       611    1    0    1
 -2       848       813       820       841       849       814       821       842
 -1       612    1    0    1
 -2       849       814       821       842       850       815       822       843
 -1       613    1    0    1
 -2       850       815       822       843       851       816       823       844
 -1       614    1    0    1
 -2       851       816       823       844       852       817       824       845
 -1       615    1    0    1
 -2       852       817       824       845       764       757       756       763
 -1       616    1    0    1
 -2       739       732       733       740       839       818       825       832
 -1       617    1    0    1
 -2       839       818       825       832       840       819       826       833
 -1       618    1    0    1
 -2       840       819       826       833       841       820       827       834
 -1       619    1    0    1
 -2       841       820       827       834       842       821       828       835
 -1       620    1    0    1
 -2       842       821       828       835       843       822       829       836
 -1       621    1    0    1
 -2       843       822       829       836       844       823       830       837
 -1       622    1    0    1
 -2       844       823       830       837       845       824       831       838
 -1       623    1    0    1
 -2       845       824       831       838       763       756       755       762
 -1       624    1    0    1
 -2       740       733       721       722       832       825       769       776
 -1       625    1    0    1
 -2       832       825       769       776       833       826       770       777
 -1       626    1    0    1
 -2       833       826       770       777       834       827       771       778
 -1       627    1    0    1
 -2       834       827       771       778       835       828       772       779
 -1       628    1    0    1
 -2       835       828       772       779       836       829       773       780
 -1       629    1    0    1
 -2       836       829       773       780       837       830       774       781
 -1       630    1    0    1
 -2       837       830       774       781       838       831       775       782
 -1       631    1    0    1
 -2       838       831       775       782       762       755       725       726
 -3
    1PSTEP                         1           1           1          
  100CL  101 1.000000000         162                     0    1           1
 -4  DISP        4    1
 -5  D1          1    2    1    0
 -5  D2          1    2    2    0
 -5  D3          1    2    3    0
 -5  ALL         1    2    0    0    1ALL
 -1       719-1.05266E-01 7.64411E+00 0.00000E+00
 -1       720-1.05266E-01 7.64411E+00 0.00000E+00
 -1       721 0.00000E+00 0.00000E+00 0.00000E+00
 -1       722 0.00000E+00 0.00000E+00 0.00000E+00
 -1       723-2.76464E-01 7.64326E+00 0.00000E+00
 -1       724-2.76464E-01 7.64326E+00 0.00000E+00
 -1       725 0.00000E+00 0.00000E+00 0.00000E+00
 -1       726 0.00000E+00 0.00000E+00 0.00000E+00
 -1       727-7.48961E-02 6.12621E+00 0.00000E+00
 -1       728-4.86404E-02 4.85993E+00 0.00000E+00
 -1       729-2.80688E-02 3.77697E+00 0.00000E+00
 -1       730-1.34494E-02 2.83461E+00 0.00000E+00
 -1       731-4.40329E-03 2.00405E+00 0.00000E+00
 -1       732-1.03632E-04 1.26469E+00 0.00000E+00
 -1       733 6.90833E-04 6.00904E-01 0.00000E+00
 -1       734-7.48961E-02 6.12621E+00 0.00000E+00
 -1       735-4.86404E-02 4.85993E+00 0.00000E+00
 -1       736-2.80688E-02 3.77697E+00 0.00000E+00
 -1       737-1.34494E-02 2.83461E+00 0.00000E+00
 -1       738-4.40329E-03 2.00405E+00 0.00000E+00
 -1       739-1.03632E-04 1.26469E+00 0.00000E+00
 -1       740 6.90833E-04 6.00904E-01 0.00000E+00
 -1       741-2.38664E-01 7.64449E+00 0.00000E+00
 -1       742-2.07536E-01 7.64505E+00 0.00000E+00
 -1       743-1.81442E-01 7.64570E+00 0.00000E+00
 -1       744-1.59714E-01 7.64635E+00 0.00000E+00
 -1       745-1.41730E-01 7.64680E+00 0.00000E+00
 -1       746-1.26968E-01 7.64678E+00 0.00000E+00
 -1       747-1.14980E-01 7.64598E+00 0.00000E+00
 -1       748-2.38664E-01 7.64449E+00 0.00000E+00
 -1       749-2.07536E-01 7.64505E+00 0.00000E+00
 -1       750-1.81442E-01 7.64570E+00 0.00000E+00
 -1       751-1.59714E-01 7.64635E+00 0.00000E+00
 -1       752-1.41730E-01 7.64680E+00 0.00000E+00
 -1       753-1.26968E-01 7.64678E+00 0.00000E+00
 -1       754-1.14980E-01 7.64598E+00 0.00000E+00
 -1       755-1.19097E-02 6.37454E-01 0.00000E+00
 -1       756-3.81098E-02 1.32130E+00 0.00000E+00
 -1       757-7.28007E-02 2.06853E+00 0.00000E+00
 -1       758-1.12809E-01 2.89748E+00 0.00000E+00
 -1       759-1.55492E-01 3.83093E+00 0.00000E+00
 -1       760-1.98392E-01 4.89951E+00 0.00000E+00
 -1       761-2.39152E-01 6.14742E+00 0.00000E+00
 -1       762-1.19097E-02 6.37454E-01 0.00000E+00
 -1       763-3.81098E-02 1.32130E+00 0.00000E+00
 -1       764-7.28007E-02 2.06853E+00 0.00000E+00
 -1       765-1.12809E-01 2.89748E+00 0.00000E+00
 -1       766-1.55492E-01 3.83093E+00 0.00000E+00
 -1       767-1.98392E-01 4.89951E+00 0.00000E+00
 -1       768-2.39152E-01 6.14742E+00 0.00000E+00
 -1       769 0.00000E+00 0.00000E+00 0.00000E+00
 -1       770 0.00000E+00 0.00000E+00 0.00000E+00
 -1       771 0.00000E+00 0.00000E+00 0.00000E+00
 -1       772 0.00000E+00 0.00000E+00 0.00000E+00
 -1       773 0.00000E+00 0.00000E+00 0.00000E+00
 -1       774 0.00000E+00 0.00000E+00 0.00000E+00
 -1       775 0.00000E+00 0.00000E+00 0.00000E+00
 -1       776 0.00000E+00 0.00000E+00 0.00000E+00
 -1       777 0.00000E+00 0.00000E+00 0.00000E+00
 -1       778 0.00000E+00 0.00000E+00 0.00000E+00
 -1       779 0.00000E+00 0.00000E+00 0.00000E+00
 -1       780 0.00000E+00 0.00000E+00 0.00000E+00
 -1       781 0.00000E+00 0.00000E+00 0.00000E+00
 -1       782 0.00000E+00 0.00000E+00 0.00000E+00
 -1       783-8.48888E-02 6.12927E+00 0.00000E+00
 -1       784-9.59787E-02 6.13238E+00 0.00000E+00
 -1       785-1.09147E-01 6.13530E+00 0.00000E+00
 -1       786-1.25072E-01 6.13814E+00 0.00000E+00
 -1       787-1.44546E-01 6.14096E+00 0.00000E+00
 -1       788-1.68639E-01 6.14376E+00 0.00000E+00
 -1       789-1.98838E-01 6.14633E+00 0.00000E+00
 -1       790-5.81115E-02 4.86324E+00 0.00000E+00
 -1       791-6.79762E-02 4.86748E+00 0.00000E+00
 -1       792-7.92918E-02 4.87218E+00 0.00000E+00
 -1       793-9.28771E-02 4.87729E+00 0.00000E+00
 -1       794-1.09697E-01 4.88278E+00 0.00000E+00
 -1       795-1.31112E-01 4.88856E+00 0.00000E+00
 -1       796-1.59144E-01 4.89442E+00 0.00000E+00
 -1       797-3.63796E-02 3.77991E+00 0.00000E+00
 -1       798-4.45675E-02 3.78444E+00 0.00000E+00
 -1       799-5.36924E-02 3.79004E+00 0.00000E+00
 -1       800-6.45690E-02 3.79656E+00 0.00000E+00
 -1       801-7.81939E-02 3.80399E+00 0.00000E+00
 -1       802-9.60180E-02 3.81230E+00 0.00000E+00
 -1       803-1.20157E-01 3.82149E+00 0.00000E+00
 -1       804-2.01876E-02 2.83671E+00 0.00000E+00
 -1       805-2.63768E-02 2.84092E+00 0.00000E+00
 -1       806-3.30676E-02 2.84664E+00 0.00000E+00
 -1       807-4.09789E-02 2.85374E+00 0.00000E+00
 -1       808-5.09948E-02 2.86229E+00 0.00000E+00
 -1       809-6.44495E-02 2.87238E+00 0.00000E+00
 -1       810-8.33482E-02 2.88428E+00 0.00000E+00
 -1       811-9.33456E-03 2.00505E+00 0.00000E+00
 -1       812-1.34057E-02 2.00848E+00 0.00000E+00
 -1       813-1.76435E-02 2.01364E+00 0.00000E+00
 -1       814-2.26068E-02 2.02044E+00 0.00000E+00
 -1       815-2.89377E-02 2.02901E+00 0.00000E+00
 -1       816-3.76812E-02 2.03967E+00 0.00000E+00
 -1       817-5.05477E-02 2.05295E+00 0.00000E+00
 -1       818-3.15282E-03 1.26464E+00 0.00000E+00
 -1       819-5.22586E-03 1.26702E+00 0.00000E+00
 -1       820-7.29793E-03 1.27100E+00 0.00000E+00
 -1       821-9.70228E-03 1.27650E+00 0.00000E+00
 -1       822-1.27896E-02 1.28374E+00 0.00000E+00
 -1       823-1.71283E-02 1.29315E+00 0.00000E+00
 -1       824-2.38471E-02 1.30567E+00 0.00000E+00
 -1       825-5.49217E-04 6.00294E-01 0.00000E+00
 -1       826-1.06729E-03 6.01591E-01 0.00000E+00
 -1       827-1.63257E-03 6.03811E-01 0.00000E+00
 -1       828-2.27071E-03 6.07011E-01 0.00000E+00
 -1       829-3.07560E-03 6.11372E-01 0.00000E+00
 -1       830-4.30122E-03 6.17229E-01 0.00000E+00
 -1       831-5.87245E-03 6.25506E-01 0.00000E+00
 -1       832-5.49217E-04 6.00294E-01 0.00000E+00
 -1       833-1.06729E-03 6.01591E-01 0.00000E+00
 -1       834-1.63257E-03 6.03811E-01 0.00000E+00
 -1       835-2.27071E-03 6.07011E-01 0.00000E+00
 -1       836-3.07560E-03 6.11372E-01 0.00000E+00
 -1       837-4.30122E-03 6.17229E-01 0.00000E+00
 -1       838-5.87245E-03 6.25506E-01 0.00000E+00
 -1       839-3.15282E-03 1.26464E+00 0.00000E+00
 -1       840-5.22586E-03 1.26702E+00 0.00000E+00
 -1       841-7.29793E-03 1.27100E+00 0.00000E+00
 -1       842-9.70228E-03 1.27650E+00 0.00000E+00
 -1       843-1.27896E-02 1.28374E+00 0.00000E+00
 -1       844-1.71283E-02 1.29315E+00 0.00000E+00
 -1       845-2.38471E-02 1.30567E+00 0.00000E+00
 -1       846-9.33456E-03 2.00505E+00 0.00000E+00
 -1       847-1.34057E-02 2.00848E+00 0.00000E+00
 -1       848-1.76435E-02 2.01364E+00 0.00000E+00
 -1       849-2.26068E-02 2.02044E+00 0.00000E+00
 -1       850-2.89377E-02 2.02901E+00 0.00000E+00
 -1       851-3.76812E-02 2.03967E+00 0.00000E+00
 -1       852-5.05477E-02 2.05295E+00 0.00000E+00
 -1       853-2.01876E-02 2.83671E+00 0.00000E+00
 -1       854-2.63768E-02 2.84092E+00 0.00000E+00
 -1       855-3.30676E-02 2.84664E+00 0.00000E+00
 -1       856-4.09789E-02 2.85374E+00 0.00000E+00
 -1       857-5.09948E-02 2.86229E+00 0.00000E+00
 -1       858-6.44495E-02 2.87238E+00 0.00000E+00
 -1       859-8.33482E-02 2.88428E+00 0.00000E+00
 -1       860-3.63796E-02 3.77991E+00 0.00000E+00
 -1       861-4.45675E-02 3.78444E+00 0.00000E+00
 -1       862-5.36924E-02 3.79004E+00 0.00000E+00
 -1       863-6.45690E-02 3.79656E+00 0.00000E+00
 -1       864-7.81939E-02 3.80399E+00 0.00000E+00
 -1       865-9.60180E-02 3.81230E+00 0.00000E+00
 -1       866-1.20157E-01 3.82149E+00 0.00000E+00
 -1       867-5.81115E-02 4.86324E+00 0.00000E+00
 -1       868-6.79762E-02 4.86748E+00 0.00000E+00
 -1       869-7.92918E-02 4.87218E+00 0.00000E+00
 -1       870-9.28771E-02 4.87729E+00 0.00000E+00
 -1       871-1.09697E-01 4.88278E+00 0.00000E+00
 -1       872-1.31112E-01 4.88856E+00 0.00000E+00
 -1       873-1.59144E-01 4.89442E+00 0.00000E+00
 -1       874-8.48888E-02 6.12927E+00 0.00000E+00
 -1       875-9.59787E-02 6.13238E+00 0.00000E+00
 -1       876-1.09147E-01 6.13530E+00 0.00000E+00
 -1       877-1.25072E-01 6.13814E+00 0.00000E+00
 -1       878-1.44546E-01 6.14096E+00 0.00000E+00
 -1       879-1.68639E-01 6.14376E+00 0.00000E+00
 -1       880-1.98838E-01 6.14633E+00 0.00000E+00
 -3
    1PSTEP                         2           1           1          
  100CL  101 1.000000000         162                     0    1           1
 -4  STRESS      6    1
 -5  SXX         1    4    1    1
 -5  SYY         1    4    2    2
 -5  SZZ         1    4    3    3
 -5  SXY         1    4    1    2
 -5  SYZ         1    4    2    3
 -5  SZX         1    4    3    1
 -1       719 3.62940E+01 3.63677E+01 3.63236E+01 5.77016E+00 1.68782E-11-2.20406E-12
 -1       720 3.62940E+01 3.63677E+01 3.63236E+01 5.77016E+00 1.68776E-11-2.20405E-12
 -1       721 1.32752E+01 1.32701E+01 1.32700E+01 2.33695E+00-2.00827E-17-6.61557E-20
 -1       722 1.32752E+01 1.32701E+01 1.32700E+01 2.33695E+00-2.00827E-17 2.06541E-20
 -1       723-6.06280E+01-6.06571E+01-6.06304E+01 5.38278E+00 1.79909E-11-5.37861E-13
 -1       724-6.06280E+01-6.06571E+01-6.06304E+01 5.38278E+00 1.79909E-11-5.37931E-13
 -1       725-2.35897E+02-2.35806E+02-2.35804E+02 2.47967E+00-5.99551E-17 2.16965E-18
 -1       726-2.35897E+02-2.35806E+02-2.35804E+02 2.47967E+00-5.99551E-17 2.75671E-18
 -1       727 3.20584E+01 3.21629E+01 3.21042E+01 5.29182E+00 3.17121E-11-1.24921E-12
 -1       728 2.87827E+01 2.88783E+01 2.88247E+01 4.46714E+00-1.94602E-11-7.87623E-13
 -1       729 2.72001E+01 2.72715E+01 2.72303E+01 3.86122E+00 3.96655E-12-4.40699E-13
 -1       730 2.52269E+01 2.52685E+01 2.52427E+01 3.39398E+00-1.65807E-12-2.12967E-13
 -1       731 2.24552E+01 2.24680E+01 2.24571E+01 3.02044E+00-1.85723E-12-4.24796E-14
 -1       732 1.85992E+01 1.85905E+01 1.85912E+01 2.71349E+00-1.69281E-13 8.54730E-15
 -1       733 1.06443E+01 1.06288E+01 1.06344E+01 2.45616E+00-2.82751E-13 1.39867E-14
 -1       734 3.20584E+01 3.21629E+01 3.21042E+01 5.29182E+00 3.17124E-11-1.24925E-12
 -1       735 2.87827E+01 2.88783E+01 2.88247E+01 4.46714E+00-1.94551E-11-7.87581E-13
 -1       736 2.72001E+01 2.72715E+01 2.72303E+01 3.86122E+00 3.96354E-12-4.40708E-13
 -1       737 2.52269E+01 2.52685E+01 2.52427E+01 3.39398E+00-1.65863E-12-2.12971E-13
 -1       738 2.24552E+01 2.24680E+01 2.24571E+01 3.02044E+00-1.85723E-12-4.24783E-14
 -1       739 1.85992E+01 1.85905E+01 1.85912E+01 2.71349E+00-1.69599E-13 8.54671E-15
 -1       740 1.06443E+01 1.06288E+01 1.06344E+01 2.45616E+00-2.82535E-13 1.39861E-14
 -1       741-9.45858E+00-9.49242E+00-9.47361E+00 5.43040E+00 1.84156E-11-2.90680E-13
 -1       742 7.41151E+00 7.38489E+00 7.39672E+00 5.51023E+00 1.81735E-11-9.90128E-13
 -1       743 1.38597E+01 1.38288E+01 1.38415E+01 5.57902E+00 1.55763E-11-5.48185E-12
 -1       744 1.74001E+01 1.73724E+01 1.73828E+01 5.63927E+00 1.44778E-11-6.73711E-12
 -1       745 1.96297E+01 1.96163E+01 1.96191E+01 5.69000E+00 1.37654E-11-7.37673E-12
 -1       746 2.16047E+01 2.16187E+01 2.16074E+01 5.73052E+00 1.54062E-11-4.76321E-12
 -1       747 2.52839E+01 2.53380E+01 2.53059E+01 5.75924E+00 1.62851E-11-3.28977E-12
 -1       748-9.45858E+00-9.49242E+00-9.47361E+00 5.43040E+00 1.84178E-11-2.90748E-13
 -1       749 7.41151E+00 7.38489E+00 7.39672E+00 5.51023E+00 1.81726E-11-9.89961E-13
 -1       750 1.38597E+01 1.38288E+01 1.38415E+01 5.57902E+00 1.55765E-11-5.48162E-12
 -1       751 1.74001E+01 1.73724E+01 1.73828E+01 5.63927E+00 1.44772E-11-6.73730E-12
 -1       752 1.96297E+01 1.96163E+01 1.96191E+01 5.69000E+00 1.37643E-11-7.37673E-12
 -1       753 2.16047E+01 2.16187E+01 2.16074E+01 5.73052E+00 1.54066E-11-4.76336E-12
 -1       754 2.52839E+01 2.53380E+01 2.53059E+01 5.75924E+00 1.62823E-11-3.28975E-12
 -1       755-5.26230E+01-5.23840E+01-5.24930E+01 2.52378E+00 1.22838E-12-1.95633E-13
 -1       756-8.04235E+01-8.00769E+01-8.02342E+01 2.68532E+00 2.06788E-12-6.69940E-13
 -1       757-8.73325E+01-8.69504E+01-8.71240E+01 2.91291E+00 5.28600E-13-1.26862E-12
 -1       758-8.87428E+01-8.83779E+01-8.85426E+01 3.21741E+00 1.71218E-13-1.77968E-12
 -1       759-8.49492E+01-8.46473E+01-8.47813E+01 3.62319E+00 4.90244E-12-2.07871E-12
 -1       760-7.51343E+01-7.49361E+01-7.50202E+01 4.17357E+00-1.92570E-11-2.05411E-12
 -1       761-6.26060E+01-6.25359E+01-6.25585E+01 4.94736E+00 3.19598E-11-1.45877E-12
 -1       762-5.26230E+01-5.23840E+01-5.24930E+01 2.52378E+00 1.22838E-12-1.95634E-13
 -1       763-8.04235E+01-8.00769E+01-8.02342E+01 2.68532E+00 2.06865E-12-6.69936E-13
 -1       764-8.73325E+01-8.69504E+01-8.71240E+01 2.91291E+00 5.27273E-13-1.26862E-12
 -1       765-8.87428E+01-8.83779E+01-8.85426E+01 3.21741E+00 1.71283E-13-1.77968E-12
 -1       766-8.49492E+01-8.46473E+01-8.47813E+01 3.62319E+00 4.90332E-12-2.07860E-12
 -1       767-7.51343E+01-7.49361E+01-7.50202E+01 4.17357E+00-1.92570E-11-2.05418E-12
 -1       768-6.26060E+01-6.25359E+01-6.25585E+01 4.94736E+00 3.19598E-11-1.45863E-12
 -1       769-1.10135E+01-1.10091E+01-1.10091E+01 2.33461E+00 1.18717E-16 2.84018E-19
 -1       770-2.14224E+01-2.14143E+01-2.14141E+01 2.33970E+00-1.89181E-16 1.49329E-18
 -1       771-3.27080E+01-3.26956E+01-3.26952E+01 2.34837E+00 8.97594E-17 2.71901E-18
 -1       772-4.54555E+01-4.54382E+01-4.54378E+01 2.36085E+00-1.60006E-16 2.91968E-18
 -1       773-6.15490E+01-6.15256E+01-6.15250E+01 2.37785E+00-8.29046E-17 2.16633E-18
 -1       774-8.60177E+01-8.59851E+01-8.59842E+01 2.40069E+00 1.17140E-17 2.96552E-18
 -1       775-1.17773E+02-1.17729E+02-1.17728E+02 2.43307E+00-1.23136E-16 3.47687E-18
 -1       776-1.10135E+01-1.10091E+01-1.10091E+01 2.33461E+00 1.25761E-16 2.72388E-19
 -1       777-2.14224E+01-2.14143E+01-2.14141E+01 2.33970E+00 4.72753E-17 1.42482E-18
 -1       778-3.27080E+01-3.26956E+01-3.26952E+01 2.34837E+00-4.18664E-17 2.21713E-18
 -1       779-4.54555E+01-4.54382E+01-4.54378E+01 2.36085E+00-2.04118E-17 3.53344E-18
 -1       780-6.15490E+01-6.15256E+01-6.15250E+01 2.37785E+00 1.28701E-17 2.96960E-18
 -1       781-8.60177E+01-8.59851E+01-8.59842E+01 2.40069E+00-1.39485E-17 1.65481E-18
 -1       782-1.17773E+02-1.17729E+02-1.17728E+02 2.43307E+00-1.23136E-16 2.67492E-18
 -1       783 1.83448E+01 1.84564E+01 1.83969E+01 5.28574E+00 3.11588E-11-2.25319E-12
 -1       784 1.66046E+01 1.67153E+01 1.66566E+01 5.26665E+00 2.99378E-11-4.13511E-12
 -1       785 1.51913E+01 1.52980E+01 1.52416E+01 5.23763E+00 2.84448E-11-6.54961E-12
 -1       786 1.36731E+01 1.37788E+01 1.37232E+01 5.19922E+00 2.94421E-11-5.72765E-12
 -1       787 1.13856E+01 1.14918E+01 1.14364E+01 5.15052E+00 3.06636E-11-4.41002E-12
 -1       788 7.22039E+00 7.32346E+00 7.27047E+00 5.08941E+00 3.27061E-11-8.45136E-13
 -1       789 1.90167E-01 2.63438E-01 2.26757E-01 5.00446E+00 3.23948E-11-1.10429E-12
 -1       790 1.00042E+01 1.01226E+01 1.00614E+01 4.46459E+00-1.98031E-11-1.48023E-12
 -1       791 1.05235E+01 1.06647E+01 1.05920E+01 4.45226E+00-2.09084E-11-3.30688E-12
 -1       792 1.04887E+01 1.06446E+01 1.05646E+01 4.43225E+00-2.18121E-11-5.31212E-12
 -1       793 1.03821E+01 1.05510E+01 1.04645E+01 4.40380E+00-2.07224E-11-4.53845E-12
 -1       794 1.00757E+01 1.02559E+01 1.01638E+01 4.36487E+00-1.98222E-11-3.62343E-12
 -1       795 9.61247E+00 9.79932E+00 9.70395E+00 4.31142E+00-1.85539E-11-1.16678E-12
 -1       796 1.15815E+01 1.17571E+01 1.16670E+01 4.23093E+00-1.89475E-11-1.64169E-12
 -1       797 5.64907E+00 5.75161E+00 5.69920E+00 3.86079E+00 3.70223E-12-9.62628E-13
 -1       798 6.60358E+00 6.74335E+00 6.67213E+00 3.85271E+00 3.02031E-12-2.29700E-12
 -1       799 7.62840E+00 7.79605E+00 7.71068E+00 3.83904E+00 2.46611E-12-3.92948E-12
 -1       800 8.78954E+00 8.98287E+00 8.88443E+00 3.81846E+00 3.41972E-12-3.45554E-12
 -1       801 1.02431E+01 1.04612E+01 1.03500E+01 3.78830E+00 4.07749E-12-3.09854E-12
 -1       802 1.24403E+01 1.26826E+01 1.25589E+01 3.74411E+00 5.20277E-12-1.30650E-12
 -1       803 1.56640E+01 1.59216E+01 1.57896E+01 3.67378E+00 4.97611E-12-1.81369E-12
 -1       804 2.83730E+00 2.91415E+00 2.87515E+00 3.39485E+00-1.82461E-12-5.84670E-13
 -1       805 3.91918E+00 4.04072E+00 3.97915E+00 3.38991E+00-2.20848E-12-1.44316E-12
 -1       806 5.53618E+00 5.69320E+00 5.61357E+00 3.38141E+00-2.52234E-12-2.67087E-12
 -1       807 7.71868E+00 7.91008E+00 7.81282E+00 3.36803E+00-1.66030E-12-2.40736E-12
 -1       808 1.05718E+01 1.07994E+01 1.06835E+01 3.34709E+00-9.92165E-13-2.31144E-12
 -1       809 1.41031E+01 1.43712E+01 1.42343E+01 3.31425E+00-2.14336E-14-1.14085E-12
 -1       810 1.76491E+01 1.79549E+01 1.77985E+01 3.25776E+00-2.45994E-14-1.60352E-12
 -1       811 3.53823E-01 4.02620E-01 3.78146E-01 3.02170E+00-1.97734E-12-3.20489E-13
 -1       812 1.59708E+00 1.69167E+00 1.64405E+00 3.01919E+00-2.02787E-12-7.59889E-13
 -1       813 3.63563E+00 3.76681E+00 3.70048E+00 3.01533E+00-2.07749E-12-1.59277E-12
 -1       814 6.35854E+00 6.52663E+00 6.44130E+00 3.00917E+00-1.28037E-12-1.40032E-12
 -1       815 1.03878E+01 1.05974E+01 1.04905E+01 2.99844E+00-7.35743E-13-1.46404E-12
 -1       816 1.54640E+01 1.57242E+01 1.55910E+01 2.97932E+00 1.38326E-14-7.95007E-13
 -1       817 2.00844E+01 2.03977E+01 2.02370E+01 2.93996E+00 1.91463E-13-1.10794E-12
 -1       818-2.62915E+00-2.60492E+00-2.61651E+00 2.71390E+00-1.81867E-13-8.95282E-14
 -1       819-6.86109E-01-6.22143E-01-6.53995E-01 2.71313E+00-1.53054E-13-2.96371E-13
 -1       820 1.81294E+00 1.90720E+00 1.85970E+00 2.71372E+00-7.11952E-14-7.32926E-13
 -1       821 4.40724E+00 4.53312E+00 4.46929E+00 2.71482E+00 4.80864E-13-6.48531E-13
 -1       822 8.19550E+00 8.35925E+00 8.27572E+00 2.71509E+00 8.93593E-13-7.48540E-13
 -1       823 1.64244E+01 1.66380E+01 1.65279E+01 2.71209E+00 1.44675E-12-4.05062E-13
 -1       824 2.53990E+01 2.56718E+01 2.55303E+01 2.69462E+00 1.69069E-12-5.87955E-13
 -1       825-6.24712E+00-6.23846E+00-6.24154E+00 2.45383E+00-2.92934E-13-5.78744E-15
 -1       826-1.54389E+00-1.51132E+00-1.52730E+00 2.45514E+00-2.61478E-13-4.94996E-14
 -1       827 1.17816E-02 6.10439E-02 3.64055E-02 2.46017E+00-1.71899E-13-2.13204E-13
 -1       828 1.68569E+00 1.75378E+00 1.71939E+00 2.46818E+00 1.60399E-13-1.64259E-13
 -1       829 4.38489E+00 4.47610E+00 4.42961E+00 2.47884E+00 4.31182E-13-2.29301E-13
 -1       830 9.25386E+00 9.37884E+00 9.31448E+00 2.49287E+00 7.58661E-13-9.70776E-14
 -1       831 3.34000E+01 3.35710E+01 3.34788E+01 2.50298E+00 9.45680E-13-1.76325E-13
 -1       832-6.24712E+00-6.23846E+00-6.24154E+00 2.45383E+00-2.93449E-13-5.78723E-15
 -1       833-1.54389E+00-1.51132E+00-1.52730E+00 2.45514E+00-2.61708E-13-4.95001E-14
 -1       834 1.17816E-02 6.10439E-02 3.64055E-02 2.46017E+00-1.71536E-13-2.13204E-13
 -1       835 1.68569E+00 1.75378E+00 1.71939E+00 2.46818E+00 1.60306E-13-1.64259E-13
 -1       836 4.38489E+00 4.47610E+00 4.42961E+00 2.47884E+00 4.30962E-13-2.29304E-13
 -1       837 9.25386E+00 9.37884E+00 9.31448E+00 2.49287E+00 7.59334E-13-9.70752E-14
 -1       838 3.34000E+01 3.35710E+01 3.34788E+01 2.50298E+00 9.45208E-13-1.76322E-13
 -1       839-2.62915E+00-2.60492E+00-2.61651E+00 2.71390E+00-1.81292E-13-8.95292E-14
 -1       840-6.86109E-01-6.22143E-01-6.53995E-01 2.71313E+00-1.52793E-13-2.96372E-13
 -1       841 1.81294E+00 1.90720E+00 1.85970E+00 2.71372E+00-7.22506E-14-7.32928E-13
 -1       842 4.40724E+00 4.53312E+00 4.46929E+00 2.71482E+00 4.80978E-13-6.48522E-13
 -1       843 8.19550E+00 8.35925E+00 8.27572E+00 2.71509E+00 8.94279E-13-7.48539E-13
 -1       844 1.64244E+01 1.66380E+01 1.65279E+01 2.71209E+00 1.44565E-12-4.05044E-13
 -1       845 2.53990E+01 2.56718E+01 2.55303E+01 2.69462E+00 1.69184E-12-5.87962E-13
 -1       846 3.53823E-01 4.02620E-01 3.78146E-01 3.02170E+00-1.97734E-12-3.20489E-13
 -1       847 1.59708E+00 1.69167E+00 1.64405E+00 3.01919E+00-2.02679E-12-7.59889E-13
 -1       848 3.63563E+00 3.76681E+00 3.70048E+00 3.01533E+00-2.07872E-12-1.59277E-12
 -1       849 6.35854E+00 6.52663E+00 6.44130E+00 3.00917E+00-1.28118E-12-1.40032E-12
 -1       850 1.03878E+01 1.05974E+01 1.04905E+01 2.99844E+00-7.35837E-13-1.46404E-12
 -1       851 1.54640E+01 1.57242E+01 1.55910E+01 2.97932E+00 1.50708E-14-7.95014E-13
 -1       852 2.00844E+01 2.03977E+01 2.02370E+01 2.93996E+00 1.93421E-13-1.10794E-12
 -1       853 2.83730E+00 2.91415E+00 2.87515E+00 3.39485E+00-1.82365E-12-5.84668E-13
 -1       854 3.91918E+00 4.04072E+00 3.97915E+00 3.38991E+00-2.20849E-12-1.44316E-12
 -1       855 5.53618E+00 5.69320E+00 5.61357E+00 3.38141E+00-2.52204E-12-2.67086E-12
 -1       856 7.71868E+00 7.91008E+00 7.81282E+00 3.36803E+00-1.66009E-12-2.40737E-12
 -1       857 1.05718E+01 1.07994E+01 1.06835E+01 3.34709E+00-9.91871E-13-2.31143E-12
 -1       858 1.41031E+01 1.43712E+01 1.42343E+01 3.31425E+00-2.08014E-14-1.14087E-12
 -1       859 1.76491E+01 1.79549E+01 1.77985E+01 3.25776E+00-2.49602E-14-1.60355E-12
 -1       860 5.64907E+00 5.75161E+00 5.69920E+00 3.86079E+00 3.70241E-12-9.62622E-13
 -1       861 6.60358E+00 6.74335E+00 6.67213E+00 3.85271E+00 3.01973E-12-2.29700E-12
 -1       862 7.62840E+00 7.79605E+00 7.71068E+00 3.83904E+00 2.46582E-12-3.92950E-12
 -1       863 8.78954E+00 8.98287E+00 8.88443E+00 3.81846E+00 3.41979E-12-3.45549E-12
 -1       864 1.02431E+01 1.04612E+01 1.03500E+01 3.78830E+00 4.07875E-12-3.09855E-12
 -1       865 1.24403E+01 1.26826E+01 1.25589E+01 3.74411E+00 5.20125E-12-1.30650E-12
 -1       866 1.56640E+01 1.59216E+01 1.57896E+01 3.67378E+00 4.97529E-12-1.81370E-12
 -1       867 1.00042E+01 1.01226E+01 1.00614E+01 4.46459E+00-1.98062E-11-1.48026E-12
 -1       868 1.05235E+01 1.06647E+01 1.05920E+01 4.45226E+00-2.09063E-11-3.30687E-12
 -1       869 1.04887E+01 1.06446E+01 1.05646E+01 4.43225E+00-2.18099E-11-5.31205E-12
 -1       870 1.03821E+01 1.05510E+01 1.04645E+01 4.40380E+00-2.07245E-11-4.53845E-12
 -1       871 1.00757E+01 1.02559E+01 1.01638E+01 4.36487E+00-1.98236E-11-3.62349E-12
 -1       872 9.61247E+00 9.79932E+00 9.70395E+00 4.31142E+00-1.85525E-11-1.16681E-12
 -1       873 1.15815E+01 1.17571E+01 1.16670E+01 4.23093E+00-1.89481E-11-1.64154E-12
 -1       874 1.83448E+01 1.84564E+01 1.83969E+01 5.28574E+00 3.11569E-11-2.25309E-12
 -1       875 1.66046E+01 1.67153E+01 1.66566E+01 5.26665E+00 2.99362E-11-4.13506E-12
 -1       876 1.51913E+01 1.52980E+01 1.52416E+01 5.23763E+00 2.84412E-11-6.54964E-12
 -1       877 1.36731E+01 1.37788E+01 1.37232E+01 5.19922E+00 2.94439E-11-5.72758E-12
 -1       878 1.13856E+01 1.14918E+01 1.14364E+01 5.15052E+00 3.06642E-11-4.41011E-12
 -1       879 7.22039E+00 7.32346E+00 7.27047E+00 5.08941E+00 3.27088E-11-8.45144E-13
 -1       880 1.90167E-01 2.63438E-01 2.26757E-01 5.00446E+00 3.23927E-11-1.10430E-12
 -3
    1PSTEP                         3           1           1          
  100CL  101 1.000000000         162                     0    1           1
 -4  TOSTRAIN    6    1
 -5  EXX         1    4    1    1
 -5  EYY         1    4    2    2
 -5  EZZ         1    4    3    3
 -5  EXY         1    4    1    2
 -5  EYZ         1    4    2    3
 -5  EZX         1    4    3    1
 -1       719-6.34093E-04 9.45480E-04 0.00000E+00 1.23638E-01 3.61651E-13-4.72268E-14
 -1       720-6.34093E-04 9.45480E-04 0.00000E+00 1.23638E-01 3.61638E-13-4.72266E-14
 -1       721 1.12161E-04 1.59721E-06 0.00000E+00 5.00742E-02-4.30316E-19-1.41753E-21
 -1       722 1.12161E-04 1.59721E-06 0.00000E+00 5.00742E-02-4.30316E-19 4.42558E-22
 -1       723 5.27417E-05-5.72500E-04 0.00000E+00 1.15338E-01 3.85494E-13-1.15248E-14
 -1       724 5.27417E-05-5.72500E-04 0.00000E+00 1.15338E-01 3.85494E-13-1.15263E-14
 -1       725-1.99016E-03-3.12906E-05 0.00000E+00 5.31322E-02-1.28467E-18 4.64895E-20
 -1       726-1.99016E-03-3.12906E-05 0.00000E+00 5.31322E-02-1.28467E-18 5.90684E-20
 -1       727-9.82113E-04 1.25733E-03 0.00000E+00 1.13389E-01 6.79500E-13-2.67669E-14
 -1       728-9.00896E-04 1.14800E-03 0.00000E+00 9.57181E-02-4.16976E-13-1.68765E-14
 -1       729-6.47759E-04 8.81193E-04 0.00000E+00 8.27350E-02 8.49919E-14-9.44292E-15
 -1       730-3.36842E-04 5.53237E-04 0.00000E+00 7.27232E-02-3.55277E-14-4.56328E-15
 -1       731-4.17237E-05 2.34239E-04 0.00000E+00 6.47193E-02-3.97951E-14-9.10216E-16
 -1       732 1.73102E-04-1.37278E-05 0.00000E+00 5.81424E-02-3.62720E-15 1.83144E-16
 -1       733 2.11548E-04-1.20384E-04 0.00000E+00 5.26285E-02-6.05854E-15 2.99696E-16
 -1       734-9.82113E-04 1.25733E-03 0.00000E+00 1.13389E-01 6.79506E-13-2.67678E-14
 -1       735-9.00896E-04 1.14800E-03 0.00000E+00 9.57181E-02-4.16868E-13-1.68756E-14
 -1       736-6.47759E-04 8.81193E-04 0.00000E+00 8.27350E-02 8.49274E-14-9.44312E-15
 -1       737-3.36842E-04 5.53237E-04 0.00000E+00 7.27232E-02-3.55397E-14-4.56336E-15
 -1       738-4.17237E-05 2.34239E-04 0.00000E+00 6.47193E-02-3.97951E-14-9.10189E-16
 -1       739 1.73102E-04-1.37278E-05 0.00000E+00 5.81424E-02-3.63401E-15 1.83132E-16
 -1       740 2.11548E-04-1.20384E-04 0.00000E+00 5.26285E-02-6.05393E-15 2.99683E-16
 -1       741 3.21986E-04-4.03199E-04 0.00000E+00 1.16358E-01 3.94593E-13-6.22845E-15
 -1       742 3.16918E-04-2.53509E-04 0.00000E+00 1.18068E-01 3.89407E-13-2.12156E-14
 -1       743 3.90794E-04-2.72137E-04 0.00000E+00 1.19542E-01 3.33756E-13-1.17460E-13
 -1       744 3.70943E-04-2.21928E-04 0.00000E+00 1.20833E-01 3.10217E-13-1.44357E-13
 -1       745 2.26943E-04-5.87568E-05 0.00000E+00 1.21920E-01 2.94953E-13-1.58062E-13
 -1       746-5.77009E-05 2.42932E-04 0.00000E+00 1.22789E-01 3.30112E-13-1.02062E-13
 -1       747-4.71140E-04 6.88077E-04 0.00000E+00 1.23404E-01 3.48943E-13-7.04904E-14
 -1       748 3.21986E-04-4.03199E-04 0.00000E+00 1.16358E-01 3.94641E-13-6.22990E-15
 -1       749 3.16918E-04-2.53509E-04 0.00000E+00 1.18068E-01 3.89387E-13-2.12120E-14
 -1       750 3.90794E-04-2.72137E-04 0.00000E+00 1.19542E-01 3.33761E-13-1.17455E-13
 -1       751 3.70943E-04-2.21928E-04 0.00000E+00 1.20833E-01 3.10206E-13-1.44361E-13
 -1       752 2.26943E-04-5.87568E-05 0.00000E+00 1.21920E-01 2.94929E-13-1.58062E-13
 -1       753-5.77009E-05 2.42932E-04 0.00000E+00 1.22789E-01 3.30120E-13-1.02065E-13
 -1       754-4.71140E-04 6.88077E-04 0.00000E+00 1.23404E-01 3.48884E-13-7.04899E-14
 -1       755-2.78560E-03 2.33560E-03 0.00000E+00 5.40775E-02 2.63207E-14-4.19186E-15
 -1       756-4.05698E-03 3.36917E-03 0.00000E+00 5.75388E-02 4.43088E-14-1.43549E-14
 -1       757-4.46725E-03 3.72037E-03 0.00000E+00 6.24154E-02 1.13264E-14-2.71830E-14
 -1       758-4.28937E-03 3.53033E-03 0.00000E+00 6.89399E-02 3.66870E-15-3.81334E-14
 -1       759-3.59727E-03 2.87048E-03 0.00000E+00 7.76346E-02 1.05045E-13-4.45407E-14
 -1       760-2.44575E-03 1.80264E-03 0.00000E+00 8.94276E-02-4.12623E-13-4.40138E-14
 -1       761-1.01893E-03 4.82642E-04 0.00000E+00 1.06008E-01 6.84806E-13-3.12573E-14
 -1       762-2.78560E-03 2.33560E-03 0.00000E+00 5.40775E-02 2.63207E-14-4.19188E-15
 -1       763-4.05698E-03 3.36917E-03 0.00000E+00 5.75388E-02 4.43252E-14-1.43548E-14
 -1       764-4.46725E-03 3.72037E-03 0.00000E+00 6.24154E-02 1.12980E-14-2.71828E-14
 -1       765-4.28937E-03 3.53033E-03 0.00000E+00 6.89399E-02 3.67011E-15-3.81334E-14
 -1       766-3.59727E-03 2.87048E-03 0.00000E+00 7.76346E-02 1.05064E-13-4.45385E-14
 -1       767-2.44575E-03 1.80264E-03 0.00000E+00 8.94276E-02-4.12623E-13-4.40152E-14
 -1       768-1.01893E-03 4.82642E-04 0.00000E+00 1.06008E-01 6.84806E-13-3.12543E-14
 -1       769-9.34761E-05-9.00175E-07 0.00000E+00 5.00240E-02 2.54377E-18 6.08569E-21
 -1       770-1.78968E-04-4.60543E-06 0.00000E+00 5.01331E-02-4.05362E-18 3.19969E-20
 -1       771-2.73185E-04-7.09770E-06 0.00000E+00 5.03188E-02 1.92329E-18 5.82607E-20
 -1       772-3.79617E-04-9.90105E-06 0.00000E+00 5.05863E-02-3.42846E-18 6.25605E-20
 -1       773-5.14047E-04-1.33806E-05 0.00000E+00 5.09506E-02-1.77641E-18 4.64183E-20
 -1       774-7.18596E-04-1.85094E-05 0.00000E+00 5.14400E-02 2.50997E-19 6.35426E-20
 -1       775-9.82743E-04-2.64842E-05 0.00000E+00 5.21338E-02-2.63846E-18 7.44993E-20
 -1       776-9.34761E-05-9.00175E-07 0.00000E+00 5.00240E-02 2.69469E-18 5.83650E-21
 -1       777-1.78968E-04-4.60543E-06 0.00000E+00 5.01331E-02 1.01297E-18 3.05298E-20
 -1       778-2.73185E-04-7.09770E-06 0.00000E+00 5.03188E-02-8.97078E-19 4.75068E-20
 -1       779-3.79617E-04-9.90105E-06 0.00000E+00 5.05863E-02-4.37367E-19 7.57115E-20
 -1       780-5.14047E-04-1.33806E-05 0.00000E+00 5.09506E-02 2.75769E-19 6.36300E-20
 -1       781-7.18596E-04-1.85094E-05 0.00000E+00 5.14400E-02-2.98876E-19 3.54578E-20
 -1       782-9.82743E-04-2.64842E-05 0.00000E+00 5.21338E-02-2.63846E-18 5.73158E-20
 -1       783-1.11602E-03 1.27373E-03 0.00000E+00 1.13258E-01 6.67644E-13-4.82794E-14
 -1       784-1.11469E-03 1.25748E-03 0.00000E+00 1.12849E-01 6.41481E-13-8.86036E-14
 -1       785-1.07814E-03 1.20880E-03 0.00000E+00 1.12227E-01 6.09491E-13-1.40339E-13
 -1       786-1.07444E-03 1.19208E-03 0.00000E+00 1.11404E-01 6.30861E-13-1.22727E-13
 -1       787-1.08833E-03 1.18637E-03 0.00000E+00 1.10361E-01 6.57032E-13-9.44942E-14
 -1       788-1.07299E-03 1.13532E-03 0.00000E+00 1.09052E-01 7.00797E-13-1.81088E-14
 -1       789-7.84024E-04 7.85968E-04 0.00000E+00 1.07231E-01 6.94128E-13-2.36617E-14
 -1       790-1.22461E-03 1.31087E-03 0.00000E+00 9.56634E-02-4.24324E-13-3.17172E-14
 -1       791-1.46782E-03 1.55862E-03 0.00000E+00 9.53992E-02-4.48007E-13-7.08570E-14
 -1       792-1.62473E-03 1.71530E-03 0.00000E+00 9.49704E-02-4.67370E-13-1.13823E-13
 -1       793-1.76500E-03 1.85471E-03 0.00000E+00 9.43608E-02-4.44022E-13-9.72460E-14
 -1       794-1.88744E-03 1.97457E-03 0.00000E+00 9.35266E-02-4.24734E-13-7.76398E-14
 -1       795-1.96019E-03 2.04338E-03 0.00000E+00 9.23814E-02-3.97557E-13-2.50008E-14
 -1       796-1.83127E-03 1.93129E-03 0.00000E+00 9.06566E-02-4.05991E-13-3.51768E-14
 -1       797-1.07421E-03 1.12306E-03 0.00000E+00 8.27257E-02 7.93281E-14-2.06264E-14
 -1       798-1.46881E-03 1.52601E-03 0.00000E+00 8.25526E-02 6.47166E-14-4.92182E-14
 -1       799-1.76312E-03 1.82922E-03 0.00000E+00 8.22597E-02 5.28416E-14-8.41975E-14
 -1       800-2.03318E-03 2.10934E-03 0.00000E+00 8.18187E-02 7.32748E-14-7.40424E-14
 -1       801-2.29237E-03 2.38109E-03 0.00000E+00 8.11725E-02 8.73689E-14-6.63929E-14
 -1       802-2.54253E-03 2.65019E-03 0.00000E+00 8.02256E-02 1.11480E-13-2.79946E-14
 -1       803-2.69264E-03 2.82799E-03 0.00000E+00 7.87186E-02 1.06624E-13-3.88622E-14
 -1       804-8.10982E-04 8.35629E-04 0.00000E+00 7.27420E-02-3.90961E-14-1.25278E-14
 -1       805-1.28511E-03 1.31922E-03 0.00000E+00 7.26361E-02-4.73215E-14-3.09228E-14
 -1       806-1.65820E-03 1.70632E-03 0.00000E+00 7.24539E-02-5.40466E-14-5.72290E-14
 -1       807-2.01708E-03 2.08406E-03 0.00000E+00 7.21673E-02-3.55755E-14-5.15829E-14
 -1       808-2.39267E-03 2.48426E-03 0.00000E+00 7.17186E-02-2.12593E-14-4.95275E-14
 -1       809-2.81171E-03 2.93373E-03 0.00000E+00 7.10149E-02-4.59261E-16-2.44451E-14
 -1       810-3.20002E-03 3.35260E-03 0.00000E+00 6.98044E-02-5.27094E-16-3.43587E-14
 -1       811-5.21167E-04 5.24409E-04 0.00000E+00 6.47464E-02-4.23687E-14-6.86716E-15
 -1       812-1.00628E-03 1.02038E-03 0.00000E+00 6.46925E-02-4.34515E-14-1.62822E-14
 -1       813-1.38953E-03 1.42125E-03 0.00000E+00 6.46098E-02-4.45148E-14-3.41285E-14
 -1       814-1.77323E-03 1.82845E-03 0.00000E+00 6.44779E-02-2.74348E-14-3.00048E-14
 -1       815-2.20113E-03 2.29106E-03 0.00000E+00 6.42481E-02-1.57649E-14-3.13703E-14
 -1       816-2.71992E-03 2.85357E-03 0.00000E+00 6.38384E-02 2.96394E-16-1.70347E-14
 -1       817-3.26950E-03 3.44298E-03 0.00000E+00 6.29950E-02 4.10251E-15-2.37400E-14
 -1       818-2.70858E-04 2.48427E-04 0.00000E+00 5.81510E-02-3.89688E-15-1.91833E-15
 -1       819-6.88115E-04 6.82508E-04 0.00000E+00 5.81345E-02-3.27951E-15-6.35039E-15
 -1       820-1.00184E-03 1.01778E-03 0.00000E+00 5.81474E-02-1.52551E-15-1.57045E-14
 -1       821-1.32949E-03 1.36781E-03 0.00000E+00 5.81708E-02 1.03035E-14-1.38962E-14
 -1       822-1.71883E-03 1.78978E-03 0.00000E+00 5.81767E-02 1.91471E-14-1.60391E-14
 -1       823-2.21747E-03 2.35916E-03 0.00000E+00 5.81124E-02 3.09996E-14-8.67932E-15
 -1       824-2.81234E-03 3.03120E-03 0.00000E+00 5.77381E-02 3.62266E-14-1.25982E-14
 -1       825-1.19582E-04 6.60764E-05 0.00000E+00 5.25786E-02-6.27674E-15-1.24008E-16
 -1       826-3.55482E-04 3.42389E-04 0.00000E+00 5.26067E-02-5.60272E-15-1.06064E-15
 -1       827-5.27618E-04 5.27931E-04 0.00000E+00 5.27145E-02-3.68331E-15-4.56836E-15
 -1       828-7.22089E-04 7.36828E-04 0.00000E+00 5.28861E-02 3.43690E-15-3.51961E-15
 -1       829-9.58231E-04 9.96204E-04 0.00000E+00 5.31145E-02 9.23900E-15-4.91326E-15
 -1       830-1.29907E-03 1.37892E-03 0.00000E+00 5.34151E-02 1.62559E-14-2.08009E-15
 -1       831-1.68853E-03 1.97553E-03 0.00000E+00 5.36317E-02 2.02632E-14-3.77814E-15
 -1       832-1.19582E-04 6.60764E-05 0.00000E+00 5.25786E-02-6.28777E-15-1.24004E-16
 -1       833-3.55482E-04 3.42389E-04 0.00000E+00 5.26067E-02-5.60766E-15-1.06065E-15
 -1       834-5.27618E-04 5.27931E-04 0.00000E+00 5.27145E-02-3.67553E-15-4.56834E-15
 -1       835-7.22089E-04 7.36828E-04 0.00000E+00 5.28861E-02 3.43490E-15-3.51961E-15
 -1       836-9.58231E-04 9.96204E-04 0.00000E+00 5.31145E-02 9.23429E-15-4.91333E-15
 -1       837-1.29907E-03 1.37892E-03 0.00000E+00 5.34151E-02 1.62704E-14-2.08004E-15
 -1       838-1.68853E-03 1.97553E-03 0.00000E+00 5.36317E-02 2.02531E-14-3.77808E-15
 -1       839-2.70858E-04 2.48427E-04 0.00000E+00 5.81510E-02-3.88457E-15-1.91835E-15
 -1       840-6.88115E-04 6.82508E-04 0.00000E+00 5.81345E-02-3.27391E-15-6.35040E-15
 -1       841-1.00184E-03 1.01778E-03 0.00000E+00 5.81474E-02-1.54812E-15-1.57045E-14
 -1       842-1.32949E-03 1.36781E-03 0.00000E+00 5.81708E-02 1.03060E-14-1.38960E-14
 -1       843-1.71883E-03 1.78978E-03 0.00000E+00 5.81767E-02 1.91618E-14-1.60391E-14
 -1       844-2.21747E-03 2.35916E-03 0.00000E+00 5.81124E-02 3.09761E-14-8.67894E-15
 -1       845-2.81234E-03 3.03120E-03 0.00000E+00 5.77381E-02 3.62513E-14-1.25983E-14
 -1       846-5.21167E-04 5.24409E-04 0.00000E+00 6.47464E-02-4.23687E-14-6.86716E-15
 -1       847-1.00628E-03 1.02038E-03 0.00000E+00 6.46925E-02-4.34283E-14-1.62823E-14
 -1       848-1.38953E-03 1.42125E-03 0.00000E+00 6.46098E-02-4.45411E-14-3.41285E-14
 -1       849-1.77323E-03 1.82845E-03 0.00000E+00 6.44779E-02-2.74521E-14-3.00049E-14
 -1       850-2.20113E-03 2.29106E-03 0.00000E+00 6.42481E-02-1.57669E-14-3.13702E-14
 -1       851-2.71992E-03 2.85357E-03 0.00000E+00 6.38384E-02 3.22924E-16-1.70349E-14
 -1       852-3.26950E-03 3.44298E-03 0.00000E+00 6.29950E-02 4.14447E-15-2.37400E-14
 -1       853-8.10982E-04 8.35629E-04 0.00000E+00 7.27420E-02-3.90757E-14-1.25278E-14
 -1       854-1.28511E-03 1.31922E-03 0.00000E+00 7.26361E-02-4.73216E-14-3.09229E-14
 -1       855-1.65820E-03 1.70632E-03 0.00000E+00 7.24539E-02-5.40402E-14-5.72290E-14
 -1       856-2.01708E-03 2.08406E-03 0.00000E+00 7.21673E-02-3.55710E-14-5.15830E-14
 -1       857-2.39267E-03 2.48426E-03 0.00000E+00 7.17186E-02-2.12530E-14-4.95273E-14
 -1       858-2.81171E-03 2.93373E-03 0.00000E+00 7.10149E-02-4.45714E-16-2.44456E-14
 -1       859-3.20002E-03 3.35260E-03 0.00000E+00 6.98044E-02-5.34826E-16-3.43595E-14
 -1       860-1.07421E-03 1.12306E-03 0.00000E+00 8.27257E-02 7.93322E-14-2.06262E-14
 -1       861-1.46881E-03 1.52601E-03 0.00000E+00 8.25526E-02 6.47042E-14-4.92181E-14
 -1       862-1.76312E-03 1.82922E-03 0.00000E+00 8.22597E-02 5.28354E-14-8.41980E-14
 -1       863-2.03318E-03 2.10934E-03 0.00000E+00 8.18187E-02 7.32764E-14-7.40413E-14
 -1       864-2.29237E-03 2.38109E-03 0.00000E+00 8.11725E-02 8.73960E-14-6.63930E-14
 -1       865-2.54253E-03 2.65019E-03 0.00000E+00 8.02256E-02 1.11448E-13-2.79945E-14
 -1       866-2.69264E-03 2.82799E-03 0.00000E+00 7.87186E-02 1.06606E-13-3.88624E-14
 -1       867-1.22461E-03 1.31087E-03 0.00000E+00 9.56634E-02-4.24389E-13-3.17178E-14
 -1       868-1.46782E-03 1.55862E-03 0.00000E+00 9.53992E-02-4.47963E-13-7.08568E-14
 -1       869-1.62473E-03 1.71530E-03 0.00000E+00 9.49704E-02-4.67324E-13-1.13822E-13
 -1       870-1.76500E-03 1.85471E-03 0.00000E+00 9.43608E-02-4.44066E-13-9.72460E-14
 -1       871-1.88744E-03 1.97457E-03 0.00000E+00 9.35266E-02-4.24764E-13-7.76410E-14
 -1       872-1.96019E-03 2.04338E-03 0.00000E+00 9.23814E-02-3.97527E-13-2.50015E-14
 -1       873-1.83127E-03 1.93129E-03 0.00000E+00 9.06566E-02-4.06003E-13-3.51735E-14
 -1       874-1.11602E-03 1.27373E-03 0.00000E+00 1.13258E-01 6.67602E-13-4.82773E-14
 -1       875-1.11469E-03 1.25748E-03 0.00000E+00 1.12849E-01 6.41448E-13-8.86026E-14
 -1       876-1.07814E-03 1.20880E-03 0.00000E+00 1.12227E-01 6.09414E-13-1.40340E-13
 -1       877-1.07444E-03 1.19208E-03 0.00000E+00 1.11404E-01 6.30898E-13-1.22726E-13
 -1       878-1.08833E-03 1.18637E-03 0.00000E+00 1.10361E-01 6.57046E-13-9.44962E-14
 -1       879-1.07299E-03 1.13532E-03 0.00000E+00 1.09052E-01 7.00856E-13-1.81090E-14
 -1       880-7.84024E-04 7.85968E-04 0.00000E+00 1.07231E-01 6.94083E-13-2.36621E-14
 -3
    1PSTEP                         4           1           1          
  100CL  101 1.000000000         162                     0    1           1
 -4  FORC        4    1
 -5  F1          1    2    1    0
 -5  F2          1    2    2    0
 -5  F3          1    2    3    0
 -5  ALL         1    2    0    0    1ALL
 -1       719 9.07023E-10 1.56250E+01-3.28562E+01
 -1       720 1.02480E-09 1.56250E+01 3.28562E+01
 -1       721-5.57195E+01-3.69221E+01-7.22982E+01
 -1       722-5.57195E+01-3.69221E+01 7.22982E+01
 -1       723-1.39066E-11 1.56250E+01 4.84226E+01
 -1       724 9.04507E-11 1.56250E+01-4.84226E+01
 -1       725 4.44930E+02-5.35597E+02 7.22607E+02
 -1       726 4.44930E+02-5.35597E+02-7.22607E+02
 -1       727 1.03945E-11-1.54334E-10-7.97901E+01
 -1       728-2.62549E-10-3.52923E-12-9.75076E+01
 -1       729 8.99395E-11-1.37318E-10-1.12825E+02
 -1       730 6.54895E-11-1.08294E-10-1.23612E+02
 -1       731-9.21528E-11 2.74861E-11-1.29321E+02
 -1       732-2.34950E-11-2.91997E-11-1.29078E+02
 -1       733 3.83538E-11 2.35059E-12-1.13415E+02
 -1       734 3.17067E-10 5.13701E-10 7.97901E+01
 -1       735-2.66688E-10-4.42409E-10 9.75076E+01
 -1       736-8.07881E-11-4.94602E-11 1.12825E+02
 -1       737-1.92864E-10 1.14144E-10 1.23612E+02
 -1       738-7.65305E-11 1.14999E-10 1.29321E+02
 -1       739-3.40980E-12-6.15251E-11 1.29078E+02
 -1       740-7.73332E-13-3.26707E-11 1.13415E+02
 -1       741-5.36484E-10 3.12500E+01 3.58407E+00
 -1       742-4.75150E-10 3.12500E+01-1.79245E+01
 -1       743 7.48848E-11 3.12500E+01-2.69922E+01
 -1       744-1.43535E-10 3.12500E+01-3.25151E+01
 -1       745 3.23963E-10 3.12500E+01-3.63824E+01
 -1       746 5.34762E-10 3.12500E+01-3.98522E+01
 -1       747 3.36822E-10 3.12500E+01-4.52509E+01
 -1       748-1.03033E-10 3.12500E+01-3.58407E+00
 -1       749-2.77974E-10 3.12500E+01 1.79245E+01
 -1       750-5.25783E-10 3.12500E+01 2.69922E+01
 -1       751 2.68571E-10 3.12500E+01 3.25151E+01
 -1       752 4.23613E-11 3.12500E+01 3.63824E+01
 -1       753 1.16410E-09 3.12500E+01 3.98522E+01
 -1       754 1.42327E-10 3.12500E+01 4.52509E+01
 -1       755 3.28165E-12 1.13865E-11 3.66416E+02
 -1       756-6.24421E-12 2.36374E-11 4.14224E+02
 -1       757 1.83606E-10 9.24612E-12 3.92945E+02
 -1       758 2.94320E-11-7.20412E-11 3.52342E+02
 -1       759-2.52308E-10 3.16302E-10 2.95958E+02
 -1       760 3.74687E-10-9.75927E-11 2.24132E+02
 -1       761-4.05217E-11-7.26467E-10 1.42413E+02
 -1       762-1.89947E-11 1.64241E-11-3.66416E+02
 -1       763 9.73775E-12 5.93860E-11-4.14224E+02
 -1       764 1.38735E-11 4.70928E-11-3.92945E+02
 -1       765 3.06595E-11 1.49296E-11-3.52342E+02
 -1       766-9.49730E-11-6.80806E-11-2.95958E+02
 -1       767-1.93352E-10-1.42267E-10-2.24132E+02
 -1       768 3.89378E-11-8.70201E-11-1.42413E+02
 -1       769-1.01306E+02 2.78811E+01 6.29647E+00
 -1       770-6.01802E+01-3.91549E+00 8.19891E+01
 -1       771-5.21592E+01 9.65592E-01 1.48604E+02
 -1       772-4.28159E+01 5.92709E+00 2.24426E+02
 -1       773-3.81723E+01 2.40251E+01 3.21602E+02
 -1       774-2.46872E+01 3.38683E+01 4.59105E+02
 -1       775-6.98896E+01 2.33768E+02 7.12762E+02
 -1       776-1.01306E+02 2.78811E+01-6.29647E+00
 -1       777-6.01802E+01-3.91549E+00-8.19891E+01
 -1       778-5.21592E+01 9.65592E-01-1.48604E+02
 -1       779-4.28159E+01 5.92709E+00-2.24426E+02
 -1       780-3.81723E+01 2.40251E+01-3.21602E+02
 -1       781-2.46872E+01 3.38683E+01-4.59105E+02
 -1       782-6.98896E+01 2.33768E+02-7.12762E+02
 -1       783-4.98598E-10-8.39398E-10-9.25050E+01
 -1       784-1.80647E-10-2.19523E-10-8.38842E+01
 -1       785 6.38914E-10-6.10483E-10-7.63380E+01
 -1       786 6.92527E-10-1.49393E-09-6.84221E+01
 -1       787 7.61186E-11-1.42842E-10-5.81462E+01
 -1       788 4.13605E-11-9.82605E-10-4.22173E+01
 -1       789 3.17330E-10-2.11900E-10-1.70126E+01
 -1       790 6.39896E-10-2.66877E-10-8.31478E+01
 -1       791 6.16820E-11 8.02021E-10-8.04420E+01
 -1       792 1.08887E-09-1.50109E-09-7.59138E+01
 -1       793-6.33567E-10 1.37391E-09-7.10569E+01
 -1       794-1.43723E-10-1.48191E-10-6.53635E+01
 -1       795 1.04527E-10 4.23507E-10-5.88948E+01
 -1       796 2.20904E-10 6.92372E-10-6.01791E+01
 -1       797 2.19777E-10-2.25654E-12-7.84913E+01
 -1       798-3.55611E-11 2.99803E-10-7.68989E+01
 -1       799 1.43359E-10-7.59436E-10-7.57870E+01
 -1       800-5.17635E-10 1.58792E-10-7.51304E+01
 -1       801 8.51920E-11 5.67013E-10-7.54652E+01
 -1       802 3.78754E-10-2.48754E-10-7.85671E+01
 -1       803-2.53659E-11-2.12088E-10-8.48871E+01
 -1       804 1.10065E-11 7.63008E-11-7.46088E+01
 -1       805-2.45332E-10-3.59714E-11-7.33178E+01
 -1       806 4.04208E-10-3.21179E-10-7.47622E+01
 -1       807 1.56884E-11 6.07200E-11-7.86917E+01
 -1       808-4.11426E-11 4.78566E-10-8.54748E+01
 -1       809 1.87985E-10-8.40041E-10-9.51033E+01
 -1       810-1.05859E-10 3.43727E-11-1.03725E+02
 -1       811 5.06518E-11 8.47520E-11-6.82655E+01
 -1       812 2.83365E-11 1.86790E-10-6.76729E+01
 -1       813 1.34990E-10-2.89312E-10-7.15381E+01
 -1       814-1.20973E-10 8.89689E-11-7.88513E+01
 -1       815-1.21482E-10 9.99822E-11-9.25629E+01
 -1       816 2.39747E-10-9.60748E-11-1.11319E+02
 -1       817-1.61704E-10 2.81072E-10-1.26525E+02
 -1       818 2.83014E-12-6.87380E-11-5.56555E+01
 -1       819-1.24280E-11-2.29011E-11-5.89559E+01
 -1       820-5.81313E-11 5.28859E-11-6.59857E+01
 -1       821 1.88100E-11-2.55667E-10-7.36398E+01
 -1       822-1.10390E-10 2.04179E-10-8.78692E+01
 -1       823 8.91903E-11 5.16930E-11-1.26396E+02
 -1       824 6.06863E-11 7.96842E-11-1.67571E+02
 -1       825 1.56424E-11 7.17077E-12-3.52429E+01
 -1       826 6.71644E-11-4.84659E-11-5.56969E+01
 -1       827-3.98104E-13-4.74943E-11-5.80603E+01
 -1       828 4.19477E-13-4.08670E-11-6.12244E+01
 -1       829-1.33681E-12 4.48159E-11-7.05416E+01
 -1       830 4.73613E-11-4.91545E-11-9.33243E+01
 -1       831 1.15181E-11 3.75714E-11-2.30599E+02
 -1       832 1.15653E-12 7.69026E-11 3.52429E+01
 -1       833 5.74709E-11 4.50527E-11 5.56969E+01
 -1       834-6.45327E-11-8.99033E-11 5.80603E+01
 -1       835-9.31264E-11-3.96208E-12 6.12244E+01
 -1       836 3.75750E-11 4.26341E-11 7.05416E+01
 -1       837 3.50299E-11-5.26954E-12 9.33243E+01
 -1       838-5.93748E-12 9.50665E-13 2.30599E+02
 -1       839 1.09512E-10 1.00707E-11 5.56555E+01
 -1       840-3.34368E-11-1.52755E-11 5.89559E+01
 -1       841 1.48533E-10 8.63547E-11 6.59857E+01
 -1       842-8.04510E-11-8.44398E-11 7.36398E+01
 -1       843-8.27242E-11 1.88552E-10 8.78692E+01
 -1       844-5.09639E-11 2.82697E-11 1.26396E+02
 -1       845 8.83453E-11 1.11409E-11 1.67571E+02
 -1       846-1.12497E-10-7.45868E-11 6.82655E+01
 -1       847 4.08118E-10 2.84815E-11 6.76729E+01
 -1       848 9.23621E-12-3.60714E-10 7.15381E+01
 -1       849-4.40612E-11 3.91140E-10 7.88513E+01
 -1       850-6.12069E-11-9.55147E-11 9.25629E+01
 -1       851 5.02377E-11 2.30790E-11 1.11319E+02
 -1       852 7.62594E-11-3.99569E-11 1.26525E+02
 -1       853-3.04943E-10 4.39005E-10 7.46088E+01
 -1       854-3.06439E-11-3.94993E-10 7.33178E+01
 -1       855 3.49596E-10-3.88475E-10 7.47622E+01
 -1       856 6.54363E-11-3.28842E-10 7.86917E+01
 -1       857-1.70620E-10 9.29807E-11 8.54748E+01
 -1       858-2.76390E-10-1.50040E-10 9.51033E+01
 -1       859-2.74484E-10-3.78723E-10 1.03725E+02
 -1       860 8.59879E-11 5.12289E-11 7.84913E+01
 -1       861 5.47236E-11 7.56320E-11 7.68989E+01
 -1       862-5.51296E-10 5.50505E-11 7.57870E+01
 -1       863-3.95065E-10 2.28578E-11 7.51304E+01
 -1       864 3.21545E-11-2.71452E-10 7.54652E+01
 -1       865 3.88772E-11 6.48260E-10 7.85671E+01
 -1       866-1.65253E-10-2.03921E-10 8.48871E+01
 -1       867 5.05934E-10 7.87765E-11 8.31478E+01
 -1       868 1.82291E-10 9.06170E-11 8.04420E+01
 -1       869 3.43461E-10-1.22305E-09 7.59138E+01
 -1       870-6.81488E-10 1.58305E-09 7.10569E+01
 -1       871 7.00853E-10-6.67133E-10 6.53635E+01
 -1       872 4.76182E-10-7.13000E-10 5.88948E+01
 -1       873 2.56553E-10-6.30663E-10 6.01791E+01
 -1       874-9.56152E-10 7.03547E-10 9.25050E+01
 -1       875-1.51898E-09 1.21323E-09 8.38842E+01
 -1       876 6.50070E-10-2.34882E-09 7.63380E+01
 -1       877-1.10206E-09-6.58158E-10 6.84221E+01
 -1       878-5.82365E-10 5.94805E-11 5.81462E+01
 -1       879-2.34470E-10 1.67836E-09 4.22173E+01
 -1       880 5.87097E-10-9.97754E-10 1.70126E+01
 -3
    1PSTEP                         5           1           1          
  100CL  101 1.000000000         162                     0    1           1
 -4  ERROR       1    1
 -5  STR(%)      1    1    0    0
 -1       719 1.20228E+02
 -1       720 1.20228E+02
 -1       721 8.19972E+01
 -1       722 8.19972E+01
 -1       723 1.26417E+02
 -1       724 1.26417E+02
 -1       725 1.43920E+02
 -1       726 1.43920E+02
 -1       727 1.35662E+02
 -1       728 1.37489E+02
 -1       729 1.37706E+02
 -1       730 1.37706E+02
 -1       731 1.36469E+02
 -1       732 1.32910E+02
 -1       733 1.24363E+02
 -1       734 1.35662E+02
 -1       735 1.37489E+02
 -1       736 1.37706E+02
 -1       737 1.37706E+02
 -1       738 1.36469E+02
 -1       739 1.32910E+02
 -1       740 1.24363E+02
 -1       741 1.31720E+02
 -1       742 1.36479E+02
 -1       743 1.37456E+02
 -1       744 1.37456E+02
 -1       745 1.36610E+02
 -1       746 1.34718E+02
 -1       747 1.32077E+02
 -1       748 1.31720E+02
 -1       749 1.36479E+02
 -1       750 1.37456E+02
 -1       751 1.37456E+02
 -1       752 1.36610E+02
 -1       753 1.34718E+02
 -1       754 1.32077E+02
 -1       755 1.52443E+02
 -1       756 1.53829E+02
 -1       757 1.54166E+02
 -1       758 1.54166E+02
 -1       759 1.53260E+02
 -1       760 1.47959E+02
 -1       761 1.41375E+02
 -1       762 1.52443E+02
 -1       763 1.53829E+02
 -1       764 1.54166E+02
 -1       765 1.54166E+02
 -1       766 1.53260E+02
 -1       767 1.47959E+02
 -1       768 1.41375E+02
 -1       769 1.12654E+02
 -1       770 1.25609E+02
 -1       771 1.35896E+02
 -1       772 1.43085E+02
 -1       773 1.51020E+02
 -1       774 1.52332E+02
 -1       775 1.52332E+02
 -1       776 1.12654E+02
 -1       777 1.25609E+02
 -1       778 1.35896E+02
 -1       779 1.43085E+02
 -1       780 1.51020E+02
 -1       781 1.52332E+02
 -1       782 1.52332E+02
 -1       783 1.37516E+02
 -1       784 1.38908E+02
 -1       785 1.40355E+02
 -1       786 1.41275E+02
 -1       787 1.41275E+02
 -1       788 1.41252E+02
 -1       789 1.41375E+02
 -1       790 1.39067E+02
 -1       791 1.40903E+02
 -1       792 1.42754E+02
 -1       793 1.44524E+02
 -1       794 1.45874E+02
 -1       795 1.47517E+02
 -1       796 1.47959E+02
 -1       797 1.39436E+02
 -1       798 1.41658E+02
 -1       799 1.44300E+02
 -1       800 1.47016E+02
 -1       801 1.49802E+02
 -1       802 1.52427E+02
 -1       803 1.53260E+02
 -1       804 1.39436E+02
 -1       805 1.41658E+02
 -1       806 1.44817E+02
 -1       807 1.48776E+02
 -1       808 1.52448E+02
 -1       809 1.54764E+02
 -1       810 1.54764E+02
 -1       811 1.38441E+02
 -1       812 1.41358E+02
 -1       813 1.44817E+02
 -1       814 1.48962E+02
 -1       815 1.54556E+02
 -1       816 1.54764E+02
 -1       817 1.54764E+02
 -1       818 1.35503E+02
 -1       819 1.39368E+02
 -1       820 1.44292E+02
 -1       821 1.48962E+02
 -1       822 1.54556E+02
 -1       823 1.54556E+02
 -1       824 1.54512E+02
 -1       825 1.27423E+02
 -1       826 1.35484E+02
 -1       827 1.41630E+02
 -1       828 1.47978E+02
 -1       829 1.52863E+02
 -1       830 1.52863E+02
 -1       831 1.52443E+02
 -1       832 1.27423E+02
 -1       833 1.35484E+02
 -1       834 1.41630E+02
 -1       835 1.47978E+02
 -1       836 1.52863E+02
 -1       837 1.52863E+02
 -1       838 1.52443E+02
 -1       839 1.35503E+02
 -1       840 1.39368E+02
 -1       841 1.44292E+02
 -1       842 1.48962E+02
 -1       843 1.54556E+02
 -1       844 1.54556E+02
 -1       845 1.54512E+02
 -1       846 1.38441E+02
 -1       847 1.41358E+02
 -1       848 1.44817E+02
 -1       849 1.48962E+02
 -1       850 1.54556E+02
 -1       851 1.54764E+02
 -1       852 1.54764E+02
 -1       853 1.39436E+02
 -1       854 1.41658E+02
 -1       855 1.44817E+02
 -1       856 1.48776E+02
 -1       857 1.52448E+02
 -1       858 1.54764E+02
 -1       859 1.54764E+02
 -1       860 1.39436E+02
 -1       861 1.41658E+02
 -1       862 1.44300E+02
 -1       863 1.47016E+02
 -1       864 1.49802E+02
 -1       865 1.52427E+02
 -1       866 1.53260E+02
 -1       867 1.39067E+02
 -1       868 1.40903E+02
 -1       869 1.42754E+02
 -1       870 1.44524E+02
 -1       871 1.45874E+02
 -1       872 1.47517E+02
 -1       873 1.47959E+02
 -1       874 1.37516E+02
 -1       875 1.38908E+02
 -1       876 1.40355E+02
 -1       877 1.41275E+02
 -1       878 1.41275E+02
 -1       879 1.41252E+02
 -1       880 1.41375E+02
 -3
 9999
