    1C
    1UHash: PXJD0WWr, Date: 03/11/2021, Unit system: MM_TON_S_C         
    1UUSER                                                              
    1UDATE              13.march.2021                                   
    1UTIME              18:36:43                                        
    1UHOST                                                              
    1UPGM               CalculiX                                        
    1UVERSION           Version 2.17                             
    1UCOMPILETIME       Thu Jul 23 21:43:50 CEST 2020                    
    1UDIR                                                               
    1UDBN                                                               
    1UMAT    1RUBBER                                                    
    2C                           531                                     1
 -1      1037 4.80000E+01 4.40000E+01 0.00000E+00
 -1      1038 4.80000E+01 4.40000E+01 5.00000E+00
 -1      1039 0.00000E+00 0.00000E+00 0.00000E+00
 -1      1040 0.00000E+00 0.00000E+00 5.00000E+00
 -1      1041 4.80000E+01 6.00000E+01 0.00000E+00
 -1      1042 4.80000E+01 6.00000E+01 5.00000E+00
 -1      1043 0.00000E+00 4.40000E+01 0.00000E+00
 -1      1044 0.00000E+00 4.40000E+01 5.00000E+00
 -1      1045 4.20000E+01 3.85000E+01 0.00000E+00
 -1      1046 3.60000E+01 3.30000E+01 0.00000E+00
 -1      1047 3.00000E+01 2.75000E+01 0.00000E+00
 -1      1048 2.40000E+01 2.20000E+01 0.00000E+00
 -1      1049 1.80000E+01 1.65000E+01 0.00000E+00
 -1      1050 1.20000E+01 1.10000E+01 0.00000E+00
 -1      1051 6.00000E+00 5.50000E+00 0.00000E+00
 -1      1052 4.20000E+01 3.85000E+01 5.00000E+00
 -1      1053 3.60000E+01 3.30000E+01 5.00000E+00
 -1      1054 3.00000E+01 2.75000E+01 5.00000E+00
 -1      1055 2.40000E+01 2.20000E+01 5.00000E+00
 -1      1056 1.80000E+01 1.65000E+01 5.00000E+00
 -1      1057 1.20000E+01 1.10000E+01 5.00000E+00
 -1      1058 6.00000E+00 5.50000E+00 5.00000E+00
 -1      1059 4.80000E+01 5.80000E+01 0.00000E+00
 -1      1060 4.80000E+01 5.60000E+01 0.00000E+00
 -1      1061 4.80000E+01 5.40000E+01 0.00000E+00
 -1      1062 4.80000E+01 5.20000E+01 0.00000E+00
 -1      1063 4.80000E+01 5.00000E+01 0.00000E+00
 -1      1064 4.80000E+01 4.80000E+01 0.00000E+00
 -1      1065 4.80000E+01 4.60000E+01 0.00000E+00
 -1      1066 4.80000E+01 5.80000E+01 5.00000E+00
 -1      1067 4.80000E+01 5.60000E+01 5.00000E+00
 -1      1068 4.80000E+01 5.40000E+01 5.00000E+00
 -1      1069 4.80000E+01 5.20000E+01 5.00000E+00
 -1      1070 4.80000E+01 5.00000E+01 5.00000E+00
 -1      1071 4.80000E+01 4.80000E+01 5.00000E+00
 -1      1072 4.80000E+01 4.60000E+01 5.00000E+00
 -1      1073 6.00000E+00 4.60000E+01 0.00000E+00
 -1      1074 1.20000E+01 4.80000E+01 0.00000E+00
 -1      1075 1.80000E+01 5.00000E+01 0.00000E+00
 -1      1076 2.40000E+01 5.20000E+01 0.00000E+00
 -1      1077 3.00000E+01 5.40000E+01 0.00000E+00
 -1      1078 3.60000E+01 5.60000E+01 0.00000E+00
 -1      1079 4.20000E+01 5.80000E+01 0.00000E+00
 -1      1080 6.00000E+00 4.60000E+01 5.00000E+00
 -1      1081 1.20000E+01 4.80000E+01 5.00000E+00
 -1      1082 1.80000E+01 5.00000E+01 5.00000E+00
 -1      1083 2.40000E+01 5.20000E+01 5.00000E+00
 -1      1084 3.00000E+01 5.40000E+01 5.00000E+00
 -1      1085 3.60000E+01 5.60000E+01 5.00000E+00
 -1      1086 4.20000E+01 5.80000E+01 5.00000E+00
 -1      1087 0.00000E+00 5.50000E+00 0.00000E+00
 -1      1088 0.00000E+00 1.10000E+01 0.00000E+00
 -1      1089 0.00000E+00 1.65000E+01 0.00000E+00
 -1      1090 0.00000E+00 2.20000E+01 0.00000E+00
 -1      1091 0.00000E+00 2.75000E+01 0.00000E+00
 -1      1092 0.00000E+00 3.30000E+01 0.00000E+00
 -1      1093 0.00000E+00 3.85000E+01 0.00000E+00
 -1      1094 0.00000E+00 5.50000E+00 5.00000E+00
 -1      1095 0.00000E+00 1.10000E+01 5.00000E+00
 -1      1096 0.00000E+00 1.65000E+01 5.00000E+00
 -1      1097 0.00000E+00 2.20000E+01 5.00000E+00
 -1      1098 0.00000E+00 2.75000E+01 5.00000E+00
 -1      1099 0.00000E+00 3.30000E+01 5.00000E+00
 -1      1100 0.00000E+00 3.85000E+01 5.00000E+00
 -1      1101 4.20000E+01 4.09375E+01 0.00000E+00
 -1      1102 4.20000E+01 4.33750E+01 0.00000E+00
 -1      1103 4.20000E+01 4.58125E+01 0.00000E+00
 -1      1104 4.20000E+01 4.82500E+01 0.00000E+00
 -1      1105 4.20000E+01 5.06875E+01 0.00000E+00
 -1      1106 4.20000E+01 5.31250E+01 0.00000E+00
 -1      1107 4.20000E+01 5.55625E+01 0.00000E+00
 -1      1108 3.60000E+01 3.58750E+01 0.00000E+00
 -1      1109 3.60000E+01 3.87500E+01 0.00000E+00
 -1      1110 3.60000E+01 4.16250E+01 0.00000E+00
 -1      1111 3.60000E+01 4.45000E+01 0.00000E+00
 -1      1112 3.60000E+01 4.73750E+01 0.00000E+00
 -1      1113 3.60000E+01 5.02500E+01 0.00000E+00
 -1      1114 3.60000E+01 5.31250E+01 0.00000E+00
 -1      1115 3.00000E+01 3.08125E+01 0.00000E+00
 -1      1116 3.00000E+01 3.41250E+01 0.00000E+00
 -1      1117 3.00000E+01 3.74375E+01 0.00000E+00
 -1      1118 3.00000E+01 4.07500E+01 0.00000E+00
 -1      1119 3.00000E+01 4.40625E+01 0.00000E+00
 -1      1120 3.00000E+01 4.73750E+01 0.00000E+00
 -1      1121 3.00000E+01 5.06875E+01 0.00000E+00
 -1      1122 2.40000E+01 2.57500E+01 0.00000E+00
 -1      1123 2.40000E+01 2.95000E+01 0.00000E+00
 -1      1124 2.40000E+01 3.32500E+01 0.00000E+00
 -1      1125 2.40000E+01 3.70000E+01 0.00000E+00
 -1      1126 2.40000E+01 4.07500E+01 0.00000E+00
 -1      1127 2.40000E+01 4.45000E+01 0.00000E+00
 -1      1128 2.40000E+01 4.82500E+01 0.00000E+00
 -1      1129 1.80000E+01 2.06875E+01 0.00000E+00
 -1      1130 1.80000E+01 2.48750E+01 0.00000E+00
 -1      1131 1.80000E+01 2.90625E+01 0.00000E+00
 -1      1132 1.80000E+01 3.32500E+01 0.00000E+00
 -1      1133 1.80000E+01 3.74375E+01 0.00000E+00
 -1      1134 1.80000E+01 4.16250E+01 0.00000E+00
 -1      1135 1.80000E+01 4.58125E+01 0.00000E+00
 -1      1136 1.20000E+01 1.56250E+01 0.00000E+00
 -1      1137 1.20000E+01 2.02500E+01 0.00000E+00
 -1      1138 1.20000E+01 2.48750E+01 0.00000E+00
 -1      1139 1.20000E+01 2.95000E+01 0.00000E+00
 -1      1140 1.20000E+01 3.41250E+01 0.00000E+00
 -1      1141 1.20000E+01 3.87500E+01 0.00000E+00
 -1      1142 1.20000E+01 4.33750E+01 0.00000E+00
 -1      1143 6.00000E+00 1.05625E+01 0.00000E+00
 -1      1144 6.00000E+00 1.56250E+01 0.00000E+00
 -1      1145 6.00000E+00 2.06875E+01 0.00000E+00
 -1      1146 6.00000E+00 2.57500E+01 0.00000E+00
 -1      1147 6.00000E+00 3.08125E+01 0.00000E+00
 -1      1148 6.00000E+00 3.58750E+01 0.00000E+00
 -1      1149 6.00000E+00 4.09375E+01 0.00000E+00
 -1      1150 6.00000E+00 1.05625E+01 5.00000E+00
 -1      1151 6.00000E+00 1.56250E+01 5.00000E+00
 -1      1152 6.00000E+00 2.06875E+01 5.00000E+00
 -1      1153 6.00000E+00 2.57500E+01 5.00000E+00
 -1      1154 6.00000E+00 3.08125E+01 5.00000E+00
 -1      1155 6.00000E+00 3.58750E+01 5.00000E+00
 -1      1156 6.00000E+00 4.09375E+01 5.00000E+00
 -1      1157 1.20000E+01 1.56250E+01 5.00000E+00
 -1      1158 1.20000E+01 2.02500E+01 5.00000E+00
 -1      1159 1.20000E+01 2.48750E+01 5.00000E+00
 -1      1160 1.20000E+01 2.95000E+01 5.00000E+00
 -1      1161 1.20000E+01 3.41250E+01 5.00000E+00
 -1      1162 1.20000E+01 3.87500E+01 5.00000E+00
 -1      1163 1.20000E+01 4.33750E+01 5.00000E+00
 -1      1164 1.80000E+01 2.06875E+01 5.00000E+00
 -1      1165 1.80000E+01 2.48750E+01 5.00000E+00
 -1      1166 1.80000E+01 2.90625E+01 5.00000E+00
 -1      1167 1.80000E+01 3.32500E+01 5.00000E+00
 -1      1168 1.80000E+01 3.74375E+01 5.00000E+00
 -1      1169 1.80000E+01 4.16250E+01 5.00000E+00
 -1      1170 1.80000E+01 4.58125E+01 5.00000E+00
 -1      1171 2.40000E+01 2.57500E+01 5.00000E+00
 -1      1172 2.40000E+01 2.95000E+01 5.00000E+00
 -1      1173 2.40000E+01 3.32500E+01 5.00000E+00
 -1      1174 2.40000E+01 3.70000E+01 5.00000E+00
 -1      1175 2.40000E+01 4.07500E+01 5.00000E+00
 -1      1176 2.40000E+01 4.45000E+01 5.00000E+00
 -1      1177 2.40000E+01 4.82500E+01 5.00000E+00
 -1      1178 3.00000E+01 3.08125E+01 5.00000E+00
 -1      1179 3.00000E+01 3.41250E+01 5.00000E+00
 -1      1180 3.00000E+01 3.74375E+01 5.00000E+00
 -1      1181 3.00000E+01 4.07500E+01 5.00000E+00
 -1      1182 3.00000E+01 4.40625E+01 5.00000E+00
 -1      1183 3.00000E+01 4.73750E+01 5.00000E+00
 -1      1184 3.00000E+01 5.06875E+01 5.00000E+00
 -1      1185 3.60000E+01 3.58750E+01 5.00000E+00
 -1      1186 3.60000E+01 3.87500E+01 5.00000E+00
 -1      1187 3.60000E+01 4.16250E+01 5.00000E+00
 -1      1188 3.60000E+01 4.45000E+01 5.00000E+00
 -1      1189 3.60000E+01 4.73750E+01 5.00000E+00
 -1      1190 3.60000E+01 5.02500E+01 5.00000E+00
 -1      1191 3.60000E+01 5.31250E+01 5.00000E+00
 -1      1192 4.20000E+01 4.09375E+01 5.00000E+00
 -1      1193 4.20000E+01 4.33750E+01 5.00000E+00
 -1      1194 4.20000E+01 4.58125E+01 5.00000E+00
 -1      1195 4.20000E+01 4.82500E+01 5.00000E+00
 -1      1196 4.20000E+01 5.06875E+01 5.00000E+00
 -1      1197 4.20000E+01 5.31250E+01 5.00000E+00
 -1      1198 4.20000E+01 5.55625E+01 5.00000E+00
 -1      1199 4.80000E+01 4.40000E+01 2.50000E+00
 -1      1200 0.00000E+00 0.00000E+00 2.50000E+00
 -1      1201 4.50000E+01 4.12500E+01 0.00000E+00
 -1      1202 3.90000E+01 3.57500E+01 0.00000E+00
 -1      1203 3.30000E+01 3.02500E+01 0.00000E+00
 -1      1204 2.70000E+01 2.47500E+01 0.00000E+00
 -1      1205 2.10000E+01 1.92500E+01 0.00000E+00
 -1      1206 1.50000E+01 1.37500E+01 0.00000E+00
 -1      1207 9.00000E+00 8.25000E+00 0.00000E+00
 -1      1208 3.00000E+00 2.75000E+00 0.00000E+00
 -1      1209 4.50000E+01 4.12500E+01 5.00000E+00
 -1      1210 3.90000E+01 3.57500E+01 5.00000E+00
 -1      1211 3.30000E+01 3.02500E+01 5.00000E+00
 -1      1212 2.70000E+01 2.47500E+01 5.00000E+00
 -1      1213 2.10000E+01 1.92500E+01 5.00000E+00
 -1      1214 1.50000E+01 1.37500E+01 5.00000E+00
 -1      1215 9.00000E+00 8.25000E+00 5.00000E+00
 -1      1216 3.00000E+00 2.75000E+00 5.00000E+00
 -1      1217 4.80000E+01 6.00000E+01 2.50000E+00
 -1      1218 4.80000E+01 5.90000E+01 0.00000E+00
 -1      1219 4.80000E+01 5.70000E+01 0.00000E+00
 -1      1220 4.80000E+01 5.50000E+01 0.00000E+00
 -1      1221 4.80000E+01 5.30000E+01 0.00000E+00
 -1      1222 4.80000E+01 5.10000E+01 0.00000E+00
 -1      1223 4.80000E+01 4.90000E+01 0.00000E+00
 -1      1224 4.80000E+01 4.70000E+01 0.00000E+00
 -1      1225 4.80000E+01 4.50000E+01 0.00000E+00
 -1      1226 4.80000E+01 5.90000E+01 5.00000E+00
 -1      1227 4.80000E+01 5.70000E+01 5.00000E+00
 -1      1228 4.80000E+01 5.50000E+01 5.00000E+00
 -1      1229 4.80000E+01 5.30000E+01 5.00000E+00
 -1      1230 4.80000E+01 5.10000E+01 5.00000E+00
 -1      1231 4.80000E+01 4.90000E+01 5.00000E+00
 -1      1232 4.80000E+01 4.70000E+01 5.00000E+00
 -1      1233 4.80000E+01 4.50000E+01 5.00000E+00
 -1      1234 0.00000E+00 4.40000E+01 2.50000E+00
 -1      1235 3.00000E+00 4.50000E+01 0.00000E+00
 -1      1236 9.00000E+00 4.70000E+01 0.00000E+00
 -1      1237 1.50000E+01 4.90000E+01 0.00000E+00
 -1      1238 2.10000E+01 5.10000E+01 0.00000E+00
 -1      1239 2.70000E+01 5.30000E+01 0.00000E+00
 -1      1240 3.30000E+01 5.50000E+01 0.00000E+00
 -1      1241 3.90000E+01 5.70000E+01 0.00000E+00
 -1      1242 4.50000E+01 5.90000E+01 0.00000E+00
 -1      1243 3.00000E+00 4.50000E+01 5.00000E+00
 -1      1244 9.00000E+00 4.70000E+01 5.00000E+00
 -1      1245 1.50000E+01 4.90000E+01 5.00000E+00
 -1      1246 2.10000E+01 5.10000E+01 5.00000E+00
 -1      1247 2.70000E+01 5.30000E+01 5.00000E+00
 -1      1248 3.30000E+01 5.50000E+01 5.00000E+00
 -1      1249 3.90000E+01 5.70000E+01 5.00000E+00
 -1      1250 4.50000E+01 5.90000E+01 5.00000E+00
 -1      1251 0.00000E+00 2.75000E+00 0.00000E+00
 -1      1252 0.00000E+00 8.25000E+00 0.00000E+00
 -1      1253 0.00000E+00 1.37500E+01 0.00000E+00
 -1      1254 0.00000E+00 1.92500E+01 0.00000E+00
 -1      1255 0.00000E+00 2.47500E+01 0.00000E+00
 -1      1256 0.00000E+00 3.02500E+01 0.00000E+00
 -1      1257 0.00000E+00 3.57500E+01 0.00000E+00
 -1      1258 0.00000E+00 4.12500E+01 0.00000E+00
 -1      1259 0.00000E+00 2.75000E+00 5.00000E+00
 -1      1260 0.00000E+00 8.25000E+00 5.00000E+00
 -1      1261 0.00000E+00 1.37500E+01 5.00000E+00
 -1      1262 0.00000E+00 1.92500E+01 5.00000E+00
 -1      1263 0.00000E+00 2.47500E+01 5.00000E+00
 -1      1264 0.00000E+00 3.02500E+01 5.00000E+00
 -1      1265 0.00000E+00 3.57500E+01 5.00000E+00
 -1      1266 0.00000E+00 4.12500E+01 5.00000E+00
 -1      1267 4.20000E+01 3.85000E+01 2.50000E+00
 -1      1268 3.60000E+01 3.30000E+01 2.50000E+00
 -1      1269 3.00000E+01 2.75000E+01 2.50000E+00
 -1      1270 2.40000E+01 2.20000E+01 2.50000E+00
 -1      1271 1.80000E+01 1.65000E+01 2.50000E+00
 -1      1272 1.20000E+01 1.10000E+01 2.50000E+00
 -1      1273 6.00000E+00 5.50000E+00 2.50000E+00
 -1      1274 4.80000E+01 5.80000E+01 2.50000E+00
 -1      1275 4.80000E+01 5.60000E+01 2.50000E+00
 -1      1276 4.80000E+01 5.40000E+01 2.50000E+00
 -1      1277 4.80000E+01 5.20000E+01 2.50000E+00
 -1      1278 4.80000E+01 5.00000E+01 2.50000E+00
 -1      1279 4.80000E+01 4.80000E+01 2.50000E+00
 -1      1280 4.80000E+01 4.60000E+01 2.50000E+00
 -1      1281 6.00000E+00 4.60000E+01 2.50000E+00
 -1      1282 1.20000E+01 4.80000E+01 2.50000E+00
 -1      1283 1.80000E+01 5.00000E+01 2.50000E+00
 -1      1284 2.40000E+01 5.20000E+01 2.50000E+00
 -1      1285 3.00000E+01 5.40000E+01 2.50000E+00
 -1      1286 3.60000E+01 5.60000E+01 2.50000E+00
 -1      1287 4.20000E+01 5.80000E+01 2.50000E+00
 -1      1288 0.00000E+00 5.50000E+00 2.50000E+00
 -1      1289 0.00000E+00 1.10000E+01 2.50000E+00
 -1      1290 0.00000E+00 1.65000E+01 2.50000E+00
 -1      1291 0.00000E+00 2.20000E+01 2.50000E+00
 -1      1292 0.00000E+00 2.75000E+01 2.50000E+00
 -1      1293 0.00000E+00 3.30000E+01 2.50000E+00
 -1      1294 0.00000E+00 3.85000E+01 2.50000E+00
 -1      1295 4.20000E+01 3.97188E+01 0.00000E+00
 -1      1296 4.50000E+01 4.34688E+01 0.00000E+00
 -1      1297 4.20000E+01 4.21562E+01 0.00000E+00
 -1      1298 4.50000E+01 4.56875E+01 0.00000E+00
 -1      1299 4.20000E+01 4.45938E+01 0.00000E+00
 -1      1300 4.50000E+01 4.79062E+01 0.00000E+00
 -1      1301 4.20000E+01 4.70312E+01 0.00000E+00
 -1      1302 4.50000E+01 5.01250E+01 0.00000E+00
 -1      1303 4.20000E+01 4.94688E+01 0.00000E+00
 -1      1304 4.50000E+01 5.23438E+01 0.00000E+00
 -1      1305 4.20000E+01 5.19062E+01 0.00000E+00
 -1      1306 4.50000E+01 5.45625E+01 0.00000E+00
 -1      1307 4.20000E+01 5.43438E+01 0.00000E+00
 -1      1308 4.50000E+01 5.67812E+01 0.00000E+00
 -1      1309 4.20000E+01 5.67812E+01 0.00000E+00
 -1      1310 3.60000E+01 3.44375E+01 0.00000E+00
 -1      1311 3.90000E+01 3.84062E+01 0.00000E+00
 -1      1312 3.60000E+01 3.73125E+01 0.00000E+00
 -1      1313 3.90000E+01 4.10625E+01 0.00000E+00
 -1      1314 3.60000E+01 4.01875E+01 0.00000E+00
 -1      1315 3.90000E+01 4.37188E+01 0.00000E+00
 -1      1316 3.60000E+01 4.30625E+01 0.00000E+00
 -1      1317 3.90000E+01 4.63750E+01 0.00000E+00
 -1      1318 3.60000E+01 4.59375E+01 0.00000E+00
 -1      1319 3.90000E+01 4.90312E+01 0.00000E+00
 -1      1320 3.60000E+01 4.88125E+01 0.00000E+00
 -1      1321 3.90000E+01 5.16875E+01 0.00000E+00
 -1      1322 3.60000E+01 5.16875E+01 0.00000E+00
 -1      1323 3.90000E+01 5.43438E+01 0.00000E+00
 -1      1324 3.60000E+01 5.45625E+01 0.00000E+00
 -1      1325 3.00000E+01 2.91562E+01 0.00000E+00
 -1      1326 3.30000E+01 3.33438E+01 0.00000E+00
 -1      1327 3.00000E+01 3.24688E+01 0.00000E+00
 -1      1328 3.30000E+01 3.64375E+01 0.00000E+00
 -1      1329 3.00000E+01 3.57812E+01 0.00000E+00
 -1      1330 3.30000E+01 3.95312E+01 0.00000E+00
 -1      1331 3.00000E+01 3.90938E+01 0.00000E+00
 -1      1332 3.30000E+01 4.26250E+01 0.00000E+00
 -1      1333 3.00000E+01 4.24062E+01 0.00000E+00
 -1      1334 3.30000E+01 4.57188E+01 0.00000E+00
 -1      1335 3.00000E+01 4.57188E+01 0.00000E+00
 -1      1336 3.30000E+01 4.88125E+01 0.00000E+00
 -1      1337 3.00000E+01 4.90312E+01 0.00000E+00
 -1      1338 3.30000E+01 5.19062E+01 0.00000E+00
 -1      1339 3.00000E+01 5.23438E+01 0.00000E+00
 -1      1340 2.40000E+01 2.38750E+01 0.00000E+00
 -1      1341 2.70000E+01 2.82812E+01 0.00000E+00
 -1      1342 2.40000E+01 2.76250E+01 0.00000E+00
 -1      1343 2.70000E+01 3.18125E+01 0.00000E+00
 -1      1344 2.40000E+01 3.13750E+01 0.00000E+00
 -1      1345 2.70000E+01 3.53438E+01 0.00000E+00
 -1      1346 2.40000E+01 3.51250E+01 0.00000E+00
 -1      1347 2.70000E+01 3.88750E+01 0.00000E+00
 -1      1348 2.40000E+01 3.88750E+01 0.00000E+00
 -1      1349 2.70000E+01 4.24062E+01 0.00000E+00
 -1      1350 2.40000E+01 4.26250E+01 0.00000E+00
 -1      1351 2.70000E+01 4.59375E+01 0.00000E+00
 -1      1352 2.40000E+01 4.63750E+01 0.00000E+00
 -1      1353 2.70000E+01 4.94688E+01 0.00000E+00
 -1      1354 2.40000E+01 5.01250E+01 0.00000E+00
 -1      1355 1.80000E+01 1.85938E+01 0.00000E+00
 -1      1356 2.10000E+01 2.32188E+01 0.00000E+00
 -1      1357 1.80000E+01 2.27812E+01 0.00000E+00
 -1      1358 2.10000E+01 2.71875E+01 0.00000E+00
 -1      1359 1.80000E+01 2.69688E+01 0.00000E+00
 -1      1360 2.10000E+01 3.11562E+01 0.00000E+00
 -1      1361 1.80000E+01 3.11562E+01 0.00000E+00
 -1      1362 2.10000E+01 3.51250E+01 0.00000E+00
 -1      1363 1.80000E+01 3.53438E+01 0.00000E+00
 -1      1364 2.10000E+01 3.90938E+01 0.00000E+00
 -1      1365 1.80000E+01 3.95312E+01 0.00000E+00
 -1      1366 2.10000E+01 4.30625E+01 0.00000E+00
 -1      1367 1.80000E+01 4.37188E+01 0.00000E+00
 -1      1368 2.10000E+01 4.70312E+01 0.00000E+00
 -1      1369 1.80000E+01 4.79062E+01 0.00000E+00
 -1      1370 1.20000E+01 1.33125E+01 0.00000E+00
 -1      1371 1.50000E+01 1.81562E+01 0.00000E+00
 -1      1372 1.20000E+01 1.79375E+01 0.00000E+00
 -1      1373 1.50000E+01 2.25625E+01 0.00000E+00
 -1      1374 1.20000E+01 2.25625E+01 0.00000E+00
 -1      1375 1.50000E+01 2.69688E+01 0.00000E+00
 -1      1376 1.20000E+01 2.71875E+01 0.00000E+00
 -1      1377 1.50000E+01 3.13750E+01 0.00000E+00
 -1      1378 1.20000E+01 3.18125E+01 0.00000E+00
 -1      1379 1.50000E+01 3.57812E+01 0.00000E+00
 -1      1380 1.20000E+01 3.64375E+01 0.00000E+00
 -1      1381 1.50000E+01 4.01875E+01 0.00000E+00
 -1      1382 1.20000E+01 4.10625E+01 0.00000E+00
 -1      1383 1.50000E+01 4.45938E+01 0.00000E+00
 -1      1384 1.20000E+01 4.56875E+01 0.00000E+00
 -1      1385 6.00000E+00 8.03125E+00 0.00000E+00
 -1      1386 9.00000E+00 1.30938E+01 0.00000E+00
 -1      1387 6.00000E+00 1.30938E+01 0.00000E+00
 -1      1388 9.00000E+00 1.79375E+01 0.00000E+00
 -1      1389 6.00000E+00 1.81562E+01 0.00000E+00
 -1      1390 9.00000E+00 2.27812E+01 0.00000E+00
 -1      1391 6.00000E+00 2.32188E+01 0.00000E+00
 -1      1392 9.00000E+00 2.76250E+01 0.00000E+00
 -1      1393 6.00000E+00 2.82812E+01 0.00000E+00
 -1      1394 9.00000E+00 3.24688E+01 0.00000E+00
 -1      1395 6.00000E+00 3.33438E+01 0.00000E+00
 -1      1396 9.00000E+00 3.73125E+01 0.00000E+00
 -1      1397 6.00000E+00 3.84062E+01 0.00000E+00
 -1      1398 9.00000E+00 4.21562E+01 0.00000E+00
 -1      1399 6.00000E+00 4.34688E+01 0.00000E+00
 -1      1400 3.00000E+00 8.03125E+00 0.00000E+00
 -1      1401 3.00000E+00 1.33125E+01 0.00000E+00
 -1      1402 3.00000E+00 1.85938E+01 0.00000E+00
 -1      1403 3.00000E+00 2.38750E+01 0.00000E+00
 -1      1404 3.00000E+00 2.91562E+01 0.00000E+00
 -1      1405 3.00000E+00 3.44375E+01 0.00000E+00
 -1      1406 3.00000E+00 3.97188E+01 0.00000E+00
 -1      1407 6.00000E+00 8.03125E+00 5.00000E+00
 -1      1408 3.00000E+00 8.03125E+00 5.00000E+00
 -1      1409 6.00000E+00 1.30938E+01 5.00000E+00
 -1      1410 3.00000E+00 1.33125E+01 5.00000E+00
 -1      1411 6.00000E+00 1.81562E+01 5.00000E+00
 -1      1412 3.00000E+00 1.85938E+01 5.00000E+00
 -1      1413 6.00000E+00 2.32188E+01 5.00000E+00
 -1      1414 3.00000E+00 2.38750E+01 5.00000E+00
 -1      1415 6.00000E+00 2.82812E+01 5.00000E+00
 -1      1416 3.00000E+00 2.91562E+01 5.00000E+00
 -1      1417 6.00000E+00 3.33438E+01 5.00000E+00
 -1      1418 3.00000E+00 3.44375E+01 5.00000E+00
 -1      1419 6.00000E+00 3.84062E+01 5.00000E+00
 -1      1420 3.00000E+00 3.97188E+01 5.00000E+00
 -1      1421 6.00000E+00 4.34688E+01 5.00000E+00
 -1      1422 1.20000E+01 1.33125E+01 5.00000E+00
 -1      1423 9.00000E+00 1.30938E+01 5.00000E+00
 -1      1424 1.20000E+01 1.79375E+01 5.00000E+00
 -1      1425 9.00000E+00 1.79375E+01 5.00000E+00
 -1      1426 1.20000E+01 2.25625E+01 5.00000E+00
 -1      1427 9.00000E+00 2.27812E+01 5.00000E+00
 -1      1428 1.20000E+01 2.71875E+01 5.00000E+00
 -1      1429 9.00000E+00 2.76250E+01 5.00000E+00
 -1      1430 1.20000E+01 3.18125E+01 5.00000E+00
 -1      1431 9.00000E+00 3.24688E+01 5.00000E+00
 -1      1432 1.20000E+01 3.64375E+01 5.00000E+00
 -1      1433 9.00000E+00 3.73125E+01 5.00000E+00
 -1      1434 1.20000E+01 4.10625E+01 5.00000E+00
 -1      1435 9.00000E+00 4.21562E+01 5.00000E+00
 -1      1436 1.20000E+01 4.56875E+01 5.00000E+00
 -1      1437 1.80000E+01 1.85938E+01 5.00000E+00
 -1      1438 1.50000E+01 1.81562E+01 5.00000E+00
 -1      1439 1.80000E+01 2.27812E+01 5.00000E+00
 -1      1440 1.50000E+01 2.25625E+01 5.00000E+00
 -1      1441 1.80000E+01 2.69688E+01 5.00000E+00
 -1      1442 1.50000E+01 2.69688E+01 5.00000E+00
 -1      1443 1.80000E+01 3.11562E+01 5.00000E+00
 -1      1444 1.50000E+01 3.13750E+01 5.00000E+00
 -1      1445 1.80000E+01 3.53438E+01 5.00000E+00
 -1      1446 1.50000E+01 3.57812E+01 5.00000E+00
 -1      1447 1.80000E+01 3.95312E+01 5.00000E+00
 -1      1448 1.50000E+01 4.01875E+01 5.00000E+00
 -1      1449 1.80000E+01 4.37188E+01 5.00000E+00
 -1      1450 1.50000E+01 4.45938E+01 5.00000E+00
 -1      1451 1.80000E+01 4.79062E+01 5.00000E+00
 -1      1452 2.40000E+01 2.38750E+01 5.00000E+00
 -1      1453 2.10000E+01 2.32188E+01 5.00000E+00
 -1      1454 2.40000E+01 2.76250E+01 5.00000E+00
 -1      1455 2.10000E+01 2.71875E+01 5.00000E+00
 -1      1456 2.40000E+01 3.13750E+01 5.00000E+00
 -1      1457 2.10000E+01 3.11562E+01 5.00000E+00
 -1      1458 2.40000E+01 3.51250E+01 5.00000E+00
 -1      1459 2.10000E+01 3.51250E+01 5.00000E+00
 -1      1460 2.40000E+01 3.88750E+01 5.00000E+00
 -1      1461 2.10000E+01 3.90938E+01 5.00000E+00
 -1      1462 2.40000E+01 4.26250E+01 5.00000E+00
 -1      1463 2.10000E+01 4.30625E+01 5.00000E+00
 -1      1464 2.40000E+01 4.63750E+01 5.00000E+00
 -1      1465 2.10000E+01 4.70312E+01 5.00000E+00
 -1      1466 2.40000E+01 5.01250E+01 5.00000E+00
 -1      1467 3.00000E+01 2.91562E+01 5.00000E+00
 -1      1468 2.70000E+01 2.82812E+01 5.00000E+00
 -1      1469 3.00000E+01 3.24688E+01 5.00000E+00
 -1      1470 2.70000E+01 3.18125E+01 5.00000E+00
 -1      1471 3.00000E+01 3.57812E+01 5.00000E+00
 -1      1472 2.70000E+01 3.53438E+01 5.00000E+00
 -1      1473 3.00000E+01 3.90938E+01 5.00000E+00
 -1      1474 2.70000E+01 3.88750E+01 5.00000E+00
 -1      1475 3.00000E+01 4.24062E+01 5.00000E+00
 -1      1476 2.70000E+01 4.24062E+01 5.00000E+00
 -1      1477 3.00000E+01 4.57188E+01 5.00000E+00
 -1      1478 2.70000E+01 4.59375E+01 5.00000E+00
 -1      1479 3.00000E+01 4.90312E+01 5.00000E+00
 -1      1480 2.70000E+01 4.94688E+01 5.00000E+00
 -1      1481 3.00000E+01 5.23438E+01 5.00000E+00
 -1      1482 3.60000E+01 3.44375E+01 5.00000E+00
 -1      1483 3.30000E+01 3.33438E+01 5.00000E+00
 -1      1484 3.60000E+01 3.73125E+01 5.00000E+00
 -1      1485 3.30000E+01 3.64375E+01 5.00000E+00
 -1      1486 3.60000E+01 4.01875E+01 5.00000E+00
 -1      1487 3.30000E+01 3.95312E+01 5.00000E+00
 -1      1488 3.60000E+01 4.30625E+01 5.00000E+00
 -1      1489 3.30000E+01 4.26250E+01 5.00000E+00
 -1      1490 3.60000E+01 4.59375E+01 5.00000E+00
 -1      1491 3.30000E+01 4.57188E+01 5.00000E+00
 -1      1492 3.60000E+01 4.88125E+01 5.00000E+00
 -1      1493 3.30000E+01 4.88125E+01 5.00000E+00
 -1      1494 3.60000E+01 5.16875E+01 5.00000E+00
 -1      1495 3.30000E+01 5.19062E+01 5.00000E+00
 -1      1496 3.60000E+01 5.45625E+01 5.00000E+00
 -1      1497 4.20000E+01 3.97188E+01 5.00000E+00
 -1      1498 3.90000E+01 3.84062E+01 5.00000E+00
 -1      1499 4.20000E+01 4.21562E+01 5.00000E+00
 -1      1500 3.90000E+01 4.10625E+01 5.00000E+00
 -1      1501 4.20000E+01 4.45938E+01 5.00000E+00
 -1      1502 3.90000E+01 4.37188E+01 5.00000E+00
 -1      1503 4.20000E+01 4.70312E+01 5.00000E+00
 -1      1504 3.90000E+01 4.63750E+01 5.00000E+00
 -1      1505 4.20000E+01 4.94688E+01 5.00000E+00
 -1      1506 3.90000E+01 4.90312E+01 5.00000E+00
 -1      1507 4.20000E+01 5.19062E+01 5.00000E+00
 -1      1508 3.90000E+01 5.16875E+01 5.00000E+00
 -1      1509 4.20000E+01 5.43438E+01 5.00000E+00
 -1      1510 3.90000E+01 5.43438E+01 5.00000E+00
 -1      1511 4.20000E+01 5.67812E+01 5.00000E+00
 -1      1512 4.50000E+01 4.34688E+01 5.00000E+00
 -1      1513 4.50000E+01 4.56875E+01 5.00000E+00
 -1      1514 4.50000E+01 4.79062E+01 5.00000E+00
 -1      1515 4.50000E+01 5.01250E+01 5.00000E+00
 -1      1516 4.50000E+01 5.23438E+01 5.00000E+00
 -1      1517 4.50000E+01 5.45625E+01 5.00000E+00
 -1      1518 4.50000E+01 5.67812E+01 5.00000E+00
 -1      1519 4.20000E+01 4.09375E+01 2.50000E+00
 -1      1520 4.20000E+01 4.33750E+01 2.50000E+00
 -1      1521 4.20000E+01 4.58125E+01 2.50000E+00
 -1      1522 4.20000E+01 4.82500E+01 2.50000E+00
 -1      1523 4.20000E+01 5.06875E+01 2.50000E+00
 -1      1524 4.20000E+01 5.31250E+01 2.50000E+00
 -1      1525 4.20000E+01 5.55625E+01 2.50000E+00
 -1      1526 3.60000E+01 3.58750E+01 2.50000E+00
 -1      1527 3.60000E+01 3.87500E+01 2.50000E+00
 -1      1528 3.60000E+01 4.16250E+01 2.50000E+00
 -1      1529 3.60000E+01 4.45000E+01 2.50000E+00
 -1      1530 3.60000E+01 4.73750E+01 2.50000E+00
 -1      1531 3.60000E+01 5.02500E+01 2.50000E+00
 -1      1532 3.60000E+01 5.31250E+01 2.50000E+00
 -1      1533 3.00000E+01 3.08125E+01 2.50000E+00
 -1      1534 3.00000E+01 3.41250E+01 2.50000E+00
 -1      1535 3.00000E+01 3.74375E+01 2.50000E+00
 -1      1536 3.00000E+01 4.07500E+01 2.50000E+00
 -1      1537 3.00000E+01 4.40625E+01 2.50000E+00
 -1      1538 3.00000E+01 4.73750E+01 2.50000E+00
 -1      1539 3.00000E+01 5.06875E+01 2.50000E+00
 -1      1540 2.40000E+01 2.57500E+01 2.50000E+00
 -1      1541 2.40000E+01 2.95000E+01 2.50000E+00
 -1      1542 2.40000E+01 3.32500E+01 2.50000E+00
 -1      1543 2.40000E+01 3.70000E+01 2.50000E+00
 -1      1544 2.40000E+01 4.07500E+01 2.50000E+00
 -1      1545 2.40000E+01 4.45000E+01 2.50000E+00
 -1      1546 2.40000E+01 4.82500E+01 2.50000E+00
 -1      1547 1.80000E+01 2.06875E+01 2.50000E+00
 -1      1548 1.80000E+01 2.48750E+01 2.50000E+00
 -1      1549 1.80000E+01 2.90625E+01 2.50000E+00
 -1      1550 1.80000E+01 3.32500E+01 2.50000E+00
 -1      1551 1.80000E+01 3.74375E+01 2.50000E+00
 -1      1552 1.80000E+01 4.16250E+01 2.50000E+00
 -1      1553 1.80000E+01 4.58125E+01 2.50000E+00
 -1      1554 1.20000E+01 1.56250E+01 2.50000E+00
 -1      1555 1.20000E+01 2.02500E+01 2.50000E+00
 -1      1556 1.20000E+01 2.48750E+01 2.50000E+00
 -1      1557 1.20000E+01 2.95000E+01 2.50000E+00
 -1      1558 1.20000E+01 3.41250E+01 2.50000E+00
 -1      1559 1.20000E+01 3.87500E+01 2.50000E+00
 -1      1560 1.20000E+01 4.33750E+01 2.50000E+00
 -1      1561 6.00000E+00 1.05625E+01 2.50000E+00
 -1      1562 6.00000E+00 1.56250E+01 2.50000E+00
 -1      1563 6.00000E+00 2.06875E+01 2.50000E+00
 -1      1564 6.00000E+00 2.57500E+01 2.50000E+00
 -1      1565 6.00000E+00 3.08125E+01 2.50000E+00
 -1      1566 6.00000E+00 3.58750E+01 2.50000E+00
 -1      1567 6.00000E+00 4.09375E+01 2.50000E+00
 -3
    3C                            64                                     1
 -1      1087    4    0    1
 -2      1038      1037      1045      1052      1072      1065      1101      1192      1199      1201
 -2      1267      1209      1233      1225      1295      1497      1280      1296      1519      1512
 -1      1088    4    0    1
 -2      1072      1065      1101      1192      1071      1064      1102      1193      1280      1296
 -2      1519      1512      1232      1224      1297      1499      1279      1298      1520      1513
 -1      1089    4    0    1
 -2      1071      1064      1102      1193      1070      1063      1103      1194      1279      1298
 -2      1520      1513      1231      1223      1299      1501      1278      1300      1521      1514
 -1      1090    4    0    1
 -2      1070      1063      1103      1194      1069      1062      1104      1195      1278      1300
 -2      1521      1514      1230      1222      1301      1503      1277      1302      1522      1515
 -1      1091    4    0    1
 -2      1069      1062      1104      1195      1068      1061      1105      1196      1277      1302
 -2      1522      1515      1229      1221      1303      1505      1276      1304      1523      1516
 -1      1092    4    0    1
 -2      1068      1061      1105      1196      1067      1060      1106      1197      1276      1304
 -2      1523      1516      1228      1220      1305      1507      1275      1306      1524      1517
 -1      1093    4    0    1
 -2      1067      1060      1106      1197      1066      1059      1107      1198      1275      1306
 -2      1524      1517      1227      1219      1307      1509      1274      1308      1525      1518
 -1      1094    4    0    1
 -2      1066      1059      1107      1198      1042      1041      1079      1086      1274      1308
 -2      1525      1518      1226      1218      1309      1511      1217      1242      1287      1250
 -1      1095    4    0    1
 -2      1052      1045      1046      1053      1192      1101      1108      1185      1267      1202
 -2      1268      1210      1497      1295      1310      1482      1519      1311      1526      1498
 -1      1096    4    0    1
 -2      1192      1101      1108      1185      1193      1102      1109      1186      1519      1311
 -2      1526      1498      1499      1297      1312      1484      1520      1313      1527      1500
 -1      1097    4    0    1
 -2      1193      1102      1109      1186      1194      1103      1110      1187      1520      1313
 -2      1527      1500      1501      1299      1314      1486      1521      1315      1528      1502
 -1      1098    4    0    1
 -2      1194      1103      1110      1187      1195      1104      1111      1188      1521      1315
 -2      1528      1502      1503      1301      1316      1488      1522      1317      1529      1504
 -1      1099    4    0    1
 -2      1195      1104      1111      1188      1196      1105      1112      1189      1522      1317
 -2      1529      1504      1505      1303      1318      1490      1523      1319      1530      1506
 -1      1100    4    0    1
 -2      1196      1105      1112      1189      1197      1106      1113      1190      1523      1319
 -2      1530      1506      1507      1305      1320      1492      1524      1321      1531      1508
 -1      1101    4    0    1
 -2      1197      1106      1113      1190      1198      1107      1114      1191      1524      1321
 -2      1531      1508      1509      1307      1322      1494      1525      1323      1532      1510
 -1      1102    4    0    1
 -2      1198      1107      1114      1191      1086      1079      1078      1085      1525      1323
 -2      1532      1510      1511      1309      1324      1496      1287      1241      1286      1249
 -1      1103    4    0    1
 -2      1053      1046      1047      1054      1185      1108      1115      1178      1268      1203
 -2      1269      1211      1482      1310      1325      1467      1526      1326      1533      1483
 -1      1104    4    0    1
 -2      1185      1108      1115      1178      1186      1109      1116      1179      1526      1326
 -2      1533      1483      1484      1312      1327      1469      1527      1328      1534      1485
 -1      1105    4    0    1
 -2      1186      1109      1116      1179      1187      1110      1117      1180      1527      1328
 -2      1534      1485      1486      1314      1329      1471      1528      1330      1535      1487
 -1      1106    4    0    1
 -2      1187      1110      1117      1180      1188      1111      1118      1181      1528      1330
 -2      1535      1487      1488      1316      1331      1473      1529      1332      1536      1489
 -1      1107    4    0    1
 -2      1188      1111      1118      1181      1189      1112      1119      1182      1529      1332
 -2      1536      1489      1490      1318      1333      1475      1530      1334      1537      1491
 -1      1108    4    0    1
 -2      1189      1112      1119      1182      1190      1113      1120      1183      1530      1334
 -2      1537      1491      1492      1320      1335      1477      1531      1336      1538      1493
 -1      1109    4    0    1
 -2      1190      1113      1120      1183      1191      1114      1121      1184      1531      1336
 -2      1538      1493      1494      1322      1337      1479      1532      1338      1539      1495
 -1      1110    4    0    1
 -2      1191      1114      1121      1184      1085      1078      1077      1084      1532      1338
 -2      1539      1495      1496      1324      1339      1481      1286      1240      1285      1248
 -1      1111    4    0    1
 -2      1054      1047      1048      1055      1178      1115      1122      1171      1269      1204
 -2      1270      1212      1467      1325      1340      1452      1533      1341      1540      1468
 -1      1112    4    0    1
 -2      1178      1115      1122      1171      1179      1116      1123      1172      1533      1341
 -2      1540      1468      1469      1327      1342      1454      1534      1343      1541      1470
 -1      1113    4    0    1
 -2      1179      1116      1123      1172      1180      1117      1124      1173      1534      1343
 -2      1541      1470      1471      1329      1344      1456      1535      1345      1542      1472
 -1      1114    4    0    1
 -2      1180      1117      1124      1173      1181      1118      1125      1174      1535      1345
 -2      1542      1472      1473      1331      1346      1458      1536      1347      1543      1474
 -1      1115    4    0    1
 -2      1181      1118      1125      1174      1182      1119      1126      1175      1536      1347
 -2      1543      1474      1475      1333      1348      1460      1537      1349      1544      1476
 -1      1116    4    0    1
 -2      1182      1119      1126      1175      1183      1120      1127      1176      1537      1349
 -2      1544      1476      1477      1335      1350      1462      1538      1351      1545      1478
 -1      1117    4    0    1
 -2      1183      1120      1127      1176      1184      1121      1128      1177      1538      1351
 -2      1545      1478      1479      1337      1352      1464      1539      1353      1546      1480
 -1      1118    4    0    1
 -2      1184      1121      1128      1177      1084      1077      1076      1083      1539      1353
 -2      1546      1480      1481      1339      1354      1466      1285      1239      1284      1247
 -1      1119    4    0    1
 -2      1055      1048      1049      1056      1171      1122      1129      1164      1270      1205
 -2      1271      1213      1452      1340      1355      1437      1540      1356      1547      1453
 -1      1120    4    0    1
 -2      1171      1122      1129      1164      1172      1123      1130      1165      1540      1356
 -2      1547      1453      1454      1342      1357      1439      1541      1358      1548      1455
 -1      1121    4    0    1
 -2      1172      1123      1130      1165      1173      1124      1131      1166      1541      1358
 -2      1548      1455      1456      1344      1359      1441      1542      1360      1549      1457
 -1      1122    4    0    1
 -2      1173      1124      1131      1166      1174      1125      1132      1167      1542      1360
 -2      1549      1457      1458      1346      1361      1443      1543      1362      1550      1459
 -1      1123    4    0    1
 -2      1174      1125      1132      1167      1175      1126      1133      1168      1543      1362
 -2      1550      1459      1460      1348      1363      1445      1544      1364      1551      1461
 -1      1124    4    0    1
 -2      1175      1126      1133      1168      1176      1127      1134      1169      1544      1364
 -2      1551      1461      1462      1350      1365      1447      1545      1366      1552      1463
 -1      1125    4    0    1
 -2      1176      1127      1134      1169      1177      1128      1135      1170      1545      1366
 -2      1552      1463      1464      1352      1367      1449      1546      1368      1553      1465
 -1      1126    4    0    1
 -2      1177      1128      1135      1170      1083      1076      1075      1082      1546      1368
 -2      1553      1465      1466      1354      1369      1451      1284      1238      1283      1246
 -1      1127    4    0    1
 -2      1056      1049      1050      1057      1164      1129      1136      1157      1271      1206
 -2      1272      1214      1437      1355      1370      1422      1547      1371      1554      1438
 -1      1128    4    0    1
 -2      1164      1129      1136      1157      1165      1130      1137      1158      1547      1371
 -2      1554      1438      1439      1357      1372      1424      1548      1373      1555      1440
 -1      1129    4    0    1
 -2      1165      1130      1137      1158      1166      1131      1138      1159      1548      1373
 -2      1555      1440      1441      1359      1374      1426      1549      1375      1556      1442
 -1      1130    4    0    1
 -2      1166      1131      1138      1159      1167      1132      1139      1160      1549      1375
 -2      1556      1442      1443      1361      1376      1428      1550      1377      1557      1444
 -1      1131    4    0    1
 -2      1167      1132      1139      1160      1168      1133      1140      1161      1550      1377
 -2      1557      1444      1445      1363      1378      1430      1551      1379      1558      1446
 -1      1132    4    0    1
 -2      1168      1133      1140      1161      1169      1134      1141      1162      1551      1379
 -2      1558      1446      1447      1365      1380      1432      1552      1381      1559      1448
 -1      1133    4    0    1
 -2      1169      1134      1141      1162      1170      1135      1142      1163      1552      1381
 -2      1559      1448      1449      1367      1382      1434      1553      1383      1560      1450
 -1      1134    4    0    1
 -2      1170      1135      1142      1163      1082      1075      1074      1081      1553      1383
 -2      1560      1450      1451      1369      1384      1436      1283      1237      1282      1245
 -1      1135    4    0    1
 -2      1057      1050      1051      1058      1157      1136      1143      1150      1272      1207
 -2      1273      1215      1422      1370      1385      1407      1554      1386      1561      1423
 -1      1136    4    0    1
 -2      1157      1136      1143      1150      1158      1137      1144      1151      1554      1386
 -2      1561      1423      1424      1372      1387      1409      1555      1388      1562      1425
 -1      1137    4    0    1
 -2      1158      1137      1144      1151      1159      1138      1145      1152      1555      1388
 -2      1562      1425      1426      1374      1389      1411      1556      1390      1563      1427
 -1      1138    4    0    1
 -2      1159      1138      1145      1152      1160      1139      1146      1153      1556      1390
 -2      1563      1427      1428      1376      1391      1413      1557      1392      1564      1429
 -1      1139    4    0    1
 -2      1160      1139      1146      1153      1161      1140      1147      1154      1557      1392
 -2      1564      1429      1430      1378      1393      1415      1558      1394      1565      1431
 -1      1140    4    0    1
 -2      1161      1140      1147      1154      1162      1141      1148      1155      1558      1394
 -2      1565      1431      1432      1380      1395      1417      1559      1396      1566      1433
 -1      1141    4    0    1
 -2      1162      1141      1148      1155      1163      1142      1149      1156      1559      1396
 -2      1566      1433      1434      1382      1397      1419      1560      1398      1567      1435
 -1      1142    4    0    1
 -2      1163      1142      1149      1156      1081      1074      1073      1080      1560      1398
 -2      1567      1435      1436      1384      1399      1421      1282      1236      1281      1244
 -1      1143    4    0    1
 -2      1058      1051      1039      1040      1150      1143      1087      1094      1273      1208
 -2      1200      1216      1407      1385      1251      1259      1561      1400      1288      1408
 -1      1144    4    0    1
 -2      1150      1143      1087      1094      1151      1144      1088      1095      1561      1400
 -2      1288      1408      1409      1387      1252      1260      1562      1401      1289      1410
 -1      1145    4    0    1
 -2      1151      1144      1088      1095      1152      1145      1089      1096      1562      1401
 -2      1289      1410      1411      1389      1253      1261      1563      1402      1290      1412
 -1      1146    4    0    1
 -2      1152      1145      1089      1096      1153      1146      1090      1097      1563      1402
 -2      1290      1412      1413      1391      1254      1262      1564      1403      1291      1414
 -1      1147    4    0    1
 -2      1153      1146      1090      1097      1154      1147      1091      1098      1564      1403
 -2      1291      1414      1415      1393      1255      1263      1565      1404      1292      1416
 -1      1148    4    0    1
 -2      1154      1147      1091      1098      1155      1148      1092      1099      1565      1404
 -2      1292      1416      1417      1395      1256      1264      1566      1405      1293      1418
 -1      1149    4    0    1
 -2      1155      1148      1092      1099      1156      1149      1093      1100      1566      1405
 -2      1293      1418      1419      1397      1257      1265      1567      1406      1294      1420
 -1      1150    4    0    1
 -2      1156      1149      1093      1100      1080      1073      1043      1044      1567      1406
 -2      1294      1420      1421      1399      1258      1266      1281      1235      1234      1243
 -3
    1PSTEP                         1           1           1          
  100CL  101 1.000000000         531                     0    1           1
 -4  DISP        4    1
 -5  D1          1    2    1    0
 -5  D2          1    2    2    0
 -5  D3          1    2    3    0
 -5  ALL         1    2    0    0    1ALL
 -1      1037-5.01418E+00 2.43802E+01 0.00000E+00
 -1      1038-5.01418E+00 2.43802E+01 0.00000E+00
 -1      1039 0.00000E+00 0.00000E+00 0.00000E+00
 -1      1040 0.00000E+00 0.00000E+00 0.00000E+00
 -1      1041-1.84998E+01 2.60319E+01 0.00000E+00
 -1      1042-1.84998E+01 2.60319E+01 0.00000E+00
 -1      1043 0.00000E+00 0.00000E+00 0.00000E+00
 -1      1044 0.00000E+00 0.00000E+00 0.00000E+00
 -1      1045-1.56731E+00 1.83046E+01 0.00000E+00
 -1      1046 4.25110E-01 1.30339E+01 0.00000E+00
 -1      1047 1.28576E+00 8.85284E+00 0.00000E+00
 -1      1048 1.26822E+00 5.78925E+00 0.00000E+00
 -1      1049 7.72861E-01 3.76822E+00 0.00000E+00
 -1      1050 2.72986E-01 2.44783E+00 0.00000E+00
 -1      1051 3.99121E-02 1.31071E+00 0.00000E+00
 -1      1052-1.56731E+00 1.83046E+01 0.00000E+00
 -1      1053 4.25110E-01 1.30339E+01 0.00000E+00
 -1      1054 1.28576E+00 8.85284E+00 0.00000E+00
 -1      1055 1.26822E+00 5.78925E+00 0.00000E+00
 -1      1056 7.72861E-01 3.76822E+00 0.00000E+00
 -1      1057 2.72986E-01 2.44783E+00 0.00000E+00
 -1      1058 3.99121E-02 1.31071E+00 0.00000E+00
 -1      1059-1.63095E+01 2.59457E+01 0.00000E+00
 -1      1060-1.43673E+01 2.57622E+01 0.00000E+00
 -1      1061-1.25974E+01 2.55253E+01 0.00000E+00
 -1      1062-1.09648E+01 2.52637E+01 0.00000E+00
 -1      1063-9.43553E+00 2.49939E+01 0.00000E+00
 -1      1064-7.97214E+00 2.47273E+01 0.00000E+00
 -1      1065-6.52689E+00 2.44862E+01 0.00000E+00
 -1      1066-1.63095E+01 2.59457E+01 0.00000E+00
 -1      1067-1.43673E+01 2.57622E+01 0.00000E+00
 -1      1068-1.25974E+01 2.55253E+01 0.00000E+00
 -1      1069-1.09648E+01 2.52637E+01 0.00000E+00
 -1      1070-9.43553E+00 2.49939E+01 0.00000E+00
 -1      1071-7.97214E+00 2.47273E+01 0.00000E+00
 -1      1072-6.52689E+00 2.44862E+01 0.00000E+00
 -1      1073-1.46621E+00 1.68728E+00 0.00000E+00
 -1      1074-3.86695E+00 2.60083E+00 0.00000E+00
 -1      1075-5.89742E+00 4.38100E+00 0.00000E+00
 -1      1076-8.19390E+00 6.81541E+00 0.00000E+00
 -1      1077-1.06532E+01 1.00871E+01 0.00000E+00
 -1      1078-1.32476E+01 1.42723E+01 0.00000E+00
 -1      1079-1.59238E+01 1.94653E+01 0.00000E+00
 -1      1080-1.46621E+00 1.68728E+00 0.00000E+00
 -1      1081-3.86695E+00 2.60083E+00 0.00000E+00
 -1      1082-5.89742E+00 4.38100E+00 0.00000E+00
 -1      1083-8.19390E+00 6.81541E+00 0.00000E+00
 -1      1084-1.06532E+01 1.00871E+01 0.00000E+00
 -1      1085-1.32476E+01 1.42723E+01 0.00000E+00
 -1      1086-1.59238E+01 1.94653E+01 0.00000E+00
 -1      1087 0.00000E+00 0.00000E+00 0.00000E+00
 -1      1088 0.00000E+00 0.00000E+00 0.00000E+00
 -1      1089 0.00000E+00 0.00000E+00 0.00000E+00
 -1      1090 0.00000E+00 0.00000E+00 0.00000E+00
 -1      1091 0.00000E+00 0.00000E+00 0.00000E+00
 -1      1092 0.00000E+00 0.00000E+00 0.00000E+00
 -1      1093 0.00000E+00 0.00000E+00 0.00000E+00
 -1      1094 0.00000E+00 0.00000E+00 0.00000E+00
 -1      1095 0.00000E+00 0.00000E+00 0.00000E+00
 -1      1096 0.00000E+00 0.00000E+00 0.00000E+00
 -1      1097 0.00000E+00 0.00000E+00 0.00000E+00
 -1      1098 0.00000E+00 0.00000E+00 0.00000E+00
 -1      1099 0.00000E+00 0.00000E+00 0.00000E+00
 -1      1100 0.00000E+00 0.00000E+00 0.00000E+00
 -1      1101-2.88425E+00 1.82776E+01 0.00000E+00
 -1      1102-4.33817E+00 1.83469E+01 0.00000E+00
 -1      1103-5.88571E+00 1.84964E+01 0.00000E+00
 -1      1104-7.53144E+00 1.86856E+01 0.00000E+00
 -1      1105-9.30800E+00 1.88839E+01 0.00000E+00
 -1      1106-1.12621E+01 1.90761E+01 0.00000E+00
 -1      1107-1.34499E+01 1.92621E+01 0.00000E+00
 -1      1108-4.99266E-01 1.29859E+01 0.00000E+00
 -1      1109-1.67792E+00 1.29893E+01 0.00000E+00
 -1      1110-3.08232E+00 1.30620E+01 0.00000E+00
 -1      1111-4.68393E+00 1.32054E+01 0.00000E+00
 -1      1112-6.47646E+00 1.34061E+01 0.00000E+00
 -1      1113-8.47980E+00 1.36494E+01 0.00000E+00
 -1      1114-1.07249E+01 1.39340E+01 0.00000E+00
 -1      1115 8.22013E-01 8.76992E+00 0.00000E+00
 -1      1116 4.27945E-02 8.72261E+00 0.00000E+00
 -1      1117-1.03938E+00 8.73591E+00 0.00000E+00
 -1      1118-2.41159E+00 8.82672E+00 0.00000E+00
 -1      1119-4.05796E+00 9.00244E+00 0.00000E+00
 -1      1120-5.96963E+00 9.26870E+00 0.00000E+00
 -1      1121-8.16348E+00 9.62529E+00 0.00000E+00
 -1      1122 1.24584E+00 5.65631E+00 0.00000E+00
 -1      1123 8.97637E-01 5.51706E+00 0.00000E+00
 -1      1124 2.25784E-01 5.43508E+00 0.00000E+00
 -1      1125-7.77838E-01 5.45365E+00 0.00000E+00
 -1      1126-2.12571E+00 5.59403E+00 0.00000E+00
 -1      1127-3.81948E+00 5.85568E+00 0.00000E+00
 -1      1128-5.83468E+00 6.26031E+00 0.00000E+00
 -1      1129 1.00727E+00 3.58786E+00 0.00000E+00
 -1      1130 9.98949E-01 3.32694E+00 0.00000E+00
 -1      1131 7.25578E-01 3.08638E+00 0.00000E+00
 -1      1132 1.62064E-01 2.95639E+00 0.00000E+00
 -1      1133-7.36475E-01 3.01033E+00 0.00000E+00
 -1      1134-2.03777E+00 3.28437E+00 0.00000E+00
 -1      1135-3.79394E+00 3.72639E+00 0.00000E+00
 -1      1136 4.93457E-01 2.28539E+00 0.00000E+00
 -1      1137 6.16608E-01 1.97406E+00 0.00000E+00
 -1      1138 5.95287E-01 1.60689E+00 0.00000E+00
 -1      1139 4.00692E-01 1.29308E+00 0.00000E+00
 -1      1140-8.78842E-03 1.15244E+00 0.00000E+00
 -1      1141-7.21268E-01 1.31577E+00 0.00000E+00
 -1      1142-1.92042E+00 1.89394E+00 0.00000E+00
 -1      1143 1.12552E-01 1.24441E+00 0.00000E+00
 -1      1144 1.75948E-01 1.05087E+00 0.00000E+00
 -1      1145 2.01633E-01 7.50815E-01 0.00000E+00
 -1      1146 1.76025E-01 4.15563E-01 0.00000E+00
 -1      1147 8.46337E-02 1.41681E-01 0.00000E+00
 -1      1148-1.07015E-01 5.90367E-02 0.00000E+00
 -1      1149-4.98860E-01 3.90031E-01 0.00000E+00
 -1      1150 1.12552E-01 1.24441E+00 0.00000E+00
 -1      1151 1.75948E-01 1.05087E+00 0.00000E+00
 -1      1152 2.01633E-01 7.50815E-01 0.00000E+00
 -1      1153 1.76025E-01 4.15563E-01 0.00000E+00
 -1      1154 8.46337E-02 1.41681E-01 0.00000E+00
 -1      1155-1.07015E-01 5.90367E-02 0.00000E+00
 -1      1156-4.98860E-01 3.90031E-01 0.00000E+00
 -1      1157 4.93457E-01 2.28539E+00 0.00000E+00
 -1      1158 6.16608E-01 1.97406E+00 0.00000E+00
 -1      1159 5.95287E-01 1.60689E+00 0.00000E+00
 -1      1160 4.00692E-01 1.29308E+00 0.00000E+00
 -1      1161-8.78842E-03 1.15244E+00 0.00000E+00
 -1      1162-7.21268E-01 1.31577E+00 0.00000E+00
 -1      1163-1.92042E+00 1.89394E+00 0.00000E+00
 -1      1164 1.00727E+00 3.58786E+00 0.00000E+00
 -1      1165 9.98949E-01 3.32694E+00 0.00000E+00
 -1      1166 7.25578E-01 3.08638E+00 0.00000E+00
 -1      1167 1.62064E-01 2.95639E+00 0.00000E+00
 -1      1168-7.36475E-01 3.01033E+00 0.00000E+00
 -1      1169-2.03777E+00 3.28437E+00 0.00000E+00
 -1      1170-3.79394E+00 3.72639E+00 0.00000E+00
 -1      1171 1.24584E+00 5.65631E+00 0.00000E+00
 -1      1172 8.97637E-01 5.51706E+00 0.00000E+00
 -1      1173 2.25784E-01 5.43508E+00 0.00000E+00
 -1      1174-7.77838E-01 5.45365E+00 0.00000E+00
 -1      1175-2.12571E+00 5.59403E+00 0.00000E+00
 -1      1176-3.81948E+00 5.85568E+00 0.00000E+00
 -1      1177-5.83468E+00 6.26031E+00 0.00000E+00
 -1      1178 8.22013E-01 8.76992E+00 0.00000E+00
 -1      1179 4.27945E-02 8.72261E+00 0.00000E+00
 -1      1180-1.03938E+00 8.73591E+00 0.00000E+00
 -1      1181-2.41159E+00 8.82672E+00 0.00000E+00
 -1      1182-4.05796E+00 9.00244E+00 0.00000E+00
 -1      1183-5.96963E+00 9.26870E+00 0.00000E+00
 -1      1184-8.16348E+00 9.62529E+00 0.00000E+00
 -1      1185-4.99266E-01 1.29859E+01 0.00000E+00
 -1      1186-1.67792E+00 1.29893E+01 0.00000E+00
 -1      1187-3.08232E+00 1.30620E+01 0.00000E+00
 -1      1188-4.68393E+00 1.32054E+01 0.00000E+00
 -1      1189-6.47646E+00 1.34061E+01 0.00000E+00
 -1      1190-8.47980E+00 1.36494E+01 0.00000E+00
 -1      1191-1.07249E+01 1.39340E+01 0.00000E+00
 -1      1192-2.88425E+00 1.82776E+01 0.00000E+00
 -1      1193-4.33817E+00 1.83469E+01 0.00000E+00
 -1      1194-5.88571E+00 1.84964E+01 0.00000E+00
 -1      1195-7.53144E+00 1.86856E+01 0.00000E+00
 -1      1196-9.30800E+00 1.88839E+01 0.00000E+00
 -1      1197-1.12621E+01 1.90761E+01 0.00000E+00
 -1      1198-1.34499E+01 1.92621E+01 0.00000E+00
 -1      1199-5.01418E+00 2.43802E+01 5.39302E-12
 -1      1200 0.00000E+00 0.00000E+00 0.00000E+00
 -1      1201-3.07947E+00 2.12266E+01 0.00000E+00
 -1      1202-4.17940E-01 1.55294E+01 0.00000E+00
 -1      1203 9.85463E-01 1.07928E+01 0.00000E+00
 -1      1204 1.36705E+00 7.15398E+00 0.00000E+00
 -1      1205 1.05039E+00 4.59659E+00 0.00000E+00
 -1      1206 4.94335E-01 2.94284E+00 0.00000E+00
 -1      1207 1.18092E-01 1.77955E+00 0.00000E+00
 -1      1208 9.78740E-03 6.43963E-01 0.00000E+00
 -1      1209-3.07947E+00 2.12266E+01 0.00000E+00
 -1      1210-4.17940E-01 1.55294E+01 0.00000E+00
 -1      1211 9.85463E-01 1.07928E+01 0.00000E+00
 -1      1212 1.36705E+00 7.15398E+00 0.00000E+00
 -1      1213 1.05039E+00 4.59659E+00 0.00000E+00
 -1      1214 4.94335E-01 2.94284E+00 0.00000E+00
 -1      1215 1.18092E-01 1.77955E+00 0.00000E+00
 -1      1216 9.78740E-03 6.43963E-01 0.00000E+00
 -1      1217-1.84998E+01 2.60319E+01-3.23979E-11
 -1      1218-1.73961E+01 2.59931E+01 0.00000E+00
 -1      1219-1.53308E+01 2.58558E+01 0.00000E+00
 -1      1220-1.34755E+01 2.56418E+01 0.00000E+00
 -1      1221-1.17750E+01 2.53910E+01 0.00000E+00
 -1      1222-1.01946E+01 2.51256E+01 0.00000E+00
 -1      1223-8.69863E+00 2.48592E+01 0.00000E+00
 -1      1224-7.24424E+00 2.46068E+01 0.00000E+00
 -1      1225-5.76429E+00 2.44238E+01 0.00000E+00
 -1      1226-1.73961E+01 2.59931E+01 0.00000E+00
 -1      1227-1.53308E+01 2.58558E+01 0.00000E+00
 -1      1228-1.34755E+01 2.56418E+01 0.00000E+00
 -1      1229-1.17750E+01 2.53910E+01 0.00000E+00
 -1      1230-1.01946E+01 2.51256E+01 0.00000E+00
 -1      1231-8.69863E+00 2.48592E+01 0.00000E+00
 -1      1232-7.24424E+00 2.46068E+01 0.00000E+00
 -1      1233-5.76429E+00 2.44238E+01 0.00000E+00
 -1      1234 0.00000E+00 0.00000E+00 0.00000E+00
 -1      1235-3.66381E-01 9.83191E-01 0.00000E+00
 -1      1236-2.80336E+00 2.05926E+00 0.00000E+00
 -1      1237-4.83477E+00 3.44442E+00 0.00000E+00
 -1      1238-7.02729E+00 5.50589E+00 0.00000E+00
 -1      1239-9.40105E+00 8.33755E+00 0.00000E+00
 -1      1240-1.19391E+01 1.20463E+01 0.00000E+00
 -1      1241-1.45762E+01 1.67220E+01 0.00000E+00
 -1      1242-1.72468E+01 2.25780E+01 0.00000E+00
 -1      1243-3.66381E-01 9.83191E-01 0.00000E+00
 -1      1244-2.80336E+00 2.05926E+00 0.00000E+00
 -1      1245-4.83477E+00 3.44442E+00 0.00000E+00
 -1      1246-7.02729E+00 5.50589E+00 0.00000E+00
 -1      1247-9.40105E+00 8.33755E+00 0.00000E+00
 -1      1248-1.19391E+01 1.20463E+01 0.00000E+00
 -1      1249-1.45762E+01 1.67220E+01 0.00000E+00
 -1      1250-1.72468E+01 2.25780E+01 0.00000E+00
 -1      1251 0.00000E+00 0.00000E+00 0.00000E+00
 -1      1252 0.00000E+00 0.00000E+00 0.00000E+00
 -1      1253 0.00000E+00 0.00000E+00 0.00000E+00
 -1      1254 0.00000E+00 0.00000E+00 0.00000E+00
 -1      1255 0.00000E+00 0.00000E+00 0.00000E+00
 -1      1256 0.00000E+00 0.00000E+00 0.00000E+00
 -1      1257 0.00000E+00 0.00000E+00 0.00000E+00
 -1      1258 0.00000E+00 0.00000E+00 0.00000E+00
 -1      1259 0.00000E+00 0.00000E+00 0.00000E+00
 -1      1260 0.00000E+00 0.00000E+00 0.00000E+00
 -1      1261 0.00000E+00 0.00000E+00 0.00000E+00
 -1      1262 0.00000E+00 0.00000E+00 0.00000E+00
 -1      1263 0.00000E+00 0.00000E+00 0.00000E+00
 -1      1264 0.00000E+00 0.00000E+00 0.00000E+00
 -1      1265 0.00000E+00 0.00000E+00 0.00000E+00
 -1      1266 0.00000E+00 0.00000E+00 0.00000E+00
 -1      1267-1.56731E+00 1.83046E+01-6.36129E-12
 -1      1268 4.25110E-01 1.30339E+01 5.16343E-12
 -1      1269 1.28576E+00 8.85284E+00 8.36875E-12
 -1      1270 1.26822E+00 5.78925E+00-8.86513E-13
 -1      1271 7.72861E-01 3.76822E+00-8.27522E-14
 -1      1272 2.72986E-01 2.44783E+00-6.70271E-13
 -1      1273 3.99121E-02 1.31071E+00 5.39541E-13
 -1      1274-1.63095E+01 2.59457E+01 2.97520E-11
 -1      1275-1.43673E+01 2.57622E+01 7.07256E-12
 -1      1276-1.25974E+01 2.55253E+01-2.92566E-12
 -1      1277-1.09648E+01 2.52637E+01-1.89906E-12
 -1      1278-9.43553E+00 2.49939E+01 2.87614E-11
 -1      1279-7.97214E+00 2.47273E+01 3.25677E-11
 -1      1280-6.52689E+00 2.44862E+01 5.54468E-12
 -1      1281-1.46621E+00 1.68728E+00 5.31577E-13
 -1      1282-3.86695E+00 2.60083E+00-2.15421E-12
 -1      1283-5.89742E+00 4.38100E+00 1.01186E-12
 -1      1284-8.19390E+00 6.81541E+00-8.38535E-13
 -1      1285-1.06532E+01 1.00871E+01 1.08073E-11
 -1      1286-1.32476E+01 1.42723E+01 1.22121E-11
 -1      1287-1.59238E+01 1.94653E+01-2.20374E-11
 -1      1288 0.00000E+00 0.00000E+00 0.00000E+00
 -1      1289 0.00000E+00 0.00000E+00 0.00000E+00
 -1      1290 0.00000E+00 0.00000E+00 0.00000E+00
 -1      1291 0.00000E+00 0.00000E+00 0.00000E+00
 -1      1292 0.00000E+00 0.00000E+00 0.00000E+00
 -1      1293 0.00000E+00 0.00000E+00 0.00000E+00
 -1      1294 0.00000E+00 0.00000E+00 0.00000E+00
 -1      1295-2.21492E+00 1.82707E+01 0.00000E+00
 -1      1296-4.53521E+00 2.12577E+01 0.00000E+00
 -1      1297-3.60277E+00 1.82964E+01 0.00000E+00
 -1      1298-6.03452E+00 2.13939E+01 0.00000E+00
 -1      1299-5.10440E+00 1.84121E+01 0.00000E+00
 -1      1300-7.56667E+00 2.15979E+01 0.00000E+00
 -1      1301-6.70091E+00 1.85844E+01 0.00000E+00
 -1      1302-9.16736E+00 2.18312E+01 0.00000E+00
 -1      1303-8.41142E+00 1.87787E+01 0.00000E+00
 -1      1304-1.08822E+01 2.20658E+01 0.00000E+00
 -1      1305-1.02758E+01 1.89729E+01 0.00000E+00
 -1      1306-1.27616E+01 2.22799E+01 0.00000E+00
 -1      1307-1.23458E+01 1.91593E+01 0.00000E+00
 -1      1308-1.48608E+01 2.24544E+01 0.00000E+00
 -1      1309-1.46764E+01 1.93487E+01 0.00000E+00
 -1      1310-2.34515E-02 1.29879E+01 0.00000E+00
 -1      1311-1.54758E+00 1.55057E+01 0.00000E+00
 -1      1312-1.07707E+00 1.29646E+01 0.00000E+00
 -1      1313-2.88543E+00 1.55441E+01 0.00000E+00
 -1      1314-2.36997E+00 1.30047E+01 0.00000E+00
 -1      1315-4.39128E+00 1.56489E+01 0.00000E+00
 -1      1316-3.87360E+00 1.31165E+01 0.00000E+00
 -1      1317-6.04170E+00 1.58092E+01 0.00000E+00
 -1      1318-5.57058E+00 1.32910E+01 0.00000E+00
 -1      1319-7.84784E+00 1.60042E+01 0.00000E+00
 -1      1320-7.46791E+00 1.35139E+01 0.00000E+00
 -1      1321-9.84287E+00 1.62189E+01 0.00000E+00
 -1      1322-9.59134E+00 1.37765E+01 0.00000E+00
 -1      1323-1.20721E+01 1.64518E+01 0.00000E+00
 -1      1324-1.19748E+01 1.40860E+01 0.00000E+00
 -1      1325 1.06834E+00 8.78595E+00 0.00000E+00
 -1      1326 2.83493E-01 1.07387E+01 0.00000E+00
 -1      1327 4.44958E-01 8.71916E+00 0.00000E+00
 -1      1328-7.04948E-01 1.07262E+01 0.00000E+00
 -1      1329-4.87042E-01 8.70135E+00 0.00000E+00
 -1      1330-1.96331E+00 1.07735E+01 0.00000E+00
 -1      1331-1.71498E+00 8.75462E+00 0.00000E+00
 -1      1332-3.46989E+00 1.08904E+01 0.00000E+00
 -1      1333-3.22438E+00 8.89049E+00 0.00000E+00
 -1      1334-5.20832E+00 1.10774E+01 0.00000E+00
 -1      1335-5.00303E+00 9.11228E+00 0.00000E+00
 -1      1336-7.18472E+00 1.13297E+01 0.00000E+00
 -1      1337-7.05528E+00 9.42463E+00 0.00000E+00
 -1      1338-9.41840E+00 1.16489E+01 0.00000E+00
 -1      1339-9.39700E+00 9.83154E+00 0.00000E+00
 -1      1340 1.27010E+00 5.70340E+00 0.00000E+00
 -1      1341 1.13642E+00 7.07097E+00 0.00000E+00
 -1      1342 1.08350E+00 5.55980E+00 0.00000E+00
 -1      1343 5.74343E-01 6.99400E+00 0.00000E+00
 -1      1344 5.72440E-01 5.44361E+00 0.00000E+00
 -1      1345-3.09650E-01 6.96918E+00 0.00000E+00
 -1      1346-2.65892E-01 5.40847E+00 0.00000E+00
 -1      1347-1.51274E+00 7.02692E+00 0.00000E+00
 -1      1348-1.44171E+00 5.48833E+00 0.00000E+00
 -1      1349-3.02898E+00 7.18433E+00 0.00000E+00
 -1      1350-2.96204E+00 5.69395E+00 0.00000E+00
 -1      1351-4.84451E+00 7.44991E+00 0.00000E+00
 -1      1352-4.81608E+00 6.02517E+00 0.00000E+00
 -1      1353-6.96659E+00 7.82875E+00 0.00000E+00
 -1      1354-7.00359E+00 6.50707E+00 0.00000E+00
 -1      1355 8.99923E-01 3.67792E+00 0.00000E+00
 -1      1356 1.18986E+00 4.47603E+00 0.00000E+00
 -1      1357 1.01254E+00 3.44250E+00 0.00000E+00
 -1      1358 1.03271E+00 4.30342E+00 0.00000E+00
 -1      1359 8.71089E-01 3.17924E+00 0.00000E+00
 -1      1360 5.70017E-01 4.16218E+00 0.00000E+00
 -1      1361 4.52355E-01 2.98250E+00 0.00000E+00
 -1      1362-2.16277E-01 4.11802E+00 0.00000E+00
 -1      1363-2.78543E-01 2.93465E+00 0.00000E+00
 -1      1364-1.35807E+00 4.21617E+00 0.00000E+00
 -1      1365-1.37795E+00 3.09550E+00 0.00000E+00
 -1      1366-2.88625E+00 4.47673E+00 0.00000E+00
 -1      1367-2.90589E+00 3.47026E+00 0.00000E+00
 -1      1368-4.77483E+00 4.90469E+00 0.00000E+00
 -1      1369-4.83607E+00 4.00855E+00 0.00000E+00
 -1      1370 3.89132E-01 2.38817E+00 0.00000E+00
 -1      1371 7.55958E-01 2.79953E+00 0.00000E+00
 -1      1372 5.61272E-01 2.13499E+00 0.00000E+00
 -1      1373 8.44279E-01 2.54057E+00 0.00000E+00
 -1      1374 6.11954E-01 1.78053E+00 0.00000E+00
 -1      1375 7.23612E-01 2.26258E+00 0.00000E+00
 -1      1376 5.03924E-01 1.42435E+00 0.00000E+00
 -1      1377 3.65118E-01 2.06415E+00 0.00000E+00
 -1      1378 2.02204E-01 1.17879E+00 0.00000E+00
 -1      1379-2.80235E-01 2.03816E+00 0.00000E+00
 -1      1380-3.58059E-01 1.16738E+00 0.00000E+00
 -1      1381-1.30563E+00 2.25916E+00 0.00000E+00
 -1      1382-1.31351E+00 1.51679E+00 0.00000E+00
 -1      1383-2.85413E+00 2.74394E+00 0.00000E+00
 -1      1384-2.88533E+00 2.23465E+00 0.00000E+00
 -1      1385 7.86512E-02 1.29582E+00 0.00000E+00
 -1      1386 2.64244E-01 1.65879E+00 0.00000E+00
 -1      1387 1.47077E-01 1.16390E+00 0.00000E+00
 -1      1388 3.74273E-01 1.41421E+00 0.00000E+00
 -1      1389 1.91746E-01 9.08592E-01 0.00000E+00
 -1      1390 4.00897E-01 1.09515E+00 0.00000E+00
 -1      1391 1.91932E-01 5.79485E-01 0.00000E+00
 -1      1392 3.20160E-01 7.90277E-01 0.00000E+00
 -1      1393 1.33829E-01 2.60454E-01 0.00000E+00
 -1      1394 1.03860E-01 6.08113E-01 0.00000E+00
 -1      1395-6.80371E-03 6.03921E-02 0.00000E+00
 -1      1396-3.12742E-01 6.77199E-01 0.00000E+00
 -1      1397-2.97444E-01 1.40632E-01 0.00000E+00
 -1      1398-1.10084E+00 1.14867E+00 0.00000E+00
 -1      1399-9.79319E-01 8.25115E-01 0.00000E+00
 -1      1400 2.78607E-02 5.91552E-01 0.00000E+00
 -1      1401 4.38418E-02 4.75868E-01 0.00000E+00
 -1      1402 5.04063E-02 3.12537E-01 0.00000E+00
 -1      1403 4.40361E-02 1.39753E-01 0.00000E+00
 -1      1404 2.09812E-02 8.68520E-03 0.00000E+00
 -1      1405-2.75099E-02-9.71885E-03 0.00000E+00
 -1      1406-1.25995E-01 2.09720E-01 0.00000E+00
 -1      1407 7.86512E-02 1.29582E+00 0.00000E+00
 -1      1408 2.78607E-02 5.91552E-01 0.00000E+00
 -1      1409 1.47077E-01 1.16390E+00 0.00000E+00
 -1      1410 4.38418E-02 4.75868E-01 0.00000E+00
 -1      1411 1.91746E-01 9.08592E-01 0.00000E+00
 -1      1412 5.04063E-02 3.12537E-01 0.00000E+00
 -1      1413 1.91932E-01 5.79485E-01 0.00000E+00
 -1      1414 4.40361E-02 1.39753E-01 0.00000E+00
 -1      1415 1.33829E-01 2.60454E-01 0.00000E+00
 -1      1416 2.09812E-02 8.68520E-03 0.00000E+00
 -1      1417-6.80371E-03 6.03921E-02 0.00000E+00
 -1      1418-2.75099E-02-9.71885E-03 0.00000E+00
 -1      1419-2.97444E-01 1.40632E-01 0.00000E+00
 -1      1420-1.25995E-01 2.09720E-01 0.00000E+00
 -1      1421-9.79319E-01 8.25115E-01 0.00000E+00
 -1      1422 3.89132E-01 2.38817E+00 0.00000E+00
 -1      1423 2.64244E-01 1.65879E+00 0.00000E+00
 -1      1424 5.61272E-01 2.13499E+00 0.00000E+00
 -1      1425 3.74273E-01 1.41421E+00 0.00000E+00
 -1      1426 6.11954E-01 1.78053E+00 0.00000E+00
 -1      1427 4.00897E-01 1.09515E+00 0.00000E+00
 -1      1428 5.03924E-01 1.42435E+00 0.00000E+00
 -1      1429 3.20160E-01 7.90277E-01 0.00000E+00
 -1      1430 2.02204E-01 1.17879E+00 0.00000E+00
 -1      1431 1.03860E-01 6.08113E-01 0.00000E+00
 -1      1432-3.58059E-01 1.16738E+00 0.00000E+00
 -1      1433-3.12742E-01 6.77199E-01 0.00000E+00
 -1      1434-1.31351E+00 1.51679E+00 0.00000E+00
 -1      1435-1.10084E+00 1.14867E+00 0.00000E+00
 -1      1436-2.88533E+00 2.23465E+00 0.00000E+00
 -1      1437 8.99923E-01 3.67792E+00 0.00000E+00
 -1      1438 7.55958E-01 2.79953E+00 0.00000E+00
 -1      1439 1.01254E+00 3.44250E+00 0.00000E+00
 -1      1440 8.44279E-01 2.54057E+00 0.00000E+00
 -1      1441 8.71089E-01 3.17924E+00 0.00000E+00
 -1      1442 7.23612E-01 2.26258E+00 0.00000E+00
 -1      1443 4.52355E-01 2.98250E+00 0.00000E+00
 -1      1444 3.65118E-01 2.06415E+00 0.00000E+00
 -1      1445-2.78543E-01 2.93465E+00 0.00000E+00
 -1      1446-2.80235E-01 2.03816E+00 0.00000E+00
 -1      1447-1.37795E+00 3.09550E+00 0.00000E+00
 -1      1448-1.30563E+00 2.25916E+00 0.00000E+00
 -1      1449-2.90589E+00 3.47026E+00 0.00000E+00
 -1      1450-2.85413E+00 2.74394E+00 0.00000E+00
 -1      1451-4.83607E+00 4.00855E+00 0.00000E+00
 -1      1452 1.27010E+00 5.70340E+00 0.00000E+00
 -1      1453 1.18986E+00 4.47603E+00 0.00000E+00
 -1      1454 1.08350E+00 5.55980E+00 0.00000E+00
 -1      1455 1.03271E+00 4.30342E+00 0.00000E+00
 -1      1456 5.72440E-01 5.44361E+00 0.00000E+00
 -1      1457 5.70017E-01 4.16218E+00 0.00000E+00
 -1      1458-2.65892E-01 5.40847E+00 0.00000E+00
 -1      1459-2.16277E-01 4.11802E+00 0.00000E+00
 -1      1460-1.44171E+00 5.48833E+00 0.00000E+00
 -1      1461-1.35807E+00 4.21617E+00 0.00000E+00
 -1      1462-2.96204E+00 5.69395E+00 0.00000E+00
 -1      1463-2.88625E+00 4.47673E+00 0.00000E+00
 -1      1464-4.81608E+00 6.02517E+00 0.00000E+00
 -1      1465-4.77483E+00 4.90469E+00 0.00000E+00
 -1      1466-7.00359E+00 6.50707E+00 0.00000E+00
 -1      1467 1.06834E+00 8.78595E+00 0.00000E+00
 -1      1468 1.13642E+00 7.07097E+00 0.00000E+00
 -1      1469 4.44958E-01 8.71916E+00 0.00000E+00
 -1      1470 5.74343E-01 6.99400E+00 0.00000E+00
 -1      1471-4.87042E-01 8.70135E+00 0.00000E+00
 -1      1472-3.09650E-01 6.96918E+00 0.00000E+00
 -1      1473-1.71498E+00 8.75462E+00 0.00000E+00
 -1      1474-1.51274E+00 7.02692E+00 0.00000E+00
 -1      1475-3.22438E+00 8.89049E+00 0.00000E+00
 -1      1476-3.02898E+00 7.18433E+00 0.00000E+00
 -1      1477-5.00303E+00 9.11228E+00 0.00000E+00
 -1      1478-4.84451E+00 7.44991E+00 0.00000E+00
 -1      1479-7.05528E+00 9.42463E+00 0.00000E+00
 -1      1480-6.96659E+00 7.82875E+00 0.00000E+00
 -1      1481-9.39700E+00 9.83154E+00 0.00000E+00
 -1      1482-2.34515E-02 1.29879E+01 0.00000E+00
 -1      1483 2.83493E-01 1.07387E+01 0.00000E+00
 -1      1484-1.07707E+00 1.29646E+01 0.00000E+00
 -1      1485-7.04948E-01 1.07262E+01 0.00000E+00
 -1      1486-2.36997E+00 1.30047E+01 0.00000E+00
 -1      1487-1.96331E+00 1.07735E+01 0.00000E+00
 -1      1488-3.87360E+00 1.31165E+01 0.00000E+00
 -1      1489-3.46989E+00 1.08904E+01 0.00000E+00
 -1      1490-5.57058E+00 1.32910E+01 0.00000E+00
 -1      1491-5.20832E+00 1.10774E+01 0.00000E+00
 -1      1492-7.46791E+00 1.35139E+01 0.00000E+00
 -1      1493-7.18472E+00 1.13297E+01 0.00000E+00
 -1      1494-9.59134E+00 1.37765E+01 0.00000E+00
 -1      1495-9.41840E+00 1.16489E+01 0.00000E+00
 -1      1496-1.19748E+01 1.40860E+01 0.00000E+00
 -1      1497-2.21492E+00 1.82707E+01 0.00000E+00
 -1      1498-1.54758E+00 1.55057E+01 0.00000E+00
 -1      1499-3.60277E+00 1.82964E+01 0.00000E+00
 -1      1500-2.88543E+00 1.55441E+01 0.00000E+00
 -1      1501-5.10440E+00 1.84121E+01 0.00000E+00
 -1      1502-4.39128E+00 1.56489E+01 0.00000E+00
 -1      1503-6.70091E+00 1.85844E+01 0.00000E+00
 -1      1504-6.04170E+00 1.58092E+01 0.00000E+00
 -1      1505-8.41142E+00 1.87787E+01 0.00000E+00
 -1      1506-7.84784E+00 1.60042E+01 0.00000E+00
 -1      1507-1.02758E+01 1.89729E+01 0.00000E+00
 -1      1508-9.84287E+00 1.62189E+01 0.00000E+00
 -1      1509-1.23458E+01 1.91593E+01 0.00000E+00
 -1      1510-1.20721E+01 1.64518E+01 0.00000E+00
 -1      1511-1.46764E+01 1.93487E+01 0.00000E+00
 -1      1512-4.53521E+00 2.12577E+01 0.00000E+00
 -1      1513-6.03452E+00 2.13939E+01 0.00000E+00
 -1      1514-7.56667E+00 2.15979E+01 0.00000E+00
 -1      1515-9.16736E+00 2.18312E+01 0.00000E+00
 -1      1516-1.08822E+01 2.20658E+01 0.00000E+00
 -1      1517-1.27616E+01 2.22799E+01 0.00000E+00
 -1      1518-1.48608E+01 2.24544E+01 0.00000E+00
 -1      1519-2.88425E+00 1.82776E+01-2.51506E-12
 -1      1520-4.33817E+00 1.83469E+01 5.75473E-12
 -1      1521-5.88571E+00 1.84964E+01 9.39498E-12
 -1      1522-7.53144E+00 1.86856E+01 7.92185E-12
 -1      1523-9.30800E+00 1.88839E+01-6.94195E-12
 -1      1524-1.12621E+01 1.90761E+01-6.67288E-12
 -1      1525-1.34499E+01 1.92621E+01 5.73378E-12
 -1      1526-4.99266E-01 1.29859E+01 2.54137E-12
 -1      1527-1.67792E+00 1.29893E+01-4.20664E-13
 -1      1528-3.08232E+00 1.30620E+01-1.09118E-11
 -1      1529-4.68393E+00 1.32054E+01-5.13352E-12
 -1      1530-6.47646E+00 1.34061E+01-8.60687E-12
 -1      1531-8.47980E+00 1.36494E+01-4.52216E-12
 -1      1532-1.07249E+01 1.39340E+01 7.97851E-12
 -1      1533 8.22013E-01 8.76992E+00-1.27223E-12
 -1      1534 4.27945E-02 8.72261E+00-6.85044E-12
 -1      1535-1.03938E+00 8.73591E+00 2.68230E-13
 -1      1536-2.41159E+00 8.82672E+00-3.20839E-13
 -1      1537-4.05796E+00 9.00244E+00-4.15890E-13
 -1      1538-5.96963E+00 9.26870E+00-2.97262E-12
 -1      1539-8.16348E+00 9.62529E+00-3.58576E-13
 -1      1540 1.24584E+00 5.65631E+00-4.70901E-13
 -1      1541 8.97637E-01 5.51706E+00-2.34326E-12
 -1      1542 2.25784E-01 5.43508E+00-3.41061E-12
 -1      1543-7.77838E-01 5.45365E+00-6.51508E-13
 -1      1544-2.12571E+00 5.59403E+00-1.01440E-12
 -1      1545-3.81948E+00 5.85568E+00-8.25562E-13
 -1      1546-5.83468E+00 6.26031E+00-1.34126E-12
 -1      1547 1.00727E+00 3.58786E+00 3.67630E-13
 -1      1548 9.98949E-01 3.32694E+00 4.46504E-13
 -1      1549 7.25578E-01 3.08638E+00 1.16768E-12
 -1      1550 1.62064E-01 2.95639E+00 1.30620E-13
 -1      1551-7.36475E-01 3.01033E+00-4.94049E-14
 -1      1552-2.03777E+00 3.28437E+00 1.64348E-12
 -1      1553-3.79394E+00 3.72639E+00-2.22771E-12
 -1      1554 4.93457E-01 2.28539E+00-2.06099E-13
 -1      1555 6.16608E-01 1.97406E+00-4.19771E-13
 -1      1556 5.95287E-01 1.60689E+00 4.59410E-13
 -1      1557 4.00692E-01 1.29308E+00-2.33459E-13
 -1      1558-8.78842E-03 1.15244E+00-2.08757E-13
 -1      1559-7.21268E-01 1.31577E+00 1.83770E-13
 -1      1560-1.92042E+00 1.89394E+00 1.05316E-12
 -1      1561 1.12552E-01 1.24441E+00 1.11244E-13
 -1      1562 1.75948E-01 1.05087E+00 3.06851E-13
 -1      1563 2.01633E-01 7.50815E-01 4.41869E-14
 -1      1564 1.76025E-01 4.15563E-01-2.81385E-13
 -1      1565 8.46337E-02 1.41681E-01 4.64559E-14
 -1      1566-1.07015E-01 5.90367E-02-4.33781E-14
 -1      1567-4.98860E-01 3.90031E-01 1.61631E-13
 -3
    1PSTEP                         2           1           1          
  100CL  101 1.000000000         531                     0    1           1
 -4  STRESS      6    1
 -5  SXX         1    4    1    1
 -5  SYY         1    4    2    2
 -5  SZZ         1    4    3    3
 -5  SXY         1    4    1    2
 -5  SYZ         1    4    2    3
 -5  SZX         1    4    3    1
 -1      1037 8.63537E+01 8.94835E+01 8.79011E+01 7.33968E+00 7.13903E-10 9.40516E-10
 -1      1038 8.63537E+01 8.94835E+01 8.79011E+01 7.33968E+00 1.10867E-09 2.29748E-10
 -1      1039-1.44033E+01-1.43921E+01-1.43948E+01 4.92035E+00-1.17055E-14 1.35428E-14
 -1      1040-1.44033E+01-1.43921E+01-1.43948E+01 4.92035E+00-1.68003E-14 1.31956E-14
 -1      1041-9.92167E+01-9.59944E+01-9.75860E+01 1.95290E+00 2.02583E-09-1.75856E-09
 -1      1042-9.92167E+01-9.59944E+01-9.75860E+01 1.95290E+00 3.26621E-09-1.41811E-09
 -1      1043 1.69585E+01 1.69291E+01 1.69404E+01 8.71521E+00-7.75872E-15 6.20071E-15
 -1      1044 1.69585E+01 1.69291E+01 1.69404E+01 8.71521E+00 4.78285E-14-1.91002E-14
 -1      1045 4.37663E+01 3.96006E+01 4.16751E+01 1.10148E+01 1.14266E-09 3.05810E-10
 -1      1046-7.43495E+00-1.18566E+01-9.64386E+00 1.24159E+01 3.35500E-10 1.09914E-10
 -1      1047-3.65185E+01-4.17009E+01-3.91019E+01 1.25483E+01 2.93183E-10 1.09128E-10
 -1      1048-6.93206E+01-7.45281E+01-7.19100E+01 1.13908E+01-1.03924E-11-1.85072E-11
 -1      1049-8.13792E+01-8.53789E+01-8.33624E+01 8.81485E+00-9.42114E-12 5.22270E-12
 -1      1050-6.10238E+01-6.25442E+01-6.17716E+01 5.85322E+00-7.37543E-12 4.19260E-12
 -1      1051-2.59399E+01-2.58075E+01-2.58685E+01 4.42369E+00 1.50802E-11 8.27311E-12
 -1      1052 4.37663E+01 3.96006E+01 4.16751E+01 1.10148E+01-9.00622E-11-1.65207E-10
 -1      1053-7.43495E+00-1.18566E+01-9.64386E+00 1.24159E+01-1.27258E-10-1.30976E-10
 -1      1054-3.65185E+01-4.17009E+01-3.91019E+01 1.25483E+01 3.86808E-10-6.72141E-12
 -1      1055-6.93206E+01-7.45281E+01-7.19100E+01 1.13908E+01 3.63700E-11-7.17646E-11
 -1      1056-8.13792E+01-8.53789E+01-8.33624E+01 8.81485E+00-5.06689E-11-1.94974E-11
 -1      1057-6.10238E+01-6.25442E+01-6.17716E+01 5.85322E+00-1.69184E-11-7.10227E-12
 -1      1058-2.59399E+01-2.58075E+01-2.58685E+01 4.42369E+00 1.44282E-12 3.85519E-12
 -1      1059 2.21607E+00 8.71522E+00 5.46455E+00 3.55604E+00 1.91776E-09-8.86345E-10
 -1      1060 1.81115E+01 2.82447E+01 2.31735E+01 5.30862E+00 1.17602E-09-1.04560E-09
 -1      1061 1.35615E+01 2.53316E+01 1.94427E+01 6.52972E+00 1.15857E-09-3.84816E-10
 -1      1062 5.09895E+00 1.74576E+01 1.12760E+01 7.45015E+00 6.00850E-10-6.23498E-10
 -1      1063-5.09752E+00 7.24174E+00 1.07189E+00 7.95103E+00 9.90790E-10 6.81370E-10
 -1      1064-9.03903E+00 2.63771E+00-3.20002E+00 7.80892E+00 1.38976E-09 1.37369E-09
 -1      1065 2.64320E+01 3.53568E+01 3.08882E+01 6.90183E+00 5.29523E-10 5.48305E-10
 -1      1066 2.21607E+00 8.71522E+00 5.46455E+00 3.55604E+00 3.10020E-09-7.29272E-10
 -1      1067 1.81115E+01 2.82447E+01 2.31735E+01 5.30862E+00 2.39318E-09-8.42173E-10
 -1      1068 1.35615E+01 2.53316E+01 1.94427E+01 6.52972E+00 2.37756E-09-2.29086E-10
 -1      1069 5.09895E+00 1.74576E+01 1.12760E+01 7.45015E+00 1.87617E-09-3.97160E-10
 -1      1070-5.09752E+00 7.24174E+00 1.07189E+00 7.95103E+00 2.00227E-09 5.21385E-10
 -1      1071-9.03903E+00 2.63771E+00-3.20002E+00 7.80892E+00 2.09965E-09 8.40216E-10
 -1      1072 2.64320E+01 3.53568E+01 3.08882E+01 6.90183E+00 1.10107E-09-6.12722E-11
 -1      1073-8.99009E+01-5.01844E+01-7.00286E+01-4.49385E+00 1.16761E-11 6.03143E-12
 -1      1074-1.58191E+02-1.42852E+02-1.50492E+02-5.73902E+00-4.66867E-12-5.41934E-11
 -1      1075-4.67984E+01-2.81637E+01-3.74736E+01-5.64474E+00-5.63566E-11-4.78369E-11
 -1      1076-7.30834E+01-5.61766E+01-6.46171E+01-5.42483E+00-1.80581E-10-7.91539E-11
 -1      1077-7.25750E+01-5.67550E+01-6.46521E+01-4.82615E+00 8.39165E-11-1.99817E-11
 -1      1078-6.06333E+01-4.73997E+01-5.40057E+01-3.81716E+00-3.14754E-10 2.26028E-11
 -1      1079-7.63514E+01-6.62410E+01-7.12819E+01-2.23141E+00 3.30148E-10-5.08133E-10
 -1      1080-8.99009E+01-5.01844E+01-7.00286E+01-4.49385E+00 1.61933E-11 2.00825E-11
 -1      1081-1.58191E+02-1.42852E+02-1.50492E+02-5.73902E+00 4.46406E-11-1.99852E-11
 -1      1082-4.67984E+01-2.81637E+01-3.74736E+01-5.64474E+00 2.35928E-11 7.25909E-12
 -1      1083-7.30834E+01-5.61766E+01-6.46171E+01-5.42483E+00-2.29395E-12 7.94491E-12
 -1      1084-7.25750E+01-5.67550E+01-6.46521E+01-4.82615E+00 3.17142E-10 1.25592E-10
 -1      1085-6.06333E+01-4.73997E+01-5.40057E+01-3.81716E+00-4.55690E-10 2.64378E-10
 -1      1086-7.63514E+01-6.62410E+01-7.12819E+01-2.23141E+00-3.21376E-10-1.88317E-10
 -1      1087-2.13029E+01-2.12898E+01-2.12921E+01 4.36305E+00-4.05911E-15 3.37470E-15
 -1      1088-1.08153E+01-1.08080E+01-1.08095E+01 3.31605E+00-5.75737E-16 8.89549E-16
 -1      1089 5.97385E-01 5.97804E-01 5.97475E-01 1.94175E+00-1.21382E-14 6.74448E-15
 -1      1090 3.20417E+00 3.20089E+00 3.20189E+00 5.56973E-01-1.21496E-15-1.98248E-17
 -1      1091-1.30537E+01-1.30538E+01-1.30511E+01-4.18007E-01 3.18730E-15-2.10874E-15
 -1      1092-5.86842E+01-5.86713E+01-5.86660E+01-3.85358E-01 1.77724E-15-9.66230E-16
 -1      1093-1.00205E+02-1.00187E+02-1.00176E+02 1.73410E+00 9.81830E-15-6.67397E-15
 -1      1094-2.13029E+01-2.12898E+01-2.12921E+01 4.36305E+00-3.06624E-15 3.36941E-15
 -1      1095-1.08153E+01-1.08080E+01-1.08095E+01 3.31605E+00-5.82545E-16 7.95515E-16
 -1      1096 5.97385E-01 5.97804E-01 5.97475E-01 1.94175E+00-8.38713E-15 7.38685E-15
 -1      1097 3.20417E+00 3.20089E+00 3.20189E+00 5.56973E-01 5.91524E-16 2.87744E-16
 -1      1098-1.30537E+01-1.30538E+01-1.30511E+01-4.18007E-01 4.98760E-15-2.07826E-15
 -1      1099-5.86842E+01-5.86713E+01-5.86660E+01-3.85358E-01 2.09895E-15-6.65391E-16
 -1      1100-1.00205E+02-1.00187E+02-1.00176E+02 1.73410E+00 1.04495E-14-1.75074E-15
 -1      1101 1.47874E+01 1.59650E+01 1.53731E+01 8.82413E+00 8.80505E-10 5.07208E-10
 -1      1102-3.38035E-01 4.34265E+00 2.00191E+00 7.39388E+00 5.62549E-10 4.33557E-10
 -1      1103-7.76542E+00-1.05310E+00-4.40838E+00 6.61671E+00 3.63682E-10 2.06420E-10
 -1      1104-1.23598E+01-4.89532E+00-8.62584E+00 5.85604E+00 3.43776E-10 2.14409E-10
 -1      1105-1.58124E+01-8.41731E+00-1.21124E+01 4.72209E+00 2.37543E-10 5.82058E-11
 -1      1106-1.86174E+01-1.15671E+01-1.50892E+01 2.94137E+00 1.64829E-10-1.31979E-10
 -1      1107-2.66680E+01-1.95911E+01-2.31249E+01 3.14220E-01 3.61403E-10-1.09519E-10
 -1      1108-1.09562E+01-1.17369E+01-1.13443E+01 1.01879E+01 4.44666E-10 2.94994E-11
 -1      1109-6.23822E+00-4.86061E+00-5.54830E+00 7.99097E+00 4.94184E-10 1.18069E-10
 -1      1110-1.42564E+01-1.04949E+01-1.23732E+01 6.07968E+00 2.55206E-10 2.23588E-11
 -1      1111-2.53753E+01-1.96201E+01-2.24932E+01 4.41899E+00 5.42320E-12-7.08450E-11
 -1      1112-3.51617E+01-2.78827E+01-3.15159E+01 2.70918E+00-1.89339E-10 4.25554E-11
 -1      1113-4.51420E+01-3.66436E+01-4.08847E+01 7.14078E-01-4.92229E-10-1.46638E-11
 -1      1114-4.96222E+01-3.96257E+01-4.46150E+01-1.73660E+00-5.27475E-10 5.53843E-11
 -1      1115-3.24066E+01-3.43199E+01-3.33565E+01 1.02780E+01 2.02582E-10 3.18559E-11
 -1      1116-2.68468E+01-2.73585E+01-2.70972E+01 8.02615E+00 5.23121E-11-1.10904E-11
 -1      1117-2.66133E+01-2.50661E+01-2.58345E+01 5.83647E+00 1.67124E-11 5.89165E-11
 -1      1118-3.20755E+01-2.81610E+01-3.01122E+01 3.73393E+00-9.63555E-11-1.13795E-10
 -1      1119-3.90145E+01-3.27277E+01-3.58639E+01 1.69777E+00-3.43412E-11-6.42941E-11
 -1      1120-4.44314E+01-3.55878E+01-4.00016E+01-4.88189E-01 2.68055E-11-2.20054E-11
 -1      1121-5.50695E+01-4.36490E+01-4.93494E+01-2.86174E+00 3.52315E-11-3.76075E-11
 -1      1122-4.34766E+01-4.72169E+01-4.53377E+01 9.73107E+00 2.89578E-11 1.32235E-11
 -1      1123-3.52845E+01-3.82979E+01-3.67838E+01 7.83329E+00 4.12195E-11 3.80275E-11
 -1      1124-3.37875E+01-3.47316E+01-3.42527E+01 5.79515E+00-6.06852E-11 4.07511E-12
 -1      1125-3.67713E+01-3.47590E+01-3.57580E+01 3.58199E+00-1.13152E-10-2.23060E-11
 -1      1126-4.52555E+01-4.00074E+01-4.26229E+01 1.25517E+00-6.32935E-11 7.78260E-12
 -1      1127-5.42781E+01-4.60616E+01-5.01598E+01-1.02683E+00-1.23840E-10 5.00450E-13
 -1      1128-5.26086E+01-4.05452E+01-4.65675E+01-3.56349E+00-1.99899E-10-1.71756E-11
 -1      1129-4.62954E+01-5.18538E+01-4.90648E+01 8.28640E+00-1.62250E-11 1.37810E-11
 -1      1130-3.38583E+01-3.99899E+01-3.69167E+01 7.21508E+00-6.39167E-12 4.54092E-11
 -1      1131-3.13035E+01-3.59287E+01-3.36094E+01 5.80618E+00-1.56746E-11 9.96381E-13
 -1      1132-3.34869E+01-3.47561E+01-3.41147E+01 4.01432E+00-6.25891E-12-9.65779E-14
 -1      1133-4.02809E+01-3.67480E+01-3.85068E+01 1.69630E+00-2.11039E-11 2.62907E-11
 -1      1134-5.72564E+01-4.85121E+01-5.28737E+01-1.13548E+00-9.55451E-12-3.72728E-11
 -1      1135-7.49698E+01-6.31670E+01-6.90546E+01-3.63773E+00 2.68305E-11 6.31200E-13
 -1      1136-4.19103E+01-4.73355E+01-4.46140E+01 6.33261E+00-1.95841E-11-1.45194E-12
 -1      1137-2.54551E+01-3.29060E+01-2.91747E+01 6.02675E+00-9.56174E-12 2.18644E-11
 -1      1138-1.74382E+01-2.49352E+01-2.11825E+01 5.30256E+00-1.93316E-11 1.39643E-11
 -1      1139-1.83064E+01-2.36229E+01-2.09605E+01 4.27920E+00-3.86788E-11-2.58938E-11
 -1      1140-2.29567E+01-2.36336E+01-2.32905E+01 2.81793E+00-1.74515E-11 1.46968E-11
 -1      1141-2.51334E+01-1.84985E+01-2.18116E+01 4.23572E-01-3.23046E-11-4.23567E-12
 -1      1142-5.19411E+01-3.59244E+01-4.39240E+01-3.63353E+00-1.11192E-11 4.57388E-12
 -1      1143-2.82921E+01-3.07526E+01-2.95164E+01 4.69487E+00 1.28761E-11-1.49225E-12
 -1      1144-1.75077E+01-2.23675E+01-1.99336E+01 4.60307E+00 2.27070E-11 1.29225E-11
 -1      1145-7.73349E+00-1.40114E+01-1.08703E+01 4.05894E+00 8.70584E-12 2.62307E-12
 -1      1146-8.65117E+00-1.47976E+01-1.17220E+01 3.23944E+00 9.46670E-13-7.57564E-12
 -1      1147-2.41816E+01-2.82625E+01-2.62168E+01 2.34144E+00 5.67738E-12 5.48708E-12
 -1      1148-4.59721E+01-4.52815E+01-4.56177E+01 1.37051E+00-1.20617E-12-2.75572E-12
 -1      1149-5.16665E+01-4.13993E+01-4.65235E+01-5.62884E-01 3.65053E-12-1.45793E-13
 -1      1150-2.82921E+01-3.07526E+01-2.95164E+01 4.69487E+00 7.81707E-12 2.72249E-12
 -1      1151-1.75077E+01-2.23675E+01-1.99336E+01 4.60307E+00 1.16735E-11 5.44105E-12
 -1      1152-7.73349E+00-1.40114E+01-1.08703E+01 4.05894E+00 8.72981E-12 2.90783E-13
 -1      1153-8.65117E+00-1.47976E+01-1.17220E+01 3.23944E+00 4.90096E-12-1.51468E-12
 -1      1154-2.41816E+01-2.82625E+01-2.62168E+01 2.34144E+00 2.81152E-12-4.59080E-12
 -1      1155-4.59721E+01-4.52815E+01-4.56177E+01 1.37051E+00 7.62975E-12 2.04695E-14
 -1      1156-5.16665E+01-4.13993E+01-4.65235E+01-5.62884E-01 9.87938E-12-2.56011E-12
 -1      1157-4.19103E+01-4.73355E+01-4.46140E+01 6.33261E+00-1.07718E-11 2.87777E-12
 -1      1158-2.54551E+01-3.29060E+01-2.91747E+01 6.02675E+00-1.36808E-11-2.50019E-12
 -1      1159-1.74382E+01-2.49352E+01-2.11825E+01 5.30256E+00-6.65625E-13 4.31700E-12
 -1      1160-1.83064E+01-2.36229E+01-2.09605E+01 4.27920E+00-3.75087E-12-1.35405E-11
 -1      1161-2.29567E+01-2.36336E+01-2.32905E+01 2.81793E+00-1.03777E-14-1.15879E-11
 -1      1162-2.51334E+01-1.84985E+01-2.18116E+01 4.23572E-01 8.26126E-12-2.16088E-12
 -1      1163-5.19411E+01-3.59244E+01-4.39240E+01-3.63353E+00 2.94145E-11 6.62192E-13
 -1      1164-4.62954E+01-5.18538E+01-4.90648E+01 8.28640E+00-2.70336E-11 1.07830E-11
 -1      1165-3.38583E+01-3.99899E+01-3.69167E+01 7.21508E+00-4.06437E-11-1.10972E-11
 -1      1166-3.13035E+01-3.59287E+01-3.36094E+01 5.80618E+00-5.66774E-12-2.52526E-11
 -1      1167-3.34869E+01-3.47561E+01-3.41147E+01 4.01432E+00 3.86368E-11 1.38716E-11
 -1      1168-4.02809E+01-3.67480E+01-3.85068E+01 1.69630E+00-3.24945E-12-2.28749E-11
 -1      1169-5.72564E+01-4.85121E+01-5.28737E+01-1.13548E+00 4.46200E-11-4.17733E-11
 -1      1170-7.49698E+01-6.31670E+01-6.90546E+01-3.63773E+00 8.74017E-11-1.07996E-11
 -1      1171-4.34766E+01-4.72169E+01-4.53377E+01 9.73107E+00 1.23872E-10-1.42201E-11
 -1      1172-3.52845E+01-3.82979E+01-3.67838E+01 7.83329E+00 1.02856E-10-7.14553E-11
 -1      1173-3.37875E+01-3.47316E+01-3.42527E+01 5.79515E+00 7.24042E-11-4.04385E-11
 -1      1174-3.67713E+01-3.47590E+01-3.57580E+01 3.58199E+00 5.95516E-11 8.48226E-13
 -1      1175-4.52555E+01-4.00074E+01-4.26229E+01 1.25517E+00 5.03045E-11-6.54407E-11
 -1      1176-5.42781E+01-4.60616E+01-5.01598E+01-1.02683E+00 2.91864E-11-1.34298E-11
 -1      1177-5.26086E+01-4.05452E+01-4.65675E+01-3.56349E+00-4.84886E-11-3.68818E-11
 -1      1178-3.24066E+01-3.43199E+01-3.33565E+01 1.02780E+01 3.70191E-10-5.07870E-11
 -1      1179-2.68468E+01-2.73585E+01-2.70972E+01 8.02615E+00 1.79945E-10-2.08410E-10
 -1      1180-2.66133E+01-2.50661E+01-2.58345E+01 5.83647E+00 2.78989E-10 7.09755E-12
 -1      1181-3.20755E+01-2.81610E+01-3.01122E+01 3.73393E+00 2.25647E-10-4.84509E-11
 -1      1182-3.90145E+01-3.27277E+01-3.58639E+01 1.69777E+00 1.79843E-10-1.38099E-10
 -1      1183-4.44314E+01-3.55878E+01-4.00016E+01-4.88189E-01 2.60361E-10-2.18944E-11
 -1      1184-5.50695E+01-4.36490E+01-4.93494E+01-2.86174E+00 2.47473E-10-3.89514E-11
 -1      1185-1.09562E+01-1.17369E+01-1.13443E+01 1.01879E+01 1.07885E-10-1.52366E-10
 -1      1186-6.23822E+00-4.86061E+00-5.54830E+00 7.99097E+00 9.59360E-11-2.15731E-10
 -1      1187-1.42564E+01-1.04949E+01-1.23732E+01 6.07968E+00 1.00324E-10-4.45839E-11
 -1      1188-2.53753E+01-1.96201E+01-2.24932E+01 4.41899E+00-2.53465E-11 5.50949E-11
 -1      1189-3.51617E+01-2.78827E+01-3.15159E+01 2.70918E+00-3.37649E-10 2.04353E-11
 -1      1190-4.51420E+01-3.66436E+01-4.08847E+01 7.14078E-01-6.36888E-10 4.17949E-11
 -1      1191-4.96222E+01-3.96257E+01-4.46150E+01-1.73660E+00-7.08525E-10 9.94100E-11
 -1      1192 1.47874E+01 1.59650E+01 1.53731E+01 8.82413E+00-1.45766E-10 1.62615E-10
 -1      1193-3.38035E-01 4.34265E+00 2.00191E+00 7.39388E+00-4.86013E-10-9.52283E-12
 -1      1194-7.76542E+00-1.05310E+00-4.40838E+00 6.61671E+00-4.21353E-10 8.03807E-11
 -1      1195-1.23598E+01-4.89532E+00-8.62584E+00 5.85604E+00-2.25445E-10 4.10716E-10
 -1      1196-1.58124E+01-8.41731E+00-1.21124E+01 4.72209E+00-4.47236E-10 1.08700E-10
 -1      1197-1.86174E+01-1.15671E+01-1.50892E+01 2.94137E+00-5.01728E-10 1.26489E-11
 -1      1198-2.66680E+01-1.95911E+01-2.31249E+01 3.14220E-01-3.55424E-10-1.55510E-11
 -1      1199 8.63546E+01 8.94846E+01 8.79020E+01 7.34043E+00 9.14256E-10 6.28266E-10
 -1      1200-1.44030E+01-1.43918E+01-1.43945E+01 4.92083E+00 1.08654E-14 2.09018E-12
 -1      1201-3.54052E+00-4.73909E+00-4.13898E+00 8.95352E+00 8.74021E-11 6.38422E-10
 -1      1202-4.70261E+00-8.51985E+00-6.60991E+00 1.18809E+01 6.62392E-10 8.40289E-11
 -1      1203-2.91453E+01-3.36297E+01-3.13812E+01 1.24209E+01 3.44355E-10 1.96512E-10
 -1      1204-4.26254E+01-4.71707E+01-4.48891E+01 1.18008E+01 4.53458E-11-1.72146E-12
 -1      1205-5.04543E+01-5.41862E+01-5.23098E+01 9.81026E+00 1.09354E-11 6.10454E-12
 -1      1206-5.38969E+01-5.60027E+01-5.49388E+01 7.17576E+00-8.69694E-12-2.84456E-13
 -1      1207-5.30870E+01-5.38584E+01-5.34620E+01 5.38867E+00 5.70396E-12 1.09522E-11
 -1      1208-3.88404E+01-3.91057E+01-3.89653E+01 5.26335E+00 3.20861E-12 2.64034E-12
 -1      1209-3.54052E+00-4.73909E+00-4.13898E+00 8.95352E+00-3.32130E-10 4.78851E-11
 -1      1210-4.70261E+00-8.51985E+00-6.60991E+00 1.18809E+01-1.85530E-10-2.71855E-10
 -1      1211-2.91453E+01-3.36297E+01-3.13812E+01 1.24209E+01 1.59646E-10 1.81834E-11
 -1      1212-4.26254E+01-4.71707E+01-4.48891E+01 1.18008E+01 1.15496E-10-8.62561E-11
 -1      1213-5.04543E+01-5.41862E+01-5.23098E+01 9.81026E+00 1.36959E-11-3.28878E-11
 -1      1214-5.38969E+01-5.60027E+01-5.49388E+01 7.17576E+00-3.41205E-11-1.83061E-11
 -1      1215-5.30870E+01-5.38584E+01-5.34620E+01 5.38867E+00-5.87980E-12 3.09323E-12
 -1      1216-3.88404E+01-3.91057E+01-3.89653E+01 5.26335E+00-3.60463E-12 4.32036E-13
 -1      1217-9.92173E+01-9.59946E+01-9.75864E+01 1.95294E+00 1.93560E-09-1.39181E-09
 -1      1218 1.33692E+01 1.73538E+01 1.53584E+01 2.38574E+00 2.05645E-09-1.30282E-09
 -1      1219 1.74423E+01 2.59775E+01 2.17056E+01 4.66980E+00 1.52649E-09-9.62907E-10
 -1      1220 1.86441E+01 2.96810E+01 2.41578E+01 6.02261E+00 1.11567E-09-6.95917E-10
 -1      1221 1.66572E+01 2.88561E+01 2.27521E+01 7.06691E+00 9.49803E-10-5.12551E-10
 -1      1222 1.14482E+01 2.40290E+01 1.77350E+01 7.77527E+00 7.30096E-10 2.98236E-11
 -1      1223 3.53141E+00 1.59497E+01 9.73859E+00 7.97041E+00 1.16097E-09 1.04036E-09
 -1      1224-5.13050E+00 6.06817E+00 4.68742E-01 7.48224E+00 1.01698E-09 9.41691E-10
 -1      1225-6.13713E+00-1.21735E+00-3.67651E+00 7.05795E+00 5.50348E-10 7.46293E-10
 -1      1226 1.33692E+01 1.73538E+01 1.53584E+01 2.38574E+00 3.26777E-09-1.05377E-09
 -1      1227 1.74423E+01 2.59775E+01 2.17056E+01 4.66980E+00 2.72582E-09-7.82526E-10
 -1      1228 1.86441E+01 2.96810E+01 2.41578E+01 6.02261E+00 2.33325E-09-5.16312E-10
 -1      1229 1.66572E+01 2.88561E+01 2.27521E+01 7.06691E+00 2.19669E-09-3.21620E-10
 -1      1230 1.14482E+01 2.40290E+01 1.77350E+01 7.77527E+00 1.87314E-09 6.31185E-11
 -1      1231 3.53141E+00 1.59497E+01 9.73859E+00 7.97041E+00 2.02115E-09 6.93338E-10
 -1      1232-5.13050E+00 6.06817E+00 4.68742E-01 7.48224E+00 1.65733E-09 3.70051E-10
 -1      1233-6.13713E+00-1.21735E+00-3.67651E+00 7.05795E+00 1.03301E-09 8.63387E-11
 -1      1234 1.69569E+01 1.69287E+01 1.69394E+01 8.71529E+00-3.21288E-15 2.06760E-12
 -1      1235-1.81843E+02-1.60555E+02-1.71165E+02 3.70410E+00 1.84327E-12-5.36047E-13
 -1      1236-6.91700E+00 1.93492E+01 6.21485E+00-6.95049E+00 9.34997E-12-5.19689E-12
 -1      1237-8.02753E+01-6.29554E+01-7.16010E+01-5.19708E+00-4.25567E-11-8.65688E-11
 -1      1238-5.59527E+01-3.82219E+01-4.70779E+01-5.49094E+00-9.38012E-11-2.00655E-11
 -1      1239-5.76495E+01-4.12484E+01-4.94391E+01-5.01948E+00-1.20868E-10-1.18851E-10
 -1      1240-5.16289E+01-3.70929E+01-4.43520E+01-4.28942E+00-1.36551E-10 7.07007E-11
 -1      1241-4.75278E+01-3.57564E+01-4.16338E+01-3.16632E+00 9.54140E-11-1.74874E-10
 -1      1242 6.46507E+00 1.25511E+01 9.50616E+00-4.63090E-01 5.84362E-10-1.01915E-09
 -1      1243-1.81843E+02-1.60555E+02-1.71165E+02 3.70410E+00 3.98935E-12 6.56489E-12
 -1      1244-6.91700E+00 1.93492E+01 6.21485E+00-6.95049E+00 3.60334E-11 1.92207E-11
 -1      1245-8.02753E+01-6.29554E+01-7.16010E+01-5.19708E+00 2.19696E-11-4.17132E-11
 -1      1246-5.59527E+01-3.82219E+01-4.70779E+01-5.49094E+00 3.51924E-11 5.12369E-11
 -1      1247-5.76495E+01-4.12484E+01-4.94391E+01-5.01948E+00 8.46948E-11-2.24804E-12
 -1      1248-5.16289E+01-3.70929E+01-4.43520E+01-4.28942E+00-9.04569E-11 2.64221E-10
 -1      1249-4.75278E+01-3.57564E+01-4.16338E+01-3.16632E+00-3.01096E-10 1.05892E-10
 -1      1250 6.46507E+00 1.25511E+01 9.50616E+00-4.63090E-01 8.78408E-10-6.88589E-10
 -1      1251 2.89358E+01 2.89292E+01 2.89268E+01 4.71308E+00-1.41622E-14 1.29110E-14
 -1      1252 3.88096E+01 3.87981E+01 3.87961E+01 3.90315E+00 8.32381E-15-5.24642E-15
 -1      1253 5.23324E+01 5.23132E+01 5.23123E+01 2.65938E+00-6.77839E-15 6.72344E-15
 -1      1254 6.22680E+01 6.22424E+01 6.22427E+01 1.23528E+00-9.62455E-15 7.64201E-15
 -1      1255 6.32135E+01 6.31848E+01 6.31866E+01-7.89972E-04 1.20341E-14-6.53593E-15
 -1      1256 4.95958E+01 4.95690E+01 4.95725E+01-5.56374E-01-3.55328E-15 1.00109E-15
 -1      1257 2.76114E+01 2.75874E+01 2.75939E+01 3.50402E-01 5.08936E-15-1.38634E-15
 -1      1258 1.97854E+01 1.97509E+01 1.97642E+01 4.39356E+00 8.49421E-15-2.44484E-15
 -1      1259 2.89358E+01 2.89292E+01 2.89268E+01 4.71308E+00-1.58036E-14 1.31355E-14
 -1      1260 3.88096E+01 3.87981E+01 3.87961E+01 3.90315E+00 4.81869E-15-5.36088E-15
 -1      1261 5.23324E+01 5.23132E+01 5.23123E+01 2.65938E+00-1.13337E-14 6.77301E-15
 -1      1262 6.22680E+01 6.22424E+01 6.22427E+01 1.23528E+00-1.25973E-14 7.19929E-15
 -1      1263 6.32135E+01 6.31848E+01 6.31866E+01-7.89972E-04 1.01487E-14-6.81314E-15
 -1      1264 4.95958E+01 4.95690E+01 4.95725E+01-5.56374E-01-3.16712E-15 1.14405E-15
 -1      1265 2.76114E+01 2.75874E+01 2.75939E+01 3.50402E-01 8.90852E-15-5.36684E-15
 -1      1266 1.97854E+01 1.97509E+01 1.97642E+01 4.39356E+00 1.15308E-14-4.06264E-15
 -1      1267 4.37671E+01 3.96015E+01 4.16759E+01 1.10156E+01 5.62874E-10 3.72471E-11
 -1      1268-7.43419E+00-1.18560E+01-9.64316E+00 1.24169E+01 8.16426E-11-1.85794E-11
 -1      1269-3.65179E+01-4.17004E+01-3.91013E+01 1.25494E+01 2.72329E-10 1.25035E-10
 -1      1270-6.93202E+01-7.45279E+01-7.19097E+01 1.13917E+01 1.62002E-11-3.16489E-11
 -1      1271-8.13789E+01-8.53789E+01-8.33623E+01 8.81559E+00-2.75237E-11-9.85621E-12
 -1      1272-6.10236E+01-6.25443E+01-6.17716E+01 5.85378E+00-9.83046E-12-4.78194E-12
 -1      1273-2.59397E+01-2.58074E+01-2.58684E+01 4.42417E+00 6.27016E-12 6.58478E-12
 -1      1274 2.21565E+00 8.71539E+00 5.46443E+00 3.55621E+00 2.28384E-09-6.22932E-10
 -1      1275 1.81114E+01 2.82453E+01 2.31737E+01 5.30899E+00 1.97122E-09-9.79859E-10
 -1      1276 1.35615E+01 2.53324E+01 1.94430E+01 6.53023E+00 1.81661E-09-3.18149E-10
 -1      1277 5.09891E+00 1.74584E+01 1.12764E+01 7.45075E+00 1.05703E-09-4.35085E-10
 -1      1278-5.09753E+00 7.24257E+00 1.07231E+00 7.95168E+00 1.30219E-09 8.12470E-10
 -1      1279-9.03888E+00 2.63853E+00-3.19953E+00 7.80959E+00 1.87770E-09 1.10875E-09
 -1      1280 2.64326E+01 3.53577E+01 3.08890E+01 6.90255E+00 9.70721E-10 1.43819E-10
 -1      1281-8.99033E+01-5.01854E+01-7.00303E+01-4.49401E+00 1.57620E-11 8.26287E-12
 -1      1282-1.58194E+02-1.42853E+02-1.50493E+02-5.73943E+00 3.67756E-12-3.07344E-11
 -1      1283-4.68001E+01-2.81641E+01-3.74746E+01-5.64518E+00 1.54609E-12-2.37404E-11
 -1      1284-7.30851E+01-5.61772E+01-6.46182E+01-5.42524E+00-8.88597E-11-1.74254E-11
 -1      1285-7.25767E+01-5.67555E+01-6.46531E+01-4.82651E+00 2.78881E-10 5.21070E-11
 -1      1286-6.06347E+01-4.74001E+01-5.40066E+01-3.81743E+00-3.46875E-10 6.68701E-11
 -1      1287-7.63522E+01-6.62412E+01-7.12825E+01-2.23150E+00-2.51178E-10-3.49806E-10
 -1      1288-2.13025E+01-2.12895E+01-2.12918E+01 4.36351E+00 3.27177E-15 4.30715E-13
 -1      1289-1.08148E+01-1.08077E+01-1.08091E+01 3.31646E+00 9.33443E-16 1.19288E-12
 -1      1290 5.97933E-01 5.98086E-01 5.97890E-01 1.94206E+00 5.92944E-15 1.67517E-13
 -1      1291 3.20454E+00 3.20101E+00 3.20213E+00 5.57152E-01-1.20719E-16-1.09442E-12
 -1      1292-1.30539E+01-1.30542E+01-1.30514E+01-4.17948E-01-2.52548E-15 1.82364E-13
 -1      1293-5.86854E+01-5.86724E+01-5.86672E+01-3.85370E-01-8.07776E-16-1.67888E-13
 -1      1294-1.00206E+02-1.00188E+02-1.00177E+02 1.73412E+00-1.72430E-15 6.29318E-13
 -1      1295 1.30496E+01 1.20279E+01 1.25362E+01 9.96079E+00 1.02356E-09 4.07519E-10
 -1      1296 1.06375E+01 1.47444E+01 1.26884E+01 7.70406E+00 1.07420E-10 7.96424E-10
 -1      1297 7.33734E+00 1.00094E+01 8.67164E+00 8.11987E+00 6.62325E-10 4.59831E-10
 -1      1298 1.01805E+01 1.75348E+01 1.38548E+01 7.44466E+00 6.88633E-11 7.60332E-10
 -1      1299 6.52634E+00 1.22517E+01 9.38715E+00 7.04595E+00 4.64494E-10 3.27310E-10
 -1      1300-2.59388E+00 6.65274E+00 2.02902E+00 7.18686E+00-1.15747E-10 4.31610E-10
 -1      1301 8.34817E+00 1.55822E+01 1.19628E+01 6.30560E+00 3.58236E-10 2.09683E-10
 -1      1302-1.28671E+01-3.01343E+00-7.93869E+00 6.62260E+00-7.72507E-11 1.19154E-10
 -1      1303 1.04867E+01 1.80741E+01 1.42775E+01 5.38335E+00 2.83096E-10 1.30359E-10
 -1      1304-2.05060E+01-1.10391E+01-1.57694E+01 5.64096E+00-1.02198E-11-1.31941E-10
 -1      1305 1.16765E+01 1.90333E+01 1.53518E+01 3.95373E+00 1.96303E-10-2.88796E-11
 -1      1306-2.61258E+01-1.78947E+01-2.20059E+01 4.11438E+00 2.54975E-11-4.64937E-10
 -1      1307 1.12602E+01 1.83842E+01 1.48192E+01 1.76649E+00 2.32391E-10-1.19070E-10
 -1      1308-2.96501E+01-2.34800E+01-2.65597E+01 1.79476E+00 4.99143E-10-4.39939E-10
 -1      1309 8.65033E+00 1.64423E+01 1.25438E+01-1.34537E+00 3.98945E-10-2.92970E-10
 -1      1310 2.68687E+01 2.52963E+01 2.60773E+01 1.13777E+01 4.12016E-10 6.94677E-11
 -1      1311-3.05257E+00-2.66484E+00-2.85813E+00 9.62104E+00 5.51131E-10 1.32018E-10
 -1      1312 1.87133E+01 1.88186E+01 1.87622E+01 9.10965E+00 4.89910E-10 6.34219E-11
 -1      1313-1.32953E+00 1.47968E+00 7.50606E-02 7.78471E+00 5.07151E-10 2.62778E-10
 -1      1314 1.31851E+01 1.55478E+01 1.43636E+01 7.05574E+00 3.90416E-10 7.88399E-11
 -1      1315-5.57009E+00-6.75055E-01-3.12195E+00 6.41354E+00 2.59353E-10 4.80532E-11
 -1      1316 9.70291E+00 1.43588E+01 1.20284E+01 5.28611E+00 1.31893E-10-2.55205E-11
 -1      1317-1.45810E+01-8.22860E+00-1.14025E+01 5.14500E+00 1.54780E-10 3.39491E-11
 -1      1318 8.16183E+00 1.46746E+01 1.14159E+01 3.62568E+00-6.84361E-11-9.73944E-12
 -1      1319-2.38814E+01-1.66815E+01-2.02774E+01 3.62851E+00 8.35457E-11 1.28608E-10
 -1      1320 7.76519E+00 1.56579E+01 1.17092E+01 1.78599E+00-3.54590E-10 2.00753E-11
 -1      1321-3.33130E+01-2.55755E+01-2.94383E+01 1.64014E+00-8.91353E-11 9.83539E-12
 -1      1322 7.85745E+00 1.70947E+01 1.24736E+01-4.31536E-01-5.43544E-10 2.06396E-11
 -1      1323-4.11658E+01-3.25635E+01-3.68573E+01-9.35387E-01 1.06475E-11 6.41993E-11
 -1      1324 8.72786E+00 1.97019E+01 1.42120E+01-3.09769E+00-4.53305E-10 4.90147E-11
 -1      1325 4.01221E+01 3.77741E+01 3.89403E+01 1.14889E+01 2.63612E-10 7.40472E-11
 -1      1326-2.58668E+01-2.69403E+01-2.63982E+01 1.02206E+01 3.05206E-10 5.40815E-11
 -1      1327 3.10574E+01 2.97139E+01 3.03795E+01 9.17598E+00 1.32198E-10 5.42345E-12
 -1      1328-2.15493E+01-2.09780E+01-2.12594E+01 7.99188E+00 2.13738E-10 1.81788E-11
 -1      1329 2.38748E+01 2.42413E+01 2.40533E+01 6.96071E+00 2.45667E-11 2.73515E-11
 -1      1330-2.16249E+01-1.89904E+01-2.03036E+01 5.92914E+00 1.16900E-10 5.99066E-11
 -1      1331 1.82126E+01 2.07652E+01 1.94850E+01 4.81558E+00-4.53285E-11-3.07667E-11
 -1      1332-2.50766E+01-2.03305E+01-2.26990E+01 4.05152E+00-9.47082E-11-1.16848E-10
 -1      1333 1.41944E+01 1.91395E+01 1.66636E+01 2.74800E+00-6.69795E-11-8.44212E-11
 -1      1334-3.25890E+01-2.58986E+01-2.92380E+01 2.20251E+00-1.85526E-10-6.70117E-11
 -1      1335 1.12338E+01 1.87324E+01 1.49801E+01 6.56166E-01 3.65187E-13-3.86196E-11
 -1      1336-3.99764E+01-3.13537E+01-3.56579E+01 1.38037E-01-3.12368E-10-7.27624E-11
 -1      1337 8.88665E+00 1.89291E+01 1.39051E+01-1.62549E+00 3.61208E-11-2.83339E-11
 -1      1338-5.03832E+01-3.96843E+01-4.50247E+01-2.25380E+00-3.11079E-10-1.78991E-11
 -1      1339 6.89244E+00 1.99021E+01 1.33946E+01-4.14568E+00 5.39268E-11-1.91853E-11
 -1      1340 4.88785E+01 4.55528E+01 4.72062E+01 1.05964E+01 1.27867E-11-1.15845E-12
 -1      1341-4.80238E+01-5.03613E+01-4.91827E+01 9.96670E+00 5.02916E-11 1.12257E-11
 -1      1342 4.18505E+01 3.83708E+01 4.01026E+01 8.78135E+00 3.43695E-11 2.17675E-11
 -1      1343-4.00243E+01-4.15216E+01-4.07648E+01 7.96561E+00-1.35641E-11 1.06338E-11
 -1      1344 3.40777E+01 3.20261E+01 3.30453E+01 6.83557E+00 8.35725E-12 2.42498E-11
 -1      1345-3.69812E+01-3.65898E+01-3.67781E+01 5.86727E+00-7.88695E-11 3.21209E-11
 -1      1346 2.65341E+01 2.69875E+01 2.67554E+01 4.73215E+00-1.11736E-10-1.21133E-11
 -1      1347-3.68896E+01-3.39529E+01-3.54142E+01 3.67589E+00-1.68072E-10-7.95810E-11
 -1      1348 2.01222E+01 2.36081E+01 2.18608E+01 2.46971E+00-8.09702E-11-3.90665E-12
 -1      1349-3.87670E+01-3.30195E+01-3.58861E+01 1.46185E+00-1.02954E-10-2.54191E-11
 -1      1350 1.53822E+01 2.18854E+01 1.86300E+01 1.37666E-01-7.58126E-11 8.29720E-12
 -1      1351-4.73039E+01-3.87955E+01-4.30411E+01-7.47225E-01-8.06631E-11 2.96265E-11
 -1      1352 1.10041E+01 2.10714E+01 1.60346E+01-2.24772E+00-1.72863E-10-6.95497E-12
 -1      1353-5.23543E+01-4.06110E+01-4.64733E+01-3.16061E+00-1.30958E-10-3.11014E-11
 -1      1354 6.77825E+00 2.05891E+01 1.36809E+01-4.81761E+00-2.02611E-10-4.19067E-11
 -1      1355 5.14831E+01 4.74405E+01 4.94519E+01 8.53724E+00-1.33910E-11 9.70953E-12
 -1      1356-6.12412E+01-6.51876E+01-6.32018E+01 8.82066E+00 2.46378E-11 2.23437E-11
 -1      1357 5.14855E+01 4.56497E+01 4.85579E+01 7.71922E+00-1.21948E-11 2.78323E-11
 -1      1358-5.31416E+01-5.72360E+01-5.51777E+01 7.47953E+00 4.18611E-11 5.81394E-11
 -1      1359 4.67668E+01 4.13880E+01 4.40686E+01 6.49484E+00-2.01792E-11 2.54727E-11
 -1      1360-4.94702E+01-5.19805E+01-5.07152E+01 5.89926E+00-3.82193E-11-1.10022E-11
 -1      1361 3.88931E+01 3.59829E+01 3.74305E+01 4.92813E+00 3.24771E-12-2.08565E-12
 -1      1362-4.92583E+01-4.88259E+01-4.90323E+01 3.98000E+00-3.58660E-11 1.25439E-11
 -1      1363 2.93610E+01 3.05547E+01 2.99519E+01 2.92819E+00-1.79749E-11 1.61773E-11
 -1      1364-5.03212E+01-4.60493E+01-4.81756E+01 1.61811E+00-2.64441E-11 2.44846E-11
 -1      1365 1.99727E+01 2.60740E+01 2.30187E+01 3.93823E-01-2.72361E-11-2.70832E-12
 -1      1366-4.66454E+01-3.81831E+01-4.24058E+01-1.04897E+00-7.11652E-11-4.58807E-11
 -1      1367 1.34047E+01 2.32441E+01 1.83207E+01-2.40390E+00 2.94282E-11-1.65102E-11
 -1      1368-6.04558E+01-4.85190E+01-5.44765E+01-3.53326E+00-8.04830E-11-7.85041E-12
 -1      1369 6.76650E+00 2.13580E+01 1.40594E+01-5.02527E+00-1.01262E-11-1.85229E-11
 -1      1370 4.56446E+01 4.23420E+01 4.39845E+01 6.09078E+00-1.26800E-11 1.75572E-12
 -1      1371-6.20496E+01-6.69430E+01-6.44834E+01 7.02967E+00-1.65365E-11 3.21935E-12
 -1      1372 5.62470E+01 4.99392E+01 5.30825E+01 6.15443E+00-1.59171E-11 9.30487E-12
 -1      1373-5.79885E+01-6.42389E+01-6.11015E+01 6.38100E+00-9.50056E-12 2.76341E-11
 -1      1374 5.98088E+01 5.23743E+01 5.60803E+01 5.62170E+00-1.43390E-11 1.93933E-11
 -1      1375-5.59000E+01-6.14980E+01-5.86873E+01 5.46437E+00-8.19704E-12 1.61892E-11
 -1      1376 5.67570E+01 5.04019E+01 5.35688E+01 4.75076E+00-3.04492E-11-7.33598E-12
 -1      1377-5.67238E+01-5.96743E+01-5.81874E+01 4.27798E+00-2.71468E-11-2.51683E-11
 -1      1378 4.77602E+01 4.49048E+01 4.63232E+01 3.54942E+00-2.48210E-11-3.97980E-12
 -1      1379-6.10169E+01-5.94758E+01-6.02343E+01 2.59887E+00-1.74662E-11 2.08103E-11
 -1      1380 3.40546E+01 3.73411E+01 3.56907E+01 1.74809E+00-2.58136E-11 7.21023E-12
 -1      1381-6.79937E+01-6.05899E+01-6.42789E+01-3.70826E-02-1.38396E-11-1.16953E-11
 -1      1382 1.83324E+01 2.99980E+01 2.41604E+01-1.26681E+00-2.38106E-11 1.44166E-12
 -1      1383-4.22467E+01-2.82943E+01-3.52634E+01-3.63049E+00 1.23101E-11 6.30702E-12
 -1      1384 1.11953E+01 2.54366E+01 1.83122E+01-5.09554E+00-6.18934E-12-2.19085E-11
 -1      1385 3.31072E+01 3.18696E+01 3.24819E+01 4.61090E+00 1.48532E-11 3.40552E-12
 -1      1386-5.03146E+01-5.41666E+01-5.22301E+01 5.48632E+00-5.60359E-12-1.22953E-12
 -1      1387 4.80804E+01 4.44892E+01 4.62756E+01 4.68100E+00 1.84341E-11 5.31618E-12
 -1      1388-5.45003E+01-6.03653E+01-5.74213E+01 5.05401E+00 7.72552E-12 2.18308E-11
 -1      1389 6.06985E+01 5.51391E+01 5.79072E+01 4.32567E+00 1.56448E-11 8.29970E-12
 -1      1390-5.66173E+01-6.31282E+01-5.98608E+01 4.33986E+00-8.06910E-12 7.14631E-12
 -1      1391 6.77055E+01 6.14953E+01 6.45875E+01 3.60793E+00 4.75456E-12-2.93010E-12
 -1      1392-5.92689E+01-6.45690E+01-6.19066E+01 3.53300E+00-1.93448E-11-1.50805E-11
 -1      1393 6.65658E+01 6.14883E+01 6.40142E+01 2.71941E+00 3.27600E-12-3.46758E-13
 -1      1394-6.38051E+01-6.57272E+01-6.47532E+01 2.68332E+00-7.46411E-12 1.00628E-11
 -1      1395 5.54673E+01 5.39216E+01 5.46835E+01 1.78643E+00 2.72116E-12 2.20889E-12
 -1      1396-7.34372E+01-6.94581E+01-7.14334E+01 1.51983E+00-1.83430E-11-3.53044E-12
 -1      1397 3.42700E+01 4.03635E+01 3.73092E+01 5.52130E-01 5.97391E-13-7.25391E-13
 -1      1398-1.14031E+02-1.01718E+02-1.07853E+02-1.40301E+00-5.92236E-12 8.48553E-13
 -1      1399 2.06475E-01 2.41485E+01 1.21751E+01-3.21175E+00 9.58381E-12 4.19073E-12
 -1      1400-3.66354E+01-3.81414E+01-3.73809E+01 5.23772E+00 3.31656E-12-8.39633E-13
 -1      1401-4.14355E+01-4.40345E+01-4.27265E+01 4.64167E+00 6.50710E-12 4.13003E-12
 -1      1402-4.71451E+01-5.02984E+01-4.87121E+01 3.47484E+00 8.22054E-13 9.24818E-13
 -1      1403-5.39072E+01-5.68259E+01-5.53554E+01 2.01256E+00-1.82120E-12-2.68326E-12
 -1      1404-6.06280E+01-6.23096E+01-6.14565E+01 6.32489E-01-3.52560E-13 2.49536E-12
 -1      1405-6.53345E+01-6.43085E+01-6.48085E+01-2.09803E-01-3.54688E-12-1.18454E-12
 -1      1406-5.91552E+01-5.26494E+01-5.58911E+01 1.00271E-01-9.53665E-13 1.09964E-13
 -1      1407 3.31072E+01 3.18696E+01 3.24819E+01 4.61090E+00 5.49446E-12 3.30414E-12
 -1      1408-3.66354E+01-3.81414E+01-3.73809E+01 5.23772E+00 7.89423E-13 1.26709E-12
 -1      1409 4.80804E+01 4.44892E+01 4.62756E+01 4.68100E+00 1.03908E-11 3.68091E-12
 -1      1410-4.14355E+01-4.40345E+01-4.27265E+01 4.64167E+00 1.00049E-12 3.88339E-13
 -1      1411 6.06985E+01 5.51391E+01 5.79072E+01 4.32567E+00 1.01473E-11 3.39062E-12
 -1      1412-4.71451E+01-5.02984E+01-4.87121E+01 3.47484E+00 8.31675E-13-2.42077E-13
 -1      1413 6.77055E+01 6.14953E+01 6.45875E+01 3.60793E+00 6.73596E-12-1.06929E-12
 -1      1414-5.39072E+01-5.68259E+01-5.53554E+01 2.01256E+00 1.57381E-13 3.45645E-13
 -1      1415 6.65658E+01 6.14883E+01 6.40142E+01 2.71941E+00 3.81307E-12-2.36004E-12
 -1      1416-6.06280E+01-6.23096E+01-6.14565E+01 6.32489E-01-1.78941E-12-2.54436E-12
 -1      1417 5.54673E+01 5.39216E+01 5.46835E+01 1.78643E+00 5.69299E-12-1.43596E-12
 -1      1418-6.53345E+01-6.43085E+01-6.48085E+01-2.09803E-01 8.65055E-13 2.15480E-13
 -1      1419 3.42700E+01 4.03635E+01 3.73092E+01 5.52130E-01 8.11636E-12-5.39085E-13
 -1      1420-5.91552E+01-5.26494E+01-5.58911E+01 1.00271E-01 2.19177E-12-1.12023E-12
 -1      1421 2.06475E-01 2.41485E+01 1.21751E+01-3.21175E+00 1.49448E-11 9.98768E-12
 -1      1422 4.56446E+01 4.23420E+01 4.39845E+01 6.09078E+00-1.30600E-11-1.72423E-12
 -1      1423-5.03146E+01-5.41666E+01-5.22301E+01 5.48632E+00-3.72658E-12 3.03805E-12
 -1      1424 5.62470E+01 4.99392E+01 5.30825E+01 6.15443E+00-1.35745E-11-7.15486E-13
 -1      1425-5.45003E+01-6.03653E+01-5.74213E+01 5.05401E+00 1.51569E-13 5.90173E-12
 -1      1426 5.98088E+01 5.23743E+01 5.60803E+01 5.62170E+00-7.06435E-12 2.38534E-12
 -1      1427-5.66173E+01-6.31282E+01-5.98608E+01 4.33986E+00 1.26402E-12 1.15602E-12
 -1      1428 5.67570E+01 5.04019E+01 5.35688E+01 4.75076E+00-3.67436E-12-6.00247E-12
 -1      1429-5.92689E+01-6.45690E+01-6.19066E+01 3.53300E+00 6.38514E-14-5.89265E-12
 -1      1430 4.77602E+01 4.49048E+01 4.63232E+01 3.54942E+00 1.34905E-12-1.09582E-11
 -1      1431-6.38051E+01-6.57272E+01-6.47532E+01 2.68332E+00-1.81572E-13-8.11743E-12
 -1      1432 3.40546E+01 3.73411E+01 3.56907E+01 1.74809E+00 3.17618E-12-4.85844E-12
 -1      1433-7.34372E+01-6.94581E+01-7.14334E+01 1.51983E+00 6.34388E-12-1.06831E-12
 -1      1434 1.83324E+01 2.99980E+01 2.41604E+01-1.26681E+00 1.66914E-11 6.50557E-13
 -1      1435-1.14031E+02-1.01718E+02-1.07853E+02-1.40301E+00 1.74627E-11-2.29647E-12
 -1      1436 1.11953E+01 2.54366E+01 1.83122E+01-5.09554E+00 3.86742E-11-6.64591E-12
 -1      1437 5.14831E+01 4.74405E+01 4.94519E+01 8.53724E+00-3.94381E-11-4.16393E-12
 -1      1438-6.20496E+01-6.69430E+01-6.44834E+01 7.02967E+00-1.75461E-11 3.88469E-12
 -1      1439 5.14855E+01 4.56497E+01 4.85579E+01 7.71922E+00-3.47651E-11-1.92531E-12
 -1      1440-5.79885E+01-6.42389E+01-6.11015E+01 6.38100E+00-2.87284E-11-1.28098E-11
 -1      1441 4.67668E+01 4.13880E+01 4.40686E+01 6.49484E+00-3.23567E-11-1.59307E-11
 -1      1442-5.59000E+01-6.14980E+01-5.86873E+01 5.46437E+00 6.10831E-12-1.77617E-12
 -1      1443 3.88931E+01 3.59829E+01 3.74305E+01 4.92813E+00 3.06700E-11-8.24975E-12
 -1      1444-5.67238E+01-5.96743E+01-5.81874E+01 4.27798E+00 1.27094E-11-1.20239E-11
 -1      1445 2.93610E+01 3.05547E+01 2.99519E+01 2.92819E+00 1.33678E-11-1.46902E-12
 -1      1446-6.10169E+01-5.94758E+01-6.02343E+01 2.59887E+00 1.52630E-13-1.69277E-11
 -1      1447 1.99727E+01 2.60740E+01 2.30187E+01 3.93823E-01 8.74934E-12-2.95747E-11
 -1      1448-6.79937E+01-6.05899E+01-6.42789E+01-3.70826E-02 3.35183E-11-1.29101E-11
 -1      1449 1.34047E+01 2.32441E+01 1.83207E+01-2.40390E+00 8.67854E-11-2.45885E-11
 -1      1450-4.22467E+01-2.82943E+01-3.52634E+01-3.63049E+00 6.28140E-11-1.34889E-12
 -1      1451 6.76650E+00 2.13580E+01 1.40594E+01-5.02527E+00 6.01508E-11 3.09743E-12
 -1      1452 4.88785E+01 4.55528E+01 4.72062E+01 1.05964E+01 8.36564E-11-4.14839E-11
 -1      1453-6.12412E+01-6.51876E+01-6.32018E+01 8.82066E+00 6.66856E-11 7.13321E-12
 -1      1454 4.18505E+01 3.83708E+01 4.01026E+01 8.78135E+00 1.12702E-10-4.67086E-11
 -1      1455-5.31416E+01-5.72360E+01-5.51777E+01 7.47953E+00 5.55543E-11-2.48607E-11
 -1      1456 3.40777E+01 3.20261E+01 3.30453E+01 6.83557E+00 1.05790E-10-5.27386E-11
 -1      1457-4.94702E+01-5.19805E+01-5.07152E+01 5.89926E+00 3.33198E-11-4.63835E-11
 -1      1458 2.65341E+01 2.69875E+01 2.67554E+01 4.73215E+00 4.12508E-11-2.27667E-11
 -1      1459-4.92583E+01-4.88259E+01-4.90323E+01 3.98000E+00 7.29252E-11 3.11325E-11
 -1      1460 2.01222E+01 2.36081E+01 2.18608E+01 2.46971E+00 6.22780E-11-2.90827E-11
 -1      1461-5.03212E+01-4.60493E+01-4.81756E+01 1.61811E+00 3.92907E-11-3.67658E-11
 -1      1462 1.53822E+01 2.18854E+01 1.86300E+01 1.37666E-01 5.75607E-11-3.53242E-11
 -1      1463-4.66454E+01-3.81831E+01-4.24058E+01-1.04897E+00 3.24236E-11-5.51278E-11
 -1      1464 1.10041E+01 2.10714E+01 1.60346E+01-2.24772E+00-2.06442E-11-2.36055E-11
 -1      1465-6.04558E+01-4.85190E+01-5.44765E+01-3.53326E+00 2.54963E-11-2.31843E-11
 -1      1466 6.77825E+00 2.05891E+01 1.36809E+01-4.81761E+00-3.78377E-11-7.57680E-12
 -1      1467 4.01221E+01 3.77741E+01 3.89403E+01 1.14889E+01 3.94148E-10-2.51978E-11
 -1      1468-4.80238E+01-5.03613E+01-4.91827E+01 9.96670E+00 1.81499E-10-4.38144E-11
 -1      1469 3.10574E+01 2.97139E+01 3.03795E+01 9.17598E+00 2.79744E-10-1.34603E-10
 -1      1470-4.00243E+01-4.15216E+01-4.07648E+01 7.96561E+00 8.10007E-11-1.42769E-10
 -1      1471 2.38748E+01 2.42413E+01 2.40533E+01 6.96071E+00 2.19458E-10-9.71500E-11
 -1      1472-3.69812E+01-3.65898E+01-3.67781E+01 5.86727E+00 1.18796E-10-1.59867E-11
 -1      1473 1.82126E+01 2.07652E+01 1.94850E+01 4.81558E+00 2.46742E-10-2.41322E-11
 -1      1474-3.68896E+01-3.39529E+01-3.54142E+01 3.67589E+00 7.92808E-11-3.55436E-11
 -1      1475 1.41944E+01 1.91395E+01 1.66636E+01 2.74800E+00 2.01110E-10-8.87425E-11
 -1      1476-3.87670E+01-3.30195E+01-3.58861E+01 1.46185E+00 6.09248E-11-9.90488E-11
 -1      1477 1.12338E+01 1.87324E+01 1.49801E+01 6.56166E-01 2.24224E-10-7.56361E-11
 -1      1478-4.73039E+01-3.87955E+01-4.30411E+01-7.47225E-01 1.12683E-10 2.26644E-11
 -1      1479 8.88665E+00 1.89291E+01 1.39051E+01-1.62549E+00 2.58936E-10-2.87842E-11
 -1      1480-5.23543E+01-4.06110E+01-4.64733E+01-3.16061E+00 5.08370E-11-4.14695E-11
 -1      1481 6.89244E+00 1.99021E+01 1.33946E+01-4.14568E+00 2.76655E-10 5.30706E-11
 -1      1482 2.68687E+01 2.52963E+01 2.60773E+01 1.13777E+01 1.17681E-11-1.41856E-10
 -1      1483-2.58668E+01-2.69403E+01-2.63982E+01 1.02206E+01 2.20491E-10-7.81469E-11
 -1      1484 1.87133E+01 1.88186E+01 1.87622E+01 9.10965E+00 1.22052E-10-1.94253E-10
 -1      1485-2.15493E+01-2.09780E+01-2.12594E+01 7.99188E+00 7.82270E-11-2.47333E-10
 -1      1486 1.31851E+01 1.55478E+01 1.43636E+01 7.05574E+00 1.13418E-10-1.21519E-10
 -1      1487-2.16249E+01-1.89904E+01-2.03036E+01 5.92914E+00 1.70466E-10 5.28741E-13
 -1      1488 9.70291E+00 1.43588E+01 1.20284E+01 5.28611E+00 3.86050E-11 3.99806E-12
 -1      1489-2.50766E+01-2.03305E+01-2.26990E+01 4.05152E+00 5.07433E-11-2.13744E-11
 -1      1490 8.16183E+00 1.46746E+01 1.14159E+01 3.62568E+00-1.58462E-10 4.23850E-11
 -1      1491-3.25890E+01-2.58986E+01-2.92380E+01 2.20251E+00-1.52812E-10-1.14800E-10
 -1      1492 7.76519E+00 1.56579E+01 1.17092E+01 1.78599E+00-5.01565E-10 3.75540E-11
 -1      1493-3.99764E+01-3.13537E+01-3.56579E+01 1.38037E-01-2.68096E-10-4.44890E-11
 -1      1494 7.85745E+00 1.70947E+01 1.24736E+01-4.31536E-01-7.06905E-10 7.12196E-11
 -1      1495-5.03832E+01-3.96843E+01-4.50247E+01-2.25380E+00-2.95559E-10 3.64673E-12
 -1      1496 8.72786E+00 1.97019E+01 1.42120E+01-3.09769E+00-6.14605E-10 1.92033E-10
 -1      1497 1.30496E+01 1.20279E+01 1.25362E+01 9.96079E+00-1.05917E-10-3.32323E-13
 -1      1498-3.05257E+00-2.66484E+00-2.85813E+00 9.62104E+00-1.30512E-10-1.31164E-10
 -1      1499 7.33734E+00 1.00094E+01 8.67164E+00 8.11987E+00-3.74907E-10 6.60896E-11
 -1      1500-1.32953E+00 1.47968E+00 7.50606E-02 7.78471E+00-2.16403E-10-1.25479E-10
 -1      1501 6.52634E+00 1.22517E+01 9.38715E+00 7.04595E+00-4.52194E-10 4.27816E-11
 -1      1502-5.57009E+00-6.75055E-01-3.12195E+00 6.41354E+00-2.10720E-10-4.86614E-11
 -1      1503 8.34817E+00 1.55822E+01 1.19628E+01 6.30560E+00-3.18782E-10 2.44896E-10
 -1      1504-1.45810E+01-8.22860E+00-1.14025E+01 5.14500E+00-1.45310E-10 1.95316E-10
 -1      1505 1.04867E+01 1.80741E+01 1.42775E+01 5.38335E+00-3.43749E-10 2.54199E-10
 -1      1506-2.38814E+01-1.66815E+01-2.02774E+01 3.62851E+00-3.33176E-10 1.43062E-10
 -1      1507 1.16765E+01 1.90333E+01 1.53518E+01 3.95373E+00-4.79386E-10 6.89639E-11
 -1      1508-3.33130E+01-2.55755E+01-2.94383E+01 1.64014E+00-4.94948E-10 1.10732E-10
 -1      1509 1.12602E+01 1.83842E+01 1.48192E+01 1.76649E+00-4.59217E-10 2.03119E-13
 -1      1510-4.11658E+01-3.25635E+01-3.68573E+01-9.35387E-01-4.38387E-10 1.33220E-10
 -1      1511 8.65033E+00 1.64423E+01 1.25438E+01-1.34537E+00-2.85072E-10-8.61779E-11
 -1      1512 1.06375E+01 1.47444E+01 1.26884E+01 7.70406E+00-1.20267E-10 3.19174E-10
 -1      1513 1.01805E+01 1.75348E+01 1.38548E+01 7.44466E+00-1.00799E-10 2.72049E-10
 -1      1514-2.59388E+00 6.65274E+00 2.02902E+00 7.18686E+00-2.73044E-12 2.88567E-10
 -1      1515-1.28671E+01-3.01343E+00-7.93869E+00 6.62260E+00 2.75543E-10 3.30856E-10
 -1      1516-2.05060E+01-1.10391E+01-1.57694E+01 5.64096E+00 2.56756E-10-2.88641E-11
 -1      1517-2.61258E+01-1.78947E+01-2.20059E+01 4.11438E+00 3.00587E-10-2.90591E-10
 -1      1518-2.96501E+01-2.34800E+01-2.65597E+01 1.79476E+00 7.31760E-10-3.15056E-10
 -1      1519 1.47881E+01 1.59658E+01 1.53739E+01 8.82493E+00 4.22891E-10 2.93920E-10
 -1      1520-3.37695E-01 4.34344E+00 2.00247E+00 7.39457E+00 9.27875E-11 2.34167E-10
 -1      1521-7.76535E+00-1.05240E+00-4.40799E+00 6.61732E+00-1.59863E-11 2.11611E-10
 -1      1522-1.23600E+01-4.89474E+00-8.62563E+00 5.85657E+00-1.64117E-11 3.66059E-10
 -1      1523-1.58127E+01-8.41688E+00-1.21124E+01 4.72251E+00-1.75473E-10 1.33501E-10
 -1      1524-1.86179E+01-1.15669E+01-1.50894E+01 2.94162E+00-1.09484E-10-6.53628E-11
 -1      1525-2.66687E+01-1.95912E+01-2.31253E+01 3.14257E-01-6.66036E-11 8.02378E-12
 -1      1526-1.09555E+01-1.17363E+01-1.13436E+01 1.01888E+01 2.52367E-10-4.36486E-11
 -1      1527-6.23776E+00-4.86000E+00-5.54777E+00 7.99169E+00 2.39857E-10 1.82521E-11
 -1      1528-1.42563E+01-1.04945E+01-1.23729E+01 6.08024E+00 1.58777E-10 1.99104E-11
 -1      1529-2.53755E+01-1.96199E+01-2.24932E+01 4.41941E+00 3.13205E-13 1.75339E-12
 -1      1530-3.51623E+01-2.78827E+01-3.15162E+01 2.70944E+00-2.60305E-10 1.70431E-11
 -1      1531-4.51429E+01-3.66438E+01-4.08852E+01 7.14155E-01-4.97919E-10-2.56743E-11
 -1      1532-4.96234E+01-3.96260E+01-4.46158E+01-1.73675E+00-5.48652E-10 6.10874E-11
 -1      1533-3.24060E+01-3.43195E+01-3.33561E+01 1.02789E+01 2.32955E-10 4.14737E-11
 -1      1534-2.68464E+01-2.73582E+01-2.70969E+01 8.02687E+00 1.22027E-10-1.10549E-10
 -1      1535-2.66132E+01-2.50659E+01-2.58344E+01 5.83700E+00 1.71109E-10 2.17053E-12
 -1      1536-3.20757E+01-2.81609E+01-3.01123E+01 3.73428E+00 6.22164E-11-8.83379E-11
 -1      1537-3.90151E+01-3.27277E+01-3.58643E+01 1.69794E+00 6.33564E-11-1.10748E-10
 -1      1538-4.44324E+01-3.55880E+01-4.00022E+01-4.88218E-01 1.43067E-10-2.89189E-11
 -1      1539-5.50709E+01-4.36494E+01-4.93503E+01-2.86198E+00 1.89220E-10-3.96499E-11
 -1      1540-4.34761E+01-4.72168E+01-4.53374E+01 9.73191E+00 7.23719E-11-2.75101E-13
 -1      1541-3.52841E+01-3.82978E+01-3.67836E+01 7.83398E+00 6.28580E-11-2.38333E-11
 -1      1542-3.37874E+01-3.47316E+01-3.42526E+01 5.79568E+00 1.08955E-11-2.34554E-11
 -1      1543-3.67716E+01-3.47591E+01-3.57582E+01 3.58234E+00-1.93550E-11-1.62710E-11
 -1      1544-4.52562E+01-4.00076E+01-4.26234E+01 1.25531E+00-6.92254E-12-2.93132E-11
 -1      1545-5.42792E+01-4.60619E+01-5.01605E+01-1.02691E+00-4.84023E-11-1.49105E-11
 -1      1546-5.26101E+01-4.05456E+01-4.65685E+01-3.56379E+00-1.24695E-10-2.31996E-11
 -1      1547-4.62951E+01-5.18538E+01-4.90646E+01 8.28710E+00-2.01177E-11 1.04906E-11
 -1      1548-3.38579E+01-3.99899E+01-3.69165E+01 7.21569E+00-2.11947E-11 1.16299E-11
 -1      1549-3.13033E+01-3.59289E+01-3.36094E+01 5.80669E+00-1.15807E-11-1.90157E-11
 -1      1550-3.34871E+01-3.47564E+01-3.41149E+01 4.01468E+00 1.27252E-11 8.23670E-12
 -1      1551-4.02815E+01-3.67484E+01-3.85073E+01 1.69649E+00-7.94298E-12-2.20804E-12
 -1      1552-5.72576E+01-4.85127E+01-5.28745E+01-1.13553E+00 1.14929E-11-3.85794E-11
 -1      1553-7.49715E+01-6.31675E+01-6.90557E+01-3.63804E+00 5.53062E-11-8.99116E-12
 -1      1554-4.19100E+01-4.73355E+01-4.46138E+01 6.33316E+00-1.45641E-11 6.89480E-13
 -1      1555-2.54546E+01-3.29060E+01-2.91745E+01 6.02726E+00-9.96078E-12 8.67366E-12
 -1      1556-1.74378E+01-2.49353E+01-2.11823E+01 5.30300E+00-9.53365E-12 1.09992E-11
 -1      1557-1.83063E+01-2.36231E+01-2.09605E+01 4.27954E+00-2.28765E-11-1.78789E-11
 -1      1558-2.29571E+01-2.36339E+01-2.32908E+01 2.81815E+00-7.70349E-12 7.96833E-13
 -1      1559-2.51343E+01-1.84989E+01-2.18122E+01 4.23626E-01-8.79228E-12-1.47153E-12
 -1      1560-5.19429E+01-3.59251E+01-4.39252E+01-3.63376E+00 3.27514E-12 3.51980E-13
 -1      1561-2.82917E+01-3.07525E+01-2.95162E+01 4.69534E+00 9.80642E-12 6.70997E-13
 -1      1562-1.75072E+01-2.23674E+01-1.99333E+01 4.60350E+00 1.70247E-11 8.49357E-12
 -1      1563-7.73292E+00-1.40112E+01-1.08699E+01 4.05928E+00 7.35648E-12 3.29870E-12
 -1      1564-8.65080E+00-1.47975E+01-1.17218E+01 3.23969E+00 2.93979E-12-5.00942E-12
 -1      1565-2.41818E+01-2.82628E+01-2.62170E+01 2.34159E+00 4.78408E-12-2.58273E-13
 -1      1566-4.59730E+01-4.52821E+01-4.56184E+01 1.37057E+00 3.45571E-12-1.12762E-12
 -1      1567-5.16683E+01-4.14001E+01-4.65249E+01-5.62956E-01 8.11900E-12 1.46543E-13
 -3
    1PSTEP                         3           1           1          
  100CL  101 1.000000000         531                     0    1           1
 -4  TOSTRAIN    6    1
 -5  EXX         1    4    1    1
 -5  EYY         1    4    2    2
 -5  EZZ         1    4    3    3
 -5  EXY         1    4    1    2
 -5  EYZ         1    4    2    3
 -5  EZX         1    4    3    1
 -1      1037-3.31545E-02 3.39080E-02 4.31444E-12 1.57268E-01 1.52969E-11 2.01526E-11
 -1      1038-3.31545E-02 3.39080E-02-4.31444E-12 1.57268E-01 2.37556E-11 4.92285E-12
 -1      1039-1.82161E-04 5.87602E-05 1.00763E-19 1.05429E-01-2.50816E-16 2.90183E-16
 -1      1040-1.82161E-04 5.87602E-05-1.00763E-19 1.05429E-01-3.59982E-16 2.82743E-16
 -1      1041-3.49399E-02 3.41034E-02-2.59184E-11 4.18451E-02 4.34077E-11-3.76809E-11
 -1      1042-3.49399E-02 3.41034E-02 2.59184E-11 4.18451E-02 6.99855E-11-3.03860E-11
 -1      1043 3.87564E-04-2.42341E-04-9.96782E-21 1.86742E-01-1.66247E-16 1.32863E-16
 -1      1044 3.87564E-04-2.42341E-04 9.96782E-21 1.86742E-01 1.02483E-15-4.09263E-16
 -1      1045 4.48073E-02-4.44501E-02-5.08906E-12 2.36015E-01 2.44840E-11 6.55264E-12
 -1      1046 4.73306E-02-4.74133E-02 4.13077E-12 2.66037E-01 7.18881E-12 2.35515E-12
 -1      1047 5.53536E-02-5.56888E-02 6.69504E-12 2.68875E-01 6.28207E-12 2.33831E-12
 -1      1048 5.54825E-02-5.60990E-02-7.09211E-13 2.44072E-01-2.22679E-13-3.96556E-13
 -1      1049 4.24936E-02-4.32083E-02-6.62016E-14 1.88877E-01-2.01868E-13 1.11908E-13
 -1      1050 1.60248E-02-1.65543E-02-5.36220E-13 1.25418E-01-1.58034E-13 8.98354E-14
 -1      1051-1.52953E-03 1.30777E-03 4.31635E-13 9.47869E-02 3.23127E-13 1.77269E-13
 -1      1052 4.48073E-02-4.44501E-02 5.08906E-12 2.36015E-01-1.92978E-12-3.53991E-12
 -1      1053 4.73306E-02-4.74133E-02-4.13077E-12 2.66037E-01-2.72678E-12-2.80644E-12
 -1      1054 5.53536E-02-5.56888E-02-6.69504E-12 2.68875E-01 8.28820E-12-1.44021E-13
 -1      1055 5.54825E-02-5.60990E-02 7.09211E-13 2.44072E-01 7.79305E-13-1.53771E-12
 -1      1056 4.24936E-02-4.32083E-02 6.62016E-14 1.88877E-01-1.08569E-12-4.17774E-13
 -1      1057 1.60248E-02-1.65543E-02 5.36220E-13 1.25418E-01-3.62513E-13-1.52181E-13
 -1      1058-1.52953E-03 1.30777E-03-4.31635E-13 9.47869E-02 3.09154E-14 8.26057E-14
 -1      1059-6.96058E-02 6.96526E-02 2.38018E-11 7.61958E-02 4.10921E-11-1.89918E-11
 -1      1060-1.08463E-01 1.08662E-01 5.65809E-12 1.13749E-01 2.51987E-11-2.24041E-11
 -1      1061-1.26016E-01 1.26183E-01-2.34054E-12 1.39913E-01 2.48248E-11-8.24552E-12
 -1      1062-1.32357E-01 1.32454E-01-1.51925E-12 1.59635E-01 1.28745E-11-1.33598E-11
 -1      1063-1.32193E-01 1.32202E-01 2.30093E-11 1.70368E-01 2.12298E-11 1.45998E-11
 -1      1064-1.25113E-01 1.25086E-01 2.60543E-11 1.67323E-01 2.97787E-11 2.94343E-11
 -1      1065-9.54837E-02 9.57485E-02 4.43578E-12 1.47887E-01 1.13462E-11 1.17486E-11
 -1      1066-6.96058E-02 6.96526E-02-2.38018E-11 7.61958E-02 6.64285E-11-1.56262E-11
 -1      1067-1.08463E-01 1.08662E-01-5.65809E-12 1.13749E-01 5.12791E-11-1.80454E-11
 -1      1068-1.26016E-01 1.26183E-01 2.34054E-12 1.39913E-01 5.09443E-11-4.90867E-12
 -1      1069-1.32357E-01 1.32454E-01 1.51925E-12 1.59635E-01 4.02009E-11-8.51001E-12
 -1      1070-1.32193E-01 1.32202E-01-2.30093E-11 1.70368E-01 4.29030E-11 1.11718E-11
 -1      1071-1.25113E-01 1.25086E-01-2.60543E-11 1.67323E-01 4.49894E-11 1.80034E-11
 -1      1072-9.54837E-02 9.57485E-02-4.43578E-12 1.47887E-01 2.35927E-11-1.31289E-12
 -1      1073-4.25806E-01 4.25206E-01 4.25262E-13-9.62904E-02 2.50185E-13 1.29236E-13
 -1      1074-1.64979E-01 1.63689E-01-1.72337E-12-1.22971E-01-1.00036E-13-1.16121E-12
 -1      1075-1.99805E-01 1.99484E-01 8.09488E-13-1.20951E-01-1.20756E-12-1.02501E-12
 -1      1076-1.81409E-01 1.80855E-01-6.70826E-13-1.16239E-01-3.86933E-12-1.69604E-12
 -1      1077-1.69766E-01 1.69212E-01 8.64588E-12-1.03411E-01 1.79809E-12-4.28150E-13
 -1      1078-1.42011E-01 1.41548E-01 9.76974E-12-8.17909E-02-6.74428E-12 4.84313E-13
 -1      1079-1.08624E-01 1.08013E-01-1.76301E-11-4.78127E-02 7.07413E-12-1.08878E-11
 -1      1080-4.25806E-01 4.25206E-01-4.25262E-13-9.62904E-02 3.46975E-13 4.30311E-13
 -1      1081-1.64979E-01 1.63689E-01 1.72337E-12-1.22971E-01 9.56520E-13-4.28226E-13
 -1      1082-1.99805E-01 1.99484E-01-8.09488E-13-1.20951E-01 5.05527E-13 1.55541E-13
 -1      1083-1.81409E-01 1.80855E-01 6.70826E-13-1.16239E-01-4.91529E-14 1.70237E-13
 -1      1084-1.69766E-01 1.69212E-01-8.64588E-12-1.03411E-01 6.79545E-12 2.69108E-12
 -1      1085-1.42011E-01 1.41548E-01-9.76974E-12-8.17909E-02-9.76413E-12 5.66486E-12
 -1      1086-1.08624E-01 1.08013E-01 1.76301E-11-4.78127E-02-6.88616E-12-4.03510E-12
 -1      1087-2.31918E-04 4.93904E-05-8.19640E-19 9.34877E-02-8.69752E-17 7.23102E-17
 -1      1088-1.25135E-04 3.24699E-05 2.69706E-20 7.10535E-02-1.23364E-17 1.90605E-17
 -1      1089-1.92712E-06 7.04902E-06 6.45983E-22 4.16062E-02-2.60087E-16 1.44515E-16
 -1      1090 4.89029E-05-2.14544E-05-2.69528E-19 1.19343E-02-2.60331E-17-4.24788E-19
 -1      1091-5.48303E-05-5.70516E-05 3.69737E-19-8.95670E-03 6.82946E-17-4.51842E-17
 -1      1092-3.88921E-04-1.13998E-04-2.45339E-19-8.25713E-03 3.80813E-17-2.07036E-17
 -1      1093-6.21954E-04-2.36809E-04-4.12371E-19 3.71568E-02 2.10378E-16-1.43004E-16
 -1      1094-2.31918E-04 4.93904E-05 8.19640E-19 9.34877E-02-6.57007E-17 7.21969E-17
 -1      1095-1.25135E-04 3.24699E-05-2.69706E-20 7.10535E-02-1.24823E-17 1.70456E-17
 -1      1096-1.92712E-06 7.04902E-06-6.45983E-22 4.16062E-02-1.79712E-16 1.58279E-16
 -1      1097 4.89029E-05-2.14544E-05 2.69528E-19 1.19343E-02 1.26747E-17 6.16552E-18
 -1      1098-5.48303E-05-5.70516E-05-3.69737E-19-8.95670E-03 1.06870E-16-4.45311E-17
 -1      1099-3.88921E-04-1.13998E-04 2.45339E-19-8.25713E-03 4.49744E-17-1.42574E-17
 -1      1100-6.21954E-04-2.36809E-04 4.12371E-19 3.71568E-02 2.23903E-16-3.75133E-17
 -1      1101-1.25500E-02 1.26818E-02-2.01208E-12 1.89076E-01 1.88667E-11 1.08680E-11
 -1      1102-5.01383E-02 5.01554E-02 4.60381E-12 1.58430E-01 1.20538E-11 9.28989E-12
 -1      1103-7.19318E-02 7.18940E-02 7.51603E-12 1.41777E-01 7.79266E-12 4.42300E-12
 -1      1104-8.00084E-02 7.99345E-02 6.33751E-12 1.25478E-01 7.36613E-12 4.59417E-12
 -1      1105-7.92796E-02 7.91758E-02-5.55359E-12 1.01181E-01 5.08987E-12 1.24718E-12
 -1      1106-7.55983E-02 7.54690E-02-5.33835E-12 6.30251E-02 3.53180E-12-2.82793E-12
 -1      1107-7.59172E-02 7.57189E-02 4.58706E-12 6.73283E-03 7.74384E-12-2.34667E-12
 -1      1108 8.31573E-03-8.41298E-03 2.03311E-12 2.18297E-01 9.52792E-12 6.32089E-13
 -1      1109-1.47830E-02 1.47354E-02-3.36539E-13 1.71224E-01 1.05889E-11 2.52988E-12
 -1      1110-4.03521E-02 4.02461E-02-8.72951E-12 1.30270E-01 5.46834E-12 4.79086E-13
 -1      1111-6.17543E-02 6.15615E-02-4.10684E-12 9.46864E-02 1.16204E-13-1.51801E-12
 -1      1112-7.81189E-02 7.78487E-02-6.88554E-12 5.80499E-02-4.05699E-12 9.11840E-13
 -1      1113-9.12235E-02 9.08730E-02-3.61775E-12 1.53007E-02-1.05471E-11-3.14202E-13
 -1      1114-1.07290E-01 1.06907E-01 6.38285E-12-3.72104E-02-1.13023E-11 1.18673E-12
 -1      1115 2.03556E-02-2.06415E-02-1.01779E-12 2.20228E-01 4.34076E-12 6.82581E-13
 -1      1116 5.36606E-03-5.59835E-03-5.48037E-12 1.71978E-01 1.12090E-12-2.37636E-13
 -1      1117-1.66862E-02 1.64647E-02 2.14583E-13 1.25059E-01 3.58100E-13 1.26241E-12
 -1      1118-4.20678E-02 4.18096E-02-2.56662E-13 8.00074E-02-2.06462E-12-2.43830E-12
 -1      1119-6.75087E-02 6.72013E-02-3.32712E-13 3.63785E-02-7.35834E-13-1.37764E-12
 -1      1120-9.49183E-02 9.45754E-02-2.37811E-12-1.04605E-02 5.74365E-13-4.71512E-13
 -1      1121-1.22566E-01 1.22143E-01-2.86861E-13-6.13188E-02 7.54911E-13-8.05822E-13
 -1      1122 3.98781E-02-4.02668E-02-3.76725E-13 2.08509E-01 6.20484E-13 2.83342E-13
 -1      1123 3.21265E-02-3.24419E-02-1.87462E-12 1.67845E-01 8.83217E-13 8.14822E-13
 -1      1124 9.96791E-03-1.02615E-02-2.72850E-12 1.24174E-01-1.30031E-12 8.73180E-14
 -1      1125-2.17125E-02 2.14059E-02-5.21211E-13 7.67519E-02-2.42452E-12-4.77955E-13
 -1      1126-5.64090E-02 5.60436E-02-8.11522E-13 2.68948E-02-1.35620E-12 1.66759E-13
 -1      1127-8.82437E-02 8.78137E-02-6.60453E-13-2.20020E-02-2.65354E-12 1.07232E-14
 -1      1128-1.29442E-01 1.29043E-01-1.07302E-12-7.63554E-02-4.28326E-12-3.68023E-13
 -1      1129 5.93393E-02-5.97599E-02 2.94107E-13 1.77554E-01-3.47656E-13 2.95288E-13
 -1      1130 6.55334E-02-6.58499E-02 3.57207E-13 1.54598E-01-1.36955E-13 9.72989E-13
 -1      1131 4.94093E-02-4.96974E-02 9.34148E-13 1.24410E-01-3.35862E-13 2.13496E-14
 -1      1132 1.34515E-02-1.37439E-02 1.04499E-13 8.60154E-02-1.34111E-13-2.06939E-15
 -1      1133-3.80147E-02 3.76846E-02-3.95232E-14 3.63469E-02-4.52196E-13 5.63335E-13
 -1      1134-9.39085E-02 9.34552E-02 1.31479E-12-2.43302E-02-2.04726E-13-7.98650E-13
 -1      1135-1.26746E-01 1.26154E-01-1.78218E-12-7.79462E-02 5.74901E-13 1.35248E-14
 -1      1136 5.79323E-02-5.83148E-02-1.64881E-13 1.35690E-01-4.19632E-13-3.11109E-14
 -1      1137 7.97007E-02-7.99508E-02-3.35819E-13 1.29136E-01-2.04881E-13 4.68491E-13
 -1      1138 8.02287E-02-8.04102E-02 3.67530E-13 1.13619E-01-4.14221E-13 2.99215E-13
 -1      1139 5.68686E-02-5.70483E-02-1.86769E-13 9.16910E-02-8.28776E-13-5.54830E-13
 -1      1140 7.15198E-03-7.35164E-03-1.67007E-13 6.03801E-02-3.73936E-13 3.14911E-13
 -1      1141-7.11762E-02 7.09893E-02 1.47018E-13 9.07594E-03-6.92194E-13-9.07584E-14
 -1      1142-1.71784E-01 1.71407E-01 8.42528E-13-7.78562E-02-2.38252E-13 9.80052E-14
 -1      1143 2.62344E-02-2.64875E-02 8.89967E-14 1.00598E-01 2.75899E-13-3.19747E-14
 -1      1144 5.19809E-02-5.21518E-02 2.45482E-13 9.86307E-02 4.86547E-13 2.76892E-13
 -1      1145 6.72123E-02-6.73055E-02 3.53502E-14 8.69714E-02 1.86541E-13 5.62048E-14
 -1      1146 6.57995E-02-6.59000E-02-2.25109E-13 6.94120E-02 2.02844E-14-1.62324E-13
 -1      1147 4.36085E-02-4.38332E-02 3.71648E-14 5.01704E-02 1.21650E-13 1.17573E-13
 -1      1148-7.59423E-03 7.20317E-03-3.47030E-14 2.93662E-02-2.58447E-14-5.90472E-14
 -1      1149-1.10198E-01 1.09799E-01 1.29307E-13-1.20610E-02 7.82203E-14-3.12392E-15
 -1      1150 2.62344E-02-2.64875E-02-8.89967E-14 1.00598E-01 1.67498E-13 5.83352E-14
 -1      1151 5.19809E-02-5.21518E-02-2.45482E-13 9.86307E-02 2.50129E-13 1.16586E-13
 -1      1152 6.72123E-02-6.73055E-02-3.53502E-14 8.69714E-02 1.87055E-13 6.23064E-15
 -1      1153 6.57995E-02-6.59000E-02 2.25109E-13 6.94120E-02 1.05013E-13-3.24552E-14
 -1      1154 4.36085E-02-4.38332E-02-3.71648E-14 5.01704E-02 6.02429E-14-9.83677E-14
 -1      1155-7.59423E-03 7.20317E-03 3.47030E-14 2.93662E-02 1.63484E-13 4.38603E-16
 -1      1156-1.10198E-01 1.09799E-01-1.29307E-13-1.20610E-02 2.11687E-13-5.48558E-14
 -1      1157 5.79323E-02-5.83148E-02 1.64881E-13 1.35690E-01-2.30808E-13 6.16624E-14
 -1      1158 7.97007E-02-7.99508E-02 3.35819E-13 1.29136E-01-2.93141E-13-5.35719E-14
 -1      1159 8.02287E-02-8.04102E-02-3.67530E-13 1.13619E-01-1.42624E-14 9.25009E-14
 -1      1160 5.68686E-02-5.70483E-02 1.86769E-13 9.16910E-02-8.03705E-14-2.90134E-13
 -1      1161 7.15198E-03-7.35164E-03 1.67007E-13 6.03801E-02-2.22365E-16-2.48295E-13
 -1      1162-7.11762E-02 7.09893E-02-1.47018E-13 9.07594E-03 1.77015E-13-4.63015E-14
 -1      1163-1.71784E-01 1.71407E-01-8.42528E-13-7.78562E-02 6.30268E-13 1.41889E-14
 -1      1164 5.93393E-02-5.97599E-02-2.94107E-13 1.77554E-01-5.79253E-13 2.31049E-13
 -1      1165 6.55334E-02-6.58499E-02-3.57207E-13 1.54598E-01-8.70879E-13-2.37782E-13
 -1      1166 4.94093E-02-4.96974E-02-9.34148E-13 1.24410E-01-1.21443E-13-5.41091E-13
 -1      1167 1.34515E-02-1.37439E-02-1.04499E-13 8.60154E-02 8.27877E-13 2.97228E-13
 -1      1168-3.80147E-02 3.76846E-02 3.95232E-14 3.63469E-02-6.96265E-14-4.90144E-13
 -1      1169-9.39085E-02 9.34552E-02-1.31479E-12-2.43302E-02 9.56079E-13-8.95082E-13
 -1      1170-1.26746E-01 1.26154E-01 1.78218E-12-7.79462E-02 1.87277E-12-2.31405E-13
 -1      1171 3.98781E-02-4.02668E-02 3.76725E-13 2.08509E-01 2.65423E-12-3.04695E-13
 -1      1172 3.21265E-02-3.24419E-02 1.87462E-12 1.67845E-01 2.20392E-12-1.53108E-12
 -1      1173 9.96791E-03-1.02615E-02 2.72850E-12 1.24174E-01 1.55142E-12-8.66482E-13
 -1      1174-2.17125E-02 2.14059E-02 5.21211E-13 7.67519E-02 1.27602E-12 1.81751E-14
 -1      1175-5.64090E-02 5.60436E-02 8.11522E-13 2.68948E-02 1.07788E-12-1.40221E-12
 -1      1176-8.82437E-02 8.78137E-02 6.60453E-13-2.20020E-02 6.25380E-13-2.87763E-13
 -1      1177-1.29442E-01 1.29043E-01 1.07302E-12-7.63554E-02-1.03897E-12-7.90271E-13
 -1      1178 2.03556E-02-2.06415E-02 1.01779E-12 2.20228E-01 7.93214E-12-1.08822E-12
 -1      1179 5.36606E-03-5.59835E-03 5.48037E-12 1.71978E-01 3.85571E-12-4.46563E-12
 -1      1180-1.66862E-02 1.64647E-02-2.14583E-13 1.25059E-01 5.97794E-12 1.52080E-13
 -1      1181-4.20678E-02 4.18096E-02 2.56662E-13 8.00074E-02 4.83497E-12-1.03816E-12
 -1      1182-6.75087E-02 6.72013E-02 3.32712E-13 3.63785E-02 3.85351E-12-2.95908E-12
 -1      1183-9.49183E-02 9.45754E-02 2.37811E-12-1.04605E-02 5.57879E-12-4.69134E-13
 -1      1184-1.22566E-01 1.22143E-01 2.86861E-13-6.13188E-02 5.30264E-12-8.34618E-13
 -1      1185 8.31573E-03-8.41298E-03-2.03311E-12 2.18297E-01 2.31166E-12-3.26477E-12
 -1      1186-1.47830E-02 1.47354E-02 3.36539E-13 1.71224E-01 2.05563E-12-4.62251E-12
 -1      1187-4.03521E-02 4.02461E-02 8.72951E-12 1.30270E-01 2.14966E-12-9.55305E-13
 -1      1188-6.17543E-02 6.15615E-02 4.10684E-12 9.46864E-02-5.43104E-13 1.18053E-12
 -1      1189-7.81189E-02 7.78487E-02 6.88554E-12 5.80499E-02-7.23485E-12 4.37870E-13
 -1      1190-9.12235E-02 9.08730E-02 3.61775E-12 1.53007E-02-1.36467E-11 8.95546E-13
 -1      1191-1.07290E-01 1.06907E-01-6.38285E-12-3.72104E-02-1.51817E-11 2.13007E-12
 -1      1192-1.25500E-02 1.26818E-02 2.01208E-12 1.89076E-01-3.12334E-12 3.48438E-12
 -1      1193-5.01383E-02 5.01554E-02-4.60381E-12 1.58430E-01-1.04139E-11-2.04047E-13
 -1      1194-7.19318E-02 7.18940E-02-7.51603E-12 1.41777E-01-9.02839E-12 1.72233E-12
 -1      1195-8.00084E-02 7.99345E-02-6.33751E-12 1.25478E-01-4.83064E-12 8.80047E-12
 -1      1196-7.92796E-02 7.91758E-02 5.55359E-12 1.01181E-01-9.58299E-12 2.32912E-12
 -1      1197-7.55983E-02 7.54690E-02 5.33835E-12 6.30251E-02-1.07506E-11 2.71030E-13
 -1      1198-7.59172E-02 7.57189E-02-4.58706E-12 6.73283E-03-7.61572E-12-3.33214E-13
 -1      1199-3.31560E-02 3.39095E-02 1.66607E-27 1.57284E-01 1.95899E-11 1.34620E-11
 -1      1200-1.81387E-04 5.79885E-05-4.83177E-29 1.05439E-01 2.32813E-16 4.47866E-14
 -1      1201 1.28232E-02-1.28587E-02-3.87311E-13 1.91848E-01 1.87278E-12 1.36796E-11
 -1      1202 4.08679E-02-4.09246E-02-4.79145E-13 2.54575E-01 1.41932E-11 1.80050E-12
 -1      1203 4.79093E-02-4.81783E-02 5.41291E-12 2.66145E-01 7.37855E-12 4.21070E-12
 -1      1204 4.85049E-02-4.88897E-02 2.99292E-12 2.52857E-01 9.71631E-13-3.68860E-14
 -1      1205 3.97577E-02-4.02061E-02-3.87708E-13 2.10206E-01 2.34315E-13 1.30803E-13
 -1      1206 2.23247E-02-2.27956E-02-3.01211E-13 1.53756E-01-1.86351E-13-6.09509E-15
 -1      1207 8.03472E-03-8.49303E-03-5.22925E-14 1.15464E-01 1.22220E-13 2.34675E-13
 -1      1208 2.67539E-03-3.00942E-03 2.15818E-13 1.12779E-01 6.87514E-14 5.65749E-14
 -1      1209 1.28232E-02-1.28587E-02 3.87311E-13 1.91848E-01-7.11661E-12 1.02604E-12
 -1      1210 4.08679E-02-4.09246E-02 4.79145E-13 2.54575E-01-3.97537E-12-5.82508E-12
 -1      1211 4.79093E-02-4.81783E-02-5.41291E-12 2.66145E-01 3.42075E-12 3.89617E-13
 -1      1212 4.85049E-02-4.88897E-02-2.99292E-12 2.52857E-01 2.47475E-12-1.84822E-12
 -1      1213 3.97577E-02-4.02061E-02 3.87708E-13 2.10206E-01 2.93464E-13-7.04691E-13
 -1      1214 2.23247E-02-2.27956E-02 3.01211E-13 1.53756E-01-7.31106E-13-3.92248E-13
 -1      1215 8.03472E-03-8.49303E-03 5.22925E-14 1.15464E-01-1.25987E-13 6.62791E-14
 -1      1216 2.67539E-03-3.00942E-03-2.15818E-13 1.12779E-01-7.72368E-14 9.25729E-15
 -1      1217-3.49452E-02 3.41087E-02-2.62533E-27 4.18458E-02 4.14744E-11-2.98225E-11
 -1      1218-4.26241E-02 4.27558E-02-1.05833E-12 5.11195E-02 4.40639E-11-2.79157E-11
 -1      1219-9.13493E-02 9.15354E-02 1.47299E-11 1.00061E-01 3.27083E-11-2.06323E-11
 -1      1220-1.18141E-01 1.18348E-01 1.65878E-12 1.29047E-01 2.39056E-11-1.49115E-11
 -1      1221-1.30596E-01 1.30791E-01-1.92990E-12 1.51424E-01 2.03516E-11-1.09825E-11
 -1      1222-1.34710E-01 1.34862E-01 1.07450E-11 1.66602E-01 1.56439E-11 6.39034E-13
 -1      1223-1.33002E-01 1.33086E-01 2.45318E-11 1.70783E-01 2.48763E-11 2.22920E-11
 -1      1224-1.19976E-01 1.19980E-01 1.52451E-11 1.60323E-01 2.17910E-11 2.01778E-11
 -1      1225-5.27242E-02 5.26927E-02 4.37511E-12 1.51232E-01 1.17924E-11 1.59909E-11
 -1      1226-4.26241E-02 4.27558E-02 1.05833E-12 5.11195E-02 7.00190E-11-2.25792E-11
 -1      1227-9.13493E-02 9.15354E-02-1.47299E-11 1.00061E-01 5.84065E-11-1.67673E-11
 -1      1228-1.18141E-01 1.18348E-01-1.65878E-12 1.29047E-01 4.99950E-11-1.10631E-11
 -1      1229-1.30596E-01 1.30791E-01 1.92990E-12 1.51424E-01 4.70687E-11-6.89139E-12
 -1      1230-1.34710E-01 1.34862E-01-1.07450E-11 1.66602E-01 4.01360E-11 1.35245E-12
 -1      1231-1.33002E-01 1.33086E-01-2.45318E-11 1.70783E-01 4.33074E-11 1.48563E-11
 -1      1232-1.19976E-01 1.19980E-01-1.52451E-11 1.60323E-01 3.55118E-11 7.92913E-12
 -1      1233-5.27242E-02 5.26927E-02-4.37511E-12 1.51232E-01 2.21345E-11 1.84999E-12
 -1      1234 3.75033E-04-2.29819E-04 7.88861E-30 1.86744E-01-6.88428E-17 4.43028E-14
 -1      1235-2.28798E-01 2.27331E-01 2.12632E-13 7.93683E-02 3.94960E-14-1.14860E-14
 -1      1236-2.81378E-01 2.81431E-01-6.49057E-13-1.48929E-01 2.00343E-13-1.11355E-13
 -1      1237-1.85865E-01 1.85251E-01-4.56942E-13-1.11359E-01-9.11869E-13-1.85492E-12
 -1      1238-1.90162E-01 1.89759E-01 6.93320E-14-1.17655E-01-2.00989E-12-4.29946E-13
 -1      1239-1.75926E-01 1.75502E-01 3.98753E-12-1.07553E-01-2.58987E-12-2.54665E-12
 -1      1240-1.55923E-01 1.55542E-01 9.20782E-12-9.19101E-02-2.92590E-12 1.51491E-12
 -1      1241-1.26293E-01 1.25936E-01-3.93016E-12-6.78451E-02 2.04445E-12-3.74704E-12
 -1      1242-6.51620E-02 6.52434E-02-2.17743E-11-9.92270E-03 1.25212E-11-2.18375E-11
 -1      1243-2.28798E-01 2.27331E-01-2.12632E-13 7.93683E-02 8.54804E-14 1.40667E-13
 -1      1244-2.81378E-01 2.81431E-01 6.49057E-13-1.48929E-01 7.72092E-13 4.11844E-13
 -1      1245-1.85865E-01 1.85251E-01 4.56942E-13-1.11359E-01 4.70747E-13-8.93795E-13
 -1      1246-1.90162E-01 1.89759E-01-6.93320E-14-1.17655E-01 7.54073E-13 1.09786E-12
 -1      1247-1.75926E-01 1.75502E-01-3.98753E-12-1.07553E-01 1.81477E-12-4.81691E-14
 -1      1248-1.55923E-01 1.55542E-01-9.20782E-12-9.19101E-02-1.93823E-12 5.66151E-12
 -1      1249-1.26293E-01 1.25936E-01 3.93016E-12-6.78451E-02-6.45163E-12 2.26896E-12
 -1      1250-6.51620E-02 6.52434E-02 2.17743E-11-9.92270E-03 1.88218E-11-1.47545E-11
 -1      1251 1.94711E-04 5.32658E-05-4.81582E-19 1.00988E-01-3.03455E-16 2.76645E-16
 -1      1252 2.89192E-04 4.33900E-05-3.09391E-19 8.36334E-02 1.78355E-16-1.12416E-16
 -1      1253 4.29309E-04 1.91421E-05-2.59769E-19 5.69830E-02-1.45241E-16 1.44064E-16
 -1      1254 5.41357E-04-7.77717E-06 1.75527E-19 2.64685E-02-2.06227E-16 1.63746E-16
 -1      1255 5.78334E-04-3.66632E-05 1.73848E-19-1.69268E-05 2.57856E-16-1.40046E-16
 -1      1256 4.99562E-04-7.45978E-05-2.27760E-21-1.19215E-02-7.61367E-17 2.14505E-17
 -1      1257 3.75647E-04-1.39096E-04-8.75075E-20 7.50812E-03 1.09050E-16-2.97053E-17
 -1      1258 4.54479E-04-2.85049E-04-5.12975E-19 9.41415E-02 1.82007E-16-5.23860E-17
 -1      1259 1.94711E-04 5.32658E-05 4.81582E-19 1.00988E-01-3.38626E-16 2.81457E-16
 -1      1260 2.89192E-04 4.33900E-05 3.09391E-19 8.36334E-02 1.03251E-16-1.14868E-16
 -1      1261 4.29309E-04 1.91421E-05 2.59769E-19 5.69830E-02-2.42850E-16 1.45126E-16
 -1      1262 5.41357E-04-7.77717E-06-1.75527E-19 2.64685E-02-2.69924E-16 1.54260E-16
 -1      1263 5.78334E-04-3.66632E-05-1.73848E-19-1.69268E-05 2.17458E-16-1.45986E-16
 -1      1264 4.99562E-04-7.45978E-05 2.27760E-21-1.19215E-02-6.78624E-17 2.45138E-17
 -1      1265 3.75647E-04-1.39096E-04 8.75075E-20 7.50812E-03 1.90884E-16-1.14996E-16
 -1      1266 4.54479E-04-2.85049E-04 5.12975E-19 9.41415E-02 2.47073E-16-8.70508E-17
 -1      1267 4.48071E-02-4.44498E-02 2.71368E-27 2.36033E-01 1.20608E-11 7.98100E-13
 -1      1268 4.73320E-02-4.74146E-02-2.54092E-27 2.66059E-01 1.74937E-12-3.98103E-13
 -1      1269 5.53556E-02-5.56908E-02 3.15544E-28 2.68897E-01 5.83522E-12 2.67915E-12
 -1      1270 5.54853E-02-5.61017E-02-3.12389E-28 2.44091E-01 3.47123E-13-6.78145E-13
 -1      1271 4.24967E-02-4.32114E-02-1.10441E-29 1.88893E-01-5.89755E-13-2.11191E-13
 -1      1272 1.60274E-02-1.65570E-02 6.62643E-29 1.25430E-01-2.10639E-13-1.02463E-13
 -1      1273-1.52803E-03 1.30628E-03-3.19489E-29 9.47973E-02 1.34352E-13 1.41093E-13
 -1      1274-6.96120E-02 6.96589E-02-2.06997E-27 7.61993E-02 4.89361E-11-1.33476E-11
 -1      1275-1.08472E-01 1.08670E-01-4.36713E-27 1.13756E-01 4.22376E-11-2.09956E-11
 -1      1276-1.26025E-01 1.26192E-01 5.88175E-27 1.39924E-01 3.89247E-11-6.81703E-12
 -1      1277-1.32366E-01 1.32463E-01-2.04473E-27 1.59648E-01 2.26491E-11-9.32263E-12
 -1      1278-1.32202E-01 1.32211E-01 1.26218E-27 1.70382E-01 2.79023E-11 1.74089E-11
 -1      1279-1.25121E-01 1.25093E-01 1.66607E-27 1.67337E-01 4.02338E-11 2.37573E-11
 -1      1280-9.54875E-02 9.57523E-02-2.49911E-27 1.47902E-01 2.07998E-11 3.08163E-12
 -1      1281-4.25821E-01 4.25221E-01 2.07865E-28-9.62937E-02 3.37734E-13 1.77050E-13
 -1      1282-1.64995E-01 1.63705E-01-8.10949E-28-1.22980E-01 7.87996E-14-6.58551E-13
 -1      1283-1.99819E-01 1.99498E-01 4.48073E-28-1.20960E-01 3.31283E-14-5.08690E-13
 -1      1284-1.81422E-01 1.80868E-01-6.05845E-28-1.16247E-01-1.90401E-12-3.73376E-13
 -1      1285-1.69778E-01 1.69224E-01 4.73317E-30-1.03418E-01 5.97561E-12 1.11650E-12
 -1      1286-1.42021E-01 1.41558E-01-2.82728E-27-8.17967E-02-7.43255E-12 1.43283E-12
 -1      1287-1.08631E-01 1.08020E-01-1.01479E-26-4.78146E-02-5.38202E-12-7.49534E-12
 -1      1288-2.30594E-04 4.80690E-05 1.22273E-29 9.34976E-02 7.01048E-17 9.22900E-15
 -1      1289-1.22828E-04 3.01659E-05-1.06003E-29 7.10622E-02 2.00010E-17 2.55599E-14
 -1      1290 9.24242E-07 4.20121E-06 1.57772E-30 4.16128E-02 1.27051E-16 3.58941E-15
 -1      1291 5.15412E-05-2.40907E-05 7.29696E-30 1.19382E-02-2.58665E-18-2.34503E-14
 -1      1292-5.34349E-05-5.84495E-05-5.64529E-30-8.95544E-03-5.41139E-17 3.90755E-15
 -1      1293-3.90400E-04-1.12529E-04 1.08468E-29-8.25738E-03-1.73083E-17-3.59737E-15
 -1      1294-6.29937E-04-2.28838E-04 1.08468E-29 3.71573E-02-3.69468E-17 1.34845E-14
 -1      1295 1.09995E-02-1.08920E-02-3.55057E-12 2.13431E-01 2.19319E-11 8.73197E-12
 -1      1296-4.39453E-02 4.40541E-02 1.21184E-12 1.65076E-01 2.30170E-12 1.70651E-11
 -1      1297-2.85903E-02 2.86646E-02 1.29586E-12 1.73986E-01 1.41917E-11 9.85286E-12
 -1      1298-7.87312E-02 7.88499E-02 1.53291E-11 1.59518E-01 1.47554E-12 1.62917E-11
 -1      1299-6.12989E-02 6.13794E-02 6.05990E-12 1.50974E-01 9.95278E-12 7.01331E-12
 -1      1300-9.90556E-02 9.90730E-02 1.52626E-11 1.53994E-01-2.48012E-12 9.24818E-12
 -1      1301-7.74508E-02 7.75534E-02 6.92677E-12 1.35111E-01 7.67597E-12 4.49291E-12
 -1      1302-1.05602E-01 1.05534E-01 2.40912E-12 1.41903E-01-1.65526E-12 2.55312E-12
 -1      1303-8.12270E-02 8.13494E-02 3.91969E-13 1.15350E-01 6.06594E-12 2.79322E-12
 -1      1304-1.01492E-01 1.01357E-01-3.94707E-12 1.20870E-01-2.18981E-13-2.82711E-12
 -1      1305-7.87521E-02 7.88837E-02-5.44596E-12 8.47171E-02 4.20620E-12-6.18807E-13
 -1      1306-8.82785E-02 8.80898E-02 1.59864E-13 8.81594E-02 5.46338E-13-9.96226E-12
 -1      1307-7.62603E-02 7.63873E-02-3.75658E-13 3.78508E-02 4.97948E-12-2.55134E-12
 -1      1308-6.62173E-02 6.59896E-02 1.41944E-11 3.84565E-02 1.06952E-11-9.42664E-12
 -1      1309-8.34259E-02 8.35334E-02-6.52151E-12-2.88273E-02 8.54824E-12-6.27750E-12
 -1      1310 1.69581E-02-1.67346E-02 3.08194E-12 2.43791E-01 8.82833E-12 1.48849E-12
 -1      1311-4.16624E-03 4.14174E-03 1.05244E-14 2.06151E-01 1.18092E-11 2.82876E-12
 -1      1312-1.04838E-03 1.20922E-03 8.48291E-13 1.95194E-01 1.04974E-11 1.35895E-12
 -1      1313-3.00964E-02 3.00971E-02 2.13364E-12 1.66804E-01 1.08668E-11 5.63059E-12
 -1      1314-2.52517E-02 2.53749E-02-4.53303E-12 1.51184E-01 8.36551E-12 1.68931E-12
 -1      1315-5.24567E-02 5.24299E-02-6.06745E-13 1.37424E-01 5.55719E-12 1.02964E-12
 -1      1316-4.98292E-02 4.99323E-02-6.41819E-12 1.13266E-01 2.82609E-12-5.46831E-13
 -1      1317-6.81062E-02 6.80084E-02 1.11534E-12 1.10243E-01 3.31649E-12 7.27431E-13
 -1      1318-6.97260E-02 6.98239E-02-5.49619E-12 7.76880E-02-1.46639E-12-2.08688E-13
 -1      1319-7.72230E-02 7.70492E-02-6.21956E-12 7.77487E-02 1.79015E-12 2.75570E-12
 -1      1320-8.45093E-02 8.46097E-02-5.25164E-12 3.82687E-02-7.59785E-12 4.30156E-13
 -1      1321-8.30223E-02 8.27700E-02-4.47804E-12 3.51435E-02-1.90991E-12 2.10744E-13
 -1      1322-9.89107E-02 9.90176E-02 1.38255E-12-9.24658E-03-1.16466E-11 4.42248E-13
 -1      1323-9.23193E-02 9.20033E-02 5.48496E-12-2.00427E-02 2.28146E-13 1.37561E-12
 -1      1324-1.17510E-01 1.17632E-01 8.07630E-12-6.63747E-02-9.71303E-12 1.05025E-12
 -1      1325 2.53226E-02-2.49887E-02 2.83863E-12 2.46175E-01 5.64846E-12 1.58662E-12
 -1      1326 1.13879E-02-1.16142E-02 5.07659E-13 2.18997E-01 6.53969E-12 1.15881E-12
 -1      1327 1.45237E-02-1.42632E-02-3.24909E-12 1.96615E-01 2.83262E-12 1.16209E-13
 -1      1328-6.21149E-03 6.02924E-03-2.90845E-12 1.71243E-01 4.57979E-12 3.89520E-13
 -1      1329-3.82340E-03 4.02960E-03-2.63289E-12 1.49148E-01 5.26395E-13 5.86064E-13
 -1      1330-2.83122E-02 2.81382E-02-4.25746E-12 1.27045E-01 2.50483E-12 1.28363E-12
 -1      1331-2.72647E-02 2.74318E-02-2.10363E-14 1.03184E-01-9.71261E-13-6.59242E-13
 -1      1332-5.09447E-02 5.07501E-02-2.18175E-12 8.68125E-02-2.02933E-12-2.50371E-12
 -1      1333-5.29090E-02 5.30518E-02-2.94687E-13 5.88818E-02-1.43518E-12-1.80890E-12
 -1      1334-7.18032E-02 7.15526E-02-3.60912E-12 4.71935E-02-3.97529E-12-1.43587E-12
 -1      1335-8.02718E-02 8.04002E-02-1.35541E-12 1.40598E-02 7.82491E-15-8.27508E-13
 -1      1336-9.25322E-02 9.22266E-02-2.99793E-12 2.95773E-03-6.69315E-12-1.55909E-12
 -1      1337-1.07531E-01 1.07650E-01-1.33249E-12-3.48295E-02 7.73965E-13-6.07114E-13
 -1      1338-1.14816E-01 1.14430E-01 3.04799E-12-4.82924E-02-6.66553E-12-3.83526E-13
 -1      1339-1.39322E-01 1.39437E-01 4.17951E-12-8.88301E-02 1.15550E-12-4.11087E-13
 -1      1340 3.58319E-02-3.54272E-02-5.42972E-13 2.27050E-01 2.73982E-13-2.48222E-14
 -1      1341 2.48328E-02-2.52544E-02-6.97255E-13 2.13558E-01 1.07760E-12 2.40534E-13
 -1      1342 3.74514E-02-3.71076E-02-1.12567E-12 1.88159E-01 7.36439E-13 4.66415E-13
 -1      1343 1.58667E-02-1.62162E-02-3.67750E-12 1.70680E-01-2.90639E-13 2.27851E-13
 -1      1344 2.21219E-02-2.18386E-02-2.30156E-12 1.46467E-01 1.79072E-13 5.19605E-13
 -1      1345-4.35098E-03 4.03570E-03-1.25695E-12 1.25719E-01-1.68995E-12 6.88260E-13
 -1      1346-4.74275E-03 4.97211E-03-1.62486E-12 1.01397E-01-2.39418E-12-2.59553E-13
 -1      1347-3.16138E-02 3.13102E-02-3.88940E-13 7.87639E-02-3.60130E-12-1.70519E-12
 -1      1348-3.72522E-02 3.74396E-02-6.66366E-13 5.29188E-02-1.73496E-12-8.37085E-14
 -1      1349-6.17308E-02 6.14232E-02-5.72116E-13 3.13233E-02-2.20601E-12-5.44659E-13
 -1      1350-6.95928E-02 6.97525E-02-7.35987E-13 2.94979E-03-1.62445E-12 1.77785E-13
 -1      1351-9.13395E-02 9.09705E-02-1.51928E-12-1.60109E-02-1.72838E-12 6.34810E-13
 -1      1352-1.07788E-01 1.07925E-01-8.66733E-13-4.81622E-02-3.70397E-12-1.49025E-13
 -1      1353-1.26011E-01 1.25613E-01-6.79941E-13-6.77229E-02-2.80605E-12-6.66414E-13
 -1      1354-1.47905E-01 1.48022E-01-8.71927E-13-1.03228E-01-4.34138E-12-8.97941E-13
 -1      1355 4.35224E-02-4.30984E-02 1.13952E-13 1.82929E-01-2.86931E-13 2.08048E-13
 -1      1356 4.20092E-02-4.25510E-02-4.13078E-14 1.89001E-01 5.27918E-13 4.78762E-13
 -1      1357 6.27297E-02-6.23135E-02 3.25657E-13 1.65401E-01-2.61299E-13 5.96366E-13
 -1      1358 4.36286E-02-4.41016E-02-7.58705E-13 1.60265E-01 8.96963E-13 1.24576E-12
 -1      1359 5.78149E-02-5.74371E-02 6.45678E-13 1.39166E-01-4.32382E-13 5.45806E-13
 -1      1360 2.66763E-02-2.71111E-02-8.97176E-13 1.26404E-01-8.18931E-13-2.35745E-13
 -1      1361 3.13393E-02-3.10184E-02 5.19324E-13 1.05596E-01 6.95892E-14-4.46896E-14
 -1      1362-4.84238E-03 4.42204E-03-2.08355E-13 8.52800E-02-7.68507E-13 2.68779E-13
 -1      1363-1.26596E-02 1.29164E-02 3.24871E-14 6.27427E-02-3.85151E-13 3.46632E-13
 -1      1364-4.59739E-02 4.55609E-02-4.25523E-13 3.46715E-02-5.66622E-13 5.24634E-13
 -1      1365-6.52681E-02 6.54654E-02 6.37635E-13 8.43849E-03-5.83591E-13-5.80316E-14
 -1      1366-9.08432E-02 9.04796E-02 3.27172E-13-2.24763E-02-1.52487E-12-9.83093E-13
 -1      1367-1.05337E-01 1.05494E-01-2.33693E-13-5.15087E-02 6.30563E-13-3.53766E-13
 -1      1368-1.28119E-01 1.27652E-01-1.42760E-12-7.57077E-02-1.72452E-12-1.68212E-13
 -1      1369-1.56267E-01 1.56387E-01-4.86344E-13-1.07677E-01-2.16974E-13-3.96894E-13
 -1      1370 3.55715E-02-3.51945E-02-3.50551E-13 1.30508E-01-2.71697E-13 3.76200E-14
 -1      1371 5.21501E-02-5.27029E-02 6.46129E-14 1.50626E-01-3.54329E-13 6.89814E-14
 -1      1372 6.78068E-02-6.73518E-02-2.50350E-13 1.31872E-01-3.41059E-13 1.99377E-13
 -1      1373 6.67024E-02-6.72262E-02 1.06925E-14 1.36727E-01-2.03570E-13 5.92120E-13
 -1      1374 7.98907E-02-7.94100E-02 1.58550E-14 1.20457E-01-3.07243E-13 4.15543E-13
 -1      1375 5.97227E-02-6.02258E-02 6.50839E-13 1.17086E-01-1.75639E-13 3.46888E-13
 -1      1376 6.83154E-02-6.78562E-02 9.03808E-14 1.01795E-01-6.52439E-13-1.57189E-13
 -1      1377 3.13610E-02-3.18598E-02-4.11361E-14 9.16649E-02-5.81677E-13-5.39285E-13
 -1      1378 3.07903E-02-3.03932E-02-1.76887E-13 7.60538E-02-5.31843E-13-8.52758E-14
 -1      1379-1.67686E-02 1.62523E-02-1.03266E-13 5.56863E-02-3.74250E-13 4.45906E-13
 -1      1380-3.50571E-02 3.53630E-02-9.99544E-15 3.74565E-02-5.53111E-13 1.54495E-13
 -1      1381-7.95968E-02 7.90457E-02 7.30906E-13-7.94574E-04-2.96544E-13-2.50597E-13
 -1      1382-1.24877E-01 1.25084E-01 4.94774E-13-2.71442E-02-5.10194E-13 3.08907E-14
 -1      1383-1.49631E-01 1.49329E-01-4.69825E-13-7.77909E-02 2.63770E-13 1.35141E-13
 -1      1384-1.52497E-01 1.52654E-01-4.40423E-13-1.09183E-01-1.32620E-13-4.69437E-13
 -1      1385 1.33980E-02-1.31196E-02 2.60316E-13 9.87984E-02 3.18261E-13 7.29706E-14
 -1      1386 4.10446E-02-4.14923E-02-3.79420E-14 1.17556E-01-1.20069E-13-2.63453E-14
 -1      1387 3.86727E-02-3.82760E-02 1.67239E-13 1.00300E-01 3.94991E-13 1.13910E-13
 -1      1388 6.25888E-02-6.30811E-02-4.51685E-14 1.08293E-01 1.65536E-13 4.67771E-13
 -1      1389 5.98096E-02-5.93131E-02 1.40416E-13 9.26868E-02 3.35223E-13 1.77839E-13
 -1      1390 6.94993E-02-7.00124E-02 2.01440E-13 9.29909E-02-1.72898E-13 1.53125E-13
 -1      1391 6.68108E-02-6.62571E-02-9.48797E-14 7.73076E-02 1.01877E-13-6.27838E-14
 -1      1392 5.65180E-02-5.70487E-02-2.05939E-13 7.57021E-02-4.14503E-13-3.23131E-13
 -1      1393 5.46715E-02-5.41228E-02-9.39719E-14 5.82691E-02 7.01953E-14-7.43003E-15
 -1      1394 2.03155E-02-2.08706E-02-6.49205E-14 5.74960E-02-1.59935E-13 2.15618E-13
 -1      1395 1.67942E-02-1.63254E-02 1.23115E-15 3.82781E-02 5.83066E-14 4.73302E-14
 -1      1396-4.29373E-02 4.23249E-02 5.61566E-14 3.25655E-02-3.93037E-13-7.56473E-14
 -1      1397-6.51232E-02 6.54430E-02 4.73011E-14 1.18306E-02 1.28004E-14-1.55430E-14
 -1      1398-1.32385E-01 1.31460E-01 4.85919E-13-3.00624E-02-1.26899E-13 1.81821E-14
 -1      1399-2.56453E-01 2.56557E-01 2.77285E-13-6.88187E-02 2.05354E-13 8.97953E-14
 -1      1400 1.59737E-02-1.62942E-02 4.44977E-14 1.12229E-01 7.10643E-14-1.79909E-14
 -1      1401 2.76615E-02-2.80278E-02 1.22741E-13 9.94576E-02 1.39428E-13 8.84947E-14
 -1      1402 3.35744E-02-3.39919E-02 1.76749E-14 7.44558E-02 1.76143E-14 1.98162E-14
 -1      1403 3.10328E-02-3.15073E-02-1.12555E-13 4.31234E-02-3.90232E-14-5.74947E-14
 -1      1404 1.77526E-02-1.82794E-02 1.85826E-14 1.35524E-02-7.55435E-15 5.34684E-14
 -1      1405-1.12703E-02 1.07147E-02-1.73514E-14-4.49548E-03-7.59995E-14-2.53813E-14
 -1      1406-6.99398E-02 6.94606E-02 6.46527E-14 2.14852E-03-2.04343E-14 2.35621E-15
 -1      1407 1.33980E-02-1.31196E-02-2.60316E-13 9.87984E-02 1.17731E-13 7.07982E-14
 -1      1408 1.59737E-02-1.62942E-02-4.44977E-14 1.12229E-01 1.69151E-14 2.71501E-14
 -1      1409 3.86727E-02-3.82760E-02-1.67239E-13 1.00300E-01 2.22644E-13 7.88715E-14
 -1      1410 2.76615E-02-2.80278E-02-1.22741E-13 9.94576E-02 2.14377E-14 8.32099E-15
 -1      1411 5.98096E-02-5.93131E-02-1.40416E-13 9.26868E-02 2.17427E-13 7.26512E-14
 -1      1412 3.35744E-02-3.39919E-02-1.76749E-14 7.44558E-02 1.78204E-14-5.18701E-15
 -1      1413 6.68108E-02-6.62571E-02 9.48797E-14 7.73076E-02 1.44332E-13-2.29118E-14
 -1      1414 3.10328E-02-3.15073E-02 1.12555E-13 4.31234E-02 3.37223E-15 7.40618E-15
 -1      1415 5.46715E-02-5.41228E-02 9.39719E-14 5.82691E-02 8.17032E-14-5.05690E-14
 -1      1416 1.77526E-02-1.82794E-02-1.85826E-14 1.35524E-02-3.83420E-14-5.45185E-14
 -1      1417 1.67942E-02-1.63254E-02-1.23115E-15 3.82781E-02 1.21985E-13-3.07686E-14
 -1      1418-1.12703E-02 1.07147E-02 1.73514E-14-4.49548E-03 1.85357E-14 4.61712E-15
 -1      1419-6.51232E-02 6.54430E-02-4.73011E-14 1.18306E-02 1.73910E-13-1.15511E-14
 -1      1420-6.99398E-02 6.94606E-02-6.46527E-14 2.14852E-03 4.69633E-14-2.40034E-14
 -1      1421-2.56453E-01 2.56557E-01-2.77285E-13-6.88187E-02 3.20224E-13 2.14008E-13
 -1      1422 3.55715E-02-3.51945E-02 3.50551E-13 1.30508E-01-2.79839E-13-3.69453E-14
 -1      1423 4.10446E-02-4.14923E-02 3.79420E-14 1.17556E-01-7.98499E-14 6.50968E-14
 -1      1424 6.78068E-02-6.73518E-02 2.50350E-13 1.31872E-01-2.90863E-13-1.53308E-14
 -1      1425 6.25888E-02-6.30811E-02 4.51685E-14 1.08293E-01 3.24769E-15 1.26457E-13
 -1      1426 7.98907E-02-7.94100E-02-1.58550E-14 1.20457E-01-1.51369E-13 5.11110E-14
 -1      1427 6.94993E-02-7.00124E-02-2.01440E-13 9.29909E-02 2.70843E-14 2.47701E-14
 -1      1428 6.83154E-02-6.78562E-02-9.03808E-14 1.01795E-01-7.87309E-14-1.28616E-13
 -1      1429 5.65180E-02-5.70487E-02 2.05939E-13 7.57021E-02 1.36815E-15-1.26263E-13
 -1      1430 3.07903E-02-3.03932E-02 1.76887E-13 7.60538E-02 2.89062E-14-2.34802E-13
 -1      1431 2.03155E-02-2.08706E-02 6.49205E-14 5.74960E-02-3.89058E-15-1.73933E-13
 -1      1432-3.50571E-02 3.53630E-02 9.99544E-15 3.74565E-02 6.80565E-14-1.04102E-13
 -1      1433-4.29373E-02 4.23249E-02-5.61566E-14 3.25655E-02 1.35931E-13-2.28908E-14
 -1      1434-1.24877E-01 1.25084E-01-4.94774E-13-2.71442E-02 3.57649E-13 1.39396E-14
 -1      1435-1.32385E-01 1.31460E-01-4.85919E-13-3.00624E-02 3.74177E-13-4.92067E-14
 -1      1436-1.52497E-01 1.52654E-01 4.40423E-13-1.09183E-01 8.28677E-13-1.42403E-13
 -1      1437 4.35224E-02-4.30984E-02-1.13952E-13 1.82929E-01-8.45046E-13-8.92211E-14
 -1      1438 5.21501E-02-5.27029E-02-6.46129E-14 1.50626E-01-3.75963E-13 8.32378E-14
 -1      1439 6.27297E-02-6.23135E-02-3.25657E-13 1.65401E-01-7.44917E-13-4.12539E-14
 -1      1440 6.67024E-02-6.72262E-02-1.06925E-14 1.36727E-01-6.15567E-13-2.74476E-13
 -1      1441 5.78149E-02-5.74371E-02-6.45678E-13 1.39166E-01-6.93312E-13-3.41350E-13
 -1      1442 5.97227E-02-6.02258E-02-6.50839E-13 1.17086E-01 1.30884E-13-3.80582E-14
 -1      1443 3.13393E-02-3.10184E-02-5.19324E-13 1.05596E-01 6.57170E-13-1.76768E-13
 -1      1444 3.13610E-02-3.18598E-02 4.11361E-14 9.16649E-02 2.72326E-13-2.57638E-13
 -1      1445-1.26596E-02 1.29164E-02-3.24871E-14 6.27427E-02 2.86434E-13-3.14770E-14
 -1      1446-1.67686E-02 1.62523E-02 1.03266E-13 5.56863E-02 3.27043E-15-3.62711E-13
 -1      1447-6.52681E-02 6.54654E-02-6.37635E-13 8.43849E-03 1.87473E-13-6.33701E-13
 -1      1448-7.95968E-02 7.90457E-02-7.30906E-13-7.94574E-04 7.18202E-13-2.76627E-13
 -1      1449-1.05337E-01 1.05494E-01 2.33693E-13-5.15087E-02 1.85956E-12-5.26862E-13
 -1      1450-1.49631E-01 1.49329E-01 4.69825E-13-7.77909E-02 1.34593E-12-2.89029E-14
 -1      1451-1.56267E-01 1.56387E-01 4.86344E-13-1.07677E-01 1.28886E-12 6.63692E-14
 -1      1452 3.58319E-02-3.54272E-02 5.42972E-13 2.27050E-01 1.79252E-12-8.88881E-13
 -1      1453 4.20092E-02-4.25510E-02 4.13078E-14 1.89001E-01 1.42888E-12 1.52844E-13
 -1      1454 3.74514E-02-3.71076E-02 1.12567E-12 1.88159E-01 2.41489E-12-1.00083E-12
 -1      1455 4.36286E-02-4.41016E-02 7.58705E-13 1.60265E-01 1.19037E-12-5.32694E-13
 -1      1456 2.21219E-02-2.18386E-02 2.30156E-12 1.46467E-01 2.26677E-12-1.13004E-12
 -1      1457 2.66763E-02-2.71111E-02 8.97176E-13 1.26404E-01 7.13948E-13-9.93866E-13
 -1      1458-4.74275E-03 4.97211E-03 1.62486E-12 1.01397E-01 8.83887E-13-4.87825E-13
 -1      1459-4.84238E-03 4.42204E-03 2.08355E-13 8.52800E-02 1.56258E-12 6.67080E-13
 -1      1460-3.72522E-02 3.74396E-02 6.66366E-13 5.29188E-02 1.33444E-12-6.23160E-13
 -1      1461-4.59739E-02 4.55609E-02 4.25523E-13 3.46715E-02 8.41887E-13-7.87787E-13
 -1      1462-6.95928E-02 6.97525E-02 7.35987E-13 2.94979E-03 1.23336E-12-7.56896E-13
 -1      1463-9.08432E-02 9.04796E-02-3.27172E-13-2.24763E-02 6.94745E-13-1.18123E-12
 -1      1464-1.07788E-01 1.07925E-01 8.66733E-13-4.81622E-02-4.42347E-13-5.05797E-13
 -1      1465-1.28119E-01 1.27652E-01 1.42760E-12-7.57077E-02 5.46313E-13-4.96773E-13
 -1      1466-1.47905E-01 1.48022E-01 8.71927E-13-1.03228E-01-8.10754E-13-1.62349E-13
 -1      1467 2.53226E-02-2.49887E-02-2.83863E-12 2.46175E-01 8.44547E-12-5.39917E-13
 -1      1468 2.48328E-02-2.52544E-02 6.97255E-13 2.13558E-01 3.88900E-12-9.38818E-13
 -1      1469 1.45237E-02-1.42632E-02 3.24909E-12 1.96615E-01 5.99411E-12-2.88417E-12
 -1      1470 1.58667E-02-1.62162E-02 3.67750E-12 1.70680E-01 1.73561E-12-3.05913E-12
 -1      1471-3.82340E-03 4.02960E-03 2.63289E-12 1.49148E-01 4.70236E-12-2.08165E-12
 -1      1472-4.35098E-03 4.03570E-03 1.25695E-12 1.25719E-01 2.54547E-12-3.42549E-13
 -1      1473-2.72647E-02 2.74318E-02 2.10363E-14 1.03184E-01 5.28698E-12-5.17085E-13
 -1      1474-3.16138E-02 3.13102E-02 3.88940E-13 7.87639E-02 1.69876E-12-7.61597E-13
 -1      1475-5.29090E-02 5.30518E-02 2.94687E-13 5.88818E-02 4.30921E-12-1.90150E-12
 -1      1476-6.17308E-02 6.14232E-02 5.72116E-13 3.13233E-02 1.30544E-12-2.12233E-12
 -1      1477-8.02718E-02 8.04002E-02 1.35541E-12 1.40598E-02 4.80449E-12-1.62067E-12
 -1      1478-9.13395E-02 9.09705E-02 1.51928E-12-1.60109E-02 2.41447E-12 4.85633E-13
 -1      1479-1.07531E-01 1.07650E-01 1.33249E-12-3.48295E-02 5.54826E-12-6.16762E-13
 -1      1480-1.26011E-01 1.25613E-01 6.79941E-13-6.77229E-02 1.08929E-12-8.88573E-13
 -1      1481-1.39322E-01 1.39437E-01-4.17951E-12-8.88301E-02 5.92792E-12 1.13715E-12
 -1      1482 1.69581E-02-1.67346E-02-3.08194E-12 2.43791E-01 2.52157E-13-3.03956E-12
 -1      1483 1.13879E-02-1.16142E-02-5.07659E-13 2.18997E-01 4.72450E-12-1.67446E-12
 -1      1484-1.04838E-03 1.20922E-03-8.48291E-13 1.95194E-01 2.61522E-12-4.16228E-12
 -1      1485-6.21149E-03 6.02924E-03 2.90845E-12 1.71243E-01 1.67618E-12-5.29964E-12
 -1      1486-2.52517E-02 2.53749E-02 4.53303E-12 1.51184E-01 2.43022E-12-2.60381E-12
 -1      1487-2.83122E-02 2.81382E-02 4.25746E-12 1.27045E-01 3.65261E-12 1.13294E-14
 -1      1488-4.98292E-02 4.99323E-02 6.41819E-12 1.13266E-01 8.27194E-13 8.56670E-14
 -1      1489-5.09447E-02 5.07501E-02 2.18175E-12 8.68125E-02 1.08728E-12-4.57993E-13
 -1      1490-6.97260E-02 6.98239E-02 5.49619E-12 7.76880E-02-3.39538E-12 9.08189E-13
 -1      1491-7.18032E-02 7.15526E-02 3.60912E-12 4.71935E-02-3.27433E-12-2.45983E-12
 -1      1492-8.45093E-02 8.46097E-02 5.25164E-12 3.82687E-02-1.07471E-11 8.04674E-13
 -1      1493-9.25322E-02 9.22266E-02 2.99793E-12 2.95773E-03-5.74453E-12-9.53272E-13
 -1      1494-9.89107E-02 9.90176E-02-1.38255E-12-9.24658E-03-1.51470E-11 1.52603E-12
 -1      1495-1.14816E-01 1.14430E-01-3.04799E-12-4.82924E-02-6.33299E-12 7.81390E-14
 -1      1496-1.17510E-01 1.17632E-01-8.07630E-12-6.63747E-02-1.31692E-11 4.11472E-12
 -1      1497 1.09995E-02-1.08920E-02 3.55057E-12 2.13431E-01-2.26951E-12-7.12073E-15
 -1      1498-4.16624E-03 4.14174E-03-1.05244E-14 2.06151E-01-2.79651E-12-2.81047E-12
 -1      1499-2.85903E-02 2.86646E-02-1.29586E-12 1.73986E-01-8.03318E-12 1.41611E-12
 -1      1500-3.00964E-02 3.00971E-02-2.13364E-12 1.66804E-01-4.63690E-12-2.68865E-12
 -1      1501-6.12989E-02 6.13794E-02-6.05990E-12 1.50974E-01-9.68923E-12 9.16687E-13
 -1      1502-5.24567E-02 5.24299E-02 6.06745E-13 1.37424E-01-4.51512E-12-1.04268E-12
 -1      1503-7.74508E-02 7.75534E-02-6.92677E-12 1.35111E-01-6.83059E-12 5.24743E-12
 -1      1504-6.81062E-02 6.80084E-02-1.11534E-12 1.10243E-01-3.11358E-12 4.18506E-12
 -1      1505-8.12270E-02 8.13494E-02-3.91969E-13 1.15350E-01-7.36556E-12 5.44677E-12
 -1      1506-7.72230E-02 7.70492E-02 6.21956E-12 7.77487E-02-7.13901E-12 3.06541E-12
 -1      1507-7.87521E-02 7.88837E-02 5.44596E-12 8.47171E-02-1.02719E-11 1.47770E-12
 -1      1508-8.30223E-02 8.27700E-02 4.47804E-12 3.51435E-02-1.06053E-11 2.37266E-12
 -1      1509-7.62603E-02 7.63873E-02 3.75658E-13 3.78508E-02-9.83970E-12 4.35226E-15
 -1      1510-9.23193E-02 9.20033E-02-5.48496E-12-2.00427E-02-9.39337E-12 2.85452E-12
 -1      1511-8.34259E-02 8.35334E-02 6.52151E-12-2.88273E-02-6.10829E-12-1.84655E-12
 -1      1512-4.39453E-02 4.40541E-02-1.21184E-12 1.65076E-01-2.57697E-12 6.83899E-12
 -1      1513-7.87312E-02 7.88499E-02-1.53291E-11 1.59518E-01-2.15983E-12 5.82924E-12
 -1      1514-9.90556E-02 9.90730E-02-1.52626E-11 1.53994E-01-5.85055E-14 6.18316E-12
 -1      1515-1.05602E-01 1.05534E-01-2.40912E-12 1.41903E-01 5.90410E-12 7.08929E-12
 -1      1516-1.01492E-01 1.01357E-01 3.94707E-12 1.20870E-01 5.50155E-12-6.18476E-13
 -1      1517-8.82785E-02 8.80898E-02-1.59864E-13 8.81594E-02 6.44072E-12-6.22653E-12
 -1      1518-6.62173E-02 6.59896E-02-1.41944E-11 3.84565E-02 1.56795E-11-6.75075E-12
 -1      1519-1.25519E-02 1.26837E-02-8.67747E-29 1.89093E-01 9.06134E-12 6.29786E-12
 -1      1520-5.01431E-02 5.01603E-02 2.07944E-27 1.58445E-01 1.98817E-12 5.01753E-12
 -1      1521-7.19386E-02 7.19008E-02-1.88064E-27 1.41790E-01-3.42541E-13 4.53421E-12
 -1      1522-8.00162E-02 7.99423E-02-4.98560E-27 1.25490E-01-3.51655E-13 7.84359E-12
 -1      1523-7.92877E-02 7.91839E-02-8.45659E-28 1.01190E-01-3.75988E-12 2.86055E-12
 -1      1524-7.56061E-02 7.54768E-02 3.20593E-27 6.30306E-02-2.34593E-12-1.40054E-12
 -1      1525-7.59246E-02 7.57263E-02-6.44973E-27 6.73362E-03-1.42713E-12 1.71927E-13
 -1      1526 8.31619E-03-8.41344E-03-1.34580E-27 2.18317E-01 5.40751E-12-9.35264E-13
 -1      1527-1.47845E-02 1.47369E-02 1.36000E-27 1.71239E-01 5.13946E-12 3.91090E-13
 -1      1528-4.03556E-02 4.02496E-02 5.55516E-27 1.30282E-01 3.40213E-12 4.26623E-13
 -1      1529-6.17596E-02 6.15668E-02 3.77391E-27 9.46953E-02 6.71108E-15 3.75702E-14
 -1      1530-7.81256E-02 7.78554E-02 1.59350E-27 5.80555E-02-5.57759E-12 3.65184E-13
 -1      1531-9.12314E-02 9.08809E-02 1.39549E-27 1.53023E-02-1.06690E-11-5.50127E-13
 -1      1532-1.07299E-01 1.06917E-01 4.49651E-29-3.72136E-02-1.17560E-11 1.30893E-12
 -1      1533 2.03572E-02-2.06432E-02 1.49884E-28 2.20247E-01 4.99156E-12 8.88664E-13
 -1      1534 5.36654E-03-5.59883E-03-6.62643E-29 1.71993E-01 2.61469E-12-2.36875E-12
 -1      1535-1.66876E-02 1.64661E-02 9.15079E-29 1.25070E-01 3.66638E-12 4.65083E-14
 -1      1536-4.20714E-02 4.18132E-02-1.60928E-28 8.00150E-02 1.33312E-12-1.89283E-12
 -1      1537-6.75146E-02 6.72072E-02 2.20881E-29 3.63820E-02 1.35755E-12-2.37302E-12
 -1      1538-9.49266E-02 9.45836E-02 1.39628E-28-1.04611E-02 3.06552E-12-6.19649E-13
 -1      1539-1.22577E-01 1.22154E-01 4.96194E-28-6.13241E-02 4.05444E-12-8.49584E-13
 -1      1540 3.98810E-02-4.02697E-02-3.30533E-28 2.08527E-01 1.55072E-12-5.89463E-15
 -1      1541 3.21291E-02-3.24444E-02-1.32134E-28 1.67860E-01 1.34687E-12-5.10679E-13
 -1      1542 9.96882E-03-1.02625E-02 3.50649E-28 1.24185E-01 2.33460E-13-5.02582E-13
 -1      1543-2.17141E-02 2.14076E-02 8.75636E-29 7.67592E-02-4.14723E-13-3.48642E-13
 -1      1544-5.64137E-02 5.60483E-02 6.03479E-29 2.68978E-02-1.48330E-13-6.28097E-13
 -1      1545-8.82517E-02 8.78217E-02 4.38607E-28-2.20037E-02-1.03712E-12-3.19490E-13
 -1      1546-1.29453E-01 1.29054E-01 7.29696E-28-7.63619E-02-2.67185E-12-4.97102E-13
 -1      1547 5.93432E-02-5.97639E-02-2.87934E-29 1.77569E-01-4.31065E-13 2.24784E-13
 -1      1548 6.55381E-02-6.58546E-02 1.26218E-29 1.54612E-01-4.54142E-13 2.49195E-13
 -1      1549 4.94129E-02-4.97010E-02-1.48700E-28 1.24421E-01-2.48141E-13-4.07452E-13
 -1      1550 1.34524E-02-1.37448E-02-7.53362E-29 8.60232E-02 2.72664E-13 1.76489E-13
 -1      1551-3.80178E-02 3.76876E-02 1.37262E-28 3.63508E-02-1.70195E-13-4.73120E-14
 -1      1552-9.39160E-02 9.34628E-02-1.05707E-28-2.43312E-02 2.46261E-13-8.26646E-13
 -1      1553-1.26758E-01 1.26166E-01-1.26218E-28-7.79529E-02 1.18505E-12-1.92655E-13
 -1      1554 5.79362E-02-5.83186E-02 3.94430E-29 1.35701E-01-3.12067E-13 1.47736E-14
 -1      1555 7.97062E-02-7.99563E-02 5.22620E-29 1.29147E-01-2.13431E-13 1.85852E-13
 -1      1556 8.02342E-02-8.04157E-02-7.84917E-29 1.13628E-01-2.04279E-13 2.35681E-13
 -1      1557 5.68722E-02-5.70519E-02 9.07190E-30 9.16983E-02-4.90179E-13-3.83094E-13
 -1      1558 7.15162E-03-7.35128E-03 8.29783E-29 6.03850E-02-1.65064E-13 1.70738E-14
 -1      1559-7.11823E-02 7.09954E-02-9.76215E-30 9.07710E-03-1.88393E-13-3.15307E-14
 -1      1560-1.71796E-01 1.71420E-01-3.61298E-28-7.78612E-02 7.01769E-14 7.54193E-15
 -1      1561 2.62368E-02-2.64898E-02-2.43068E-29 1.00608E-01 2.10124E-13 1.43775E-14
 -1      1562 5.19847E-02-5.21556E-02-2.40356E-29 9.86398E-02 3.64790E-13 1.81993E-13
 -1      1563 6.72167E-02-6.73098E-02-3.36005E-29 8.69788E-02 1.57628E-13 7.06816E-14
 -1      1564 6.58032E-02-6.59037E-02 4.49497E-29 6.94173E-02 6.29913E-14-1.07337E-13
 -1      1565 4.36098E-02-4.38345E-02 2.28030E-30 5.01735E-02 1.02509E-13-5.53405E-15
 -1      1566-7.59742E-03 7.20636E-03-1.75891E-29 2.93674E-02 7.40460E-14-2.41616E-14
 -1      1567-1.10208E-01 1.09810E-01 2.31728E-29-1.20625E-02 1.73967E-13 3.14001E-15
 -3
    1PSTEP                         4           1           1          
  100CL  101 1.000000000         531                     0    1           1
 -4  FORC        4    1
 -5  F1          1    2    1    0
 -5  F2          1    2    2    0
 -5  F3          1    2    3    0
 -5  ALL         1    2    0    0    1ALL
 -1      1037 3.39966E-09-5.20833E+00-6.71730E+00
 -1      1038 6.53049E-09-5.20833E+00 6.71730E+00
 -1      1039 2.75422E+01 2.86857E+01 4.54404E+01
 -1      1040 2.75422E+01 2.86857E+01-4.54404E+01
 -1      1041 1.19215E-09-5.20833E+00 1.79005E+01
 -1      1042-9.14192E-10-5.20833E+00-1.79005E+01
 -1      1043 1.72947E+02-2.79054E+02 3.40560E+01
 -1      1044 1.72947E+02-2.79054E+02-3.40560E+01
 -1      1045 1.84658E-09-3.04960E-09 1.13883E+01
 -1      1046 1.49935E-09 1.17939E-10 6.09220E+01
 -1      1047-5.42893E-10 1.12878E-09 1.02703E+02
 -1      1048-7.36195E-11 2.55723E-10 1.44216E+02
 -1      1049-3.13947E-10 2.15436E-10 1.62236E+02
 -1      1050 2.19943E-11 1.61984E-10 1.42573E+02
 -1      1051-2.30612E-10-1.51927E-10 1.01392E+02
 -1      1052-3.69748E-10-7.05230E-11-1.13883E+01
 -1      1053 1.88868E-09 1.00533E-09-6.09220E+01
 -1      1054-1.63258E-09 1.16748E-09-1.02703E+02
 -1      1055-1.07566E-09 1.07597E-09-1.44216E+02
 -1      1056-1.37889E-10 3.22859E-12-1.62236E+02
 -1      1057-6.93796E-10 2.83836E-10-1.42573E+02
 -1      1058 8.16474E-11-8.23404E-11-1.01392E+02
 -1      1059 6.71809E-10-1.04167E+01 3.44945E+00
 -1      1060 5.29307E-09-1.04167E+01-3.79518E+00
 -1      1061 2.69320E-10-1.04167E+01-1.19020E+00
 -1      1062 2.52071E-09-1.04167E+01 3.35478E+00
 -1      1063 2.14169E-09-1.04167E+01 8.84136E+00
 -1      1064-8.92071E-09-1.04167E+01 1.14613E+01
 -1      1065 3.19984E-09-1.04167E+01 2.15734E+00
 -1      1066-2.59118E-09-1.04167E+01-3.44945E+00
 -1      1067-6.77624E-09-1.04167E+01 3.79518E+00
 -1      1068 4.38584E-09-1.04167E+01 1.19020E+00
 -1      1069-8.01100E-10-1.04167E+01-3.35478E+00
 -1      1070 6.39557E-09-1.04167E+01-8.84136E+00
 -1      1071 3.69988E-09-1.04167E+01-1.14613E+01
 -1      1072-1.61597E-09-1.04167E+01-2.15734E+00
 -1      1073 1.57897E-10 2.99854E-11 5.32943E+01
 -1      1074 7.22896E-10-4.49747E-11 1.25619E+02
 -1      1075-1.72990E-10 1.81034E-09 2.29508E+01
 -1      1076-7.32856E-10 2.56759E-09 4.15618E+01
 -1      1077-1.28593E-09 3.20668E-09 4.04824E+01
 -1      1078 3.99473E-10 3.03703E-09 3.09900E+01
 -1      1079 3.59255E-10 1.27319E-09 3.28475E+01
 -1      1080-9.22072E-11 8.73390E-11-5.32943E+01
 -1      1081 1.89062E-10-1.53958E-10-1.25619E+02
 -1      1082-6.16511E-10 1.93870E-10-2.29508E+01
 -1      1083-3.07892E-10 3.32481E-09-4.15618E+01
 -1      1084-3.52705E-09 3.57905E-09-4.04824E+01
 -1      1085 1.64119E-09 4.15362E-10-3.09900E+01
 -1      1086 2.47550E-09-2.98165E-09-3.28475E+01
 -1      1087 3.49621E+01 9.17103E+01 9.31590E+01
 -1      1088 3.07331E+01 1.06426E+02 7.14222E+01
 -1      1089 6.26455E+01 6.14909E+01 4.20948E+01
 -1      1090 1.13919E+02-3.44101E+01 1.99768E+01
 -1      1091 1.82596E+02-1.95101E+02 2.12106E+01
 -1      1092 2.59276E+02-4.21253E+02 6.43477E+01
 -1      1093 2.74023E+02-5.44415E+02 9.53983E+01
 -1      1094 3.49621E+01 9.17103E+01-9.31590E+01
 -1      1095 3.07331E+01 1.06426E+02-7.14222E+01
 -1      1096 6.26455E+01 6.14909E+01-4.20948E+01
 -1      1097 1.13919E+02-3.44101E+01-1.99768E+01
 -1      1098 1.82596E+02-1.95101E+02-2.12106E+01
 -1      1099 2.59276E+02-4.21253E+02-6.43477E+01
 -1      1100 2.74023E+02-5.44415E+02-9.53983E+01
 -1      1101-1.16578E-08 1.32077E-08 3.37882E+01
 -1      1102-6.62623E-09-4.01574E-09 3.18977E+01
 -1      1103 1.25099E-09-5.55392E-09 3.31843E+01
 -1      1104-5.13491E-09 6.36505E-09 3.47374E+01
 -1      1105-5.10638E-09-5.17925E-09 3.52427E+01
 -1      1106 2.40968E-09 1.01218E-08 3.40921E+01
 -1      1107-1.15274E-09-9.70131E-09 3.51736E+01
 -1      1108-8.71198E-09 1.06572E-08 1.08580E+02
 -1      1109-1.65795E-08 4.84794E-09 7.66421E+01
 -1      1110 6.29274E-10 5.14587E-10 6.77528E+01
 -1      1111-5.38118E-09 3.86222E-09 6.83365E+01
 -1      1112 7.23705E-10 2.07633E-09 6.96086E+01
 -1      1113 1.12021E-09 3.06627E-09 7.04302E+01
 -1      1114 4.98102E-09-8.75071E-10 6.11756E+01
 -1      1115-1.08610E-09 1.60945E-09 1.84295E+02
 -1      1116-8.28676E-10 4.43614E-09 1.45162E+02
 -1      1117 5.75183E-10-1.00847E-09 1.17810E+02
 -1      1118 2.50231E-09 2.48471E-09 1.01295E+02
 -1      1119-1.59888E-09 5.25437E-09 8.90602E+01
 -1      1120-2.88842E-09 3.10696E-09 7.70855E+01
 -1      1121 7.94662E-10 2.22995E-09 7.17919E+01
 -1      1122-5.11413E-10 2.55024E-10 2.41188E+02
 -1      1123 3.34479E-10 2.79442E-10 1.92537E+02
 -1      1124 9.95222E-10 8.54959E-10 1.59301E+02
 -1      1125 2.24390E-09-1.95353E-09 1.34824E+02
 -1      1126 1.82369E-09-1.12206E-09 1.19089E+02
 -1      1127-1.83890E-09 2.14004E-09 1.02126E+02
 -1      1128-2.46324E-09 4.02157E-09 7.29209E+01
 -1      1129 2.15256E-10-2.53752E-10 2.62312E+02
 -1      1130-4.90526E-10 7.05816E-10 2.06276E+02
 -1      1131-3.23416E-10 1.21304E-10 1.71395E+02
 -1      1132-4.91113E-11-6.86571E-10 1.46169E+02
 -1      1133 1.51879E-10 1.04130E-09 1.29199E+02
 -1      1134 1.39161E-09-5.65295E-10 1.27716E+02
 -1      1135-3.65800E-10 2.49297E-09 1.09631E+02
 -1      1136 5.25793E-10 3.55264E-10 2.43616E+02
 -1      1137-4.21544E-10 1.27641E-09 1.84281E+02
 -1      1138-2.47822E-10 1.60847E-10 1.38206E+02
 -1      1139 2.72346E-11 6.49863E-10 1.10262E+02
 -1      1140 2.17147E-12-1.78273E-11 8.99614E+01
 -1      1141-2.08430E-11 3.66183E-10 6.46423E+01
 -1      1142 1.40445E-10-2.51890E-10 9.41209E+01
 -1      1143-9.84061E-11-5.07560E-11 1.98646E+02
 -1      1144 2.62461E-10-2.75822E-10 1.61110E+02
 -1      1145 4.07448E-10-3.11237E-10 1.12356E+02
 -1      1146-6.17343E-11 1.17949E-10 8.28724E+01
 -1      1147-1.49269E-10 1.54966E-11 8.72038E+01
 -1      1148-1.98531E-11-4.63298E-11 1.06155E+02
 -1      1149 2.29800E-10-1.05844E-10 1.00899E+02
 -1      1150 3.40620E-10 2.25375E-10-1.98646E+02
 -1      1151 3.68092E-10-6.17626E-11-1.61110E+02
 -1      1152 2.96856E-10 2.32372E-11-1.12356E+02
 -1      1153-1.80242E-10 6.13491E-11-8.28724E+01
 -1      1154-1.06034E-10 8.74983E-12-8.72038E+01
 -1      1155-1.45379E-11 8.92585E-12-1.06155E+02
 -1      1156 2.37710E-10 3.47010E-12-1.00899E+02
 -1      1157-2.61618E-10 1.57923E-10-2.43616E+02
 -1      1158-5.55090E-10 1.96759E-09-1.84281E+02
 -1      1159-4.26676E-10 5.74926E-10-1.38206E+02
 -1      1160-4.31665E-10-2.45095E-10-1.10262E+02
 -1      1161-8.66726E-11 2.21059E-10-8.99614E+01
 -1      1162 6.54738E-11 4.70500E-11-6.46423E+01
 -1      1163 6.95326E-10 5.80454E-10-9.41209E+01
 -1      1164 8.29101E-10 5.34450E-10-2.62312E+02
 -1      1165-4.18604E-11-6.95691E-10-2.06276E+02
 -1      1166-1.75754E-10 1.41819E-10-1.71395E+02
 -1      1167-6.28710E-10 7.48197E-10-1.46169E+02
 -1      1168-4.15965E-10 8.57309E-10-1.29199E+02
 -1      1169 2.08515E-10-8.59458E-10-1.27716E+02
 -1      1170-7.06040E-10 4.28415E-09-1.09631E+02
 -1      1171 1.37282E-09-1.72369E-10-2.41188E+02
 -1      1172 1.27771E-09-1.51540E-09-1.92537E+02
 -1      1173 2.21412E-10 3.27568E-10-1.59301E+02
 -1      1174 2.13053E-09 4.71831E-10-1.34824E+02
 -1      1175 2.31659E-09-4.93584E-10-1.19089E+02
 -1      1176-7.45433E-10 2.85336E-10-1.02126E+02
 -1      1177-2.56148E-09-1.58721E-10-7.29209E+01
 -1      1178-1.28719E-09 4.20602E-09-1.84295E+02
 -1      1179-3.64358E-09 7.63562E-09-1.45162E+02
 -1      1180 1.18265E-09 4.02371E-09-1.17810E+02
 -1      1181-1.68451E-10 2.66686E-09-1.01295E+02
 -1      1182-3.89717E-09 1.53095E-09-8.90602E+01
 -1      1183-1.23931E-09 1.21081E-09-7.70855E+01
 -1      1184 3.08197E-10-4.04194E-09-7.17919E+01
 -1      1185-5.45040E-09 1.09574E-08-1.08580E+02
 -1      1186-1.50321E-08 6.44569E-09-7.66421E+01
 -1      1187-8.31626E-10 8.17763E-09-6.77528E+01
 -1      1188-1.02422E-09-2.38859E-09-6.83365E+01
 -1      1189 3.12678E-09-4.45985E-09-6.96086E+01
 -1      1190 3.09925E-09-6.95131E-09-7.04302E+01
 -1      1191 1.56401E-09-6.46300E-09-6.11756E+01
 -1      1192-2.49808E-09 1.44508E-08-3.37882E+01
 -1      1193-9.39568E-09-4.57308E-09-3.18977E+01
 -1      1194 4.19904E-09-1.63880E-08-3.31843E+01
 -1      1195 6.96202E-09-5.19787E-09-3.47374E+01
 -1      1196 4.49725E-09-7.68311E-09-3.52427E+01
 -1      1197 6.04840E-09 3.83342E-09-3.40921E+01
 -1      1198-9.35886E-10 1.20784E-09-3.51736E+01
 -1      1199 1.61474E-09 2.08333E+01 1.11249E-09
 -1      1200-3.71631E+01-6.38926E+01-1.94655E-10
 -1      1201-2.98777E-11-7.16952E-09-1.74186E+01
 -1      1202 1.36649E-09-1.21792E-09-5.87091E+01
 -1      1203 1.22840E-10-1.78457E-09-7.11385E+01
 -1      1204 9.50986E-10 6.44644E-11-8.54928E+01
 -1      1205 5.34946E-11-1.89087E-10-8.84680E+01
 -1      1206 1.21004E-10-1.10029E-10-7.02258E+01
 -1      1207-1.30659E-10-7.86167E-11-4.00970E+01
 -1      1208 3.25842E-11-3.31118E-11-3.28632E+01
 -1      1209-2.79670E-09-3.34136E-09 1.74186E+01
 -1      1210 9.80131E-10-1.27187E-09 5.87091E+01
 -1      1211 5.55296E-10-1.24963E-09 7.11385E+01
 -1      1212 2.16209E-10-3.82490E-10 8.54928E+01
 -1      1213-4.37530E-10 9.02552E-10 8.84680E+01
 -1      1214 4.61668E-11-1.09002E-10 7.02258E+01
 -1      1215 4.06077E-11-1.82557E-10 4.00970E+01
 -1      1216-2.30278E-12-1.42016E-11 3.28632E+01
 -1      1217 1.05472E-09 2.08333E+01 1.72807E-09
 -1      1218-2.29659E-09 2.08333E+01-1.99291E+01
 -1      1219 4.47951E-10 2.08333E+01-2.03276E+01
 -1      1220-1.92780E-09 2.08333E+01-2.38566E+01
 -1      1221 7.97600E-09 2.08333E+01-2.50241E+01
 -1      1222 4.28903E-09 2.08333E+01-2.41108E+01
 -1      1223-5.54939E-09 2.08333E+01-2.14657E+01
 -1      1224 1.09385E-08 2.08333E+01-1.55841E+01
 -1      1225-1.04438E-08 2.08333E+01-1.33602E+01
 -1      1226 9.74055E-11 2.08333E+01 1.99291E+01
 -1      1227 1.95706E-09 2.08333E+01 2.03276E+01
 -1      1228 1.62527E-09 2.08333E+01 2.38566E+01
 -1      1229-4.01278E-09 2.08333E+01 2.50241E+01
 -1      1230 4.01755E-09 2.08333E+01 2.41108E+01
 -1      1231 4.28252E-09 2.08333E+01 2.14657E+01
 -1      1232 1.52338E-08 2.08333E+01 1.55841E+01
 -1      1233-8.07913E-09 2.08333E+01 1.33602E+01
 -1      1234 3.46929E+02-7.76630E+01 5.82460E-10
 -1      1235-8.82315E-11 5.77677E-11 3.68456E+02
 -1      1236-2.14498E-10-2.62821E-10-4.49661E+01
 -1      1237 5.02774E-11 4.73098E-10 1.17598E+02
 -1      1238-3.50782E-10 1.23782E-10 6.69459E+01
 -1      1239-1.21716E-10-9.78851E-10 5.71582E+01
 -1      1240-3.18766E-10-4.02059E-09 3.94800E+01
 -1      1241-4.30349E-10 4.23139E-09 3.30521E+01
 -1      1242 3.44083E-09-4.29603E-09-1.24295E+01
 -1      1243-8.25956E-12 5.31076E-11-3.68456E+02
 -1      1244 3.29492E-10 7.90114E-12 4.49661E+01
 -1      1245-6.39745E-11 5.59021E-10-1.17598E+02
 -1      1246-8.20016E-10-4.71254E-10-6.69459E+01
 -1      1247 3.36923E-10-1.19772E-09-5.71582E+01
 -1      1248 1.17709E-09-9.54778E-11-3.94800E+01
 -1      1249 5.13076E-10 1.11739E-09-3.30521E+01
 -1      1250-1.91754E-10-4.81890E-09 1.24295E+01
 -1      1251-7.36658E+01-8.93176E+01-1.41086E+02
 -1      1252-4.92787E+01-1.41415E+02-1.52878E+02
 -1      1253-7.60969E+01-1.15524E+02-1.57144E+02
 -1      1254-1.19478E+02-3.57070E+01-1.46386E+02
 -1      1255-1.69807E+02 9.83557E+01-1.21196E+02
 -1      1256-2.29649E+02 3.10544E+02-8.20049E+01
 -1      1257-2.68239E+02 5.56375E+02-5.10253E+01
 -1      1258-1.72430E+02 5.19277E+02 1.39342E+01
 -1      1259-7.36658E+01-8.93176E+01 1.41086E+02
 -1      1260-4.92787E+01-1.41415E+02 1.52878E+02
 -1      1261-7.60969E+01-1.15524E+02 1.57144E+02
 -1      1262-1.19478E+02-3.57070E+01 1.46386E+02
 -1      1263-1.69807E+02 9.83557E+01 1.21196E+02
 -1      1264-2.29649E+02 3.10544E+02 8.20049E+01
 -1      1265-2.68239E+02 5.56375E+02 5.10253E+01
 -1      1266-1.72430E+02 5.19277E+02-1.39342E+01
 -1      1267 3.98751E-09-1.85602E-09-1.42295E-10
 -1      1268 1.55175E-09 2.38003E-09-6.84095E-10
 -1      1269 2.24406E-09-1.22758E-09-1.55282E-09
 -1      1270-1.87549E-10-3.91147E-10 6.94853E-10
 -1      1271 6.11781E-10-5.17066E-10 4.83928E-10
 -1      1272 2.38626E-10 2.60670E-10 2.90461E-10
 -1      1273-1.17280E-10-8.96673E-11 1.18337E-10
 -1      1274 1.55773E-09 4.16667E+01-3.74185E-09
 -1      1275-3.10843E-09 4.16667E+01-2.49852E-10
 -1      1276 5.76605E-09 4.16667E+01-1.67668E-10
 -1      1277-6.54436E-09 4.16667E+01-2.17687E-09
 -1      1278 9.30374E-10 4.16667E+01-6.56355E-10
 -1      1279 3.20134E-09 4.16667E+01-3.83498E-09
 -1      1280-1.80827E-09 4.16667E+01 2.17413E-09
 -1      1281 1.15371E-11-1.56212E-10 2.77657E-10
 -1      1282-1.06690E-09-2.21635E-10 4.49667E-11
 -1      1283-6.44061E-10 9.38932E-10 2.08934E-09
 -1      1284 1.26957E-09-2.27011E-09-3.42551E-10
 -1      1285 1.36720E-09 4.27357E-10 2.43682E-09
 -1      1286 3.53930E-09-4.67649E-09 2.01394E-09
 -1      1287 1.21116E-09-9.93852E-09 1.69377E-09
 -1      1288-1.06041E+02-9.46246E+01-8.36083E-10
 -1      1289-1.27819E+02-8.81765E+01 6.49717E-10
 -1      1290-1.40567E+02-5.64984E+01-1.83164E-10
 -1      1291-1.22894E+02-1.23430E+01-5.76867E-11
 -1      1292-6.85284E+01 3.73963E+01-4.27764E-11
 -1      1293 4.13279E+01 4.88243E+01 8.60823E-11
 -1      1294 2.14756E+02-2.63559E+01 1.44720E-10
 -1      1295-4.58957E-09-5.41715E-09-9.75923E+01
 -1      1296-1.05819E-08 6.73585E-09-4.99853E+01
 -1      1297 9.10472E-09-2.41951E-08-6.87021E+01
 -1      1298-8.73728E-09 9.31387E-09-5.05978E+01
 -1      1299-4.37315E-09-2.09007E-09-5.79849E+01
 -1      1300-3.58432E-10-6.01920E-09-3.33025E+01
 -1      1301 7.86713E-10 5.02802E-09-5.44606E+01
 -1      1302-3.82617E-09 3.59975E-10-1.55156E+01
 -1      1303 2.79111E-09-4.31093E-09-5.11196E+01
 -1      1304 3.34937E-09 6.23678E-09-3.80475E-01
 -1      1305-9.11941E-10-4.70646E-09-4.52805E+01
 -1      1306 7.61273E-09 1.19095E-09 1.26072E+01
 -1      1307-8.15958E-09 3.64357E-09-3.53345E+01
 -1      1308 5.10053E-09-2.85537E-09 1.71201E+01
 -1      1309 5.22621E-09 2.21234E-10-2.18374E+01
 -1      1310-4.60911E-09-1.05535E-09-1.96380E+02
 -1      1311 1.35474E-09-1.64184E-09-9.66805E+01
 -1      1312 1.80729E-08-2.77006E-08-1.40958E+02
 -1      1313 4.52687E-09-4.74807E-09-6.79474E+01
 -1      1314 3.78816E-09-1.19442E-08-1.06011E+02
 -1      1315-1.39217E-09 3.40494E-09-5.08124E+01
 -1      1316 2.52995E-09-2.69081E-09-8.52924E+01
 -1      1317 6.28396E-09-2.63785E-09-3.39339E+01
 -1      1318-6.52384E-09 1.31418E-09-6.99877E+01
 -1      1319-9.97807E-11-1.38227E-09-1.50367E+01
 -1      1320 1.20733E-09 4.46934E-09-5.67477E+01
 -1      1321-2.33768E-09-1.84827E-09 8.25893E+00
 -1      1322-1.48853E-10 6.72864E-09-4.18940E+01
 -1      1323-4.85548E-10-4.13053E-09 4.03144E+01
 -1      1324 5.48591E-10 3.22892E-09-1.87797E+01
 -1      1325 1.55392E-09-6.89112E-09-2.87930E+02
 -1      1326-2.04115E-10-9.68092E-11-1.22921E+02
 -1      1327 1.24615E-09-2.55230E-09-2.25339E+02
 -1      1328-1.30583E-09 6.22483E-10-9.22123E+01
 -1      1329 1.21452E-09-3.43060E-09-1.74354E+02
 -1      1330-4.08469E-09 2.40245E-09-6.11014E+01
 -1      1331-8.94661E-10 9.37623E-10-1.32952E+02
 -1      1332-3.15003E-09 2.10680E-09-3.12965E+01
 -1      1333 2.57137E-09-7.60971E-09-9.94946E+01
 -1      1334-3.78490E-10 1.94776E-09 7.75783E-01
 -1      1335 5.33616E-10-4.02560E-09-6.84106E+01
 -1      1336-5.78906E-10-9.07578E-10 3.01679E+01
 -1      1337-1.04610E-09-1.71838E-09-4.12825E+01
 -1      1338-2.66226E-09 1.08136E-09 6.54334E+01
 -1      1339 5.80288E-10-1.80328E-09-1.51146E+01
 -1      1340 1.69921E-09-2.51612E-09-3.60391E+02
 -1      1341-2.29072E-09 2.80313E-09-1.29881E+02
 -1      1342-8.68417E-10 2.03123E-09-2.90484E+02
 -1      1343-3.74354E-10 1.73662E-09-9.80668E+01
 -1      1344 2.13464E-11-6.57433E-10-2.32812E+02
 -1      1345-5.64565E-10-2.98763E-09-6.55136E+01
 -1      1346-1.61477E-09 3.08604E-09-1.80383E+02
 -1      1347-1.38330E-11 1.56011E-09-3.25315E+01
 -1      1348-8.41974E-10-4.68203E-10-1.34574E+02
 -1      1349-8.07717E-10 4.07249E-10 3.12089E+00
 -1      1350 8.76921E-10 7.90024E-10-9.35934E+01
 -1      1351-1.57310E-10 6.63951E-10 5.13354E+01
 -1      1352 2.29322E-09 5.15287E-10-4.65540E+01
 -1      1353-2.55868E-10-4.94187E-10 8.79698E+01
 -1      1354 2.18643E-09 9.52859E-10-5.26758E+00
 -1      1355 4.63316E-11-3.58943E-10-3.85117E+02
 -1      1356 4.31017E-10-2.07976E-09-1.19469E+02
 -1      1357-1.75334E-09 1.20715E-09-3.27757E+02
 -1      1358 8.68584E-10-4.63253E-11-8.43824E+01
 -1      1359 2.58609E-10-9.58012E-10-2.74382E+02
 -1      1360-3.18437E-10 2.31266E-10-5.02643E+01
 -1      1361 5.22548E-10-2.21898E-10-2.19978E+02
 -1      1362-6.12598E-10 6.16724E-10-1.33654E+01
 -1      1363 5.55551E-10 3.62354E-10-1.65533E+02
 -1      1364-3.66470E-10-9.99984E-11 2.02462E+01
 -1      1365 3.75472E-10-9.78512E-11-1.15186E+02
 -1      1366 7.57380E-10 1.07781E-09 4.82343E+01
 -1      1367 1.55183E-10-2.83587E-10-7.48052E+01
 -1      1368-2.37210E-10-9.63888E-10 1.22991E+02
 -1      1369 2.58603E-10-1.51174E-09 1.06761E+01
 -1      1370-6.61648E-10 2.84626E-10-3.52192E+02
 -1      1371-6.22109E-10-3.37611E-10-9.19649E+01
 -1      1372-3.01310E-10 2.08468E-10-3.34730E+02
 -1      1373 4.52057E-10-1.97180E-10-5.20573E+01
 -1      1374 7.02786E-11 1.05254E-10-2.95889E+02
 -1      1375-1.76697E-12 3.14763E-10-1.73943E+01
 -1      1376 1.06705E-09-1.07786E-09-2.47411E+02
 -1      1377 9.77244E-10 7.74233E-11 1.92539E+01
 -1      1378 1.28286E-10 2.24952E-10-1.90390E+02
 -1      1379-2.28396E-10 2.19469E-10 6.25851E+01
 -1      1380-2.53675E-10 1.92207E-10-1.22535E+02
 -1      1381 2.26066E-10-2.59377E-10 9.77351E+01
 -1      1382-1.19014E-10-1.16061E-10-4.98282E+01
 -1      1383 1.25089E-09-8.02418E-10 8.27755E+01
 -1      1384-3.70624E-10 8.65955E-10-5.00175E+01
 -1      1385-4.65265E-11 2.47416E-10-2.87340E+02
 -1      1386-1.05688E-10-4.96644E-11-7.47856E+01
 -1      1387 6.12831E-11-3.67525E-10-3.14331E+02
 -1      1388-3.12500E-10 1.38434E-10-2.24666E+01
 -1      1389-1.61150E-10 3.87861E-10-3.07480E+02
 -1      1390 1.98346E-10-7.03226E-11 3.30517E+01
 -1      1391-1.09699E-10 3.89546E-11-2.80612E+02
 -1      1392-3.36987E-10 4.02825E-11 8.31952E+01
 -1      1393-6.47791E-11 1.04277E-11-2.38676E+02
 -1      1394-1.34385E-10-5.30545E-11 1.34573E+02
 -1      1395 6.61002E-11 2.98911E-11-1.83945E+02
 -1      1396 7.86060E-11-6.33869E-11 2.15857E+02
 -1      1397-5.70628E-11-1.97958E-11-9.77440E+01
 -1      1398-1.91948E-10 2.70369E-10 2.92417E+02
 -1      1399 1.93917E-10-1.70516E-10 5.89998E+00
 -1      1400 2.17746E-11-3.06670E-12-7.46040E+01
 -1      1401-2.48989E-11 6.65236E-11-5.47321E+01
 -1      1402-8.85420E-11 7.20360E-11-6.95095E+00
 -1      1403 5.00103E-11 9.35928E-11 5.11066E+01
 -1      1404-2.56912E-11-2.04243E-12 9.41385E+01
 -1      1405-1.42775E-11 7.40385E-11 1.08856E+02
 -1      1406-4.83997E-11-7.28826E-11 1.84652E+02
 -1      1407 1.70510E-10 1.86250E-10 2.87340E+02
 -1      1408-2.29029E-11 3.80053E-11 7.46040E+01
 -1      1409 2.49273E-11 2.88058E-10 3.14331E+02
 -1      1410-7.17178E-11-1.78151E-11 5.47321E+01
 -1      1411-1.01705E-10 4.90058E-10 3.07480E+02
 -1      1412-5.70998E-11 6.71884E-11 6.95095E+00
 -1      1413 1.45484E-10-1.08169E-10 2.80612E+02
 -1      1414-1.41873E-10 7.88214E-11-5.11066E+01
 -1      1415 2.25831E-11 7.96981E-11 2.38676E+02
 -1      1416-1.67460E-11-3.80544E-11-9.41385E+01
 -1      1417-9.18137E-11 1.56864E-10 1.83945E+02
 -1      1418-6.34551E-12-3.73638E-11-1.08856E+02
 -1      1419-1.08551E-10-5.34516E-11 9.77440E+01
 -1      1420 3.06234E-11 8.21386E-11-1.84652E+02
 -1      1421-1.08644E-11 2.66449E-10-5.89998E+00
 -1      1422 6.55861E-10-4.23477E-10 3.52192E+02
 -1      1423-1.00990E-10-3.33223E-10 7.47856E+01
 -1      1424-7.06732E-11-2.82385E-10 3.34730E+02
 -1      1425 7.14852E-11 2.09750E-10 2.24666E+01
 -1      1426 1.06830E-09-1.02138E-09 2.95889E+02
 -1      1427 2.98645E-10-1.66931E-10-3.30517E+01
 -1      1428 1.66989E-10-6.52686E-10 2.47411E+02
 -1      1429-6.32805E-11 1.71430E-10-8.31952E+01
 -1      1430-1.66656E-10-3.85580E-10 1.90390E+02
 -1      1431 8.15177E-11-1.66543E-10-1.34573E+02
 -1      1432-1.52668E-10 4.39739E-11 1.22535E+02
 -1      1433-1.19150E-10-2.22136E-10-2.15857E+02
 -1      1434 7.73620E-10-5.54226E-10 4.98282E+01
 -1      1435-1.01235E-09 3.31243E-10-2.92417E+02
 -1      1436-1.86545E-10 1.32810E-09 5.00175E+01
 -1      1437-8.04887E-10-1.29771E-09 3.85117E+02
 -1      1438-9.83194E-10-2.98955E-10 9.19649E+01
 -1      1439-1.12483E-10 4.37660E-10 3.27757E+02
 -1      1440 1.17851E-10-9.19885E-10 5.20573E+01
 -1      1441 7.10186E-10-9.70006E-10 2.74382E+02
 -1      1442-3.45473E-10 2.93452E-10 1.73943E+01
 -1      1443 5.93592E-10-5.42289E-10 2.19978E+02
 -1      1444 3.80001E-10-1.51139E-10-1.92539E+01
 -1      1445 1.63346E-09-1.87914E-10 1.65533E+02
 -1      1446-3.53757E-11-4.15207E-11-6.25851E+01
 -1      1447 1.71174E-10-1.69166E-10 1.15186E+02
 -1      1448-3.28030E-10-2.21324E-10-9.77351E+01
 -1      1449 7.02450E-10 1.46982E-09 7.48052E+01
 -1      1450 5.74109E-10-2.90452E-10-8.27755E+01
 -1      1451 8.27797E-10-9.70325E-10-1.06761E+01
 -1      1452 5.99283E-10-1.33532E-09 3.60391E+02
 -1      1453 7.94541E-10-1.34842E-09 1.19469E+02
 -1      1454-2.58768E-09 4.69558E-09 2.90484E+02
 -1      1455 8.59679E-10 1.05992E-09 8.43824E+01
 -1      1456-3.52176E-10 4.11723E-09 2.32812E+02
 -1      1457-2.99472E-10-3.79977E-10 5.02643E+01
 -1      1458-2.41063E-09-2.32113E-09 1.80383E+02
 -1      1459-5.78970E-10 1.92349E-09 1.33654E+01
 -1      1460 4.53589E-10-1.82437E-09 1.34574E+02
 -1      1461-1.11193E-09-8.28850E-10-2.02462E+01
 -1      1462 1.27174E-09 1.72438E-09 9.35934E+01
 -1      1463-6.83660E-10 6.20391E-11-4.82343E+01
 -1      1464-4.77228E-10 2.45934E-09 4.65540E+01
 -1      1465-1.31199E-10 5.05788E-10-1.22991E+02
 -1      1466 1.66981E-09-3.15847E-09 5.26758E+00
 -1      1467 3.86283E-09 3.11753E-09 2.87930E+02
 -1      1468-2.00425E-09 1.61304E-09 1.29881E+02
 -1      1469 8.70475E-10 5.79089E-10 2.25339E+02
 -1      1470-1.77042E-09 2.42300E-09 9.80668E+01
 -1      1471-2.07963E-09-3.91293E-09 1.74354E+02
 -1      1472 1.34573E-09-1.69784E-09 6.55136E+01
 -1      1473 8.06352E-10-2.04824E-09 1.32952E+02
 -1      1474-1.99792E-09 1.21263E-09 3.25315E+01
 -1      1475-2.26536E-09-1.70103E-09 9.94946E+01
 -1      1476-1.47112E-10-8.05876E-10-3.12089E+00
 -1      1477-4.41099E-10-6.15086E-11 6.84106E+01
 -1      1478 1.27487E-09-1.81411E-10-5.13354E+01
 -1      1479-1.02211E-09 2.71014E-09 4.12825E+01
 -1      1480-1.74748E-09 1.45300E-09-8.79698E+01
 -1      1481 1.53785E-09 1.51613E-09 1.51146E+01
 -1      1482 5.28197E-09-1.07156E-09 1.96380E+02
 -1      1483-3.84527E-09 2.73935E-09 1.22921E+02
 -1      1484 5.49868E-09-1.31731E-08 1.40958E+02
 -1      1485-2.23066E-09-1.64991E-09 9.22123E+01
 -1      1486 8.02047E-09-6.86200E-09 1.06011E+02
 -1      1487-1.08310E-09-3.00572E-10 6.11014E+01
 -1      1488 3.61732E-09-8.28244E-10 8.52924E+01
 -1      1489-3.61049E-09-5.93941E-10 3.12965E+01
 -1      1490-4.43332E-09 1.05417E-08 6.99877E+01
 -1      1491-5.68487E-10-7.03607E-10-7.75783E-01
 -1      1492-4.94033E-09 2.22552E-09 5.67477E+01
 -1      1493 1.58612E-09-4.80078E-09-3.01679E+01
 -1      1494-2.79839E-09-1.14420E-08 4.18940E+01
 -1      1495-2.22224E-10 1.46304E-09-6.54334E+01
 -1      1496 3.18699E-09-1.51830E-09 1.87797E+01
 -1      1497-1.41501E-08 5.89634E-09 9.75923E+01
 -1      1498 2.34854E-09-4.00010E-10 9.66805E+01
 -1      1499 2.35092E-08-3.33683E-08 6.87021E+01
 -1      1500 5.36730E-09-7.41151E-09 6.79474E+01
 -1      1501-1.13179E-08 3.72597E-09 5.79849E+01
 -1      1502-5.41809E-09 7.69113E-10 5.08124E+01
 -1      1503-8.41058E-09 1.72103E-08 5.44606E+01
 -1      1504 5.82369E-09-4.30144E-09 3.39339E+01
 -1      1505-8.93063E-09 1.19508E-08 5.11196E+01
 -1      1506-1.64992E-09-1.62514E-09 1.50367E+01
 -1      1507-1.20001E-09-8.72342E-09 4.52805E+01
 -1      1508-1.93719E-09-1.54219E-09-8.25893E+00
 -1      1509 1.51738E-09-1.90244E-08 3.53345E+01
 -1      1510-3.08959E-09 1.43183E-09-4.03144E+01
 -1      1511-2.80976E-09 1.30157E-08 2.18374E+01
 -1      1512-2.26645E-09 5.76705E-09 4.99853E+01
 -1      1513 1.28300E-09 2.21205E-09 5.05978E+01
 -1      1514-1.14925E-09-3.60973E-09 3.33025E+01
 -1      1515-2.25580E-11 8.28124E-09 1.55156E+01
 -1      1516-2.40439E-09 8.48138E-09 3.80475E-01
 -1      1517 1.30010E-09-3.61217E-09-1.26072E+01
 -1      1518 4.47866E-09-4.60446E-09-1.71201E+01
 -1      1519-9.52019E-09-1.40913E-13 5.00828E-09
 -1      1520-7.29290E-09-4.07221E-09-1.68316E-09
 -1      1521 2.90506E-09-9.97306E-10-5.58380E-09
 -1      1522 2.47346E-09 8.47849E-09-2.49113E-09
 -1      1523 5.04895E-09-5.15994E-09 8.35208E-09
 -1      1524-3.04532E-09-3.23574E-09 2.71762E-09
 -1      1525 4.33682E-09-2.94387E-09-5.88757E-09
 -1      1526-4.78214E-10-1.44086E-10-2.37411E-09
 -1      1527-9.77024E-10 2.62989E-09 3.44102E-09
 -1      1528 7.69339E-10 1.54896E-09 7.03527E-10
 -1      1529-2.01726E-09-1.81427E-09 2.73324E-09
 -1      1530 1.30955E-09 2.62013E-09 3.55431E-09
 -1      1531 1.50358E-09-2.94184E-09 5.38813E-09
 -1      1532 3.17236E-10 4.45631E-09 2.75374E-09
 -1      1533-7.06058E-11 2.42390E-09 2.68067E-10
 -1      1534-8.39563E-09-3.16800E-11-2.11756E-09
 -1      1535 3.73536E-09-6.52817E-09 1.40188E-09
 -1      1536-4.40080E-09-1.20948E-09-3.18095E-09
 -1      1537 2.63057E-09 4.52301E-09 2.35338E-09
 -1      1538-8.14945E-10-6.32761E-09 2.43848E-10
 -1      1539-2.86120E-10 1.04145E-09-3.79296E-10
 -1      1540 7.47925E-11-4.34686E-10-2.92611E-10
 -1      1541 1.27908E-09-1.97865E-09-3.39642E-09
 -1      1542-4.56172E-10-8.26526E-10-4.20996E-10
 -1      1543 8.80967E-10-6.11195E-10-1.17585E-09
 -1      1544 9.26410E-10 8.92843E-10-9.53583E-10
 -1      1545-2.04406E-10 2.32984E-09-2.33216E-09
 -1      1546-1.37436E-09 2.51916E-09 2.15972E-09
 -1      1547 9.56744E-11-2.07510E-09 1.12638E-09
 -1      1548 1.65528E-09-2.29602E-09-5.89629E-10
 -1      1549-9.82832E-10 1.73242E-09-5.08586E-10
 -1      1550 7.52498E-10 5.05865E-10-8.76917E-10
 -1      1551 4.86456E-10-8.91077E-10-7.68060E-10
 -1      1552-9.53321E-10 2.97836E-10-5.70783E-10
 -1      1553 3.02373E-10-1.76580E-09-1.82496E-10
 -1      1554 5.86595E-10 1.58661E-10-3.97912E-10
 -1      1555 7.60293E-10-6.53775E-10-1.67307E-10
 -1      1556-1.25775E-09 2.68209E-11-1.24168E-10
 -1      1557-5.08419E-10 7.12197E-11 8.09091E-10
 -1      1558 1.82442E-10-4.43177E-10-3.56481E-11
 -1      1559-2.49656E-11 8.50316E-11 1.10165E-10
 -1      1560-5.27226E-10 5.10110E-11-4.50194E-10
 -1      1561 3.92884E-10 5.88623E-11-3.59811E-10
 -1      1562 5.25975E-11 2.54004E-10 4.70340E-10
 -1      1563 8.65716E-11 1.62157E-10 8.42107E-11
 -1      1564-6.32373E-11 1.13693E-10-2.16407E-10
 -1      1565 3.98128E-12-4.02110E-11-2.47524E-11
 -1      1566 3.61320E-11-1.74857E-10-9.59273E-11
 -1      1567-9.86820E-11 3.76706E-10-4.59035E-11
 -3
    1PSTEP                         5           1           1          
  100CL  101 1.000000000         531                     0    1           1
 -4  ERROR       1    1
 -5  STR(%)      1    1    0    0
 -1      1037 2.13984E+01
 -1      1038 2.13984E+01
 -1      1039 3.22225E+01
 -1      1040 3.22225E+01
 -1      1041 3.27802E+01
 -1      1042 3.27802E+01
 -1      1043 3.25697E+01
 -1      1044 3.25697E+01
 -1      1045 2.13984E+01
 -1      1046 2.23912E+01
 -1      1047 2.67793E+01
 -1      1048 3.27423E+01
 -1      1049 3.46447E+01
 -1      1050 3.46447E+01
 -1      1051 3.22225E+01
 -1      1052 2.13984E+01
 -1      1053 2.23912E+01
 -1      1054 2.67793E+01
 -1      1055 3.27423E+01
 -1      1056 3.46447E+01
 -1      1057 3.46447E+01
 -1      1058 3.22225E+01
 -1      1059 3.59278E+01
 -1      1060 3.59278E+01
 -1      1061 3.37402E+01
 -1      1062 2.45759E+01
 -1      1063 2.57763E+01
 -1      1064 2.94928E+01
 -1      1065 2.94928E+01
 -1      1066 3.59278E+01
 -1      1067 3.59278E+01
 -1      1068 3.37402E+01
 -1      1069 2.45759E+01
 -1      1070 2.57763E+01
 -1      1071 2.94928E+01
 -1      1072 2.94928E+01
 -1      1073 3.25697E+01
 -1      1074 2.81032E+01
 -1      1075 2.62247E+01
 -1      1076 2.73081E+01
 -1      1077 2.84685E+01
 -1      1078 3.48314E+01
 -1      1079 3.48314E+01
 -1      1080 3.25697E+01
 -1      1081 2.81032E+01
 -1      1082 2.62247E+01
 -1      1083 2.73081E+01
 -1      1084 2.84685E+01
 -1      1085 3.48314E+01
 -1      1086 3.48314E+01
 -1      1087 3.64384E+01
 -1      1088 3.77567E+01
 -1      1089 3.82663E+01
 -1      1090 4.53283E+01
 -1      1091 4.53283E+01
 -1      1092 3.78466E+01
 -1      1093 3.25697E+01
 -1      1094 3.64384E+01
 -1      1095 3.77567E+01
 -1      1096 3.82663E+01
 -1      1097 4.53283E+01
 -1      1098 4.53283E+01
 -1      1099 3.78466E+01
 -1      1100 3.25697E+01
 -1      1101 2.94928E+01
 -1      1102 2.94928E+01
 -1      1103 2.86120E+01
 -1      1104 3.19756E+01
 -1      1105 3.37402E+01
 -1      1106 3.59278E+01
 -1      1107 3.59278E+01
 -1      1108 2.37756E+01
 -1      1109 2.75828E+01
 -1      1110 3.39545E+01
 -1      1111 3.49412E+01
 -1      1112 3.49412E+01
 -1      1113 3.37516E+01
 -1      1114 3.48314E+01
 -1      1115 2.67793E+01
 -1      1116 2.95145E+01
 -1      1117 3.47534E+01
 -1      1118 4.01755E+01
 -1      1119 4.01755E+01
 -1      1120 3.62881E+01
 -1      1121 3.13004E+01
 -1      1122 3.27423E+01
 -1      1123 3.22508E+01
 -1      1124 3.47534E+01
 -1      1125 4.13965E+01
 -1      1126 4.13965E+01
 -1      1127 3.66832E+01
 -1      1128 3.18743E+01
 -1      1129 3.63233E+01
 -1      1130 3.79569E+01
 -1      1131 4.04772E+01
 -1      1132 4.24874E+01
 -1      1133 4.24874E+01
 -1      1134 4.21392E+01
 -1      1135 3.18743E+01
 -1      1136 3.63233E+01
 -1      1137 3.98429E+01
 -1      1138 4.38354E+01
 -1      1139 4.38354E+01
 -1      1140 4.27949E+01
 -1      1141 4.21392E+01
 -1      1142 3.88771E+01
 -1      1143 3.64384E+01
 -1      1144 3.98429E+01
 -1      1145 4.38354E+01
 -1      1146 4.53283E+01
 -1      1147 4.53283E+01
 -1      1148 4.17141E+01
 -1      1149 3.88771E+01
 -1      1150 3.64384E+01
 -1      1151 3.98429E+01
 -1      1152 4.38354E+01
 -1      1153 4.53283E+01
 -1      1154 4.53283E+01
 -1      1155 4.17141E+01
 -1      1156 3.88771E+01
 -1      1157 3.63233E+01
 -1      1158 3.98429E+01
 -1      1159 4.38354E+01
 -1      1160 4.38354E+01
 -1      1161 4.27949E+01
 -1      1162 4.21392E+01
 -1      1163 3.88771E+01
 -1      1164 3.63233E+01
 -1      1165 3.79569E+01
 -1      1166 4.04772E+01
 -1      1167 4.24874E+01
 -1      1168 4.24874E+01
 -1      1169 4.21392E+01
 -1      1170 3.18743E+01
 -1      1171 3.27423E+01
 -1      1172 3.22508E+01
 -1      1173 3.47534E+01
 -1      1174 4.13965E+01
 -1      1175 4.13965E+01
 -1      1176 3.66832E+01
 -1      1177 3.18743E+01
 -1      1178 2.67793E+01
 -1      1179 2.95145E+01
 -1      1180 3.47534E+01
 -1      1181 4.01755E+01
 -1      1182 4.01755E+01
 -1      1183 3.62881E+01
 -1      1184 3.13004E+01
 -1      1185 2.37756E+01
 -1      1186 2.75828E+01
 -1      1187 3.39545E+01
 -1      1188 3.49412E+01
 -1      1189 3.49412E+01
 -1      1190 3.37516E+01
 -1      1191 3.48314E+01
 -1      1192 2.94928E+01
 -1      1193 2.94928E+01
 -1      1194 2.86120E+01
 -1      1195 3.19756E+01
 -1      1196 3.37402E+01
 -1      1197 3.59278E+01
 -1      1198 3.59278E+01
 -1      1199 2.13984E+01
 -1      1200 3.22225E+01
 -1      1201 2.13984E+01
 -1      1202 2.18948E+01
 -1      1203 2.45852E+01
 -1      1204 2.97608E+01
 -1      1205 3.36935E+01
 -1      1206 3.46447E+01
 -1      1207 3.34336E+01
 -1      1208 3.22225E+01
 -1      1209 2.13984E+01
 -1      1210 2.18948E+01
 -1      1211 2.45852E+01
 -1      1212 2.97608E+01
 -1      1213 3.36935E+01
 -1      1214 3.46447E+01
 -1      1215 3.34336E+01
 -1      1216 3.22225E+01
 -1      1217 3.27802E+01
 -1      1218 3.43540E+01
 -1      1219 3.59278E+01
 -1      1220 3.48340E+01
 -1      1221 2.91580E+01
 -1      1222 2.51761E+01
 -1      1223 2.76346E+01
 -1      1224 2.94928E+01
 -1      1225 2.54456E+01
 -1      1226 3.43540E+01
 -1      1227 3.59278E+01
 -1      1228 3.48340E+01
 -1      1229 2.91580E+01
 -1      1230 2.51761E+01
 -1      1231 2.76346E+01
 -1      1232 2.94928E+01
 -1      1233 2.54456E+01
 -1      1234 3.25697E+01
 -1      1235 3.25697E+01
 -1      1236 3.03365E+01
 -1      1237 2.71640E+01
 -1      1238 2.67664E+01
 -1      1239 2.78883E+01
 -1      1240 3.16499E+01
 -1      1241 3.48314E+01
 -1      1242 3.38058E+01
 -1      1243 3.25697E+01
 -1      1244 3.03365E+01
 -1      1245 2.71640E+01
 -1      1246 2.67664E+01
 -1      1247 2.78883E+01
 -1      1248 3.16499E+01
 -1      1249 3.48314E+01
 -1      1250 3.38058E+01
 -1      1251 3.43304E+01
 -1      1252 3.70975E+01
 -1      1253 3.80115E+01
 -1      1254 4.17973E+01
 -1      1255 4.53283E+01
 -1      1256 4.15874E+01
 -1      1257 3.52081E+01
 -1      1258 3.25697E+01
 -1      1259 3.43304E+01
 -1      1260 3.70975E+01
 -1      1261 3.80115E+01
 -1      1262 4.17973E+01
 -1      1263 4.53283E+01
 -1      1264 4.15874E+01
 -1      1265 3.52081E+01
 -1      1266 3.25697E+01
 -1      1267 2.13984E+01
 -1      1268 2.23912E+01
 -1      1269 2.67793E+01
 -1      1270 3.27423E+01
 -1      1271 3.46447E+01
 -1      1272 3.46447E+01
 -1      1273 3.22225E+01
 -1      1274 3.59278E+01
 -1      1275 3.59278E+01
 -1      1276 3.37402E+01
 -1      1277 2.45759E+01
 -1      1278 2.57763E+01
 -1      1279 2.94928E+01
 -1      1280 2.94928E+01
 -1      1281 3.25697E+01
 -1      1282 2.81032E+01
 -1      1283 2.62247E+01
 -1      1284 2.73081E+01
 -1      1285 2.84685E+01
 -1      1286 3.48314E+01
 -1      1287 3.48314E+01
 -1      1288 3.64384E+01
 -1      1289 3.77567E+01
 -1      1290 3.82663E+01
 -1      1291 4.53283E+01
 -1      1292 4.53283E+01
 -1      1293 3.78466E+01
 -1      1294 3.25697E+01
 -1      1295 2.54456E+01
 -1      1296 2.94928E+01
 -1      1297 2.94928E+01
 -1      1298 2.94928E+01
 -1      1299 2.90524E+01
 -1      1300 2.71942E+01
 -1      1301 3.02938E+01
 -1      1302 2.82758E+01
 -1      1303 3.28579E+01
 -1      1304 3.37402E+01
 -1      1305 3.48340E+01
 -1      1306 3.59278E+01
 -1      1307 3.59278E+01
 -1      1308 3.59278E+01
 -1      1309 3.53796E+01
 -1      1310 2.30834E+01
 -1      1311 2.66342E+01
 -1      1312 2.56792E+01
 -1      1313 2.85378E+01
 -1      1314 3.07687E+01
 -1      1315 3.12833E+01
 -1      1316 3.44479E+01
 -1      1317 3.34584E+01
 -1      1318 3.49412E+01
 -1      1319 3.43407E+01
 -1      1320 3.43464E+01
 -1      1321 3.48397E+01
 -1      1322 3.42915E+01
 -1      1323 3.53796E+01
 -1      1324 3.48314E+01
 -1      1325 2.67793E+01
 -1      1326 2.52774E+01
 -1      1327 2.81469E+01
 -1      1328 2.85487E+01
 -1      1329 3.21339E+01
 -1      1330 3.43540E+01
 -1      1331 3.74644E+01
 -1      1332 3.75583E+01
 -1      1333 4.01755E+01
 -1      1334 3.75583E+01
 -1      1335 3.82318E+01
 -1      1336 3.50198E+01
 -1      1337 3.37942E+01
 -1      1338 3.30659E+01
 -1      1339 2.98844E+01
 -1      1340 3.27423E+01
 -1      1341 2.97608E+01
 -1      1342 3.24965E+01
 -1      1343 3.08827E+01
 -1      1344 3.35021E+01
 -1      1345 3.47534E+01
 -1      1346 3.80749E+01
 -1      1347 4.07860E+01
 -1      1348 4.13965E+01
 -1      1349 4.07860E+01
 -1      1350 3.90398E+01
 -1      1351 3.64856E+01
 -1      1352 3.42787E+01
 -1      1353 3.15873E+01
 -1      1354 2.95912E+01
 -1      1355 3.54840E+01
 -1      1356 3.45328E+01
 -1      1357 3.71401E+01
 -1      1358 3.51039E+01
 -1      1359 3.92170E+01
 -1      1360 3.76153E+01
 -1      1361 4.14823E+01
 -1      1362 4.19419E+01
 -1      1363 4.24874E+01
 -1      1364 4.19419E+01
 -1      1365 4.23133E+01
 -1      1366 3.94112E+01
 -1      1367 3.70068E+01
 -1      1368 3.18743E+01
 -1      1369 2.90495E+01
 -1      1370 3.54840E+01
 -1      1371 3.63233E+01
 -1      1372 3.80831E+01
 -1      1373 3.88999E+01
 -1      1374 4.18392E+01
 -1      1375 4.21563E+01
 -1      1376 4.38354E+01
 -1      1377 4.31614E+01
 -1      1378 4.33152E+01
 -1      1379 4.26411E+01
 -1      1380 4.24671E+01
 -1      1381 4.21392E+01
 -1      1382 4.05082E+01
 -1      1383 3.53757E+01
 -1      1384 3.34902E+01
 -1      1385 3.43304E+01
 -1      1386 3.63808E+01
 -1      1387 3.81406E+01
 -1      1388 3.98429E+01
 -1      1389 4.18392E+01
 -1      1390 4.38354E+01
 -1      1391 4.45819E+01
 -1      1392 4.45819E+01
 -1      1393 4.53283E+01
 -1      1394 4.40616E+01
 -1      1395 4.35212E+01
 -1      1396 4.19267E+01
 -1      1397 4.02956E+01
 -1      1398 3.88771E+01
 -1      1399 3.57234E+01
 -1      1400 3.64384E+01
 -1      1401 3.87998E+01
 -1      1402 4.10509E+01
 -1      1403 4.53283E+01
 -1      1404 4.53283E+01
 -1      1405 3.97804E+01
 -1      1406 3.57234E+01
 -1      1407 3.43304E+01
 -1      1408 3.64384E+01
 -1      1409 3.81406E+01
 -1      1410 3.87998E+01
 -1      1411 4.18392E+01
 -1      1412 4.10509E+01
 -1      1413 4.45819E+01
 -1      1414 4.53283E+01
 -1      1415 4.53283E+01
 -1      1416 4.53283E+01
 -1      1417 4.35212E+01
 -1      1418 3.97804E+01
 -1      1419 4.02956E+01
 -1      1420 3.57234E+01
 -1      1421 3.57234E+01
 -1      1422 3.54840E+01
 -1      1423 3.63808E+01
 -1      1424 3.80831E+01
 -1      1425 3.98429E+01
 -1      1426 4.18392E+01
 -1      1427 4.38354E+01
 -1      1428 4.38354E+01
 -1      1429 4.45819E+01
 -1      1430 4.33152E+01
 -1      1431 4.40616E+01
 -1      1432 4.24671E+01
 -1      1433 4.19267E+01
 -1      1434 4.05082E+01
 -1      1435 3.88771E+01
 -1      1436 3.34902E+01
 -1      1437 3.54840E+01
 -1      1438 3.63233E+01
 -1      1439 3.71401E+01
 -1      1440 3.88999E+01
 -1      1441 3.92170E+01
 -1      1442 4.21563E+01
 -1      1443 4.14823E+01
 -1      1444 4.31614E+01
 -1      1445 4.24874E+01
 -1      1446 4.26411E+01
 -1      1447 4.23133E+01
 -1      1448 4.21392E+01
 -1      1449 3.70068E+01
 -1      1450 3.53757E+01
 -1      1451 2.90495E+01
 -1      1452 3.27423E+01
 -1      1453 3.45328E+01
 -1      1454 3.24965E+01
 -1      1455 3.51039E+01
 -1      1456 3.35021E+01
 -1      1457 3.76153E+01
 -1      1458 3.80749E+01
 -1      1459 4.19419E+01
 -1      1460 4.13965E+01
 -1      1461 4.19419E+01
 -1      1462 3.90398E+01
 -1      1463 3.94112E+01
 -1      1464 3.42787E+01
 -1      1465 3.18743E+01
 -1      1466 2.95912E+01
 -1      1467 2.67793E+01
 -1      1468 2.97608E+01
 -1      1469 2.81469E+01
 -1      1470 3.08827E+01
 -1      1471 3.21339E+01
 -1      1472 3.47534E+01
 -1      1473 3.74644E+01
 -1      1474 4.07860E+01
 -1      1475 4.01755E+01
 -1      1476 4.07860E+01
 -1      1477 3.82318E+01
 -1      1478 3.64856E+01
 -1      1479 3.37942E+01
 -1      1480 3.15873E+01
 -1      1481 2.98844E+01
 -1      1482 2.30834E+01
 -1      1483 2.52774E+01
 -1      1484 2.56792E+01
 -1      1485 2.85487E+01
 -1      1486 3.07687E+01
 -1      1487 3.43540E+01
 -1      1488 3.44479E+01
 -1      1489 3.75583E+01
 -1      1490 3.49412E+01
 -1      1491 3.75583E+01
 -1      1492 3.43464E+01
 -1      1493 3.50198E+01
 -1      1494 3.42915E+01
 -1      1495 3.30659E+01
 -1      1496 3.48314E+01
 -1      1497 2.54456E+01
 -1      1498 2.66342E+01
 -1      1499 2.94928E+01
 -1      1500 2.85378E+01
 -1      1501 2.90524E+01
 -1      1502 3.12833E+01
 -1      1503 3.02938E+01
 -1      1504 3.34584E+01
 -1      1505 3.28579E+01
 -1      1506 3.43407E+01
 -1      1507 3.48340E+01
 -1      1508 3.48397E+01
 -1      1509 3.59278E+01
 -1      1510 3.53796E+01
 -1      1511 3.53796E+01
 -1      1512 2.94928E+01
 -1      1513 2.94928E+01
 -1      1514 2.71942E+01
 -1      1515 2.82758E+01
 -1      1516 3.37402E+01
 -1      1517 3.59278E+01
 -1      1518 3.59278E+01
 -1      1519 2.94928E+01
 -1      1520 2.94928E+01
 -1      1521 2.86120E+01
 -1      1522 3.19756E+01
 -1      1523 3.37402E+01
 -1      1524 3.59278E+01
 -1      1525 3.59278E+01
 -1      1526 2.37756E+01
 -1      1527 2.75828E+01
 -1      1528 3.39545E+01
 -1      1529 3.49412E+01
 -1      1530 3.49412E+01
 -1      1531 3.37516E+01
 -1      1532 3.48314E+01
 -1      1533 2.67793E+01
 -1      1534 2.95145E+01
 -1      1535 3.47534E+01
 -1      1536 4.01755E+01
 -1      1537 4.01755E+01
 -1      1538 3.62881E+01
 -1      1539 3.13004E+01
 -1      1540 3.27423E+01
 -1      1541 3.22508E+01
 -1      1542 3.47534E+01
 -1      1543 4.13965E+01
 -1      1544 4.13965E+01
 -1      1545 3.66832E+01
 -1      1546 3.18743E+01
 -1      1547 3.63233E+01
 -1      1548 3.79569E+01
 -1      1549 4.04772E+01
 -1      1550 4.24874E+01
 -1      1551 4.24874E+01
 -1      1552 4.21392E+01
 -1      1553 3.18743E+01
 -1      1554 3.63233E+01
 -1      1555 3.98429E+01
 -1      1556 4.38354E+01
 -1      1557 4.38354E+01
 -1      1558 4.27949E+01
 -1      1559 4.21392E+01
 -1      1560 3.88771E+01
 -1      1561 3.64384E+01
 -1      1562 3.98429E+01
 -1      1563 4.38354E+01
 -1      1564 4.53283E+01
 -1      1565 4.53283E+01
 -1      1566 4.17141E+01
 -1      1567 3.88771E+01
 -3
 9999
