    1C
    1UUSER                                                              
    1UDATE              18.february.2021                                
    1UTIME              19:26:56                                        
    1UHOST                                                              
    1UPGM               CalculiX                                        
    1UVERSION           Version 2.17                             
    1UCOMPILETIME       Thu Jul 23 21:43:50 CEST 2020                    
    1UDIR                                                               
    1UDBN                                                               
    1UMAT    1STEEL                                                     
    2C                            12                                     1
 -1         1 1.16500E+00 8.12831E-01 0.00000E+00
 -1         2-3.05640E-15 1.00000E+00 0.00000E+00
 -1         3 3.39463E-15 1.58305E+00 0.00000E+00
 -1         4 1.36776E+00 1.30989E+00 0.00000E+00
 -1         5-4.65605E-15 2.75000E+00 0.00000E+00
 -1         6 1.77348E+00 2.30447E+00 0.00000E+00
 -1         7 1.78302E+00 4.53000E-01 0.00000E+00
 -1         8 2.13324E+00 7.51594E-01 0.00000E+00
 -1         9 2.83277E+00 1.34800E+00 0.00000E+00
 -1        10 2.00000E+00 1.09117E-14 0.00000E+00
 -1        11 2.41700E+00 2.81975E-15 0.00000E+00
 -1        12 3.25000E+00 9.31453E-15 0.00000E+00
 -3
    3C                             6                                     1
 -1         1    9    0    1
 -2         2         1         4         3
 -1         2    9    0    1
 -2         3         4         6         5
 -1         3    9    0    1
 -2         1         7         8         4
 -1         4    9    0    1
 -2         4         8         9         6
 -1         5    9    0    1
 -2         7        10        11         8
 -1         6    9    0    1
 -2         8        11        12         9
 -3
    1PSTEP                         1           1           1          
  100CL  101 1.000000000          12                     0    1           1
 -4  DISP        4    1
 -5  D1          1    2    1    0
 -5  D2          1    2    2    0
 -5  D3          1    2    3    0
 -5  ALL         1    2    0    0    1ALL
 -1         1 1.44894E-05 3.07782E-04 0.00000E+00
 -1         2 0.00000E+00 4.02863E-04 0.00000E+00
 -1         3 0.00000E+00 4.05633E-04 0.00000E+00
 -1         4 6.35533E-05 2.86454E-04 0.00000E+00
 -1         5 0.00000E+00 4.20003E-04 0.00000E+00
 -1         6 1.54504E-04 2.66701E-04 0.00000E+00
 -1         7 1.33540E-05 1.51178E-04 0.00000E+00
 -1         8 3.59379E-05 1.10397E-04 0.00000E+00
 -1         9 1.01819E-04 6.12925E-05 0.00000E+00
 -1        10 7.22470E-06 0.00000E+00 0.00000E+00
 -1        11-3.83597E-06 0.00000E+00 0.00000E+00
 -1        12 1.28437E-05 0.00000E+00 0.00000E+00
 -3
    1PSTEP                         2           1           1          
  100CL  101 1.000000000          12                     0    1           1
 -4  STRESS      6    1
 -5  SXX         1    4    1    1
 -5  SYY         1    4    2    2
 -5  SZZ         1    4    3    3
 -5  SXY         1    4    1    2
 -5  SYZ         1    4    2    3
 -5  SZX         1    4    3    1
 -1         1 1.07951E+07 8.06392E+06 2.67928E+06-5.65849E+06-2.04709E-08-6.66478E-09
 -1         2 4.09592E+06 2.76409E+06 1.64728E+06-6.64659E+06-2.68192E-08 1.81171E-09
 -1         3 1.15743E+07 5.25814E+06-6.16811E+04-6.97387E+06-2.46437E-08-1.02591E-09
 -1         4 1.16712E+07 8.69435E+06-3.67982E+05-5.10517E+06 3.88318E-08 7.56700E-10
 -1         5 2.07767E+07 8.46356E+06-1.17299E+06-6.76762E+06 5.02187E-08-5.03132E-09
 -1         6 1.58668E+07 1.02767E+07-1.25441E+06-4.24730E+06-3.18541E-08 1.31749E-08
 -1         7 1.73797E+07 3.46619E+07 1.58730E+06-1.60213E+07-2.68337E-08 8.84756E-09
 -1         8 9.92451E+06 1.94026E+07-1.12202E+06-7.66274E+06-2.86818E-08-6.21367E-09
 -1         9 9.06702E+06 1.13466E+07 1.35084E+04-2.19000E+06-2.16833E-08-5.18776E-09
 -1        10 1.54658E+07 6.96181E+07-7.31766E+05-1.42033E+05 5.82077E-11-3.43425E-09
 -1        11 8.10345E+06 3.01491E+07-1.18780E+06 4.14194E+06 7.56700E-10 5.64614E-09
 -1        12 7.53301E+06 1.04560E+07 5.80091E+05 5.84156E+06 8.67476E-09 3.20142E-09
 -3
    1PSTEP                         3           1           1          
  100CL  101 1.000000000          12                     0    1           1
 -4  TOSTRAIN    6    1
 -5  EXX         1    4    1    1
 -5  EYY         1    4    2    2
 -5  EZZ         1    4    3    3
 -5  EXY         1    4    1    2
 -5  EYZ         1    4    2    3
 -5  EZX         1    4    3    1
 -1         1 3.60577E-05 1.91505E-05-1.41829E-05-3.50287E-05-1.26737E-19-4.11870E-20
 -1         2 1.32024E-05 4.95778E-06-1.95584E-06-4.11456E-05-1.65807E-19 1.11702E-20
 -1         3 4.76923E-05 8.59213E-06-2.43401E-05-4.31716E-05-1.52519E-19-6.35275E-21
 -1         4 4.36823E-05 2.52543E-05-3.08459E-05-3.16034E-05 2.40372E-19 4.76456E-21
 -1         5 8.85218E-05 1.22973E-05-4.73575E-05-4.18948E-05 3.10808E-19-3.11483E-20
 -1         6 6.26671E-05 2.80620E-05-4.33213E-05-2.62928E-05-1.97173E-19 8.15799E-20
 -1         7 3.09760E-05 1.37961E-04-6.67865E-05-9.91794E-05-1.66018E-19 5.47395E-20
 -1         8 2.11444E-05 7.98184E-05-4.72388E-05-4.74360E-05-1.77665E-19-3.84077E-20
 -1         9 2.69476E-05 4.10590E-05-2.90979E-05-1.35571E-05-1.34241E-19-3.21343E-20
 -1        10-2.47622E-05 3.10466E-04-1.25033E-04-8.79254E-07 0.00000E+00-2.09641E-20
 -1        11-2.78539E-06 1.33687E-04-6.03026E-05 2.56406E-05 4.76456E-21 3.53636E-20
 -1        12 2.01056E-05 3.82005E-05-2.29363E-05 3.61621E-05 5.36807E-20 1.96935E-20
 -3
    1PSTEP                         4           1           1          
  100CL  101 1.000000000          12                     0    1           1
 -4  ERROR       1    1
 -5  STR(%)      1    1    0    0
 -1         1 3.59481E+01
 -1         2 3.59481E+01
 -1         3 3.59481E+01
 -1         4 3.59481E+01
 -1         5 1.74245E+01
 -1         6 2.28142E+01
 -1         7 3.58540E+01
 -1         8 4.80575E+01
 -1         9 4.80575E+01
 -1        10 3.58540E+01
 -1        11 4.80575E+01
 -1        12 4.80575E+01
 -3
 9999
