    1C
    1UHash: PXJD0WWr, Date: 03/11/2021, Unit system: MM_TON_S_C         
    1UUSER                                                              
    1UDATE              11.march.2021                                   
    1UTIME              20:41:26                                        
    1UHOST                                                              
    1UPGM               CalculiX                                        
    1UVERSION           Version 2.10                             
    1UCOMPILETIME       Sa 5. MÃ¤r 12:23:33 CET 2016                    
    1UDIR                                                               
    1UDBN                                                               
    1UMAT    1RUBBER                                                    
    2C                           531                                     1
 -1      1037 4.80000E+01 4.40000E+01 0.00000E+00
 -1      1038 4.80000E+01 4.40000E+01 5.00000E+00
 -1      1039 0.00000E+00 0.00000E+00 0.00000E+00
 -1      1040 0.00000E+00 0.00000E+00 5.00000E+00
 -1      1041 4.80000E+01 6.00000E+01 0.00000E+00
 -1      1042 4.80000E+01 6.00000E+01 5.00000E+00
 -1      1043 0.00000E+00 4.40000E+01 0.00000E+00
 -1      1044 0.00000E+00 4.40000E+01 5.00000E+00
 -1      1045 4.20000E+01 3.85000E+01 0.00000E+00
 -1      1046 3.60000E+01 3.30000E+01 0.00000E+00
 -1      1047 3.00000E+01 2.75000E+01 0.00000E+00
 -1      1048 2.40000E+01 2.20000E+01 0.00000E+00
 -1      1049 1.80000E+01 1.65000E+01 0.00000E+00
 -1      1050 1.20000E+01 1.10000E+01 0.00000E+00
 -1      1051 6.00000E+00 5.50000E+00 0.00000E+00
 -1      1052 4.20000E+01 3.85000E+01 5.00000E+00
 -1      1053 3.60000E+01 3.30000E+01 5.00000E+00
 -1      1054 3.00000E+01 2.75000E+01 5.00000E+00
 -1      1055 2.40000E+01 2.20000E+01 5.00000E+00
 -1      1056 1.80000E+01 1.65000E+01 5.00000E+00
 -1      1057 1.20000E+01 1.10000E+01 5.00000E+00
 -1      1058 6.00000E+00 5.50000E+00 5.00000E+00
 -1      1059 4.80000E+01 5.80000E+01 0.00000E+00
 -1      1060 4.80000E+01 5.60000E+01 0.00000E+00
 -1      1061 4.80000E+01 5.40000E+01 0.00000E+00
 -1      1062 4.80000E+01 5.20000E+01 0.00000E+00
 -1      1063 4.80000E+01 5.00000E+01 0.00000E+00
 -1      1064 4.80000E+01 4.80000E+01 0.00000E+00
 -1      1065 4.80000E+01 4.60000E+01 0.00000E+00
 -1      1066 4.80000E+01 5.80000E+01 5.00000E+00
 -1      1067 4.80000E+01 5.60000E+01 5.00000E+00
 -1      1068 4.80000E+01 5.40000E+01 5.00000E+00
 -1      1069 4.80000E+01 5.20000E+01 5.00000E+00
 -1      1070 4.80000E+01 5.00000E+01 5.00000E+00
 -1      1071 4.80000E+01 4.80000E+01 5.00000E+00
 -1      1072 4.80000E+01 4.60000E+01 5.00000E+00
 -1      1073 6.00000E+00 4.60000E+01 0.00000E+00
 -1      1074 1.20000E+01 4.80000E+01 0.00000E+00
 -1      1075 1.80000E+01 5.00000E+01 0.00000E+00
 -1      1076 2.40000E+01 5.20000E+01 0.00000E+00
 -1      1077 3.00000E+01 5.40000E+01 0.00000E+00
 -1      1078 3.60000E+01 5.60000E+01 0.00000E+00
 -1      1079 4.20000E+01 5.80000E+01 0.00000E+00
 -1      1080 6.00000E+00 4.60000E+01 5.00000E+00
 -1      1081 1.20000E+01 4.80000E+01 5.00000E+00
 -1      1082 1.80000E+01 5.00000E+01 5.00000E+00
 -1      1083 2.40000E+01 5.20000E+01 5.00000E+00
 -1      1084 3.00000E+01 5.40000E+01 5.00000E+00
 -1      1085 3.60000E+01 5.60000E+01 5.00000E+00
 -1      1086 4.20000E+01 5.80000E+01 5.00000E+00
 -1      1087 0.00000E+00 5.50000E+00 0.00000E+00
 -1      1088 0.00000E+00 1.10000E+01 0.00000E+00
 -1      1089 0.00000E+00 1.65000E+01 0.00000E+00
 -1      1090 0.00000E+00 2.20000E+01 0.00000E+00
 -1      1091 0.00000E+00 2.75000E+01 0.00000E+00
 -1      1092 0.00000E+00 3.30000E+01 0.00000E+00
 -1      1093 0.00000E+00 3.85000E+01 0.00000E+00
 -1      1094 0.00000E+00 5.50000E+00 5.00000E+00
 -1      1095 0.00000E+00 1.10000E+01 5.00000E+00
 -1      1096 0.00000E+00 1.65000E+01 5.00000E+00
 -1      1097 0.00000E+00 2.20000E+01 5.00000E+00
 -1      1098 0.00000E+00 2.75000E+01 5.00000E+00
 -1      1099 0.00000E+00 3.30000E+01 5.00000E+00
 -1      1100 0.00000E+00 3.85000E+01 5.00000E+00
 -1      1101 4.20000E+01 4.09375E+01 0.00000E+00
 -1      1102 4.20000E+01 4.33750E+01 0.00000E+00
 -1      1103 4.20000E+01 4.58125E+01 0.00000E+00
 -1      1104 4.20000E+01 4.82500E+01 0.00000E+00
 -1      1105 4.20000E+01 5.06875E+01 0.00000E+00
 -1      1106 4.20000E+01 5.31250E+01 0.00000E+00
 -1      1107 4.20000E+01 5.55625E+01 0.00000E+00
 -1      1108 3.60000E+01 3.58750E+01 0.00000E+00
 -1      1109 3.60000E+01 3.87500E+01 0.00000E+00
 -1      1110 3.60000E+01 4.16250E+01 0.00000E+00
 -1      1111 3.60000E+01 4.45000E+01 0.00000E+00
 -1      1112 3.60000E+01 4.73750E+01 0.00000E+00
 -1      1113 3.60000E+01 5.02500E+01 0.00000E+00
 -1      1114 3.60000E+01 5.31250E+01 0.00000E+00
 -1      1115 3.00000E+01 3.08125E+01 0.00000E+00
 -1      1116 3.00000E+01 3.41250E+01 0.00000E+00
 -1      1117 3.00000E+01 3.74375E+01 0.00000E+00
 -1      1118 3.00000E+01 4.07500E+01 0.00000E+00
 -1      1119 3.00000E+01 4.40625E+01 0.00000E+00
 -1      1120 3.00000E+01 4.73750E+01 0.00000E+00
 -1      1121 3.00000E+01 5.06875E+01 0.00000E+00
 -1      1122 2.40000E+01 2.57500E+01 0.00000E+00
 -1      1123 2.40000E+01 2.95000E+01 0.00000E+00
 -1      1124 2.40000E+01 3.32500E+01 0.00000E+00
 -1      1125 2.40000E+01 3.70000E+01 0.00000E+00
 -1      1126 2.40000E+01 4.07500E+01 0.00000E+00
 -1      1127 2.40000E+01 4.45000E+01 0.00000E+00
 -1      1128 2.40000E+01 4.82500E+01 0.00000E+00
 -1      1129 1.80000E+01 2.06875E+01 0.00000E+00
 -1      1130 1.80000E+01 2.48750E+01 0.00000E+00
 -1      1131 1.80000E+01 2.90625E+01 0.00000E+00
 -1      1132 1.80000E+01 3.32500E+01 0.00000E+00
 -1      1133 1.80000E+01 3.74375E+01 0.00000E+00
 -1      1134 1.80000E+01 4.16250E+01 0.00000E+00
 -1      1135 1.80000E+01 4.58125E+01 0.00000E+00
 -1      1136 1.20000E+01 1.56250E+01 0.00000E+00
 -1      1137 1.20000E+01 2.02500E+01 0.00000E+00
 -1      1138 1.20000E+01 2.48750E+01 0.00000E+00
 -1      1139 1.20000E+01 2.95000E+01 0.00000E+00
 -1      1140 1.20000E+01 3.41250E+01 0.00000E+00
 -1      1141 1.20000E+01 3.87500E+01 0.00000E+00
 -1      1142 1.20000E+01 4.33750E+01 0.00000E+00
 -1      1143 6.00000E+00 1.05625E+01 0.00000E+00
 -1      1144 6.00000E+00 1.56250E+01 0.00000E+00
 -1      1145 6.00000E+00 2.06875E+01 0.00000E+00
 -1      1146 6.00000E+00 2.57500E+01 0.00000E+00
 -1      1147 6.00000E+00 3.08125E+01 0.00000E+00
 -1      1148 6.00000E+00 3.58750E+01 0.00000E+00
 -1      1149 6.00000E+00 4.09375E+01 0.00000E+00
 -1      1150 6.00000E+00 1.05625E+01 5.00000E+00
 -1      1151 6.00000E+00 1.56250E+01 5.00000E+00
 -1      1152 6.00000E+00 2.06875E+01 5.00000E+00
 -1      1153 6.00000E+00 2.57500E+01 5.00000E+00
 -1      1154 6.00000E+00 3.08125E+01 5.00000E+00
 -1      1155 6.00000E+00 3.58750E+01 5.00000E+00
 -1      1156 6.00000E+00 4.09375E+01 5.00000E+00
 -1      1157 1.20000E+01 1.56250E+01 5.00000E+00
 -1      1158 1.20000E+01 2.02500E+01 5.00000E+00
 -1      1159 1.20000E+01 2.48750E+01 5.00000E+00
 -1      1160 1.20000E+01 2.95000E+01 5.00000E+00
 -1      1161 1.20000E+01 3.41250E+01 5.00000E+00
 -1      1162 1.20000E+01 3.87500E+01 5.00000E+00
 -1      1163 1.20000E+01 4.33750E+01 5.00000E+00
 -1      1164 1.80000E+01 2.06875E+01 5.00000E+00
 -1      1165 1.80000E+01 2.48750E+01 5.00000E+00
 -1      1166 1.80000E+01 2.90625E+01 5.00000E+00
 -1      1167 1.80000E+01 3.32500E+01 5.00000E+00
 -1      1168 1.80000E+01 3.74375E+01 5.00000E+00
 -1      1169 1.80000E+01 4.16250E+01 5.00000E+00
 -1      1170 1.80000E+01 4.58125E+01 5.00000E+00
 -1      1171 2.40000E+01 2.57500E+01 5.00000E+00
 -1      1172 2.40000E+01 2.95000E+01 5.00000E+00
 -1      1173 2.40000E+01 3.32500E+01 5.00000E+00
 -1      1174 2.40000E+01 3.70000E+01 5.00000E+00
 -1      1175 2.40000E+01 4.07500E+01 5.00000E+00
 -1      1176 2.40000E+01 4.45000E+01 5.00000E+00
 -1      1177 2.40000E+01 4.82500E+01 5.00000E+00
 -1      1178 3.00000E+01 3.08125E+01 5.00000E+00
 -1      1179 3.00000E+01 3.41250E+01 5.00000E+00
 -1      1180 3.00000E+01 3.74375E+01 5.00000E+00
 -1      1181 3.00000E+01 4.07500E+01 5.00000E+00
 -1      1182 3.00000E+01 4.40625E+01 5.00000E+00
 -1      1183 3.00000E+01 4.73750E+01 5.00000E+00
 -1      1184 3.00000E+01 5.06875E+01 5.00000E+00
 -1      1185 3.60000E+01 3.58750E+01 5.00000E+00
 -1      1186 3.60000E+01 3.87500E+01 5.00000E+00
 -1      1187 3.60000E+01 4.16250E+01 5.00000E+00
 -1      1188 3.60000E+01 4.45000E+01 5.00000E+00
 -1      1189 3.60000E+01 4.73750E+01 5.00000E+00
 -1      1190 3.60000E+01 5.02500E+01 5.00000E+00
 -1      1191 3.60000E+01 5.31250E+01 5.00000E+00
 -1      1192 4.20000E+01 4.09375E+01 5.00000E+00
 -1      1193 4.20000E+01 4.33750E+01 5.00000E+00
 -1      1194 4.20000E+01 4.58125E+01 5.00000E+00
 -1      1195 4.20000E+01 4.82500E+01 5.00000E+00
 -1      1196 4.20000E+01 5.06875E+01 5.00000E+00
 -1      1197 4.20000E+01 5.31250E+01 5.00000E+00
 -1      1198 4.20000E+01 5.55625E+01 5.00000E+00
 -1      1199 4.80000E+01 4.40000E+01 2.50000E+00
 -1      1200 0.00000E+00 0.00000E+00 2.50000E+00
 -1      1201 4.50000E+01 4.12500E+01 0.00000E+00
 -1      1202 3.90000E+01 3.57500E+01 0.00000E+00
 -1      1203 3.30000E+01 3.02500E+01 0.00000E+00
 -1      1204 2.70000E+01 2.47500E+01 0.00000E+00
 -1      1205 2.10000E+01 1.92500E+01 0.00000E+00
 -1      1206 1.50000E+01 1.37500E+01 0.00000E+00
 -1      1207 9.00000E+00 8.25000E+00 0.00000E+00
 -1      1208 3.00000E+00 2.75000E+00 0.00000E+00
 -1      1209 4.50000E+01 4.12500E+01 5.00000E+00
 -1      1210 3.90000E+01 3.57500E+01 5.00000E+00
 -1      1211 3.30000E+01 3.02500E+01 5.00000E+00
 -1      1212 2.70000E+01 2.47500E+01 5.00000E+00
 -1      1213 2.10000E+01 1.92500E+01 5.00000E+00
 -1      1214 1.50000E+01 1.37500E+01 5.00000E+00
 -1      1215 9.00000E+00 8.25000E+00 5.00000E+00
 -1      1216 3.00000E+00 2.75000E+00 5.00000E+00
 -1      1217 4.80000E+01 6.00000E+01 2.50000E+00
 -1      1218 4.80000E+01 5.90000E+01 0.00000E+00
 -1      1219 4.80000E+01 5.70000E+01 0.00000E+00
 -1      1220 4.80000E+01 5.50000E+01 0.00000E+00
 -1      1221 4.80000E+01 5.30000E+01 0.00000E+00
 -1      1222 4.80000E+01 5.10000E+01 0.00000E+00
 -1      1223 4.80000E+01 4.90000E+01 0.00000E+00
 -1      1224 4.80000E+01 4.70000E+01 0.00000E+00
 -1      1225 4.80000E+01 4.50000E+01 0.00000E+00
 -1      1226 4.80000E+01 5.90000E+01 5.00000E+00
 -1      1227 4.80000E+01 5.70000E+01 5.00000E+00
 -1      1228 4.80000E+01 5.50000E+01 5.00000E+00
 -1      1229 4.80000E+01 5.30000E+01 5.00000E+00
 -1      1230 4.80000E+01 5.10000E+01 5.00000E+00
 -1      1231 4.80000E+01 4.90000E+01 5.00000E+00
 -1      1232 4.80000E+01 4.70000E+01 5.00000E+00
 -1      1233 4.80000E+01 4.50000E+01 5.00000E+00
 -1      1234 0.00000E+00 4.40000E+01 2.50000E+00
 -1      1235 3.00000E+00 4.50000E+01 0.00000E+00
 -1      1236 9.00000E+00 4.70000E+01 0.00000E+00
 -1      1237 1.50000E+01 4.90000E+01 0.00000E+00
 -1      1238 2.10000E+01 5.10000E+01 0.00000E+00
 -1      1239 2.70000E+01 5.30000E+01 0.00000E+00
 -1      1240 3.30000E+01 5.50000E+01 0.00000E+00
 -1      1241 3.90000E+01 5.70000E+01 0.00000E+00
 -1      1242 4.50000E+01 5.90000E+01 0.00000E+00
 -1      1243 3.00000E+00 4.50000E+01 5.00000E+00
 -1      1244 9.00000E+00 4.70000E+01 5.00000E+00
 -1      1245 1.50000E+01 4.90000E+01 5.00000E+00
 -1      1246 2.10000E+01 5.10000E+01 5.00000E+00
 -1      1247 2.70000E+01 5.30000E+01 5.00000E+00
 -1      1248 3.30000E+01 5.50000E+01 5.00000E+00
 -1      1249 3.90000E+01 5.70000E+01 5.00000E+00
 -1      1250 4.50000E+01 5.90000E+01 5.00000E+00
 -1      1251 0.00000E+00 2.75000E+00 0.00000E+00
 -1      1252 0.00000E+00 8.25000E+00 0.00000E+00
 -1      1253 0.00000E+00 1.37500E+01 0.00000E+00
 -1      1254 0.00000E+00 1.92500E+01 0.00000E+00
 -1      1255 0.00000E+00 2.47500E+01 0.00000E+00
 -1      1256 0.00000E+00 3.02500E+01 0.00000E+00
 -1      1257 0.00000E+00 3.57500E+01 0.00000E+00
 -1      1258 0.00000E+00 4.12500E+01 0.00000E+00
 -1      1259 0.00000E+00 2.75000E+00 5.00000E+00
 -1      1260 0.00000E+00 8.25000E+00 5.00000E+00
 -1      1261 0.00000E+00 1.37500E+01 5.00000E+00
 -1      1262 0.00000E+00 1.92500E+01 5.00000E+00
 -1      1263 0.00000E+00 2.47500E+01 5.00000E+00
 -1      1264 0.00000E+00 3.02500E+01 5.00000E+00
 -1      1265 0.00000E+00 3.57500E+01 5.00000E+00
 -1      1266 0.00000E+00 4.12500E+01 5.00000E+00
 -1      1267 4.20000E+01 3.85000E+01 2.50000E+00
 -1      1268 3.60000E+01 3.30000E+01 2.50000E+00
 -1      1269 3.00000E+01 2.75000E+01 2.50000E+00
 -1      1270 2.40000E+01 2.20000E+01 2.50000E+00
 -1      1271 1.80000E+01 1.65000E+01 2.50000E+00
 -1      1272 1.20000E+01 1.10000E+01 2.50000E+00
 -1      1273 6.00000E+00 5.50000E+00 2.50000E+00
 -1      1274 4.80000E+01 5.80000E+01 2.50000E+00
 -1      1275 4.80000E+01 5.60000E+01 2.50000E+00
 -1      1276 4.80000E+01 5.40000E+01 2.50000E+00
 -1      1277 4.80000E+01 5.20000E+01 2.50000E+00
 -1      1278 4.80000E+01 5.00000E+01 2.50000E+00
 -1      1279 4.80000E+01 4.80000E+01 2.50000E+00
 -1      1280 4.80000E+01 4.60000E+01 2.50000E+00
 -1      1281 6.00000E+00 4.60000E+01 2.50000E+00
 -1      1282 1.20000E+01 4.80000E+01 2.50000E+00
 -1      1283 1.80000E+01 5.00000E+01 2.50000E+00
 -1      1284 2.40000E+01 5.20000E+01 2.50000E+00
 -1      1285 3.00000E+01 5.40000E+01 2.50000E+00
 -1      1286 3.60000E+01 5.60000E+01 2.50000E+00
 -1      1287 4.20000E+01 5.80000E+01 2.50000E+00
 -1      1288 0.00000E+00 5.50000E+00 2.50000E+00
 -1      1289 0.00000E+00 1.10000E+01 2.50000E+00
 -1      1290 0.00000E+00 1.65000E+01 2.50000E+00
 -1      1291 0.00000E+00 2.20000E+01 2.50000E+00
 -1      1292 0.00000E+00 2.75000E+01 2.50000E+00
 -1      1293 0.00000E+00 3.30000E+01 2.50000E+00
 -1      1294 0.00000E+00 3.85000E+01 2.50000E+00
 -1      1295 4.20000E+01 3.97188E+01 0.00000E+00
 -1      1296 4.50000E+01 4.34688E+01 0.00000E+00
 -1      1297 4.20000E+01 4.21562E+01 0.00000E+00
 -1      1298 4.50000E+01 4.56875E+01 0.00000E+00
 -1      1299 4.20000E+01 4.45938E+01 0.00000E+00
 -1      1300 4.50000E+01 4.79062E+01 0.00000E+00
 -1      1301 4.20000E+01 4.70312E+01 0.00000E+00
 -1      1302 4.50000E+01 5.01250E+01 0.00000E+00
 -1      1303 4.20000E+01 4.94688E+01 0.00000E+00
 -1      1304 4.50000E+01 5.23438E+01 0.00000E+00
 -1      1305 4.20000E+01 5.19062E+01 0.00000E+00
 -1      1306 4.50000E+01 5.45625E+01 0.00000E+00
 -1      1307 4.20000E+01 5.43438E+01 0.00000E+00
 -1      1308 4.50000E+01 5.67812E+01 0.00000E+00
 -1      1309 4.20000E+01 5.67812E+01 0.00000E+00
 -1      1310 3.60000E+01 3.44375E+01 0.00000E+00
 -1      1311 3.90000E+01 3.84062E+01 0.00000E+00
 -1      1312 3.60000E+01 3.73125E+01 0.00000E+00
 -1      1313 3.90000E+01 4.10625E+01 0.00000E+00
 -1      1314 3.60000E+01 4.01875E+01 0.00000E+00
 -1      1315 3.90000E+01 4.37188E+01 0.00000E+00
 -1      1316 3.60000E+01 4.30625E+01 0.00000E+00
 -1      1317 3.90000E+01 4.63750E+01 0.00000E+00
 -1      1318 3.60000E+01 4.59375E+01 0.00000E+00
 -1      1319 3.90000E+01 4.90312E+01 0.00000E+00
 -1      1320 3.60000E+01 4.88125E+01 0.00000E+00
 -1      1321 3.90000E+01 5.16875E+01 0.00000E+00
 -1      1322 3.60000E+01 5.16875E+01 0.00000E+00
 -1      1323 3.90000E+01 5.43438E+01 0.00000E+00
 -1      1324 3.60000E+01 5.45625E+01 0.00000E+00
 -1      1325 3.00000E+01 2.91562E+01 0.00000E+00
 -1      1326 3.30000E+01 3.33438E+01 0.00000E+00
 -1      1327 3.00000E+01 3.24688E+01 0.00000E+00
 -1      1328 3.30000E+01 3.64375E+01 0.00000E+00
 -1      1329 3.00000E+01 3.57812E+01 0.00000E+00
 -1      1330 3.30000E+01 3.95312E+01 0.00000E+00
 -1      1331 3.00000E+01 3.90938E+01 0.00000E+00
 -1      1332 3.30000E+01 4.26250E+01 0.00000E+00
 -1      1333 3.00000E+01 4.24062E+01 0.00000E+00
 -1      1334 3.30000E+01 4.57188E+01 0.00000E+00
 -1      1335 3.00000E+01 4.57188E+01 0.00000E+00
 -1      1336 3.30000E+01 4.88125E+01 0.00000E+00
 -1      1337 3.00000E+01 4.90312E+01 0.00000E+00
 -1      1338 3.30000E+01 5.19062E+01 0.00000E+00
 -1      1339 3.00000E+01 5.23438E+01 0.00000E+00
 -1      1340 2.40000E+01 2.38750E+01 0.00000E+00
 -1      1341 2.70000E+01 2.82812E+01 0.00000E+00
 -1      1342 2.40000E+01 2.76250E+01 0.00000E+00
 -1      1343 2.70000E+01 3.18125E+01 0.00000E+00
 -1      1344 2.40000E+01 3.13750E+01 0.00000E+00
 -1      1345 2.70000E+01 3.53438E+01 0.00000E+00
 -1      1346 2.40000E+01 3.51250E+01 0.00000E+00
 -1      1347 2.70000E+01 3.88750E+01 0.00000E+00
 -1      1348 2.40000E+01 3.88750E+01 0.00000E+00
 -1      1349 2.70000E+01 4.24062E+01 0.00000E+00
 -1      1350 2.40000E+01 4.26250E+01 0.00000E+00
 -1      1351 2.70000E+01 4.59375E+01 0.00000E+00
 -1      1352 2.40000E+01 4.63750E+01 0.00000E+00
 -1      1353 2.70000E+01 4.94688E+01 0.00000E+00
 -1      1354 2.40000E+01 5.01250E+01 0.00000E+00
 -1      1355 1.80000E+01 1.85938E+01 0.00000E+00
 -1      1356 2.10000E+01 2.32188E+01 0.00000E+00
 -1      1357 1.80000E+01 2.27812E+01 0.00000E+00
 -1      1358 2.10000E+01 2.71875E+01 0.00000E+00
 -1      1359 1.80000E+01 2.69688E+01 0.00000E+00
 -1      1360 2.10000E+01 3.11562E+01 0.00000E+00
 -1      1361 1.80000E+01 3.11562E+01 0.00000E+00
 -1      1362 2.10000E+01 3.51250E+01 0.00000E+00
 -1      1363 1.80000E+01 3.53438E+01 0.00000E+00
 -1      1364 2.10000E+01 3.90938E+01 0.00000E+00
 -1      1365 1.80000E+01 3.95312E+01 0.00000E+00
 -1      1366 2.10000E+01 4.30625E+01 0.00000E+00
 -1      1367 1.80000E+01 4.37188E+01 0.00000E+00
 -1      1368 2.10000E+01 4.70312E+01 0.00000E+00
 -1      1369 1.80000E+01 4.79062E+01 0.00000E+00
 -1      1370 1.20000E+01 1.33125E+01 0.00000E+00
 -1      1371 1.50000E+01 1.81562E+01 0.00000E+00
 -1      1372 1.20000E+01 1.79375E+01 0.00000E+00
 -1      1373 1.50000E+01 2.25625E+01 0.00000E+00
 -1      1374 1.20000E+01 2.25625E+01 0.00000E+00
 -1      1375 1.50000E+01 2.69688E+01 0.00000E+00
 -1      1376 1.20000E+01 2.71875E+01 0.00000E+00
 -1      1377 1.50000E+01 3.13750E+01 0.00000E+00
 -1      1378 1.20000E+01 3.18125E+01 0.00000E+00
 -1      1379 1.50000E+01 3.57812E+01 0.00000E+00
 -1      1380 1.20000E+01 3.64375E+01 0.00000E+00
 -1      1381 1.50000E+01 4.01875E+01 0.00000E+00
 -1      1382 1.20000E+01 4.10625E+01 0.00000E+00
 -1      1383 1.50000E+01 4.45938E+01 0.00000E+00
 -1      1384 1.20000E+01 4.56875E+01 0.00000E+00
 -1      1385 6.00000E+00 8.03125E+00 0.00000E+00
 -1      1386 9.00000E+00 1.30938E+01 0.00000E+00
 -1      1387 6.00000E+00 1.30938E+01 0.00000E+00
 -1      1388 9.00000E+00 1.79375E+01 0.00000E+00
 -1      1389 6.00000E+00 1.81562E+01 0.00000E+00
 -1      1390 9.00000E+00 2.27812E+01 0.00000E+00
 -1      1391 6.00000E+00 2.32188E+01 0.00000E+00
 -1      1392 9.00000E+00 2.76250E+01 0.00000E+00
 -1      1393 6.00000E+00 2.82812E+01 0.00000E+00
 -1      1394 9.00000E+00 3.24688E+01 0.00000E+00
 -1      1395 6.00000E+00 3.33438E+01 0.00000E+00
 -1      1396 9.00000E+00 3.73125E+01 0.00000E+00
 -1      1397 6.00000E+00 3.84062E+01 0.00000E+00
 -1      1398 9.00000E+00 4.21562E+01 0.00000E+00
 -1      1399 6.00000E+00 4.34688E+01 0.00000E+00
 -1      1400 3.00000E+00 8.03125E+00 0.00000E+00
 -1      1401 3.00000E+00 1.33125E+01 0.00000E+00
 -1      1402 3.00000E+00 1.85938E+01 0.00000E+00
 -1      1403 3.00000E+00 2.38750E+01 0.00000E+00
 -1      1404 3.00000E+00 2.91562E+01 0.00000E+00
 -1      1405 3.00000E+00 3.44375E+01 0.00000E+00
 -1      1406 3.00000E+00 3.97188E+01 0.00000E+00
 -1      1407 6.00000E+00 8.03125E+00 5.00000E+00
 -1      1408 3.00000E+00 8.03125E+00 5.00000E+00
 -1      1409 6.00000E+00 1.30938E+01 5.00000E+00
 -1      1410 3.00000E+00 1.33125E+01 5.00000E+00
 -1      1411 6.00000E+00 1.81562E+01 5.00000E+00
 -1      1412 3.00000E+00 1.85938E+01 5.00000E+00
 -1      1413 6.00000E+00 2.32188E+01 5.00000E+00
 -1      1414 3.00000E+00 2.38750E+01 5.00000E+00
 -1      1415 6.00000E+00 2.82812E+01 5.00000E+00
 -1      1416 3.00000E+00 2.91562E+01 5.00000E+00
 -1      1417 6.00000E+00 3.33438E+01 5.00000E+00
 -1      1418 3.00000E+00 3.44375E+01 5.00000E+00
 -1      1419 6.00000E+00 3.84062E+01 5.00000E+00
 -1      1420 3.00000E+00 3.97188E+01 5.00000E+00
 -1      1421 6.00000E+00 4.34688E+01 5.00000E+00
 -1      1422 1.20000E+01 1.33125E+01 5.00000E+00
 -1      1423 9.00000E+00 1.30938E+01 5.00000E+00
 -1      1424 1.20000E+01 1.79375E+01 5.00000E+00
 -1      1425 9.00000E+00 1.79375E+01 5.00000E+00
 -1      1426 1.20000E+01 2.25625E+01 5.00000E+00
 -1      1427 9.00000E+00 2.27812E+01 5.00000E+00
 -1      1428 1.20000E+01 2.71875E+01 5.00000E+00
 -1      1429 9.00000E+00 2.76250E+01 5.00000E+00
 -1      1430 1.20000E+01 3.18125E+01 5.00000E+00
 -1      1431 9.00000E+00 3.24688E+01 5.00000E+00
 -1      1432 1.20000E+01 3.64375E+01 5.00000E+00
 -1      1433 9.00000E+00 3.73125E+01 5.00000E+00
 -1      1434 1.20000E+01 4.10625E+01 5.00000E+00
 -1      1435 9.00000E+00 4.21562E+01 5.00000E+00
 -1      1436 1.20000E+01 4.56875E+01 5.00000E+00
 -1      1437 1.80000E+01 1.85938E+01 5.00000E+00
 -1      1438 1.50000E+01 1.81562E+01 5.00000E+00
 -1      1439 1.80000E+01 2.27812E+01 5.00000E+00
 -1      1440 1.50000E+01 2.25625E+01 5.00000E+00
 -1      1441 1.80000E+01 2.69688E+01 5.00000E+00
 -1      1442 1.50000E+01 2.69688E+01 5.00000E+00
 -1      1443 1.80000E+01 3.11562E+01 5.00000E+00
 -1      1444 1.50000E+01 3.13750E+01 5.00000E+00
 -1      1445 1.80000E+01 3.53438E+01 5.00000E+00
 -1      1446 1.50000E+01 3.57812E+01 5.00000E+00
 -1      1447 1.80000E+01 3.95312E+01 5.00000E+00
 -1      1448 1.50000E+01 4.01875E+01 5.00000E+00
 -1      1449 1.80000E+01 4.37188E+01 5.00000E+00
 -1      1450 1.50000E+01 4.45938E+01 5.00000E+00
 -1      1451 1.80000E+01 4.79062E+01 5.00000E+00
 -1      1452 2.40000E+01 2.38750E+01 5.00000E+00
 -1      1453 2.10000E+01 2.32188E+01 5.00000E+00
 -1      1454 2.40000E+01 2.76250E+01 5.00000E+00
 -1      1455 2.10000E+01 2.71875E+01 5.00000E+00
 -1      1456 2.40000E+01 3.13750E+01 5.00000E+00
 -1      1457 2.10000E+01 3.11562E+01 5.00000E+00
 -1      1458 2.40000E+01 3.51250E+01 5.00000E+00
 -1      1459 2.10000E+01 3.51250E+01 5.00000E+00
 -1      1460 2.40000E+01 3.88750E+01 5.00000E+00
 -1      1461 2.10000E+01 3.90938E+01 5.00000E+00
 -1      1462 2.40000E+01 4.26250E+01 5.00000E+00
 -1      1463 2.10000E+01 4.30625E+01 5.00000E+00
 -1      1464 2.40000E+01 4.63750E+01 5.00000E+00
 -1      1465 2.10000E+01 4.70312E+01 5.00000E+00
 -1      1466 2.40000E+01 5.01250E+01 5.00000E+00
 -1      1467 3.00000E+01 2.91562E+01 5.00000E+00
 -1      1468 2.70000E+01 2.82812E+01 5.00000E+00
 -1      1469 3.00000E+01 3.24688E+01 5.00000E+00
 -1      1470 2.70000E+01 3.18125E+01 5.00000E+00
 -1      1471 3.00000E+01 3.57812E+01 5.00000E+00
 -1      1472 2.70000E+01 3.53438E+01 5.00000E+00
 -1      1473 3.00000E+01 3.90938E+01 5.00000E+00
 -1      1474 2.70000E+01 3.88750E+01 5.00000E+00
 -1      1475 3.00000E+01 4.24062E+01 5.00000E+00
 -1      1476 2.70000E+01 4.24062E+01 5.00000E+00
 -1      1477 3.00000E+01 4.57188E+01 5.00000E+00
 -1      1478 2.70000E+01 4.59375E+01 5.00000E+00
 -1      1479 3.00000E+01 4.90312E+01 5.00000E+00
 -1      1480 2.70000E+01 4.94688E+01 5.00000E+00
 -1      1481 3.00000E+01 5.23438E+01 5.00000E+00
 -1      1482 3.60000E+01 3.44375E+01 5.00000E+00
 -1      1483 3.30000E+01 3.33438E+01 5.00000E+00
 -1      1484 3.60000E+01 3.73125E+01 5.00000E+00
 -1      1485 3.30000E+01 3.64375E+01 5.00000E+00
 -1      1486 3.60000E+01 4.01875E+01 5.00000E+00
 -1      1487 3.30000E+01 3.95312E+01 5.00000E+00
 -1      1488 3.60000E+01 4.30625E+01 5.00000E+00
 -1      1489 3.30000E+01 4.26250E+01 5.00000E+00
 -1      1490 3.60000E+01 4.59375E+01 5.00000E+00
 -1      1491 3.30000E+01 4.57188E+01 5.00000E+00
 -1      1492 3.60000E+01 4.88125E+01 5.00000E+00
 -1      1493 3.30000E+01 4.88125E+01 5.00000E+00
 -1      1494 3.60000E+01 5.16875E+01 5.00000E+00
 -1      1495 3.30000E+01 5.19062E+01 5.00000E+00
 -1      1496 3.60000E+01 5.45625E+01 5.00000E+00
 -1      1497 4.20000E+01 3.97188E+01 5.00000E+00
 -1      1498 3.90000E+01 3.84062E+01 5.00000E+00
 -1      1499 4.20000E+01 4.21562E+01 5.00000E+00
 -1      1500 3.90000E+01 4.10625E+01 5.00000E+00
 -1      1501 4.20000E+01 4.45938E+01 5.00000E+00
 -1      1502 3.90000E+01 4.37188E+01 5.00000E+00
 -1      1503 4.20000E+01 4.70312E+01 5.00000E+00
 -1      1504 3.90000E+01 4.63750E+01 5.00000E+00
 -1      1505 4.20000E+01 4.94688E+01 5.00000E+00
 -1      1506 3.90000E+01 4.90312E+01 5.00000E+00
 -1      1507 4.20000E+01 5.19062E+01 5.00000E+00
 -1      1508 3.90000E+01 5.16875E+01 5.00000E+00
 -1      1509 4.20000E+01 5.43438E+01 5.00000E+00
 -1      1510 3.90000E+01 5.43438E+01 5.00000E+00
 -1      1511 4.20000E+01 5.67812E+01 5.00000E+00
 -1      1512 4.50000E+01 4.34688E+01 5.00000E+00
 -1      1513 4.50000E+01 4.56875E+01 5.00000E+00
 -1      1514 4.50000E+01 4.79062E+01 5.00000E+00
 -1      1515 4.50000E+01 5.01250E+01 5.00000E+00
 -1      1516 4.50000E+01 5.23438E+01 5.00000E+00
 -1      1517 4.50000E+01 5.45625E+01 5.00000E+00
 -1      1518 4.50000E+01 5.67812E+01 5.00000E+00
 -1      1519 4.20000E+01 4.09375E+01 2.50000E+00
 -1      1520 4.20000E+01 4.33750E+01 2.50000E+00
 -1      1521 4.20000E+01 4.58125E+01 2.50000E+00
 -1      1522 4.20000E+01 4.82500E+01 2.50000E+00
 -1      1523 4.20000E+01 5.06875E+01 2.50000E+00
 -1      1524 4.20000E+01 5.31250E+01 2.50000E+00
 -1      1525 4.20000E+01 5.55625E+01 2.50000E+00
 -1      1526 3.60000E+01 3.58750E+01 2.50000E+00
 -1      1527 3.60000E+01 3.87500E+01 2.50000E+00
 -1      1528 3.60000E+01 4.16250E+01 2.50000E+00
 -1      1529 3.60000E+01 4.45000E+01 2.50000E+00
 -1      1530 3.60000E+01 4.73750E+01 2.50000E+00
 -1      1531 3.60000E+01 5.02500E+01 2.50000E+00
 -1      1532 3.60000E+01 5.31250E+01 2.50000E+00
 -1      1533 3.00000E+01 3.08125E+01 2.50000E+00
 -1      1534 3.00000E+01 3.41250E+01 2.50000E+00
 -1      1535 3.00000E+01 3.74375E+01 2.50000E+00
 -1      1536 3.00000E+01 4.07500E+01 2.50000E+00
 -1      1537 3.00000E+01 4.40625E+01 2.50000E+00
 -1      1538 3.00000E+01 4.73750E+01 2.50000E+00
 -1      1539 3.00000E+01 5.06875E+01 2.50000E+00
 -1      1540 2.40000E+01 2.57500E+01 2.50000E+00
 -1      1541 2.40000E+01 2.95000E+01 2.50000E+00
 -1      1542 2.40000E+01 3.32500E+01 2.50000E+00
 -1      1543 2.40000E+01 3.70000E+01 2.50000E+00
 -1      1544 2.40000E+01 4.07500E+01 2.50000E+00
 -1      1545 2.40000E+01 4.45000E+01 2.50000E+00
 -1      1546 2.40000E+01 4.82500E+01 2.50000E+00
 -1      1547 1.80000E+01 2.06875E+01 2.50000E+00
 -1      1548 1.80000E+01 2.48750E+01 2.50000E+00
 -1      1549 1.80000E+01 2.90625E+01 2.50000E+00
 -1      1550 1.80000E+01 3.32500E+01 2.50000E+00
 -1      1551 1.80000E+01 3.74375E+01 2.50000E+00
 -1      1552 1.80000E+01 4.16250E+01 2.50000E+00
 -1      1553 1.80000E+01 4.58125E+01 2.50000E+00
 -1      1554 1.20000E+01 1.56250E+01 2.50000E+00
 -1      1555 1.20000E+01 2.02500E+01 2.50000E+00
 -1      1556 1.20000E+01 2.48750E+01 2.50000E+00
 -1      1557 1.20000E+01 2.95000E+01 2.50000E+00
 -1      1558 1.20000E+01 3.41250E+01 2.50000E+00
 -1      1559 1.20000E+01 3.87500E+01 2.50000E+00
 -1      1560 1.20000E+01 4.33750E+01 2.50000E+00
 -1      1561 6.00000E+00 1.05625E+01 2.50000E+00
 -1      1562 6.00000E+00 1.56250E+01 2.50000E+00
 -1      1563 6.00000E+00 2.06875E+01 2.50000E+00
 -1      1564 6.00000E+00 2.57500E+01 2.50000E+00
 -1      1565 6.00000E+00 3.08125E+01 2.50000E+00
 -1      1566 6.00000E+00 3.58750E+01 2.50000E+00
 -1      1567 6.00000E+00 4.09375E+01 2.50000E+00
 -3
    3C                            64                                     1
 -1      1087    4    0    1
 -2      1038      1037      1045      1052      1072      1065      1101      1192      1199      1201
 -2      1267      1209      1233      1225      1295      1497      1280      1296      1519      1512
 -1      1088    4    0    1
 -2      1072      1065      1101      1192      1071      1064      1102      1193      1280      1296
 -2      1519      1512      1232      1224      1297      1499      1279      1298      1520      1513
 -1      1089    4    0    1
 -2      1071      1064      1102      1193      1070      1063      1103      1194      1279      1298
 -2      1520      1513      1231      1223      1299      1501      1278      1300      1521      1514
 -1      1090    4    0    1
 -2      1070      1063      1103      1194      1069      1062      1104      1195      1278      1300
 -2      1521      1514      1230      1222      1301      1503      1277      1302      1522      1515
 -1      1091    4    0    1
 -2      1069      1062      1104      1195      1068      1061      1105      1196      1277      1302
 -2      1522      1515      1229      1221      1303      1505      1276      1304      1523      1516
 -1      1092    4    0    1
 -2      1068      1061      1105      1196      1067      1060      1106      1197      1276      1304
 -2      1523      1516      1228      1220      1305      1507      1275      1306      1524      1517
 -1      1093    4    0    1
 -2      1067      1060      1106      1197      1066      1059      1107      1198      1275      1306
 -2      1524      1517      1227      1219      1307      1509      1274      1308      1525      1518
 -1      1094    4    0    1
 -2      1066      1059      1107      1198      1042      1041      1079      1086      1274      1308
 -2      1525      1518      1226      1218      1309      1511      1217      1242      1287      1250
 -1      1095    4    0    1
 -2      1052      1045      1046      1053      1192      1101      1108      1185      1267      1202
 -2      1268      1210      1497      1295      1310      1482      1519      1311      1526      1498
 -1      1096    4    0    1
 -2      1192      1101      1108      1185      1193      1102      1109      1186      1519      1311
 -2      1526      1498      1499      1297      1312      1484      1520      1313      1527      1500
 -1      1097    4    0    1
 -2      1193      1102      1109      1186      1194      1103      1110      1187      1520      1313
 -2      1527      1500      1501      1299      1314      1486      1521      1315      1528      1502
 -1      1098    4    0    1
 -2      1194      1103      1110      1187      1195      1104      1111      1188      1521      1315
 -2      1528      1502      1503      1301      1316      1488      1522      1317      1529      1504
 -1      1099    4    0    1
 -2      1195      1104      1111      1188      1196      1105      1112      1189      1522      1317
 -2      1529      1504      1505      1303      1318      1490      1523      1319      1530      1506
 -1      1100    4    0    1
 -2      1196      1105      1112      1189      1197      1106      1113      1190      1523      1319
 -2      1530      1506      1507      1305      1320      1492      1524      1321      1531      1508
 -1      1101    4    0    1
 -2      1197      1106      1113      1190      1198      1107      1114      1191      1524      1321
 -2      1531      1508      1509      1307      1322      1494      1525      1323      1532      1510
 -1      1102    4    0    1
 -2      1198      1107      1114      1191      1086      1079      1078      1085      1525      1323
 -2      1532      1510      1511      1309      1324      1496      1287      1241      1286      1249
 -1      1103    4    0    1
 -2      1053      1046      1047      1054      1185      1108      1115      1178      1268      1203
 -2      1269      1211      1482      1310      1325      1467      1526      1326      1533      1483
 -1      1104    4    0    1
 -2      1185      1108      1115      1178      1186      1109      1116      1179      1526      1326
 -2      1533      1483      1484      1312      1327      1469      1527      1328      1534      1485
 -1      1105    4    0    1
 -2      1186      1109      1116      1179      1187      1110      1117      1180      1527      1328
 -2      1534      1485      1486      1314      1329      1471      1528      1330      1535      1487
 -1      1106    4    0    1
 -2      1187      1110      1117      1180      1188      1111      1118      1181      1528      1330
 -2      1535      1487      1488      1316      1331      1473      1529      1332      1536      1489
 -1      1107    4    0    1
 -2      1188      1111      1118      1181      1189      1112      1119      1182      1529      1332
 -2      1536      1489      1490      1318      1333      1475      1530      1334      1537      1491
 -1      1108    4    0    1
 -2      1189      1112      1119      1182      1190      1113      1120      1183      1530      1334
 -2      1537      1491      1492      1320      1335      1477      1531      1336      1538      1493
 -1      1109    4    0    1
 -2      1190      1113      1120      1183      1191      1114      1121      1184      1531      1336
 -2      1538      1493      1494      1322      1337      1479      1532      1338      1539      1495
 -1      1110    4    0    1
 -2      1191      1114      1121      1184      1085      1078      1077      1084      1532      1338
 -2      1539      1495      1496      1324      1339      1481      1286      1240      1285      1248
 -1      1111    4    0    1
 -2      1054      1047      1048      1055      1178      1115      1122      1171      1269      1204
 -2      1270      1212      1467      1325      1340      1452      1533      1341      1540      1468
 -1      1112    4    0    1
 -2      1178      1115      1122      1171      1179      1116      1123      1172      1533      1341
 -2      1540      1468      1469      1327      1342      1454      1534      1343      1541      1470
 -1      1113    4    0    1
 -2      1179      1116      1123      1172      1180      1117      1124      1173      1534      1343
 -2      1541      1470      1471      1329      1344      1456      1535      1345      1542      1472
 -1      1114    4    0    1
 -2      1180      1117      1124      1173      1181      1118      1125      1174      1535      1345
 -2      1542      1472      1473      1331      1346      1458      1536      1347      1543      1474
 -1      1115    4    0    1
 -2      1181      1118      1125      1174      1182      1119      1126      1175      1536      1347
 -2      1543      1474      1475      1333      1348      1460      1537      1349      1544      1476
 -1      1116    4    0    1
 -2      1182      1119      1126      1175      1183      1120      1127      1176      1537      1349
 -2      1544      1476      1477      1335      1350      1462      1538      1351      1545      1478
 -1      1117    4    0    1
 -2      1183      1120      1127      1176      1184      1121      1128      1177      1538      1351
 -2      1545      1478      1479      1337      1352      1464      1539      1353      1546      1480
 -1      1118    4    0    1
 -2      1184      1121      1128      1177      1084      1077      1076      1083      1539      1353
 -2      1546      1480      1481      1339      1354      1466      1285      1239      1284      1247
 -1      1119    4    0    1
 -2      1055      1048      1049      1056      1171      1122      1129      1164      1270      1205
 -2      1271      1213      1452      1340      1355      1437      1540      1356      1547      1453
 -1      1120    4    0    1
 -2      1171      1122      1129      1164      1172      1123      1130      1165      1540      1356
 -2      1547      1453      1454      1342      1357      1439      1541      1358      1548      1455
 -1      1121    4    0    1
 -2      1172      1123      1130      1165      1173      1124      1131      1166      1541      1358
 -2      1548      1455      1456      1344      1359      1441      1542      1360      1549      1457
 -1      1122    4    0    1
 -2      1173      1124      1131      1166      1174      1125      1132      1167      1542      1360
 -2      1549      1457      1458      1346      1361      1443      1543      1362      1550      1459
 -1      1123    4    0    1
 -2      1174      1125      1132      1167      1175      1126      1133      1168      1543      1362
 -2      1550      1459      1460      1348      1363      1445      1544      1364      1551      1461
 -1      1124    4    0    1
 -2      1175      1126      1133      1168      1176      1127      1134      1169      1544      1364
 -2      1551      1461      1462      1350      1365      1447      1545      1366      1552      1463
 -1      1125    4    0    1
 -2      1176      1127      1134      1169      1177      1128      1135      1170      1545      1366
 -2      1552      1463      1464      1352      1367      1449      1546      1368      1553      1465
 -1      1126    4    0    1
 -2      1177      1128      1135      1170      1083      1076      1075      1082      1546      1368
 -2      1553      1465      1466      1354      1369      1451      1284      1238      1283      1246
 -1      1127    4    0    1
 -2      1056      1049      1050      1057      1164      1129      1136      1157      1271      1206
 -2      1272      1214      1437      1355      1370      1422      1547      1371      1554      1438
 -1      1128    4    0    1
 -2      1164      1129      1136      1157      1165      1130      1137      1158      1547      1371
 -2      1554      1438      1439      1357      1372      1424      1548      1373      1555      1440
 -1      1129    4    0    1
 -2      1165      1130      1137      1158      1166      1131      1138      1159      1548      1373
 -2      1555      1440      1441      1359      1374      1426      1549      1375      1556      1442
 -1      1130    4    0    1
 -2      1166      1131      1138      1159      1167      1132      1139      1160      1549      1375
 -2      1556      1442      1443      1361      1376      1428      1550      1377      1557      1444
 -1      1131    4    0    1
 -2      1167      1132      1139      1160      1168      1133      1140      1161      1550      1377
 -2      1557      1444      1445      1363      1378      1430      1551      1379      1558      1446
 -1      1132    4    0    1
 -2      1168      1133      1140      1161      1169      1134      1141      1162      1551      1379
 -2      1558      1446      1447      1365      1380      1432      1552      1381      1559      1448
 -1      1133    4    0    1
 -2      1169      1134      1141      1162      1170      1135      1142      1163      1552      1381
 -2      1559      1448      1449      1367      1382      1434      1553      1383      1560      1450
 -1      1134    4    0    1
 -2      1170      1135      1142      1163      1082      1075      1074      1081      1553      1383
 -2      1560      1450      1451      1369      1384      1436      1283      1237      1282      1245
 -1      1135    4    0    1
 -2      1057      1050      1051      1058      1157      1136      1143      1150      1272      1207
 -2      1273      1215      1422      1370      1385      1407      1554      1386      1561      1423
 -1      1136    4    0    1
 -2      1157      1136      1143      1150      1158      1137      1144      1151      1554      1386
 -2      1561      1423      1424      1372      1387      1409      1555      1388      1562      1425
 -1      1137    4    0    1
 -2      1158      1137      1144      1151      1159      1138      1145      1152      1555      1388
 -2      1562      1425      1426      1374      1389      1411      1556      1390      1563      1427
 -1      1138    4    0    1
 -2      1159      1138      1145      1152      1160      1139      1146      1153      1556      1390
 -2      1563      1427      1428      1376      1391      1413      1557      1392      1564      1429
 -1      1139    4    0    1
 -2      1160      1139      1146      1153      1161      1140      1147      1154      1557      1392
 -2      1564      1429      1430      1378      1393      1415      1558      1394      1565      1431
 -1      1140    4    0    1
 -2      1161      1140      1147      1154      1162      1141      1148      1155      1558      1394
 -2      1565      1431      1432      1380      1395      1417      1559      1396      1566      1433
 -1      1141    4    0    1
 -2      1162      1141      1148      1155      1163      1142      1149      1156      1559      1396
 -2      1566      1433      1434      1382      1397      1419      1560      1398      1567      1435
 -1      1142    4    0    1
 -2      1163      1142      1149      1156      1081      1074      1073      1080      1560      1398
 -2      1567      1435      1436      1384      1399      1421      1282      1236      1281      1244
 -1      1143    4    0    1
 -2      1058      1051      1039      1040      1150      1143      1087      1094      1273      1208
 -2      1200      1216      1407      1385      1251      1259      1561      1400      1288      1408
 -1      1144    4    0    1
 -2      1150      1143      1087      1094      1151      1144      1088      1095      1561      1400
 -2      1288      1408      1409      1387      1252      1260      1562      1401      1289      1410
 -1      1145    4    0    1
 -2      1151      1144      1088      1095      1152      1145      1089      1096      1562      1401
 -2      1289      1410      1411      1389      1253      1261      1563      1402      1290      1412
 -1      1146    4    0    1
 -2      1152      1145      1089      1096      1153      1146      1090      1097      1563      1402
 -2      1290      1412      1413      1391      1254      1262      1564      1403      1291      1414
 -1      1147    4    0    1
 -2      1153      1146      1090      1097      1154      1147      1091      1098      1564      1403
 -2      1291      1414      1415      1393      1255      1263      1565      1404      1292      1416
 -1      1148    4    0    1
 -2      1154      1147      1091      1098      1155      1148      1092      1099      1565      1404
 -2      1292      1416      1417      1395      1256      1264      1566      1405      1293      1418
 -1      1149    4    0    1
 -2      1155      1148      1092      1099      1156      1149      1093      1100      1566      1405
 -2      1293      1418      1419      1397      1257      1265      1567      1406      1294      1420
 -1      1150    4    0    1
 -2      1156      1149      1093      1100      1080      1073      1043      1044      1567      1406
 -2      1294      1420      1421      1399      1258      1266      1281      1235      1234      1243
 -3
    1PSTEP                         1           1           1          
  100CL  101 1.000000000         531                     0    1           1
 -4  DISP        4    1
 -5  D1          1    2    1    0
 -5  D2          1    2    2    0
 -5  D3          1    2    3    0
 -5  ALL         1    2    0    0    1ALL
 -1      1037-6.00367E+00 2.96096E+01 0.00000E+00
 -1      1038-6.00367E+00 2.96096E+01 0.00000E+00
 -1      1039 0.00000E+00 0.00000E+00 0.00000E+00
 -1      1040 0.00000E+00 0.00000E+00 0.00000E+00
 -1      1041-2.36353E+01 3.19211E+01 0.00000E+00
 -1      1042-2.36353E+01 3.19211E+01 0.00000E+00
 -1      1043 0.00000E+00 0.00000E+00 0.00000E+00
 -1      1044 0.00000E+00 0.00000E+00 0.00000E+00
 -1      1045-1.66804E+00 2.21391E+01 0.00000E+00
 -1      1046 8.76327E-01 1.56760E+01 0.00000E+00
 -1      1047 2.08674E+00 1.04665E+01 0.00000E+00
 -1      1048 2.22624E+00 6.52974E+00 0.00000E+00
 -1      1049 1.65098E+00 3.82840E+00 0.00000E+00
 -1      1050 8.60829E-01 2.14171E+00 0.00000E+00
 -1      1051 2.93516E-01 9.86967E-01 0.00000E+00
 -1      1052-1.66804E+00 2.21391E+01 0.00000E+00
 -1      1053 8.76327E-01 1.56760E+01 0.00000E+00
 -1      1054 2.08674E+00 1.04665E+01 0.00000E+00
 -1      1055 2.22624E+00 6.52974E+00 0.00000E+00
 -1      1056 1.65098E+00 3.82840E+00 0.00000E+00
 -1      1057 8.60829E-01 2.14171E+00 0.00000E+00
 -1      1058 2.93516E-01 9.86967E-01 0.00000E+00
 -1      1059-2.05968E+01 3.17279E+01 0.00000E+00
 -1      1060-1.80143E+01 3.13819E+01 0.00000E+00
 -1      1061-1.57104E+01 3.10020E+01 0.00000E+00
 -1      1062-1.36086E+01 3.06311E+01 0.00000E+00
 -1      1063-1.16513E+01 3.02923E+01 0.00000E+00
 -1      1064-9.78393E+00 2.99993E+01 0.00000E+00
 -1      1065-7.93954E+00 2.97593E+01 0.00000E+00
 -1      1066-2.05968E+01 3.17279E+01 0.00000E+00
 -1      1067-1.80143E+01 3.13819E+01 0.00000E+00
 -1      1068-1.57104E+01 3.10020E+01 0.00000E+00
 -1      1069-1.36086E+01 3.06311E+01 0.00000E+00
 -1      1070-1.16513E+01 3.02923E+01 0.00000E+00
 -1      1071-9.78393E+00 2.99993E+01 0.00000E+00
 -1      1072-7.93954E+00 2.97593E+01 0.00000E+00
 -1      1073-2.89403E+00 1.11015E+00 0.00000E+00
 -1      1074-5.33786E+00 2.62447E+00 0.00000E+00
 -1      1075-7.88407E+00 4.82947E+00 0.00000E+00
 -1      1076-1.06751E+01 7.89584E+00 0.00000E+00
 -1      1077-1.36913E+01 1.19738E+01 0.00000E+00
 -1      1078-1.68573E+01 1.71659E+01 0.00000E+00
 -1      1079-2.01018E+01 2.35472E+01 0.00000E+00
 -1      1080-2.89403E+00 1.11015E+00 0.00000E+00
 -1      1081-5.33786E+00 2.62447E+00 0.00000E+00
 -1      1082-7.88407E+00 4.82947E+00 0.00000E+00
 -1      1083-1.06751E+01 7.89584E+00 0.00000E+00
 -1      1084-1.36913E+01 1.19738E+01 0.00000E+00
 -1      1085-1.68573E+01 1.71659E+01 0.00000E+00
 -1      1086-2.01018E+01 2.35472E+01 0.00000E+00
 -1      1087 0.00000E+00 0.00000E+00 0.00000E+00
 -1      1088 0.00000E+00 0.00000E+00 0.00000E+00
 -1      1089 0.00000E+00 0.00000E+00 0.00000E+00
 -1      1090 0.00000E+00 0.00000E+00 0.00000E+00
 -1      1091 0.00000E+00 0.00000E+00 0.00000E+00
 -1      1092 0.00000E+00 0.00000E+00 0.00000E+00
 -1      1093 0.00000E+00 0.00000E+00 0.00000E+00
 -1      1094 0.00000E+00 0.00000E+00 0.00000E+00
 -1      1095 0.00000E+00 0.00000E+00 0.00000E+00
 -1      1096 0.00000E+00 0.00000E+00 0.00000E+00
 -1      1097 0.00000E+00 0.00000E+00 0.00000E+00
 -1      1098 0.00000E+00 0.00000E+00 0.00000E+00
 -1      1099 0.00000E+00 0.00000E+00 0.00000E+00
 -1      1100 0.00000E+00 0.00000E+00 0.00000E+00
 -1      1101-3.48445E+00 2.22876E+01 0.00000E+00
 -1      1102-5.45200E+00 2.24779E+01 0.00000E+00
 -1      1103-7.50988E+00 2.27035E+01 0.00000E+00
 -1      1104-9.65246E+00 2.29330E+01 0.00000E+00
 -1      1105-1.19234E+01 2.31382E+01 0.00000E+00
 -1      1106-1.43856E+01 2.33034E+01 0.00000E+00
 -1      1107-1.71016E+01 2.34300E+01 0.00000E+00
 -1      1108-5.31039E-01 1.58425E+01 0.00000E+00
 -1      1109-2.19924E+00 1.60093E+01 0.00000E+00
 -1      1110-4.10157E+00 1.61916E+01 0.00000E+00
 -1      1111-6.21158E+00 1.63906E+01 0.00000E+00
 -1      1112-8.51924E+00 1.65956E+01 0.00000E+00
 -1      1113-1.10404E+01 1.67934E+01 0.00000E+00
 -1      1114-1.38095E+01 1.69801E+01 0.00000E+00
 -1      1115 1.17018E+00 1.06468E+01 0.00000E+00
 -1      1116-7.18870E-02 1.08039E+01 0.00000E+00
 -1      1117-1.62268E+00 1.09572E+01 0.00000E+00
 -1      1118-3.46858E+00 1.11211E+01 0.00000E+00
 -1      1119-5.59663E+00 1.13030E+01 0.00000E+00
 -1      1120-8.00202E+00 1.15038E+01 0.00000E+00
 -1      1121-1.06932E+01 1.17244E+01 0.00000E+00
 -1      1122 1.84501E+00 6.69681E+00 0.00000E+00
 -1      1123 1.09517E+00 6.81169E+00 0.00000E+00
 -1      1124-6.97860E-03 6.91269E+00 0.00000E+00
 -1      1125-1.45653E+00 7.02795E+00 0.00000E+00
 -1      1126-3.25146E+00 7.17549E+00 0.00000E+00
 -1      1127-5.38855E+00 7.36415E+00 0.00000E+00
 -1      1128-7.86409E+00 7.60034E+00 0.00000E+00
 -1      1129 1.71137E+00 3.94705E+00 0.00000E+00
 -1      1130 1.42747E+00 3.97264E+00 0.00000E+00
 -1      1131 8.06942E-01 3.96691E+00 0.00000E+00
 -1      1132-1.57798E-01 3.98380E+00 0.00000E+00
 -1      1133-1.48983E+00 4.06636E+00 0.00000E+00
 -1      1134-3.22149E+00 4.23620E+00 0.00000E+00
 -1      1135-5.36368E+00 4.49007E+00 0.00000E+00
 -1      1136 1.10406E+00 2.20689E+00 0.00000E+00
 -1      1137 1.12591E+00 2.14443E+00 0.00000E+00
 -1      1138 9.02086E-01 2.01578E+00 0.00000E+00
 -1      1139 4.17894E-01 1.89088E+00 0.00000E+00
 -1      1140-3.60636E-01 1.84331E+00 0.00000E+00
 -1      1141-1.50405E+00 1.93853E+00 0.00000E+00
 -1      1142-3.13497E+00 2.22237E+00 0.00000E+00
 -1      1143 4.42474E-01 1.04754E+00 0.00000E+00
 -1      1144 5.30766E-01 9.90609E-01 0.00000E+00
 -1      1145 5.10595E-01 8.42962E-01 0.00000E+00
 -1      1146 3.63342E-01 6.56871E-01 0.00000E+00
 -1      1147 7.54450E-02 4.90660E-01 0.00000E+00
 -1      1148-3.91185E-01 4.27738E-01 0.00000E+00
 -1      1149-1.24846E+00 6.36484E-01 0.00000E+00
 -1      1150 4.42474E-01 1.04754E+00 0.00000E+00
 -1      1151 5.30766E-01 9.90609E-01 0.00000E+00
 -1      1152 5.10595E-01 8.42962E-01 0.00000E+00
 -1      1153 3.63342E-01 6.56871E-01 0.00000E+00
 -1      1154 7.54450E-02 4.90660E-01 0.00000E+00
 -1      1155-3.91185E-01 4.27738E-01 0.00000E+00
 -1      1156-1.24846E+00 6.36484E-01 0.00000E+00
 -1      1157 1.10406E+00 2.20689E+00 0.00000E+00
 -1      1158 1.12591E+00 2.14443E+00 0.00000E+00
 -1      1159 9.02086E-01 2.01578E+00 0.00000E+00
 -1      1160 4.17894E-01 1.89088E+00 0.00000E+00
 -1      1161-3.60636E-01 1.84331E+00 0.00000E+00
 -1      1162-1.50405E+00 1.93853E+00 0.00000E+00
 -1      1163-3.13497E+00 2.22237E+00 0.00000E+00
 -1      1164 1.71137E+00 3.94705E+00 0.00000E+00
 -1      1165 1.42747E+00 3.97264E+00 0.00000E+00
 -1      1166 8.06942E-01 3.96691E+00 0.00000E+00
 -1      1167-1.57798E-01 3.98380E+00 0.00000E+00
 -1      1168-1.48983E+00 4.06636E+00 0.00000E+00
 -1      1169-3.22149E+00 4.23620E+00 0.00000E+00
 -1      1170-5.36368E+00 4.49007E+00 0.00000E+00
 -1      1171 1.84501E+00 6.69681E+00 0.00000E+00
 -1      1172 1.09517E+00 6.81169E+00 0.00000E+00
 -1      1173-6.97860E-03 6.91269E+00 0.00000E+00
 -1      1174-1.45653E+00 7.02795E+00 0.00000E+00
 -1      1175-3.25146E+00 7.17549E+00 0.00000E+00
 -1      1176-5.38855E+00 7.36415E+00 0.00000E+00
 -1      1177-7.86409E+00 7.60034E+00 0.00000E+00
 -1      1178 1.17018E+00 1.06468E+01 0.00000E+00
 -1      1179-7.18870E-02 1.08039E+01 0.00000E+00
 -1      1180-1.62268E+00 1.09572E+01 0.00000E+00
 -1      1181-3.46858E+00 1.11211E+01 0.00000E+00
 -1      1182-5.59663E+00 1.13030E+01 0.00000E+00
 -1      1183-8.00202E+00 1.15038E+01 0.00000E+00
 -1      1184-1.06932E+01 1.17244E+01 0.00000E+00
 -1      1185-5.31039E-01 1.58425E+01 0.00000E+00
 -1      1186-2.19924E+00 1.60093E+01 0.00000E+00
 -1      1187-4.10157E+00 1.61916E+01 0.00000E+00
 -1      1188-6.21158E+00 1.63906E+01 0.00000E+00
 -1      1189-8.51924E+00 1.65956E+01 0.00000E+00
 -1      1190-1.10404E+01 1.67934E+01 0.00000E+00
 -1      1191-1.38095E+01 1.69801E+01 0.00000E+00
 -1      1192-3.48445E+00 2.22876E+01 0.00000E+00
 -1      1193-5.45200E+00 2.24779E+01 0.00000E+00
 -1      1194-7.50988E+00 2.27035E+01 0.00000E+00
 -1      1195-9.65246E+00 2.29330E+01 0.00000E+00
 -1      1196-1.19234E+01 2.31382E+01 0.00000E+00
 -1      1197-1.43856E+01 2.33034E+01 0.00000E+00
 -1      1198-1.71016E+01 2.34300E+01 0.00000E+00
 -1      1199-6.00367E+00 2.96096E+01 2.22045E-15
 -1      1200 0.00000E+00 0.00000E+00 0.00000E+00
 -1      1201-3.57097E+00 2.58192E+01 0.00000E+00
 -1      1202-2.07427E-01 1.87528E+01 0.00000E+00
 -1      1203 1.63393E+00 1.29103E+01 0.00000E+00
 -1      1204 2.27416E+00 8.33620E+00 0.00000E+00
 -1      1205 2.00342E+00 5.02791E+00 0.00000E+00
 -1      1206 1.25426E+00 2.87832E+00 0.00000E+00
 -1      1207 5.35391E-01 1.52829E+00 0.00000E+00
 -1      1208 1.24380E-01 4.60877E-01 0.00000E+00
 -1      1209-3.57097E+00 2.58192E+01 0.00000E+00
 -1      1210-2.07427E-01 1.87528E+01 0.00000E+00
 -1      1211 1.63393E+00 1.29103E+01 0.00000E+00
 -1      1212 2.27416E+00 8.33620E+00 0.00000E+00
 -1      1213 2.00342E+00 5.02791E+00 0.00000E+00
 -1      1214 1.25426E+00 2.87832E+00 0.00000E+00
 -1      1215 5.35391E-01 1.52829E+00 0.00000E+00
 -1      1216 1.24380E-01 4.60877E-01 0.00000E+00
 -1      1217-2.36353E+01 3.19211E+01-6.88338E-15
 -1      1218-2.20373E+01 3.18482E+01 0.00000E+00
 -1      1219-1.92611E+01 3.15652E+01 0.00000E+00
 -1      1220-1.68319E+01 3.11947E+01 0.00000E+00
 -1      1221-1.46378E+01 3.08155E+01 0.00000E+00
 -1      1222-1.26161E+01 3.04587E+01 0.00000E+00
 -1      1223-1.07134E+01 3.01415E+01 0.00000E+00
 -1      1224-8.87050E+00 2.98715E+01 0.00000E+00
 -1      1225-6.99048E+00 2.96669E+01 0.00000E+00
 -1      1226-2.20373E+01 3.18482E+01 0.00000E+00
 -1      1227-1.92611E+01 3.15652E+01 0.00000E+00
 -1      1228-1.68319E+01 3.11947E+01 0.00000E+00
 -1      1229-1.46378E+01 3.08155E+01 0.00000E+00
 -1      1230-1.26161E+01 3.04587E+01 0.00000E+00
 -1      1231-1.07134E+01 3.01415E+01 0.00000E+00
 -1      1232-8.87050E+00 2.98715E+01 0.00000E+00
 -1      1233-6.99048E+00 2.96669E+01 0.00000E+00
 -1      1234 0.00000E+00 0.00000E+00 0.00000E+00
 -1      1235-1.44354E+00 5.75912E-01 0.00000E+00
 -1      1236-4.14888E+00 1.80643E+00 0.00000E+00
 -1      1237-6.58133E+00 3.62756E+00 0.00000E+00
 -1      1238-9.25131E+00 6.24502E+00 0.00000E+00
 -1      1239-1.21574E+01 9.80050E+00 0.00000E+00
 -1      1240-1.52628E+01 1.44257E+01 0.00000E+00
 -1      1241-1.84669E+01 2.01973E+01 0.00000E+00
 -1      1242-2.18499E+01 2.73076E+01 0.00000E+00
 -1      1243-1.44354E+00 5.75912E-01 0.00000E+00
 -1      1244-4.14888E+00 1.80643E+00 0.00000E+00
 -1      1245-6.58133E+00 3.62756E+00 0.00000E+00
 -1      1246-9.25131E+00 6.24502E+00 0.00000E+00
 -1      1247-1.21574E+01 9.80050E+00 0.00000E+00
 -1      1248-1.52628E+01 1.44257E+01 0.00000E+00
 -1      1249-1.84669E+01 2.01973E+01 0.00000E+00
 -1      1250-2.18499E+01 2.73076E+01 0.00000E+00
 -1      1251 0.00000E+00 0.00000E+00 0.00000E+00
 -1      1252 0.00000E+00 0.00000E+00 0.00000E+00
 -1      1253 0.00000E+00 0.00000E+00 0.00000E+00
 -1      1254 0.00000E+00 0.00000E+00 0.00000E+00
 -1      1255 0.00000E+00 0.00000E+00 0.00000E+00
 -1      1256 0.00000E+00 0.00000E+00 0.00000E+00
 -1      1257 0.00000E+00 0.00000E+00 0.00000E+00
 -1      1258 0.00000E+00 0.00000E+00 0.00000E+00
 -1      1259 0.00000E+00 0.00000E+00 0.00000E+00
 -1      1260 0.00000E+00 0.00000E+00 0.00000E+00
 -1      1261 0.00000E+00 0.00000E+00 0.00000E+00
 -1      1262 0.00000E+00 0.00000E+00 0.00000E+00
 -1      1263 0.00000E+00 0.00000E+00 0.00000E+00
 -1      1264 0.00000E+00 0.00000E+00 0.00000E+00
 -1      1265 0.00000E+00 0.00000E+00 0.00000E+00
 -1      1266 0.00000E+00 0.00000E+00 0.00000E+00
 -1      1267-1.66804E+00 2.21391E+01 1.71789E-14
 -1      1268 8.76327E-01 1.56760E+01 2.22045E-15
 -1      1269 2.08674E+00 1.04665E+01 1.12232E-14
 -1      1270 2.22624E+00 6.52974E+00-2.20744E-15
 -1      1271 1.65098E+00 3.82840E+00-1.55431E-15
 -1      1272 8.60829E-01 2.14171E+00-1.24900E-16
 -1      1273 2.93516E-01 9.86967E-01 3.57353E-16
 -1      1274-2.05968E+01 3.17279E+01 1.14908E-14
 -1      1275-1.80143E+01 3.13819E+01-8.59035E-15
 -1      1276-1.57104E+01 3.10020E+01-1.65280E-14
 -1      1277-1.36086E+01 3.06311E+01 2.93924E-15
 -1      1278-1.16513E+01 3.02923E+01 1.68754E-14
 -1      1279-9.78393E+00 2.99993E+01 1.80966E-14
 -1      1280-7.93954E+00 2.97593E+01 1.78746E-14
 -1      1281-2.89403E+00 1.11015E+00 2.08167E-16
 -1      1282-5.33786E+00 2.62447E+00-4.99600E-16
 -1      1283-7.88407E+00 4.82947E+00-9.21572E-16
 -1      1284-1.06751E+01 7.89584E+00 3.59484E-15
 -1      1285-1.36913E+01 1.19738E+01-4.95679E-15
 -1      1286-1.68573E+01 1.71659E+01-1.33227E-15
 -1      1287-2.01018E+01 2.35472E+01-7.25184E-15
 -1      1288 0.00000E+00 0.00000E+00 0.00000E+00
 -1      1289 0.00000E+00 0.00000E+00 0.00000E+00
 -1      1290 0.00000E+00 0.00000E+00 0.00000E+00
 -1      1291 0.00000E+00 0.00000E+00 0.00000E+00
 -1      1292 0.00000E+00 0.00000E+00 0.00000E+00
 -1      1293 0.00000E+00 0.00000E+00 0.00000E+00
 -1      1294 0.00000E+00 0.00000E+00 0.00000E+00
 -1      1295-2.54944E+00 2.22099E+01 0.00000E+00
 -1      1296-5.53851E+00 2.59528E+01 0.00000E+00
 -1      1297-4.45509E+00 2.23770E+01 0.00000E+00
 -1      1298-7.51748E+00 2.61589E+01 0.00000E+00
 -1      1299-6.47281E+00 2.25886E+01 0.00000E+00
 -1      1300-9.50439E+00 2.64010E+01 0.00000E+00
 -1      1301-8.56949E+00 2.28205E+01 0.00000E+00
 -1      1302-1.15565E+01 2.66481E+01 0.00000E+00
 -1      1303-1.07686E+01 2.30408E+01 0.00000E+00
 -1      1304-1.37405E+01 2.68801E+01 0.00000E+00
 -1      1305-1.31265E+01 2.32272E+01 0.00000E+00
 -1      1306-1.61261E+01 2.70779E+01 0.00000E+00
 -1      1307-1.57082E+01 2.33711E+01 0.00000E+00
 -1      1308-1.87957E+01 2.72199E+01 0.00000E+00
 -1      1309-1.85693E+01 2.34822E+01 0.00000E+00
 -1      1310 2.05264E-01 1.57605E+01 0.00000E+00
 -1      1311-1.83051E+00 1.89105E+01 0.00000E+00
 -1      1312-1.33266E+00 1.59249E+01 0.00000E+00
 -1      1313-3.67350E+00 1.90854E+01 0.00000E+00
 -1      1314-3.12169E+00 1.60977E+01 0.00000E+00
 -1      1315-5.69209E+00 1.92863E+01 0.00000E+00
 -1      1316-5.13168E+00 1.62890E+01 0.00000E+00
 -1      1317-7.85637E+00 1.95018E+01 0.00000E+00
 -1      1318-7.34077E+00 1.64930E+01 0.00000E+00
 -1      1319-1.01747E+01 1.97091E+01 0.00000E+00
 -1      1320-9.75189E+00 1.66957E+01 0.00000E+00
 -1      1321-1.26865E+01 1.98916E+01 0.00000E+00
 -1      1322-1.23924E+01 1.68877E+01 0.00000E+00
 -1      1323-1.54404E+01 2.00484E+01 0.00000E+00
 -1      1324-1.52969E+01 1.70742E+01 0.00000E+00
 -1      1325 1.67038E+00 1.05610E+01 0.00000E+00
 -1      1326 4.58395E-01 1.30880E+01 0.00000E+00
 -1      1327 5.88565E-01 1.07271E+01 0.00000E+00
 -1      1328-1.00694E+00 1.32526E+01 0.00000E+00
 -1      1329-8.09411E-01 1.08802E+01 0.00000E+00
 -1      1330-2.74867E+00 1.34206E+01 0.00000E+00
 -1      1331-2.50935E+00 1.10373E+01 0.00000E+00
 -1      1332-4.74730E+00 1.36019E+01 0.00000E+00
 -1      1333-4.49769E+00 1.12096E+01 0.00000E+00
 -1      1334-6.98811E+00 1.37967E+01 0.00000E+00
 -1      1335-6.76434E+00 1.14010E+01 0.00000E+00
 -1      1336-9.47279E+00 1.39989E+01 0.00000E+00
 -1      1337-9.31089E+00 1.16114E+01 0.00000E+00
 -1      1338-1.22208E+01 1.42065E+01 0.00000E+00
 -1      1339-1.21519E+01 1.18441E+01 0.00000E+00
 -1      1340 2.08324E+00 6.62281E+00 0.00000E+00
 -1      1341 1.62381E+00 8.51738E+00 0.00000E+00
 -1      1342 1.51544E+00 6.75812E+00 0.00000E+00
 -1      1343 6.24001E-01 8.65996E+00 0.00000E+00
 -1      1344 5.88290E-01 6.86189E+00 0.00000E+00
 -1      1345-7.11608E-01 8.79261E+00 0.00000E+00
 -1      1346-6.87984E-01 6.96729E+00 0.00000E+00
 -1      1347-2.37291E+00 8.93591E+00 0.00000E+00
 -1      1348-2.31075E+00 7.09727E+00 0.00000E+00
 -1      1349-4.35111E+00 9.10239E+00 0.00000E+00
 -1      1350-4.27791E+00 7.26457E+00 0.00000E+00
 -1      1351-6.63949E+00 9.29800E+00 0.00000E+00
 -1      1352-6.58485E+00 7.47558E+00 0.00000E+00
 -1      1353-9.23897E+00 9.52721E+00 0.00000E+00
 -1      1354-9.22810E+00 7.74025E+00 0.00000E+00
 -1      1355 1.72533E+00 3.90464E+00 0.00000E+00
 -1      1356 1.86090E+00 5.17943E+00 0.00000E+00
 -1      1357 1.61234E+00 3.96758E+00 0.00000E+00
 -1      1358 1.35627E+00 5.25503E+00 0.00000E+00
 -1      1359 1.16017E+00 3.96985E+00 0.00000E+00
 -1      1360 4.97456E-01 5.30901E+00 0.00000E+00
 -1      1361 3.69491E-01 3.96920E+00 0.00000E+00
 -1      1362-7.16779E-01 5.38292E+00 0.00000E+00
 -1      1363-7.75222E-01 4.01496E+00 0.00000E+00
 -1      1364-2.29661E+00 5.50408E+00 0.00000E+00
 -1      1365-2.30340E+00 4.14076E+00 0.00000E+00
 -1      1366-4.25085E+00 5.68441E+00 0.00000E+00
 -1      1367-4.24106E+00 4.35406E+00 0.00000E+00
 -1      1368-6.57287E+00 5.92780E+00 0.00000E+00
 -1      1369-6.57822E+00 4.64400E+00 0.00000E+00
 -1      1370 1.00658E+00 2.19476E+00 0.00000E+00
 -1      1371 1.44071E+00 2.97359E+00 0.00000E+00
 -1      1372 1.14531E+00 2.18809E+00 0.00000E+00
 -1      1373 1.33743E+00 2.94932E+00 0.00000E+00
 -1      1374 1.04594E+00 2.08375E+00 0.00000E+00
 -1      1375 9.34137E-01 2.87756E+00 0.00000E+00
 -1      1376 6.94391E-01 1.94767E+00 0.00000E+00
 -1      1377 2.19401E-01 2.82417E+00 0.00000E+00
 -1      1378 6.99752E-02 1.85154E+00 0.00000E+00
 -1      1379-8.38414E-01 2.84796E+00 0.00000E+00
 -1      1380-8.77407E-01 1.86708E+00 0.00000E+00
 -1      1381-2.29885E+00 2.99324E+00 0.00000E+00
 -1      1382-2.25534E+00 2.05957E+00 0.00000E+00
 -1      1383-4.22443E+00 3.26426E+00 0.00000E+00
 -1      1384-4.18921E+00 2.42792E+00 0.00000E+00
 -1      1385 3.69613E-01 1.03430E+00 0.00000E+00
 -1      1386 7.55122E-01 1.58844E+00 0.00000E+00
 -1      1387 4.97309E-01 1.03511E+00 0.00000E+00
 -1      1388 8.40462E-01 1.51346E+00 0.00000E+00
 -1      1389 5.35816E-01 9.26801E-01 0.00000E+00
 -1      1390 7.45149E-01 1.35486E+00 0.00000E+00
 -1      1391 4.53477E-01 7.52415E-01 0.00000E+00
 -1      1392 4.53691E-01 1.17692E+00 0.00000E+00
 -1      1393 2.38109E-01 5.67297E-01 0.00000E+00
 -1      1394-5.67943E-02 1.05470E+00 0.00000E+00
 -1      1395-1.29720E-01 4.38462E-01 0.00000E+00
 -1      1396-8.58912E-01 1.08243E+00 0.00000E+00
 -1      1397-7.42758E-01 4.86140E-01 0.00000E+00
 -1      1398-2.12971E+00 1.33656E+00 0.00000E+00
 -1      1399-1.86930E+00 8.15441E-01 0.00000E+00
 -1      1400 1.93456E-01 5.28629E-01 0.00000E+00
 -1      1401 2.42726E-01 5.08922E-01 0.00000E+00
 -1      1402 2.47689E-01 4.19552E-01 0.00000E+00
 -1      1403 1.92902E-01 2.90438E-01 0.00000E+00
 -1      1404 7.22517E-02 1.56864E-01 0.00000E+00
 -1      1405-1.31925E-01 5.72123E-02 0.00000E+00
 -1      1406-4.66375E-01 8.79513E-02 0.00000E+00
 -1      1407 3.69613E-01 1.03430E+00 0.00000E+00
 -1      1408 1.93456E-01 5.28629E-01 0.00000E+00
 -1      1409 4.97309E-01 1.03511E+00 0.00000E+00
 -1      1410 2.42726E-01 5.08922E-01 0.00000E+00
 -1      1411 5.35816E-01 9.26801E-01 0.00000E+00
 -1      1412 2.47689E-01 4.19552E-01 0.00000E+00
 -1      1413 4.53477E-01 7.52415E-01 0.00000E+00
 -1      1414 1.92902E-01 2.90438E-01 0.00000E+00
 -1      1415 2.38109E-01 5.67297E-01 0.00000E+00
 -1      1416 7.22517E-02 1.56864E-01 0.00000E+00
 -1      1417-1.29720E-01 4.38462E-01 0.00000E+00
 -1      1418-1.31925E-01 5.72123E-02 0.00000E+00
 -1      1419-7.42758E-01 4.86140E-01 0.00000E+00
 -1      1420-4.66375E-01 8.79513E-02 0.00000E+00
 -1      1421-1.86930E+00 8.15441E-01 0.00000E+00
 -1      1422 1.00658E+00 2.19476E+00 0.00000E+00
 -1      1423 7.55122E-01 1.58844E+00 0.00000E+00
 -1      1424 1.14531E+00 2.18809E+00 0.00000E+00
 -1      1425 8.40462E-01 1.51346E+00 0.00000E+00
 -1      1426 1.04594E+00 2.08375E+00 0.00000E+00
 -1      1427 7.45149E-01 1.35486E+00 0.00000E+00
 -1      1428 6.94391E-01 1.94767E+00 0.00000E+00
 -1      1429 4.53691E-01 1.17692E+00 0.00000E+00
 -1      1430 6.99752E-02 1.85154E+00 0.00000E+00
 -1      1431-5.67943E-02 1.05470E+00 0.00000E+00
 -1      1432-8.77407E-01 1.86708E+00 0.00000E+00
 -1      1433-8.58912E-01 1.08243E+00 0.00000E+00
 -1      1434-2.25534E+00 2.05957E+00 0.00000E+00
 -1      1435-2.12971E+00 1.33656E+00 0.00000E+00
 -1      1436-4.18921E+00 2.42792E+00 0.00000E+00
 -1      1437 1.72533E+00 3.90464E+00 0.00000E+00
 -1      1438 1.44071E+00 2.97359E+00 0.00000E+00
 -1      1439 1.61234E+00 3.96758E+00 0.00000E+00
 -1      1440 1.33743E+00 2.94932E+00 0.00000E+00
 -1      1441 1.16017E+00 3.96985E+00 0.00000E+00
 -1      1442 9.34137E-01 2.87756E+00 0.00000E+00
 -1      1443 3.69491E-01 3.96920E+00 0.00000E+00
 -1      1444 2.19401E-01 2.82417E+00 0.00000E+00
 -1      1445-7.75222E-01 4.01496E+00 0.00000E+00
 -1      1446-8.38414E-01 2.84796E+00 0.00000E+00
 -1      1447-2.30340E+00 4.14076E+00 0.00000E+00
 -1      1448-2.29885E+00 2.99324E+00 0.00000E+00
 -1      1449-4.24106E+00 4.35406E+00 0.00000E+00
 -1      1450-4.22443E+00 3.26426E+00 0.00000E+00
 -1      1451-6.57822E+00 4.64400E+00 0.00000E+00
 -1      1452 2.08324E+00 6.62281E+00 0.00000E+00
 -1      1453 1.86090E+00 5.17943E+00 0.00000E+00
 -1      1454 1.51544E+00 6.75812E+00 0.00000E+00
 -1      1455 1.35627E+00 5.25503E+00 0.00000E+00
 -1      1456 5.88290E-01 6.86189E+00 0.00000E+00
 -1      1457 4.97456E-01 5.30901E+00 0.00000E+00
 -1      1458-6.87984E-01 6.96729E+00 0.00000E+00
 -1      1459-7.16779E-01 5.38292E+00 0.00000E+00
 -1      1460-2.31075E+00 7.09727E+00 0.00000E+00
 -1      1461-2.29661E+00 5.50408E+00 0.00000E+00
 -1      1462-4.27791E+00 7.26457E+00 0.00000E+00
 -1      1463-4.25085E+00 5.68441E+00 0.00000E+00
 -1      1464-6.58485E+00 7.47558E+00 0.00000E+00
 -1      1465-6.57287E+00 5.92780E+00 0.00000E+00
 -1      1466-9.22810E+00 7.74025E+00 0.00000E+00
 -1      1467 1.67038E+00 1.05610E+01 0.00000E+00
 -1      1468 1.62381E+00 8.51738E+00 0.00000E+00
 -1      1469 5.88565E-01 1.07271E+01 0.00000E+00
 -1      1470 6.24001E-01 8.65996E+00 0.00000E+00
 -1      1471-8.09411E-01 1.08802E+01 0.00000E+00
 -1      1472-7.11608E-01 8.79261E+00 0.00000E+00
 -1      1473-2.50935E+00 1.10373E+01 0.00000E+00
 -1      1474-2.37291E+00 8.93591E+00 0.00000E+00
 -1      1475-4.49769E+00 1.12096E+01 0.00000E+00
 -1      1476-4.35111E+00 9.10239E+00 0.00000E+00
 -1      1477-6.76434E+00 1.14010E+01 0.00000E+00
 -1      1478-6.63949E+00 9.29800E+00 0.00000E+00
 -1      1479-9.31089E+00 1.16114E+01 0.00000E+00
 -1      1480-9.23897E+00 9.52721E+00 0.00000E+00
 -1      1481-1.21519E+01 1.18441E+01 0.00000E+00
 -1      1482 2.05264E-01 1.57605E+01 0.00000E+00
 -1      1483 4.58395E-01 1.30880E+01 0.00000E+00
 -1      1484-1.33266E+00 1.59249E+01 0.00000E+00
 -1      1485-1.00694E+00 1.32526E+01 0.00000E+00
 -1      1486-3.12169E+00 1.60977E+01 0.00000E+00
 -1      1487-2.74867E+00 1.34206E+01 0.00000E+00
 -1      1488-5.13168E+00 1.62890E+01 0.00000E+00
 -1      1489-4.74730E+00 1.36019E+01 0.00000E+00
 -1      1490-7.34077E+00 1.64930E+01 0.00000E+00
 -1      1491-6.98811E+00 1.37967E+01 0.00000E+00
 -1      1492-9.75189E+00 1.66957E+01 0.00000E+00
 -1      1493-9.47279E+00 1.39989E+01 0.00000E+00
 -1      1494-1.23924E+01 1.68877E+01 0.00000E+00
 -1      1495-1.22208E+01 1.42065E+01 0.00000E+00
 -1      1496-1.52969E+01 1.70742E+01 0.00000E+00
 -1      1497-2.54944E+00 2.22099E+01 0.00000E+00
 -1      1498-1.83051E+00 1.89105E+01 0.00000E+00
 -1      1499-4.45509E+00 2.23770E+01 0.00000E+00
 -1      1500-3.67350E+00 1.90854E+01 0.00000E+00
 -1      1501-6.47281E+00 2.25886E+01 0.00000E+00
 -1      1502-5.69209E+00 1.92863E+01 0.00000E+00
 -1      1503-8.56949E+00 2.28205E+01 0.00000E+00
 -1      1504-7.85637E+00 1.95018E+01 0.00000E+00
 -1      1505-1.07686E+01 2.30408E+01 0.00000E+00
 -1      1506-1.01747E+01 1.97091E+01 0.00000E+00
 -1      1507-1.31265E+01 2.32272E+01 0.00000E+00
 -1      1508-1.26865E+01 1.98916E+01 0.00000E+00
 -1      1509-1.57082E+01 2.33711E+01 0.00000E+00
 -1      1510-1.54404E+01 2.00484E+01 0.00000E+00
 -1      1511-1.85693E+01 2.34822E+01 0.00000E+00
 -1      1512-5.53851E+00 2.59528E+01 0.00000E+00
 -1      1513-7.51748E+00 2.61589E+01 0.00000E+00
 -1      1514-9.50439E+00 2.64010E+01 0.00000E+00
 -1      1515-1.15565E+01 2.66481E+01 0.00000E+00
 -1      1516-1.37405E+01 2.68801E+01 0.00000E+00
 -1      1517-1.61261E+01 2.70779E+01 0.00000E+00
 -1      1518-1.87957E+01 2.72199E+01 0.00000E+00
 -1      1519-3.48445E+00 2.22876E+01-6.88338E-15
 -1      1520-5.45200E+00 2.24779E+01-5.64028E-15
 -1      1521-7.50988E+00 2.27035E+01-8.13238E-15
 -1      1522-9.65246E+00 2.29330E+01-1.08097E-15
 -1      1523-1.19234E+01 2.31382E+01 1.02820E-14
 -1      1524-1.43856E+01 2.33034E+01-4.44089E-16
 -1      1525-1.71016E+01 2.34300E+01 6.06416E-15
 -1      1526-5.31039E-01 1.58425E+01-1.17360E-14
 -1      1527-2.19924E+00 1.60093E+01-4.01320E-15
 -1      1528-4.10157E+00 1.61916E+01 8.00707E-16
 -1      1529-6.21158E+00 1.63906E+01 4.57299E-15
 -1      1530-8.51924E+00 1.65956E+01-4.27026E-15
 -1      1531-1.10404E+01 1.67934E+01 3.32508E-15
 -1      1532-1.38095E+01 1.69801E+01-7.17031E-16
 -1      1533 1.17018E+00 1.06468E+01-9.71445E-17
 -1      1534-7.18870E-02 1.08039E+01-8.09281E-15
 -1      1535-1.62268E+00 1.09572E+01 2.02009E-15
 -1      1536-3.46858E+00 1.11211E+01 1.29821E-16
 -1      1537-5.59663E+00 1.13030E+01-3.10862E-15
 -1      1538-8.00202E+00 1.15038E+01 4.55191E-15
 -1      1539-1.06932E+01 1.17244E+01 7.99361E-15
 -1      1540 1.84501E+00 6.69681E+00-1.77636E-15
 -1      1541 1.09517E+00 6.81169E+00 1.72085E-15
 -1      1542-6.97860E-03 6.91269E+00-7.39402E-16
 -1      1543-1.45653E+00 7.02795E+00 2.15539E-15
 -1      1544-3.25146E+00 7.17549E+00-3.34367E-15
 -1      1545-5.38855E+00 7.36415E+00-2.55351E-15
 -1      1546-7.86409E+00 7.60034E+00 3.10862E-15
 -1      1547 1.71137E+00 3.94705E+00 8.88178E-16
 -1      1548 1.42747E+00 3.97264E+00 2.75387E-17
 -1      1549 8.06942E-01 3.96691E+00-6.10623E-16
 -1      1550-1.57798E-01 3.98380E+00-6.74564E-16
 -1      1551-1.48983E+00 4.06636E+00 2.60902E-15
 -1      1552-3.22149E+00 4.23620E+00-5.67582E-16
 -1      1553-5.36368E+00 4.49007E+00-2.99977E-15
 -1      1554 1.10406E+00 2.20689E+00-2.75493E-17
 -1      1555 1.12591E+00 2.14443E+00 4.52804E-16
 -1      1556 9.02086E-01 2.01578E+00-2.48019E-16
 -1      1557 4.17894E-01 1.89088E+00 1.13495E-15
 -1      1558-3.60636E-01 1.84331E+00-7.38546E-16
 -1      1559-1.50405E+00 1.93853E+00 2.41916E-16
 -1      1560-3.13497E+00 2.22237E+00 7.77156E-16
 -1      1561 4.42474E-01 1.04754E+00-2.13121E-17
 -1      1562 5.30766E-01 9.90609E-01-1.46948E-16
 -1      1563 5.10595E-01 8.42962E-01-5.86119E-17
 -1      1564 3.63342E-01 6.56871E-01-4.50094E-18
 -1      1565 7.54450E-02 4.90660E-01 1.74052E-16
 -1      1566-3.91185E-01 4.27738E-01 1.14492E-16
 -1      1567-1.24846E+00 6.36484E-01-4.58613E-16
 -3
    1PSTEP                         2           1           1          
  100CL  101 1.000000000         531                     0    1           1
 -4  STRESS      6    1
 -5  SXX         1    4    1    1
 -5  SYY         1    4    2    2
 -5  SZZ         1    4    3    3
 -5  SXY         1    4    1    2
 -5  SYZ         1    4    2    3
 -5  SZX         1    4    3    1
 -1      1037 4.47475E+00 5.30743E+00 3.22812E+00 6.28257E+00-4.69257E-12 5.37599E-13
 -1      1038 4.47475E+00 5.30743E+00 3.22812E+00 6.28257E+00 2.42560E-12-1.46552E-12
 -1      1039 3.51835E+00 1.72468E+00 1.73020E+00 3.75988E+00 1.77825E-15 1.05303E-15
 -1      1040 3.51835E+00 1.72468E+00 1.73020E+00 3.75988E+00-7.05953E-16-5.30282E-16
 -1      1041-1.95305E+00 2.80573E+00 2.81383E-01-3.27045E-01-8.38994E-13-7.41305E-13
 -1      1042-1.95305E+00 2.80573E+00 2.81383E-01-3.27045E-01 2.20440E-12 5.99501E-14
 -1      1043-4.98272E+01-2.45978E+01-2.45602E+01 5.24870E+00-1.47968E-14 3.27533E-14
 -1      1044-4.98272E+01-2.45978E+01-2.45602E+01 5.24870E+00 2.22219E-14-5.51988E-14
 -1      1045 1.26136E+01 1.05602E+01 7.64736E+00 1.16565E+01 1.58260E-12-1.03044E-12
 -1      1046 1.40666E+01 1.16102E+01 8.47334E+00 1.25250E+01 2.07356E-12-3.57639E-13
 -1      1047 1.40704E+01 1.16146E+01 8.47605E+00 1.26787E+01 5.77030E-13 1.72319E-13
 -1      1048 1.32229E+01 1.08116E+01 7.93139E+00 1.18042E+01 2.41103E-14-8.95464E-14
 -1      1049 1.09885E+01 8.90590E+00 6.56517E+00 9.64960E+00-1.22470E-13-9.10024E-14
 -1      1050 7.76320E+00 6.32014E+00 4.64750E+00 6.77646E+00-2.60256E-14 8.00626E-14
 -1      1051 5.15752E+00 4.54321E+00 3.20124E+00 4.85804E+00 1.11751E-14 9.95345E-15
 -1      1052 1.26136E+01 1.05602E+01 7.64736E+00 1.16565E+01 5.90326E-13-3.17161E-13
 -1      1053 1.40666E+01 1.16102E+01 8.47334E+00 1.25250E+01-1.05819E-12 6.27528E-14
 -1      1054 1.40704E+01 1.16146E+01 8.47605E+00 1.26787E+01 6.02554E-13-2.74671E-13
 -1      1055 1.32229E+01 1.08116E+01 7.93139E+00 1.18042E+01-1.35193E-13-2.06498E-13
 -1      1056 1.09885E+01 8.90590E+00 6.56517E+00 9.64960E+00 5.86989E-16 1.18682E-13
 -1      1057 7.76320E+00 6.32014E+00 4.64750E+00 6.77646E+00-4.25034E-14-8.94822E-14
 -1      1058 5.15752E+00 4.54321E+00 3.20124E+00 4.85804E+00 3.11111E-14 1.82555E-14
 -1      1059 1.13623E+00 1.20607E+01 4.35500E+00 5.04827E+00-2.00529E-12-1.15337E-12
 -1      1060 1.73663E+00 1.55471E+01 5.70362E+00 5.94251E+00-1.46642E-14 1.04753E-13
 -1      1061 1.51492E+00 1.56696E+01 5.67089E+00 6.31485E+00-1.78168E-12-7.20780E-14
 -1      1062 8.69024E-01 1.44310E+01 5.04900E+00 6.68728E+00 2.75133E-12 8.76469E-13
 -1      1063-2.33823E-01 1.23446E+01 3.99655E+00 7.16004E+00 2.74891E-12 1.32110E-12
 -1      1064-1.65731E+00 9.89273E+00 2.71769E+00 7.52242E+00 2.08728E-12 6.72923E-13
 -1      1065-1.61913E+00 7.59813E+00 1.97307E+00 6.99814E+00-1.65864E-12-2.69488E-14
 -1      1066 1.13623E+00 1.20607E+01 4.35500E+00 5.04827E+00 2.75667E-12 4.46000E-13
 -1      1067 1.73663E+00 1.55471E+01 5.70362E+00 5.94251E+00 8.00936E-13 4.92089E-14
 -1      1068 1.51492E+00 1.56696E+01 5.67089E+00 6.31485E+00 2.06295E-12-6.77161E-14
 -1      1069 8.69024E-01 1.44310E+01 5.04900E+00 6.68728E+00 1.04314E-12 9.03859E-13
 -1      1070-2.33823E-01 1.23446E+01 3.99655E+00 7.16004E+00-3.50502E-13 1.80589E-13
 -1      1071-1.65731E+00 9.89273E+00 2.71769E+00 7.52242E+00-6.94511E-13 4.61534E-13
 -1      1072-1.61913E+00 7.59813E+00 1.97307E+00 6.99814E+00 8.95652E-13-2.07931E-13
 -1      1073-2.35069E+01-6.11456E-01-7.95906E+00-8.93877E+00-8.99420E-14 2.53688E-13
 -1      1074-1.88339E+01-2.74550E+00-7.12120E+00-6.52496E+00-1.84694E-14 2.82054E-13
 -1      1075-1.89517E+01-1.78606E+00-6.84345E+00-6.42844E+00-4.22018E-13-4.32845E-14
 -1      1076-1.83779E+01-2.20542E+00-6.79249E+00-6.13539E+00 5.70816E-13 5.63597E-14
 -1      1077-1.67998E+01-1.88893E+00-6.16728E+00-5.56978E+00 6.20870E-13 3.35255E-13
 -1      1078-1.37355E+01-1.81291E+00-5.13096E+00-4.54222E+00-1.89528E-13-1.32156E-13
 -1      1079-1.09594E+01-7.54907E-01-3.86571E+00-4.29447E+00 3.21910E-12 4.08062E-13
 -1      1080-2.35069E+01-6.11456E-01-7.95906E+00-8.93877E+00 3.07133E-14-1.41476E-13
 -1      1081-1.88339E+01-2.74550E+00-7.12120E+00-6.52496E+00-4.52214E-14-3.19895E-13
 -1      1082-1.89517E+01-1.78606E+00-6.84345E+00-6.42844E+00 1.91225E-13-2.80384E-13
 -1      1083-1.83779E+01-2.20542E+00-6.79249E+00-6.13539E+00-2.66295E-13-4.51957E-13
 -1      1084-1.67998E+01-1.88893E+00-6.16728E+00-5.56978E+00 7.08007E-13 1.04029E-13
 -1      1085-1.37355E+01-1.81291E+00-5.13096E+00-4.54222E+00 4.52279E-13-6.38454E-14
 -1      1086-1.09594E+01-7.54907E-01-3.86571E+00-4.29447E+00-2.19749E-12-8.16131E-13
 -1      1087 5.72314E+00 2.81339E+00 2.81705E+00 4.68140E+00-1.35719E-15 4.94429E-16
 -1      1088 7.61049E+00 3.74870E+00 3.74853E+00 4.58278E+00-3.19153E-16 4.27427E-16
 -1      1089 8.30745E+00 4.09697E+00 4.09346E+00 3.66055E+00-1.27919E-15-1.18346E-17
 -1      1090 7.06838E+00 3.49076E+00 3.48451E+00 2.21029E+00-8.59947E-16 1.65263E-16
 -1      1091 3.70656E+00 1.83898E+00 1.83003E+00 5.94687E-01-6.80429E-16 8.06166E-16
 -1      1092-2.33634E+00-1.13385E+00-1.14516E+00-8.81097E-01 2.05734E-15 2.73956E-15
 -1      1093-1.06759E+01-5.27780E+00-5.26473E+00-1.24556E+00-5.38797E-16-1.07896E-15
 -1      1094 5.72314E+00 2.81339E+00 2.81705E+00 4.68140E+00 9.68693E-16-7.84933E-17
 -1      1095 7.61049E+00 3.74870E+00 3.74853E+00 4.58278E+00 3.73268E-16 8.09716E-16
 -1      1096 8.30745E+00 4.09697E+00 4.09346E+00 3.66055E+00 9.02265E-16 9.48394E-16
 -1      1097 7.06838E+00 3.49076E+00 3.48451E+00 2.21029E+00 5.44702E-16-2.96381E-16
 -1      1098 3.70656E+00 1.83898E+00 1.83003E+00 5.94687E-01-2.09367E-16-8.71290E-16
 -1      1099-2.33634E+00-1.13385E+00-1.14516E+00-8.81097E-01-1.10010E-15-1.16635E-15
 -1      1100-1.06759E+01-5.27780E+00-5.26473E+00-1.24556E+00 1.50542E-16 1.58341E-15
 -1      1101 8.15281E+00 9.33952E+00 5.77247E+00 9.04435E+00 2.01853E-13-9.73928E-13
 -1      1102 3.49787E+00 8.66668E+00 4.01430E+00 7.74436E+00 1.30069E-12-3.21069E-13
 -1      1103 5.82050E-01 7.91805E+00 2.80503E+00 7.10134E+00-3.30406E-14-6.92970E-13
 -1      1104-9.95580E-01 6.73662E+00 1.89454E+00 6.27858E+00-3.21601E-13 6.81003E-13
 -1      1105-1.96613E+00 5.12800E+00 1.04342E+00 4.81641E+00-9.70661E-14-5.70048E-13
 -1      1106-3.13172E+00 3.09570E+00-1.18838E-02 2.50634E+00 7.49243E-13 9.39576E-13
 -1      1107-5.69050E+00 4.89799E-01-1.71623E+00-7.99861E-01 2.18816E-12 3.26696E-13
 -1      1108 1.07973E+01 9.75293E+00 6.78159E+00 1.02136E+01 9.80211E-13-7.13371E-14
 -1      1109 7.19844E+00 8.22176E+00 5.08867E+00 7.94761E+00-1.14414E-12-8.38714E-14
 -1      1110 3.22617E+00 6.83475E+00 3.32010E+00 6.03852E+00 8.85432E-14 2.82745E-13
 -1      1111-5.71697E-01 5.34647E+00 1.57567E+00 4.45072E+00-3.33316E-13 9.49793E-14
 -1      1112-3.90507E+00 3.64983E+00-8.42294E-02 2.83949E+00 3.57686E-13 1.08226E-12
 -1      1113-6.96106E+00 1.81138E+00-1.69939E+00 8.46684E-01-9.08858E-13 4.52721E-13
 -1      1114-1.00901E+01 1.30832E-01-3.28656E+00-1.67123E+00-1.75251E-12 8.24113E-13
 -1      1115 1.14133E+01 9.50288E+00 6.90235E+00 1.03255E+01 5.18268E-13-3.59687E-13
 -1      1116 8.19513E+00 7.61874E+00 5.21858E+00 8.07288E+00 6.00692E-13-1.94527E-13
 -1      1117 4.54402E+00 5.92725E+00 3.45552E+00 5.86757E+00 3.22026E-13-1.80460E-13
 -1      1118 5.94102E-01 4.36599E+00 1.63683E+00 3.73869E+00 4.29079E-13-2.39794E-13
 -1      1119-3.50703E+00 2.81096E+00-2.29703E-01 1.67438E+00 3.71250E-14 1.78291E-14
 -1      1120-7.68671E+00 1.19349E+00-2.14276E+00-4.58256E-01 1.21128E-13-2.26692E-13
 -1      1121-1.20536E+01-4.70707E-01-4.13303E+00-2.80846E+00 4.61034E-13 3.84898E-13
 -1      1122 1.15464E+01 8.40219E+00 6.58303E+00 9.82030E+00-2.80803E-13 3.03045E-14
 -1      1123 8.78846E+00 6.41476E+00 5.01706E+00 7.83414E+00-2.34669E-14 1.91798E-13
 -1      1124 5.24057E+00 4.73221E+00 3.29102E+00 5.76642E+00-4.03078E-13 1.03723E-13
 -1      1125 1.17042E+00 3.27006E+00 1.46536E+00 3.55923E+00 1.07972E-13 1.06173E-14
 -1      1126-3.20942E+00 1.90744E+00-4.29651E-01 1.23624E+00 6.29313E-14-1.83881E-13
 -1      1127-7.82546E+00 5.35720E-01-2.40562E+00-1.13774E+00 1.82536E-14-1.29612E-15
 -1      1128-1.28207E+01-7.95662E-01-4.49339E+00-3.59072E+00 8.34184E-14 3.73424E-13
 -1      1129 1.11634E+01 6.50531E+00 5.83066E+00 8.50067E+00-6.59984E-15-2.74641E-14
 -1      1130 9.48073E+00 4.56635E+00 4.63554E+00 7.17572E+00 7.78766E-14 5.42074E-15
 -1      1131 6.30695E+00 2.97564E+00 3.06325E+00 5.66409E+00 9.16342E-14-1.77319E-14
 -1      1132 2.00583E+00 1.77101E+00 1.24636E+00 3.84562E+00-1.36767E-13 5.34046E-14
 -1      1133-3.05160E+00 8.50251E-01-7.26444E-01 1.59049E+00 2.16629E-14-1.23404E-14
 -1      1134-8.28339E+00-5.02682E-02-2.75011E+00-1.12071E+00-6.17466E-14-1.15165E-13
 -1      1135-1.32844E+01-1.22967E+00-4.78963E+00-3.87720E+00-8.27159E-14 7.37097E-14
 -1      1136 9.83299E+00 4.59261E+00 4.76045E+00 6.68621E+00-2.46348E-14 3.50026E-14
 -1      1137 9.87071E+00 2.93874E+00 4.22712E+00 5.99561E+00-3.33318E-14-5.97692E-15
 -1      1138 7.82853E+00 1.38440E+00 3.04027E+00 5.09766E+00-5.31207E-14 1.41118E-14
 -1      1139 3.88411E+00 1.09017E-01 1.31773E+00 4.01852E+00-9.94607E-15-3.81124E-14
 -1      1140-1.85564E+00-7.92665E-01-8.73942E-01 2.55437E+00 9.78642E-15 5.52270E-14
 -1      1141-8.45504E+00-8.45035E-01-3.06903E+00 9.01836E-02-3.01038E-14 3.69447E-14
 -1      1142-1.47251E+01-5.62691E-01-5.04497E+00-3.55326E+00-2.89545E-14-9.75507E-14
 -1      1143 7.51674E+00 3.70340E+00 3.70265E+00 5.16604E+00 7.76866E-15-3.51524E-15
 -1      1144 9.10651E+00 2.71357E+00 3.90063E+00 4.78861E+00-1.39039E-14 3.35176E-15
 -1      1145 8.72575E+00 1.47551E+00 3.36642E+00 4.02205E+00 2.24921E-14 2.53010E-14
 -1      1146 6.17513E+00 2.77970E-02 2.04696E+00 3.15185E+00 5.92136E-15 3.55498E-16
 -1      1147 1.26120E+00-1.60579E+00-1.13718E-01 2.38230E+00 1.29678E-14-1.10791E-14
 -1      1148-6.38023E+00-2.80426E+00-3.03088E+00 1.75798E+00 1.24144E-14 5.99124E-14
 -1      1149-1.88654E+01-4.35894E+00-7.66403E+00 2.02281E-01 7.97644E-15-6.58445E-14
 -1      1150 7.51674E+00 3.70340E+00 3.70265E+00 5.16604E+00 1.30015E-14-4.53353E-15
 -1      1151 9.10651E+00 2.71357E+00 3.90063E+00 4.78861E+00 1.43018E-14-1.00351E-14
 -1      1152 8.72575E+00 1.47551E+00 3.36642E+00 4.02205E+00-1.97441E-14-1.60025E-14
 -1      1153 6.17513E+00 2.77970E-02 2.04696E+00 3.15185E+00 2.09922E-15-5.72195E-15
 -1      1154 1.26120E+00-1.60579E+00-1.13718E-01 2.38230E+00 2.38780E-14 2.09760E-14
 -1      1155-6.38023E+00-2.80426E+00-3.03088E+00 1.75798E+00 1.83977E-14-3.78524E-14
 -1      1156-1.88654E+01-4.35894E+00-7.66403E+00 2.02281E-01 7.76348E-15 2.46233E-14
 -1      1157 9.83299E+00 4.59261E+00 4.76045E+00 6.68621E+00 2.56210E-16-5.42156E-15
 -1      1158 9.87071E+00 2.93874E+00 4.22712E+00 5.99561E+00-7.68980E-15 8.01242E-15
 -1      1159 7.82853E+00 1.38440E+00 3.04027E+00 5.09766E+00 1.01426E-14 2.39124E-14
 -1      1160 3.88411E+00 1.09017E-01 1.31773E+00 4.01852E+00-5.63076E-14 4.83379E-14
 -1      1161-1.85564E+00-7.92665E-01-8.73942E-01 2.55437E+00 2.14846E-14-2.77992E-14
 -1      1162-8.45504E+00-8.45035E-01-3.06903E+00 9.01836E-02-3.05323E-14-1.19588E-14
 -1      1163-1.47251E+01-5.62691E-01-5.04497E+00-3.55326E+00-1.12863E-14 5.37898E-14
 -1      1164 1.11634E+01 6.50531E+00 5.83066E+00 8.50067E+00 2.55779E-14 7.37016E-14
 -1      1165 9.48073E+00 4.56635E+00 4.63554E+00 7.17572E+00 3.22091E-15 7.90270E-15
 -1      1166 6.30695E+00 2.97564E+00 3.06325E+00 5.66409E+00-1.14498E-13 2.25353E-14
 -1      1167 2.00583E+00 1.77101E+00 1.24636E+00 3.84562E+00 8.12709E-14-1.92881E-15
 -1      1168-3.05160E+00 8.50251E-01-7.26444E-01 1.59049E+00-8.79783E-16 2.60078E-14
 -1      1169-8.28339E+00-5.02682E-02-2.75011E+00-1.12071E+00 2.19187E-13 9.58756E-14
 -1      1170-1.32844E+01-1.22967E+00-4.78963E+00-3.87720E+00 2.24884E-14 8.90412E-15
 -1      1171 1.15464E+01 8.40219E+00 6.58303E+00 9.82030E+00-9.78327E-14-1.26678E-13
 -1      1172 8.78846E+00 6.41476E+00 5.01706E+00 7.83414E+00-1.10679E-13-7.33758E-14
 -1      1173 5.24057E+00 4.73221E+00 3.29102E+00 5.76642E+00 2.19202E-13-9.03574E-14
 -1      1174 1.17042E+00 3.27006E+00 1.46536E+00 3.55923E+00 1.95661E-14-4.67734E-14
 -1      1175-3.20942E+00 1.90744E+00-4.29651E-01 1.23624E+00 2.34562E-14 1.30115E-13
 -1      1176-7.82546E+00 5.35720E-01-2.40562E+00-1.13774E+00-3.25432E-13-7.48111E-14
 -1      1177-1.28207E+01-7.95662E-01-4.49339E+00-3.59072E+00-2.99759E-14-3.49914E-13
 -1      1178 1.14133E+01 9.50288E+00 6.90235E+00 1.03255E+01 4.43056E-13 1.99097E-13
 -1      1179 8.19513E+00 7.61874E+00 5.21858E+00 8.07288E+00 3.10237E-13 2.67157E-13
 -1      1180 4.54402E+00 5.92725E+00 3.45552E+00 5.86757E+00-5.44656E-13-1.13921E-13
 -1      1181 5.94102E-01 4.36599E+00 1.63683E+00 3.73869E+00 1.78951E-13 6.35444E-14
 -1      1182-3.50703E+00 2.81096E+00-2.29703E-01 1.67438E+00-4.78946E-13-1.79474E-13
 -1      1183-7.68671E+00 1.19349E+00-2.14276E+00-4.58256E-01-2.03701E-13 1.78730E-13
 -1      1184-1.20536E+01-4.70707E-01-4.13303E+00-2.80846E+00-8.49010E-14-6.91919E-14
 -1      1185 1.07973E+01 9.75293E+00 6.78159E+00 1.02136E+01-9.66416E-13-3.54191E-14
 -1      1186 7.19844E+00 8.22176E+00 5.08867E+00 7.94761E+00-1.70048E-13-4.67754E-13
 -1      1187 3.22617E+00 6.83475E+00 3.32010E+00 6.03852E+00-5.23921E-13 3.11393E-13
 -1      1188-5.71697E-01 5.34647E+00 1.57567E+00 4.45072E+00 8.09745E-13 3.52192E-13
 -1      1189-3.90507E+00 3.64983E+00-8.42294E-02 2.83949E+00-5.82840E-13-1.50425E-12
 -1      1190-6.96106E+00 1.81138E+00-1.69939E+00 8.46684E-01 5.94195E-13-5.81987E-14
 -1      1191-1.00901E+01 1.30832E-01-3.28656E+00-1.67123E+00 1.68047E-12-7.37665E-13
 -1      1192 8.15281E+00 9.33952E+00 5.77247E+00 9.04435E+00 2.10036E-12 2.02259E-13
 -1      1193 3.49787E+00 8.66668E+00 4.01430E+00 7.74436E+00 3.62100E-13-6.45522E-13
 -1      1194 5.82050E-01 7.91805E+00 2.80503E+00 7.10134E+00 6.64765E-13-1.91673E-13
 -1      1195-9.95580E-01 6.73662E+00 1.89454E+00 6.27858E+00 1.54169E-12 3.29165E-14
 -1      1196-1.96613E+00 5.12800E+00 1.04342E+00 4.81641E+00 6.17590E-13 1.13242E-12
 -1      1197-3.13172E+00 3.09570E+00-1.18838E-02 2.50634E+00-1.80863E-13-3.29401E-13
 -1      1198-5.69050E+00 4.89799E-01-1.71623E+00-7.99861E-01-2.50913E-12-2.48450E-13
 -1      1199 4.47535E+00 5.30817E+00 3.22856E+00 6.28331E+00-8.31791E-13-6.77515E-13
 -1      1200 3.51885E+00 1.72500E+00 1.73047E+00 3.76030E+00-7.56813E-16 1.61209E-15
 -1      1201 1.07955E+01 8.55884E+00 6.38694E+00 8.62235E+00-1.45932E-12-3.62053E-13
 -1      1202 1.28017E+01 1.08322E+01 7.79918E+00 1.20548E+01 9.60186E-13-3.85568E-13
 -1      1203 1.37369E+01 1.15574E+01 8.34711E+00 1.26469E+01 1.15696E-12-1.13115E-13
 -1      1204 1.32993E+01 1.11974E+01 8.08388E+00 1.23282E+01 4.69058E-14 1.30399E-13
 -1      1205 1.15927E+01 9.75642E+00 7.04522E+00 1.08780E+01-3.50645E-14-6.33018E-14
 -1      1206 8.65931E+00 7.29631E+00 5.26536E+00 8.39674E+00-3.68007E-14 1.34123E-14
 -1      1207 5.90812E+00 5.10218E+00 3.63340E+00 5.86539E+00 1.29549E-14 4.30626E-14
 -1      1208 4.75734E+00 3.85811E+00 2.84310E+00 4.22408E+00-5.24945E-15 2.78064E-15
 -1      1209 1.07955E+01 8.55884E+00 6.38694E+00 8.62235E+00 1.41020E-12-5.15255E-13
 -1      1210 1.28017E+01 1.08322E+01 7.79918E+00 1.20548E+01-1.08872E-12 2.79302E-13
 -1      1211 1.37369E+01 1.15574E+01 8.34711E+00 1.26469E+01-7.63241E-13-6.33054E-14
 -1      1212 1.32993E+01 1.11974E+01 8.08388E+00 1.23282E+01-8.05862E-14-1.18334E-13
 -1      1213 1.15927E+01 9.75642E+00 7.04522E+00 1.08780E+01-2.96628E-14-1.29967E-14
 -1      1214 8.65931E+00 7.29631E+00 5.26536E+00 8.39674E+00-2.03627E-15 1.43399E-14
 -1      1215 5.90812E+00 5.10218E+00 3.63340E+00 5.86539E+00 1.06691E-14-3.90090E-14
 -1      1216 4.75734E+00 3.85811E+00 2.84310E+00 4.22408E+00 7.93440E-15 8.84310E-15
 -1      1217-1.95350E+00 2.80588E+00 2.81286E-01-3.27053E-01 5.94186E-13-3.63121E-13
 -1      1218 6.83600E-01 7.81303E+00 2.80389E+00 2.67584E+00-1.03524E-12-1.18919E-12
 -1      1219 2.20081E+00 1.45076E+01 5.51377E+00 5.43931E+00-3.19031E-13-3.52681E-13
 -1      1220 1.96433E+00 1.57569E+01 5.84799E+00 6.07156E+00-4.70431E-13-6.69522E-15
 -1      1221 1.45307E+00 1.51782E+01 5.48832E+00 6.44263E+00 8.29137E-13 2.64739E-13
 -1      1222 5.94836E-01 1.35316E+01 4.66172E+00 6.84372E+00 3.14975E-12 1.03111E-12
 -1      1223-8.12207E-01 1.10741E+01 3.38642E+00 7.27504E+00 2.58372E-12 1.20831E-12
 -1      1224-2.36389E+00 8.24214E+00 1.93982E+00 7.34625E+00 4.19241E-13 2.85708E-13
 -1      1225 3.71880E-01 6.03666E+00 2.11482E+00 6.57757E+00-2.51527E-12 1.81359E-13
 -1      1226 6.83600E-01 7.81303E+00 2.80389E+00 2.67584E+00 2.30467E-12 4.67363E-13
 -1      1227 2.20081E+00 1.45076E+01 5.51377E+00 5.43931E+00 1.39600E-12 4.34099E-13
 -1      1228 1.96433E+00 1.57569E+01 5.84799E+00 6.07156E+00 1.11624E-12 8.36412E-14
 -1      1229 1.45307E+00 1.51782E+01 5.48832E+00 6.44263E+00 1.41586E-12 1.72921E-13
 -1      1230 5.94836E-01 1.35316E+01 4.66172E+00 6.84372E+00 8.32650E-14 5.09663E-13
 -1      1231-8.12207E-01 1.10741E+01 3.38642E+00 7.27504E+00-6.09552E-13 9.83285E-14
 -1      1232-2.36389E+00 8.24214E+00 1.93982E+00 7.34625E+00 7.13735E-14-7.15967E-14
 -1      1233 3.71880E-01 6.03666E+00 2.11482E+00 6.57757E+00 1.30769E-12-6.13846E-13
 -1      1234-4.98293E+01-2.45983E+01-2.45611E+01 5.24856E+00 3.21595E-15-3.53870E-15
 -1      1235-3.51500E+01-8.33266E+00-1.43493E+01-3.01512E+00-1.03645E-14 4.61451E-15
 -1      1236-1.81930E+01 3.91070E-01-5.87464E+00-8.08015E+00 1.73681E-14 3.83015E-14
 -1      1237-1.95916E+01-2.77057E+00-7.37951E+00-6.28272E+00-1.43666E-13 5.40860E-14
 -1      1238-1.87054E+01-1.99940E+00-6.83260E+00-6.27296E+00-3.75547E-15-1.17295E-13
 -1      1239-1.76387E+01-2.03737E+00-6.49309E+00-5.82623E+00 2.98370E-13 1.95706E-13
 -1      1240-1.52686E+01-1.75975E+00-5.61935E+00-5.05485E+00-8.84106E-14 1.73036E-13
 -1      1241-1.18360E+01-1.11730E+00-4.27460E+00-3.88814E+00 1.38845E-12 3.79834E-13
 -1      1242-8.80777E+00-2.45625E+00-3.71713E+00-2.34402E+00 5.51095E-13-4.61686E-13
 -1      1243-3.51500E+01-8.33266E+00-1.43493E+01-3.01512E+00 2.44816E-15-2.87782E-14
 -1      1244-1.81930E+01 3.91070E-01-5.87464E+00-8.08015E+00-4.38872E-14 2.20275E-14
 -1      1245-1.95916E+01-2.77057E+00-7.37951E+00-6.28272E+00 1.03698E-13-9.61031E-14
 -1      1246-1.87054E+01-1.99940E+00-6.83260E+00-6.27296E+00-1.42477E-13-1.68902E-13
 -1      1247-1.76387E+01-2.03737E+00-6.49309E+00-5.82623E+00-8.70840E-14 8.86659E-14
 -1      1248-1.52686E+01-1.75975E+00-5.61935E+00-5.05485E+00 3.21770E-13-1.77990E-13
 -1      1249-1.18360E+01-1.11730E+00-4.27460E+00-3.88814E+00-1.16822E-12-2.38238E-13
 -1      1250-8.80777E+00-2.45625E+00-3.71713E+00-2.34402E+00-7.42662E-13-1.09453E-13
 -1      1251 4.64730E+00 2.28046E+00 2.28616E+00 4.29637E+00-7.07422E-16 7.73443E-17
 -1      1252 6.85216E+00 3.37257E+00 3.37416E+00 4.70260E+00 1.27005E-15 7.01145E-16
 -1      1253 8.22135E+00 4.05219E+00 4.05027E+00 4.16568E+00 3.17205E-15 7.38599E-16
 -1      1254 7.97356E+00 3.93478E+00 3.92975E+00 2.94656E+00 1.82045E-15 7.16660E-16
 -1      1255 5.71049E+00 2.82363E+00 2.81626E+00 1.37441E+00 5.83562E-16 4.90926E-16
 -1      1256 1.16866E+00 5.91361E-01 5.80807E-01-2.32828E-01-2.60204E-16-2.45227E-15
 -1      1257-5.15480E+00-2.52041E+00-2.53282E+00-1.27357E+00-2.11319E-16 3.71530E-15
 -1      1258-2.67901E+01-1.32518E+01-1.32138E+01 1.75582E+00 6.48148E-16 1.99277E-15
 -1      1259 4.64730E+00 2.28046E+00 2.28616E+00 4.29637E+00 3.68952E-16-1.14429E-16
 -1      1260 6.85216E+00 3.37257E+00 3.37416E+00 4.70260E+00-1.89972E-15-9.87171E-16
 -1      1261 8.22135E+00 4.05219E+00 4.05027E+00 4.16568E+00-1.77252E-15-8.14890E-16
 -1      1262 7.97356E+00 3.93478E+00 3.92975E+00 2.94656E+00-1.33787E-15-9.11404E-16
 -1      1263 5.71049E+00 2.82363E+00 2.81626E+00 1.37441E+00-3.76009E-16-7.85488E-16
 -1      1264 1.16866E+00 5.91361E-01 5.80807E-01-2.32828E-01-1.27137E-16-2.85107E-16
 -1      1265-5.15480E+00-2.52041E+00-2.53282E+00-1.27357E+00 8.01875E-17-4.87446E-15
 -1      1266-2.67901E+01-1.32518E+01-1.32138E+01 1.75582E+00-3.38582E-15 4.95319E-15
 -1      1267 1.26144E+01 1.05610E+01 7.64790E+00 1.16573E+01 8.47846E-13-4.56125E-13
 -1      1268 1.40676E+01 1.16111E+01 8.47400E+00 1.25260E+01 4.43016E-13-3.54263E-14
 -1      1269 1.40715E+01 1.16155E+01 8.47672E+00 1.26797E+01 4.42242E-13 4.43327E-14
 -1      1270 1.32240E+01 1.08124E+01 7.93203E+00 1.18052E+01-5.79689E-14-1.26597E-13
 -1      1271 1.09895E+01 8.90658E+00 6.56571E+00 9.65041E+00-2.41991E-14 5.72180E-15
 -1      1272 7.76397E+00 6.32064E+00 4.64792E+00 6.77709E+00-2.21516E-14-8.29022E-15
 -1      1273 5.15811E+00 4.54358E+00 3.20156E+00 4.85851E+00 1.96666E-14 1.47188E-14
 -1      1274 1.13591E+00 1.20611E+01 4.35500E+00 5.04842E+00 4.64286E-13-3.00367E-13
 -1      1275 1.73648E+00 1.55477E+01 5.70377E+00 5.94289E+00 6.71179E-13-4.15237E-14
 -1      1276 1.51483E+00 1.56703E+01 5.67111E+00 6.31536E+00 1.18879E-13-1.76929E-13
 -1      1277 8.68976E-01 1.44318E+01 5.04925E+00 6.68788E+00 1.73362E-12 1.04798E-12
 -1      1278-2.33816E-01 1.23454E+01 3.99683E+00 7.16069E+00 1.12466E-12 9.61009E-13
 -1      1279-1.65718E+00 9.89353E+00 2.71800E+00 7.52310E+00 7.74802E-13 6.31660E-13
 -1      1280-1.61872E+00 7.59889E+00 1.97346E+00 6.99886E+00-1.80764E-13-1.03964E-13
 -1      1281-2.35088E+01-6.11789E-01-7.95979E+00-8.93906E+00-2.16571E-14 3.57785E-14
 -1      1282-1.88355E+01-2.74565E+00-7.12177E+00-6.52540E+00-4.47986E-14-2.89583E-14
 -1      1283-1.89531E+01-1.78620E+00-6.84398E+00-6.42890E+00-9.94493E-14-2.10197E-13
 -1      1284-1.83793E+01-2.20555E+00-6.79299E+00-6.13582E+00 1.29260E-13-2.29464E-13
 -1      1285-1.68010E+01-1.88903E+00-6.16772E+00-5.57014E+00 5.41475E-13 2.09029E-13
 -1      1286-1.37365E+01-1.81297E+00-5.13132E+00-4.54249E+00 1.72893E-13-3.59152E-14
 -1      1287-1.09600E+01-7.54854E-01-3.86591E+00-4.29459E+00 1.78092E-13-1.94521E-13
 -1      1288 5.72373E+00 2.81370E+00 2.81735E+00 4.68183E+00 2.64674E-16 1.34547E-16
 -1      1289 7.61120E+00 3.74898E+00 3.74886E+00 4.58320E+00-5.43280E-17-6.65244E-16
 -1      1290 8.30816E+00 4.09718E+00 4.09376E+00 3.66090E+00-7.53797E-16-5.05625E-17
 -1      1291 7.06891E+00 3.49086E+00 3.48472E+00 2.21054E+00-4.99297E-16 1.69022E-16
 -1      1292 3.70672E+00 1.83893E+00 1.83006E+00 5.94832E-01-6.61069E-16 1.43243E-15
 -1      1293-2.33681E+00-1.13409E+00-1.14540E+00-8.81041E-01 3.06025E-16 1.09037E-15
 -1      1294-1.06774E+01-5.27822E+00-5.26535E+00-1.24563E+00 1.89494E-15-6.72554E-15
 -1      1295 1.01566E+01 9.80028E+00 6.58576E+00 1.02943E+01 7.72578E-13-1.05685E-12
 -1      1296 5.04450E+00 8.76551E+00 4.55731E+00 7.54945E+00-7.55042E-13-2.75424E-13
 -1      1297 5.43135E+00 8.81378E+00 4.70089E+00 8.40869E+00 7.16731E-13-6.86037E-13
 -1      1298 1.60526E+00 8.97607E+00 3.49184E+00 7.45093E+00 1.27912E-12 4.95570E-14
 -1      1299 1.88585E+00 8.21056E+00 3.33181E+00 7.41591E+00 5.66235E-13-5.77283E-13
 -1      1300-3.71372E-01 8.67732E+00 2.74096E+00 7.41673E+00 1.23030E-12 5.19963E-13
 -1      1301-2.17681E-01 7.31703E+00 2.34279E+00 6.68797E+00-2.37054E-13-1.19224E-13
 -1      1302-1.32703E+00 8.00055E+00 2.20226E+00 7.01328E+00 2.86765E-13 2.58442E-13
 -1      1303-1.37096E+00 5.98194E+00 1.52162E+00 5.54615E+00-2.70467E-13-1.79230E-13
 -1      1304-1.88434E+00 6.85890E+00 1.64160E+00 6.15835E+00-4.34610E-13-1.71290E-13
 -1      1305-2.33583E+00 4.23115E+00 6.25457E-01 3.66669E+00 2.95123E-13-1.83050E-13
 -1      1306-2.55360E+00 4.95218E+00 7.91532E-01 4.71047E+00 2.15555E-13 3.04735E-13
 -1      1307-4.02833E+00 2.16456E+00-6.15041E-01 8.88724E-01 1.25642E-12 4.69283E-13
 -1      1308-3.96276E+00 2.20769E+00-5.79175E-01 2.25571E+00 2.65962E-13 1.94866E-13
 -1      1309-7.80567E+00-2.13159E-02-2.58291E+00-2.52204E+00 2.71112E-12 4.57758E-13
 -1      1310 1.24685E+01 1.06926E+01 7.64318E+00 1.13573E+01 1.92890E-12-2.05755E-13
 -1      1311 9.60982E+00 9.51863E+00 6.31239E+00 9.60971E+00 2.20717E-13-5.57711E-13
 -1      1312 9.02197E+00 9.00366E+00 5.94846E+00 9.03747E+00 3.20665E-14-1.82711E-13
 -1      1313 5.80219E+00 8.47230E+00 4.71058E+00 7.70619E+00 9.31098E-14-1.59741E-13
 -1      1314 5.08865E+00 7.48870E+00 4.15053E+00 6.99057E+00-1.91330E-13 4.77630E-14
 -1      1315 2.18554E+00 7.38195E+00 3.15727E+00 6.36458E+00 4.51933E-13 2.73862E-14
 -1      1316 1.20737E+00 6.03299E+00 2.38932E+00 5.26593E+00 3.83952E-14 1.55684E-13
 -1      1317-8.03684E-01 6.00081E+00 1.71505E+00 5.22415E+00-3.35648E-13-7.22787E-14
 -1      1318-2.26223E+00 4.48611E+00 7.33882E-01 3.67086E+00 1.69871E-13 4.96129E-13
 -1      1319-3.24574E+00 4.24012E+00 3.28144E-01 3.80835E+00 2.76142E-13 1.15446E-13
 -1      1320-5.35724E+00 2.76672E+00-8.54871E-01 1.87078E+00-1.10493E-13 5.29671E-13
 -1      1321-5.57127E+00 2.20767E+00-1.10999E+00 1.79342E+00-5.59506E-14 2.37077E-13
 -1      1322-8.39495E+00 9.66901E-01-2.45126E+00-3.93674E-01-1.07306E-12 4.80459E-13
 -1      1323-8.34298E+00 9.73263E-02-2.72106E+00-9.07291E-01 6.92691E-13 5.12960E-13
 -1      1324-1.17468E+01-7.05844E-01-4.10939E+00-3.12145E+00-7.42963E-13 4.25670E-13
 -1      1325 1.27984E+01 1.05791E+01 7.71458E+00 1.14925E+01 4.76341E-13-1.65295E-13
 -1      1326 1.07662E+01 9.52891E+00 6.69739E+00 1.03402E+01 8.08705E-13-2.03668E-13
 -1      1327 9.87446E+00 8.59014E+00 6.09332E+00 9.19139E+00 5.00953E-13-2.19238E-13
 -1      1328 7.48489E+00 7.81165E+00 5.04786E+00 8.08101E+00 6.25067E-15-7.82745E-14
 -1      1329 6.41536E+00 6.79643E+00 4.35989E+00 6.96265E+00 3.16955E-13-2.37458E-13
 -1      1330 3.90286E+00 6.33441E+00 3.37830E+00 5.97278E+00 4.78521E-13 1.96131E-14
 -1      1331 2.58159E+00 5.16055E+00 2.55491E+00 4.79945E+00 4.41003E-13-8.46231E-14
 -1      1332 1.60949E-01 4.89014E+00 1.66686E+00 4.06051E+00-3.11231E-13 1.37975E-13
 -1      1333-1.45536E+00 3.59766E+00 7.06958E-01 2.71263E+00 2.98544E-13-6.19346E-14
 -1      1334-3.55340E+00 3.32262E+00-7.61559E-02 2.20569E+00 4.26088E-13 5.30018E-13
 -1      1335-5.56415E+00 2.02101E+00-1.16924E+00 6.21510E-01-4.16413E-14 1.18853E-13
 -1      1336-7.22280E+00 1.63077E+00-1.84537E+00 1.66866E-01-1.96751E-13 2.20803E-14
 -1      1337-9.77394E+00 4.17101E-01-3.08776E+00-1.62198E+00 2.17505E-13-6.91077E-14
 -1      1338-1.10520E+01-7.58979E-02-3.67222E+00-2.24086E+00-5.14510E-13 3.15533E-13
 -1      1339-1.43004E+01-1.12994E+00-5.09202E+00-4.17074E+00 5.32064E-13 2.08028E-13
 -1      1340 1.25722E+01 9.69213E+00 7.34724E+00 1.07918E+01-1.32459E-13-3.34657E-14
 -1      1341 1.11237E+01 8.89812E+00 6.60719E+00 1.01744E+01-2.92576E-14-1.39586E-13
 -1      1342 1.03364E+01 7.49710E+00 5.88505E+00 8.81291E+00-1.24039E-13 1.42931E-13
 -1      1343 8.22534E+00 6.97372E+00 5.01569E+00 8.03313E+00 1.46978E-13-6.40676E-14
 -1      1344 7.13740E+00 5.63110E+00 4.21360E+00 6.80301E+00-1.77653E-13 1.39551E-13
 -1      1345 4.76288E+00 5.32031E+00 3.32745E+00 5.86185E+00 1.69022E-13-3.86886E-14
 -1      1346 3.29308E+00 4.03727E+00 2.41901E+00 4.67409E+00-2.27703E-13 2.74020E-14
 -1      1347 8.70737E-01 3.82980E+00 1.55118E+00 3.66522E+00 1.46025E-13 5.66312E-14
 -1      1348-9.77331E-01 2.61042E+00 5.38920E-01 2.41588E+00 2.75272E-14-4.39948E-15
 -1      1349-3.32175E+00 2.37410E+00-3.12726E-01 1.45567E+00 2.02578E-13-2.51698E-14
 -1      1350-5.49951E+00 1.24356E+00-1.40447E+00 6.50985E-02-5.37609E-15-1.12935E-13
 -1      1351-7.75056E+00 8.68691E-01-2.27102E+00-8.00265E-01 2.11915E-13 6.34389E-14
 -1      1352-1.02858E+01-1.18741E-01-3.43349E+00-2.35733E+00 5.78955E-14 8.88165E-14
 -1      1353-1.24439E+01-6.15376E-01-4.30957E+00-3.19560E+00 2.41315E-13 1.78332E-13
 -1      1354-1.54646E+01-1.42692E+00-5.57420E+00-4.85512E+00 3.86210E-13-1.40574E-13
 -1      1355 1.14427E+01 7.86066E+00 6.37011E+00 9.06850E+00-5.07116E-14-4.29915E-14
 -1      1356 1.07927E+01 7.26978E+00 5.96063E+00 9.33987E+00-8.11652E-14-6.89739E-15
 -1      1357 1.06361E+01 5.71687E+00 5.39649E+00 7.81532E+00 1.42051E-14-1.53919E-14
 -1      1358 8.69312E+00 5.32995E+00 4.62761E+00 7.65389E+00 5.16188E-14 8.27061E-14
 -1      1359 8.15844E+00 3.90869E+00 3.98215E+00 6.40957E+00 6.66262E-14 1.35190E-14
 -1      1360 5.51537E+00 3.80504E+00 3.07574E+00 5.80314E+00-1.08321E-13 3.49704E-14
 -1      1361 4.38696E+00 2.47614E+00 2.26482E+00 4.75875E+00-1.08512E-14 3.93531E-14
 -1      1362 1.50283E+00 2.56420E+00 1.34212E+00 3.72730E+00-4.10452E-14 2.51957E-14
 -1      1363-3.57793E-01 1.37226E+00 3.34773E-01 2.74180E+00-4.24882E-14 6.78026E-14
 -1      1364-3.06879E+00 1.44877E+00-5.34606E-01 1.38907E+00 8.13899E-14-5.31443E-14
 -1      1365-5.59176E+00 4.34054E-01-1.70204E+00 2.64756E-01-3.23647E-15-8.09297E-14
 -1      1366-7.94169E+00 2.82472E-01-2.52754E+00-1.14062E+00 6.81322E-14 2.99349E-14
 -1      1367-1.07207E+01-5.16846E-01-3.70840E+00-2.49974E+00-8.58101E-14 7.93193E-14
 -1      1368-1.31102E+01-1.06465E+00-4.67770E+00-3.70953E+00-2.35350E-14-3.83526E-15
 -1      1369-1.60737E+01-1.55081E+00-5.81607E+00-5.16866E+00-2.78809E-13 1.38120E-13
 -1      1370 9.21758E+00 5.64640E+00 4.90511E+00 6.75816E+00-1.43472E-14 7.36311E-14
 -1      1371 9.78582E+00 5.14594E+00 4.92748E+00 7.81845E+00-3.46347E-14-5.59251E-15
 -1      1372 1.02768E+01 3.99985E+00 4.71130E+00 6.31701E+00-1.73704E-14 3.06479E-14
 -1      1373 9.03121E+00 3.29880E+00 4.06890E+00 6.81279E+00 1.94453E-14-1.43794E-15
 -1      1374 9.20602E+00 2.34719E+00 3.81256E+00 5.52392E+00-3.61167E-14 6.75817E-16
 -1      1375 6.56069E+00 1.83899E+00 2.77190E+00 5.57115E+00 5.70965E-14 2.17782E-14
 -1      1376 6.23351E+00 9.45668E-01 2.36913E+00 4.52731E+00-2.02462E-14 9.17350E-15
 -1      1377 2.59832E+00 7.68696E-01 1.11111E+00 4.05691E+00-9.22694E-15 1.63086E-14
 -1      1378 1.45861E+00-9.28109E-02 4.50714E-01 3.24465E+00 2.48019E-14 2.06530E-14
 -1      1379-2.50180E+00 1.20187E-01-7.85932E-01 2.08326E+00 2.71670E-14 5.07248E-14
 -1      1380-4.92848E+00-8.10640E-01-1.89391E+00 1.38785E+00-1.93821E-14 3.07522E-14
 -1      1381-8.22440E+00-2.61220E-01-2.80025E+00-5.91433E-01-2.78868E-14-4.89318E-14
 -1      1382-1.19808E+01-1.07941E+00-4.30988E+00-1.47898E+00 9.96039E-15-1.32938E-13
 -1      1383-1.39384E+01-8.77580E-01-4.88928E+00-3.79361E+00-1.38821E-14-2.24309E-14
 -1      1384-1.75382E+01-1.80203E+00-6.38227E+00-5.15551E+00-1.31291E-14 3.05554E-14
 -1      1385 6.46424E+00 4.12892E+00 3.49574E+00 5.10117E+00 8.69795E-15-5.71273E-15
 -1      1386 8.23098E+00 3.78720E+00 3.96600E+00 6.07220E+00-5.87276E-15 1.53012E-14
 -1      1387 8.63861E+00 3.37478E+00 3.96442E+00 5.00612E+00 4.11352E-15 6.42042E-15
 -1      1388 8.88189E+00 2.24028E+00 3.67032E+00 5.61790E+00-1.94885E-14 7.90353E-15
 -1      1389 9.26061E+00 2.27136E+00 3.80555E+00 4.41236E+00 1.69525E-15 2.17700E-14
 -1      1390 7.64810E+00 7.65206E-01 2.77639E+00 4.81612E+00-1.98398E-15 1.43814E-14
 -1      1391 7.81883E+00 9.62571E-01 2.89786E+00 3.56854E+00 1.15839E-14 1.74445E-14
 -1      1392 4.40457E+00-5.70731E-01 1.26517E+00 3.85750E+00 2.65925E-14 5.72116E-15
 -1      1393 4.17972E+00-5.24053E-01 1.20637E+00 2.70979E+00 9.16991E-15-7.51675E-15
 -1      1394-7.88533E-01-1.52040E+00-7.61949E-01 2.70164E+00-2.62243E-15 1.54776E-14
 -1      1395-1.97834E+00-1.96049E+00-1.29981E+00 1.98098E+00 1.50620E-14 1.68572E-14
 -1      1396-7.94850E+00-1.99042E+00-3.27984E+00 1.00225E+00 1.50614E-14 1.52833E-15
 -1      1397-1.08523E+01-2.11677E+00-4.27980E+00 4.34920E-01 1.56005E-14-1.65762E-14
 -1      1398-1.52791E+01-1.43585E+00-5.51593E+00-2.22424E+00-8.95843E-15-5.06620E-14
 -1      1399-2.12293E+01-3.07976E+00-8.02200E+00-3.90059E+00-2.23660E-15 5.51785E-14
 -1      1400 6.74059E+00 3.66231E+00 3.43296E+00 4.83795E+00 2.35778E-16-2.73323E-15
 -1      1401 8.11136E+00 3.09431E+00 3.69787E+00 4.73485E+00-1.03378E-14-2.06852E-15
 -1      1402 8.01949E+00 2.21311E+00 3.37676E+00 3.98612E+00 1.04033E-14 1.34126E-14
 -1      1403 5.97310E+00 8.54859E-01 2.25323E+00 2.89204E+00 2.93789E-15 4.61547E-15
 -1      1404 1.69650E+00-1.11123E+00 1.93138E-01 1.74993E+00 6.59239E-16-7.94016E-15
 -1      1405-5.26641E+00-3.48178E+00-2.88690E+00 9.20498E-01 5.65798E-15 1.48064E-14
 -1      1406-1.49543E+01-3.68476E+00-6.15087E+00-3.54716E-01-1.22904E-14-2.98940E-15
 -1      1407 6.46424E+00 4.12892E+00 3.49574E+00 5.10117E+00 1.17214E-14-2.40214E-15
 -1      1408 6.74059E+00 3.66231E+00 3.43296E+00 4.83795E+00 4.84046E-15-1.57524E-15
 -1      1409 8.63861E+00 3.37478E+00 3.96442E+00 5.00612E+00 1.51892E-14-4.80518E-15
 -1      1410 8.11136E+00 3.09431E+00 3.69787E+00 4.73485E+00 1.14162E-14-8.30691E-15
 -1      1411 9.26061E+00 2.27136E+00 3.80555E+00 4.41236E+00-9.17822E-15-1.28384E-14
 -1      1412 8.01949E+00 2.21311E+00 3.37676E+00 3.98612E+00-9.71546E-15-9.32065E-15
 -1      1413 7.81883E+00 9.62571E-01 2.89786E+00 3.56854E+00-2.30104E-14-1.67254E-14
 -1      1414 5.97310E+00 8.54859E-01 2.25323E+00 2.89204E+00 6.23317E-17 2.24312E-15
 -1      1415 4.17972E+00-5.24053E-01 1.20637E+00 2.70979E+00 3.63432E-15-2.29106E-15
 -1      1416 1.69650E+00-1.11123E+00 1.93138E-01 1.74993E+00 3.11863E-15 7.56666E-15
 -1      1417-1.97834E+00-1.96049E+00-1.29981E+00 1.98098E+00 1.26131E-14 6.23777E-16
 -1      1418-5.26641E+00-3.48178E+00-2.88690E+00 9.20498E-01 1.69827E-15-9.43053E-15
 -1      1419-1.08523E+01-2.11677E+00-4.27980E+00 4.34920E-01 5.78669E-15 1.39685E-14
 -1      1420-1.49543E+01-3.68476E+00-6.15087E+00-3.54716E-01 5.39907E-15-1.60419E-14
 -1      1421-2.12293E+01-3.07976E+00-8.02200E+00-3.90059E+00 5.22957E-14-9.49063E-14
 -1      1422 9.21758E+00 5.64640E+00 4.90511E+00 6.75816E+00 1.15577E-15-3.49769E-14
 -1      1423 8.23098E+00 3.78720E+00 3.96600E+00 6.07220E+00 1.42722E-16-8.74711E-15
 -1      1424 1.02768E+01 3.99985E+00 4.71130E+00 6.31701E+00 1.54051E-14 1.60072E-14
 -1      1425 8.88189E+00 2.24028E+00 3.67032E+00 5.61790E+00 2.15998E-16 2.16199E-16
 -1      1426 9.20602E+00 2.34719E+00 3.81256E+00 5.52392E+00 7.84324E-15 1.03709E-14
 -1      1427 7.64810E+00 7.65206E-01 2.77639E+00 4.81612E+00 3.16642E-15-5.06858E-15
 -1      1428 6.23351E+00 9.45668E-01 2.36913E+00 4.52731E+00-2.70488E-14 2.33832E-14
 -1      1429 4.40457E+00-5.70731E-01 1.26517E+00 3.85750E+00-3.54729E-14 1.27026E-15
 -1      1430 1.45861E+00-9.28109E-02 4.50714E-01 3.24465E+00-1.29831E-14 9.08471E-17
 -1      1431-7.88533E-01-1.52040E+00-7.61949E-01 2.70164E+00 1.23255E-14-1.38056E-16
 -1      1432-4.92848E+00-8.10640E-01-1.89391E+00 1.38785E+00-1.45501E-14 2.28445E-14
 -1      1433-7.94850E+00-1.99042E+00-3.27984E+00 1.00225E+00-7.88315E-15-8.16785E-15
 -1      1434-1.19808E+01-1.07941E+00-4.30988E+00-1.47898E+00-2.02406E-14 1.16907E-13
 -1      1435-1.52791E+01-1.43585E+00-5.51593E+00-2.22424E+00-1.64240E-14 7.68344E-14
 -1      1436-1.75382E+01-1.80203E+00-6.38227E+00-5.15551E+00-5.94574E-14-6.45947E-14
 -1      1437 1.14427E+01 7.86066E+00 6.37011E+00 9.06850E+00 1.06872E-14 8.04622E-14
 -1      1438 9.78582E+00 5.14594E+00 4.92748E+00 7.81845E+00-1.65147E-14 2.10479E-14
 -1      1439 1.06361E+01 5.71687E+00 5.39649E+00 7.81532E+00-1.86151E-14 1.77074E-14
 -1      1440 9.03121E+00 3.29880E+00 4.06890E+00 6.81279E+00-9.34372E-15-8.29168E-16
 -1      1441 8.15844E+00 3.90869E+00 3.98215E+00 6.40957E+00-8.16979E-14-5.64553E-15
 -1      1442 6.56069E+00 1.83899E+00 2.77190E+00 5.57115E+00-4.70845E-14 1.46605E-14
 -1      1443 4.38696E+00 2.47614E+00 2.26482E+00 4.75875E+00-2.20028E-14-1.35413E-14
 -1      1444 2.59832E+00 7.68696E-01 1.11111E+00 4.05691E+00 2.89710E-14-2.73076E-15
 -1      1445-3.57793E-01 1.37226E+00 3.34773E-01 2.74180E+00 1.83820E-14-1.37038E-14
 -1      1446-2.50180E+00 1.20187E-01-7.85932E-01 2.08326E+00-3.37567E-14 1.68088E-14
 -1      1447-5.59176E+00 4.34054E-01-1.70204E+00 2.64756E-01 8.97222E-14-2.73710E-15
 -1      1448-8.22440E+00-2.61220E-01-2.80025E+00-5.91433E-01 5.07052E-14 3.14785E-14
 -1      1449-1.07207E+01-5.16846E-01-3.70840E+00-2.49974E+00 8.79824E-14 1.79140E-14
 -1      1450-1.39384E+01-8.77580E-01-4.88928E+00-3.79361E+00 3.65235E-14 7.57696E-14
 -1      1451-1.60737E+01-1.55081E+00-5.81607E+00-5.16866E+00 1.30477E-13-2.06172E-13
 -1      1452 1.25722E+01 9.69213E+00 7.34724E+00 1.07918E+01-6.49806E-14-1.27326E-13
 -1      1453 1.07927E+01 7.26978E+00 5.96063E+00 9.33987E+00 5.29670E-14-4.75984E-14
 -1      1454 1.03364E+01 7.49710E+00 5.88505E+00 8.81291E+00-3.71154E-14-8.01082E-14
 -1      1455 8.69312E+00 5.32995E+00 4.62761E+00 7.65389E+00-5.07717E-14-6.32995E-14
 -1      1456 7.13740E+00 5.63110E+00 4.21360E+00 6.80301E+00 7.41538E-14-6.20363E-14
 -1      1457 5.51537E+00 3.80504E+00 3.07574E+00 5.80314E+00 8.01132E-14-5.18548E-14
 -1      1458 3.29308E+00 4.03727E+00 2.41901E+00 4.67409E+00 1.10433E-13-5.70131E-14
 -1      1459 1.50283E+00 2.56420E+00 1.34212E+00 3.72730E+00 3.87576E-14-3.31356E-15
 -1      1460-9.77331E-01 2.61042E+00 5.38920E-01 2.41588E+00 3.33029E-14-6.36521E-14
 -1      1461-3.06879E+00 1.44877E+00-5.34606E-01 1.38907E+00 5.52060E-14 3.85260E-14
 -1      1462-5.49951E+00 1.24356E+00-1.40447E+00 6.50985E-02-1.48749E-13-1.17551E-13
 -1      1463-7.94169E+00 2.82472E-01-2.52754E+00-1.14062E+00 5.80374E-14 6.43946E-15
 -1      1464-1.02858E+01-1.18741E-01-3.43349E+00-2.35733E+00-1.13166E-13-1.43508E-13
 -1      1465-1.31102E+01-1.06465E+00-4.67770E+00-3.70953E+00-2.84872E-14-1.06839E-13
 -1      1466-1.54646E+01-1.42692E+00-5.57420E+00-4.85512E+00-1.11476E-13 1.12342E-13
 -1      1467 1.27984E+01 1.05791E+01 7.71458E+00 1.14925E+01 4.21157E-13-1.01570E-13
 -1      1468 1.11237E+01 8.89812E+00 6.60719E+00 1.01744E+01 7.04995E-14 6.11422E-14
 -1      1469 9.87446E+00 8.59014E+00 6.09332E+00 9.19139E+00 3.62163E-13 2.16246E-13
 -1      1470 8.22534E+00 6.97372E+00 5.01569E+00 8.03313E+00-1.17386E-13 4.38584E-14
 -1      1471 6.41536E+00 6.79643E+00 4.35989E+00 6.96265E+00-2.36406E-13 1.44865E-13
 -1      1472 4.76288E+00 5.32031E+00 3.32745E+00 5.86185E+00-6.47301E-15-1.01448E-14
 -1      1473 2.58159E+00 5.16055E+00 2.55491E+00 4.79945E+00-8.05393E-14-6.66878E-14
 -1      1474 8.70737E-01 3.82980E+00 1.55118E+00 3.66522E+00-8.21515E-14-1.47370E-13
 -1      1475-1.45536E+00 3.59766E+00 7.06958E-01 2.71263E+00-1.30387E-13-1.29863E-13
 -1      1476-3.32175E+00 2.37410E+00-3.12726E-01 1.45567E+00-9.08398E-14-1.10014E-13
 -1      1477-5.56415E+00 2.02101E+00-1.16924E+00 6.21510E-01-4.32122E-13 2.78939E-14
 -1      1478-7.75056E+00 8.68691E-01-2.27102E+00-8.00265E-01-2.18670E-13 4.80698E-14
 -1      1479-9.77394E+00 4.17101E-01-3.08776E+00-1.62198E+00-2.39794E-13 1.56119E-13
 -1      1480-1.24439E+01-6.15376E-01-4.30957E+00-3.19560E+00-1.75923E-13-1.56139E-13
 -1      1481-1.43004E+01-1.12994E+00-5.09202E+00-4.17074E+00 3.15556E-13 8.87507E-14
 -1      1482 1.24685E+01 1.06926E+01 7.64318E+00 1.13573E+01-1.33251E-12 7.80079E-14
 -1      1483 1.07662E+01 9.52891E+00 6.69739E+00 1.03402E+01-4.06699E-13 1.05488E-13
 -1      1484 9.02197E+00 9.00366E+00 5.94846E+00 9.03747E+00-9.75444E-13-1.32630E-13
 -1      1485 7.48489E+00 7.81165E+00 5.04786E+00 8.08101E+00 2.00568E-13 1.89168E-14
 -1      1486 5.08865E+00 7.48870E+00 4.15053E+00 6.99057E+00-5.32258E-13-1.39658E-13
 -1      1487 3.90286E+00 6.33441E+00 3.37830E+00 5.97278E+00-5.16867E-13 4.80796E-14
 -1      1488 1.20737E+00 6.03299E+00 2.38932E+00 5.26593E+00-2.77509E-13 2.66743E-13
 -1      1489 1.60949E-01 4.89014E+00 1.66686E+00 4.06051E+00 2.88409E-14 1.57635E-13
 -1      1490-2.26223E+00 4.48611E+00 7.33882E-01 3.67086E+00-1.50156E-13-3.55358E-13
 -1      1491-3.55340E+00 3.32262E+00-7.61559E-02 2.20569E+00-5.44890E-13-6.02367E-13
 -1      1492-5.35724E+00 2.76672E+00-8.54871E-01 1.87078E+00-3.58941E-13-6.26578E-13
 -1      1493-7.22280E+00 1.63077E+00-1.84537E+00 1.66866E-01 1.67252E-13-1.12615E-13
 -1      1494-8.39495E+00 9.66901E-01-2.45126E+00-3.93674E-01 9.40782E-13-9.59409E-14
 -1      1495-1.10520E+01-7.58979E-02-3.67222E+00-2.24086E+00 7.60614E-13-4.10043E-13
 -1      1496-1.17468E+01-7.05844E-01-4.10939E+00-3.12145E+00 7.42236E-13-1.57774E-13
 -1      1497 1.01566E+01 9.80028E+00 6.58576E+00 1.02943E+01 1.58202E-12-1.85021E-13
 -1      1498 9.60982E+00 9.51863E+00 6.31239E+00 9.60971E+00-1.05833E-13 9.03080E-14
 -1      1499 5.43135E+00 8.81378E+00 4.70089E+00 8.40869E+00 1.34119E-12-8.26786E-14
 -1      1500 5.80219E+00 8.47230E+00 4.71058E+00 7.70619E+00 8.22478E-14-2.00965E-13
 -1      1501 1.88585E+00 8.21056E+00 3.33181E+00 7.41591E+00 6.07722E-13-4.18739E-13
 -1      1502 2.18554E+00 7.38195E+00 3.15727E+00 6.36458E+00 2.99718E-13-8.47679E-14
 -1      1503-2.17681E-01 7.31703E+00 2.34279E+00 6.68797E+00 1.13797E-12-8.97303E-14
 -1      1504-8.03684E-01 6.00081E+00 1.71505E+00 5.22415E+00 9.13861E-13 9.80872E-14
 -1      1505-1.37096E+00 5.98194E+00 1.52162E+00 5.54615E+00 1.04068E-12 1.01408E-12
 -1      1506-3.24574E+00 4.24012E+00 3.28144E-01 3.80835E+00-7.04070E-15 4.73802E-14
 -1      1507-2.33583E+00 4.23115E+00 6.25457E-01 3.66669E+00 3.98945E-13 5.66399E-13
 -1      1508-5.57127E+00 2.20767E+00-1.10999E+00 1.79342E+00 3.12575E-14-1.78563E-13
 -1      1509-4.02833E+00 2.16456E+00-6.15041E-01 8.88724E-01-1.45924E-12-2.92029E-13
 -1      1510-8.34298E+00 9.73263E-02-2.72106E+00-9.07291E-01-2.33231E-13-4.91648E-13
 -1      1511-7.80567E+00-2.13159E-02-2.58291E+00-2.52204E+00-2.17637E-12-7.11784E-13
 -1      1512 5.04450E+00 8.76551E+00 4.55731E+00 7.54945E+00 1.07422E-12-2.23984E-14
 -1      1513 1.60526E+00 8.97607E+00 3.49184E+00 7.45093E+00-6.98152E-13-1.25590E-13
 -1      1514-3.71372E-01 8.67732E+00 2.74096E+00 7.41673E+00-3.16396E-13 9.35491E-14
 -1      1515-1.32703E+00 8.00055E+00 2.20226E+00 7.01328E+00 9.37665E-14 3.74607E-13
 -1      1516-1.88434E+00 6.85890E+00 1.64160E+00 6.15835E+00 1.50875E-12 7.30808E-13
 -1      1517-2.55360E+00 4.95218E+00 7.91532E-01 4.71047E+00-1.23866E-13 9.62340E-14
 -1      1518-3.96276E+00 2.20769E+00-5.79175E-01 2.25571E+00-1.70898E-13-3.28060E-13
 -1      1519 8.15344E+00 9.34033E+00 5.77294E+00 9.04514E+00 9.51862E-13-2.02114E-13
 -1      1520 3.49819E+00 8.66746E+00 4.01466E+00 7.74505E+00 7.86798E-13-4.88165E-13
 -1      1521 5.82148E-01 7.91879E+00 2.80531E+00 7.10195E+00 2.99755E-13-3.41134E-13
 -1      1522-9.95642E-01 6.73729E+00 1.89474E+00 6.27912E+00 7.03657E-13 2.27833E-13
 -1      1523-1.96632E+00 5.12855E+00 1.04354E+00 4.81684E+00 2.10988E-13 2.49865E-13
 -1      1524-3.13204E+00 3.09610E+00-1.18593E-02 2.50661E+00 2.37361E-13 2.92004E-13
 -1      1525-5.69104E+00 4.89978E-01-1.71635E+00-7.99834E-01-2.84508E-13 7.73644E-14
 -1      1526 1.07982E+01 9.75379E+00 6.78217E+00 1.02145E+01 1.19103E-15-5.37232E-14
 -1      1527 7.19903E+00 8.22250E+00 5.08911E+00 7.94832E+00-5.86033E-13-3.28441E-13
 -1      1528 3.22644E+00 6.83536E+00 3.32039E+00 6.03908E+00-1.40494E-13 2.73452E-13
 -1      1529-5.71729E-01 5.34695E+00 1.57582E+00 4.45114E+00 2.41039E-13 2.31598E-13
 -1      1530-3.90537E+00 3.65016E+00-8.42208E-02 2.83976E+00-7.22172E-14-1.52585E-13
 -1      1531-6.96164E+00 1.81156E+00-1.69953E+00 8.46762E-01-8.11339E-14 1.29252E-14
 -1      1532-1.00910E+01 1.30845E-01-3.28684E+00-1.67138E+00-9.15529E-14 3.29478E-14
 -1      1533 1.14143E+01 9.50372E+00 6.90295E+00 1.03264E+01 4.08801E-13-5.74519E-14
 -1      1534 8.19584E+00 7.61942E+00 5.21903E+00 8.07361E+00 4.59325E-13 2.93161E-14
 -1      1535 4.54440E+00 5.92777E+00 3.45582E+00 5.86810E+00-1.03920E-13-1.95849E-13
 -1      1536 5.94146E-01 4.36638E+00 1.63697E+00 3.73904E+00 2.67765E-13-9.92483E-14
 -1      1537-3.50734E+00 2.81121E+00-2.29722E-01 1.67454E+00-2.55884E-13-1.58864E-14
 -1      1538-7.68738E+00 1.19360E+00-2.14295E+00-4.58289E-01-3.02393E-14-5.57034E-14
 -1      1539-1.20547E+01-4.70737E-01-4.13339E+00-2.80871E+00 1.71149E-13 9.72742E-14
 -1      1540 1.15474E+01 8.40293E+00 6.58360E+00 9.82117E+00-1.84842E-13-5.96659E-14
 -1      1541 8.78922E+00 6.41533E+00 5.01750E+00 7.83484E+00-6.93418E-14 2.51106E-14
 -1      1542 5.24103E+00 4.73263E+00 3.29131E+00 5.76694E+00-1.03265E-13 1.91216E-14
 -1      1543 1.17053E+00 3.27035E+00 1.46549E+00 3.55956E+00 4.91866E-14-2.19411E-14
 -1      1544-3.20971E+00 1.90762E+00-4.29691E-01 1.23636E+00 1.01520E-14-2.38319E-14
 -1      1545-7.82617E+00 5.35772E-01-2.40583E+00-1.13783E+00-1.41593E-13-1.85500E-14
 -1      1546-1.28218E+01-7.95730E-01-4.49379E+00-3.59103E+00 6.36831E-15 2.58203E-14
 -1      1547 1.11643E+01 6.50589E+00 5.83116E+00 8.50143E+00 6.88192E-15 1.29176E-14
 -1      1548 9.48153E+00 4.56676E+00 4.63594E+00 7.17636E+00 4.75414E-14 8.20570E-15
 -1      1549 6.30749E+00 2.97591E+00 3.06352E+00 5.66460E+00-5.33549E-15-8.00189E-16
 -1      1550 2.00601E+00 1.77117E+00 1.24647E+00 3.84596E+00-1.05356E-14 1.99049E-14
 -1      1551-3.05185E+00 8.50325E-01-7.26504E-01 1.59063E+00 2.17800E-14-2.57052E-14
 -1      1552-8.28412E+00-5.02751E-02-2.75035E+00-1.12079E+00 5.86371E-14 1.86278E-14
 -1      1553-1.32856E+01-1.22976E+00-4.79006E+00-3.87753E+00-3.53107E-14 6.37478E-14
 -1      1554 9.83381E+00 4.59303E+00 4.76086E+00 6.68681E+00-9.67109E-15 1.47296E-14
 -1      1555 9.87152E+00 2.93903E+00 4.22748E+00 5.99615E+00-2.53692E-14 4.53755E-15
 -1      1556 7.82917E+00 1.38455E+00 3.04053E+00 5.09811E+00-2.03420E-14 1.36314E-14
 -1      1557 3.88442E+00 1.09057E-01 1.31785E+00 4.01886E+00-3.71729E-14 1.56176E-15
 -1      1558-1.85580E+00-7.92707E-01-8.74006E-01 2.55457E+00 8.93243E-15 1.40313E-14
 -1      1559-8.45576E+00-8.45123E-01-3.06929E+00 9.01808E-02-2.14034E-14 1.53654E-15
 -1      1560-1.47264E+01-5.62818E-01-5.04544E+00-3.55354E+00-2.13890E-14-3.49606E-14
 -1      1561 7.51740E+00 3.70374E+00 3.70298E+00 5.16651E+00 8.81952E-15-2.55104E-15
 -1      1562 9.10727E+00 2.71383E+00 3.90096E+00 4.78906E+00 8.50534E-16-3.12863E-15
 -1      1563 8.72645E+00 1.47567E+00 3.36670E+00 4.02243E+00-1.15541E-16 2.78990E-15
 -1      1564 6.17559E+00 2.78449E-02 2.04713E+00 3.15214E+00 4.45965E-15 3.03590E-16
 -1      1565 1.26124E+00-1.60587E+00-1.13729E-01 2.38248E+00 1.86455E-14-8.23068E-16
 -1      1566-6.38081E+00-2.80445E+00-3.03114E+00 1.75804E+00 1.28591E-14 1.16586E-14
 -1      1567-1.88668E+01-4.35923E+00-7.66459E+00 2.02127E-01 3.30112E-15-5.08294E-15
 -3
    1PSTEP                         3           1           1          
  100CL  101 1.000000000         531                     0    1           1
 -4  TOSTRAIN    6    1
 -5  EXX         1    4    1    1
 -5  EYY         1    4    2    2
 -5  EZZ         1    4    3    3
 -5  EXY         1    4    1    2
 -5  EYZ         1    4    2    3
 -5  EZX         1    4    3    1
 -1      1037 2.36860E-02 3.95069E-02 1.77640E-15 1.19369E-01-8.91588E-14 1.02144E-14
 -1      1038 2.36860E-02 3.95069E-02-1.77640E-15 1.19369E-01 4.60864E-14-2.78449E-14
 -1      1039 3.39748E-02-1.04859E-04 2.64814E-22 7.14377E-02 3.37868E-17 2.00076E-17
 -1      1040 3.39748E-02-1.04859E-04-2.64814E-22 7.14377E-02-1.34131E-17-1.00754E-17
 -1      1041-4.24543E-02 4.79625E-02-5.50675E-15-6.21386E-03-1.59409E-14-1.40848E-14
 -1      1042-4.24543E-02 4.79625E-02 5.50675E-15-6.21386E-03 4.18835E-14 1.13905E-15
 -1      1043-4.80072E-01-7.13370E-04 1.09053E-21 9.97254E-02-2.81139E-16 6.22313E-16
 -1      1044-4.80072E-01-7.13370E-04-1.09053E-21 9.97254E-02 4.22216E-16-1.04878E-15
 -1      1045 9.43590E-02 5.53438E-02 1.37432E-14 2.21473E-01 3.00694E-14-1.95784E-14
 -1      1046 1.06272E-01 5.96004E-02 1.77638E-15 2.37976E-01 3.93977E-14-6.79514E-15
 -1      1047 1.06293E-01 5.96323E-02 8.97864E-15 2.40895E-01 1.09636E-14 3.27407E-15
 -1      1048 1.00539E-01 5.47236E-02-1.76596E-15 2.24280E-01 4.58095E-16-1.70138E-15
 -1      1049 8.40441E-02 4.44740E-02-1.24345E-15 1.83342E-01-2.32692E-15-1.72905E-15
 -1      1050 5.91982E-02 3.17801E-02-9.99219E-17 1.28753E-01-4.94486E-16 1.52119E-15
 -1      1051 3.71693E-02 2.54975E-02 2.85884E-16 9.23027E-02 2.12326E-16 1.89116E-16
 -1      1052 9.43590E-02 5.53438E-02-1.37432E-14 2.21473E-01 1.12162E-14-6.02605E-15
 -1      1053 1.06272E-01 5.96004E-02-1.77638E-15 2.37976E-01-2.01056E-14 1.19230E-15
 -1      1054 1.06293E-01 5.96323E-02-8.97864E-15 2.40895E-01 1.14485E-14-5.21876E-15
 -1      1055 1.00539E-01 5.47236E-02 1.76596E-15 2.24280E-01-2.56866E-15-3.92345E-15
 -1      1056 8.40441E-02 4.44740E-02 1.24345E-15 1.83342E-01 1.11528E-17 2.25496E-15
 -1      1057 5.91982E-02 3.17801E-02 9.99219E-17 1.28753E-01-8.07564E-16-1.70016E-15
 -1      1058 3.71693E-02 2.54975E-02-2.85884E-16 9.23027E-02 5.91112E-16 3.46854E-16
 -1      1059-6.11567E-02 1.46409E-01 9.19270E-15 9.59172E-02-3.81005E-14-2.19141E-14
 -1      1060-7.53729E-02 1.87026E-01-6.87234E-15 1.12908E-01-2.78619E-16 1.99031E-15
 -1      1061-7.89635E-02 1.89976E-01-1.32225E-14 1.19982E-01-3.38519E-14-1.36948E-15
 -1      1062-7.94195E-02 1.78257E-01 2.35140E-15 1.27058E-01 5.22753E-14 1.66529E-14
 -1      1063-8.03771E-02 1.58613E-01 1.35004E-14 1.36041E-01 5.22293E-14 2.51009E-14
 -1      1064-8.31250E-02 1.36326E-01 1.44774E-14 1.42926E-01 3.96583E-14 1.27855E-14
 -1      1065-6.82518E-02 1.06876E-01 1.42997E-14 1.32965E-01-3.15142E-14-5.12027E-16
 -1      1066-6.11567E-02 1.46409E-01-9.19270E-15 9.59172E-02 5.23767E-14 8.47401E-15
 -1      1067-7.53729E-02 1.87026E-01 6.87234E-15 1.12908E-01 1.52178E-14 9.34968E-16
 -1      1068-7.89635E-02 1.89976E-01 1.32225E-14 1.19982E-01 3.91960E-14-1.28661E-15
 -1      1069-7.94195E-02 1.78257E-01-2.35140E-15 1.27058E-01 1.98196E-14 1.71733E-14
 -1      1070-8.03771E-02 1.58613E-01-1.35004E-14 1.36041E-01-6.65953E-15 3.43119E-15
 -1      1071-8.31250E-02 1.36326E-01-1.44774E-14 1.42926E-01-1.31957E-14 8.76915E-15
 -1      1072-6.82518E-02 1.06876E-01-1.42997E-14 1.32965E-01 1.70174E-14-3.95070E-15
 -1      1073-2.95409E-01 1.39604E-01 1.66533E-16-1.69837E-01-1.70890E-15 4.82006E-15
 -1      1074-2.22541E-01 8.31382E-02-3.99679E-16-1.23974E-01-3.50919E-16 5.35903E-15
 -1      1075-2.30056E-01 9.60906E-02-7.37266E-16-1.22140E-01-8.01834E-15-8.22405E-16
 -1      1076-2.20122E-01 8.71542E-02 2.87588E-15-1.16572E-01 1.08455E-14 1.07083E-15
 -1      1077-2.02018E-01 8.12885E-02-3.96545E-15-1.05826E-01 1.17965E-14 6.36984E-15
 -1      1078-1.63485E-01 6.30430E-02-1.06584E-15-8.63022E-02-3.60103E-15-2.51096E-15
 -1      1079-1.34779E-01 5.91052E-02-5.80152E-15-8.15950E-02 6.11629E-14 7.75318E-15
 -1      1080-2.95409E-01 1.39604E-01-1.66533E-16-1.69837E-01 5.83553E-16-2.68804E-15
 -1      1081-2.22541E-01 8.31382E-02 3.99679E-16-1.23974E-01-8.59206E-16-6.07801E-15
 -1      1082-2.30056E-01 9.60906E-02 7.37266E-16-1.22140E-01 3.63328E-15-5.32729E-15
 -1      1083-2.20122E-01 8.71542E-02-2.87588E-15-1.16572E-01-5.05960E-15-8.58718E-15
 -1      1084-2.02018E-01 8.12885E-02 3.96545E-15-1.05826E-01 1.34521E-14 1.97656E-15
 -1      1085-1.63485E-01 6.30430E-02 1.06584E-15-8.63022E-02 8.59329E-15-1.21306E-15
 -1      1086-1.34779E-01 5.91052E-02 5.80152E-15-8.15950E-02-4.17523E-14-1.55065E-14
 -1      1087 5.52157E-02-6.96984E-05-2.33876E-22 8.89466E-02-2.57865E-17 9.39415E-18
 -1      1088 7.33772E-02 3.23597E-06-6.65218E-24 8.70729E-02-6.06391E-18 8.12111E-18
 -1      1089 8.00659E-02 6.66942E-05 1.22796E-22 6.95505E-02-2.43046E-17-2.24857E-19
 -1      1090 6.80934E-02 1.18584E-04-1.23888E-22 4.19955E-02-1.63390E-17 3.13999E-18
 -1      1091 3.56542E-02 1.70062E-04-8.19957E-24 1.12991E-02-1.29281E-17 1.53171E-17
 -1      1092-2.26324E-02 2.14958E-04 3.69067E-22-1.67408E-02 3.90894E-17 5.20516E-17
 -1      1093-1.02813E-01-2.48367E-04-6.20983E-22-2.36657E-02-1.02371E-17-2.05003E-17
 -1      1094 5.52157E-02-6.96984E-05 2.33876E-22 8.89466E-02 1.84052E-17-1.49137E-18
 -1      1095 7.33772E-02 3.23597E-06 6.65218E-24 8.70729E-02 7.09208E-18 1.53846E-17
 -1      1096 8.00659E-02 6.66942E-05-1.22796E-22 6.95505E-02 1.71430E-17 1.80195E-17
 -1      1097 6.80934E-02 1.18584E-04 1.23888E-22 4.19955E-02 1.03493E-17-5.63124E-18
 -1      1098 3.56542E-02 1.70062E-04 8.19957E-24 1.12991E-02-3.97797E-18-1.65545E-17
 -1      1099-2.26324E-02 2.14958E-04-3.69067E-22-1.67408E-02-2.09019E-17-2.21606E-17
 -1      1100-1.02813E-01-2.48367E-04 6.20983E-22-2.36657E-02 2.86030E-18 3.00848E-17
 -1      1101 4.52264E-02 6.77740E-02-5.50674E-15 1.71843E-01 3.83521E-15-1.85046E-14
 -1      1102-9.81215E-03 8.83951E-02-4.51226E-15 1.47143E-01 2.47132E-14-6.10031E-15
 -1      1103-4.22367E-02 9.71473E-02-6.50595E-15 1.34925E-01-6.27771E-16-1.31664E-14
 -1      1104-5.49124E-02 9.19995E-02-8.64777E-16 1.19293E-01-6.11043E-15 1.29391E-14
 -1      1105-5.71814E-02 7.76071E-02 8.22566E-15 9.15119E-02-1.84426E-15-1.08309E-14
 -1      1106-5.92768E-02 5.90442E-02-3.55265E-16 4.76205E-02 1.42356E-14 1.78519E-14
 -1      1107-7.55112E-02 4.19146E-02 4.85136E-15-1.51974E-02 4.15751E-14 6.20723E-15
 -1      1108 7.62992E-02 5.64555E-02-9.38884E-15 1.94058E-01 1.86240E-14-1.35541E-15
 -1      1109 4.00857E-02 5.95288E-02-3.21058E-15 1.51005E-01-2.17387E-14-1.59356E-15
 -1      1110-1.78469E-03 6.67782E-02 6.40575E-16 1.14732E-01 1.68232E-15 5.37215E-15
 -1      1111-4.08001E-02 7.16451E-02 3.65841E-15 8.45637E-02-6.33301E-15 1.80461E-15
 -1      1112-7.25959E-02 7.09471E-02-3.41623E-15 5.39504E-02 6.79604E-15 2.05630E-14
 -1      1113-9.99717E-02 6.67048E-02 2.66007E-15 1.60870E-02-1.72683E-14 8.60170E-15
 -1      1114-1.29267E-01 6.49304E-02-5.73619E-16-3.17534E-02-3.32978E-14 1.56581E-14
 -1      1115 8.57086E-02 4.94101E-02-7.77180E-17 1.96184E-01 9.84710E-15-6.83405E-15
 -1      1116 5.65545E-02 4.56031E-02-6.47428E-15 1.53385E-01 1.14132E-14-3.69601E-15
 -1      1117 2.06815E-02 4.69629E-02 1.61607E-15 1.11484E-01 6.11849E-15-3.42874E-15
 -1      1118-1.98118E-02 5.18540E-02 1.03863E-16 7.10352E-02 8.15250E-15-4.55608E-15
 -1      1119-6.22691E-02 5.77725E-02-2.48692E-15 3.18132E-02 7.05374E-16 3.38753E-16
 -1      1120-1.05335E-01 6.33887E-02 3.64156E-15-8.70687E-03 2.30144E-15-4.30716E-15
 -1      1121-1.50491E-01 6.95842E-02 6.39492E-15-5.33608E-02 8.75964E-15 7.31307E-15
 -1      1122 9.43038E-02 3.45640E-02-1.42109E-15 1.86586E-01-5.33526E-15 5.75786E-16
 -1      1123 7.16565E-02 2.65563E-02 1.37668E-15 1.48849E-01-4.45871E-16 3.64417E-15
 -1      1124 3.70415E-02 2.73827E-02-5.91519E-16 1.09562E-01-7.65848E-15 1.97073E-15
 -1      1125-5.60376E-03 3.42893E-02 1.72432E-15 6.76254E-02 2.05148E-15 2.01729E-16
 -1      1126-5.28156E-02 4.44048E-02-2.67496E-15 2.34885E-02 1.19569E-15-3.49373E-15
 -1      1127-1.02977E-01 5.58854E-02-2.04282E-15-2.16171E-02 3.46819E-16-2.46263E-17
 -1      1128-1.58218E-01 7.02568E-02 2.48692E-15-6.82236E-02 1.58495E-15 7.09506E-15
 -1      1129 1.01321E-01 1.28183E-02 7.10546E-16 1.61513E-01-1.25397E-16-5.21818E-16
 -1      1130 9.20587E-02-1.31456E-03 2.20333E-17 1.36339E-01 1.47965E-15 1.02994E-16
 -1      1131 6.16302E-02-1.66474E-03-4.88504E-16 1.07618E-01 1.74105E-15-3.36907E-16
 -1      1132 1.44300E-02 9.96840E-03-5.39649E-16 7.30668E-02-2.59857E-15 1.01469E-15
 -1      1133-4.41779E-02 2.99572E-02 2.08723E-15 3.02192E-02 4.11595E-16-2.34467E-16
 -1      1134-1.05132E-01 5.12969E-02-4.54069E-16-2.12935E-02-1.17319E-15-2.18813E-15
 -1      1135-1.61400E-01 6.76393E-02-2.39983E-15-7.36668E-02-1.57160E-15 1.40048E-15
 -1      1136 9.63783E-02-3.18898E-03-2.20385E-17 1.27038E-01-4.68062E-16 6.65049E-16
 -1      1137 1.07228E-01-2.44791E-02 3.62245E-16 1.13917E-01-6.33305E-16-1.13561E-16
 -1      1138 9.09770E-02-3.14615E-02-1.98416E-16 9.68555E-02-1.00929E-15 2.68125E-16
 -1      1139 4.87612E-02-2.29656E-02 9.07960E-16 7.63519E-02-1.88975E-16-7.24135E-16
 -1      1140-1.86523E-02 1.54426E-03-5.90838E-16 4.85331E-02 1.85942E-16 1.04931E-15
 -1      1141-1.02334E-01 4.22558E-02 1.93534E-16 1.71349E-03-5.71972E-16 7.01950E-16
 -1      1142-1.83923E-01 8.51633E-02 6.21728E-16-6.75119E-02-5.50135E-16-1.85346E-15
 -1      1143 7.24677E-02 1.43907E-05-1.70499E-17 9.81547E-02 1.47605E-16-6.67895E-17
 -1      1144 9.89118E-02-2.25541E-02-1.17559E-16 9.09835E-02-2.64174E-16 6.36835E-17
 -1      1145 1.01827E-01-3.59273E-02-4.68907E-17 7.64190E-02 4.27350E-16 4.80719E-16
 -1      1146 7.84351E-02-3.83642E-02-3.59987E-18 5.98851E-02 1.12506E-16 6.75447E-18
 -1      1147 2.61233E-02-2.83495E-02 1.39241E-16 4.52637E-02 2.46389E-16-2.10504E-16
 -1      1148-6.36377E-02 4.30587E-03 9.15939E-17 3.34016E-02 2.35874E-16 1.13834E-15
 -1      1149-2.12826E-01 6.27967E-02-3.66892E-16 3.84334E-03 1.51552E-16-1.25105E-15
 -1      1150 7.24677E-02 1.43907E-05 1.70499E-17 9.81547E-02 2.47028E-16-8.61370E-17
 -1      1151 9.89118E-02-2.25541E-02 1.17559E-16 9.09835E-02 2.71734E-16-1.90667E-16
 -1      1152 1.01827E-01-3.59273E-02 4.68907E-17 7.64190E-02-3.75139E-16-3.04047E-16
 -1      1153 7.84351E-02-3.83642E-02 3.59987E-18 5.98851E-02 3.98852E-17-1.08717E-16
 -1      1154 2.61233E-02-2.83495E-02-1.39241E-16 4.52637E-02 4.53683E-16 3.98545E-16
 -1      1155-6.36377E-02 4.30587E-03-9.15939E-17 3.34016E-02 3.49557E-16-7.19196E-16
 -1      1156-2.12826E-01 6.27967E-02 3.66892E-16 3.84334E-03 1.47506E-16 4.67842E-16
 -1      1157 9.63783E-02-3.18898E-03 2.20385E-17 1.27038E-01 4.86798E-18-1.03010E-16
 -1      1158 1.07228E-01-2.44791E-02-3.62245E-16 1.13917E-01-1.46106E-16 1.52236E-16
 -1      1159 9.09770E-02-3.14615E-02 1.98416E-16 9.68555E-02 1.92710E-16 4.54336E-16
 -1      1160 4.87612E-02-2.29656E-02-9.07960E-16 7.63519E-02-1.06984E-15 9.18420E-16
 -1      1161-1.86523E-02 1.54426E-03 5.90838E-16 4.85331E-02 4.08207E-16-5.28185E-16
 -1      1162-1.02334E-01 4.22558E-02-1.93534E-16 1.71349E-03-5.80113E-16-2.27218E-16
 -1      1163-1.83923E-01 8.51633E-02-6.21728E-16-6.75119E-02-2.14439E-16 1.02201E-15
 -1      1164 1.01321E-01 1.28183E-02-7.10546E-16 1.61513E-01 4.85981E-16 1.40033E-15
 -1      1165 9.20587E-02-1.31456E-03-2.20333E-17 1.36339E-01 6.11972E-17 1.50151E-16
 -1      1166 6.16302E-02-1.66474E-03 4.88504E-16 1.07618E-01-2.17547E-15 4.28171E-16
 -1      1167 1.44300E-02 9.96840E-03 5.39649E-16 7.30668E-02 1.54415E-15-3.66473E-17
 -1      1168-4.41779E-02 2.99572E-02-2.08723E-15 3.02192E-02-1.67159E-17 4.94149E-16
 -1      1169-1.05132E-01 5.12969E-02 4.54069E-16-2.12935E-02 4.16455E-15 1.82164E-15
 -1      1170-1.61400E-01 6.76393E-02 2.39983E-15-7.36668E-02 4.27279E-16 1.69178E-16
 -1      1171 9.43038E-02 3.45640E-02 1.42109E-15 1.86586E-01-1.85882E-15-2.40688E-15
 -1      1172 7.16565E-02 2.65563E-02-1.37668E-15 1.48849E-01-2.10289E-15-1.39414E-15
 -1      1173 3.70415E-02 2.73827E-02 5.91519E-16 1.09562E-01 4.16483E-15-1.71679E-15
 -1      1174-5.60376E-03 3.42893E-02-1.72432E-15 6.76254E-02 3.71756E-16-8.88695E-16
 -1      1175-5.28156E-02 4.44048E-02 2.67496E-15 2.34885E-02 4.45669E-16 2.47218E-15
 -1      1176-1.02977E-01 5.58854E-02 2.04282E-15-2.16171E-02-6.18321E-15-1.42141E-15
 -1      1177-1.58218E-01 7.02568E-02-2.48692E-15-6.82236E-02-5.69542E-16-6.64837E-15
 -1      1178 8.57086E-02 4.94101E-02 7.77180E-17 1.96184E-01 8.41807E-15 3.78283E-15
 -1      1179 5.65545E-02 4.56031E-02 6.47428E-15 1.53385E-01 5.89450E-15 5.07599E-15
 -1      1180 2.06815E-02 4.69629E-02-1.61607E-15 1.11484E-01-1.03485E-14-2.16450E-15
 -1      1181-1.98118E-02 5.18540E-02-1.03863E-16 7.10352E-02 3.40006E-15 1.20734E-15
 -1      1182-6.22691E-02 5.77725E-02 2.48692E-15 3.18132E-02-9.09998E-15-3.41000E-15
 -1      1183-1.05335E-01 6.33887E-02-3.64156E-15-8.70687E-03-3.87032E-15 3.39586E-15
 -1      1184-1.50491E-01 6.95842E-02-6.39492E-15-5.33608E-02-1.61312E-15-1.31465E-15
 -1      1185 7.62992E-02 5.64555E-02 9.38884E-15 1.94058E-01-1.83619E-14-6.72962E-16
 -1      1186 4.00857E-02 5.95288E-02 3.21058E-15 1.51005E-01-3.23090E-15-8.88733E-15
 -1      1187-1.78469E-03 6.67782E-02-6.40575E-16 1.14732E-01-9.95449E-15 5.91647E-15
 -1      1188-4.08001E-02 7.16451E-02-3.65841E-15 8.45637E-02 1.53852E-14 6.69164E-15
 -1      1189-7.25959E-02 7.09471E-02 3.41623E-15 5.39504E-02-1.10740E-14-2.85807E-14
 -1      1190-9.99717E-02 6.67048E-02-2.66007E-15 1.60870E-02 1.12897E-14-1.10577E-15
 -1      1191-1.29267E-01 6.49304E-02 5.73619E-16-3.17534E-02 3.19289E-14-1.40156E-14
 -1      1192 4.52264E-02 6.77740E-02 5.50674E-15 1.71843E-01 3.99069E-14 3.84292E-15
 -1      1193-9.81215E-03 8.83951E-02 4.51226E-15 1.47143E-01 6.87989E-15-1.22649E-14
 -1      1194-4.22367E-02 9.71473E-02 6.50595E-15 1.34925E-01 1.26305E-14-3.64178E-15
 -1      1195-5.49124E-02 9.19995E-02 8.64777E-16 1.19293E-01 2.92921E-14 6.25414E-16
 -1      1196-5.71814E-02 7.76071E-02-8.22566E-15 9.15119E-02 1.17342E-14 2.15159E-14
 -1      1197-5.92768E-02 5.90442E-02 3.55265E-16 4.76205E-02-3.43640E-15-6.25862E-15
 -1      1198-7.55112E-02 4.19146E-02-4.85136E-15-1.51974E-02-4.76734E-14-4.72056E-15
 -1      1199 2.36890E-02 3.95125E-02-1.41748E-29 1.19383E-01-1.58040E-14-1.28728E-14
 -1      1200 3.39793E-02-1.03952E-04-3.06223E-32 7.14456E-02-1.43794E-17 3.06298E-17
 -1      1201 8.37630E-02 4.12661E-02 7.75978E-15 1.63825E-01-2.77271E-14-6.87901E-15
 -1      1202 9.50478E-02 5.76271E-02 7.75980E-15 2.29041E-01 1.82435E-14-7.32578E-15
 -1      1203 1.02405E-01 6.09959E-02 5.37751E-15 2.40290E-01 2.19822E-14-2.14919E-15
 -1      1204 9.90922E-02 5.91560E-02 3.60634E-15 2.34236E-01 8.91210E-16 2.47759E-15
 -1      1205 8.64026E-02 5.15129E-02-1.50471E-15 2.06681E-01-6.66226E-16-1.20273E-15
 -1      1206 6.44852E-02 3.85881E-02-6.71690E-16 1.59538E-01-6.99212E-16 2.54833E-16
 -1      1207 4.32196E-02 2.79069E-02 9.29818E-17 1.11442E-01 2.46143E-16 8.18189E-16
 -1      1208 3.63707E-02 1.92852E-02 1.42942E-16 8.02575E-02-9.97395E-17 5.28321E-17
 -1      1209 8.37630E-02 4.12661E-02-7.75978E-15 1.63825E-01 2.67938E-14-9.78985E-15
 -1      1210 9.50478E-02 5.76271E-02-7.75980E-15 2.29041E-01-2.06857E-14 5.30674E-15
 -1      1211 1.02405E-01 6.09959E-02-5.37751E-15 2.40290E-01-1.45016E-14-1.20280E-15
 -1      1212 9.90922E-02 5.91560E-02-3.60634E-15 2.34236E-01-1.53114E-15-2.24835E-15
 -1      1213 8.64026E-02 5.15129E-02 1.50471E-15 2.06681E-01-5.63593E-16-2.46937E-16
 -1      1214 6.44852E-02 3.85881E-02 6.71690E-16 1.59538E-01-3.86892E-17 2.72458E-16
 -1      1215 4.32196E-02 2.79069E-02-9.29818E-17 1.11442E-01 2.02713E-16-7.41171E-16
 -1      1216 3.63707E-02 1.92852E-02-1.42942E-16 8.02575E-02 1.50754E-16 1.68019E-16
 -1      1217-4.24609E-02 4.79673E-02 1.42981E-30-6.21401E-03 1.12895E-14-6.89929E-15
 -1      1218-4.02855E-02 9.51737E-02 1.84298E-15 5.08409E-02-1.96696E-14-2.25947E-14
 -1      1219-6.29462E-02 1.70882E-01 1.16019E-15 1.03347E-01-6.06159E-15-6.70093E-15
 -1      1220-7.37896E-02 1.88268E-01-1.00474E-14 1.15360E-01-8.93819E-15-1.27209E-16
 -1      1221-7.66698E-02 1.84108E-01-5.43555E-15 1.22410E-01 1.57536E-14 5.03004E-15
 -1      1222-7.72708E-02 1.68528E-01 7.92591E-15 1.30031E-01 5.98452E-14 1.95910E-14
 -1      1223-7.97739E-02 1.46066E-01 1.39889E-14 1.38226E-01 4.90906E-14 2.29580E-14
 -1      1224-8.17705E-02 1.19744E-01 1.43886E-14 1.39579E-01 7.96557E-15 5.42844E-15
 -1      1225-3.31158E-02 7.45149E-02 8.03806E-15 1.24974E-01-4.77902E-14 3.44583E-15
 -1      1226-4.02855E-02 9.51737E-02-1.84298E-15 5.08409E-02 4.37888E-14 8.87990E-15
 -1      1227-6.29462E-02 1.70882E-01-1.16019E-15 1.03347E-01 2.65239E-14 8.24788E-15
 -1      1228-7.37896E-02 1.88268E-01 1.00474E-14 1.15360E-01 2.12086E-14 1.58918E-15
 -1      1229-7.66698E-02 1.84108E-01 5.43555E-15 1.22410E-01 2.69013E-14 3.28549E-15
 -1      1230-7.72708E-02 1.68528E-01-7.92591E-15 1.30031E-01 1.58203E-15 9.68360E-15
 -1      1231-7.97739E-02 1.46066E-01-1.39889E-14 1.38226E-01-1.15815E-14 1.86824E-15
 -1      1232-8.17705E-02 1.19744E-01-1.43886E-14 1.39579E-01 1.35610E-15-1.36034E-15
 -1      1233-3.31158E-02 7.45149E-02-8.03806E-15 1.24974E-01 2.48461E-14-1.16631E-14
 -1      1234-4.80095E-01-7.06703E-04 3.46667E-33 9.97225E-02 6.11031E-17-6.72354E-17
 -1      1235-3.95213E-01 1.14316E-01 8.32676E-17-5.72873E-02-1.96925E-16 8.76758E-17
 -1      1236-2.34049E-01 1.19049E-01-1.16574E-16-1.53523E-01 3.29994E-16 7.27729E-16
 -1      1237-2.32029E-01 8.75700E-02-5.68471E-16-1.19372E-01-2.72966E-15 1.02763E-15
 -1      1238-2.25584E-01 9.18307E-02 1.06931E-15-1.19186E-01-7.13539E-17-2.22860E-15
 -1      1239-2.11766E-01 8.46586E-02-5.44791E-16-1.10698E-01 5.66903E-15 3.71842E-15
 -1      1240-1.83335E-01 7.33324E-02-2.51564E-15-9.60421E-02-1.67980E-15 3.28769E-15
 -1      1241-1.43667E-01 5.99886E-02-3.43367E-15-7.38747E-02 2.63805E-14 7.21684E-15
 -1      1242-9.67223E-02 2.39567E-02-5.65414E-15-4.45364E-02 1.04708E-14-8.77203E-15
 -1      1243-3.95213E-01 1.14316E-01-8.32676E-17-5.72873E-02 4.65150E-17-5.46787E-16
 -1      1244-2.34049E-01 1.19049E-01 1.16574E-16-1.53523E-01-8.33856E-16 4.18522E-16
 -1      1245-2.32029E-01 8.75700E-02 5.68471E-16-1.19372E-01 1.97025E-15-1.82596E-15
 -1      1246-2.25584E-01 9.18307E-02-1.06931E-15-1.19186E-01-2.70706E-15-3.20914E-15
 -1      1247-2.11766E-01 8.46586E-02 5.44791E-16-1.10698E-01-1.65460E-15 1.68465E-15
 -1      1248-1.83335E-01 7.33324E-02 2.51564E-15-9.60421E-02 6.11363E-15-3.38180E-15
 -1      1249-1.43667E-01 5.99886E-02 3.43367E-15-7.38747E-02-2.21962E-14-4.52653E-15
 -1      1250-9.67223E-02 2.39567E-02 5.65414E-15-4.45364E-02-1.41106E-14-2.07960E-15
 -1      1251 4.48616E-02-1.08361E-04-2.49637E-22 8.16311E-02-1.34410E-17 1.46954E-18
 -1      1252 6.60820E-02-3.02708E-05 1.24997E-22 8.93494E-02 2.41310E-17 1.33218E-17
 -1      1253 7.92506E-02 3.64599E-05 1.52706E-22 7.91480E-02 6.02690E-17 1.40334E-17
 -1      1254 7.68324E-02 9.54559E-05 4.68852E-23 5.59847E-02 3.45885E-17 1.36165E-17
 -1      1255 5.49903E-02 1.40098E-04-1.25956E-22 2.61139E-02 1.10877E-17 9.32759E-18
 -1      1256 1.11692E-02 2.00519E-04-2.14353E-22-4.42374E-03-4.94388E-18-4.65931E-17
 -1      1257-4.98176E-02 2.35737E-04 2.55640E-22-2.41979E-02-4.01506E-18 7.05907E-17
 -1      1258-2.57949E-01-7.21671E-04 1.86051E-22 3.33606E-02 1.23148E-17 3.78627E-17
 -1      1259 4.48616E-02-1.08361E-04 2.49637E-22 8.16311E-02 7.01008E-18-2.17415E-18
 -1      1260 6.60820E-02-3.02708E-05-1.24997E-22 8.93494E-02-3.60947E-17-1.87563E-17
 -1      1261 7.92506E-02 3.64599E-05-1.52706E-22 7.91480E-02-3.36778E-17-1.54829E-17
 -1      1262 7.68324E-02 9.54559E-05-4.68852E-23 5.59847E-02-2.54195E-17-1.73167E-17
 -1      1263 5.49903E-02 1.40098E-04 1.25956E-22 2.61139E-02-7.14417E-18-1.49243E-17
 -1      1264 1.11692E-02 2.00519E-04 2.14353E-22-4.42374E-03-2.41561E-18-5.41703E-18
 -1      1265-4.98176E-02 2.35737E-04-2.55640E-22-2.41979E-02 1.52356E-18-9.26147E-17
 -1      1266-2.57949E-01-7.21671E-04-1.86051E-22 3.33606E-02-6.43305E-17 9.41106E-17
 -1      1267 9.43641E-02 5.53493E-02-9.68820E-30 2.21489E-01 1.61091E-14-8.66637E-15
 -1      1268 1.06279E-01 5.96056E-02 3.11808E-30 2.37995E-01 8.41731E-15-6.73100E-16
 -1      1269 1.06301E-01 5.96371E-02-4.11379E-31 2.40914E-01 8.40260E-15 8.42321E-16
 -1      1270 1.00548E-01 5.47276E-02-4.16001E-31 2.24298E-01-1.10141E-15-2.40534E-15
 -1      1271 8.40521E-02 4.44766E-02-2.19556E-32 1.83358E-01-4.59783E-16 1.08714E-16
 -1      1272 5.92050E-02 3.17816E-02 1.30674E-31 1.28765E-01-4.20881E-16-1.57514E-16
 -1      1273 3.71745E-02 2.54985E-02-3.22714E-32 9.23117E-02 3.73665E-16 2.79657E-16
 -1      1274-6.11628E-02 1.46415E-01-1.55307E-30 9.59200E-02 8.82144E-15-5.70697E-15
 -1      1275-7.53785E-02 1.87034E-01-6.95030E-30 1.12915E-01 1.27524E-14-7.88950E-16
 -1      1276-7.89693E-02 1.89986E-01-6.86401E-30 1.19992E-01 2.25871E-15-3.36166E-15
 -1      1277-7.94252E-02 1.78268E-01 2.89660E-31 1.27070E-01 3.29389E-14 1.99115E-14
 -1      1278-8.03822E-02 1.58623E-01 5.71924E-30 1.36053E-01 2.13686E-14 1.82592E-14
 -1      1279-8.31283E-02 1.36335E-01 2.48984E-30 1.42939E-01 1.47212E-14 1.20015E-14
 -1      1280-6.82514E-02 1.06883E-01 3.63616E-30 1.32978E-01-3.43451E-15-1.97531E-15
 -1      1281-2.95431E-01 1.39612E-01 4.42964E-32-1.69842E-01-4.11485E-16 6.79791E-16
 -1      1282-2.22560E-01 8.31462E-02-3.50904E-31-1.23983E-01-8.51173E-16-5.50209E-16
 -1      1283-2.30074E-01 9.60979E-02 4.52979E-31-1.22149E-01-1.88954E-15-3.99375E-15
 -1      1284-2.20139E-01 8.71613E-02 7.33394E-31-1.16581E-01 2.45594E-15-4.35982E-15
 -1      1285-2.02033E-01 8.12951E-02-1.15864E-30-1.05833E-01 1.02880E-14 3.97156E-15
 -1      1286-1.63498E-01 6.30487E-02 1.01073E-30-8.63074E-02 3.28497E-15-6.82390E-16
 -1      1287-1.34788E-01 5.91101E-02-5.00434E-30-8.15972E-02 3.38375E-15-3.69590E-15
 -1      1288 5.52213E-02-6.94465E-05 1.04000E-32 8.89547E-02 5.02880E-18 2.55639E-18
 -1      1289 7.33845E-02 2.31571E-06 4.47779E-33 8.70807E-02-1.03223E-18-1.26396E-17
 -1      1290 8.00736E-02 6.49858E-05-2.48565E-33 6.95571E-02-1.43221E-17-9.60687E-19
 -1      1291 6.80995E-02 1.16617E-04 2.88889E-34 4.20002E-02-9.48664E-18 3.21142E-18
 -1      1292 3.56564E-02 1.68464E-04-7.99261E-33 1.13018E-02-1.25603E-17 2.72161E-17
 -1      1293-2.26369E-02 2.14865E-04-1.61778E-32-1.67398E-02 5.81448E-18 2.07169E-17
 -1      1294-1.02829E-01-2.44506E-04 5.70075E-32-2.36669E-02 3.60038E-17-1.27785E-16
 -1      1295 6.78452E-02 6.10760E-02 4.11823E-15 1.95591E-01 1.46790E-14-2.00801E-14
 -1      1296 9.25679E-03 7.99559E-02 4.39650E-15 1.43439E-01-1.43458E-14-5.23306E-15
 -1      1297 1.38787E-02 7.81448E-02-5.00950E-15 1.59765E-01 1.36179E-14-1.30347E-14
 -1      1298-3.58450E-02 1.04200E-01 4.98257E-15 1.41568E-01 2.43032E-14 9.41583E-16
 -1      1299-2.74734E-02 9.26962E-02-5.50911E-15 1.40902E-01 1.07585E-14-1.09684E-14
 -1      1300-5.91343E-02 1.12791E-01 3.49722E-15 1.40918E-01 2.33757E-14 9.87930E-15
 -1      1301-4.86489E-02 9.45107E-02-3.68537E-15 1.27071E-01-4.50403E-15-2.26525E-15
 -1      1302-6.70565E-02 1.10167E-01 7.43310E-16 1.33252E-01 5.44853E-15 4.91039E-15
 -1      1303-5.49590E-02 8.47460E-02 3.68045E-15 1.05377E-01-5.13888E-15-3.40536E-15
 -1      1304-6.69929E-02 9.91286E-02-2.49840E-15 1.17009E-01-8.25758E-15-3.25452E-15
 -1      1305-5.62644E-02 6.85082E-02 3.93521E-15 6.96672E-02 5.60733E-15-3.47796E-15
 -1      1306-6.35575E-02 7.90523E-02-3.61380E-15 8.94990E-02 4.09555E-15 5.78996E-15
 -1      1307-6.48524E-02 5.28125E-02 2.24804E-15 1.68858E-02 2.38719E-14 8.91638E-15
 -1      1308-6.42881E-02 5.29503E-02 7.02204E-15 4.28586E-02 5.05328E-15 3.70245E-15
 -1      1309-9.92325E-02 4.86702E-02-4.75077E-16-4.79187E-02 5.15113E-14 8.69740E-15
 -1      1310 9.16819E-02 5.79392E-02-3.80624E-15 2.15789E-01 3.66491E-14-3.90934E-15
 -1      1311 6.26512E-02 6.09186E-02-7.44779E-15 1.82584E-01 4.19362E-15-1.05965E-14
 -1      1312 5.83967E-02 5.80489E-02-6.29970E-15 1.71712E-01 6.09264E-16-3.47150E-15
 -1      1313 2.07406E-02 7.14726E-02-3.86141E-15 1.46418E-01 1.76909E-15-3.03507E-15
 -1      1314 1.78244E-02 6.34253E-02-1.28500E-15 1.32821E-01-3.63528E-15 9.07498E-16
 -1      1315-1.84629E-02 8.02689E-02-2.93269E-15 1.20927E-01 8.58672E-15 5.20338E-16
 -1      1316-2.24570E-02 6.92298E-02 2.14949E-15 1.00053E-01 7.29508E-16 2.95800E-15
 -1      1317-4.78560E-02 8.14294E-02 1.39682E-15 9.92589E-02-6.37731E-15-1.37330E-15
 -1      1318-5.69260E-02 7.12923E-02 1.21089E-16 6.97464E-02 3.22754E-15 9.42645E-15
 -1      1319-6.79039E-02 7.43275E-02 2.40472E-15 7.23586E-02 5.24671E-15 2.19347E-15
 -1      1320-8.55450E-02 6.88103E-02-3.78081E-16 3.55447E-02-2.09937E-15 1.00637E-14
 -1      1321-8.47644E-02 6.30355E-02 1.15240E-15 3.40750E-02-1.06306E-15 4.50446E-15
 -1      1322-1.12930E-01 6.49450E-02 1.04322E-15-7.47980E-03-2.03880E-14 9.12873E-15
 -1      1323-1.06816E-01 5.35494E-02 2.13887E-15-1.72385E-02 1.31611E-14 9.74625E-15
 -1      1324-1.45112E-01 6.46673E-02-8.19725E-16-5.93075E-02-1.41163E-14 8.08772E-15
 -1      1325 9.65934E-02 5.44254E-02 4.45046E-15 2.18358E-01 9.05048E-15-3.14061E-15
 -1      1326 7.73075E-02 5.37989E-02-4.73327E-15 1.96465E-01 1.53654E-14-3.86969E-15
 -1      1327 7.18417E-02 4.74396E-02-3.27600E-15 1.74636E-01 9.51811E-15-4.16553E-15
 -1      1328 4.63036E-02 5.25120E-02-4.84243E-15 1.53539E-01 1.18763E-16-1.48722E-15
 -1      1329 3.90539E-02 4.62943E-02-2.42910E-15 1.32290E-01 6.02215E-15-4.51171E-15
 -1      1330 9.96669E-03 5.61660E-02 1.12833E-15 1.13483E-01 9.09190E-15 3.72648E-16
 -1      1331 5.06971E-04 4.95072E-02 8.59965E-16 9.11896E-02 8.37905E-15-1.60784E-15
 -1      1332-2.86123E-02 6.12424E-02 1.88114E-15 7.71496E-02-5.91340E-15 2.62152E-15
 -1      1333-4.10841E-02 5.49233E-02-1.19153E-15 5.15399E-02 5.67234E-15-1.17676E-15
 -1      1334-6.60676E-02 6.45768E-02-2.95158E-15 4.19081E-02 8.09567E-15 1.00703E-14
 -1      1335-8.35033E-02 6.06146E-02 5.77322E-16 1.18087E-02-7.91184E-16 2.25821E-15
 -1      1336-1.02171E-01 6.60466E-02 3.15082E-15 3.17046E-03-3.73826E-15 4.19525E-16
 -1      1337-1.27038E-01 6.65923E-02 5.01824E-15-3.08177E-02 4.13260E-15-1.31305E-15
 -1      1338-1.40217E-01 6.83301E-02 2.91065E-15-4.25763E-02-9.77568E-15 5.99513E-15
 -1      1339-1.74960E-01 7.52797E-02 1.21473E-15-7.92440E-02 1.01092E-14 3.95253E-15
 -1      1340 9.92748E-02 4.45530E-02-1.59353E-15 2.05045E-01-2.51673E-15-6.35849E-16
 -1      1341 8.58131E-02 4.35277E-02-7.49406E-16 1.93313E-01-5.55894E-16-2.65212E-15
 -1      1342 8.45755E-02 3.06289E-02-2.22019E-17 1.67445E-01-2.35674E-15 2.71569E-15
 -1      1343 6.09834E-02 3.72025E-02-2.54880E-15 1.52629E-01 2.79259E-15-1.21728E-15
 -1      1344 5.55521E-02 2.69324E-02 3.92582E-16 1.29257E-01-3.37540E-15 2.65146E-15
 -1      1345 2.72731E-02 3.78643E-02 5.12278E-16 1.11375E-01 3.21142E-15-7.35083E-16
 -1      1346 1.66072E-02 3.07468E-02 5.66399E-16 8.88078E-02-4.32635E-15 5.20637E-16
 -1      1347-1.29284E-02 4.32938E-02 9.14093E-16 6.96392E-02 2.77447E-15 1.07599E-15
 -1      1348-2.88088E-02 3.93585E-02-4.75315E-16 4.59018E-02 5.23018E-16-8.35900E-17
 -1      1349-5.71715E-02 5.10496E-02-2.58094E-15 2.76578E-02 3.84898E-15-4.78226E-16
 -1      1350-7.78059E-02 5.03125E-02-2.35889E-15 1.23687E-03-1.02146E-16-2.14576E-15
 -1      1351-1.04111E-01 5.96544E-02 7.99364E-16-1.52050E-02 4.02638E-15 1.20534E-15
 -1      1352-1.30193E-01 6.29801E-02 2.22043E-16-4.47892E-02 1.10001E-15 1.68751E-15
 -1      1353-1.54553E-01 7.01896E-02 4.44092E-15-6.07163E-02 4.58498E-15 3.38830E-15
 -1      1354-1.87918E-01 7.87983E-02 2.68140E-15-9.22473E-02 7.33799E-15-2.67090E-15
 -1      1355 9.63793E-02 2.83205E-02-2.66454E-16 1.72301E-01-9.63520E-16-8.16838E-16
 -1      1356 9.18100E-02 2.48739E-02-3.55273E-16 1.77457E-01-1.54214E-15-1.31050E-16
 -1      1357 9.95533E-02 6.08714E-03 3.66289E-16 1.48491E-01 2.69896E-16-2.92447E-16
 -1      1358 7.72447E-02 1.33443E-02 6.99359E-16 1.45424E-01 9.80756E-16 1.57142E-15
 -1      1359 7.93495E-02-1.39581E-03-2.33235E-16 1.21782E-01 1.26590E-15 2.56862E-16
 -1      1360 4.63530E-02 1.38568E-02-5.40014E-16 1.10260E-01-2.05809E-15 6.64438E-16
 -1      1361 4.03207E-02 4.01500E-03-5.14078E-16 9.04163E-02-2.06172E-16 7.47709E-16
 -1      1362 3.05355E-03 2.32195E-02 5.92336E-16 7.08187E-02-7.79858E-16 4.78718E-16
 -1      1363-1.31588E-02 1.97122E-02 7.73789E-16 5.20942E-02-8.07277E-16 1.28825E-15
 -1      1364-4.81495E-02 3.76842E-02-2.93861E-16 2.63924E-02 1.54641E-15-1.00974E-15
 -1      1365-7.39046E-02 4.05859E-02 8.16584E-16 5.03036E-03-6.14930E-17-1.53766E-15
 -1      1366-1.02869E-01 5.33903E-02-1.24845E-15-2.16719E-02 1.29451E-15 5.68763E-16
 -1      1367-1.33234E-01 6.06395E-02-1.42695E-15-4.74950E-02-1.63039E-15 1.50707E-15
 -1      1368-1.60218E-01 6.86480E-02 4.35420E-17-7.04811E-02-4.47165E-16-7.28699E-17
 -1      1369-1.94894E-01 8.10401E-02-1.56855E-15-9.82044E-02-5.29738E-15 2.62428E-15
 -1      1370 8.19368E-02 1.40844E-02-6.09800E-17 1.28405E-01-2.72596E-16 1.39899E-15
 -1      1371 9.23084E-02 4.15078E-03 3.44254E-16 1.48551E-01-6.58060E-16-1.06258E-16
 -1      1372 1.05745E-01-1.35174E-02 1.70103E-16 1.20023E-01-3.30038E-16 5.82311E-16
 -1      1373 9.42838E-02-1.46320E-02 1.92138E-16 1.29443E-01 3.69461E-16-2.73208E-17
 -1      1374 1.02476E-01-2.78420E-02 8.19147E-17 1.04955E-01-6.86218E-16 1.28405E-17
 -1      1375 7.19871E-02-1.77252E-02-3.43459E-16 1.05852E-01 1.08483E-15 4.13786E-16
 -1      1376 7.34233E-02-2.70458E-02 3.54773E-16 8.60188E-02-3.84678E-16 1.74296E-16
 -1      1377 2.82569E-02-6.50596E-03 1.84154E-16 7.70814E-02-1.75312E-16 3.09863E-16
 -1      1378 1.91500E-02-1.03270E-02 1.58560E-16 6.16484E-02 4.71236E-16 3.92407E-16
 -1      1379-3.26015E-02 1.72163E-02 7.48196E-16 3.95820E-02 5.16173E-16 9.63770E-16
 -1      1380-5.76569E-02 2.05821E-02-1.98654E-16 2.63691E-02-3.68260E-16 5.84293E-16
 -1      1381-1.03059E-01 4.82416E-02-1.30267E-16-1.12372E-02-5.29849E-16-9.29704E-16
 -1      1382-1.45748E-01 6.13789E-02 4.07633E-16-2.81006E-02 1.89247E-16-2.52583E-15
 -1      1383-1.71934E-01 7.62223E-02-8.89051E-16-7.20786E-02-2.63760E-16-4.26186E-16
 -1      1384-2.11962E-01 8.70245E-02 1.11025E-16-9.79546E-02-2.49453E-16 5.80552E-16
 -1      1385 5.64015E-02 1.20303E-02 1.34417E-16 9.69222E-02 1.65261E-16-1.08542E-16
 -1      1386 8.10347E-02-3.39727E-03-1.95449E-17 1.15372E-01-1.11582E-16 2.90724E-16
 -1      1387 8.88096E-02-1.12032E-02-6.73047E-17 9.51163E-02 7.81570E-17 1.21988E-16
 -1      1388 9.90199E-02-2.71707E-02 1.22343E-16 1.06740E-01-3.70281E-16 1.50167E-16
 -1      1389 1.03646E-01-2.91496E-02-8.22246E-17 8.38349E-02 3.22097E-17 4.13630E-16
 -1      1390 9.25624E-02-3.82125E-02-1.22654E-16 9.15063E-02-3.76957E-17 2.73247E-16
 -1      1391 9.34983E-02-3.67705E-02-2.52456E-17 6.78022E-02 2.20093E-16 3.31445E-16
 -1      1392 5.96486E-02-3.48820E-02 4.52181E-16 7.32925E-02 5.05258E-16 1.08702E-16
 -1      1393 5.64936E-02-3.28780E-02 6.78207E-17 5.14860E-02 1.74228E-16-1.42818E-16
 -1      1394-5.05104E-04-1.44106E-02-2.25800E-16 5.13312E-02-4.98262E-17 2.94074E-16
 -1      1395-1.28920E-02-1.25529E-02 1.15418E-16 3.76387E-02 2.86178E-16 3.20287E-16
 -1      1396-8.87045E-02 2.44991E-02 1.42564E-16 1.90428E-02 2.86166E-16 2.90382E-17
 -1      1397-1.24878E-01 4.10977E-02-1.37650E-16 8.26349E-03 2.96409E-16-3.14948E-16
 -1      1398-1.85500E-01 7.75216E-02 1.27418E-16-4.22606E-02-1.70210E-16-9.62578E-16
 -1      1399-2.50939E-01 9.39026E-02-1.00179E-16-7.41113E-02-4.24953E-17 1.04839E-15
 -1      1400 6.28450E-02 4.35776E-03-8.52498E-18 9.19211E-02 4.47978E-18-5.19314E-17
 -1      1401 8.38563E-02-1.14677E-02-5.87796E-17 8.99621E-02-1.96418E-16-3.93019E-17
 -1      1402 8.82119E-02-2.21093E-02-2.34449E-17 7.57364E-02 1.97663E-16 2.54840E-16
 -1      1403 7.06776E-02-2.65690E-02-1.80043E-18 5.49487E-02 5.58198E-17 8.76939E-17
 -1      1404 2.85639E-02-2.47830E-02 6.96212E-17 3.32486E-02 1.25255E-17-1.50863E-16
 -1      1405-4.52107E-02-1.13026E-02 4.57971E-17 1.74895E-02 1.07502E-16 2.81321E-16
 -1      1406-1.67264E-01 4.68563E-02-1.83446E-16-6.73961E-03-2.33517E-16-5.67986E-17
 -1      1407 5.64015E-02 1.20303E-02-1.34417E-16 9.69222E-02 2.22706E-16-4.56407E-17
 -1      1408 6.28450E-02 4.35776E-03 8.52498E-18 9.19211E-02 9.19687E-17-2.99295E-17
 -1      1409 8.88096E-02-1.12032E-02 6.73047E-17 9.51163E-02 2.88595E-16-9.12985E-17
 -1      1410 8.38563E-02-1.14677E-02 5.87796E-17 8.99621E-02 2.16908E-16-1.57831E-16
 -1      1411 1.03646E-01-2.91496E-02 8.22246E-17 8.38349E-02-1.74386E-16-2.43930E-16
 -1      1412 8.82119E-02-2.21093E-02 2.34449E-17 7.57364E-02-1.84594E-16-1.77092E-16
 -1      1413 9.34983E-02-3.67705E-02 2.52456E-17 6.78022E-02-4.37198E-16-3.17782E-16
 -1      1414 7.06776E-02-2.65690E-02 1.80043E-18 5.49487E-02 1.18430E-18 4.26193E-17
 -1      1415 5.64936E-02-3.28780E-02-6.78207E-17 5.14860E-02 6.90521E-17-4.35301E-17
 -1      1416 2.85639E-02-2.47830E-02-6.96212E-17 3.32486E-02 5.92539E-17 1.43767E-16
 -1      1417-1.28920E-02-1.25529E-02-1.15418E-16 3.76387E-02 2.39648E-16 1.18518E-17
 -1      1418-4.52107E-02-1.13026E-02-4.57971E-17 1.74895E-02 3.22672E-17-1.79180E-16
 -1      1419-1.24878E-01 4.10977E-02 1.37650E-16 8.26349E-03 1.09947E-16 2.65401E-16
 -1      1420-1.67264E-01 4.68563E-02 1.83446E-16-6.73961E-03 1.02582E-16-3.04796E-16
 -1      1421-2.50939E-01 9.39026E-02 1.00179E-16-7.41113E-02 9.93618E-16-1.80322E-15
 -1      1422 8.19368E-02 1.40844E-02 6.09800E-17 1.28405E-01 2.19596E-17-6.64561E-16
 -1      1423 8.10347E-02-3.39727E-03 1.95449E-17 1.15372E-01 2.71171E-18-1.66195E-16
 -1      1424 1.05745E-01-1.35174E-02-1.70103E-16 1.20023E-01 2.92696E-16 3.04136E-16
 -1      1425 9.90199E-02-2.71707E-02-1.22343E-16 1.06740E-01 4.10396E-18 4.10778E-18
 -1      1426 1.02476E-01-2.78420E-02-8.19147E-17 1.04955E-01 1.49022E-16 1.97047E-16
 -1      1427 9.25624E-02-3.82125E-02 1.22654E-16 9.15063E-02 6.01620E-17-9.63030E-17
 -1      1428 7.34233E-02-2.70458E-02-3.54773E-16 8.60188E-02-5.13927E-16 4.44280E-16
 -1      1429 5.96486E-02-3.48820E-02-4.52181E-16 7.32925E-02-6.73985E-16 2.41349E-17
 -1      1430 1.91500E-02-1.03270E-02-1.58560E-16 6.16484E-02-2.46679E-16 1.72609E-18
 -1      1431-5.05104E-04-1.44106E-02 2.25800E-16 5.13312E-02 2.34185E-16-2.62307E-18
 -1      1432-5.76569E-02 2.05821E-02 1.98654E-16 2.63691E-02-2.76451E-16 4.34046E-16
 -1      1433-8.87045E-02 2.44991E-02-1.42564E-16 1.90428E-02-1.49780E-16-1.55189E-16
 -1      1434-1.45748E-01 6.13789E-02-4.07633E-16-2.81006E-02-3.84572E-16 2.22123E-15
 -1      1435-1.85500E-01 7.75216E-02-1.27418E-16-4.22606E-02-3.12055E-16 1.45985E-15
 -1      1436-2.11962E-01 8.70245E-02-1.11025E-16-9.79546E-02-1.12969E-15-1.22730E-15
 -1      1437 9.63793E-02 2.83205E-02 2.66454E-16 1.72301E-01 2.03056E-16 1.52878E-15
 -1      1438 9.23084E-02 4.15078E-03-3.44254E-16 1.48551E-01-3.13780E-16 3.99910E-16
 -1      1439 9.95533E-02 6.08714E-03-3.66289E-16 1.48491E-01-3.53688E-16 3.36440E-16
 -1      1440 9.42838E-02-1.46320E-02-1.92138E-16 1.29443E-01-1.77531E-16-1.57542E-17
 -1      1441 7.93495E-02-1.39581E-03 2.33235E-16 1.21782E-01-1.55226E-15-1.07265E-16
 -1      1442 7.19871E-02-1.77252E-02 3.43459E-16 1.05852E-01-8.94605E-16 2.78549E-16
 -1      1443 4.03207E-02 4.01500E-03 5.14078E-16 9.04163E-02-4.18053E-16-2.57285E-16
 -1      1444 2.82569E-02-6.50596E-03-1.84154E-16 7.70814E-02 5.50448E-16-5.18845E-17
 -1      1445-1.31588E-02 1.97122E-02-7.73789E-16 5.20942E-02 3.49258E-16-2.60373E-16
 -1      1446-3.26015E-02 1.72163E-02-7.48196E-16 3.95820E-02-6.41378E-16 3.19367E-16
 -1      1447-7.39046E-02 4.05859E-02-8.16584E-16 5.03036E-03 1.70472E-15-5.20048E-17
 -1      1448-1.03059E-01 4.82416E-02 1.30267E-16-1.12372E-02 9.63399E-16 5.98092E-16
 -1      1449-1.33234E-01 6.06395E-02 1.42695E-15-4.74950E-02 1.67166E-15 3.40366E-16
 -1      1450-1.71934E-01 7.62223E-02 8.89051E-16-7.20786E-02 6.93947E-16 1.43962E-15
 -1      1451-1.94894E-01 8.10401E-02 1.56855E-15-9.82044E-02 2.47906E-15-3.91727E-15
 -1      1452 9.92748E-02 4.45530E-02 1.59353E-15 2.05045E-01-1.23463E-15-2.41919E-15
 -1      1453 9.18100E-02 2.48739E-02 3.55273E-16 1.77457E-01 1.00637E-15-9.04370E-16
 -1      1454 8.45755E-02 3.06289E-02 2.22019E-17 1.67445E-01-7.05193E-16-1.52206E-15
 -1      1455 7.72447E-02 1.33443E-02-6.99359E-16 1.45424E-01-9.64663E-16-1.20269E-15
 -1      1456 5.55521E-02 2.69324E-02-3.92582E-16 1.29257E-01 1.40892E-15-1.17869E-15
 -1      1457 4.63530E-02 1.38568E-02 5.40014E-16 1.10260E-01 1.52215E-15-9.85241E-16
 -1      1458 1.66072E-02 3.07468E-02-5.66399E-16 8.88078E-02 2.09822E-15-1.08325E-15
 -1      1459 3.05355E-03 2.32195E-02-5.92336E-16 7.08187E-02 7.36394E-16-6.29576E-17
 -1      1460-2.88088E-02 3.93585E-02 4.75315E-16 4.59018E-02 6.32756E-16-1.20939E-15
 -1      1461-4.81495E-02 3.76842E-02 2.93861E-16 2.63924E-02 1.04891E-15 7.31993E-16
 -1      1462-7.78059E-02 5.03125E-02 2.35889E-15 1.23687E-03-2.82623E-15-2.23346E-15
 -1      1463-1.02869E-01 5.33903E-02 1.24845E-15-2.16719E-02 1.10271E-15 1.22350E-16
 -1      1464-1.30193E-01 6.29801E-02-2.22043E-16-4.47892E-02-2.15015E-15-2.72666E-15
 -1      1465-1.60218E-01 6.86480E-02-4.35420E-17-7.04811E-02-5.41257E-16-2.02994E-15
 -1      1466-1.87918E-01 7.87983E-02-2.68140E-15-9.22473E-02-2.11804E-15 2.13449E-15
 -1      1467 9.65934E-02 5.44254E-02-4.45046E-15 2.18358E-01 8.00198E-15-1.92984E-15
 -1      1468 8.58131E-02 4.35277E-02 7.49406E-16 1.93313E-01 1.33949E-15 1.16170E-15
 -1      1469 7.18417E-02 4.74396E-02 3.27600E-15 1.74636E-01 6.88109E-15 4.10867E-15
 -1      1470 6.09834E-02 3.72025E-02 2.54880E-15 1.52629E-01-2.23034E-15 8.33310E-16
 -1      1471 3.90539E-02 4.62943E-02 2.42910E-15 1.32290E-01-4.49172E-15 2.75244E-15
 -1      1472 2.72731E-02 3.78643E-02-5.12278E-16 1.11375E-01-1.22987E-16-1.92751E-16
 -1      1473 5.06971E-04 4.95072E-02-8.59965E-16 9.11896E-02-1.53025E-15-1.26707E-15
 -1      1474-1.29284E-02 4.32938E-02-9.14093E-16 6.96392E-02-1.56088E-15-2.80003E-15
 -1      1475-4.10841E-02 5.49233E-02 1.19153E-15 5.15399E-02-2.47735E-15-2.46740E-15
 -1      1476-5.71715E-02 5.10496E-02 2.58094E-15 2.76578E-02-1.72596E-15-2.09027E-15
 -1      1477-8.35033E-02 6.06146E-02-5.77322E-16 1.18087E-02-8.21033E-15 5.29984E-16
 -1      1478-1.04111E-01 5.96544E-02-7.99364E-16-1.52050E-02-4.15473E-15 9.13327E-16
 -1      1479-1.27038E-01 6.65923E-02-5.01824E-15-3.08177E-02-4.55608E-15 2.96626E-15
 -1      1480-1.54553E-01 7.01896E-02-4.44092E-15-6.07163E-02-3.34254E-15-2.96663E-15
 -1      1481-1.74960E-01 7.52797E-02-1.21473E-15-7.92440E-02 5.99556E-15 1.68626E-15
 -1      1482 9.16819E-02 5.79392E-02 3.80624E-15 2.15789E-01-2.53177E-14 1.48215E-15
 -1      1483 7.73075E-02 5.37989E-02 4.73327E-15 1.96465E-01-7.72728E-15 2.00428E-15
 -1      1484 5.83967E-02 5.80489E-02 6.29970E-15 1.71712E-01-1.85334E-14-2.51997E-15
 -1      1485 4.63036E-02 5.25120E-02 4.84243E-15 1.53539E-01 3.81080E-15 3.59419E-16
 -1      1486 1.78244E-02 6.34253E-02 1.28500E-15 1.32821E-01-1.01129E-14-2.65350E-15
 -1      1487 9.96669E-03 5.61660E-02-1.12833E-15 1.13483E-01-9.82048E-15 9.13513E-16
 -1      1488-2.24570E-02 6.92298E-02-2.14949E-15 1.00053E-01-5.27268E-15 5.06812E-15
 -1      1489-2.86123E-02 6.12424E-02-1.88114E-15 7.71496E-02 5.47977E-16 2.99507E-15
 -1      1490-5.69260E-02 7.12923E-02-1.21089E-16 6.97464E-02-2.85296E-15-6.75179E-15
 -1      1491-6.60676E-02 6.45768E-02 2.95158E-15 4.19081E-02-1.03529E-14-1.14450E-14
 -1      1492-8.55450E-02 6.88103E-02 3.78081E-16 3.55447E-02-6.81988E-15-1.19050E-14
 -1      1493-1.02171E-01 6.60466E-02-3.15082E-15 3.17046E-03 3.17778E-15-2.13969E-15
 -1      1494-1.12930E-01 6.49450E-02-1.04322E-15-7.47980E-03 1.78749E-14-1.82288E-15
 -1      1495-1.40217E-01 6.83301E-02-2.91065E-15-4.25763E-02 1.44517E-14-7.79082E-15
 -1      1496-1.45112E-01 6.46673E-02 8.19725E-16-5.93075E-02 1.41025E-14-2.99771E-15
 -1      1497 6.78452E-02 6.10760E-02-4.11823E-15 1.95591E-01 3.00584E-14-3.51539E-15
 -1      1498 6.26512E-02 6.09186E-02 7.44779E-15 1.82584E-01-2.01082E-15 1.71585E-15
 -1      1499 1.38787E-02 7.81448E-02 5.00950E-15 1.59765E-01 2.54825E-14-1.57089E-15
 -1      1500 2.07406E-02 7.14726E-02 3.86141E-15 1.46418E-01 1.56271E-15-3.81834E-15
 -1      1501-2.74734E-02 9.26962E-02 5.50911E-15 1.40902E-01 1.15467E-14-7.95604E-15
 -1      1502-1.84629E-02 8.02689E-02 2.93269E-15 1.20927E-01 5.69465E-15-1.61059E-15
 -1      1503-4.86489E-02 9.45107E-02 3.68537E-15 1.27071E-01 2.16214E-14-1.70488E-15
 -1      1504-4.78560E-02 8.14294E-02-1.39682E-15 9.92589E-02 1.73634E-14 1.86366E-15
 -1      1505-5.49590E-02 8.47460E-02-3.68045E-15 1.05377E-01 1.97730E-14 1.92674E-14
 -1      1506-6.79039E-02 7.43275E-02-2.40472E-15 7.23586E-02-1.33773E-16 9.00224E-16
 -1      1507-5.62644E-02 6.85082E-02-3.93521E-15 6.96672E-02 7.57995E-15 1.07616E-14
 -1      1508-8.47644E-02 6.30355E-02-1.15240E-15 3.40750E-02 5.93893E-16-3.39269E-15
 -1      1509-6.48524E-02 5.28125E-02-2.24804E-15 1.68858E-02-2.77256E-14-5.54856E-15
 -1      1510-1.06816E-01 5.35494E-02-2.13887E-15-1.72385E-02-4.43140E-15-9.34130E-15
 -1      1511-9.92325E-02 4.86702E-02 4.75077E-16-4.79187E-02-4.13511E-14-1.35239E-14
 -1      1512 9.25679E-03 7.99559E-02-4.39650E-15 1.43439E-01 2.04103E-14-4.25570E-16
 -1      1513-3.58450E-02 1.04200E-01-4.98257E-15 1.41568E-01-1.32649E-14-2.38620E-15
 -1      1514-5.91343E-02 1.12791E-01-3.49722E-15 1.40918E-01-6.01153E-15 1.77743E-15
 -1      1515-6.70565E-02 1.10167E-01-7.43310E-16 1.33252E-01 1.78156E-15 7.11753E-15
 -1      1516-6.69929E-02 9.91286E-02 2.49840E-15 1.17009E-01 2.86662E-14 1.38853E-14
 -1      1517-6.35575E-02 7.90523E-02 3.61380E-15 8.94990E-02-2.35345E-15 1.82845E-15
 -1      1518-6.42881E-02 5.29503E-02-7.02204E-15 4.28586E-02-3.24706E-15-6.23314E-15
 -1      1519 4.52294E-02 6.77804E-02 4.96736E-30 1.71858E-01 1.80854E-14-3.84016E-15
 -1      1520-9.81294E-03 8.84030E-02 2.90430E-30 1.47156E-01 1.49492E-14-9.27513E-15
 -1      1521-4.22400E-02 9.71561E-02 4.99509E-30 1.34937E-01 5.69534E-15-6.48154E-15
 -1      1522-5.49173E-02 9.20084E-02 2.94590E-30 1.19303E-01 1.33695E-14 4.32883E-15
 -1      1523-5.71873E-02 7.76153E-02-1.47834E-30 9.15200E-02 4.00878E-15 4.74743E-15
 -1      1524-5.92834E-02 5.90513E-02-1.28652E-30 4.76255E-02 4.50986E-15 5.54807E-15
 -1      1525-7.55191E-02 4.19202E-02-5.22081E-30-1.51969E-02-5.40566E-15 1.46992E-15
 -1      1526 7.63054E-02 5.64608E-02 2.91894E-30 1.94075E-01 2.26296E-17-1.02074E-15
 -1      1527 4.00886E-02 5.95345E-02 4.20623E-31 1.51018E-01-1.11346E-14-6.24038E-15
 -1      1528-1.78510E-03 6.67843E-02-2.26643E-30 1.14742E-01-2.66939E-15 5.19558E-15
 -1      1529-4.08035E-02 7.16514E-02-1.44830E-31 8.45717E-02 4.57975E-15 4.40037E-15
 -1      1530-7.26019E-02 7.09532E-02 3.00753E-30 5.39554E-02-1.37213E-15-2.89912E-15
 -1      1531-9.99801E-02 6.67106E-02 1.15171E-30 1.60885E-02-1.54154E-15 2.45578E-16
 -1      1532-1.29279E-01 6.49361E-02-3.79023E-31-3.17563E-02-1.73951E-15 6.26008E-16
 -1      1533 8.57159E-02 4.94146E-02-3.61304E-31 1.96202E-01 7.76721E-15-1.09159E-15
 -1      1534 5.65593E-02 4.56073E-02-6.93335E-33 1.53399E-01 8.72718E-15 5.57006E-16
 -1      1535 2.06831E-02 4.69671E-02 9.85306E-31 1.11494E-01-1.97447E-15-3.72113E-15
 -1      1536-1.98137E-02 5.18587E-02-1.10934E-31 7.10418E-02 5.08753E-15-1.88572E-15
 -1      1537-6.22747E-02 5.77777E-02 1.07236E-30 3.18163E-02-4.86179E-15-3.01842E-16
 -1      1538-1.05344E-01 6.33944E-02 1.03538E-30-8.70749E-03-5.74547E-16-1.05836E-15
 -1      1539-1.50505E-01 6.95905E-02-4.25245E-31-5.33655E-02 3.25183E-15 1.84821E-15
 -1      1540 9.43116E-02 3.45673E-02-2.51912E-31 1.86602E-01-3.51199E-15-1.13365E-15
 -1      1541 7.16626E-02 2.65588E-02-4.21393E-31 1.48862E-01-1.31749E-15 4.77101E-16
 -1      1542 3.70448E-02 2.73851E-02 3.92890E-32 1.09572E-01-1.96203E-15 3.63310E-16
 -1      1543-5.60427E-03 3.42923E-02-1.25571E-31 6.76317E-02 9.34545E-16-4.16881E-16
 -1      1544-5.28203E-02 4.44088E-02-8.28920E-31 2.34909E-02 1.92888E-16-4.52806E-16
 -1      1545-1.02986E-01 5.58905E-02-7.67290E-31-2.16188E-02-2.69027E-15-3.52451E-16
 -1      1546-1.58233E-01 7.02632E-02 1.50993E-31-6.82296E-02 1.20998E-16 4.90586E-16
 -1      1547 1.01329E-01 1.28199E-02-1.20371E-31 1.61527E-01 1.30756E-16 2.45435E-16
 -1      1548 9.20663E-02-1.31430E-03-7.24150E-32 1.36351E-01 9.03287E-16 1.55908E-16
 -1      1549 6.16354E-02-1.66466E-03 1.25571E-31 1.07627E-01-1.01374E-16-1.52036E-17
 -1      1550 1.44313E-02 9.96933E-03 1.79497E-31 7.30733E-02-2.00177E-16 3.78193E-16
 -1      1551-4.41816E-02 2.99597E-02-1.81230E-31 3.02220E-02 4.13820E-16-4.88399E-16
 -1      1552-1.05142E-01 5.13014E-02-1.79111E-32-2.12950E-02 1.11410E-15 3.53928E-16
 -1      1553-1.61415E-01 6.76457E-02 1.69482E-32-7.36731E-02-6.70903E-16 1.21121E-15
 -1      1554 9.63860E-02-3.18864E-03-2.07519E-32 1.27049E-01-1.83751E-16 2.79862E-16
 -1      1555 1.07237E-01-2.44806E-02-4.37186E-32 1.13927E-01-4.82014E-16 8.62135E-17
 -1      1556 9.09842E-02-3.14636E-02 3.83260E-32 9.68641E-02-3.86499E-16 2.58997E-16
 -1      1557 4.87649E-02-2.29670E-02-1.48682E-31 7.63584E-02-7.06285E-16 2.96735E-17
 -1      1558-1.86540E-02 1.54468E-03-1.93363E-31 4.85368E-02 1.69716E-16 2.66594E-16
 -1      1559-1.02343E-01 4.22592E-02 1.38282E-31 1.71344E-03-4.06664E-16 2.91944E-17
 -1      1560-1.83938E-01 8.51699E-02 7.70372E-33-6.75173E-02-4.06392E-16-6.64251E-16
 -1      1561 7.24741E-02 1.44813E-05 1.05926E-32 9.81637E-02 1.67571E-16-4.84698E-17
 -1      1562 9.89199E-02-2.25556E-02 1.30000E-32 9.09921E-02 1.61602E-17-5.94440E-17
 -1      1563 1.01835E-01-3.59296E-02 2.64514E-32 7.64262E-02-2.19528E-18 5.30081E-17
 -1      1564 7.84407E-02-3.83665E-02-1.35447E-32 5.98907E-02 8.47334E-17 5.76822E-18
 -1      1565 2.61243E-02-2.83507E-02 5.07001E-32 4.52672E-02 3.54264E-16-1.56383E-17
 -1      1566-6.36439E-02 4.30711E-03-8.44039E-32 3.34027E-02 2.44324E-16 2.21514E-16
 -1      1567-2.12842E-01 6.28019E-02-3.87593E-32 3.84041E-03 6.27213E-17-9.65759E-17
 -3
    1PSTEP                         4           1           1          
  100CL  101 1.000000000         531                     0    1           1
 -4  FORC        4    1
 -5  F1          1    2    1    0
 -5  F2          1    2    2    0
 -5  F3          1    2    3    0
 -5  ALL         1    2    0    0    1ALL
 -1      1037 2.74366E-12-5.20833E+00 6.38319E+00
 -1      1038-3.01997E-13-5.20833E+00-6.38319E+00
 -1      1039 1.19990E+01 1.21226E+01 9.24053E+00
 -1      1040 1.19990E+01 1.21226E+01-9.24053E+00
 -1      1041 1.75358E-13-5.20833E+00-1.99711E+00
 -1      1042 4.29194E-13-5.20833E+00 1.99711E+00
 -1      1043 2.21220E+00-4.86156E+01-9.62214E+00
 -1      1044 2.21220E+00-4.86156E+01 9.62214E+00
 -1      1045 4.41290E-12 1.69960E-12 1.38480E+01
 -1      1046 3.94239E-12-6.98131E-12 2.01340E+01
 -1      1047 1.90098E-12-4.75120E-12 2.36891E+01
 -1      1048 1.29279E-12-1.41884E-12 2.51080E+01
 -1      1049 2.55647E-14 3.99050E-13 2.41418E+01
 -1      1050-4.62946E-13 5.81049E-13 2.15251E+01
 -1      1051-9.11541E-14 7.61524E-14 1.84040E+01
 -1      1052 2.49231E-12 2.91735E-13-1.38480E+01
 -1      1053 2.63594E-12-4.55219E-12-2.01340E+01
 -1      1054 6.40767E-13-1.01749E-12-2.36891E+01
 -1      1055-2.78449E-13-1.91861E-12-2.51080E+01
 -1      1056 3.43388E-13-7.06153E-13-2.41418E+01
 -1      1057-7.26570E-13 5.02453E-13-2.15251E+01
 -1      1058 8.57568E-14 2.61175E-13-1.84040E+01
 -1      1059 4.83127E-12-1.04167E+01-3.62609E+00
 -1      1060 5.20410E-12-1.04167E+01 1.15922E-01
 -1      1061-2.30116E-12-1.04167E+01 2.54401E+00
 -1      1062-3.91165E-12-1.04167E+01 4.32974E+00
 -1      1063-7.95380E-12-1.04167E+01 6.10571E+00
 -1      1064-2.91654E-12-1.04167E+01 8.45218E+00
 -1      1065-2.18683E-12-1.04167E+01 1.17413E+01
 -1      1066 1.11897E-12-1.04167E+01 3.62609E+00
 -1      1067 4.64210E-12-1.04167E+01-1.15922E-01
 -1      1068-8.99655E-13-1.04167E+01-2.54401E+00
 -1      1069 4.19427E-12-1.04167E+01-4.32974E+00
 -1      1070-2.26634E-12-1.04167E+01-6.10571E+00
 -1      1071-1.11972E-12-1.04167E+01-8.45218E+00
 -1      1072 2.56499E-12-1.04167E+01-1.17413E+01
 -1      1073-4.03326E-13 2.99117E-13-4.06458E+01
 -1      1074-1.34385E-12 1.10414E-13-2.85425E+01
 -1      1075 9.29430E-13-9.18739E-13-2.32574E+01
 -1      1076 1.23628E-12-5.85063E-12-1.93102E+01
 -1      1077 4.62698E-13-2.97236E-12-1.53469E+01
 -1      1078 4.75615E-13-1.96996E-12-1.07723E+01
 -1      1079-2.90624E-12 1.91152E-12-4.85368E+00
 -1      1080-8.79547E-13 1.45655E-13 4.06458E+01
 -1      1081-1.16178E-12-1.27069E-13 2.85425E+01
 -1      1082-2.01057E-12-1.08210E-12 2.32574E+01
 -1      1083-1.84987E-13-5.04302E-12 1.93102E+01
 -1      1084 2.03082E-12 2.20914E-12 1.53469E+01
 -1      1085 4.15510E-13 8.04047E-14 1.07723E+01
 -1      1086-1.23098E-12-2.79020E-12 4.85368E+00
 -1      1087 2.63197E+01 2.23834E+01 1.83528E+01
 -1      1088 3.22876E+01 2.25268E+01 1.88205E+01
 -1      1089 3.37536E+01 1.85312E+01 1.62729E+01
 -1      1090 2.72361E+01 1.19750E+01 9.91401E+00
 -1      1091 1.08910E+01 4.93127E+00-8.61623E-01
 -1      1092-1.78078E+01-2.55979E+00-1.64947E+01
 -1      1093-5.25852E+01-3.30013E+01-3.79920E+01
 -1      1094 2.63197E+01 2.23834E+01-1.83528E+01
 -1      1095 3.22876E+01 2.25268E+01-1.88205E+01
 -1      1096 3.37536E+01 1.85312E+01-1.62729E+01
 -1      1097 2.72361E+01 1.19750E+01-9.91401E+00
 -1      1098 1.08910E+01 4.93127E+00 8.61623E-01
 -1      1099-1.78078E+01-2.55979E+00 1.64947E+01
 -1      1100-5.25852E+01-3.30013E+01 3.79920E+01
 -1      1101-6.85930E-12 1.16518E-11 2.59254E+01
 -1      1102 6.11671E-12-1.59171E-11 2.02123E+01
 -1      1103 9.12584E-12 1.27961E-12 1.52372E+01
 -1      1104-2.19036E-12 4.90935E-12 1.06064E+01
 -1      1105-3.79356E-13 1.05523E-11 5.82165E+00
 -1      1106 3.58437E-12-1.53967E-11 1.98381E-01
 -1      1107 3.84597E-12-1.24360E-11-7.16866E+00
 -1      1108 3.28825E-12-8.41092E-12 3.71570E+01
 -1      1109 2.90962E-12 4.69817E-12 2.76939E+01
 -1      1110 3.59745E-12-7.09951E-12 1.85201E+01
 -1      1111 7.68291E-13 4.37205E-13 9.64881E+00
 -1      1112-2.50744E-12-1.63662E-12 8.24420E-01
 -1      1113 5.29516E-12-8.70097E-12-8.32828E+00
 -1      1114-1.58358E-12 3.38384E-12-1.83080E+01
 -1      1115 5.09037E-12-1.11645E-11 4.38394E+01
 -1      1116 3.58795E-12-9.47929E-12 3.31703E+01
 -1      1117 9.88793E-13-1.42034E-12 2.20044E+01
 -1      1118 9.92229E-13-2.61007E-12 1.04415E+01
 -1      1119-1.18057E-12 1.11535E-12-1.43183E+00
 -1      1120 3.34989E-12-8.94413E-12-1.36697E+01
 -1      1121-3.85101E-13-4.13549E-12-2.64088E+01
 -1      1122-8.94897E-13 2.53379E-12 4.67357E+01
 -1      1123-1.47804E-12-1.10739E-12 3.60026E+01
 -1      1124-1.17263E-12 1.05092E-12 2.39477E+01
 -1      1125 1.23230E-13 1.12322E-12 1.07476E+01
 -1      1126-2.39163E-13-1.39343E-12-3.36476E+00
 -1      1127 3.35424E-13-1.65171E-12-1.81914E+01
 -1      1128 2.87730E-13-2.81471E-12-3.37185E+01
 -1      1129-2.29076E-13 5.57061E-14 4.52969E+01
 -1      1130 3.10523E-13-1.18976E-12 3.64300E+01
 -1      1131-1.51569E-13-2.46440E-12 2.47608E+01
 -1      1132-5.80374E-13 1.89650E-12 1.06573E+01
 -1      1133 9.72677E-14 8.08617E-13-5.34777E+00
 -1      1134-4.45058E-13-1.38713E-13-2.26271E+01
 -1      1135-2.67529E-13-7.94599E-13-4.04373E+01
 -1      1136-6.64397E-13 1.00346E-12 4.10457E+01
 -1      1137 1.19616E-13 8.73005E-13 3.59261E+01
 -1      1138 1.65141E-13 4.92376E-13 2.61715E+01
 -1      1139 1.14333E-13 2.61213E-13 1.19684E+01
 -1      1140-3.90170E-13 2.54946E-15-5.93977E+00
 -1      1141-2.21130E-15 7.79012E-13-2.69729E+01
 -1      1142 6.76887E-13-8.90206E-14-4.93380E+01
 -1      1143 1.20898E-13 3.69256E-13 3.71357E+01
 -1      1144-2.93975E-14 5.18046E-13 3.69406E+01
 -1      1145-3.85079E-14-2.26813E-13 3.11003E+01
 -1      1146 6.78225E-14-3.23918E-13 1.84046E+01
 -1      1147 2.81082E-14-4.48993E-14-1.32393E+00
 -1      1148-8.90447E-14-1.38234E-13-2.80870E+01
 -1      1149 6.26374E-13 6.92727E-14-5.76055E+01
 -1      1150-1.13860E-13 3.63295E-13-3.71357E+01
 -1      1151-4.88511E-13 3.46810E-13-3.69406E+01
 -1      1152-1.46563E-13 5.13388E-14-3.11003E+01
 -1      1153-1.25267E-13-7.24357E-14-1.84046E+01
 -1      1154-8.64207E-15 2.00253E-13 1.32393E+00
 -1      1155 2.86266E-13-8.75773E-14 2.80870E+01
 -1      1156 3.54866E-14 1.97863E-13 5.76055E+01
 -1      1157-3.63501E-13 8.29404E-13-4.10457E+01
 -1      1158 3.75978E-13 4.28965E-13-3.59261E+01
 -1      1159 4.01165E-13 5.14004E-13-2.61715E+01
 -1      1160 7.43826E-14-5.25851E-13-1.19684E+01
 -1      1161-2.80301E-13 5.02418E-13 5.93977E+00
 -1      1162-1.04682E-13 7.99751E-13 2.69729E+01
 -1      1163-2.27924E-14 2.43061E-13 4.93380E+01
 -1      1164 4.95717E-13-2.44110E-14-4.52969E+01
 -1      1165-1.12506E-13 2.89648E-13-3.64300E+01
 -1      1166 6.64985E-14-1.99610E-12-2.47608E+01
 -1      1167-1.30410E-13 2.04012E-12-1.06573E+01
 -1      1168-2.36651E-13 7.98752E-13 5.34777E+00
 -1      1169 2.84379E-13 1.04439E-12 2.26271E+01
 -1      1170 1.11446E-12-1.42580E-12 4.04373E+01
 -1      1171-4.11988E-14-3.37301E-12-4.67357E+01
 -1      1172 1.28141E-13-2.28461E-12-3.60026E+01
 -1      1173-1.28149E-13 2.91485E-13-2.39477E+01
 -1      1174-1.04636E-12 3.50039E-12-1.07476E+01
 -1      1175-3.17612E-13 3.05175E-12 3.36476E+00
 -1      1176-7.54271E-13-3.60824E-12 1.81914E+01
 -1      1177 1.81923E-12-3.33916E-12 3.37185E+01
 -1      1178 1.09745E-12-4.52909E-12-4.38394E+01
 -1      1179 1.24344E-12 2.12418E-12-3.31703E+01
 -1      1180 5.07007E-13-1.03547E-11-2.20044E+01
 -1      1181-1.07163E-12 1.81074E-12-1.04415E+01
 -1      1182-6.59806E-13-1.91270E-12 1.43183E+00
 -1      1183-2.62461E-13-1.22587E-12 1.36697E+01
 -1      1184 1.93609E-12-1.46043E-12 2.64088E+01
 -1      1185 4.76770E-12-8.49870E-12-3.71570E+01
 -1      1186-3.23706E-12-5.45447E-12-2.76939E+01
 -1      1187 9.15822E-12-5.34266E-12-1.85201E+01
 -1      1188 2.21050E-12 1.37587E-11-9.64881E+00
 -1      1189-9.71480E-12 1.05080E-12-8.24420E-01
 -1      1190 3.32518E-12-2.79043E-12 8.32828E+00
 -1      1191-3.10158E-12 6.26942E-12 1.83080E+01
 -1      1192 2.53313E-12 8.19280E-12-2.59254E+01
 -1      1193 6.89301E-13-1.02719E-11-2.02123E+01
 -1      1194 9.11531E-12-8.15191E-12-1.52372E+01
 -1      1195 1.79283E-12 1.47285E-11-1.06064E+01
 -1      1196-7.66316E-13 1.38029E-11-5.82165E+00
 -1      1197 5.31573E-12-8.68365E-12-1.98381E-01
 -1      1198 7.00484E-12-2.41902E-11 7.16866E+00
 -1      1199 3.71624E-12 2.08333E+01-1.01419E-12
 -1      1200-4.36099E+01-3.40666E+01-2.22045E-14
 -1      1201 1.89912E-13 9.60579E-13-2.39936E+01
 -1      1202 1.17528E-14 2.61348E-12-3.91339E+01
 -1      1203-9.81605E-14-2.24889E-12-4.84430E+01
 -1      1204-3.06168E-13 1.96639E-13-5.39792E+01
 -1      1205 1.83142E-13 2.33491E-13-5.39896E+01
 -1      1206 3.35727E-13 4.90765E-13-4.73215E+01
 -1      1207-4.51340E-14-1.88206E-13-3.80662E+01
 -1      1208-5.48279E-14-2.52206E-15-3.17060E+01
 -1      1209-2.00157E-12-2.11876E-12 2.39936E+01
 -1      1210-1.57550E-12 2.27994E-12 3.91339E+01
 -1      1211 9.39821E-15-7.18516E-13 4.84430E+01
 -1      1212 2.19238E-13 5.52262E-13 5.39792E+01
 -1      1213 1.41932E-13 3.47128E-13 5.39896E+01
 -1      1214 3.13393E-13 1.54358E-13 4.73215E+01
 -1      1215 1.30538E-13 5.98506E-14 3.80662E+01
 -1      1216-5.88312E-14-3.87560E-15 3.17060E+01
 -1      1217 9.94419E-13 2.08333E+01 1.42275E-13
 -1      1218-9.15519E-14 2.08333E+01 1.14072E+00
 -1      1219-3.44536E-12 2.08333E+01-7.98486E+00
 -1      1220-4.96848E-12 2.08333E+01-1.17437E+01
 -1      1221-1.02607E-12 2.08333E+01-1.32409E+01
 -1      1222 5.81156E-12 2.08333E+01-1.35923E+01
 -1      1223-2.36390E-12 2.08333E+01-1.36091E+01
 -1      1224 7.38628E-12 2.08333E+01-1.43470E+01
 -1      1225-7.80058E-12 2.08333E+01-1.83055E+01
 -1      1226 5.09039E-14 2.08333E+01-1.14072E+00
 -1      1227 5.00005E-13 2.08333E+01 7.98486E+00
 -1      1228-4.68096E-12 2.08333E+01 1.17437E+01
 -1      1229-5.16872E-12 2.08333E+01 1.32409E+01
 -1      1230 1.00612E-11 2.08333E+01 1.35923E+01
 -1      1231 3.12876E-12 2.08333E+01 1.36091E+01
 -1      1232 1.41915E-12 2.08333E+01 1.43470E+01
 -1      1233-5.84705E-12 2.08333E+01 1.83055E+01
 -1      1234 3.11787E+02-4.79058E+01 1.35003E-13
 -1      1235-8.05494E-14-7.13528E-14 1.10832E+02
 -1      1236 5.12761E-13-2.57444E-13 6.50258E+01
 -1      1237-3.24437E-13 2.07291E-13 5.67940E+01
 -1      1238 1.29472E-12 1.23373E-12 4.83849E+01
 -1      1239-6.77120E-13-9.43098E-13 4.03981E+01
 -1      1240 1.14985E-12-1.92235E-12 3.06056E+01
 -1      1241-2.39916E-12-3.04985E-12 1.97989E+01
 -1      1242 5.26246E-12-3.25839E-12 8.73054E+00
 -1      1243-3.01617E-13-4.65529E-14-1.10832E+02
 -1      1244 2.74499E-13-4.26065E-14-6.50258E+01
 -1      1245 9.39546E-14 9.93251E-14-5.67940E+01
 -1      1246 9.73573E-13 2.39076E-13-4.83849E+01
 -1      1247 2.53236E-13 4.32207E-14-4.03981E+01
 -1      1248-1.20353E-12-6.26366E-13-3.06056E+01
 -1      1249 4.24557E-13-2.98608E-12-1.97989E+01
 -1      1250 1.66739E-12-5.31877E-12-8.73054E+00
 -1      1251-4.58029E+01-4.12785E+01-3.10082E+01
 -1      1252-6.13345E+01-4.62483E+01-3.79336E+01
 -1      1253-7.11839E+01-4.19754E+01-4.03344E+01
 -1      1254-6.73577E+01-3.04766E+01-3.49264E+01
 -1      1255-4.50089E+01-1.58166E+01-1.99441E+01
 -1      1256-2.16799E+00-1.21840E+00 5.85357E+00
 -1      1257 6.70805E+01 1.21086E+01 4.31896E+01
 -1      1258 1.51469E+02 7.32782E+01 1.06387E+02
 -1      1259-4.58029E+01-4.12785E+01 3.10082E+01
 -1      1260-6.13345E+01-4.62483E+01 3.79336E+01
 -1      1261-7.11839E+01-4.19754E+01 4.03344E+01
 -1      1262-6.73577E+01-3.04766E+01 3.49264E+01
 -1      1263-4.50089E+01-1.58166E+01 1.99441E+01
 -1      1264-2.16799E+00-1.21840E+00-5.85357E+00
 -1      1265 6.70805E+01 1.21086E+01-4.31896E+01
 -1      1266 1.51469E+02 7.32782E+01-1.06387E+02
 -1      1267-2.54114E-12 1.78803E-12-2.81983E-12
 -1      1268 2.09551E-12 3.48182E-12 1.19324E-12
 -1      1269 1.10456E-12-4.62762E-13 1.21358E-12
 -1      1270-4.37859E-13 1.10720E-12 3.44169E-13
 -1      1271-4.71759E-13-8.97184E-14-7.08669E-13
 -1      1272 1.03552E-13 1.52579E-14 7.74242E-14
 -1      1273-1.62480E-15-5.82170E-14 4.62963E-14
 -1      1274-4.38646E-12 4.16667E+01 2.72084E-12
 -1      1275-3.74917E-12 4.16667E+01 4.42727E-13
 -1      1276-6.55726E-12 4.16667E+01 1.58027E-12
 -1      1277 3.65811E-12 4.16667E+01-1.64680E-12
 -1      1278 3.16995E-12 4.16667E+01-6.73250E-13
 -1      1279-9.77618E-13 4.16667E+01-1.24248E-13
 -1      1280-5.14055E-12 4.16667E+01-2.56503E-12
 -1      1281-1.79888E-13-3.28531E-13-1.12799E-13
 -1      1282 1.05993E-12 4.18714E-13-3.69926E-13
 -1      1283 1.82107E-12-2.00894E-12-6.75682E-13
 -1      1284 2.72829E-12-3.04676E-13 2.68230E-13
 -1      1285 3.06724E-12 2.58764E-12 1.80855E-13
 -1      1286 4.86180E-12-1.58341E-12-8.24674E-13
 -1      1287 8.74904E-14-6.56217E-12 1.25988E-12
 -1      1288-1.08996E+02-8.55198E+01-2.99760E-15
 -1      1289-1.35886E+02-8.63403E+01 3.74145E-14
 -1      1290-1.42069E+02-7.07790E+01-7.60503E-14
 -1      1291-1.15789E+02-4.46864E+01-1.24123E-13
 -1      1292-5.07898E+01-1.43449E+01 4.11338E-14
 -1      1293 5.85940E+01 1.15412E+01-2.57572E-14
 -1      1294 2.26758E+02 3.87684E+01-2.75335E-14
 -1      1295 9.39047E-12-2.00420E-11-6.19391E+01
 -1      1296-2.29864E-12-1.00097E-11-3.90322E+01
 -1      1297 1.10904E-11 1.00984E-11-4.63362E+01
 -1      1298 2.40340E-12-8.31626E-13-3.06648E+01
 -1      1299-2.85004E-13-7.47290E-13-3.36237E+01
 -1      1300 2.19600E-12-1.51843E-11-2.57337E+01
 -1      1301-7.79702E-12-1.36995E-12-2.34276E+01
 -1      1302-3.50609E-12 3.61035E-12-2.21255E+01
 -1      1303 4.82647E-12-2.98400E-12-1.43308E+01
 -1      1304 7.38130E-12-1.38962E-11-1.78046E+01
 -1      1305-4.32144E-13-8.43242E-12-4.53101E+00
 -1      1306-3.73844E-12 4.68271E-12-1.06088E+01
 -1      1307-1.66452E-11 2.31301E-11 8.04375E+00
 -1      1308-6.68195E-12 9.56894E-12 2.32082E+00
 -1      1309 2.54295E-12-3.19964E-11 2.58037E+01
 -1      1310 3.32133E-12-1.75733E-11-8.53384E+01
 -1      1311-2.53386E-12 2.60170E-12-6.69273E+01
 -1      1312-2.66238E-12 8.20086E-12-6.62824E+01
 -1      1313-2.79009E-13-4.61420E-12-4.94213E+01
 -1      1314-1.44011E-13-1.12716E-12-4.70076E+01
 -1      1315-2.11200E-13-6.00046E-12-3.29322E+01
 -1      1316-1.04096E-11 7.15760E-12-2.80892E+01
 -1      1317-1.87495E-12 1.82205E-12-1.78149E+01
 -1      1318-4.61212E-13-2.97754E-12-9.75547E+00
 -1      1319-1.76515E-13-4.42218E-12-3.40867E+00
 -1      1320-2.48451E-12-1.55539E-12 8.37349E+00
 -1      1321-6.05642E-13 8.83593E-12 1.14762E+01
 -1      1322-1.16817E-11 2.05775E-11 2.70754E+01
 -1      1323 1.24876E-12-3.10904E-12 2.81795E+01
 -1      1324-9.05680E-13-3.67301E-13 4.71044E+01
 -1      1325-1.16548E-12-1.53131E-12-9.98979E+01
 -1      1326 4.30927E-13-7.90165E-13-8.33364E+01
 -1      1327-2.54277E-12 6.77508E-12-7.86641E+01
 -1      1328-1.52402E-12 2.63694E-12-6.27894E+01
 -1      1329 2.88532E-13-2.96215E-12-5.63642E+01
 -1      1330-3.03817E-12 3.46267E-13-4.17478E+01
 -1      1331 4.83513E-13-2.33314E-12-3.31800E+01
 -1      1332 1.99632E-12 4.33961E-12-2.03879E+01
 -1      1333 4.17446E-13-6.61715E-12-9.33817E+00
 -1      1334-1.60021E-12-1.40373E-12 1.13186E+00
 -1      1335-5.80368E-12 7.49768E-12 1.50768E+01
 -1      1336 7.99813E-13 1.34640E-12 2.29536E+01
 -1      1337-1.55396E-13 7.85425E-12 4.02539E+01
 -1      1338-4.38943E-13-4.02793E-12 4.55023E+01
 -1      1339-2.91283E-12 2.20674E-12 6.66491E+01
 -1      1340 2.59339E-14 1.40855E-12-1.06261E+02
 -1      1341 7.02413E-13 4.29707E-13-9.37307E+01
 -1      1342 2.50547E-13 9.96337E-13-8.52730E+01
 -1      1343 5.53847E-14 2.46706E-12-7.11732E+01
 -1      1344-1.26871E-12 1.20387E-12-6.15583E+01
 -1      1345 1.58508E-12-1.03039E-13-4.71738E+01
 -1      1346-2.12923E-12 2.34304E-12-3.56390E+01
 -1      1347-2.71780E-13-1.06260E-12-2.19034E+01
 -1      1348 3.14158E-14-4.21612E-12-7.98329E+00
 -1      1349-1.09431E-12 1.23769E-12 4.48324E+00
 -1      1350 1.75123E-13 5.05737E-12 2.10780E+01
 -1      1351 2.25411E-13-5.39484E-13 3.19818E+01
 -1      1352 6.53203E-13-4.74271E-12 5.15078E+01
 -1      1353-1.23062E-12 4.80180E-13 6.07018E+01
 -1      1354-6.59071E-14 5.86151E-12 8.34510E+01
 -1      1355 6.87845E-15-8.16412E-13-1.01234E+02
 -1      1356 4.80364E-13 1.04519E-12-9.57842E+01
 -1      1357-7.24572E-13 1.14651E-12-8.55931E+01
 -1      1358 2.66730E-13-2.43544E-12-7.44415E+01
 -1      1359-5.02414E-13 1.40379E-12-6.36866E+01
 -1      1360 5.61062E-13 2.77919E-12-4.94626E+01
 -1      1361-1.13484E-12 5.01807E-13-3.66709E+01
 -1      1362-4.03601E-14-1.16565E-12-2.15510E+01
 -1      1363-2.04607E-13-1.17051E-12-5.71554E+00
 -1      1364 5.36334E-13-8.81889E-13 8.58460E+00
 -1      1365 6.82995E-13-1.19189E-12 2.78184E+01
 -1      1366-1.34833E-13-6.11290E-13 4.04026E+01
 -1      1367-1.08197E-12 1.61561E-13 6.25018E+01
 -1      1368-1.18457E-12 2.22564E-12 7.40003E+01
 -1      1369-5.59053E-13 4.12878E-12 9.83575E+01
 -1      1370-5.44734E-13-1.18674E-12-8.66362E+01
 -1      1371 4.50349E-14 8.30099E-13-8.89170E+01
 -1      1372 3.16383E-13-9.08339E-13-8.15861E+01
 -1      1373 1.87701E-13-6.27423E-13-7.35939E+01
 -1      1374-6.82895E-13-2.88416E-13-6.59047E+01
 -1      1375-1.57951E-13 2.61971E-13-5.05550E+01
 -1      1376-4.23842E-13-2.63857E-13-4.05478E+01
 -1      1377 2.31045E-13-7.84193E-13-2.10667E+01
 -1      1378-1.85337E-13 3.07187E-13-6.73252E+00
 -1      1379-3.92755E-13 3.10994E-13 1.31786E+01
 -1      1380 3.91089E-13-6.57385E-13 3.35537E+01
 -1      1381 1.34375E-12-2.98099E-13 4.99319E+01
 -1      1382-1.80884E-13 4.01121E-13 7.68989E+01
 -1      1383 8.56703E-13-1.42900E-12 8.69197E+01
 -1      1384 6.63754E-13 1.30140E-12 1.17392E+02
 -1      1385-2.02043E-13-1.81157E-13-7.17018E+01
 -1      1386-6.08709E-14 1.47817E-13-7.85852E+01
 -1      1387-7.93627E-14-8.44533E-13-7.77339E+01
 -1      1388-1.05135E-13 4.40494E-15-7.32478E+01
 -1      1389-1.39083E-13 2.42638E-13-7.28347E+01
 -1      1390-1.43510E-13-7.53988E-14-5.60371E+01
 -1      1391-3.80311E-13 1.29765E-13-5.39863E+01
 -1      1392-1.94330E-13-4.87508E-14-2.70705E+01
 -1      1393 1.87060E-13-1.20424E-13-2.02372E+01
 -1      1394-7.84240E-14-8.52867E-14 1.22110E+01
 -1      1395 8.67053E-14-1.26265E-13 2.82846E+01
 -1      1396-2.94793E-13-2.08947E-13 5.98918E+01
 -1      1397 5.68756E-14-3.43762E-14 9.02231E+01
 -1      1398 1.06867E-13 1.28169E-13 1.09358E+02
 -1      1399-1.64375E-13-5.57313E-13 1.55030E+02
 -1      1400 9.30549E-14-7.85899E-14-7.14591E+01
 -1      1401 3.12252E-14-1.27510E-13-7.79163E+01
 -1      1402-1.83913E-13 2.99562E-14-7.19213E+01
 -1      1403 3.29334E-14 3.35088E-14-4.91169E+01
 -1      1404-2.86608E-14 9.20602E-14-7.20589E+00
 -1      1405 5.80691E-14-3.45982E-14 5.55530E+01
 -1      1406-1.51718E-13-3.68409E-14 1.33185E+02
 -1      1407-2.45460E-13-1.49662E-13 7.17018E+01
 -1      1408 1.18334E-14-7.77125E-16 7.14591E+01
 -1      1409 2.06567E-13-4.32418E-13 7.77339E+01
 -1      1410-1.49744E-14-5.78274E-14 7.79163E+01
 -1      1411-1.49977E-13 1.87532E-13 7.28347E+01
 -1      1412-9.38373E-14-7.79733E-14 7.19213E+01
 -1      1413-1.39717E-13-3.99647E-13 5.39863E+01
 -1      1414 1.61141E-13 7.31628E-14 4.91169E+01
 -1      1415 2.00104E-14 3.45895E-14 2.02372E+01
 -1      1416-1.52798E-14 1.03644E-13 7.20589E+00
 -1      1417 6.24989E-15 8.93988E-14-2.82846E+01
 -1      1418 3.05892E-14-3.22372E-14-5.55530E+01
 -1      1419 3.90512E-14 2.59363E-13-9.02231E+01
 -1      1420-2.69278E-13-8.69490E-14-1.33185E+02
 -1      1421 4.12732E-13 5.08853E-15-1.55030E+02
 -1      1422 1.32425E-13-1.21291E-12 8.66362E+01
 -1      1423 1.07028E-13 1.52651E-13 7.85852E+01
 -1      1424 7.22952E-13-4.31270E-13 8.15861E+01
 -1      1425 2.97565E-13-1.02805E-13 7.32478E+01
 -1      1426-2.79529E-13-6.61511E-13 6.59047E+01
 -1      1427-1.50185E-13-2.68705E-14 5.60371E+01
 -1      1428 6.96805E-14-8.75665E-13 4.05478E+01
 -1      1429-2.13447E-14-1.36511E-13 2.70705E+01
 -1      1430-8.82912E-14 7.63561E-13 6.73252E+00
 -1      1431 1.11391E-13 1.10683E-14-1.22110E+01
 -1      1432 8.27977E-13-1.17504E-12-3.35537E+01
 -1      1433 2.81242E-14 1.48730E-14-5.98918E+01
 -1      1434 4.12705E-13-4.27343E-13-7.68989E+01
 -1      1435 5.90008E-14 1.22598E-13-1.09358E+02
 -1      1436 5.09113E-13 2.35220E-13-1.17392E+02
 -1      1437 2.55301E-13 4.31192E-13 1.01234E+02
 -1      1438-4.24454E-13-2.06459E-13 8.89170E+01
 -1      1439-2.11568E-13 7.82056E-13 8.55931E+01
 -1      1440-7.05231E-13-3.79022E-13 7.35939E+01
 -1      1441-1.52257E-13 4.22157E-13 6.36866E+01
 -1      1442 3.18032E-13 9.88545E-14 5.05550E+01
 -1      1443-9.62069E-13-2.53542E-13 3.66709E+01
 -1      1444 2.67903E-13-5.08827E-13 2.10667E+01
 -1      1445-1.89633E-13-1.31226E-12 5.71554E+00
 -1      1446-3.88836E-14-8.64926E-14-1.31786E+01
 -1      1447-1.09294E-12 8.85619E-14-2.78184E+01
 -1      1448 1.24466E-12-6.40351E-13-4.99319E+01
 -1      1449-6.79108E-14 3.89714E-13-6.25018E+01
 -1      1450 1.17889E-12-5.75163E-13-8.69197E+01
 -1      1451-1.22979E-12 2.56848E-12-9.83575E+01
 -1      1452-3.25896E-12 2.17880E-12 1.06261E+02
 -1      1453 7.75993E-13-4.88451E-14 9.57842E+01
 -1      1454 4.48338E-13 2.61891E-12 8.52730E+01
 -1      1455 1.39903E-14-1.20185E-12 7.44415E+01
 -1      1456-6.44650E-13 9.35756E-14 6.15583E+01
 -1      1457 4.15531E-14 2.31853E-12 4.94626E+01
 -1      1458-2.01018E-12-4.02942E-14 3.56390E+01
 -1      1459 4.92922E-13-1.24412E-12 2.15510E+01
 -1      1460-3.97748E-13-5.31107E-12 7.98329E+00
 -1      1461 9.17905E-13 1.61014E-12-8.58460E+00
 -1      1462-1.86165E-12-3.22389E-13-2.10780E+01
 -1      1463 6.95621E-13 2.04868E-12-4.04026E+01
 -1      1464 1.54257E-12-3.98501E-12-5.15078E+01
 -1      1465-1.71536E-12 5.13707E-13-7.40003E+01
 -1      1466-4.87650E-13 7.15614E-12-8.34510E+01
 -1      1467-2.12267E-12 1.09425E-12 9.98979E+01
 -1      1468 8.15761E-13-6.87446E-13 9.37307E+01
 -1      1469 2.46988E-12 7.31615E-12 7.86641E+01
 -1      1470-4.01774E-13-2.25552E-13 7.11732E+01
 -1      1471 2.41406E-12-6.47061E-12 5.63642E+01
 -1      1472 1.71879E-13 2.09171E-12 4.71738E+01
 -1      1473-2.91397E-12 5.63903E-12 3.31800E+01
 -1      1474-5.63047E-14-2.80108E-13 2.19034E+01
 -1      1475-2.87429E-12-3.09521E-12 9.33817E+00
 -1      1476-1.43261E-12 2.13211E-13-4.48324E+00
 -1      1477 2.91646E-14-6.32805E-12-1.50768E+01
 -1      1478-1.96985E-12 8.39949E-13-3.19818E+01
 -1      1479 1.26642E-12 5.16866E-12-4.02539E+01
 -1      1480-5.22244E-12 8.42162E-14-6.07018E+01
 -1      1481 1.66222E-12 5.13343E-12-6.66491E+01
 -1      1482-4.79489E-13-8.85323E-12 8.53384E+01
 -1      1483 1.30291E-13 2.35602E-12 8.33364E+01
 -1      1484-4.51818E-12-4.58714E-12 6.62824E+01
 -1      1485 1.22670E-12 4.95978E-12 6.27894E+01
 -1      1486-4.02578E-14 1.14289E-12 4.70076E+01
 -1      1487-1.28251E-12 2.02017E-13 4.17478E+01
 -1      1488-4.93749E-12-5.28931E-12 2.80892E+01
 -1      1489 2.52248E-12 1.45497E-13 2.03879E+01
 -1      1490 4.43297E-12-8.35466E-12 9.75547E+00
 -1      1491-2.16556E-12-3.25195E-12-1.13186E+00
 -1      1492-2.21369E-12-9.49391E-12-8.37349E+00
 -1      1493-6.22871E-13 7.10649E-13-2.29536E+01
 -1      1494-5.01034E-12 1.30231E-11-2.70754E+01
 -1      1495-3.58240E-12-1.04104E-12-4.55023E+01
 -1      1496 2.34384E-12-1.91311E-12-4.71044E+01
 -1      1497-6.54109E-12 3.66325E-12 6.19391E+01
 -1      1498-2.37869E-12 2.79884E-13 6.69273E+01
 -1      1499 5.49851E-12 1.84364E-11 4.63362E+01
 -1      1500-3.23840E-12-5.74393E-12 4.94213E+01
 -1      1501-8.46056E-12 6.58398E-12 3.36237E+01
 -1      1502-3.51350E-13 6.55233E-12 3.29322E+01
 -1      1503-1.68116E-11 4.25725E-12 2.34276E+01
 -1      1504 1.95503E-12 5.45481E-12 1.78149E+01
 -1      1505 9.46969E-12-1.03208E-11 1.43308E+01
 -1      1506 6.15863E-12-7.79895E-12 3.40867E+00
 -1      1507 7.33731E-12-2.33552E-12 4.53101E+00
 -1      1508-7.98416E-12 9.87855E-12-1.14762E+01
 -1      1509-8.03712E-12 7.74021E-12-8.04375E+00
 -1      1510-1.92022E-12 4.50694E-12-2.81795E+01
 -1      1511-8.96710E-12-1.06443E-11-2.58037E+01
 -1      1512-3.74807E-13-8.86634E-12 3.90322E+01
 -1      1513-4.81730E-12 8.13009E-12 3.06648E+01
 -1      1514 8.39761E-12-3.27450E-12 2.57337E+01
 -1      1515-2.96218E-12 5.53018E-13 2.21255E+01
 -1      1516 5.20028E-12 3.82942E-12 1.78046E+01
 -1      1517-3.22822E-12 4.80774E-12 1.06088E+01
 -1      1518-4.52713E-12 5.87420E-12-2.32082E+00
 -1      1519-5.13538E-12-9.02382E-12 4.99184E-14
 -1      1520 2.01626E-12 1.94420E-11-2.63489E-12
 -1      1521 1.68455E-12-8.44569E-12-1.47728E-12
 -1      1522-4.47459E-12-4.36498E-12 1.63771E-12
 -1      1523 8.71539E-12-1.18737E-11 2.91141E-12
 -1      1524-6.89358E-12 1.48509E-11 4.49136E-12
 -1      1525-4.59408E-12 2.03865E-12-4.56302E-14
 -1      1526 1.86770E-12-5.59862E-12 3.96377E-13
 -1      1527 1.56470E-12-1.12495E-11-3.04932E-12
 -1      1528-7.74749E-12 1.69667E-11 1.72705E-12
 -1      1529 5.53885E-12 3.70532E-12 3.00255E-12
 -1      1530 6.36285E-12-7.67539E-12-3.89120E-12
 -1      1531-3.91907E-12 6.31591E-12-1.40875E-12
 -1      1532-4.86018E-13 1.82362E-12-1.93026E-12
 -1      1533 1.58299E-12-1.91565E-12 1.86728E-12
 -1      1534-4.19502E-13 8.25291E-12-1.11548E-12
 -1      1535-2.88275E-12-1.04974E-12-2.68258E-14
 -1      1536 4.08976E-12-1.43123E-12 1.45468E-12
 -1      1537-4.51957E-12 8.50854E-12-2.54984E-13
 -1      1538-1.59912E-12 4.87422E-12-2.85992E-12
 -1      1539-1.11881E-12 2.36042E-12 1.21066E-12
 -1      1540 5.65614E-13 5.67662E-13-4.72067E-13
 -1      1541 8.78832E-13 1.47410E-12 2.57988E-13
 -1      1542 1.42483E-12 2.64816E-12-2.82399E-13
 -1      1543-5.87248E-13-1.21160E-12 9.12435E-13
 -1      1544-1.11043E-12 3.50075E-12-1.42511E-13
 -1      1545-1.38502E-12 6.19089E-13-4.85459E-13
 -1      1546 1.58076E-12 2.76851E-12 1.71513E-12
 -1      1547 8.16298E-13 3.06129E-13 5.71945E-13
 -1      1548 3.62812E-13 7.98151E-13 1.21916E-13
 -1      1549-5.49158E-13 1.05072E-12-4.57544E-13
 -1      1550-5.31182E-14-1.22573E-12-9.11143E-13
 -1      1551-5.02173E-13 1.89546E-12 4.42674E-13
 -1      1552-1.78479E-12-1.99504E-12 4.50431E-13
 -1      1553-9.07024E-13-6.54201E-14-4.84307E-13
 -1      1554-1.81218E-13-2.71240E-13 8.89983E-14
 -1      1555 6.94122E-13-1.18554E-12 5.39818E-13
 -1      1556-1.69013E-13 3.33469E-13-1.59026E-13
 -1      1557 1.17858E-13-6.44274E-13 2.87210E-13
 -1      1558 2.69806E-13 7.73815E-13 7.38021E-14
 -1      1559-2.35513E-13-2.46162E-13 2.28123E-13
 -1      1560-5.94642E-13-1.01664E-14-1.27148E-13
 -1      1561 6.79852E-14-2.34408E-13-7.55784E-14
 -1      1562-9.51152E-14-3.48227E-13-1.93914E-13
 -1      1563-2.13971E-13 5.00853E-13-1.68698E-13
 -1      1564 4.71678E-14 7.29245E-14-2.37893E-13
 -1      1565-1.70842E-13 2.62638E-13-1.04729E-13
 -1      1566-1.20831E-13 9.42910E-15-2.03448E-14
 -1      1567-3.56313E-13-1.08152E-13-1.22791E-13
 -3
 9999
