    1C
    1UHash: PXJD0WWr, Date: 03/11/2021, Unit system: MM_TON_S_C         
    1UUSER                                                              
    1UDATE              13.march.2021                                   
    1UTIME              18:35:13                                        
    1UHOST                                                              
    1UPGM               CalculiX                                        
    1UVERSION           Version 2.17                             
    1UCOMPILETIME       Thu Jul 23 21:43:50 CEST 2020                    
    1UDIR                                                               
    1UDBN                                                               
    1UMAT    1RUBBER                                                    
    2C                            62                                     1
 -1       113 4.80000E+01 4.40000E+01 0.00000E+00
 -1       114 4.80000E+01 4.40000E+01 5.00000E+00
 -1       115 0.00000E+00 0.00000E+00 0.00000E+00
 -1       116 0.00000E+00 0.00000E+00 5.00000E+00
 -1       117 4.80000E+01 6.00000E+01 0.00000E+00
 -1       118 4.80000E+01 6.00000E+01 5.00000E+00
 -1       119 0.00000E+00 4.40000E+01 0.00000E+00
 -1       120 0.00000E+00 4.40000E+01 5.00000E+00
 -1       121 4.00000E+01 3.66667E+01 0.00000E+00
 -1       122 3.20000E+01 2.93333E+01 0.00000E+00
 -1       123 2.40000E+01 2.20000E+01 0.00000E+00
 -1       124 1.60000E+01 1.46667E+01 0.00000E+00
 -1       125 8.00000E+00 7.33333E+00 0.00000E+00
 -1       126 4.00000E+01 3.66667E+01 5.00000E+00
 -1       127 3.20000E+01 2.93333E+01 5.00000E+00
 -1       128 2.40000E+01 2.20000E+01 5.00000E+00
 -1       129 1.60000E+01 1.46667E+01 5.00000E+00
 -1       130 8.00000E+00 7.33333E+00 5.00000E+00
 -1       131 4.80000E+01 5.20000E+01 0.00000E+00
 -1       132 4.80000E+01 5.20000E+01 5.00000E+00
 -1       133 1.20000E+01 4.80000E+01 0.00000E+00
 -1       134 2.40000E+01 5.20000E+01 0.00000E+00
 -1       135 3.60000E+01 5.60000E+01 0.00000E+00
 -1       136 1.20000E+01 4.80000E+01 5.00000E+00
 -1       137 2.40000E+01 5.20000E+01 5.00000E+00
 -1       138 3.60000E+01 5.60000E+01 5.00000E+00
 -1       139 0.00000E+00 1.10000E+01 0.00000E+00
 -1       140 0.00000E+00 2.20000E+01 0.00000E+00
 -1       141 0.00000E+00 3.30000E+01 0.00000E+00
 -1       142 0.00000E+00 1.10000E+01 5.00000E+00
 -1       143 0.00000E+00 2.20000E+01 5.00000E+00
 -1       144 0.00000E+00 3.30000E+01 5.00000E+00
 -1       145 3.80065E+01 4.67331E+01 0.00000E+00
 -1       146 2.09537E+01 3.61194E+01 0.00000E+00
 -1       147 6.62674E+00 2.71099E+01 0.00000E+00
 -1       148 9.61877E+00 3.62657E+01 0.00000E+00
 -1       149 7.75803E+00 1.77959E+01 0.00000E+00
 -1       150 3.05955E+01 4.02121E+01 0.00000E+00
 -1       151 1.49260E+01 2.57683E+01 0.00000E+00
 -1       152 1.14120E+01 2.54818E+01 5.00000E+00
 -1       153 2.54557E+01 4.04878E+01 5.00000E+00
 -1       154 3.70129E+01 4.65978E+01 5.00000E+00
 -1       155 1.14283E+01 3.72313E+01 5.00000E+00
 -1       156 7.18583E+00 1.63756E+01 5.00000E+00
 -1       157 2.08432E+01 3.11517E+01 5.00000E+00
 -1       158 4.76644E+00 2.94410E+01 2.49260E+00
 -1       159 1.90846E+01 4.34778E+01 2.67109E+00
 -1       160 4.07939E+01 4.27991E+01 2.51110E+00
 -1       161 4.39936E+00 1.43227E+01 2.48868E+00
 -1       162 4.16500E+01 5.27551E+01 2.48414E+00
 -1       163 2.72183E+01 3.45384E+01 2.49888E+00
 -1       164 1.80600E+01 2.26208E+01 2.46317E+00
 -1       165 3.44644E+01 3.83298E+01 2.39541E+00
 -1       166 5.28484E+00 2.17785E+01 2.44780E+00
 -1       167 3.47176E+00 7.98777E+00 2.50831E+00
 -1       168 8.74601E+00 4.20323E+01 2.48626E+00
 -1       169 3.13696E+01 4.86081E+01 2.53841E+00
 -1       170 4.45190E+00 3.72323E+01 2.46029E+00
 -1       171 2.37781E+01 2.81748E+01 2.59705E+00
 -1       172 1.24811E+01 1.89365E+01 2.48864E+00
 -1       173 4.38562E+01 4.75927E+01 2.42804E+00
 -1       174 9.79015E+00 1.41780E+01 2.49064E+00
 -3
    3C                           173                                     1
 -1       190    3    0    1
 -2       169       162       135       138
 -1       191    3    0    1
 -2       150       153       159       146
 -1       192    3    0    1
 -2       144       140       141       158
 -1       193    3    0    1
 -2       144       170       155       158
 -1       194    3    0    1
 -2       159       155       148       146
 -1       195    3    0    1
 -2       169       138       135       134
 -1       196    3    0    1
 -2       152       157       148       155
 -1       197    3    0    1
 -2       126       165       160       121
 -1       198    3    0    1
 -2       159       136       168       155
 -1       199    3    0    1
 -2       155       144       120       170
 -1       200    3    0    1
 -2       134       169       138       137
 -1       201    3    0    1
 -2       160       114       154       126
 -1       202    3    0    1
 -2       161       166       140       143
 -1       203    3    0    1
 -2       145       169       134       150
 -1       204    3    0    1
 -2       157       152       148       151
 -1       205    3    0    1
 -2       122       127       165       163
 -1       206    3    0    1
 -2       154       132       162       138
 -1       207    3    0    1
 -2       157       148       146       151
 -1       208    3    0    1
 -2       146       148       157       155
 -1       209    3    0    1
 -2       152       155       148       158
 -1       210    3    0    1
 -2       122       146       171       163
 -1       211    3    0    1
 -2       146       163       153       157
 -1       212    3    0    1
 -2       150       146       159       134
 -1       213    3    0    1
 -2       122       121       165       127
 -1       214    3    0    1
 -2       118       117       131       162
 -1       215    3    0    1
 -2       165       126       160       154
 -1       216    3    0    1
 -2       121       165       127       126
 -1       217    3    0    1
 -2       152       147       151       149
 -1       218    3    0    1
 -2       139       125       167       115
 -1       219    3    0    1
 -2       174       156       130       129
 -1       220    3    0    1
 -2       161       143       140       139
 -1       221    3    0    1
 -2       127       122       171       163
 -1       222    3    0    1
 -2       127       163       171       157
 -1       223    3    0    1
 -2       146       155       157       153
 -1       224    3    0    1
 -2       153       126       127       165
 -1       225    3    0    1
 -2       131       132       173       113
 -1       226    3    0    1
 -2       157       127       163       153
 -1       227    3    0    1
 -2       167       125       130       115
 -1       228    3    0    1
 -2       154       126       153       165
 -1       229    3    0    1
 -2       136       119       133       168
 -1       230    3    0    1
 -2       159       146       148       133
 -1       231    3    0    1
 -2       172       151       124       149
 -1       232    3    0    1
 -2       141       119       144       170
 -1       233    3    0    1
 -2       144       119       120       170
 -1       234    3    0    1
 -2       174       149       124       125
 -1       235    3    0    1
 -2       123       124       129       164
 -1       236    3    0    1
 -2       128       152       157       164
 -1       237    3    0    1
 -2       120       119       136       168
 -1       238    3    0    1
 -2       123       128       171       164
 -1       239    3    0    1
 -2       146       134       133       159
 -1       240    3    0    1
 -2       129       152       128       164
 -1       241    3    0    1
 -2       124       172       129       164
 -1       242    3    0    1
 -2       123       164       129       128
 -1       243    3    0    1
 -2       173       132       131       162
 -1       244    3    0    1
 -2       156       129       174       172
 -1       245    3    0    1
 -2       161       130       174       156
 -1       246    3    0    1
 -2       159       133       168       136
 -1       247    3    0    1
 -2       153       159       137       169
 -1       248    3    0    1
 -2       174       172       124       149
 -1       249    3    0    1
 -2       155       152       144       158
 -1       250    3    0    1
 -2       124       125       130       174
 -1       251    3    0    1
 -2       143       152       156       166
 -1       252    3    0    1
 -2       163       146       150       122
 -1       253    3    0    1
 -2       131       135       145       162
 -1       254    3    0    1
 -2       155       120       136       168
 -1       255    3    0    1
 -2       166       156       143       161
 -1       256    3    0    1
 -2       159       136       155       153
 -1       257    3    0    1
 -2       143       140       144       158
 -1       258    3    0    1
 -2       160       114       126       113
 -1       259    3    0    1
 -2       160       126       121       113
 -1       260    3    0    1
 -2       161       125       139       149
 -1       261    3    0    1
 -2       118       162       131       132
 -1       262    3    0    1
 -2       139       125       161       167
 -1       263    3    0    1
 -2       130       167       161       125
 -1       264    3    0    1
 -2       139       161       143       142
 -1       265    3    0    1
 -2       174       129       124       172
 -1       266    3    0    1
 -2       117       135       131       162
 -1       267    3    0    1
 -2       154       114       173       132
 -1       268    3    0    1
 -2       124       174       130       129
 -1       269    3    0    1
 -2       130       167       115       116
 -1       270    3    0    1
 -2       144       152       143       158
 -1       271    3    0    1
 -2       134       137       133       159
 -1       272    3    0    1
 -2       152       166       149       156
 -1       273    3    0    1
 -2       133       137       136       159
 -1       274    3    0    1
 -2       132       114       173       113
 -1       275    3    0    1
 -2       171       151       146       123
 -1       276    3    0    1
 -2       153       165       163       150
 -1       277    3    0    1
 -2       141       170       144       158
 -1       278    3    0    1
 -2       158       140       141       147
 -1       279    3    0    1
 -2       152       158       148       147
 -1       280    3    0    1
 -2       152       147       148       151
 -1       281    3    0    1
 -2       143       166       140       158
 -1       282    3    0    1
 -2       158       152       143       166
 -1       283    3    0    1
 -2       141       148       158       147
 -1       284    3    0    1
 -2       159       153       155       146
 -1       285    3    0    1
 -2       150       134       159       169
 -1       286    3    0    1
 -2       137       159       134       169
 -1       287    3    0    1
 -2       159       137       136       153
 -1       288    3    0    1
 -2       145       160       165       121
 -1       289    3    0    1
 -2       160       154       173       145
 -1       290    3    0    1
 -2       145       121       165       150
 -1       291    3    0    1
 -2       160       145       173       113
 -1       292    3    0    1
 -2       145       160       121       113
 -1       293    3    0    1
 -2       124       172       164       151
 -1       294    3    0    1
 -2       140       166       147       158
 -1       295    3    0    1
 -2       161       156       174       149
 -1       296    3    0    1
 -2       161       149       174       125
 -1       297    3    0    1
 -2       161       156       143       142
 -1       298    3    0    1
 -2       118       117       162       138
 -1       299    3    0    1
 -2       122       150       165       121
 -1       300    3    0    1
 -2       150       169       159       153
 -1       301    3    0    1
 -2       118       138       162       132
 -1       302    3    0    1
 -2       117       135       162       138
 -1       303    3    0    1
 -2       122       128       171       123
 -1       304    3    0    1
 -2       127       157       171       128
 -1       305    3    0    1
 -2       122       123       171       146
 -1       306    3    0    1
 -2       156       172       174       149
 -1       307    3    0    1
 -2       163       146       153       150
 -1       308    3    0    1
 -2       123       124       164       151
 -1       309    3    0    1
 -2       161       125       174       130
 -1       310    3    0    1
 -2       169       134       135       145
 -1       311    3    0    1
 -2       169       145       135       162
 -1       312    3    0    1
 -2       154       132       173       162
 -1       313    3    0    1
 -2       145       173       131       162
 -1       314    3    0    1
 -2       158       152       166       147
 -1       315    3    0    1
 -2       145       150       165       154
 -1       316    3    0    1
 -2       145       154       165       160
 -1       317    3    0    1
 -2       122       163       165       150
 -1       318    3    0    1
 -2       153       165       127       163
 -1       319    3    0    1
 -2       154       165       153       150
 -1       320    3    0    1
 -2       161       139       140       149
 -1       321    3    0    1
 -2       161       149       140       166
 -1       322    3    0    1
 -2       166       152       149       147
 -1       323    3    0    1
 -2       149       156       166       161
 -1       324    3    0    1
 -2       149       140       166       147
 -1       325    3    0    1
 -2       139       167       142       115
 -1       326    3    0    1
 -2       115       167       142       116
 -1       327    3    0    1
 -2       139       167       161       142
 -1       328    3    0    1
 -2       130       156       161       142
 -1       329    3    0    1
 -2       130       142       161       167
 -1       330    3    0    1
 -2       131       173       145       113
 -1       331    3    0    1
 -2       164       152       157       151
 -1       332    3    0    1
 -2       123       164       171       151
 -1       333    3    0    1
 -2       154       173       145       162
 -1       334    3    0    1
 -2       159       168       148       155
 -1       335    3    0    1
 -2       168       119       133       148
 -1       336    3    0    1
 -2       168       148       170       119
 -1       337    3    0    1
 -2       159       133       148       168
 -1       338    3    0    1
 -2       168       119       170       120
 -1       339    3    0    1
 -2       142       167       130       116
 -1       340    3    0    1
 -2       160       114       173       154
 -1       341    3    0    1
 -2       162       138       169       154
 -1       342    3    0    1
 -2       169       154       138       137
 -1       343    3    0    1
 -2       145       154       169       150
 -1       344    3    0    1
 -2       169       154       153       150
 -1       345    3    0    1
 -2       154       169       153       137
 -1       346    3    0    1
 -2       145       162       169       154
 -1       347    3    0    1
 -2       170       148       155       158
 -1       348    3    0    1
 -2       168       120       170       155
 -1       349    3    0    1
 -2       141       119       170       148
 -1       350    3    0    1
 -2       168       155       170       148
 -1       351    3    0    1
 -2       141       148       170       158
 -1       352    3    0    1
 -2       171       128       157       164
 -1       353    3    0    1
 -2       157       151       146       171
 -1       354    3    0    1
 -2       146       163       157       171
 -1       355    3    0    1
 -2       127       128       171       122
 -1       356    3    0    1
 -2       171       164       157       151
 -1       357    3    0    1
 -2       152       151       172       149
 -1       358    3    0    1
 -2       172       152       129       164
 -1       359    3    0    1
 -2       156       152       172       149
 -1       360    3    0    1
 -2       156       129       172       152
 -1       361    3    0    1
 -2       172       152       164       151
 -1       362    3    0    1
 -2       160       113       173       114
 -3
    1PSTEP                         1           1           1          
  100CL  101 1.000000000          62                     0    1           1
 -4  DISP        4    1
 -5  D1          1    2    1    0
 -5  D2          1    2    2    0
 -5  D3          1    2    3    0
 -5  ALL         1    2    0    0    1ALL
 -1       113-8.45361E-01 8.15064E+00 0.00000E+00
 -1       114-8.80296E-01 8.12034E+00 0.00000E+00
 -1       115 0.00000E+00 0.00000E+00 0.00000E+00
 -1       116 0.00000E+00 0.00000E+00 0.00000E+00
 -1       117-1.97190E+00 8.72882E+00 0.00000E+00
 -1       118-1.96672E+00 8.68541E+00 0.00000E+00
 -1       119 0.00000E+00 0.00000E+00 0.00000E+00
 -1       120 0.00000E+00 0.00000E+00 0.00000E+00
 -1       121-4.32568E-01 6.46109E+00 0.00000E+00
 -1       122-8.97796E-02 4.89044E+00 0.00000E+00
 -1       123-2.88705E-02 3.56459E+00 0.00000E+00
 -1       124-7.85079E-03 2.31725E+00 0.00000E+00
 -1       125 2.57177E-03 1.13578E+00 0.00000E+00
 -1       126-4.29406E-01 6.39728E+00 0.00000E+00
 -1       127-9.55675E-02 4.82513E+00 0.00000E+00
 -1       128-3.66774E-03 3.48532E+00 0.00000E+00
 -1       129 9.46747E-03 2.24875E+00 0.00000E+00
 -1       130 2.72828E-03 1.10458E+00 0.00000E+00
 -1       131-1.36064E+00 8.40707E+00 0.00000E+00
 -1       132-1.30456E+00 8.38535E+00 0.00000E+00
 -1       133-1.79678E-01 1.82081E+00 0.00000E+00
 -1       134-5.62062E-01 4.01779E+00 0.00000E+00
 -1       135-1.17862E+00 6.31002E+00 0.00000E+00
 -1       136-1.63529E-01 1.79391E+00 0.00000E+00
 -1       137-5.51323E-01 3.84259E+00 0.00000E+00
 -1       138-1.17786E+00 6.16808E+00 0.00000E+00
 -1       139 0.00000E+00 0.00000E+00 0.00000E+00
 -1       140 0.00000E+00 0.00000E+00 0.00000E+00
 -1       141 0.00000E+00 0.00000E+00 0.00000E+00
 -1       142 0.00000E+00 0.00000E+00 0.00000E+00
 -1       143 0.00000E+00 0.00000E+00 0.00000E+00
 -1       144 0.00000E+00 0.00000E+00 0.00000E+00
 -1       145-7.52037E-01 6.36918E+00 0.00000E+00
 -1       146-6.30095E-02 3.12518E+00 0.00000E+00
 -1       147-4.71772E-03 9.25737E-01 0.00000E+00
 -1       148 6.03630E-03 1.35597E+00 0.00000E+00
 -1       149-2.48325E-04 1.09138E+00 0.00000E+00
 -1       150-3.78522E-01 4.89622E+00 0.00000E+00
 -1       151-5.15509E-03 2.12914E+00 0.00000E+00
 -1       152 1.24731E-03 1.62187E+00 0.00000E+00
 -1       153-1.61418E-01 3.86479E+00 0.00000E+00
 -1       154-6.11121E-01 6.06921E+00 0.00000E+00
 -1       155-1.49351E-02 1.63185E+00 0.00000E+00
 -1       156 2.34959E-03 1.00645E+00 0.00000E+00
 -1       157-1.88581E-02 3.06395E+00 0.00000E+00
 -1       158 1.62587E-03 6.51769E-01-3.30643E-04
 -1       159-1.52683E-01 2.87881E+00-2.30844E-03
 -1       160-6.33623E-01 6.72007E+00-1.83001E-02
 -1       161-8.68055E-04 6.01569E-01 1.54660E-03
 -1       162-1.16141E+00 7.16815E+00-3.54387E-07
 -1       163-1.00850E-01 4.10872E+00-5.45175E-03
 -1       164-1.10737E-02 2.61107E+00 1.23968E-02
 -1       165-3.46630E-01 5.49042E+00-1.33776E-02
 -1       166 2.39067E-04 7.23638E-01 2.53652E-03
 -1       167-4.92453E-04 4.74510E-01 1.59537E-04
 -1       168-5.45480E-02 1.25934E+00-8.98458E-04
 -1       169-5.96041E-01 5.16533E+00 1.08441E-03
 -1       170 1.24766E-03 6.07635E-01-2.64436E-03
 -1       171-4.41300E-02 3.50628E+00 2.47968E-03
 -1       172 1.71243E-04 1.77334E+00 7.39722E-03
 -1       173-9.14863E-01 7.43200E+00-1.05156E-02
 -1       174-4.85715E-03 1.38606E+00 5.49798E-03
 -3
    1PSTEP                         2           1           1          
  100CL  101 1.000000000          62                     0    1           1
 -4  STRESS      6    1
 -5  SXX         1    4    1    1
 -5  SYY         1    4    2    2
 -5  SZZ         1    4    3    3
 -5  SXY         1    4    1    2
 -5  SYZ         1    4    2    3
 -5  SZX         1    4    3    1
 -1       113 2.80401E+01 3.05863E+01 2.91563E+01 3.39250E+00-3.19277E-01 1.14598E-01
 -1       114-2.48023E+01-2.20560E+01-2.32256E+01 3.56274E+00-1.32008E-01 2.27633E-02
 -1       115-3.99125E+00-4.01849E+00-4.00318E+00 3.24876E+00-6.30099E-02-2.70188E-03
 -1       116-8.24113E+00-8.27020E+00-8.25551E+00 3.21553E+00 1.53833E-02 5.35408E-03
 -1       117-1.66639E+00 2.10895E+00 2.21232E-01 2.70572E+00-4.41795E-01 1.03511E-02
 -1       118 4.29152E+00 7.91999E+00 6.10454E+00 2.74106E+00-1.43265E-01 1.62394E-01
 -1       119-2.24354E+01-2.19512E+01-2.22084E+01 3.19250E+00-6.42315E-02-1.32230E-02
 -1       120-3.89263E+01-3.84572E+01-3.86600E+01 3.20975E+00 7.56418E-02 2.02613E-02
 -1       121 2.93235E+00 5.04082E+00 3.76453E+00 3.48408E+00-3.89545E-01 2.00052E-01
 -1       122-4.12134E+00-2.90791E+00-3.59851E+00 3.59440E+00-3.94059E-01 1.22910E-01
 -1       123 1.29022E+01 1.30999E+01 1.30946E+01 3.62578E+00-3.07979E-01 4.48857E-02
 -1       124 8.31671E+00 8.32086E+00 8.43501E+00 3.48016E+00-1.76711E-01 2.75256E-02
 -1       125 2.23166E+00 2.21671E+00 2.26035E+00 3.35415E+00-1.31405E-01-1.05798E-02
 -1       126 1.85423E+01 2.07812E+01 1.98695E+01 3.65552E+00-3.63182E-01 7.96688E-02
 -1       127-2.33868E+00-1.00296E+00-1.60624E+00 3.63413E+00-2.65254E-01 4.43735E-02
 -1       128 9.83043E+00 1.01784E+01 9.89007E+00 3.54915E+00-2.16183E-01 9.76189E-02
 -1       129 3.86570E+00 3.95546E+00 3.79871E+00 3.41222E+00-2.18075E-01 7.05475E-02
 -1       130 8.50774E+00 8.50684E+00 8.47672E+00 3.30995E+00-7.21123E-02 2.41225E-02
 -1       131-2.45788E+01-2.13573E+01-2.30257E+01 2.91495E+00-3.84833E-01 2.72527E-01
 -1       132 1.98380E+00 5.17549E+00 3.63709E+00 3.06394E+00-4.63726E-02 1.63694E-01
 -1       133-8.92713E+00-7.68981E+00-8.32921E+00 3.23427E+00-2.85364E-01 1.40571E-01
 -1       134 4.12969E+00 6.53892E+00 5.32602E+00 3.22629E+00-7.29440E-01 2.80066E-01
 -1       135 2.98668E+00 6.23976E+00 4.61848E+00 2.85261E+00-6.68221E-01 1.28500E-01
 -1       136-1.90186E+01-1.79750E+01-1.84680E+01 3.16105E+00-4.88598E-02 3.30268E-02
 -1       137-1.16900E+01-9.52800E+00-1.06032E+01 3.11085E+00-5.95762E-01 1.26132E-01
 -1       138-8.93401E+00-5.75218E+00-7.34672E+00 2.81398E+00-4.86392E-01 1.16013E-01
 -1       139-1.40696E+00-1.41685E+00-1.39862E+00 3.24440E+00-8.39849E-02-2.70821E-03
 -1       140 6.98749E+00 6.98850E+00 7.00640E+00 3.23164E+00-7.91514E-02 1.35468E-02
 -1       141 8.99681E+00 8.99105E+00 8.97126E+00 3.24405E+00-9.46978E-02 5.46367E-03
 -1       142 1.03708E+01 1.03760E+01 1.03584E+01 3.21329E+00 4.67193E-02 1.16270E-02
 -1       143-6.76428E-01-6.73025E-01-6.95767E-01 3.24396E+00 9.73345E-02 7.65896E-03
 -1       144 1.29115E+01 1.29237E+01 1.29310E+01 3.24553E+00 1.08836E-01-2.03501E-02
 -1       145-8.34480E+00-5.80375E+00-7.21692E+00 3.20869E+00-5.36295E-01 3.88914E-01
 -1       146-9.20300E+00-8.18014E+00-8.70981E+00 3.48711E+00-2.97194E-01 1.72761E-01
 -1       147-7.87029E+00-7.85982E+00-7.84998E+00 3.34964E+00-7.21535E-02 3.33001E-02
 -1       148 1.83904E+01 1.87180E+01 1.85324E+01 3.35549E+00-5.31723E-02 2.05100E-03
 -1       149-5.98387E+00-5.99935E+00-5.93036E+00 3.38246E+00-7.56159E-02 1.48520E-02
 -1       150 3.19780E+01 3.40521E+01 3.29073E+01 3.43324E+00-5.69184E-01 4.81432E-01
 -1       151-1.27473E+01-1.25789E+01-1.25526E+01 3.52838E+00-5.45806E-02 4.92799E-02
 -1       152 7.20993E+00 7.29027E+00 7.20114E+00 3.40497E+00 2.80354E-02 2.25196E-02
 -1       153 5.41911E+00 7.04606E+00 6.28997E+00 3.43974E+00-3.80551E-01 2.14763E-01
 -1       154-1.13110E+01-8.78445E+00-9.94029E+00 3.30877E+00-3.98872E-01 3.09450E-01
 -1       155 1.53123E+01 1.57221E+01 1.55342E+01 3.33419E+00 4.62563E-02-2.11751E-02
 -1       156-9.80490E+00-9.77844E+00-9.85647E+00 3.34040E+00 6.65426E-03 3.78249E-02
 -1       157-1.39410E-01 3.79641E-01 1.03443E-01 3.52230E+00-3.23569E-02 5.49842E-02
 -1       158-1.10596E+00-1.09151E+00-1.10043E+00 3.29768E+00 2.51661E-02-3.26571E-03
 -1       159 2.62623E+00 4.04177E+00 3.33546E+00 3.31262E+00-3.64814E-01 1.82865E-01
 -1       160-3.23305E+01-2.99617E+01-3.11458E+01 3.53393E+00-3.51125E-01 1.76810E-01
 -1       161-4.52987E+00-4.52941E+00-4.52903E+00 3.29201E+00-3.39011E-02 1.03789E-02
 -1       162 4.53587E+00 7.75530E+00 6.14169E+00 2.88062E+00-3.83571E-01 2.14795E-01
 -1       163-2.20459E+00-8.61249E-01-1.56269E+00 3.56467E+00-3.21441E-01 1.60804E-01
 -1       164 2.86261E+00 3.05162E+00 2.96539E+00 3.52422E+00-1.45287E-01 6.74796E-02
 -1       165-6.86442E+00-4.79862E+00-5.85885E+00 3.51460E+00-4.30277E-01 2.61823E-01
 -1       166-2.49800E+00-2.49743E+00-2.49479E+00 3.31564E+00 2.31212E-03 1.36302E-02
 -1       167-5.37206E+00-5.39990E+00-5.38491E+00 3.24966E+00-5.29243E-02 1.28381E-03
 -1       168-3.43721E+00-2.74552E+00-3.09167E+00 3.22206E+00-4.04441E-02 2.48241E-02
 -1       169-3.73429E+00-1.20094E+00-2.46567E+00 3.13565E+00-6.56902E-01 2.78680E-01
 -1       170 4.03286E+00 4.19850E+00 4.11239E+00 3.26063E+00 2.12466E-02-2.70297E-02
 -1       171 1.13524E-01 5.80082E-01 3.59615E-01 3.61554E+00-2.12374E-01 6.62331E-02
 -1       172 7.34842E-02 1.12318E-01 1.09672E-01 3.41141E+00-1.08954E-01 5.29999E-02
 -1       173-2.00201E+01-1.71903E+01-1.86083E+01 3.22903E+00-2.52908E-01 2.34611E-01
 -1       174-1.63823E+01-1.63734E+01-1.63743E+01 3.39336E+00-1.24229E-01 3.32878E-02
 -3
    1PSTEP                         3           1           1          
  100CL  101 1.000000000          62                     0    1           1
 -4  TOSTRAIN    6    1
 -5  EXX         1    4    1    1
 -5  EYY         1    4    2    2
 -5  EZZ         1    4    3    3
 -5  EXY         1    4    1    2
 -5  EYZ         1    4    2    3
 -5  EZX         1    4    3    1
 -1       113-2.60744E-02 2.84834E-02-2.15816E-03 7.26917E-02-6.84119E-03 2.45551E-03
 -1       114-3.09437E-02 2.79020E-02 2.84147E-03 7.63393E-02-2.82855E-03 4.87752E-04
 -1       115 2.68382E-04-3.15425E-04 1.27207E-05 6.96117E-02-1.35012E-03-5.78937E-05
 -1       116 2.86675E-04-3.36095E-04-2.13426E-05 6.88997E-02 3.29620E-04 1.14723E-04
 -1       117-4.04464E-02 4.04483E-02-3.56650E-08 5.79759E-02-9.46640E-03 2.21795E-04
 -1       118-3.88477E-02 3.89000E-02 3.52153E-08 5.87331E-02-3.06976E-03 3.47964E-03
 -1       119-5.14365E-03 5.23258E-03-2.79203E-04 6.84062E-02-1.37630E-03-2.83332E-04
 -1       120-5.36219E-03 4.68782E-03 3.42816E-04 6.87758E-02 1.62079E-03 4.34141E-04
 -1       121-2.09921E-02 2.41864E-02-3.16082E-03 7.46538E-02-8.34683E-03 4.28654E-03
 -1       122-1.24111E-02 1.35892E-02-1.20840E-03 7.70176E-02-8.44357E-03 2.63361E-03
 -1       123-2.74902E-03 1.48737E-03 1.37335E-03 7.76901E-02-6.59912E-03 9.61771E-04
 -1       124-8.50693E-04-7.61870E-04 1.68420E-03 7.45699E-02-3.78641E-03 5.89794E-04
 -1       125-9.17008E-05-4.12109E-04 5.22977E-04 7.18698E-02-2.81563E-03-2.26694E-04
 -1       126-2.54140E-02 2.25591E-02 3.02409E-03 7.83273E-02-7.78195E-03 1.70707E-03
 -1       127-1.47763E-02 1.38444E-02 9.17797E-04 7.78691E-02-5.68363E-03 9.50797E-04
 -1       128-2.88294E-03 4.57343E-03-1.60506E-03 7.60481E-02-4.63219E-03 2.09169E-03
 -1       129-1.51595E-04 1.77173E-03-1.58694E-03 7.31141E-02-4.67272E-03 1.51163E-03
 -1       130 2.52272E-04 2.33055E-04-4.12496E-04 7.09228E-02-1.54516E-03 5.16876E-04
 -1       131-3.41673E-02 3.48599E-02-8.89632E-04 6.24591E-02-8.24586E-03 5.83948E-03
 -1       132-3.45944E-02 3.37943E-02 8.30948E-04 6.56516E-02-9.93632E-04 3.50749E-03
 -1       133-1.31318E-02 1.33804E-02-3.19929E-04 6.93011E-02-6.11454E-03 3.01204E-03
 -1       134-2.57371E-02 2.58859E-02-1.03156E-04 6.91302E-02-1.56298E-02 6.00102E-03
 -1       135-3.48765E-02 3.48277E-02 8.83132E-05 6.11232E-02-1.43181E-02 2.75338E-03
 -1       136-1.14392E-02 1.09221E-02 3.58618E-04 6.77322E-02-1.04693E-03 7.07669E-04
 -1       137-2.32349E-02 2.30917E-02 5.22721E-05 6.66566E-02-1.27655E-02 2.70264E-03
 -1       138-3.40839E-02 3.40938E-02-7.28278E-05 6.02955E-02-1.04220E-02 2.48583E-03
 -1       139 7.05006E-06-2.04946E-04 1.85832E-04 6.95182E-02-1.79956E-03-5.80291E-05
 -1       140-1.22329E-04-1.00689E-04 2.82968E-04 6.92449E-02-1.69599E-03 2.90270E-04
 -1       141 2.49260E-04 1.25993E-04-2.98227E-04 6.95108E-02-2.02910E-03 1.17071E-04
 -1       142 8.07866E-05 1.92645E-04-1.84559E-04 6.88516E-02 1.00106E-03 2.49134E-04
 -1       143 1.11869E-04 1.84792E-04-3.02505E-04 6.95087E-02 2.08560E-03 1.64110E-04
 -1       144-1.89261E-04 7.20699E-05 2.27951E-04 6.95423E-02 2.33204E-03-4.36044E-04
 -1       145-2.62252E-02 2.82222E-02-2.05802E-03 6.87530E-02-1.14913E-02 8.33331E-03
 -1       146-1.08530E-02 1.10638E-02-2.85344E-04 7.47189E-02-6.36802E-03 3.70178E-03
 -1       147-2.42281E-04-1.79881E-05 1.92897E-04 7.17731E-02-1.54604E-03 7.13525E-04
 -1       148-3.30088E-03 3.71745E-03-2.57603E-04 7.18987E-02-1.13933E-03 4.39471E-05
 -1       149-2.88715E-04-6.20356E-04 8.57890E-04 7.24764E-02-1.62023E-03 3.18235E-04
 -1       150-2.13576E-02 2.30843E-02-1.44403E-03 7.35645E-02-1.21960E-02 1.03157E-02
 -1       151-2.62964E-03 9.78673E-04 1.54274E-03 7.56032E-02-1.16951E-03 1.05593E-03
 -1       152-4.90293E-04 1.23104E-03-6.78740E-04 7.29589E-02 6.00719E-04 4.82531E-04
 -1       153-1.78224E-02 1.70385E-02 8.37480E-04 7.37039E-02-8.15411E-03 4.60175E-03
 -1       154-2.78647E-02 2.62726E-02 1.50628E-03 7.08975E-02-8.54668E-03 6.63064E-03
 -1       155-4.46772E-03 4.31401E-03 2.86757E-04 7.14422E-02 9.91141E-04-4.53721E-04
 -1       156 1.51270E-04 7.18269E-04-9.53653E-04 7.15753E-02 1.42582E-04 8.10479E-04
 -1       157-5.44149E-03 5.68030E-03-2.37832E-04 7.54728E-02-6.93315E-04 1.17816E-03
 -1       158-1.45927E-04 1.63791E-04-2.72867E-05 7.06598E-02 5.39237E-04-6.99749E-05
 -1       159-1.51664E-02 1.51646E-02 3.04032E-05 7.09800E-02-7.81692E-03 3.91827E-03
 -1       160-2.54703E-02 2.52877E-02-8.44475E-05 7.57220E-02-7.52361E-03 3.78854E-03
 -1       161-2.22729E-05-1.23311E-05-4.21978E-06 7.05383E-02-7.26403E-04 2.22391E-04
 -1       162-3.44462E-02 3.45370E-02-3.81094E-05 6.17235E-02-8.21882E-03 4.60245E-03
 -1       163-1.41837E-02 1.46002E-02-4.29761E-04 7.63807E-02-6.88757E-03 3.44558E-03
 -1       164-2.07557E-03 1.97427E-03 1.26669E-04 7.55140E-02-3.11308E-03 1.44589E-03
 -1       165-2.19536E-02 2.23106E-02-4.07007E-04 7.53077E-02-9.21961E-03 5.61011E-03
 -1       166-3.40857E-05-2.19098E-05 3.45949E-05 7.10448E-02 4.95422E-05 2.92056E-04
 -1       167 2.75267E-04-3.21326E-04-1.02886E-07 6.96309E-02-1.13402E-03 2.75084E-05
 -1       168-7.41720E-03 7.40378E-03-1.30771E-05 6.90396E-02-8.66601E-04 5.31910E-04
 -1       169-2.71622E-02 2.71203E-02 2.07330E-05 6.71881E-02-1.40755E-02 5.97132E-03
 -1       170-1.73937E-03 1.80979E-03-3.51482E-05 6.98661E-02 4.55254E-04-5.79170E-04
 -1       171-5.08901E-03 4.90800E-03 1.84019E-04 7.74708E-02-4.55057E-03 1.41919E-03
 -1       172-5.35546E-04 2.96544E-04 2.39847E-04 7.30968E-02-2.33457E-03 1.13564E-03
 -1       173-3.03482E-02 3.02868E-02-9.80731E-05 6.91888E-02-5.41909E-03 5.02705E-03
 -1       174-1.68446E-04 2.37096E-05 4.36472E-06 7.27101E-02-2.66187E-03 7.13263E-04
 -3
    1PSTEP                         4           1           1          
  100CL  101 1.000000000          62                     0    1           1
 -4  FORC        4    1
 -5  F1          1    2    1    0
 -5  F2          1    2    2    0
 -5  F3          1    2    3    0
 -5  ALL         1    2    0    0    1ALL
 -1       113-5.84576E-11 8.33333E+01-1.39983E+03
 -1       114 1.06194E-10 4.16667E+01-1.05689E+03
 -1       115-1.23346E+02-1.95132E+01 2.81013E+02
 -1       116 4.07726E+01-5.10385E+01-3.03951E+02
 -1       117-6.12417E-11 4.16667E+01-3.14616E+02
 -1       118-9.62563E-11 8.33333E+01 3.76396E+02
 -1       119 4.26255E+02-5.45399E+01 1.50910E+03
 -1       120 9.65563E+02-4.94609E+02-1.33816E+03
 -1       121 2.71081E-11 1.37249E-10-5.41634E+02
 -1       122-1.84288E-10 1.50501E-10 1.89092E+03
 -1       123 1.87571E-10 2.07665E-11-1.29013E+03
 -1       124 1.34962E-11 4.28675E-11-4.35947E+01
 -1       125-1.76136E-11 2.71198E-11-2.03281E+02
 -1       126 1.81013E-10-1.00557E-09 2.81689E+03
 -1       127-7.61541E-12 2.63831E-10-1.77457E+03
 -1       128 7.21521E-11 4.84420E-10 5.61550E+02
 -1       129-7.93419E-11 2.45060E-12 9.14935E+01
 -1       130-2.42619E-11 6.61662E-11 2.19588E+02
 -1       131-5.98845E-10 1.25000E+02 9.13211E+02
 -1       132-3.47257E-10 1.25000E+02 2.82804E+02
 -1       133 1.37294E-10-5.31575E-13 1.44997E+03
 -1       134 8.53517E-11-1.51035E-11-9.19399E+02
 -1       135 1.26965E-10-1.09980E-09-9.67804E+02
 -1       136-8.36695E-11 1.36808E-10-1.68807E+03
 -1       137 2.79119E-11 2.02682E-12 4.26046E+02
 -1       138-5.64658E-11-9.10069E-11 5.43773E+02
 -1       139 2.24406E+02-1.34569E+02-1.55812E+02
 -1       140-4.22737E+02 2.01845E+02-4.32264E+02
 -1       141-2.62372E+02 8.27358E+01-5.04150E+02
 -1       142-3.44608E+02 9.68496E+01 3.77087E+02
 -1       143 1.20863E+02-3.41737E+02 3.79582E+02
 -1       144-6.24796E+02 2.14575E+02 3.93539E+02
 -1       145-9.37757E-11-6.84366E-10 1.91036E+03
 -1       146 5.53923E-10 1.55524E-10 8.92884E+02
 -1       147-8.82527E-12 4.90531E-11 7.67152E+02
 -1       148-4.11534E-10-3.94621E-10-1.06940E+03
 -1       149 2.20709E-10-1.17947E-10-4.65102E+02
 -1       150 3.09471E-10-1.86070E-10-2.34372E+03
 -1       151-2.23833E-10 3.19058E-10 2.20669E+02
 -1       152 2.17652E-10 2.58301E-10 1.53742E+02
 -1       153 6.38701E-10-3.88455E-10 7.93850E+02
 -1       154 1.96176E-11-1.23897E-09-6.42279E+02
 -1       155-3.36786E-11-2.80049E-10 7.58237E+02
 -1       156 1.30902E-10-4.17117E-11-5.72608E+01
 -1       157 9.65603E-11-3.05775E-10-4.97942E+02
 -1       158 4.16442E-11 2.93321E-12-6.98321E-11
 -1       159 1.27086E-10 8.77375E-10-3.86242E-10
 -1       160-7.23173E-10-2.13220E-10-6.03322E-10
 -1       161-2.95886E-11-1.14779E-10-9.62963E-12
 -1       162 3.54123E-10 6.50205E-10 8.06011E-10
 -1       163 4.86511E-11 1.31534E-09 1.84627E-10
 -1       164-1.44794E-10 4.98012E-10-2.39140E-10
 -1       165 4.50777E-10 1.52099E-09-9.70886E-10
 -1       166 7.29924E-11-9.52978E-11-8.80647E-11
 -1       167-3.98312E-11-2.91278E-12-9.83391E-12
 -1       168 1.42290E-10-5.31830E-10 1.01352E-10
 -1       169-4.06967E-10 7.34768E-10 9.01252E-11
 -1       170 9.21850E-11 1.35472E-10 9.89075E-12
 -1       171 5.02931E-10 1.37856E-10 2.44427E-10
 -1       172-2.14471E-10-5.94733E-12 1.52824E-10
 -1       173 8.78341E-10 4.35875E-10-4.18984E-11
 -1       174 8.32934E-11-4.63733E-10-1.00872E-10
 -3
    1PSTEP                         5           1           1          
  100CL  101 1.000000000          62                     0    1           1
 -4  ERROR       1    1
 -5  STR(%)      1    1    0    0
 -1       113 0.00000E+00
 -1       114 0.00000E+00
 -1       115 0.00000E+00
 -1       116 0.00000E+00
 -1       117 0.00000E+00
 -1       118 0.00000E+00
 -1       119 0.00000E+00
 -1       120 0.00000E+00
 -1       121 0.00000E+00
 -1       122 0.00000E+00
 -1       123 0.00000E+00
 -1       124 0.00000E+00
 -1       125 0.00000E+00
 -1       126 0.00000E+00
 -1       127 0.00000E+00
 -1       128 0.00000E+00
 -1       129 0.00000E+00
 -1       130 0.00000E+00
 -1       131 0.00000E+00
 -1       132 0.00000E+00
 -1       133 0.00000E+00
 -1       134 0.00000E+00
 -1       135 0.00000E+00
 -1       136 0.00000E+00
 -1       137 0.00000E+00
 -1       138 0.00000E+00
 -1       139 0.00000E+00
 -1       140 0.00000E+00
 -1       141 0.00000E+00
 -1       142 0.00000E+00
 -1       143 0.00000E+00
 -1       144 0.00000E+00
 -1       145 0.00000E+00
 -1       146 0.00000E+00
 -1       147 0.00000E+00
 -1       148 0.00000E+00
 -1       149 0.00000E+00
 -1       150 0.00000E+00
 -1       151 0.00000E+00
 -1       152 0.00000E+00
 -1       153 0.00000E+00
 -1       154 0.00000E+00
 -1       155 0.00000E+00
 -1       156 0.00000E+00
 -1       157 0.00000E+00
 -1       158 0.00000E+00
 -1       159 0.00000E+00
 -1       160 0.00000E+00
 -1       161 0.00000E+00
 -1       162 0.00000E+00
 -1       163 0.00000E+00
 -1       164 0.00000E+00
 -1       165 0.00000E+00
 -1       166 0.00000E+00
 -1       167 0.00000E+00
 -1       168 0.00000E+00
 -1       169 0.00000E+00
 -1       170 0.00000E+00
 -1       171 0.00000E+00
 -1       172 0.00000E+00
 -1       173 0.00000E+00
 -1       174 0.00000E+00
 -3
 9999
