    1C
    1UUSER                                                              
    1UDATE              26.march.2021                                   
    1UTIME              22:13:22                                        
    1UHOST                                                              
    1UPGM               CalculiX                                        
    1UVERSION           Version 2.17                             
    1UCOMPILETIME       Thu Jul 23 21:43:50 CEST 2020                    
    1UDIR                                                               
    1UDBN                                                               
    1UMAT    1MAT                                                       
    2C                            84                                     1
 -1        20 9.98152E+00-3.67642E-03-3.67642E-03
 -1        22 1.00200E+01 3.98279E-03 3.98279E-03
 -1        23 7.05528E+00-2.88741E-03 7.06052E+00
 -1        25 7.08817E+00 3.12802E-03 7.08249E+00
 -1        26 7.06052E+00-2.88741E-03 7.05528E+00
 -1        28 7.08249E+00 3.12802E-03 7.08817E+00
 -1        37 5.75827E+00 5.76524E+00 5.76524E+00
 -1        39 5.79000E+00 5.78246E+00 5.78246E+00
 -1        40 5.76524E+00 5.76524E+00 5.75827E+00
 -1        42 5.78246E+00 5.78246E+00 5.79000E+00
 -1        43 5.76524E+00 5.75827E+00 5.76524E+00
 -1        45 5.78246E+00 5.79000E+00 5.78246E+00
 -1        57 7.05528E+00 7.06052E+00-2.88741E-03
 -1        59 7.08817E+00 7.08249E+00 3.12802E-03
 -1        60 7.06052E+00 7.05528E+00-2.88741E-03
 -1        62 7.08249E+00 7.08817E+00 3.12802E-03
 -1        71-3.67642E-03-3.67642E-03 9.98152E+00
 -1        73 3.98279E-03 3.98279E-03 1.00200E+01
 -1        74-2.88741E-03 7.06052E+00 7.05528E+00
 -1        76 3.12802E-03 7.08249E+00 7.08817E+00
 -1        77-2.88741E-03 7.05528E+00 7.06052E+00
 -1        79 3.12802E-03 7.08817E+00 7.08249E+00
 -1        88-3.67642E-03 9.98152E+00-3.67642E-03
 -1        90 3.98279E-03 1.00200E+01 3.98279E-03
 -1        91 9.22310E+00-3.48630E-03 3.81634E+00
 -1        93 9.25580E+00 3.77683E-03 3.83820E+00
 -1        94 9.22030E+00-3.60674E-03 3.82316E+00
 -1        96 9.25883E+00 3.90731E-03 3.83082E+00
 -1       105 6.72360E+00 3.02332E+00 6.72875E+00
 -1       107 6.75542E+00 3.03526E+00 6.74984E+00
 -1       108 6.72873E+00 3.02332E+00 6.72361E+00
 -1       110 6.74987E+00 3.03526E+00 6.75540E+00
 -1       119 6.72520E+00 6.72721E+00 3.02230E+00
 -1       121 6.75369E+00 6.75151E+00 3.03637E+00
 -1       122 6.72872E+00 6.72283E+00 3.02618E+00
 -1       124 6.74987E+00 6.75625E+00 3.03217E+00
 -1       133 9.22030E+00 3.82316E+00-3.60516E-03
 -1       135 9.25883E+00 3.83082E+00 3.90558E-03
 -1       136 9.22307E+00 3.81633E+00-3.33178E-03
 -1       138 9.25583E+00 3.83821E+00 3.60942E-03
 -1       147 3.82315E+00-3.53498E-03 9.22029E+00
 -1       149 3.83082E+00 3.82956E-03 9.25885E+00
 -1       150 3.81634E+00-3.41393E-03 9.22309E+00
 -1       152 3.83821E+00 3.69842E-03 9.25581E+00
 -1       161-3.53498E-03 3.82315E+00 9.22029E+00
 -1       163 3.82956E-03 3.83082E+00 9.25885E+00
 -1       164-3.41393E-03 3.81634E+00 9.22309E+00
 -1       166 3.69842E-03 3.83821E+00 9.25581E+00
 -1       175 3.02332E+00 6.72873E+00 6.72361E+00
 -1       177 3.03526E+00 6.74987E+00 6.75540E+00
 -1       178 3.02332E+00 6.72360E+00 6.72875E+00
 -1       180 3.03526E+00 6.75542E+00 6.74984E+00
 -1       189-3.48630E-03 9.22310E+00 3.81634E+00
 -1       191 3.77683E-03 9.25580E+00 3.83820E+00
 -1       192-3.60674E-03 9.22030E+00 3.82316E+00
 -1       194 3.90731E-03 9.25883E+00 3.83082E+00
 -1       203 3.81633E+00 9.22307E+00-3.33178E-03
 -1       205 3.83821E+00 9.25583E+00 3.60942E-03
 -1       206 3.82316E+00 9.22030E+00-3.60516E-03
 -1       208 3.83082E+00 9.25883E+00 3.90558E-03
 -1       217 8.54452E+00 3.69238E+00 3.60357E+00
 -1       219 8.57780E+00 3.69970E+00 3.62452E+00
 -1       220 8.54724E+00 3.68607E+00 3.60380E+00
 -1       222 8.57485E+00 3.70654E+00 3.62427E+00
 -1       223 8.54198E+00 3.69229E+00 3.61002E+00
 -1       225 8.58055E+00 3.69980E+00 3.61753E+00
 -1       226 8.54457E+00 3.68571E+00 3.61027E+00
 -1       228 8.57775E+00 3.70692E+00 3.61726E+00
 -1       243 3.62002E+00 3.62002E+00 8.56865E+00
 -1       245 3.62738E+00 3.62738E+00 8.60727E+00
 -1       246 3.62012E+00 3.61343E+00 8.57123E+00
 -1       248 3.62727E+00 3.63451E+00 8.60447E+00
 -1       249 3.61343E+00 3.62012E+00 8.57123E+00
 -1       251 3.63451E+00 3.62727E+00 8.60447E+00
 -1       252 3.61378E+00 3.61378E+00 8.57386E+00
 -1       254 3.63414E+00 3.63414E+00 8.60162E+00
 -1       269 3.68607E+00 8.54724E+00 3.60380E+00
 -1       271 3.70654E+00 8.57485E+00 3.62427E+00
 -1       272 3.69238E+00 8.54452E+00 3.60357E+00
 -1       274 3.69970E+00 8.57780E+00 3.62452E+00
 -1       275 3.68571E+00 8.54457E+00 3.61027E+00
 -1       277 3.70692E+00 8.57775E+00 3.61726E+00
 -1       278 3.69229E+00 8.54198E+00 3.61002E+00
 -1       280 3.69980E+00 8.58055E+00 3.61753E+00
 -3
    3C                            12                                     1
 -1         1    1    0    1
 -2        23        91       217       105        25        93       219       107
 -1         2    1    0    1
 -2       105       220       119        37       107       222       121        39
 -1         3    1    0    1
 -2        94        20       133       223        96        22       135       225
 -1         4    1    0    1
 -2       226       136        57       119       228       138        59       121
 -1         5    1    0    1
 -2        71       147       243       161        73       149       245       163
 -1         6    1    0    1
 -2       164       246       175        74       166       248       177        76
 -1         7    1    0    1
 -2       150        26       108       249       152        28       110       251
 -1         8    1    0    1
 -2       252       108        40       175       254       110        42       177
 -1         9    1    0    1
 -2        43       119       269       178        45       121       271       180
 -1        10    1    0    1
 -2       178       272       189        77       180       274       191        79
 -1        11    1    0    1
 -2       122        60       203       275       124        62       205       277
 -1        12    1    0    1
 -2       278       206        88       192       280       208        90       194
 -3
    1PSTEP                         1           1           1          
  100CL  101 1.000000000          84                     0    1           1
 -4  DISP        4    1
 -5  D1          1    2    1    0
 -5  D2          1    2    2    0
 -5  D3          1    2    3    0
 -5  ALL         1    2    0    0    1ALL
 -1        20 3.05939E-04-1.80493E-09 1.75262E-04
 -1        22 3.05958E-04 1.80493E-09 1.75266E-04
 -1        23 3.66241E-05-9.52981E-10 6.74205E-05
 -1        25 3.63877E-05 1.03240E-09 6.77978E-05
 -1        26 3.66847E-05-9.52981E-10 6.74777E-05
 -1        28 3.63219E-05 1.03240E-09 6.77358E-05
 -1        37 2.72545E-05-2.59780E-05 1.04530E-06
 -1        39 2.68728E-05-2.55061E-05 1.25597E-06
 -1        40 2.73577E-05-2.60375E-05 1.15162E-06
 -1        42 2.67610E-05-2.54417E-05 1.14079E-06
 -1        43 2.72997E-05-2.59297E-05 1.25630E-06
 -1        45 2.68237E-05-2.55585E-05 1.02739E-06
 -1        57 1.19370E-04-1.11690E-04 2.34012E-06
 -1        59 1.18244E-04-1.10052E-04 2.49707E-06
 -1        60 1.19631E-04-1.11428E-04 2.36220E-06
 -1        62 1.17961E-04-1.10336E-04 2.47316E-06
 -1        71-4.99275E-11-4.99275E-11-2.51002E-10
 -1        73 4.99275E-11 4.99275E-11 2.51002E-10
 -1        74 1.15512E-09-3.68989E-05-6.71991E-05
 -1        76-1.25138E-09-3.65254E-05-6.74677E-05
 -1        77 1.15512E-09-3.68359E-05-6.71403E-05
 -1        79-1.25138E-09-3.65936E-05-6.75314E-05
 -1        88 2.28886E-09-3.18137E-04-1.79017E-04
 -1        90-2.28886E-09-3.18161E-04-1.79021E-04
 -1        91 1.67216E-04 3.56085E-09 1.49818E-04
 -1        93 1.65727E-04-3.85759E-09 1.51974E-04
 -1        94 1.66765E-04 3.68387E-09 1.49625E-04
 -1        96 1.66215E-04-3.99086E-09 1.52184E-04
 -1       105 3.24981E-05-7.00676E-06 4.83197E-05
 -1       107 3.21097E-05-6.41990E-06 4.86644E-05
 -1       108 3.25635E-05-6.94868E-06 4.83727E-05
 -1       110 3.20389E-05-6.48281E-06 4.86070E-05
 -1       119 5.99825E-05-5.69435E-05 1.78229E-06
 -1       121 5.89453E-05-5.58423E-05 1.93253E-06
 -1       122 5.99189E-05-5.67215E-05 2.08536E-06
 -1       124 5.90142E-05-5.60828E-05 1.60421E-06
 -1       133 2.45897E-04-2.17864E-05 1.25896E-04
 -1       135 2.45544E-04-2.03678E-05 1.26378E-04
 -1       136 2.46153E-04-2.16870E-05 1.25891E-04
 -1       138 2.45267E-04-2.04756E-05 1.26382E-04
 -1       147 6.97249E-06 4.14951E-10 2.65427E-05
 -1       149 6.40649E-06-4.49531E-10 2.66506E-05
 -1       150 6.93227E-06 4.00741E-10 2.64425E-05
 -1       152 6.45006E-06-4.34137E-10 2.67592E-05
 -1       161-3.84529E-10-6.98647E-06-2.63131E-05
 -1       163 4.16573E-10-6.42495E-06-2.64205E-05
 -1       164-3.71361E-10-6.94651E-06-2.62137E-05
 -1       166 4.02308E-10-6.46824E-06-2.65281E-05
 -1       175 7.51782E-06-3.20813E-05-4.69186E-05
 -1       177 7.01987E-06-3.15642E-05-4.71343E-05
 -1       178 7.58393E-06-3.20204E-05-4.68697E-05
 -1       180 6.94825E-06-3.16302E-05-4.71872E-05
 -1       189-4.22533E-09-1.73251E-04-1.52530E-04
 -1       191 4.57744E-09-1.71691E-04-1.54779E-04
 -1       192-4.37130E-09-1.72781E-04-1.52327E-04
 -1       194 4.73557E-09-1.72200E-04-1.54999E-04
 -1       203 2.49810E-05-2.45849E-04-1.25035E-04
 -1       205 2.35632E-05-2.44851E-04-1.25361E-04
 -1       206 2.50972E-05-2.45560E-04-1.24988E-04
 -1       208 2.34373E-05-2.45163E-04-1.25411E-04
 -1       217 1.25377E-04-4.09018E-06 1.02101E-04
 -1       219 1.24041E-04-2.99414E-06 1.03841E-04
 -1       220 1.25505E-04-4.02561E-06 1.02359E-04
 -1       222 1.23903E-04-3.06409E-06 1.03562E-04
 -1       223 1.25017E-04-4.03878E-06 1.01961E-04
 -1       225 1.24430E-04-3.04982E-06 1.03993E-04
 -1       226 1.25151E-04-3.97709E-06 1.02216E-04
 -1       228 1.24286E-04-3.11665E-06 1.03717E-04
 -1       243 4.28682E-06-4.18771E-06 4.06206E-07
 -1       245 3.71469E-06-3.63021E-06 4.09446E-07
 -1       246 4.27632E-06-4.15199E-06 4.97719E-07
 -1       248 3.72606E-06-3.66890E-06 3.10307E-07
 -1       249 4.24997E-06-4.17820E-06 3.12264E-07
 -1       251 3.75461E-06-3.64051E-06 5.11216E-07
 -1       252 4.23800E-06-4.14102E-06 4.03873E-07
 -1       254 3.76758E-06-3.68079E-06 4.11973E-07
 -1       269 4.81663E-06-1.25693E-04-1.01633E-04
 -1       271 3.76596E-06-1.23976E-04-1.02920E-04
 -1       272 4.89437E-06-1.25528E-04-1.01398E-04
 -1       274 3.68174E-06-1.24155E-04-1.03175E-04
 -1       275 4.80693E-06-1.25339E-04-1.01490E-04
 -1       277 3.77647E-06-1.24359E-04-1.03076E-04
 -1       278 4.88092E-06-1.25167E-04-1.01258E-04
 -1       280 3.69632E-06-1.24545E-04-1.03327E-04
 -3
    1PSTEP                         2           1           1          
  100CL  101 1.000000000          84                     0    1           1
 -4  STRESS      6    1
 -5  SXX         1    4    1    1
 -5  SYY         1    4    2    2
 -5  SZZ         1    4    3    3
 -5  SXY         1    4    1    2
 -5  SYZ         1    4    2    3
 -5  SZX         1    4    3    1
 -1        20 1.11731E+05-1.74457E+05-5.49070E+04 1.00081E+03-7.31117E+04-2.13736E+05
 -1        22 1.22234E+05-1.30132E+05 4.46149E+03-6.86721E+03-7.16571E+04-2.24582E+05
 -1        23 7.68065E+04-1.12986E+04-4.59421E+04 8.32903E+04 6.68177E+04-8.05310E+04
 -1        25 6.24601E+04-1.05393E+04-7.44487E+04 8.26052E+04 6.66198E+04-6.43175E+04
 -1        26 4.81167E+04-7.69032E+04-5.10527E+04 1.96619E+04 1.34412E+04-2.17080E+03
 -1        28 5.33736E+04-6.40671E+04-4.81213E+04 1.77570E+04 1.26584E+04-4.51982E+03
 -1        37-1.83729E+05-8.78535E+04 1.34667E+05-1.10977E+05 1.11786E+05 4.45346E+04
 -1        39-1.90007E+05-9.07581E+04 1.30924E+05-1.03654E+05 1.07028E+05 5.30533E+04
 -1        40-2.70232E+03 8.77417E+02-1.78836E+04 2.66081E+03 4.97542E+03-1.31725E+04
 -1        42-4.35241E+03 4.06859E+03-1.70695E+04 2.71239E+03 3.13506E+03-1.19652E+04
 -1        43 8.55262E+04 2.20092E+05-1.60208E+05 1.20167E+05-4.75158E+04-1.29227E+05
 -1        45 8.72849E+04 2.23954E+05-1.60710E+05 1.12085E+05-5.51392E+04-1.24792E+05
 -1        57-1.06371E+05-5.69521E+04 2.91165E+04 2.77330E+04 2.63045E+04 7.40586E+04
 -1        59-1.05822E+05-4.99873E+04 3.48026E+04 2.21704E+04 1.95424E+04 7.73530E+04
 -1        60 1.07602E+04 1.49163E+05-1.20395E+04-4.99529E+04-5.65949E+04-2.19605E+04
 -1        62 2.24630E+03 1.47336E+05-2.74307E+04-4.61736E+04-6.02172E+04-1.21697E+04
 -1        71 2.71295E+04-2.83916E+04 1.19673E+03-4.29874E+02 8.11260E+03-9.25988E+03
 -1        73 1.96656E+04-2.09844E+04 1.25188E+03-4.27549E+02 6.66021E+03-7.78240E+03
 -1        74 8.44561E+04-4.79316E+04 4.24824E+04-1.74009E+04 3.92620E+03-1.19809E+04
 -1        76 7.09256E+04-5.31125E+04 3.95391E+04-1.56402E+04 6.19877E+03-1.09594E+04
 -1        77 6.09986E+03-8.90105E+04 3.58065E+04-9.31611E+04 8.96897E+04-7.64984E+04
 -1        79 4.83629E+03-7.38220E+04 6.55280E+04-9.24740E+04 7.27766E+04-7.59251E+04
 -1        88 1.88342E+05-1.30118E+05 4.76252E+04 1.10350E+04 2.17238E+05 7.94344E+04
 -1        90 1.38665E+05-1.41316E+05-1.54355E+04 1.98881E+04 2.28741E+05 7.85516E+04
 -1        91-8.57736E+04 7.63624E+04 1.19974E+05-1.11079E+05-3.01827E+04 8.43238E+02
 -1        93-9.65384E+04 8.59566E+04 9.57011E+04-1.10954E+05-3.28421E+04 1.72083E+04
 -1        94-7.56946E+04 1.06155E+05 5.51063E+04 1.49442E+04-1.76477E+03 8.33487E+04
 -1        96-6.99721E+04 1.41409E+05 1.10894E+05 9.55564E+03-5.97884E+03 7.35205E+04
 -1       105 5.32732E+04-5.85907E+04-4.09809E+04 1.88842E+04-2.35625E+04-1.22036E+04
 -1       107 3.94259E+04-6.27166E+04-6.39471E+04 2.15384E+04-2.61699E+04 1.70473E+03
 -1       108-7.93527E+03-5.22950E+04 5.02346E+04 3.42785E+03 1.52445E+04 9.18769E+03
 -1       110-7.18665E+03-4.51528E+04 5.05407E+04 2.05711E+03 1.39174E+04 9.25618E+03
 -1       119 5.86610E+04-7.02732E+02 3.94177E+03-9.92715E+03-2.02617E+04-3.79892E+04
 -1       121 5.17036E+04 3.38673E+03 3.04028E+03-1.09341E+04-3.21118E+04-2.78280E+04
 -1       122-7.09621E+03-1.98187E+05 4.47015E+04 4.45163E+04 8.06598E+04 1.04552E+05
 -1       124-1.43822E+03-1.88048E+05 3.74247E+04 4.31459E+04 7.44921E+04 1.18147E+05
 -1       133-1.31872E+05-1.45723E+05 2.00444E+04 1.08818E+05 2.88232E+04 1.65839E+05
 -1       135-1.31435E+05-1.10475E+05 5.83363E+04 1.01355E+05 2.79258E+04 1.58179E+05
 -1       136 1.78175E+04-1.09499E+05-5.25745E+04 2.26856E+04-5.44959E+04-5.88100E+04
 -1       138 2.83035E+04-9.36817E+04-2.58987E+04 1.72622E+04-6.02998E+04-5.92617E+04
 -1       147 2.56127E+04 1.41893E+04 6.38526E+03-1.33534E+03-1.66367E+03-5.68982E+03
 -1       149 1.84616E+04 2.22855E+04 6.71645E+03-1.59618E+03-3.10306E+03-4.16452E+03
 -1       150-8.76174E+03 1.70511E+03 1.40315E+04-1.51372E+04-1.54702E+04-1.17078E+04
 -1       152-4.08406E+03 1.36638E+04 1.68577E+04-1.58396E+04-1.71752E+04-1.41258E+04
 -1       161-1.50788E+04-2.70631E+04-8.99842E+03 1.51532E+03 7.20716E+03 2.55880E+03
 -1       163-2.34884E+04-2.00780E+04-9.35040E+03 1.71256E+03 5.71850E+03 4.08041E+03
 -1       164-2.29753E+03 7.71119E+03-1.28906E+04 1.33134E+04 1.25125E+04 1.15964E+04
 -1       166-1.42785E+04 3.38683E+03-1.53979E+04 1.39521E+04 1.48556E+04 1.33671E+04
 -1       175 5.69489E+04 4.23955E+03-3.94728E+04-6.02209E+03-1.09354E+04-1.65656E+04
 -1       177 4.96741E+04 3.45921E+03-3.99134E+04-4.86487E+03-1.09866E+04-1.52672E+04
 -1       178 7.61569E+04-5.30292E+04 6.08527E+04-1.79208E+04 1.55378E+04 2.92774E+04
 -1       180 8.14534E+04-3.77924E+04 8.64192E+04-2.11178E+04 7.70622E+02 3.23925E+04
 -1       189-7.26406E+04 9.69122E+04-1.28842E+05 1.30505E+05 7.98427E+02 3.76491E+04
 -1       191-8.40780E+04 1.07986E+05-1.03927E+05 1.30314E+05-1.62552E+04 4.07537E+04
 -1       192-1.17493E+05 9.87630E+04-5.01092E+04-3.70830E+04-8.23188E+04-1.31072E+02
 -1       194-1.57190E+05 9.28868E+04-1.09163E+05-3.10386E+04-7.18407E+04 4.73918E+03
 -1       203 9.09413E+04-4.56786E+04 4.32911E+04-2.39483E+04 3.70844E+04 4.70567E+04
 -1       205 7.65606E+04-5.50039E+04 1.29164E+04-2.00657E+04 3.76497E+04 5.37545E+04
 -1       206 1.69371E+05 1.53563E+05-1.38992E+04-1.07199E+05-1.67785E+05-2.63045E+04
 -1       208 1.28961E+05 1.52752E+05-5.54785E+04-9.87875E+04-1.59774E+05-2.45944E+04
 -1       217 1.33316E+05 1.79976E+05-4.51868E+03 3.28538E+04 4.41733E+04-1.97861E+03
 -1       219 1.27227E+05 1.93188E+05-2.21144E+04 3.41860E+04 3.95212E+04 1.24170E+04
 -1       220-1.69294E+05-1.00117E+04 9.35400E+04-1.07900E+05 6.34993E+04-9.98225E+03
 -1       222-1.85619E+05-1.29478E+04 7.41492E+04-1.02327E+05 5.68891E+04 5.85133E+03
 -1       223 1.45799E+05 8.48572E+04-8.50636E+04-9.78781E+04-7.28197E+04-1.26317E+05
 -1       225 1.40772E+05 1.10125E+05-5.13840E+04-1.02692E+05-7.98283E+04-1.32774E+05
 -1       226-2.05009E+04 1.05301E+05 4.13617E+04-1.55510E+04 7.89253E+04 1.62911E+05
 -1       228-1.63946E+04 1.15822E+05 6.54591E+04-1.78339E+04 6.90969E+04 1.64571E+05
 -1       243-1.30350E+04 1.23281E+04 1.48787E+03-5.35024E+02-3.33783E+03 1.54639E+03
 -1       245-2.11708E+04 2.00189E+04 1.40394E+03-6.05108E+02-4.81487E+03 3.12140E+03
 -1       246-2.77576E+04-2.34576E+04-1.48426E+03-3.37735E+03-1.73861E+04 5.62545E+03
 -1       248-3.78841E+04-2.43454E+04-1.53821E+03-3.08732E+03-1.60912E+04 7.58899E+03
 -1       249 2.32199E+04 2.66255E+04 1.10100E+03 4.88357E+03-2.70668E+03 1.70455E+04
 -1       251 2.41395E+04 3.65553E+04 1.13649E+03 4.40216E+03-4.53408E+03 1.58355E+04
 -1       252-7.23364E+03 6.73189E+03-4.35930E+03 3.50918E+03 2.37283E+04-2.23341E+04
 -1       254-8.16662E+03 7.50564E+03-4.59347E+03 3.34491E+03 2.29989E+04-2.16068E+04
 -1       269-7.89764E+03 2.13520E+05-1.49186E+05 1.22652E+05-1.66787E+04-9.76965E+04
 -1       271-2.37569E+03 2.33189E+05-1.25960E+05 1.15432E+05-3.41751E+04-8.97596E+04
 -1       272-1.99255E+05-1.64265E+05 5.51471E+03-3.39740E+04-3.57432E+03-4.77267E+04
 -1       274-2.14462E+05-1.58069E+05 2.35789E+04-3.55476E+04-1.85701E+04-4.23460E+04
 -1       275-7.76596E+04 4.01630E+04-2.23522E+04 2.85323E+04-1.31465E+05-4.95832E+04
 -1       277-8.08703E+04 4.00248E+04-4.73316E+04 2.81970E+04-1.32601E+05-4.00214E+04
 -1       278-1.06654E+05-1.67445E+05 7.78509E+04 8.48461E+04 1.26418E+05 7.35120E+04
 -1       280-1.36108E+05-1.62205E+05 4.13518E+04 9.02574E+04 1.33206E+05 8.14320E+04
 -3
    1PSTEP                         3           1           1          
  100CL  101 1.000000000          84                     0    1           1
 -4  TOSTRAIN    6    1
 -5  EXX         1    4    1    1
 -5  EYY         1    4    2    2
 -5  EZZ         1    4    3    3
 -5  EXY         1    4    1    2
 -5  EYZ         1    4    2    3
 -5  EZX         1    4    3    1
 -1        20 2.64528E-06-2.80592E-06-5.28781E-07 1.90630E-08-1.39260E-06-4.07116E-06
 -1        22 2.34338E-06-2.46360E-06 1.00085E-07-1.30804E-07-1.36490E-06-4.27776E-06
 -1        23 1.37698E-06-3.01215E-07-9.61091E-07 1.58648E-06 1.27272E-06-1.53392E-06
 -1        25 1.28874E-06-1.01724E-07-1.31905E-06 1.57343E-06 1.26895E-06-1.22510E-06
 -1        26 1.26745E-06-1.11388E-06-6.21490E-07 3.74512E-07 2.56022E-07-4.13486E-08
 -1        28 1.27517E-06-9.61799E-07-6.58069E-07 3.38229E-07 2.41113E-07-8.60918E-08
 -1        37-2.89777E-06-1.07157E-06 3.16691E-06-2.11386E-06 2.12925E-06 8.48277E-07
 -1        39-2.96053E-06-1.07009E-06 3.15243E-06-1.97436E-06 2.03863E-06 1.01054E-06
 -1        40 3.51582E-08 1.03344E-07-2.54010E-07 5.06822E-08 9.47699E-08-2.50905E-07
 -1        42-6.62498E-09 1.53775E-07-2.48854E-07 5.16646E-08 5.97155E-08-2.27908E-07
 -1        43 9.89907E-07 3.55306E-06-3.69075E-06 2.28890E-06-9.05062E-07-2.46147E-06
 -1        45 1.00090E-06 3.60413E-06-3.72281E-06 2.13495E-06-1.05027E-06-2.37700E-06
 -1        57-1.43620E-06-4.94881E-07 1.14452E-06 5.28247E-07 5.01039E-07 1.41064E-06
 -1        59-1.48376E-06-4.20243E-07 1.19480E-06 4.22294E-07 3.72236E-07 1.47339E-06
 -1        60-4.45080E-07 2.19116E-06-8.79361E-07-9.51483E-07-1.07800E-06-4.18296E-07
 -1        62-4.94143E-07 2.26947E-06-1.05942E-06-8.79497E-07-1.14699E-06-2.31805E-07
 -1        71 5.17040E-07-5.40505E-07 2.30818E-08-8.18808E-09 1.54526E-07-1.76379E-07
 -1        73 3.74876E-07-3.99409E-07 2.41397E-08-8.14380E-09 1.26861E-07-1.48236E-07
 -1        74 1.26140E-06-1.26027E-06 4.61906E-07-3.31446E-07 7.47848E-08-2.28209E-07
 -1        76 1.09887E-06-1.26376E-06 5.01028E-07-2.97908E-07 1.18072E-07-2.08751E-07
 -1        77 3.23239E-07-1.48839E-06 8.89080E-07-1.77450E-06 1.70837E-06-1.45711E-06
 -1        79 1.07318E-07-1.39093E-06 1.26335E-06-1.76141E-06 1.38622E-06-1.44619E-06
 -1        88 3.12220E-06-2.94372E-06 4.41877E-07 2.10190E-07 4.13787E-06 1.51304E-06
 -1        90 2.72073E-06-2.61223E-06-2.14506E-07 3.78821E-07 4.35697E-06 1.49622E-06
 -1        91-2.11977E-06 9.68530E-07 1.79923E-06-2.11579E-06-5.74909E-07 1.60617E-08
 -1        93-2.21298E-06 1.26312E-06 1.44873E-06-2.11341E-06-6.25564E-07 3.27778E-07
 -1        94-1.81792E-06 1.64588E-06 6.73529E-07 2.84652E-07-3.36147E-08 1.58759E-06
 -1        96-2.13426E-06 1.89205E-06 1.31082E-06 1.82012E-07-1.13883E-07 1.40039E-06
 -1       105 1.21824E-06-9.12504E-07-5.77079E-07 3.59699E-07-4.48809E-07-2.32449E-07
 -1       107 1.13443E-06-8.11138E-07-8.34578E-07 4.10256E-07-4.98474E-07 3.24710E-08
 -1       108-1.07211E-07-9.52159E-07 1.00079E-06 6.52924E-08 2.90371E-07 1.75004E-07
 -1       110-1.28982E-07-8.52147E-07 9.70586E-07 3.91830E-08 2.65094E-07 1.76308E-07
 -1       119 8.45264E-07-2.85473E-07-1.97007E-07-1.89089E-07-3.85936E-07-7.23603E-07
 -1       121 7.29312E-07-1.91010E-07-1.97609E-07-2.08269E-07-6.11654E-07-5.30057E-07
 -1       122 5.70686E-07-3.06913E-06 1.55731E-06 8.47930E-07 1.53638E-06 1.99147E-06
 -1       124 6.41007E-07-2.91346E-06 1.38125E-06 8.21826E-07 1.41890E-06 2.25041E-06
 -1       133-1.37975E-06-1.64359E-06 1.51389E-06 2.07272E-06 5.49014E-07 3.15884E-06
 -1       135-1.69660E-06-1.29737E-06 1.91808E-06 1.93058E-06 5.31920E-07 3.01293E-06
 -1       136 9.73473E-07-1.45160E-06-3.67328E-07 4.32106E-07-1.03802E-06-1.12019E-06
 -1       138 9.40332E-07-1.38320E-06-9.20920E-08 3.28804E-07-1.14857E-06-1.12879E-06
 -1       147 2.84840E-07 6.72517E-08-8.13970E-08-2.54350E-08-3.16890E-08-1.08377E-07
 -1       149 1.43018E-07 2.15855E-07-8.06986E-08-3.04033E-08-5.91058E-08-7.93242E-08
 -1       150-1.97549E-07 1.81933E-09 2.36608E-07-2.88327E-07-2.94671E-07-2.23006E-07
 -1       152-1.94000E-07 1.44054E-07 2.04890E-07-3.01707E-07-3.27147E-07-2.69062E-07
 -1       161-6.24223E-08-2.90695E-07 5.33941E-08 2.88633E-08 1.37279E-07 4.87391E-08
 -1       163-2.14797E-07-1.49837E-07 5.44988E-08 3.26202E-08 1.08924E-07 7.77221E-08
 -1       164-1.08967E-08 1.79746E-07-2.12670E-07 2.53588E-07 2.38334E-07 2.20883E-07
 -1       166-1.56413E-07 1.80070E-07-1.77734E-07 2.65755E-07 2.82965E-07 2.54611E-07
 -1       175 9.89288E-07-1.46999E-08-8.47317E-07-1.14706E-07-2.08293E-07-3.15535E-07
 -1       177 8.88064E-07 7.78038E-09-8.18365E-07-9.26642E-08-2.09269E-07-2.90803E-07
 -1       178 1.08146E-06-1.37923E-06 7.89954E-07-3.41349E-07 2.95957E-07 5.57664E-07
 -1       180 9.79712E-07-1.29164E-06 1.07430E-06-4.02243E-07 1.46785E-08 6.17000E-07
 -1       189-9.23981E-07 2.30560E-06-1.99448E-06 2.48581E-06 1.52081E-08 7.17125E-07
 -1       191-1.24976E-06 2.40861E-06-1.62783E-06 2.48218E-06-3.09623E-07 7.76261E-07
 -1       192-1.93537E-06 2.18379E-06-6.51871E-07-7.06342E-07-1.56798E-06-2.49661E-09
 -1       194-2.23160E-06 2.53176E-06-1.31681E-06-5.91210E-07-1.36839E-06 9.02700E-08
 -1       203 1.34297E-06-1.25932E-06 4.35345E-07-4.56158E-07 7.06370E-07 8.96318E-07
 -1       205 1.30677E-06-1.19922E-06 9.44962E-08-3.82203E-07 7.17138E-07 1.02389E-06
 -1       206 1.86772E-06 1.56661E-06-1.62314E-06-2.04188E-06-3.19591E-06-5.01038E-07
 -1       208 1.46196E-06 1.91513E-06-2.05117E-06-1.88167E-06-3.04332E-06-4.68465E-07
 -1       217 1.18211E-06 2.07087E-06-1.44331E-06 6.25787E-07 8.41397E-07-3.76879E-08
 -1       219 1.11215E-06 2.36857E-06-1.73244E-06 6.51163E-07 7.52785E-07 2.36514E-07
 -1       220-2.84765E-06 1.86291E-07 2.15871E-06-2.05524E-06 1.20951E-06-1.90138E-07
 -1       222-2.98871E-06 3.00266E-07 1.95925E-06-1.94909E-06 1.08360E-06 1.11454E-07
 -1       223 2.13716E-06 9.76361E-07-2.26023E-06-1.86434E-06-1.38704E-06-2.40604E-06
 -1       225 1.80440E-06 1.22064E-06-1.85573E-06-1.95603E-06-1.52054E-06-2.52902E-06
 -1       226-9.45052E-07 1.45118E-06 2.33282E-07-2.96209E-07 1.50334E-06 3.10307E-06
 -1       228-1.03706E-06 1.48136E-06 5.22063E-07-3.39694E-07 1.31613E-06 3.13468E-06
 -1       243-2.51719E-07 2.31389E-07 2.49076E-08-1.01909E-08-6.35777E-08 2.94550E-08
 -1       245-4.04362E-07 3.80205E-07 2.56338E-08-1.15259E-08-9.17119E-08 5.94552E-08
 -1       246-2.97070E-07-2.15165E-07 2.03374E-07-6.43304E-08-3.31165E-07 1.07151E-07
 -1       248-4.41305E-07-1.83424E-07 2.50999E-07-5.88062E-08-3.06499E-07 1.44552E-07
 -1       249 2.18343E-07 2.83212E-07-2.02969E-07 9.30203E-08-5.15558E-08 3.24676E-07
 -1       251 1.88014E-07 4.24505E-07-2.50138E-07 8.38507E-08-8.63635E-08 3.01628E-07
 -1       252-1.16416E-07 1.49594E-07-6.16671E-08 6.68416E-08 4.51968E-07-4.25411E-07
 -1       254-1.32458E-07 1.66061E-07-6.43981E-08 6.37125E-08 4.38074E-07-4.11558E-07
 -1       269-3.98505E-07 3.81898E-06-3.08971E-06 2.33623E-06-3.17689E-07-1.86088E-06
 -1       271-5.06147E-07 3.98080E-06-2.86013E-06 2.19871E-06-6.50954E-07-1.70971E-06
 -1       272-2.22169E-06-1.55520E-06 1.67869E-06-6.47123E-07-6.80823E-08-9.09079E-07
 -1       274-2.55114E-06-1.47698E-06 1.98298E-06-6.77098E-07-3.53716E-07-8.06590E-07
 -1       275-1.21616E-06 1.02808E-06-1.62685E-07 5.43472E-07-2.50410E-06-9.44441E-07
 -1       277-1.15279E-06 1.14997E-06-5.13963E-07 5.37086E-07-2.52573E-06-7.62312E-07
 -1       278-1.16887E-06-2.32680E-06 2.34550E-06 1.61612E-06 2.40796E-06 1.40023E-06
 -1       280-1.46304E-06-1.96012E-06 1.91715E-06 1.71919E-06 2.53726E-06 1.55109E-06
 -3
    1PSTEP                         4           1           1          
  100CL  101 1.000000000          84                     0    1           1
 -4  ERROR       1    1
 -5  STR(%)      1    1    0    0
 -1        20 8.63038E+01
 -1        22 8.63038E+01
 -1        23 7.41444E+01
 -1        25 7.41444E+01
 -1        26 1.24798E+02
 -1        28 1.24798E+02
 -1        37 3.49971E+01
 -1        39 3.49971E+01
 -1        40 1.15012E+02
 -1        42 1.15012E+02
 -1        43 3.98101E+01
 -1        45 3.98101E+01
 -1        57 1.13236E+02
 -1        59 1.13236E+02
 -1        60 1.13093E+02
 -1        62 1.13093E+02
 -1        71 1.40115E+02
 -1        73 1.40115E+02
 -1        74 1.21867E+02
 -1        76 1.21867E+02
 -1        77 6.63214E+01
 -1        79 6.63214E+01
 -1        88 9.17177E+01
 -1        90 9.17177E+01
 -1        91 7.41444E+01
 -1        93 7.41444E+01
 -1        94 8.63038E+01
 -1        96 8.63038E+01
 -1       105 7.41444E+01
 -1       107 7.41444E+01
 -1       108 1.24798E+02
 -1       110 1.24798E+02
 -1       119 1.13236E+02
 -1       121 1.13236E+02
 -1       122 1.13093E+02
 -1       124 1.13093E+02
 -1       133 8.63038E+01
 -1       135 8.63038E+01
 -1       136 1.13236E+02
 -1       138 1.13236E+02
 -1       147 1.40115E+02
 -1       149 1.40115E+02
 -1       150 1.24798E+02
 -1       152 1.24798E+02
 -1       161 1.40115E+02
 -1       163 1.40115E+02
 -1       164 1.21867E+02
 -1       166 1.21867E+02
 -1       175 1.21867E+02
 -1       177 1.21867E+02
 -1       178 6.63214E+01
 -1       180 6.63214E+01
 -1       189 6.63214E+01
 -1       191 6.63214E+01
 -1       192 9.17177E+01
 -1       194 9.17177E+01
 -1       203 1.13093E+02
 -1       205 1.13093E+02
 -1       206 9.17177E+01
 -1       208 9.17177E+01
 -1       217 7.41444E+01
 -1       219 7.41444E+01
 -1       220 3.49971E+01
 -1       222 3.49971E+01
 -1       223 8.63038E+01
 -1       225 8.63038E+01
 -1       226 1.13236E+02
 -1       228 1.13236E+02
 -1       243 1.40115E+02
 -1       245 1.40115E+02
 -1       246 1.21867E+02
 -1       248 1.21867E+02
 -1       249 1.24798E+02
 -1       251 1.24798E+02
 -1       252 1.15012E+02
 -1       254 1.15012E+02
 -1       269 3.98101E+01
 -1       271 3.98101E+01
 -1       272 6.63214E+01
 -1       274 6.63214E+01
 -1       275 1.13093E+02
 -1       277 1.13093E+02
 -1       278 9.17177E+01
 -1       280 9.17177E+01
 -3
 9999
