    1C
    1UHash: PXJD0WWr, Date: 03/11/2021, Unit system: MM_TON_S_C         
    1UUSER                                                              
    1UDATE              11.march.2021                                   
    1UTIME              20:40:36                                        
    1UHOST                                                              
    1UPGM               CalculiX                                        
    1UVERSION           Version 2.10                             
    1UCOMPILETIME       Sa 5. MÃ¤r 12:23:33 CET 2016                    
    1UDIR                                                               
    1UDBN                                                               
    1UMAT    1RUBBER                                                    
    2C                           156                                     1
 -1       881 4.80000E+01 4.40000E+01 0.00000E+00
 -1       882 4.80000E+01 4.40000E+01 5.00000E+00
 -1       883 0.00000E+00 0.00000E+00 0.00000E+00
 -1       884 0.00000E+00 0.00000E+00 5.00000E+00
 -1       885 4.80000E+01 6.00000E+01 0.00000E+00
 -1       886 4.80000E+01 6.00000E+01 5.00000E+00
 -1       887 0.00000E+00 4.40000E+01 0.00000E+00
 -1       888 0.00000E+00 4.40000E+01 5.00000E+00
 -1       889 4.36364E+01 4.00000E+01 0.00000E+00
 -1       890 3.92727E+01 3.60000E+01 0.00000E+00
 -1       891 3.49091E+01 3.20000E+01 0.00000E+00
 -1       892 3.05455E+01 2.80000E+01 0.00000E+00
 -1       893 2.61818E+01 2.40000E+01 0.00000E+00
 -1       894 2.18182E+01 2.00000E+01 0.00000E+00
 -1       895 1.74545E+01 1.60000E+01 0.00000E+00
 -1       896 1.30909E+01 1.20000E+01 0.00000E+00
 -1       897 8.72727E+00 8.00000E+00 0.00000E+00
 -1       898 4.36364E+00 4.00000E+00 0.00000E+00
 -1       899 4.36364E+01 4.00000E+01 5.00000E+00
 -1       900 3.92727E+01 3.60000E+01 5.00000E+00
 -1       901 3.49091E+01 3.20000E+01 5.00000E+00
 -1       902 3.05455E+01 2.80000E+01 5.00000E+00
 -1       903 2.61818E+01 2.40000E+01 5.00000E+00
 -1       904 2.18182E+01 2.00000E+01 5.00000E+00
 -1       905 1.74545E+01 1.60000E+01 5.00000E+00
 -1       906 1.30909E+01 1.20000E+01 5.00000E+00
 -1       907 8.72727E+00 8.00000E+00 5.00000E+00
 -1       908 4.36364E+00 4.00000E+00 5.00000E+00
 -1       909 4.80000E+01 5.46667E+01 0.00000E+00
 -1       910 4.80000E+01 4.93333E+01 0.00000E+00
 -1       911 4.80000E+01 5.46667E+01 5.00000E+00
 -1       912 4.80000E+01 4.93333E+01 5.00000E+00
 -1       913 5.33333E+00 4.57778E+01 0.00000E+00
 -1       914 1.06667E+01 4.75556E+01 0.00000E+00
 -1       915 1.60000E+01 4.93333E+01 0.00000E+00
 -1       916 2.13333E+01 5.11111E+01 0.00000E+00
 -1       917 2.66667E+01 5.28889E+01 0.00000E+00
 -1       918 3.20000E+01 5.46667E+01 0.00000E+00
 -1       919 3.73333E+01 5.64444E+01 0.00000E+00
 -1       920 4.26667E+01 5.82222E+01 0.00000E+00
 -1       921 5.33333E+00 4.57778E+01 5.00000E+00
 -1       922 1.06667E+01 4.75556E+01 5.00000E+00
 -1       923 1.60000E+01 4.93333E+01 5.00000E+00
 -1       924 2.13333E+01 5.11111E+01 5.00000E+00
 -1       925 2.66667E+01 5.28889E+01 5.00000E+00
 -1       926 3.20000E+01 5.46667E+01 5.00000E+00
 -1       927 3.73333E+01 5.64444E+01 5.00000E+00
 -1       928 4.26667E+01 5.82222E+01 5.00000E+00
 -1       929 0.00000E+00 6.28571E+00 0.00000E+00
 -1       930 0.00000E+00 1.25714E+01 0.00000E+00
 -1       931 0.00000E+00 1.88571E+01 0.00000E+00
 -1       932 0.00000E+00 2.51429E+01 0.00000E+00
 -1       933 0.00000E+00 3.14286E+01 0.00000E+00
 -1       934 0.00000E+00 3.77143E+01 0.00000E+00
 -1       935 0.00000E+00 6.28571E+00 5.00000E+00
 -1       936 0.00000E+00 1.25714E+01 5.00000E+00
 -1       937 0.00000E+00 1.88571E+01 5.00000E+00
 -1       938 0.00000E+00 2.51429E+01 5.00000E+00
 -1       939 0.00000E+00 3.14286E+01 5.00000E+00
 -1       940 0.00000E+00 3.77143E+01 5.00000E+00
 -1       941 4.25522E+01 4.64581E+01 0.00000E+00
 -1       942 3.35498E+01 3.77493E+01 0.00000E+00
 -1       943 2.51093E+01 2.99939E+01 0.00000E+00
 -1       944 1.62723E+01 2.24504E+01 0.00000E+00
 -1       945 8.24325E+00 1.41262E+01 0.00000E+00
 -1       946 3.73817E+00 1.53903E+01 0.00000E+00
 -1       947 5.14726E+00 2.78644E+01 0.00000E+00
 -1       948 4.69256E+00 4.00632E+01 0.00000E+00
 -1       949 1.51309E+01 4.32275E+01 0.00000E+00
 -1       950 2.58440E+01 4.70978E+01 0.00000E+00
 -1       951 3.71250E+01 5.02228E+01 0.00000E+00
 -1       952 4.23875E+00 9.99835E+00 0.00000E+00
 -1       953 4.25575E+01 5.24822E+01 0.00000E+00
 -1       954 3.69271E+01 4.31867E+01 0.00000E+00
 -1       955 2.95315E+01 3.34789E+01 0.00000E+00
 -1       956 2.06835E+01 2.63365E+01 0.00000E+00
 -1       957 1.19290E+01 1.84412E+01 0.00000E+00
 -1       958 5.82390E+00 2.08016E+01 0.00000E+00
 -1       959 4.62419E+00 3.40527E+01 0.00000E+00
 -1       960 9.92739E+00 4.17520E+01 0.00000E+00
 -1       961 2.03904E+01 4.52491E+01 0.00000E+00
 -1       962 3.15323E+01 4.85725E+01 0.00000E+00
 -1       963 1.97109E+01 3.27050E+01 0.00000E+00
 -1       964 1.06546E+01 2.49252E+01 0.00000E+00
 -1       965 9.87661E+00 3.13032E+01 0.00000E+00
 -1       966 2.46680E+01 4.15603E+01 0.00000E+00
 -1       967 3.03406E+01 4.29916E+01 0.00000E+00
 -1       968 2.43158E+01 3.57621E+01 0.00000E+00
 -1       969 2.85017E+01 3.83368E+01 0.00000E+00
 -1       970 1.95881E+01 3.90948E+01 0.00000E+00
 -1       971 8.78510E+00 3.66642E+01 0.00000E+00
 -1       972 1.52231E+01 2.89724E+01 0.00000E+00
 -1       973 1.42155E+01 3.62576E+01 0.00000E+00
 -1       974 8.52215E+00 1.37205E+01 5.00000E+00
 -1       975 1.62939E+01 2.22249E+01 5.00000E+00
 -1       976 2.50781E+01 2.98710E+01 5.00000E+00
 -1       977 3.33231E+01 3.82333E+01 5.00000E+00
 -1       978 4.26263E+01 4.62704E+01 5.00000E+00
 -1       979 4.24174E+01 5.23232E+01 5.00000E+00
 -1       980 3.07989E+01 4.96092E+01 5.00000E+00
 -1       981 2.09102E+01 4.49189E+01 5.00000E+00
 -1       982 1.00073E+01 4.16939E+01 5.00000E+00
 -1       983 4.71862E+00 4.00435E+01 5.00000E+00
 -1       984 4.94682E+00 2.79924E+01 5.00000E+00
 -1       985 4.10531E+00 1.59927E+01 5.00000E+00
 -1       986 4.28577E+00 1.00908E+01 5.00000E+00
 -1       987 1.25727E+01 1.78670E+01 5.00000E+00
 -1       988 2.06494E+01 2.61884E+01 5.00000E+00
 -1       989 2.92937E+01 3.40051E+01 5.00000E+00
 -1       990 3.78743E+01 4.24122E+01 5.00000E+00
 -1       991 3.65864E+01 4.94468E+01 5.00000E+00
 -1       992 2.62363E+01 4.70325E+01 5.00000E+00
 -1       993 1.53560E+01 4.30852E+01 5.00000E+00
 -1       994 4.60199E+00 3.40485E+01 5.00000E+00
 -1       995 4.47681E+00 2.20456E+01 5.00000E+00
 -1       996 3.19549E+01 4.43122E+01 5.00000E+00
 -1       997 1.96505E+01 3.24258E+01 5.00000E+00
 -1       998 2.00128E+01 3.88268E+01 5.00000E+00
 -1       999 2.66176E+01 4.04732E+01 5.00000E+00
 -1      1000 9.79752E+00 3.11260E+01 5.00000E+00
 -1      1001 8.81349E+00 3.65874E+01 5.00000E+00
 -1      1002 1.51030E+01 2.86694E+01 5.00000E+00
 -1      1003 2.41353E+01 3.52181E+01 5.00000E+00
 -1      1004 1.43033E+01 3.60900E+01 5.00000E+00
 -1      1005 1.02936E+01 2.42313E+01 5.00000E+00
 -1      1006 8.05268E+00 1.88652E+01 5.00000E+00
 -1      1007 4.54484E+01 4.65039E+01 2.48874E+00
 -1      1008 3.28025E+00 7.89106E+00 2.51083E+00
 -1      1009 2.05987E+00 4.71888E+00 2.50004E+00
 -1      1010 4.10915E+01 5.50709E+01 2.50981E+00
 -1      1011 4.48875E+01 5.56357E+01 2.50887E+00
 -1      1012 2.50425E+00 1.37339E+01 2.59297E+00
 -1      1013 3.83577E+01 3.93650E+01 2.52722E+00
 -1      1014 1.29933E+01 4.54197E+01 2.50384E+00
 -1      1015 2.87985E+00 4.17234E+01 2.49798E+00
 -1      1016 8.45418E+00 1.09211E+01 2.47266E+00
 -1      1017 3.11755E+01 3.17901E+01 2.53329E+00
 -1      1018 1.91390E+01 2.12434E+01 2.49140E+00
 -1      1019 2.45820E+00 2.34296E+01 2.46314E+00
 -1      1020 3.31962E+01 5.15829E+01 2.46183E+00
 -1      1021 4.27768E+01 4.31431E+01 2.49550E+00
 -1      1022 4.52046E+01 5.08385E+01 2.50611E+00
 -1      1023 2.36716E+01 4.90072E+01 2.52106E+00
 -1      1024 2.35648E+00 2.80590E+01 2.49071E+00
 -1      1025 1.56587E+01 1.83730E+01 2.45233E+00
 -1      1026 3.04673E+00 1.87734E+01 2.47454E+00
 -1      1027 3.43236E+01 3.51113E+01 2.51890E+00
 -1      1028 1.20938E+01 1.52372E+01 2.43144E+00
 -1      1029 2.76604E+01 2.88880E+01 2.50417E+00
 -1      1030 2.48094E+00 3.73372E+01 2.50197E+00
 -1      1031 2.33932E+01 2.50730E+01 2.49121E+00
 -1      1032 7.69925E+00 4.37580E+01 2.50218E+00
 -1      1033 1.82859E+01 4.71924E+01 2.51375E+00
 -1      1034 2.88869E+01 5.08098E+01 2.46403E+00
 -1      1035 3.71530E+01 5.32597E+01 2.50862E+00
 -1      1036 2.36068E+00 3.27171E+01 2.50586E+00
 -3
    3C                           455                                     1
 -1       632    3    0    1
 -2       991       990       996       954
 -1       633    3    0    1
 -2       988       976       956       997
 -1       634    3    0    1
 -2       949      1014      1033       915
 -1       635    3    0    1
 -2       954       990      1021       978
 -1       636    3    0    1
 -2       994      1036      1030       959
 -1       637    3    0    1
 -2       956       976       943       997
 -1       638    3    0    1
 -2       966       992       950       981
 -1       639    3    0    1
 -2       958      1019       931      1026
 -1       640    3    0    1
 -2       979       978       991       951
 -1       641    3    0    1
 -2       971       965      1001       959
 -1       642    3    0    1
 -2       954       978       941       951
 -1       643    3    0    1
 -2       956       997      1002       988
 -1       644    3    0    1
 -2       940       994      1036      1030
 -1       645    3    0    1
 -2      1012       931       937      1026
 -1       646    3    0    1
 -2      1001       959      1000       994
 -1       647    3    0    1
 -2      1002       997       972      1004
 -1       648    3    0    1
 -2      1005       944      1002       975
 -1       649    3    0    1
 -2       963      1003       998       997
 -1       650    3    0    1
 -2      1000       964      1002      1005
 -1       651    3    0    1
 -2       889      1021       941       954
 -1       652    3    0    1
 -2       889       890      1013       954
 -1       653    3    0    1
 -2      1013       890       889       899
 -1       654    3    0    1
 -2      1036       933       947      1024
 -1       655    3    0    1
 -2       956       943       963       997
 -1       656    3    0    1
 -2      1030      1036       934       959
 -1       657    3    0    1
 -2       985       986       936      1012
 -1       658    3    0    1
 -2       980      1020       926       991
 -1       659    3    0    1
 -2       995      1006       964      1005
 -1       660    3    0    1
 -2       994       984       947      1000
 -1       661    3    0    1
 -2       934      1036       933       959
 -1       662    3    0    1
 -2       999       992       966       981
 -1       663    3    0    1
 -2       998       981       966       970
 -1       664    3    0    1
 -2      1013       900       890       899
 -1       665    3    0    1
 -2       956       988      1002       944
 -1       666    3    0    1
 -2      1019       947      1024       984
 -1       667    3    0    1
 -2       959      1001      1000       965
 -1       668    3    0    1
 -2      1000      1002       972      1004
 -1       669    3    0    1
 -2      1001      1004      1000       965
 -1       670    3    0    1
 -2       921      1032       922       982
 -1       671    3    0    1
 -2       996       999       969       977
 -1       672    3    0    1
 -2       994      1000       947       959
 -1       673    3    0    1
 -2      1000      1004       972       965
 -1       674    3    0    1
 -2      1006       995       964       958
 -1       675    3    0    1
 -2      1016       945       896       897
 -1       676    3    0    1
 -2       992       996       962       980
 -1       677    3    0    1
 -2       994       959       947      1036
 -1       678    3    0    1
 -2       969       977       989       942
 -1       679    3    0    1
 -2       993       981       998       970
 -1       680    3    0    1
 -2       954       942       977       996
 -1       681    3    0    1
 -2       949       993       973       970
 -1       682    3    0    1
 -2       963       997       943      1003
 -1       683    3    0    1
 -2      1001       971       983       982
 -1       684    3    0    1
 -2       943       997       976      1003
 -1       685    3    0    1
 -2       989       955       969       942
 -1       686    3    0    1
 -2      1016       897       896       906
 -1       687    3    0    1
 -2       895       957      1028      1025
 -1       688    3    0    1
 -2       961       966       950       981
 -1       689    3    0    1
 -2       896       906       905      1028
 -1       690    3    0    1
 -2       892       902       901      1017
 -1       691    3    0    1
 -2      1036      1024       947       984
 -1       692    3    0    1
 -2      1001       971       973       965
 -1       693    3    0    1
 -2       936       930      1008       935
 -1       694    3    0    1
 -2       901      1027       900       891
 -1       695    3    0    1
 -2       973      1004      1001       965
 -1       696    3    0    1
 -2      1023       981      1033       961
 -1       697    3    0    1
 -2       986       945       985       974
 -1       698    3    0    1
 -2      1000       965       972       964
 -1       699    3    0    1
 -2       954       996       977       990
 -1       700    3    0    1
 -2       894      1018       944       895
 -1       701    3    0    1
 -2       957       945       896      1028
 -1       702    3    0    1
 -2       996       977       969       942
 -1       703    3    0    1
 -2       907       897      1016       906
 -1       704    3    0    1
 -2       921      1032       983      1015
 -1       705    3    0    1
 -2       950       966       967       992
 -1       706    3    0    1
 -2       996       992       962       967
 -1       707    3    0    1
 -2       967       999       996       992
 -1       708    3    0    1
 -2       956      1018      1031       988
 -1       709    3    0    1
 -2       940       939      1036       994
 -1       710    3    0    1
 -2       996       967       962       954
 -1       711    3    0    1
 -2       904       903       893      1031
 -1       712    3    0    1
 -2       972       997       963      1004
 -1       713    3    0    1
 -2       952       945      1016       897
 -1       714    3    0    1
 -2       895      1025      1028       905
 -1       715    3    0    1
 -2      1002       975       944       988
 -1       716    3    0    1
 -2       963       998      1004       997
 -1       717    3    0    1
 -2       945       986      1012       952
 -1       718    3    0    1
 -2       983       959      1001       994
 -1       719    3    0    1
 -2       931      1012       936       930
 -1       720    3    0    1
 -2       956       944      1002       972
 -1       721    3    0    1
 -2      1003       999       966       998
 -1       722    3    0    1
 -2       949       960       973       982
 -1       723    3    0    1
 -2       949       982       973       993
 -1       724    3    0    1
 -2       991       962       954       996
 -1       725    3    0    1
 -2       966       981       961       970
 -1       726    3    0    1
 -2       956       972      1002       997
 -1       727    3    0    1
 -2       989      1003       943       976
 -1       728    3    0    1
 -2       993       998      1004       970
 -1       729    3    0    1
 -2      1029      1031       903       976
 -1       730    3    0    1
 -2       951       962      1020       918
 -1       731    3    0    1
 -2       994       983      1030       940
 -1       732    3    0    1
 -2       983       971       960       982
 -1       733    3    0    1
 -2       922      1032       921       914
 -1       734    3    0    1
 -2      1000       964       972      1002
 -1       735    3    0    1
 -2      1003       998       966       968
 -1       736    3    0    1
 -2       924       923      1033       981
 -1       737    3    0    1
 -2       915      1014       922       914
 -1       738    3    0    1
 -2       992       980       962      1034
 -1       739    3    0    1
 -2       989       999       969      1003
 -1       740    3    0    1
 -2       890      1013      1027       900
 -1       741    3    0    1
 -2      1029       943      1031       976
 -1       742    3    0    1
 -2      1014       915       922       923
 -1       743    3    0    1
 -2      1031       943       956       976
 -1       744    3    0    1
 -2      1006       946      1026       958
 -1       745    3    0    1
 -2      1032      1014       922       982
 -1       746    3    0    1
 -2      1019       984      1024       938
 -1       747    3    0    1
 -2      1014      1032       922       914
 -1       748    3    0    1
 -2       932       931      1019       937
 -1       749    3    0    1
 -2       994       959      1030       983
 -1       750    3    0    1
 -2      1032       960       913       914
 -1       751    3    0    1
 -2       927       979       991      1035
 -1       752    3    0    1
 -2      1000       964       947       965
 -1       753    3    0    1
 -2       984       938      1019       995
 -1       754    3    0    1
 -2       913      1032       921      1015
 -1       755    3    0    1
 -2       923       993      1033       981
 -1       756    3    0    1
 -2       900      1027       901       977
 -1       757    3    0    1
 -2       958      1019       947       932
 -1       758    3    0    1
 -2       918      1020      1034       962
 -1       759    3    0    1
 -2       935       930      1008       929
 -1       760    3    0    1
 -2       892      1017       901       891
 -1       761    3    0    1
 -2       936       935      1008       986
 -1       762    3    0    1
 -2      1005       944       957       964
 -1       763    3    0    1
 -2       895       896      1028       957
 -1       764    3    0    1
 -2      1006       958      1026       995
 -1       765    3    0    1
 -2      1012      1026       937       985
 -1       766    3    0    1
 -2       983       960      1032       982
 -1       767    3    0    1
 -2       892       943       893      1029
 -1       768    3    0    1
 -2      1006       974      1028       987
 -1       769    3    0    1
 -2      1032       913       948      1015
 -1       770    3    0    1
 -2       984       995       964      1005
 -1       771    3    0    1
 -2       944       894       956      1018
 -1       772    3    0    1
 -2       957      1025       895       944
 -1       773    3    0    1
 -2       894      1018      1031       956
 -1       774    3    0    1
 -2       890       942      1013       954
 -1       775    3    0    1
 -2       913      1015       921       887
 -1       776    3    0    1
 -2       976       902      1029       989
 -1       777    3    0    1
 -2       958       945       957      1006
 -1       778    3    0    1
 -2       901       902       989      1017
 -1       779    3    0    1
 -2      1003       968       966       969
 -1       780    3    0    1
 -2      1032      1015       948       983
 -1       781    3    0    1
 -2       960       971       983       948
 -1       782    3    0    1
 -2      1019       938       932       937
 -1       783    3    0    1
 -2       892       893       903      1029
 -1       784    3    0    1
 -2       905      1018       894       895
 -1       785    3    0    1
 -2       894       956      1031       893
 -1       786    3    0    1
 -2       996       954       942       967
 -1       787    3    0    1
 -2       991       980       962       996
 -1       788    3    0    1
 -2       901       891      1017      1027
 -1       789    3    0    1
 -2       939       984      1024      1036
 -1       790    3    0    1
 -2       955       892      1029       943
 -1       791    3    0    1
 -2       991      1020       962       980
 -1       792    3    0    1
 -2       968       955       989       943
 -1       793    3    0    1
 -2       961       981       993       970
 -1       794    3    0    1
 -2      1023       992       924       981
 -1       795    3    0    1
 -2       983      1032       921       982
 -1       796    3    0    1
 -2       921      1032       913       914
 -1       797    3    0    1
 -2       945       952      1012       946
 -1       798    3    0    1
 -2       963       943       968      1003
 -1       799    3    0    1
 -2       994      1036       947       984
 -1       800    3    0    1
 -2       989       976       943      1029
 -1       801    3    0    1
 -2      1035       927       979      1010
 -1       802    3    0    1
 -2      1015       921       887       888
 -1       803    3    0    1
 -2       968       943       989      1003
 -1       804    3    0    1
 -2      1028       987       905      1025
 -1       805    3    0    1
 -2       984      1005       964      1000
 -1       806    3    0    1
 -2       973      1004       963       970
 -1       807    3    0    1
 -2      1034       962       950       917
 -1       808    3    0    1
 -2       968      1003       989       969
 -1       809    3    0    1
 -2       969       999       967       966
 -1       810    3    0    1
 -2       966       999       967       992
 -1       811    3    0    1
 -2      1006       987      1028       957
 -1       812    3    0    1
 -2       966       970       968       998
 -1       813    3    0    1
 -2       959       983      1001       971
 -1       814    3    0    1
 -2       931       958      1026       946
 -1       815    3    0    1
 -2       926      1020      1035       991
 -1       816    3    0    1
 -2       963       998       968       970
 -1       817    3    0    1
 -2       973       972       963      1004
 -1       818    3    0    1
 -2      1003       969       966       999
 -1       819    3    0    1
 -2       974      1016       907       986
 -1       820    3    0    1
 -2       984      1000       964       947
 -1       821    3    0    1
 -2      1004       998       963       970
 -1       822    3    0    1
 -2       962       991       954       951
 -1       823    3    0    1
 -2       892      1029       903       902
 -1       824    3    0    1
 -2       900       977       990      1013
 -1       825    3    0    1
 -2       931       946      1026      1012
 -1       826    3    0    1
 -2       996       942       969       967
 -1       827    3    0    1
 -2       957       975      1005       987
 -1       828    3    0    1
 -2       953       951      1035       919
 -1       829    3    0    1
 -2       893       943       956      1031
 -1       830    3    0    1
 -2      1005       975       957       944
 -1       831    3    0    1
 -2       944      1005      1002       964
 -1       832    3    0    1
 -2       973       982       960       971
 -1       833    3    0    1
 -2      1001       982       973       971
 -1       834    3    0    1
 -2      1028      1025       957       987
 -1       835    3    0    1
 -2       961       993       949       970
 -1       836    3    0    1
 -2       971       959       983       948
 -1       837    3    0    1
 -2      1019       932      1024       947
 -1       838    3    0    1
 -2      1016       945       952       986
 -1       839    3    0    1
 -2       993      1004       973       970
 -1       840    3    0    1
 -2       979       951       941       978
 -1       841    3    0    1
 -2       974       945      1016       986
 -1       842    3    0    1
 -2       926       991      1035       927
 -1       843    3    0    1
 -2       984       947       964       995
 -1       844    3    0    1
 -2      1006      1005       957       964
 -1       845    3    0    1
 -2      1002       964       972       944
 -1       846    3    0    1
 -2       958       964       947       995
 -1       847    3    0    1
 -2       958      1006       957       964
 -1       848    3    0    1
 -2       969       999       989       977
 -1       849    3    0    1
 -2      1012       986      1008       952
 -1       850    3    0    1
 -2       958      1019       932       931
 -1       851    3    0    1
 -2      1001      1004       973       982
 -1       852    3    0    1
 -2      1012       952      1008       930
 -1       853    3    0    1
 -2      1014      1033       915       923
 -1       854    3    0    1
 -2       946       945       958      1006
 -1       855    3    0    1
 -2       957      1005      1006       987
 -1       856    3    0    1
 -2       901      1017       989      1027
 -1       857    3    0    1
 -2       905       904       894      1018
 -1       858    3    0    1
 -2       897      1016      1008       907
 -1       859    3    0    1
 -2       946      1006       985       945
 -1       860    3    0    1
 -2       985      1006       974       945
 -1       861    3    0    1
 -2       895       905      1028       896
 -1       862    3    0    1
 -2       956       997       963       972
 -1       863    3    0    1
 -2       966       998       999       981
 -1       864    3    0    1
 -2       939       938      1024       984
 -1       865    3    0    1
 -2      1006       957      1028       945
 -1       866    3    0    1
 -2      1000       965       947       959
 -1       867    3    0    1
 -2      1028       906       905       987
 -1       868    3    0    1
 -2       989       977       901      1027
 -1       869    3    0    1
 -2       996       967       969       999
 -1       870    3    0    1
 -2       972      1004       973       965
 -1       871    3    0    1
 -2       922       982      1014       993
 -1       872    3    0    1
 -2       968       998       963      1003
 -1       873    3    0    1
 -2       982      1004       973       993
 -1       874    3    0    1
 -2       995      1019       958      1026
 -1       875    3    0    1
 -2       910       881       882      1007
 -1       876    3    0    1
 -2       904       903      1031       988
 -1       877    3    0    1
 -2       882       881       899      1021
 -1       878    3    0    1
 -2      1034       950       992      1023
 -1       879    3    0    1
 -2       941       910      1022      1007
 -1       880    3    0    1
 -2       889       881       941      1021
 -1       881    3    0    1
 -2       899       881       889      1021
 -1       882    3    0    1
 -2       992      1034       962       950
 -1       883    3    0    1
 -2      1023       924       992       925
 -1       884    3    0    1
 -2      1006       995      1026       985
 -1       885    3    0    1
 -2       986       907       908      1008
 -1       886    3    0    1
 -2       986       908       935      1008
 -1       887    3    0    1
 -2       898       908       907      1008
 -1       888    3    0    1
 -2       986      1016       907      1008
 -1       889    3    0    1
 -2       898       883       884      1009
 -1       890    3    0    1
 -2       898       884       908      1009
 -1       891    3    0    1
 -2       883       935       884      1009
 -1       892    3    0    1
 -2       883       929       935      1009
 -1       893    3    0    1
 -2       928      1011       885       886
 -1       894    3    0    1
 -2       928       920      1011      1010
 -1       895    3    0    1
 -2       920       928       927      1010
 -1       896    3    0    1
 -2       909       885       920      1011
 -1       897    3    0    1
 -2       909       920       953      1011
 -1       898    3    0    1
 -2       909       911       885      1011
 -1       899    3    0    1
 -2       979       928      1011      1010
 -1       900    3    0    1
 -2       979       911       912      1022
 -1       901    3    0    1
 -2       912       911       909      1022
 -1       902    3    0    1
 -2       910       912       909      1022
 -1       903    3    0    1
 -2       940       887       888      1015
 -1       904    3    0    1
 -2       940       934       887      1015
 -1       905    3    0    1
 -2       948       887       934      1015
 -1       906    3    0    1
 -2       915       923      1033       916
 -1       907    3    0    1
 -2      1033       923       924       916
 -1       908    3    0    1
 -2       948      1015      1030       983
 -1       909    3    0    1
 -2      1023       961      1033       916
 -1       910    3    0    1
 -2       917       924       916      1023
 -1       911    3    0    1
 -2       917       924      1023       925
 -1       912    3    0    1
 -2       926      1020      1034       918
 -1       913    3    0    1
 -2      1023       950       917      1034
 -1       914    3    0    1
 -2       918       962      1034       917
 -1       915    3    0    1
 -2      1023      1034       917       925
 -1       916    3    0    1
 -2      1035       918       927       919
 -1       917    3    0    1
 -2       940      1030      1015       983
 -1       918    3    0    1
 -2       953       919      1035      1010
 -1       919    3    0    1
 -2       919       927      1010       920
 -1       920    3    0    1
 -2       979       927       928      1010
 -1       921    3    0    1
 -2      1035       927      1010       919
 -1       922    3    0    1
 -2       948      1030       959       983
 -1       923    3    0    1
 -2       952       898      1008       929
 -1       924    3    0    1
 -2       938      1024       932       933
 -1       925    3    0    1
 -2       939       938       933      1024
 -1       926    3    0    1
 -2       947       932      1024       933
 -1       927    3    0    1
 -2       953      1010      1035       979
 -1       928    3    0    1
 -2       940      1030      1036       934
 -1       929    3    0    1
 -2       984       939       994      1036
 -1       930    3    0    1
 -2       934       939       933      1036
 -1       931    3    0    1
 -2      1036       959       947       933
 -1       932    3    0    1
 -2       948       934       959      1030
 -1       933    3    0    1
 -2       918       951      1035      1020
 -1       934    3    0    1
 -2       940       934      1036       939
 -1       935    3    0    1
 -2       881      1021       882      1007
 -1       936    3    0    1
 -2       941       910      1007       881
 -1       937    3    0    1
 -2       897       907      1008       898
 -1       938    3    0    1
 -2      1008       898       908      1009
 -1       939    3    0    1
 -2       991      1020      1035       951
 -1       940    3    0    1
 -2       979      1010      1011       953
 -1       941    3    0    1
 -2      1011      1022       979       953
 -1       942    3    0    1
 -2       909      1022       911      1011
 -1       943    3    0    1
 -2       910       912      1022      1007
 -1       944    3    0    1
 -2       919       920      1010       953
 -1       945    3    0    1
 -2       953       979      1035       951
 -1       946    3    0    1
 -2       939      1024       933      1036
 -1       947    3    0    1
 -2       920      1010       953      1011
 -1       948    3    0    1
 -2       935       908       884      1009
 -1       949    3    0    1
 -2       883       898       929      1009
 -1       950    3    0    1
 -2       941       881      1007      1021
 -1       951    3    0    1
 -2       976       988      1031       903
 -1       952    3    0    1
 -2       990      1013      1021       899
 -1       953    3    0    1
 -2       882      1021       978      1007
 -1       954    3    0    1
 -2       951       918      1035       919
 -1       955    3    0    1
 -2      1035       979       991       951
 -1       956    3    0    1
 -2       935      1009      1008       908
 -1       957    3    0    1
 -2       885      1011       911       886
 -1       958    3    0    1
 -2       928       885      1011       920
 -1       959    3    0    1
 -2      1007       978       941      1021
 -1       960    3    0    1
 -2       979       911      1011       928
 -1       961    3    0    1
 -2      1022       979       978       912
 -1       962    3    0    1
 -2      1007       910       912       882
 -1       963    3    0    1
 -2      1022       912       978      1007
 -1       964    3    0    1
 -2       926       918      1034       925
 -1       965    3    0    1
 -2      1007       882       912       978
 -1       966    3    0    1
 -2       979       978       941      1022
 -1       967    3    0    1
 -2      1021      1013       990       954
 -1       968    3    0    1
 -2       962      1034       980      1020
 -1       969    3    0    1
 -2      1019       938      1024       932
 -1       970    3    0    1
 -2       990       899      1021       978
 -1       971    3    0    1
 -2      1034      1023       992       925
 -1       972    3    0    1
 -2       941      1007      1022       978
 -1       973    3    0    1
 -2       979      1022       941       953
 -1       974    3    0    1
 -2      1034       925       992       980
 -1       975    3    0    1
 -2       945       946      1012       985
 -1       976    3    0    1
 -2       931       946      1012       930
 -1       977    3    0    1
 -2       931      1019       937      1026
 -1       978    3    0    1
 -2       945       985      1012       986
 -1       979    3    0    1
 -2       952      1012       946       930
 -1       980    3    0    1
 -2       889      1013      1021       954
 -1       981    3    0    1
 -2      1021      1013       889       899
 -1       982    3    0    1
 -2       990       900      1013       899
 -1       983    3    0    1
 -2       992       950       962       967
 -1       984    3    0    1
 -2       954       990       977      1013
 -1       985    3    0    1
 -2       917      1023       916       950
 -1       986    3    0    1
 -2       915       949      1014       914
 -1       987    3    0    1
 -2       949       915      1033       961
 -1       988    3    0    1
 -2       960       949      1014       982
 -1       989    3    0    1
 -2       949       960      1014       914
 -1       990    3    0    1
 -2      1014       982       949       993
 -1       991    3    0    1
 -2      1023       924      1033       981
 -1       992    3    0    1
 -2       983       921      1015       888
 -1       993    3    0    1
 -2       940      1015       888       983
 -1       994    3    0    1
 -2       940       934      1015      1030
 -1       995    3    0    1
 -2       948      1015       934      1030
 -1       996    3    0    1
 -2      1028       945       896      1016
 -1       997    3    0    1
 -2      1028      1016       896       906
 -1       998    3    0    1
 -2       907      1016       974       906
 -1       999    3    0    1
 -2       954       978      1021       941
 -1      1000    3    0    1
 -2       915      1033       961       916
 -1      1001    3    0    1
 -2       892       902      1017      1029
 -1      1002    3    0    1
 -2       892       955      1017       891
 -1      1003    3    0    1
 -2      1017       902       989      1029
 -1      1004    3    0    1
 -2       955       891      1027      1017
 -1      1005    3    0    1
 -2       955      1017      1027       989
 -1      1006    3    0    1
 -2       975      1018       988       904
 -1      1007    3    0    1
 -2      1018      1025       944       895
 -1      1008    3    0    1
 -2      1018       975       988       944
 -1      1009    3    0    1
 -2       905      1025      1018       895
 -1      1010    3    0    1
 -2       905       904      1018       975
 -1      1011    3    0    1
 -2       984       995      1019       947
 -1      1012    3    0    1
 -2       937      1019       995      1026
 -1      1013    3    0    1
 -2       958       995       947      1019
 -1      1014    3    0    1
 -2       995       938      1019       937
 -1      1015    3    0    1
 -2       949       961      1033       993
 -1      1016    3    0    1
 -2      1029       943       893      1031
 -1      1017    3    0    1
 -2       918       917      1034       925
 -1      1018    3    0    1
 -2      1033       993       961       981
 -1      1019    3    0    1
 -2       926       925      1034       980
 -1      1020    3    0    1
 -2       926       980      1034      1020
 -1      1021    3    0    1
 -2       882      1021       899       978
 -1      1022    3    0    1
 -2      1023       916      1033       924
 -1      1023    3    0    1
 -2      1017      1029       989       955
 -1      1024    3    0    1
 -2       988       976      1031       956
 -1      1025    3    0    1
 -2      1029       976       903       902
 -1      1026    3    0    1
 -2       991       978       954       951
 -1      1027    3    0    1
 -2       892      1029      1017       955
 -1      1028    3    0    1
 -2       929       898      1008      1009
 -1      1029    3    0    1
 -2       989      1029       943       955
 -1      1030    3    0    1
 -2      1013       942      1027       977
 -1      1031    3    0    1
 -2       935      1009       929      1008
 -1      1032    3    0    1
 -2      1022      1011       979       911
 -1      1033    3    0    1
 -2       954       991       990       978
 -1      1034    3    0    1
 -2       910      1022       909       953
 -1      1035    3    0    1
 -2       968       969       989       955
 -1      1036    3    0    1
 -2       979       953       941       951
 -1      1037    3    0    1
 -2       941       953      1022       910
 -1      1038    3    0    1
 -2       950      1023       961       981
 -1      1039    3    0    1
 -2       950       992      1023       981
 -1      1040    3    0    1
 -2       961      1023       950       916
 -1      1041    3    0    1
 -2       911      1011       928       886
 -1      1042    3    0    1
 -2       953      1022       909      1011
 -1      1043    3    0    1
 -2       987       975       905      1025
 -1      1044    3    0    1
 -2       975       957      1025       987
 -1      1045    3    0    1
 -2       957       975      1025       944
 -1      1046    3    0    1
 -2      1018       975       944      1025
 -1      1047    3    0    1
 -2       905       975      1018      1025
 -1      1048    3    0    1
 -2      1012       985       937       936
 -1      1049    3    0    1
 -2      1012       936       937       931
 -1      1050    3    0    1
 -2      1006       985      1026       946
 -1      1051    3    0    1
 -2      1026       946       985      1012
 -1      1052    3    0    1
 -2      1026       937       985       995
 -1      1053    3    0    1
 -2       949       993      1033      1014
 -1      1054    3    0    1
 -2       890       900      1027       891
 -1      1055    3    0    1
 -2       993      1014       922       923
 -1      1056    3    0    1
 -2       993      1033      1014       923
 -1      1057    3    0    1
 -2       954      1013       977       942
 -1      1058    3    0    1
 -2       890       891      1027       942
 -1      1059    3    0    1
 -2      1032       983       948       960
 -1      1060    3    0    1
 -2      1032       960       948       913
 -1      1061    3    0    1
 -2       913       948      1015       887
 -1      1062    3    0    1
 -2      1014       960      1032       914
 -1      1063    3    0    1
 -2       960      1014      1032       982
 -1      1064    3    0    1
 -2       897       898      1008       952
 -1      1065    3    0    1
 -2       944      1018       956       988
 -1      1066    3    0    1
 -2       894       893      1031       904
 -1      1067    3    0    1
 -2       894       904      1031      1018
 -1      1068    3    0    1
 -2      1012       930      1008       936
 -1      1069    3    0    1
 -2      1008       930       952       929
 -1      1070    3    0    1
 -2      1012       936      1008       986
 -1      1071    3    0    1
 -2       986       952      1016      1008
 -1      1072    3    0    1
 -2       897       952      1008      1016
 -1      1073    3    0    1
 -2      1029       893       903      1031
 -1      1074    3    0    1
 -2       890       942      1027      1013
 -1      1075    3    0    1
 -2       900      1013      1027       977
 -1      1076    3    0    1
 -2       955       989      1027       942
 -1      1077    3    0    1
 -2       955       942      1027       891
 -1      1078    3    0    1
 -2       989       977      1027       942
 -1      1079    3    0    1
 -2      1006       945      1028       974
 -1      1080    3    0    1
 -2       974       906      1028       987
 -1      1081    3    0    1
 -2       974       945      1028      1016
 -1      1082    3    0    1
 -2       974      1016      1028       906
 -1      1083    3    0    1
 -2       991       951       962      1020
 -1      1084    3    0    1
 -2       904       988      1031      1018
 -1      1085    3    0    1
 -2       926       927      1035       918
 -1      1086    3    0    1
 -2       926       918      1035      1020
 -3
    1PSTEP                         1           1           1          
  100CL  101 1.000000000         156                     0    1           1
 -4  DISP        4    1
 -5  D1          1    2    1    0
 -5  D2          1    2    2    0
 -5  D3          1    2    3    0
 -5  ALL         1    2    0    0    1ALL
 -1       881-5.73298E+00 2.80227E+01 0.00000E+00
 -1       882-5.79522E+00 2.80192E+01 0.00000E+00
 -1       883 0.00000E+00 0.00000E+00 0.00000E+00
 -1       884 0.00000E+00 0.00000E+00 0.00000E+00
 -1       885-2.13231E+01 2.97636E+01 0.00000E+00
 -1       886-2.13280E+01 2.97775E+01 0.00000E+00
 -1       887 0.00000E+00 0.00000E+00 0.00000E+00
 -1       888 0.00000E+00 0.00000E+00 0.00000E+00
 -1       889-2.69302E+00 2.28662E+01 0.00000E+00
 -1       890-3.86827E-01 1.82029E+01 0.00000E+00
 -1       891 1.11540E+00 1.40484E+01 0.00000E+00
 -1       892 1.93729E+00 1.04469E+01 0.00000E+00
 -1       893 2.20437E+00 7.52679E+00 0.00000E+00
 -1       894 2.02563E+00 5.25075E+00 0.00000E+00
 -1       895 1.57641E+00 3.56359E+00 0.00000E+00
 -1       896 1.01607E+00 2.36308E+00 0.00000E+00
 -1       897 5.19383E-01 1.45065E+00 0.00000E+00
 -1       898 1.93806E-01 6.81056E-01 0.00000E+00
 -1       899-2.59589E+00 2.28778E+01 0.00000E+00
 -1       900-3.98715E-01 1.81923E+01 0.00000E+00
 -1       901 1.11689E+00 1.40397E+01 0.00000E+00
 -1       902 1.93050E+00 1.04864E+01 0.00000E+00
 -1       903 2.20892E+00 7.53994E+00 0.00000E+00
 -1       904 2.02777E+00 5.24224E+00 0.00000E+00
 -1       905 1.55307E+00 3.53058E+00 0.00000E+00
 -1       906 1.00202E+00 2.35059E+00 0.00000E+00
 -1       907 5.18624E-01 1.45569E+00 0.00000E+00
 -1       908 2.11091E-01 6.97713E-01 0.00000E+00
 -1       909-1.53825E+01 2.92976E+01 0.00000E+00
 -1       910-1.04074E+01 2.85981E+01 0.00000E+00
 -1       911-1.53430E+01 2.93666E+01 0.00000E+00
 -1       912-1.03806E+01 2.86206E+01 0.00000E+00
 -1       913-2.36839E+00 9.74887E-01 0.00000E+00
 -1       914-4.50271E+00 2.17671E+00 0.00000E+00
 -1       915-6.62469E+00 3.89860E+00 0.00000E+00
 -1       916-8.88200E+00 6.24614E+00 0.00000E+00
 -1       917-1.13009E+01 9.27742E+00 0.00000E+00
 -1       918-1.38505E+01 1.30691E+01 0.00000E+00
 -1       919-1.63706E+01 1.77206E+01 0.00000E+00
 -1       920-1.89252E+01 2.32280E+01 0.00000E+00
 -1       921-2.50474E+00 1.04188E+00 0.00000E+00
 -1       922-4.52798E+00 2.16614E+00 0.00000E+00
 -1       923-6.63411E+00 3.88326E+00 0.00000E+00
 -1       924-8.88024E+00 6.23453E+00 0.00000E+00
 -1       925-1.12895E+01 9.29216E+00 0.00000E+00
 -1       926-1.38517E+01 1.30864E+01 0.00000E+00
 -1       927-1.63922E+01 1.76949E+01 0.00000E+00
 -1       928-1.89638E+01 2.31791E+01 0.00000E+00
 -1       929 0.00000E+00 0.00000E+00 0.00000E+00
 -1       930 0.00000E+00 0.00000E+00 0.00000E+00
 -1       931 0.00000E+00 0.00000E+00 0.00000E+00
 -1       932 0.00000E+00 0.00000E+00 0.00000E+00
 -1       933 0.00000E+00 0.00000E+00 0.00000E+00
 -1       934 0.00000E+00 0.00000E+00 0.00000E+00
 -1       935 0.00000E+00 0.00000E+00 0.00000E+00
 -1       936 0.00000E+00 0.00000E+00 0.00000E+00
 -1       937 0.00000E+00 0.00000E+00 0.00000E+00
 -1       938 0.00000E+00 0.00000E+00 0.00000E+00
 -1       939 0.00000E+00 0.00000E+00 0.00000E+00
 -1       940 0.00000E+00 0.00000E+00 0.00000E+00
 -1       941-7.63230E+00 2.22647E+01 0.00000E+00
 -1       942-1.66979E+00 1.32518E+01 0.00000E+00
 -1       943 9.88616E-01 7.17138E+00 0.00000E+00
 -1       944 1.42886E+00 3.26405E+00 0.00000E+00
 -1       945 7.09429E-01 1.40939E+00 0.00000E+00
 -1       946 2.95036E-01 5.81600E-01 0.00000E+00
 -1       947 2.32626E-01 4.58262E-01 0.00000E+00
 -1       948-6.64222E-01 2.58557E-01 0.00000E+00
 -1       949-3.37281E+00 3.15143E+00 0.00000E+00
 -1       950-6.90087E+00 8.38652E+00 0.00000E+00
 -1       951-1.04486E+01 1.71239E+01 0.00000E+00
 -1       952 3.08277E-01 7.30728E-01 0.00000E+00
 -1       953-1.29111E+01 2.27700E+01 0.00000E+00
 -1       954-4.97336E+00 1.64125E+01 0.00000E+00
 -1       955 1.14957E-01 1.00340E+01 0.00000E+00
 -1       956 1.42577E+00 4.92676E+00 0.00000E+00
 -1       957 1.10776E+00 2.10784E+00 0.00000E+00
 -1       958 4.67884E-01 7.80052E-01 0.00000E+00
 -1       959-1.05913E-01 2.29125E-01 0.00000E+00
 -1       960-2.07766E+00 1.54113E+00 0.00000E+00
 -1       961-5.08194E+00 5.39281E+00 0.00000E+00
 -1       962-8.60156E+00 1.22984E+01 0.00000E+00
 -1       963 2.88840E-02 4.55473E+00 0.00000E+00
 -1       964 7.70103E-01 1.60072E+00 0.00000E+00
 -1       965 1.56327E-01 1.23065E+00 0.00000E+00
 -1       966-3.51212E+00 7.38485E+00 0.00000E+00
 -1       967-4.70519E+00 1.10931E+01 0.00000E+00
 -1       968-9.71750E-01 6.91087E+00 0.00000E+00
 -1       969-2.02721E+00 9.56547E+00 0.00000E+00
 -1       970-2.09713E+00 4.70186E+00 0.00000E+00
 -1       971-5.96361E-01 9.88276E-01 0.00000E+00
 -1       972 6.61617E-01 2.84196E+00 0.00000E+00
 -1       973-8.39528E-01 2.50178E+00 0.00000E+00
 -1       974 7.17177E-01 1.45088E+00 0.00000E+00
 -1       975 1.43251E+00 3.27085E+00 0.00000E+00
 -1       976 1.02119E+00 7.15445E+00 0.00000E+00
 -1       977-1.95230E+00 1.30657E+01 0.00000E+00
 -1       978-7.52796E+00 2.22702E+01 0.00000E+00
 -1       979-1.27256E+01 2.26101E+01 0.00000E+00
 -1       980-9.27938E+00 1.18785E+01 0.00000E+00
 -1       981-4.94758E+00 5.59450E+00 0.00000E+00
 -1       982-2.07163E+00 1.52760E+00 0.00000E+00
 -1       983-7.19682E-01 2.95032E-01 0.00000E+00
 -1       984 1.50727E-01 3.86581E-01 0.00000E+00
 -1       985 3.41816E-01 6.31966E-01 0.00000E+00
 -1       986 3.00398E-01 7.34088E-01 0.00000E+00
 -1       987 1.16604E+00 2.28536E+00 0.00000E+00
 -1       988 1.43801E+00 4.90810E+00 0.00000E+00
 -1       989-5.65294E-02 9.90508E+00 0.00000E+00
 -1       990-4.47164E+00 1.72556E+01 0.00000E+00
 -1       991-9.69386E+00 1.66011E+01 0.00000E+00
 -1       992-6.85625E+00 8.60742E+00 0.00000E+00
 -1       993-3.31629E+00 3.19653E+00 0.00000E+00
 -1       994-1.34711E-01 2.39138E-01 0.00000E+00
 -1       995 3.34937E-01 5.29257E-01 0.00000E+00
 -1       996-5.54254E+00 1.23667E+01 0.00000E+00
 -1       997 1.25786E-01 4.53960E+00 0.00000E+00
 -1       998-1.99395E+00 4.87576E+00 0.00000E+00
 -1       999-3.09753E+00 8.45152E+00 0.00000E+00
 -1      1000 1.16022E-01 1.20561E+00 0.00000E+00
 -1      1001-6.23870E-01 1.01587E+00 0.00000E+00
 -1      1002 6.92237E-01 2.80309E+00 0.00000E+00
 -1      1003-6.58546E-01 6.83434E+00 0.00000E+00
 -1      1004-8.01728E-01 2.51978E+00 0.00000E+00
 -1      1005 7.62778E-01 1.53895E+00 0.00000E+00
 -1      1006 7.10785E-01 1.26134E+00 0.00000E+00
 -1      1007-7.83073E+00 2.54279E+01 5.05922E-03
 -1      1008 2.16263E-01 5.63085E-01-1.91204E-03
 -1      1009 1.04158E-01 3.42487E-01 1.88731E-03
 -1      1010-1.53806E+01 2.14034E+01-4.38662E-03
 -1      1011-1.62206E+01 2.56643E+01-1.50650E-03
 -1      1012 1.95004E-01 3.94788E-01-6.43483E-04
 -1      1013-2.47594E+00 1.75160E+01 4.90639E-03
 -1      1014-3.99119E+00 2.62204E+00 4.18991E-03
 -1      1015-5.10212E-01 1.22429E-01-8.00262E-03
 -1      1016 6.24729E-01 1.44014E+00-1.62677E-03
 -1      1017 8.36895E-01 1.11494E+01-1.72290E-03
 -1      1018 1.74551E+00 4.26459E+00 3.52992E-03
 -1      1019 1.61312E-01 2.52538E-01-3.43651E-03
 -1      1020-1.12450E+01 1.38671E+01-1.43363E-02
 -1      1021-5.05387E+00 2.21974E+01-3.35962E-03
 -1      1022-1.15662E+01 2.55914E+01 1.05560E-02
 -1      1023-7.84804E+00 7.28611E+00 6.38817E-03
 -1      1024 7.14781E-02 1.53643E-01-1.12923E-02
 -1      1025 1.44540E+00 3.10101E+00 1.15482E-03
 -1      1026 2.41220E-01 4.08994E-01-5.24158E-04
 -1      1027-3.31674E-01 1.37245E+01-5.78034E-03
 -1      1028 1.07061E+00 2.17299E+00 2.34243E-03
 -1      1029 1.47122E+00 8.66031E+00-3.60315E-03
 -1      1030-2.28931E-01 6.35426E-02-5.38677E-03
 -1      1031 1.82628E+00 6.16088E+00 1.03990E-03
 -1      1032-2.28403E+00 1.22272E+00 1.66866E-02
 -1      1033-5.83099E+00 4.61041E+00 1.05200E-03
 -1      1034-9.98351E+00 1.05927E+01 6.94810E-03
 -1      1035-1.32541E+01 1.73451E+01-3.20529E-03
 -1      1036-5.87315E-02 6.93746E-02-2.98617E-03
 -3
    1PSTEP                         2           1           1          
  100CL  101 1.000000000         156                     0    1           1
 -4  STRESS      6    1
 -5  SXX         1    4    1    1
 -5  SYY         1    4    2    2
 -5  SZZ         1    4    3    3
 -5  SXY         1    4    1    2
 -5  SYZ         1    4    2    3
 -5  SZX         1    4    3    1
 -1       881 3.11387E+00 8.86915E+00 3.97156E+00 7.56835E+00-1.01501E-01-1.97880E-01
 -1       882 2.20862E+00 8.57242E+00 3.54150E+00 7.36204E+00 3.39010E-03-7.78967E-02
 -1       883 4.92336E+00 2.57547E+00 2.48782E+00 4.22606E+00 5.96287E-02 4.13799E-02
 -1       884 4.93634E+00 2.72095E+00 2.51370E+00 4.19410E+00-3.86048E-03 8.85489E-03
 -1       885-3.37397E+00 4.72891E+00 4.38724E-01 2.29249E+00 6.65292E-02-1.12407E-02
 -1       886-3.17754E+00 4.48614E+00 4.45950E-01 2.37079E+00 7.46972E-02 5.37684E-03
 -1       887-2.43846E+01-7.06177E+00-1.04520E+01-8.88088E-01-7.35161E-02-4.48212E-01
 -1       888-2.50484E+01-7.39898E+00-1.05957E+01-7.77867E-01 3.60541E-01 2.51236E-01
 -1       889 5.92008E+00 8.87121E+00 4.87555E+00 8.32705E+00-1.78082E-01 1.51701E-01
 -1       890 9.19486E+00 9.30382E+00 6.11463E+00 9.54571E+00-1.69994E-01 1.81696E-02
 -1       891 1.11730E+01 1.00290E+01 6.94044E+00 1.04430E+01-1.85853E-01 4.02392E-02
 -1       892 1.19343E+01 9.94418E+00 7.18502E+00 1.08618E+01 4.58589E-02 8.27433E-02
 -1       893 1.18051E+01 8.94236E+00 6.83649E+00 1.03967E+01 1.73424E-02 9.76458E-02
 -1       894 1.13635E+01 7.73402E+00 6.33868E+00 9.57430E+00-3.79808E-03 9.31205E-02
 -1       895 1.02572E+01 6.19334E+00 5.46199E+00 8.10059E+00 8.54009E-02 1.04295E-01
 -1       896 8.94851E+00 5.21012E+00 4.68510E+00 6.80332E+00 7.23592E-02 1.21844E-01
 -1       897 7.22072E+00 4.44432E+00 3.82505E+00 5.53247E+00 7.23379E-02 8.93475E-02
 -1       898 5.64723E+00 3.51168E+00 3.02082E+00 4.52239E+00 1.14981E-01 7.10507E-02
 -1       899 6.37394E+00 8.86572E+00 5.03225E+00 8.46218E+00 4.61442E-02 2.34226E-01
 -1       900 9.70030E+00 9.55277E+00 6.34162E+00 9.75730E+00 1.02113E-01-6.39350E-02
 -1       901 1.10794E+01 9.81632E+00 6.95354E+00 1.04250E+01 1.16690E-01-3.09663E-02
 -1       902 1.15572E+01 9.68847E+00 7.05652E+00 1.05869E+01 2.29977E-01-9.65236E-02
 -1       903 1.18617E+01 9.11953E+00 6.93399E+00 1.05468E+01 1.05478E-01-7.01914E-02
 -1       904 1.15933E+01 8.00050E+00 6.42965E+00 9.78155E+00-2.92373E-02-1.13851E-01
 -1       905 1.03169E+01 6.45517E+00 5.50825E+00 8.23287E+00-2.12962E-01-1.99254E-01
 -1       906 8.60246E+00 5.03813E+00 4.48989E+00 6.62004E+00-1.13668E-01-1.72188E-01
 -1       907 6.95292E+00 4.19547E+00 3.70314E+00 5.32565E+00-6.24974E-02-9.04130E-02
 -1       908 5.76231E+00 3.43901E+00 3.03864E+00 4.53848E+00-5.14360E-02-1.11113E-02
 -1       909-1.46456E+00 7.35923E+00 1.98529E+00 4.52331E+00-2.99275E-02 7.61409E-02
 -1       910-2.46685E-01 8.51796E+00 2.84517E+00 6.33423E+00-8.48601E-02 4.18269E-03
 -1       911-1.45128E+00 6.68316E+00 1.68581E+00 4.19501E+00 4.10792E-01 1.50155E-01
 -1       912-1.12446E-01 9.07228E+00 2.84148E+00 6.48713E+00 2.31347E-01 1.90042E-02
 -1       913-2.28115E+01-2.70779E+00-8.30905E+00-3.49598E+00-5.80652E-02-2.92822E-01
 -1       914-1.83637E+01-2.07111E+00-6.61888E+00-4.89248E+00-2.08217E-01-7.79875E-02
 -1       915-1.65744E+01-1.76863E+00-6.02194E+00-4.87476E+00-2.32697E-01 4.51938E-02
 -1       916-1.56539E+01-1.58611E+00-5.62875E+00-4.61853E+00-2.07090E-01 1.07264E-01
 -1       917-1.45478E+01-1.21233E+00-5.10593E+00-4.08874E+00-1.17151E-01 1.83986E-01
 -1       918-1.20574E+01-4.94867E-01-4.21334E+00-2.86602E+00 6.75872E-02 2.00753E-01
 -1       919-8.63095E+00 6.14926E-01-2.70435E+00-7.50862E-01-1.48045E-01 1.80639E-01
 -1       920-5.85278E+00 1.93873E+00-1.32871E+00 7.40689E-01-2.78445E-02 2.47009E-01
 -1       921-2.33052E+01-2.52752E+00-8.61265E+00-3.89813E+00 3.62947E-01-4.88311E-01
 -1       922-1.75198E+01-1.75142E+00-6.48401E+00-5.04175E+00 8.32094E-02-2.11494E-01
 -1       923-1.62602E+01-1.69196E+00-5.95540E+00-4.89679E+00 9.24850E-02-4.76715E-02
 -1       924-1.52995E+01-1.43371E+00-5.58441E+00-4.57697E+00 1.05663E-01 4.44249E-02
 -1       925-1.43587E+01-1.05559E+00-5.18052E+00-4.08461E+00 1.43064E-01 5.37663E-02
 -1       926-1.18994E+01-7.29725E-01-4.08694E+00-2.91714E+00 1.23702E-01-1.63395E-01
 -1       927-9.20298E+00 2.00703E-01-2.92457E+00-1.22251E+00-1.88453E-02-3.46163E-01
 -1       928-5.07549E+00 2.04166E+00-9.63624E-01 1.21990E+00-1.74188E-01-4.48004E-01
 -1       929 6.11272E+00 3.27759E+00 3.09672E+00 4.53388E+00 7.55753E-02 2.01468E-02
 -1       930 7.45227E+00 3.40887E+00 3.56879E+00 4.41096E+00-2.54203E-02-4.30888E-02
 -1       931 7.70532E+00 3.20420E+00 3.58219E+00 3.64808E+00-1.48224E-01-6.18292E-02
 -1       932 5.35400E+00 1.87780E+00 2.29246E+00 2.38698E+00-3.16651E-01-1.75317E-01
 -1       933 5.68381E-01-4.15981E-01-3.89583E-02 1.22255E+00-3.05034E-01-2.11297E-01
 -1       934-8.78008E+00-4.19896E+00-4.35964E+00 3.66895E-01-2.83278E-01-2.51185E-01
 -1       935 6.14208E+00 3.19242E+00 3.08210E+00 4.51962E+00-5.62238E-02-9.60412E-03
 -1       936 7.61038E+00 3.49547E+00 3.68083E+00 4.36405E+00 1.27104E-02 3.42794E-02
 -1       937 7.55186E+00 3.07288E+00 3.52560E+00 3.40947E+00 6.02615E-02 4.69730E-02
 -1       938 4.49547E+00 1.55734E+00 2.09067E+00 2.08137E+00 1.28256E-01-1.91750E-02
 -1       939-5.48594E-01-7.97649E-01-3.55257E-01 1.05057E+00 2.75194E-01 1.31980E-02
 -1       940-1.07014E+01-5.06336E+00-5.12579E+00 4.62290E-01 3.41633E-01 7.40154E-02
 -1       941 2.33866E-01 7.05959E+00 2.44429E+00 6.21916E+00-2.46965E-01-8.07769E-02
 -1       942 5.52591E+00 6.85813E+00 4.06874E+00 7.00119E+00-1.56856E-01-2.35252E-02
 -1       943 7.55939E+00 6.34586E+00 4.57492E+00 7.54157E+00 4.67892E-02 1.42303E-01
 -1       944 8.93982E+00 4.25318E+00 4.37114E+00 6.96067E+00 3.28904E-02 4.53287E-02
 -1       945 8.38100E+00 3.37353E+00 3.87958E+00 5.29868E+00 1.42080E-03 5.22637E-02
 -1       946 8.10740E+00 2.65606E+00 3.54343E+00 4.37089E+00 1.32831E-02 8.03583E-02
 -1       947 3.10242E+00-4.48656E-01 8.25036E-01 2.38695E+00-2.53683E-01-2.54746E-01
 -1       948-1.56587E+01-3.90193E+00-6.47470E+00-5.03563E-01-1.12274E-01-1.72619E-01
 -1       949-1.17146E+01-8.26920E-01-4.10956E+00-2.60446E+00-2.17692E-01 9.86236E-02
 -1       950-9.99753E+00 6.17274E-02-3.21437E+00-1.99038E+00-1.49563E-01 2.16441E-01
 -1       951-5.18843E+00 2.97685E+00-7.94516E-01 1.66536E+00-2.55088E-02 2.42263E-01
 -1       952 7.43090E+00 3.64797E+00 3.62868E+00 4.86263E+00 3.61790E-02 2.72128E-02
 -1       953-3.65633E+00 4.15394E+00 1.81763E-01 3.01325E+00-7.53454E-02 2.69445E-01
 -1       954 1.74949E+00 6.22588E+00 2.64161E+00 5.67824E+00-1.18077E-01-2.48186E-03
 -1       955 8.42981E+00 7.84169E+00 5.32873E+00 8.28931E+00 1.05069E-02 1.35620E-01
 -1       956 8.22249E+00 5.27714E+00 4.46851E+00 7.36568E+00 7.73271E-03 6.65530E-02
 -1       957 9.17773E+00 3.49352E+00 4.19517E+00 6.26731E+00 3.85438E-02 5.52826E-02
 -1       958 7.47073E+00 1.73911E+00 3.02380E+00 3.87812E+00-1.38342E-01-3.47280E-02
 -1       959-4.01137E+00-2.43248E+00-2.15427E+00 1.22593E+00-9.14405E-02-2.45334E-01
 -1       960-1.40366E+01-1.17111E+00-4.90477E+00-2.17498E+00-1.09331E-01-6.23685E-02
 -1       961-1.09662E+01-4.72796E-01-3.74518E+00-2.52372E+00-1.96120E-01 1.24668E-01
 -1       962-7.53961E+00 1.43358E+00-2.02996E+00-4.03190E-01 3.65784E-02 3.44745E-01
 -1       963 1.82080E+00 2.49235E+00 1.42334E+00 3.94706E+00 4.82786E-02 1.89861E-01
 -1       964 6.25708E+00 8.07953E-01 2.33146E+00 4.36852E+00-2.12415E-02-1.12659E-01
 -1       965-8.67831E-01-8.71657E-01-5.74031E-01 2.87431E+00-1.08800E-02-2.20857E-01
 -1       966-3.93321E+00 2.19546E+00-5.73459E-01 1.31895E+00-2.75033E-02 4.41531E-02
 -1       967-2.71326E+00 3.41658E+00 2.32096E-01 2.47242E+00-1.12874E-01 8.38777E-02
 -1       968 2.51229E+00 4.24217E+00 2.22897E+00 4.42936E+00 1.09910E-01 3.82037E-01
 -1       969 2.01748E+00 4.71036E+00 2.22019E+00 4.53208E+00 7.34969E-02 2.43659E-02
 -1       970-4.86033E+00 1.06082E+00-1.25384E+00 7.58654E-01-7.53703E-02 8.02465E-02
 -1       971-8.64425E+00-1.99442E+00-3.51076E+00 8.08788E-01 6.75900E-02-1.79146E-01
 -1       972 3.89375E+00 1.43870E+00 1.75971E+00 4.44721E+00-8.90945E-03-4.08981E-02
 -1       973-5.14285E+00-3.11046E-02-1.70741E+00 1.06888E+00-4.96774E-02-2.18623E-02
 -1       974 8.34356E+00 3.75892E+00 3.98953E+00 5.67221E+00-3.02133E-02-8.48037E-02
 -1       975 9.43016E+00 4.74485E+00 4.65320E+00 7.20328E+00-7.10570E-02-1.48099E-01
 -1       976 8.47599E+00 6.76390E+00 5.04680E+00 8.13464E+00 6.60316E-02-4.73546E-02
 -1       977 5.06753E+00 6.70300E+00 3.89578E+00 6.75979E+00 1.21961E-01-1.37740E-02
 -1       978 4.71851E-01 7.04060E+00 2.44887E+00 6.19080E+00-2.69891E-02-6.23344E-02
 -1       979-3.48491E+00 4.24926E+00 2.38101E-01 3.24861E+00 7.04651E-02-8.25574E-02
 -1       980-9.24042E+00 6.67183E-01-2.81269E+00-1.56042E+00 2.95113E-01 4.89866E-02
 -1       981-9.58835E+00-4.04987E-02-3.19769E+00-1.80645E+00 7.46302E-02 8.19482E-02
 -1       982-1.20780E+01-9.17158E-01-4.37126E+00-1.91493E+00 5.12510E-02-1.26548E-01
 -1       983-1.41912E+01-3.44548E+00-5.80695E+00-3.44468E-01 3.03646E-01-2.30536E-01
 -1       984 3.21356E+00-2.92826E-01 1.03495E+00 2.23566E+00 1.86646E-02-1.44698E-01
 -1       985 8.22249E+00 2.75130E+00 3.62872E+00 4.44602E+00-3.90605E-02 8.72058E-03
 -1       986 7.47095E+00 3.55739E+00 3.66242E+00 4.88554E+00-4.51685E-02-7.50801E-02
 -1       987 9.22484E+00 4.11094E+00 4.37204E+00 6.60593E+00-1.93688E-02-1.17251E-01
 -1       988 9.04087E+00 5.72817E+00 4.85481E+00 7.79377E+00-8.19248E-03-9.97325E-02
 -1       989 7.04316E+00 7.02128E+00 4.66222E+00 7.51143E+00 8.62744E-02 7.64367E-02
 -1       990 3.58055E+00 7.06542E+00 3.49090E+00 6.60179E+00 1.41975E-01-2.64717E-02
 -1       991-5.50421E+00 2.58570E+00-9.01264E-01 1.26605E+00 1.91542E-01-1.61753E-02
 -1       992-8.58727E+00 7.31347E-01-2.64042E+00-1.17341E+00 1.10785E-01 1.42848E-01
 -1       993-1.03457E+01-4.75733E-01-3.59136E+00-1.98508E+00 3.09672E-02 6.59090E-02
 -1       994-3.21128E+00-2.16360E+00-1.73607E+00 1.20413E+00 2.12638E-01-5.36326E-02
 -1       995 6.95745E+00 1.32527E+00 2.75635E+00 3.50546E+00-1.64958E-02-1.39127E-02
 -1       996-1.55063E+00 4.10013E+00 8.41333E-01 3.22463E+00 1.54113E-01 1.15174E-01
 -1       997 4.40171E+00 3.27317E+00 2.53271E+00 5.14143E+00 4.79271E-02 2.88151E-02
 -1       998-2.32844E+00 1.98914E+00-1.11969E-01 2.00907E+00 1.09087E-01 1.59188E-01
 -1       999-1.90795E+00 3.16291E+00 4.14135E-01 2.69902E+00 1.49454E-01-5.16118E-02
 -1      1000 1.57203E+00-5.26799E-01 3.44926E-01 3.20320E+00-3.56903E-02-2.51302E-01
 -1      1001-5.34415E+00-1.47228E+00-2.24942E+00 1.61559E+00 6.03380E-02-1.81868E-01
 -1      1002 6.08025E+00 2.19419E+00 2.73057E+00 5.29751E+00 1.10511E-02-8.86137E-02
 -1      1003 2.60633E+00 4.05878E+00 2.19949E+00 4.41027E+00 1.33893E-01 2.16431E-01
 -1      1004-1.90054E+00 5.16266E-01-4.56810E-01 2.30446E+00 2.38784E-03-3.92833E-02
 -1      1005 7.50003E+00 1.53720E+00 2.98229E+00 5.04822E+00 2.98161E-03-9.29862E-02
 -1      1006 8.50647E+00 2.25803E+00 3.55029E+00 4.90443E+00 6.81086E-03 1.07887E-02
 -1      1007 1.08610E+00 8.30936E+00 3.10171E+00 6.96107E+00-7.63601E-02-1.68624E-01
 -1      1008 6.72179E+00 3.66459E+00 3.42749E+00 4.73719E+00 6.18362E-03-1.04077E-02
 -1      1009 5.35191E+00 2.98357E+00 2.75070E+00 4.38181E+00 2.77239E-02 3.20691E-02
 -1      1010-6.73104E+00 1.10432E+00-1.85683E+00 2.86838E-01-1.17529E-01-6.71980E-02
 -1      1011-2.75573E+00 4.40011E+00 5.42475E-01 2.97320E+00 4.39001E-02 3.54823E-02
 -1      1012 7.96937E+00 3.25801E+00 3.70449E+00 4.39101E+00-3.93520E-03 2.20876E-02
 -1      1013 7.09692E+00 8.18291E+00 5.03831E+00 8.24497E+00-2.83163E-02 3.78429E-02
 -1      1014-1.51155E+01-1.37838E+00-5.44164E+00-4.18695E+00-8.37915E-02-2.50360E-02
 -1      1015-2.04395E+01-5.36607E+00-8.51624E+00-9.90681E-01 1.40201E-01-2.19808E-01
 -1      1016 7.69443E+00 4.26779E+00 3.94792E+00 5.68587E+00-1.81711E-02-2.46133E-02
 -1      1017 1.11316E+01 9.70801E+00 6.87727E+00 1.01307E+01 7.46309E-02 6.38354E-02
 -1      1018 1.03373E+01 6.63304E+00 5.59991E+00 8.61949E+00-4.30327E-02-2.54268E-02
 -1      1019 5.99375E+00 1.59168E+00 2.50825E+00 2.63356E+00-1.57215E-01-8.53500E-02
 -1      1020-8.84790E+00 6.74648E-01-2.69983E+00-1.67191E+00 1.32545E-01 1.73153E-01
 -1      1021 3.52714E+00 7.92528E+00 3.77995E+00 7.42178E+00-1.23112E-01-1.09190E-02
 -1      1022-7.81296E-01 7.80704E+00 2.31868E+00 5.98909E+00 6.29766E-02 8.00816E-02
 -1      1023-1.30204E+01-8.75597E-01-4.58474E+00-3.70301E+00-2.81746E-02 1.29994E-01
 -1      1024 2.81827E+00 4.09434E-01 1.06699E+00 1.68772E+00-1.09114E-01-1.55567E-01
 -1      1025 9.44627E+00 5.09260E+00 4.79656E+00 7.42715E+00-5.34403E-02-3.40710E-02
 -1      1026 7.81693E+00 2.32231E+00 3.34942E+00 3.83598E+00-4.81717E-02 1.01718E-02
 -1      1027 9.13777E+00 8.77455E+00 5.90820E+00 9.02934E+00-3.91351E-02 8.15376E-03
 -1      1028 9.18089E+00 4.63060E+00 4.55558E+00 6.73440E+00-3.55871E-03-1.26613E-02
 -1      1029 1.06148E+01 8.62045E+00 6.34679E+00 9.60536E+00 9.26941E-02 1.33081E-02
 -1      1030-9.24795E+00-4.24825E+00-4.45383E+00-2.38565E-02 6.36140E-02-1.21631E-01
 -1      1031 1.05598E+01 7.72502E+00 6.03380E+00 9.33817E+00 1.59210E-02 5.87624E-03
 -1      1032-1.80350E+01-1.40596E+00-6.41467E+00-3.47109E+00 8.79221E-02-2.75627E-01
 -1      1033-1.40293E+01-1.24966E+00-5.04199E+00-4.08769E+00-6.46553E-02 5.63702E-02
 -1      1034-1.18952E+01-3.86777E-01-4.06076E+00-3.10884E+00 6.68328E-02 1.34241E-01
 -1      1035-7.86109E+00 9.09583E-01-2.29183E+00-5.39240E-01 2.04524E-03-4.23167E-02
 -1      1036-2.02556E+00-1.89553E+00-1.29311E+00 8.26104E-01-2.18194E-02-1.14453E-01
 -3
    1PSTEP                         3           1           1          
  100CL  101 1.000000000         156                     0    1           1
 -4  TOSTRAIN    6    1
 -5  EXX         1    4    1    1
 -5  EYY         1    4    2    2
 -5  EZZ         1    4    3    3
 -5  EXY         1    4    1    2
 -5  EYZ         1    4    2    3
 -5  EZX         1    4    3    1
 -1       881-1.60509E-02 9.32994E-02 2.45223E-04 1.43799E-01-1.92851E-03-3.75972E-03
 -1       882-2.55568E-02 9.53554E-02-2.31984E-04 1.39879E-01 6.44119E-05-1.48004E-03
 -1       883 4.64639E-02 1.85401E-03 1.88728E-04 8.02952E-02 1.13295E-03 7.86219E-04
 -1       884 4.58416E-02 3.74912E-03-1.88734E-04 7.96879E-02-7.33492E-05 1.68243E-04
 -1       885-7.25613E-02 8.13935E-02-1.20094E-04 4.35573E-02 1.26405E-03-2.13573E-04
 -1       886-6.86447E-02 7.69652E-02 2.01583E-04 4.50450E-02 1.41925E-03 1.02160E-04
 -1       887-2.65786E-01 6.33473E-02-1.06788E-03-1.68737E-02-1.39681E-03-8.51603E-03
 -1       888-2.73002E-01 6.23368E-02 1.59923E-03-1.47795E-02 6.85028E-03 4.77348E-03
 -1       889 1.97663E-02 7.58379E-02-7.95961E-05 1.58214E-01-3.38355E-03 2.88233E-03
 -1       890 5.86682E-02 6.07384E-02 1.43853E-04 1.81368E-01-3.22989E-03 3.45222E-04
 -1       891 7.96152E-02 5.78798E-02-8.03098E-04 1.98417E-01-3.53121E-03 7.64544E-04
 -1       892 8.97382E-02 5.19258E-02-4.98369E-04 2.06375E-01 8.71320E-04 1.57212E-03
 -1       893 9.42585E-02 3.98661E-02-1.45345E-04 1.97536E-01 3.29505E-04 1.85527E-03
 -1       894 9.59929E-02 2.70330E-02 5.21373E-04 1.81912E-01-7.21635E-05 1.76929E-03
 -1       895 9.15853E-02 1.43714E-02 4.75759E-04 1.53911E-01 1.62262E-03 1.98161E-03
 -1       896 8.11870E-02 1.01575E-02 1.82214E-04 1.29263E-01 1.37482E-03 2.31503E-03
 -1       897 6.41690E-02 1.14173E-02-3.48751E-04 1.05117E-01 1.37442E-03 1.69760E-03
 -1       898 4.98786E-02 9.30317E-03-2.31153E-05 8.59253E-02 2.18464E-03 1.34996E-03
 -1       899 2.55373E-02 7.28811E-02 4.51272E-05 1.60781E-01 8.76739E-04 4.45030E-03
 -1       900 6.36450E-02 6.08420E-02-1.69913E-04 1.85389E-01 1.94015E-03-1.21476E-03
 -1       901 7.92186E-02 5.52209E-02 8.28105E-04 1.98075E-01 2.21711E-03-5.88359E-04
 -1       902 8.61629E-02 5.06561E-02 6.49013E-04 2.01151E-01 4.36957E-03-1.83395E-03
 -1       903 9.37724E-02 4.16707E-02 1.45268E-04 2.00389E-01 2.00408E-03-1.33364E-03
 -1       904 9.75905E-02 2.93276E-02-5.18551E-04 1.85849E-01-5.55508E-04-2.16317E-03
 -1       905 9.09856E-02 1.76123E-02-3.79084E-04 1.56425E-01-4.04627E-03-3.78583E-03
 -1       906 7.79745E-02 1.02523E-02-1.64460E-04 1.25781E-01-2.15970E-03-3.27157E-03
 -1       907 6.20912E-02 9.69958E-03 3.45284E-04 1.01187E-01-1.18745E-03-1.71785E-03
 -1       908 5.17812E-02 7.63853E-03 3.15186E-05 8.62310E-02-9.77284E-04-2.11114E-04
 -1       909-6.49751E-02 1.02677E-01 5.72159E-04 8.59428E-02-5.68623E-04 1.44668E-03
 -1       910-5.70931E-02 1.09435E-01 1.65216E-03 1.20350E-01-1.61234E-03 7.94711E-05
 -1       911-6.01863E-02 9.43680E-02-5.81576E-04 7.97052E-02 7.80504E-03 2.85294E-03
 -1       912-5.77712E-02 1.16739E-01-1.64665E-03 1.23255E-01 4.39559E-03 3.61080E-04
 -1       913-2.73942E-01 1.08029E-01 1.60466E-03-6.64236E-02-1.10324E-03-5.56361E-03
 -1       914-2.21372E-01 8.81880E-02 1.78030E-03-9.29571E-02-3.95613E-03-1.48176E-03
 -1       915-2.00050E-01 8.12593E-02 4.46580E-04-9.26205E-02-4.42125E-03 8.58683E-04
 -1       916-1.89615E-01 7.76740E-02 8.63771E-04-8.77522E-02-3.93471E-03 2.03801E-03
 -1       917-1.78039E-01 7.53342E-02 1.35584E-03-7.76860E-02-2.22588E-03 3.49573E-03
 -1       918-1.50053E-01 6.96355E-02-1.01550E-03-5.44544E-02 1.28416E-03 3.81431E-03
 -1       919-1.13449E-01 6.22225E-02-8.43766E-04-1.42664E-02-2.81285E-03 3.43215E-03
 -1       920-8.64869E-02 6.15517E-02-5.29671E-04 1.40731E-02-5.29046E-04 4.69316E-03
 -1       921-2.80414E-01 1.14363E-01-1.25493E-03-7.40644E-02 6.89600E-03-9.27791E-03
 -1       922-2.11458E-01 8.81404E-02-1.77886E-03-9.57932E-02 1.58098E-03-4.01838E-03
 -1       923-1.96236E-01 8.05597E-02-4.45624E-04-9.30391E-02 1.75721E-03-9.05758E-04
 -1       924-1.85479E-01 7.79712E-02-8.92057E-04-8.69624E-02 2.00760E-03 8.44073E-04
 -1       925-1.75725E-01 7.70334E-02-1.34017E-03-7.76076E-02 2.71821E-03 1.02156E-03
 -1       926-1.47285E-01 6.49397E-02 1.15255E-03-5.54256E-02 2.35034E-03-3.10451E-03
 -1       927-1.18630E-01 6.00399E-02 6.59707E-04-2.32277E-02-3.58061E-04-6.57709E-03
 -1       928-7.75891E-02 5.76366E-02 5.36288E-04 2.31781E-02-3.30957E-03-8.51208E-03
 -1       929 5.72742E-02 3.40678E-03-2.97196E-05 8.61437E-02 1.43593E-03 3.82789E-04
 -1       930 7.35663E-02-3.25831E-03-2.19781E-04 8.38082E-02-4.82986E-04-8.18687E-04
 -1       931 7.80830E-02-7.43829E-03-2.56472E-04 6.93135E-02-2.81625E-03-1.17475E-03
 -1       932 5.68258E-02-9.22184E-03-1.34331E-03 4.53526E-02-6.01637E-03-3.33101E-03
 -1       933 1.02645E-02-8.43844E-03-1.27500E-03 2.32284E-02-5.79565E-03-4.01464E-03
 -1       934-8.50820E-02 1.95922E-03-1.09362E-03 6.97100E-03-5.38228E-03-4.77252E-03
 -1       935 5.81642E-02 2.12051E-03 2.45145E-05 8.58727E-02-1.06825E-03-1.82478E-04
 -1       936 7.48887E-02-3.29477E-03 2.27108E-04 8.29170E-02 2.41498E-04 6.51309E-04
 -1       937 7.67766E-02-8.32405E-03 2.77709E-04 6.47800E-02 1.14497E-03 8.92487E-04
 -1       938 4.70233E-02-8.80126E-03 1.33201E-03 3.95460E-02 2.43686E-03-3.64325E-04
 -1       939-2.40193E-03-7.13397E-03 1.27147E-03 1.99608E-02 5.22869E-03 2.50762E-04
 -1       940-1.04842E-01 2.28002E-03 1.09388E-03 8.78351E-03 6.49103E-03 1.40629E-03
 -1       941-4.14630E-02 8.82257E-02 5.34984E-04 1.18164E-01-4.69234E-03-1.53476E-03
 -1       942 2.74291E-02 5.27414E-02-2.57054E-04 1.33023E-01-2.98026E-03-4.46979E-04
 -1       943 5.65075E-02 3.34506E-02-1.97277E-04 1.43290E-01 8.88994E-04 2.70375E-03
 -1       944 8.70543E-02-1.99200E-03 2.49293E-04 1.32253E-01 6.24918E-04 8.61245E-04
 -1       945 8.55354E-02-9.60665E-03 8.37139E-06 1.00675E-01 2.69951E-05 9.93010E-04
 -1       946 8.65939E-02-1.69816E-02-1.21633E-04 8.30469E-02 2.52378E-04 1.52681E-03
 -1       947 4.25460E-02-2.49245E-02-7.24386E-04 4.53520E-02-4.81998E-03-4.84017E-03
 -1       948-1.74777E-01 4.86013E-02-2.81318E-04-9.56770E-03-2.13321E-03-3.27976E-03
 -1       949-1.44079E-01 6.27863E-02 4.16261E-04-4.94848E-02-4.13615E-03 1.87385E-03
 -1       950-1.27959E-01 6.31665E-02 9.20607E-04-3.78171E-02-2.84169E-03 4.11238E-03
 -1       951-8.44086E-02 7.07318E-02-9.24232E-04 3.16419E-02-4.84668E-04 4.60300E-03
 -1       952 7.18514E-02-2.40883E-05-3.90694E-04 9.23900E-02 6.87402E-04 5.17044E-04
 -1       953-7.26730E-02 7.57221E-02 2.50718E-04 5.72518E-02-1.43156E-03 5.11946E-03
 -1       954-1.68111E-02 6.82402E-02 1.39074E-04 1.07887E-01-2.24347E-03-4.71553E-05
 -1       955 5.83367E-02 4.71624E-02-5.83707E-04 1.57497E-01 1.99630E-04 2.57679E-03
 -1       956 7.15204E-02 1.55587E-02 1.94679E-04 1.39948E-01 1.46922E-04 1.26451E-03
 -1       957 9.48638E-02-1.31363E-02 1.95145E-04 1.19079E-01 7.32331E-04 1.05037E-03
 -1       958 8.42710E-02-2.46298E-02-2.20691E-04 7.36843E-02-2.62850E-03-6.59832E-04
 -1       959-3.56820E-02-5.68306E-03-3.97179E-04 2.32927E-02-1.73737E-03-4.66134E-03
 -1       960-1.71879E-01 7.25649E-02 1.62529E-03-4.13247E-02-2.07729E-03-1.18500E-03
 -1       961-1.36775E-01 6.25992E-02 4.23850E-04-4.79508E-02-3.72629E-03 2.36869E-03
 -1       962-1.04897E-01 6.55933E-02-2.13772E-04-7.66061E-03 6.94989E-04 6.55015E-03
 -1       963 7.55171E-03 2.03112E-02 0.00000E+00 7.49942E-02 9.17292E-04 3.60737E-03
 -1       964 7.45868E-02-2.89467E-02 0.00000E+00 8.30018E-02-4.03589E-04-2.14052E-03
 -1       965-5.58220E-03-5.65489E-03 0.00000E+00 5.46119E-02-2.06721E-04-4.19629E-03
 -1       966-6.38353E-02 5.26094E-02 0.00000E+00 2.50601E-02-5.22562E-04 8.38909E-04
 -1       967-5.59618E-02 6.05053E-02 0.00000E+00 4.69760E-02-2.14461E-03 1.59368E-03
 -1       968 5.38310E-03 3.82507E-02 0.00000E+00 8.41578E-02 2.08828E-03 7.25871E-03
 -1       969-3.85145E-03 4.73133E-02 0.00000E+00 8.61095E-02 1.39644E-03 4.62952E-04
 -1       970-6.85233E-02 4.39785E-02 0.00000E+00 1.44144E-02-1.43204E-03 1.52468E-03
 -1       971-9.75363E-02 2.88105E-02 0.00000E+00 1.53670E-02 1.28421E-03-3.40376E-03
 -1       972 4.05468E-02-6.09920E-03 0.00000E+00 8.44970E-02-1.69280E-04-7.77064E-04
 -1       973-6.52735E-02 3.18497E-02 0.00000E+00 2.03087E-02-9.43870E-04-4.15383E-04
 -1       974 8.26652E-02-4.44278E-03-6.12723E-05 1.07772E-01-5.74052E-04-1.61127E-03
 -1       975 9.04115E-02 1.39051E-03-3.50740E-04 1.36862E-01-1.35008E-03-2.81389E-03
 -1       976 6.54066E-02 3.28769E-02 2.51981E-04 1.54558E-01 1.25460E-03-8.99738E-04
 -1       977 2.24277E-02 5.35016E-02 1.64293E-04 1.28436E-01 2.31726E-03-2.61707E-04
 -1       978-3.79953E-02 8.68109E-02-4.32002E-04 1.17625E-01-5.12792E-04-1.18435E-03
 -1       979-7.09392E-02 7.60101E-02-2.01882E-04 6.17235E-02 1.33884E-03-1.56859E-03
 -1       980-1.21891E-01 6.63530E-02 2.35354E-04-2.96479E-02 5.60714E-03 9.30746E-04
 -1       981-1.21711E-01 5.96985E-02-2.88124E-04-3.43225E-02 1.41797E-03 1.55702E-03
 -1       982-1.47611E-01 6.44440E-02-1.18390E-03-3.63837E-02 9.73769E-04-2.40440E-03
 -1       983-1.59113E-01 4.50560E-02 1.88007E-04-6.54489E-03 5.76927E-03-4.38018E-03
 -1       984 4.24094E-02-2.42119E-02 1.01577E-03 4.24776E-02 3.54627E-04-2.74927E-03
 -1       985 8.73870E-02-1.65657E-02 1.05182E-04 8.44743E-02-7.42149E-04 1.65691E-04
 -1       986 7.26917E-02-1.66607E-03 3.29479E-04 9.28252E-02-8.58202E-04-1.42652E-03
 -1       987 9.17923E-02-5.37194E-03-4.10911E-04 1.25513E-01-3.68007E-04-2.22777E-03
 -1       988 7.92641E-02 1.63228E-02-2.71125E-04 1.48082E-01-1.55657E-04-1.89492E-03
 -1       989 4.55372E-02 4.51215E-02 2.99388E-04 1.42717E-01 1.63921E-03 1.45230E-03
 -1       990 1.38528E-03 6.75977E-02-3.18126E-04 1.25434E-01 2.69752E-03-5.02962E-04
 -1       991-8.65725E-02 6.71358E-02 8.83466E-04 2.40549E-02 3.63930E-03-3.07331E-04
 -1       992-1.13675E-01 6.33783E-02-6.85218E-04-2.22948E-02 2.10492E-03 2.71411E-03
 -1       993-1.28622E-01 5.89070E-02-2.90008E-04-3.77165E-02 5.88376E-04 1.25227E-03
 -1       994-2.74913E-02-7.58539E-03 5.37807E-04 2.28784E-02 4.04013E-03-1.01902E-03
 -1       995 8.01503E-02-2.68612E-02 3.29267E-04 6.66037E-02-3.13421E-04-2.64341E-04
 -1       996-4.54473E-02 6.19171E-02 0.00000E+00 6.12680E-02 2.92815E-03 2.18831E-03
 -1       997 3.55110E-02 1.40687E-02 0.00000E+00 9.76872E-02 9.10614E-04 5.47487E-04
 -1       998-4.21130E-02 3.99211E-02 0.00000E+00 3.81723E-02 2.07265E-03 3.02457E-03
 -1       999-4.41197E-02 5.22267E-02 0.00000E+00 5.12813E-02 2.83963E-03-9.80625E-04
 -1      1000 2.33150E-02-1.65628E-02 0.00000E+00 6.08608E-02-6.78116E-04-4.77473E-03
 -1      1001-5.87998E-02 1.47657E-02 0.00000E+00 3.06962E-02 1.14642E-03-3.45549E-03
 -1      1002 6.36440E-02-1.01911E-02 0.00000E+00 1.00653E-01 2.09971E-04-1.68366E-03
 -1      1003 7.72995E-03 3.53266E-02 0.00000E+00 8.37952E-02 2.54397E-03 4.11219E-03
 -1      1004-2.74309E-02 1.84884E-02 0.00000E+00 4.37848E-02 4.53690E-05-7.46383E-04
 -1      1005 8.58372E-02-2.74567E-02 0.00000E+00 9.59162E-02 5.66506E-05-1.76674E-03
 -1      1006 9.41389E-02-2.45814E-02-2.84618E-05 9.31842E-02 1.29406E-04 2.04986E-04
 -1      1007-3.82794E-02 9.89626E-02 1.73352E-05 1.32260E-01-1.45084E-03-3.20386E-03
 -1      1008 6.25916E-02 4.50467E-03-2.87555E-07 9.00066E-02 1.17489E-04-1.97746E-04
 -1      1009 4.94229E-02 4.42439E-03-6.57148E-08 8.32544E-02 5.26755E-04 6.09313E-04
 -1      1010-9.26101E-02 5.62616E-02-2.22205E-07 5.44993E-03-2.23305E-03-1.27676E-03
 -1      1011-6.26684E-02 7.32926E-02-2.40192E-06 5.64909E-02 8.34103E-04 6.74163E-04
 -1      1012 8.10250E-02-8.49098E-03-7.77300E-06 8.34293E-02-7.47687E-05 4.19665E-04
 -1      1013 3.90560E-02 5.96898E-02-5.76573E-05 1.56654E-01-5.38010E-04 7.19016E-04
 -1      1014-1.83784E-01 7.72209E-02 1.89007E-05-7.95520E-02-1.59204E-03-4.75684E-04
 -1      1015-2.26548E-01 5.98475E-02-5.79666E-06-1.88229E-02 2.66381E-03-4.17635E-03
 -1      1016 7.11892E-02 6.08312E-03 5.49520E-06 1.08031E-01-3.45251E-04-4.67653E-04
 -1      1017 8.08352E-02 5.37869E-02 2.79697E-06 1.92483E-01 1.41799E-03 1.21287E-03
 -1      1018 9.00067E-02 1.96250E-02-4.50015E-06 1.63770E-01-8.17622E-04-4.83109E-04
 -1      1019 6.62967E-02-1.73425E-02 7.22815E-05 5.00377E-02-2.98708E-03-1.62165E-03
 -1      1020-1.16851E-01 6.40772E-02-3.79566E-05-3.17662E-02 2.51835E-03 3.28990E-03
 -1      1021-4.79406E-03 7.87706E-02 9.25643E-06 1.41014E-01-2.33914E-03-2.07462E-04
 -1      1022-5.88969E-02 1.04281E-01 2.62559E-06 1.13793E-01 1.19655E-03 1.52155E-03
 -1      1023-1.60264E-01 7.04870E-02 1.31940E-05-7.03572E-02-5.35317E-04 2.46988E-03
 -1      1024 3.33007E-02-1.24672E-02 2.64321E-05 3.20666E-02-2.07316E-03-2.95577E-03
 -1      1025 8.83264E-02 5.60660E-03-1.80525E-05 1.41116E-01-1.01536E-03-6.47348E-04
 -1      1026 8.49323E-02-1.94656E-02 4.95930E-05 7.28835E-02-9.15263E-04 1.93264E-04
 -1      1027 6.13209E-02 5.44197E-02-4.09756E-05 1.71557E-01-7.43566E-04 1.54921E-04
 -1      1028 8.78493E-02 1.39376E-03-3.15816E-05 1.27954E-01-6.76155E-05-2.40565E-04
 -1      1029 8.10797E-02 4.31877E-02-1.19318E-05 1.82502E-01 1.76119E-03 2.52854E-04
 -1      1030-9.10894E-02 3.90477E-03-1.25603E-06-4.53273E-04 1.20866E-03-2.31098E-03
 -1      1031 8.59907E-02 3.21307E-02-2.58647E-06 1.77425E-01 3.02498E-04 1.11649E-04
 -1      1032-2.20775E-01 9.51777E-02 1.22085E-05-6.59507E-02 1.67052E-03-5.23692E-03
 -1      1033-1.70758E-01 7.20552E-02 8.47174E-07-7.76662E-02-1.22845E-03 1.07103E-03
 -1      1034-1.48964E-01 6.96955E-02-1.10233E-04-5.90679E-02 1.26982E-03 2.55058E-03
 -1      1035-1.05785E-01 6.08578E-02 3.10373E-05-1.02456E-02 3.88595E-05-8.04018E-04
 -1      1036-1.39044E-02-1.14338E-02 1.21441E-05 1.56960E-02-4.14568E-04-2.17460E-03
 -3
    1PSTEP                         4           1           1          
  100CL  101 1.000000000         156                     0    1           1
 -4  FORC        4    1
 -5  F1          1    2    1    0
 -5  F2          1    2    2    0
 -5  F3          1    2    3    0
 -5  ALL         1    2    0    0    1ALL
 -1       881-9.89209E-13 2.77778E+01-3.70608E+01
 -1       882-6.10990E-13 5.55556E+01 3.49958E+01
 -1       883-5.07935E+01-3.92828E+01-1.20148E+01
 -1       884-2.37047E+01-1.38498E+01 1.14649E+01
 -1       885-1.97620E-12 5.55556E+01-1.61133E+00
 -1       886-1.68902E-12 2.77778E+01 2.36346E+00
 -1       887 3.21515E+02-4.55237E+01 1.09421E+02
 -1       888 2.02304E+02-2.23946E+01-1.04436E+02
 -1       889-1.32117E-13 1.03556E-12-8.51179E+01
 -1       890-1.84741E-13 3.62577E-12-1.06591E+02
 -1       891-2.28706E-14 1.11078E-12-9.81100E+01
 -1       892 7.27307E-13-8.65974E-13-1.01037E+02
 -1       893-4.30073E-13 8.81517E-14-1.03441E+02
 -1       894-2.31822E-13-2.74336E-13-1.00326E+02
 -1       895-3.75810E-13 2.05336E-13-8.49497E+01
 -1       896-2.39808E-14 2.12344E-13-6.99862E+01
 -1       897-1.11022E-16-1.50435E-14-5.18500E+01
 -1       898-4.71567E-14 8.55982E-14-4.05771E+01
 -1       899-1.94816E-12 2.47691E-12 7.97516E+01
 -1       900-1.38556E-13 4.10316E-12 1.02212E+02
 -1       901-2.91323E-13 1.15313E-12 1.08994E+02
 -1       902-3.12937E-13 5.66214E-13 1.05089E+02
 -1       903-8.50708E-14-6.42375E-13 1.00926E+02
 -1       904-8.83738E-14-2.69118E-13 9.70883E+01
 -1       905 3.00204E-13 6.47038E-13 7.70135E+01
 -1       906-5.05707E-14-6.84369E-13 6.15158E+01
 -1       907-3.54161E-14-1.09357E-14 4.98514E+01
 -1       908 1.19349E-14 1.38889E-13 4.10163E+01
 -1       909-4.53415E-13 8.33333E+01-2.41775E+01
 -1       910 4.90386E-13 8.33333E+01-4.34040E+01
 -1       911-5.40190E-12 8.33333E+01 2.79311E+01
 -1       912 1.83825E-12 8.33333E+01 4.22345E+01
 -1       913-5.09925E-13-5.88904E-14 1.10575E+02
 -1       914-4.30767E-14-1.32783E-13 8.66308E+01
 -1       915-9.08995E-13 1.30784E-13 8.33363E+01
 -1       916 1.60250E-12-2.14939E-13 7.58802E+01
 -1       917-1.99452E-12-1.19472E-12 7.12440E+01
 -1       918-8.89993E-13 4.18732E-12 6.10597E+01
 -1       919-3.85247E-12 1.56852E-12 4.22178E+01
 -1       920-3.08753E-12 2.35489E-12 1.28559E+01
 -1       921-6.23147E-13 1.37626E-13-1.02919E+02
 -1       922-7.21645E-14-2.20934E-13-9.36134E+01
 -1       923 2.19380E-13 6.21725E-15-9.13084E+01
 -1       924-8.01581E-14-5.18641E-13-8.33574E+01
 -1       925-9.18154E-14-8.79297E-14-6.51825E+01
 -1       926-2.85657E-12-2.70273E-12-4.93332E+01
 -1       927-1.30562E-12-7.13207E-13-4.59185E+01
 -1       928 1.40776E-12-5.33176E-12-1.59614E+01
 -1       929-6.43229E+01-5.21858E+01-4.09045E+01
 -1       930-1.14964E+02-7.09561E+01-4.24108E+01
 -1       931-1.18587E+02-5.86365E+01-4.68985E+01
 -1       932-7.91346E+01-2.13379E+01-3.81770E+01
 -1       933-2.93972E+00-3.62299E-01 8.46367E+00
 -1       934 1.18270E+02 3.07372E+01 7.56876E+01
 -1       935-1.27991E+02-9.83895E+01 4.16543E+01
 -1       936-1.20685E+02-6.97949E+01 4.68373E+01
 -1       937-1.10834E+02-4.86845E+01 4.35467E+01
 -1       938-6.10348E+01-2.15187E+01 3.27910E+01
 -1       939 2.83311E+01 3.86585E+00-5.99584E+00
 -1       940 2.04571E+02 2.83138E+01-7.27696E+01
 -1       941 1.89187E-12 2.69398E-12-9.16640E+01
 -1       942 3.18856E-13-1.41198E-12-1.19035E+02
 -1       943-8.34501E-13 1.31583E-12-1.40975E+02
 -1       944-5.99467E-14 2.42894E-13-1.47439E+02
 -1       945-2.57121E-13 2.13662E-13-1.07787E+02
 -1       946 2.34410E-13-1.11515E-13-7.81774E+01
 -1       947 9.42887E-14-4.89296E-14-4.35686E+01
 -1       948 8.21565E-14 1.16129E-13 1.87798E+02
 -1       949-7.94587E-13 5.69295E-13 1.21166E+02
 -1       950-3.06138E-12 1.02651E-12 8.82987E+01
 -1       951 2.19103E-12-6.17728E-12 4.08880E+01
 -1       952-1.12133E-13-3.04201E-14-9.31001E+01
 -1       953-3.72147E-13-1.60272E-12-3.29761E+00
 -1       954-1.22380E-12 4.66838E-13-1.18789E+02
 -1       955-4.14113E-14-9.98803E-13-1.41416E+02
 -1       956-3.04298E-13-1.97026E-12-1.48473E+02
 -1       957 1.40535E-13 8.46693E-13-1.37551E+02
 -1       958-5.21475E-14-3.48221E-13-1.19250E+02
 -1       959-1.94289E-14-6.51701E-14 5.07535E+01
 -1       960-6.14730E-13-1.85144E-13 1.34246E+02
 -1       961 4.56823E-13-4.78327E-13 1.06028E+02
 -1       962-1.61354E-12 4.95712E-12 6.28211E+01
 -1       963-3.85247E-14 7.50122E-13-6.44995E+01
 -1       964-1.06110E-13-8.21565E-13-8.70409E+01
 -1       965-1.34195E-13 3.27193E-13-3.76148E+00
 -1       966-8.98892E-13-2.65299E-12 3.19572E+01
 -1       967 1.69717E-12-1.17524E-12-3.60768E+01
 -1       968-1.12153E-12-1.19512E-12-5.89233E+01
 -1       969-1.35078E-12-1.24007E-12-3.79320E+01
 -1       970 3.78690E-13-8.48988E-13 2.82791E+01
 -1       971 9.56778E-14 1.65219E-13 6.59477E+01
 -1       972-1.30355E-13-4.48076E-13-8.10950E+01
 -1       973 6.21447E-14-1.41387E-13 4.38605E+01
 -1       974 6.91669E-14 9.62286E-14 9.63343E+01
 -1       975-3.41283E-13-3.73035E-14 1.43657E+02
 -1       976-6.50868E-15-6.63025E-13 1.42063E+02
 -1       977 2.67231E-13 5.51115E-12 1.24704E+02
 -1       978-2.56212E-13-6.49539E-12 8.94420E+01
 -1       979 1.33682E-12-1.35841E-12 1.23420E+00
 -1       980 1.90070E-12 5.07816E-13-6.39820E+01
 -1       981 8.19136E-13-4.15761E-14-1.11035E+02
 -1       982 2.07362E-13-2.54519E-13-1.45163E+02
 -1       983-4.35207E-14-5.52891E-14-1.88511E+02
 -1       984-9.82547E-14 1.66922E-13 3.90109E+01
 -1       985 8.13872E-14 8.37941E-14 9.08252E+01
 -1       986-8.31835E-14 1.33817E-13 9.60656E+01
 -1       987 1.09246E-13 2.83495E-13 1.20232E+02
 -1       988-2.28484E-13 6.83453E-13 1.45799E+02
 -1       989-4.96976E-13 6.23251E-14 1.55131E+02
 -1       990-2.63567E-13-8.52651E-13 1.15385E+02
 -1       991-2.03537E-12-2.28206E-12-3.27432E+01
 -1       992-2.02294E-12 1.02496E-12-8.84353E+01
 -1       993-1.54765E-12 3.14415E-13-1.27039E+02
 -1       994-6.42542E-14 9.34808E-14-5.00329E+01
 -1       995 1.19642E-13-6.84869E-14 8.03486E+01
 -1       996 1.38861E-12 2.26597E-13 3.55960E+01
 -1       997-3.38174E-13-1.49494E-12 6.08573E+01
 -1       998-6.60416E-13 6.16451E-13-2.34051E+01
 -1       999 1.28005E-12-1.64524E-12 1.05791E+01
 -1      1000-1.19682E-13 2.89269E-13 1.43945E+00
 -1      1001 4.57232E-14-3.25745E-13-6.73934E+01
 -1      1002 4.77396E-15 4.68847E-13 8.08813E+01
 -1      1003 8.60645E-13-1.37601E-12 5.79057E+01
 -1      1004-4.52888E-13-2.26447E-13-4.51951E+01
 -1      1005 3.70946E-13 4.88849E-13 1.00607E+02
 -1      1006-1.33751E-13 8.74717E-14 6.74384E+01
 -1      1007 6.84827E-13 1.35526E-12-4.41036E-13
 -1      1008-1.16573E-13-1.41970E-13 6.21725E-15
 -1      1009-7.10543E-15-5.86198E-14 1.37390E-15
 -1      1010 5.36460E-13-1.40821E-12-2.58904E-13
 -1      1011 2.56506E-12-4.52971E-13-1.42641E-12
 -1      1012-1.25636E-13-7.56062E-14 2.57572E-14
 -1      1013 1.59872E-12-2.83706E-12-6.85674E-13
 -1      1014 2.56951E-12 8.71924E-13 1.45956E-13
 -1      1015 7.10543E-14-4.44089E-14 0.00000E+00
 -1      1016 1.02862E-13 2.28983E-13-8.52651E-14
 -1      1017 8.60423E-13-2.07612E-12 3.90799E-14
 -1      1018-8.19345E-13 5.41345E-13 1.11910E-13
 -1      1019-1.07914E-13 2.55351E-14-4.61853E-14
 -1      1020-4.83169E-13 5.65770E-13 1.40132E-12
 -1      1021-5.83311E-13 4.69857E-12 1.56319E-13
 -1      1022 3.74745E-12 1.06892E-12-2.16271E-13
 -1      1023-9.17544E-13 1.34426E-12-6.39488E-13
 -1      1024-4.13003E-14-3.21965E-14-1.49464E-14
 -1      1025-4.68514E-13 2.81553E-13 1.33227E-13
 -1      1026 2.00326E-14-2.83107E-15 4.26326E-14
 -1      1027 3.63834E-13-5.24239E-12 3.33067E-14
 -1      1028-5.92304E-14 3.42282E-13-2.11386E-13
 -1      1029 2.02505E-13-3.88667E-12-2.82246E-13
 -1      1030-1.38778E-14-4.21885E-15-8.88178E-15
 -1      1031-1.91624E-13 1.65112E-12-4.40536E-13
 -1      1032-8.29872E-13 4.14865E-13-2.01228E-13
 -1      1033 9.32587E-13-5.42233E-13-4.08562E-14
 -1      1034 7.96030E-13 2.68829E-12-2.26485E-13
 -1      1035 2.40630E-12 1.00331E-12-5.17558E-13
 -1      1036-2.26485E-14-8.88178E-16-6.13398E-15
 -3
 9999
