    1C
    1UHash: PXJD0WWr, Date: 03/11/2021, Unit system: MM_TON_S_C         
    1UUSER                                                              
    1UDATE              11.march.2021                                   
    1UTIME              20:45:25                                        
    1UHOST                                                              
    1UPGM               CalculiX                                        
    1UVERSION           Version 2.10                             
    1UCOMPILETIME       Sa 5. MÃ¤r 12:23:33 CET 2016                    
    1UDIR                                                               
    1UDBN                                                               
    1UMAT    1RUBBER                                                    
    2C                          8053                                     1
 -1     20407 4.80000E+01 4.40000E+01 0.00000E+00
 -1     20408 4.80000E+01 4.40000E+01 5.00000E+00
 -1     20409 0.00000E+00 0.00000E+00 0.00000E+00
 -1     20410 0.00000E+00 0.00000E+00 5.00000E+00
 -1     20411 4.80000E+01 6.00000E+01 0.00000E+00
 -1     20412 4.80000E+01 6.00000E+01 5.00000E+00
 -1     20413 0.00000E+00 4.40000E+01 0.00000E+00
 -1     20414 0.00000E+00 4.40000E+01 5.00000E+00
 -1     20415 4.65455E+01 4.26667E+01 0.00000E+00
 -1     20416 4.50909E+01 4.13333E+01 0.00000E+00
 -1     20417 4.36364E+01 4.00000E+01 0.00000E+00
 -1     20418 4.21818E+01 3.86667E+01 0.00000E+00
 -1     20419 4.07273E+01 3.73333E+01 0.00000E+00
 -1     20420 3.92727E+01 3.60000E+01 0.00000E+00
 -1     20421 3.78182E+01 3.46667E+01 0.00000E+00
 -1     20422 3.63636E+01 3.33333E+01 0.00000E+00
 -1     20423 3.49091E+01 3.20000E+01 0.00000E+00
 -1     20424 3.34545E+01 3.06667E+01 0.00000E+00
 -1     20425 3.20000E+01 2.93333E+01 0.00000E+00
 -1     20426 3.05455E+01 2.80000E+01 0.00000E+00
 -1     20427 2.90909E+01 2.66667E+01 0.00000E+00
 -1     20428 2.76364E+01 2.53333E+01 0.00000E+00
 -1     20429 2.61818E+01 2.40000E+01 0.00000E+00
 -1     20430 2.47273E+01 2.26667E+01 0.00000E+00
 -1     20431 2.32727E+01 2.13333E+01 0.00000E+00
 -1     20432 2.18182E+01 2.00000E+01 0.00000E+00
 -1     20433 2.03636E+01 1.86667E+01 0.00000E+00
 -1     20434 1.89091E+01 1.73333E+01 0.00000E+00
 -1     20435 1.74545E+01 1.60000E+01 0.00000E+00
 -1     20436 1.60000E+01 1.46667E+01 0.00000E+00
 -1     20437 1.45455E+01 1.33333E+01 0.00000E+00
 -1     20438 1.30909E+01 1.20000E+01 0.00000E+00
 -1     20439 1.16364E+01 1.06667E+01 0.00000E+00
 -1     20440 1.01818E+01 9.33333E+00 0.00000E+00
 -1     20441 8.72727E+00 8.00000E+00 0.00000E+00
 -1     20442 7.27273E+00 6.66667E+00 0.00000E+00
 -1     20443 5.81818E+00 5.33333E+00 0.00000E+00
 -1     20444 4.36364E+00 4.00000E+00 0.00000E+00
 -1     20445 2.90909E+00 2.66667E+00 0.00000E+00
 -1     20446 1.45455E+00 1.33333E+00 0.00000E+00
 -1     20447 4.65455E+01 4.26667E+01 5.00000E+00
 -1     20448 4.50909E+01 4.13333E+01 5.00000E+00
 -1     20449 4.36364E+01 4.00000E+01 5.00000E+00
 -1     20450 4.21818E+01 3.86667E+01 5.00000E+00
 -1     20451 4.07273E+01 3.73333E+01 5.00000E+00
 -1     20452 3.92727E+01 3.60000E+01 5.00000E+00
 -1     20453 3.78182E+01 3.46667E+01 5.00000E+00
 -1     20454 3.63636E+01 3.33333E+01 5.00000E+00
 -1     20455 3.49091E+01 3.20000E+01 5.00000E+00
 -1     20456 3.34545E+01 3.06667E+01 5.00000E+00
 -1     20457 3.20000E+01 2.93333E+01 5.00000E+00
 -1     20458 3.05455E+01 2.80000E+01 5.00000E+00
 -1     20459 2.90909E+01 2.66667E+01 5.00000E+00
 -1     20460 2.76364E+01 2.53333E+01 5.00000E+00
 -1     20461 2.61818E+01 2.40000E+01 5.00000E+00
 -1     20462 2.47273E+01 2.26667E+01 5.00000E+00
 -1     20463 2.32727E+01 2.13333E+01 5.00000E+00
 -1     20464 2.18182E+01 2.00000E+01 5.00000E+00
 -1     20465 2.03636E+01 1.86667E+01 5.00000E+00
 -1     20466 1.89091E+01 1.73333E+01 5.00000E+00
 -1     20467 1.74545E+01 1.60000E+01 5.00000E+00
 -1     20468 1.60000E+01 1.46667E+01 5.00000E+00
 -1     20469 1.45455E+01 1.33333E+01 5.00000E+00
 -1     20470 1.30909E+01 1.20000E+01 5.00000E+00
 -1     20471 1.16364E+01 1.06667E+01 5.00000E+00
 -1     20472 1.01818E+01 9.33333E+00 5.00000E+00
 -1     20473 8.72727E+00 8.00000E+00 5.00000E+00
 -1     20474 7.27273E+00 6.66667E+00 5.00000E+00
 -1     20475 5.81818E+00 5.33333E+00 5.00000E+00
 -1     20476 4.36364E+00 4.00000E+00 5.00000E+00
 -1     20477 2.90909E+00 2.66667E+00 5.00000E+00
 -1     20478 1.45455E+00 1.33333E+00 5.00000E+00
 -1     20479 4.80000E+01 5.80000E+01 0.00000E+00
 -1     20480 4.80000E+01 5.60000E+01 0.00000E+00
 -1     20481 4.80000E+01 5.40000E+01 0.00000E+00
 -1     20482 4.80000E+01 5.20000E+01 0.00000E+00
 -1     20483 4.80000E+01 5.00000E+01 0.00000E+00
 -1     20484 4.80000E+01 4.80000E+01 0.00000E+00
 -1     20485 4.80000E+01 4.60000E+01 0.00000E+00
 -1     20486 4.80000E+01 5.80000E+01 5.00000E+00
 -1     20487 4.80000E+01 5.60000E+01 5.00000E+00
 -1     20488 4.80000E+01 5.40000E+01 5.00000E+00
 -1     20489 4.80000E+01 5.20000E+01 5.00000E+00
 -1     20490 4.80000E+01 5.00000E+01 5.00000E+00
 -1     20491 4.80000E+01 4.80000E+01 5.00000E+00
 -1     20492 4.80000E+01 4.60000E+01 5.00000E+00
 -1     20493 1.84615E+00 4.46154E+01 0.00000E+00
 -1     20494 3.69231E+00 4.52308E+01 0.00000E+00
 -1     20495 5.53846E+00 4.58462E+01 0.00000E+00
 -1     20496 7.38462E+00 4.64615E+01 0.00000E+00
 -1     20497 9.23077E+00 4.70769E+01 0.00000E+00
 -1     20498 1.10769E+01 4.76923E+01 0.00000E+00
 -1     20499 1.29231E+01 4.83077E+01 0.00000E+00
 -1     20500 1.47692E+01 4.89231E+01 0.00000E+00
 -1     20501 1.66154E+01 4.95385E+01 0.00000E+00
 -1     20502 1.84615E+01 5.01538E+01 0.00000E+00
 -1     20503 2.03077E+01 5.07692E+01 0.00000E+00
 -1     20504 2.21538E+01 5.13846E+01 0.00000E+00
 -1     20505 2.40000E+01 5.20000E+01 0.00000E+00
 -1     20506 2.58462E+01 5.26154E+01 0.00000E+00
 -1     20507 2.76923E+01 5.32308E+01 0.00000E+00
 -1     20508 2.95385E+01 5.38462E+01 0.00000E+00
 -1     20509 3.13846E+01 5.44615E+01 0.00000E+00
 -1     20510 3.32308E+01 5.50769E+01 0.00000E+00
 -1     20511 3.50769E+01 5.56923E+01 0.00000E+00
 -1     20512 3.69231E+01 5.63077E+01 0.00000E+00
 -1     20513 3.87692E+01 5.69231E+01 0.00000E+00
 -1     20514 4.06154E+01 5.75385E+01 0.00000E+00
 -1     20515 4.24615E+01 5.81538E+01 0.00000E+00
 -1     20516 4.43077E+01 5.87692E+01 0.00000E+00
 -1     20517 4.61538E+01 5.93846E+01 0.00000E+00
 -1     20518 1.84615E+00 4.46154E+01 5.00000E+00
 -1     20519 3.69231E+00 4.52308E+01 5.00000E+00
 -1     20520 5.53846E+00 4.58462E+01 5.00000E+00
 -1     20521 7.38462E+00 4.64615E+01 5.00000E+00
 -1     20522 9.23077E+00 4.70769E+01 5.00000E+00
 -1     20523 1.10769E+01 4.76923E+01 5.00000E+00
 -1     20524 1.29231E+01 4.83077E+01 5.00000E+00
 -1     20525 1.47692E+01 4.89231E+01 5.00000E+00
 -1     20526 1.66154E+01 4.95385E+01 5.00000E+00
 -1     20527 1.84615E+01 5.01538E+01 5.00000E+00
 -1     20528 2.03077E+01 5.07692E+01 5.00000E+00
 -1     20529 2.21538E+01 5.13846E+01 5.00000E+00
 -1     20530 2.40000E+01 5.20000E+01 5.00000E+00
 -1     20531 2.58462E+01 5.26154E+01 5.00000E+00
 -1     20532 2.76923E+01 5.32308E+01 5.00000E+00
 -1     20533 2.95385E+01 5.38462E+01 5.00000E+00
 -1     20534 3.13846E+01 5.44615E+01 5.00000E+00
 -1     20535 3.32308E+01 5.50769E+01 5.00000E+00
 -1     20536 3.50769E+01 5.56923E+01 5.00000E+00
 -1     20537 3.69231E+01 5.63077E+01 5.00000E+00
 -1     20538 3.87692E+01 5.69231E+01 5.00000E+00
 -1     20539 4.06154E+01 5.75385E+01 5.00000E+00
 -1     20540 4.24615E+01 5.81538E+01 5.00000E+00
 -1     20541 4.43077E+01 5.87692E+01 5.00000E+00
 -1     20542 4.61538E+01 5.93846E+01 5.00000E+00
 -1     20543 0.00000E+00 2.00000E+00 0.00000E+00
 -1     20544 0.00000E+00 4.00000E+00 0.00000E+00
 -1     20545 0.00000E+00 6.00000E+00 0.00000E+00
 -1     20546 0.00000E+00 8.00000E+00 0.00000E+00
 -1     20547 0.00000E+00 1.00000E+01 0.00000E+00
 -1     20548 0.00000E+00 1.20000E+01 0.00000E+00
 -1     20549 0.00000E+00 1.40000E+01 0.00000E+00
 -1     20550 0.00000E+00 1.60000E+01 0.00000E+00
 -1     20551 0.00000E+00 1.80000E+01 0.00000E+00
 -1     20552 0.00000E+00 2.00000E+01 0.00000E+00
 -1     20553 0.00000E+00 2.20000E+01 0.00000E+00
 -1     20554 0.00000E+00 2.40000E+01 0.00000E+00
 -1     20555 0.00000E+00 2.60000E+01 0.00000E+00
 -1     20556 0.00000E+00 2.80000E+01 0.00000E+00
 -1     20557 0.00000E+00 3.00000E+01 0.00000E+00
 -1     20558 0.00000E+00 3.20000E+01 0.00000E+00
 -1     20559 0.00000E+00 3.40000E+01 0.00000E+00
 -1     20560 0.00000E+00 3.60000E+01 0.00000E+00
 -1     20561 0.00000E+00 3.80000E+01 0.00000E+00
 -1     20562 0.00000E+00 4.00000E+01 0.00000E+00
 -1     20563 0.00000E+00 4.20000E+01 0.00000E+00
 -1     20564 0.00000E+00 2.00000E+00 5.00000E+00
 -1     20565 0.00000E+00 4.00000E+00 5.00000E+00
 -1     20566 0.00000E+00 6.00000E+00 5.00000E+00
 -1     20567 0.00000E+00 8.00000E+00 5.00000E+00
 -1     20568 0.00000E+00 1.00000E+01 5.00000E+00
 -1     20569 0.00000E+00 1.20000E+01 5.00000E+00
 -1     20570 0.00000E+00 1.40000E+01 5.00000E+00
 -1     20571 0.00000E+00 1.60000E+01 5.00000E+00
 -1     20572 0.00000E+00 1.80000E+01 5.00000E+00
 -1     20573 0.00000E+00 2.00000E+01 5.00000E+00
 -1     20574 0.00000E+00 2.20000E+01 5.00000E+00
 -1     20575 0.00000E+00 2.40000E+01 5.00000E+00
 -1     20576 0.00000E+00 2.60000E+01 5.00000E+00
 -1     20577 0.00000E+00 2.80000E+01 5.00000E+00
 -1     20578 0.00000E+00 3.00000E+01 5.00000E+00
 -1     20579 0.00000E+00 3.20000E+01 5.00000E+00
 -1     20580 0.00000E+00 3.40000E+01 5.00000E+00
 -1     20581 0.00000E+00 3.60000E+01 5.00000E+00
 -1     20582 0.00000E+00 3.80000E+01 5.00000E+00
 -1     20583 0.00000E+00 4.00000E+01 5.00000E+00
 -1     20584 0.00000E+00 4.20000E+01 5.00000E+00
 -1     20585 4.63320E+01 4.47368E+01 0.00000E+00
 -1     20586 4.32728E+01 4.20495E+01 0.00000E+00
 -1     20587 4.03161E+01 3.93251E+01 0.00000E+00
 -1     20588 3.73859E+01 3.66183E+01 0.00000E+00
 -1     20589 3.44645E+01 3.39511E+01 0.00000E+00
 -1     20590 3.15624E+01 3.12777E+01 0.00000E+00
 -1     20591 2.86659E+01 2.85967E+01 0.00000E+00
 -1     20592 2.57644E+01 2.59213E+01 0.00000E+00
 -1     20593 2.28569E+01 2.32545E+01 0.00000E+00
 -1     20594 1.99454E+01 2.05948E+01 0.00000E+00
 -1     20595 1.70362E+01 1.79395E+01 0.00000E+00
 -1     20596 1.41395E+01 1.52780E+01 0.00000E+00
 -1     20597 1.12709E+01 1.26036E+01 0.00000E+00
 -1     20598 8.40519E+00 9.92046E+00 0.00000E+00
 -1     20599 5.40435E+00 7.33386E+00 0.00000E+00
 -1     20600 2.06979E+00 4.73219E+00 0.00000E+00
 -1     20601 1.73229E+00 9.01806E+00 0.00000E+00
 -1     20602 1.61593E+00 1.30314E+01 0.00000E+00
 -1     20603 1.65277E+00 1.70098E+01 0.00000E+00
 -1     20604 1.68373E+00 2.09923E+01 0.00000E+00
 -1     20605 1.70772E+00 2.49863E+01 0.00000E+00
 -1     20606 1.69938E+00 2.89780E+01 0.00000E+00
 -1     20607 1.66539E+00 3.29456E+01 0.00000E+00
 -1     20608 1.61117E+00 3.68783E+01 0.00000E+00
 -1     20609 1.63442E+00 4.07944E+01 0.00000E+00
 -1     20610 1.70372E+00 4.27287E+01 0.00000E+00
 -1     20611 5.26445E+00 4.40306E+01 0.00000E+00
 -1     20612 8.89510E+00 4.52155E+01 0.00000E+00
 -1     20613 1.25514E+01 4.64069E+01 0.00000E+00
 -1     20614 1.62310E+01 4.76205E+01 0.00000E+00
 -1     20615 1.99268E+01 4.88420E+01 0.00000E+00
 -1     20616 2.36229E+01 5.00642E+01 0.00000E+00
 -1     20617 2.73121E+01 5.12946E+01 0.00000E+00
 -1     20618 3.09884E+01 5.25384E+01 0.00000E+00
 -1     20619 3.46653E+01 5.37936E+01 0.00000E+00
 -1     20620 3.84272E+01 5.49161E+01 0.00000E+00
 -1     20621 4.22739E+01 5.60156E+01 0.00000E+00
 -1     20622 4.61044E+01 5.73290E+01 0.00000E+00
 -1     20623 4.59409E+01 5.31180E+01 0.00000E+00
 -1     20624 4.61459E+01 4.88635E+01 0.00000E+00
 -1     20625 4.47830E+01 4.34036E+01 0.00000E+00
 -1     20626 4.17873E+01 4.06885E+01 0.00000E+00
 -1     20627 3.88511E+01 3.79665E+01 0.00000E+00
 -1     20628 3.59226E+01 3.52830E+01 0.00000E+00
 -1     20629 3.30118E+01 3.26161E+01 0.00000E+00
 -1     20630 3.01145E+01 2.99372E+01 0.00000E+00
 -1     20631 2.72161E+01 2.72578E+01 0.00000E+00
 -1     20632 2.43114E+01 2.45871E+01 0.00000E+00
 -1     20633 2.14021E+01 2.19237E+01 0.00000E+00
 -1     20634 1.84892E+01 1.92675E+01 0.00000E+00
 -1     20635 1.55875E+01 1.66109E+01 0.00000E+00
 -1     20636 1.26978E+01 1.39445E+01 0.00000E+00
 -1     20637 9.84988E+00 1.12563E+01 0.00000E+00
 -1     20638 6.92456E+00 8.61560E+00 0.00000E+00
 -1     20639 3.81852E+00 6.05412E+00 0.00000E+00
 -1     20640 1.30969E+00 2.99715E+00 0.00000E+00
 -1     20641 1.85660E+00 6.95530E+00 0.00000E+00
 -1     20642 1.65249E+00 1.10311E+01 0.00000E+00
 -1     20643 1.62402E+00 1.50259E+01 0.00000E+00
 -1     20644 1.67207E+00 1.89958E+01 0.00000E+00
 -1     20645 1.69710E+00 2.29897E+01 0.00000E+00
 -1     20646 1.70797E+00 2.69834E+01 0.00000E+00
 -1     20647 1.68647E+00 3.09687E+01 0.00000E+00
 -1     20648 1.63712E+00 3.49140E+01 0.00000E+00
 -1     20649 1.60614E+00 3.88414E+01 0.00000E+00
 -1     20650 1.07200E+01 4.58042E+01 0.00000E+00
 -1     20651 3.47033E+00 4.33957E+01 0.00000E+00
 -1     20652 7.07612E+00 4.46330E+01 0.00000E+00
 -1     20653 1.43861E+01 4.70095E+01 0.00000E+00
 -1     20654 1.80798E+01 4.82287E+01 0.00000E+00
 -1     20655 2.17748E+01 4.94534E+01 0.00000E+00
 -1     20656 2.54699E+01 5.06820E+01 0.00000E+00
 -1     20657 2.91547E+01 5.19115E+01 0.00000E+00
 -1     20658 3.28200E+01 5.31717E+01 0.00000E+00
 -1     20659 3.65380E+01 5.43774E+01 0.00000E+00
 -1     20660 4.03442E+01 5.54523E+01 0.00000E+00
 -1     20661 4.41959E+01 5.66529E+01 0.00000E+00
 -1     20662 4.60304E+01 5.52438E+01 0.00000E+00
 -1     20663 4.60022E+01 5.09835E+01 0.00000E+00
 -1     20664 4.62296E+01 4.67915E+01 0.00000E+00
 -1     20665 3.84377E+01 3.99428E+01 0.00000E+00
 -1     20666 3.54895E+01 3.72302E+01 0.00000E+00
 -1     20667 4.45590E+01 4.54866E+01 0.00000E+00
 -1     20668 3.25631E+01 3.45714E+01 0.00000E+00
 -1     20669 3.69645E+01 3.85679E+01 0.00000E+00
 -1     20670 2.96737E+01 3.18814E+01 0.00000E+00
 -1     20671 2.67906E+01 2.91844E+01 0.00000E+00
 -1     20672 2.38948E+01 2.65071E+01 0.00000E+00
 -1     20673 2.09886E+01 2.38445E+01 0.00000E+00
 -1     20674 1.80721E+01 2.11979E+01 0.00000E+00
 -1     20675 1.51670E+01 1.85560E+01 0.00000E+00
 -1     20676 1.22823E+01 1.58893E+01 0.00000E+00
 -1     20677 9.47385E+00 1.31923E+01 0.00000E+00
 -1     20678 6.64287E+00 1.05268E+01 0.00000E+00
 -1     20679 3.35962E+00 1.01151E+01 0.00000E+00
 -1     20680 3.21418E+00 1.40619E+01 0.00000E+00
 -1     20681 3.54133E+00 8.11098E+00 0.00000E+00
 -1     20682 3.41214E+00 2.39703E+01 0.00000E+00
 -1     20683 3.34067E+00 1.79849E+01 0.00000E+00
 -1     20684 5.03332E+00 4.22096E+01 0.00000E+00
 -1     20685 3.37922E+00 2.19768E+01 0.00000E+00
 -1     20686 3.28504E+00 1.60266E+01 0.00000E+00
 -1     20687 3.41126E+00 2.79667E+01 0.00000E+00
 -1     20688 3.36373E+00 3.19363E+01 0.00000E+00
 -1     20689 3.25321E+00 3.58071E+01 0.00000E+00
 -1     20690 3.22131E+00 3.96427E+01 0.00000E+00
 -1     20691 8.57511E+00 4.33725E+01 0.00000E+00
 -1     20692 3.31213E+00 4.15345E+01 0.00000E+00
 -1     20693 1.95453E+01 4.69118E+01 0.00000E+00
 -1     20694 1.40070E+01 4.50951E+01 0.00000E+00
 -1     20695 2.32439E+01 4.81272E+01 0.00000E+00
 -1     20696 1.21813E+01 4.44983E+01 0.00000E+00
 -1     20697 2.13951E+01 4.75187E+01 0.00000E+00
 -1     20698 2.69416E+01 4.93513E+01 0.00000E+00
 -1     20699 3.06223E+01 5.05882E+01 0.00000E+00
 -1     20700 3.42353E+01 5.19079E+01 0.00000E+00
 -1     20701 3.79858E+01 5.29825E+01 0.00000E+00
 -1     20702 4.19631E+01 5.38749E+01 0.00000E+00
 -1     20703 4.40209E+01 5.44729E+01 0.00000E+00
 -1     20704 4.37383E+01 5.20815E+01 0.00000E+00
 -1     20705 3.99164E+01 4.13399E+01 0.00000E+00
 -1     20706 4.44005E+01 4.75832E+01 0.00000E+00
 -1     20707 3.35182E+00 1.99760E+01 0.00000E+00
 -1     20708 3.40200E+01 3.59051E+01 0.00000E+00
 -1     20709 3.11156E+01 3.32289E+01 0.00000E+00
 -1     20710 1.76933E+01 4.63069E+01 0.00000E+00
 -1     20711 4.14193E+01 4.27359E+01 0.00000E+00
 -1     20712 1.95315E+01 2.25187E+01 0.00000E+00
 -1     20713 2.53437E+01 2.78428E+01 0.00000E+00
 -1     20714 2.82337E+01 3.05316E+01 0.00000E+00
 -1     20715 2.24432E+01 2.51748E+01 0.00000E+00
 -1     20716 1.66138E+01 1.98775E+01 0.00000E+00
 -1     20717 1.37250E+01 1.72249E+01 0.00000E+00
 -1     20718 1.08507E+01 1.45528E+01 0.00000E+00
 -1     20719 8.09354E+00 1.18256E+01 0.00000E+00
 -1     20720 3.42377E+00 2.59668E+01 0.00000E+00
 -1     20721 5.12524E+00 9.30607E+00 0.00000E+00
 -1     20722 3.23551E+00 1.20862E+01 0.00000E+00
 -1     20723 3.39062E+00 2.99599E+01 0.00000E+00
 -1     20724 6.79318E+00 4.28185E+01 0.00000E+00
 -1     20725 3.31775E+00 3.38826E+01 0.00000E+00
 -1     20726 3.20647E+00 3.77284E+01 0.00000E+00
 -1     20727 1.03709E+01 4.39224E+01 0.00000E+00
 -1     20728 1.58460E+01 4.57004E+01 0.00000E+00
 -1     20729 2.87882E+01 4.99628E+01 0.00000E+00
 -1     20730 2.50928E+01 4.87396E+01 0.00000E+00
 -1     20731 3.24343E+01 5.12408E+01 0.00000E+00
 -1     20732 3.60826E+01 5.25074E+01 0.00000E+00
 -1     20733 3.99261E+01 5.34190E+01 0.00000E+00
 -1     20734 4.42652E+01 4.97096E+01 0.00000E+00
 -1     20735 4.29637E+01 4.41235E+01 0.00000E+00
 -1     20736 2.77889E+01 3.24746E+01 0.00000E+00
 -1     20737 1.18741E+01 1.78422E+01 0.00000E+00
 -1     20738 2.34767E+01 2.84238E+01 0.00000E+00
 -1     20739 1.47386E+01 2.05050E+01 0.00000E+00
 -1     20740 1.76639E+01 2.31230E+01 0.00000E+00
 -1     20741 8.97197E+00 1.51598E+01 0.00000E+00
 -1     20742 2.05832E+01 2.57637E+01 0.00000E+00
 -1     20743 1.33038E+01 1.91827E+01 0.00000E+00
 -1     20744 1.04222E+01 1.65013E+01 0.00000E+00
 -1     20745 4.74524E+00 1.31180E+01 0.00000E+00
 -1     20746 5.15012E+00 2.49358E+01 0.00000E+00
 -1     20747 4.77152E+00 3.85412E+01 0.00000E+00
 -1     20748 1.61974E+01 2.18143E+01 0.00000E+00
 -1     20749 4.95207E+00 3.48107E+01 0.00000E+00
 -1     20750 4.90974E+00 1.12336E+01 0.00000E+00
 -1     20751 5.10172E+00 2.89594E+01 0.00000E+00
 -1     20752 4.83148E+00 3.66765E+01 0.00000E+00
 -1     20753 5.10255E+00 2.29461E+01 0.00000E+00
 -1     20754 3.21038E+01 4.92720E+01 0.00000E+00
 -1     20755 6.53348E+00 4.10378E+01 0.00000E+00
 -1     20756 2.65651E+01 4.74114E+01 0.00000E+00
 -1     20757 2.20307E+01 2.70932E+01 0.00000E+00
 -1     20758 4.84993E+00 4.03898E+01 0.00000E+00
 -1     20759 1.54525E+01 4.37807E+01 0.00000E+00
 -1     20760 1.91572E+01 4.49874E+01 0.00000E+00
 -1     20761 2.47150E+01 4.67972E+01 0.00000E+00
 -1     20762 2.28677E+01 4.61856E+01 0.00000E+00
 -1     20763 4.24811E+01 5.03069E+01 0.00000E+00
 -1     20764 5.13307E+00 2.69514E+01 0.00000E+00
 -1     20765 2.10149E+01 4.55843E+01 0.00000E+00
 -1     20766 3.02785E+01 4.86224E+01 0.00000E+00
 -1     20767 1.73006E+01 4.43872E+01 0.00000E+00
 -1     20768 3.80226E+01 4.19440E+01 0.00000E+00
 -1     20769 1.91290E+01 2.44393E+01 0.00000E+00
 -1     20770 4.27209E+01 4.62299E+01 0.00000E+00
 -1     20771 1.00274E+01 4.20503E+01 0.00000E+00
 -1     20772 2.49226E+01 2.97615E+01 0.00000E+00
 -1     20773 6.38904E+00 1.23675E+01 0.00000E+00
 -1     20774 3.95256E+01 4.33831E+01 0.00000E+00
 -1     20775 1.36201E+01 4.31759E+01 0.00000E+00
 -1     20776 4.10994E+01 4.48191E+01 0.00000E+00
 -1     20777 5.03369E+00 3.29060E+01 0.00000E+00
 -1     20778 1.18080E+01 4.25867E+01 0.00000E+00
 -1     20779 5.07287E+00 3.09503E+01 0.00000E+00
 -1     20780 2.92191E+01 3.38343E+01 0.00000E+00
 -1     20781 5.01000E+00 1.89447E+01 0.00000E+00
 -1     20782 3.06575E+01 3.51923E+01 0.00000E+00
 -1     20783 3.65564E+01 4.05191E+01 0.00000E+00
 -1     20784 4.25265E+01 4.83515E+01 0.00000E+00
 -1     20785 4.13324E+01 5.18203E+01 0.00000E+00
 -1     20786 2.63602E+01 3.11144E+01 0.00000E+00
 -1     20787 4.85136E+00 1.50528E+01 0.00000E+00
 -1     20788 8.26993E+00 4.15673E+01 0.00000E+00
 -1     20789 3.38753E+01 4.99780E+01 0.00000E+00
 -1     20790 3.21074E+01 3.65389E+01 0.00000E+00
 -1     20791 7.72891E+00 1.37343E+01 0.00000E+00
 -1     20792 3.35785E+01 3.78669E+01 0.00000E+00
 -1     20793 5.04043E+00 1.69532E+01 0.00000E+00
 -1     20794 2.84232E+01 4.80147E+01 0.00000E+00
 -1     20795 3.74342E+01 5.11760E+01 0.00000E+00
 -1     20796 3.55953E+01 5.07022E+01 0.00000E+00
 -1     20797 5.02167E+00 2.09502E+01 0.00000E+00
 -1     20798 3.93511E+01 5.13967E+01 0.00000E+00
 -1     20799 4.08406E+01 4.69780E+01 0.00000E+00
 -1     20800 6.88484E+00 1.57620E+01 0.00000E+00
 -1     20801 1.87401E+01 2.63553E+01 0.00000E+00
 -1     20802 6.30150E+00 3.93061E+01 0.00000E+00
 -1     20803 2.44985E+01 3.16735E+01 0.00000E+00
 -1     20804 6.90999E+00 2.38598E+01 0.00000E+00
 -1     20805 3.50721E+01 3.91671E+01 0.00000E+00
 -1     20806 8.54139E+00 1.71219E+01 0.00000E+00
 -1     20807 3.36376E+01 4.79887E+01 0.00000E+00
 -1     20808 2.61834E+01 4.54710E+01 0.00000E+00
 -1     20809 3.18054E+01 4.72698E+01 0.00000E+00
 -1     20810 2.43491E+01 4.48408E+01 0.00000E+00
 -1     20811 2.59131E+01 3.30538E+01 0.00000E+00
 -1     20812 1.14184E+01 4.06601E+01 0.00000E+00
 -1     20813 2.99255E+01 4.66560E+01 0.00000E+00
 -1     20814 9.66522E+00 4.01866E+01 0.00000E+00
 -1     20815 1.00490E+01 1.84541E+01 0.00000E+00
 -1     20816 3.75538E+01 4.39858E+01 0.00000E+00
 -1     20817 2.80422E+01 4.60805E+01 0.00000E+00
 -1     20818 1.50459E+01 4.18589E+01 0.00000E+00
 -1     20819 3.91967E+01 4.54477E+01 0.00000E+00
 -1     20820 6.70207E+00 3.38984E+01 0.00000E+00
 -1     20821 1.32172E+01 4.12442E+01 0.00000E+00
 -1     20822 6.13363E+00 1.40371E+01 0.00000E+00
 -1     20823 3.31616E+01 3.98391E+01 0.00000E+00
 -1     20824 6.81511E+00 2.79571E+01 0.00000E+00
 -1     20825 2.73203E+01 3.44268E+01 0.00000E+00
 -1     20826 1.68951E+01 4.24707E+01 0.00000E+00
 -1     20827 1.72770E+01 2.50411E+01 0.00000E+00
 -1     20828 3.68153E+01 4.96196E+01 0.00000E+00
 -1     20829 2.01807E+01 2.76822E+01 0.00000E+00
 -1     20830 1.43227E+01 2.24602E+01 0.00000E+00
 -1     20831 1.14605E+01 1.98187E+01 0.00000E+00
 -1     20832 6.59567E+00 1.99128E+01 0.00000E+00
 -1     20833 3.16460E+01 3.85375E+01 0.00000E+00
 -1     20834 2.30622E+01 3.03303E+01 0.00000E+00
 -1     20835 1.28602E+01 2.11610E+01 0.00000E+00
 -1     20836 2.24951E+01 4.42393E+01 0.00000E+00
 -1     20837 6.87191E+00 2.59127E+01 0.00000E+00
 -1     20838 6.77623E+00 2.99756E+01 0.00000E+00
 -1     20839 1.57994E+01 2.37442E+01 0.00000E+00
 -1     20840 3.46918E+01 4.10610E+01 0.00000E+00
 -1     20841 4.05717E+01 4.94178E+01 0.00000E+00
 -1     20842 6.31824E+00 3.75154E+01 0.00000E+00
 -1     20843 6.56112E+00 3.57532E+01 0.00000E+00
 -1     20844 7.96212E+00 3.98514E+01 0.00000E+00
 -1     20845 2.06269E+01 4.36546E+01 0.00000E+00
 -1     20846 3.53427E+01 4.87987E+01 0.00000E+00
 -1     20847 2.16199E+01 2.90092E+01 0.00000E+00
 -1     20848 3.61334E+01 4.24878E+01 0.00000E+00
 -1     20849 1.87574E+01 4.30689E+01 0.00000E+00
 -1     20850 3.84939E+01 4.95054E+01 0.00000E+00
 -1     20851 6.72281E+00 2.19010E+01 0.00000E+00
 -1     20852 6.75219E+00 3.19613E+01 0.00000E+00
 -1     20853 2.87464E+01 3.58000E+01 0.00000E+00
 -1     20854 3.89449E+01 4.75302E+01 0.00000E+00
 -1     20855 2.12070E+01 3.09172E+01 0.00000E+00
 -1     20856 3.01843E+01 3.71812E+01 0.00000E+00
 -1     20857 2.82615E+01 3.77922E+01 0.00000E+00
 -1     20858 9.18631E+00 3.83493E+01 0.00000E+00
 -1     20859 1.69198E+01 2.69500E+01 0.00000E+00
 -1     20860 6.72836E+00 1.79317E+01 0.00000E+00
 -1     20861 7.59583E+00 3.83444E+01 0.00000E+00
 -1     20862 2.58471E+01 4.34897E+01 0.00000E+00
 -1     20863 2.40647E+01 3.35730E+01 0.00000E+00
 -1     20864 3.14428E+01 4.52292E+01 0.00000E+00
 -1     20865 1.46189E+01 3.99303E+01 0.00000E+00
 -1     20866 1.27795E+01 3.92792E+01 0.00000E+00
 -1     20867 1.24347E+01 2.31506E+01 0.00000E+00
 -1     20868 2.26506E+01 3.22084E+01 0.00000E+00
 -1     20869 8.28535E+00 1.90648E+01 0.00000E+00
 -1     20870 8.03949E+00 2.08073E+01 0.00000E+00
 -1     20871 3.28291E+01 4.18456E+01 0.00000E+00
 -1     20872 1.83583E+01 2.82694E+01 0.00000E+00
 -1     20873 2.96628E+01 3.92138E+01 0.00000E+00
 -1     20874 8.53666E+00 2.69503E+01 0.00000E+00
 -1     20875 2.68183E+01 3.63732E+01 0.00000E+00
 -1     20876 8.65482E+00 2.48459E+01 0.00000E+00
 -1     20877 8.39523E+00 3.49838E+01 0.00000E+00
 -1     20878 3.12343E+01 4.05995E+01 0.00000E+00
 -1     20879 2.40002E+01 4.28684E+01 0.00000E+00
 -1     20880 1.39431E+01 2.44090E+01 0.00000E+00
 -1     20881 2.76303E+01 4.41792E+01 0.00000E+00
 -1     20882 1.54394E+01 2.56639E+01 0.00000E+00
 -1     20883 2.21105E+01 4.22989E+01 0.00000E+00
 -1     20884 1.97794E+01 2.96042E+01 0.00000E+00
 -1     20885 1.64713E+01 4.05601E+01 0.00000E+00
 -1     20886 3.70703E+01 4.79613E+01 0.00000E+00
 -1     20887 3.34302E+01 4.59455E+01 0.00000E+00
 -1     20888 3.53399E+01 4.68278E+01 0.00000E+00
 -1     20889 9.67625E+00 2.04315E+01 0.00000E+00
 -1     20890 1.09539E+01 3.86702E+01 0.00000E+00
 -1     20891 8.81456E+00 2.25659E+01 0.00000E+00
 -1     20892 2.54166E+01 3.50320E+01 0.00000E+00
 -1     20893 2.95301E+01 4.47211E+01 0.00000E+00
 -1     20894 2.02175E+01 4.17347E+01 0.00000E+00
 -1     20895 3.72380E+01 4.60147E+01 0.00000E+00
 -1     20896 8.43964E+00 3.30164E+01 0.00000E+00
 -1     20897 8.46419E+00 2.90002E+01 0.00000E+00
 -1     20898 3.53078E+01 4.45973E+01 0.00000E+00
 -1     20899 1.83362E+01 4.11588E+01 0.00000E+00
 -1     20900 1.02888E+01 2.59909E+01 0.00000E+00
 -1     20901 2.08062E+01 3.28091E+01 0.00000E+00
 -1     20902 1.09470E+01 2.18510E+01 0.00000E+00
 -1     20903 8.44123E+00 3.10197E+01 0.00000E+00
 -1     20904 1.41758E+01 3.79875E+01 0.00000E+00
 -1     20905 8.10219E+00 3.68003E+01 0.00000E+00
 -1     20906 1.01862E+01 3.64522E+01 0.00000E+00
 -1     20907 1.05132E+01 2.39060E+01 0.00000E+00
 -1     20908 3.29897E+01 4.39301E+01 0.00000E+00
 -1     20909 1.22959E+01 3.72418E+01 0.00000E+00
 -1     20910 3.43811E+01 4.27990E+01 0.00000E+00
 -1     20911 2.22540E+01 3.40100E+01 0.00000E+00
 -1     20912 1.65827E+01 2.88464E+01 0.00000E+00
 -1     20913 2.55718E+01 4.14596E+01 0.00000E+00
 -1     20914 2.74163E+01 3.99550E+01 0.00000E+00
 -1     20915 1.93599E+01 3.15364E+01 0.00000E+00
 -1     20916 3.09384E+01 4.29264E+01 0.00000E+00
 -1     20917 1.20956E+01 2.51439E+01 0.00000E+00
 -1     20918 2.36198E+01 4.09070E+01 0.00000E+00
 -1     20919 2.35696E+01 3.54560E+01 0.00000E+00
 -1     20920 1.51299E+01 2.75612E+01 0.00000E+00
 -1     20921 1.01628E+01 3.41566E+01 0.00000E+00
 -1     20922 2.16866E+01 4.03764E+01 0.00000E+00
 -1     20923 2.64626E+01 3.81772E+01 0.00000E+00
 -1     20924 2.74077E+01 4.21634E+01 0.00000E+00
 -1     20925 1.01457E+01 2.80386E+01 0.00000E+00
 -1     20926 1.60321E+01 3.86632E+01 0.00000E+00
 -1     20927 1.19705E+01 3.51744E+01 0.00000E+00
 -1     20928 1.36265E+01 2.63491E+01 0.00000E+00
 -1     20929 2.51369E+01 3.94764E+01 0.00000E+00
 -1     20930 1.79703E+01 3.01936E+01 0.00000E+00
 -1     20931 2.92835E+01 4.12290E+01 0.00000E+00
 -1     20932 2.04683E+01 3.47028E+01 0.00000E+00
 -1     20933 2.89834E+01 4.30252E+01 0.00000E+00
 -1     20934 2.47226E+01 3.72276E+01 0.00000E+00
 -1     20935 1.89836E+01 3.35039E+01 0.00000E+00
 -1     20936 1.38275E+01 3.60042E+01 0.00000E+00
 -1     20937 1.01097E+01 3.20923E+01 0.00000E+00
 -1     20938 1.00890E+01 3.00673E+01 0.00000E+00
 -1     20939 1.48628E+01 2.93955E+01 0.00000E+00
 -1     20940 2.31780E+01 3.89538E+01 0.00000E+00
 -1     20941 1.62185E+01 3.07426E+01 0.00000E+00
 -1     20942 2.18936E+01 3.56121E+01 0.00000E+00
 -1     20943 1.18200E+01 3.31288E+01 0.00000E+00
 -1     20944 1.18598E+01 2.71401E+01 0.00000E+00
 -1     20945 1.97660E+01 3.98279E+01 0.00000E+00
 -1     20946 1.78894E+01 3.92585E+01 0.00000E+00
 -1     20947 1.55886E+01 3.68028E+01 0.00000E+00
 -1     20948 1.75049E+01 3.21439E+01 0.00000E+00
 -1     20949 1.33847E+01 2.82712E+01 0.00000E+00
 -1     20950 1.36414E+01 3.40049E+01 0.00000E+00
 -1     20951 1.17042E+01 3.11239E+01 0.00000E+00
 -1     20952 1.32197E+01 3.01625E+01 0.00000E+00
 -1     20953 1.87281E+01 3.57078E+01 0.00000E+00
 -1     20954 2.06140E+01 3.66569E+01 0.00000E+00
 -1     20955 2.25731E+01 3.71532E+01 0.00000E+00
 -1     20956 1.17104E+01 2.91248E+01 0.00000E+00
 -1     20957 1.71674E+01 3.40516E+01 0.00000E+00
 -1     20958 1.53885E+01 3.48499E+01 0.00000E+00
 -1     20959 1.33674E+01 3.21066E+01 0.00000E+00
 -1     20960 2.11815E+01 3.85015E+01 0.00000E+00
 -1     20961 1.46206E+01 3.10635E+01 0.00000E+00
 -1     20962 1.54337E+01 3.27547E+01 0.00000E+00
 -1     20963 1.74381E+01 3.73897E+01 0.00000E+00
 -1     20964 1.92623E+01 3.79015E+01 0.00000E+00
 -1     20965 1.68937E+01 3.57516E+01 0.00000E+00
 -1     20966 2.06324E+00 4.71166E+00 5.00000E+00
 -1     20967 5.36988E+00 7.19754E+00 5.00000E+00
 -1     20968 8.10216E+00 1.00115E+01 5.00000E+00
 -1     20969 1.11372E+01 1.26496E+01 5.00000E+00
 -1     20970 1.40992E+01 1.52948E+01 5.00000E+00
 -1     20971 1.70199E+01 1.79416E+01 5.00000E+00
 -1     20972 1.99360E+01 2.05958E+01 5.00000E+00
 -1     20973 2.28419E+01 2.32652E+01 5.00000E+00
 -1     20974 2.57417E+01 2.59384E+01 5.00000E+00
 -1     20975 2.86493E+01 2.86031E+01 5.00000E+00
 -1     20976 3.15664E+01 3.12708E+01 5.00000E+00
 -1     20977 3.44787E+01 3.39532E+01 5.00000E+00
 -1     20978 3.73876E+01 3.66341E+01 5.00000E+00
 -1     20979 4.03130E+01 3.93029E+01 5.00000E+00
 -1     20980 4.32319E+01 4.20732E+01 5.00000E+00
 -1     20981 4.62459E+01 4.48186E+01 5.00000E+00
 -1     20982 4.60953E+01 4.69375E+01 5.00000E+00
 -1     20983 4.60478E+01 5.11590E+01 5.00000E+00
 -1     20984 4.61027E+01 5.53019E+01 5.00000E+00
 -1     20985 4.42570E+01 5.66921E+01 5.00000E+00
 -1     20986 4.04991E+01 5.53811E+01 5.00000E+00
 -1     20987 3.67023E+01 5.41943E+01 5.00000E+00
 -1     20988 3.28805E+01 5.30947E+01 5.00000E+00
 -1     20989 2.91567E+01 5.18929E+01 5.00000E+00
 -1     20990 2.54643E+01 5.06818E+01 5.00000E+00
 -1     20991 2.17660E+01 4.94670E+01 5.00000E+00
 -1     20992 1.80757E+01 4.82408E+01 5.00000E+00
 -1     20993 1.43960E+01 4.70239E+01 5.00000E+00
 -1     20994 1.07318E+01 4.58283E+01 5.00000E+00
 -1     20995 7.08121E+00 4.46424E+01 5.00000E+00
 -1     20996 3.47907E+00 4.33852E+01 5.00000E+00
 -1     20997 1.71135E+00 4.27183E+01 5.00000E+00
 -1     20998 1.63321E+00 3.88207E+01 5.00000E+00
 -1     20999 1.66982E+00 3.48972E+01 5.00000E+00
 -1     21000 1.70403E+00 3.09501E+01 5.00000E+00
 -1     21001 1.72748E+00 2.69619E+01 5.00000E+00
 -1     21002 1.73111E+00 2.29599E+01 5.00000E+00
 -1     21003 1.69572E+00 1.89620E+01 5.00000E+00
 -1     21004 1.77045E+00 1.49552E+01 5.00000E+00
 -1     21005 1.80662E+00 1.09709E+01 5.00000E+00
 -1     21006 1.84675E+00 6.90610E+00 5.00000E+00
 -1     21007 4.61297E+01 5.73520E+01 5.00000E+00
 -1     21008 1.30805E+00 2.99286E+00 5.00000E+00
 -1     21009 3.80187E+00 5.98594E+00 5.00000E+00
 -1     21010 6.77151E+00 8.59791E+00 5.00000E+00
 -1     21011 9.62169E+00 1.13338E+01 5.00000E+00
 -1     21012 1.26284E+01 1.39698E+01 5.00000E+00
 -1     21013 1.55609E+01 1.66180E+01 5.00000E+00
 -1     21014 1.84787E+01 1.92664E+01 5.00000E+00
 -1     21015 2.13903E+01 2.19290E+01 5.00000E+00
 -1     21016 2.42920E+01 2.46021E+01 5.00000E+00
 -1     21017 2.71941E+01 2.72715E+01 5.00000E+00
 -1     21018 3.01078E+01 2.99347E+01 5.00000E+00
 -1     21019 3.30236E+01 3.26100E+01 5.00000E+00
 -1     21020 3.59324E+01 3.52948E+01 5.00000E+00
 -1     21021 3.88465E+01 3.79671E+01 5.00000E+00
 -1     21022 4.17777E+01 4.06633E+01 5.00000E+00
 -1     21023 4.46954E+01 4.34850E+01 5.00000E+00
 -1     21024 4.60396E+01 4.90546E+01 5.00000E+00
 -1     21025 4.60733E+01 5.32394E+01 5.00000E+00
 -1     21026 4.23817E+01 5.60290E+01 5.00000E+00
 -1     21027 3.86055E+01 5.47585E+01 5.00000E+00
 -1     21028 3.47840E+01 5.36545E+01 5.00000E+00
 -1     21029 3.10090E+01 5.25003E+01 5.00000E+00
 -1     21030 2.73080E+01 5.12861E+01 5.00000E+00
 -1     21031 2.36155E+01 5.00720E+01 5.00000E+00
 -1     21032 1.99190E+01 4.88564E+01 5.00000E+00
 -1     21033 1.62352E+01 4.76324E+01 5.00000E+00
 -1     21034 1.25625E+01 4.64261E+01 5.00000E+00
 -1     21035 8.90128E+00 4.52346E+01 5.00000E+00
 -1     21036 5.26970E+00 4.40269E+01 5.00000E+00
 -1     21037 1.69104E+00 3.29321E+01 5.00000E+00
 -1     21038 1.65164E+00 4.07772E+01 5.00000E+00
 -1     21039 1.64538E+00 3.68609E+01 5.00000E+00
 -1     21040 1.71570E+00 2.89606E+01 5.00000E+00
 -1     21041 1.73737E+00 2.49581E+01 5.00000E+00
 -1     21042 1.70799E+00 2.09649E+01 5.00000E+00
 -1     21043 1.71953E+00 1.69572E+01 5.00000E+00
 -1     21044 1.81583E+00 1.29564E+01 5.00000E+00
 -1     21045 1.78118E+00 8.96380E+00 5.00000E+00
 -1     21046 1.95310E+01 4.69397E+01 5.00000E+00
 -1     21047 5.77081E+00 1.06814E+01 5.00000E+00
 -1     21048 9.16783E+00 1.33290E+01 5.00000E+00
 -1     21049 1.22016E+01 1.59402E+01 5.00000E+00
 -1     21050 1.51287E+01 1.85654E+01 5.00000E+00
 -1     21051 1.80538E+01 2.11938E+01 5.00000E+00
 -1     21052 2.09596E+01 2.38586E+01 5.00000E+00
 -1     21053 2.38487E+01 2.65414E+01 5.00000E+00
 -1     21054 2.67486E+01 2.92096E+01 5.00000E+00
 -1     21055 2.96751E+01 3.18684E+01 5.00000E+00
 -1     21056 3.25947E+01 3.45613E+01 5.00000E+00
 -1     21057 3.55005E+01 3.72651E+01 5.00000E+00
 -1     21058 3.84300E+01 3.99346E+01 5.00000E+00
 -1     21059 4.13719E+01 4.26776E+01 5.00000E+00
 -1     21060 4.43031E+01 4.57162E+01 5.00000E+00
 -1     21061 4.41395E+01 5.24521E+01 5.00000E+00
 -1     21062 1.58641E+01 4.57227E+01 5.00000E+00
 -1     21063 4.03552E+01 5.31929E+01 5.00000E+00
 -1     21064 4.40962E+01 5.02645E+01 5.00000E+00
 -1     21065 2.32241E+01 4.81512E+01 5.00000E+00
 -1     21066 3.63737E+01 5.21411E+01 5.00000E+00
 -1     21067 3.24684E+01 5.11426E+01 5.00000E+00
 -1     21068 3.26819E+00 3.96068E+01 5.00000E+00
 -1     21069 2.87736E+01 4.99341E+01 5.00000E+00
 -1     21070 3.83879E+01 5.25709E+01 5.00000E+00
 -1     21071 2.50754E+01 4.87462E+01 5.00000E+00
 -1     21072 3.06168E+01 5.05387E+01 5.00000E+00
 -1     21073 2.13749E+01 4.75503E+01 5.00000E+00
 -1     21074 2.69254E+01 4.93393E+01 5.00000E+00
 -1     21075 1.76936E+01 4.63263E+01 5.00000E+00
 -1     21076 4.41995E+01 5.45871E+01 5.00000E+00
 -1     21077 1.22126E+01 4.45486E+01 5.00000E+00
 -1     21078 8.58915E+00 4.34091E+01 5.00000E+00
 -1     21079 5.05593E+00 4.21951E+01 5.00000E+00
 -1     21080 3.32841E+00 3.57712E+01 5.00000E+00
 -1     21081 3.33426E+00 4.15086E+01 5.00000E+00
 -1     21082 3.48712E+00 2.39047E+01 5.00000E+00
 -1     21083 3.42162E+00 2.99260E+01 5.00000E+00
 -1     21084 3.37948E+00 1.99230E+01 5.00000E+00
 -1     21085 3.40415E+00 3.18952E+01 5.00000E+00
 -1     21086 3.44794E+00 2.19148E+01 5.00000E+00
 -1     21087 3.48517E+00 1.59337E+01 5.00000E+00
 -1     21088 3.69332E+00 1.19042E+01 5.00000E+00
 -1     21089 3.51582E+00 7.96015E+00 5.00000E+00
 -1     21090 4.40884E+01 4.79971E+01 5.00000E+00
 -1     21091 5.01057E+00 8.91540E+00 5.00000E+00
 -1     21092 3.46843E+00 2.59178E+01 5.00000E+00
 -1     21093 4.22871E+01 5.38740E+01 5.00000E+00
 -1     21094 3.40471E+01 3.59148E+01 5.00000E+00
 -1     21095 7.54992E+00 1.20346E+01 5.00000E+00
 -1     21096 1.07104E+01 1.46260E+01 5.00000E+00
 -1     21097 1.36678E+01 1.72534E+01 5.00000E+00
 -1     21098 1.65919E+01 1.98758E+01 5.00000E+00
 -1     21099 1.95102E+01 2.25224E+01 5.00000E+00
 -1     21100 2.24048E+01 2.51997E+01 5.00000E+00
 -1     21101 2.52946E+01 2.78793E+01 5.00000E+00
 -1     21102 2.82106E+01 3.05364E+01 5.00000E+00
 -1     21103 3.11377E+01 3.32099E+01 5.00000E+00
 -1     21104 3.69617E+01 3.86115E+01 5.00000E+00
 -1     21105 3.99113E+01 4.12574E+01 5.00000E+00
 -1     21106 4.27849E+01 4.42404E+01 5.00000E+00
 -1     21107 3.43693E+01 5.17019E+01 5.00000E+00
 -1     21108 3.37814E+00 3.38494E+01 5.00000E+00
 -1     21109 3.60469E+00 1.39264E+01 5.00000E+00
 -1     21110 6.80970E+00 4.28278E+01 5.00000E+00
 -1     21111 1.40333E+01 4.51267E+01 5.00000E+00
 -1     21112 1.03941E+01 4.39754E+01 5.00000E+00
 -1     21113 3.27555E+00 3.76927E+01 5.00000E+00
 -1     21114 3.44208E+00 2.79263E+01 5.00000E+00
 -1     21115 3.38581E+00 1.79237E+01 5.00000E+00
 -1     21116 3.56074E+00 9.95830E+00 5.00000E+00
 -1     21117 4.96373E+00 3.66187E+01 5.00000E+00
 -1     21118 3.95259E+01 4.31449E+01 5.00000E+00
 -1     21119 5.10938E+00 3.28297E+01 5.00000E+00
 -1     21120 4.20583E+01 4.67476E+01 5.00000E+00
 -1     21121 4.08853E+01 4.46954E+01 5.00000E+00
 -1     21122 1.17815E+01 1.79185E+01 5.00000E+00
 -1     21123 4.97961E+00 1.88730E+01 5.00000E+00
 -1     21124 1.47020E+01 2.05041E+01 5.00000E+00
 -1     21125 1.76344E+01 2.31150E+01 5.00000E+00
 -1     21126 1.18682E+01 4.26898E+01 5.00000E+00
 -1     21127 3.38798E+01 4.97861E+01 5.00000E+00
 -1     21128 2.28258E+01 4.62410E+01 5.00000E+00
 -1     21129 2.48373E+01 2.98249E+01 5.00000E+00
 -1     21130 2.77765E+01 3.24672E+01 5.00000E+00
 -1     21131 3.36147E+01 3.78961E+01 5.00000E+00
 -1     21132 7.21796E+00 1.40826E+01 5.00000E+00
 -1     21133 3.65475E+01 4.06118E+01 5.00000E+00
 -1     21134 3.80307E+01 4.19041E+01 5.00000E+00
 -1     21135 1.03218E+01 1.66074E+01 5.00000E+00
 -1     21136 1.91446E+01 4.50224E+01 5.00000E+00
 -1     21137 5.17762E+00 2.68896E+01 5.00000E+00
 -1     21138 2.33922E+01 2.84880E+01 5.00000E+00
 -1     21139 3.50759E+01 3.92602E+01 5.00000E+00
 -1     21140 3.57901E+01 5.02897E+01 5.00000E+00
 -1     21141 2.46784E+01 4.68231E+01 5.00000E+00
 -1     21142 1.55042E+01 4.38184E+01 5.00000E+00
 -1     21143 1.32351E+01 1.92155E+01 5.00000E+00
 -1     21144 6.58265E+00 4.10352E+01 5.00000E+00
 -1     21145 5.14382E+00 2.89014E+01 5.00000E+00
 -1     21146 4.90593E+00 4.03550E+01 5.00000E+00
 -1     21147 5.31820E+00 1.49585E+01 5.00000E+00
 -1     21148 2.05194E+01 2.57902E+01 5.00000E+00
 -1     21149 1.36791E+01 4.32426E+01 5.00000E+00
 -1     21150 8.80982E+00 1.53218E+01 5.00000E+00
 -1     21151 8.31041E+00 4.16194E+01 5.00000E+00
 -1     21152 5.52653E+00 1.29023E+01 5.00000E+00
 -1     21153 4.21328E+01 4.93630E+01 5.00000E+00
 -1     21154 3.07132E+01 3.51570E+01 5.00000E+00
 -1     21155 4.02008E+01 5.09444E+01 5.00000E+00
 -1     21156 3.21636E+01 3.65247E+01 5.00000E+00
 -1     21157 5.12651E+00 3.08820E+01 5.00000E+00
 -1     21158 5.06967E+00 3.47423E+01 5.00000E+00
 -1     21159 3.80892E+01 5.02709E+01 5.00000E+00
 -1     21160 1.73228E+01 4.44095E+01 5.00000E+00
 -1     21161 2.09782E+01 4.56398E+01 5.00000E+00
 -1     21162 2.19556E+01 2.71398E+01 5.00000E+00
 -1     21163 4.87509E+00 3.84890E+01 5.00000E+00
 -1     21164 4.21912E+01 5.16675E+01 5.00000E+00
 -1     21165 3.20559E+01 4.91720E+01 5.00000E+00
 -1     21166 5.12935E+00 1.69412E+01 5.00000E+00
 -1     21167 1.61733E+01 2.18014E+01 5.00000E+00
 -1     21168 1.90818E+01 2.44468E+01 5.00000E+00
 -1     21169 2.63012E+01 3.11468E+01 5.00000E+00
 -1     21170 1.00689E+01 4.21450E+01 5.00000E+00
 -1     21171 5.23197E+00 2.48500E+01 5.00000E+00
 -1     21172 2.92508E+01 3.38023E+01 5.00000E+00
 -1     21173 2.65311E+01 4.73995E+01 5.00000E+00
 -1     21174 5.10191E+00 2.08467E+01 5.00000E+00
 -1     21175 2.83857E+01 4.79776E+01 5.00000E+00
 -1     21176 5.27260E+00 2.27983E+01 5.00000E+00
 -1     21177 2.58578E+01 3.30789E+01 5.00000E+00
 -1     21178 4.01516E+01 4.86478E+01 5.00000E+00
 -1     21179 3.02348E+01 4.85561E+01 5.00000E+00
 -1     21180 1.57677E+01 2.37122E+01 5.00000E+00
 -1     21181 6.94673E+00 1.60750E+01 5.00000E+00
 -1     21182 1.87768E+01 4.30956E+01 5.00000E+00
 -1     21183 1.13339E+01 1.99121E+01 5.00000E+00
 -1     21184 3.31869E+01 3.99083E+01 5.00000E+00
 -1     21185 2.29133E+01 3.04494E+01 5.00000E+00
 -1     21186 9.91551E+00 1.86078E+01 5.00000E+00
 -1     21187 2.00590E+01 2.77241E+01 5.00000E+00
 -1     21188 1.15193E+01 4.08533E+01 5.00000E+00
 -1     21189 3.61582E+01 4.26759E+01 5.00000E+00
 -1     21190 6.41636E+00 3.92651E+01 5.00000E+00
 -1     21191 2.43695E+01 3.17762E+01 5.00000E+00
 -1     21192 3.46684E+01 4.12903E+01 5.00000E+00
 -1     21193 3.51934E+01 4.84658E+01 5.00000E+00
 -1     21194 2.42727E+01 4.49170E+01 5.00000E+00
 -1     21195 1.51558E+01 4.19279E+01 5.00000E+00
 -1     21196 6.69337E+00 1.79889E+01 5.00000E+00
 -1     21197 1.69714E+01 4.24908E+01 5.00000E+00
 -1     21198 1.33296E+01 4.13850E+01 5.00000E+00
 -1     21199 6.86525E+00 2.78737E+01 5.00000E+00
 -1     21200 1.86384E+01 2.63696E+01 5.00000E+00
 -1     21201 1.42918E+01 2.24301E+01 5.00000E+00
 -1     21202 2.88353E+01 3.57387E+01 5.00000E+00
 -1     21203 8.05682E+00 3.98949E+01 5.00000E+00
 -1     21204 2.73567E+01 3.43889E+01 5.00000E+00
 -1     21205 2.14849E+01 2.90908E+01 5.00000E+00
 -1     21206 2.98418E+01 4.65812E+01 5.00000E+00
 -1     21207 3.17171E+01 4.71288E+01 5.00000E+00
 -1     21208 1.72135E+01 2.50292E+01 5.00000E+00
 -1     21209 3.91660E+01 4.48214E+01 5.00000E+00
 -1     21210 3.98155E+01 4.65119E+01 5.00000E+00
 -1     21211 7.04323E+00 2.37335E+01 5.00000E+00
 -1     21212 6.84098E+00 3.18231E+01 5.00000E+00
 -1     21213 2.24149E+01 4.43504E+01 5.00000E+00
 -1     21214 3.34584E+01 4.78185E+01 5.00000E+00
 -1     21215 2.61226E+01 4.54675E+01 5.00000E+00
 -1     21216 6.78309E+00 3.56459E+01 5.00000E+00
 -1     21217 6.83265E+00 3.37486E+01 5.00000E+00
 -1     21218 9.76050E+00 4.03491E+01 5.00000E+00
 -1     21219 6.44269E+00 1.97243E+01 5.00000E+00
 -1     21220 2.79765E+01 4.60251E+01 5.00000E+00
 -1     21221 3.68329E+01 4.88455E+01 5.00000E+00
 -1     21222 8.47984E+00 1.73005E+01 5.00000E+00
 -1     21223 6.84433E+00 2.98691E+01 5.00000E+00
 -1     21224 3.17277E+01 3.85221E+01 5.00000E+00
 -1     21225 6.92716E+00 2.58415E+01 5.00000E+00
 -1     21226 1.28056E+01 2.11740E+01 5.00000E+00
 -1     21227 3.02864E+01 3.71190E+01 5.00000E+00
 -1     21228 3.76852E+01 4.38770E+01 5.00000E+00
 -1     21229 2.05833E+01 4.37303E+01 5.00000E+00
 -1     21230 6.52713E+00 3.74367E+01 5.00000E+00
 -1     21231 1.48024E+01 4.00684E+01 5.00000E+00
 -1     21232 3.58239E+01 4.49832E+01 5.00000E+00
 -1     21233 1.24096E+01 2.31193E+01 5.00000E+00
 -1     21234 3.83209E+01 4.78772E+01 5.00000E+00
 -1     21235 9.40075E+00 3.85576E+01 5.00000E+00
 -1     21236 1.95716E+01 2.96597E+01 5.00000E+00
 -1     21237 8.58251E+00 2.68650E+01 5.00000E+00
 -1     21238 7.22244E+00 2.14574E+01 5.00000E+00
 -1     21239 2.94165E+01 4.46254E+01 5.00000E+00
 -1     21240 9.39468E+00 2.06607E+01 5.00000E+00
 -1     21241 1.53689E+01 2.56030E+01 5.00000E+00
 -1     21242 1.84462E+01 4.11494E+01 5.00000E+00
 -1     21243 3.27787E+01 4.19238E+01 5.00000E+00
 -1     21244 1.11509E+01 3.90476E+01 5.00000E+00
 -1     21245 1.81568E+01 2.82836E+01 5.00000E+00
 -1     21246 1.66401E+01 4.05793E+01 5.00000E+00
 -1     21247 7.81185E+00 3.83251E+01 5.00000E+00
 -1     21248 3.42889E+01 4.33859E+01 5.00000E+00
 -1     21249 1.08898E+01 2.19091E+01 5.00000E+00
 -1     21250 1.29593E+01 3.95635E+01 5.00000E+00
 -1     21251 1.39141E+01 2.43259E+01 5.00000E+00
 -1     21252 1.67652E+01 2.69375E+01 5.00000E+00
 -1     21253 3.78534E+01 4.58858E+01 5.00000E+00
 -1     21254 8.54873E+00 2.88626E+01 5.00000E+00
 -1     21255 8.93442E+00 2.27313E+01 5.00000E+00
 -1     21256 3.48642E+01 4.67351E+01 5.00000E+00
 -1     21257 2.75296E+01 4.40802E+01 5.00000E+00
 -1     21258 8.56441E+00 3.08151E+01 5.00000E+00
 -1     21259 2.54462E+01 3.49924E+01 5.00000E+00
 -1     21260 2.39038E+01 3.37311E+01 5.00000E+00
 -1     21261 2.24040E+01 3.24391E+01 5.00000E+00
 -1     21262 8.10193E+00 1.92903E+01 5.00000E+00
 -1     21263 3.12713E+01 4.51257E+01 5.00000E+00
 -1     21264 8.57960E+00 3.27249E+01 5.00000E+00
 -1     21265 2.38323E+01 4.30671E+01 5.00000E+00
 -1     21266 8.70452E+00 2.48201E+01 5.00000E+00
 -1     21267 8.58746E+00 3.46554E+01 5.00000E+00
 -1     21268 2.09721E+01 3.10685E+01 5.00000E+00
 -1     21269 3.12747E+01 4.05771E+01 5.00000E+00
 -1     21270 2.84207E+01 3.76850E+01 5.00000E+00
 -1     21271 2.02233E+01 4.17965E+01 5.00000E+00
 -1     21272 8.60925E+00 3.66825E+01 5.00000E+00
 -1     21273 2.69630E+01 3.62988E+01 5.00000E+00
 -1     21274 1.20773E+01 2.50375E+01 5.00000E+00
 -1     21275 3.34029E+01 4.55537E+01 5.00000E+00
 -1     21276 1.81520E+01 3.91801E+01 5.00000E+00
 -1     21277 3.65298E+01 4.71097E+01 5.00000E+00
 -1     21278 1.05331E+01 2.39065E+01 5.00000E+00
 -1     21279 2.03801E+01 3.31190E+01 5.00000E+00
 -1     21280 3.25056E+01 4.37722E+01 5.00000E+00
 -1     21281 2.19974E+01 4.24755E+01 5.00000E+00
 -1     21282 1.03022E+01 2.58966E+01 5.00000E+00
 -1     21283 2.57206E+01 4.35294E+01 5.00000E+00
 -1     21284 1.06898E+01 3.72388E+01 5.00000E+00
 -1     21285 1.90323E+01 3.16055E+01 5.00000E+00
 -1     21286 1.76539E+01 3.01647E+01 5.00000E+00
 -1     21287 2.98421E+01 3.91133E+01 5.00000E+00
 -1     21288 2.51988E+01 4.17379E+01 5.00000E+00
 -1     21289 2.72478E+01 4.18563E+01 5.00000E+00
 -1     21290 1.02230E+01 2.78752E+01 5.00000E+00
 -1     21291 3.07942E+01 4.28417E+01 5.00000E+00
 -1     21292 1.62956E+01 3.86940E+01 5.00000E+00
 -1     21293 2.33477E+01 4.12928E+01 5.00000E+00
 -1     21294 2.88776E+01 4.28872E+01 5.00000E+00
 -1     21295 1.25525E+01 3.77994E+01 5.00000E+00
 -1     21296 1.02678E+01 2.98075E+01 5.00000E+00
 -1     21297 1.44180E+01 3.82767E+01 5.00000E+00
 -1     21298 1.49299E+01 2.74842E+01 5.00000E+00
 -1     21299 2.50951E+01 3.68632E+01 5.00000E+00
 -1     21300 2.35062E+01 3.56703E+01 5.00000E+00
 -1     21301 2.18741E+01 3.44786E+01 5.00000E+00
 -1     21302 1.03354E+01 3.35571E+01 5.00000E+00
 -1     21303 1.35728E+01 2.61514E+01 5.00000E+00
 -1     21304 1.03305E+01 3.16937E+01 5.00000E+00
 -1     21305 2.79589E+01 3.96764E+01 5.00000E+00
 -1     21306 1.99420E+01 3.98118E+01 5.00000E+00
 -1     21307 1.62124E+01 2.88291E+01 5.00000E+00
 -1     21308 1.03856E+01 3.54185E+01 5.00000E+00
 -1     21309 1.95784E+01 3.54239E+01 5.00000E+00
 -1     21310 2.65881E+01 3.81903E+01 5.00000E+00
 -1     21311 2.93491E+01 4.11147E+01 5.00000E+00
 -1     21312 1.18384E+01 2.69176E+01 5.00000E+00
 -1     21313 1.71371E+01 3.19950E+01 5.00000E+00
 -1     21314 1.78335E+01 3.72008E+01 5.00000E+00
 -1     21315 1.83281E+01 3.35704E+01 5.00000E+00
 -1     21316 2.16647E+01 4.05554E+01 5.00000E+00
 -1     21317 2.61520E+01 4.00570E+01 5.00000E+00
 -1     21318 2.48072E+01 3.86444E+01 5.00000E+00
 -1     21319 1.21609E+01 3.60888E+01 5.00000E+00
 -1     21320 1.19082E+01 2.88247E+01 5.00000E+00
 -1     21321 2.15417E+01 3.65357E+01 5.00000E+00
 -1     21322 2.32425E+01 3.75718E+01 5.00000E+00
 -1     21323 1.58595E+01 3.68827E+01 5.00000E+00
 -1     21324 1.20918E+01 3.06507E+01 5.00000E+00
 -1     21325 1.32637E+01 2.78058E+01 5.00000E+00
 -1     21326 2.45355E+01 4.02298E+01 5.00000E+00
 -1     21327 1.97490E+01 3.77425E+01 5.00000E+00
 -1     21328 1.57167E+01 3.06346E+01 5.00000E+00
 -1     21329 1.40198E+01 2.94502E+01 5.00000E+00
 -1     21330 1.21372E+01 3.25318E+01 5.00000E+00
 -1     21331 1.20588E+01 3.43100E+01 5.00000E+00
 -1     21332 1.39831E+01 3.65981E+01 5.00000E+00
 -1     21333 1.72354E+01 3.53444E+01 5.00000E+00
 -1     21334 2.31216E+01 3.94304E+01 5.00000E+00
 -1     21335 1.54141E+01 3.22831E+01 5.00000E+00
 -1     21336 1.38642E+01 3.14839E+01 5.00000E+00
 -1     21337 1.62902E+01 3.37094E+01 5.00000E+00
 -1     21338 2.15119E+01 3.85715E+01 5.00000E+00
 -1     21339 1.40713E+01 3.34851E+01 5.00000E+00
 -1     21340 1.52309E+01 3.51721E+01 5.00000E+00
 -1     21341 1.35197E+01 3.50950E+01 5.00000E+00
 -1     21342 4.80000E+01 4.40000E+01 1.66667E+00
 -1     21343 4.80000E+01 4.40000E+01 3.33333E+00
 -1     21344 0.00000E+00 0.00000E+00 1.66667E+00
 -1     21345 0.00000E+00 0.00000E+00 3.33333E+00
 -1     21346 4.80000E+01 6.00000E+01 1.66667E+00
 -1     21347 4.80000E+01 6.00000E+01 3.33333E+00
 -1     21348 0.00000E+00 4.40000E+01 1.66667E+00
 -1     21349 0.00000E+00 4.40000E+01 3.33333E+00
 -1     21350 4.68428E+01 4.29393E+01 2.17826E+00
 -1     21351 4.69770E+01 4.30622E+01 3.74340E+00
 -1     21352 4.41215E+01 4.04447E+01 3.32588E+00
 -1     21353 4.14488E+01 3.79948E+01 3.68457E+00
 -1     21354 3.87387E+01 3.55105E+01 3.30819E+00
 -1     21355 3.54470E+01 3.24931E+01 3.29837E+00
 -1     21356 3.24902E+01 2.97827E+01 3.34231E+00
 -1     21357 2.98199E+01 2.73349E+01 3.68692E+00
 -1     21358 2.71536E+01 2.48908E+01 3.34370E+00
 -1     21359 2.42438E+01 2.22235E+01 3.33354E+00
 -1     21360 2.13329E+01 1.95552E+01 3.33323E+00
 -1     21361 1.84234E+01 1.68881E+01 3.33325E+00
 -1     21362 1.55141E+01 1.42213E+01 3.33312E+00
 -1     21363 1.25953E+01 1.15457E+01 3.32721E+00
 -1     21364 9.47319E+00 8.68375E+00 3.10521E+00
 -1     21365 6.57609E+00 6.02808E+00 3.52224E+00
 -1     21366 3.62500E+00 3.32292E+00 2.50781E+00
 -1     21367 1.17216E+00 1.07448E+00 2.50072E+00
 -1     21368 2.30223E+00 2.11037E+00 1.63900E+00
 -1     21369 6.80083E+00 6.23410E+00 1.79253E+00
 -1     21370 9.46184E+00 8.67335E+00 1.31591E+00
 -1     21371 1.21235E+01 1.11132E+01 1.65596E+00
 -1     21372 1.50294E+01 1.37770E+01 1.66638E+00
 -1     21373 1.79384E+01 1.64435E+01 1.66647E+00
 -1     21374 2.08476E+01 1.91103E+01 1.66655E+00
 -1     21375 2.37589E+01 2.17790E+01 1.66692E+00
 -1     21376 2.66809E+01 2.44575E+01 1.67302E+00
 -1     21377 2.98202E+01 2.73352E+01 1.89826E+00
 -1     21378 3.29613E+01 3.02145E+01 1.67082E+00
 -1     21379 3.58517E+01 3.28640E+01 1.60482E+00
 -1     21380 3.83479E+01 3.51523E+01 1.61070E+00
 -1     21381 4.14484E+01 3.79944E+01 1.89642E+00
 -1     21382 4.45090E+01 4.07999E+01 1.63051E+00
 -1     21383 4.26929E+01 3.91352E+01 3.39291E+00
 -1     21384 4.01985E+01 3.68486E+01 3.38946E+00
 -1     21385 4.56451E+01 4.18413E+01 3.23733E+00
 -1     21386 3.70946E+01 3.40034E+01 3.10365E+00
 -1     21387 3.39529E+01 3.11235E+01 3.32830E+00
 -1     21388 3.10641E+01 2.84754E+01 3.39561E+00
 -1     21389 2.85775E+01 2.61960E+01 3.39571E+00
 -1     21390 2.57000E+01 2.35583E+01 3.33499E+00
 -1     21391 2.27883E+01 2.08892E+01 3.33332E+00
 -1     21392 1.98783E+01 1.82218E+01 3.33328E+00
 -1     21393 1.69687E+01 1.55546E+01 3.33315E+00
 -1     21394 1.40575E+01 1.28861E+01 3.33220E+00
 -1     21395 1.11060E+01 1.01805E+01 3.29789E+00
 -1     21396 7.88523E+00 7.22813E+00 3.34127E+00
 -1     21397 5.26568E+00 4.82687E+00 2.54568E+00
 -1     21398 2.30194E+00 2.11012E+00 3.36518E+00
 -1     21399 8.22580E+00 7.54031E+00 1.62653E+00
 -1     21400 1.07029E+01 9.81096E+00 1.60325E+00
 -1     21401 1.35747E+01 1.24435E+01 1.66499E+00
 -1     21402 1.64839E+01 1.51103E+01 1.66650E+00
 -1     21403 1.93932E+01 1.77771E+01 1.66656E+00
 -1     21404 2.23030E+01 2.04444E+01 1.66674E+00
 -1     21405 2.52164E+01 2.31151E+01 1.66790E+00
 -1     21406 2.81736E+01 2.58258E+01 1.70196E+00
 -1     21407 3.14676E+01 2.88453E+01 1.70149E+00
 -1     21408 3.44243E+01 3.15556E+01 1.65694E+00
 -1     21409 3.70966E+01 3.40053E+01 1.31543E+00
 -1     21410 3.98078E+01 3.64905E+01 1.69179E+00
 -1     21411 4.30787E+01 3.94888E+01 1.69527E+00
 -1     21412 4.57367E+01 4.19253E+01 1.42166E+00
 -1     21413 4.80000E+01 5.84028E+01 2.22717E+00
 -1     21414 4.80000E+01 5.86831E+01 3.79413E+00
 -1     21415 4.80000E+01 5.51135E+01 3.30044E+00
 -1     21416 4.80000E+01 5.07434E+01 2.62082E+00
 -1     21417 4.80000E+01 4.72347E+01 3.36477E+00
 -1     21418 4.80000E+01 4.54380E+01 3.27457E+00
 -1     21419 4.80000E+01 4.65166E+01 1.67005E+00
 -1     21420 4.80000E+01 4.86164E+01 1.80439E+00
 -1     21421 4.80000E+01 5.43552E+01 1.56720E+00
 -1     21422 4.80000E+01 5.29775E+01 2.97244E+00
 -1     21423 4.80000E+01 4.89666E+01 3.54067E+00
 -1     21424 4.80000E+01 5.70473E+01 3.49239E+00
 -1     21425 4.80000E+01 5.64961E+01 1.75249E+00
 -1     21426 1.44076E+00 4.44803E+01 2.18947E+00
 -1     21427 1.27893E+00 4.44263E+01 3.75072E+00
 -1     21428 4.92207E+00 4.56407E+01 3.32616E+00
 -1     21429 8.33094E+00 4.67770E+01 3.67884E+00
 -1     21430 1.19975E+01 4.79992E+01 3.10690E+00
 -1     21431 1.59813E+01 4.93271E+01 3.32673E+00
 -1     21432 1.96896E+01 5.05632E+01 3.34442E+00
 -1     21433 2.30761E+01 5.16921E+01 3.69139E+00
 -1     21434 2.64606E+01 5.28202E+01 3.34462E+00
 -1     21435 3.01510E+01 5.40503E+01 3.33342E+00
 -1     21436 3.38379E+01 5.52793E+01 3.32848E+00
 -1     21437 3.75343E+01 5.65114E+01 3.19351E+00
 -1     21438 4.17148E+01 5.79049E+01 2.54047E+00
 -1     21439 4.49897E+01 5.89966E+01 3.36683E+00
 -1     21440 4.66366E+01 5.95455E+01 3.29579E+00
 -1     21441 4.56294E+01 5.92098E+01 1.67340E+00
 -1     21442 4.37134E+01 5.85711E+01 1.79624E+00
 -1     21443 3.78397E+01 5.66132E+01 1.46758E+00
 -1     21444 3.44351E+01 5.54784E+01 1.65579E+00
 -1     21445 3.07652E+01 5.42551E+01 1.66639E+00
 -1     21446 2.70592E+01 5.30197E+01 1.67328E+00
 -1     21447 2.30757E+01 5.16919E+01 1.90457E+00
 -1     21448 1.90906E+01 5.03635E+01 1.67300E+00
 -1     21449 1.53814E+01 4.91271E+01 1.65585E+00
 -1     21450 1.19791E+01 4.79930E+01 1.32108E+00
 -1     21451 8.31612E+00 4.67720E+01 1.89337E+00
 -1     21452 4.42940E+00 4.54765E+01 1.63083E+00
 -1     21453 6.74013E+00 4.62467E+01 3.39359E+00
 -1     21454 9.95364E+00 4.73179E+01 3.36017E+00
 -1     21455 2.98029E+00 4.49934E+01 3.23752E+00
 -1     21456 1.40862E+01 4.86954E+01 3.29728E+00
 -1     21457 1.78417E+01 4.99472E+01 3.33361E+00
 -1     21458 2.14969E+01 5.11656E+01 3.39930E+00
 -1     21459 2.46546E+01 5.22182E+01 3.39883E+00
 -1     21460 2.83043E+01 5.34348E+01 3.33502E+00
 -1     21461 3.19964E+01 5.46655E+01 3.33254E+00
 -1     21462 3.56766E+01 5.58922E+01 3.30704E+00
 -1     21463 3.95187E+01 5.71729E+01 2.45404E+00
 -1     21464 4.33882E+01 5.84627E+01 3.52644E+00
 -1     21465 2.89172E+01 5.36391E+01 1.66784E+00
 -1     21466 3.62170E+01 5.60723E+01 1.61771E+00
 -1     21467 3.26072E+01 5.48691E+01 1.66437E+00
 -1     21468 2.51646E+01 5.23882E+01 1.70430E+00
 -1     21469 2.09867E+01 5.09956E+01 1.70431E+00
 -1     21470 1.72299E+01 4.97433E+01 1.66575E+00
 -1     21471 1.35712E+01 4.85237E+01 1.60397E+00
 -1     21472 1.03565E+01 4.74522E+01 1.64048E+00
 -1     21473 6.24805E+00 4.60827E+01 1.69631E+00
 -1     21474 2.86356E+00 4.49545E+01 1.42383E+00
 -1     21475 0.00000E+00 1.59180E+00 2.24513E+00
 -1     21476 0.00000E+00 1.30653E+00 3.81125E+00
 -1     21477 0.00000E+00 4.75410E+00 3.37848E+00
 -1     21478 0.00000E+00 8.74377E+00 3.30197E+00
 -1     21479 0.00000E+00 1.32649E+01 3.30007E+00
 -1     21480 0.00000E+00 1.73272E+01 3.33245E+00
 -1     21481 0.00000E+00 2.13319E+01 3.33324E+00
 -1     21482 0.00000E+00 2.53323E+01 3.33466E+00
 -1     21483 0.00000E+00 2.92759E+01 3.39165E+00
 -1     21484 0.00000E+00 3.27023E+01 3.26846E+00
 -1     21485 0.00000E+00 3.71928E+01 2.53877E+00
 -1     21486 0.00000E+00 4.07374E+01 3.36378E+00
 -1     21487 0.00000E+00 4.25267E+01 3.28896E+00
 -1     21488 0.00000E+00 4.14284E+01 1.66967E+00
 -1     21489 0.00000E+00 3.93548E+01 1.79002E+00
 -1     21490 0.00000E+00 3.29106E+01 1.52662E+00
 -1     21491 0.00000E+00 2.87147E+01 1.69782E+00
 -1     21492 0.00000E+00 2.46677E+01 1.66727E+00
 -1     21493 0.00000E+00 2.06648E+01 1.66659E+00
 -1     21494 0.00000E+00 1.66629E+01 1.66533E+00
 -1     21495 0.00000E+00 1.27081E+01 1.60651E+00
 -1     21496 0.00000E+00 9.29677E+00 1.60705E+00
 -1     21497 0.00000E+00 5.37378E+00 1.68883E+00
 -1     21498 0.00000E+00 6.71117E+00 3.33826E+00
 -1     21499 0.00000E+00 1.10016E+01 3.10669E+00
 -1     21500 0.00000E+00 2.91334E+00 3.51532E+00
 -1     21501 0.00000E+00 1.53154E+01 3.32756E+00
 -1     21502 0.00000E+00 1.93304E+01 3.33315E+00
 -1     21503 0.00000E+00 2.33328E+01 3.33347E+00
 -1     21504 0.00000E+00 2.73257E+01 3.34256E+00
 -1     21505 0.00000E+00 3.09881E+01 3.66021E+00
 -1     21506 0.00000E+00 3.47945E+01 2.47740E+00
 -1     21507 0.00000E+00 3.90044E+01 3.52429E+00
 -1     21508 0.00000E+00 3.09185E+01 1.86846E+00
 -1     21509 0.00000E+00 2.66758E+01 1.67130E+00
 -1     21510 0.00000E+00 2.26660E+01 1.66674E+00
 -1     21511 0.00000E+00 1.86639E+01 1.66653E+00
 -1     21512 0.00000E+00 1.46655E+01 1.65702E+00
 -1     21513 0.00000E+00 1.10013E+01 1.31605E+00
 -1     21514 0.00000E+00 7.34816E+00 1.66157E+00
 -1     21515 0.00000E+00 3.42853E+00 1.78279E+00
 -1     21516 4.56789E+01 4.71817E+01 2.38243E+00
 -1     21517 4.64413E+01 5.69427E+01 2.88818E+00
 -1     21518 1.90913E+01 4.73012E+01 2.62828E+00
 -1     21519 1.23679E+01 1.55870E+01 2.54695E+00
 -1     21520 3.02083E+01 3.02560E+01 2.48691E+00
 -1     21521 3.29963E+01 3.42004E+01 3.06130E+00
 -1     21522 1.51503E+01 4.65511E+01 2.59134E+00
 -1     21523 2.23259E+01 4.89789E+01 2.76577E+00
 -1     21524 2.59206E+01 4.97870E+01 2.62790E+00
 -1     21525 3.01430E+01 5.15975E+01 2.41311E+00
 -1     21526 2.78401E+00 2.36503E+01 2.51249E+00
 -1     21527 3.39749E+00 2.04392E+01 2.38376E+00
 -1     21528 1.90968E+00 7.02899E+00 2.51247E+00
 -1     21529 3.43412E+01 3.55261E+01 2.30370E+00
 -1     21530 1.72902E+01 1.93174E+01 2.53167E+00
 -1     21531 1.97739E+01 2.20620E+01 2.50234E+00
 -1     21532 2.27120E+01 2.46231E+01 2.68044E+00
 -1     21533 2.63187E+01 2.71169E+01 2.69471E+00
 -1     21534 3.13555E+01 3.26614E+01 2.45440E+00
 -1     21535 7.36990E+00 4.38708E+01 2.39738E+00
 -1     21536 3.54338E+00 9.30157E+00 2.37605E+00
 -1     21537 3.98477E+01 3.96579E+01 2.33113E+00
 -1     21538 5.24580E+00 4.08176E+01 2.70857E+00
 -1     21539 3.91834E+01 4.34957E+01 2.72007E+00
 -1     21540 7.32952E+00 1.69597E+01 2.45589E+00
 -1     21541 7.31780E+00 3.86959E+01 2.54374E+00
 -1     21542 3.39685E+01 4.76190E+01 2.65750E+00
 -1     21543 1.13177E+01 3.88441E+01 2.47674E+00
 -1     21544 1.12416E+01 2.30075E+01 2.48340E+00
 -1     21545 1.32662E+01 2.73316E+01 2.51916E+00
 -1     21546 1.17953E+01 3.54135E+01 2.72862E+00
 -1     21547 2.43067E+01 4.02145E+01 2.58538E+00
 -1     21548 2.18478E+01 4.02035E+01 2.52832E+00
 -1     21549 1.64155E+01 3.22458E+01 2.62021E+00
 -1     21550 1.50414E+01 3.60522E+01 2.55026E+00
 -1     21551 4.62495E+01 5.14849E+01 3.10044E+00
 -1     21552 4.67704E+01 5.85818E+01 4.02091E+00
 -1     21553 3.22895E+01 3.11117E+01 3.72755E+00
 -1     21554 1.25301E+01 1.27399E+01 3.74197E+00
 -1     21555 1.42584E+00 9.48394E+00 1.55136E+00
 -1     21556 1.76239E+01 4.82908E+01 1.13162E+00
 -1     21557 3.65562E+01 3.51463E+01 1.57961E+00
 -1     21558 8.54906E+00 4.63911E+01 4.66255E+00
 -1     21559 4.47797E+01 4.24605E+01 3.02504E+00
 -1     21560 1.77116E+01 1.75515E+01 3.92038E+00
 -1     21561 1.64862E+00 1.36445E+01 3.14559E+00
 -1     21562 1.09911E+00 3.63766E+01 1.16156E+00
 -1     21563 9.53119E-01 2.76289E+01 3.05636E+00
 -1     21564 2.72974E+01 2.62629E+01 9.78758E-01
 -1     21565 2.26521E+01 2.26248E+01 1.67692E+00
 -1     21566 4.21392E+01 4.06272E+01 1.25556E+00
 -1     21567 4.62158E+01 5.81916E+01 1.32464E+00
 -1     21568 1.17681E+00 2.89997E+00 8.93365E-01
 -1     21569 9.45030E+00 9.85152E+00 1.35008E+00
 -1     21570 1.46383E+01 1.48433E+01 3.37952E+00
 -1     21571 1.97668E+01 1.99108E+01 1.62366E+00
 -1     21572 4.33484E-01 3.27392E+01 4.05041E-01
 -1     21573 1.04411E+01 4.57712E+01 2.15820E+00
 -1     21574 6.72185E-01 4.34692E+01 7.85768E-01
 -1     21575 1.95593E+01 4.92624E+01 3.50430E+00
 -1     21576 3.62327E+01 5.55371E+01 5.84985E-01
 -1     21577 4.63067E+01 4.46008E+01 3.06183E+00
 -1     21578 1.71300E+01 1.71562E+01 1.65768E+00
 -1     21579 2.09228E+01 2.06219E+01 4.03386E+00
 -1     21580 6.99435E+00 7.74632E+00 9.62335E-01
 -1     21581 2.38378E+01 2.32982E+01 4.06234E+00
 -1     21582 5.41122E+00 4.40791E+01 3.59386E+00
 -1     21583 3.19266E+01 3.05567E+01 1.01459E+00
 -1     21584 2.91020E+01 5.27638E+01 9.05701E-01
 -1     21585 2.52871E+01 2.50074E+01 3.78149E+00
 -1     21586 8.00044E-01 1.46196E+01 6.06646E-01
 -1     21587 4.70432E+01 4.73720E+01 9.46060E-01
 -1     21588 4.98523E+00 6.71738E+00 3.72315E+00
 -1     21589 4.36955E+01 5.78162E+01 3.53325E+00
 -1     21590 1.34479E+01 4.76188E+01 9.58308E-01
 -1     21591 9.32076E-01 4.07143E+01 3.96274E+00
 -1     21592 1.30401E+00 2.47849E+01 1.39921E+00
 -1     21593 1.62245E+00 1.78432E+01 2.42918E+00
 -1     21594 7.67674E-01 1.60635E+00 4.06407E+00
 -1     21595 1.62230E+00 2.00225E+01 9.22498E-01
 -1     21596 1.42907E+01 4.78190E+01 4.06478E+00
 -1     21597 2.49437E+01 5.13435E+01 9.61471E-01
 -1     21598 3.92984E+01 3.71112E+01 5.92601E-01
 -1     21599 1.35921E+01 1.49852E+01 9.42888E-01
 -1     21600 6.62423E+00 4.52545E+01 8.08077E-01
 -1     21601 3.01984E+01 2.87522E+01 3.97913E+00
 -1     21602 3.97415E+01 5.62086E+01 3.06289E+00
 -1     21603 8.48987E+00 9.19168E+00 2.75084E+00
 -1     21604 3.31614E+00 4.46305E+01 5.14748E-01
 -1     21605 2.16850E+01 5.03032E+01 9.99026E-01
 -1     21606 1.38530E+00 2.39474E+01 3.95980E+00
 -1     21607 3.75991E+01 3.56513E+01 3.20201E+00
 -1     21608 4.71740E+01 5.46786E+01 3.67171E+00
 -1     21609 1.28716E+00 9.41837E+00 3.41850E+00
 -1     21610 3.16399E+01 5.31025E+01 3.13955E+00
 -1     21611 3.50875E+01 3.39707E+01 3.85043E+00
 -1     21612 7.10019E-01 2.88507E+01 5.59674E-01
 -1     21613 4.67974E+01 4.57652E+01 1.23324E+00
 -1     21614 4.05364E+01 3.84286E+01 4.18124E+00
 -1     21615 2.83696E+01 5.21198E+01 3.56429E+00
 -1     21616 5.52101E-01 3.15181E+01 4.08616E+00
 -1     21617 1.35729E+01 1.39256E+01 4.14177E+00
 -1     21618 3.36821E+01 3.28261E+01 1.06523E+00
 -1     21619 7.88782E-01 1.45763E+01 3.70305E+00
 -1     21620 1.23768E+00 3.84618E+01 1.36613E+00
 -1     21621 4.27773E+01 4.10451E+01 2.83259E+00
 -1     21622 8.23008E+00 4.52256E+01 1.13457E+00
 -1     21623 6.58275E-01 1.38978E+00 1.07049E+00
 -1     21624 4.65934E+01 4.42364E+01 1.05952E+00
 -1     21625 1.13910E+01 1.15265E+01 3.41822E+00
 -1     21626 1.85379E+01 1.84114E+01 9.74002E-01
 -1     21627 1.12044E+00 3.44155E+01 1.21162E+00
 -1     21628 2.57758E+01 2.52656E+01 9.32438E-01
 -1     21629 1.13650E+01 4.70634E+01 8.20586E-01
 -1     21630 3.83444E+01 3.60808E+01 1.02909E+00
 -1     21631 4.64321E+01 4.90288E+01 3.45623E+00
 -1     21632 2.90421E+01 2.74448E+01 4.02341E+00
 -1     21633 4.59155E+01 4.32910E+01 4.02976E+00
 -1     21634 3.47766E+01 5.47199E+01 6.80753E-01
 -1     21635 1.92807E+01 1.95986E+01 3.71737E+00
 -1     21636 9.41018E-01 3.06227E+01 9.93243E-01
 -1     21637 6.79000E+00 4.54377E+01 4.35513E+00
 -1     21638 5.31216E+00 7.26345E+00 1.31213E+00
 -1     21639 6.48059E+00 7.58214E+00 3.40011E+00
 -1     21640 4.25051E+01 5.71860E+01 3.37274E+00
 -1     21641 3.72483E+01 5.57658E+01 9.11384E-01
 -1     21642 3.12140E+01 5.34966E+01 1.04950E+00
 -1     21643 4.71914E+01 5.69637E+01 1.04081E+00
 -1     21644 2.42724E+00 4.40869E+01 7.54430E-01
 -1     21645 4.95364E+00 4.48473E+01 6.66120E-01
 -1     21646 3.04951E+01 2.90428E+01 9.19093E-01
 -1     21647 1.68496E+01 4.81338E+01 3.67429E+00
 -1     21648 1.87109E+00 1.15951E+01 2.89926E+00
 -1     21649 2.22103E+01 2.23157E+01 3.74772E+00
 -1     21650 3.96934E+01 5.63700E+01 9.89057E-01
 -1     21651 1.00850E+00 2.63474E+01 1.21266E+00
 -1     21652 1.24335E+00 3.26561E+01 2.88113E+00
 -1     21653 1.97379E+01 4.94653E+01 1.06107E+00
 -1     21654 7.15172E-01 1.21066E+01 1.34783E+00
 -1     21655 2.33967E+01 5.06474E+01 1.21309E+00
 -1     21656 1.18656E+00 4.13951E+01 7.77745E-01
 -1     21657 3.57479E+01 5.44151E+01 2.18375E+00
 -1     21658 1.63932E+01 1.62859E+01 3.33526E+00
 -1     21659 1.32435E+01 1.34615E+01 1.64672E+00
 -1     21660 4.64368E+01 5.32544E+01 3.45362E+00
 -1     21661 9.02775E-01 1.68479E+01 7.16781E-01
 -1     21662 1.37976E+00 2.19886E+01 1.26081E+00
 -1     21663 1.27440E+00 3.21278E+00 4.21407E+00
 -1     21664 3.02858E+01 5.31070E+01 4.15859E+00
 -1     21665 2.50456E+00 4.40897E+00 1.63020E+00
 -1     21666 1.02211E+01 4.60684E+01 3.98283E+00
 -1     21667 3.37312E+01 3.25230E+01 3.84204E+00
 -1     21668 3.92121E+01 3.67338E+01 4.14858E+00
 -1     21669 1.53929E+00 1.95021E+01 3.52266E+00
 -1     21670 3.65069E+01 3.51034E+01 3.89756E+00
 -1     21671 1.50118E+00 2.18949E+01 3.94870E+00
 -1     21672 4.57250E+01 4.28695E+01 1.51527E+00
 -1     21673 9.54026E+00 1.05300E+01 2.80080E+00
 -1     21674 2.42395E+01 2.44751E+01 1.13411E+00
 -1     21675 4.66740E+01 5.48417E+01 1.58801E+00
 -1     21676 3.84230E+01 5.58993E+01 1.24735E+00
 -1     21677 1.17557E+01 1.17842E+01 1.54501E+00
 -1     21678 6.74387E-01 1.46384E+00 2.76129E+00
 -1     21679 3.57551E+00 4.39545E+01 2.31546E+00
 -1     21680 4.69011E+01 5.86856E+01 2.69760E+00
 -1     21681 4.45531E+01 4.18548E+01 1.33570E+00
 -1     21682 6.88375E-01 3.91698E+01 4.02581E+00
 -1     21683 1.18276E+01 4.71581E+01 4.34333E+00
 -1     21684 2.13813E+01 2.11048E+01 9.60853E-01
 -1     21685 1.50551E+01 1.57655E+01 1.38172E+00
 -1     21686 8.18015E-01 3.01603E+01 4.13872E+00
 -1     21687 8.21992E+00 8.58003E+00 1.05808E+00
 -1     21688 5.68842E-01 1.05355E+01 8.50841E-01
 -1     21689 4.67014E+01 4.90058E+01 1.16961E+00
 -1     21690 4.20116E+01 3.98804E+01 3.80623E+00
 -1     21691 5.99025E-01 1.38092E+01 1.09339E+00
 -1     21692 7.57320E-01 4.20238E+01 3.89052E+00
 -1     21693 9.68162E-01 4.81845E+00 8.04504E-01
 -1     21694 4.12291E+01 5.67811E+01 1.71102E+00
 -1     21695 2.67368E+01 5.18210E+01 1.02381E+00
 -1     21696 7.18801E-01 1.57501E+01 1.13327E+00
 -1     21697 1.82759E+01 4.89589E+01 4.11310E+00
 -1     21698 1.51841E+00 3.51098E+01 3.05903E+00
 -1     21699 4.50609E+01 5.78149E+01 3.88500E+00
 -1     21700 2.89824E+01 2.77010E+01 1.15377E+00
 -1     21701 4.73449E-01 2.76199E+01 1.26954E+00
 -1     21702 3.54958E+01 5.50276E+01 8.18506E-01
 -1     21703 5.10871E-01 4.21398E+01 4.61108E-01
 -1     21704 2.45867E+00 4.39251E+01 4.11586E+00
 -1     21705 9.57739E-01 3.72101E+01 3.23003E+00
 -1     21706 8.56801E-01 2.92140E+01 3.24089E+00
 -1     21707 1.09010E+01 1.09201E+01 9.44198E-01
 -1     21708 3.66577E+01 5.51985E+01 3.51925E+00
 -1     21709 2.67573E+00 4.83834E+00 3.45922E+00
 -1     21710 5.33001E-01 3.98412E+01 5.91113E-01
 -1     21711 4.30671E+01 5.76743E+01 1.27159E+00
 -1     21712 4.66620E+01 5.02289E+01 1.72358E+00
 -1     21713 3.41936E+01 5.40695E+01 2.60299E+00
 -1     21714 1.57273E+00 1.53838E+01 2.55301E+00
 -1     21715 1.04758E+00 2.56791E+01 3.68730E+00
 -1     21716 3.31871E+01 5.40862E+01 1.17750E+00
 -1     21717 1.38719E+00 1.83837E+01 9.43013E-01
 -1     21718 1.10870E+00 4.34469E+01 4.07966E+00
 -1     21719 3.82393E+01 5.55775E+01 3.39504E+00
 -1     21720 4.72921E+01 5.88743E+01 7.38108E-01
 -1     21721 4.34312E+01 4.08385E+01 1.22740E+00
 -1     21722 4.70677E+01 5.26114E+01 1.35607E+00
 -1     21723 3.26554E+01 5.43369E+01 4.08517E+00
 -1     21724 8.62539E-01 1.67015E+01 3.48548E+00
 -1     21725 9.00397E-01 5.39679E+00 3.83062E+00
 -1     21726 6.68066E+00 8.61011E+00 1.78744E+00
 -1     21727 1.62946E+00 4.29795E+01 2.95807E+00
 -1     21728 4.10337E+01 5.68603E+01 3.72699E+00
 -1     21729 3.37842E+01 5.46679E+01 1.16437E+00
 -1     21730 3.91146E+01 5.51440E+01 1.39542E+00
 -1     21731 4.43993E+01 5.74357E+01 1.93528E+00
 -1     21732 3.79156E+01 4.17843E+01 2.35700E+00
 -1     21733 2.59353E+01 4.18208E+01 2.18616E+00
 -1     21734 3.43267E+01 4.99238E+01 2.65395E+00
 -1     21735 1.49523E+00 4.18748E+01 2.03711E+00
 -1     21736 1.25132E+00 3.94891E+01 2.84794E+00
 -1     21737 1.24029E+00 2.82521E+01 1.89700E+00
 -1     21738 4.80000E+01 4.40000E+01 8.33333E-01
 -1     21739 4.80000E+01 4.40000E+01 2.50000E+00
 -1     21740 4.80000E+01 4.40000E+01 4.16667E+00
 -1     21741 0.00000E+00 0.00000E+00 8.33333E-01
 -1     21742 0.00000E+00 0.00000E+00 2.50000E+00
 -1     21743 0.00000E+00 0.00000E+00 4.16667E+00
 -1     21744 4.72727E+01 4.33333E+01 0.00000E+00
 -1     21745 4.58182E+01 4.20000E+01 0.00000E+00
 -1     21746 4.43636E+01 4.06667E+01 0.00000E+00
 -1     21747 4.29091E+01 3.93333E+01 0.00000E+00
 -1     21748 4.14545E+01 3.80000E+01 0.00000E+00
 -1     21749 4.00000E+01 3.66667E+01 0.00000E+00
 -1     21750 3.85455E+01 3.53333E+01 0.00000E+00
 -1     21751 3.70909E+01 3.40000E+01 0.00000E+00
 -1     21752 3.56364E+01 3.26667E+01 0.00000E+00
 -1     21753 3.41818E+01 3.13333E+01 0.00000E+00
 -1     21754 3.27273E+01 3.00000E+01 0.00000E+00
 -1     21755 3.12727E+01 2.86667E+01 0.00000E+00
 -1     21756 2.98182E+01 2.73333E+01 0.00000E+00
 -1     21757 2.83636E+01 2.60000E+01 0.00000E+00
 -1     21758 2.69091E+01 2.46667E+01 0.00000E+00
 -1     21759 2.54545E+01 2.33333E+01 0.00000E+00
 -1     21760 2.40000E+01 2.20000E+01 0.00000E+00
 -1     21761 2.25455E+01 2.06667E+01 0.00000E+00
 -1     21762 2.10909E+01 1.93333E+01 0.00000E+00
 -1     21763 1.96364E+01 1.80000E+01 0.00000E+00
 -1     21764 1.81818E+01 1.66667E+01 0.00000E+00
 -1     21765 1.67273E+01 1.53333E+01 0.00000E+00
 -1     21766 1.52727E+01 1.40000E+01 0.00000E+00
 -1     21767 1.38182E+01 1.26667E+01 0.00000E+00
 -1     21768 1.23636E+01 1.13333E+01 0.00000E+00
 -1     21769 1.09091E+01 1.00000E+01 0.00000E+00
 -1     21770 9.45455E+00 8.66667E+00 0.00000E+00
 -1     21771 8.00000E+00 7.33333E+00 0.00000E+00
 -1     21772 6.54545E+00 6.00000E+00 0.00000E+00
 -1     21773 5.09091E+00 4.66667E+00 0.00000E+00
 -1     21774 3.63636E+00 3.33333E+00 0.00000E+00
 -1     21775 2.18182E+00 2.00000E+00 0.00000E+00
 -1     21776 7.27273E-01 6.66667E-01 0.00000E+00
 -1     21777 4.72727E+01 4.33333E+01 5.00000E+00
 -1     21778 4.58182E+01 4.20000E+01 5.00000E+00
 -1     21779 4.43636E+01 4.06667E+01 5.00000E+00
 -1     21780 4.29091E+01 3.93333E+01 5.00000E+00
 -1     21781 4.14545E+01 3.80000E+01 5.00000E+00
 -1     21782 4.00000E+01 3.66667E+01 5.00000E+00
 -1     21783 3.85455E+01 3.53333E+01 5.00000E+00
 -1     21784 3.70909E+01 3.40000E+01 5.00000E+00
 -1     21785 3.56364E+01 3.26667E+01 5.00000E+00
 -1     21786 3.41818E+01 3.13333E+01 5.00000E+00
 -1     21787 3.27273E+01 3.00000E+01 5.00000E+00
 -1     21788 3.12727E+01 2.86667E+01 5.00000E+00
 -1     21789 2.98182E+01 2.73333E+01 5.00000E+00
 -1     21790 2.83636E+01 2.60000E+01 5.00000E+00
 -1     21791 2.69091E+01 2.46667E+01 5.00000E+00
 -1     21792 2.54545E+01 2.33333E+01 5.00000E+00
 -1     21793 2.40000E+01 2.20000E+01 5.00000E+00
 -1     21794 2.25455E+01 2.06667E+01 5.00000E+00
 -1     21795 2.10909E+01 1.93333E+01 5.00000E+00
 -1     21796 1.96364E+01 1.80000E+01 5.00000E+00
 -1     21797 1.81818E+01 1.66667E+01 5.00000E+00
 -1     21798 1.67273E+01 1.53333E+01 5.00000E+00
 -1     21799 1.52727E+01 1.40000E+01 5.00000E+00
 -1     21800 1.38182E+01 1.26667E+01 5.00000E+00
 -1     21801 1.23636E+01 1.13333E+01 5.00000E+00
 -1     21802 1.09091E+01 1.00000E+01 5.00000E+00
 -1     21803 9.45455E+00 8.66667E+00 5.00000E+00
 -1     21804 8.00000E+00 7.33333E+00 5.00000E+00
 -1     21805 6.54545E+00 6.00000E+00 5.00000E+00
 -1     21806 5.09091E+00 4.66667E+00 5.00000E+00
 -1     21807 3.63636E+00 3.33333E+00 5.00000E+00
 -1     21808 2.18182E+00 2.00000E+00 5.00000E+00
 -1     21809 7.27273E-01 6.66667E-01 5.00000E+00
 -1     21810 4.80000E+01 6.00000E+01 8.33333E-01
 -1     21811 4.80000E+01 6.00000E+01 2.50000E+00
 -1     21812 4.80000E+01 6.00000E+01 4.16667E+00
 -1     21813 4.80000E+01 5.90000E+01 0.00000E+00
 -1     21814 4.80000E+01 5.70000E+01 0.00000E+00
 -1     21815 4.80000E+01 5.50000E+01 0.00000E+00
 -1     21816 4.80000E+01 5.30000E+01 0.00000E+00
 -1     21817 4.80000E+01 5.10000E+01 0.00000E+00
 -1     21818 4.80000E+01 4.90000E+01 0.00000E+00
 -1     21819 4.80000E+01 4.70000E+01 0.00000E+00
 -1     21820 4.80000E+01 4.50000E+01 0.00000E+00
 -1     21821 4.80000E+01 5.90000E+01 5.00000E+00
 -1     21822 4.80000E+01 5.70000E+01 5.00000E+00
 -1     21823 4.80000E+01 5.50000E+01 5.00000E+00
 -1     21824 4.80000E+01 5.30000E+01 5.00000E+00
 -1     21825 4.80000E+01 5.10000E+01 5.00000E+00
 -1     21826 4.80000E+01 4.90000E+01 5.00000E+00
 -1     21827 4.80000E+01 4.70000E+01 5.00000E+00
 -1     21828 4.80000E+01 4.50000E+01 5.00000E+00
 -1     21829 0.00000E+00 4.40000E+01 8.33333E-01
 -1     21830 0.00000E+00 4.40000E+01 2.50000E+00
 -1     21831 0.00000E+00 4.40000E+01 4.16667E+00
 -1     21832 9.23077E-01 4.43077E+01 0.00000E+00
 -1     21833 2.76923E+00 4.49231E+01 0.00000E+00
 -1     21834 4.61538E+00 4.55385E+01 0.00000E+00
 -1     21835 6.46154E+00 4.61538E+01 0.00000E+00
 -1     21836 8.30769E+00 4.67692E+01 0.00000E+00
 -1     21837 1.01538E+01 4.73846E+01 0.00000E+00
 -1     21838 1.20000E+01 4.80000E+01 0.00000E+00
 -1     21839 1.38462E+01 4.86154E+01 0.00000E+00
 -1     21840 1.56923E+01 4.92308E+01 0.00000E+00
 -1     21841 1.75385E+01 4.98462E+01 0.00000E+00
 -1     21842 1.93846E+01 5.04615E+01 0.00000E+00
 -1     21843 2.12308E+01 5.10769E+01 0.00000E+00
 -1     21844 2.30769E+01 5.16923E+01 0.00000E+00
 -1     21845 2.49231E+01 5.23077E+01 0.00000E+00
 -1     21846 2.67692E+01 5.29231E+01 0.00000E+00
 -1     21847 2.86154E+01 5.35385E+01 0.00000E+00
 -1     21848 3.04615E+01 5.41538E+01 0.00000E+00
 -1     21849 3.23077E+01 5.47692E+01 0.00000E+00
 -1     21850 3.41538E+01 5.53846E+01 0.00000E+00
 -1     21851 3.60000E+01 5.60000E+01 0.00000E+00
 -1     21852 3.78462E+01 5.66154E+01 0.00000E+00
 -1     21853 3.96923E+01 5.72308E+01 0.00000E+00
 -1     21854 4.15385E+01 5.78462E+01 0.00000E+00
 -1     21855 4.33846E+01 5.84615E+01 0.00000E+00
 -1     21856 4.52308E+01 5.90769E+01 0.00000E+00
 -1     21857 4.70769E+01 5.96923E+01 0.00000E+00
 -1     21858 9.23077E-01 4.43077E+01 5.00000E+00
 -1     21859 2.76923E+00 4.49231E+01 5.00000E+00
 -1     21860 4.61538E+00 4.55385E+01 5.00000E+00
 -1     21861 6.46154E+00 4.61538E+01 5.00000E+00
 -1     21862 8.30769E+00 4.67692E+01 5.00000E+00
 -1     21863 1.01538E+01 4.73846E+01 5.00000E+00
 -1     21864 1.20000E+01 4.80000E+01 5.00000E+00
 -1     21865 1.38462E+01 4.86154E+01 5.00000E+00
 -1     21866 1.56923E+01 4.92308E+01 5.00000E+00
 -1     21867 1.75385E+01 4.98462E+01 5.00000E+00
 -1     21868 1.93846E+01 5.04615E+01 5.00000E+00
 -1     21869 2.12308E+01 5.10769E+01 5.00000E+00
 -1     21870 2.30769E+01 5.16923E+01 5.00000E+00
 -1     21871 2.49231E+01 5.23077E+01 5.00000E+00
 -1     21872 2.67692E+01 5.29231E+01 5.00000E+00
 -1     21873 2.86154E+01 5.35385E+01 5.00000E+00
 -1     21874 3.04615E+01 5.41538E+01 5.00000E+00
 -1     21875 3.23077E+01 5.47692E+01 5.00000E+00
 -1     21876 3.41538E+01 5.53846E+01 5.00000E+00
 -1     21877 3.60000E+01 5.60000E+01 5.00000E+00
 -1     21878 3.78462E+01 5.66154E+01 5.00000E+00
 -1     21879 3.96923E+01 5.72308E+01 5.00000E+00
 -1     21880 4.15385E+01 5.78462E+01 5.00000E+00
 -1     21881 4.33846E+01 5.84615E+01 5.00000E+00
 -1     21882 4.52308E+01 5.90769E+01 5.00000E+00
 -1     21883 4.70769E+01 5.96923E+01 5.00000E+00
 -1     21884 0.00000E+00 1.00000E+00 0.00000E+00
 -1     21885 0.00000E+00 3.00000E+00 0.00000E+00
 -1     21886 0.00000E+00 5.00000E+00 0.00000E+00
 -1     21887 0.00000E+00 7.00000E+00 0.00000E+00
 -1     21888 0.00000E+00 9.00000E+00 0.00000E+00
 -1     21889 0.00000E+00 1.10000E+01 0.00000E+00
 -1     21890 0.00000E+00 1.30000E+01 0.00000E+00
 -1     21891 0.00000E+00 1.50000E+01 0.00000E+00
 -1     21892 0.00000E+00 1.70000E+01 0.00000E+00
 -1     21893 0.00000E+00 1.90000E+01 0.00000E+00
 -1     21894 0.00000E+00 2.10000E+01 0.00000E+00
 -1     21895 0.00000E+00 2.30000E+01 0.00000E+00
 -1     21896 0.00000E+00 2.50000E+01 0.00000E+00
 -1     21897 0.00000E+00 2.70000E+01 0.00000E+00
 -1     21898 0.00000E+00 2.90000E+01 0.00000E+00
 -1     21899 0.00000E+00 3.10000E+01 0.00000E+00
 -1     21900 0.00000E+00 3.30000E+01 0.00000E+00
 -1     21901 0.00000E+00 3.50000E+01 0.00000E+00
 -1     21902 0.00000E+00 3.70000E+01 0.00000E+00
 -1     21903 0.00000E+00 3.90000E+01 0.00000E+00
 -1     21904 0.00000E+00 4.10000E+01 0.00000E+00
 -1     21905 0.00000E+00 4.30000E+01 0.00000E+00
 -1     21906 0.00000E+00 1.00000E+00 5.00000E+00
 -1     21907 0.00000E+00 3.00000E+00 5.00000E+00
 -1     21908 0.00000E+00 5.00000E+00 5.00000E+00
 -1     21909 0.00000E+00 7.00000E+00 5.00000E+00
 -1     21910 0.00000E+00 9.00000E+00 5.00000E+00
 -1     21911 0.00000E+00 1.10000E+01 5.00000E+00
 -1     21912 0.00000E+00 1.30000E+01 5.00000E+00
 -1     21913 0.00000E+00 1.50000E+01 5.00000E+00
 -1     21914 0.00000E+00 1.70000E+01 5.00000E+00
 -1     21915 0.00000E+00 1.90000E+01 5.00000E+00
 -1     21916 0.00000E+00 2.10000E+01 5.00000E+00
 -1     21917 0.00000E+00 2.30000E+01 5.00000E+00
 -1     21918 0.00000E+00 2.50000E+01 5.00000E+00
 -1     21919 0.00000E+00 2.70000E+01 5.00000E+00
 -1     21920 0.00000E+00 2.90000E+01 5.00000E+00
 -1     21921 0.00000E+00 3.10000E+01 5.00000E+00
 -1     21922 0.00000E+00 3.30000E+01 5.00000E+00
 -1     21923 0.00000E+00 3.50000E+01 5.00000E+00
 -1     21924 0.00000E+00 3.70000E+01 5.00000E+00
 -1     21925 0.00000E+00 3.90000E+01 5.00000E+00
 -1     21926 0.00000E+00 4.10000E+01 5.00000E+00
 -1     21927 0.00000E+00 4.30000E+01 5.00000E+00
 -1     21928 4.72727E+01 4.33333E+01 8.33333E-01
 -1     21929 4.74214E+01 4.34696E+01 2.75580E+00
 -1     21930 4.74214E+01 4.34696E+01 1.92246E+00
 -1     21931 4.74885E+01 4.35311E+01 4.37170E+00
 -1     21932 4.74885E+01 4.35311E+01 3.53837E+00
 -1     21933 4.69099E+01 4.30007E+01 2.96083E+00
 -1     21934 4.67612E+01 4.28644E+01 4.37170E+00
 -1     21935 4.38789E+01 4.02223E+01 4.16294E+00
 -1     21936 4.46062E+01 4.08890E+01 4.16294E+00
 -1     21937 4.10880E+01 3.76640E+01 4.34228E+00
 -1     21938 4.18153E+01 3.83307E+01 4.34228E+00
 -1     21939 3.82784E+01 3.50886E+01 4.15410E+00
 -1     21940 3.90057E+01 3.57552E+01 4.15410E+00
 -1     21941 3.51781E+01 3.22466E+01 4.14918E+00
 -1     21942 3.59053E+01 3.29132E+01 4.14918E+00
 -1     21943 3.22451E+01 2.95580E+01 4.17116E+00
 -1     21944 3.29724E+01 3.02247E+01 4.17116E+00
 -1     21945 2.94554E+01 2.70008E+01 4.34346E+00
 -1     21946 3.01827E+01 2.76674E+01 4.34346E+00
 -1     21947 2.66677E+01 2.44454E+01 4.17185E+00
 -1     21948 2.73950E+01 2.51121E+01 4.17185E+00
 -1     21949 2.37583E+01 2.17784E+01 4.16677E+00
 -1     21950 2.44855E+01 2.24451E+01 4.16677E+00
 -1     21951 2.08483E+01 1.91109E+01 4.16662E+00
 -1     21952 2.15756E+01 1.97776E+01 4.16662E+00
 -1     21953 1.79390E+01 1.64441E+01 4.16662E+00
 -1     21954 1.86662E+01 1.71107E+01 4.16662E+00
 -1     21955 1.50298E+01 1.37773E+01 4.16656E+00
 -1     21956 1.57571E+01 1.44440E+01 4.16656E+00
 -1     21957 1.21158E+01 1.11062E+01 4.16361E+00
 -1     21958 1.28431E+01 1.17729E+01 4.16361E+00
 -1     21959 9.10023E+00 8.34188E+00 4.05260E+00
 -1     21960 9.82750E+00 9.00854E+00 4.05260E+00
 -1     21961 6.19714E+00 5.68071E+00 4.26112E+00
 -1     21962 6.92441E+00 6.34738E+00 4.26112E+00
 -1     21963 3.26705E+00 2.99479E+00 3.75390E+00
 -1     21964 3.99432E+00 3.66146E+00 3.75390E+00
 -1     21965 7.27273E-01 6.66667E-01 4.16667E+00
 -1     21966 5.86082E-01 5.37242E-01 2.08369E+00
 -1     21967 5.86082E-01 5.37242E-01 2.91703E+00
 -1     21968 7.27273E-01 6.66667E-01 8.33333E-01
 -1     21969 2.60566E+00 2.38852E+00 8.19498E-01
 -1     21970 1.87839E+00 1.72185E+00 8.19498E-01
 -1     21971 3.99432E+00 3.66146E+00 1.25390E+00
 -1     21972 3.26705E+00 2.99479E+00 1.25390E+00
 -1     21973 7.03678E+00 6.45038E+00 8.96265E-01
 -1     21974 6.30951E+00 5.78372E+00 8.96265E-01
 -1     21975 9.82183E+00 9.00334E+00 6.57953E-01
 -1     21976 9.09455E+00 8.33667E+00 6.57953E-01
 -1     21977 1.26072E+01 1.15566E+01 8.27979E-01
 -1     21978 1.18799E+01 1.08899E+01 8.27979E-01
 -1     21979 1.55147E+01 1.42218E+01 8.33191E-01
 -1     21980 1.47874E+01 1.35552E+01 8.33191E-01
 -1     21981 1.84237E+01 1.68884E+01 8.33233E-01
 -1     21982 1.76965E+01 1.62218E+01 8.33233E-01
 -1     21983 2.13329E+01 1.95552E+01 8.33275E-01
 -1     21984 2.06056E+01 1.88885E+01 8.33275E-01
 -1     21985 2.42431E+01 2.22228E+01 8.33461E-01
 -1     21986 2.35158E+01 2.15561E+01 8.33461E-01
 -1     21987 2.71586E+01 2.48954E+01 8.36509E-01
 -1     21988 2.64313E+01 2.42287E+01 8.36509E-01
 -1     21989 3.01828E+01 2.76676E+01 9.49129E-01
 -1     21990 2.94555E+01 2.70009E+01 9.49129E-01
 -1     21991 3.32079E+01 3.04406E+01 8.35412E-01
 -1     21992 3.24806E+01 2.97739E+01 8.35412E-01
 -1     21993 3.61077E+01 3.30987E+01 8.02408E-01
 -1     21994 3.53804E+01 3.24320E+01 8.02408E-01
 -1     21995 3.88103E+01 3.55761E+01 8.05350E-01
 -1     21996 3.80830E+01 3.49095E+01 8.05350E-01
 -1     21997 4.18151E+01 3.83305E+01 9.48208E-01
 -1     21998 4.10879E+01 3.76639E+01 9.48208E-01
 -1     21999 4.47999E+01 4.10666E+01 8.15255E-01
 -1     22000 4.40727E+01 4.03999E+01 8.15255E-01
 -1     22001 4.66941E+01 4.28030E+01 1.08913E+00
 -1     22002 1.31335E+00 1.20391E+00 3.75036E+00
 -1     22003 1.31335E+00 1.20391E+00 1.25036E+00
 -1     22004 4.31646E+01 3.95676E+01 4.19646E+00
 -1     22005 4.34072E+01 3.97899E+01 3.35940E+00
 -1     22006 4.24374E+01 3.89009E+01 4.19646E+00
 -1     22007 4.04629E+01 3.70910E+01 4.19473E+00
 -1     22008 4.08236E+01 3.74217E+01 3.53701E+00
 -1     22009 3.97356E+01 3.64243E+01 4.19473E+00
 -1     22010 4.53680E+01 4.15873E+01 4.11867E+00
 -1     22011 4.60953E+01 4.22540E+01 4.11867E+00
 -1     22012 4.20709E+01 3.85650E+01 3.53874E+00
 -1     22013 3.94686E+01 3.61795E+01 3.34882E+00
 -1     22014 4.63110E+01 4.24518E+01 3.49037E+00
 -1     22015 3.67291E+01 3.36684E+01 4.05183E+00
 -1     22016 3.74564E+01 3.43350E+01 4.05183E+00
 -1     22017 3.37037E+01 3.08951E+01 4.16415E+00
 -1     22018 3.44310E+01 3.15618E+01 4.16415E+00
 -1     22019 3.08048E+01 2.82377E+01 4.19780E+00
 -1     22020 3.15320E+01 2.89044E+01 4.19780E+00
 -1     22021 2.81069E+01 2.57647E+01 4.19786E+00
 -1     22022 2.88342E+01 2.64313E+01 4.19786E+00
 -1     22023 2.52136E+01 2.31125E+01 4.16750E+00
 -1     22024 2.59409E+01 2.37792E+01 4.16750E+00
 -1     22025 2.23032E+01 2.04446E+01 4.16666E+00
 -1     22026 2.30305E+01 2.11113E+01 4.16666E+00
 -1     22027 1.93937E+01 1.77775E+01 4.16664E+00
 -1     22028 2.01210E+01 1.84442E+01 4.16664E+00
 -1     22029 1.64843E+01 1.51107E+01 4.16657E+00
 -1     22030 1.72116E+01 1.57773E+01 4.16657E+00
 -1     22031 1.35742E+01 1.24430E+01 4.16610E+00
 -1     22032 1.43015E+01 1.31097E+01 4.16610E+00
 -1     22033 1.06439E+01 9.75690E+00 4.14895E+00
 -1     22034 1.13712E+01 1.04236E+01 4.14895E+00
 -1     22035 7.57898E+00 6.94740E+00 4.17064E+00
 -1     22036 8.30625E+00 7.61406E+00 4.17064E+00
 -1     22037 4.44534E+00 4.07490E+00 2.52674E+00
 -1     22038 4.81466E+00 4.41344E+00 3.77284E+00
 -1     22039 5.54193E+00 5.08010E+00 3.77284E+00
 -1     22040 4.81466E+00 4.41344E+00 1.27284E+00
 -1     22041 2.78655E+01 2.55434E+01 3.36971E+00
 -1     22042 1.87824E+00 1.72172E+00 4.18259E+00
 -1     22043 2.60552E+00 2.38839E+00 4.18259E+00
 -1     22044 1.73720E+00 1.59243E+00 2.06986E+00
 -1     22045 6.03326E+00 5.53049E+00 2.16910E+00
 -1     22046 5.54193E+00 5.08010E+00 1.27284E+00
 -1     22047 8.47653E+00 7.77016E+00 8.13267E-01
 -1     22048 7.74926E+00 7.10349E+00 8.13267E-01
 -1     22049 1.11696E+01 1.02388E+01 8.01623E-01
 -1     22050 1.04423E+01 9.57215E+00 8.01623E-01
 -1     22051 1.40601E+01 1.28884E+01 8.32493E-01
 -1     22052 1.33328E+01 1.22217E+01 8.32493E-01
 -1     22053 1.69692E+01 1.55551E+01 8.33248E-01
 -1     22054 1.62420E+01 1.48885E+01 8.33248E-01
 -1     22055 1.98784E+01 1.82219E+01 8.33278E-01
 -1     22056 1.91511E+01 1.75552E+01 8.33278E-01
 -1     22057 2.27879E+01 2.08889E+01 8.33369E-01
 -1     22058 2.20606E+01 2.02222E+01 8.33369E-01
 -1     22059 2.56991E+01 2.35575E+01 8.33949E-01
 -1     22060 2.49718E+01 2.28909E+01 8.33949E-01
 -1     22061 2.86323E+01 2.62462E+01 8.50981E-01
 -1     22062 2.79050E+01 2.55796E+01 8.50981E-01
 -1     22063 3.17338E+01 2.90893E+01 8.50743E-01
 -1     22064 3.10065E+01 2.84226E+01 8.50743E-01
 -1     22065 3.46667E+01 3.17778E+01 8.28471E-01
 -1     22066 3.39394E+01 3.11111E+01 8.28471E-01
 -1     22067 3.74574E+01 3.43360E+01 6.57714E-01
 -1     22068 3.67301E+01 3.36693E+01 6.57714E-01
 -1     22069 4.02676E+01 3.69119E+01 8.45897E-01
 -1     22070 3.95403E+01 3.62453E+01 8.45897E-01
 -1     22071 4.33576E+01 3.97444E+01 8.47635E-01
 -1     22072 4.26303E+01 3.90778E+01 8.47635E-01
 -1     22073 4.61411E+01 4.22960E+01 7.10832E-01
 -1     22074 4.54138E+01 4.16293E+01 7.10832E-01
 -1     22075 2.49719E+01 2.28909E+01 3.33427E+00
 -1     22076 3.79166E+01 3.47569E+01 3.20592E+00
 -1     22077 3.47000E+01 3.18083E+01 3.31333E+00
 -1     22078 3.17771E+01 2.91290E+01 3.36896E+00
 -1     22079 2.91987E+01 2.67655E+01 3.54132E+00
 -1     22080 2.64268E+01 2.42245E+01 3.33935E+00
 -1     22081 2.35160E+01 2.15564E+01 3.33343E+00
 -1     22082 2.06056E+01 1.88885E+01 3.33326E+00
 -1     22083 1.76960E+01 1.62214E+01 3.33320E+00
 -1     22084 1.47858E+01 1.35537E+01 3.33266E+00
 -1     22085 1.18506E+01 1.08631E+01 3.31255E+00
 -1     22086 8.67921E+00 7.95594E+00 3.22324E+00
 -1     22087 2.96347E+00 2.71652E+00 2.93650E+00
 -1     22088 7.51332E+00 6.88721E+00 1.70953E+00
 -1     22089 1.00824E+01 9.24216E+00 1.45958E+00
 -1     22090 1.28491E+01 1.17783E+01 1.66047E+00
 -1     22091 1.57567E+01 1.44436E+01 1.66644E+00
 -1     22092 1.86658E+01 1.71103E+01 1.66651E+00
 -1     22093 2.15753E+01 1.97774E+01 1.66664E+00
 -1     22094 2.44876E+01 2.24470E+01 1.66741E+00
 -1     22095 2.74272E+01 2.51416E+01 1.68749E+00
 -1     22096 3.06439E+01 2.80902E+01 1.79987E+00
 -1     22097 3.36928E+01 3.08851E+01 1.66388E+00
 -1     22098 3.64742E+01 3.34346E+01 1.46012E+00
 -1     22099 3.90779E+01 3.58214E+01 1.65125E+00
 -1     22100 4.22636E+01 3.87416E+01 1.79584E+00
 -1     22101 4.51228E+01 4.13626E+01 1.52609E+00
 -1     22102 2.20606E+01 2.02222E+01 3.33328E+00
 -1     22103 1.91508E+01 1.75549E+01 3.33326E+00
 -1     22104 1.62414E+01 1.48880E+01 3.33313E+00
 -1     22105 1.33264E+01 1.22159E+01 3.32971E+00
 -1     22106 1.02896E+01 9.43211E+00 3.20155E+00
 -1     22107 7.23066E+00 6.62811E+00 3.43175E+00
 -1     22108 2.30309E+01 2.11117E+01 1.66683E+00
 -1     22109 2.59486E+01 2.37863E+01 1.67046E+00
 -1     22110 2.89969E+01 2.65805E+01 1.80011E+00
 -1     22111 3.22144E+01 2.95299E+01 1.68616E+00
 -1     22112 3.51380E+01 3.22098E+01 1.63088E+00
 -1     22113 3.77223E+01 3.45788E+01 1.46306E+00
 -1     22114 4.06281E+01 3.72425E+01 1.79410E+00
 -1     22115 4.37939E+01 4.01444E+01 1.66289E+00
 -1     22116 4.62898E+01 4.24323E+01 1.79996E+00
 -1     22117 4.48833E+01 4.11430E+01 3.28161E+00
 -1     22118 3.04420E+01 2.79051E+01 3.54126E+00
 -1     22119 3.32216E+01 3.04531E+01 3.33531E+00
 -1     22120 3.62708E+01 3.32482E+01 3.20101E+00
 -1     22121 2.01204E+01 1.84437E+01 1.66655E+00
 -1     22122 1.72112E+01 1.57769E+01 1.66648E+00
 -1     22123 8.84382E+00 8.10683E+00 1.47122E+00
 -1     22124 1.43021E+01 1.31102E+01 1.66568E+00
 -1     22125 1.14132E+01 1.04621E+01 1.62960E+00
 -1     22126 4.62439E+01 4.23903E+01 2.70780E+00
 -1     22127 2.98200E+01 2.73350E+01 2.79259E+00
 -1     22128 3.04421E+01 2.79053E+01 2.64693E+00
 -1     22129 4.14486E+01 3.79946E+01 2.79049E+00
 -1     22130 4.20707E+01 3.85648E+01 2.64466E+00
 -1     22131 4.08235E+01 3.74215E+01 2.64294E+00
 -1     22132 2.03629E+01 1.86660E+01 2.49991E+00
 -1     22133 1.96357E+01 1.79994E+01 2.49992E+00
 -1     22134 3.12658E+01 2.86603E+01 2.54855E+00
 -1     22135 3.19789E+01 2.93140E+01 2.52190E+00
 -1     22136 3.56493E+01 3.26786E+01 2.45159E+00
 -1     22137 3.64731E+01 3.34337E+01 2.35423E+00
 -1     22138 2.91988E+01 2.67656E+01 2.64699E+00
 -1     22139 3.27257E+01 2.99986E+01 2.50657E+00
 -1     22140 3.34571E+01 3.06690E+01 2.49956E+00
 -1     22141 2.61904E+01 2.40079E+01 2.50400E+00
 -1     22142 2.54582E+01 2.33367E+01 2.50145E+00
 -1     22143 8.05551E+00 7.38422E+00 2.48390E+00
 -1     22144 7.34303E+00 6.73111E+00 2.56690E+00
 -1     22145 2.32736E+01 2.13341E+01 2.50012E+00
 -1     22146 2.40013E+01 2.20012E+01 2.50023E+00
 -1     22147 3.77213E+01 3.45778E+01 2.35718E+00
 -1     22148 3.85433E+01 3.53314E+01 2.45945E+00
 -1     22149 2.10903E+01 1.93327E+01 2.49989E+00
 -1     22150 1.89083E+01 1.73326E+01 2.49990E+00
 -1     22151 1.74535E+01 1.59991E+01 2.49981E+00
 -1     22152 1.81809E+01 1.66658E+01 2.49986E+00
 -1     22153 1.59990E+01 1.46658E+01 2.49981E+00
 -1     22154 1.52718E+01 1.39991E+01 2.49975E+00
 -1     22155 1.45435E+01 1.33315E+01 2.49929E+00
 -1     22156 1.30850E+01 1.19946E+01 2.49610E+00
 -1     22157 1.38161E+01 1.26648E+01 2.49860E+00
 -1     22158 1.16147E+01 1.06468E+01 2.47692E+00
 -1     22159 1.09044E+01 9.99572E+00 2.45057E+00
 -1     22160 1.00880E+01 9.24736E+00 2.35423E+00
 -1     22161 8.84949E+00 8.11203E+00 2.36587E+00
 -1     22162 6.68846E+00 6.13109E+00 2.65738E+00
 -1     22163 2.25456E+01 2.06668E+01 2.50003E+00
 -1     22164 5.92089E+00 5.42748E+00 3.03396E+00
 -1     22165 2.47301E+01 2.26693E+01 2.50072E+00
 -1     22166 1.73705E+00 1.59230E+00 2.93295E+00
 -1     22167 2.30209E+00 2.11024E+00 2.50209E+00
 -1     22168 4.28858E+01 3.93120E+01 2.54409E+00
 -1     22169 4.36001E+01 3.99668E+01 2.51058E+00
 -1     22170 3.92733E+01 3.60005E+01 2.49999E+00
 -1     22171 2.96362E+00 2.71665E+00 2.07340E+00
 -1     22172 3.41886E+01 3.13395E+01 2.49262E+00
 -1     22173 3.49356E+01 3.20243E+01 2.47765E+00
 -1     22174 4.56909E+01 4.18833E+01 2.32950E+00
 -1     22175 2.18180E+01 1.99998E+01 2.49999E+00
 -1     22176 2.69172E+01 2.46741E+01 2.50836E+00
 -1     22177 2.76636E+01 2.53583E+01 2.52283E+00
 -1     22178 2.83755E+01 2.60109E+01 2.54884E+00
 -1     22179 4.43152E+01 4.06223E+01 2.47820E+00
 -1     22180 4.50770E+01 4.13206E+01 2.43392E+00
 -1     22181 4.00032E+01 3.66696E+01 2.54062E+00
 -1     22182 9.46751E+00 8.67855E+00 2.21056E+00
 -1     22183 3.70956E+01 3.40043E+01 2.20954E+00
 -1     22184 1.67263E+01 1.53325E+01 2.49982E+00
 -1     22185 1.23594E+01 1.13295E+01 2.49159E+00
 -1     22186 4.80000E+01 5.90000E+01 8.33333E-01
 -1     22187 4.80000E+01 5.92014E+01 2.78025E+00
 -1     22188 4.80000E+01 5.92014E+01 1.94692E+00
 -1     22189 4.80000E+01 5.93415E+01 4.39706E+00
 -1     22190 4.80000E+01 5.93415E+01 3.56373E+00
 -1     22191 4.80000E+01 5.85429E+01 3.01065E+00
 -1     22192 4.80000E+01 5.83415E+01 4.39706E+00
 -1     22193 4.80000E+01 5.45568E+01 4.15022E+00
 -1     22194 4.80000E+01 5.55568E+01 4.15022E+00
 -1     22195 4.80000E+01 5.03717E+01 3.81041E+00
 -1     22196 4.80000E+01 5.13717E+01 3.81041E+00
 -1     22197 4.80000E+01 4.66174E+01 4.18239E+00
 -1     22198 4.80000E+01 4.76174E+01 4.18239E+00
 -1     22199 4.80000E+01 4.47190E+01 4.13728E+00
 -1     22200 4.80000E+01 4.57190E+01 4.13728E+00
 -1     22201 4.80000E+01 4.63363E+01 3.31967E+00
 -1     22202 4.80000E+01 4.47190E+01 3.30395E+00
 -1     22203 4.80000E+01 4.47190E+01 2.47062E+00
 -1     22204 4.80000E+01 4.50000E+01 8.33333E-01
 -1     22205 4.80000E+01 4.52583E+01 1.66836E+00
 -1     22206 4.80000E+01 4.59773E+01 2.47231E+00
 -1     22207 4.80000E+01 4.62583E+01 8.35023E-01
 -1     22208 4.80000E+01 4.72583E+01 8.35023E-01
 -1     22209 4.80000E+01 4.93082E+01 9.02197E-01
 -1     22210 4.80000E+01 4.83082E+01 9.02197E-01
 -1     22211 4.80000E+01 5.13717E+01 1.31041E+00
 -1     22212 4.80000E+01 5.03717E+01 1.31041E+00
 -1     22213 4.80000E+01 5.51776E+01 7.83601E-01
 -1     22214 4.80000E+01 5.41776E+01 7.83601E-01
 -1     22215 4.80000E+01 5.82014E+01 1.11358E+00
 -1     22216 4.80000E+01 5.34888E+01 3.98622E+00
 -1     22217 4.80000E+01 5.40455E+01 3.13644E+00
 -1     22218 4.80000E+01 5.24888E+01 3.98622E+00
 -1     22219 4.80000E+01 4.94833E+01 4.27034E+00
 -1     22220 4.80000E+01 4.98550E+01 3.08075E+00
 -1     22221 4.80000E+01 4.84833E+01 4.27034E+00
 -1     22222 4.80000E+01 5.65237E+01 4.24619E+00
 -1     22223 4.80000E+01 5.75237E+01 4.24619E+00
 -1     22224 4.80000E+01 5.18604E+01 2.79663E+00
 -1     22225 4.80000E+01 4.81007E+01 3.45272E+00
 -1     22226 4.80000E+01 5.78652E+01 3.64326E+00
 -1     22227 4.80000E+01 5.24888E+01 1.48622E+00
 -1     22228 4.80000E+01 4.75665E+01 1.73722E+00
 -1     22229 4.80000E+01 5.31776E+01 7.83601E-01
 -1     22230 4.80000E+01 5.72481E+01 8.76243E-01
 -1     22231 4.80000E+01 5.62481E+01 8.76243E-01
 -1     22232 4.80000E+01 5.54257E+01 1.65984E+00
 -1     22233 4.80000E+01 5.60804E+01 3.39641E+00
 -1     22234 4.80000E+01 5.74495E+01 1.98983E+00
 -1     22235 4.80000E+01 5.77250E+01 2.85978E+00
 -1     22236 4.80000E+01 5.67717E+01 2.62244E+00
 -1     22237 4.80000E+01 4.68756E+01 2.51741E+00
 -1     22238 4.80000E+01 5.58048E+01 2.52646E+00
 -1     22239 4.80000E+01 5.36664E+01 2.26982E+00
 -1     22240 4.80000E+01 4.96799E+01 2.21261E+00
 -1     22241 4.80000E+01 4.87915E+01 2.67253E+00
 -1     22242 4.80000E+01 5.47344E+01 2.43382E+00
 -1     22243 4.80000E+01 4.79255E+01 2.58458E+00
 -1     22244 9.23077E-01 4.43077E+01 8.33333E-01
 -1     22245 7.20380E-01 4.42401E+01 2.76140E+00
 -1     22246 7.20380E-01 4.42401E+01 1.92807E+00
 -1     22247 6.39466E-01 4.42132E+01 4.37536E+00
 -1     22248 6.39466E-01 4.42132E+01 3.54203E+00
 -1     22249 1.35985E+00 4.44533E+01 2.97010E+00
 -1     22250 1.56254E+00 4.45208E+01 4.37536E+00
 -1     22251 5.23027E+00 4.57434E+01 4.16308E+00
 -1     22252 4.30719E+00 4.54357E+01 4.16308E+00
 -1     22253 8.78085E+00 4.69270E+01 4.33942E+00
 -1     22254 7.85778E+00 4.66193E+01 4.33942E+00
 -1     22255 1.24603E+01 4.81534E+01 4.05345E+00
 -1     22256 1.15372E+01 4.78457E+01 4.05345E+00
 -1     22257 1.62984E+01 4.94328E+01 4.16337E+00
 -1     22258 1.53753E+01 4.91251E+01 4.16337E+00
 -1     22259 1.99986E+01 5.06662E+01 4.17221E+00
 -1     22260 1.90756E+01 5.03585E+01 4.17221E+00
 -1     22261 2.35381E+01 5.18460E+01 4.34570E+00
 -1     22262 2.26150E+01 5.15383E+01 4.34570E+00
 -1     22263 2.70765E+01 5.30255E+01 4.17231E+00
 -1     22264 2.61534E+01 5.27178E+01 4.17231E+00
 -1     22265 3.07678E+01 5.42559E+01 4.16671E+00
 -1     22266 2.98447E+01 5.39482E+01 4.16671E+00
 -1     22267 3.44574E+01 5.54858E+01 4.16424E+00
 -1     22268 3.35343E+01 5.51781E+01 4.16424E+00
 -1     22269 3.81518E+01 5.67173E+01 4.09676E+00
 -1     22270 3.72287E+01 5.64096E+01 4.09676E+00
 -1     22271 4.20882E+01 5.80294E+01 3.77024E+00
 -1     22272 4.11651E+01 5.77217E+01 3.77024E+00
 -1     22273 4.55718E+01 5.91906E+01 4.18342E+00
 -1     22274 4.46487E+01 5.88829E+01 4.18342E+00
 -1     22275 4.73183E+01 5.97728E+01 4.14789E+00
 -1     22276 4.63952E+01 5.94651E+01 4.14789E+00
 -1     22277 4.58131E+01 5.92710E+01 3.33131E+00
 -1     22278 4.73183E+01 5.97728E+01 3.31456E+00
 -1     22279 4.73183E+01 5.97728E+01 2.48123E+00
 -1     22280 4.70769E+01 5.96923E+01 8.33333E-01
 -1     22281 4.68147E+01 5.96049E+01 1.67004E+00
 -1     22282 4.61330E+01 5.93777E+01 2.48460E+00
 -1     22283 4.58916E+01 5.92972E+01 8.36702E-01
 -1     22284 4.49686E+01 5.89895E+01 8.36702E-01
 -1     22285 4.30875E+01 5.83625E+01 8.98120E-01
 -1     22286 4.40105E+01 5.86702E+01 8.98120E-01
 -1     22287 4.11651E+01 5.77217E+01 1.27024E+00
 -1     22288 4.20882E+01 5.80294E+01 1.27024E+00
 -1     22289 3.73814E+01 5.64605E+01 7.33792E-01
 -1     22290 3.83045E+01 5.67682E+01 7.33792E-01
 -1     22291 3.38329E+01 5.52776E+01 8.27896E-01
 -1     22292 3.47560E+01 5.55853E+01 8.27896E-01
 -1     22293 3.01518E+01 5.40506E+01 8.33196E-01
 -1     22294 3.10749E+01 5.43583E+01 8.33196E-01
 -1     22295 2.64527E+01 5.28176E+01 8.36642E-01
 -1     22296 2.73758E+01 5.31253E+01 8.36642E-01
 -1     22297 2.26148E+01 5.15383E+01 9.52284E-01
 -1     22298 2.35378E+01 5.18459E+01 9.52284E-01
 -1     22299 1.87761E+01 5.02587E+01 8.36502E-01
 -1     22300 1.96991E+01 5.05664E+01 8.36502E-01
 -1     22301 1.50753E+01 4.90251E+01 8.27923E-01
 -1     22302 1.59984E+01 4.93328E+01 8.27923E-01
 -1     22303 1.15280E+01 4.78427E+01 6.60541E-01
 -1     22304 1.24511E+01 4.81504E+01 6.60541E-01
 -1     22305 7.85037E+00 4.66168E+01 9.46683E-01
 -1     22306 8.77345E+00 4.69245E+01 9.46683E-01
 -1     22307 4.06085E+00 4.53536E+01 8.15416E-01
 -1     22308 4.98393E+00 4.56613E+01 8.15416E-01
 -1     22309 1.64346E+00 4.45478E+01 1.09474E+00
 -1     22310 6.13930E+00 4.60464E+01 4.19680E+00
 -1     22311 5.83110E+00 4.59437E+01 3.35987E+00
 -1     22312 7.06237E+00 4.63541E+01 4.19680E+00
 -1     22313 9.59221E+00 4.71974E+01 4.18009E+00
 -1     22314 9.14229E+00 4.70474E+01 3.51951E+00
 -1     22315 1.05153E+01 4.75051E+01 4.18009E+00
 -1     22316 3.33630E+00 4.51121E+01 4.11876E+00
 -1     22317 2.41322E+00 4.48044E+01 4.11876E+00
 -1     22318 7.53554E+00 4.65118E+01 3.53621E+00
 -1     22319 1.09756E+01 4.76585E+01 3.23354E+00
 -1     22320 2.12961E+00 4.47099E+01 3.49412E+00
 -1     22321 1.44277E+01 4.88092E+01 4.14864E+00
 -1     22322 1.35047E+01 4.85016E+01 4.14864E+00
 -1     22323 1.81516E+01 5.00505E+01 4.16681E+00
 -1     22324 1.72285E+01 4.97428E+01 4.16681E+00
 -1     22325 2.18254E+01 5.12751E+01 4.19965E+00
 -1     22326 2.09023E+01 5.09674E+01 4.19965E+00
 -1     22327 2.52504E+01 5.24168E+01 4.19942E+00
 -1     22328 2.43273E+01 5.21091E+01 4.19942E+00
 -1     22329 2.89214E+01 5.36405E+01 4.16751E+00
 -1     22330 2.79983E+01 5.33328E+01 4.16751E+00
 -1     22331 3.26136E+01 5.48712E+01 4.16627E+00
 -1     22332 3.16905E+01 5.45635E+01 4.16627E+00
 -1     22333 3.62998E+01 5.60999E+01 4.15352E+00
 -1     22334 3.53768E+01 5.57923E+01 4.15352E+00
 -1     22335 4.06167E+01 5.75389E+01 2.49726E+00
 -1     22336 4.00670E+01 5.73557E+01 3.72702E+00
 -1     22337 3.91440E+01 5.70480E+01 3.72702E+00
 -1     22338 4.00670E+01 5.73557E+01 1.22702E+00
 -1     22339 4.38479E+01 5.86160E+01 4.26322E+00
 -1     22340 4.29249E+01 5.83083E+01 4.26322E+00
 -1     22341 2.92278E+01 5.37426E+01 8.33918E-01
 -1     22342 2.98412E+01 5.39471E+01 1.66711E+00
 -1     22343 2.83047E+01 5.34349E+01 8.33918E-01
 -1     22344 4.25515E+01 5.81838E+01 3.03346E+00
 -1     22345 4.46714E+01 5.88905E+01 1.73482E+00
 -1     22346 3.65700E+01 5.61900E+01 8.08857E-01
 -1     22347 3.70283E+01 5.63428E+01 1.54265E+00
 -1     22348 3.56469E+01 5.58823E+01 8.08857E-01
 -1     22349 3.86792E+01 5.68931E+01 1.96081E+00
 -1     22350 3.91440E+01 5.70480E+01 1.22702E+00
 -1     22351 3.53260E+01 5.57753E+01 1.63675E+00
 -1     22352 3.19959E+01 5.46653E+01 8.32185E-01
 -1     22353 3.29190E+01 5.49730E+01 8.32185E-01
 -1     22354 2.79882E+01 5.33294E+01 1.67056E+00
 -1     22355 2.45823E+01 5.21941E+01 8.52151E-01
 -1     22356 2.55054E+01 5.25018E+01 8.52151E-01
 -1     22357 2.06472E+01 5.08824E+01 8.52157E-01
 -1     22358 2.15703E+01 5.11901E+01 8.52157E-01
 -1     22359 1.69227E+01 4.96409E+01 8.32874E-01
 -1     22360 1.78457E+01 4.99486E+01 8.32874E-01
 -1     22361 1.32471E+01 4.84157E+01 8.01983E-01
 -1     22362 1.41702E+01 4.87234E+01 8.01983E-01
 -1     22363 9.79363E+00 4.72645E+01 8.20239E-01
 -1     22364 1.07167E+01 4.75722E+01 8.20239E-01
 -1     22365 5.89325E+00 4.59644E+01 8.48155E-01
 -1     22366 6.81633E+00 4.62721E+01 8.48155E-01
 -1     22367 2.35485E+00 4.47850E+01 7.11917E-01
 -1     22368 3.27793E+00 4.50926E+01 7.11917E-01
 -1     22369 1.30419E+01 4.83473E+01 3.20209E+00
 -1     22370 1.69115E+01 4.96372E+01 3.33017E+00
 -1     22371 2.05933E+01 5.08644E+01 3.37186E+00
 -1     22372 2.38654E+01 5.19551E+01 3.54511E+00
 -1     22373 2.73824E+01 5.31275E+01 3.33982E+00
 -1     22374 3.10737E+01 5.43579E+01 3.33298E+00
 -1     22375 3.47572E+01 5.55857E+01 3.31776E+00
 -1     22376 3.35212E+01 5.51737E+01 1.66008E+00
 -1     22377 2.61119E+01 5.27040E+01 1.68879E+00
 -1     22378 2.20312E+01 5.13437E+01 1.80444E+00
 -1     22379 1.81602E+01 5.00534E+01 1.66938E+00
 -1     22380 1.44763E+01 4.88254E+01 1.62991E+00
 -1     22381 1.11678E+01 4.77226E+01 1.48078E+00
 -1     22382 7.28209E+00 4.64274E+01 1.79484E+00
 -1     22383 3.64648E+00 4.52155E+01 1.52733E+00
 -1     22384 2.55576E+01 5.25192E+01 3.37173E+00
 -1     22385 2.92276E+01 5.37425E+01 3.33422E+00
 -1     22386 3.29171E+01 5.49724E+01 3.33051E+00
 -1     22387 3.66054E+01 5.62018E+01 3.25027E+00
 -1     22388 2.15216E+00 4.47174E+01 1.80665E+00
 -1     22389 3.95118E+00 4.53171E+01 3.28184E+00
 -1     22390 2.22865E+01 5.14288E+01 3.54535E+00
 -1     22391 1.87656E+01 5.02552E+01 3.33902E+00
 -1     22392 1.50338E+01 4.90113E+01 3.31201E+00
 -1     22393 4.41889E+01 5.87296E+01 3.44664E+00
 -1     22394 5.33872E+00 4.57796E+01 1.66357E+00
 -1     22395 9.33631E+00 4.71121E+01 1.76692E+00
 -1     22396 1.27751E+01 4.82584E+01 1.46252E+00
 -1     22397 1.63057E+01 4.94352E+01 1.66080E+00
 -1     22398 3.16862E+01 5.45621E+01 1.66538E+00
 -1     22399 2.00386E+01 5.06795E+01 1.68866E+00
 -1     22400 2.41201E+01 5.20400E+01 1.80443E+00
 -1     22401 2.21053E+00 4.47368E+01 2.71350E+00
 -1     22402 2.30759E+01 5.16920E+01 2.79798E+00
 -1     22403 2.22863E+01 5.14288E+01 2.65193E+00
 -1     22404 8.32353E+00 4.67745E+01 2.78610E+00
 -1     22405 7.52813E+00 4.65094E+01 2.64348E+00
 -1     22406 9.13488E+00 4.70450E+01 2.62677E+00
 -1     22407 2.12418E+01 5.10806E+01 2.55181E+00
 -1     22408 2.03381E+01 5.07794E+01 2.52437E+00
 -1     22409 1.56814E+01 4.92271E+01 2.49129E+00
 -1     22410 1.47338E+01 4.89113E+01 2.47656E+00
 -1     22411 2.38652E+01 5.19551E+01 2.65170E+00
 -1     22412 1.93901E+01 5.04634E+01 2.50871E+00
 -1     22413 1.84661E+01 5.01554E+01 2.50331E+00
 -1     22414 2.76817E+01 5.32272E+01 2.50415E+00
 -1     22415 2.67599E+01 5.29200E+01 2.50895E+00
 -1     22416 2.95341E+01 5.38447E+01 2.50063E+00
 -1     22417 3.04581E+01 5.41527E+01 2.49991E+00
 -1     22418 3.13808E+01 5.44603E+01 2.49947E+00
 -1     22419 3.32225E+01 5.50742E+01 2.49643E+00
 -1     22420 3.41365E+01 5.53788E+01 2.49214E+00
 -1     22421 3.50559E+01 5.56853E+01 2.48141E+00
 -1     22422 3.68756E+01 5.62919E+01 2.40561E+00
 -1     22423 3.59468E+01 5.59823E+01 2.46238E+00
 -1     22424 2.92192E+00 4.49740E+01 2.33068E+00
 -1     22425 3.85265E+01 5.68422E+01 2.82378E+00
 -1     22426 4.67574E+00 4.55586E+01 2.47849E+00
 -1     22427 5.58506E+00 4.58617E+01 2.51123E+00
 -1     22428 4.53096E+01 5.91032E+01 2.52012E+00
 -1     22429 2.58126E+01 5.26042E+01 2.52446E+00
 -1     22430 3.76870E+01 5.65623E+01 2.33055E+00
 -1     22431 4.27141E+01 5.82380E+01 2.16836E+00
 -1     22432 1.75358E+01 4.98453E+01 2.49968E+00
 -1     22433 1.66056E+01 4.95352E+01 2.49624E+00
 -1     22434 4.35508E+01 5.85169E+01 2.66134E+00
 -1     22435 2.49096E+01 5.23032E+01 2.55157E+00
 -1     22436 1.38287E+01 4.86096E+01 2.45062E+00
 -1     22437 1.11770E+01 4.77257E+01 2.37369E+00
 -1     22438 1.19883E+01 4.79961E+01 2.21399E+00
 -1     22439 6.49409E+00 4.61647E+01 2.54495E+00
 -1     22440 1.27844E+01 4.82615E+01 2.35544E+00
 -1     22441 3.70485E+00 4.52349E+01 2.43418E+00
 -1     22442 1.01551E+01 4.73850E+01 2.50033E+00
 -1     22443 4.43515E+01 5.87838E+01 2.58154E+00
 -1     22444 2.86107E+01 5.35369E+01 2.50143E+00
 -1     22445 3.23018E+01 5.47673E+01 2.49846E+00
 -1     22446 0.00000E+00 1.00000E+00 8.33333E-01
 -1     22447 0.00000E+00 7.95901E-01 2.78923E+00
 -1     22448 0.00000E+00 7.95901E-01 1.95590E+00
 -1     22449 0.00000E+00 6.53265E-01 4.40563E+00
 -1     22450 0.00000E+00 6.53265E-01 3.57229E+00
 -1     22451 0.00000E+00 1.44917E+00 3.02819E+00
 -1     22452 0.00000E+00 1.65326E+00 4.40563E+00
 -1     22453 0.00000E+00 5.37705E+00 4.18924E+00
 -1     22454 0.00000E+00 4.37705E+00 4.18924E+00
 -1     22455 0.00000E+00 9.37189E+00 4.15098E+00
 -1     22456 0.00000E+00 8.37189E+00 4.15098E+00
 -1     22457 0.00000E+00 1.36325E+01 4.15003E+00
 -1     22458 0.00000E+00 1.26325E+01 4.15003E+00
 -1     22459 0.00000E+00 1.76636E+01 4.16623E+00
 -1     22460 0.00000E+00 1.66636E+01 4.16623E+00
 -1     22461 0.00000E+00 2.16660E+01 4.16662E+00
 -1     22462 0.00000E+00 2.06660E+01 4.16662E+00
 -1     22463 0.00000E+00 2.56662E+01 4.16733E+00
 -1     22464 0.00000E+00 2.46662E+01 4.16733E+00
 -1     22465 0.00000E+00 2.96379E+01 4.19582E+00
 -1     22466 0.00000E+00 2.86379E+01 4.19582E+00
 -1     22467 0.00000E+00 3.33511E+01 4.13423E+00
 -1     22468 0.00000E+00 3.23511E+01 4.13423E+00
 -1     22469 0.00000E+00 3.75964E+01 3.76939E+00
 -1     22470 0.00000E+00 3.65964E+01 3.76939E+00
 -1     22471 0.00000E+00 4.13687E+01 4.18189E+00
 -1     22472 0.00000E+00 4.03687E+01 4.18189E+00
 -1     22473 0.00000E+00 4.32634E+01 4.14448E+00
 -1     22474 0.00000E+00 4.22634E+01 4.14448E+00
 -1     22475 0.00000E+00 4.16320E+01 3.32637E+00
 -1     22476 0.00000E+00 4.32634E+01 3.31115E+00
 -1     22477 0.00000E+00 4.32634E+01 2.47781E+00
 -1     22478 0.00000E+00 4.30000E+01 8.33333E-01
 -1     22479 0.00000E+00 4.27142E+01 1.66817E+00
 -1     22480 0.00000E+00 4.19775E+01 2.47931E+00
 -1     22481 0.00000E+00 4.17142E+01 8.34835E-01
 -1     22482 0.00000E+00 4.07142E+01 8.34835E-01
 -1     22483 0.00000E+00 3.86774E+01 8.95008E-01
 -1     22484 0.00000E+00 3.96774E+01 8.95008E-01
 -1     22485 0.00000E+00 3.65964E+01 1.26939E+00
 -1     22486 0.00000E+00 3.75964E+01 1.26939E+00
 -1     22487 0.00000E+00 3.24553E+01 7.63310E-01
 -1     22488 0.00000E+00 3.34553E+01 7.63310E-01
 -1     22489 0.00000E+00 2.83574E+01 8.48910E-01
 -1     22490 0.00000E+00 2.93574E+01 8.48910E-01
 -1     22491 0.00000E+00 2.43339E+01 8.33635E-01
 -1     22492 0.00000E+00 2.53339E+01 8.33635E-01
 -1     22493 0.00000E+00 2.03324E+01 8.33293E-01
 -1     22494 0.00000E+00 2.13324E+01 8.33293E-01
 -1     22495 0.00000E+00 1.63315E+01 8.32664E-01
 -1     22496 0.00000E+00 1.73315E+01 8.32664E-01
 -1     22497 0.00000E+00 1.23541E+01 8.03257E-01
 -1     22498 0.00000E+00 1.33541E+01 8.03257E-01
 -1     22499 0.00000E+00 8.64839E+00 8.03524E-01
 -1     22500 0.00000E+00 9.64839E+00 8.03524E-01
 -1     22501 0.00000E+00 4.68689E+00 8.44416E-01
 -1     22502 0.00000E+00 5.68689E+00 8.44416E-01
 -1     22503 0.00000E+00 1.79590E+00 1.12257E+00
 -1     22504 0.00000E+00 6.35559E+00 4.16913E+00
 -1     22505 0.00000E+00 5.73264E+00 3.35837E+00
 -1     22506 0.00000E+00 7.35559E+00 4.16913E+00
 -1     22507 0.00000E+00 1.05008E+01 4.05334E+00
 -1     22508 0.00000E+00 9.87269E+00 3.20433E+00
 -1     22509 0.00000E+00 1.15008E+01 4.05334E+00
 -1     22510 0.00000E+00 3.45667E+00 4.25766E+00
 -1     22511 0.00000E+00 2.45667E+00 4.25766E+00
 -1     22512 0.00000E+00 7.72747E+00 3.32012E+00
 -1     22513 0.00000E+00 1.21333E+01 3.20338E+00
 -1     22514 0.00000E+00 2.10994E+00 3.66329E+00
 -1     22515 0.00000E+00 1.56577E+01 4.16378E+00
 -1     22516 0.00000E+00 1.46577E+01 4.16378E+00
 -1     22517 0.00000E+00 1.96652E+01 4.16658E+00
 -1     22518 0.00000E+00 1.86652E+01 4.16658E+00
 -1     22519 0.00000E+00 2.36664E+01 4.16674E+00
 -1     22520 0.00000E+00 2.26664E+01 4.16674E+00
 -1     22521 0.00000E+00 2.76628E+01 4.17128E+00
 -1     22522 0.00000E+00 2.66628E+01 4.17128E+00
 -1     22523 0.00000E+00 3.14940E+01 4.33011E+00
 -1     22524 0.00000E+00 3.04940E+01 4.33011E+00
 -1     22525 0.00000E+00 3.59937E+01 2.50809E+00
 -1     22526 0.00000E+00 3.53972E+01 3.73870E+00
 -1     22527 0.00000E+00 3.43972E+01 3.73870E+00
 -1     22528 0.00000E+00 3.53972E+01 1.23870E+00
 -1     22529 0.00000E+00 3.95022E+01 4.26214E+00
 -1     22530 0.00000E+00 3.85022E+01 4.26214E+00
 -1     22531 0.00000E+00 3.80986E+01 3.03153E+00
 -1     22532 0.00000E+00 4.03916E+01 1.72984E+00
 -1     22533 0.00000E+00 3.38526E+01 2.00201E+00
 -1     22534 0.00000E+00 3.43972E+01 1.23870E+00
 -1     22535 0.00000E+00 3.04593E+01 9.34229E-01
 -1     22536 0.00000E+00 3.14593E+01 9.34229E-01
 -1     22537 0.00000E+00 2.63379E+01 8.35649E-01
 -1     22538 0.00000E+00 2.73379E+01 8.35649E-01
 -1     22539 0.00000E+00 2.23330E+01 8.33368E-01
 -1     22540 0.00000E+00 2.33330E+01 8.33368E-01
 -1     22541 0.00000E+00 1.83320E+01 8.33263E-01
 -1     22542 0.00000E+00 1.93320E+01 8.33263E-01
 -1     22543 0.00000E+00 1.43327E+01 8.28512E-01
 -1     22544 0.00000E+00 1.53327E+01 8.28512E-01
 -1     22545 0.00000E+00 1.05007E+01 6.58026E-01
 -1     22546 0.00000E+00 1.15007E+01 6.58026E-01
 -1     22547 0.00000E+00 6.67408E+00 8.30786E-01
 -1     22548 0.00000E+00 7.67408E+00 8.30786E-01
 -1     22549 0.00000E+00 2.71427E+00 8.91395E-01
 -1     22550 0.00000E+00 3.71427E+00 8.91395E-01
 -1     22551 0.00000E+00 1.42902E+01 3.31382E+00
 -1     22552 0.00000E+00 1.83288E+01 3.33280E+00
 -1     22553 0.00000E+00 2.23323E+01 3.33336E+00
 -1     22554 0.00000E+00 2.63290E+01 3.33861E+00
 -1     22555 0.00000E+00 3.01320E+01 3.52593E+00
 -1     22556 0.00000E+00 2.76952E+01 1.68456E+00
 -1     22557 0.00000E+00 1.96644E+01 1.66656E+00
 -1     22558 0.00000E+00 1.56642E+01 1.66118E+00
 -1     22559 0.00000E+00 1.18547E+01 1.46128E+00
 -1     22560 0.00000E+00 8.32247E+00 1.63431E+00
 -1     22561 0.00000E+00 4.40116E+00 1.73581E+00
 -1     22562 0.00000E+00 2.83008E+01 3.36711E+00
 -1     22563 0.00000E+00 3.18452E+01 3.46433E+00
 -1     22564 0.00000E+00 3.19146E+01 1.69754E+00
 -1     22565 0.00000E+00 1.01491E+01 1.46155E+00
 -1     22566 0.00000E+00 6.36097E+00 1.67520E+00
 -1     22567 0.00000E+00 2.51017E+00 2.01396E+00
 -1     22568 0.00000E+00 3.83372E+00 3.44690E+00
 -1     22569 0.00000E+00 2.43325E+01 3.33407E+00
 -1     22570 0.00000E+00 2.03312E+01 3.33320E+00
 -1     22571 0.00000E+00 1.63213E+01 3.33001E+00
 -1     22572 0.00000E+00 1.36868E+01 1.63177E+00
 -1     22573 0.00000E+00 3.98709E+01 3.44403E+00
 -1     22574 0.00000E+00 1.76634E+01 1.66593E+00
 -1     22575 0.00000E+00 2.98166E+01 1.78314E+00
 -1     22576 0.00000E+00 2.16654E+01 1.66666E+00
 -1     22577 0.00000E+00 2.56717E+01 1.66928E+00
 -1     22578 0.00000E+00 2.36668E+01 1.66700E+00
 -1     22579 0.00000E+00 2.25257E+00 2.88023E+00
 -1     22580 0.00000E+00 2.50000E+01 2.50096E+00
 -1     22581 0.00000E+00 2.40003E+01 2.50037E+00
 -1     22582 0.00000E+00 8.04597E+00 2.48177E+00
 -1     22583 0.00000E+00 9.02027E+00 2.45451E+00
 -1     22584 0.00000E+00 1.01492E+01 2.35687E+00
 -1     22585 0.00000E+00 1.29865E+01 2.45329E+00
 -1     22586 0.00000E+00 1.39652E+01 2.47854E+00
 -1     22587 0.00000E+00 2.29994E+01 2.50010E+00
 -1     22588 0.00000E+00 2.19989E+01 2.49999E+00
 -1     22589 0.00000E+00 1.69951E+01 2.49889E+00
 -1     22590 0.00000E+00 1.59892E+01 2.49645E+00
 -1     22591 0.00000E+00 2.70007E+01 2.50693E+00
 -1     22592 0.00000E+00 2.60040E+01 2.50298E+00
 -1     22593 0.00000E+00 2.09984E+01 2.49991E+00
 -1     22594 0.00000E+00 1.99976E+01 2.49987E+00
 -1     22595 0.00000E+00 3.09533E+01 2.76434E+00
 -1     22596 0.00000E+00 3.00972E+01 2.63005E+00
 -1     22597 0.00000E+00 3.18104E+01 2.56846E+00
 -1     22598 0.00000E+00 3.28064E+01 2.39754E+00
 -1     22599 0.00000E+00 3.37484E+01 2.87293E+00
 -1     22600 0.00000E+00 1.79956E+01 2.49949E+00
 -1     22601 0.00000E+00 3.91796E+01 2.65715E+00
 -1     22602 0.00000E+00 3.82738E+01 2.16440E+00
 -1     22603 0.00000E+00 4.10829E+01 2.51672E+00
 -1     22604 0.00000E+00 3.17094E+00 2.64906E+00
 -1     22605 0.00000E+00 1.10015E+01 2.21137E+00
 -1     22606 0.00000E+00 1.89972E+01 2.49984E+00
 -1     22607 0.00000E+00 1.49905E+01 2.49229E+00
 -1     22608 0.00000E+00 2.89953E+01 2.54473E+00
 -1     22609 0.00000E+00 1.18549E+01 2.35660E+00
 -1     22610 0.00000E+00 4.00461E+01 2.57690E+00
 -1     22611 0.00000E+00 7.02967E+00 2.49992E+00
 -1     22612 0.00000E+00 6.04247E+00 2.51355E+00
 -1     22613 0.00000E+00 4.09132E+00 2.58064E+00
 -1     22614 0.00000E+00 2.80202E+01 2.52019E+00
 -1     22615 0.00000E+00 5.06394E+00 2.53366E+00
 -1     22616 4.64387E+01 4.37017E+01 0.00000E+00
 -1     22617 4.71660E+01 4.43684E+01 0.00000E+00
 -1     22618 4.34546E+01 4.10247E+01 0.00000E+00
 -1     22619 4.41818E+01 4.16914E+01 0.00000E+00
 -1     22620 4.05217E+01 3.83292E+01 0.00000E+00
 -1     22621 4.12490E+01 3.89959E+01 0.00000E+00
 -1     22622 3.76021E+01 3.56425E+01 0.00000E+00
 -1     22623 3.83293E+01 3.63091E+01 0.00000E+00
 -1     22624 3.46868E+01 3.29755E+01 0.00000E+00
 -1     22625 3.54141E+01 3.36422E+01 0.00000E+00
 -1     22626 3.17812E+01 3.03055E+01 0.00000E+00
 -1     22627 3.25085E+01 3.09722E+01 0.00000E+00
 -1     22628 2.88784E+01 2.76317E+01 0.00000E+00
 -1     22629 2.96057E+01 2.82984E+01 0.00000E+00
 -1     22630 2.59731E+01 2.49606E+01 0.00000E+00
 -1     22631 2.67004E+01 2.56273E+01 0.00000E+00
 -1     22632 2.30648E+01 2.22939E+01 0.00000E+00
 -1     22633 2.37921E+01 2.29606E+01 0.00000E+00
 -1     22634 2.01545E+01 1.96307E+01 0.00000E+00
 -1     22635 2.08818E+01 2.02974E+01 0.00000E+00
 -1     22636 1.72454E+01 1.69698E+01 0.00000E+00
 -1     22637 1.79726E+01 1.76364E+01 0.00000E+00
 -1     22638 1.43425E+01 1.43056E+01 0.00000E+00
 -1     22639 1.50698E+01 1.49723E+01 0.00000E+00
 -1     22640 1.14536E+01 1.16351E+01 0.00000E+00
 -1     22641 1.21809E+01 1.23018E+01 0.00000E+00
 -1     22642 8.56623E+00 8.96023E+00 0.00000E+00
 -1     22643 9.29350E+00 9.62690E+00 0.00000E+00
 -1     22644 5.61127E+00 6.33360E+00 0.00000E+00
 -1     22645 6.33854E+00 7.00026E+00 0.00000E+00
 -1     22646 2.48944E+00 3.69943E+00 0.00000E+00
 -1     22647 3.21671E+00 4.36609E+00 0.00000E+00
 -1     22648 7.27273E-01 1.66667E+00 0.00000E+00
 -1     22649 1.03489E+00 5.36609E+00 0.00000E+00
 -1     22650 1.03489E+00 4.36609E+00 0.00000E+00
 -1     22651 8.66145E-01 9.50903E+00 0.00000E+00
 -1     22652 8.66145E-01 8.50903E+00 0.00000E+00
 -1     22653 8.07963E-01 1.35157E+01 0.00000E+00
 -1     22654 8.07963E-01 1.25157E+01 0.00000E+00
 -1     22655 8.26384E-01 1.75049E+01 0.00000E+00
 -1     22656 8.26384E-01 1.65049E+01 0.00000E+00
 -1     22657 8.41867E-01 2.14962E+01 0.00000E+00
 -1     22658 8.41867E-01 2.04962E+01 0.00000E+00
 -1     22659 8.53862E-01 2.54932E+01 0.00000E+00
 -1     22660 8.53862E-01 2.44932E+01 0.00000E+00
 -1     22661 8.49689E-01 2.94890E+01 0.00000E+00
 -1     22662 8.49689E-01 2.84890E+01 0.00000E+00
 -1     22663 8.32697E-01 3.34728E+01 0.00000E+00
 -1     22664 8.32697E-01 3.24728E+01 0.00000E+00
 -1     22665 8.05585E-01 3.74391E+01 0.00000E+00
 -1     22666 8.05585E-01 3.64391E+01 0.00000E+00
 -1     22667 8.17211E-01 4.13972E+01 0.00000E+00
 -1     22668 8.17211E-01 4.03972E+01 0.00000E+00
 -1     22669 8.51859E-01 4.33643E+01 0.00000E+00
 -1     22670 8.51859E-01 4.23643E+01 0.00000E+00
 -1     22671 1.66907E+00 4.17615E+01 0.00000E+00
 -1     22672 1.77494E+00 4.36720E+01 0.00000E+00
 -1     22673 5.40146E+00 4.49384E+01 0.00000E+00
 -1     22674 4.47838E+00 4.46307E+01 0.00000E+00
 -1     22675 9.06293E+00 4.61462E+01 0.00000E+00
 -1     22676 8.13986E+00 4.58385E+01 0.00000E+00
 -1     22677 1.27372E+01 4.73573E+01 0.00000E+00
 -1     22678 1.18142E+01 4.70496E+01 0.00000E+00
 -1     22679 1.64232E+01 4.85795E+01 0.00000E+00
 -1     22680 1.55001E+01 4.82718E+01 0.00000E+00
 -1     22681 2.01172E+01 4.98056E+01 0.00000E+00
 -1     22682 1.91942E+01 4.94979E+01 0.00000E+00
 -1     22683 2.38114E+01 5.10321E+01 0.00000E+00
 -1     22684 2.28884E+01 5.07244E+01 0.00000E+00
 -1     22685 2.75022E+01 5.22627E+01 0.00000E+00
 -1     22686 2.65791E+01 5.19550E+01 0.00000E+00
 -1     22687 3.11865E+01 5.35000E+01 0.00000E+00
 -1     22688 3.02635E+01 5.31923E+01 0.00000E+00
 -1     22689 3.48711E+01 5.47429E+01 0.00000E+00
 -1     22690 3.39480E+01 5.44352E+01 0.00000E+00
 -1     22691 3.85982E+01 5.59196E+01 0.00000E+00
 -1     22692 3.76752E+01 5.56119E+01 0.00000E+00
 -1     22693 4.23677E+01 5.70847E+01 0.00000E+00
 -1     22694 4.14446E+01 5.67770E+01 0.00000E+00
 -1     22695 4.61291E+01 5.83568E+01 0.00000E+00
 -1     22696 4.52061E+01 5.80491E+01 0.00000E+00
 -1     22697 4.70769E+01 5.86923E+01 0.00000E+00
 -1     22698 4.70522E+01 5.66645E+01 0.00000E+00
 -1     22699 4.70522E+01 5.76645E+01 0.00000E+00
 -1     22700 4.69705E+01 5.25590E+01 0.00000E+00
 -1     22701 4.69705E+01 5.35590E+01 0.00000E+00
 -1     22702 4.70730E+01 4.84318E+01 0.00000E+00
 -1     22703 4.70730E+01 4.94318E+01 0.00000E+00
 -1     22704 4.71660E+01 4.53684E+01 0.00000E+00
 -1     22705 4.49370E+01 4.23685E+01 0.00000E+00
 -1     22706 4.56642E+01 4.30351E+01 0.00000E+00
 -1     22707 4.19846E+01 3.96776E+01 0.00000E+00
 -1     22708 4.27118E+01 4.03442E+01 0.00000E+00
 -1     22709 3.90619E+01 3.69833E+01 0.00000E+00
 -1     22710 3.97892E+01 3.76499E+01 0.00000E+00
 -1     22711 3.61431E+01 3.43082E+01 0.00000E+00
 -1     22712 3.68704E+01 3.49748E+01 0.00000E+00
 -1     22713 3.32332E+01 3.16414E+01 0.00000E+00
 -1     22714 3.39604E+01 3.23080E+01 0.00000E+00
 -1     22715 3.03300E+01 2.89686E+01 0.00000E+00
 -1     22716 3.10572E+01 2.96353E+01 0.00000E+00
 -1     22717 2.74262E+01 2.62956E+01 0.00000E+00
 -1     22718 2.81535E+01 2.69622E+01 0.00000E+00
 -1     22719 2.45193E+01 2.36269E+01 0.00000E+00
 -1     22720 2.52466E+01 2.42935E+01 0.00000E+00
 -1     22721 2.16101E+01 2.09618E+01 0.00000E+00
 -1     22722 2.23374E+01 2.16285E+01 0.00000E+00
 -1     22723 1.86992E+01 1.83004E+01 0.00000E+00
 -1     22724 1.94264E+01 1.89671E+01 0.00000E+00
 -1     22725 1.57937E+01 1.56388E+01 0.00000E+00
 -1     22726 1.65210E+01 1.63054E+01 0.00000E+00
 -1     22727 1.28944E+01 1.29723E+01 0.00000E+00
 -1     22728 1.36216E+01 1.36389E+01 0.00000E+00
 -1     22729 1.00158E+01 1.02948E+01 0.00000E+00
 -1     22730 1.07431E+01 1.09615E+01 0.00000E+00
 -1     22731 7.09864E+00 7.64113E+00 0.00000E+00
 -1     22732 7.82592E+00 8.30780E+00 0.00000E+00
 -1     22733 4.09108E+00 5.02706E+00 0.00000E+00
 -1     22734 4.81835E+00 5.69373E+00 0.00000E+00
 -1     22735 6.54847E-01 2.49857E+00 0.00000E+00
 -1     22736 1.38212E+00 2.16524E+00 0.00000E+00
 -1     22737 2.10939E+00 2.83191E+00 0.00000E+00
 -1     22738 9.28300E-01 6.47765E+00 0.00000E+00
 -1     22739 1.96319E+00 5.84374E+00 0.00000E+00
 -1     22740 6.54847E-01 3.49857E+00 0.00000E+00
 -1     22741 1.79445E+00 7.98668E+00 0.00000E+00
 -1     22742 9.28300E-01 7.47765E+00 0.00000E+00
 -1     22743 8.26245E-01 1.15156E+01 0.00000E+00
 -1     22744 8.26245E-01 1.05156E+01 0.00000E+00
 -1     22745 8.12011E-01 1.55130E+01 0.00000E+00
 -1     22746 8.12011E-01 1.45130E+01 0.00000E+00
 -1     22747 8.36036E-01 1.94979E+01 0.00000E+00
 -1     22748 8.36036E-01 1.84979E+01 0.00000E+00
 -1     22749 8.48552E-01 2.34949E+01 0.00000E+00
 -1     22750 8.48552E-01 2.24949E+01 0.00000E+00
 -1     22751 8.53985E-01 2.74917E+01 0.00000E+00
 -1     22752 8.53985E-01 2.64917E+01 0.00000E+00
 -1     22753 8.43237E-01 3.14844E+01 0.00000E+00
 -1     22754 8.43237E-01 3.04844E+01 0.00000E+00
 -1     22755 8.18561E-01 3.54570E+01 0.00000E+00
 -1     22756 8.18561E-01 3.44570E+01 0.00000E+00
 -1     22757 8.03068E-01 3.94207E+01 0.00000E+00
 -1     22758 8.03068E-01 3.84207E+01 0.00000E+00
 -1     22759 9.97536E+00 4.64406E+01 0.00000E+00
 -1     22760 9.80753E+00 4.55099E+01 0.00000E+00
 -1     22761 1.08984E+01 4.67483E+01 0.00000E+00
 -1     22762 3.58132E+00 4.43133E+01 0.00000E+00
 -1     22763 2.65824E+00 4.40056E+01 0.00000E+00
 -1     22764 7.23037E+00 4.55473E+01 0.00000E+00
 -1     22765 6.30729E+00 4.52396E+01 0.00000E+00
 -1     22766 1.16357E+01 4.61056E+01 0.00000E+00
 -1     22767 2.58702E+00 4.30622E+01 0.00000E+00
 -1     22768 1.45777E+01 4.79663E+01 0.00000E+00
 -1     22769 1.36546E+01 4.76586E+01 0.00000E+00
 -1     22770 1.82707E+01 4.91913E+01 0.00000E+00
 -1     22771 1.73476E+01 4.88836E+01 0.00000E+00
 -1     22772 2.19643E+01 5.04190E+01 0.00000E+00
 -1     22773 2.10412E+01 5.01113E+01 0.00000E+00
 -1     22774 2.56580E+01 5.16487E+01 0.00000E+00
 -1     22775 2.47350E+01 5.13410E+01 0.00000E+00
 -1     22776 2.93466E+01 5.28788E+01 0.00000E+00
 -1     22777 2.84235E+01 5.25711E+01 0.00000E+00
 -1     22778 3.30254E+01 5.41243E+01 0.00000E+00
 -1     22779 3.21023E+01 5.38166E+01 0.00000E+00
 -1     22780 3.67306E+01 5.53425E+01 0.00000E+00
 -1     22781 3.58075E+01 5.50349E+01 0.00000E+00
 -1     22782 4.04798E+01 5.64954E+01 0.00000E+00
 -1     22783 3.95567E+01 5.61877E+01 0.00000E+00
 -1     22784 4.42518E+01 5.77111E+01 0.00000E+00
 -1     22785 4.33287E+01 5.74034E+01 0.00000E+00
 -1     22786 4.10517E+01 4.00068E+01 0.00000E+00
 -1     22787 4.70152E+01 5.56219E+01 0.00000E+00
 -1     22788 4.60674E+01 5.62864E+01 0.00000E+00
 -1     22789 4.40279E+01 4.27265E+01 0.00000E+00
 -1     22790 4.59856E+01 5.41809E+01 0.00000E+00
 -1     22791 4.70152E+01 5.46219E+01 0.00000E+00
 -1     22792 4.70011E+01 5.04918E+01 0.00000E+00
 -1     22793 4.70011E+01 5.14918E+01 0.00000E+00
 -1     22794 4.62808E+01 4.57641E+01 0.00000E+00
 -1     22795 4.71148E+01 4.63957E+01 0.00000E+00
 -1     22796 4.71148E+01 4.73957E+01 0.00000E+00
 -1     22797 3.51936E+01 3.46171E+01 0.00000E+00
 -1     22798 3.81185E+01 3.72924E+01 0.00000E+00
 -1     22799 4.55575E+01 4.40702E+01 0.00000E+00
 -1     22800 4.25300E+01 4.13690E+01 0.00000E+00
 -1     22801 3.95836E+01 3.86458E+01 0.00000E+00
 -1     22802 3.66543E+01 3.59507E+01 0.00000E+00
 -1     22803 3.37382E+01 3.32836E+01 0.00000E+00
 -1     22804 3.08384E+01 3.06075E+01 0.00000E+00
 -1     22805 2.79410E+01 2.79272E+01 0.00000E+00
 -1     22806 2.50379E+01 2.52542E+01 0.00000E+00
 -1     22807 2.21295E+01 2.25891E+01 0.00000E+00
 -1     22808 1.92173E+01 1.99311E+01 0.00000E+00
 -1     22809 1.63118E+01 1.72752E+01 0.00000E+00
 -1     22810 1.34187E+01 1.46112E+01 0.00000E+00
 -1     22811 1.05604E+01 1.19299E+01 0.00000E+00
 -1     22812 7.66487E+00 9.26803E+00 0.00000E+00
 -1     22813 4.61143E+00 6.69399E+00 0.00000E+00
 -1     22814 1.69239E+00 1.00246E+01 0.00000E+00
 -1     22815 1.61997E+00 1.40287E+01 0.00000E+00
 -1     22816 1.66242E+00 1.80028E+01 0.00000E+00
 -1     22817 1.69042E+00 2.19910E+01 0.00000E+00
 -1     22818 1.70785E+00 2.59849E+01 0.00000E+00
 -1     22819 1.69293E+00 2.99734E+01 0.00000E+00
 -1     22820 1.65126E+00 3.39298E+01 0.00000E+00
 -1     22821 1.60865E+00 3.78598E+01 0.00000E+00
 -1     22822 6.17029E+00 4.43318E+01 0.00000E+00
 -1     22823 1.34688E+01 4.67082E+01 0.00000E+00
 -1     22824 1.71554E+01 4.79246E+01 0.00000E+00
 -1     22825 2.08508E+01 4.91477E+01 0.00000E+00
 -1     22826 2.45464E+01 5.03731E+01 0.00000E+00
 -1     22827 2.82334E+01 5.16030E+01 0.00000E+00
 -1     22828 3.19042E+01 5.28550E+01 0.00000E+00
 -1     22829 3.56017E+01 5.40855E+01 0.00000E+00
 -1     22830 3.93857E+01 5.51842E+01 0.00000E+00
 -1     22831 4.32349E+01 5.63342E+01 0.00000E+00
 -1     22832 4.59716E+01 5.20508E+01 0.00000E+00
 -1     22833 4.61878E+01 4.78275E+01 0.00000E+00
 -1     22834 3.22871E+01 3.19469E+01 0.00000E+00
 -1     22835 2.93902E+01 2.92670E+01 0.00000E+00
 -1     22836 2.64902E+01 2.65895E+01 0.00000E+00
 -1     22837 2.35841E+01 2.39208E+01 0.00000E+00
 -1     22838 2.06738E+01 2.12592E+01 0.00000E+00
 -1     22839 1.77627E+01 1.86035E+01 0.00000E+00
 -1     22840 1.48635E+01 1.59444E+01 0.00000E+00
 -1     22841 1.19844E+01 1.32741E+01 0.00000E+00
 -1     22842 9.12753E+00 1.05884E+01 0.00000E+00
 -1     22843 6.16445E+00 7.97473E+00 0.00000E+00
 -1     22844 2.94415E+00 5.39315E+00 0.00000E+00
 -1     22845 1.63421E+00 1.20313E+01 0.00000E+00
 -1     22846 1.70241E+00 2.39880E+01 0.00000E+00
 -1     22847 1.70367E+00 2.79807E+01 0.00000E+00
 -1     22848 1.67593E+00 3.19572E+01 0.00000E+00
 -1     22849 1.62415E+00 3.58961E+01 0.00000E+00
 -1     22850 1.62028E+00 3.98179E+01 0.00000E+00
 -1     22851 7.98561E+00 4.49243E+01 0.00000E+00
 -1     22852 2.26988E+01 4.97588E+01 0.00000E+00
 -1     22853 2.63910E+01 5.09883E+01 0.00000E+00
 -1     22854 3.00716E+01 5.22249E+01 0.00000E+00
 -1     22855 3.37427E+01 5.34826E+01 0.00000E+00
 -1     22856 3.74826E+01 5.46468E+01 0.00000E+00
 -1     22857 4.13090E+01 5.57340E+01 0.00000E+00
 -1     22858 4.51502E+01 5.69910E+01 0.00000E+00
 -1     22859 4.60741E+01 4.99235E+01 0.00000E+00
 -1     22860 1.67790E+00 1.99941E+01 0.00000E+00
 -1     22861 1.63839E+00 1.60178E+01 0.00000E+00
 -1     22862 4.36739E+00 4.37132E+01 0.00000E+00
 -1     22863 1.90033E+01 4.85354E+01 0.00000E+00
 -1     22864 1.53086E+01 4.73150E+01 0.00000E+00
 -1     22865 3.86444E+01 3.89547E+01 0.00000E+00
 -1     22866 3.93769E+01 3.96339E+01 0.00000E+00
 -1     22867 4.51131E+01 5.59484E+01 0.00000E+00
 -1     22868 3.57060E+01 3.62566E+01 0.00000E+00
 -1     22869 3.64377E+01 3.69242E+01 0.00000E+00
 -1     22870 4.46710E+01 4.44451E+01 0.00000E+00
 -1     22871 4.54455E+01 4.51117E+01 0.00000E+00
 -1     22872 3.27875E+01 3.35937E+01 0.00000E+00
 -1     22873 3.35138E+01 3.42612E+01 0.00000E+00
 -1     22874 3.71752E+01 3.75931E+01 0.00000E+00
 -1     22875 3.79078E+01 3.82672E+01 0.00000E+00
 -1     22876 3.77011E+01 3.92554E+01 0.00000E+00
 -1     22877 3.62270E+01 3.78991E+01 0.00000E+00
 -1     22878 2.98941E+01 3.09093E+01 0.00000E+00
 -1     22879 3.06181E+01 3.15795E+01 0.00000E+00
 -1     22880 2.70033E+01 2.82211E+01 0.00000E+00
 -1     22881 2.77282E+01 2.88906E+01 0.00000E+00
 -1     22882 2.41031E+01 2.55471E+01 0.00000E+00
 -1     22883 2.48296E+01 2.62142E+01 0.00000E+00
 -1     22884 2.11954E+01 2.28841E+01 0.00000E+00
 -1     22885 2.19228E+01 2.35495E+01 0.00000E+00
 -1     22886 1.82807E+01 2.02327E+01 0.00000E+00
 -1     22887 1.90087E+01 2.08964E+01 0.00000E+00
 -1     22888 1.53772E+01 1.75834E+01 0.00000E+00
 -1     22889 1.61016E+01 1.82478E+01 0.00000E+00
 -1     22890 1.24900E+01 1.49169E+01 0.00000E+00
 -1     22891 1.32109E+01 1.55836E+01 0.00000E+00
 -1     22892 9.66186E+00 1.22243E+01 0.00000E+00
 -1     22893 1.03724E+01 1.28979E+01 0.00000E+00
 -1     22894 6.78372E+00 9.57120E+00 0.00000E+00
 -1     22895 7.52403E+00 1.02236E+01 0.00000E+00
 -1     22896 2.83756E+00 6.50471E+00 0.00000E+00
 -1     22897 2.50605E+00 1.05731E+01 0.00000E+00
 -1     22898 2.54595E+00 9.56661E+00 0.00000E+00
 -1     22899 1.68974E+00 3.86467E+00 0.00000E+00
 -1     22900 2.41910E+00 1.45439E+01 0.00000E+00
 -1     22901 2.41505E+00 1.35467E+01 0.00000E+00
 -1     22902 2.63681E+00 8.56452E+00 0.00000E+00
 -1     22903 2.69897E+00 7.53314E+00 0.00000E+00
 -1     22904 3.67992E+00 7.08255E+00 0.00000E+00
 -1     22905 3.45047E+00 9.11307E+00 0.00000E+00
 -1     22906 2.55993E+00 2.44783E+01 0.00000E+00
 -1     22907 2.55462E+00 2.34800E+01 0.00000E+00
 -1     22908 2.50637E+00 1.84904E+01 0.00000E+00
 -1     22909 2.49672E+00 1.74974E+01 0.00000E+00
 -1     22910 5.14889E+00 4.31201E+01 0.00000E+00
 -1     22911 4.25182E+00 4.28026E+01 0.00000E+00
 -1     22912 2.53816E+00 2.24833E+01 0.00000E+00
 -1     22913 2.53148E+00 2.14846E+01 0.00000E+00
 -1     22914 3.39568E+00 2.29736E+01 0.00000E+00
 -1     22915 2.46891E+00 1.65182E+01 0.00000E+00
 -1     22916 2.45453E+00 1.55263E+01 0.00000E+00
 -1     22917 3.24961E+00 1.50443E+01 0.00000E+00
 -1     22918 3.31286E+00 1.70058E+01 0.00000E+00
 -1     22919 2.55532E+00 2.84723E+01 0.00000E+00
 -1     22920 2.55962E+00 2.74751E+01 0.00000E+00
 -1     22921 2.51456E+00 3.24410E+01 0.00000E+00
 -1     22922 2.52510E+00 3.14525E+01 0.00000E+00
 -1     22923 2.43219E+00 3.63427E+01 0.00000E+00
 -1     22924 2.44517E+00 3.53605E+01 0.00000E+00
 -1     22925 2.42787E+00 4.02186E+01 0.00000E+00
 -1     22926 2.41372E+00 3.92421E+01 0.00000E+00
 -1     22927 8.73510E+00 4.42940E+01 0.00000E+00
 -1     22928 7.82562E+00 4.40028E+01 0.00000E+00
 -1     22929 2.50792E+00 4.21316E+01 0.00000E+00
 -1     22930 2.47328E+00 4.11645E+01 0.00000E+00
 -1     22931 3.26672E+00 4.05886E+01 0.00000E+00
 -1     22932 3.39123E+00 4.24651E+01 0.00000E+00
 -1     22933 1.97361E+01 4.78769E+01 0.00000E+00
 -1     22934 1.88126E+01 4.75703E+01 0.00000E+00
 -1     22935 1.41966E+01 4.60523E+01 0.00000E+00
 -1     22936 1.32792E+01 4.57510E+01 0.00000E+00
 -1     22937 2.34334E+01 4.90957E+01 0.00000E+00
 -1     22938 2.25093E+01 4.87903E+01 0.00000E+00
 -1     22939 1.23664E+01 4.54526E+01 0.00000E+00
 -1     22940 1.14506E+01 4.51512E+01 0.00000E+00
 -1     22941 1.30942E+01 4.47967E+01 0.00000E+00
 -1     22942 2.15849E+01 4.84860E+01 0.00000E+00
 -1     22943 2.06610E+01 4.81804E+01 0.00000E+00
 -1     22944 2.23195E+01 4.78230E+01 0.00000E+00
 -1     22945 2.71269E+01 5.03230E+01 0.00000E+00
 -1     22946 2.62058E+01 5.00167E+01 0.00000E+00
 -1     22947 3.08054E+01 5.15633E+01 0.00000E+00
 -1     22948 2.98885E+01 5.12498E+01 0.00000E+00
 -1     22949 3.44503E+01 5.28507E+01 0.00000E+00
 -1     22950 3.35276E+01 5.25398E+01 0.00000E+00
 -1     22951 3.82065E+01 5.39493E+01 0.00000E+00
 -1     22952 3.72619E+01 5.36799E+01 0.00000E+00
 -1     22953 4.21185E+01 5.49452E+01 0.00000E+00
 -1     22954 4.11537E+01 5.46636E+01 0.00000E+00
 -1     22955 4.41084E+01 5.55629E+01 0.00000E+00
 -1     22956 4.31474E+01 5.52442E+01 0.00000E+00
 -1     22957 4.29920E+01 5.41739E+01 0.00000E+00
 -1     22958 4.50256E+01 5.48583E+01 0.00000E+00
 -1     22959 4.48703E+01 5.15325E+01 0.00000E+00
 -1     22960 4.48396E+01 5.25998E+01 0.00000E+00
 -1     22961 4.01162E+01 4.03325E+01 0.00000E+00
 -1     22962 4.08518E+01 4.10142E+01 0.00000E+00
 -1     22963 3.91771E+01 4.06413E+01 0.00000E+00
 -1     22964 4.53150E+01 4.71873E+01 0.00000E+00
 -1     22965 4.52732E+01 4.82233E+01 0.00000E+00
 -1     22966 4.49809E+01 5.37954E+01 0.00000E+00
 -1     22967 4.53943E+01 4.61391E+01 0.00000E+00
 -1     22968 2.51778E+00 2.04842E+01 0.00000E+00
 -1     22969 2.51195E+00 1.94859E+01 0.00000E+00
 -1     22970 3.34625E+00 1.89805E+01 0.00000E+00
 -1     22971 3.36552E+00 2.09764E+01 0.00000E+00
 -1     22972 3.42423E+01 3.49281E+01 0.00000E+00
 -1     22973 3.49713E+01 3.55941E+01 0.00000E+00
 -1     22974 3.47548E+01 3.65677E+01 0.00000E+00
 -1     22975 3.32916E+01 3.52382E+01 0.00000E+00
 -1     22976 3.13390E+01 3.22533E+01 0.00000E+00
 -1     22977 3.20637E+01 3.29225E+01 0.00000E+00
 -1     22978 3.18393E+01 3.39001E+01 0.00000E+00
 -1     22979 3.03946E+01 3.25551E+01 0.00000E+00
 -1     22980 1.78866E+01 4.72678E+01 0.00000E+00
 -1     22981 1.69622E+01 4.69637E+01 0.00000E+00
 -1     22982 1.86193E+01 4.66094E+01 0.00000E+00
 -1     22983 4.16033E+01 4.17122E+01 0.00000E+00
 -1     22984 4.23460E+01 4.23927E+01 0.00000E+00
 -1     22985 4.06678E+01 4.20379E+01 0.00000E+00
 -1     22986 2.04668E+01 2.22212E+01 0.00000E+00
 -1     22987 2.02601E+01 2.31816E+01 0.00000E+00
 -1     22988 1.97385E+01 2.15567E+01 0.00000E+00
 -1     22989 4.38796E+01 5.32772E+01 0.00000E+00
 -1     22990 2.62799E+01 2.75503E+01 0.00000E+00
 -1     22991 2.60672E+01 2.85136E+01 0.00000E+00
 -1     22992 2.55541E+01 2.68820E+01 0.00000E+00
 -1     22993 2.84498E+01 2.95641E+01 0.00000E+00
 -1     22994 2.91741E+01 3.02344E+01 0.00000E+00
 -1     22995 2.46193E+01 2.71749E+01 0.00000E+00
 -1     22996 2.89537E+01 3.12065E+01 0.00000E+00
 -1     22997 2.26500E+01 2.42146E+01 0.00000E+00
 -1     22998 2.33773E+01 2.48809E+01 0.00000E+00
 -1     22999 1.88018E+01 2.18583E+01 0.00000E+00
 -1     23000 1.68250E+01 1.89085E+01 0.00000E+00
 -1     23001 1.75515E+01 1.95725E+01 0.00000E+00
 -1     23002 1.39323E+01 1.62514E+01 0.00000E+00
 -1     23003 1.46562E+01 1.69179E+01 0.00000E+00
 -1     23004 1.10608E+01 1.35782E+01 0.00000E+00
 -1     23005 1.17743E+01 1.42487E+01 0.00000E+00
 -1     23006 8.24936E+00 1.08730E+01 0.00000E+00
 -1     23007 8.97171E+00 1.15410E+01 0.00000E+00
 -1     23008 2.56575E+00 2.54766E+01 0.00000E+00
 -1     23009 3.41795E+00 2.49686E+01 0.00000E+00
 -1     23010 2.56587E+00 2.64751E+01 0.00000E+00
 -1     23011 5.26480E+00 8.31996E+00 0.00000E+00
 -1     23012 6.02490E+00 8.96083E+00 0.00000E+00
 -1     23013 4.47284E+00 7.72242E+00 0.00000E+00
 -1     23014 2.44400E+00 1.15587E+01 0.00000E+00
 -1     23015 3.29756E+00 1.11007E+01 0.00000E+00
 -1     23016 2.42572E+00 1.25588E+01 0.00000E+00
 -1     23017 2.54500E+00 2.94689E+01 0.00000E+00
 -1     23018 3.40094E+00 2.89633E+01 0.00000E+00
 -1     23019 2.53854E+00 3.04643E+01 0.00000E+00
 -1     23020 6.02882E+00 4.34245E+01 0.00000E+00
 -1     23021 5.91325E+00 4.25140E+01 0.00000E+00
 -1     23022 6.93465E+00 4.37258E+01 0.00000E+00
 -1     23023 2.31690E+01 2.58409E+01 0.00000E+00
 -1     23024 3.41751E+00 2.69668E+01 0.00000E+00
 -1     23025 4.17273E+00 4.18720E+01 0.00000E+00
 -1     23026 2.49157E+00 3.34141E+01 0.00000E+00
 -1     23027 3.34074E+00 3.29095E+01 0.00000E+00
 -1     23028 2.47744E+00 3.43983E+01 0.00000E+00
 -1     23029 5.88406E+00 9.91643E+00 0.00000E+00
 -1     23030 3.37717E+00 3.09481E+01 0.00000E+00
 -1     23031 3.28548E+00 3.48449E+01 0.00000E+00
 -1     23032 2.40630E+00 3.82849E+01 0.00000E+00
 -1     23033 2.40882E+00 3.73034E+01 0.00000E+00
 -1     23034 7.68415E+00 4.30955E+01 0.00000E+00
 -1     23035 1.05454E+01 4.48633E+01 0.00000E+00
 -1     23036 9.63302E+00 4.45690E+01 0.00000E+00
 -1     23037 1.51161E+01 4.63550E+01 0.00000E+00
 -1     23038 1.49265E+01 4.53978E+01 0.00000E+00
 -1     23039 1.60385E+01 4.66605E+01 0.00000E+00
 -1     23040 2.04702E+01 4.72153E+01 0.00000E+00
 -1     23041 1.12761E+01 4.42104E+01 0.00000E+00
 -1     23042 2.80502E+01 5.06287E+01 0.00000E+00
 -1     23043 2.78649E+01 4.96570E+01 0.00000E+00
 -1     23044 2.89714E+01 5.09371E+01 0.00000E+00
 -1     23045 2.52814E+01 4.97108E+01 0.00000E+00
 -1     23046 2.43579E+01 4.94019E+01 0.00000E+00
 -1     23047 2.97052E+01 5.02755E+01 0.00000E+00
 -1     23048 2.41683E+01 4.84334E+01 0.00000E+00
 -1     23049 3.26272E+01 5.22062E+01 0.00000E+00
 -1     23050 3.17114E+01 5.18896E+01 0.00000E+00
 -1     23051 3.63103E+01 5.34424E+01 0.00000E+00
 -1     23052 3.53740E+01 5.31505E+01 0.00000E+00
 -1     23053 3.51590E+01 5.22077E+01 0.00000E+00
 -1     23054 3.70342E+01 5.27449E+01 0.00000E+00
 -1     23055 4.01352E+01 5.44357E+01 0.00000E+00
 -1     23056 3.91767E+01 5.41676E+01 0.00000E+00
 -1     23057 3.89560E+01 5.32007E+01 0.00000E+00
 -1     23058 4.09446E+01 5.36470E+01 0.00000E+00
 -1     23059 1.67697E+01 4.60037E+01 0.00000E+00
 -1     23060 4.52055E+01 4.92866E+01 0.00000E+00
 -1     23061 4.51337E+01 5.03466E+01 0.00000E+00
 -1     23062 4.44798E+01 4.65349E+01 0.00000E+00
 -1     23063 4.31182E+01 4.30865E+01 0.00000E+00
 -1     23064 4.38734E+01 4.37635E+01 0.00000E+00
 -1     23065 7.36821E+00 1.11762E+01 0.00000E+00
 -1     23066 3.22485E+00 1.30741E+01 0.00000E+00
 -1     23067 1.73429E+01 2.05377E+01 0.00000E+00
 -1     23068 4.37614E+01 4.48051E+01 0.00000E+00
 -1     23069 4.40017E+01 5.08956E+01 0.00000E+00
 -1     23070 3.15283E+01 5.09145E+01 0.00000E+00
 -1     23071 4.21915E+01 4.34297E+01 0.00000E+00
 -1     23072 9.47303E+00 4.36475E+01 0.00000E+00
 -1     23073 3.22984E+00 3.67678E+01 0.00000E+00
 -1     23074 8.78369E+00 1.25090E+01 0.00000E+00
 -1     23075 1.15665E+01 1.52211E+01 0.00000E+00
 -1     23076 1.44460E+01 1.78905E+01 0.00000E+00
 -1     23077 1.01623E+01 1.38726E+01 0.00000E+00
 -1     23078 2.75121E+01 2.98580E+01 0.00000E+00
 -1     23079 1.30036E+01 1.65571E+01 0.00000E+00
 -1     23080 2.17159E+01 2.45096E+01 0.00000E+00
 -1     23081 1.58904E+01 1.92168E+01 0.00000E+00
 -1     23082 4.33329E+00 8.70852E+00 0.00000E+00
 -1     23083 3.21389E+00 3.86856E+01 0.00000E+00
 -1     23084 2.60172E+01 4.90455E+01 0.00000E+00
 -1     23085 3.33348E+01 5.15744E+01 0.00000E+00
 -1     23086 4.43328E+01 4.86464E+01 0.00000E+00
 -1     23087 2.80113E+01 3.15031E+01 0.00000E+00
 -1     23088 2.87313E+01 3.21780E+01 0.00000E+00
 -1     23089 1.20782E+01 1.68658E+01 0.00000E+00
 -1     23090 1.27996E+01 1.75335E+01 0.00000E+00
 -1     23091 2.36858E+01 2.74655E+01 0.00000E+00
 -1     23092 2.44102E+01 2.81333E+01 0.00000E+00
 -1     23093 1.49528E+01 1.95305E+01 0.00000E+00
 -1     23094 1.56762E+01 2.01912E+01 0.00000E+00
 -1     23095 1.78680E+01 2.21604E+01 0.00000E+00
 -1     23096 1.85977E+01 2.28208E+01 0.00000E+00
 -1     23097 4.28507E+01 5.29782E+01 0.00000E+00
 -1     23098 4.24243E+00 9.71061E+00 0.00000E+00
 -1     23099 9.22291E+00 1.41761E+01 0.00000E+00
 -1     23100 9.91135E+00 1.48563E+01 0.00000E+00
 -1     23101 2.07859E+01 2.48041E+01 0.00000E+00
 -1     23102 2.15132E+01 2.54692E+01 0.00000E+00
 -1     23103 1.35144E+01 1.82038E+01 0.00000E+00
 -1     23104 1.42354E+01 1.88694E+01 0.00000E+00
 -1     23105 1.40212E+01 1.98439E+01 0.00000E+00
 -1     23106 1.25890E+01 1.85125E+01 0.00000E+00
 -1     23107 1.06365E+01 1.55271E+01 0.00000E+00
 -1     23108 1.13522E+01 1.61953E+01 0.00000E+00
 -1     23109 9.69710E+00 1.58305E+01 0.00000E+00
 -1     23110 3.97971E+00 1.35900E+01 0.00000E+00
 -1     23111 3.99038E+00 1.26021E+01 0.00000E+00
 -1     23112 4.28694E+00 2.54513E+01 0.00000E+00
 -1     23113 4.28113E+00 2.44531E+01 0.00000E+00
 -1     23114 3.99642E+00 3.90919E+01 0.00000E+00
 -1     23115 3.98900E+00 3.81348E+01 0.00000E+00
 -1     23116 1.64056E+01 2.08459E+01 0.00000E+00
 -1     23117 1.71347E+01 2.15061E+01 0.00000E+00
 -1     23118 1.69306E+01 2.24686E+01 0.00000E+00
 -1     23119 1.54680E+01 2.11596E+01 0.00000E+00
 -1     23120 4.10264E+00 3.53089E+01 0.00000E+00
 -1     23121 4.13491E+00 3.43466E+01 0.00000E+00
 -1     23122 4.07262E+00 1.16599E+01 0.00000E+00
 -1     23123 4.13468E+00 1.06744E+01 0.00000E+00
 -1     23124 5.01749E+00 1.02699E+01 0.00000E+00
 -1     23125 4.82749E+00 1.21758E+01 0.00000E+00
 -1     23126 4.24617E+00 2.94596E+01 0.00000E+00
 -1     23127 4.25649E+00 2.84630E+01 0.00000E+00
 -1     23128 4.01898E+00 3.72025E+01 0.00000E+00
 -1     23129 4.04234E+00 3.62418E+01 0.00000E+00
 -1     23130 4.89177E+00 3.57436E+01 0.00000E+00
 -1     23131 4.80150E+00 3.76088E+01 0.00000E+00
 -1     23132 4.25734E+00 2.34582E+01 0.00000E+00
 -1     23133 4.24089E+00 2.24615E+01 0.00000E+00
 -1     23134 5.12633E+00 2.39410E+01 0.00000E+00
 -1     23135 3.22691E+01 5.02564E+01 0.00000E+00
 -1     23136 3.13631E+01 4.99301E+01 0.00000E+00
 -1     23137 6.66333E+00 4.19282E+01 0.00000E+00
 -1     23138 5.78340E+00 4.16237E+01 0.00000E+00
 -1     23139 5.77630E+00 1.08802E+01 0.00000E+00
 -1     23140 2.67534E+01 4.83813E+01 0.00000E+00
 -1     23141 2.58290E+01 4.80755E+01 0.00000E+00
 -1     23142 2.22370E+01 2.61340E+01 0.00000E+00
 -1     23143 2.29628E+01 2.68002E+01 0.00000E+00
 -1     23144 2.27537E+01 2.77585E+01 0.00000E+00
 -1     23145 2.13070E+01 2.64284E+01 0.00000E+00
 -1     23146 4.08103E+00 4.09622E+01 0.00000E+00
 -1     23147 4.03562E+00 4.00162E+01 0.00000E+00
 -1     23148 4.81072E+00 3.94655E+01 0.00000E+00
 -1     23149 4.94162E+00 4.12997E+01 0.00000E+00
 -1     23150 1.56493E+01 4.47406E+01 0.00000E+00
 -1     23151 1.47298E+01 4.44379E+01 0.00000E+00
 -1     23152 1.93513E+01 4.59496E+01 0.00000E+00
 -1     23153 1.84252E+01 4.56471E+01 0.00000E+00
 -1     23154 2.49039E+01 4.77684E+01 0.00000E+00
 -1     23155 2.39794E+01 4.74622E+01 0.00000E+00
 -1     23156 2.56401E+01 4.71043E+01 0.00000E+00
 -1     23157 2.30558E+01 4.71564E+01 0.00000E+00
 -1     23158 2.21314E+01 4.68521E+01 0.00000E+00
 -1     23159 2.37914E+01 4.64914E+01 0.00000E+00
 -1     23160 4.33731E+01 5.00082E+01 0.00000E+00
 -1     23161 4.31097E+01 5.11942E+01 0.00000E+00
 -1     23162 4.27216E+00 2.74591E+01 0.00000E+00
 -1     23163 4.27842E+00 2.64591E+01 0.00000E+00
 -1     23164 5.14159E+00 2.59436E+01 0.00000E+00
 -1     23165 5.11739E+00 2.79554E+01 0.00000E+00
 -1     23166 2.12050E+01 4.65515E+01 0.00000E+00
 -1     23167 2.02801E+01 4.62481E+01 0.00000E+00
 -1     23168 2.00860E+01 4.52859E+01 0.00000E+00
 -1     23169 2.19413E+01 4.58849E+01 0.00000E+00
 -1     23170 3.04504E+01 4.96053E+01 0.00000E+00
 -1     23171 2.95333E+01 4.92926E+01 0.00000E+00
 -1     23172 3.11912E+01 4.89472E+01 0.00000E+00
 -1     23173 1.74970E+01 4.53470E+01 0.00000E+00
 -1     23174 1.65733E+01 4.50438E+01 0.00000E+00
 -1     23175 1.63765E+01 4.40839E+01 0.00000E+00
 -1     23176 1.82289E+01 4.46873E+01 0.00000E+00
 -1     23177 3.82302E+01 4.09434E+01 0.00000E+00
 -1     23178 3.89695E+01 4.16419E+01 0.00000E+00
 -1     23179 1.93302E+01 2.34790E+01 0.00000E+00
 -1     23180 2.00588E+01 2.41419E+01 0.00000E+00
 -1     23181 1.83964E+01 2.37811E+01 0.00000E+00
 -1     23182 4.36399E+01 4.58583E+01 0.00000E+00
 -1     23183 4.35607E+01 4.69066E+01 0.00000E+00
 -1     23184 1.01992E+01 4.29864E+01 0.00000E+00
 -1     23185 9.30125E+00 4.27114E+01 0.00000E+00
 -1     23186 2.51332E+01 2.88021E+01 0.00000E+00
 -1     23187 2.58566E+01 2.94730E+01 0.00000E+00
 -1     23188 2.41996E+01 2.90927E+01 0.00000E+00
 -1     23189 6.51596E+00 1.14472E+01 0.00000E+00
 -1     23190 7.24129E+00 1.20966E+01 0.00000E+00
 -1     23191 5.64939E+00 1.18006E+01 0.00000E+00
 -1     23192 3.97210E+01 4.23615E+01 0.00000E+00
 -1     23193 4.04725E+01 4.30595E+01 0.00000E+00
 -1     23194 3.87741E+01 4.26636E+01 0.00000E+00
 -1     23195 1.38136E+01 4.41355E+01 0.00000E+00
 -1     23196 1.29007E+01 4.38371E+01 0.00000E+00
 -1     23197 1.45363E+01 4.34783E+01 0.00000E+00
 -1     23198 4.12594E+01 4.37775E+01 0.00000E+00
 -1     23199 4.20316E+01 4.44713E+01 0.00000E+00
 -1     23200 4.03125E+01 4.41011E+01 0.00000E+00
 -1     23201 4.17572E+00 3.33943E+01 0.00000E+00
 -1     23202 4.19871E+00 3.24212E+01 0.00000E+00
 -1     23203 4.99288E+00 3.38583E+01 0.00000E+00
 -1     23204 1.19946E+01 4.35425E+01 0.00000E+00
 -1     23205 1.10895E+01 4.32546E+01 0.00000E+00
 -1     23206 1.27141E+01 4.28813E+01 0.00000E+00
 -1     23207 4.21830E+00 3.14433E+01 0.00000E+00
 -1     23208 4.23174E+00 3.04551E+01 0.00000E+00
 -1     23209 5.08730E+00 2.99548E+01 0.00000E+00
 -1     23210 5.05328E+00 3.19282E+01 0.00000E+00
 -1     23211 4.28423E+01 4.51767E+01 0.00000E+00
 -1     23212 1.11482E+01 1.71717E+01 0.00000E+00
 -1     23213 2.94464E+01 3.28579E+01 0.00000E+00
 -1     23214 3.01673E+01 3.35316E+01 0.00000E+00
 -1     23215 2.85040E+01 3.31545E+01 0.00000E+00
 -1     23216 4.18091E+00 1.94604E+01 0.00000E+00
 -1     23217 4.17533E+00 1.84648E+01 0.00000E+00
 -1     23218 3.08865E+01 3.42106E+01 0.00000E+00
 -1     23219 3.16103E+01 3.48818E+01 0.00000E+00
 -1     23220 2.99383E+01 3.45133E+01 0.00000E+00
 -1     23221 1.09177E+01 4.23185E+01 0.00000E+00
 -1     23222 3.74970E+01 4.02310E+01 0.00000E+00
 -1     23223 3.72895E+01 4.12316E+01 0.00000E+00
 -1     23224 3.67604E+01 3.95435E+01 0.00000E+00
 -1     23225 4.26237E+01 4.72907E+01 0.00000E+00
 -1     23226 4.34635E+01 4.79673E+01 0.00000E+00
 -1     23227 4.25353E+01 5.19509E+01 0.00000E+00
 -1     23228 4.16478E+01 5.28476E+01 0.00000E+00
 -1     23229 1.98561E+01 2.51015E+01 0.00000E+00
 -1     23230 2.65754E+01 3.01494E+01 0.00000E+00
 -1     23231 2.72969E+01 3.08230E+01 0.00000E+00
 -1     23232 4.03277E+00 1.45574E+01 0.00000E+00
 -1     23233 4.79830E+00 1.40854E+01 0.00000E+00
 -1     23234 4.06820E+00 1.55397E+01 0.00000E+00
 -1     23235 7.53156E+00 4.21929E+01 0.00000E+00
 -1     23236 7.40171E+00 4.13026E+01 0.00000E+00
 -1     23237 8.42252E+00 4.24699E+01 0.00000E+00
 -1     23238 3.31548E+01 5.06094E+01 0.00000E+00
 -1     23239 3.29896E+01 4.96250E+01 0.00000E+00
 -1     23240 3.40553E+01 5.09430E+01 0.00000E+00
 -1     23241 3.23353E+01 3.55551E+01 0.00000E+00
 -1     23242 3.30637E+01 3.62220E+01 0.00000E+00
 -1     23243 3.13825E+01 3.58656E+01 0.00000E+00
 -1     23244 7.91123E+00 1.27799E+01 0.00000E+00
 -1     23245 8.60138E+00 1.34633E+01 0.00000E+00
 -1     23246 3.37993E+01 3.68860E+01 0.00000E+00
 -1     23247 3.45340E+01 3.75485E+01 0.00000E+00
 -1     23248 3.28430E+01 3.72029E+01 0.00000E+00
 -1     23249 4.19055E+00 1.74691E+01 0.00000E+00
 -1     23250 4.16274E+00 1.64899E+01 0.00000E+00
 -1     23251 4.94590E+00 1.60030E+01 0.00000E+00
 -1     23252 5.02521E+00 1.79490E+01 0.00000E+00
 -1     23253 5.69170E+00 4.07138E+01 0.00000E+00
 -1     23254 4.19101E+01 4.55245E+01 0.00000E+00
 -1     23255 2.76824E+01 4.86830E+01 0.00000E+00
 -1     23256 2.74942E+01 4.77130E+01 0.00000E+00
 -1     23257 2.86057E+01 4.89887E+01 0.00000E+00
 -1     23258 4.33958E+01 4.90306E+01 0.00000E+00
 -1     23259 4.25038E+01 4.93292E+01 0.00000E+00
 -1     23260 3.77100E+01 5.20792E+01 0.00000E+00
 -1     23261 3.67584E+01 5.18417E+01 0.00000E+00
 -1     23262 3.58390E+01 5.16048E+01 0.00000E+00
 -1     23263 3.49153E+01 5.13051E+01 0.00000E+00
 -1     23264 3.47353E+01 5.03401E+01 0.00000E+00
 -1     23265 3.65148E+01 5.09391E+01 0.00000E+00
 -1     23266 2.70745E+01 3.17945E+01 0.00000E+00
 -1     23267 9.14866E+00 4.18088E+01 0.00000E+00
 -1     23268 2.56414E+01 3.04380E+01 0.00000E+00
 -1     23269 4.20045E+00 2.14635E+01 0.00000E+00
 -1     23270 4.18675E+00 2.04631E+01 0.00000E+00
 -1     23271 5.01583E+00 1.99475E+01 0.00000E+00
 -1     23272 5.06211E+00 2.19482E+01 0.00000E+00
 -1     23273 4.06293E+01 5.26196E+01 0.00000E+00
 -1     23274 8.35044E+00 1.44470E+01 0.00000E+00
 -1     23275 7.05898E+00 1.30509E+01 0.00000E+00
 -1     23276 3.86684E+01 5.21896E+01 0.00000E+00
 -1     23277 3.83927E+01 5.12864E+01 0.00000E+00
 -1     23278 3.96386E+01 5.24079E+01 0.00000E+00
 -1     23279 2.93509E+01 4.83185E+01 0.00000E+00
 -1     23280 4.17808E+01 4.66040E+01 0.00000E+00
 -1     23281 4.16836E+01 4.76648E+01 0.00000E+00
 -1     23282 7.30688E+00 1.47481E+01 0.00000E+00
 -1     23283 7.92841E+00 1.54609E+01 0.00000E+00
 -1     23284 1.89346E+01 2.53973E+01 0.00000E+00
 -1     23285 1.96617E+01 2.60595E+01 0.00000E+00
 -1     23286 5.57571E+00 3.98480E+01 0.00000E+00
 -1     23287 5.53651E+00 3.89236E+01 0.00000E+00
 -1     23288 6.41749E+00 4.01720E+01 0.00000E+00
 -1     23289 2.47106E+01 3.07175E+01 0.00000E+00
 -1     23290 2.54293E+01 3.13940E+01 0.00000E+00
 -1     23291 4.03417E+01 5.16085E+01 0.00000E+00
 -1     23292 6.03005E+00 2.43978E+01 0.00000E+00
 -1     23293 6.00627E+00 2.34030E+01 0.00000E+00
 -1     23294 5.56714E+00 1.27428E+01 0.00000E+00
 -1     23295 3.52808E+01 3.81987E+01 0.00000E+00
 -1     23296 3.60183E+01 3.88675E+01 0.00000E+00
 -1     23297 3.43253E+01 3.85170E+01 0.00000E+00
 -1     23298 8.75668E+00 1.61409E+01 0.00000E+00
 -1     23299 9.48181E+00 1.68116E+01 0.00000E+00
 -1     23300 7.71312E+00 1.64420E+01 0.00000E+00
 -1     23301 3.37565E+01 4.89834E+01 0.00000E+00
 -1     23302 3.28707E+01 4.86304E+01 0.00000E+00
 -1     23303 2.63743E+01 4.64412E+01 0.00000E+00
 -1     23304 2.54492E+01 4.61341E+01 0.00000E+00
 -1     23305 3.19546E+01 4.82709E+01 0.00000E+00
 -1     23306 3.10420E+01 4.79461E+01 0.00000E+00
 -1     23307 3.27215E+01 4.76293E+01 0.00000E+00
 -1     23308 2.45320E+01 4.58190E+01 0.00000E+00
 -1     23309 2.36084E+01 4.55132E+01 0.00000E+00
 -1     23310 2.52662E+01 4.51559E+01 0.00000E+00
 -1     23311 2.61366E+01 3.20841E+01 0.00000E+00
 -1     23312 2.68510E+01 3.27642E+01 0.00000E+00
 -1     23313 2.52058E+01 3.23637E+01 0.00000E+00
 -1     23314 4.09700E+01 4.58986E+01 0.00000E+00
 -1     23315 1.16132E+01 4.16234E+01 0.00000E+00
 -1     23316 1.07229E+01 4.13552E+01 0.00000E+00
 -1     23317 3.01020E+01 4.76392E+01 0.00000E+00
 -1     23318 2.91744E+01 4.73354E+01 0.00000E+00
 -1     23319 3.08655E+01 4.69629E+01 0.00000E+00
 -1     23320 9.84631E+00 4.11185E+01 0.00000E+00
 -1     23321 8.96758E+00 4.08770E+01 0.00000E+00
 -1     23322 1.05418E+01 4.04234E+01 0.00000E+00
 -1     23323 1.02356E+01 1.74777E+01 0.00000E+00
 -1     23324 1.09616E+01 1.81481E+01 0.00000E+00
 -1     23325 9.29519E+00 1.77880E+01 0.00000E+00
 -1     23326 3.58143E+01 3.98431E+01 0.00000E+00
 -1     23327 3.77882E+01 4.29649E+01 0.00000E+00
 -1     23328 3.85397E+01 4.36845E+01 0.00000E+00
 -1     23329 2.82327E+01 4.70476E+01 0.00000E+00
 -1     23330 2.73037E+01 4.67459E+01 0.00000E+00
 -1     23331 2.71128E+01 4.57758E+01 0.00000E+00
 -1     23332 2.89839E+01 4.63683E+01 0.00000E+00
 -1     23333 1.52492E+01 4.28198E+01 0.00000E+00
 -1     23334 1.43330E+01 4.25174E+01 0.00000E+00
 -1     23335 3.93612E+01 4.44154E+01 0.00000E+00
 -1     23336 4.01481E+01 4.51334E+01 0.00000E+00
 -1     23337 3.83753E+01 4.47167E+01 0.00000E+00
 -1     23338 5.82707E+00 3.43545E+01 0.00000E+00
 -1     23339 5.86788E+00 3.34022E+01 0.00000E+00
 -1     23340 1.34187E+01 4.22100E+01 0.00000E+00
 -1     23341 1.25126E+01 4.19155E+01 0.00000E+00
 -1     23342 1.41316E+01 4.15516E+01 0.00000E+00
 -1     23343 5.43944E+00 1.35775E+01 0.00000E+00
 -1     23344 6.26134E+00 1.32023E+01 0.00000E+00
 -1     23345 6.93127E+00 1.38857E+01 0.00000E+00
 -1     23346 5.49250E+00 1.45450E+01 0.00000E+00
 -1     23347 3.33701E+01 3.88530E+01 0.00000E+00
 -1     23348 3.41169E+01 3.95031E+01 0.00000E+00
 -1     23349 5.95841E+00 2.84582E+01 0.00000E+00
 -1     23350 5.97409E+00 2.74543E+01 0.00000E+00
 -1     23351 2.75546E+01 3.34507E+01 0.00000E+00
 -1     23352 2.82697E+01 3.41306E+01 0.00000E+00
 -1     23353 2.66167E+01 3.37403E+01 0.00000E+00
 -1     23354 1.61738E+01 4.31257E+01 0.00000E+00
 -1     23355 1.59705E+01 4.21648E+01 0.00000E+00
 -1     23356 1.70978E+01 4.34289E+01 0.00000E+00
 -1     23357 1.82030E+01 2.47402E+01 0.00000E+00
 -1     23358 1.80086E+01 2.56982E+01 0.00000E+00
 -1     23359 1.74704E+01 2.40820E+01 0.00000E+00
 -1     23360 4.19067E+01 5.10636E+01 0.00000E+00
 -1     23361 3.71248E+01 5.03978E+01 0.00000E+00
 -1     23362 3.62053E+01 5.01609E+01 0.00000E+00
 -1     23363 2.03820E+01 2.67229E+01 0.00000E+00
 -1     23364 2.11057E+01 2.73877E+01 0.00000E+00
 -1     23365 1.94604E+01 2.70188E+01 0.00000E+00
 -1     23366 1.45307E+01 2.14826E+01 0.00000E+00
 -1     23367 1.52600E+01 2.21372E+01 0.00000E+00
 -1     23368 1.16673E+01 1.88304E+01 0.00000E+00
 -1     23369 1.23822E+01 1.95007E+01 0.00000E+00
 -1     23370 1.07547E+01 1.91364E+01 0.00000E+00
 -1     23371 5.80867E+00 2.04315E+01 0.00000E+00
 -1     23372 5.80283E+00 1.94288E+01 0.00000E+00
 -1     23373 3.26123E+01 3.82022E+01 0.00000E+00
 -1     23374 3.24038E+01 3.91883E+01 0.00000E+00
 -1     23375 3.18767E+01 3.75382E+01 0.00000E+00
 -1     23376 2.39924E+01 3.00459E+01 0.00000E+00
 -1     23377 2.37803E+01 3.10019E+01 0.00000E+00
 -1     23378 2.32694E+01 2.93771E+01 0.00000E+00
 -1     23379 1.30820E+01 2.01719E+01 0.00000E+00
 -1     23380 1.37994E+01 2.08330E+01 0.00000E+00
 -1     23381 1.21603E+01 2.04898E+01 0.00000E+00
 -1     23382 2.26814E+01 4.52124E+01 0.00000E+00
 -1     23383 2.17550E+01 4.49118E+01 0.00000E+00
 -1     23384 2.34221E+01 4.45401E+01 0.00000E+00
 -1     23385 6.01101E+00 2.54243E+01 0.00000E+00
 -1     23386 6.89095E+00 2.48862E+01 0.00000E+00
 -1     23387 6.00249E+00 2.64321E+01 0.00000E+00
 -1     23388 5.93897E+00 2.94675E+01 0.00000E+00
 -1     23389 6.79567E+00 2.89663E+01 0.00000E+00
 -1     23390 5.92455E+00 3.04630E+01 0.00000E+00
 -1     23391 1.59984E+01 2.27792E+01 0.00000E+00
 -1     23392 1.67316E+01 2.34336E+01 0.00000E+00
 -1     23393 1.65382E+01 2.43927E+01 0.00000E+00
 -1     23394 1.50610E+01 2.31022E+01 0.00000E+00
 -1     23395 3.48820E+01 4.01140E+01 0.00000E+00
 -1     23396 3.56241E+01 4.07900E+01 0.00000E+00
 -1     23397 3.39267E+01 4.04501E+01 0.00000E+00
 -1     23398 4.07062E+01 4.81979E+01 0.00000E+00
 -1     23399 4.15491E+01 4.88846E+01 0.00000E+00
 -1     23400 5.54488E+00 3.80283E+01 0.00000E+00
 -1     23401 5.57486E+00 3.70959E+01 0.00000E+00
 -1     23402 6.30987E+00 3.84108E+01 0.00000E+00
 -1     23403 5.69630E+00 3.62149E+01 0.00000E+00
 -1     23404 5.75659E+00 3.52820E+01 0.00000E+00
 -1     23405 6.63160E+00 3.48258E+01 0.00000E+00
 -1     23406 6.43968E+00 3.66343E+01 0.00000E+00
 -1     23407 8.11602E+00 4.07094E+01 0.00000E+00
 -1     23408 7.24780E+00 4.04446E+01 0.00000E+00
 -1     23409 2.08209E+01 4.46194E+01 0.00000E+00
 -1     23410 1.98921E+01 4.43210E+01 0.00000E+00
 -1     23411 2.15610E+01 4.39470E+01 0.00000E+00
 -1     23412 6.50924E+00 1.48995E+01 0.00000E+00
 -1     23413 3.46090E+01 4.93883E+01 0.00000E+00
 -1     23414 3.44902E+01 4.83937E+01 0.00000E+00
 -1     23415 3.54690E+01 4.97504E+01 0.00000E+00
 -1     23416 2.18253E+01 2.80512E+01 0.00000E+00
 -1     23417 2.25483E+01 2.87165E+01 0.00000E+00
 -1     23418 2.09003E+01 2.83457E+01 0.00000E+00
 -1     23419 4.15264E+01 4.98623E+01 0.00000E+00
 -1     23420 8.81367E+00 4.00190E+01 0.00000E+00
 -1     23421 1.35914E+01 2.18106E+01 0.00000E+00
 -1     23422 4.00187E+01 4.62128E+01 0.00000E+00
 -1     23423 1.23178E+01 4.09521E+01 0.00000E+00
 -1     23424 3.63449E+01 4.15035E+01 0.00000E+00
 -1     23425 3.70780E+01 4.22159E+01 0.00000E+00
 -1     23426 3.68436E+01 4.32368E+01 0.00000E+00
 -1     23427 3.54126E+01 4.17744E+01 0.00000E+00
 -1     23428 1.89573E+01 4.40281E+01 0.00000E+00
 -1     23429 1.80290E+01 4.37280E+01 0.00000E+00
 -1     23430 1.96922E+01 4.33617E+01 0.00000E+00
 -1     23431 3.79640E+01 5.03407E+01 0.00000E+00
 -1     23432 3.76546E+01 4.95625E+01 0.00000E+00
 -1     23433 3.89225E+01 5.04510E+01 0.00000E+00
 -1     23434 2.23410E+01 2.96698E+01 0.00000E+00
 -1     23435 7.13181E+00 3.95788E+01 0.00000E+00
 -1     23436 4.09520E+01 5.06190E+01 0.00000E+00
 -1     23437 5.91268E+00 2.24236E+01 0.00000E+00
 -1     23438 5.87224E+00 2.14256E+01 0.00000E+00
 -1     23439 6.65924E+00 2.09069E+01 0.00000E+00
 -1     23440 6.81640E+00 2.28804E+01 0.00000E+00
 -1     23441 3.99614E+01 5.04072E+01 0.00000E+00
 -1     23442 5.89294E+00 3.24336E+01 0.00000E+00
 -1     23443 5.91253E+00 3.14558E+01 0.00000E+00
 -1     23444 6.76421E+00 3.09685E+01 0.00000E+00
 -1     23445 6.72713E+00 3.29299E+01 0.00000E+00
 -1     23446 2.89828E+01 3.48172E+01 0.00000E+00
 -1     23447 2.97020E+01 3.54962E+01 0.00000E+00
 -1     23448 2.80334E+01 3.51134E+01 0.00000E+00
 -1     23449 3.90708E+01 4.64889E+01 0.00000E+00
 -1     23450 3.98928E+01 4.72541E+01 0.00000E+00
 -1     23451 2.14134E+01 2.99632E+01 0.00000E+00
 -1     23452 2.21346E+01 3.06238E+01 0.00000E+00
 -1     23453 2.94654E+01 3.64906E+01 0.00000E+00
 -1     23454 3.04209E+01 3.61868E+01 0.00000E+00
 -1     23455 5.86810E+00 1.54074E+01 0.00000E+00
 -1     23456 2.85040E+01 3.67961E+01 0.00000E+00
 -1     23457 2.92229E+01 3.74867E+01 0.00000E+00
 -1     23458 9.42576E+00 3.92680E+01 0.00000E+00
 -1     23459 8.57421E+00 3.91004E+01 0.00000E+00
 -1     23460 1.70984E+01 2.59955E+01 0.00000E+00
 -1     23461 1.78300E+01 2.66527E+01 0.00000E+00
 -1     23462 3.97583E+01 4.84740E+01 0.00000E+00
 -1     23463 3.11458E+01 3.68601E+01 0.00000E+00
 -1     23464 6.84351E+00 2.69349E+01 0.00000E+00
 -1     23465 6.80660E+00 1.68468E+01 0.00000E+00
 -1     23466 7.63487E+00 1.75268E+01 0.00000E+00
 -1     23467 5.86918E+00 1.84382E+01 0.00000E+00
 -1     23468 5.88440E+00 1.74424E+01 0.00000E+00
 -1     23469 6.66201E+00 1.89223E+01 0.00000E+00
 -1     23470 7.77897E+00 3.90979E+01 0.00000E+00
 -1     23471 6.94866E+00 3.88253E+01 0.00000E+00
 -1     23472 6.95704E+00 3.79299E+01 0.00000E+00
 -1     23473 8.39107E+00 3.83468E+01 0.00000E+00
 -1     23474 2.60152E+01 4.44804E+01 0.00000E+00
 -1     23475 2.50981E+01 4.41652E+01 0.00000E+00
 -1     23476 3.60790E+01 4.92091E+01 0.00000E+00
 -1     23477 5.96264E+00 1.63576E+01 0.00000E+00
 -1     23478 2.42816E+01 3.26233E+01 0.00000E+00
 -1     23479 2.49889E+01 3.33134E+01 0.00000E+00
 -1     23480 3.16241E+01 4.62495E+01 0.00000E+00
 -1     23481 3.06841E+01 4.59426E+01 0.00000E+00
 -1     23482 1.48324E+01 4.08946E+01 0.00000E+00
 -1     23483 1.39180E+01 4.05872E+01 0.00000E+00
 -1     23484 1.29984E+01 4.02617E+01 0.00000E+00
 -1     23485 1.20989E+01 3.99697E+01 0.00000E+00
 -1     23486 1.36992E+01 3.96047E+01 0.00000E+00
 -1     23487 1.26474E+01 2.21558E+01 0.00000E+00
 -1     23488 1.33787E+01 2.28054E+01 0.00000E+00
 -1     23489 2.28564E+01 3.12693E+01 0.00000E+00
 -1     23490 2.35745E+01 3.19410E+01 0.00000E+00
 -1     23491 2.19288E+01 3.15628E+01 0.00000E+00
 -1     23492 3.09151E+01 3.78594E+01 0.00000E+00
 -1     23493 7.50686E+00 1.84983E+01 0.00000E+00
 -1     23494 8.41337E+00 1.80934E+01 0.00000E+00
 -1     23495 9.16717E+00 1.87594E+01 0.00000E+00
 -1     23496 7.44051E+00 1.94888E+01 0.00000E+00
 -1     23497 7.31758E+00 2.03601E+01 0.00000E+00
 -1     23498 8.16242E+00 1.99361E+01 0.00000E+00
 -1     23499 7.38115E+00 2.13542E+01 0.00000E+00
 -1     23500 1.78263E+01 4.27698E+01 0.00000E+00
 -1     23501 3.29953E+01 4.08424E+01 0.00000E+00
 -1     23502 3.37604E+01 4.14533E+01 0.00000E+00
 -1     23503 1.85492E+01 2.73124E+01 0.00000E+00
 -1     23504 1.92695E+01 2.79758E+01 0.00000E+00
 -1     23505 1.76391E+01 2.76097E+01 0.00000E+00
 -1     23506 2.99235E+01 3.81975E+01 0.00000E+00
 -1     23507 3.06544E+01 3.88756E+01 0.00000E+00
 -1     23508 2.89622E+01 3.85030E+01 0.00000E+00
 -1     23509 7.67589E+00 2.74537E+01 0.00000E+00
 -1     23510 7.70429E+00 2.64315E+01 0.00000E+00
 -1     23511 2.77824E+01 3.60866E+01 0.00000E+00
 -1     23512 2.75399E+01 3.70827E+01 0.00000E+00
 -1     23513 2.70693E+01 3.54000E+01 0.00000E+00
 -1     23514 7.76337E+00 2.53793E+01 0.00000E+00
 -1     23515 7.78240E+00 2.43528E+01 0.00000E+00
 -1     23516 8.59574E+00 2.58981E+01 0.00000E+00
 -1     23517 7.47818E+00 3.53685E+01 0.00000E+00
 -1     23518 7.54865E+00 3.44411E+01 0.00000E+00
 -1     23519 3.14401E+01 3.95685E+01 0.00000E+00
 -1     23520 3.21979E+01 4.02193E+01 0.00000E+00
 -1     23521 3.20317E+01 4.12226E+01 0.00000E+00
 -1     23522 3.04485E+01 3.99067E+01 0.00000E+00
 -1     23523 2.41747E+01 4.38546E+01 0.00000E+00
 -1     23524 2.32477E+01 4.35538E+01 0.00000E+00
 -1     23525 2.49237E+01 4.31790E+01 0.00000E+00
 -1     23526 1.41329E+01 2.34346E+01 0.00000E+00
 -1     23527 1.48712E+01 2.40766E+01 0.00000E+00
 -1     23528 1.31889E+01 2.37798E+01 0.00000E+00
 -1     23529 2.69068E+01 4.48251E+01 0.00000E+00
 -1     23530 2.67387E+01 4.38344E+01 0.00000E+00
 -1     23531 2.78362E+01 4.51298E+01 0.00000E+00
 -1     23532 1.63582E+01 2.53525E+01 0.00000E+00
 -1     23533 1.61796E+01 2.63069E+01 0.00000E+00
 -1     23534 1.56194E+01 2.47041E+01 0.00000E+00
 -1     23535 2.23028E+01 4.32691E+01 0.00000E+00
 -1     23536 2.13687E+01 4.29767E+01 0.00000E+00
 -1     23537 2.30554E+01 4.25836E+01 0.00000E+00
 -1     23538 3.95328E+01 4.94616E+01 0.00000E+00
 -1     23539 1.99801E+01 2.86432E+01 0.00000E+00
 -1     23540 2.06997E+01 2.93067E+01 0.00000E+00
 -1     23541 2.04932E+01 3.02607E+01 0.00000E+00
 -1     23542 1.90689E+01 2.89368E+01 0.00000E+00
 -1     23543 1.57586E+01 4.12095E+01 0.00000E+00
 -1     23544 1.55451E+01 4.02452E+01 0.00000E+00
 -1     23545 1.66832E+01 4.15154E+01 0.00000E+00
 -1     23546 3.69428E+01 4.87904E+01 0.00000E+00
 -1     23547 3.62065E+01 4.83800E+01 0.00000E+00
 -1     23548 3.26178E+01 4.66077E+01 0.00000E+00
 -1     23549 3.24365E+01 4.55873E+01 0.00000E+00
 -1     23550 3.35339E+01 4.69671E+01 0.00000E+00
 -1     23551 2.33577E+01 3.28907E+01 0.00000E+00
 -1     23552 3.53413E+01 4.78132E+01 0.00000E+00
 -1     23553 3.44887E+01 4.74083E+01 0.00000E+00
 -1     23554 3.43850E+01 4.63867E+01 0.00000E+00
 -1     23555 3.62051E+01 4.73945E+01 0.00000E+00
 -1     23556 8.98080E+00 1.97482E+01 0.00000E+00
 -1     23557 9.86262E+00 1.94428E+01 0.00000E+00
 -1     23558 1.05684E+01 2.01251E+01 0.00000E+00
 -1     23559 8.85787E+00 2.06194E+01 0.00000E+00
 -1     23560 1.11862E+01 3.96651E+01 0.00000E+00
 -1     23561 1.03096E+01 3.94284E+01 0.00000E+00
 -1     23562 7.86228E+00 2.32129E+01 0.00000E+00
 -1     23563 7.76869E+00 2.22335E+01 0.00000E+00
 -1     23564 8.42703E+00 2.16866E+01 0.00000E+00
 -1     23565 8.73469E+00 2.37059E+01 0.00000E+00
 -1     23566 2.56648E+01 3.40429E+01 0.00000E+00
 -1     23567 2.63685E+01 3.47294E+01 0.00000E+00
 -1     23568 2.47407E+01 3.43025E+01 0.00000E+00
 -1     23569 2.97278E+01 4.56885E+01 0.00000E+00
 -1     23570 2.87861E+01 4.54008E+01 0.00000E+00
 -1     23571 3.04864E+01 4.49751E+01 0.00000E+00
 -1     23572 1.18667E+01 3.89747E+01 0.00000E+00
 -1     23573 1.00701E+01 3.85097E+01 0.00000E+00
 -1     23574 2.04222E+01 4.26946E+01 0.00000E+00
 -1     23575 1.94874E+01 4.24018E+01 0.00000E+00
 -1     23576 2.11640E+01 4.20168E+01 0.00000E+00
 -1     23577 3.73959E+01 4.50002E+01 0.00000E+00
 -1     23578 3.82174E+01 4.57312E+01 0.00000E+00
 -1     23579 7.57085E+00 3.34574E+01 0.00000E+00
 -1     23580 7.59591E+00 3.24888E+01 0.00000E+00
 -1     23581 8.41743E+00 3.40001E+01 0.00000E+00
 -1     23582 3.80914E+01 4.67724E+01 0.00000E+00
 -1     23583 7.63965E+00 2.84787E+01 0.00000E+00
 -1     23584 8.50042E+00 2.79752E+01 0.00000E+00
 -1     23585 7.62021E+00 2.94879E+01 0.00000E+00
 -1     23586 3.64308E+01 4.42915E+01 0.00000E+00
 -1     23587 3.62729E+01 4.53060E+01 0.00000E+00
 -1     23588 3.57206E+01 4.35425E+01 0.00000E+00
 -1     23589 1.85468E+01 4.21139E+01 0.00000E+00
 -1     23590 1.76157E+01 4.18148E+01 0.00000E+00
 -1     23591 1.74037E+01 4.08595E+01 0.00000E+00
 -1     23592 1.92768E+01 4.14468E+01 0.00000E+00
 -1     23593 9.41275E+00 2.64706E+01 0.00000E+00
 -1     23594 9.47183E+00 2.54184E+01 0.00000E+00
 -1     23595 2.10066E+01 3.18632E+01 0.00000E+00
 -1     23596 2.17284E+01 3.25088E+01 0.00000E+00
 -1     23597 1.12038E+01 2.08349E+01 0.00000E+00
 -1     23598 1.19036E+01 2.15060E+01 0.00000E+00
 -1     23599 3.87194E+01 4.85178E+01 0.00000E+00
 -1     23600 7.59671E+00 3.14905E+01 0.00000E+00
 -1     23601 7.60873E+00 3.04977E+01 0.00000E+00
 -1     23602 8.45271E+00 3.00100E+01 0.00000E+00
 -1     23603 8.44043E+00 3.20180E+01 0.00000E+00
 -1     23604 1.43973E+01 3.89589E+01 0.00000E+00
 -1     23605 1.34776E+01 3.86333E+01 0.00000E+00
 -1     23606 7.21022E+00 3.71579E+01 0.00000E+00
 -1     23607 7.33166E+00 3.62768E+01 0.00000E+00
 -1     23608 8.24871E+00 3.58921E+01 0.00000E+00
 -1     23609 7.84901E+00 3.75724E+01 0.00000E+00
 -1     23610 3.80076E+01 4.77457E+01 0.00000E+00
 -1     23611 3.77821E+01 4.87333E+01 0.00000E+00
 -1     23612 1.05701E+01 3.75612E+01 0.00000E+00
 -1     23613 9.68628E+00 3.74008E+01 0.00000E+00
 -1     23614 1.16909E+01 2.25008E+01 0.00000E+00
 -1     23615 1.07301E+01 2.28785E+01 0.00000E+00
 -1     23616 1.14740E+01 2.35283E+01 0.00000E+00
 -1     23617 3.32100E+01 4.49378E+01 0.00000E+00
 -1     23618 3.22163E+01 4.45796E+01 0.00000E+00
 -1     23619 1.25377E+01 3.82605E+01 0.00000E+00
 -1     23620 1.16249E+01 3.79560E+01 0.00000E+00
 -1     23621 1.32358E+01 3.76146E+01 0.00000E+00
 -1     23622 3.45364E+01 4.19300E+01 0.00000E+00
 -1     23623 3.52573E+01 4.26434E+01 0.00000E+00
 -1     23624 3.36051E+01 4.23223E+01 0.00000E+00
 -1     23625 2.24523E+01 3.31092E+01 0.00000E+00
 -1     23626 2.31594E+01 3.37915E+01 0.00000E+00
 -1     23627 2.15301E+01 3.34096E+01 0.00000E+00
 -1     23628 1.03116E+01 2.11413E+01 0.00000E+00
 -1     23629 3.71541E+01 4.69880E+01 0.00000E+00
 -1     23630 3.62889E+01 4.64212E+01 0.00000E+00
 -1     23631 1.67513E+01 2.78982E+01 0.00000E+00
 -1     23632 1.74705E+01 2.85579E+01 0.00000E+00
 -1     23633 2.57095E+01 4.24746E+01 0.00000E+00
 -1     23634 2.47860E+01 4.21640E+01 0.00000E+00
 -1     23635 2.78389E+01 3.88736E+01 0.00000E+00
 -1     23636 2.85395E+01 3.95844E+01 0.00000E+00
 -1     23637 2.02834E+01 3.12268E+01 0.00000E+00
 -1     23638 2.00830E+01 3.21728E+01 0.00000E+00
 -1     23639 1.95697E+01 3.05703E+01 0.00000E+00
 -1     23640 3.48444E+01 4.36982E+01 0.00000E+00
 -1     23641 2.85802E+01 4.44501E+01 0.00000E+00
 -1     23642 3.10863E+01 4.17630E+01 0.00000E+00
 -1     23643 3.18837E+01 4.23860E+01 0.00000E+00
 -1     23644 1.46913E+01 2.50365E+01 0.00000E+00
 -1     23645 9.88079E+00 2.22085E+01 0.00000E+00
 -1     23646 9.66389E+00 2.32359E+01 0.00000E+00
 -1     23647 1.22651E+01 2.41473E+01 0.00000E+00
 -1     23648 1.30193E+01 2.47765E+01 0.00000E+00
 -1     23649 1.13044E+01 2.45249E+01 0.00000E+00
 -1     23650 2.61174E+01 3.57026E+01 0.00000E+00
 -1     23651 3.19641E+01 4.34282E+01 0.00000E+00
 -1     23652 3.29094E+01 4.28878E+01 0.00000E+00
 -1     23653 2.38100E+01 4.18877E+01 0.00000E+00
 -1     23654 2.28652E+01 4.16029E+01 0.00000E+00
 -1     23655 2.45958E+01 4.11833E+01 0.00000E+00
 -1     23656 1.12411E+01 3.68470E+01 0.00000E+00
 -1     23657 3.53238E+01 4.57125E+01 0.00000E+00
 -1     23658 3.36854E+01 4.33645E+01 0.00000E+00
 -1     23659 1.04010E+01 2.49484E+01 0.00000E+00
 -1     23660 9.58401E+00 2.43759E+01 0.00000E+00
 -1     23661 2.38172E+01 3.45145E+01 0.00000E+00
 -1     23662 2.44931E+01 3.52440E+01 0.00000E+00
 -1     23663 2.29118E+01 3.47330E+01 0.00000E+00
 -1     23664 8.64425E+00 3.75748E+01 0.00000E+00
 -1     23665 3.11906E+01 4.40778E+01 0.00000E+00
 -1     23666 1.60248E+01 2.72556E+01 0.00000E+00
 -1     23667 1.58563E+01 2.82038E+01 0.00000E+00
 -1     23668 1.52847E+01 2.66125E+01 0.00000E+00
 -1     23669 3.02342E+01 4.38237E+01 0.00000E+00
 -1     23670 9.27902E+00 3.45702E+01 0.00000E+00
 -1     23671 9.30122E+00 3.35865E+01 0.00000E+00
 -1     23672 2.18986E+01 4.13377E+01 0.00000E+00
 -1     23673 2.09521E+01 4.10556E+01 0.00000E+00
 -1     23674 2.26532E+01 4.06417E+01 0.00000E+00
 -1     23675 2.73621E+01 3.79847E+01 0.00000E+00
 -1     23676 2.69394E+01 3.90661E+01 0.00000E+00
 -1     23677 2.66404E+01 3.72752E+01 0.00000E+00
 -1     23678 3.43690E+01 4.52714E+01 0.00000E+00
 -1     23679 2.66274E+01 4.28265E+01 0.00000E+00
 -1     23680 2.64897E+01 4.18115E+01 0.00000E+00
 -1     23681 2.75190E+01 4.31713E+01 0.00000E+00
 -1     23682 9.34116E+00 2.74944E+01 0.00000E+00
 -1     23683 1.02173E+01 2.70147E+01 0.00000E+00
 -1     23684 9.30492E+00 2.85194E+01 0.00000E+00
 -1     23685 1.53255E+01 3.92968E+01 0.00000E+00
 -1     23686 1.51039E+01 3.83254E+01 0.00000E+00
 -1     23687 1.62517E+01 3.96117E+01 0.00000E+00
 -1     23688 9.14422E+00 3.66263E+01 0.00000E+00
 -1     23689 1.21332E+01 3.62081E+01 0.00000E+00
 -1     23690 1.10784E+01 3.58133E+01 0.00000E+00
 -1     23691 3.41487E+01 4.42637E+01 0.00000E+00
 -1     23692 9.24541E+00 2.14987E+01 0.00000E+00
 -1     23693 1.37848E+01 2.53791E+01 0.00000E+00
 -1     23694 1.45329E+01 2.60065E+01 0.00000E+00
 -1     23695 1.28610E+01 2.57465E+01 0.00000E+00
 -1     23696 2.53543E+01 4.04680E+01 0.00000E+00
 -1     23697 2.43783E+01 4.01917E+01 0.00000E+00
 -1     23698 9.29073E+00 3.57180E+01 0.00000E+00
 -1     23699 1.81643E+01 2.92315E+01 0.00000E+00
 -1     23700 1.88748E+01 2.98989E+01 0.00000E+00
 -1     23701 1.86651E+01 3.08650E+01 0.00000E+00
 -1     23702 1.72765E+01 2.95200E+01 0.00000E+00
 -1     23703 1.11922E+01 2.55674E+01 0.00000E+00
 -1     23704 2.94731E+01 4.02214E+01 0.00000E+00
 -1     23705 3.02589E+01 4.09143E+01 0.00000E+00
 -1     23706 3.01109E+01 4.20777E+01 0.00000E+00
 -1     23707 2.83499E+01 4.05920E+01 0.00000E+00
 -1     23708 2.06372E+01 3.37559E+01 0.00000E+00
 -1     23709 2.13612E+01 3.43564E+01 0.00000E+00
 -1     23710 2.99609E+01 4.29758E+01 0.00000E+00
 -1     23711 2.92567E+01 4.38731E+01 0.00000E+00
 -1     23712 2.83068E+01 4.36022E+01 0.00000E+00
 -1     23713 2.91334E+01 4.21271E+01 0.00000E+00
 -1     23714 1.01745E+01 3.53044E+01 0.00000E+00
 -1     23715 2.50696E+01 3.61298E+01 0.00000E+00
 -1     23716 2.57704E+01 3.68004E+01 0.00000E+00
 -1     23717 2.55926E+01 3.77024E+01 0.00000E+00
 -1     23718 2.41461E+01 3.63418E+01 0.00000E+00
 -1     23719 1.10667E+01 3.46655E+01 0.00000E+00
 -1     23720 1.98949E+01 3.31565E+01 0.00000E+00
 -1     23721 1.97259E+01 3.41033E+01 0.00000E+00
 -1     23722 1.91717E+01 3.25202E+01 0.00000E+00
 -1     23723 1.40016E+01 3.69958E+01 0.00000E+00
 -1     23724 1.30617E+01 3.66230E+01 0.00000E+00
 -1     23725 1.28990E+01 3.55893E+01 0.00000E+00
 -1     23726 1.43782E+01 2.69551E+01 0.00000E+00
 -1     23727 9.27466E+00 3.25543E+01 0.00000E+00
 -1     23728 9.27545E+00 3.15560E+01 0.00000E+00
 -1     23729 1.01362E+01 3.31244E+01 0.00000E+00
 -1     23730 9.26511E+00 3.05435E+01 0.00000E+00
 -1     23731 9.27659E+00 2.95338E+01 0.00000E+00
 -1     23732 1.01173E+01 2.90529E+01 0.00000E+00
 -1     23733 1.00993E+01 3.10798E+01 0.00000E+00
 -1     23734 1.49963E+01 2.84783E+01 0.00000E+00
 -1     23735 1.57228E+01 2.91210E+01 0.00000E+00
 -1     23736 2.57997E+01 3.88268E+01 0.00000E+00
 -1     23737 2.62766E+01 3.97157E+01 0.00000E+00
 -1     23738 2.33989E+01 3.99304E+01 0.00000E+00
 -1     23739 2.24323E+01 3.96651E+01 0.00000E+00
 -1     23740 2.41575E+01 3.92151E+01 0.00000E+00
 -1     23741 1.64006E+01 2.97945E+01 0.00000E+00
 -1     23742 1.70944E+01 3.04681E+01 0.00000E+00
 -1     23743 1.55407E+01 3.00690E+01 0.00000E+00
 -1     23744 2.20738E+01 3.48111E+01 0.00000E+00
 -1     23745 2.27316E+01 3.55341E+01 0.00000E+00
 -1     23746 2.11809E+01 3.51574E+01 0.00000E+00
 -1     23747 1.18953E+01 3.41516E+01 0.00000E+00
 -1     23748 1.09914E+01 3.36427E+01 0.00000E+00
 -1     23749 1.10743E+01 2.65655E+01 0.00000E+00
 -1     23750 1.19777E+01 2.61420E+01 0.00000E+00
 -1     23751 1.27431E+01 2.67446E+01 0.00000E+00
 -1     23752 1.10027E+01 2.75893E+01 0.00000E+00
 -1     23753 2.81955E+01 4.25943E+01 0.00000E+00
 -1     23754 1.09648E+01 3.26105E+01 0.00000E+00
 -1     23755 1.99917E+01 4.07813E+01 0.00000E+00
 -1     23756 1.90511E+01 4.04934E+01 0.00000E+00
 -1     23757 2.07263E+01 4.01022E+01 0.00000E+00
 -1     23758 1.81128E+01 4.02087E+01 0.00000E+00
 -1     23759 1.71803E+01 3.99093E+01 0.00000E+00
 -1     23760 1.69607E+01 3.89609E+01 0.00000E+00
 -1     23761 1.88277E+01 3.95432E+01 0.00000E+00
 -1     23762 1.48822E+01 3.73952E+01 0.00000E+00
 -1     23763 1.47080E+01 3.64035E+01 0.00000E+00
 -1     23764 1.58103E+01 3.77330E+01 0.00000E+00
 -1     23765 2.64940E+01 4.07073E+01 0.00000E+00
 -1     23766 2.74120E+01 4.10592E+01 0.00000E+00
 -1     23767 1.77376E+01 3.11688E+01 0.00000E+00
 -1     23768 1.84324E+01 3.18401E+01 0.00000E+00
 -1     23769 1.68617E+01 3.14432E+01 0.00000E+00
 -1     23770 1.35056E+01 2.73102E+01 0.00000E+00
 -1     23771 1.42573E+01 2.79162E+01 0.00000E+00
 -1     23772 1.41238E+01 2.88333E+01 0.00000E+00
 -1     23773 1.26222E+01 2.77057E+01 0.00000E+00
 -1     23774 2.83456E+01 4.16962E+01 0.00000E+00
 -1     23775 2.49297E+01 3.83520E+01 0.00000E+00
 -1     23776 1.28060E+01 3.45897E+01 0.00000E+00
 -1     23777 1.27307E+01 3.35668E+01 0.00000E+00
 -1     23778 1.37345E+01 3.50046E+01 0.00000E+00
 -1     23779 1.17621E+01 3.21263E+01 0.00000E+00
 -1     23780 1.09070E+01 3.16081E+01 0.00000E+00
 -1     23781 1.82442E+01 3.28239E+01 0.00000E+00
 -1     23782 2.39503E+01 3.80907E+01 0.00000E+00
 -1     23783 1.33022E+01 2.92168E+01 0.00000E+00
 -1     23784 1.40412E+01 2.97790E+01 0.00000E+00
 -1     23785 1.88558E+01 3.46059E+01 0.00000E+00
 -1     23786 1.95982E+01 3.52053E+01 0.00000E+00
 -1     23787 1.08966E+01 3.05956E+01 0.00000E+00
 -1     23788 2.05411E+01 3.56798E+01 0.00000E+00
 -1     23789 2.12538E+01 3.61345E+01 0.00000E+00
 -1     23790 1.96710E+01 3.61824E+01 0.00000E+00
 -1     23791 2.30714E+01 3.63046E+01 0.00000E+00
 -1     23792 2.36479E+01 3.71904E+01 0.00000E+00
 -1     23793 2.28756E+01 3.80535E+01 0.00000E+00
 -1     23794 2.22334E+01 3.63827E+01 0.00000E+00
 -1     23795 1.09280E+01 2.85817E+01 0.00000E+00
 -1     23796 1.17851E+01 2.81325E+01 0.00000E+00
 -1     23797 1.25476E+01 2.86980E+01 0.00000E+00
 -1     23798 1.08997E+01 2.95961E+01 0.00000E+00
 -1     23799 1.80755E+01 3.37777E+01 0.00000E+00
 -1     23800 1.79478E+01 3.48797E+01 0.00000E+00
 -1     23801 1.73361E+01 3.30977E+01 0.00000E+00
 -1     23802 1.24650E+01 2.96436E+01 0.00000E+00
 -1     23803 1.54885E+01 3.58264E+01 0.00000E+00
 -1     23804 1.46080E+01 3.54271E+01 0.00000E+00
 -1     23805 1.17073E+01 3.01243E+01 0.00000E+00
 -1     23806 1.35044E+01 3.30558E+01 0.00000E+00
 -1     23807 1.25937E+01 3.26177E+01 0.00000E+00
 -1     23808 1.45149E+01 3.44274E+01 0.00000E+00
 -1     23809 2.21798E+01 3.87277E+01 0.00000E+00
 -1     23810 2.14341E+01 3.94390E+01 0.00000E+00
 -1     23811 1.47417E+01 3.02295E+01 0.00000E+00
 -1     23812 1.54196E+01 3.09030E+01 0.00000E+00
 -1     23813 1.39202E+01 3.06130E+01 0.00000E+00
 -1     23814 1.25358E+01 3.16152E+01 0.00000E+00
 -1     23815 2.04738E+01 3.91647E+01 0.00000E+00
 -1     23816 2.18773E+01 3.78274E+01 0.00000E+00
 -1     23817 1.58261E+01 3.17487E+01 0.00000E+00
 -1     23818 1.64693E+01 3.24493E+01 0.00000E+00
 -1     23819 1.63006E+01 3.34031E+01 0.00000E+00
 -1     23820 1.50272E+01 3.19091E+01 0.00000E+00
 -1     23821 1.76637E+01 3.83241E+01 0.00000E+00
 -1     23822 1.67351E+01 3.80265E+01 0.00000E+00
 -1     23823 1.95142E+01 3.88647E+01 0.00000E+00
 -1     23824 1.85759E+01 3.85800E+01 0.00000E+00
 -1     23825 1.83502E+01 3.76456E+01 0.00000E+00
 -1     23826 2.02219E+01 3.82015E+01 0.00000E+00
 -1     23827 1.65133E+01 3.70963E+01 0.00000E+00
 -1     23828 1.32935E+01 3.11345E+01 0.00000E+00
 -1     23829 1.24619E+01 3.06432E+01 0.00000E+00
 -1     23830 1.62411E+01 3.62772E+01 0.00000E+00
 -1     23831 1.61411E+01 3.53008E+01 0.00000E+00
 -1     23832 1.54111E+01 3.38023E+01 0.00000E+00
 -1     23833 1.45376E+01 3.33798E+01 0.00000E+00
 -1     23834 1.71659E+01 3.65707E+01 0.00000E+00
 -1     23835 2.08977E+01 3.75792E+01 0.00000E+00
 -1     23836 1.99381E+01 3.72792E+01 0.00000E+00
 -1     23837 2.15935E+01 3.69051E+01 0.00000E+00
 -1     23838 1.89952E+01 3.68047E+01 0.00000E+00
 -1     23839 1.80831E+01 3.65488E+01 0.00000E+00
 -1     23840 1.70305E+01 3.49016E+01 0.00000E+00
 -1     23841 1.62779E+01 3.44507E+01 0.00000E+00
 -1     23842 1.44006E+01 3.24306E+01 0.00000E+00
 -1     23843 1.78109E+01 3.57297E+01 0.00000E+00
 -1     23844 1.39940E+01 3.15850E+01 0.00000E+00
 -1     23845 7.27273E-01 1.66667E+00 5.00000E+00
 -1     23846 3.21344E+00 4.35583E+00 5.00000E+00
 -1     23847 2.48616E+00 3.68916E+00 5.00000E+00
 -1     23848 6.32131E+00 6.93210E+00 5.00000E+00
 -1     23849 5.59403E+00 6.26544E+00 5.00000E+00
 -1     23850 9.14199E+00 9.67244E+00 5.00000E+00
 -1     23851 8.41472E+00 9.00577E+00 5.00000E+00
 -1     23852 1.21140E+01 1.23248E+01 5.00000E+00
 -1     23853 1.13868E+01 1.16581E+01 5.00000E+00
 -1     23854 1.50496E+01 1.49807E+01 5.00000E+00
 -1     23855 1.43223E+01 1.43141E+01 5.00000E+00
 -1     23856 1.79645E+01 1.76375E+01 5.00000E+00
 -1     23857 1.72372E+01 1.69708E+01 5.00000E+00
 -1     23858 2.08771E+01 2.02979E+01 5.00000E+00
 -1     23859 2.01498E+01 1.96312E+01 5.00000E+00
 -1     23860 2.37846E+01 2.29659E+01 5.00000E+00
 -1     23861 2.30573E+01 2.22993E+01 5.00000E+00
 -1     23862 2.66890E+01 2.56359E+01 5.00000E+00
 -1     23863 2.59617E+01 2.49692E+01 5.00000E+00
 -1     23864 2.95974E+01 2.83016E+01 5.00000E+00
 -1     23865 2.88701E+01 2.76349E+01 5.00000E+00
 -1     23866 3.25105E+01 3.09687E+01 5.00000E+00
 -1     23867 3.17832E+01 3.03021E+01 5.00000E+00
 -1     23868 3.54212E+01 3.36433E+01 5.00000E+00
 -1     23869 3.46939E+01 3.29766E+01 5.00000E+00
 -1     23870 3.83302E+01 3.63171E+01 5.00000E+00
 -1     23871 3.76029E+01 3.56504E+01 5.00000E+00
 -1     23872 4.12474E+01 3.89848E+01 5.00000E+00
 -1     23873 4.05201E+01 3.83181E+01 5.00000E+00
 -1     23874 4.41614E+01 4.17033E+01 5.00000E+00
 -1     23875 4.34341E+01 4.10366E+01 5.00000E+00
 -1     23876 4.71229E+01 4.44093E+01 5.00000E+00
 -1     23877 4.63957E+01 4.37426E+01 5.00000E+00
 -1     23878 4.71229E+01 4.54093E+01 5.00000E+00
 -1     23879 4.70477E+01 4.74688E+01 5.00000E+00
 -1     23880 4.70477E+01 4.64688E+01 5.00000E+00
 -1     23881 4.70239E+01 5.15795E+01 5.00000E+00
 -1     23882 4.70239E+01 5.05795E+01 5.00000E+00
 -1     23883 4.70513E+01 5.56510E+01 5.00000E+00
 -1     23884 4.70513E+01 5.46510E+01 5.00000E+00
 -1     23885 4.70769E+01 5.86923E+01 5.00000E+00
 -1     23886 4.33593E+01 5.74230E+01 5.00000E+00
 -1     23887 4.42823E+01 5.77307E+01 5.00000E+00
 -1     23888 3.96342E+01 5.61521E+01 5.00000E+00
 -1     23889 4.05572E+01 5.64598E+01 5.00000E+00
 -1     23890 3.58896E+01 5.49433E+01 5.00000E+00
 -1     23891 3.68127E+01 5.52510E+01 5.00000E+00
 -1     23892 3.21325E+01 5.37781E+01 5.00000E+00
 -1     23893 3.30556E+01 5.40858E+01 5.00000E+00
 -1     23894 2.84245E+01 5.25618E+01 5.00000E+00
 -1     23895 2.93476E+01 5.28695E+01 5.00000E+00
 -1     23896 2.47321E+01 5.13409E+01 5.00000E+00
 -1     23897 2.56552E+01 5.16486E+01 5.00000E+00
 -1     23898 2.10368E+01 5.01181E+01 5.00000E+00
 -1     23899 2.19599E+01 5.04258E+01 5.00000E+00
 -1     23900 1.73455E+01 4.88896E+01 5.00000E+00
 -1     23901 1.82686E+01 4.91973E+01 5.00000E+00
 -1     23902 1.36595E+01 4.76658E+01 5.00000E+00
 -1     23903 1.45826E+01 4.79735E+01 5.00000E+00
 -1     23904 9.98127E+00 4.64526E+01 5.00000E+00
 -1     23905 1.09044E+01 4.67603E+01 5.00000E+00
 -1     23906 6.30983E+00 4.52443E+01 5.00000E+00
 -1     23907 7.23291E+00 4.55519E+01 5.00000E+00
 -1     23908 2.66261E+00 4.40003E+01 5.00000E+00
 -1     23909 3.58569E+00 4.43080E+01 5.00000E+00
 -1     23910 8.55677E-01 4.33591E+01 5.00000E+00
 -1     23911 1.77875E+00 4.36668E+01 5.00000E+00
 -1     23912 2.59521E+00 4.30518E+01 5.00000E+00
 -1     23913 8.55677E-01 4.23591E+01 5.00000E+00
 -1     23914 8.16603E-01 3.84104E+01 5.00000E+00
 -1     23915 8.16603E-01 3.94104E+01 5.00000E+00
 -1     23916 8.34910E-01 3.44486E+01 5.00000E+00
 -1     23917 8.34910E-01 3.54486E+01 5.00000E+00
 -1     23918 8.52013E-01 3.04750E+01 5.00000E+00
 -1     23919 8.52013E-01 3.14750E+01 5.00000E+00
 -1     23920 8.63739E-01 2.64810E+01 5.00000E+00
 -1     23921 8.63739E-01 2.74810E+01 5.00000E+00
 -1     23922 8.65555E-01 2.24799E+01 5.00000E+00
 -1     23923 8.65555E-01 2.34799E+01 5.00000E+00
 -1     23924 8.47862E-01 1.84810E+01 5.00000E+00
 -1     23925 8.47862E-01 1.94810E+01 5.00000E+00
 -1     23926 8.85226E-01 1.44776E+01 5.00000E+00
 -1     23927 8.85226E-01 1.54776E+01 5.00000E+00
 -1     23928 9.03309E-01 1.04854E+01 5.00000E+00
 -1     23929 9.03309E-01 1.14854E+01 5.00000E+00
 -1     23930 9.23373E-01 6.45305E+00 5.00000E+00
 -1     23931 9.23373E-01 7.45305E+00 5.00000E+00
 -1     23932 1.03162E+00 4.35583E+00 5.00000E+00
 -1     23933 1.03162E+00 5.35583E+00 5.00000E+00
 -1     23934 4.61418E+01 5.83683E+01 5.00000E+00
 -1     23935 4.70649E+01 5.76760E+01 5.00000E+00
 -1     23936 2.10857E+00 2.82976E+00 5.00000E+00
 -1     23937 1.38130E+00 2.16309E+00 5.00000E+00
 -1     23938 4.81002E+00 5.65964E+00 5.00000E+00
 -1     23939 4.08275E+00 4.99297E+00 5.00000E+00
 -1     23940 7.74939E+00 8.29895E+00 5.00000E+00
 -1     23941 7.02212E+00 7.63229E+00 5.00000E+00
 -1     23942 1.06290E+01 1.10002E+01 5.00000E+00
 -1     23943 9.90176E+00 1.03336E+01 5.00000E+00
 -1     23944 1.35869E+01 1.36516E+01 5.00000E+00
 -1     23945 1.28596E+01 1.29849E+01 5.00000E+00
 -1     23946 1.65077E+01 1.63090E+01 5.00000E+00
 -1     23947 1.57805E+01 1.56423E+01 5.00000E+00
 -1     23948 1.94211E+01 1.89665E+01 5.00000E+00
 -1     23949 1.86939E+01 1.82999E+01 5.00000E+00
 -1     23950 2.23315E+01 2.16312E+01 5.00000E+00
 -1     23951 2.16042E+01 2.09645E+01 5.00000E+00
 -1     23952 2.52369E+01 2.43010E+01 5.00000E+00
 -1     23953 2.45097E+01 2.36344E+01 5.00000E+00
 -1     23954 2.81425E+01 2.69691E+01 5.00000E+00
 -1     23955 2.74152E+01 2.63024E+01 5.00000E+00
 -1     23956 3.10539E+01 2.96340E+01 5.00000E+00
 -1     23957 3.03267E+01 2.89673E+01 5.00000E+00
 -1     23958 3.39663E+01 3.23050E+01 5.00000E+00
 -1     23959 3.32391E+01 3.16383E+01 5.00000E+00
 -1     23960 3.68753E+01 3.49807E+01 5.00000E+00
 -1     23961 3.61480E+01 3.43140E+01 5.00000E+00
 -1     23962 3.97869E+01 3.76502E+01 5.00000E+00
 -1     23963 3.90596E+01 3.69835E+01 5.00000E+00
 -1     23964 4.27070E+01 4.03316E+01 5.00000E+00
 -1     23965 4.19798E+01 3.96650E+01 5.00000E+00
 -1     23966 4.56204E+01 4.30758E+01 5.00000E+00
 -1     23967 4.48931E+01 4.24092E+01 5.00000E+00
 -1     23968 4.61706E+01 4.58781E+01 5.00000E+00
 -1     23969 4.70198E+01 4.85273E+01 5.00000E+00
 -1     23970 4.60675E+01 4.79961E+01 5.00000E+00
 -1     23971 4.70198E+01 4.95273E+01 5.00000E+00
 -1     23972 4.60437E+01 5.01068E+01 5.00000E+00
 -1     23973 4.70367E+01 5.36197E+01 5.00000E+00
 -1     23974 4.70367E+01 5.26197E+01 5.00000E+00
 -1     23975 6.54024E-01 2.49643E+00 5.00000E+00
 -1     23976 4.70649E+01 5.66760E+01 5.00000E+00
 -1     23977 4.24216E+01 5.70914E+01 5.00000E+00
 -1     23978 4.33194E+01 5.63605E+01 5.00000E+00
 -1     23979 4.14986E+01 5.67837E+01 5.00000E+00
 -1     23980 4.51933E+01 5.70221E+01 5.00000E+00
 -1     23981 4.52187E+01 5.80606E+01 5.00000E+00
 -1     23982 4.14404E+01 5.57051E+01 5.00000E+00
 -1     23983 3.77643E+01 5.55331E+01 5.00000E+00
 -1     23984 3.86873E+01 5.58408E+01 5.00000E+00
 -1     23985 3.40074E+01 5.43657E+01 5.00000E+00
 -1     23986 3.49304E+01 5.46734E+01 5.00000E+00
 -1     23987 3.02737E+01 5.31732E+01 5.00000E+00
 -1     23988 3.11968E+01 5.34809E+01 5.00000E+00
 -1     23989 2.65771E+01 5.19508E+01 5.00000E+00
 -1     23990 2.75001E+01 5.22584E+01 5.00000E+00
 -1     23991 2.28847E+01 5.07283E+01 5.00000E+00
 -1     23992 2.38077E+01 5.10360E+01 5.00000E+00
 -1     23993 1.91903E+01 4.95051E+01 5.00000E+00
 -1     23994 2.01133E+01 4.98128E+01 5.00000E+00
 -1     23995 1.55022E+01 4.82778E+01 5.00000E+00
 -1     23996 1.64253E+01 4.85855E+01 5.00000E+00
 -1     23997 1.18197E+01 4.70592E+01 5.00000E+00
 -1     23998 1.27428E+01 4.73669E+01 5.00000E+00
 -1     23999 8.14295E+00 4.58481E+01 5.00000E+00
 -1     24000 9.06602E+00 4.61557E+01 5.00000E+00
 -1     24001 4.48100E+00 4.46288E+01 5.00000E+00
 -1     24002 5.40408E+00 4.49365E+01 5.00000E+00
 -1     24003 8.45519E-01 3.34661E+01 5.00000E+00
 -1     24004 1.68043E+00 3.39147E+01 5.00000E+00
 -1     24005 8.45519E-01 3.24661E+01 5.00000E+00
 -1     24006 8.25819E-01 4.03886E+01 5.00000E+00
 -1     24007 8.25819E-01 4.13886E+01 5.00000E+00
 -1     24008 8.22691E-01 3.64304E+01 5.00000E+00
 -1     24009 8.22691E-01 3.74304E+01 5.00000E+00
 -1     24010 1.69753E+00 3.19411E+01 5.00000E+00
 -1     24011 1.68150E+00 4.17477E+01 5.00000E+00
 -1     24012 8.57852E-01 2.84803E+01 5.00000E+00
 -1     24013 8.57852E-01 2.94803E+01 5.00000E+00
 -1     24014 8.68685E-01 2.44790E+01 5.00000E+00
 -1     24015 8.68685E-01 2.54790E+01 5.00000E+00
 -1     24016 8.53994E-01 2.04824E+01 5.00000E+00
 -1     24017 8.53994E-01 2.14824E+01 5.00000E+00
 -1     24018 8.59766E-01 1.64786E+01 5.00000E+00
 -1     24019 8.59766E-01 1.74786E+01 5.00000E+00
 -1     24020 9.07915E-01 1.24782E+01 5.00000E+00
 -1     24021 9.07915E-01 1.34782E+01 5.00000E+00
 -1     24022 8.90591E-01 8.48190E+00 5.00000E+00
 -1     24023 8.90591E-01 9.48190E+00 5.00000E+00
 -1     24024 1.95499E+00 5.80888E+00 5.00000E+00
 -1     24025 6.54024E-01 3.49643E+00 5.00000E+00
 -1     24026 4.61162E+01 5.63270E+01 5.00000E+00
 -1     24027 6.07070E+00 7.89772E+00 5.00000E+00
 -1     24028 8.86193E+00 1.06727E+01 5.00000E+00
 -1     24029 1.18828E+01 1.33097E+01 5.00000E+00
 -1     24030 1.48301E+01 1.59564E+01 5.00000E+00
 -1     24031 1.77493E+01 1.86040E+01 5.00000E+00
 -1     24032 2.06631E+01 2.12624E+01 5.00000E+00
 -1     24033 2.35669E+01 2.39336E+01 5.00000E+00
 -1     24034 2.64679E+01 2.66049E+01 5.00000E+00
 -1     24035 2.93786E+01 2.92689E+01 5.00000E+00
 -1     24036 3.22950E+01 3.19404E+01 5.00000E+00
 -1     24037 3.52056E+01 3.46240E+01 5.00000E+00
 -1     24038 3.81171E+01 3.73006E+01 5.00000E+00
 -1     24039 4.10453E+01 3.99831E+01 5.00000E+00
 -1     24040 4.39636E+01 4.27791E+01 5.00000E+00
 -1     24041 4.60606E+01 5.21992E+01 5.00000E+00
 -1     24042 3.95523E+01 5.50698E+01 5.00000E+00
 -1     24043 3.57432E+01 5.39244E+01 5.00000E+00
 -1     24044 3.19447E+01 5.27975E+01 5.00000E+00
 -1     24045 2.82323E+01 5.15895E+01 5.00000E+00
 -1     24046 2.45399E+01 5.03769E+01 5.00000E+00
 -1     24047 2.08425E+01 4.91617E+01 5.00000E+00
 -1     24048 1.71554E+01 4.79366E+01 5.00000E+00
 -1     24049 1.34792E+01 4.67250E+01 5.00000E+00
 -1     24050 9.81653E+00 4.55314E+01 5.00000E+00
 -1     24051 6.17545E+00 4.43346E+01 5.00000E+00
 -1     24052 1.63929E+00 3.78408E+01 5.00000E+00
 -1     24053 1.70986E+00 2.99554E+01 5.00000E+00
 -1     24054 1.73242E+00 2.59600E+01 5.00000E+00
 -1     24055 1.71955E+00 2.19624E+01 5.00000E+00
 -1     24056 1.70763E+00 1.79596E+01 5.00000E+00
 -1     24057 1.79314E+00 1.39558E+01 5.00000E+00
 -1     24058 1.79390E+00 9.96733E+00 5.00000E+00
 -1     24059 4.58588E+00 6.59174E+00 5.00000E+00
 -1     24060 7.43684E+00 9.30473E+00 5.00000E+00
 -1     24061 1.03794E+01 1.19917E+01 5.00000E+00
 -1     24062 1.33638E+01 1.46323E+01 5.00000E+00
 -1     24063 1.62904E+01 1.72798E+01 5.00000E+00
 -1     24064 1.92073E+01 1.99311E+01 5.00000E+00
 -1     24065 2.21161E+01 2.25971E+01 5.00000E+00
 -1     24066 2.50168E+01 2.52702E+01 5.00000E+00
 -1     24067 2.79217E+01 2.79373E+01 5.00000E+00
 -1     24068 3.08371E+01 3.06027E+01 5.00000E+00
 -1     24069 3.37512E+01 3.32816E+01 5.00000E+00
 -1     24070 3.66600E+01 3.59645E+01 5.00000E+00
 -1     24071 3.95798E+01 3.86350E+01 5.00000E+00
 -1     24072 4.25048E+01 4.13683E+01 5.00000E+00
 -1     24073 4.54706E+01 4.41518E+01 5.00000E+00
 -1     24074 1.53156E+01 4.73282E+01 5.00000E+00
 -1     24075 1.16471E+01 4.61272E+01 5.00000E+00
 -1     24076 7.99124E+00 4.49385E+01 5.00000E+00
 -1     24077 4.37439E+00 4.37061E+01 5.00000E+00
 -1     24078 1.65760E+00 3.58791E+01 5.00000E+00
 -1     24079 1.70186E+00 1.99634E+01 5.00000E+00
 -1     24080 1.74499E+00 1.59562E+01 5.00000E+00
 -1     24081 1.81122E+00 1.19636E+01 5.00000E+00
 -1     24082 1.81396E+00 7.93495E+00 5.00000E+00
 -1     24083 2.93255E+00 5.34880E+00 5.00000E+00
 -1     24084 1.89973E+01 4.85486E+01 5.00000E+00
 -1     24085 4.60880E+01 5.42707E+01 5.00000E+00
 -1     24086 2.26907E+01 4.97695E+01 5.00000E+00
 -1     24087 2.63861E+01 5.09840E+01 5.00000E+00
 -1     24088 3.00829E+01 5.21966E+01 5.00000E+00
 -1     24089 3.76539E+01 5.44764E+01 5.00000E+00
 -1     24090 3.38322E+01 5.33746E+01 5.00000E+00
 -1     24091 1.64242E+00 3.97990E+01 5.00000E+00
 -1     24092 1.73424E+00 2.39590E+01 5.00000E+00
 -1     24093 1.72159E+00 2.79613E+01 5.00000E+00
 -1     24094 1.88033E+01 4.75902E+01 5.00000E+00
 -1     24095 1.97250E+01 4.78980E+01 5.00000E+00
 -1     24096 6.93649E+00 1.03465E+01 5.00000E+00
 -1     24097 6.27116E+00 9.63967E+00 5.00000E+00
 -1     24098 1.01525E+01 1.29893E+01 5.00000E+00
 -1     24099 9.39476E+00 1.23314E+01 5.00000E+00
 -1     24100 1.31504E+01 1.56175E+01 5.00000E+00
 -1     24101 1.24150E+01 1.49550E+01 5.00000E+00
 -1     24102 1.60743E+01 1.82535E+01 5.00000E+00
 -1     24103 1.53448E+01 1.75917E+01 5.00000E+00
 -1     24104 1.89949E+01 2.08948E+01 5.00000E+00
 -1     24105 1.82663E+01 2.02301E+01 5.00000E+00
 -1     24106 2.19007E+01 2.35619E+01 5.00000E+00
 -1     24107 2.11749E+01 2.28938E+01 5.00000E+00
 -1     24108 2.47952E+01 2.62399E+01 5.00000E+00
 -1     24109 2.40704E+01 2.55717E+01 5.00000E+00
 -1     24110 2.76989E+01 2.89063E+01 5.00000E+00
 -1     24111 2.69713E+01 2.82405E+01 5.00000E+00
 -1     24112 3.06208E+01 3.15696E+01 5.00000E+00
 -1     24113 2.98915E+01 3.09016E+01 5.00000E+00
 -1     24114 3.35367E+01 3.42572E+01 5.00000E+00
 -1     24115 3.28092E+01 3.35856E+01 5.00000E+00
 -1     24116 3.64441E+01 3.69496E+01 5.00000E+00
 -1     24117 3.57165E+01 3.62799E+01 5.00000E+00
 -1     24118 3.93715E+01 3.96188E+01 5.00000E+00
 -1     24119 3.86383E+01 3.89508E+01 5.00000E+00
 -1     24120 4.23019E+01 4.23754E+01 5.00000E+00
 -1     24121 4.15748E+01 4.16705E+01 5.00000E+00
 -1     24122 4.52745E+01 4.52674E+01 5.00000E+00
 -1     24123 4.44992E+01 4.46006E+01 5.00000E+00
 -1     24124 4.51064E+01 5.28458E+01 5.00000E+00
 -1     24125 4.50937E+01 5.18055E+01 5.00000E+00
 -1     24126 1.51300E+01 4.63733E+01 5.00000E+00
 -1     24127 1.60496E+01 4.66776E+01 5.00000E+00
 -1     24128 4.51992E+01 4.63268E+01 5.00000E+00
 -1     24129 3.94803E+01 5.39757E+01 5.00000E+00
 -1     24130 4.04271E+01 5.42870E+01 5.00000E+00
 -1     24131 4.50720E+01 5.07118E+01 5.00000E+00
 -1     24132 4.50679E+01 4.96596E+01 5.00000E+00
 -1     24133 4.41179E+01 5.13583E+01 5.00000E+00
 -1     24134 2.24950E+01 4.88091E+01 5.00000E+00
 -1     24135 2.34198E+01 4.91116E+01 5.00000E+00
 -1     24136 4.51798E+01 5.59970E+01 5.00000E+00
 -1     24137 3.55788E+01 5.28978E+01 5.00000E+00
 -1     24138 3.65380E+01 5.31677E+01 5.00000E+00
 -1     24139 3.17387E+01 5.18215E+01 5.00000E+00
 -1     24140 3.26745E+01 5.21187E+01 5.00000E+00
 -1     24141 2.45070E+00 3.92138E+01 5.00000E+00
 -1     24142 2.45991E+00 4.01920E+01 5.00000E+00
 -1     24143 2.80408E+01 5.06101E+01 5.00000E+00
 -1     24144 2.89651E+01 5.09135E+01 5.00000E+00
 -1     24145 3.75451E+01 5.33826E+01 5.00000E+00
 -1     24146 3.84967E+01 5.36647E+01 5.00000E+00
 -1     24147 3.73808E+01 5.23560E+01 5.00000E+00
 -1     24148 2.43454E+01 4.94091E+01 5.00000E+00
 -1     24149 2.52698E+01 4.97140E+01 5.00000E+00
 -1     24150 2.41497E+01 4.84487E+01 5.00000E+00
 -1     24151 2.98868E+01 5.12158E+01 5.00000E+00
 -1     24152 3.08129E+01 5.15195E+01 5.00000E+00
 -1     24153 3.15426E+01 5.08407E+01 5.00000E+00
 -1     24154 2.96952E+01 5.02364E+01 5.00000E+00
 -1     24155 2.06469E+01 4.82033E+01 5.00000E+00
 -1     24156 2.15704E+01 4.85087E+01 5.00000E+00
 -1     24157 2.04529E+01 4.72450E+01 5.00000E+00
 -1     24158 2.61948E+01 5.00105E+01 5.00000E+00
 -1     24159 2.71167E+01 5.03127E+01 5.00000E+00
 -1     24160 2.78495E+01 4.96367E+01 5.00000E+00
 -1     24161 2.60004E+01 4.90427E+01 5.00000E+00
 -1     24162 1.69644E+01 4.69794E+01 5.00000E+00
 -1     24163 1.78847E+01 4.72836E+01 5.00000E+00
 -1     24164 1.67789E+01 4.60245E+01 5.00000E+00
 -1     24165 4.51511E+01 5.49445E+01 5.00000E+00
 -1     24166 4.51364E+01 5.39133E+01 5.00000E+00
 -1     24167 4.41695E+01 5.35196E+01 5.00000E+00
 -1     24168 4.42282E+01 5.56396E+01 5.00000E+00
 -1     24169 1.14722E+01 4.51884E+01 5.00000E+00
 -1     24170 1.23875E+01 4.54873E+01 5.00000E+00
 -1     24171 7.83518E+00 4.40257E+01 5.00000E+00
 -1     24172 8.74521E+00 4.43218E+01 5.00000E+00
 -1     24173 4.26750E+00 4.27902E+01 5.00000E+00
 -1     24174 5.16282E+00 4.31110E+01 5.00000E+00
 -1     24175 2.49911E+00 3.53342E+01 5.00000E+00
 -1     24176 2.48690E+00 3.63160E+01 5.00000E+00
 -1     24177 2.52280E+00 4.21134E+01 5.00000E+00
 -1     24178 3.40667E+00 4.24469E+01 5.00000E+00
 -1     24179 4.19509E+00 4.18519E+01 5.00000E+00
 -1     24180 2.49295E+00 4.11429E+01 5.00000E+00
 -1     24181 2.60911E+00 2.34323E+01 5.00000E+00
 -1     24182 2.61224E+00 2.44314E+01 5.00000E+00
 -1     24183 2.56866E+00 2.94433E+01 5.00000E+00
 -1     24184 2.56282E+00 3.04381E+01 5.00000E+00
 -1     24185 2.53760E+00 1.94425E+01 5.00000E+00
 -1     24186 2.54373E+00 2.04439E+01 5.00000E+00
 -1     24187 2.55409E+00 3.14227E+01 5.00000E+00
 -1     24188 2.54759E+00 3.24137E+01 5.00000E+00
 -1     24189 3.41288E+00 3.09106E+01 5.00000E+00
 -1     24190 2.57797E+00 2.14398E+01 5.00000E+00
 -1     24191 2.58953E+00 2.24373E+01 5.00000E+00
 -1     24192 3.46753E+00 2.29097E+01 5.00000E+00
 -1     24193 3.41371E+00 2.09189E+01 5.00000E+00
 -1     24194 2.62781E+00 1.54444E+01 5.00000E+00
 -1     24195 2.60235E+00 1.64455E+01 5.00000E+00
 -1     24196 2.74997E+00 1.14375E+01 5.00000E+00
 -1     24197 2.75458E+00 1.24303E+01 5.00000E+00
 -1     24198 2.68128E+00 7.43312E+00 5.00000E+00
 -1     24199 2.64850E+00 8.46197E+00 5.00000E+00
 -1     24200 4.44285E+00 7.57884E+00 5.00000E+00
 -1     24201 3.65884E+00 6.97304E+00 5.00000E+00
 -1     24202 2.82431E+00 6.44602E+00 5.00000E+00
 -1     24203 4.32906E+01 5.53081E+01 5.00000E+00
 -1     24204 1.68564E+00 3.85226E+00 5.00000E+00
 -1     24205 4.50640E+01 4.85258E+01 5.00000E+00
 -1     24206 4.50919E+01 4.74673E+01 5.00000E+00
 -1     24207 4.40923E+01 4.91308E+01 5.00000E+00
 -1     24208 5.89104E+00 8.75666E+00 5.00000E+00
 -1     24209 5.19023E+00 8.05647E+00 5.00000E+00
 -1     24210 4.26319E+00 8.43778E+00 5.00000E+00
 -1     24211 5.39069E+00 9.79841E+00 5.00000E+00
 -1     24212 2.60290E+00 2.54379E+01 5.00000E+00
 -1     24213 2.59795E+00 2.64398E+01 5.00000E+00
 -1     24214 3.47777E+00 2.49112E+01 5.00000E+00
 -1     24215 4.13931E+01 5.46275E+01 5.00000E+00
 -1     24216 4.23344E+01 5.49515E+01 5.00000E+00
 -1     24217 4.13211E+01 5.35334E+01 5.00000E+00
 -1     24218 3.42629E+01 3.49340E+01 5.00000E+00
 -1     24219 3.33209E+01 3.52380E+01 5.00000E+00
 -1     24220 3.49898E+01 3.56048E+01 5.00000E+00
 -1     24221 8.58581E+00 1.16842E+01 5.00000E+00
 -1     24222 7.82604E+00 1.10231E+01 5.00000E+00
 -1     24223 1.16694E+01 1.42979E+01 5.00000E+00
 -1     24224 1.09238E+01 1.36378E+01 5.00000E+00
 -1     24225 1.46144E+01 1.69357E+01 5.00000E+00
 -1     24226 1.38835E+01 1.62741E+01 5.00000E+00
 -1     24227 1.75353E+01 1.95711E+01 5.00000E+00
 -1     24228 1.68059E+01 1.89087E+01 5.00000E+00
 -1     24229 2.04502E+01 2.22257E+01 5.00000E+00
 -1     24230 1.97231E+01 2.15591E+01 5.00000E+00
 -1     24231 2.33484E+01 2.49009E+01 5.00000E+00
 -1     24232 2.26233E+01 2.42325E+01 5.00000E+00
 -1     24233 2.62443E+01 2.75754E+01 5.00000E+00
 -1     24234 2.55181E+01 2.69088E+01 5.00000E+00
 -1     24235 2.91592E+01 3.02356E+01 5.00000E+00
 -1     24236 2.84300E+01 2.95698E+01 5.00000E+00
 -1     24237 3.20806E+01 3.29099E+01 5.00000E+00
 -1     24238 3.13520E+01 3.22404E+01 5.00000E+00
 -1     24239 3.47738E+01 3.65900E+01 5.00000E+00
 -1     24240 6.66037E+00 1.13580E+01 5.00000E+00
 -1     24241 3.79041E+01 3.82893E+01 5.00000E+00
 -1     24242 3.71747E+01 3.76228E+01 5.00000E+00
 -1     24243 4.08445E+01 4.09603E+01 5.00000E+00
 -1     24244 4.01121E+01 4.02802E+01 5.00000E+00
 -1     24245 4.37401E+01 4.38627E+01 5.00000E+00
 -1     24246 4.30084E+01 4.31568E+01 5.00000E+00
 -1     24247 4.41958E+01 4.68566E+01 5.00000E+00
 -1     24248 3.93716E+01 5.28819E+01 5.00000E+00
 -1     24249 3.04064E+01 3.25392E+01 5.00000E+00
 -1     24250 2.74796E+01 2.98730E+01 5.00000E+00
 -1     24251 2.22995E+01 4.78508E+01 5.00000E+00
 -1     24252 3.45766E+01 5.26782E+01 5.00000E+00
 -1     24253 3.53715E+01 5.19215E+01 5.00000E+00
 -1     24254 3.36249E+01 5.23983E+01 5.00000E+00
 -1     24255 2.45716E+01 2.72103E+01 5.00000E+00
 -1     24256 3.34189E+01 5.14223E+01 5.00000E+00
 -1     24257 1.86123E+01 4.66330E+01 5.00000E+00
 -1     24258 2.16822E+01 2.45292E+01 5.00000E+00
 -1     24259 1.87820E+01 2.18581E+01 5.00000E+00
 -1     24260 1.58603E+01 1.92206E+01 5.00000E+00
 -1     24261 1.29347E+01 1.65968E+01 5.00000E+00
 -1     24262 3.30122E+00 4.05577E+01 5.00000E+00
 -1     24263 2.52398E+00 3.43733E+01 5.00000E+00
 -1     24264 3.35328E+00 3.48103E+01 5.00000E+00
 -1     24265 2.53459E+00 3.33908E+01 5.00000E+00
 -1     24266 2.68757E+00 1.44408E+01 5.00000E+00
 -1     24267 3.54493E+00 1.49300E+01 5.00000E+00
 -1     24268 2.71026E+00 1.34414E+01 5.00000E+00
 -1     24269 6.94545E+00 4.37351E+01 5.00000E+00
 -1     24270 7.69943E+00 4.31185E+01 5.00000E+00
 -1     24271 6.03970E+00 4.34273E+01 5.00000E+00
 -1     24272 1.32979E+01 4.57764E+01 5.00000E+00
 -1     24273 1.42147E+01 4.60753E+01 5.00000E+00
 -1     24274 9.64768E+00 4.46050E+01 5.00000E+00
 -1     24275 1.05629E+01 4.49019E+01 5.00000E+00
 -1     24276 5.93282E+00 4.25115E+01 5.00000E+00
 -1     24277 1.49487E+01 4.54247E+01 5.00000E+00
 -1     24278 2.46047E+00 3.72768E+01 5.00000E+00
 -1     24279 2.45438E+00 3.82567E+01 5.00000E+00
 -1     24280 2.57889E+00 2.84435E+01 5.00000E+00
 -1     24281 3.43185E+00 2.89262E+01 5.00000E+00
 -1     24282 2.58478E+00 2.74441E+01 5.00000E+00
 -1     24283 9.93913E+00 1.39775E+01 5.00000E+00
 -1     24284 3.39114E+00 3.28723E+01 5.00000E+00
 -1     24285 3.62311E+01 3.79383E+01 5.00000E+00
 -1     24286 2.55267E+00 1.74405E+01 5.00000E+00
 -1     24287 2.54077E+00 1.84428E+01 5.00000E+00
 -1     24288 3.64901E+00 1.29153E+01 5.00000E+00
 -1     24289 3.53828E+00 8.95922E+00 5.00000E+00
 -1     24290 2.67096E+00 9.46105E+00 5.00000E+00
 -1     24291 2.68368E+00 1.04646E+01 5.00000E+00
 -1     24292 4.28566E+00 9.43685E+00 5.00000E+00
 -1     24293 1.14560E+01 1.52831E+01 5.00000E+00
 -1     24294 4.35440E+01 4.49783E+01 5.00000E+00
 -1     24295 4.32433E+01 5.42306E+01 5.00000E+00
 -1     24296 3.18662E+01 3.38856E+01 5.00000E+00
 -1     24297 2.89429E+01 3.12024E+01 5.00000E+00
 -1     24298 2.60216E+01 2.85444E+01 5.00000E+00
 -1     24299 2.02349E+01 2.31905E+01 5.00000E+00
 -1     24300 1.73229E+01 2.05348E+01 5.00000E+00
 -1     24301 3.38264E+00 1.89233E+01 5.00000E+00
 -1     24302 3.27187E+00 3.86498E+01 5.00000E+00
 -1     24303 2.31268E+01 2.58706E+01 5.00000E+00
 -1     24304 1.13033E+01 4.42620E+01 5.00000E+00
 -1     24305 1.43982E+01 1.79094E+01 5.00000E+00
 -1     24306 4.20784E+01 4.34590E+01 5.00000E+00
 -1     24307 3.91706E+01 4.05960E+01 5.00000E+00
 -1     24308 8.35888E+00 1.26818E+01 5.00000E+00
 -1     24309 4.06416E+01 4.19675E+01 5.00000E+00
 -1     24310 3.76959E+01 3.92730E+01 5.00000E+00
 -1     24311 9.49162E+00 4.36923E+01 5.00000E+00
 -1     24312 3.62703E+00 1.09313E+01 5.00000E+00
 -1     24313 1.31229E+01 4.48376E+01 5.00000E+00
 -1     24314 3.45525E+00 2.69221E+01 5.00000E+00
 -1     24315 3.30198E+00 3.67320E+01 5.00000E+00
 -1     24316 3.43549E+00 1.69287E+01 5.00000E+00
 -1     24317 4.14607E+00 3.61950E+01 5.00000E+00
 -1     24318 4.11964E+00 3.71557E+01 5.00000E+00
 -1     24319 4.04489E+01 4.29113E+01 5.00000E+00
 -1     24320 3.97186E+01 4.22012E+01 5.00000E+00
 -1     24321 4.25676E+00 3.23624E+01 5.00000E+00
 -1     24322 4.24376E+00 3.33395E+01 5.00000E+00
 -1     24323 4.31807E+01 4.62319E+01 5.00000E+00
 -1     24324 4.24216E+01 4.54940E+01 5.00000E+00
 -1     24325 4.18351E+01 4.44679E+01 5.00000E+00
 -1     24326 4.11286E+01 4.36865E+01 5.00000E+00
 -1     24327 4.02056E+01 4.39201E+01 5.00000E+00
 -1     24328 4.14718E+01 4.57215E+01 5.00000E+00
 -1     24329 1.27246E+01 1.75860E+01 5.00000E+00
 -1     24330 1.19916E+01 1.69294E+01 5.00000E+00
 -1     24331 4.18271E+00 1.83983E+01 5.00000E+00
 -1     24332 4.17954E+00 1.93980E+01 5.00000E+00
 -1     24333 1.56470E+01 2.01900E+01 5.00000E+00
 -1     24334 1.49154E+01 1.95347E+01 5.00000E+00
 -1     24335 1.85723E+01 2.28187E+01 5.00000E+00
 -1     24336 1.78441E+01 2.21544E+01 5.00000E+00
 -1     24337 1.11311E+01 4.33326E+01 5.00000E+00
 -1     24338 1.20404E+01 4.36192E+01 5.00000E+00
 -1     24339 3.31741E+01 5.04644E+01 5.00000E+00
 -1     24340 3.41246E+01 5.07440E+01 5.00000E+00
 -1     24341 2.21003E+01 4.68957E+01 5.00000E+00
 -1     24342 2.30249E+01 4.71961E+01 5.00000E+00
 -1     24343 2.57930E+01 2.95172E+01 5.00000E+00
 -1     24344 2.50659E+01 2.88521E+01 5.00000E+00
 -1     24345 2.87258E+01 3.21678E+01 5.00000E+00
 -1     24346 2.79936E+01 3.15018E+01 5.00000E+00
 -1     24347 3.45576E+01 3.75806E+01 5.00000E+00
 -1     24348 3.38309E+01 3.69055E+01 5.00000E+00
 -1     24349 8.19289E+00 1.37058E+01 5.00000E+00
 -1     24350 7.38394E+00 1.30586E+01 5.00000E+00
 -1     24351 3.74887E+01 4.02732E+01 5.00000E+00
 -1     24352 3.67546E+01 3.96116E+01 5.00000E+00
 -1     24353 3.89710E+01 4.15807E+01 5.00000E+00
 -1     24354 3.82303E+01 4.09193E+01 5.00000E+00
 -1     24355 3.87783E+01 4.25245E+01 5.00000E+00
 -1     24356 4.32133E+01 5.31630E+01 5.00000E+00
 -1     24357 4.30734E+01 4.73723E+01 5.00000E+00
 -1     24358 1.12617E+01 1.62738E+01 5.00000E+00
 -1     24359 1.05161E+01 1.56167E+01 5.00000E+00
 -1     24360 1.10517E+01 1.72630E+01 5.00000E+00
 -1     24361 1.84191E+01 4.56744E+01 5.00000E+00
 -1     24362 1.93378E+01 4.59810E+01 5.00000E+00
 -1     24363 4.32302E+00 2.64037E+01 5.00000E+00
 -1     24364 4.30984E+00 2.74079E+01 5.00000E+00
 -1     24365 2.43434E+01 2.81837E+01 5.00000E+00
 -1     24366 2.36205E+01 2.75147E+01 5.00000E+00
 -1     24367 2.41148E+01 2.91565E+01 5.00000E+00
 -1     24368 3.60188E+01 3.89359E+01 5.00000E+00
 -1     24369 3.52882E+01 3.82627E+01 5.00000E+00
 -1     24370 3.58117E+01 3.99360E+01 5.00000E+00
 -1     24371 3.50797E+01 5.09958E+01 5.00000E+00
 -1     24372 3.60819E+01 5.12154E+01 5.00000E+00
 -1     24373 3.48349E+01 5.00379E+01 5.00000E+00
 -1     24374 2.39512E+01 4.74872E+01 5.00000E+00
 -1     24375 2.48769E+01 4.77846E+01 5.00000E+00
 -1     24376 2.37521E+01 4.65320E+01 5.00000E+00
 -1     24377 1.47688E+01 4.44726E+01 5.00000E+00
 -1     24378 1.56842E+01 4.47706E+01 5.00000E+00
 -1     24379 1.41819E+01 1.88904E+01 5.00000E+00
 -1     24380 1.34514E+01 1.82345E+01 5.00000E+00
 -1     24381 1.39685E+01 1.98598E+01 5.00000E+00
 -1     24382 5.81929E+00 4.16151E+01 5.00000E+00
 -1     24383 6.69618E+00 4.19315E+01 5.00000E+00
 -1     24384 4.29295E+00 2.84139E+01 5.00000E+00
 -1     24385 4.28272E+00 2.94137E+01 5.00000E+00
 -1     24386 5.16072E+00 2.78955E+01 5.00000E+00
 -1     24387 4.12009E+00 4.09318E+01 5.00000E+00
 -1     24388 4.98093E+00 4.12751E+01 5.00000E+00
 -1     24389 5.74429E+00 4.06951E+01 5.00000E+00
 -1     24390 4.08706E+00 3.99809E+01 5.00000E+00
 -1     24391 4.46144E+00 1.44424E+01 5.00000E+00
 -1     24392 4.40168E+00 1.54461E+01 5.00000E+00
 -1     24393 2.14621E+01 2.54950E+01 5.00000E+00
 -1     24394 2.07395E+01 2.48244E+01 5.00000E+00
 -1     24395 1.29458E+01 4.38956E+01 5.00000E+00
 -1     24396 1.38562E+01 4.41846E+01 5.00000E+00
 -1     24397 1.27736E+01 4.29662E+01 5.00000E+00
 -1     24398 9.76013E+00 1.49739E+01 5.00000E+00
 -1     24399 8.98883E+00 1.43254E+01 5.00000E+00
 -1     24400 8.01389E+00 1.47022E+01 5.00000E+00
 -1     24401 9.56581E+00 1.59646E+01 5.00000E+00
 -1     24402 7.56006E+00 4.22236E+01 5.00000E+00
 -1     24403 8.44978E+00 4.25142E+01 5.00000E+00
 -1     24404 7.44653E+00 4.13273E+01 5.00000E+00
 -1     24405 6.53823E+00 1.24684E+01 5.00000E+00
 -1     24406 5.64867E+00 1.17919E+01 5.00000E+00
 -1     24407 6.37224E+00 1.34924E+01 5.00000E+00
 -1     24408 4.31145E+01 4.98138E+01 5.00000E+00
 -1     24409 4.31106E+01 4.86800E+01 5.00000E+00
 -1     24410 3.16539E+01 3.48591E+01 5.00000E+00
 -1     24411 3.09254E+01 3.41834E+01 5.00000E+00
 -1     24412 3.92944E+01 5.17576E+01 5.00000E+00
 -1     24413 4.02780E+01 5.20686E+01 5.00000E+00
 -1     24414 3.31053E+01 3.62197E+01 5.00000E+00
 -1     24415 3.23792E+01 3.55430E+01 5.00000E+00
 -1     24416 3.14384E+01 3.58408E+01 5.00000E+00
 -1     24417 3.28892E+01 3.72104E+01 5.00000E+00
 -1     24418 4.27406E+00 3.04040E+01 5.00000E+00
 -1     24419 4.26533E+00 3.13886E+01 5.00000E+00
 -1     24420 5.11794E+00 3.18558E+01 5.00000E+00
 -1     24421 5.13516E+00 2.98917E+01 5.00000E+00
 -1     24422 4.22391E+00 3.42959E+01 5.00000E+00
 -1     24423 4.19904E+00 3.52568E+01 5.00000E+00
 -1     24424 5.01670E+00 3.56805E+01 5.00000E+00
 -1     24425 5.08953E+00 3.37860E+01 5.00000E+00
 -1     24426 3.72314E+01 5.12060E+01 5.00000E+00
 -1     24427 3.82386E+01 5.14209E+01 5.00000E+00
 -1     24428 3.91450E+01 5.06077E+01 5.00000E+00
 -1     24429 3.69396E+01 5.02803E+01 5.00000E+00
 -1     24430 1.65935E+01 4.50661E+01 5.00000E+00
 -1     24431 1.75082E+01 4.53679E+01 5.00000E+00
 -1     24432 1.64135E+01 4.41140E+01 5.00000E+00
 -1     24433 2.02546E+01 4.62897E+01 5.00000E+00
 -1     24434 2.11765E+01 4.65951E+01 5.00000E+00
 -1     24435 2.19020E+01 4.59404E+01 5.00000E+00
 -1     24436 2.00614E+01 4.53311E+01 5.00000E+00
 -1     24437 2.29022E+01 2.68406E+01 5.00000E+00
 -1     24438 2.21802E+01 2.61697E+01 5.00000E+00
 -1     24439 2.26739E+01 2.78139E+01 5.00000E+00
 -1     24440 4.07532E+00 3.80909E+01 5.00000E+00
 -1     24441 4.07164E+00 3.90479E+01 5.00000E+00
 -1     24442 4.89051E+00 3.94220E+01 5.00000E+00
 -1     24443 4.91941E+00 3.75539E+01 5.00000E+00
 -1     24444 4.22391E+01 5.27707E+01 5.00000E+00
 -1     24445 4.31654E+01 5.20598E+01 5.00000E+00
 -1     24446 3.22622E+01 5.01573E+01 5.00000E+00
 -1     24447 3.29679E+01 4.94791E+01 5.00000E+00
 -1     24448 3.13364E+01 4.98553E+01 5.00000E+00
 -1     24449 2.12375E+01 2.64650E+01 5.00000E+00
 -1     24450 4.25758E+00 1.74325E+01 5.00000E+00
 -1     24451 5.05448E+00 1.79071E+01 5.00000E+00
 -1     24452 4.30726E+00 1.64374E+01 5.00000E+00
 -1     24453 4.60993E+00 1.24033E+01 5.00000E+00
 -1     24454 4.73207E+00 1.12928E+01 5.00000E+00
 -1     24455 1.71135E+01 2.14976E+01 5.00000E+00
 -1     24456 1.63826E+01 2.08386E+01 5.00000E+00
 -1     24457 2.00207E+01 2.41527E+01 5.00000E+00
 -1     24458 1.92960E+01 2.34846E+01 5.00000E+00
 -1     24459 3.43453E+01 3.85782E+01 5.00000E+00
 -1     24460 2.72559E+01 3.08416E+01 5.00000E+00
 -1     24461 2.65249E+01 3.01782E+01 5.00000E+00
 -1     24462 4.20956E+01 4.80553E+01 5.00000E+00
 -1     24463 1.02315E+01 4.30602E+01 5.00000E+00
 -1     24464 1.09685E+01 4.24174E+01 5.00000E+00
 -1     24465 9.32905E+00 4.27770E+01 5.00000E+00
 -1     24466 1.83581E+01 2.37809E+01 5.00000E+00
 -1     24467 1.82337E+01 4.47159E+01 5.00000E+00
 -1     24468 3.72891E+01 4.12579E+01 5.00000E+00
 -1     24469 4.35020E+00 2.53839E+01 5.00000E+00
 -1     24470 5.20479E+00 2.58698E+01 5.00000E+00
 -1     24471 4.35954E+00 2.43774E+01 5.00000E+00
 -1     24472 1.54376E+01 2.11528E+01 5.00000E+00
 -1     24473 3.01942E+01 3.35061E+01 5.00000E+00
 -1     24474 2.94630E+01 3.28354E+01 5.00000E+00
 -1     24475 1.45916E+01 4.35305E+01 5.00000E+00
 -1     24476 2.58033E+01 4.80728E+01 5.00000E+00
 -1     24477 2.67283E+01 4.83694E+01 5.00000E+00
 -1     24478 2.56048E+01 4.71113E+01 5.00000E+00
 -1     24479 1.25083E+01 1.85670E+01 5.00000E+00
 -1     24480 4.12732E+01 5.24302E+01 5.00000E+00
 -1     24481 9.18968E+00 4.18822E+01 5.00000E+00
 -1     24482 4.66577E+00 1.03199E+01 5.00000E+00
 -1     24483 4.11960E+01 5.13059E+01 5.00000E+00
 -1     24484 1.98006E+01 2.51185E+01 5.00000E+00
 -1     24485 4.31437E+01 5.09660E+01 5.00000E+00
 -1     24486 4.24069E+00 2.03848E+01 5.00000E+00
 -1     24487 4.27493E+00 2.13807E+01 5.00000E+00
 -1     24488 5.04076E+00 1.98598E+01 5.00000E+00
 -1     24489 2.76556E+01 4.86585E+01 5.00000E+00
 -1     24490 2.85797E+01 4.89559E+01 5.00000E+00
 -1     24491 2.74584E+01 4.76886E+01 5.00000E+00
 -1     24492 4.56561E+00 1.34143E+01 5.00000E+00
 -1     24493 4.21620E+01 5.05153E+01 5.00000E+00
 -1     24494 2.99820E+01 3.44796E+01 5.00000E+00
 -1     24495 2.55692E+01 3.04858E+01 5.00000E+00
 -1     24496 2.85136E+01 3.31347E+01 5.00000E+00
 -1     24497 1.69038E+01 2.24582E+01 5.00000E+00
 -1     24498 5.22377E+00 1.59499E+01 5.00000E+00
 -1     24499 2.70388E+01 3.18070E+01 5.00000E+00
 -1     24500 4.37986E+00 2.33515E+01 5.00000E+00
 -1     24501 5.25228E+00 2.38242E+01 5.00000E+00
 -1     24502 4.36027E+00 2.23565E+01 5.00000E+00
 -1     24503 5.42236E+00 1.39304E+01 5.00000E+00
 -1     24504 2.68172E+01 3.27730E+01 5.00000E+00
 -1     24505 2.60795E+01 3.21129E+01 5.00000E+00
 -1     24506 4.11668E+01 5.01537E+01 5.00000E+00
 -1     24507 4.11422E+01 4.90054E+01 5.00000E+00
 -1     24508 4.01762E+01 4.97961E+01 5.00000E+00
 -1     24509 2.93103E+01 4.82669E+01 5.00000E+00
 -1     24510 2.95042E+01 4.92451E+01 5.00000E+00
 -1     24511 1.67010E+01 2.34136E+01 5.00000E+00
 -1     24512 1.59705E+01 2.27568E+01 5.00000E+00
 -1     24513 6.13246E+00 1.55167E+01 5.00000E+00
 -1     24514 6.03804E+00 1.65081E+01 5.00000E+00
 -1     24515 1.80498E+01 4.37526E+01 5.00000E+00
 -1     24516 1.89607E+01 4.40590E+01 5.00000E+00
 -1     24517 1.22845E+01 1.95638E+01 5.00000E+00
 -1     24518 1.15577E+01 1.89153E+01 5.00000E+00
 -1     24519 3.41314E+01 3.95843E+01 5.00000E+00
 -1     24520 3.34008E+01 3.89022E+01 5.00000E+00
 -1     24521 4.11049E+01 4.76977E+01 5.00000E+00
 -1     24522 2.38753E+01 3.01372E+01 5.00000E+00
 -1     24523 2.31528E+01 2.94687E+01 5.00000E+00
 -1     24524 1.08485E+01 1.82632E+01 5.00000E+00
 -1     24525 1.01187E+01 1.76076E+01 5.00000E+00
 -1     24526 1.06247E+01 1.92599E+01 5.00000E+00
 -1     24527 2.10073E+01 2.74319E+01 5.00000E+00
 -1     24528 2.02892E+01 2.67572E+01 5.00000E+00
 -1     24529 1.07941E+01 4.14991E+01 5.00000E+00
 -1     24530 1.16937E+01 4.17715E+01 5.00000E+00
 -1     24531 3.70945E+01 4.22900E+01 5.00000E+00
 -1     24532 3.63529E+01 4.16438E+01 5.00000E+00
 -1     24533 5.66114E+00 3.98101E+01 5.00000E+00
 -1     24534 6.49950E+00 4.01501E+01 5.00000E+00
 -1     24535 5.64572E+00 3.88771E+01 5.00000E+00
 -1     24536 2.53353E+01 3.14615E+01 5.00000E+00
 -1     24537 2.46034E+01 3.08005E+01 5.00000E+00
 -1     24538 2.36414E+01 3.11128E+01 5.00000E+00
 -1     24539 2.51137E+01 3.24276E+01 5.00000E+00
 -1     24540 3.56079E+01 4.09511E+01 5.00000E+00
 -1     24541 3.48721E+01 4.02753E+01 5.00000E+00
 -1     24542 3.54133E+01 4.19831E+01 5.00000E+00
 -1     24543 3.45366E+01 4.91260E+01 5.00000E+00
 -1     24544 3.54917E+01 4.93777E+01 5.00000E+00
 -1     24545 2.35493E+01 4.55790E+01 5.00000E+00
 -1     24546 2.44756E+01 4.58700E+01 5.00000E+00
 -1     24547 1.44174E+01 4.25852E+01 5.00000E+00
 -1     24548 1.53300E+01 4.28732E+01 5.00000E+00
 -1     24549 3.04258E+01 4.95474E+01 5.00000E+00
 -1     24550 5.91136E+00 1.74651E+01 5.00000E+00
 -1     24551 5.83649E+00 1.84309E+01 5.00000E+00
 -1     24552 6.82005E+00 1.70319E+01 5.00000E+00
 -1     24553 6.26808E+00 1.45206E+01 5.00000E+00
 -1     24554 1.62378E+01 4.31546E+01 5.00000E+00
 -1     24555 1.71471E+01 4.34502E+01 5.00000E+00
 -1     24556 1.60636E+01 4.22094E+01 5.00000E+00
 -1     24557 1.25989E+01 4.20374E+01 5.00000E+00
 -1     24558 1.35043E+01 4.23138E+01 5.00000E+00
 -1     24559 1.24244E+01 4.11192E+01 5.00000E+00
 -1     24560 6.02143E+00 2.73816E+01 5.00000E+00
 -1     24561 6.00453E+00 2.83876E+01 5.00000E+00
 -1     24562 1.95789E+01 2.60799E+01 5.00000E+00
 -1     24563 1.88601E+01 2.54082E+01 5.00000E+00
 -1     24564 1.93487E+01 2.70468E+01 5.00000E+00
 -1     24565 1.52325E+01 2.21157E+01 5.00000E+00
 -1     24566 1.44969E+01 2.14671E+01 5.00000E+00
 -1     24567 1.50297E+01 2.30711E+01 5.00000E+00
 -1     24568 2.97742E+01 3.54478E+01 5.00000E+00
 -1     24569 2.90430E+01 3.47705E+01 5.00000E+00
 -1     24570 7.31974E+00 4.04650E+01 5.00000E+00
 -1     24571 8.18361E+00 4.07571E+01 5.00000E+00
 -1     24572 7.23659E+00 3.95800E+01 5.00000E+00
 -1     24573 2.83037E+01 3.40956E+01 5.00000E+00
 -1     24574 2.75666E+01 3.34280E+01 5.00000E+00
 -1     24575 2.66072E+01 3.37339E+01 5.00000E+00
 -1     24576 2.80960E+01 3.50638E+01 5.00000E+00
 -1     24577 2.24385E+01 2.87894E+01 5.00000E+00
 -1     24578 2.17202E+01 2.81153E+01 5.00000E+00
 -1     24579 2.21991E+01 2.97701E+01 5.00000E+00
 -1     24580 2.91138E+01 4.72794E+01 5.00000E+00
 -1     24581 3.00383E+01 4.75687E+01 5.00000E+00
 -1     24582 7.08234E+00 1.50788E+01 5.00000E+00
 -1     24583 3.11454E+01 4.88640E+01 5.00000E+00
 -1     24584 3.09759E+01 4.78424E+01 5.00000E+00
 -1     24585 3.18865E+01 4.81504E+01 5.00000E+00
 -1     24586 3.07795E+01 4.68550E+01 5.00000E+00
 -1     24587 3.91204E+01 4.94593E+01 5.00000E+00
 -1     24588 1.74239E+01 2.40721E+01 5.00000E+00
 -1     24589 1.64906E+01 2.43707E+01 5.00000E+00
 -1     24590 1.81476E+01 2.47380E+01 5.00000E+00
 -1     24591 4.00257E+01 4.47584E+01 5.00000E+00
 -1     24592 3.93460E+01 4.39832E+01 5.00000E+00
 -1     24593 7.87828E+00 1.56984E+01 5.00000E+00
 -1     24594 2.07719E+01 2.84075E+01 5.00000E+00
 -1     24595 3.99835E+01 4.75798E+01 5.00000E+00
 -1     24596 4.09369E+01 4.66298E+01 5.00000E+00
 -1     24597 5.18725E+00 2.18225E+01 5.00000E+00
 -1     24598 6.15792E+00 2.32659E+01 5.00000E+00
 -1     24599 6.13760E+00 2.42918E+01 5.00000E+00
 -1     24600 5.98374E+00 3.13525E+01 5.00000E+00
 -1     24601 5.97518E+00 3.23264E+01 5.00000E+00
 -1     24602 4.03504E+01 4.56036E+01 5.00000E+00
 -1     24603 2.26204E+01 4.52957E+01 5.00000E+00
 -1     24604 2.33438E+01 4.46337E+01 5.00000E+00
 -1     24605 2.16966E+01 4.49951E+01 5.00000E+00
 -1     24606 3.36691E+01 4.88023E+01 5.00000E+00
 -1     24607 3.43259E+01 4.81422E+01 5.00000E+00
 -1     24608 3.27572E+01 4.84953E+01 5.00000E+00
 -1     24609 1.42427E+01 4.16564E+01 5.00000E+00
 -1     24610 2.54005E+01 4.61453E+01 5.00000E+00
 -1     24611 2.63269E+01 4.64335E+01 5.00000E+00
 -1     24612 2.51977E+01 4.51922E+01 5.00000E+00
 -1     24613 3.39276E+01 4.05993E+01 5.00000E+00
 -1     24614 5.92638E+00 3.51941E+01 5.00000E+00
 -1     24615 5.87341E+00 3.61323E+01 5.00000E+00
 -1     24616 5.97101E+00 3.32891E+01 5.00000E+00
 -1     24617 5.95116E+00 3.42455E+01 5.00000E+00
 -1     24618 6.80787E+00 3.46973E+01 5.00000E+00
 -1     24619 6.83681E+00 3.27858E+01 5.00000E+00
 -1     24620 9.03546E+00 4.09842E+01 5.00000E+00
 -1     24621 9.91472E+00 4.12470E+01 5.00000E+00
 -1     24622 5.71115E+00 1.92986E+01 5.00000E+00
 -1     24623 5.77230E+00 2.02855E+01 5.00000E+00
 -1     24624 6.56803E+00 1.88566E+01 5.00000E+00
 -1     24625 2.72538E+01 4.67123E+01 5.00000E+00
 -1     24626 2.81811E+01 4.70014E+01 5.00000E+00
 -1     24627 2.70496E+01 4.57463E+01 5.00000E+00
 -1     24628 3.63115E+01 4.95676E+01 5.00000E+00
 -1     24629 3.74610E+01 4.95582E+01 5.00000E+00
 -1     24630 3.60132E+01 4.86557E+01 5.00000E+00
 -1     24631 9.40082E+00 1.69540E+01 5.00000E+00
 -1     24632 8.64483E+00 1.63112E+01 5.00000E+00
 -1     24633 7.71329E+00 1.66877E+01 5.00000E+00
 -1     24634 9.19768E+00 1.79542E+01 5.00000E+00
 -1     24635 5.99407E+00 2.93853E+01 5.00000E+00
 -1     24636 5.98542E+00 3.03755E+01 5.00000E+00
 -1     24637 6.84265E+00 3.08461E+01 5.00000E+00
 -1     24638 6.85479E+00 2.88714E+01 5.00000E+00
 -1     24639 1.78741E+01 4.27932E+01 5.00000E+00
 -1     24640 3.26712E+01 3.82091E+01 5.00000E+00
 -1     24641 3.19456E+01 3.75234E+01 5.00000E+00
 -1     24642 3.24573E+01 3.92152E+01 5.00000E+00
 -1     24643 6.05239E+00 2.63655E+01 5.00000E+00
 -1     24644 6.89620E+00 2.68576E+01 5.00000E+00
 -1     24645 6.07956E+00 2.53457E+01 5.00000E+00
 -1     24646 1.79259E+01 2.56994E+01 5.00000E+00
 -1     24647 1.37538E+01 2.08391E+01 5.00000E+00
 -1     24648 1.30203E+01 2.01947E+01 5.00000E+00
 -1     24649 3.12250E+01 3.68218E+01 5.00000E+00
 -1     24650 3.04998E+01 3.61380E+01 5.00000E+00
 -1     24651 2.95608E+01 3.64288E+01 5.00000E+00
 -1     24652 3.10070E+01 3.78206E+01 5.00000E+00
 -1     24653 3.86056E+01 4.35110E+01 5.00000E+00
 -1     24654 3.78580E+01 4.28906E+01 5.00000E+00
 -1     24655 1.98640E+01 4.43763E+01 5.00000E+00
 -1     24656 2.07807E+01 4.46851E+01 5.00000E+00
 -1     24657 1.96800E+01 4.34129E+01 5.00000E+00
 -1     24658 8.90866E+00 4.01220E+01 5.00000E+00
 -1     24659 6.98520E+00 2.47875E+01 5.00000E+00
 -1     24660 5.74543E+00 3.70277E+01 5.00000E+00
 -1     24661 5.70111E+00 3.79629E+01 5.00000E+00
 -1     24662 6.47174E+00 3.83509E+01 5.00000E+00
 -1     24663 6.65511E+00 3.65413E+01 5.00000E+00
 -1     24664 1.20697E+01 2.05430E+01 5.00000E+00
 -1     24665 3.69217E+01 4.32765E+01 5.00000E+00
 -1     24666 2.89092E+01 4.63032E+01 5.00000E+00
 -1     24667 1.06399E+01 4.06012E+01 5.00000E+00
 -1     24668 1.35487E+01 2.18020E+01 5.00000E+00
 -1     24669 3.84256E+01 4.43492E+01 5.00000E+00
 -1     24670 1.40660E+01 4.07267E+01 5.00000E+00
 -1     24671 1.49791E+01 4.09982E+01 5.00000E+00
 -1     24672 3.67546E+01 4.44301E+01 5.00000E+00
 -1     24673 3.59911E+01 4.38296E+01 5.00000E+00
 -1     24674 3.94907E+01 4.56666E+01 5.00000E+00
 -1     24675 1.33507E+01 2.27747E+01 5.00000E+00
 -1     24676 1.26076E+01 2.21466E+01 5.00000E+00
 -1     24677 3.92363E+01 4.82625E+01 5.00000E+00
 -1     24678 3.90682E+01 4.71945E+01 5.00000E+00
 -1     24679 8.72879E+00 3.92262E+01 5.00000E+00
 -1     24680 9.58063E+00 3.94533E+01 5.00000E+00
 -1     24681 2.05282E+01 2.93752E+01 5.00000E+00
 -1     24682 1.98153E+01 2.86919E+01 5.00000E+00
 -1     24683 7.75484E+00 2.63532E+01 5.00000E+00
 -1     24684 7.72388E+00 2.73693E+01 5.00000E+00
 -1     24685 6.16218E+00 2.11520E+01 5.00000E+00
 -1     24686 6.24752E+00 2.21278E+01 5.00000E+00
 -1     24687 7.13284E+00 2.25955E+01 5.00000E+00
 -1     24688 6.83256E+00 2.05908E+01 5.00000E+00
 -1     24689 2.86965E+01 4.53252E+01 5.00000E+00
 -1     24690 2.96292E+01 4.56033E+01 5.00000E+00
 -1     24691 1.03643E+01 2.02864E+01 5.00000E+00
 -1     24692 9.65510E+00 1.96343E+01 5.00000E+00
 -1     24693 1.62912E+01 2.53161E+01 5.00000E+00
 -1     24694 1.55683E+01 2.46576E+01 5.00000E+00
 -1     24695 1.77088E+01 4.18201E+01 5.00000E+00
 -1     24696 1.86115E+01 4.21225E+01 5.00000E+00
 -1     24697 3.37235E+01 4.16071E+01 5.00000E+00
 -1     24698 3.29828E+01 4.09161E+01 5.00000E+00
 -1     24699 7.58661E+00 1.76447E+01 5.00000E+00
 -1     24700 1.04557E+01 3.96983E+01 5.00000E+00
 -1     24701 1.13351E+01 3.99505E+01 5.00000E+00
 -1     24702 1.02759E+01 3.88026E+01 5.00000E+00
 -1     24703 1.91079E+01 2.80038E+01 5.00000E+00
 -1     24704 1.83976E+01 2.73266E+01 5.00000E+00
 -1     24705 1.88642E+01 2.89716E+01 5.00000E+00
 -1     24706 1.58979E+01 4.12536E+01 5.00000E+00
 -1     24707 1.68057E+01 4.15351E+01 5.00000E+00
 -1     24708 1.57212E+01 4.03239E+01 5.00000E+00
 -1     24709 7.11410E+00 3.87951E+01 5.00000E+00
 -1     24710 7.93434E+00 3.91100E+01 5.00000E+00
 -1     24711 8.60630E+00 3.84414E+01 5.00000E+00
 -1     24712 7.16949E+00 3.78809E+01 5.00000E+00
 -1     24713 3.52236E+01 4.30309E+01 5.00000E+00
 -1     24714 3.44786E+01 4.23381E+01 5.00000E+00
 -1     24715 3.50564E+01 4.41845E+01 5.00000E+00
 -1     24716 1.18477E+01 2.15415E+01 5.00000E+00
 -1     24717 1.11119E+01 2.09106E+01 5.00000E+00
 -1     24718 1.01423E+01 2.12849E+01 5.00000E+00
 -1     24719 1.16497E+01 2.25142E+01 5.00000E+00
 -1     24720 1.22393E+01 4.02084E+01 5.00000E+00
 -1     24721 1.31445E+01 4.04742E+01 5.00000E+00
 -1     24722 1.38808E+01 3.98160E+01 5.00000E+00
 -1     24723 1.20551E+01 3.93055E+01 5.00000E+00
 -1     24724 1.48409E+01 2.40190E+01 5.00000E+00
 -1     24725 1.41030E+01 2.33780E+01 5.00000E+00
 -1     24726 1.46415E+01 2.49645E+01 5.00000E+00
 -1     24727 1.77018E+01 2.66535E+01 5.00000E+00
 -1     24728 1.69893E+01 2.59833E+01 5.00000E+00
 -1     24729 1.60670E+01 2.62703E+01 5.00000E+00
 -1     24730 1.74610E+01 2.76105E+01 5.00000E+00
 -1     24731 3.88344E+01 4.61989E+01 5.00000E+00
 -1     24732 3.85097E+01 4.53536E+01 5.00000E+00
 -1     24733 3.80872E+01 4.68815E+01 5.00000E+00
 -1     24734 1.31618E+01 2.37226E+01 5.00000E+00
 -1     24735 7.70699E+00 2.83682E+01 5.00000E+00
 -1     24736 7.69653E+00 2.93659E+01 5.00000E+00
 -1     24737 8.56562E+00 2.78638E+01 5.00000E+00
 -1     24738 3.77693E+01 4.48814E+01 5.00000E+00
 -1     24739 1.75431E+01 4.08643E+01 5.00000E+00
 -1     24740 3.68387E+01 4.54345E+01 5.00000E+00
 -1     24741 8.07843E+00 2.20943E+01 5.00000E+00
 -1     24742 7.98882E+00 2.32324E+01 5.00000E+00
 -1     24743 3.41613E+01 4.72768E+01 5.00000E+00
 -1     24744 3.50288E+01 4.76005E+01 5.00000E+00
 -1     24745 2.77531E+01 4.50527E+01 5.00000E+00
 -1     24746 2.84730E+01 4.43528E+01 5.00000E+00
 -1     24747 2.68261E+01 4.47739E+01 5.00000E+00
 -1     24748 7.70437E+00 3.03421E+01 5.00000E+00
 -1     24749 7.70270E+00 3.13191E+01 5.00000E+00
 -1     24750 8.55657E+00 2.98389E+01 5.00000E+00
 -1     24751 2.14991E+01 4.40403E+01 5.00000E+00
 -1     24752 2.64014E+01 3.46906E+01 5.00000E+00
 -1     24753 2.56520E+01 3.40357E+01 5.00000E+00
 -1     24754 2.48808E+01 3.34050E+01 5.00000E+00
 -1     24755 2.41367E+01 3.27536E+01 5.00000E+00
 -1     24756 2.46750E+01 3.43617E+01 5.00000E+00
 -1     24757 2.33868E+01 3.21077E+01 5.00000E+00
 -1     24758 2.26587E+01 3.14443E+01 5.00000E+00
 -1     24759 2.31539E+01 3.30851E+01 5.00000E+00
 -1     24760 3.25878E+01 4.74737E+01 5.00000E+00
 -1     24761 8.29088E+00 1.82954E+01 5.00000E+00
 -1     24762 7.39765E+00 1.86396E+01 5.00000E+00
 -1     24763 7.27231E+00 1.95073E+01 5.00000E+00
 -1     24764 9.00872E+00 1.89491E+01 5.00000E+00
 -1     24765 3.05566E+01 4.58535E+01 5.00000E+00
 -1     24766 3.14942E+01 4.61272E+01 5.00000E+00
 -1     24767 3.03439E+01 4.48755E+01 5.00000E+00
 -1     24768 7.71029E+00 3.22740E+01 5.00000E+00
 -1     24769 7.70612E+00 3.32368E+01 5.00000E+00
 -1     24770 8.57201E+00 3.17700E+01 5.00000E+00
 -1     24771 2.31236E+01 4.37088E+01 5.00000E+00
 -1     24772 2.40525E+01 4.39921E+01 5.00000E+00
 -1     24773 7.87388E+00 2.42768E+01 5.00000E+00
 -1     24774 7.81584E+00 2.53308E+01 5.00000E+00
 -1     24775 7.71005E+00 3.42020E+01 5.00000E+00
 -1     24776 7.68527E+00 3.51507E+01 5.00000E+00
 -1     24777 8.58353E+00 3.36902E+01 5.00000E+00
 -1     24778 2.19427E+01 3.07590E+01 5.00000E+00
 -1     24779 2.12285E+01 3.00797E+01 5.00000E+00
 -1     24780 3.22308E+01 4.02427E+01 5.00000E+00
 -1     24781 3.15012E+01 3.95496E+01 5.00000E+00
 -1     24782 3.20267E+01 4.12504E+01 5.00000E+00
 -1     24783 3.35338E+01 4.26548E+01 5.00000E+00
 -1     24784 3.82051E+01 4.90741E+01 5.00000E+00
 -1     24785 8.81947E+00 2.37757E+01 5.00000E+00
 -1     24786 2.93535E+01 3.74020E+01 5.00000E+00
 -1     24787 2.86280E+01 3.67118E+01 5.00000E+00
 -1     24788 1.95000E+01 4.24460E+01 5.00000E+00
 -1     24789 2.04033E+01 4.27634E+01 5.00000E+00
 -1     24790 1.93347E+01 4.14729E+01 5.00000E+00
 -1     24791 2.16880E+01 3.17538E+01 5.00000E+00
 -1     24792 7.69617E+00 3.61642E+01 5.00000E+00
 -1     24793 7.56819E+00 3.70596E+01 5.00000E+00
 -1     24794 8.21055E+00 3.75038E+01 5.00000E+00
 -1     24795 8.59835E+00 3.56690E+01 5.00000E+00
 -1     24796 2.78991E+01 3.60187E+01 5.00000E+00
 -1     24797 2.71598E+01 3.53438E+01 5.00000E+00
 -1     24798 2.76918E+01 3.69919E+01 5.00000E+00
 -1     24799 8.64351E+00 2.58425E+01 5.00000E+00
 -1     24800 2.02718E+01 3.03641E+01 5.00000E+00
 -1     24801 8.74830E+00 1.99755E+01 5.00000E+00
 -1     24802 1.29957E+01 2.46817E+01 5.00000E+00
 -1     24803 1.22435E+01 2.40784E+01 5.00000E+00
 -1     24804 3.34306E+01 4.66861E+01 5.00000E+00
 -1     24805 3.41335E+01 4.61444E+01 5.00000E+00
 -1     24806 3.25600E+01 4.63413E+01 5.00000E+00
 -1     24807 1.73960E+01 3.98797E+01 5.00000E+00
 -1     24808 1.82991E+01 4.01647E+01 5.00000E+00
 -1     24809 8.30856E+00 2.10590E+01 5.00000E+00
 -1     24810 9.16455E+00 2.16960E+01 5.00000E+00
 -1     24811 3.56970E+01 4.69224E+01 5.00000E+00
 -1     24812 3.58616E+01 4.77878E+01 5.00000E+00
 -1     24813 9.73376E+00 2.33189E+01 5.00000E+00
 -1     24814 9.61881E+00 2.43633E+01 5.00000E+00
 -1     24815 2.13920E+01 3.27791E+01 5.00000E+00
 -1     24816 2.06761E+01 3.20938E+01 5.00000E+00
 -1     24817 2.62046E+01 3.56456E+01 5.00000E+00
 -1     24818 3.33972E+01 4.35790E+01 5.00000E+00
 -1     24819 3.26421E+01 4.28480E+01 5.00000E+00
 -1     24820 2.12903E+01 4.31029E+01 5.00000E+00
 -1     24821 2.22062E+01 4.34130E+01 5.00000E+00
 -1     24822 2.29149E+01 4.27713E+01 5.00000E+00
 -1     24823 2.11103E+01 4.21360E+01 5.00000E+00
 -1     24824 9.50338E+00 2.53583E+01 5.00000E+00
 -1     24825 9.44237E+00 2.63808E+01 5.00000E+00
 -1     24826 1.04177E+01 2.49015E+01 5.00000E+00
 -1     24827 2.49967E+01 4.42232E+01 5.00000E+00
 -1     24828 2.59216E+01 4.44984E+01 5.00000E+00
 -1     24829 1.00453E+01 3.78982E+01 5.00000E+00
 -1     24830 1.09204E+01 3.81432E+01 5.00000E+00
 -1     24831 2.00022E+01 3.13370E+01 5.00000E+00
 -1     24832 1.93020E+01 3.06326E+01 5.00000E+00
 -1     24833 1.97062E+01 3.23623E+01 5.00000E+00
 -1     24834 1.86128E+01 2.99122E+01 5.00000E+00
 -1     24835 1.79054E+01 2.92241E+01 5.00000E+00
 -1     24836 1.83431E+01 3.08851E+01 5.00000E+00
 -1     24837 2.47765E+01 4.32982E+01 5.00000E+00
 -1     24838 3.66814E+01 4.79776E+01 5.00000E+00
 -1     24839 3.07849E+01 3.88177E+01 5.00000E+00
 -1     24840 3.00643E+01 3.81161E+01 5.00000E+00
 -1     24841 3.05584E+01 3.98452E+01 5.00000E+00
 -1     24842 2.91314E+01 3.83991E+01 5.00000E+00
 -1     24843 3.74254E+01 4.74935E+01 5.00000E+00
 -1     24844 3.71916E+01 4.64978E+01 5.00000E+00
 -1     24845 3.46134E+01 4.52685E+01 5.00000E+00
 -1     24846 3.38459E+01 4.44698E+01 5.00000E+00
 -1     24847 9.91213E+00 2.23202E+01 5.00000E+00
 -1     24848 2.66251E+01 4.38048E+01 5.00000E+00
 -1     24849 2.45155E+01 4.24025E+01 5.00000E+00
 -1     24850 2.54597E+01 4.26336E+01 5.00000E+00
 -1     24851 2.64842E+01 4.26928E+01 5.00000E+00
 -1     24852 2.73887E+01 4.29683E+01 5.00000E+00
 -1     24853 2.62233E+01 4.17971E+01 5.00000E+00
 -1     24854 9.40274E+00 2.73701E+01 5.00000E+00
 -1     24855 9.38584E+00 2.83689E+01 5.00000E+00
 -1     24856 1.02626E+01 2.68859E+01 5.00000E+00
 -1     24857 3.17864E+01 4.23828E+01 5.00000E+00
 -1     24858 3.10345E+01 4.17094E+01 5.00000E+00
 -1     24859 3.16499E+01 4.33070E+01 5.00000E+00
 -1     24860 1.64678E+01 3.96366E+01 5.00000E+00
 -1     24861 1.72238E+01 3.89370E+01 5.00000E+00
 -1     24862 1.55490E+01 3.93812E+01 5.00000E+00
 -1     24863 2.35900E+01 4.21800E+01 5.00000E+00
 -1     24864 2.42733E+01 4.15154E+01 5.00000E+00
 -1     24865 2.26726E+01 4.18842E+01 5.00000E+00
 -1     24866 2.82036E+01 4.34837E+01 5.00000E+00
 -1     24867 2.91470E+01 4.37563E+01 5.00000E+00
 -1     24868 2.80627E+01 4.23717E+01 5.00000E+00
 -1     24869 1.18517E+01 3.84235E+01 5.00000E+00
 -1     24870 1.27559E+01 3.86814E+01 5.00000E+00
 -1     24871 1.16212E+01 3.75191E+01 5.00000E+00
 -1     24872 9.40828E+00 2.93351E+01 5.00000E+00
 -1     24873 9.41612E+00 3.03113E+01 5.00000E+00
 -1     24874 1.02454E+01 2.88413E+01 5.00000E+00
 -1     24875 1.13052E+01 2.44720E+01 5.00000E+00
 -1     24876 1.14714E+01 2.35129E+01 5.00000E+00
 -1     24877 1.36886E+01 3.89201E+01 5.00000E+00
 -1     24878 1.46102E+01 3.91726E+01 5.00000E+00
 -1     24879 1.53568E+01 3.84853E+01 5.00000E+00
 -1     24880 1.34852E+01 3.80380E+01 5.00000E+00
 -1     24881 1.58475E+01 2.72109E+01 5.00000E+00
 -1     24882 1.51494E+01 2.65436E+01 5.00000E+00
 -1     24883 9.00500E+00 3.76201E+01 5.00000E+00
 -1     24884 2.60291E+01 3.65810E+01 5.00000E+00
 -1     24885 2.52707E+01 3.59278E+01 5.00000E+00
 -1     24886 2.44762E+01 3.53314E+01 5.00000E+00
 -1     24887 2.37050E+01 3.47007E+01 5.00000E+00
 -1     24888 2.43007E+01 3.62668E+01 5.00000E+00
 -1     24889 3.29542E+01 4.46630E+01 5.00000E+00
 -1     24890 2.98359E+01 4.28644E+01 5.00000E+00
 -1     24891 3.01053E+01 4.37336E+01 5.00000E+00
 -1     24892 9.64954E+00 3.69607E+01 5.00000E+00
 -1     24893 2.28889E+01 3.41048E+01 5.00000E+00
 -1     24894 2.21390E+01 3.34589E+01 5.00000E+00
 -1     24895 2.26901E+01 3.50744E+01 5.00000E+00
 -1     24896 9.45752E+00 3.31410E+01 5.00000E+00
 -1     24897 9.46144E+00 3.41063E+01 5.00000E+00
 -1     24898 1.37434E+01 2.52386E+01 5.00000E+00
 -1     24899 1.28251E+01 2.55945E+01 5.00000E+00
 -1     24900 1.44708E+01 2.58772E+01 5.00000E+00
 -1     24901 3.75769E+01 4.83613E+01 5.00000E+00
 -1     24902 9.44748E+00 3.12544E+01 5.00000E+00
 -1     24903 9.45507E+00 3.22094E+01 5.00000E+00
 -1     24904 1.03330E+01 3.26254E+01 5.00000E+00
 -1     24905 1.02992E+01 3.07506E+01 5.00000E+00
 -1     24906 1.42513E+01 2.68178E+01 5.00000E+00
 -1     24907 3.10328E+01 4.39837E+01 5.00000E+00
 -1     24908 7.66219E+00 2.03738E+01 5.00000E+00
 -1     24909 3.23371E+01 4.53397E+01 5.00000E+00
 -1     24910 2.89005E+01 3.93948E+01 5.00000E+00
 -1     24911 2.81898E+01 3.86807E+01 5.00000E+00
 -1     24912 1.07115E+01 2.29078E+01 5.00000E+00
 -1     24913 1.91941E+01 4.04806E+01 5.00000E+00
 -1     24914 2.00826E+01 4.08042E+01 5.00000E+00
 -1     24915 1.90470E+01 3.94960E+01 5.00000E+00
 -1     24916 1.71846E+01 2.85563E+01 5.00000E+00
 -1     24917 1.64888E+01 2.78833E+01 5.00000E+00
 -1     24918 1.69331E+01 2.94969E+01 5.00000E+00
 -1     24919 2.11271E+01 3.37988E+01 5.00000E+00
 -1     24920 9.48654E+00 3.50370E+01 5.00000E+00
 -1     24921 9.49743E+00 3.60505E+01 5.00000E+00
 -1     24922 1.05377E+01 3.63287E+01 5.00000E+00
 -1     24923 1.03605E+01 3.44878E+01 5.00000E+00
 -1     24924 3.53440E+01 4.58592E+01 5.00000E+00
 -1     24925 3.61769E+01 4.60465E+01 5.00000E+00
 -1     24926 1.55711E+01 2.81567E+01 5.00000E+00
 -1     24927 1.11898E+01 2.54671E+01 5.00000E+00
 -1     24928 2.07262E+01 3.49512E+01 5.00000E+00
 -1     24929 1.99792E+01 3.42715E+01 5.00000E+00
 -1     24930 2.67756E+01 3.72446E+01 5.00000E+00
 -1     24931 2.58416E+01 3.75267E+01 5.00000E+00
 -1     24932 2.75044E+01 3.79376E+01 5.00000E+00
 -1     24933 2.91133E+01 4.20009E+01 5.00000E+00
 -1     24934 3.00717E+01 4.19782E+01 5.00000E+00
 -1     24935 3.03119E+01 4.08459E+01 5.00000E+00
 -1     24936 2.82985E+01 4.14855E+01 5.00000E+00
 -1     24937 1.19579E+01 2.59775E+01 5.00000E+00
 -1     24938 1.10703E+01 2.64071E+01 5.00000E+00
 -1     24939 1.10307E+01 2.73964E+01 5.00000E+00
 -1     24940 1.27056E+01 2.65345E+01 5.00000E+00
 -1     24941 1.80847E+01 3.18003E+01 5.00000E+00
 -1     24942 1.73955E+01 3.10799E+01 5.00000E+00
 -1     24943 1.70646E+01 3.79474E+01 5.00000E+00
 -1     24944 1.79927E+01 3.81904E+01 5.00000E+00
 -1     24945 3.18884E+01 4.44490E+01 5.00000E+00
 -1     24946 2.95956E+01 4.01140E+01 5.00000E+00
 -1     24947 2.86540E+01 4.03955E+01 5.00000E+00
 -1     24948 1.93541E+01 3.33447E+01 5.00000E+00
 -1     24949 1.86802E+01 3.25880E+01 5.00000E+00
 -1     24950 1.77326E+01 3.27827E+01 5.00000E+00
 -1     24951 1.89532E+01 3.44971E+01 5.00000E+00
 -1     24952 2.09440E+01 4.11760E+01 5.00000E+00
 -1     24953 2.18311E+01 4.15155E+01 5.00000E+00
 -1     24954 2.25062E+01 4.09241E+01 5.00000E+00
 -1     24955 2.08033E+01 4.01836E+01 5.00000E+00
 -1     24956 2.72735E+01 3.89333E+01 5.00000E+00
 -1     24957 2.70554E+01 3.98667E+01 5.00000E+00
 -1     24958 2.63700E+01 3.91237E+01 5.00000E+00
 -1     24959 2.56976E+01 3.84174E+01 5.00000E+00
 -1     24960 2.49511E+01 3.77538E+01 5.00000E+00
 -1     24961 2.54796E+01 3.93507E+01 5.00000E+00
 -1     24962 2.56754E+01 4.08975E+01 5.00000E+00
 -1     24963 2.66999E+01 4.09567E+01 5.00000E+00
 -1     24964 1.14253E+01 3.66638E+01 5.00000E+00
 -1     24965 1.23567E+01 3.69441E+01 5.00000E+00
 -1     24966 1.12732E+01 3.57536E+01 5.00000E+00
 -1     24967 1.10656E+01 2.83499E+01 5.00000E+00
 -1     24968 1.10880E+01 2.93161E+01 5.00000E+00
 -1     24969 1.18733E+01 2.78711E+01 5.00000E+00
 -1     24970 2.17079E+01 3.55071E+01 5.00000E+00
 -1     24971 2.05600E+01 3.59798E+01 5.00000E+00
 -1     24972 2.25239E+01 3.61030E+01 5.00000E+00
 -1     24973 2.41688E+01 3.72175E+01 5.00000E+00
 -1     24974 2.33743E+01 3.66211E+01 5.00000E+00
 -1     24975 2.40248E+01 3.81081E+01 5.00000E+00
 -1     24976 1.60776E+01 3.77884E+01 5.00000E+00
 -1     24977 1.68465E+01 3.70417E+01 5.00000E+00
 -1     24978 1.51387E+01 3.75797E+01 5.00000E+00
 -1     24979 1.11798E+01 3.02291E+01 5.00000E+00
 -1     24980 1.12112E+01 3.11722E+01 5.00000E+00
 -1     24981 1.20000E+01 2.97377E+01 5.00000E+00
 -1     24982 1.40968E+01 2.76450E+01 5.00000E+00
 -1     24983 1.34183E+01 2.69786E+01 5.00000E+00
 -1     24984 2.48671E+01 4.09839E+01 5.00000E+00
 -1     24985 2.53437E+01 4.01434E+01 5.00000E+00
 -1     24986 2.46713E+01 3.94371E+01 5.00000E+00
 -1     24987 2.39416E+01 4.07613E+01 5.00000E+00
 -1     24988 2.76033E+01 4.07663E+01 5.00000E+00
 -1     24989 1.89505E+01 3.84613E+01 5.00000E+00
 -1     24990 1.98455E+01 3.87772E+01 5.00000E+00
 -1     24991 1.87913E+01 3.74716E+01 5.00000E+00
 -1     24992 1.66853E+01 3.03997E+01 5.00000E+00
 -1     24993 1.59645E+01 2.97319E+01 5.00000E+00
 -1     24994 1.64269E+01 3.13148E+01 5.00000E+00
 -1     24995 1.51161E+01 2.91396E+01 5.00000E+00
 -1     24996 1.44748E+01 2.84672E+01 5.00000E+00
 -1     24997 1.48682E+01 3.00424E+01 5.00000E+00
 -1     24998 1.12339E+01 3.21128E+01 5.00000E+00
 -1     24999 1.12363E+01 3.30445E+01 5.00000E+00
 -1     25000 1.21145E+01 3.15912E+01 5.00000E+00
 -1     25001 1.25511E+01 2.73617E+01 5.00000E+00
 -1     25002 1.11971E+01 3.39336E+01 5.00000E+00
 -1     25003 1.12222E+01 3.48642E+01 5.00000E+00
 -1     25004 1.21098E+01 3.51994E+01 5.00000E+00
 -1     25005 1.20980E+01 3.34209E+01 5.00000E+00
 -1     25006 1.36417E+01 2.86280E+01 5.00000E+00
 -1     25007 1.25860E+01 2.83153E+01 5.00000E+00
 -1     25008 1.29640E+01 2.91374E+01 5.00000E+00
 -1     25009 1.32678E+01 3.71987E+01 5.00000E+00
 -1     25010 1.42005E+01 3.74374E+01 5.00000E+00
 -1     25011 1.49213E+01 3.67404E+01 5.00000E+00
 -1     25012 1.30720E+01 3.63434E+01 5.00000E+00
 -1     25013 1.30558E+01 3.00504E+01 5.00000E+00
 -1     25014 1.65475E+01 3.61136E+01 5.00000E+00
 -1     25015 1.75345E+01 3.62726E+01 5.00000E+00
 -1     25016 2.32347E+01 4.03616E+01 5.00000E+00
 -1     25017 2.38286E+01 3.98301E+01 5.00000E+00
 -1     25018 2.23932E+01 3.99929E+01 5.00000E+00
 -1     25019 2.06453E+01 3.71391E+01 5.00000E+00
 -1     25020 1.96637E+01 3.65832E+01 5.00000E+00
 -1     25021 2.23921E+01 3.70537E+01 5.00000E+00
 -1     25022 1.62756E+01 3.21391E+01 5.00000E+00
 -1     25023 1.55654E+01 3.14589E+01 5.00000E+00
 -1     25024 1.47904E+01 3.10593E+01 5.00000E+00
 -1     25025 1.39420E+01 3.04670E+01 5.00000E+00
 -1     25026 1.29780E+01 3.10673E+01 5.00000E+00
 -1     25027 1.46391E+01 3.18835E+01 5.00000E+00
 -1     25028 1.30007E+01 3.20078E+01 5.00000E+00
 -1     25029 1.84069E+01 3.53841E+01 5.00000E+00
 -1     25030 1.77817E+01 3.44574E+01 5.00000E+00
 -1     25031 1.73091E+01 3.36399E+01 5.00000E+00
 -1     25032 1.67137E+01 3.28522E+01 5.00000E+00
 -1     25033 1.58522E+01 3.29963E+01 5.00000E+00
 -1     25034 1.67628E+01 3.45269E+01 5.00000E+00
 -1     25035 2.07269E+01 3.91917E+01 5.00000E+00
 -1     25036 2.15883E+01 3.95635E+01 5.00000E+00
 -1     25037 2.23167E+01 3.90009E+01 5.00000E+00
 -1     25038 2.06305E+01 3.81570E+01 5.00000E+00
 -1     25039 1.39677E+01 3.24845E+01 5.00000E+00
 -1     25040 1.31042E+01 3.30084E+01 5.00000E+00
 -1     25041 1.30650E+01 3.38975E+01 5.00000E+00
 -1     25042 1.47427E+01 3.28841E+01 5.00000E+00
 -1     25043 2.15268E+01 3.75536E+01 5.00000E+00
 -1     25044 2.23772E+01 3.80717E+01 5.00000E+00
 -1     25045 2.39644E+01 3.90374E+01 5.00000E+00
 -1     25046 2.31820E+01 3.85011E+01 5.00000E+00
 -1     25047 1.55452E+01 3.60274E+01 5.00000E+00
 -1     25048 1.62331E+01 3.52582E+01 5.00000E+00
 -1     25049 1.57606E+01 3.44408E+01 5.00000E+00
 -1     25050 1.46070E+01 3.58851E+01 5.00000E+00
 -1     25051 1.27892E+01 3.47025E+01 5.00000E+00
 -1     25052 1.28403E+01 3.55919E+01 5.00000E+00
 -1     25053 1.37514E+01 3.58466E+01 5.00000E+00
 -1     25054 1.37955E+01 3.42901E+01 5.00000E+00
 -1     25055 1.87060E+01 3.63123E+01 5.00000E+00
 -1     25056 1.51808E+01 3.35973E+01 5.00000E+00
 -1     25057 1.43753E+01 3.51336E+01 5.00000E+00
 -1     25058 1.46511E+01 3.43286E+01 5.00000E+00
 -1     25059 2.00234E+01 3.50633E+01 2.50000E+00
 -1     25060 2.11712E+01 3.45907E+01 2.50000E+00
 -1     25061 2.10050E+01 3.56192E+01 2.50000E+00
 -1     25062 1.89088E+01 4.88470E+01 5.30536E-01
 -1     25063 1.94146E+01 4.83832E+01 1.84468E+00
 -1     25064 1.85856E+01 4.77649E+01 1.31414E+00
 -1     25065 1.78518E+01 4.82597E+01 5.65810E-01
 -1     25066 1.86809E+01 4.88780E+01 1.09635E+00
 -1     25067 1.83576E+01 4.77960E+01 1.87995E+00
 -1     25068 1.43073E+01 2.24451E+01 2.50000E+00
 -1     25069 1.52480E+01 2.21308E+01 2.50000E+00
 -1     25070 1.50452E+01 2.30862E+01 2.50000E+00
 -1     25071 1.27821E+01 2.27338E+01 1.24170E+00
 -1     25072 1.27667E+01 2.27188E+01 3.74170E+00
 -1     25073 1.35760E+01 2.17955E+01 2.50000E+00
 -1     25074 1.20509E+01 2.20842E+01 1.24170E+00
 -1     25075 2.66228E+00 9.13268E+00 3.68802E+00
 -1     25076 3.55206E+00 9.62993E+00 3.68802E+00
 -1     25077 2.67500E+00 1.01362E+01 3.68802E+00
 -1     25078 2.06321E+01 2.93475E+01 2.50000E+00
 -1     25079 2.03757E+01 3.03363E+01 2.50000E+00
 -1     25080 1.96755E+01 2.96319E+01 2.50000E+00
 -1     25081 2.64311E+01 4.95692E+01 1.31395E+00
 -1     25082 2.62428E+01 4.85992E+01 1.31395E+00
 -1     25083 2.55067E+01 4.92633E+01 1.31395E+00
 -1     25084 5.17932E+00 1.59558E+01 2.50000E+00
 -1     25085 4.26280E+00 1.64434E+01 2.50000E+00
 -1     25086 5.08489E+00 1.69472E+01 2.50000E+00
 -1     25087 4.21896E+00 1.86962E+01 1.19188E+00
 -1     25088 4.20374E+00 1.96920E+01 1.19188E+00
 -1     25089 5.01002E+00 1.79131E+01 2.50000E+00
 -1     25090 4.18855E+00 1.96561E+01 3.69188E+00
 -1     25091 4.99480E+00 1.89089E+01 2.50000E+00
 -1     25092 4.71247E+01 5.17425E+01 4.05022E+00
 -1     25093 4.71247E+01 5.07425E+01 4.05022E+00
 -1     25094 4.71247E+01 5.11142E+01 2.86063E+00
 -1     25095 2.16520E+01 4.73093E+01 3.88289E+00
 -1     25096 2.18504E+01 4.82646E+01 3.88289E+00
 -1     25097 2.25759E+01 4.76099E+01 3.88289E+00
 -1     25098 1.60661E+01 3.14402E+01 3.81011E+00
 -1     25099 1.67763E+01 3.21204E+01 3.81011E+00
 -1     25100 1.59148E+01 3.22645E+01 3.81011E+00
 -1     25101 5.93078E+00 3.23955E+01 2.50000E+00
 -1     25102 5.90573E+00 3.33640E+01 2.50000E+00
 -1     25103 6.79242E+00 3.28550E+01 2.50000E+00
 -1     25104 6.76736E+00 3.38235E+01 2.50000E+00
 -1     25105 2.21105E+01 4.68798E+01 2.50000E+00
 -1     25106 2.11867E+01 4.65793E+01 2.50000E+00
 -1     25107 2.19204E+01 4.59126E+01 2.50000E+00
 -1     25108 2.09965E+01 4.56121E+01 2.50000E+00
 -1     25109 3.52960E+00 8.63086E+00 3.68802E+00
 -1     25110 1.84543E+00 7.99640E+00 3.75624E+00
 -1     25111 2.71275E+00 7.49457E+00 3.75624E+00
 -1     25112 2.72653E+00 8.16528E+00 2.44426E+00
 -1     25113 4.55432E+01 4.35306E+01 3.04343E+00
 -1     25114 4.52523E+01 4.26650E+01 2.27016E+00
 -1     25115 4.60159E+01 4.37352E+01 2.28855E+00
 -1     25116 4.55449E+01 4.40022E+01 1.53092E+00
 -1     25117 4.47814E+01 4.29320E+01 1.51252E+00
 -1     25118 4.52540E+01 4.31366E+01 7.57637E-01
 -1     25119 9.33008E-01 4.27353E+01 3.98509E+00
 -1     25120 1.23434E+00 4.23710E+01 4.44526E+00
 -1     25121 1.41002E+00 4.30826E+01 4.53983E+00
 -1     25122 1.36908E+00 4.32132E+01 3.51886E+00
 -1     25123 1.19339E+00 4.25017E+01 3.42429E+00
 -1     25124 1.67041E+00 4.28489E+01 3.97903E+00
 -1     25125 7.80744E+00 1.80123E+01 1.22794E+00
 -1     25126 7.02894E+00 1.74457E+01 1.22794E+00
 -1     25127 6.96259E+00 1.84363E+01 1.22794E+00
 -1     25128 4.74506E+01 5.86843E+01 3.24586E+00
 -1     25129 4.74506E+01 5.93428E+01 3.01547E+00
 -1     25130 4.73852E+01 5.86324E+01 3.90752E+00
 -1     25131 4.68358E+01 5.86337E+01 3.35925E+00
 -1     25132 4.73852E+01 5.92909E+01 3.67712E+00
 -1     25133 1.10657E+01 2.24583E+01 3.74170E+00
 -1     25134 1.08874E+01 2.34570E+01 3.74170E+00
 -1     25135 1.00880E+01 2.28694E+01 3.74170E+00
 -1     25136 1.61853E+01 2.18079E+01 2.50000E+00
 -1     25137 1.59825E+01 2.27632E+01 2.50000E+00
 -1     25138 6.97661E+00 2.37966E+01 2.50000E+00
 -1     25139 6.09129E+00 2.33290E+01 2.50000E+00
 -1     25140 6.88302E+00 2.28173E+01 2.50000E+00
 -1     25141 5.99770E+00 2.23497E+01 2.50000E+00
 -1     25142 3.23899E+01 3.04472E+01 3.53493E+00
 -1     25143 3.31212E+01 3.11176E+01 3.52792E+00
 -1     25144 3.28720E+01 3.08892E+01 4.36377E+00
 -1     25145 2.89420E+01 4.63309E+01 2.50000E+00
 -1     25146 2.87293E+01 4.53529E+01 2.50000E+00
 -1     25147 2.80094E+01 4.60528E+01 2.50000E+00
 -1     25148 1.56658E+01 3.48808E+01 3.77513E+00
 -1     25149 1.61384E+01 3.56983E+01 3.77513E+00
 -1     25150 1.57285E+01 3.41490E+01 2.58524E+00
 -1     25151 1.63529E+01 3.29776E+01 3.81011E+00
 -1     25152 1.68255E+01 3.37951E+01 3.81011E+00
 -1     25153 4.75216E+01 4.69443E+01 1.30805E+00
 -1     25154 4.73987E+01 4.61409E+01 1.45165E+00
 -1     25155 4.69203E+01 4.65686E+01 1.08965E+00
 -1     25156 4.63611E+01 4.72768E+01 1.66425E+00
 -1     25157 4.68395E+01 4.68491E+01 2.02624E+00
 -1     25158 4.62382E+01 4.64734E+01 1.80784E+00
 -1     25159 2.30397E+01 3.64118E+01 2.50000E+00
 -1     25160 2.29078E+01 3.73625E+01 2.50000E+00
 -1     25161 2.20574E+01 3.68445E+01 2.50000E+00
 -1     25162 3.72804E+01 3.71314E+01 4.10100E+00
 -1     25163 3.83848E+01 3.75510E+01 3.34590E+00
 -1     25164 3.87035E+01 3.60709E+01 2.44690E+00
 -1     25165 3.74933E+01 3.61427E+01 4.10100E+00
 -1     25166 3.85977E+01 3.65623E+01 3.34590E+00
 -1     25167 1.81678E+01 4.02039E+01 2.50000E+00
 -1     25168 1.91061E+01 4.04886E+01 2.50000E+00
 -1     25169 1.80207E+01 3.92193E+01 2.50000E+00
 -1     25170 1.89590E+01 3.95040E+01 2.50000E+00
 -1     25171 3.61458E+01 4.25819E+01 2.50000E+00
 -1     25172 3.63405E+01 4.15498E+01 2.50000E+00
 -1     25173 3.70369E+01 4.22301E+01 3.67850E+00
 -1     25174 3.70245E+01 4.21361E+01 1.17850E+00
 -1     25175 3.72315E+01 4.11981E+01 3.67850E+00
 -1     25176 2.95059E+01 4.01642E+01 2.50000E+00
 -1     25177 2.83827E+01 4.05348E+01 2.50000E+00
 -1     25178 2.88108E+01 3.94451E+01 2.50000E+00
 -1     25179 2.76876E+01 3.98157E+01 2.50000E+00
 -1     25180 2.63073E+01 3.91171E+01 2.50000E+00
 -1     25181 2.56349E+01 3.84108E+01 2.50000E+00
 -1     25182 2.53847E+01 3.91959E+01 1.29269E+00
 -1     25183 2.52293E+01 4.01358E+01 3.79269E+00
 -1     25184 2.45569E+01 3.94295E+01 3.79269E+00
 -1     25185 2.59520E+01 4.45002E+01 2.50000E+00
 -1     25186 2.68565E+01 4.47756E+01 2.50000E+00
 -1     25187 2.61530E+01 4.54693E+01 2.50000E+00
 -1     25188 8.29170E+00 1.05086E+01 1.37542E+00
 -1     25189 9.01506E+00 9.86084E+00 2.77582E+00
 -1     25190 8.81690E+00 1.11778E+01 1.40040E+00
 -1     25191 8.77192E+00 1.08386E+01 6.75038E-01
 -1     25192 8.97008E+00 9.52160E+00 2.05046E+00
 -1     25193 9.49528E+00 1.01908E+01 2.07544E+00
 -1     25194 7.10718E+00 1.63608E+01 1.22794E+00
 -1     25195 7.93545E+00 1.70408E+01 1.22794E+00
 -1     25196 8.15074E+00 1.60597E+01 1.22794E+00
 -1     25197 2.19226E+01 4.13395E+01 3.76416E+00
 -1     25198 2.28401E+01 4.16353E+01 3.76416E+00
 -1     25199 2.29714E+01 4.26830E+01 2.50000E+00
 -1     25200 2.20540E+01 4.23872E+01 2.50000E+00
 -1     25201 2.19792E+01 4.12512E+01 1.26416E+00
 -1     25202 3.31226E+01 3.36987E+01 5.32616E-01
 -1     25203 3.25188E+01 3.27437E+01 1.75982E+00
 -1     25204 3.19593E+01 3.36164E+01 1.22720E+00
 -1     25205 3.27797E+01 3.43859E+01 1.53065E+00
 -1     25206 3.33392E+01 3.35132E+01 2.06326E+00
 -1     25207 3.21759E+01 3.34309E+01 2.75785E+00
 -1     25208 1.32938E+01 1.28130E+01 3.53709E+00
 -1     25209 1.28105E+01 1.23699E+01 4.37098E+00
 -1     25210 1.30515E+01 1.33327E+01 3.94187E+00
 -1     25211 1.38152E+01 1.34058E+01 3.73699E+00
 -1     25212 1.33319E+01 1.29628E+01 4.57088E+00
 -1     25213 1.76179E+00 1.13131E+01 1.44963E+00
 -1     25214 1.74351E+00 1.23133E+01 1.44963E+00
 -1     25215 1.29313E+00 1.18509E+01 2.12354E+00
 -1     25216 1.18383E+00 1.15689E+01 6.73913E-01
 -1     25217 1.16555E+00 1.25690E+01 6.73913E-01
 -1     25218 1.59961E+01 1.99108E+01 3.76584E+00
 -1     25219 1.62094E+01 1.89414E+01 3.76584E+00
 -1     25220 1.69411E+01 1.95966E+01 3.76584E+00
 -1     25221 2.05821E+01 2.19955E+01 3.75117E+00
 -1     25222 1.96420E+01 2.22922E+01 3.75117E+00
 -1     25223 2.03668E+01 2.29603E+01 3.75117E+00
 -1     25224 3.01774E+01 4.37759E+01 2.50000E+00
 -1     25225 2.91999E+01 4.38253E+01 2.50000E+00
 -1     25226 3.08663E+01 4.28841E+01 2.50000E+00
 -1     25227 2.98888E+01 4.29335E+01 2.50000E+00
 -1     25228 1.69159E+01 2.24647E+01 2.50000E+00
 -1     25229 2.55330E+00 1.18406E+01 1.44963E+00
 -1     25230 4.50397E+01 4.73824E+01 1.19122E+00
 -1     25231 4.59542E+01 4.69866E+01 1.19122E+00
 -1     25232 4.51190E+01 4.63342E+01 1.19122E+00
 -1     25233 9.54839E-01 7.51450E+00 1.25624E+00
 -1     25234 9.54839E-01 8.16288E+00 2.05976E+00
 -1     25235 7.12921E-01 9.39036E+00 1.57920E+00
 -1     25236 7.12921E-01 8.74197E+00 7.75679E-01
 -1     25237 1.66776E+00 8.25647E+00 2.03192E+00
 -1     25238 2.35021E+01 4.79010E+01 3.88289E+00
 -1     25239 2.27750E+01 4.85651E+01 3.88289E+00
 -1     25240 9.47853E+00 2.53713E+01 2.50000E+00
 -1     25241 8.61866E+00 2.58554E+01 2.50000E+00
 -1     25242 8.67967E+00 2.48330E+01 2.50000E+00
 -1     25243 1.87821E+00 6.96754E+00 3.75624E+00
 -1     25244 9.54839E-01 7.51450E+00 3.75624E+00
 -1     25245 1.81794E+01 2.47440E+01 2.50000E+00
 -1     25246 1.89110E+01 2.54011E+01 2.50000E+00
 -1     25247 1.91054E+01 2.44430E+01 2.50000E+00
 -1     25248 1.37115E+01 1.56762E+01 1.96434E+00
 -1     25249 1.29800E+01 1.52861E+01 1.74492E+00
 -1     25250 1.43236E+01 1.53753E+01 1.16231E+00
 -1     25251 1.43900E+01 1.64952E+01 6.90862E-01
 -1     25252 1.30465E+01 1.64059E+01 1.27348E+00
 -1     25253 1.36585E+01 1.61050E+01 4.71444E-01
 -1     25254 1.06914E+01 1.91831E+01 2.50000E+00
 -1     25255 9.98225E+00 1.85310E+01 2.50000E+00
 -1     25256 1.09152E+01 1.81863E+01 2.50000E+00
 -1     25257 1.13972E+01 1.98654E+01 2.50000E+00
 -1     25258 1.16210E+01 1.88686E+01 2.50000E+00
 -1     25259 1.58828E+01 4.80448E+01 1.29567E+00
 -1     25260 1.61901E+01 4.81472E+01 2.12854E+00
 -1     25261 1.71196E+01 4.89146E+01 5.65810E-01
 -1     25262 1.63871E+01 4.74209E+01 1.86148E+00
 -1     25263 1.74269E+01 4.90171E+01 1.39868E+00
 -1     25264 3.54696E+01 3.34174E+01 2.72762E+00
 -1     25265 3.47144E+01 3.47484E+01 3.07706E+00
 -1     25266 3.50965E+01 3.41950E+01 1.95426E+00
 -1     25267 3.60911E+01 3.39871E+01 3.47704E+00
 -1     25268 3.57179E+01 3.47647E+01 2.70368E+00
 -1     25269 1.67317E+01 2.05594E+01 3.76584E+00
 -1     25270 1.64055E+00 4.18784E+01 3.97903E+00
 -1     25271 1.20448E+00 4.14005E+01 4.44526E+00
 -1     25272 3.62040E+01 3.40052E+01 1.59221E+00
 -1     25273 3.64599E+01 3.42398E+01 7.89805E-01
 -1     25274 3.54487E+01 3.53362E+01 1.94166E+00
 -1     25275 3.53524E+01 3.44297E+01 1.15185E+00
 -1     25276 2.50997E+00 1.91412E+01 2.40647E+00
 -1     25277 3.39165E+00 1.91815E+01 3.69188E+00
 -1     25278 2.50413E+00 1.78835E+01 3.71459E+00
 -1     25279 1.58087E+00 1.86727E+01 2.97592E+00
 -1     25280 2.46839E+00 1.99707E+01 2.95321E+00
 -1     25281 2.46255E+00 1.87129E+01 4.26133E+00
 -1     25282 3.10065E+01 3.39268E+01 1.22720E+00
 -1     25283 3.18269E+01 3.46963E+01 1.53065E+00
 -1     25284 4.03739E+01 5.69770E+01 2.08253E+00
 -1     25285 4.04613E+01 5.65755E+01 1.35004E+00
 -1     25286 3.96061E+01 5.67714E+01 1.72155E+00
 -1     25287 3.96301E+01 5.66908E+01 2.75847E+00
 -1     25288 4.04853E+01 5.64949E+01 2.38696E+00
 -1     25289 3.97174E+01 5.62893E+01 2.02597E+00
 -1     25290 3.97760E+01 5.11705E+01 2.50000E+00
 -1     25291 3.88695E+01 5.19838E+01 2.50000E+00
 -1     25292 3.87201E+01 5.08338E+01 2.50000E+00
 -1     25293 5.18758E+00 2.28722E+01 2.50000E+00
 -1     25294 3.33217E+01 3.15203E+01 1.36803E+00
 -1     25295 3.24440E+01 3.03856E+01 1.34271E+00
 -1     25296 3.28043E+01 3.16914E+01 1.03991E+00
 -1     25297 3.21584E+01 3.14379E+01 2.06261E+00
 -1     25298 3.16411E+01 3.16090E+01 1.73450E+00
 -1     25299 6.07098E+00 2.43549E+01 2.50000E+00
 -1     25300 4.02830E+00 2.32243E+01 3.75624E+00
 -1     25301 4.84700E+00 2.37550E+01 1.25624E+00
 -1     25302 4.00799E+00 2.42502E+01 3.75624E+00
 -1     25303 4.27529E+01 4.52352E+01 2.50000E+00
 -1     25304 4.23896E+01 4.64888E+01 2.50000E+00
 -1     25305 4.35120E+01 4.59731E+01 2.50000E+00
 -1     25306 2.99513E-01 1.32586E+01 1.34995E+00
 -1     25307 6.57098E-01 1.29579E+01 1.22061E+00
 -1     25308 3.57586E-01 1.24074E+01 1.47717E+00
 -1     25309 2.99513E-01 1.35370E+01 2.19673E+00
 -1     25310 3.57586E-01 1.26858E+01 2.32395E+00
 -1     25311 3.40532E+01 3.21909E+01 1.36109E+00
 -1     25312 3.28899E+01 3.21085E+01 2.05567E+00
 -1     25313 3.37103E+01 3.28780E+01 2.35912E+00
 -1     25314 1.12382E+00 1.37268E+01 2.11949E+00
 -1     25315 1.10748E+00 1.34203E+01 5.46693E-01
 -1     25316 1.63227E+00 1.33380E+01 1.57279E+00
 -1     25317 2.43140E+00 1.38532E+01 1.57279E+00
 -1     25318 1.90660E+00 1.39355E+01 5.46693E-01
 -1     25319 2.00962E+01 3.60404E+01 2.50000E+00
 -1     25320 2.10778E+01 3.65963E+01 2.50000E+00
 -1     25321 2.63307E+01 3.11306E+01 2.50000E+00
 -1     25322 2.56119E+01 3.04541E+01 2.50000E+00
 -1     25323 2.53998E+01 3.14101E+01 2.50000E+00
 -1     25324 2.16947E+01 3.83696E+01 3.76416E+00
 -1     25325 2.16799E+01 3.93875E+01 3.76416E+00
 -1     25326 2.25451E+01 3.88877E+01 3.76416E+00
 -1     25327 4.22924E+01 4.75496E+01 2.50000E+00
 -1     25328 4.33074E+01 4.81743E+01 2.50000E+00
 -1     25329 4.23297E+01 4.88572E+01 2.50000E+00
 -1     25330 4.43871E+01 5.81930E+01 2.84062E+00
 -1     25331 4.43782E+01 5.78156E+01 3.70913E+00
 -1     25332 4.37044E+01 5.81937E+01 2.66474E+00
 -1     25333 4.50253E+01 5.84057E+01 3.62592E+00
 -1     25334 4.43426E+01 5.84064E+01 3.45004E+00
 -1     25335 2.07984E+01 3.89730E+01 3.76416E+00
 -1     25336 2.32272E+01 2.94092E+01 2.50000E+00
 -1     25337 2.29877E+01 3.03899E+01 2.50000E+00
 -1     25338 2.22666E+01 2.97293E+01 2.50000E+00
 -1     25339 2.25060E+01 2.87486E+01 2.50000E+00
 -1     25340 1.74881E+01 4.08691E+01 2.50000E+00
 -1     25341 1.76538E+01 4.18248E+01 2.50000E+00
 -1     25342 1.83912E+01 4.11541E+01 2.50000E+00
 -1     25343 2.39633E+01 4.05608E+01 1.29269E+00
 -1     25344 2.37424E+01 3.95842E+01 1.29269E+00
 -1     25345 2.27338E+01 4.05553E+01 1.26416E+00
 -1     25346 2.30773E+01 4.02090E+01 2.55685E+00
 -1     25347 2.25129E+01 3.95787E+01 1.26416E+00
 -1     25348 1.96021E+01 3.88567E+01 2.50000E+00
 -1     25349 1.87071E+01 3.85408E+01 2.50000E+00
 -1     25350 1.95057E+01 3.78220E+01 2.50000E+00
 -1     25351 1.59020E+01 3.35479E+01 1.31011E+00
 -1     25352 1.59246E+01 3.25002E+01 1.31011E+00
 -1     25353 1.50285E+01 3.31254E+01 1.31011E+00
 -1     25354 2.56231E+01 4.70984E+01 2.50000E+00
 -1     25355 2.62258E+01 4.85933E+01 3.81395E+00
 -1     25356 2.53178E+01 4.82921E+01 1.31395E+00
 -1     25357 2.63573E+01 4.64353E+01 2.50000E+00
 -1     25358 2.60520E+01 4.76290E+01 1.31395E+00
 -1     25359 2.50348E+01 4.41851E+01 2.50000E+00
 -1     25360 2.57838E+01 4.35095E+01 2.50000E+00
 -1     25361 2.48604E+01 4.31989E+01 2.50000E+00
 -1     25362 1.86893E+01 2.63625E+01 2.50000E+00
 -1     25363 1.84984E+01 2.73195E+01 2.50000E+00
 -1     25364 1.92087E+01 2.79968E+01 2.50000E+00
 -1     25365 1.93996E+01 2.70397E+01 2.50000E+00
 -1     25366 1.17446E+01 2.76034E+01 3.75958E+00
 -1     25367 1.25872E+01 2.80782E+01 3.75958E+00
 -1     25368 1.17670E+01 2.85696E+01 3.75958E+00
 -1     25369 9.25135E+00 4.68545E+01 4.01136E+00
 -1     25370 8.44000E+00 4.65840E+01 4.17069E+00
 -1     25371 8.88992E+00 4.67340E+01 4.83127E+00
 -1     25372 4.55032E+01 4.23122E+01 4.51488E+00
 -1     25373 4.57803E+01 4.25661E+01 3.63355E+00
 -1     25374 4.53476E+01 4.28757E+01 3.52740E+00
 -1     25375 4.49353E+01 4.18969E+01 4.01252E+00
 -1     25376 4.52124E+01 4.21509E+01 3.13119E+00
 -1     25377 4.54833E+01 4.93577E+01 5.84806E-01
 -1     25378 4.49720E+01 4.84456E+01 1.19122E+00
 -1     25379 4.61902E+01 4.80937E+01 1.77602E+00
 -1     25380 4.64237E+01 4.89347E+01 5.84806E-01
 -1     25381 4.59124E+01 4.80226E+01 1.19122E+00
 -1     25382 2.20601E+01 3.06833E+01 2.50000E+00
 -1     25383 2.13459E+01 3.00040E+01 2.50000E+00
 -1     25384 2.15524E+01 2.90500E+01 2.50000E+00
 -1     25385 1.75831E+01 1.67758E+01 4.46019E+00
 -1     25386 1.80675E+01 1.72198E+01 3.62681E+00
 -1     25387 1.73402E+01 1.65531E+01 3.62676E+00
 -1     25388 3.78660E-01 4.30119E+01 4.44526E+00
 -1     25389 5.54348E-01 4.37235E+01 4.53983E+00
 -1     25390 1.63834E+01 3.96271E+01 2.50000E+00
 -1     25391 1.61638E+01 3.86786E+01 2.50000E+00
 -1     25392 1.54172E+01 3.93658E+01 2.50000E+00
 -1     25393 1.56368E+01 4.03143E+01 2.50000E+00
 -1     25394 3.98821E+01 4.04989E+01 1.16557E+00
 -1     25395 4.06335E+01 4.11969E+01 1.16557E+00
 -1     25396 4.08175E+01 4.01732E+01 1.16557E+00
 -1     25397 1.36496E+01 4.32092E+01 2.50000E+00
 -1     25398 1.43625E+01 4.25508E+01 2.50000E+00
 -1     25399 1.45658E+01 4.35116E+01 2.50000E+00
 -1     25400 1.30600E+01 3.94563E+01 3.73837E+00
 -1     25401 1.21385E+01 3.92038E+01 3.73837E+00
 -1     25402 1.23237E+01 4.01145E+01 3.73837E+00
 -1     25403 5.11202E+00 8.95584E+00 2.08174E+00
 -1     25404 5.84562E+00 8.76276E+00 3.39372E+00
 -1     25405 4.27698E+00 9.10849E+00 3.68802E+00
 -1     25406 5.09313E+00 9.91418E+00 1.18802E+00
 -1     25407 6.66177E+00 9.56845E+00 8.93721E-01
 -1     25408 5.82672E+00 9.72110E+00 2.50000E+00
 -1     25409 1.07719E+01 2.44520E+01 3.74170E+00
 -1     25410 9.97307E+00 2.39138E+01 3.74170E+00
 -1     25411 3.36688E+01 3.48632E+01 2.68250E+00
 -1     25412 3.32243E+01 3.60325E+01 1.15185E+00
 -1     25413 3.25519E+01 3.53696E+01 1.53065E+00
 -1     25414 3.34522E+01 3.50487E+01 1.15185E+00
 -1     25415 6.82972E+00 2.89131E+01 2.50000E+00
 -1     25416 7.68192E+00 2.84099E+01 2.50000E+00
 -1     25417 6.84018E+00 2.79154E+01 2.50000E+00
 -1     25418 2.95660E+01 3.25643E+01 3.72720E+00
 -1     25419 3.05153E+01 3.22649E+01 3.72720E+00
 -1     25420 3.07819E+01 3.14587E+01 2.47066E+00
 -1     25421 2.89924E+01 3.13616E+01 3.74346E+00
 -1     25422 2.99417E+01 3.10622E+01 3.74346E+00
 -1     25423 5.97946E+00 2.84293E+01 2.50000E+00
 -1     25424 5.96002E+00 2.94385E+01 2.50000E+00
 -1     25425 6.81028E+00 2.99224E+01 2.50000E+00
 -1     25426 2.20459E+01 4.92229E+01 3.88289E+00
 -1     25427 7.65426E+00 2.94347E+01 2.50000E+00
 -1     25428 1.54505E+01 3.64674E+01 3.77513E+00
 -1     25429 1.45122E+01 3.63251E+01 3.77513E+00
 -1     25430 1.47297E+01 3.71644E+01 3.77513E+00
 -1     25431 1.51009E+01 4.18934E+01 2.50000E+00
 -1     25432 1.41878E+01 4.16220E+01 2.50000E+00
 -1     25433 1.49241E+01 4.09637E+01 2.50000E+00
 -1     25434 1.65557E+01 4.05697E+01 2.50000E+00
 -1     25435 1.58135E+01 4.12440E+01 2.50000E+00
 -1     25436 3.94391E-01 1.39206E+01 3.50156E+00
 -1     25437 1.21870E+00 1.41104E+01 3.42432E+00
 -1     25438 8.24312E-01 1.34547E+01 3.22283E+00
 -1     25439 3.94391E-01 1.42882E+01 4.35153E+00
 -1     25440 8.24312E-01 1.38222E+01 4.07279E+00
 -1     25441 3.91427E+01 3.98004E+01 1.16557E+00
 -1     25442 3.82020E+01 4.00885E+01 1.16557E+00
 -1     25443 3.89352E+01 4.08010E+01 1.16557E+00
 -1     25444 3.57586E-01 1.15541E+01 2.22726E+00
 -1     25445 9.35546E-01 1.12983E+01 3.00297E+00
 -1     25446 9.35546E-01 1.24300E+01 3.09966E+00
 -1     25447 1.16840E+00 3.74192E+01 1.26384E+00
 -1     25448 6.18839E-01 3.78273E+01 1.95245E+00
 -1     25449 5.49557E-01 3.67847E+01 1.85017E+00
 -1     25450 5.49557E-01 3.71883E+01 5.80778E-01
 -1     25451 6.18839E-01 3.82309E+01 6.83066E-01
 -1     25452 1.19270E+01 3.48618E+01 3.86431E+00
 -1     25453 1.26575E+01 3.52543E+01 3.86431E+00
 -1     25454 1.19781E+01 3.57512E+01 3.86431E+00
 -1     25455 6.20684E+00 1.06041E+01 2.50000E+00
 -1     25456 7.37252E+00 1.02692E+01 2.50000E+00
 -1     25457 7.09640E+00 1.12807E+01 2.50000E+00
 -1     25458 3.05657E+01 5.20680E+01 1.20656E+00
 -1     25459 3.12887E+01 5.14192E+01 1.20656E+00
 -1     25460 3.03827E+01 5.10929E+01 1.20656E+00
 -1     25461 2.44340E+01 3.17248E+01 2.50000E+00
 -1     25462 2.35100E+01 3.19923E+01 2.50000E+00
 -1     25463 2.37158E+01 3.10532E+01 2.50000E+00
 -1     25464 3.57586E-01 1.15540E+01 1.33194E+00
 -1     25465 6.42007E-01 1.13211E+01 1.09933E+00
 -1     25466 2.84421E-01 1.07684E+01 1.08345E+00
 -1     25467 2.84421E-01 1.07686E+01 1.97876E+00
 -1     25468 3.50740E+01 3.92137E+01 2.50000E+00
 -1     25469 3.48838E+01 4.01606E+01 2.50000E+00
 -1     25470 3.41187E+01 3.95497E+01 2.50000E+00
 -1     25471 5.93935E+00 3.14216E+01 2.50000E+00
 -1     25472 6.79658E+00 3.18922E+01 2.50000E+00
 -1     25473 1.61066E+00 3.94987E+01 8.95008E-01
 -1     25474 1.61066E+00 4.01900E+01 1.68189E+00
 -1     25475 2.66500E-01 3.95980E+01 1.19056E+00
 -1     25476 1.87716E+00 3.97420E+01 2.95557E-01
 -1     25477 2.66500E-01 4.02893E+01 1.97745E+00
 -1     25478 7.69643E-01 2.00835E+01 2.59462E+00
 -1     25479 7.69643E-01 1.90830E+01 2.59459E+00
 -1     25480 1.69874E+00 2.05520E+01 2.02517E+00
 -1     25481 1.69874E+00 1.95516E+01 2.02514E+00
 -1     25482 6.89880E-01 2.16603E+01 2.29703E+00
 -1     25483 2.38863E+00 2.12139E+01 1.82228E+00
 -1     25484 1.69874E+00 2.08856E+01 2.85850E+00
 -1     25485 1.39200E+00 2.24911E+01 2.92287E+00
 -1     25486 2.08188E+00 2.28195E+01 1.88665E+00
 -1     25487 3.09075E+00 2.20448E+01 2.44812E+00
 -1     25488 8.87588E+00 1.67305E+01 1.22794E+00
 -1     25489 8.68925E+00 1.77069E+01 1.22794E+00
 -1     25490 7.64278E+00 3.04444E+01 2.50000E+00
 -1     25491 8.50282E+00 3.09174E+01 2.50000E+00
 -1     25492 7.64110E+00 3.14214E+01 2.50000E+00
 -1     25493 3.83686E+01 4.37407E+01 1.36003E+00
 -1     25494 3.91901E+01 4.44717E+01 1.36003E+00
 -1     25495 3.82107E+01 4.47552E+01 1.36003E+00
 -1     25496 1.98225E+01 1.90663E+01 2.47847E+00
 -1     25497 1.85285E+01 1.96141E+01 2.07766E+00
 -1     25498 1.85842E+01 1.87696E+01 2.93248E+00
 -1     25499 1.95800E+01 1.88439E+01 1.64511E+00
 -1     25500 1.83417E+01 1.85472E+01 2.09911E+00
 -1     25501 1.80635E+01 2.92386E+01 2.50000E+00
 -1     25502 1.78121E+01 3.01792E+01 2.50000E+00
 -1     25503 1.87709E+01 2.99267E+01 2.50000E+00
 -1     25504 1.69362E+01 3.04537E+01 2.50000E+00
 -1     25505 1.70347E+01 3.12052E+01 3.81011E+00
 -1     25506 1.63170E+01 3.14942E+01 1.31011E+00
 -1     25507 1.71929E+01 3.12197E+01 1.31011E+00
 -1     25508 2.25584E+01 2.49114E+01 3.84022E+00
 -1     25509 2.23338E+01 2.58814E+01 3.84022E+00
 -1     25510 2.16157E+01 2.52067E+01 3.84022E+00
 -1     25511 1.69602E+01 3.21948E+01 1.31011E+00
 -1     25512 1.79736E+01 2.19317E+01 3.75117E+00
 -1     25513 1.79856E+01 2.19382E+01 1.25117E+00
 -1     25514 1.85320E+01 2.06897E+01 2.51701E+00
 -1     25515 1.67438E+01 2.05658E+01 1.26584E+00
 -1     25516 1.20970E+01 2.05365E+01 2.50000E+00
 -1     25517 1.30476E+01 2.01882E+01 2.50000E+00
 -1     25518 1.28329E+01 2.11675E+01 2.50000E+00
 -1     25519 1.38563E+01 3.37450E+01 2.50000E+00
 -1     25520 1.45563E+01 3.47686E+01 3.77513E+00
 -1     25521 1.43414E+01 3.50285E+01 1.27513E+00
 -1     25522 1.52434E+01 3.28654E+01 3.81011E+00
 -1     25523 1.47393E+01 2.80803E+01 3.75958E+00
 -1     25524 1.40981E+01 2.74079E+01 3.75958E+00
 -1     25525 1.36430E+01 2.83909E+01 3.75958E+00
 -1     25526 1.32429E+01 2.87470E+01 1.25958E+00
 -1     25527 1.40645E+01 2.83635E+01 1.25958E+00
 -1     25528 1.36197E+01 2.98063E+01 2.50000E+00
 -1     25529 1.44413E+01 2.94228E+01 2.50000E+00
 -1     25530 1.23478E+01 1.95171E+01 2.50000E+00
 -1     25531 6.58275E+00 2.08127E+01 2.50000E+00
 -1     25532 7.24109E+00 2.02658E+01 2.50000E+00
 -1     25533 6.97263E+00 2.16792E+01 2.50000E+00
 -1     25534 7.63097E+00 2.11323E+01 2.50000E+00
 -1     25535 1.02491E+01 3.38569E+01 2.50000E+00
 -1     25536 1.10777E+01 3.33429E+01 2.50000E+00
 -1     25537 1.10653E+01 3.44853E+01 3.86431E+00
 -1     25538 1.09790E+01 3.47851E+01 1.36431E+00
 -1     25539 1.18076E+01 3.42712E+01 1.36431E+00
 -1     25540 5.30997E+00 2.09483E+01 3.69188E+00
 -1     25541 4.24970E+00 2.06430E+01 3.69188E+00
 -1     25542 4.92009E+00 2.00818E+01 3.69188E+00
 -1     25543 2.95805E+01 2.88197E+01 4.59547E-01
 -1     25544 2.97388E+01 2.83719E+01 1.03643E+00
 -1     25545 2.88242E+01 2.81488E+01 5.76887E-01
 -1     25546 2.94371E+01 2.94264E+01 1.24346E+00
 -1     25547 3.03517E+01 2.96494E+01 1.70300E+00
 -1     25548 2.95954E+01 2.89785E+01 1.82034E+00
 -1     25549 2.73789E+00 1.27607E+01 3.94963E+00
 -1     25550 1.84346E+00 1.22758E+01 3.94963E+00
 -1     25551 2.78221E+00 1.17497E+01 3.94963E+00
 -1     25552 1.48817E+00 1.78698E+00 3.06324E+00
 -1     25553 1.48831E+00 1.78711E+00 2.20014E+00
 -1     25554 1.15097E+00 2.51173E+00 3.44025E+00
 -1     25555 3.37194E-01 2.18859E+00 3.13831E+00
 -1     25556 1.15111E+00 2.51186E+00 2.57716E+00
 -1     25557 1.73698E+01 2.85650E+01 2.50000E+00
 -1     25558 1.71183E+01 2.95056E+01 2.50000E+00
 -1     25559 7.82861E+00 2.23161E+01 2.50000E+00
 -1     25560 8.48695E+00 2.17693E+01 2.50000E+00
 -1     25561 2.65336E+01 2.81632E+01 3.84735E+00
 -1     25562 2.58066E+01 2.74981E+01 3.84735E+00
 -1     25563 2.55780E+01 2.84709E+01 3.84735E+00
 -1     25564 7.12921E-01 1.02428E+01 2.32902E+00
 -1     25565 1.53917E+00 1.02575E+01 7.75679E-01
 -1     25566 8.26245E-01 1.10164E+01 1.55334E+00
 -1     25567 9.97342E-01 1.00097E+01 1.20110E+00
 -1     25568 1.11067E+00 1.07833E+01 4.25420E-01
 -1     25569 1.18278E+01 1.78804E+01 2.50000E+00
 -1     25570 2.57535E+01 4.16402E+01 1.09308E+00
 -1     25571 2.66715E+01 4.19921E+01 1.09308E+00
 -1     25572 2.58912E+01 4.26553E+01 1.09308E+00
 -1     25573 1.81606E+01 4.85223E+01 2.14702E+00
 -1     25574 1.90909E+01 4.88324E+01 2.15064E+00
 -1     25575 1.83572E+01 4.93272E+01 1.40231E+00
 -1     25576 2.84421E-01 9.91615E+00 1.22894E+00
 -1     25577 4.72206E+01 5.74714E+01 3.94409E+00
 -1     25578 4.73852E+01 5.82909E+01 4.51045E+00
 -1     25579 4.66059E+01 5.77623E+01 3.45454E+00
 -1     25580 4.72206E+01 5.78129E+01 3.34115E+00
 -1     25581 2.84421E-01 1.02678E+01 4.25420E-01
 -1     25582 7.12921E-01 9.74197E+00 7.75679E-01
 -1     25583 3.26566E+01 3.18608E+01 4.36377E+00
 -1     25584 3.19280E+01 3.11913E+01 4.36377E+00
 -1     25585 2.81942E+01 2.64648E+01 4.89379E-01
 -1     25586 2.77355E+01 2.60444E+01 1.34036E+00
 -1     25587 2.74669E+01 2.57981E+01 4.89379E-01
 -1     25588 3.95473E+01 4.23765E+01 3.86003E+00
 -1     25589 3.98795E+01 4.04577E+01 3.66557E+00
 -1     25590 3.95156E+01 4.15768E+01 2.52560E+00
 -1     25591 3.86070E+01 4.26999E+01 3.86003E+00
 -1     25592 3.89392E+01 4.07810E+01 3.66557E+00
 -1     25593 3.60608E+01 5.32781E+01 3.59187E+00
 -1     25594 3.62251E+01 5.43047E+01 3.59187E+00
 -1     25595 3.52659E+01 5.40348E+01 3.59187E+00
 -1     25596 1.19351E+01 3.83217E+01 3.73837E+00
 -1     25597 1.28678E+01 3.85604E+01 3.73837E+00
 -1     25598 1.82098E+00 8.02353E+00 1.25624E+00
 -1     25599 1.57907E+00 9.25100E+00 7.75679E-01
 -1     25600 2.36901E+01 3.78988E+01 2.50000E+00
 -1     25601 2.38341E+01 3.70082E+01 2.50000E+00
 -1     25602 3.90761E+01 3.62857E+01 1.36044E+00
 -1     25603 3.88214E+01 3.65960E+01 8.10843E-01
 -1     25604 3.95531E+01 3.68008E+01 1.14220E+00
 -1     25605 3.83862E+01 3.75292E+01 8.45897E-01
 -1     25606 3.76544E+01 3.73244E+01 5.14543E-01
 -1     25607 3.81314E+01 3.78395E+01 2.96300E-01
 -1     25608 2.03072E+01 1.95105E+01 1.64510E+00
 -1     25609 3.78660E-01 4.20119E+01 4.44526E+00
 -1     25610 2.72107E+01 3.89268E+01 2.50000E+00
 -1     25611 2.65253E+01 3.81838E+01 2.50000E+00
 -1     25612 2.84421E-01 1.12678E+01 4.25420E-01
 -1     25613 2.18204E+01 2.32347E+01 8.38461E-01
 -1     25614 2.26821E+01 2.36240E+01 2.17868E+00
 -1     25615 2.18503E+01 2.42338E+01 1.34022E+00
 -1     25616 2.27545E+01 2.29397E+01 8.38461E-01
 -1     25617 2.27845E+01 2.39388E+01 1.34022E+00
 -1     25618 2.67841E+01 4.00060E+01 2.50000E+00
 -1     25619 2.80778E+01 3.50827E+01 2.50000E+00
 -1     25620 2.73385E+01 3.44078E+01 2.50000E+00
 -1     25621 2.90272E+01 3.47865E+01 2.50000E+00
 -1     25622 2.82879E+01 3.41116E+01 2.50000E+00
 -1     25623 2.26999E+01 3.56412E+01 2.50000E+00
 -1     25624 2.28801E+01 3.48402E+01 2.50000E+00
 -1     25625 2.18838E+01 3.50453E+01 2.50000E+00
 -1     25626 2.20640E+01 3.42443E+01 2.50000E+00
 -1     25627 4.24725E+00 3.04382E+01 2.50000E+00
 -1     25628 4.26167E+00 2.94427E+01 2.50000E+00
 -1     25629 5.09969E+00 3.09161E+01 2.50000E+00
 -1     25630 5.11411E+00 2.99207E+01 2.50000E+00
 -1     25631 1.06933E+01 4.04945E+01 3.73837E+00
 -1     25632 1.05391E+01 3.95966E+01 3.73837E+00
 -1     25633 9.81407E+00 4.02317E+01 3.73837E+00
 -1     25634 1.26504E+01 3.77211E+01 3.73837E+00
 -1     25635 3.65498E+01 3.64582E+01 4.10100E+00
 -1     25636 4.32068E+01 4.05225E+01 3.91629E+00
 -1     25637 4.34494E+01 4.07449E+01 3.07923E+00
 -1     25638 4.39341E+01 4.11892E+01 3.91629E+00
 -1     25639 1.29683E+01 3.93872E+01 1.23837E+00
 -1     25640 1.47106E+01 3.99994E+01 2.50000E+00
 -1     25641 1.39743E+01 4.06576E+01 2.50000E+00
 -1     25642 2.56796E+01 3.40231E+01 2.50000E+00
 -1     25643 2.58854E+01 3.30664E+01 2.50000E+00
 -1     25644 2.47555E+01 3.42827E+01 2.50000E+00
 -1     25645 2.49613E+01 3.33260E+01 2.50000E+00
 -1     25646 9.32671E+00 3.04412E+01 2.50000E+00
 -1     25647 9.33705E+00 3.14537E+01 2.50000E+00
 -1     25648 1.02098E+01 3.08805E+01 2.50000E+00
 -1     25649 1.02201E+01 3.18930E+01 2.50000E+00
 -1     25650 2.54314E+01 3.50122E+01 2.50000E+00
 -1     25651 3.05203E+01 2.85214E+01 4.59547E-01
 -1     25652 2.97639E+01 2.78505E+01 5.76887E-01
 -1     25653 1.29372E+01 1.54373E+01 4.71444E-01
 -1     25654 1.23251E+01 1.57382E+01 1.27348E+00
 -1     25655 3.12622E+00 2.47840E+01 3.75624E+00
 -1     25656 3.13556E+00 2.37775E+01 3.75624E+00
 -1     25657 1.01784E+01 2.99374E+01 2.50000E+00
 -1     25658 5.83108E+00 4.00414E+01 3.85428E+00
 -1     25659 5.07587E+00 4.05863E+01 3.85428E+00
 -1     25660 5.06045E+00 3.96533E+01 3.85428E+00
 -1     25661 8.50646E+00 2.89314E+01 2.50000E+00
 -1     25662 8.51430E+00 2.99077E+01 2.50000E+00
 -1     25663 1.52250E+01 3.84700E+01 2.50000E+00
 -1     25664 1.45184E+01 3.91035E+01 2.50000E+00
 -1     25665 4.14867E+01 4.81705E+01 2.50000E+00
 -1     25666 4.04961E+01 4.78129E+01 2.50000E+00
 -1     25667 4.13523E+01 4.93904E+01 2.50000E+00
 -1     25668 4.03616E+01 4.90328E+01 2.50000E+00
 -1     25669 3.94280E+01 5.56763E+01 2.22915E+00
 -1     25670 3.88600E+01 5.49512E+01 3.19771E+00
 -1     25671 3.91735E+01 5.54835E+01 4.03145E+00
 -1     25672 3.98338E+01 5.48138E+01 1.53145E+00
 -1     25673 3.95204E+01 5.42815E+01 6.97709E-01
 -1     25674 3.92658E+01 5.40888E+01 2.50000E+00
 -1     25675 4.67230E+01 5.91295E+01 3.69054E-01
 -1     25676 4.76461E+01 5.94371E+01 1.20239E+00
 -1     25677 4.76461E+01 5.94371E+01 3.69054E-01
 -1     25678 2.51210E+01 4.10177E+01 2.38577E+00
 -1     25679 2.41535E+01 4.15414E+01 1.29269E+00
 -1     25680 2.49678E+01 4.23446E+01 1.09308E+00
 -1     25681 2.55670E+01 4.17794E+01 3.59308E+00
 -1     25682 2.47527E+01 4.09762E+01 3.79269E+00
 -1     25683 2.45995E+01 4.23031E+01 2.50000E+00
 -1     25684 1.52658E+01 4.78391E+01 2.12359E+00
 -1     25685 9.36601E+00 2.94039E+01 2.50000E+00
 -1     25686 6.80860E+00 3.08993E+01 2.50000E+00
 -1     25687 3.01576E+01 2.81890E+01 1.40868E+00
 -1     25688 3.00142E+01 2.87956E+01 2.19258E+00
 -1     25689 3.09813E+01 2.89440E+01 1.31029E+00
 -1     25690 3.08379E+01 2.95507E+01 2.09420E+00
 -1     25691 1.90997E+01 4.98096E+01 5.30536E-01
 -1     25692 1.80427E+01 4.92223E+01 5.65810E-01
 -1     25693 2.05551E+01 3.90525E+01 1.26416E+00
 -1     25694 2.08069E+01 4.00157E+01 1.26416E+00
 -1     25695 2.08949E+01 4.00077E+01 3.76416E+00
 -1     25696 1.98540E+01 3.98199E+01 2.50000E+00
 -1     25697 1.82226E+01 4.47048E+01 2.50000E+00
 -1     25698 1.73117E+01 4.43983E+01 2.50000E+00
 -1     25699 1.81959E+01 4.58442E+01 1.31414E+00
 -1     25700 1.91180E+01 4.61618E+01 3.81414E+00
 -1     25701 1.82071E+01 4.58554E+01 3.81414E+00
 -1     25702 3.32185E+01 4.93808E+01 3.82875E+00
 -1     25703 3.30122E+01 4.83955E+01 3.82875E+00
 -1     25704 3.39242E+01 4.87026E+01 3.82875E+00
 -1     25705 1.19125E+01 4.75787E+01 3.72512E+00
 -1     25706 1.21050E+01 4.62739E+01 4.05345E+00
 -1     25707 1.20201E+01 4.58534E+01 4.67166E+00
 -1     25708 1.34889E+01 4.68546E+01 3.46733E+00
 -1     25709 1.35739E+01 4.72751E+01 2.84912E+00
 -1     25710 1.36814E+01 4.55498E+01 3.79567E+00
 -1     25711 1.30023E+01 4.65471E+01 1.55345E+00
 -1     25712 1.31098E+01 4.48218E+01 2.50000E+00
 -1     25713 1.45786E+01 4.58231E+01 1.29567E+00
 -1     25714 1.37274E+01 4.63570E+01 4.79154E-01
 -1     25715 1.42991E+01 4.70850E+01 1.77482E+00
 -1     25716 1.27227E+01 4.78090E+01 2.03261E+00
 -1     25717 1.34195E+01 2.67415E+01 3.75958E+00
 -1     25718 1.25523E+01 2.71246E+01 3.75958E+00
 -1     25719 1.26718E+01 2.61846E+01 3.75958E+00
 -1     25720 9.37981E+00 2.74127E+01 2.50000E+00
 -1     25721 8.55959E+00 2.69076E+01 2.50000E+00
 -1     25722 1.02559E+01 2.69330E+01 2.50000E+00
 -1     25723 9.43568E+00 2.64279E+01 2.50000E+00
 -1     25724 3.79735E+01 3.54018E+01 2.40635E+00
 -1     25725 3.83462E+01 3.56165E+01 1.31989E+00
 -1     25726 3.79717E+01 3.58660E+01 2.11555E+00
 -1     25727 1.26790E+01 2.89911E+01 3.75958E+00
 -1     25728 1.09891E+01 2.94662E+01 2.50000E+00
 -1     25729 1.24883E+01 2.82282E+01 1.25958E+00
 -1     25730 1.19011E+01 2.98877E+01 2.50000E+00
 -1     25731 1.85254E+01 2.35516E+01 1.25117E+00
 -1     25732 1.94278E+01 2.32544E+01 3.75117E+00
 -1     25733 1.94514E+01 2.32507E+01 1.25117E+00
 -1     25734 3.00093E+01 2.80437E+01 2.93869E+00
 -1     25735 2.92347E+01 2.79691E+01 3.44913E+00
 -1     25736 2.94238E+01 2.86776E+01 4.48956E+00
 -1     25737 2.96203E+01 2.80985E+01 4.00127E+00
 -1     25738 2.94312E+01 2.73900E+01 2.96083E+00
 -1     25739 2.88457E+01 2.80240E+01 4.51171E+00
 -1     25740 1.72716E+01 4.72301E+01 4.33714E+00
 -1     25741 1.59999E+01 4.73424E+01 3.13281E+00
 -1     25742 1.64220E+01 4.64387E+01 3.79567E+00
 -1     25743 1.83925E+01 4.68138E+01 3.81414E+00
 -1     25744 1.79704E+01 4.77175E+01 3.15129E+00
 -1     25745 1.71208E+01 4.69261E+01 2.60981E+00
 -1     25746 3.36904E+01 5.40778E+01 1.89024E+00
 -1     25747 3.42144E+01 5.29887E+01 1.30150E+00
 -1     25748 3.37112E+01 5.29971E+01 5.88750E-01
 -1     25749 3.30338E+01 5.35904E+01 3.08875E+00
 -1     25750 3.35370E+01 5.35821E+01 3.80150E+00
 -1     25751 3.35579E+01 5.25013E+01 2.50000E+00
 -1     25752 5.13589E+00 1.30101E+01 2.50000E+00
 -1     25753 4.17496E+00 1.35222E+01 2.50000E+00
 -1     25754 5.03172E+00 1.40383E+01 2.50000E+00
 -1     25755 9.83593E+00 4.64241E+01 1.07910E+00
 -1     25756 9.37861E+00 4.62716E+01 2.02578E+00
 -1     25757 9.33559E+00 4.54984E+01 1.64638E+00
 -1     25758 8.73043E+00 4.61513E+01 5.67283E-01
 -1     25759 8.27310E+00 4.59988E+01 1.51397E+00
 -1     25760 4.21605E+01 3.96469E+01 6.27781E-01
 -1     25761 4.28878E+01 4.03136E+01 6.27781E-01
 -1     25762 4.26090E+01 4.00580E+01 1.47542E+00
 -1     25763 1.12168E+01 4.53085E+01 4.49142E+00
 -1     25764 1.03076E+01 4.50219E+01 4.49142E+00
 -1     25765 1.13268E+01 4.51599E+01 3.57910E+00
 -1     25766 1.03311E+01 4.59198E+01 3.07051E+00
 -1     25767 1.04176E+01 4.48733E+01 3.57910E+00
 -1     25768 6.18498E+00 1.69564E+01 1.22794E+00
 -1     25769 1.20486E+01 3.90616E+01 1.23837E+00
 -1     25770 1.18068E+01 3.80429E+01 1.23837E+00
 -1     25771 1.11358E+01 3.87571E+01 1.23837E+00
 -1     25772 1.12193E+01 4.68852E+01 2.63255E+00
 -1     25773 1.20894E+01 4.62487E+01 1.55345E+00
 -1     25774 1.13112E+01 4.51347E+01 1.07910E+00
 -1     25775 1.21969E+01 4.45234E+01 2.50000E+00
 -1     25776 1.07520E+01 3.76482E+01 1.23837E+00
 -1     25777 1.11343E+01 4.64647E+01 3.25076E+00
 -1     25778 1.10243E+01 4.66133E+01 4.16308E+00
 -1     25779 4.52617E+01 5.84804E+01 6.62320E-01
 -1     25780 4.59226E+01 5.87007E+01 1.49902E+00
 -1     25781 4.61848E+01 5.87881E+01 6.62320E-01
 -1     25782 1.46086E+01 3.70198E+01 1.27513E+00
 -1     25783 1.44344E+01 3.60282E+01 1.27513E+00
 -1     25784 1.53150E+01 3.64275E+01 1.27513E+00
 -1     25785 2.29397E+01 2.68173E+01 2.50000E+00
 -1     25786 2.27115E+01 2.77906E+01 2.50000E+00
 -1     25787 2.19931E+01 2.71165E+01 2.50000E+00
 -1     25788 3.12466E+01 3.29356E+01 3.72720E+00
 -1     25789 3.03032E+01 3.32318E+01 3.72720E+00
 -1     25790 2.80993E+01 2.74794E+01 5.76887E-01
 -1     25791 2.72568E+01 2.67604E+01 4.89379E-01
 -1     25792 2.81399E+01 2.69819E+01 1.06627E+00
 -1     25793 2.90367E+01 2.71838E+01 5.76887E-01
 -1     25794 9.30051E+00 4.45740E+01 5.67283E-01
 -1     25795 1.04060E+01 4.48468E+01 1.07910E+00
 -1     25796 8.56259E+00 4.52206E+01 5.67283E-01
 -1     25797 9.66809E+00 4.54934E+01 1.07910E+00
 -1     25798 1.98325E+01 2.51052E+01 2.50000E+00
 -1     25799 2.05513E+01 2.57770E+01 2.50000E+00
 -1     25800 2.16476E+01 2.51934E+01 1.34022E+00
 -1     25801 2.08969E+01 2.45349E+01 3.84022E+00
 -1     25802 3.29137E-01 6.94891E-01 1.36858E+00
 -1     25803 3.29137E-01 1.69489E+00 5.35244E-01
 -1     25804 3.29137E-01 6.94891E-01 5.35244E-01
 -1     25805 1.44269E+01 1.78951E+01 2.50000E+00
 -1     25806 1.42163E+01 1.88740E+01 2.50000E+00
 -1     25807 1.36964E+01 1.72392E+01 2.50000E+00
 -1     25808 1.34858E+01 1.82181E+01 2.50000E+00
 -1     25809 9.54839E-01 6.51450E+00 1.25624E+00
 -1     25810 9.54839E-01 7.18858E+00 2.08702E+00
 -1     25811 4.67181E+01 4.35878E+01 1.61889E+00
 -1     25812 4.65694E+01 4.34515E+01 5.29760E-01
 -1     25813 4.61592E+01 4.35529E+01 1.28740E+00
 -1     25814 4.62839E+01 4.29044E+01 1.84677E+00
 -1     25815 4.61352E+01 4.27681E+01 7.57637E-01
 -1     25816 1.48915E+01 3.21762E+01 1.31011E+00
 -1     25817 1.55181E+01 3.16546E+01 1.31011E+00
 -1     25818 5.88403E-01 3.16425E+00 1.33808E+00
 -1     25819 5.88403E-01 2.44998E+00 4.46682E-01
 -1     25820 5.88403E-01 3.44998E+00 4.46682E-01
 -1     25821 1.01974E+01 4.65445E+01 2.75919E+00
 -1     25822 1.08906E+01 4.72380E+01 3.85175E+00
 -1     25823 1.00874E+01 4.66932E+01 3.67150E+00
 -1     25824 2.89305E+01 4.29562E+01 2.50000E+00
 -1     25825 1.12485E+01 1.08535E+01 3.35805E+00
 -1     25826 1.15137E+01 1.10966E+01 4.20911E+00
 -1     25827 1.05883E+01 1.05983E+01 3.90040E+00
 -1     25828 1.03231E+01 1.03552E+01 3.04934E+00
 -1     25829 1.04656E+01 1.10282E+01 3.10951E+00
 -1     25830 1.59675E+01 3.59019E+01 1.27513E+00
 -1     25831 1.52149E+01 3.54510E+01 1.27513E+00
 -1     25832 1.61044E+01 3.50519E+01 1.27513E+00
 -1     25833 5.21813E+00 1.20680E+01 2.50000E+00
 -1     25834 4.30153E+00 1.15689E+01 2.50000E+00
 -1     25835 4.21928E+00 1.25111E+01 2.50000E+00
 -1     25836 6.72609E+00 8.60401E+00 3.39372E+00
 -1     25837 6.70719E+00 9.56235E+00 2.50000E+00
 -1     25838 1.03592E+01 3.87008E+01 3.73837E+00
 -1     25839 1.12343E+01 3.89458E+01 3.73837E+00
 -1     25840 1.18829E+01 3.52940E+01 1.36431E+00
 -1     25841 1.27183E+01 3.47092E+01 1.36431E+00
 -1     25842 8.82121E+00 1.02708E+01 3.90040E+00
 -1     25843 8.29602E+00 9.60161E+00 3.87542E+00
 -1     25844 8.09785E+00 1.09186E+01 2.50000E+00
 -1     25845 2.39343E+01 2.28700E+01 1.67241E+00
 -1     25846 2.32055E+01 2.22019E+01 1.67192E+00
 -1     25847 2.36897E+01 2.26458E+01 8.38461E-01
 -1     25848 1.02804E+00 2.60132E+01 2.44998E+00
 -1     25849 1.38753E+00 2.63205E+01 4.34365E+00
 -1     25850 1.36799E+00 2.66546E+01 3.10633E+00
 -1     25851 2.21613E+00 2.61571E+01 6.06330E-01
 -1     25852 2.23567E+00 2.58230E+01 1.84365E+00
 -1     25853 2.57562E+00 2.64644E+01 2.50000E+00
 -1     25854 1.45437E+00 3.28009E+01 1.44056E+00
 -1     25855 2.30354E+00 3.22962E+01 1.44056E+00
 -1     25856 2.28055E+00 3.32694E+01 1.44056E+00
 -1     25857 4.34522E+01 5.73108E+01 2.65401E+00
 -1     25858 4.27861E+01 5.74302E+01 2.32217E+00
 -1     25859 4.37332E+01 5.75550E+01 1.60343E+00
 -1     25860 4.40474E+01 5.76259E+01 2.73426E+00
 -1     25861 4.31003E+01 5.75011E+01 3.45299E+00
 -1     25862 4.33813E+01 5.77453E+01 2.40242E+00
 -1     25863 1.45919E+01 1.40883E+01 4.18976E+00
 -1     25864 1.50762E+01 1.45323E+01 3.35632E+00
 -1     25865 1.43479E+01 1.38647E+01 3.35586E+00
 -1     25866 5.34027E+00 1.09575E+01 2.50000E+00
 -1     25867 4.65710E+00 9.99150E+00 3.68802E+00
 -1     25868 4.22656E+00 1.02676E+01 1.18802E+00
 -1     25869 3.61835E+00 1.06029E+01 3.68802E+00
 -1     25870 3.40778E+01 3.20393E+01 2.74949E+00
 -1     25871 3.33638E+01 3.33617E+01 3.45167E+00
 -1     25872 3.45891E+01 3.25080E+01 3.57021E+00
 -1     25873 3.42217E+01 3.33467E+01 3.17983E+00
 -1     25874 1.87041E+01 2.25885E+01 3.75117E+00
 -1     25875 1.89139E+01 2.16279E+01 3.75117E+00
 -1     25876 2.50439E+00 3.34074E+01 2.50000E+00
 -1     25877 2.52738E+00 3.24342E+01 2.50000E+00
 -1     25878 1.46719E+00 3.27941E+01 3.94056E+00
 -1     25879 2.00652E+01 1.92887E+01 8.11828E-01
 -1     25880 1.91523E+01 1.91611E+01 1.29883E+00
 -1     25881 1.89656E+01 1.80943E+01 1.32028E+00
 -1     25882 1.94508E+01 1.85391E+01 4.87001E-01
 -1     25883 7.82173E+00 1.19301E+01 2.50000E+00
 -1     25884 8.85762E+00 1.15797E+01 2.50000E+00
 -1     25885 2.35379E+01 3.55632E+01 2.50000E+00
 -1     25886 2.45079E+01 3.52242E+01 2.50000E+00
 -1     25887 2.37367E+01 3.45936E+01 2.50000E+00
 -1     25888 5.60218E-01 3.36631E+01 1.36912E+00
 -1     25889 2.16742E-01 3.28249E+01 9.65830E-01
 -1     25890 7.76959E-01 3.35773E+01 8.08330E-01
 -1     25891 5.60218E-01 3.42077E+01 6.05810E-01
 -1     25892 2.16742E-01 3.33696E+01 2.02520E-01
 -1     25893 1.09940E+01 1.36012E+01 2.50000E+00
 -1     25894 1.12040E+01 1.26266E+01 2.50000E+00
 -1     25895 1.03055E+01 1.29210E+01 2.50000E+00
 -1     25896 2.02204E+01 4.17656E+01 2.50000E+00
 -1     25897 1.94903E+01 4.24327E+01 2.50000E+00
 -1     25898 2.04251E+01 4.27255E+01 2.50000E+00
 -1     25899 5.60218E-01 3.46050E+01 1.84451E+00
 -1     25900 1.02226E+01 3.28247E+01 2.50000E+00
 -1     25901 7.72721E+00 2.63888E+01 2.50000E+00
 -1     25902 6.89954E+00 2.58771E+01 2.50000E+00
 -1     25903 7.79099E+00 2.53437E+01 2.50000E+00
 -1     25904 2.85234E+01 4.44023E+01 2.50000E+00
 -1     25905 2.78034E+01 4.51021E+01 2.50000E+00
 -1     25906 2.29707E+01 4.95254E+01 3.88289E+00
 -1     25907 2.37006E+01 4.88625E+01 3.88289E+00
 -1     25908 2.44827E+00 3.44796E+01 4.02952E+00
 -1     25909 2.42341E+00 3.54405E+01 4.02952E+00
 -1     25910 1.59411E+00 3.50035E+01 4.02952E+00
 -1     25911 2.69891E+01 2.53602E+01 1.32589E+00
 -1     25912 2.65366E+01 2.57643E+01 9.55598E-01
 -1     25913 2.62284E+01 2.48615E+01 1.30273E+00
 -1     25914 2.67061E+01 2.52995E+01 4.66219E-01
 -1     25915 3.98532E+01 5.22948E+01 2.50000E+00
 -1     25916 1.02979E+01 4.70702E+01 4.10293E-01
 -1     25917 1.08607E+01 4.72578E+01 1.23053E+00
 -1     25918 1.09030E+01 4.64173E+01 1.48939E+00
 -1     25919 1.03988E+01 4.66117E+01 1.89934E+00
 -1     25920 1.70666E+01 2.59896E+01 2.50000E+00
 -1     25921 1.63264E+01 2.53466E+01 2.50000E+00
 -1     25922 1.61023E+01 2.63007E+01 2.50000E+00
 -1     25923 1.68425E+01 2.69437E+01 2.50000E+00
 -1     25924 3.36092E-01 4.27346E+01 3.92884E-01
 -1     25925 3.36092E-01 4.37346E+01 1.22622E+00
 -1     25926 3.36092E-01 4.24488E+01 1.22772E+00
 -1     25927 3.28039E+01 4.18847E+01 2.50000E+00
 -1     25928 3.30080E+01 4.08770E+01 2.50000E+00
 -1     25929 3.20519E+01 4.12113E+01 2.50000E+00
 -1     25930 1.02843E+00 3.67933E+01 2.19579E+00
 -1     25931 1.30876E+00 3.57432E+01 2.11029E+00
 -1     25932 1.23807E+00 3.61599E+01 3.14453E+00
 -1     25933 2.08211E+00 3.74693E+01 1.61502E+00
 -1     25934 2.15279E+00 3.70525E+01 5.80778E-01
 -1     25935 2.36244E+00 3.64191E+01 1.52952E+00
 -1     25936 1.10977E+00 3.53960E+01 1.18659E+00
 -1     25937 1.31942E+00 3.47626E+01 2.13533E+00
 -1     25938 2.38581E+00 3.54584E+01 1.52952E+00
 -1     25939 2.17616E+00 3.60918E+01 5.80778E-01
 -1     25940 2.18682E+00 3.51113E+01 6.05810E-01
 -1     25941 3.28428E+01 4.73739E+01 3.82875E+00
 -1     25942 3.17612E+01 4.71993E+01 2.50000E+00
 -1     25943 3.28870E+01 4.74444E+01 1.32875E+00
 -1     25944 3.19307E+01 4.82209E+01 2.50000E+00
 -1     25945 5.88587E+00 3.43204E+01 2.50000E+00
 -1     25946 6.74258E+00 3.47722E+01 2.50000E+00
 -1     25947 2.13168E+01 4.98740E+01 3.88289E+00
 -1     25948 2.10078E+01 4.97710E+01 3.05509E+00
 -1     25949 1.99335E+01 5.00158E+01 4.25215E+00
 -1     25950 2.09426E+01 4.91206E+01 3.13504E+00
 -1     25951 1.96244E+01 4.99128E+01 3.42436E+00
 -1     25952 3.94391E-01 1.49459E+01 3.51531E+00
 -1     25953 3.94391E-01 1.46209E+01 2.68004E+00
 -1     25954 2.58279E+01 4.26751E+01 3.59308E+00
 -1     25955 2.22399E+01 5.01817E+01 3.88289E+00
 -1     25956 6.95023E+00 3.98655E+01 3.77187E+00
 -1     25957 7.81410E+00 4.01576E+01 3.77187E+00
 -1     25958 5.91423E+00 4.09264E+01 3.85428E+00
 -1     25959 6.28180E+00 3.97568E+01 2.62615E+00
 -1     25960 6.77811E+00 4.12185E+01 3.85428E+00
 -1     25961 2.25293E+00 3.90343E+01 3.18307E+00
 -1     25962 3.23733E+00 3.86676E+01 2.50000E+00
 -1     25963 2.22208E+00 3.80951E+01 6.83066E-01
 -1     25964 1.43544E+00 3.86413E+01 3.18307E+00
 -1     25965 2.41984E+00 3.82746E+01 2.50000E+00
 -1     25966 2.31630E+01 5.04894E+01 3.88289E+00
 -1     25967 2.27010E+01 5.03355E+01 3.22858E+00
 -1     25968 3.65519E+01 4.05654E+01 2.50000E+00
 -1     25969 3.56196E+01 4.08364E+01 2.50000E+00
 -1     25970 1.10904E+01 3.54160E+01 3.86431E+00
 -1     25971 3.52112E+01 4.29368E+01 2.50000E+00
 -1     25972 3.47983E+01 4.39916E+01 2.50000E+00
 -1     25973 3.57330E+01 4.36366E+01 2.50000E+00
 -1     25974 3.88086E+01 3.60404E+01 5.14543E-01
 -1     25975 1.29302E+01 4.38704E+01 2.50000E+00
 -1     25976 1.38430E+01 4.41688E+01 2.50000E+00
 -1     25977 3.55658E+01 4.47902E+01 2.50000E+00
 -1     25978 5.95137E+00 3.04288E+01 2.50000E+00
 -1     25979 2.67325E+01 4.29505E+01 3.59308E+00
 -1     25980 2.65915E+01 4.18386E+01 3.59308E+00
 -1     25981 3.07441E+01 3.88254E+01 2.50000E+00
 -1     25982 2.97525E+01 3.91635E+01 2.50000E+00
 -1     25983 3.00132E+01 3.81473E+01 2.50000E+00
 -1     25984 3.43553E+01 4.50755E+01 2.50000E+00
 -1     25985 1.33255E+01 2.78014E+01 1.25958E+00
 -1     25986 1.41981E+01 2.74464E+01 1.25958E+00
 -1     25987 3.34795E+00 3.38660E+01 2.50000E+00
 -1     25988 3.37094E+00 3.28929E+01 2.50000E+00
 -1     25989 2.19114E+01 5.00723E+01 3.08254E+00
 -1     25990 3.71014E+01 5.45274E+01 8.08857E-01
 -1     25991 3.67326E+01 5.59191E+01 1.26455E+00
 -1     25992 3.76170E+01 5.43741E+01 4.55692E-01
 -1     25993 3.77600E+01 5.47469E+01 1.59676E+00
 -1     25994 3.73913E+01 5.61386E+01 2.05245E+00
 -1     25995 4.16511E+00 3.43300E+01 2.50000E+00
 -1     25996 4.20592E+00 3.33777E+01 2.50000E+00
 -1     25997 3.31742E+01 3.98737E+01 2.50000E+00
 -1     25998 3.22182E+01 4.02081E+01 2.50000E+00
 -1     25999 3.18117E+01 4.23437E+01 2.50000E+00
 -1     26000 3.12545E+01 4.05883E+01 2.50000E+00
 -1     26001 3.10142E+01 4.17206E+01 2.50000E+00
 -1     26002 2.57773E+01 4.10354E+01 3.79269E+00
 -1     26003 2.73320E+01 4.09056E+01 2.50000E+00
 -1     26004 2.58615E+01 4.00848E+01 1.29269E+00
 -1     26005 3.62248E+01 5.58047E+01 1.10135E+00
 -1     26006 3.56548E+01 5.56147E+01 2.92493E-01
 -1     26007 3.53339E+01 5.55077E+01 1.12039E+00
 -1     26008 2.47456E+00 2.19049E+01 4.47435E+00
 -1     26009 2.44933E+00 2.11671E+01 3.16623E+00
 -1     26010 3.42272E+00 2.11770E+01 3.69188E+00
 -1     26011 3.11598E+00 2.27825E+01 3.75624E+00
 -1     26012 2.14259E+00 2.27726E+01 3.23059E+00
 -1     26013 7.44264E+00 3.62231E+01 2.50000E+00
 -1     26014 7.71000E+00 3.77481E+01 1.27187E+00
 -1     26015 7.05044E+00 3.71709E+01 3.77187E+00
 -1     26016 6.67211E+00 3.56996E+01 2.50000E+00
 -1     26017 6.93946E+00 3.72246E+01 1.27187E+00
 -1     26018 6.11046E+00 4.34534E+01 4.29693E+00
 -1     26019 7.08980E+00 4.33493E+01 3.69869E+00
 -1     26020 6.39056E+00 4.39749E+01 2.99562E+00
 -1     26021 5.23358E+00 4.31371E+01 4.29693E+00
 -1     26022 6.21292E+00 4.30330E+01 3.69869E+00
 -1     26023 6.52003E-01 2.40588E+01 2.36634E+00
 -1     26024 2.04401E+00 2.42176E+01 1.95585E+00
 -1     26025 1.39200E+00 2.34915E+01 2.92298E+00
 -1     26026 6.52003E-01 2.50586E+01 2.36694E+00
 -1     26027 1.39200E+00 2.44913E+01 2.92357E+00
 -1     26028 7.22555E+00 4.42566E+01 3.69869E+00
 -1     26029 7.97953E+00 4.36400E+01 3.69869E+00
 -1     26030 3.50229E+01 3.30797E+01 5.32616E-01
 -1     26031 3.40117E+01 3.41761E+01 1.68447E+00
 -1     26032 3.47669E+01 3.28451E+01 1.33502E+00
 -1     26033 2.32804E+01 2.55822E+01 3.84022E+00
 -1     26034 2.23714E+01 2.58581E+01 1.34022E+00
 -1     26035 9.70996E+00 3.78222E+01 1.23837E+00
 -1     26036 9.31776E+00 3.87700E+01 2.51024E+00
 -1     26037 9.96349E+00 3.77633E+01 3.73837E+00
 -1     26038 8.35572E+00 3.67414E+01 2.50000E+00
 -1     26039 7.96352E+00 3.76892E+01 3.77187E+00
 -1     26040 3.24446E+01 3.91806E+01 2.50000E+00
 -1     26041 7.68731E+00 3.92954E+01 3.77187E+00
 -1     26042 6.86708E+00 3.89805E+01 3.77187E+00
 -1     26043 7.56482E+00 3.85105E+01 3.77187E+00
 -1     26044 7.50589E-01 2.16134E+01 3.64097E+00
 -1     26045 1.53080E+01 1.61918E+01 3.19086E+00
 -1     26046 1.39644E+01 1.61025E+01 3.77348E+00
 -1     26047 1.46430E+01 1.69215E+01 2.50000E+00
 -1     26048 3.21448E+01 3.02225E+01 4.36377E+00
 -1     26049 3.13492E+01 3.00194E+01 2.91461E+00
 -1     26050 3.12489E+01 3.06839E+01 3.10723E+00
 -1     26051 3.11041E+01 2.97947E+01 3.74346E+00
 -1     26052 4.12682E+01 4.63709E+01 2.50000E+00
 -1     26053 4.18031E+01 4.54627E+01 2.50000E+00
 -1     26054 4.73370E+01 5.56689E+01 1.67025E+00
 -1     26055 4.72206E+01 5.67194E+01 2.32033E+00
 -1     26056 4.65576E+01 5.58922E+01 2.23809E+00
 -1     26057 4.69327E+01 5.59027E+01 1.31441E+00
 -1     26058 4.75957E+01 5.67299E+01 1.39665E+00
 -1     26059 4.68163E+01 5.69532E+01 1.96449E+00
 -1     26060 1.59536E+01 1.52536E+01 3.33419E+00
 -1     26061 1.64386E+01 1.56981E+01 2.50088E+00
 -1     26062 1.66809E+01 1.59203E+01 3.33420E+00
 -1     26063 4.72161E+01 4.98861E+01 3.03852E+00
 -1     26064 4.72161E+01 4.95144E+01 4.22812E+00
 -1     26065 4.63408E+01 5.02569E+01 3.27834E+00
 -1     26066 4.38717E+01 4.32920E+01 1.51252E+00
 -1     26067 4.40262E+01 4.22550E+01 1.51252E+00
 -1     26068 2.76506E+01 2.74089E+01 1.92424E+00
 -1     26069 2.74923E+01 2.78568E+01 1.34735E+00
 -1     26070 2.86576E+01 2.85999E+01 2.50000E+00
 -1     26071 2.88159E+01 2.81520E+01 3.07689E+00
 -1     26072 2.74840E+01 2.78600E+01 3.84735E+00
 -1     26073 4.71534E+01 4.43004E+01 3.19758E+00
 -1     26074 4.71534E+01 4.43004E+01 2.36425E+00
 -1     26075 4.65748E+01 4.37700E+01 2.62005E+00
 -1     26076 1.82576E+01 2.82765E+01 2.50000E+00
 -1     26077 1.99192E+01 2.86641E+01 2.50000E+00
 -1     26078 4.43535E+01 5.81025E+01 9.67640E-01
 -1     26079 4.36874E+01 5.82218E+01 6.35794E-01
 -1     26080 4.42976E+01 5.70443E+01 9.67640E-01
 -1     26081 4.36315E+01 5.71636E+01 6.35794E-01
 -1     26082 5.73291E+00 7.14976E+00 3.56163E+00
 -1     26083 4.26430E+00 8.00947E+00 3.04960E+00
 -1     26084 5.01199E+00 8.44185E+00 2.88808E+00
 -1     26085 5.74558E+00 8.24877E+00 4.20005E+00
 -1     26086 4.99790E+00 7.81639E+00 4.36158E+00
 -1     26087 1.48467E+01 1.53044E+01 2.38062E+00
 -1     26088 1.50996E+01 1.57307E+01 4.18976E+00
 -1     26089 1.59771E+01 1.64520E+01 4.16763E+00
 -1     26090 1.57241E+01 1.60257E+01 2.35849E+00
 -1     26091 1.55158E+01 1.55646E+01 3.35739E+00
 -1     26092 2.70683E+01 3.17908E+01 2.50000E+00
 -1     26093 2.68448E+01 3.27605E+01 2.50000E+00
 -1     26094 2.77827E+01 3.24709E+01 2.50000E+00
 -1     26095 4.39389E+01 5.22668E+01 2.50000E+00
 -1     26096 4.40802E+01 5.34625E+01 2.50000E+00
 -1     26097 4.30127E+01 5.29777E+01 2.50000E+00
 -1     26098 4.31540E+01 5.41734E+01 2.50000E+00
 -1     26099 1.96527E+01 2.22903E+01 1.25117E+00
 -1     26100 1.89230E+01 2.16300E+01 1.25117E+00
 -1     26101 1.87189E+01 2.25925E+01 1.25117E+00
 -1     26102 4.71534E+01 4.50194E+01 3.16820E+00
 -1     26103 4.71534E+01 4.53004E+01 4.03092E+00
 -1     26104 4.71534E+01 4.43004E+01 4.03092E+00
 -1     26105 4.62637E+01 4.79832E+01 4.22812E+00
 -1     26106 4.58871E+01 4.70596E+01 3.69122E+00
 -1     26107 4.60555E+01 4.81052E+01 2.91933E+00
 -1     26108 4.52603E+01 4.85129E+01 4.22812E+00
 -1     26109 4.48837E+01 4.75894E+01 3.69122E+00
 -1     26110 3.06362E+01 2.93657E+01 2.94126E+00
 -1     26111 3.06312E+01 2.86138E+01 3.68737E+00
 -1     26112 3.02033E+01 2.95041E+01 3.23302E+00
 -1     26113 3.10992E+01 2.90427E+01 4.48956E+00
 -1     26114 3.97053E+01 3.67912E+01 3.76902E+00
 -1     26115 3.95100E+01 3.66121E+01 2.92019E+00
 -1     26116 3.98278E+01 3.80742E+01 2.01146E+00
 -1     26117 4.00231E+01 3.82533E+01 2.86030E+00
 -1     26118 3.95299E+01 3.81959E+01 3.23986E+00
 -1     26119 2.37142E+01 3.98224E+01 3.79269E+00
 -1     26120 2.44211E+01 4.02222E+01 3.79269E+00
 -1     26121 2.38272E+01 4.07537E+01 3.79269E+00
 -1     26122 2.27769E+01 2.39441E+01 3.84022E+00
 -1     26123 2.35020E+01 2.46126E+01 3.84022E+00
 -1     26124 4.40563E+01 5.80034E+01 1.86576E+00
 -1     26125 4.33903E+01 5.81227E+01 1.53391E+00
 -1     26126 1.75342E+01 1.67999E+01 1.66207E+00
 -1     26127 1.72923E+01 1.65781E+01 8.28840E-01
 -1     26128 1.80195E+01 1.72448E+01 8.28840E-01
 -1     26129 8.61611E+00 4.60058E+01 4.33942E+00
 -1     26130 8.72517E+00 4.58128E+01 4.83127E+00
 -1     26131 7.82070E+00 4.57406E+01 4.19680E+00
 -1     26132 7.64460E+00 4.63189E+01 4.02807E+00
 -1     26133 3.30362E+01 4.84455E+01 1.32875E+00
 -1     26134 3.20799E+01 4.92220E+01 2.50000E+00
 -1     26135 7.85042E+00 4.53239E+01 3.03811E+00
 -1     26136 7.05502E+00 4.50588E+01 2.89548E+00
 -1     26137 8.13559E+00 4.45527E+01 3.69869E+00
 -1     26138 2.93163E+01 4.11719E+01 2.50000E+00
 -1     26139 1.07437E+01 4.14025E+01 2.50000E+00
 -1     26140 1.14688E+01 4.07567E+01 2.50000E+00
 -1     26141 1.09385E+01 4.23659E+01 2.50000E+00
 -1     26142 1.16636E+01 4.17200E+01 2.50000E+00
 -1     26143 8.88199E+00 4.39231E+01 3.69869E+00
 -1     26144 1.86672E+01 2.03962E+01 4.35868E+00
 -1     26145 1.95273E+01 2.08303E+01 3.10985E+00
 -1     26146 1.76720E+01 2.02556E+01 3.76584E+00
 -1     26147 1.82854E+01 1.94580E+01 3.12452E+00
 -1     26148 1.82808E+01 3.64543E+01 2.50000E+00
 -1     26149 1.79818E+01 3.55261E+01 2.50000E+00
 -1     26150 1.91533E+01 3.55659E+01 2.50000E+00
 -1     26151 1.85835E+01 4.77710E+01 3.81414E+00
 -1     26152 1.93111E+01 4.71204E+01 3.81414E+00
 -1     26153 1.95052E+01 4.80788E+01 3.81414E+00
 -1     26154 9.04960E-01 2.84214E+01 3.14862E+00
 -1     26155 1.28625E+00 2.90873E+01 4.12045E+00
 -1     26156 1.33441E+00 2.82948E+01 4.02818E+00
 -1     26157 4.76559E-01 2.78145E+01 4.02818E+00
 -1     26158 4.28400E-01 2.86070E+01 4.12045E+00
 -1     26159 1.30178E+01 1.64202E+01 3.77348E+00
 -1     26160 5.07154E+00 3.28678E+01 2.50000E+00
 -1     26161 2.03068E+01 1.95769E+01 3.52530E+00
 -1     26162 2.01017E+01 2.01102E+01 3.87561E+00
 -1     26163 2.11278E+01 2.00885E+01 3.68354E+00
 -1     26164 1.98221E+01 1.91326E+01 4.35868E+00
 -1     26165 2.06432E+01 1.96443E+01 4.51693E+00
 -1     26166 4.64462E+01 4.31766E+01 3.88658E+00
 -1     26167 4.69577E+01 4.36455E+01 4.51488E+00
 -1     26168 4.62305E+01 4.29788E+01 4.51488E+00
 -1     26169 7.13354E+00 7.20649E+00 4.81167E-01
 -1     26170 7.61007E+00 7.64331E+00 1.29443E+00
 -1     26171 6.89759E+00 6.99021E+00 1.37743E+00
 -1     26172 3.52673E+01 3.32319E+01 3.57440E+00
 -1     26173 3.44094E+01 3.32469E+01 3.84623E+00
 -1     26174 3.40419E+01 3.40855E+01 3.45586E+00
 -1     26175 9.39774E+00 3.65674E+01 2.50000E+00
 -1     26176 1.09907E+01 3.59329E+01 1.36431E+00
 -1     26177 1.02022E+01 3.60480E+01 3.86431E+00
 -1     26178 1.15565E+01 3.71288E+01 2.60268E+00
 -1     26179 3.00954E+01 3.42000E+01 3.72720E+00
 -1     26180 3.02873E+01 3.32479E+01 1.22720E+00
 -1     26181 2.92350E+01 3.38183E+01 2.50000E+00
 -1     26182 4.66418E+01 4.38315E+01 3.40262E+00
 -1     26183 4.61111E+01 4.39459E+01 3.54580E+00
 -1     26184 3.93471E+01 3.88125E+01 3.66557E+00
 -1     26185 3.91388E+01 3.97963E+01 3.66557E+00
 -1     26186 3.84047E+01 3.91347E+01 3.66557E+00
 -1     26187 3.60169E+01 3.88893E+01 2.50000E+00
 -1     26188 3.52863E+01 3.82161E+01 2.50000E+00
 -1     26189 3.93494E+01 3.88122E+01 1.16557E+00
 -1     26190 4.02875E+01 3.84956E+01 1.16557E+00
 -1     26191 4.00128E+01 3.72222E+01 2.96300E-01
 -1     26192 3.90747E+01 3.75388E+01 2.96300E-01
 -1     26193 3.95730E+01 3.83846E+01 1.46187E+00
 -1     26194 3.52864E+01 5.53599E+01 4.09253E-01
 -1     26195 3.49654E+01 5.52530E+01 1.23715E+00
 -1     26196 3.58643E+01 5.52823E+01 7.01746E-01
 -1     26197 4.52519E+01 5.73824E+01 9.67640E-01
 -1     26198 4.62729E+01 5.71359E+01 1.44409E+00
 -1     26199 4.54203E+01 5.71892E+01 2.41173E+00
 -1     26200 4.53075E+01 5.78137E+01 1.62996E+00
 -1     26201 4.61601E+01 5.77603E+01 6.62320E-01
 -1     26202 4.63285E+01 5.75672E+01 2.10641E+00
 -1     26203 3.73468E+01 3.48273E+01 3.15283E+00
 -1     26204 3.81689E+01 3.55809E+01 3.25510E+00
 -1     26205 1.27467E+01 3.84158E+01 1.23837E+00
 -1     26206 1.42969E+01 3.81321E+01 2.50000E+00
 -1     26207 2.40408E+01 2.27608E+01 3.69794E+00
 -1     26208 2.42825E+01 2.29824E+01 4.53117E+00
 -1     26209 2.35553E+01 2.23157E+01 4.53117E+00
 -1     26210 1.51361E+01 3.56121E+01 3.77513E+00
 -1     26211 1.42805E+01 3.55736E+01 3.77513E+00
 -1     26212 4.49910E+01 4.64489E+01 3.69122E+00
 -1     26213 3.97294E+01 5.52982E+01 6.97709E-01
 -1     26214 4.00428E+01 5.58305E+01 1.53145E+00
 -1     26215 3.94040E+01 5.57570E+01 1.19224E+00
 -1     26216 4.00188E+01 5.59112E+01 4.94529E-01
 -1     26217 4.24879E+00 4.47976E+01 2.82081E+00
 -1     26218 4.00246E+00 4.47155E+01 1.97315E+00
 -1     26219 4.49337E+00 4.40168E+01 2.95466E+00
 -1     26220 5.16665E+00 4.48599E+01 3.46001E+00
 -1     26221 4.92031E+00 4.47778E+01 2.61235E+00
 -1     26222 3.85502E+01 5.40632E+01 6.97709E-01
 -1     26223 3.82956E+01 5.38705E+01 2.50000E+00
 -1     26224 3.81125E+01 5.42800E+01 1.69752E+00
 -1     26225 3.86770E+01 5.53607E+01 2.39523E+00
 -1     26226 3.84224E+01 5.51680E+01 4.19752E+00
 -1     26227 2.25776E+01 2.48989E+01 1.34022E+00
 -1     26228 5.22227E+00 4.31443E+01 1.79693E+00
 -1     26229 4.44515E+00 4.37321E+01 4.29693E+00
 -1     26230 4.25620E+00 4.27974E+01 2.50000E+00
 -1     26231 4.30442E+00 4.30820E+01 1.15773E+00
 -1     26232 3.52729E+00 4.36699E+01 3.65773E+00
 -1     26233 4.14024E+00 3.52909E+01 2.50000E+00
 -1     26234 4.07994E+00 3.62238E+01 2.50000E+00
 -1     26235 3.29081E+00 3.57891E+01 2.50000E+00
 -1     26236 4.73136E+00 4.38430E+01 8.15416E-01
 -1     26237 2.47280E+01 2.37951E+01 1.40100E+00
 -1     26238 2.44834E+01 2.35709E+01 5.67054E-01
 -1     26239 2.52107E+01 2.42376E+01 5.67054E-01
 -1     26240 3.20670E+01 3.37051E+01 4.03065E+00
 -1     26241 3.30100E+01 3.34052E+01 4.03065E+00
 -1     26242 3.21896E+01 3.26357E+01 3.72720E+00
 -1     26243 4.36652E+01 4.14500E+01 2.08414E+00
 -1     26244 4.30250E+01 4.15473E+01 1.41629E+00
 -1     26245 4.39129E+01 4.19521E+01 6.67850E-01
 -1     26246 4.46664E+01 4.21577E+01 2.18037E+00
 -1     26247 4.37785E+01 4.17528E+01 2.92881E+00
 -1     26248 2.16742E-01 3.18289E+01 1.13675E+00
 -1     26249 2.16742E-01 3.23696E+01 2.02520E-01
 -1     26250 4.70509E-01 3.07706E+01 1.43085E+00
 -1     26251 6.87251E-01 3.16810E+01 6.99142E-01
 -1     26252 4.70509E-01 3.13114E+01 4.96622E-01
 -1     26253 5.85603E+00 4.55392E+01 3.84064E+00
 -1     26254 6.16423E+00 4.56419E+01 4.67756E+00
 -1     26255 6.10061E+00 4.47584E+01 3.97449E+00
 -1     26256 5.47484E+00 4.49626E+01 4.29693E+00
 -1     26257 2.80051E+01 3.14994E+01 2.50000E+00
 -1     26258 2.82222E+01 3.05340E+01 2.50000E+00
 -1     26259 2.72854E+01 3.08254E+01 2.50000E+00
 -1     26260 2.39843E+01 3.36520E+01 2.50000E+00
 -1     26261 3.35683E+01 3.17464E+01 5.32616E-01
 -1     26262 3.03048E+01 2.94900E+01 4.59547E-01
 -1     26263 3.01614E+01 3.00966E+01 1.24346E+00
 -1     26264 3.00091E+01 2.80435E+01 3.83302E+00
 -1     26265 2.94310E+01 2.73899E+01 3.85516E+00
 -1     26266 2.94288E+01 2.94296E+01 3.74346E+00
 -1     26267 7.56637E+00 9.85924E+00 1.37542E+00
 -1     26268 7.63069E+00 8.89479E+00 3.87542E+00
 -1     26269 4.63518E+01 4.99947E+01 5.84806E-01
 -1     26270 2.90096E+01 5.32015E+01 1.28677E+00
 -1     26271 2.83972E+01 5.29973E+01 4.52851E-01
 -1     26272 2.80806E+01 5.28918E+01 1.28949E+00
 -1     26273 3.93167E+01 5.61585E+01 1.92473E+00
 -1     26274 3.89904E+01 5.58930E+01 3.22897E+00
 -1     26275 3.88790E+01 5.63752E+01 2.92454E+00
 -1     26276 2.74754E+01 4.76945E+01 2.50000E+00
 -1     26277 2.71531E+01 4.88823E+01 3.81395E+00
 -1     26278 2.72708E+01 4.67182E+01 2.50000E+00
 -1     26279 2.69485E+01 4.79061E+01 3.81395E+00
 -1     26280 3.68254E+01 3.45748E+01 2.34163E+00
 -1     26281 2.56207E+01 2.84392E+01 1.34735E+00
 -1     26282 2.48800E+01 2.97932E+01 2.50000E+00
 -1     26283 2.48977E+01 2.77704E+01 1.34735E+00
 -1     26284 2.41570E+01 2.91244E+01 2.50000E+00
 -1     26285 1.87949E+01 1.78867E+01 3.62683E+00
 -1     26286 1.83104E+01 1.74424E+01 4.46019E+00
 -1     26287 1.84961E+01 1.85750E+01 3.81887E+00
 -1     26288 1.95795E+01 1.89102E+01 3.52532E+00
 -1     26289 1.90949E+01 1.84659E+01 4.35868E+00
 -1     26290 3.95499E+01 4.24178E+01 1.36003E+00
 -1     26291 4.03014E+01 4.31158E+01 1.36003E+00
 -1     26292 3.93545E+01 4.34394E+01 1.36003E+00
 -1     26293 2.34344E+01 2.84559E+01 2.50000E+00
 -1     26294 2.39498E+01 3.00776E+01 2.50000E+00
 -1     26295 3.37352E+01 4.14924E+01 2.50000E+00
 -1     26296 3.35799E+01 4.23614E+01 2.50000E+00
 -1     26297 3.46801E+01 4.11756E+01 2.50000E+00
 -1     26298 3.45248E+01 4.20447E+01 2.50000E+00
 -1     26299 2.46679E+01 3.07492E+01 2.50000E+00
 -1     26300 1.23682E+01 4.10487E+01 2.50000E+00
 -1     26301 1.76811E+01 2.02576E+01 1.26584E+00
 -1     26302 1.78897E+01 1.92924E+01 1.26584E+00
 -1     26303 1.69520E+01 1.95974E+01 1.26584E+00
 -1     26304 1.79577E+01 2.57053E+01 2.50000E+00
 -1     26305 3.44872E+00 4.07974E+01 3.85428E+00
 -1     26306 4.25700E+00 4.02122E+01 3.85428E+00
 -1     26307 4.29003E+00 4.11631E+01 3.85428E+00
 -1     26308 1.62397E+01 3.67209E+01 1.27513E+00
 -1     26309 1.77871E+01 1.81755E+01 4.87001E-01
 -1     26310 1.87235E+01 1.78724E+01 4.87001E-01
 -1     26311 1.70831E+01 1.75479E+01 8.28840E-01
 -1     26312 1.78339E+01 1.77838E+01 1.31584E+00
 -1     26313 1.24490E+01 1.41634E+01 3.14446E+00
 -1     26314 1.32127E+01 1.42365E+01 2.93958E+00
 -1     26315 1.29704E+01 1.47563E+01 3.34436E+00
 -1     26316 1.04764E+01 4.59483E+01 4.49142E+00
 -1     26317 4.65471E+01 4.96289E+01 2.58991E+00
 -1     26318 4.54636E+01 4.99693E+01 8.61790E-01
 -1     26319 4.53487E+01 4.93692E+01 1.72812E+00
 -1     26320 4.65668E+01 4.90173E+01 2.31292E+00
 -1     26321 4.66817E+01 4.96174E+01 1.44660E+00
 -1     26322 4.46589E+01 5.72535E+01 4.44250E+00
 -1     26323 4.46843E+01 5.82921E+01 4.44250E+00
 -1     26324 4.39762E+01 5.72541E+01 4.26662E+00
 -1     26325 4.40016E+01 5.82927E+01 4.26662E+00
 -1     26326 7.60393E+00 7.79107E+00 4.20005E+00
 -1     26327 6.87666E+00 7.12440E+00 4.20005E+00
 -1     26328 7.18291E+00 7.40513E+00 3.37069E+00
 -1     26329 1.29333E+01 3.44493E+01 3.86431E+00
 -1     26330 1.11546E+01 4.42305E+01 3.57910E+00
 -1     26331 1.11195E+01 4.33061E+01 2.50000E+00
 -1     26332 1.03825E+01 4.39489E+01 2.50000E+00
 -1     26333 1.05805E+01 4.57877E+01 1.07910E+00
 -1     26334 2.62203E+01 2.49491E+01 3.56260E+00
 -1     26335 2.54935E+01 2.42829E+01 3.55824E+00
 -1     26336 2.57345E+01 2.45037E+01 4.39075E+00
 -1     26337 2.27202E+01 2.17570E+01 2.50512E+00
 -1     26338 2.12130E+01 2.23434E+01 2.08963E+00
 -1     26339 2.12811E+01 2.14756E+01 2.91783E+00
 -1     26340 2.24776E+01 2.15346E+01 1.67183E+00
 -1     26341 2.10384E+01 2.12532E+01 2.08454E+00
 -1     26342 1.89194E+01 2.05543E+01 8.11828E-01
 -1     26343 1.97703E+01 2.09864E+01 2.06300E+00
 -1     26344 1.74208E+01 1.73539E+01 2.78903E+00
 -1     26345 1.77767E+01 1.70222E+01 2.49546E+00
 -1     26346 1.75009E+01 1.84345E+01 3.22602E+00
 -1     26347 1.72101E+01 1.82368E+01 2.09468E+00
 -1     26348 1.78568E+01 1.81027E+01 2.93246E+00
 -1     26349 2.64617E+01 2.51704E+01 4.39075E+00
 -1     26350 1.54042E+01 2.56335E+01 2.50000E+00
 -1     26351 2.92210E+01 3.03938E+01 1.24346E+00
 -1     26352 2.89986E+01 3.13653E+01 1.24346E+00
 -1     26353 4.36244E+00 4.21014E+01 3.85428E+00
 -1     26354 5.15087E+00 4.15064E+01 3.85428E+00
 -1     26355 1.64374E+01 3.66265E+01 3.77513E+00
 -1     26356 4.00022E-01 1.43098E+01 3.03323E-01
 -1     26357 4.00022E-01 1.46425E+01 1.13183E+00
 -1     26358 4.00022E-01 1.53098E+01 3.03323E-01
 -1     26359 8.11226E-01 1.82536E+01 2.04785E+00
 -1     26360 4.71079E+01 5.80958E+01 6.62320E-01
 -1     26361 4.67036E+01 5.75777E+01 1.18273E+00
 -1     26362 4.75957E+01 5.74819E+01 5.20405E-01
 -1     26363 4.66479E+01 5.71464E+01 5.20405E-01
 -1     26364 2.45938E+00 1.97126E+01 4.26133E+00
 -1     26365 3.38848E+00 2.01811E+01 3.69188E+00
 -1     26366 4.72161E+01 4.89977E+01 3.49845E+00
 -1     26367 4.75870E+01 5.38280E+01 3.32207E+00
 -1     26368 4.68054E+01 5.39665E+01 3.56267E+00
 -1     26369 4.72184E+01 5.31160E+01 3.21303E+00
 -1     26370 4.75870E+01 5.45169E+01 2.61946E+00
 -1     26371 4.72184E+01 5.38048E+01 2.51041E+00
 -1     26372 1.39286E+01 2.43675E+01 2.50000E+00
 -1     26373 1.36047E+01 2.58703E+01 1.25958E+00
 -1     26374 1.35901E+01 2.58287E+01 3.75958E+00
 -1     26375 1.25778E+01 2.36667E+01 3.74170E+00
 -1     26376 1.25924E+01 2.37083E+01 1.24170E+00
 -1     26377 1.22539E+01 2.51695E+01 2.50128E+00
 -1     26378 5.49557E-01 3.61883E+01 5.80778E-01
 -1     26379 5.49557E-01 3.55855E+01 1.81948E+00
 -1     26380 1.98549E+01 2.13289E+01 3.75117E+00
 -1     26381 1.64847E+00 1.05395E+01 2.22531E+00
 -1     26382 2.48461E+00 9.39275E+00 1.96370E+00
 -1     26383 2.70724E+00 1.04483E+01 2.63765E+00
 -1     26384 2.59794E+00 1.01664E+01 1.18802E+00
 -1     26385 8.97585E+00 8.93252E+00 2.03337E+00
 -1     26386 8.35489E+00 8.88586E+00 1.90446E+00
 -1     26387 8.84088E+00 8.62669E+00 1.18699E+00
 -1     26388 9.45607E+00 9.26244E+00 1.33299E+00
 -1     26389 8.83511E+00 9.21578E+00 1.20408E+00
 -1     26390 4.73507E+01 4.88111E+01 1.48700E+00
 -1     26391 4.68395E+01 4.78990E+01 2.09341E+00
 -1     26392 4.75216E+01 4.79942E+01 1.37523E+00
 -1     26393 4.68723E+01 4.81889E+01 1.05784E+00
 -1     26394 4.73507E+01 4.85029E+01 5.84806E-01
 -1     26395 4.75216E+01 4.76860E+01 4.73030E-01
 -1     26396 6.20161E+00 4.30402E+01 1.19869E+00
 -1     26397 6.31718E+00 4.39507E+01 1.19869E+00
 -1     26398 7.08154E+00 4.33447E+01 1.19869E+00
 -1     26399 1.67169E+01 2.34296E+01 2.50000E+00
 -1     26400 1.57835E+01 2.37282E+01 2.50000E+00
 -1     26401 2.67361E+01 2.60038E+01 3.01920E+00
 -1     26402 2.64998E+01 2.57872E+01 2.18386E+00
 -1     26403 2.72462E+01 2.64713E+01 2.19833E+00
 -1     26404 2.95722E+01 3.25680E+01 1.22720E+00
 -1     26405 1.67066E+01 1.71138E+01 4.16763E+00
 -1     26406 1.70524E+01 1.69187E+01 3.62782E+00
 -1     26407 1.73658E+01 1.77466E+01 4.46019E+00
 -1     26408 1.71551E+01 1.86295E+01 3.76584E+00
 -1     26409 1.68417E+01 1.78016E+01 2.93347E+00
 -1     26410 4.28757E+00 2.74389E+01 2.50000E+00
 -1     26411 4.27190E+00 2.84428E+01 2.50000E+00
 -1     26412 5.12277E+00 2.89304E+01 2.50000E+00
 -1     26413 5.13844E+00 2.79264E+01 2.50000E+00
 -1     26414 6.80261E+00 8.61285E+00 8.93721E-01
 -1     26415 7.54292E+00 9.26528E+00 8.93721E-01
 -1     26416 5.15534E+00 2.69205E+01 2.50000E+00
 -1     26417 5.99636E+00 2.74233E+01 2.50000E+00
 -1     26418 4.02776E+01 4.30867E+01 3.86003E+00
 -1     26419 4.09841E+01 4.38680E+01 3.86003E+00
 -1     26420 4.00344E+01 4.40955E+01 3.86003E+00
 -1     26421 2.74481E+01 2.66565E+01 3.04521E+00
 -1     26422 1.68070E+01 1.61332E+01 1.66209E+00
 -1     26423 1.67616E+01 1.67210E+01 2.49647E+00
 -1     26424 1.57695E+01 1.54379E+01 1.52411E+00
 -1     26425 1.60925E+01 1.64608E+01 1.51970E+00
 -1     26426 6.52834E+00 6.80511E+00 3.46117E+00
 -1     26427 5.78066E+00 6.37273E+00 3.62269E+00
 -1     26428 6.12898E+00 6.69202E+00 4.36158E+00
 -1     26429 7.65310E+00 4.49293E+01 5.67283E-01
 -1     26430 7.42716E+00 4.52400E+01 9.71322E-01
 -1     26431 6.85018E+00 4.49437E+01 4.04039E-01
 -1     26432 7.80735E+00 4.58436E+01 5.67283E-01
 -1     26433 7.00442E+00 4.58580E+01 4.04039E-01
 -1     26434 1.01843E+01 2.79569E+01 2.50000E+00
 -1     26435 4.23523E+01 3.95078E+01 3.59957E+00
 -1     26436 4.25452E+01 3.96846E+01 2.75075E+00
 -1     26437 4.30665E+01 4.01625E+01 3.56605E+00
 -1     26438 5.09113E+00 3.18900E+01 2.50000E+00
 -1     26439 1.47203E+01 2.05046E+01 2.50000E+00
 -1     26440 1.54559E+01 2.11532E+01 2.50000E+00
 -1     26441 1.45152E+01 2.14675E+01 2.50000E+00
 -1     26442 8.09496E+00 1.46212E+01 2.50000E+00
 -1     26443 7.27374E+00 1.55212E+01 3.72794E+00
 -1     26444 8.89090E+00 1.52408E+01 2.50000E+00
 -1     26445 8.06967E+00 1.61408E+01 3.72794E+00
 -1     26446 4.30785E+01 5.79850E+01 4.26662E+00
 -1     26447 4.27051E+01 5.78606E+01 3.03686E+00
 -1     26448 4.24833E+01 5.76699E+01 4.18637E+00
 -1     26449 4.21099E+01 5.75455E+01 2.95661E+00
 -1     26450 6.16976E+00 1.79522E+01 1.22794E+00
 -1     26451 6.88610E+00 1.83420E+01 3.72794E+00
 -1     26452 5.72634E+00 1.93345E+01 2.50000E+00
 -1     26453 6.51918E+00 1.98186E+01 2.50000E+00
 -1     26454 2.30789E+01 3.38706E+01 2.50000E+00
 -1     26455 3.70857E+01 5.60368E+01 4.55692E-01
 -1     26456 3.75440E+01 5.61895E+01 1.18948E+00
 -1     26457 3.95061E+01 4.59798E+01 2.50000E+00
 -1     26458 4.04574E+01 4.56655E+01 2.50000E+00
 -1     26459 3.94994E+01 4.50038E+01 3.86003E+00
 -1     26460 4.01414E+01 4.41574E+01 1.36003E+00
 -1     26461 7.07995E+00 4.46543E+01 3.37625E+00
 -1     26462 6.14598E+00 4.47558E+01 2.86177E+00
 -1     26463 6.92564E+00 3.98668E+01 1.27187E+00
 -1     26464 5.88964E+00 4.09277E+01 1.35428E+00
 -1     26465 7.79387E+00 4.01316E+01 1.27187E+00
 -1     26466 6.75787E+00 4.11925E+01 1.35428E+00
 -1     26467 1.52177E+01 3.08480E+01 3.81011E+00
 -1     26468 1.63139E+01 3.05374E+01 3.81011E+00
 -1     26469 2.01660E+01 3.13025E+01 2.50000E+00
 -1     26470 2.10895E+01 3.09929E+01 2.50000E+00
 -1     26471 4.35418E+01 5.81395E+01 3.52984E+00
 -1     26472 4.58801E+01 5.87892E+01 3.69387E+00
 -1     26473 4.57155E+01 5.79697E+01 3.12750E+00
 -1     26474 4.59156E+01 5.81984E+01 3.95296E+00
 -1     26475 4.57511E+01 5.73788E+01 3.38659E+00
 -1     26476 4.15602E+01 5.73622E+01 4.18637E+00
 -1     26477 4.14495E+01 4.68628E+01 2.50000E+00
 -1     26478 3.93227E+01 4.90766E+01 2.50000E+00
 -1     26479 3.95482E+01 4.80890E+01 2.50000E+00
 -1     26480 2.99336E+01 5.35095E+01 1.28605E+00
 -1     26481 2.93202E+01 5.33050E+01 4.52851E-01
 -1     26482 3.01580E+01 5.31302E+01 9.77603E-01
 -1     26483 3.09896E+01 5.38758E+01 1.35795E+00
 -1     26484 3.03762E+01 5.36714E+01 5.24752E-01
 -1     26485 3.84343E+01 4.36864E+01 3.86003E+00
 -1     26486 3.76708E+01 4.30858E+01 3.86003E+00
 -1     26487 4.22802E+00 1.44896E+01 2.50000E+00
 -1     26488 3.40943E+00 1.39941E+01 2.50000E+00
 -1     26489 2.87908E+01 3.57693E+01 2.50000E+00
 -1     26490 3.15799E+01 4.61790E+01 2.50000E+00
 -1     26491 3.08213E+01 4.68924E+01 2.50000E+00
 -1     26492 2.25261E+01 2.27904E+01 4.37386E+00
 -1     26493 2.27415E+01 2.18245E+01 4.37386E+00
 -1     26494 2.33398E+01 2.32817E+01 4.53117E+00
 -1     26495 2.30240E+01 2.28069E+01 3.90503E+00
 -1     26496 4.03281E+01 4.67450E+01 2.50000E+00
 -1     26497 1.31855E+01 4.79633E+01 4.79154E-01
 -1     26498 1.35095E+01 4.80713E+01 1.28114E+00
 -1     26499 1.41086E+01 4.82710E+01 4.79154E-01
 -1     26500 3.00138E+00 4.40207E+01 1.53495E+00
 -1     26501 3.44382E+00 4.27445E+01 1.15773E+00
 -1     26502 2.86968E+00 4.28107E+01 3.77215E-01
 -1     26503 1.93400E+00 4.42836E+01 1.47195E+00
 -1     26504 2.50814E+00 4.42174E+01 2.25247E+00
 -1     26505 2.37644E+00 4.30074E+01 1.09474E+00
 -1     26506 1.43607E+01 4.75374E+01 2.09765E+00
 -1     26507 1.46183E+01 4.76232E+01 2.94431E+00
 -1     26508 3.93547E+01 4.33203E+01 3.86003E+00
 -1     26509 4.73370E+01 5.54208E+01 7.94003E-01
 -1     26510 4.75957E+01 5.64819E+01 5.20405E-01
 -1     26511 3.77347E+01 4.28851E+01 1.17850E+00
 -1     26512 3.85495E+01 4.26400E+01 2.53854E+00
 -1     26513 3.68560E+01 4.33308E+01 2.50000E+00
 -1     26514 2.61898E+01 3.56654E+01 2.50000E+00
 -1     26515 2.71417E+01 3.53628E+01 2.50000E+00
 -1     26516 2.63833E+01 3.47096E+01 2.50000E+00
 -1     26517 8.90549E+00 4.48210E+01 2.27779E+00
 -1     26518 8.87042E+00 4.38966E+01 1.19869E+00
 -1     26519 3.34004E+01 5.44693E+01 2.13368E+00
 -1     26520 3.26313E+01 5.46030E+01 2.87477E+00
 -1     26521 3.34245E+01 5.42032E+01 3.34408E+00
 -1     26522 3.27438E+01 5.39819E+01 3.33219E+00
 -1     26523 3.27679E+01 5.37158E+01 4.54258E+00
 -1     26524 1.73456E+01 4.90405E+01 3.50395E+00
 -1     26525 1.84665E+01 4.86242E+01 2.98095E+00
 -1     26526 1.75627E+01 4.85463E+01 3.89369E+00
 -1     26527 1.80588E+01 4.94531E+01 3.72336E+00
 -1     26528 1.86836E+01 4.81301E+01 3.37069E+00
 -1     26529 3.88817E+01 4.07211E+01 2.34407E+00
 -1     26530 3.79731E+01 4.18442E+01 3.67850E+00
 -1     26531 3.43763E+00 4.18986E+01 2.83332E+00
 -1     26532 2.48186E+00 4.22441E+01 3.97903E+00
 -1     26533 1.77791E+01 2.66598E+01 2.50000E+00
 -1     26534 5.14869E+00 6.99042E+00 2.51764E+00
 -1     26535 4.42777E+00 8.28251E+00 1.84409E+00
 -1     26536 5.12545E+00 5.77213E+00 3.13441E+00
 -1     26537 5.28892E+00 6.04516E+00 1.92890E+00
 -1     26538 4.40453E+00 7.06422E+00 2.46086E+00
 -1     26539 3.44583E+00 4.42925E+01 1.41511E+00
 -1     26540 3.87277E+00 4.50535E+01 1.07279E+00
 -1     26541 3.39323E+00 4.40131E+01 2.57374E-01
 -1     26542 3.52292E+00 4.36751E+01 1.15773E+00
 -1     26543 3.94986E+00 4.44361E+01 8.15416E-01
 -1     26544 3.79691E+01 4.18642E+01 1.17850E+00
 -1     26545 1.88314E+00 6.99214E+00 1.25624E+00
 -1     26546 6.64071E+00 6.90812E+00 2.59632E+00
 -1     26547 8.88909E+00 1.98609E+01 2.50000E+00
 -1     26548 9.79588E+00 1.95197E+01 2.50000E+00
 -1     26549 9.53547E+00 2.05461E+01 2.50000E+00
 -1     26550 3.76730E+01 5.61035E+01 6.23673E-01
 -1     26551 3.81313E+01 5.62563E+01 1.35746E+00
 -1     26552 3.85961E+01 5.64112E+01 6.23673E-01
 -1     26553 2.18555E+01 2.07556E+01 3.68359E+00
 -1     26554 2.24993E+01 2.16025E+01 3.54052E+00
 -1     26555 2.15665E+01 2.14688E+01 3.89079E+00
 -1     26556 2.03483E+01 2.13420E+01 3.26810E+00
 -1     26557 2.09921E+01 2.21889E+01 3.12503E+00
 -1     26558 1.75383E+01 2.76168E+01 2.50000E+00
 -1     26559 2.64540E+00 4.45207E+01 1.08913E+00
 -1     26560 2.13670E+00 4.43511E+01 3.77215E-01
 -1     26561 2.87169E+00 4.43587E+01 6.34589E-01
 -1     26562 3.08985E+00 4.47925E+01 9.69291E-01
 -1     26563 2.58115E+00 4.46229E+01 2.57374E-01
 -1     26564 1.51898E+00 4.77532E+00 4.02252E-01
 -1     26565 2.28718E+00 4.57058E+00 8.15100E-01
 -1     26566 1.73636E+00 4.61371E+00 1.21735E+00
 -1     26567 1.43892E+00 5.92372E+00 1.65849E+00
 -1     26568 1.98973E+00 5.88059E+00 1.25624E+00
 -1     26569 2.20712E+00 5.71898E+00 2.07134E+00
 -1     26570 1.25917E+00 4.40423E+01 3.92884E-01
 -1     26571 1.05647E+00 4.39747E+01 1.48762E+00
 -1     26572 1.17001E+00 3.99735E+01 4.51291E+00
 -1     26573 1.97828E+00 3.93883E+01 4.51291E+00
 -1     26574 1.29186E+00 4.07458E+01 4.48137E+00
 -1     26575 8.10226E-01 3.99420E+01 3.99428E+00
 -1     26576 2.10013E+00 4.01606E+01 4.48137E+00
 -1     26577 3.77795E+01 4.69459E+01 2.50000E+00
 -1     26578 3.68839E+01 4.65622E+01 2.50000E+00
 -1     26579 3.75457E+01 4.59502E+01 2.50000E+00
 -1     26580 2.66758E+01 4.08879E+01 1.09308E+00
 -1     26581 1.54981E+01 4.61258E+01 1.29567E+00
 -1     26582 1.47682E+01 4.67803E+01 1.29567E+00
 -1     26583 1.56906E+01 4.70858E+01 1.29567E+00
 -1     26584 4.84081E-01 5.40922E+00 4.02252E-01
 -1     26585 1.16812E+01 4.75313E+01 1.96375E+00
 -1     26586 1.16720E+01 4.75282E+01 1.07083E+00
 -1     26587 3.02917E+01 4.08571E+01 2.50000E+00
 -1     26588 3.00389E+01 4.20354E+01 2.50000E+00
 -1     26589 2.39234E+00 1.94115E+01 1.66338E+00
 -1     26590 3.36908E+00 1.92121E+01 1.19188E+00
 -1     26591 2.36393E+00 1.81843E+01 4.71507E-01
 -1     26592 1.50482E+00 1.81135E+01 1.68610E+00
 -1     26593 2.48156E+00 1.79141E+01 1.21459E+00
 -1     26594 3.44610E+00 2.59423E+01 2.50000E+00
 -1     26595 2.25801E+00 2.57985E+01 4.34365E+00
 -1     26596 1.72452E+01 2.50352E+01 2.50000E+00
 -1     26597 4.68395E+01 4.65908E+01 3.69122E+00
 -1     26598 4.68395E+01 4.75908E+01 3.69122E+00
 -1     26599 3.72360E+01 4.11517E+01 1.17850E+00
 -1     26600 3.81976E+01 4.01349E+01 3.66557E+00
 -1     26601 6.89880E-01 2.23273E+01 1.46377E+00
 -1     26602 1.39200E+00 2.31581E+01 2.08961E+00
 -1     26603 2.12374E+01 4.19291E+01 1.26416E+00
 -1     26604 2.13122E+01 4.30650E+01 2.50000E+00
 -1     26605 2.10356E+01 4.10000E+01 3.76416E+00
 -1     26606 1.91579E+00 2.46647E+01 3.09990E+00
 -1     26607 3.10389E+00 2.48086E+01 1.25624E+00
 -1     26608 2.27008E+01 5.03354E+01 2.33517E+00
 -1     26609 2.16563E+01 4.99872E+01 2.23504E+00
 -1     26610 1.15625E+00 2.55661E+01 1.30594E+00
 -1     26611 1.17579E+00 2.52320E+01 2.54326E+00
 -1     26612 2.36389E+00 2.53758E+01 6.99606E-01
 -1     26613 4.66038E-01 4.03571E+01 4.48137E+00
 -1     26614 4.66038E-01 4.13571E+01 4.48137E+00
 -1     26615 4.66038E-01 4.07258E+01 3.66326E+00
 -1     26616 6.22943E+00 1.69505E+01 3.72794E+00
 -1     26617 7.01145E+00 1.74743E+01 3.72794E+00
 -1     26618 6.15456E+00 1.79163E+01 3.72794E+00
 -1     26619 2.48884E+00 3.47423E+00 3.41220E+00
 -1     26620 1.97506E+00 4.02556E+00 3.83664E+00
 -1     26621 1.78817E+00 2.66145E+00 3.78963E+00
 -1     26622 1.15097E+00 3.43211E+00 3.37183E+00
 -1     26623 1.33786E+00 4.79622E+00 3.41885E+00
 -1     26624 6.37200E-01 3.98344E+00 3.79627E+00
 -1     26625 4.23851E+00 3.14228E+01 2.50000E+00
 -1     26626 4.21892E+00 3.24006E+01 2.50000E+00
 -1     26627 6.52003E-01 2.43924E+01 6.99606E-01
 -1     26628 6.52003E-01 2.53924E+01 6.99606E-01
 -1     26629 6.52003E-01 2.47263E+01 1.53324E+00
 -1     26630 1.08774E+01 2.34567E+01 1.24170E+00
 -1     26631 1.00281E+01 2.27867E+01 1.24170E+00
 -1     26632 9.94822E+00 2.39267E+01 1.24170E+00
 -1     26633 3.33519E+01 5.15253E+01 2.50000E+00
 -1     26634 3.43023E+01 5.18049E+01 2.50000E+00
 -1     26635 2.60249E+00 4.34670E+01 2.63677E+00
 -1     26636 2.55427E+00 4.31824E+01 3.97903E+00
 -1     26637 2.47080E+00 4.22570E+01 1.47903E+00
 -1     26638 3.39560E+00 4.24599E+01 2.50000E+00
 -1     26639 2.43323E+01 3.61596E+01 2.50000E+00
 -1     26640 2.52559E+01 3.59476E+01 2.50000E+00
 -1     26641 9.64055E+00 2.19074E+01 1.24170E+00
 -1     26642 8.87449E+00 2.26486E+01 2.50000E+00
 -1     26643 4.27897E+00 4.11761E+01 1.35428E+00
 -1     26644 2.48188E+00 4.11559E+01 2.50000E+00
 -1     26645 2.29624E+01 2.19791E+01 8.38461E-01
 -1     26646 3.10201E+01 4.79130E+01 2.50000E+00
 -1     26647 3.00801E+01 4.76061E+01 2.50000E+00
 -1     26648 3.02566E+01 4.85892E+01 2.50000E+00
 -1     26649 1.07652E+01 2.44992E+01 1.24170E+00
 -1     26650 2.99410E+01 3.10687E+01 1.24346E+00
 -1     26651 7.57224E+00 8.59782E+00 5.29040E-01
 -1     26652 7.45029E+00 8.59507E+00 1.42276E+00
 -1     26653 8.31255E+00 9.25025E+00 5.29040E-01
 -1     26654 3.43480E+01 5.08128E+01 3.82698E+00
 -1     26655 3.41033E+01 4.98550E+01 3.82698E+00
 -1     26656 3.50584E+01 5.01067E+01 3.82698E+00
 -1     26657 9.06990E+00 1.42444E+01 2.50000E+00
 -1     26658 6.89880E-01 2.13267E+01 1.46370E+00
 -1     26659 2.59840E+01 2.47324E+01 2.72725E+00
 -1     26660 2.39996E+01 2.48153E+01 3.23097E+00
 -1     26661 2.46964E+01 2.45403E+01 2.17673E+00
 -1     26662 2.58029E+01 2.60622E+01 3.23810E+00
 -1     26663 2.45154E+01 2.58700E+01 2.68757E+00
 -1     26664 6.32386E+00 1.59591E+01 3.72794E+00
 -1     26665 7.13812E+00 1.65173E+01 3.72794E+00
 -1     26666 1.66659E+00 4.28541E+01 1.47903E+00
 -1     26667 1.53511E+00 4.37299E+01 2.57377E+00
 -1     26668 1.57224E+00 4.36045E+01 1.09474E+00
 -1     26669 1.21755E+01 1.16650E+01 2.43611E+00
 -1     26670 1.19396E+01 1.14487E+01 1.60049E+00
 -1     26671 1.26652E+01 1.21138E+01 1.60500E+00
 -1     26672 2.24550E+01 4.42949E+01 2.50000E+00
 -1     26673 2.17149E+01 4.49674E+01 2.50000E+00
 -1     26674 2.15209E+01 4.40025E+01 2.50000E+00
 -1     26675 7.63996E+00 3.92737E+01 1.27187E+00
 -1     26676 7.45682E+00 3.85201E+01 1.27187E+00
 -1     26677 6.80965E+00 3.90010E+01 1.27187E+00
 -1     26678 1.41184E+01 2.33930E+01 2.50000E+00
 -1     26679 1.18256E+01 2.30634E+01 3.74170E+00
 -1     26680 3.47067E+01 3.73466E+01 1.15185E+00
 -1     26681 3.49209E+01 3.63956E+01 3.65185E+00
 -1     26682 3.39780E+01 3.67111E+01 3.65185E+00
 -1     26683 3.43434E+01 3.85316E+01 2.50000E+00
 -1     26684 3.43292E+00 2.69466E+01 2.50000E+00
 -1     26685 1.98596E+01 2.13284E+01 1.25117E+00
 -1     26686 2.05880E+01 2.19929E+01 1.25117E+00
 -1     26687 3.26254E+01 3.06631E+01 2.69919E+00
 -1     26688 3.18225E+01 3.18865E+01 3.09097E+00
 -1     26689 3.26542E+01 3.18924E+01 2.89135E+00
 -1     26690 1.20236E+01 2.20907E+01 3.74170E+00
 -1     26691 1.56685E+01 3.73731E+01 3.77513E+00
 -1     26692 1.34749E+01 4.22804E+01 2.50000E+00
 -1     26693 1.27441E+01 4.29328E+01 2.50000E+00
 -1     26694 4.76559E-01 2.71523E+01 2.36383E+00
 -1     26695 7.13284E-01 2.76244E+01 2.16295E+00
 -1     26696 2.36725E-01 2.71478E+01 1.47042E+00
 -1     26697 5.04250E-01 2.65116E+01 1.44198E+00
 -1     26698 9.80810E-01 2.69881E+01 2.13451E+00
 -1     26699 7.40975E-01 2.69836E+01 1.24110E+00
 -1     26700 1.10425E+01 4.64338E+01 4.10293E-01
 -1     26701 2.18605E+01 4.82488E+01 1.38289E+00
 -1     26702 3.09807E+00 2.38103E+01 1.25624E+00
 -1     26703 3.94328E+00 2.32982E+01 1.25624E+00
 -1     26704 3.08161E+00 2.28135E+01 1.25624E+00
 -1     26705 4.28400E-01 2.92449E+01 3.31627E+00
 -1     26706 4.28400E-01 2.89643E+01 2.46935E+00
 -1     26707 7.83410E-01 2.90323E+01 1.90028E+00
 -1     26708 3.55009E-01 2.90633E+01 1.97566E+00
 -1     26709 3.55009E-01 2.87827E+01 1.12875E+00
 -1     26710 7.90468E+00 1.71301E+01 3.72794E+00
 -1     26711 1.20747E+01 1.67528E+01 3.77348E+00
 -1     26712 1.22848E+01 1.57636E+01 3.77348E+00
 -1     26713 5.01087E+00 3.47765E+01 2.50000E+00
 -1     26714 4.95790E+00 3.57147E+01 2.50000E+00
 -1     26715 1.55367E+01 3.73577E+01 1.27513E+00
 -1     26716 8.11226E-01 1.85868E+01 2.88117E+00
 -1     26717 7.69643E-01 1.94163E+01 3.42791E+00
 -1     26718 1.47413E+00 2.76178E+01 9.48501E-01
 -1     26719 1.09670E+00 2.79405E+01 2.47668E+00
 -1     26720 1.33054E+00 2.73062E+01 1.52818E+00
 -1     26721 1.09071E+00 2.73016E+01 6.34768E-01
 -1     26722 8.56870E-01 2.79360E+01 1.58327E+00
 -1     26723 3.21953E+00 4.44545E+01 1.86965E+00
 -1     26724 1.24233E+01 1.18921E+01 7.72506E-01
 -1     26725 1.16960E+01 1.12254E+01 7.72506E-01
 -1     26726 9.63027E-01 3.88158E+01 2.69597E+00
 -1     26727 1.16079E+00 3.89953E+01 4.51291E+00
 -1     26728 3.34791E+01 4.57746E+01 1.32875E+00
 -1     26729 3.46381E+01 4.61082E+01 1.32875E+00
 -1     26730 3.31963E+01 4.47419E+01 2.50000E+00
 -1     26731 3.36857E+01 4.65864E+01 3.82875E+00
 -1     26732 3.44240E+01 3.35322E+01 2.33306E+00
 -1     26733 3.19633E+01 2.99450E+01 5.07296E-01
 -1     26734 3.16971E+01 2.97010E+01 1.35804E+00
 -1     26735 4.23356E+00 4.02302E+01 1.35428E+00
 -1     26736 5.04786E+00 4.06037E+01 1.35428E+00
 -1     26737 7.21031E-01 1.53509E+00 3.41268E+00
 -1     26738 3.83837E-01 8.03176E-01 3.69870E+00
 -1     26739 3.37194E-01 7.31918E-01 3.04731E+00
 -1     26740 3.37194E-01 1.38518E+00 3.28627E+00
 -1     26741 3.83837E-01 1.45644E+00 3.93766E+00
 -1     26742 8.71708E+00 2.07340E+01 2.50000E+00
 -1     26743 8.98153E+00 8.93772E+00 2.92802E+00
 -1     26744 9.46174E+00 9.26764E+00 2.22764E+00
 -1     26745 3.45150E+00 9.70836E+00 1.18802E+00
 -1     26746 2.63784E+00 9.15981E+00 1.18802E+00
 -1     26747 3.54236E+00 8.70627E+00 1.18802E+00
 -1     26748 1.04589E+01 2.17195E+01 1.24170E+00
 -1     26749 2.58871E+00 1.46551E+01 3.77650E+00
 -1     26750 2.52895E+00 1.56587E+01 3.77650E+00
 -1     26751 1.67159E+00 1.51695E+01 3.77650E+00
 -1     26752 6.91857E+00 2.48506E+01 2.50000E+00
 -1     26753 7.84902E+00 2.42897E+01 2.50000E+00
 -1     26754 1.73952E+00 2.50517E+00 1.26618E+00
 -1     26755 1.15111E+00 1.85109E+00 1.94206E+00
 -1     26756 5.88403E-01 2.24589E+00 1.56925E+00
 -1     26757 1.15111E+00 2.76945E+00 1.71089E+00
 -1     26758 8.98909E-01 2.99183E+01 2.11707E+00
 -1     26759 2.12371E+00 2.95869E+01 1.62045E+00
 -1     26760 2.16582E+00 3.02913E+01 4.96622E-01
 -1     26761 1.32020E+00 2.98004E+01 4.96622E-01
 -1     26762 1.27809E+00 2.90960E+01 1.62045E+00
 -1     26763 7.92220E+00 2.32955E+01 2.50000E+00
 -1     26764 8.79462E+00 2.37886E+01 2.50000E+00
 -1     26765 2.17176E+01 3.60739E+01 2.50000E+00
 -1     26766 3.33976E+01 5.05332E+01 3.82698E+00
 -1     26767 4.55177E+00 4.46549E+01 4.29693E+00
 -1     26768 3.24514E+01 5.11917E+01 2.50000E+00
 -1     26769 3.13057E+01 5.13701E+01 3.70656E+00
 -1     26770 3.26574E+01 5.21678E+01 2.50000E+00
 -1     26771 3.15117E+01 5.23461E+01 3.70656E+00
 -1     26772 6.02775E+00 4.18227E+01 3.85428E+00
 -1     26773 5.60084E+00 4.54650E+01 1.18122E+00
 -1     26774 5.24605E+00 4.53467E+01 3.33060E-01
 -1     26775 5.78894E+00 4.50509E+01 7.37099E-01
 -1     26776 6.43614E+00 4.56686E+01 1.25219E+00
 -1     26777 6.08135E+00 4.55503E+01 4.04039E-01
 -1     26778 3.55819E+01 4.59055E+01 2.50000E+00
 -1     26779 3.59348E+01 4.69688E+01 2.50000E+00
 -1     26780 3.48962E+01 4.63011E+01 3.82875E+00
 -1     26781 3.46542E+01 4.72234E+01 1.32875E+00
 -1     26782 3.52492E+01 4.73644E+01 3.82875E+00
 -1     26783 3.41644E+00 2.89464E+01 2.50000E+00
 -1     26784 3.40612E+00 2.99430E+01 2.50000E+00
 -1     26785 3.27057E+01 4.64241E+01 1.32875E+00
 -1     26786 3.76956E+01 4.79192E+01 2.50000E+00
 -1     26787 3.68001E+01 4.75355E+01 2.50000E+00
 -1     26788 4.32297E+00 4.50390E+01 3.33060E-01
 -1     26789 4.69152E+00 4.51619E+01 1.14848E+00
 -1     26790 4.72206E+01 5.69950E+01 3.19028E+00
 -1     26791 4.41768E+01 4.88533E+01 2.50000E+00
 -1     26792 2.56924E+01 5.02344E+01 3.81395E+00
 -1     26793 2.64230E+01 4.95632E+01 3.81395E+00
 -1     26794 2.66143E+01 5.05366E+01 3.81395E+00
 -1     26795 5.13956E+00 4.15136E+01 1.35428E+00
 -1     26796 4.84081E-01 4.40922E+00 4.02252E-01
 -1     26797 3.42667E+00 2.79465E+01 2.50000E+00
 -1     26798 3.45810E+01 4.80424E+01 3.82875E+00
 -1     26799 3.54007E+01 4.82323E+01 3.82875E+00
 -1     26800 3.44164E+01 4.71771E+01 3.82875E+00
 -1     26801 2.33414E+01 2.48250E+01 5.67054E-01
 -1     26802 2.35482E+01 2.38648E+01 5.67054E-01
 -1     26803 2.34758E+01 2.45491E+01 1.90728E+00
 -1     26804 2.34480E+01 2.24242E+01 2.50523E+00
 -1     26805 2.34779E+01 2.34233E+01 3.00699E+00
 -1     26806 2.39642E+01 2.38691E+01 2.17417E+00
 -1     26807 5.00866E+00 3.96794E+01 1.35428E+00
 -1     26808 1.93249E+01 4.98130E+01 2.58865E+00
 -1     26809 1.93253E+01 4.82818E+01 3.06629E+00
 -1     26810 1.87005E+01 4.96048E+01 3.41896E+00
 -1     26811 4.31269E-01 1.73508E+01 4.24274E+00
 -1     26812 4.31269E-01 1.70144E+01 3.40897E+00
 -1     26813 1.24250E+00 1.72724E+01 2.95733E+00
 -1     26814 8.11226E-01 1.79216E+01 3.71459E+00
 -1     26815 8.11226E-01 1.75852E+01 2.88082E+00
 -1     26816 2.54188E+01 4.61324E+01 2.50000E+00
 -1     26817 2.52359E+01 4.51542E+01 2.50000E+00
 -1     26818 2.29744E+01 4.95215E+01 1.38289E+00
 -1     26819 2.27849E+01 4.85530E+01 1.38289E+00
 -1     26820 2.20503E+01 4.92161E+01 1.38289E+00
 -1     26821 2.40695E+01 4.16408E+01 3.79269E+00
 -1     26822 2.39163E+01 4.29677E+01 2.50000E+00
 -1     26823 2.34458E+01 2.35500E+01 1.40551E+00
 -1     26824 2.07082E+01 4.96712E+01 2.21939E+00
 -1     26825 3.07549E+00 4.45779E+01 4.55793E+00
 -1     26826 3.01709E+00 4.39398E+01 3.21566E+00
 -1     26827 3.63391E+00 4.45926E+01 3.65773E+00
 -1     26828 2.71948E+00 4.44593E+01 3.67669E+00
 -1     26829 3.27790E+00 4.44740E+01 2.77649E+00
 -1     26830 2.68906E+01 3.63360E+01 2.50000E+00
 -1     26831 2.67032E+01 3.72817E+01 2.50000E+00
 -1     26832 2.59567E+01 3.66182E+01 2.50000E+00
 -1     26833 1.47742E+00 4.40311E+01 4.53983E+00
 -1     26834 1.19381E+00 4.39366E+01 3.91519E+00
 -1     26835 1.78368E+00 4.36860E+01 4.09776E+00
 -1     26836 2.15241E+00 4.42702E+01 4.55793E+00
 -1     26837 1.86880E+00 4.41757E+01 3.93329E+00
 -1     26838 4.74506E+01 5.93428E+01 2.18213E+00
 -1     26839 4.74506E+01 5.85442E+01 2.46239E+00
 -1     26840 4.19421E+01 4.45298E+01 2.50000E+00
 -1     26841 4.09924E+01 4.47572E+01 2.50000E+00
 -1     26842 4.56074E+01 5.85998E+01 4.44250E+00
 -1     26843 4.55953E+01 5.75835E+01 4.44250E+00
 -1     26844 1.73636E+01 3.64762E+01 2.50000E+00
 -1     26845 1.70646E+01 3.55480E+01 2.50000E+00
 -1     26846 1.11111E+00 1.46984E+00 4.53203E+00
 -1     26847 3.83837E-01 1.80318E+00 4.53203E+00
 -1     26848 3.83837E-01 8.03176E-01 4.53203E+00
 -1     26849 3.42248E+01 5.42307E+01 5.82183E-01
 -1     26850 3.35075E+01 5.48724E+01 5.82183E-01
 -1     26851 3.40037E+01 5.48984E+01 3.40377E-01
 -1     26852 3.47210E+01 5.42567E+01 3.40377E-01
 -1     26853 3.42804E+01 5.46939E+01 9.22560E-01
 -1     26854 2.35702E+01 4.55513E+01 2.50000E+00
 -1     26855 2.44939E+01 4.58571E+01 2.50000E+00
 -1     26856 2.43109E+01 4.48789E+01 2.50000E+00
 -1     26857 2.74248E+01 3.79912E+01 2.50000E+00
 -1     26858 2.81102E+01 3.87343E+01 2.50000E+00
 -1     26859 3.41476E+01 4.87714E+01 2.65573E+00
 -1     26860 3.48793E+01 4.89543E+01 3.82875E+00
 -1     26861 9.58098E+00 1.09319E+01 3.90040E+00
 -1     26862 2.23290E+01 3.32246E+01 2.50000E+00
 -1     26863 2.32772E+01 3.29697E+01 2.50000E+00
 -1     26864 2.25273E+01 3.23238E+01 2.50000E+00
 -1     26865 2.13401E+01 3.36438E+01 2.50000E+00
 -1     26866 2.05931E+01 3.29641E+01 2.50000E+00
 -1     26867 2.16051E+01 3.26241E+01 2.50000E+00
 -1     26868 1.24981E+01 1.47784E+01 3.77348E+00
 -1     26869 1.15392E+01 1.51065E+01 3.77348E+00
 -1     26870 6.30785E+00 4.23442E+01 2.55297E+00
 -1     26871 7.81991E+00 4.27191E+01 1.19869E+00
 -1     26872 7.84015E+00 4.27451E+01 3.69869E+00
 -1     26873 8.29017E+00 4.15934E+01 2.50000E+00
 -1     26874 1.04324E+01 1.23594E+01 1.70911E+00
 -1     26875 9.54777E+00 1.22631E+01 2.50000E+00
 -1     26876 1.05063E+01 1.14301E+01 4.20911E+00
 -1     26877 9.50705E+00 1.18612E+01 1.40040E+00
 -1     26878 8.11151E-01 2.00112E+01 4.61249E-01
 -1     26879 8.11151E-01 1.93432E+01 1.29451E+00
 -1     26880 8.11151E-01 2.03437E+01 1.29454E+00
 -1     26881 1.37811E+01 2.08326E+01 2.50000E+00
 -1     26882 4.42610E+01 4.10859E+01 6.13698E-01
 -1     26883 4.39921E+01 4.13466E+01 1.28155E+00
 -1     26884 4.48220E+01 4.15941E+01 6.67850E-01
 -1     26885 4.39701E+01 4.08192E+01 1.42895E+00
 -1     26886 4.45310E+01 4.13274E+01 1.48311E+00
 -1     26887 1.89650E+01 2.89645E+01 2.50000E+00
 -1     26888 5.06015E+00 2.11701E+01 1.19188E+00
 -1     26889 4.64621E+01 5.89832E+01 4.51045E+00
 -1     26890 4.64501E+01 5.79669E+01 4.51045E+00
 -1     26891 9.81606E+00 9.59243E+00 6.75038E-01
 -1     26892 1.00766E+01 9.83124E+00 1.47666E+00
 -1     26893 4.35338E+01 4.04192E+01 6.13698E-01
 -1     26894 3.28972E+01 5.44776E+01 1.42093E+00
 -1     26895 1.79140E+01 1.88644E+01 1.75284E+00
 -1     26896 1.51360E+01 4.85731E+01 3.69576E+00
 -1     26897 1.64155E+01 4.87304E+01 3.50051E+00
 -1     26898 1.55701E+01 4.79764E+01 3.86953E+00
 -1     26899 1.45299E+01 4.83710E+01 4.53239E+00
 -1     26900 1.58094E+01 4.85284E+01 4.33714E+00
 -1     26901 2.53388E+00 3.14432E+01 2.50000E+00
 -1     26902 1.47369E+00 3.18031E+01 3.94056E+00
 -1     26903 3.12355E+01 3.29451E+01 1.22720E+00
 -1     26904 2.47218E+01 3.98455E+01 1.29269E+00
 -1     26905 7.63614E+00 3.33825E+01 2.50000E+00
 -1     26906 7.61394E+00 3.43662E+01 2.50000E+00
 -1     26907 8.49134E+00 3.48196E+01 2.50000E+00
 -1     26908 8.51355E+00 3.38359E+01 2.50000E+00
 -1     26909 2.42593E+00 3.72946E+01 2.50000E+00
 -1     26910 1.58189E+00 3.59853E+01 4.02952E+00
 -1     26911 1.30156E+00 3.70355E+01 4.11502E+00
 -1     26912 1.21739E+01 3.66065E+01 3.86431E+00
 -1     26913 1.12425E+01 3.63262E+01 3.86431E+00
 -1     26914 1.10038E+01 3.80415E+01 3.73837E+00
 -1     26915 3.11411E+01 5.38862E+01 3.74557E+00
 -1     26916 3.10697E+01 5.31315E+01 2.87283E+00
 -1     26917 3.02144E+01 5.23523E+01 3.28585E+00
 -1     26918 3.09628E+01 5.31048E+01 3.64907E+00
 -1     26919 3.18181E+01 5.38840E+01 3.23604E+00
 -1     26920 3.08914E+01 5.23500E+01 2.77633E+00
 -1     26921 3.14815E+01 5.23846E+01 1.20656E+00
 -1     26922 3.28502E+01 5.31332E+01 2.50000E+00
 -1     26923 4.41977E+01 5.56200E+01 2.50000E+00
 -1     26924 4.32888E+01 5.63410E+01 2.50000E+00
 -1     26925 4.32013E+01 5.52509E+01 2.50000E+00
 -1     26926 4.41102E+01 5.45300E+01 2.50000E+00
 -1     26927 2.35827E+00 4.07588E+01 1.01856E+00
 -1     26928 1.57344E+00 4.13260E+01 3.51856E+00
 -1     26929 2.43647E+00 4.02100E+01 2.50000E+00
 -1     26930 2.07669E+00 4.01785E+01 1.98137E+00
 -1     26931 1.21366E+00 4.12945E+01 2.99993E+00
 -1     26932 2.90417E+01 3.84494E+01 2.50000E+00
 -1     26933 3.39889E+01 5.43687E+01 1.88368E+00
 -1     26934 3.44851E+01 5.43947E+01 1.64187E+00
 -1     26935 3.44295E+01 5.39315E+01 1.30150E+00
 -1     26936 2.33839E+01 4.45782E+01 2.50000E+00
 -1     26937 3.11234E+01 5.04348E+01 1.20656E+00
 -1     26938 3.02108E+01 5.01099E+01 1.20656E+00
 -1     26939 2.86434E+01 5.28794E+01 2.61606E+00
 -1     26940 2.92603E+01 5.30851E+01 3.44886E+00
 -1     26941 2.95301E+01 5.26183E+01 2.04047E+00
 -1     26942 2.92563E+01 5.18587E+01 2.98870E+00
 -1     26943 3.01470E+01 5.28239E+01 2.87327E+00
 -1     26944 1.31796E+01 3.74481E+01 2.51350E+00
 -1     26945 1.34183E+01 3.57328E+01 2.63944E+00
 -1     26946 1.28892E+01 3.60058E+01 3.86431E+00
 -1     26947 2.13616E+01 3.75186E+01 2.50000E+00
 -1     26948 1.13681E+01 3.97521E+01 1.23837E+00
 -1     26949 1.14185E+01 3.98487E+01 3.73837E+00
 -1     26950 1.22675E+01 4.00441E+01 1.23837E+00
 -1     26951 3.09662E+01 3.78282E+01 2.50000E+00
 -1     26952 3.02353E+01 3.71501E+01 2.50000E+00
 -1     26953 4.23278E+01 5.60223E+01 2.50000E+00
 -1     26954 3.39262E+01 5.39399E+01 5.88750E-01
 -1     26955 3.32089E+01 5.45815E+01 5.88750E-01
 -1     26956 3.34857E+01 5.43770E+01 1.17093E+00
 -1     26957 4.50773E+01 5.77569E+01 2.34221E+00
 -1     26958 3.42810E+01 5.09159E+01 1.32698E+00
 -1     26959 1.91509E+01 4.50049E+01 2.50000E+00
 -1     26960 1.91242E+01 4.61443E+01 1.31414E+00
 -1     26961 3.27477E+01 4.38511E+01 2.50000E+00
 -1     26962 3.19742E+01 4.45007E+01 2.50000E+00
 -1     26963 3.24228E+01 4.53915E+01 2.50000E+00
 -1     26964 1.43202E+01 3.02568E+01 2.50000E+00
 -1     26965 4.00804E+01 3.94804E+01 3.66557E+00
 -1     26966 4.08127E+01 4.01606E+01 3.66557E+00
 -1     26967 1.45918E+01 4.58389E+01 3.79567E+00
 -1     26968 1.44147E+01 4.48968E+01 3.79567E+00
 -1     26969 1.53273E+01 4.51847E+01 3.79567E+00
 -1     26970 1.11460E+01 1.12233E+01 2.18121E+00
 -1     26971 1.01874E+01 1.20562E+01 4.72099E-01
 -1     26972 1.10035E+01 1.05503E+01 2.12104E+00
 -1     26973 1.02899E+01 1.16864E+01 1.64895E+00
 -1     26974 2.83411E+01 3.77386E+01 2.50000E+00
 -1     26975 1.62366E+01 4.54803E+01 3.79567E+00
 -1     26976 1.83923E+01 4.68040E+01 1.31414E+00
 -1     26977 4.36719E+01 4.48635E+01 2.50000E+00
 -1     26978 4.44311E+01 4.56014E+01 2.50000E+00
 -1     26979 4.73987E+01 4.48826E+01 1.44995E+00
 -1     26980 4.73987E+01 4.56016E+01 2.25390E+00
 -1     26981 1.49598E+01 4.77371E+01 1.29567E+00
 -1     26982 1.39170E+01 4.73142E+01 4.79154E-01
 -1     26983 1.40029E+01 1.98434E+01 2.50000E+00
 -1     26984 1.49337E+01 1.95352E+01 2.50000E+00
 -1     26985 9.54839E-01 7.88638E+00 2.90722E+00
 -1     26986 1.61068E+00 1.45141E+01 2.84930E+00
 -1     26987 1.18076E+00 1.49801E+01 3.12803E+00
 -1     26988 8.24312E-01 1.41550E+01 2.40131E+00
 -1     26989 7.86366E-01 1.50246E+01 2.10502E+00
 -1     26990 4.33431E+00 9.30382E+00 1.18802E+00
 -1     26991 5.90295E+00 8.95809E+00 8.93721E-01
 -1     26992 2.55274E+00 2.07021E+01 3.69188E+00
 -1     26993 1.73223E+00 1.33005E+01 4.07279E+00
 -1     26994 8.24312E-01 1.28222E+01 4.07279E+00
 -1     26995 9.35546E-01 1.17975E+01 3.94963E+00
 -1     26996 1.75986E+00 1.26198E+01 3.02242E+00
 -1     26997 3.38945E+00 1.06939E+01 1.18802E+00
 -1     26998 3.46442E+00 1.19952E+01 2.50000E+00
 -1     26999 7.86081E+00 7.87316E+00 4.81167E-01
 -1     27000 4.62358E+01 5.60933E+01 1.44409E+00
 -1     27001 4.53186E+01 5.67978E+01 1.44409E+00
 -1     27002 7.58527E+00 8.90090E+00 2.26914E+00
 -1     27003 4.73370E+01 5.45984E+01 1.57760E+00
 -1     27004 9.54839E-01 6.87008E+00 2.92537E+00
 -1     27005 4.53054E+01 4.33880E+01 4.51488E+00
 -1     27006 4.47375E+01 4.29727E+01 4.01252E+00
 -1     27007 4.55010E+01 4.40429E+01 4.03092E+00
 -1     27008 5.92524E+00 7.38984E+00 4.20005E+00
 -1     27009 5.17756E+00 6.95746E+00 4.36158E+00
 -1     27010 3.82915E+01 4.98881E+01 2.50000E+00
 -1     27011 3.77617E+01 5.07235E+01 2.50000E+00
 -1     27012 2.20142E+01 2.11578E+01 4.37386E+00
 -1     27013 1.70493E+01 1.63554E+01 2.49541E+00
 -1     27014 3.54009E+01 4.18891E+01 2.50000E+00
 -1     27015 3.90603E+01 5.56431E+01 4.94529E-01
 -1     27016 3.87709E+01 5.50301E+01 6.97709E-01
 -1     27017 3.84251E+01 5.54077E+01 6.23673E-01
 -1     27018 3.90582E+01 5.61346E+01 1.11820E+00
 -1     27019 3.87688E+01 5.55217E+01 1.32138E+00
 -1     27020 8.47359E+00 8.29002E+00 5.29040E-01
 -1     27021 9.08878E+00 8.92576E+00 6.75038E-01
 -1     27022 1.64256E+01 1.79677E+01 3.76584E+00
 -1     27023 1.62286E+01 1.89367E+01 1.26584E+00
 -1     27024 1.53640E+01 1.75870E+01 2.50000E+00
 -1     27025 1.57801E+01 1.74210E+01 1.66763E+00
 -1     27026 8.63068E+00 1.25773E+01 2.50000E+00
 -1     27027 3.52260E+01 5.21046E+01 2.50000E+00
 -1     27028 3.49823E+01 5.12020E+01 2.50000E+00
 -1     27029 1.28359E+01 1.73849E+01 1.27348E+00
 -1     27030 1.51478E+01 1.85607E+01 2.50000E+00
 -1     27031 4.27060E+01 4.13383E+01 6.27781E-01
 -1     27032 4.24583E+01 4.08361E+01 2.04408E+00
 -1     27033 4.31043E+01 4.09418E+01 2.02999E+00
 -1     27034 4.33520E+01 4.14440E+01 6.13698E-01
 -1     27035 4.27852E+01 4.07328E+01 1.24148E+00
 -1     27036 1.71632E+01 1.86284E+01 1.26584E+00
 -1     27037 1.13449E+01 1.60972E+01 3.77348E+00
 -1     27038 1.61485E+01 1.78561E+01 8.28840E-01
 -1     27039 1.60144E+01 1.99112E+01 1.26584E+00
 -1     27040 3.37135E+01 4.77188E+01 3.82875E+00
 -1     27041 3.43144E+01 5.47740E+01 2.12939E+00
 -1     27042 3.31957E+01 5.47685E+01 1.41437E+00
 -1     27043 3.41097E+01 5.50732E+01 1.41008E+00
 -1     27044 2.95260E+01 4.92782E+01 2.50000E+00
 -1     27045 2.85984E+01 4.89744E+01 2.50000E+00
 -1     27046 2.93290E+01 4.82854E+01 2.50000E+00
 -1     27047 1.18382E+01 2.30791E+01 1.24170E+00
 -1     27048 9.32084E+00 1.32607E+01 2.50000E+00
 -1     27049 1.00921E+01 1.39092E+01 2.50000E+00
 -1     27050 4.50199E-01 6.05398E+00 3.58444E+00
 -1     27051 4.50199E-01 5.38528E+00 2.75973E+00
 -1     27052 1.40504E+00 6.21289E+00 3.17155E+00
 -1     27053 9.54839E-01 6.20139E+00 2.10065E+00
 -1     27054 4.50199E-01 5.69839E+00 4.41531E+00
 -1     27055 9.54839E-01 6.51450E+00 3.75624E+00
 -1     27056 8.25206E+00 3.85226E+01 1.27187E+00
 -1     27057 1.02520E+01 3.85967E+01 1.23837E+00
 -1     27058 3.48347E+01 4.93612E+01 1.32698E+00
 -1     27059 3.55664E+01 4.95442E+01 2.50000E+00
 -1     27060 3.46556E+01 4.82089E+01 1.32875E+00
 -1     27061 1.80387E+01 4.37414E+01 2.50000E+00
 -1     27062 1.89670E+01 4.40415E+01 2.50000E+00
 -1     27063 4.64557E+01 5.08569E+01 2.41201E+00
 -1     27064 4.53791E+01 5.02467E+01 3.36179E+00
 -1     27065 4.51729E+01 5.08747E+01 4.05022E+00
 -1     27066 4.52642E+01 4.96467E+01 4.22812E+00
 -1     27067 4.89761E+00 3.66476E+01 2.50000E+00
 -1     27068 1.62941E+00 1.82297E+01 4.26133E+00
 -1     27069 7.69643E-01 1.87511E+01 4.26133E+00
 -1     27070 1.67099E+00 1.74002E+01 3.71459E+00
 -1     27071 4.13125E+01 4.03515E+01 2.58186E+00
 -1     27072 4.20983E+01 4.18905E+01 1.41629E+00
 -1     27073 4.09935E+01 4.01426E+01 1.79335E+00
 -1     27074 4.17793E+01 4.16816E+01 6.27781E-01
 -1     27075 4.01986E+00 3.90740E+01 2.50000E+00
 -1     27076 4.82331E+00 3.85151E+01 2.50000E+00
 -1     27077 4.06098E+01 4.11678E+01 3.66557E+00
 -1     27078 4.10148E+01 3.91623E+01 1.16557E+00
 -1     27079 4.19633E+01 4.06578E+01 6.27781E-01
 -1     27080 1.16686E+01 2.40757E+01 1.24170E+00
 -1     27081 1.26809E+01 2.62377E+01 1.25958E+00
 -1     27082 4.73852E+01 5.92909E+01 4.51045E+00
 -1     27083 1.25630E+01 2.72359E+01 1.25958E+00
 -1     27084 1.34463E+01 2.68403E+01 1.25958E+00
 -1     27085 4.01784E+01 5.68735E+01 4.03145E+00
 -1     27086 4.01203E+01 5.57949E+01 4.03145E+00
 -1     27087 4.08245E+01 5.71994E+01 4.36350E+00
 -1     27088 4.03876E+01 5.65344E+01 3.39494E+00
 -1     27089 4.07664E+01 5.61207E+01 4.36350E+00
 -1     27090 4.22805E+01 5.49448E+01 2.50000E+00
 -1     27091 4.13865E+01 5.56984E+01 2.50000E+00
 -1     27092 4.21251E+01 5.38744E+01 2.50000E+00
 -1     27093 4.12311E+01 5.46280E+01 2.50000E+00
 -1     27094 1.17775E+01 2.66612E+01 1.25958E+00
 -1     27095 2.48706E+00 1.99993E+01 4.61249E-01
 -1     27096 2.50990E+00 2.02309E+01 1.65313E+00
 -1     27097 3.37466E+00 2.02076E+01 1.19188E+00
 -1     27098 2.48149E+00 1.90037E+01 4.61249E-01
 -1     27099 3.27955E+01 3.43808E+01 4.03065E+00
 -1     27100 3.18548E+01 3.46787E+01 4.03065E+00
 -1     27101 3.25800E+01 3.53625E+01 4.03065E+00
 -1     27102 1.70398E+01 4.89385E+01 2.67002E+00
 -1     27103 2.84994E+01 2.97202E+01 1.24346E+00
 -1     27104 2.77199E+01 2.88938E+01 2.50000E+00
 -1     27105 3.44188E-01 3.95849E+01 4.51291E+00
 -1     27106 3.44188E-01 3.85849E+01 4.51291E+00
 -1     27107 3.44188E-01 3.90871E+01 3.77505E+00
 -1     27108 2.36725E-01 2.78099E+01 6.34768E-01
 -1     27109 5.04250E-01 2.71737E+01 6.06330E-01
 -1     27110 3.38031E+01 4.78039E+01 1.32875E+00
 -1     27111 3.36994E+01 4.67823E+01 1.32875E+00
 -1     27112 1.05932E+00 4.10547E+01 2.37024E+00
 -1     27113 1.34090E+00 4.16350E+01 1.40743E+00
 -1     27114 7.47617E-01 4.16516E+01 1.85339E+00
 -1     27115 4.66038E-01 4.10713E+01 2.81621E+00
 -1     27116 5.93281E-01 4.14118E+01 1.22371E+00
 -1     27117 3.11048E+01 4.40261E+01 2.50000E+00
 -1     27118 4.11314E+01 5.68207E+01 2.71901E+00
 -1     27119 4.08641E+01 5.60811E+01 3.35551E+00
 -1     27120 4.71079E+01 5.82972E+01 1.77591E+00
 -1     27121 4.67540E+01 5.85330E+01 1.03137E+00
 -1     27122 4.76461E+01 5.84371E+01 3.69054E-01
 -1     27123 4.76461E+01 5.86385E+01 1.48264E+00
 -1     27124 4.50402E+01 5.27851E+01 2.50000E+00
 -1     27125 4.50702E+01 5.38526E+01 2.50000E+00
 -1     27126 6.21674E-01 3.17873E+01 2.37479E+00
 -1     27127 8.52013E-01 3.09343E+01 3.43423E+00
 -1     27128 2.76050E-01 3.12183E+01 2.97731E+00
 -1     27129 8.97725E-01 3.20871E+01 3.48365E+00
 -1     27130 1.12806E+00 3.12341E+01 4.54308E+00
 -1     27131 7.59203E-01 3.49521E+01 2.76822E+00
 -1     27132 2.92095E+01 3.03962E+01 3.74346E+00
 -1     27133 2.75006E+01 2.98604E+01 2.50000E+00
 -1     27134 3.05382E+01 3.98564E+01 2.50000E+00
 -1     27135 8.32697E-01 3.29281E+01 7.63310E-01
 -1     27136 1.04944E+00 3.28424E+01 2.02520E-01
 -1     27137 1.39291E+00 3.36806E+01 6.05810E-01
 -1     27138 4.73310E+01 4.94227E+01 1.76399E+00
 -1     27139 4.72161E+01 4.88226E+01 2.63031E+00
 -1     27140 4.46272E+01 4.44858E+01 2.50000E+00
 -1     27141 4.72206E+01 5.60281E+01 3.09431E+00
 -1     27142 3.54333E+01 5.30810E+01 2.50000E+00
 -1     27143 3.62282E+01 5.23242E+01 2.50000E+00
 -1     27144 1.10943E+01 2.24293E+01 1.24170E+00
 -1     27145 2.56952E+01 5.02345E+01 1.31395E+00
 -1     27146 2.66163E+01 5.05408E+01 1.31395E+00
 -1     27147 3.21235E+01 5.39858E+01 2.40196E+00
 -1     27148 3.19106E+01 5.41828E+01 1.35694E+00
 -1     27149 3.14269E+01 5.32995E+01 2.09453E+00
 -1     27150 3.24135E+01 5.35943E+01 2.15852E+00
 -1     27151 3.22006E+01 5.37914E+01 1.11350E+00
 -1     27152 3.04541E+01 5.29263E+01 2.03975E+00
 -1     27153 2.52876E+01 5.10026E+01 3.01337E+00
 -1     27154 2.58834E+01 5.12012E+01 3.81395E+00
 -1     27155 2.61906E+01 5.13036E+01 2.98626E+00
 -1     27156 4.72161E+01 4.81317E+01 3.41050E+00
 -1     27157 4.68395E+01 4.72082E+01 2.87360E+00
 -1     27158 4.73310E+01 5.04862E+01 2.17220E+00
 -1     27159 4.41807E+01 4.99871E+01 2.50000E+00
 -1     27160 4.53182E+01 5.39208E+01 4.22681E+00
 -1     27161 4.61889E+01 5.31862E+01 1.72681E+00
 -1     27162 4.65554E+01 5.40480E+01 2.52082E+00
 -1     27163 4.54368E+01 5.47144E+01 3.29400E+00
 -1     27164 4.63075E+01 5.39799E+01 7.94003E-01
 -1     27165 4.49939E+01 5.17832E+01 1.55022E+00
 -1     27166 4.51945E+01 5.19685E+01 4.05022E+00
 -1     27167 4.60952E+01 5.23015E+01 1.55022E+00
 -1     27168 1.71360E+01 4.34390E+01 2.50000E+00
 -1     27169 1.64024E+01 4.41028E+01 2.50000E+00
 -1     27170 9.67118E+00 4.55029E+01 3.57910E+00
 -1     27171 3.24475E+00 3.96248E+01 2.50000E+00
 -1     27172 1.26686E+00 2.95605E+01 4.56936E+00
 -1     27173 2.11982E+00 3.00432E+01 4.56936E+00
 -1     27174 1.26102E+00 3.05552E+01 4.56936E+00
 -1     27175 3.15848E+01 3.02353E+01 2.07887E+00
 -1     27176 3.10675E+01 3.04064E+01 1.75075E+00
 -1     27177 3.10205E+01 3.02469E+01 5.07296E-01
 -1     27178 3.17445E+01 3.09172E+01 5.07296E-01
 -1     27179 3.08853E+01 3.07669E+01 1.24346E+00
 -1     27180 4.52573E+01 5.05973E+01 1.55022E+00
 -1     27181 4.39173E+01 5.11730E+01 2.50000E+00
 -1     27182 4.33114E+01 4.93080E+01 2.50000E+00
 -1     27183 4.32887E+01 5.02857E+01 2.50000E+00
 -1     27184 4.23070E+01 4.98349E+01 2.50000E+00
 -1     27185 3.16868E+01 3.85298E+01 2.50000E+00
 -1     27186 3.26531E+01 3.81945E+01 2.50000E+00
 -1     27187 3.19175E+01 3.75305E+01 2.50000E+00
 -1     27188 1.00482E+01 4.20976E+01 2.50000E+00
 -1     27189 3.69039E+01 5.16586E+01 2.50000E+00
 -1     27190 3.71797E+01 5.25618E+01 2.50000E+00
 -1     27191 3.81869E+01 5.27767E+01 2.50000E+00
 -1     27192 3.79111E+01 5.18735E+01 2.50000E+00
 -1     27193 2.85835E+01 3.67425E+01 2.50000E+00
 -1     27194 2.78547E+01 3.60494E+01 2.50000E+00
 -1     27195 1.44514E+00 4.20619E+01 3.88873E-01
 -1     27196 1.59948E+00 4.23017E+01 1.01856E+00
 -1     27197 8.51859E-01 4.20785E+01 8.34835E-01
 -1     27198 2.45147E+01 3.87211E+01 1.29269E+00
 -1     27199 2.18844E+00 2.67979E+01 1.52818E+00
 -1     27200 2.19760E+00 2.77776E+01 4.02818E+00
 -1     27201 1.34030E+00 2.72954E+01 4.02818E+00
 -1     27202 2.85577E+00 6.50747E+00 3.75624E+00
 -1     27203 2.76050E-01 3.07590E+01 4.54308E+00
 -1     27204 2.76050E-01 3.17590E+01 4.54308E+00
 -1     27205 3.38920E+01 4.41764E+01 2.50000E+00
 -1     27206 3.43350E+01 4.30924E+01 2.50000E+00
 -1     27207 3.96915E+01 3.81979E+01 4.59062E+00
 -1     27208 4.04247E+01 3.88658E+01 4.59062E+00
 -1     27209 4.01921E+01 3.90433E+01 3.25619E+00
 -1     27210 4.30075E+00 2.64346E+01 2.50000E+00
 -1     27211 4.30927E+00 2.54268E+01 2.50000E+00
 -1     27212 2.20394E+00 4.05189E+01 3.88873E-01
 -1     27213 5.93281E-01 4.10662E+01 2.07076E+00
 -1     27214 4.51149E+01 5.49155E+01 2.50000E+00
 -1     27215 4.53204E+01 5.57649E+01 3.94409E+00
 -1     27216 1.18189E+00 3.35358E+01 2.04637E+00
 -1     27217 2.21909E+00 3.41491E+01 6.05810E-01
 -1     27218 2.35807E+00 2.43776E+01 6.99606E-01
 -1     27219 3.11969E+01 3.68289E+01 2.50000E+00
 -1     27220 3.21837E+01 3.26387E+01 1.22720E+00
 -1     27221 2.49393E+01 4.08371E+01 1.29269E+00
 -1     27222 1.15111E+00 3.43224E+00 2.50874E+00
 -1     27223 2.37746E+01 3.88932E+01 3.79269E+00
 -1     27224 2.34399E+01 3.86839E+01 1.29269E+00
 -1     27225 2.22105E+01 3.86784E+01 1.26416E+00
 -1     27226 7.28295E+00 7.91912E+00 2.56436E+00
 -1     27227 8.18755E+00 8.20990E+00 3.04605E+00
 -1     27228 6.58063E+00 8.09612E+00 2.59378E+00
 -1     27229 7.48523E+00 8.38691E+00 3.07547E+00
 -1     27230 1.38088E+00 3.38829E+01 2.97008E+00
 -1     27231 2.41808E+00 3.44962E+01 1.52952E+00
 -1     27232 4.41027E+01 4.77666E+01 1.19122E+00
 -1     27233 3.69516E+01 4.84034E+01 2.50000E+00
 -1     27234 3.55194E+01 4.77902E+01 1.32875E+00
 -1     27235 2.82656E+01 4.15427E+01 2.50000E+00
 -1     27236 3.60229E+01 3.61883E+01 7.89805E-01
 -1     27237 3.49154E+01 3.63781E+01 1.15185E+00
 -1     27238 3.54950E+01 3.72477E+01 2.50000E+00
 -1     27239 3.60284E+01 3.62057E+01 3.28981E+00
 -1     27240 3.01581E+01 3.00954E+01 3.74346E+00
 -1     27241 2.88098E+01 2.68204E+01 3.70956E+00
 -1     27242 2.76804E+01 2.72809E+01 3.35906E+00
 -1     27243 2.90665E+01 2.70558E+01 4.51171E+00
 -1     27244 2.77048E+01 2.68918E+01 3.84735E+00
 -1     27245 6.02476E+00 2.64011E+01 2.50000E+00
 -1     27246 6.86858E+00 2.68932E+01 2.50000E+00
 -1     27247 7.70096E+00 2.74120E+01 2.50000E+00
 -1     27248 8.54270E+00 2.79064E+01 2.50000E+00
 -1     27249 4.15021E+01 5.62836E+01 4.18637E+00
 -1     27250 4.17694E+01 5.70231E+01 3.54987E+00
 -1     27251 6.21674E-01 3.23280E+01 3.94056E+00
 -1     27252 1.98646E+00 5.87033E+00 3.75624E+00
 -1     27253 3.44188E-01 3.99536E+01 3.69480E+00
 -1     27254 4.99348E+00 4.35284E+01 3.33060E-01
 -1     27255 6.16177E+00 4.43590E+01 1.53175E+00
 -1     27256 5.89965E+00 4.46736E+01 2.01410E+00
 -1     27257 1.60472E+00 3.40210E+01 4.02952E+00
 -1     27258 6.09645E+00 3.85925E+01 3.77187E+00
 -1     27259 8.14731E-01 4.34898E+01 3.14570E+00
 -1     27260 8.14731E-01 4.34898E+01 2.31237E+00
 -1     27261 2.51781E+01 3.23762E+01 2.50000E+00
 -1     27262 1.45420E+00 4.37029E+01 3.35439E+00
 -1     27263 5.54348E-01 4.37235E+01 3.70650E+00
 -1     27264 1.98373E+01 4.55157E+01 3.81414E+00
 -1     27265 2.00347E+01 4.64705E+01 3.81414E+00
 -1     27266 2.44719E+01 5.16718E+01 4.80735E-01
 -1     27267 2.40097E+01 5.15177E+01 1.43302E+00
 -1     27268 2.50541E+01 5.18659E+01 1.33289E+00
 -1     27269 5.60218E-01 3.35589E+01 2.24004E+00
 -1     27270 1.93183E+01 4.71065E+01 1.31414E+00
 -1     27271 2.00531E+01 4.64428E+01 1.31414E+00
 -1     27272 6.07993E+00 1.15245E+01 2.50000E+00
 -1     27273 5.95779E+00 1.26349E+01 2.50000E+00
 -1     27274 1.34266E+01 4.71226E+01 4.53239E+00
 -1     27275 1.43433E+01 4.74214E+01 4.53239E+00
 -1     27276 1.36069E+01 4.80634E+01 4.53239E+00
 -1     27277 2.04295E+00 2.78332E+00 4.46682E-01
 -1     27278 1.31568E+00 2.11665E+00 4.46682E-01
 -1     27279 1.61750E+00 1.92320E+01 4.26133E+00
 -1     27280 3.92855E+01 3.65556E+01 2.96300E-01
 -1     27281 3.86030E+01 4.27198E+01 1.36003E+00
 -1     27282 3.65315E+01 3.51249E+01 2.73858E+00
 -1     27283 3.60037E+01 3.61843E+01 4.44878E+00
 -1     27284 3.54240E+01 3.53147E+01 3.10063E+00
 -1     27285 5.08478E+00 1.50057E+01 2.50000E+00
 -1     27286 1.32695E+01 1.91991E+01 2.50000E+00
 -1     27287 6.52003E-01 2.37254E+01 1.53297E+00
 -1     27288 1.55658E+01 4.79391E+01 2.95904E+00
 -1     27289 2.18219E+00 2.77978E+01 1.52818E+00
 -1     27290 1.48003E+01 1.45494E+01 6.90862E-01
 -1     27291 1.50423E+01 1.47712E+01 1.52405E+00
 -1     27292 1.40688E+01 1.41593E+01 4.71444E-01
 -1     27293 1.43107E+01 1.43811E+01 1.30463E+00
 -1     27294 2.20271E+01 2.22743E+01 8.38461E-01
 -1     27295 8.32697E-01 3.28239E+01 1.63423E+00
 -1     27296 2.44981E+01 5.07395E+01 2.26623E+00
 -1     27297 2.41232E+01 4.93830E+01 2.69684E+00
 -1     27298 2.44984E+01 5.07395E+01 3.15964E+00
 -1     27299 1.35811E+00 2.56668E+01 6.06330E-01
 -1     27300 1.50586E+00 2.48856E+01 6.99606E-01
 -1     27301 5.04250E-01 2.61737E+01 6.06330E-01
 -1     27302 3.66121E+01 5.07328E+01 2.50000E+00
 -1     27303 3.56927E+01 5.04959E+01 2.50000E+00
 -1     27304 3.59845E+01 5.14216E+01 2.50000E+00
 -1     27305 1.28868E+01 1.31007E+01 2.69434E+00
 -1     27306 1.28057E+01 1.45242E+01 2.09684E+00
 -1     27307 1.36505E+01 1.31738E+01 2.48946E+00
 -1     27308 2.68080E+01 2.66899E+01 1.83673E+00
 -1     27309 2.60473E+01 2.61913E+01 1.81357E+00
 -1     27310 2.75728E+01 3.34317E+01 2.50000E+00
 -1     27311 2.66349E+01 3.37213E+01 2.50000E+00
 -1     27312 4.70509E-01 3.03114E+01 4.96622E-01
 -1     27313 5.23789E-01 2.68396E+01 4.34365E+00
 -1     27314 1.00035E+00 2.66540E+01 3.37183E+00
 -1     27315 5.23789E-01 2.65024E+01 3.51493E+00
 -1     27316 4.76559E-01 2.74773E+01 3.19946E+00
 -1     27317 2.14464E+01 2.61526E+01 1.34022E+00
 -1     27318 2.10681E+01 2.74110E+01 2.50000E+00
 -1     27319 2.03500E+01 2.67362E+01 2.50000E+00
 -1     27320 4.18671E+01 5.69836E+01 2.54188E+00
 -1     27321 1.56392E+01 3.08206E+01 1.31011E+00
 -1     27322 1.55376E+01 2.91123E+01 2.50000E+00
 -1     27323 3.06785E+01 5.25471E+01 1.73131E+00
 -1     27324 3.16052E+01 5.40810E+01 2.19102E+00
 -1     27325 2.49603E+01 5.08935E+01 3.81395E+00
 -1     27326 2.71719E+01 4.89009E+01 1.31395E+00
 -1     27327 2.73544E+01 4.98749E+01 1.31395E+00
 -1     27328 5.56517E+00 6.29839E+00 6.56066E-01
 -1     27329 6.05650E+00 6.74878E+00 1.55233E+00
 -1     27330 1.32650E+01 2.75687E+01 3.75958E+00
 -1     27331 1.36158E+01 3.17952E+01 2.50000E+00
 -1     27332 1.35419E+01 3.08232E+01 2.50000E+00
 -1     27333 1.42424E+01 3.12737E+01 2.50000E+00
 -1     27334 1.51398E+01 3.18648E+01 3.81011E+00
 -1     27335 3.38836E+00 2.12080E+01 1.19188E+00
 -1     27336 2.54061E+00 2.07158E+01 1.19188E+00
 -1     27337 3.51319E+01 3.54045E+01 1.15185E+00
 -1     27338 3.41806E+01 3.57156E+01 1.15185E+00
 -1     27339 1.94142E+01 4.99144E+01 1.36704E+00
 -1     27340 2.00228E+01 5.01173E+01 5.30536E-01
 -1     27341 1.76358E+01 3.72952E+01 2.50000E+00
 -1     27342 3.39599E+01 3.66965E+01 1.15185E+00
 -1     27343 5.32851E+00 4.24483E+01 3.15121E+00
 -1     27344 6.80897E+00 4.49768E+01 2.04684E+00
 -1     27345 6.99707E+00 4.45626E+01 1.60273E+00
 -1     27346 1.70925E+01 3.89762E+01 2.50000E+00
 -1     27347 1.68668E+01 3.80418E+01 2.50000E+00
 -1     27348 1.77950E+01 3.82849E+01 2.50000E+00
 -1     27349 1.02199E+01 4.30337E+01 2.50000E+00
 -1     27350 2.17563E+01 4.03795E+01 3.76416E+00
 -1     27351 3.03719E+01 2.83761E+01 4.48956E+00
 -1     27352 2.47689E+01 2.34282E+01 3.69867E+00
 -1     27353 2.45625E+01 2.41528E+01 3.92191E+00
 -1     27354 2.50072E+01 2.38370E+01 4.39075E+00
 -1     27355 3.13570E+01 4.51774E+01 2.50000E+00
 -1     27356 3.04007E+01 4.49234E+01 2.50000E+00
 -1     27357 3.05984E+01 4.58909E+01 2.50000E+00
 -1     27358 2.38718E+01 2.65242E+01 2.50000E+00
 -1     27359 2.33034E+01 2.55651E+01 1.34022E+00
 -1     27360 2.50837E+01 2.68291E+01 3.84735E+00
 -1     27361 2.51068E+01 2.68120E+01 1.34735E+00
 -1     27362 2.97938E+01 2.77224E+01 4.51171E+00
 -1     27363 3.24101E+00 3.77106E+01 2.50000E+00
 -1     27364 4.02354E+00 3.81169E+01 2.50000E+00
 -1     27365 8.79516E-01 3.03915E+01 2.56598E+00
 -1     27366 4.09007E-01 3.05394E+01 3.00359E+00
 -1     27367 4.09007E-01 2.97181E+01 3.76519E+00
 -1     27368 4.70509E-01 2.99493E+01 2.19245E+00
 -1     27369 8.82566E+00 1.67836E+01 3.72794E+00
 -1     27370 8.62251E+00 1.77838E+01 3.72794E+00
 -1     27371 1.01854E+01 1.75307E+01 2.50000E+00
 -1     27372 3.73218E+01 5.40905E+01 1.75962E+00
 -1     27373 3.74485E+01 5.53880E+01 3.45715E+00
 -1     27374 3.70960E+01 5.58550E+01 3.35638E+00
 -1     27375 3.78868E+01 5.60445E+01 3.29428E+00
 -1     27376 3.64374E+01 5.56354E+01 2.56848E+00
 -1     27377 1.34188E+00 2.33867E+01 1.33001E+00
 -1     27378 4.02126E+01 5.44001E+01 2.50000E+00
 -1     27379 4.01407E+01 5.33060E+01 2.50000E+00
 -1     27380 4.85329E+00 3.75828E+01 2.50000E+00
 -1     27381 6.07464E+00 3.76862E+01 1.27187E+00
 -1     27382 6.04466E+00 3.86185E+01 1.27187E+00
 -1     27383 4.05352E+00 3.71846E+01 2.50000E+00
 -1     27384 2.61071E+01 3.21003E+01 2.50000E+00
 -1     27385 4.07281E+01 5.70568E+01 2.80168E+00
 -1     27386 4.66712E+01 5.78142E+01 2.79289E+00
 -1     27387 5.54348E-01 4.29868E+01 3.68431E+00
 -1     27388 6.80350E+00 1.32251E+01 2.50000E+00
 -1     27389 6.96948E+00 1.22011E+01 2.50000E+00
 -1     27390 2.99513E-01 1.29046E+01 5.46693E-01
 -1     27391 3.57586E-01 1.20533E+01 6.73913E-01
 -1     27392 2.96225E+01 5.21807E+01 1.65941E+00
 -1     27393 3.12993E+01 5.39790E+01 5.24752E-01
 -1     27394 9.34719E+00 2.84506E+01 2.50000E+00
 -1     27395 1.02067E+01 2.89230E+01 2.50000E+00
 -1     27396 4.51387E-01 1.77559E+01 1.19165E+00
 -1     27397 1.26261E+00 1.73455E+01 1.57298E+00
 -1     27398 6.93596E-01 1.85238E+01 1.30477E+00
 -1     27399 1.14498E+00 1.76158E+01 8.29897E-01
 -1     27400 1.92810E+01 3.44639E+01 2.50000E+00
 -1     27401 6.67579E+00 1.40598E+01 2.50000E+00
 -1     27402 7.47343E+00 1.39085E+01 2.50000E+00
 -1     27403 3.79786E+01 5.62054E+01 2.22043E+00
 -1     27404 3.89708E+01 5.65361E+01 1.85069E+00
 -1     27405 3.83311E+01 5.57384E+01 2.32119E+00
 -1     27406 2.76123E+01 3.70455E+01 2.50000E+00
 -1     27407 2.23632E+00 3.95659E+01 1.42397E+00
 -1     27408 6.25661E-01 3.94220E+01 2.31898E+00
 -1     27409 6.25661E-01 4.01132E+01 3.10586E+00
 -1     27410 5.83008E+00 1.34697E+01 2.50000E+00
 -1     27411 3.08873E+01 3.07634E+01 3.74346E+00
 -1     27412 3.14610E+01 3.19661E+01 3.72720E+00
 -1     27413 1.25546E+01 1.85288E+01 2.50000E+00
 -1     27414 8.50224E+00 3.58332E+01 2.50000E+00
 -1     27415 1.00952E+01 3.51987E+01 1.36431E+00
 -1     27416 2.97464E+01 3.54655E+01 2.50000E+00
 -1     27417 2.95098E+01 3.64599E+01 2.50000E+00
 -1     27418 3.03799E+01 5.10681E+01 3.70656E+00
 -1     27419 3.05760E+01 5.20489E+01 3.70656E+00
 -1     27420 9.10043E+00 1.88363E+01 2.50000E+00
 -1     27421 2.96489E+01 5.17545E+01 1.20656E+00
 -1     27422 2.94656E+01 5.07802E+01 1.20656E+00
 -1     27423 2.87276E+01 5.14461E+01 1.20656E+00
 -1     27424 1.28015E+01 1.74012E+01 3.77348E+00
 -1     27425 3.05146E+01 3.22714E+01 1.22720E+00
 -1     27426 9.38601E+00 4.62741E+01 2.91852E+00
 -1     27427 4.09007E-01 3.05742E+01 3.89947E+00
 -1     27428 6.85058E-01 3.08392E+01 4.11244E+00
 -1     27429 2.76050E-01 3.12531E+01 3.87319E+00
 -1     27430 7.84564E+00 4.53361E+01 4.67756E+00
 -1     27431 6.76507E+00 4.58422E+01 3.87436E+00
 -1     27432 8.14731E-01 4.22040E+01 2.31387E+00
 -1     27433 1.15082E+00 4.32244E+01 1.87192E+00
 -1     27434 1.18795E+00 4.30989E+01 3.92884E-01
 -1     27435 2.94878E+00 4.37413E+01 3.77215E-01
 -1     27436 7.59203E-01 3.45549E+01 4.02952E+00
 -1     27437 6.18839E-01 3.89083E+01 1.57807E+00
 -1     27438 2.22949E+00 3.90522E+01 6.83066E-01
 -1     27439 8.85339E-01 3.91515E+01 9.78622E-01
 -1     27440 1.95237E+01 1.97547E+01 2.67051E+00
 -1     27441 2.05498E+01 1.97330E+01 2.47844E+00
 -1     27442 2.05534E+01 2.08086E+01 2.91779E+00
 -1     27443 3.42010E+00 1.30063E+01 2.50000E+00
 -1     27444 1.29194E+01 1.25036E+01 2.48697E+00
 -1     27445 1.25627E+01 1.21428E+01 3.53459E+00
 -1     27446 4.25002E+00 2.16927E+01 1.19188E+00
 -1     27447 4.33505E+00 2.16188E+01 3.69188E+00
 -1     27448 7.96684E+00 4.64263E+01 4.83127E+00
 -1     27449 7.66953E+00 4.59144E+01 4.50884E+00
 -1     27450 7.08731E+00 4.59496E+01 4.67756E+00
 -1     27451 2.03812E+01 2.29533E+01 1.25117E+00
 -1     27452 2.24312E+01 2.24703E+01 2.71232E+00
 -1     27453 2.24611E+01 2.34694E+01 3.21408E+00
 -1     27454 2.12429E+01 2.33426E+01 2.59139E+00
 -1     27455 2.32362E+01 5.11697E+01 1.55883E+00
 -1     27456 2.36984E+01 5.13237E+01 6.06545E-01
 -1     27457 2.27753E+01 5.10160E+01 6.06545E-01
 -1     27458 2.23270E+01 2.12191E+01 4.80426E-01
 -1     27459 2.18422E+01 2.07746E+01 1.31380E+00
 -1     27460 2.15997E+01 2.05524E+01 4.80426E-01
 -1     27461 3.91570E+01 5.29950E+01 2.50000E+00
 -1     27462 1.27135E+01 4.78059E+01 1.13970E+00
 -1     27463 2.74687E+01 4.31218E+01 2.50000E+00
 -1     27464 2.73277E+01 4.20098E+01 2.50000E+00
 -1     27465 1.47731E+01 4.67875E+01 3.79567E+00
 -1     27466 1.55072E+01 4.61369E+01 3.79567E+00
 -1     27467 1.56927E+01 4.70918E+01 3.79567E+00
 -1     27468 1.43176E+01 2.64673E+01 3.75958E+00
 -1     27469 1.38564E+01 4.64886E+01 3.79567E+00
 -1     27470 2.54602E+01 2.44663E+01 1.40356E+00
 -1     27471 5.72591E+00 1.44978E+01 2.50000E+00
 -1     27472 1.90104E+01 4.97081E+01 4.25215E+00
 -1     27473 1.10174E+01 3.14088E+01 2.50000E+00
 -1     27474 1.19207E+01 3.18278E+01 2.50000E+00
 -1     27475 1.18980E+01 3.08873E+01 2.50000E+00
 -1     27476 2.02432E+01 4.74100E+01 1.31414E+00
 -1     27477 2.85198E+01 3.31384E+01 2.50000E+00
 -1     27478 3.14590E+01 3.19695E+01 1.22720E+00
 -1     27479 2.26539E+01 5.01837E+01 4.99513E-01
 -1     27480 2.20055E+01 4.96411E+01 1.88240E+00
 -1     27481 2.17299E+01 4.98783E+01 4.99513E-01
 -1     27482 3.45673E+01 3.49428E+01 4.42521E+00
 -1     27483 3.41942E+01 3.57204E+01 3.65185E+00
 -1     27484 3.35217E+01 3.50576E+01 4.03065E+00
 -1     27485 2.03623E+01 5.02304E+01 1.38269E+00
 -1     27486 2.07114E+01 4.98843E+01 1.03005E+00
 -1     27487 2.13358E+01 5.06494E+01 1.35167E+00
 -1     27488 2.09963E+01 5.05362E+01 4.99513E-01
 -1     27489 2.07086E+01 4.81400E+01 2.69703E+00
 -1     27490 4.20958E+00 2.06947E+01 1.19188E+00
 -1     27491 4.99658E+00 2.01760E+01 1.19188E+00
 -1     27492 2.50229E+00 1.64919E+01 2.50000E+00
 -1     27493 3.38511E+00 1.59802E+01 2.50000E+00
 -1     27494 3.33543E+00 1.69752E+01 2.50000E+00
 -1     27495 4.62359E+01 4.90417E+01 4.22812E+00
 -1     27496 3.46059E+01 5.50991E+01 1.16827E+00
 -1     27497 4.43281E+01 5.70639E+01 3.46764E+00
 -1     27498 4.33810E+01 5.69390E+01 4.18637E+00
 -1     27499 4.14720E+01 5.73430E+01 2.12575E+00
 -1     27500 4.21481E+01 5.72277E+01 1.49131E+00
 -1     27501 4.23910E+01 5.77896E+01 1.90603E+00
 -1     27502 1.72647E+01 3.99189E+01 2.50000E+00
 -1     27503 6.73158E+00 1.54984E+01 1.22794E+00
 -1     27504 7.52921E+00 1.53470E+01 1.22794E+00
 -1     27505 1.10729E+00 4.24343E+01 2.30554E-01
 -1     27506 2.55435E-01 4.20699E+01 2.30554E-01
 -1     27507 5.91528E-01 4.28045E+01 6.23438E-01
 -1     27508 1.55841E+01 2.46736E+01 2.50000E+00
 -1     27509 1.65064E+01 2.43867E+01 2.50000E+00
 -1     27510 9.33584E+00 9.26251E+00 3.87542E+00
 -1     27511 8.60857E+00 8.59584E+00 3.87542E+00
 -1     27512 4.62010E+01 4.57691E+01 4.03092E+00
 -1     27513 4.59928E+01 4.58912E+01 2.72213E+00
 -1     27514 4.53049E+01 4.51585E+01 4.03092E+00
 -1     27515 1.45973E+01 1.55217E+01 6.90862E-01
 -1     27516 1.38658E+01 1.51316E+01 4.71444E-01
 -1     27517 9.17540E-01 2.14488E+00 9.81926E-01
 -1     27518 1.05641E+00 1.36156E+00 5.35244E-01
 -1     27519 2.17877E+01 2.80745E+01 2.50000E+00
 -1     27520 2.36627E+01 2.74826E+01 2.50000E+00
 -1     27521 2.48555E+01 2.78025E+01 3.84735E+00
 -1     27522 4.09007E-01 3.00802E+01 4.56936E+00
 -1     27523 3.91747E+01 4.41585E+01 3.86003E+00
 -1     27524 3.78660E-01 4.22752E+01 3.58974E+00
 -1     27525 8.14731E-01 4.27531E+01 3.12351E+00
 -1     27526 3.31719E+01 5.05603E+01 2.50000E+00
 -1     27527 4.72161E+01 4.85144E+01 4.22812E+00
 -1     27528 3.50423E+00 4.49306E+01 2.57374E-01
 -1     27529 7.59203E-01 3.61513E+01 2.79890E+00
 -1     27530 7.59203E-01 3.55549E+01 4.02952E+00
 -1     27531 4.78870E-01 3.72015E+01 2.88440E+00
 -1     27532 4.78870E-01 3.66050E+01 4.11502E+00
 -1     27533 2.26413E+01 4.52680E+01 2.50000E+00
 -1     27534 2.28468E+01 4.62133E+01 2.50000E+00
 -1     27535 2.13705E+01 2.03109E+01 4.51693E+00
 -1     27536 1.21210E+01 1.67146E+01 1.27348E+00
 -1     27537 1.69239E+01 1.61429E+01 4.16763E+00
 -1     27538 1.61966E+01 1.54763E+01 4.16763E+00
 -1     27539 3.72818E+01 3.71096E+01 1.60100E+00
 -1     27540 3.69631E+01 3.85897E+01 2.50000E+00
 -1     27541 3.62325E+01 3.79165E+01 2.50000E+00
 -1     27542 3.93802E+01 4.70210E+01 2.50000E+00
 -1     27543 3.86329E+01 4.77037E+01 2.50000E+00
 -1     27544 2.46967E+01 4.68101E+01 2.50000E+00
 -1     27545 2.10319E+01 4.92221E+01 1.91342E+00
 -1     27546 3.35966E+01 3.78815E+01 2.50000E+00
 -1     27547 3.33881E+01 3.88676E+01 2.50000E+00
 -1     27548 3.75037E+01 4.42394E+01 3.86003E+00
 -1     27549 3.01889E+01 5.00768E+01 3.70656E+00
 -1     27550 3.10995E+01 5.03848E+01 3.70656E+00
 -1     27551 7.63942E+00 1.28845E+01 2.50000E+00
 -1     27552 4.13956E+01 4.27068E+01 2.50000E+00
 -1     27553 4.20746E+01 4.18614E+01 3.91629E+00
 -1     27554 3.16414E+01 3.56597E+01 4.03065E+00
 -1     27555 3.04720E+01 3.61556E+01 2.50000E+00
 -1     27556 3.06854E+01 3.51746E+01 2.50000E+00
 -1     27557 3.96706E+00 2.42931E+01 1.25624E+00
 -1     27558 4.21198E+00 4.41215E+01 3.33060E-01
 -1     27559 4.13489E+00 4.47389E+01 5.90434E-01
 -1     27560 7.22301E+00 4.42519E+01 1.19869E+00
 -1     27561 7.97251E+00 4.36217E+01 1.19869E+00
 -1     27562 1.53042E+01 4.28543E+01 2.50000E+00
 -1     27563 1.54784E+01 4.37996E+01 2.50000E+00
 -1     27564 8.44837E+00 1.35317E+01 2.50000E+00
 -1     27565 1.41364E+01 1.36192E+01 1.65655E+00
 -1     27566 1.34178E+01 1.42233E+01 1.29480E+00
 -1     27567 1.38945E+01 1.33974E+01 8.23360E-01
 -1     27568 1.12085E+01 1.70205E+01 1.27348E+00
 -1     27569 1.13951E+01 1.60441E+01 1.27348E+00
 -1     27570 4.38686E+01 4.69646E+01 3.69122E+00
 -1     27571 3.68264E+01 3.45758E+01 1.44752E+00
 -1     27572 3.71872E+01 3.49065E+01 7.89805E-01
 -1     27573 4.72184E+01 5.26272E+01 4.22681E+00
 -1     27574 4.72184E+01 5.36272E+01 4.22681E+00
 -1     27575 4.28400E-01 2.96070E+01 4.12045E+00
 -1     27576 5.77365E+00 4.00619E+01 1.35428E+00
 -1     27577 2.37094E+01 4.88592E+01 1.38289E+00
 -1     27578 2.47717E+01 4.99256E+01 1.31395E+00
 -1     27579 3.39393E+01 4.04846E+01 2.50000E+00
 -1     27580 2.07991E+01 4.46573E+01 2.50000E+00
 -1     27581 2.65546E+01 2.81507E+01 1.34735E+00
 -1     27582 2.58312E+01 2.74798E+01 1.34735E+00
 -1     27583 2.67674E+01 2.71873E+01 1.34735E+00
 -1     27584 3.21355E+01 3.65318E+01 2.50000E+00
 -1     27585 3.01531E+01 2.93434E+01 4.48956E+00
 -1     27586 2.87809E+01 4.99484E+01 2.50000E+00
 -1     27587 1.36687E+01 3.66470E+01 1.27513E+00
 -1     27588 2.81426E+01 4.25253E+01 2.50000E+00
 -1     27589 2.90805E+01 4.20581E+01 2.50000E+00
 -1     27590 2.91325E+01 4.72980E+01 2.50000E+00
 -1     27591 2.84045E+01 4.79962E+01 2.50000E+00
 -1     27592 9.61603E+00 1.59116E+01 2.50000E+00
 -1     27593 1.03720E+01 1.65543E+01 2.50000E+00
 -1     27594 1.72014E+01 3.46980E+01 2.50000E+00
 -1     27595 2.98837E+01 4.66186E+01 2.50000E+00
 -1     27596 8.22286E+00 8.06017E+00 1.34231E+00
 -1     27597 2.08891E+01 3.19388E+01 2.50000E+00
 -1     27598 2.24847E+01 3.98170E+01 3.76416E+00
 -1     27599 2.25978E+01 4.07482E+01 3.76416E+00
 -1     27600 3.11672E+01 4.88972E+01 2.50000E+00
 -1     27601 1.16595E+01 2.40225E+01 3.74170E+00
 -1     27602 2.42833E+01 5.07039E+01 4.80735E-01
 -1     27603 2.52068E+01 5.10128E+01 4.80735E-01
 -1     27604 2.54321E+01 5.05653E+01 1.79469E+00
 -1     27605 3.66889E+01 4.44845E+01 2.50000E+00
 -1     27606 3.22861E+01 5.02073E+01 2.50000E+00
 -1     27607 3.34434E+01 4.32856E+01 2.50000E+00
 -1     27608 1.50056E+00 2.38873E+01 6.99606E-01
 -1     27609 2.24056E+00 2.33200E+01 1.25624E+00
 -1     27610 7.50589E-01 2.26138E+01 3.64109E+00
 -1     27611 7.50589E-01 2.19475E+01 4.47435E+00
 -1     27612 6.92650E-01 2.36401E+01 3.64663E+00
 -1     27613 1.44324E+00 2.29212E+01 3.95425E+00
 -1     27614 6.92650E-01 2.29737E+01 4.47990E+00
 -1     27615 1.62155E+01 2.97859E+01 2.50000E+00
 -1     27616 7.36402E+00 1.93946E+01 2.50000E+00
 -1     27617 8.19364E+00 1.91776E+01 2.50000E+00
 -1     27618 8.07071E+00 2.00488E+01 2.50000E+00
 -1     27619 1.25688E+01 4.19859E+01 2.50000E+00
 -1     27620 1.18381E+01 4.26383E+01 2.50000E+00
 -1     27621 1.50157E+01 2.71345E+01 3.75958E+00
 -1     27622 3.10343E+01 3.39092E+01 3.72720E+00
 -1     27623 2.01199E+01 2.77032E+01 2.50000E+00
 -1     27624 1.96298E+01 2.60728E+01 2.50000E+00
 -1     27625 1.10753E+01 3.24113E+01 2.50000E+00
 -1     27626 1.19786E+01 3.28303E+01 2.50000E+00
 -1     27627 4.51387E-01 1.74239E+01 3.58391E-01
 -1     27628 4.51387E-01 1.64239E+01 3.58391E-01
 -1     27629 4.51387E-01 1.67554E+01 1.19105E+00
 -1     27630 2.49089E+01 3.70454E+01 2.50000E+00
 -1     27631 3.44029E+01 3.47386E+01 1.15185E+00
 -1     27632 2.31637E+01 4.36532E+01 2.50000E+00
 -1     27633 2.40907E+01 4.39540E+01 2.50000E+00
 -1     27634 6.93596E-01 1.81919E+01 4.71507E-01
 -1     27635 1.87671E+01 4.30823E+01 2.50000E+00
 -1     27636 7.71572E+00 1.81250E+01 3.72794E+00
 -1     27637 3.37375E+01 3.40768E+01 4.03065E+00
 -1     27638 2.22463E+01 4.33574E+01 2.50000E+00
 -1     27639 5.19104E+00 2.48929E+01 2.50000E+00
 -1     27640 1.83978E+01 3.26824E+01 3.81011E+00
 -1     27641 1.73718E+01 3.29081E+01 3.81011E+00
 -1     27642 1.77239E+01 3.19257E+01 3.81011E+00
 -1     27643 1.82616E+01 1.74667E+01 1.66212E+00
 -1     27644 1.17059E+01 2.76851E+01 1.25958E+00
 -1     27645 1.26557E+01 3.04066E+01 2.50000E+00
 -1     27646 2.01815E+01 3.71997E+01 2.50000E+00
 -1     27647 1.03181E+01 2.18341E+01 3.74170E+00
 -1     27648 1.97019E+01 4.33751E+01 2.50000E+00
 -1     27649 2.06051E+01 4.36924E+01 2.50000E+00
 -1     27650 1.98702E+01 4.43588E+01 2.50000E+00
 -1     27651 9.34464E+00 3.24086E+01 2.50000E+00
 -1     27652 2.47649E+01 3.79360E+01 2.50000E+00
 -1     27653 2.57788E+01 3.75202E+01 2.50000E+00
 -1     27654 2.66884E+01 4.37850E+01 2.50000E+00
 -1     27655 2.75800E+01 4.41297E+01 2.50000E+00
 -1     27656 2.15147E+01 3.93525E+01 1.26416E+00
 -1     27657 2.17672E+01 4.02900E+01 1.26416E+00
 -1     27658 1.06726E+01 4.04472E+01 1.23837E+00
 -1     27659 9.16890E+00 4.18349E+01 2.50000E+00
 -1     27660 1.86018E+01 4.21091E+01 2.50000E+00
 -1     27661 1.12687E+01 1.07934E+01 4.72099E-01
 -1     27662 1.13283E+01 1.13522E+01 1.24460E+00
 -1     27663 1.15122E+01 1.10167E+01 1.30008E+00
 -1     27664 3.82999E+01 3.66840E+01 4.57429E+00
 -1     27665 3.92424E+01 3.63669E+01 4.57429E+00
 -1     27666 3.84056E+01 3.61925E+01 3.67530E+00
 -1     27667 3.84359E+01 3.58256E+01 4.10100E+00
 -1     27668 2.65544E+01 3.01620E+01 2.50000E+00
 -1     27669 2.67696E+01 2.91970E+01 2.50000E+00
 -1     27670 2.69775E+01 2.62251E+01 3.84735E+00
 -1     27671 1.12877E+01 2.14598E+01 3.74170E+00
 -1     27672 2.82140E+01 4.70291E+01 2.50000E+00
 -1     27673 1.54689E+00 1.01946E+01 4.20925E+00
 -1     27674 1.53417E+00 9.19108E+00 4.20925E+00
 -1     27675 2.41527E+00 9.35997E+00 2.89728E+00
 -1     27676 3.67904E+01 5.57531E+01 4.25962E+00
 -1     27677 3.75812E+01 5.59426E+01 4.19752E+00
 -1     27678 1.35650E+00 9.45116E+00 2.48493E+00
 -1     27679 1.57913E+00 1.05067E+01 3.15888E+00
 -1     27680 7.23906E+00 4.56541E+01 1.41544E+00
 -1     27681 1.37193E+01 3.27958E+01 2.50000E+00
 -1     27682 1.25813E+01 3.37601E+01 1.36431E+00
 -1     27683 1.27523E+01 3.23192E+01 2.50000E+00
 -1     27684 1.19662E+01 3.39727E+01 3.86431E+00
 -1     27685 1.98700E+01 3.23277E+01 2.50000E+00
 -1     27686 1.78877E+01 3.18911E+01 1.31011E+00
 -1     27687 1.91961E+01 3.15710E+01 2.50000E+00
 -1     27688 6.89880E-01 2.29943E+01 6.30406E-01
 -1     27689 8.51041E+00 3.18723E+01 2.50000E+00
 -1     27690 2.37949E+00 2.19827E+01 6.30406E-01
 -1     27691 2.15850E+01 2.30872E+01 4.37386E+00
 -1     27692 2.18358E+01 2.42408E+01 3.84022E+00
 -1     27693 1.32734E+01 4.13146E+01 2.50000E+00
 -1     27694 2.70800E+01 4.57481E+01 2.50000E+00
 -1     27695 6.81802E+00 3.81057E+01 1.27187E+00
 -1     27696 2.94583E+01 5.07658E+01 3.70656E+00
 -1     27697 2.96498E+01 5.17452E+01 3.70656E+00
 -1     27698 3.52066E+01 5.41043E+01 1.09187E+00
 -1     27699 3.61430E+01 5.43962E+01 1.09187E+00
 -1     27700 3.52623E+01 5.45675E+01 1.43225E+00
 -1     27701 3.56573E+01 5.45486E+01 3.40377E-01
 -1     27702 3.14604E+01 3.95573E+01 2.50000E+00
 -1     27703 5.76243E+00 3.61860E+01 2.50000E+00
 -1     27704 5.81540E+00 3.52478E+01 2.50000E+00
 -1     27705 3.67591E+01 3.95653E+01 2.50000E+00
 -1     27706 1.62254E+01 4.54691E+01 1.29567E+00
 -1     27707 1.64218E+01 4.64290E+01 1.29567E+00
 -1     27708 1.77477E+01 3.38110E+01 2.50000E+00
 -1     27709 1.86558E+01 3.35371E+01 2.50000E+00
 -1     27710 1.76995E+01 3.28748E+01 1.31011E+00
 -1     27711 1.67915E+01 3.31487E+01 1.31011E+00
 -1     27712 4.65946E+01 4.81178E+01 4.73030E-01
 -1     27713 4.49646E+01 5.83814E+01 1.56044E+00
 -1     27714 8.69865E+00 4.29606E+01 1.19869E+00
 -1     27715 4.75957E+01 5.76833E+01 1.63399E+00
 -1     27716 4.06481E+01 3.88262E+01 2.11377E+00
 -1     27717 4.75870E+01 5.48960E+01 3.48607E+00
 -1     27718 4.68076E+01 5.58106E+01 3.27994E+00
 -1     27719 4.72206E+01 5.56490E+01 2.22769E+00
 -1     27720 1.50930E+01 2.71408E+01 1.25958E+00
 -1     27721 1.65661E+01 2.78895E+01 2.50000E+00
 -1     27722 4.56027E+01 5.85941E+01 2.34574E+00
 -1     27723 4.59454E+01 5.88411E+01 3.03222E+00
 -1     27724 4.65585E+01 5.84386E+01 2.01112E+00
 -1     27725 2.94013E+01 2.75181E+01 1.52602E+00
 -1     27726 1.16093E+01 1.50699E+01 1.27348E+00
 -1     27727 1.25329E+01 1.47658E+01 1.27348E+00
 -1     27728 2.67564E+01 2.71942E+01 3.84735E+00
 -1     27729 6.19935E+00 7.54009E+00 4.81167E-01
 -1     27730 6.05980E+00 8.52619E+00 4.81167E-01
 -1     27731 6.15325E+00 7.50488E+00 1.13723E+00
 -1     27732 5.35825E+00 7.29866E+00 6.56066E-01
 -1     27733 5.21870E+00 8.28476E+00 6.56066E-01
 -1     27734 2.93025E+01 3.74331E+01 2.50000E+00
 -1     27735 8.44753E+00 9.55607E+00 1.37542E+00
 -1     27736 8.40260E+00 4.42990E+01 5.67283E-01
 -1     27737 7.79999E+00 4.45482E+01 1.76597E+00
 -1     27738 7.43979E+00 7.48722E+00 2.15180E+00
 -1     27739 8.35783E+00 8.36600E+00 2.18868E+00
 -1     27740 7.45323E+00 8.07521E+00 1.70699E+00
 -1     27741 3.83837E-01 2.25985E+00 3.78970E+00
 -1     27742 8.98781E+00 4.09030E+01 2.50000E+00
 -1     27743 1.04915E+01 3.95153E+01 1.23837E+00
 -1     27744 8.49151E+00 3.94413E+01 1.27187E+00
 -1     27745 1.53481E+00 1.85823E+00 3.71463E+00
 -1     27746 9.69919E-01 1.34042E+00 3.28239E+00
 -1     27747 3.47929E+01 5.48472E+01 2.75611E+00
 -1     27748 3.49708E+01 5.42423E+01 2.39337E+00
 -1     27749 3.40157E+01 5.46744E+01 2.96574E+00
 -1     27750 3.54124E+01 5.50537E+01 3.59187E+00
 -1     27751 3.46353E+01 5.48809E+01 3.80150E+00
 -1     27752 5.89303E+00 6.47574E+00 2.75784E+00
 -1     27753 5.40170E+00 6.02536E+00 4.36158E+00
 -1     27754 3.65309E+01 4.54989E+01 2.50000E+00
 -1     27755 1.56235E+00 4.24272E+01 2.49759E+00
 -1     27756 1.98561E+01 2.02528E+01 8.11828E-01
 -1     27757 3.41010E+01 4.99509E+01 1.32698E+00
 -1     27758 3.39219E+01 4.87985E+01 1.32875E+00
 -1     27759 4.23945E+01 4.04627E+01 3.31941E+00
 -1     27760 4.09297E+01 3.97692E+01 3.06868E+00
 -1     27761 4.22775E+01 4.08542E+01 3.91629E+00
 -1     27762 4.18946E+01 4.02718E+01 4.40311E+00
 -1     27763 2.27819E+01 3.13289E+01 2.50000E+00
 -1     27764 4.44506E+01 4.14526E+01 3.17546E+00
 -1     27765 4.43373E+01 4.11497E+01 2.33079E+00
 -1     27766 4.50991E+01 4.18481E+01 2.28652E+00
 -1     27767 1.67325E+01 4.88361E+01 4.33714E+00
 -1     27768 4.46681E+01 4.26292E+01 6.67850E-01
 -1     27769 2.40339E+00 3.25967E+00 1.63460E+00
 -1     27770 1.84068E+00 3.65447E+00 1.26178E+00
 -1     27771 2.70683E+00 3.53782E+00 8.15100E-01
 -1     27772 1.36447E+00 2.27306E+00 4.60703E+00
 -1     27773 6.37200E-01 2.60639E+00 4.60703E+00
 -1     27774 1.02104E+00 2.40957E+00 4.13907E+00
 -1     27775 2.39698E+00 3.64013E+01 4.02952E+00
 -1     27776 2.04242E+01 3.39109E+01 2.50000E+00
 -1     27777 1.96818E+01 3.33115E+01 2.50000E+00
 -1     27778 1.05414E+01 1.01267E+01 4.72099E-01
 -1     27779 1.01756E+01 1.03858E+01 1.14714E+00
 -1     27780 1.08019E+01 1.03656E+01 1.27372E+00
 -1     27781 4.75339E+01 5.33057E+01 6.78033E-01
 -1     27782 4.68709E+01 5.37265E+01 1.47204E+00
 -1     27783 4.73370E+01 5.44208E+01 7.94003E-01
 -1     27784 4.75339E+01 5.34833E+01 1.46163E+00
 -1     27785 2.10349E+01 2.01776E+01 1.64520E+00
 -1     27786 2.07925E+01 1.99554E+01 8.11828E-01
 -1     27787 2.06548E+00 4.34078E+01 3.77215E-01
 -1     27788 2.06634E+01 2.08498E+01 4.80426E-01
 -1     27789 2.05740E+01 2.05078E+01 1.29225E+00
 -1     27790 2.05776E+01 2.15834E+01 1.73160E+00
 -1     27791 2.43621E+00 2.39261E+01 4.47990E+00
 -1     27792 2.08465E+00 2.37989E+01 3.23614E+00
 -1     27793 2.42687E+00 2.49326E+01 4.47990E+00
 -1     27794 4.76559E-01 2.81718E+01 2.37709E+00
 -1     27795 2.36725E-01 2.81673E+01 1.48368E+00
 -1     27796 3.59153E+01 5.34612E+01 1.09187E+00
 -1     27797 2.32270E+01 2.22696E+01 3.54063E+00
 -1     27798 2.59788E+01 2.46328E+01 4.66219E-01
 -1     27799 1.49245E+01 2.80890E+01 1.25958E+00
 -1     27800 1.63976E+01 2.88378E+01 2.50000E+00
 -1     27801 3.84061E+01 3.91129E+01 1.16557E+00
 -1     27802 2.50077E+01 2.48704E+01 1.03327E+00
 -1     27803 1.65302E+00 2.05074E+01 4.61249E-01
 -1     27804 1.64719E+00 1.95091E+01 4.61249E-01
 -1     27805 1.40592E+01 1.36295E+01 4.57088E+00
 -1     27806 1.32336E+01 1.54409E+01 3.77348E+00
 -1     27807 1.50103E+00 2.10056E+01 1.09165E+00
 -1     27808 6.89880E-01 2.09943E+01 6.30406E-01
 -1     27809 1.78644E+01 4.27799E+01 2.50000E+00
 -1     27810 4.25052E+00 7.33876E+00 4.36158E+00
 -1     27811 1.48339E+01 1.43102E+01 2.52295E+00
 -1     27812 1.36987E+01 1.46820E+01 2.10667E+00
 -1     27813 1.35031E+01 1.52152E+01 2.96324E+00
 -1     27814 4.64501E+01 4.44186E+01 2.06068E+00
 -1     27815 4.56882E+01 4.38200E+01 5.29760E-01
 -1     27816 1.20832E+01 1.17033E+01 4.37098E+00
 -1     27817 1.19605E+01 1.21332E+01 3.58009E+00
 -1     27818 1.19932E+01 1.15361E+01 3.37272E+00
 -1     27819 1.34091E+01 1.29525E+01 1.65585E+00
 -1     27820 3.50915E+01 5.49467E+01 1.91977E+00
 -1     27821 1.05889E+01 1.54544E+01 3.77348E+00
 -1     27822 1.06699E+01 1.53734E+01 1.27348E+00
 -1     27823 9.84121E+00 1.48929E+01 2.50000E+00
 -1     27824 1.53014E+01 4.51659E+01 1.29567E+00
 -1     27825 4.63792E+01 4.31151E+01 3.10401E+00
 -1     27826 4.58113E+01 4.26999E+01 2.60165E+00
 -1     27827 3.85043E+01 5.62503E+01 4.19752E+00
 -1     27828 3.92553E+01 5.65658E+01 4.03145E+00
 -1     27829 1.81250E+00 4.03851E+00 2.94315E+00
 -1     27830 3.15037E+00 4.08063E+00 2.98351E+00
 -1     27831 3.26906E+01 3.06117E+01 5.07296E-01
 -1     27832 3.42956E+01 3.24131E+01 5.32616E-01
 -1     27833 2.32578E+00 2.81094E+01 9.48501E-01
 -1     27834 4.57308E+01 4.23974E+01 1.46847E+00
 -1     27835 4.56850E+01 4.23554E+01 2.37630E+00
 -1     27836 4.28240E+01 3.99402E+01 4.40311E+00
 -1     27837 3.51968E+00 4.41917E+00 4.22961E+00
 -1     27838 2.79241E+00 3.75250E+00 4.22961E+00
 -1     27839 4.75339E+01 5.23057E+01 6.78033E-01
 -1     27840 9.35546E-01 1.07975E+01 3.94963E+00
 -1     27841 4.13742E+01 5.73826E+01 3.13373E+00
 -1     27842 1.36812E+00 3.56453E+01 5.80778E-01
 -1     27843 1.35514E+00 3.66274E+01 5.80778E-01
 -1     27844 2.99513E-01 1.42373E+01 1.37520E+00
 -1     27845 4.28743E+01 4.41819E+01 2.50000E+00
 -1     27846 4.38295E+01 4.38042E+01 2.50000E+00
 -1     27847 1.46983E+00 2.86150E+01 9.48501E-01
 -1     27848 1.47800E+00 2.86064E+01 3.44850E+00
 -1     27849 1.70754E+00 2.89693E+01 2.50000E+00
 -1     27850 2.56348E+00 2.84637E+01 2.50000E+00
 -1     27851 3.36092E-01 4.37346E+01 3.92884E-01
 -1     27852 2.66500E-01 4.06348E+01 1.13039E+00
 -1     27853 8.59781E-01 4.06182E+01 6.84429E-01
 -1     27854 2.13921E+00 2.95700E+01 4.12045E+00
 -1     27855 2.56050E+00 2.94520E+01 2.50000E+00
 -1     27856 3.78660E-01 4.13806E+01 3.62715E+00
 -1     27857 3.78660E-01 4.17261E+01 2.78009E+00
 -1     27858 8.44698E-01 4.13690E+01 3.92663E+00
 -1     27859 1.27296E+01 3.13786E+01 2.50000E+00
 -1     27860 8.71942E+00 4.30079E+01 3.69869E+00
 -1     27861 5.60218E-01 3.52077E+01 6.05810E-01
 -1     27862 6.43581E-01 1.02100E+01 3.26260E+00
 -1     27863 4.71079E+01 5.90958E+01 1.49565E+00
 -1     27864 3.32308E+00 3.48269E+01 2.50000E+00
 -1     27865 6.43581E-01 9.08107E+00 3.36024E+00
 -1     27866 6.43581E-01 9.70919E+00 4.20925E+00
 -1     27867 6.43581E-01 8.70919E+00 4.20925E+00
 -1     27868 4.21021E+01 4.34882E+01 2.50000E+00
 -1     27869 2.08328E+01 2.83865E+01 2.50000E+00
 -1     27870 4.30978E+01 4.30983E+01 2.50000E+00
 -1     27871 4.23256E+01 4.24046E+01 2.50000E+00
 -1     27872 3.23259E+01 5.45012E+01 3.70886E+00
 -1     27873 3.21476E+01 5.37197E+01 3.61236E+00
 -1     27874 6.09044E+00 1.60063E+01 1.22794E+00
 -1     27875 3.08352E+01 5.37843E+01 4.57929E+00
 -1     27876 3.15122E+01 5.37820E+01 4.06977E+00
 -1     27877 3.55009E-01 2.84254E+01 2.79837E-01
 -1     27878 1.20899E+00 2.79171E+01 2.79837E-01
 -1     27879 5.91734E-01 2.82353E+01 9.14605E-01
 -1     27880 3.20200E+01 5.43992E+01 4.54258E+00
 -1     27881 5.99641E+00 7.93678E+00 1.54979E+00
 -1     27882 5.89637E+00 7.42279E+00 2.35612E+00
 -1     27883 3.02184E+01 5.35787E+01 3.74601E+00
 -1     27884 3.22299E+01 5.31371E+01 1.56977E+00
 -1     27885 3.20170E+01 5.33341E+01 5.24752E-01
 -1     27886 2.18055E+01 3.16782E+01 2.50000E+00
 -1     27887 2.99121E+01 5.34766E+01 4.57929E+00
 -1     27888 3.26438E+00 3.67499E+01 2.50000E+00
 -1     27889 2.01470E+01 4.06765E+01 3.76416E+00
 -1     27890 3.56219E+01 5.47213E+01 1.50113E+00
 -1     27891 3.60169E+01 5.47025E+01 4.09253E-01
 -1     27892 3.59903E+01 5.49761E+01 1.38437E+00
 -1     27893 3.63854E+01 5.49573E+01 2.92493E-01
 -1     27894 3.06478E+00 3.86594E+00 2.06901E+00
 -1     27895 3.57123E+01 5.51536E+01 2.74539E+00
 -1     27896 1.51110E+01 1.71608E+01 6.90862E-01
 -1     27897 4.12703E+01 3.93966E+01 2.86202E+00
 -1     27898 4.14632E+01 3.95734E+01 2.01320E+00
 -1     27899 4.31269E-01 1.66822E+01 2.57541E+00
 -1     27900 8.11226E-01 1.72531E+01 2.04726E+00
 -1     27901 3.80869E+01 3.76726E+01 4.57429E+00
 -1     27902 3.90293E+01 3.73504E+01 4.57429E+00
 -1     27903 3.49610E+01 5.03130E+01 1.32698E+00
 -1     27904 3.22859E+01 5.42738E+01 5.88750E-01
 -1     27905 1.52023E+00 2.06985E+01 3.73568E+00
 -1     27906 1.60458E+00 2.14299E+01 4.47435E+00
 -1     27907 1.62364E+00 2.02335E+01 4.26133E+00
 -1     27908 7.69643E-01 1.97511E+01 4.26133E+00
 -1     27909 7.50589E-01 2.09475E+01 4.47435E+00
 -1     27910 4.62763E+01 4.47097E+01 4.03092E+00
 -1     27911 1.38361E+01 1.46102E+01 4.57088E+00
 -1     27912 1.41056E+01 1.43845E+01 3.76064E+00
 -1     27913 1.43688E+01 1.50691E+01 4.18976E+00
 -1     27914 4.69240E+01 5.47601E+01 2.62986E+00
 -1     27915 4.66383E+01 5.49902E+01 4.33585E+00
 -1     27916 4.63883E+01 5.50718E+01 3.29400E+00
 -1     27917 4.62720E+01 5.61223E+01 3.94409E+00
 -1     27918 1.74626E+01 4.81873E+01 4.33714E+00
 -1     27919 4.51390E+01 4.23622E+01 1.42549E+00
 -1     27920 4.28705E+01 4.25843E+01 1.41629E+00
 -1     27921 4.30046E+01 4.15592E+01 3.91629E+00
 -1     27922 3.62394E+01 3.52147E+01 7.89805E-01
 -1     27923 1.53213E+01 1.61882E+01 6.90862E-01
 -1     27924 1.62548E+01 1.58827E+01 6.90862E-01
 -1     27925 1.55275E+01 1.52161E+01 6.90862E-01
 -1     27926 1.76491E+01 2.31190E+01 2.50000E+00
 -1     27927 2.42060E+01 2.40907E+01 3.00772E+00
 -1     27928 8.25518E-01 2.97367E+01 7.76459E-01
 -1     27929 1.20470E+00 2.89143E+01 2.79837E-01
 -1     27930 1.05051E+01 2.01718E+01 2.50000E+00
 -1     27931 3.40733E+01 3.33886E+01 5.32616E-01
 -1     27932 3.57256E+01 3.36520E+01 4.42521E+00
 -1     27933 1.55611E+01 1.49768E+01 2.52301E+00
 -1     27934 6.83750E+00 8.17821E+00 1.37489E+00
 -1     27935 6.95945E+00 8.18096E+00 4.81167E-01
 -1     27936 9.15219E-01 1.23213E+00 1.78560E+00
 -1     27937 6.99535E-01 1.42144E+01 8.50016E-01
 -1     27938 2.99513E-01 1.39046E+01 5.46693E-01
 -1     27939 6.73747E+00 7.66423E+00 2.18122E+00
 -1     27940 4.52882E+01 5.28533E+01 4.22681E+00
 -1     27941 4.62551E+01 5.32469E+01 4.22681E+00
 -1     27942 1.14963E+01 4.60891E+01 1.07910E+00
 -1     27943 1.22745E+01 4.72030E+01 1.55345E+00
 -1     27944 1.19582E+01 4.67352E+01 4.10293E-01
 -1     27945 1.53192E+01 1.47550E+01 4.18976E+00
 -1     27946 1.06490E+01 4.68804E+01 4.49142E+00
 -1     27947 9.72594E+00 4.65727E+01 4.49142E+00
 -1     27948 4.70509E-01 2.96687E+01 1.34553E+00
 -1     27949 9.27603E+00 4.64227E+01 3.83083E+00
 -1     27950 9.38509E+00 4.62298E+01 4.32269E+00
 -1     27951 9.56120E+00 4.56515E+01 4.49142E+00
 -1     27952 2.80694E+01 2.72260E+01 2.29648E+00
 -1     27953 4.23362E+01 5.09872E+01 2.50000E+00
 -1     27954 3.38421E+01 3.18232E+01 3.58517E+00
 -1     27955 3.32524E+01 3.60254E+01 3.65185E+00
 -1     27956 3.25434E+01 3.25922E+01 3.14822E+00
 -1     27957 4.00819E+01 3.94915E+01 1.16557E+00
 -1     27958 3.99697E+01 3.70336E+01 4.57429E+00
 -1     27959 1.24996E+01 1.26228E+01 1.59587E+00
 -1     27960 1.21429E+01 1.22620E+01 2.64349E+00
 -1     27961 3.98743E+01 3.75812E+01 4.16491E+00
 -1     27962 4.03675E+01 3.76386E+01 3.78535E+00
 -1     27963 2.96860E+01 4.56511E+01 2.50000E+00
 -1     27964 1.69333E+01 4.24808E+01 2.50000E+00
 -1     27965 1.66882E+00 3.96222E+00 4.60703E+00
 -1     27966 1.08740E+00 4.30479E+00 4.02234E+00
 -1     27967 1.48182E+00 5.05422E+00 4.41531E+00
 -1     27968 6.37200E-01 3.60639E+00 4.60703E+00
 -1     27969 4.50199E-01 4.69839E+00 4.41531E+00
 -1     27970 1.61997E+01 4.31446E+01 2.50000E+00
 -1     27971 2.25756E+00 2.33051E+01 3.75624E+00
 -1     27972 7.60713E+00 8.16317E+00 1.01021E+00
 -1     27973 9.86104E+00 9.93167E+00 3.90040E+00
 -1     27974 9.50672E+00 9.60688E+00 2.95300E+00
 -1     27975 3.45096E+01 5.27812E+01 2.50000E+00
 -1     27976 3.44888E+01 5.38620E+01 3.80150E+00
 -1     27977 4.29280E+01 4.02670E+01 2.26393E+00
 -1     27978 2.73471E+01 4.98606E+01 3.81395E+00
 -1     27979 8.92774E+00 9.88599E+00 6.75038E-01
 -1     27980 3.65779E+01 5.59224E+01 2.92493E-01
 -1     27981 3.67405E+01 5.56515E+01 7.48185E-01
 -1     27982 2.94733E+01 4.46732E+01 2.50000E+00
 -1     27983 1.07806E+01 1.45894E+01 2.50000E+00
 -1     27984 5.05168E+00 3.38242E+01 2.50000E+00
 -1     27985 3.43202E+01 3.22615E+01 4.42102E+00
 -1     27986 3.35929E+01 3.15948E+01 4.42102E+00
 -1     27987 1.25228E+00 3.91875E+00 1.70650E+00
 -1     27988 4.84081E-01 4.12349E+00 1.29365E+00
 -1     27989 1.07248E+00 3.85921E+00 8.48934E-01
 -1     27990 2.85780E+01 2.67634E+01 1.42787E+00
 -1     27991 6.29244E+00 6.96506E+00 6.56066E-01
 -1     27992 1.09771E+00 3.78359E+01 2.29808E+00
 -1     27993 1.29547E+00 3.80154E+01 4.11502E+00
 -1     27994 4.72206E+01 5.64714E+01 3.94409E+00
 -1     27995 8.23057E-01 3.81899E+01 3.62792E+00
 -1     27996 3.44188E-01 3.81813E+01 3.28229E+00
 -1     27997 4.68395E+01 4.63098E+01 2.82850E+00
 -1     27998 3.39738E+00 3.09276E+01 2.50000E+00
 -1     27999 3.38394E+00 3.19158E+01 2.50000E+00
 -1     28000 9.37514E+00 3.44060E+01 2.50000E+00
 -1     28001 1.60254E+01 4.21993E+01 2.50000E+00
 -1     28002 8.07963E-01 1.31482E+01 1.65003E+00
 -1     28003 4.72206E+01 5.76728E+01 2.55767E+00
 -1     28004 4.62423E+01 5.22067E+01 4.22681E+00
 -1     28005 8.53915E+00 3.95225E+01 3.77187E+00
 -1     28006 2.36948E+00 4.77500E+00 4.22961E+00
 -1     28007 1.78806E+00 5.11756E+00 3.64492E+00
 -1     28008 1.01914E+01 3.50345E+01 3.86431E+00
 -1     28009 3.58161E+01 3.98897E+01 2.50000E+00
 -1     28010 2.10326E+01 4.09691E+01 1.26416E+00
 -1     28011 7.69643E-01 2.04170E+01 3.42795E+00
 -1     28012 1.41885E+01 4.82572E+01 3.68103E+00
 -1     28013 2.53949E+01 5.19795E+01 4.80735E-01
 -1     28014 2.93277E+01 5.26134E+01 3.86144E+00
 -1     28015 2.89540E+01 5.29830E+01 4.28215E+00
 -1     28016 2.80310E+01 5.26753E+01 4.28215E+00
 -1     28017 2.74151E+01 5.24700E+01 3.45446E+00
 -1     28018 2.71079E+01 5.23676E+01 4.28215E+00
 -1     28019 2.54980E+01 4.92666E+01 3.81395E+00
 -1     28020 4.84081E-01 5.09611E+00 1.24667E+00
 -1     28021 4.27643E+01 5.79141E+01 6.35794E-01
 -1     28022 4.18453E+01 5.74675E+01 8.55511E-01
 -1     28023 2.59507E+01 5.21046E+01 1.36406E+00
 -1     28024 2.58402E+01 5.15823E+01 9.92640E-01
 -1     28025 2.62915E+01 5.22182E+01 5.11905E-01
 -1     28026 2.45679E+01 2.57744E+01 4.39075E+00
 -1     28027 1.09170E+00 4.01017E+01 3.40534E+00
 -1     28028 2.29270E+00 5.93367E+00 2.98585E+00
 -1     28029 1.93318E+01 4.14420E+01 2.50000E+00
 -1     28030 4.42264E+01 5.66725E+01 2.50000E+00
 -1     28031 4.53491E+01 5.68174E+01 3.94409E+00
 -1     28032 4.78870E-01 3.76050E+01 4.11502E+00
 -1     28033 2.80318E+01 5.06923E+01 2.52051E+00
 -1     28034 2.55426E+01 5.10876E+01 2.16610E+00
 -1     28035 2.64899E+01 5.14034E+01 2.15059E+00
 -1     28036 3.83992E+01 4.67080E+01 2.50000E+00
 -1     28037 4.72967E+01 4.41182E+01 5.29760E-01
 -1     28038 4.66954E+01 4.50008E+01 1.14638E+00
 -1     28039 4.73987E+01 4.48826E+01 6.16622E-01
 -1     28040 4.72967E+01 4.41182E+01 1.36309E+00
 -1     28041 1.33786E+00 5.10606E+00 2.57402E+00
 -1     28042 4.32550E+01 4.01637E+01 1.46133E+00
 -1     28043 2.68980E+01 5.24204E+01 1.34855E+00
 -1     28044 1.83886E+00 1.12830E+01 3.94963E+00
 -1     28045 6.89880E-01 2.19943E+01 6.30406E-01
 -1     28046 4.65521E+01 4.51830E+01 2.14754E+00
 -1     28047 4.56782E+01 4.56259E+01 6.16622E-01
 -1     28048 4.54329E+01 4.50437E+01 1.53092E+00
 -1     28049 4.55762E+01 4.48615E+01 5.29760E-01
 -1     28050 2.87631E+01 5.20063E+01 4.28215E+00
 -1     28051 2.78388E+01 5.17030E+01 4.28215E+00
 -1     28052 4.41999E+01 4.67058E+01 1.19122E+00
 -1     28053 3.71093E+01 5.42598E+01 2.92493E-01
 -1     28054 1.21440E+01 4.76856E+01 4.10293E-01
 -1     28055 1.12209E+01 4.73779E+01 4.10293E-01
 -1     28056 3.59824E+01 5.52437E+01 1.90073E+00
 -1     28057 1.48025E+00 1.75008E+00 1.35474E+00
 -1     28058 1.63587E+01 1.68835E+01 8.28840E-01
 -1     28059 3.37194E-01 7.31918E-01 2.21398E+00
 -1     28060 9.23275E-01 1.26916E+00 2.63101E+00
 -1     28061 4.75339E+01 5.16774E+01 1.98844E+00
 -1     28062 4.75339E+01 5.27944E+01 2.16425E+00
 -1     28063 4.66586E+01 5.20481E+01 2.22825E+00
 -1     28064 4.71247E+01 5.22312E+01 3.03644E+00
 -1     28065 3.85251E+01 4.56667E+01 2.50000E+00
 -1     28066 3.85184E+01 4.46907E+01 3.86003E+00
 -1     28067 1.29996E+01 4.70129E+01 4.79154E-01
 -1     28068 1.24064E+01 4.73411E+01 8.89447E-01
 -1     28069 8.32697E-01 3.19321E+01 9.34229E-01
 -1     28070 6.21674E-01 3.26792E+01 3.07479E+00
 -1     28071 2.76050E-01 3.21102E+01 3.67731E+00
 -1     28072 1.67676E+01 4.15250E+01 2.50000E+00
 -1     28073 6.20145E-01 2.84834E+01 1.79741E+00
 -1     28074 3.68669E+01 5.36988E+01 1.09187E+00
 -1     28075 1.63761E+00 1.74265E+01 1.21459E+00
 -1     28076 1.51998E+00 1.76967E+01 4.71507E-01
 -1     28077 1.27777E+00 1.69288E+01 3.58391E-01
 -1     28078 3.59401E-01 1.52078E+01 1.39515E+00
 -1     28079 3.59401E-01 1.58751E+01 5.66634E-01
 -1     28080 7.59423E-01 1.51849E+01 8.69957E-01
 -1     28081 6.92650E-01 2.39737E+01 4.47990E+00
 -1     28082 5.34046E+00 4.40530E+01 4.29693E+00
 -1     28083 4.06319E+01 3.78810E+01 4.59062E+00
 -1     28084 4.09926E+01 3.82117E+01 3.93291E+00
 -1     28085 1.04855E+00 2.87330E+01 2.56895E+00
 -1     28086 4.73987E+01 4.58826E+01 6.16622E-01
 -1     28087 1.14577E+00 1.55670E+01 1.84314E+00
 -1     28088 1.18639E+00 1.50017E+01 1.57983E+00
 -1     28089 3.58673E+01 5.54454E+01 4.25962E+00
 -1     28090 3.61672E+01 5.55453E+01 3.41314E+00
 -1     28091 3.62028E+01 5.48068E+01 2.85150E+00
 -1     28092 2.86410E+00 6.54156E+00 1.25624E+00
 -1     28093 2.72551E+00 7.56999E+00 1.25624E+00
 -1     28094 1.59842E+00 8.22368E+00 2.96549E+00
 -1     28095 1.23775E+00 1.61158E+01 1.63490E+00
 -1     28096 2.42889E+00 1.57052E+01 1.27650E+00
 -1     28097 2.09391E+00 1.64372E+01 3.58391E-01
 -1     28098 8.10788E-01 1.62990E+01 9.25024E-01
 -1     28099 2.00192E+00 1.58884E+01 5.66634E-01
 -1     28100 7.64031E+00 3.24197E+01 2.50000E+00
 -1     28101 8.50962E+00 3.28707E+01 2.50000E+00
 -1     28102 4.75216E+01 4.66860E+01 4.73030E-01
 -1     28103 1.74557E+01 2.40781E+01 2.50000E+00
 -1     28104 4.67523E+01 5.29329E+01 2.40484E+00
 -1     28105 4.65043E+01 5.28647E+01 6.78033E-01
 -1     28106 7.86366E-01 1.60233E+01 2.10917E+00
 -1     28107 3.59401E-01 1.62065E+01 1.39930E+00
 -1     28108 1.21764E+00 1.60427E+01 3.01925E+00
 -1     28109 7.86366E-01 1.53496E+01 2.94029E+00
 -1     28110 4.31269E-01 1.60085E+01 3.40652E+00
 -1     28111 4.68649E+01 5.14202E+01 1.53982E+00
 -1     28112 4.73310E+01 5.11145E+01 8.61790E-01
 -1     28113 4.47392E+01 4.34443E+01 2.50000E+00
 -1     28114 1.31672E+01 1.27307E+01 8.23360E-01
 -1     28115 1.09860E+01 3.04657E+01 2.50000E+00
 -1     28116 4.33505E+01 5.69195E+01 1.68637E+00
 -1     28117 2.62666E+00 1.37854E+01 4.07279E+00
 -1     28118 1.70954E+00 1.42998E+01 4.07279E+00
 -1     28119 2.46586E+01 5.02172E+01 1.92049E+00
 -1     28120 2.28613E+01 4.98131E+01 1.98943E+00
 -1     28121 7.58916E+00 3.53149E+01 2.50000E+00
 -1     28122 6.14077E+00 3.76573E+01 3.77187E+00
 -1     28123 3.55009E-01 2.94254E+01 2.79837E-01
 -1     28124 2.85716E+01 5.10270E+01 4.28215E+00
 -1     28125 2.41702E+01 5.09955E+01 1.08728E+00
 -1     28126 8.37408E-01 2.96871E+01 3.68981E+00
 -1     28127 2.10432E+00 3.00601E+01 2.06936E+00
 -1     28128 1.20456E+01 3.63277E+01 1.36431E+00
 -1     28129 3.44745E+00 6.87319E+00 3.11781E+00
 -1     28130 2.59014E+00 4.62365E+00 2.54471E+00
 -1     28131 1.25228E+00 4.89137E+00 1.65952E+00
 -1     28132 1.74456E+01 4.92487E+01 4.55655E+00
 -1     28133 1.83687E+01 4.95564E+01 4.55655E+00
 -1     28134 1.88797E+01 1.94325E+01 4.35868E+00
 -1     28135 1.78844E+01 1.92919E+01 3.76584E+00
 -1     28136 3.80813E+01 3.53737E+01 5.14543E-01
 -1     28137 3.74503E+01 3.56136E+01 1.30435E+00
 -1     28138 3.74521E+01 3.51493E+01 1.59516E+00
 -1     28139 4.75870E+01 5.53393E+01 4.33585E+00
 -1     28140 4.75870E+01 5.43393E+01 4.33585E+00
 -1     28141 4.39355E+00 6.35166E+00 4.36158E+00
 -1     28142 1.08588E+00 1.45965E+01 1.82320E+00
 -1     28143 2.39346E+00 1.47229E+01 1.27650E+00
 -1     28144 3.58768E+00 5.92793E+00 2.52908E+00
 -1     28145 1.29104E+00 1.68294E+01 4.24274E+00
 -1     28146 1.28114E+01 3.57089E+01 1.36431E+00
 -1     28147 5.23789E-01 2.61774E+01 2.67930E+00
 -1     28148 6.52003E-01 2.57303E+01 1.53525E+00
 -1     28149 3.74925E+01 3.61348E+01 1.60100E+00
 -1     28150 3.78652E+01 3.63496E+01 5.14543E-01
 -1     28151 4.65135E+01 4.62784E+01 6.16622E-01
 -1     28152 2.40672E+01 2.54911E+01 5.67054E-01
 -1     28153 2.60415E+01 2.65191E+01 1.34735E+00
 -1     28154 1.17842E+01 2.66141E+01 3.75958E+00
 -1     28155 1.43528E+01 2.64977E+01 1.25958E+00
 -1     28156 2.19194E+01 5.08439E+01 4.99513E-01
 -1     28157 9.69849E-01 3.93295E+01 3.43688E+00
 -1     28158 3.65443E+01 3.64407E+01 1.60100E+00
 -1     28159 3.70777E+01 3.53988E+01 2.39081E+00
 -1     28160 3.68007E+01 3.45534E+01 3.50061E+00
 -1     28161 2.30488E+00 4.39865E+01 3.09780E+00
 -1     28162 2.04407E+00 4.34523E+01 3.53696E+00
 -1     28163 2.83369E+01 5.27773E+01 3.44966E+00
 -1     28164 1.30591E+01 4.74886E+01 4.20405E+00
 -1     28165 1.23753E+01 4.77329E+01 4.67166E+00
 -1     28166 1.31441E+01 4.79091E+01 3.58584E+00
 -1     28167 4.03862E+01 5.01811E+01 2.50000E+00
 -1     28168 4.13410E+01 5.06256E+01 2.50000E+00
 -1     28169 4.07666E+01 5.13823E+01 2.50000E+00
 -1     28170 1.59759E+00 1.66135E+01 2.49110E+00
 -1     28171 2.45375E+00 1.69349E+01 1.21459E+00
 -1     28172 3.44188E-01 3.92623E+01 2.90791E+00
 -1     28173 4.17618E+01 5.17439E+01 2.50000E+00
 -1     28174 4.08438E+01 5.25066E+01 2.50000E+00
 -1     28175 4.20772E+01 5.27712E+01 2.50000E+00
 -1     28176 4.29647E+01 5.18745E+01 2.50000E+00
 -1     28177 4.62653E+01 5.89477E+01 2.18550E+00
 -1     28178 2.52791E+01 2.57960E+01 1.91441E+00
 -1     28179 4.47301E+01 5.76253E+01 2.91014E+00
 -1     28180 2.48353E+01 2.58864E+01 4.66219E-01
 -1     28181 3.77086E+01 3.51590E+01 4.10100E+00
 -1     28182 4.09223E+01 5.71598E+01 8.55511E-01
 -1     28183 2.02331E+01 4.74258E+01 3.81414E+00
 -1     28184 4.13591E+01 3.85477E+01 4.59062E+00
 -1     28185 4.21312E+00 1.74384E+01 2.50000E+00
 -1     28186 4.17302E+01 3.89376E+01 3.74540E+00
 -1     28187 4.06483E+01 3.88263E+01 3.00785E+00
 -1     28188 4.12740E+01 3.91545E+01 3.99374E+00
 -1     28189 8.35928E+00 3.86268E+01 3.77187E+00
 -1     28190 4.31269E-01 1.63508E+01 4.24274E+00
 -1     28191 3.51381E+01 5.32885E+01 1.30150E+00
 -1     28192 9.75155E-01 2.85514E+01 1.22834E+00
 -1     28193 2.06064E+00 2.84087E+01 2.79837E-01
 -1     28194 1.85281E+01 3.46391E+01 2.50000E+00
 -1     28195 3.97070E+00 4.83261E+00 3.00245E+00
 -1     28196 3.83048E+00 5.77786E+00 3.59118E+00
 -1     28197 4.67443E+00 5.35869E+00 4.36158E+00
 -1     28198 1.17141E+00 1.53880E+01 5.66634E-01
 -1     28199 1.59838E+00 1.52049E+01 1.27650E+00
 -1     28200 3.68241E+01 4.92325E+01 2.50000E+00
 -1     28201 3.63027E+01 4.99546E+01 2.50000E+00
 -1     28202 3.60878E+01 4.88221E+01 2.50000E+00
 -1     28203 3.36324E+00 1.79543E+01 2.50000E+00
 -1     28204 6.92650E-01 2.46399E+01 3.64723E+00
 -1     28205 3.37122E+01 5.45732E+01 3.80150E+00
 -1     28206 1.85479E+01 3.75511E+01 2.50000E+00
 -1     28207 7.86366E-01 1.56919E+01 3.77650E+00
 -1     28208 1.64613E+00 1.61705E+01 3.77650E+00
 -1     28209 6.01949E+00 4.18181E+01 1.35428E+00
 -1     28210 3.70530E+01 3.53773E+01 3.54978E+00
 -1     28211 3.69472E+01 3.58688E+01 4.44878E+00
 -1     28212 1.24450E+00 3.89755E+01 2.10704E+00
 -1     28213 2.25976E+00 3.95480E+01 3.92397E+00
 -1     28214 2.58356E+01 2.94855E+01 2.50000E+00
 -1     28215 3.84074E+01 4.86913E+01 2.50000E+00
 -1     28216 3.76634E+01 4.91754E+01 2.50000E+00
 -1     28217 3.88512E+00 4.61792E+00 2.08794E+00
 -1     28218 3.43410E+00 4.20448E+00 8.15100E-01
 -1     28219 1.15733E+01 1.16553E+01 2.48162E+00
 -1     28220 2.09175E+00 2.93973E+00 4.60703E+00
 -1     28221 4.20967E+01 3.92735E+01 4.40311E+00
 -1     28222 6.37200E-01 3.06306E+00 3.86470E+00
 -1     28223 2.60302E+01 2.65276E+01 3.84735E+00
 -1     28224 4.04216E+01 5.54167E+01 2.50000E+00
 -1     28225 2.09205E+01 2.45312E+01 1.34022E+00
 -1     28226 3.64352E+01 3.42184E+01 4.44878E+00
 -1     28227 3.71625E+01 3.48850E+01 4.44878E+00
 -1     28228 1.13511E+01 2.14131E+01 1.24170E+00
 -1     28229 1.46560E+01 2.50060E+01 2.50000E+00
 -1     28230 3.30104E+01 3.18173E+01 3.78480E+00
 -1     28231 1.02955E+01 2.59438E+01 2.50000E+00
 -1     28232 2.20167E+01 2.18648E+01 1.31889E+00
 -1     28233 2.13917E+01 2.15142E+01 4.80426E-01
 -1     28234 4.62698E+01 5.42782E+01 4.22681E+00
 -1     28235 4.73310E+01 5.01145E+01 8.61790E-01
 -1     28236 3.74523E+01 4.99453E+01 2.50000E+00
 -1     28237 2.29240E+01 4.15359E+01 1.26416E+00
 -1     28238 2.97212E+01 5.24999E+01 4.57929E+00
 -1     28239 1.29122E+00 3.10282E+00 4.60703E+00
 -1     28240 3.22602E+01 5.30986E+01 4.06977E+00
 -1     28241 4.11592E+01 5.35339E+01 2.50000E+00
 -1     28242 1.76586E+01 4.72988E+01 5.65810E-01
 -1     28243 2.63287E+01 5.08040E+01 1.82585E+00
 -1     28244 1.92386E+01 3.67252E+01 2.50000E+00
 -1     28245 2.77144E+01 5.25698E+01 2.61879E+00
 -1     28246 2.86011E+01 5.23086E+01 2.04320E+00
 -1     28247 6.43581E-01 9.35757E+00 2.51278E+00
 -1     28248 2.82071E+01 5.20292E+01 4.52851E-01
 -1     28249 2.91284E+01 5.23377E+01 4.52851E-01
 -1     28250 3.29431E+01 5.47069E+01 4.54258E+00
 -1     28251 3.32466E+01 5.48081E+01 3.70683E+00
 -1     28252 4.26705E+01 5.68449E+01 6.35794E-01
 -1     28253 4.23895E+01 5.66008E+01 1.68637E+00
 -1     28254 1.06957E+00 3.93413E+01 2.95557E-01
 -1     28255 1.42191E+00 3.86516E+01 6.83066E-01
 -1     28256 2.66500E-01 3.89206E+01 2.95557E-01
 -1     28257 2.66500E-01 3.99206E+01 2.95557E-01
 -1     28258 3.23880E+00 5.41214E+00 4.22961E+00
 -1     28259 1.53175E+00 2.14905E+01 6.30406E-01
 -1     28260 5.23789E-01 2.55057E+01 3.51098E+00
 -1     28261 2.47680E+01 4.99295E+01 3.81395E+00
 -1     28262 2.25968E+01 4.75822E+01 1.38289E+00
 -1     28263 1.90975E+01 4.89076E+01 4.55655E+00
 -1     28264 1.97391E+01 4.90594E+01 4.25215E+00
 -1     28265 1.89176E+01 4.91107E+01 3.80870E+00
 -1     28266 2.71451E+01 5.09534E+01 3.09610E+00
 -1     28267 6.05194E+00 2.53814E+01 2.50000E+00
 -1     28268 1.17572E+01 1.13198E+01 2.53709E+00
 -1     28269 1.12628E+00 4.19493E+01 2.96381E+00
 -1     28270 4.01544E+01 5.69542E+01 4.94529E-01
 -1     28271 4.07867E+01 5.61167E+01 8.55511E-01
 -1     28272 2.84399E+01 5.17093E+01 1.71846E+00
 -1     28273 2.11225E+01 4.89176E+01 3.88289E+00
 -1     28274 1.95091E+01 4.80716E+01 1.31414E+00
 -1     28275 3.30345E+01 3.70241E+01 3.65185E+00
 -1     28276 1.69274E+01 4.79557E+01 5.65810E-01
 -1     28277 2.11264E+01 4.89104E+01 1.38289E+00
 -1     28278 1.08371E+00 4.03178E+01 2.95557E-01
 -1     28279 5.23789E-01 2.48396E+01 4.34365E+00
 -1     28280 1.21644E+00 2.48133E+01 3.82355E+00
 -1     28281 1.39247E+00 2.53186E+01 4.34365E+00
 -1     28282 1.56134E+00 2.44528E+01 4.47990E+00
 -1     28283 2.08501E+00 4.33217E+01 4.55793E+00
 -1     28284 5.16387E+00 2.59127E+01 2.50000E+00
 -1     28285 1.48554E+01 2.40606E+01 2.50000E+00
 -1     28286 3.34967E+00 1.49978E+01 2.50000E+00
 -1     28287 4.16826E+00 1.54933E+01 2.50000E+00
 -1     28288 1.21950E+01 4.67921E+01 4.67166E+00
 -1     28289 1.47205E+01 4.71850E+01 3.32806E+00
 -1     28290 3.93473E+01 5.02249E+01 2.50000E+00
 -1     28291 3.69711E+01 3.58823E+01 7.89805E-01
 -1     28292 4.65350E+01 5.17975E+01 6.78033E-01
 -1     28293 4.63321E+01 5.06062E+01 8.61790E-01
 -1     28294 9.37121E+00 3.34408E+01 2.50000E+00
 -1     28295 4.61259E+01 5.12342E+01 1.55022E+00
 -1     28296 1.50475E+00 1.92031E+01 9.32755E-01
 -1     28297 2.54732E+00 3.04550E+01 2.50000E+00
 -1     28298 4.65647E+01 4.52510E+01 6.16622E-01
 -1     28299 1.14522E+01 4.74252E+01 4.67166E+00
 -1     28300 4.64627E+01 4.44866E+01 5.29760E-01
 -1     28301 1.09218E+00 3.16394E+01 1.93719E+00
 -1     28302 2.15237E+00 3.12795E+01 4.96622E-01
 -1     28303 1.32252E+00 3.07864E+01 2.99662E+00
 -1     28304 2.35205E+01 4.78881E+01 1.38289E+00
 -1     28305 4.61487E+01 5.13220E+01 4.05022E+00
 -1     28306 4.63432E+01 5.23697E+01 3.27703E+00
 -1     28307 3.17220E+01 4.33493E+01 2.50000E+00
 -1     28308 1.02781E+01 1.00160E+01 2.32398E+00
 -1     28309 1.21203E+00 1.48227E+01 3.03323E-01
 -1     28310 1.12797E+01 4.64932E+01 4.67166E+00
 -1     28311 2.23803E+01 5.09976E+01 1.45180E+00
 -1     28312 1.20247E+01 4.35940E+01 2.50000E+00
 -1     28313 1.30321E+00 3.17842E+01 4.96622E-01
 -1     28314 6.92246E+00 3.80663E+01 3.77187E+00
 -1     28315 3.47831E+01 3.39620E+01 4.42521E+00
 -1     28316 3.49983E+01 3.29854E+01 4.42521E+00
 -1     28317 2.32749E+01 2.39606E+01 3.37139E+00
 -1     28318 2.47896E+01 2.48048E+01 4.39075E+00
 -1     28319 3.66800E+01 5.46964E+01 4.25962E+00
 -1     28320 3.73441E+01 5.35884E+01 2.50000E+00
 -1     28321 2.96887E+00 4.36552E+01 4.55793E+00
 -1     28322 1.94658E+01 3.05980E+01 2.50000E+00
 -1     28323 1.35824E+00 2.66654E+01 6.06330E-01
 -1     28324 1.17525E+01 1.41183E+01 3.77348E+00
 -1     28325 1.25228E+00 4.58153E+00 2.50434E+00
 -1     28326 2.37704E+01 4.65191E+01 2.50000E+00
 -1     28327 4.50199E-01 5.07544E+00 3.60455E+00
 -1     28328 3.49268E+01 5.52061E+01 3.40377E-01
 -1     28329 3.51362E+01 5.48737E+01 7.49630E-01
 -1     28330 1.61614E+00 2.24274E+01 4.47435E+00
 -1     28331 4.16137E+00 4.87115E+00 8.15100E-01
 -1     28332 3.89754E+01 3.61221E+01 3.72839E+00
 -1     28333 3.55100E+01 3.46328E+01 4.42521E+00
 -1     28334 1.06148E+01 1.24883E+01 7.72506E-01
 -1     28335 1.14464E+01 1.22169E+01 3.27251E+00
 -1     28336 1.12641E+01 1.20880E+01 4.20911E+00
 -1     28337 1.22268E+01 1.28644E+01 7.72506E-01
 -1     28338 1.29706E+01 1.37030E+01 8.23360E-01
 -1     28339 4.37763E+01 4.06416E+01 2.27664E+00
 -1     28340 4.67035E+01 5.90637E+01 3.65835E+00
 -1     28341 1.20618E+01 1.36856E+01 2.04598E+00
 -1     28342 2.82539E+01 4.35332E+01 2.50000E+00
 -1     28343 3.41050E+01 3.32381E+01 4.42102E+00
 -1     28344 3.94391E-01 1.52882E+01 4.35153E+00
 -1     28345 2.52995E+01 4.83050E+01 3.81395E+00
 -1     28346 3.51368E+01 3.54104E+01 3.65185E+00
 -1     28347 1.79936E+01 3.09527E+01 3.81011E+00
 -1     28348 3.57972E+01 3.45371E+01 3.87399E+00
 -1     28349 1.18336E+01 1.26947E+01 4.37098E+00
 -1     28350 1.02206E+01 1.07251E+01 1.87250E+00
 -1     28351 9.69507E+00 1.08932E+01 1.40040E+00
 -1     28352 1.03754E+01 1.10882E+01 4.72099E-01
 -1     28353 1.81758E+01 4.85998E+01 4.55655E+00
 -1     28354 3.13244E+01 5.28014E+01 4.06977E+00
 -1     28355 3.26673E+01 4.28089E+01 2.50000E+00
 -1     28356 2.40368E+00 4.17047E+01 1.01856E+00
 -1     28357 3.12476E+01 2.91881E+01 4.59547E-01
 -1     28358 8.17211E-01 4.07659E+01 1.68189E+00
 -1     28359 1.41049E+00 4.10948E+01 3.88873E-01
 -1     28360 7.84301E+00 4.53214E+01 2.14537E+00
 -1     28361 2.79194E+01 5.22924E+01 9.64755E-01
 -1     28362 4.66364E+01 4.70818E+01 4.73030E-01
 -1     28363 2.24935E+00 4.14648E+01 3.88873E-01
 -1     28364 4.56534E+00 6.65878E+00 6.56066E-01
 -1     28365 3.61092E+00 7.14622E+00 1.91230E+00
 -1     28366 3.90836E+00 5.83621E+00 1.47117E+00
 -1     28367 3.16154E+00 5.23154E+00 8.15100E-01
 -1     28368 4.11623E+01 3.95917E+01 4.40311E+00
 -1     28369 2.42755E+01 2.45311E+01 5.67054E-01
 -1     28370 2.50436E+01 2.49264E+01 4.66219E-01
 -1     28371 1.18194E+01 1.40953E+01 1.27348E+00
 -1     28372 3.82044E+01 5.44409E+01 6.23673E-01
 -1     28373 4.62400E+01 5.00939E+01 4.22812E+00
 -1     28374 1.26340E+00 1.59369E+01 3.58391E-01
 -1     28375 6.93596E-01 1.91919E+01 4.71507E-01
 -1     28376 7.59203E-01 3.39060E+01 3.16375E+00
 -1     28377 6.21674E-01 3.33280E+01 3.94056E+00
 -1     28378 3.92313E+01 5.66465E+01 4.94529E-01
 -1     28379 4.42674E+00 7.68722E+00 6.56066E-01
 -1     28380 2.42171E+01 3.26746E+01 2.50000E+00
 -1     28381 2.04653E+01 3.81220E+01 2.50000E+00
 -1     28382 5.93281E-01 4.16976E+01 3.88873E-01
 -1     28383 5.93281E-01 4.06976E+01 3.88873E-01
 -1     28384 2.72145E+01 5.25259E+01 5.11905E-01
 -1     28385 2.70245E+01 5.15578E+01 5.11905E-01
 -1     28386 4.62855E+01 5.71474E+01 3.94409E+00
 -1     28387 4.55493E+01 4.22607E+01 6.67850E-01
 -1     28388 4.51449E+01 4.18901E+01 1.37868E+00
 -1     28389 2.00711E+00 1.43407E+01 3.03323E-01
 -1     28390 1.62330E+00 3.81608E+00 4.46682E-01
 -1     28391 4.63522E+01 5.50427E+01 7.94003E-01
 -1     28392 2.44207E+00 1.28653E+01 1.57279E+00
 -1     28393 1.20799E+00 1.38255E+01 3.03323E-01
 -1     28394 2.61033E+01 5.12515E+01 5.11905E-01
 -1     28395 3.76316E+01 5.49785E+01 4.25962E+00
 -1     28396 6.24621E+00 4.43607E+01 4.29693E+00
 -1     28397 9.65009E+00 1.05539E+01 6.75038E-01
 -1     28398 1.25792E+01 1.33548E+01 4.37098E+00
 -1     28399 1.15133E+01 1.21939E+01 7.72506E-01
 -1     28400 1.10859E+01 1.17619E+01 4.72099E-01
 -1     28401 4.40058E+01 4.22669E+01 4.01252E+00
 -1     28402 1.80951E+01 1.84090E+01 4.46019E+00
 -1     28403 1.42442E+00 3.76700E+01 6.83066E-01
 -1     28404 4.76559E-01 2.84524E+01 3.22400E+00
 -1     28405 5.23789E-01 2.58396E+01 4.34365E+00
 -1     28406 2.65309E+01 2.60921E+01 4.89379E-01
 -1     28407 1.55821E+00 2.34537E+01 4.47990E+00
 -1     28408 1.24325E+00 2.94856E+00 4.46682E-01
 -1     28409 1.31006E+01 1.39477E+01 4.57088E+00
 -1     28410 1.91280E+01 1.95891E+01 8.11828E-01
 -1     28411 2.55435E-01 4.17841E+01 1.06539E+00
 -1     28412 1.54971E+00 4.37780E+01 7.70099E-01
 -1     28413 3.73300E+01 5.52266E+01 2.92493E-01
 -1     28414 4.60807E+01 4.40548E+01 4.51488E+00
 -1     28415 2.25409E+01 5.04753E+01 1.10606E+00
 -1     28416 2.11565E+01 2.12754E+01 4.51693E+00
 -1     28417 2.04294E+01 2.06088E+01 4.51693E+00
 -1     28418 2.40649E+01 2.39501E+01 4.53117E+00
 -1     28419 3.24692E+01 3.15864E+01 5.07296E-01
 -1     28420 3.12109E+01 2.97997E+01 9.66843E-01
 -1     28421 3.00452E+01 5.26511E+01 4.52851E-01
 -1     28422 2.55144E+01 2.54729E+01 4.39075E+00
 -1     28423 4.73507E+01 4.95029E+01 5.84806E-01
 -1     28424 2.08059E+01 4.95726E+01 4.99513E-01
 -1     28425 4.17515E+01 5.63983E+01 8.55511E-01
 -1     28426 1.52963E+00 1.86898E+01 4.71507E-01
 -1     28427 1.52629E+01 4.77257E+01 4.53239E+00
 -1     28428 3.83421E+01 3.68647E+01 2.96300E-01
 -1     28429 1.31449E+01 1.44649E+01 4.71444E-01
 -1     28430 5.94434E+00 4.46425E+01 4.04039E-01
 -1     28431 3.33469E+01 3.27211E+01 5.32616E-01
 -1     28432 1.27962E+00 1.47658E+01 4.35153E+00
 -1     28433 3.29137E-01 1.49079E+00 1.65781E+00
 -1     28434 6.66331E-01 1.42681E+00 1.91589E+00
 -1     28435 3.30036E+01 5.36289E+01 5.88750E-01
 -1     28436 1.85136E+01 1.88395E+01 4.87001E-01
 -1     28437 1.37878E+00 3.46647E+01 6.05810E-01
 -1     28438 2.57701E+01 2.55934E+01 4.66219E-01
 -1     28439 3.37194E-01 1.52782E+00 2.50321E+00
 -1     28440 1.96083E+01 2.00972E+01 4.35868E+00
 -1     28441 1.31375E+00 3.07957E+01 4.96622E-01
 -1     28442 6.93560E+00 4.50400E+01 4.67756E+00
 -1     28443 6.62605E+00 8.09002E+00 4.20005E+00
 -1     28444 4.24434E+01 5.66075E+01 4.18637E+00
 -1     28445 3.78356E+01 5.58326E+01 1.07937E+00
 -1     28446 3.78377E+01 5.53410E+01 4.55692E-01
 -1     28447 3.11012E+01 5.30175E+01 5.24752E-01
 -1     28448 4.66109E+01 5.61038E+01 5.20405E-01
 -1     28449 5.10905E+00 4.44389E+01 3.33060E-01
 -1     28450 1.65424E+01 4.78831E+01 4.33714E+00
 -1     28451 2.18003E+01 2.21223E+01 4.37386E+00
 -1     28452 1.98323E+01 4.91537E+01 5.30536E-01
 -1     28453 2.35098E+01 5.03558E+01 6.06545E-01
 -1     28454 1.53843E+00 2.24892E+01 6.30406E-01
 -1     28455 4.67689E+01 5.91156E+01 2.99669E+00
 -1     28456 3.06474E+01 5.28037E+01 4.57929E+00
 -1     28457 3.33774E+01 3.25665E+01 4.42102E+00
 -1     28458 3.62196E+01 3.51991E+01 4.44878E+00
 -1     28459 8.48716E-01 4.17675E+01 6.19427E-01
 -3
    3C                          4285                                     1
 -1      5206    6    0    1
 -2     21309     21301     20932     21321     24928     25060     25059     24971     24970     25061
 -1      5207    6    0    1
 -2     20654     21518     21653     21556     25064     25063     25062     25065     25067     25066
 -1      5208    6    0    1
 -2     21201     21167     20830     21180     24565     25069     25068     24567     24512     25070
 -1      5209    6    0    1
 -2     21201     21544     20830     20835     25072     25071     25068     25073     25074     23421
 -1      5210    6    0    1
 -2     21045     21005     21116     21536     24058     24291     24290     25075     25077     25076
 -1      5211    6    0    1
 -2     21268     20884     21205     21236     25079     25078     24779     24800     25080     24681
 -1      5212    6    0    1
 -2     20756     21524     20698     20730     25082     25081     23140     23141     25083     23084
 -1      5213    6    0    1
 -2     20793     21087     21147     21166     25085     24392     25084     25086     24452     24498
 -1      5214    6    0    1
 -2     20793     20781     21527     21123     23252     25088     25087     25089     25091     25090
 -1      5215    6    0    1
 -2     20489     21416     20490     21551     22196     22195     21825     25092     25094     25093
 -1      5216    6    0    1
 -2     21523     21073     21161     21128     25096     24434     25095     25097     24341     24435
 -1      5217    6    0    1
 -2     21328     21335     21313     21549     25023     25022     24994     25098     25100     25099
 -1      5218    6    0    1
 -2     20852     20820     21119     21217     23445     25102     25101     25103     25104     24616
 -1      5219    6    0    1
 -2     21128     21161     20697     20765     24435     25106     25105     25107     25108     23166
 -1      5220    6    0    1
 -2     21045     21536     21089     21528     25075     25109     24199     25110     25112     25111
 -1      5221    6    0    1
 -2     21577     21672     21559     20625     25115     25114     25113     25116     25118     25117
 -1      5222    6    0    1
 -2     21718     20997     21692     21727     25121     25120     25119     25122     25124     25123
 -1      5223    6    0    1
 -2     20860     21540     20869     20832     25126     25125     23493     23469     25127     23496
 -1      5224    6    0    1
 -2     21414     21347     21680     21552     22190     25129     25128     25130     25132     25131
 -1      5225    6    0    1
 -2     21249     21255     21278     21544     24847     24813     24912     25133     25135     25134
 -1      5226    6    0    1
 -2     20830     21167     20748     21180     25069     25136     23367     25070     24512     25137
 -1      5227    6    0    1
 -2     21211     21176     20804     20851     24598     25139     25138     25140     25141     23440
 -1      5228    6    0    1
 -2     21356     21387     21553     20456     22119     25143     25142     21944     22017     25144
 -1      5229    6    0    1
 -2     20817     21239     21206     21220     25146     24690     25145     25147     24689     24666
 -1      5230    6    0    1
 -2     21550     21333     21337     21549     25149     25034     25148     25150     25152     25151
 -1      5231    6    0    1
 -2     21587     21613     21419     21516     25155     25154     25153     25156     25158     25157
 -1      5232    6    0    1
 -2     21300     21321     21322     20955     24972     25021     24974     25159     25161     25160
 -1      5233    6    0    1
 -2     21607     21410     21104     20978     25164     25163     25162     25165     25166     24242
 -1      5234    6    0    1
 -2     20946     20945     21242     21276     23761     25168     25167     25169     25170     24808
 -1      5235    6    0    1
 -2     21189     21133     20848     21732     24532     25172     25171     25173     25175     25174
 -1      5236    6    0    1
 -2     21311     20914     20873     21305     25177     23636     25176     24947     25179     25178
 -1      5237    6    0    1
 -2     20923     21318     21317     21547     25181     24961     25180     25182     25184     25183
 -1      5238    6    0    1
 -2     21283     21257     20808     21215     24848     25186     25185     24828     24747     25187
 -1      5239    6    0    1
 -2     20719     21673     21603     21569     25190     25189     25188     25191     25193     25192
 -1      5240    6    0    1
 -2     20806     21540     20800     20741     25195     25194     23300     23298     25196     23283
 -1      5241    6    0    1
 -2     21265     21548     21281     20883     25198     25197     24822     25199     25201     25200
 -1      5242    6    0    1
 -2     20668     21534     21618     21521     25204     25203     25202     25205     25207     25206
 -1      5243    6    0    1
 -2     21554     20470     21394     21617     25209     22031     25208     25210     25212     25211
 -1      5244    6    0    1
 -2     21648     20602     20642     21654     25214     22845     25213     25215     25217     25216
 -1      5245    6    0    1
 -2     21050     21530     21124     21098     25219     25218     24334     24260     25220     24333
 -1      5246    6    0    1
 -2     21531     21099     21015     21052     25222     24229     25221     25223     24299     24107
 -1      5247    6    0    1
 -2     21239     20933     20916     21291     25225     23710     25224     24891     25227     25226
 -1      5248    6    0    1
 -2     21125     21180     20748     21167     24511     25137     25228     24497     24512     25136
 -1      5249    6    0    1
 -2     20602     21648     20642     20722     25214     25213     22845     23016     25229     23014
 -1      5250    6    0    1
 -2     20706     20664     21516     20667     22964     25231     25230     23062     22967     25232
 -1      5251    6    0    1
 -2     21496     21528     20546     21555     25234     25233     22499     25235     25237     25236
 -1      5252    6    0    1
 -2     21141     21523     21128     21065     25238     25097     24376     24374     25239     24342
 -1      5253    6    0    1
 -2     21282     21237     20876     21266     24825     25241     25240     24824     24799     25242
 -1      5254    6    0    1
 -2     21045     21528     21006     20567     25110     25243     24082     24022     25244     23931
 -1      5255    6    0    1
 -2     20827     20801     21168     20769     23358     25246     25245     23357     23284     25247
 -1      5256    6    0    1
 -2     21685     21599     21519     20717     25250     25249     25248     25251     25253     25252
 -1      5257    6    0    1
 -2     21183     21186     20815     21122     24526     25255     25254     24518     24524     25256
 -1      5258    6    0    1
 -2     21183     21122     20815     20831     24518     25256     25254     25257     25258     23370
 -1      5259    6    0    1
 -2     20501     21470     21522     21556     22359     25260     25259     25261     25263     25262
 -1      5260    6    0    1
 -2     21379     21529     21611     21386     25266     25265     25264     22137     25268     25267
 -1      5261    6    0    1
 -2     21530     21167     21124     21098     25269     24472     25218     25220     24456     24333
 -1      5262    6    0    1
 -2     21727     21038     20997     21692     25270     24011     25124     25123     25271     25120
 -1      5263    6    0    1
 -2     21557     20422     21379     21529     25273     21993     25272     25274     25275     25266
 -1      5264    6    0    1
 -2     21593     21115     21527     21669     25278     25277     25276     25279     25281     25280
 -1      5265    6    0    1
 -2     21534     21521     20668     20782     25207     25205     25204     25282     25283     23219
 -1      5266    6    0    1
 -2     21463     21650     21694     21602     25286     25285     25284     25287     25289     25288
 -1      5267    6    0    1
 -2     21155     21159     21070     20798     24428     24427     24412     25290     25292     25291
 -1      5268    6    0    1
 -2     20804     21176     20753     20851     25139     25293     23293     23440     25141     23437
 -1      5269    6    0    1
 -2     21618     21583     21378     21534     25296     25295     25294     25203     25298     25297
 -1      5270    6    0    1
 -2     21176     21171     20804     21526     24501     25299     25139     25300     25302     25301
 -1      5271    6    0    1
 -2     20770     21120     21106     21060     25304     24324     25303     25305     24323     24294
 -1      5272    6    0    1
 -2     21495     21654     21691     21479     25308     25307     25306     22585     25310     25309
 -1      5273    6    0    1
 -2     21618     21534     21378     21408     25203     25297     25294     25311     25312     22097
 -1      5274    6    0    1
 -2     21618     21408     21521     21534     25311     25313     25206     25203     25312     25207
 -1      5275    6    0    1
 -2     21561     20602     21691     20680     25316     25315     25314     25317     22901     25318
 -1      5276    6    0    1
 -2     20954     21309     20932     21321     25319     25059     23788     25320     24971     25061
 -1      5277    6    0    1
 -2     20786     20803     20772     21169     23290     23289     23268     25321     25323     25322
 -1      5278    6    0    1
 -2     21548     21338     21321     21322     25325     25043     25324     25326     25044     25021
 -1      5279    6    0    1
 -2     21120     21090     20784     21153     24357     25328     25327     24462     24409     25329
 -1      5280    6    0    1
 -2     21442     21589     21699     21439     25332     25331     25330     22443     25334     25333
 -1      5281    6    0    1
 -2     21327     21321     21548     21338     25019     25324     25335     25038     25043     25325
 -1      5282    6    0    1
 -2     21185     20834     21138     20847     25337     25336     24523     25338     23434     25339
 -1      5283    6    0    1
 -2     20899     21197     21246     21242     25341     24707     25340     25342     24695     24739
 -1      5284    6    0    1
 -2     20918     20940     21547     21548     23738     25344     25343     25345     25347     25346
 -1      5285    6    0    1
 -2     21306     21276     20964     21327     24915     25349     25348     24990     24989     25350
 -1      5286    6    0    1
 -2     20958     20950     20962     21549     23808     23833     23832     25351     25353     25352
 -1      5287    6    0    1
 -2     20761     21524     21173     20808     25356     25355     25354     23304     25358     25357
 -1      5288    6    0    1
 -2     20810     20879     20862     21283     23523     23525     23475     25359     25361     25360
 -1      5289    6    0    1
 -2     20872     21200     20801     21187     25363     25362     23503     25364     24564     25365
 -1      5290    6    0    1
 -2     21320     21545     21290     21296     25367     25366     24967     24968     25368     24874
 -1      5291    6    0    1
 -2     21454     20522     21429     21558     22313     22253     22314     25369     25371     25370
 -1      5292    6    0    1
 -2     21633     21385     20448     21559     25373     22010     25372     25374     25376     25375
 -1      5293    6    0    1
 -2     21689     21516     20734     20624     25379     25378     25377     25380     25381     23060
 -1      5294    6    0    1
 -2     21185     21205     20855     20847     24579     25383     25382     25338     25384     23451
 -1      5295    6    0    1
 -2     21560     21361     20467     21393     25386     21953     25385     25387     22083     22030
 -1      5296    6    0    1
 -2     21692     21718     20414     20997     25119     25389     25388     25120     25121     23910
 -1      5297    6    0    1
 -2     20926     21292     20885     21231     25391     25390     23687     25392     24862     25393
 -1      5298    6    0    1
 -2     20711     21537     20705     20626     25395     25394     22985     22983     25396     22962
 -1      5299    6    0    1
 -2     21149     20818     20775     20759     25398     23334     25397     25399     23333     23197
 -1      5300    6    0    1
 -2     21543     21250     21231     21198     25401     24722     25400     25402     24721     24670
 -1      5301    6    0    1
 -2     21536     21091     21726     20678     25405     25404     25403     25406     25408     25407
 -1      5302    6    0    1
 -2     21282     21544     21278     21266     25409     25134     24826     24824     25410     24814
 -1      5303    6    0    1
 -2     21521     20790     21529     20668     25413     25412     25411     25205     23241     25414
 -1      5304    6    0    1
 -2     20824     21254     21223     21199     25416     24736     25415     25417     24735     24638
 -1      5305    6    0    1
 -2     21534     21055     21130     21520     25419     24345     25418     25420     25422     25421
 -1      5306    6    0    1
 -2     20838     21145     20824     21223     25424     25423     23389     25425     24635     25415
 -1      5307    6    0    1
 -2     21073     20991     21065     21523     24156     24134     24251     25096     25426     25239
 -1      5308    6    0    1
 -2     20838     20897     21223     20824     23585     25427     25425     23389     23583     25415
 -1      5309    6    0    1
 -2     21550     21332     21323     21297     25429     25011     25428     25430     25010     24978
 -1      5310    6    0    1
 -2     21195     21198     20818     21231     24609     25432     25431     24671     24670     25433
 -1      5311    6    0    1
 -2     20885     21231     21246     21195     25393     24708     25434     25435     24671     24706
 -1      5312    6    0    1
 -2     21479     21561     21619     20570     25438     25437     25436     22457     25440     25439
 -1      5313    6    0    1
 -2     20783     21537     20665     20768     25442     25441     23222     23223     25443     23177
 -1      5314    6    0    1
 -2     21654     21479     21499     21648     25310     22513     25444     25215     25446     25445
 -1      5315    6    0    1
 -2     21562     21485     21620     20561     25449     25448     25447     25450     22486     25451
 -1      5316    6    0    1
 -2     21331     21341     21546     21319     25051     25453     25452     25004     25052     25454
 -1      5317    6    0    1
 -2     21047     21095     20968     20678     24240     24222     24096     25455     25457     25456
 -1      5318    6    0    1
 -2     20618     20699     20731     21525     22947     23070     23050     25458     25460     25459
 -1      5319    6    0    1
 -2     21191     20868     20803     20834     25462     23490     25461     25463     23489     23377
 -1      5320    6    0    1
 -2     21654     21499     21513     21688     25444     22605     25464     25465     25467     25466
 -1      5321    6    0    1
 -2     21139     20840     20805     20823     25469     23395     25468     25470     23397     23348
 -1      5322    6    0    1
 -2     21212     20852     21157     21119     25472     25471     24600     24601     25101     24420
 -1      5323    6    0    1
 -2     21489     21486     20690     21710     22610     25474     25473     25475     25477     25476
 -1      5324    6    0    1
 -2     21669     21511     21493     21527     25479     22557     25478     25280     25481     25480
 -1      5325    6    0    1
 -2     21481     21527     21662     21526     25484     25483     25482     25485     25487     25486
 -1      5326    6    0    1
 -2     21540     20744     20806     20815     25488     23299     25195     25489     23323     23325
 -1      5327    6    0    1
 -2     21223     21258     20903     21212     24748     25491     25490     24637     24749     25492
 -1      5328    6    0    1
 -2     21539     20819     20816     20895     25494     23337     25493     25495     23578     23577
 -1      5329    6    0    1
 -2     21392     21530     21571     21403     25498     25497     25496     22133     25500     25499
 -1      5330    6    0    1
 -2     20930     21286     21245     21236     25502     24835     25501     25503     24834     24705
 -1      5331    6    0    1
 -2     21286     20930     20941     21549     25502     23742     25504     25505     25507     25506
 -1      5332    6    0    1
 -2     21100     21162     21532     21148     24438     25509     25508     24393     24449     25510
 -1      5333    6    0    1
 -2     20948     21549     20962     20941     25511     25352     23818     23769     25506     23817
 -1      5334    6    0    1
 -2     21167     20748     21531     21530     25136     25513     25512     25269     25515     25514
 -1      5335    6    0    1
 -2     21183     21143     20835     21226     24517     25517     25516     24664     24648     25518
 -1      5336    6    0    1
 -2     20950     21550     21339     21549     25521     25520     25519     25353     25150     25522
 -1      5337    6    0    1
 -2     21545     21298     21307     21329     25524     24926     25523     25525     24996     24995
 -1      5338    6    0    1
 -2     21545     20939     20952     21329     25527     23784     25526     25525     25529     25528
 -1      5339    6    0    1
 -2     20831     21183     21122     21143     25257     24518     25258     25530     24517     24479
 -1      5340    6    0    1
 -2     21219     20870     20851     21238     25532     23499     25531     24688     25534     25533
 -1      5341    6    0    1
 -2     21302     20943     20921     21546     25536     23748     25535     25537     25539     25538
 -1      5342    6    0    1
 -2     21238     21174     21527     21219     24685     25541     25540     24688     24623     25542
 -1      5343    6    0    1
 -2     20591     21700     21646     21520     25545     25544     25543     25546     25548     25547
 -1      5344    6    0    1
 -2     21109     21044     21648     21088     24268     25550     25549     24288     24197     25551
 -1      5345    6    0    1
 -2     21398     21368     21678     21500     22167     25553     25552     25554     25556     25555
 -1      5346    6    0    1
 -2     21245     21286     20930     20912     24835     25502     25501     25557     25558     23702
 -1      5347    6    0    1
 -2     20851     20870     21255     21238     23499     25560     25559     25533     25534     24741
 -1      5348    6    0    1
 -2     21533     21101     21054     21129     25562     24298     25561     25563     24344     24343
 -1      5349    6    0    1
 -2     20624     20734     20706     21516     23060     23086     22965     25381     25378     25230
 -1      5350    6    0    1
 -2     21499     20642     21555     21688     25566     25565     25564     25467     25568     25567
 -1      5351    6    0    1
 -2     20737     20815     21122     20831     23324     25256     25569     23368     23370     25258
 -1      5352    6    0    1
 -2     21733     20924     20913     20862     25571     23680     25570     25572     23679     23633
 -1      5353    6    0    1
 -2     21470     21448     21518     21556     22379     25574     25573     25263     25575     25067
 -1      5354    6    0    1
 -2     21688     21499     21496     21555     25467     22584     25576     25567     25564     25235
 -1      5355    6    0    1
 -2     21517     21552     20486     21414     25579     25578     25577     25580     25130     22192
 -1      5356    6    0    1
 -2     21688     21555     21496     20547     25567     25235     25576     25581     25582     22500
 -1      5357    6    0    1
 -2     21019     20976     21553     20456     24036     25584     25583     23959     23866     25144
 -1      5358    6    0    1
 -2     21406     21564     20427     20428     25586     25585     22061     22062     25587     21757
 -1      5359    6    0    1
 -2     21539     21537     21105     21134     25590     25589     25588     25591     25592     24353
 -1      5360    6    0    1
 -2     21066     20987     21657     21028     24138     25594     25593     24137     24043     25595
 -1      5361    6    0    1
 -2     21295     21543     21250     21297     25596     25401     24870     24880     25597     24877
 -1      5362    6    0    1
 -2     20546     21528     20601     21555     25233     25598     22652     25236     25237     25599
 -1      5363    6    0    1
 -2     20955     21299     21318     21322     25601     24960     25600     25160     24973     24975
 -1      5364    6    0    1
 -2     21410     21598     21630     20669     25604     25603     25602     25605     25607     25606
 -1      5365    6    0    1
 -2     21392     21403     21571     21374     22133     25499     25496     22132     22121     25608
 -1      5366    6    0    1
 -2     20414     20584     21692     20997     21927     25609     25388     23910     23913     25120
 -1      5367    6    0    1
 -2     21317     20923     21305     21310     25180     25610     24957     24958     25611     24956
 -1      5368    6    0    1
 -2     20548     21688     20547     20642     25612     25581     21889     22743     25568     22744
 -1      5369    6    0    1
 -2     20673     21532     21565     20593     25615     25614     25613     22885     25617     25616
 -1      5370    6    0    1
 -2     20923     21317     21305     20914     25180     24957     25610     23676     25618     25179
 -1      5371    6    0    1
 -2     21202     21204     20825     20780     24576     25620     25619     25621     25622     23352
 -1      5372    6    0    1
 -2     20942     20911     21300     21301     23744     25624     25623     25625     25626     24895
 -1      5373    6    0    1
 -2     21083     20751     20779     21157     25628     23209     25627     24418     25630     25629
 -1      5374    6    0    1
 -2     21543     21218     21170     21151     25632     24621     25631     25633     24620     24481
 -1      5375    6    0    1
 -2     21332     21543     21295     21297     25634     25596     25009     25010     25597     24880
 -1      5376    6    0    1
 -2     21607     20978     21104     21057     25165     24242     25162     25635     24116     24285
 -1      5377    6    0    1
 -2     20449     20448     21352     21621     21779     21936     21935     25636     25638     25637
 -1      5378    6    0    1
 -2     21543     21198     21231     20865     25402     24670     25400     25639     25641     25640
 -1      5379    6    0    1
 -2     20811     21177     21259     20863     25643     24753     25642     23479     25645     25644
 -1      5380    6    0    1
 -2     20938     20937     21258     21304     23733     25647     25646     25648     25649     24902
 -1      5381    6    0    1
 -2     20811     20863     21259     20892     23479     25644     25642     23566     23568     25650
 -1      5382    6    0    1
 -2     20591     20426     21646     21700     22629     25651     25543     25545     25652     25544
 -1      5383    6    0    1
 -2     20676     21519     21599     20717     25654     25249     25653     23079     25252     25253
 -1      5384    6    0    1
 -2     21171     21082     21092     21526     24471     24214     24469     25302     25656     25655
 -1      5385    6    0    1
 -2     21304     21258     20938     21296     24902     25646     25648     24905     24873     25657
 -1      5386    6    0    1
 -2     21190     21163     21146     21538     24535     24442     24533     25658     25660     25659
 -1      5387    6    0    1
 -2     21223     21258     21254     20897     24748     24750     24736     25427     25662     25661
 -1      5388    6    0    1
 -2     20865     21297     20926     21231     25664     25663     23685     25640     24878     25392
 -1      5389    6    0    1
 -2     20799     21178     21153     20841     25666     24507     25665     23398     25668     25667
 -1      5390    6    0    1
 -2     20869     21540     20806     20815     25125     25195     23494     23495     25489     23325
 -1      5391    6    0    1
 -2     21602     21027     21730     20733     25671     25670     25669     25672     25674     25673
 -1      5392    6    0    1
 -2     21346     21720     20517     20411     25676     25675     22280     21810     25677     21857
 -1      5393    6    0    1
 -2     21733     20879     21547     21288     25680     25679     25678     25681     25683     25682
 -1      5394    6    0    1
 -2     21470     20501     21522     21449     22359     25259     25260     22397     22302     25684
 -1      5395    6    0    1
 -2     20897     21296     21258     21254     25685     24873     25662     25661     24872     24750
 -1      5396    6    0    1
 -2     21223     21212     20903     20838     24637     25492     25490     25425     25686     23601
 -1      5397    6    0    1
 -2     21646     21520     21377     21407     25547     25688     25687     25689     25690     22096
 -1      5398    6    0    1
 -2     20654     21556     21653     20502     25065     25066     25062     22770     25692     25691
 -1      5399    6    0    1
 -2     21548     20945     20964     21306     25694     23823     25693     25695     25696     25348
 -1      5400    6    0    1
 -2     20767     21160     21136     21518     25698     24467     25697     25699     25701     25700
 -1      5401    6    0    1
 -2     21067     21165     21542     21127     24446     25703     25702     24339     24447     25704
 -1      5402    6    0    1
 -2     21683     21077     21430     21522     25707     25706     25705     25708     25710     25709
 -1      5403    6    0    1
 -2     21430     21077     20694     21522     25706     25712     25711     25709     25710     25713
 -1      5404    6    0    1
 -2     20694     21522     21590     21430     25713     25715     25714     25711     25709     25716
 -1      5405    6    0    1
 -2     21303     21274     21312     21545     24899     24937     24940     25717     25719     25718
 -1      5406    6    0    1
 -2     21290     21237     20874     20900     24854     25721     25720     25722     25723     23593
 -1      5407    6    0    1
 -2     21380     21607     21410     21630     25724     25164     22099     25725     25726     25602
 -1      5408    6    0    1
 -2     21324     21296     21545     21320     24979     25368     25727     24981     24968     25367
 -1      5409    6    0    1
 -2     21296     21324     21545     20956     24979     25727     25368     25728     25730     25729
 -1      5410    6    0    1
 -2     20827     21168     21531     20769     25245     25732     25731     23357     25247     25733
 -1      5411    6    0    1
 -2     21601     20975     21377     21632     25736     25735     25734     25737     25739     25738
 -1      5412    6    0    1
 -2     21075     21522     21647     21518     25742     25741     25740     25743     25745     25744
 -1      5413    6    0    1
 -2     21716     20700     21713     20988     25748     25747     25746     25749     25751     25750
 -1      5414    6    0    1
 -2     20745     21109     21152     21147     25753     24492     25752     25754     24391     24503
 -1      5415    6    0    1
 -2     21573     21451     20497     21622     25756     22306     25755     25757     25759     25758
 -1      5416    6    0    1
 -2     20417     21566     20418     21411     25761     25760     21747     22071     25762     22072
 -1      5417    6    0    1
 -2     21077     21112     21666     21573     24304     25764     25763     25765     25767     25766
 -1      5418    6    0    1
 -2     20800     21540     20860     20793     25194     25126     23465     23477     25768     23468
 -1      5419    6    0    1
 -2     20866     20890     20909     21543     23572     23620     23619     25769     25771     25770
 -1      5420    6    0    1
 -2     21573     20696     21430     21077     25774     25773     25772     25765     25775     25706
 -1      5421    6    0    1
 -2     20906     20890     21543     20909     23612     25771     25776     23656     23620     25770
 -1      5422    6    0    1
 -2     21573     21077     21683     21666     25765     25707     25777     25766     25763     25778
 -1      5423    6    0    1
 -2     20516     20517     21441     21567     21856     22283     22284     25779     25781     25780
 -1      5424    6    0    1
 -2     21550     20936     20904     20947     25783     23723     25782     25784     23763     23762
 -1      5425    6    0    1
 -2     21053     21162     21138     20757     24437     24439     24366     25785     25787     25786
 -1      5426    6    0    1
 -2     21103     21055     21172     21534     24249     24474     24473     25788     25419     25789
 -1      5427    6    0    1
 -2     21700     21564     20631     20427     25792     25791     25790     25793     25585     22718
 -1      5428    6    0    1
 -2     21622     21573     20727     20612     25757     25795     25794     25796     25797     23036
 -1      5429    6    0    1
 -2     20742     21148     21168     21532     25799     24484     25798     25800     25510     25801
 -1      5430    6    0    1
 -2     21344     20409     20543     21623     21741     21884     22446     25802     25804     25803
 -1      5431    6    0    1
 -2     21050     20743     20717     21097     25806     23103     25805     24305     25808     25807
 -1      5432    6    0    1
 -2     20545     20546     21514     21528     21887     22548     22547     25809     25233     25810
 -1      5433    6    0    1
 -2     21624     20415     21350     21672     25812     22001     25811     25813     25815     25814
 -1      5434    6    0    1
 -2     20962     21549     20959     20961     25352     25816     23842     23820     25817     23844
 -1      5435    6    0    1
 -2     21568     20543     21515     20544     25819     22549     25818     25820     21885     22550
 -1      5436    6    0    1
 -2     21683     21454     21573     21666     25822     25821     25777     25778     25823     25766
 -1      5437    6    0    1
 -2     20933     21294     21291     21239     25824     24890     25227     25225     24867     24891
 -1      5438    6    0    1
 -2     20471     21625     21395     21673     25826     25825     22034     25827     25829     25828
 -1      5439    6    0    1
 -2     21550     20958     20965     20957     25831     23831     25830     25832     23841     23840
 -1      5440    6    0    1
 -2     20750     21152     20745     21088     25833     25752     23125     25834     24453     25835
 -1      5441    6    0    1
 -2     21306     20945     20964     21276     25696     23823     25348     24915     25170     25349
 -1      5442    6    0    1
 -2     21688     20642     21555     20547     25568     25565     25567     25581     22744     25582
 -1      5443    6    0    1
 -2     21726     20678     21091     21010     25407     25408     25404     25836     25837     24208
 -1      5444    6    0    1
 -2     21235     21543     21218     21244     25838     25632     24680     24702     25839     24700
 -1      5445    6    0    1
 -2     20943     20950     20927     21546     23777     23776     23747     25539     25841     25840
 -1      5446    6    0    1
 -2     21673     21603     20968     20719     25189     25843     25842     25190     25188     25844
 -1      5447    6    0    1
 -2     21375     21565     21405     20430     25846     25845     22094     21985     25847     22060
 -1      5448    6    0    1
 -2     20426     21700     20591     20427     25652     25545     22629     21756     25793     22628
 -1      5449    6    0    1
 -2     21651     21001     21715     20720     25850     25849     25848     25851     25853     25852
 -1      5450    6    0    1
 -2     21652     20688     20607     20725     25855     22921     25854     25856     23027     23026
 -1      5451    6    0    1
 -2     21731     21711     21640     21589     25859     25858     25857     25860     25862     25861
 -1      5452    6    0    1
 -2     21570     21362     20469     21394     25864     21955     25863     25865     22084     22032
 -1      5453    6    0    1
 -2     20750     21536     21047     21088     25868     25867     25866     25834     25869     24454
 -1      5454    6    0    1
 -2     21408     21521     21667     21355     25313     25871     25870     22173     25873     25872
 -1      5455    6    0    1
 -2     21047     21152     20750     21088     24406     25833     25866     24454     24453     25834
 -1      5456    6    0    1
 -2     21125     21099     21051     21531     24335     24259     24336     25874     25222     25875
 -1      5457    6    0    1
 -2     20725     21652     20688     21037     25856     25855     23027     25876     25878     25877
 -1      5458    6    0    1
 -2     21700     20427     20631     20591     25793     22718     25790     25545     22628     22805
 -1      5459    6    0    1
 -2     21571     20433     21403     21626     25879     22055     25499     25880     25882     25881
 -1      5460    6    0    1
 -2     20968     20719     21095     21011     25844     25883     24222     24028     25884     24221
 -1      5461    6    0    1
 -2     20911     20942     21300     20919     23744     25623     25624     23663     23745     25885
 -1      5462    6    0    1
 -2     21259     21300     20919     21260     24886     25885     25886     24756     24887     25887
 -1      5463    6    0    1
 -2     21627     21572     21490     20559     25890     25889     25888     25891     25892     22488
 -1      5464    6    0    1
 -2     20718     20677     20597     20969     23077     22893     23004     25893     25895     25894
 -1      5465    6    0    1
 -2     20894     20845     20849     21271     23574     23430     23575     25896     25898     25897
 -1      5466    6    0    1
 -2     21627     20559     21490     21506     25891     22488     25888     25899     22534     22533
 -1      5467    6    0    1
 -2     20943     21302     20921     20937     25536     25535     23748     23754     25900     23729
 -1      5468    6    0    1
 -2     21237     21225     20837     20876     24683     25902     25901     25241     25903     23514
 -1      5469    6    0    1
 -2     20881     21239     20817     21220     25904     25146     23531     25905     24689     25147
 -1      5470    6    0    1
 -2     21065     21523     21031     21071     25239     25906     24135     24150     25907     24148
 -1      5471    6    0    1
 -2     21108     21080     21698     20999     24264     25909     25908     24263     24175     25910
 -1      5472    6    0    1
 -2     21564     20428     21376     21628     25587     21987     25911     25912     25914     25913
 -1      5473    6    0    1
 -2     21070     21063     21155     20798     24248     24413     24412     25291     25915     25290
 -1      5474    6    0    1
 -2     21629     21472     20497     21573     25917     22363     25916     25918     25919     25755
 -1      5475    6    0    1
 -2     20882     21208     20859     21252     25921     25920     23533     25922     24728     25923
 -1      5476    6    0    1
 -2     21574     21348     20563     21488     25925     22478     25924     25926     22479     22481
 -1      5477    6    0    1
 -2     20871     21184     21243     21269     25928     24698     25927     25929     24780     24782
 -1      5478    6    0    1
 -2     21705     21698     21562     20726     25932     25931     25930     25933     25935     25934
 -1      5479    6    0    1
 -2     21698     21627     21562     20689     25937     25936     25931     25938     25940     25939
 -1      5480    6    0    1
 -2     21207     21165     21542     20809     24585     25703     25941     25942     25944     25943
 -1      5481    6    0    1
 -2     21158     21217     20820     21216     24617     25104     25945     24614     24618     25946
 -1      5482    6    0    1
 -2     20528     21432     21523     21575     22259     25948     25947     25949     25951     25950
 -1      5483    6    0    1
 -2     21479     21501     21619     21512     22551     25952     25436     22586     22607     25953
 -1      5484    6    0    1
 -2     20879     21288     21733     21283     25683     25681     25680     25361     24850     25954
 -1      5485    6    0    1
 -2     20991     21031     21523     20529     24086     25906     25426     23899     23991     25955
 -1      5486    6    0    1
 -2     21144     21151     21541     21538     24404     25957     25956     25958     25960     25959
 -1      5487    6    0    1
 -2     21620     20726     21068     20998     25963     25962     25961     25964     25965     24141
 -1      5488    6    0    1
 -2     21523     20529     20530     21433     25955     21870     25966     25967     22262     22261
 -1      5489    6    0    1
 -2     21133     20848     20783     20840     25172     23424     25968     25969     23427     23396
 -1      5490    6    0    1
 -2     21546     21308     21331     21319     25970     25003     25452     25454     24966     25004
 -1      5491    6    0    1
 -2     20848     20898     21248     21189     23588     25972     25971     25171     25973     24713
 -1      5492    6    0    1
 -2     21410     21380     21630     20420     22099     25725     25602     22070     21995     25974
 -1      5493    6    0    1
 -2     21149     20694     20696     21077     25976     22941     25975     24395     25712     25775
 -1      5494    6    0    1
 -2     21232     21189     21248     20898     24673     24713     24715     25977     25973     25972
 -1      5495    6    0    1
 -2     21157     21223     20838     21212     24636     25425     25978     24600     24637     25686
 -1      5496    6    0    1
 -2     21257     21283     21733     21289     24848     25954     25979     24852     24851     25980
 -1      5497    6    0    1
 -2     21287     20873     20833     20856     25982     23507     25981     25983     23506     23492
 -1      5498    6    0    1
 -2     21254     20824     21223     20897     25416     25415     24736     25661     23583     25427
 -1      5499    6    0    1
 -2     21248     21275     21232     20898     24846     24845     24715     25972     25984     25977
 -1      5500    6    0    1
 -2     21545     20949     20939     20920     25985     23772     25527     25986     23771     23734
 -1      5501    6    0    1
 -2     21037     20725     21108     20688     25876     25987     24265     25877     23027     25988
 -1      5502    6    0    1
 -2     20528     21523     21458     20529     25947     25989     22326     21869     25955     22325
 -1      5503    6    0    1
 -2     20701     21641     21466     21437     25992     25991     25990     25993     25994     22422
 -1      5504    6    0    1
 -2     21108     20725     20749     20777     25987     23121     25995     25996     23201     23203
 -1      5505    6    0    1
 -2     20823     21184     20871     21269     25997     25928     23501     25998     24780     25929
 -1      5506    6    0    1
 -2     21269     21291     20871     20878     24858     25999     25929     26000     26001     23521
 -1      5507    6    0    1
 -2     21289     21317     21547     20914     24963     25183     26002     26003     25618     26004
 -1      5508    6    0    1
 -2     20511     21576     21466     21444     26006     26005     22348     22292     26007     22351
 -1      5509    6    0    1
 -2     21086     21527     21671     21526     26010     26009     26008     26011     25487     26012
 -1      5510    6    0    1
 -2     21216     21541     20905     20843     26015     26014     26013     26016     26017     23607
 -1      5511    6    0    1
 -2     21582     21535     21110     21079     26020     26019     26018     26021     26022     24276
 -1      5512    6    0    1
 -2     21503     21526     21592     21482     26025     26024     26023     22569     26027     26026
 -1      5513    6    0    1
 -2     21535     21078     20995     21110     26029     24171     26028     26019     24270     24269
 -1      5514    6    0    1
 -2     20422     21529     21618     21379     25275     26031     26030     21993     25266     26032
 -1      5515    6    0    1
 -2     21532     21162     21053     20757     25509     24437     26033     26034     25787     25785
 -1      5516    6    0    1
 -2     21543     21541     20905     21272     26036     26014     26035     26037     26039     26038
 -1      5517    6    0    1
 -2     21224     21184     20823     21269     24642     25997     26040     24781     24780     25998
 -1      5518    6    0    1
 -2     21190     21541     21203     21247     26042     26041     24572     24709     26043     24710
 -1      5519    6    0    1
 -2     21481     21671     21527     21526     26044     26009     25484     25485     26012     25487
 -1      5520    6    0    1
 -2     21685     20717     21519     21013     25251     25252     25248     26045     26047     26046
 -1      5521    6    0    1
 -2     21356     20457     21553     21520     21943     26048     25142     26049     26051     26050
 -1      5522    6    0    1
 -2     20770     21120     21210     21121     25304     24596     26052     26053     24328     24602
 -1      5523    6    0    1
 -2     21050     21097     20717     21013     24305     25807     25805     24103     24225     26047
 -1      5524    6    0    1
 -2     21675     21517     21425     21643     26056     26055     26054     26057     26059     26058
 -1      5525    6    0    1
 -2     21402     21658     21362     21393     26061     26060     22153     22184     26062     22104
 -1      5526    6    0    1
 -2     21631     20490     21416     21551     26064     22195     26063     26065     25093     25094
 -1      5527    6    0    1
 -2     21559     20735     20625     20586     26066     23064     25117     26067     23063     22789
 -1      5528    6    0    1
 -2     20591     21533     21700     20975     26069     26068     25545     26070     26072     26071
 -1      5529    6    0    1
 -2     21577     21342     21343     21350     26074     21739     26073     26075     21930     21929
 -1      5530    6    0    1
 -2     21245     20930     20872     20912     25501     23699     26076     25557     23702     23632
 -1      5531    6    0    1
 -2     21205     21236     20884     21187     24681     25080     25078     24594     24682     26077
 -1      5532    6    0    1
 -2     21731     21711     20516     20661     25859     26079     26078     26080     26081     22784
 -1      5533    6    0    1
 -2     21639     21536     21588     21091     26084     26083     26082     26085     25405     26086
 -1      5534    6    0    1
 -2     21013     21570     21685     21658     26088     26087     26045     26089     26091     26090
 -1      5535    6    0    1
 -2     20786     20736     20811     21130     23266     23312     23311     26092     26094     26093
 -1      5536    6    0    1
 -2     21061     20703     20704     21093     26096     22989     26095     24356     26098     26097
 -1      5537    6    0    1
 -2     20712     20740     20674     21531     23096     23095     22999     26099     26101     26100
 -1      5538    6    0    1
 -2     21418     20492     21577     20408     22200     26103     26102     22199     21828     26104
 -1      5539    6    0    1
 -2     21631     21516     20982     21090     26107     26106     26105     26108     26109     24206
 -1      5540    6    0    1
 -2     21388     20457     21520     21601     22020     26051     26110     26111     26113     26112
 -1      5541    6    0    1
 -2     21410     21668     21384     21537     26115     26114     22181     26116     26118     26117
 -1      5542    6    0    1
 -2     21343     21418     21577     20408     22202     26102     26073     21740     22199     26104
 -1      5543    6    0    1
 -2     21334     21326     21547     21293     25017     26120     26119     25016     24987     26121
 -1      5544    6    0    1
 -2     20973     21016     21532     21100     24033     26123     26122     24232     24231     25508
 -1      5545    6    0    1
 -2     21442     21711     21731     21589     26125     25859     26124     25332     25862     25860
 -1      5546    6    0    1
 -2     21149     21198     20818     21195     24558     25432     25398     24547     24609     25431
 -1      5547    6    0    1
 -2     21373     20434     20435     21578     21981     21764     21982     26126     26128     26127
 -1      5548    6    0    1
 -2     21035     21558     21429     21453     26130     25370     26129     26131     26132     22318
 -1      5549    6    0    1
 -2     21542     21165     20754     20809     25703     26134     26133     25943     25944     23305
 -1      5550    6    0    1
 -2     21429     21453     21535     21035     22318     26136     26135     26129     26131     26137
 -1      5551    6    0    1
 -2     20914     21311     20873     20931     25177     25176     23636     23707     26138     23704
 -1      5552    6    0    1
 -2     21170     21188     20812     20778     24529     26140     26139     26141     26142     23315
 -1      5553    6    0    1
 -2     21078     21112     21535     21035     24311     26143     26029     24172     24274     26137
 -1      5554    6    0    1
 -2     21051     21531     21635     21530     25875     26145     26144     26146     25514     26147
 -1      5555    6    0    1
 -2     21314     21309     21333     20953     25055     25029     25015     26148     26150     26149
 -1      5556    6    0    1
 -2     20992     21046     21518     21032     24094     26152     26151     24084     24095     26153
 -1      5557    6    0    1
 -2     21563     21040     21706     20577     26156     26155     26154     26157     24012     26158
 -1      5558    6    0    1
 -2     21097     21519     20717     21013     26159     25252     25807     24225     26046     26047
 -1      5559    6    0    1
 -2     21119     20820     20852     20777     25102     23445     25101     26160     23339     23442
 -1      5560    6    0    1
 -2     21360     21579     21635     20465     26163     26162     26161     21951     26165     26164
 -1      5561    6    0    1
 -2     21351     20408     21633     20447     21931     26167     26166     21934     21777     26168
 -1      5562    6    0    1
 -2     21399     21580     20442     21369     26170     26169     22048     22088     26171     21973
 -1      5563    6    0    1
 -2     21667     21611     21355     21521     26173     26172     25872     25871     26174     25873
 -1      5564    6    0    1
 -2     20906     21543     21272     21546     25776     26037     26175     26176     26178     26177
 -1      5565    6    0    1
 -2     21534     21172     21202     20780     25789     24569     26179     26180     26181     25621
 -1      5566    6    0    1
 -2     20408     21577     21351     21633     26104     26182     21931     26167     26183     26166
 -1      5567    6    0    1
 -2     21058     21537     21021     21104     26185     26184     24119     24310     26186     24241
 -1      5568    6    0    1
 -2     20805     21104     21139     21057     26187     24368     25468     26188     24285     24369
 -1      5569    6    0    1
 -2     20419     21537     20627     21598     26190     26189     22710     26191     26193     26192
 -1      5570    6    0    1
 -2     20511     21576     21444     21702     26006     26007     22292     26194     26196     26195
 -1      5571    6    0    1
 -2     21731     21517     20622     21567     26199     26198     26197     26200     26202     26201
 -1      5572    6    0    1
 -2     21386     21354     21380     21607     22076     22148     22147     26203     26204     25724
 -1      5573    6    0    1
 -2     20865     21543     20904     21297     25639     26205     23604     25664     25597     26206
 -1      5574    6    0    1
 -2     21359     20462     21581     20463     21950     26208     26207     21949     21793     26209
 -1      5575    6    0    1
 -2     20926     20865     20904     21297     23685     23604     23686     25663     25664     26206
 -1      5576    6    0    1
 -2     21550     21341     21340     21332     26211     25057     26210     25429     25053     25050
 -1      5577    6    0    1
 -2     21190     21538     21146     21144     25658     25659     24533     24534     25958     24389
 -1      5578    6    0    1
 -2     21331     21308     21546     21302     25003     25970     25452     25002     24923     25537
 -1      5579    6    0    1
 -2     21516     21060     20982     21090     26212     24128     26106     26109     24247     24206
 -1      5580    6    0    1
 -2     21730     21602     20660     21650     25669     26214     26213     26215     25289     26216
 -1      5581    6    0    1
 -2     21679     21452     21428     21582     26218     22426     26217     26219     26221     26220
 -1      5582    6    0    1
 -2     20701     21027     21730     21719     26223     25670     26222     26224     26226     26225
 -1      5583    6    0    1
 -2     21532     20593     20673     20715     25617     22885     25615     26227     22997     23080
 -1      5584    6    0    1
 -2     20684     20996     21582     21679     26230     26229     26228     26231     26232     26219
 -1      5585    6    0    1
 -2     21080     20752     20749     20689     26234     23130     26233     26235     23129     23120
 -1      5586    6    0    1
 -2     21452     21582     21679     20684     26221     26219     26218     26236     26228     26231
 -1      5587    6    0    1
 -2     21405     20430     21674     20429     22060     26238     26237     22059     21759     26239
 -1      5588    6    0    1
 -2     21521     21019     21103     21534     26241     24237     26240     25207     26242     25788
 -1      5589    6    0    1
 -2     21681     20586     21621     21559     26245     26244     26243     26246     26067     26247
 -1      5590    6    0    1
 -2     21508     20558     21572     21636     22536     26249     26248     26250     26252     26251
 -1      5591    6    0    1
 -2     21637     20520     21428     21582     26254     22251     26253     26255     26256     26220
 -1      5592    6    0    1
 -2     20714     21102     21130     20786     26258     24346     26257     23231     26259     26092
 -1      5593    6    0    1
 -2     20919     21260     20863     21259     25887     26260     23661     25886     24756     25644
 -1      5594    6    0    1
 -2     21618     21408     21378     20424     25311     22097     25294     26261     22066     21991
 -1      5595    6    0    1
 -2     20591     21520     21646     20630     25546     25547     25543     22835     26263     26262
 -1      5596    6    0    1
 -2     21601     21632     21377     21357     25737     25738     25734     26264     26265     22127
 -1      5597    6    0    1
 -2     21700     21520     20591     20975     25548     25546     25545     26071     26266     26070
 -1      5598    6    0    1
 -2     21010     21603     20678     20968     26268     26267     25837     24060     25843     25456
 -1      5599    6    0    1
 -2     20734     21689     20624     20663     25377     25380     23060     23061     26269     22859
 -1      5600    6    0    1
 -2     21465     21446     20507     21584     22354     22296     22343     26270     26272     26271
 -1      5601    6    0    1
 -2     21602     21463     21730     21719     25287     26273     25669     26274     26275     26225
 -1      5602    6    0    1
 -2     21175     21524     20756     21220     26277     25082     26276     24626     26279     26278
 -1      5603    6    0    1
 -2     21557     21529     21379     21386     25274     25266     25272     26280     25268     22137
 -1      5604    6    0    1
 -2     21533     21129     20772     20738     25563     26282     26281     26283     26284     23188
 -1      5605    6    0    1
 -2     21560     20466     21392     21635     26286     22027     26285     26287     26289     26288
 -1      5606    6    0    1
 -2     21539     20711     20705     20774     26291     22985     26290     26292     23193     23192
 -1      5607    6    0    1
 -2     21138     20738     20834     21129     26293     23378     25336     24367     26284     26294
 -1      5608    6    0    1
 -2     20840     20910     21243     21192     23622     26296     26295     26297     26298     24697
 -1      5609    6    0    1
 -2     20772     21169     20803     21129     25322     25323     23289     26282     24495     26299
 -1      5610    6    0    1
 -2     20778     20821     21188     20812     23341     26300     26142     23315     23423     26140
 -1      5611    6    0    1
 -2     20714     20786     21130     20736     23231     26092     26257     23087     23266     26094
 -1      5612    6    0    1
 -2     20674     20634     21530     20716     22886     26302     26301     23067     23001     26303
 -1      5613    6    0    1
 -2     20827     21200     21168     20801     26304     24563     25245     23358     25362     25246
 -1      5614    6    0    1
 -2     21038     21068     21538     21081     24142     26306     26305     24180     24262     26307
 -1      5615    6    0    1
 -2     21550     20963     20965     20947     26308     23834     25830     25784     23827     23830
 -1      5616    6    0    1
 -2     20595     20434     21626     21578     22637     26310     26309     26311     26128     26312
 -1      5617    6    0    1
 -2     21554     21617     21394     21519     25210     25211     25208     26313     26315     26314
 -1      5618    6    0    1
 -2     21430     21454     21573     21683     22319     25821     25772     25705     25822     25777
 -1      5619    6    0    1
 -2     21112     21077     21666     20994     24304     25763     25764     24275     24169     26316
 -1      5620    6    0    1
 -2     21631     20734     21712     21689     26319     26318     26317     26320     25377     26321
 -1      5621    6    0    1
 -2     20985     20541     21699     21589     23887     26323     26322     26324     26325     25331
 -1      5622    6    0    1
 -2     20473     21396     20474     21639     22036     22035     21804     26326     26328     26327
 -1      5623    6    0    1
 -2     21331     21341     21339     21546     25051     25054     25041     25452     25453     26329
 -1      5624    6    0    1
 -2     21573     20727     21126     21112     25795     26331     26330     25767     26332     24337
 -1      5625    6    0    1
 -2     20696     20727     21573     20650     23041     25795     25774     22940     23035     26333
 -1      5626    6    0    1
 -2     21585     21390     21358     20461     26335     22080     26334     26336     22024     21947
 -1      5627    6    0    1
 -2     20701     20733     21730     21027     23057     25673     26222     26223     25674     25670
 -1      5628    6    0    1
 -2     21391     21531     21565     21404     26339     26338     26337     22163     26341     26340
 -1      5629    6    0    1
 -2     20674     21530     21571     21531     26301     25497     26342     26100     25514     26343
 -1      5630    6    0    1
 -2     21560     21361     21578     21530     25386     26345     26344     26346     26348     26347
 -1      5631    6    0    1
 -2     20460     21585     21358     20461     26349     26334     21948     21791     26336     21947
 -1      5632    6    0    1
 -2     20882     21241     21208     21252     26350     24693     25921     25922     24729     24728
 -1      5633    6    0    1
 -2     20714     20736     21130     21520     23087     26094     26257     26351     26352     25421
 -1      5634    6    0    1
 -2     20996     21081     21538     21079     24178     26307     26353     24173     24179     26354
 -1      5635    6    0    1
 -2     21314     21550     21333     21323     26355     25149     25015     24977     25428     25014
 -1      5636    6    0    1
 -2     20549     21512     21586     20550     22543     26357     26356     21891     22544     26358
 -1      5637    6    0    1
 -2     21593     21669     21527     21511     25279     25280     25276     26359     25479     25481
 -1      5638    6    0    1
 -2     21567     20622     20479     21643     26201     22699     26360     26361     26363     26362
 -1      5639    6    0    1
 -2     21669     21527     21084     21115     25280     26365     26364     25281     25277     24301
 -1      5640    6    0    1
 -2     20490     21631     21416     21423     26064     26063     22195     22219     26366     22220
 -1      5641    6    0    1
 -2     21422     21660     21608     21421     26369     26368     26367     22239     26371     26370
 -1      5642    6    0    1
 -2     21567     21517     20622     21643     26202     26198     26201     26361     26059     26363
 -1      5643    6    0    1
 -2     21251     21545     20880     21544     26374     26373     26372     26375     26377     26376
 -1      5644    6    0    1
 -2     20560     21485     21506     21562     22485     22525     22528     26378     25449     26379
 -1      5645    6    0    1
 -2     20972     21099     21015     21531     24230     24229     24032     26380     25222     25221
 -1      5646    6    0    1
 -2     21555     20642     21648     21536     25565     25213     26381     26382     26384     26383
 -1      5647    6    0    1
 -2     21370     21687     21603     21569     26387     26386     26385     26388     26389     25192
 -1      5648    6    0    1
 -2     21420     21516     21689     21587     26391     25379     26390     26392     25156     26393
 -1      5649    6    0    1
 -2     20484     21420     21689     21587     22210     26390     26394     26395     26392     26393
 -1      5650    6    0    1
 -2     21157     21145     20838     21223     24421     25424     25978     24636     24635     25425
 -1      5651    6    0    1
 -2     20684     20611     21535     20724     22910     26397     26396     23021     23020     26398
 -1      5652    6    0    1
 -2     20748     21125     20839     21180     25228     26399     23391     25137     24511     26400
 -1      5653    6    0    1
 -2     21358     21406     21376     21533     22177     22095     22176     26401     26403     26402
 -1      5654    6    0    1
 -2     21534     21130     20736     21520     25418     26094     26404     25420     25421     26352
 -1      5655    6    0    1
 -2     20971     21560     21658     21530     26407     26406     26405     26408     26346     26409
 -1      5656    6    0    1
 -2     20751     21114     20764     21145     26411     26410     23165     26412     24384     26413
 -1      5657    6    0    1
 -2     20638     20678     21726     20598     22894     25407     26414     22812     22895     26415
 -1      5658    6    0    1
 -2     20764     20824     21145     21137     23350     25423     26413     26416     26417     24386
 -1      5659    6    0    1
 -2     21059     21106     21539     21121     24306     26419     26418     24326     24325     26420
 -1      5660    6    0    1
 -2     21389     21406     21358     21533     22178     22177     22041     26421     26403     26401
 -1      5661    6    0    1
 -2     21402     21658     21578     21685     26061     26423     26422     26424     26090     26425
 -1      5662    6    0    1
 -2     21639     21588     21365     20474     26082     26427     26426     26327     26428     21962
 -1      5663    6    0    1
 -2     20652     21600     21622     20496     26431     26430     26429     22764     26433     26432
 -1      5664    6    0    1
 -2     21290     20900     20874     20925     25722     23593     25720     26434     23683     23682
 -1      5665    6    0    1
 -2     21639     20474     21365     21396     26327     21962     26426     26328     22035     22107
 -1      5666    6    0    1
 -2     21383     21352     21411     21690     22005     22169     22168     26435     26437     26436
 -1      5667    6    0    1
 -2     20852     20779     21157     21119     23443     25629     25471     25101     26438     24420
 -1      5668    6    0    1
 -2     21560     21635     21392     21530     26287     26288     26285     26346     26147     25498
 -1      5669    6    0    1
 -2     21379     21386     21611     21355     22137     25267     25264     22136     22120     26172
 -1      5670    6    0    1
 -2     21124     21167     20739     21201     24472     26440     26439     24566     24565     26441
 -1      5671    6    0    1
 -2     20741     21540     21132     21150     25196     26443     26442     26444     26445     24400
 -1      5672    6    0    1
 -2     20540     21438     21589     21640     22271     26447     26446     26448     26449     25861
 -1      5673    6    0    1
 -2     20739     20748     20830     21167     23119     23367     23366     26440     25136     25069
 -1      5674    6    0    1
 -2     20781     21219     21540     20832     26452     26451     26450     23372     26453     25127
 -1      5675    6    0    1
 -2     20919     20911     20863     21260     23663     23626     23661     25887     26454     26260
 -1      5676    6    0    1
 -2     20739     20830     21201     21167     23366     25068     26441     26440     25069     24565
 -1      5677    6    0    1
 -2     21466     21641     20512     21443     25991     26455     22346     22347     26456     22289
 -1      5678    6    0    1
 -2     20819     20776     21210     21539     23336     26458     26457     25494     26460     26459
 -1      5679    6    0    1
 -2     21637     21582     21428     21535     26255     26220     26253     26461     26020     26462
 -1      5680    6    0    1
 -2     20799     20841     21153     20784     23398     25667     25665     23281     23399     25329
 -1      5681    6    0    1
 -2     20755     21538     21541     20788     26464     25959     26463     23236     26466     26465
 -1      5682    6    0    1
 -2     21307     21549     21329     21328     26468     26467     24995     24993     25098     24997
 -1      5683    6    0    1
 -2     20855     21268     20915     20884     26470     26469     23637     23541     25079     23639
 -1      5684    6    0    1
 -2     21438     20540     21589     21464     22271     26446     26447     22344     22340     26471
 -1      5685    6    0    1
 -2     21439     21517     21552     21699     26473     25579     26472     25333     26475     26474
 -1      5686    6    0    1
 -2     21640     21438     20539     20540     26449     22272     26476     26448     22271     21880
 -1      5687    6    0    1
 -2     20799     20784     21153     21120     23281     25329     25665     26477     25327     24462
 -1      5688    6    0    1
 -2     21106     21120     20770     21121     24324     25304     25303     24325     24328     26053
 -1      5689    6    0    1
 -2     20841     21178     20850     20854     25668     26478     23538     23462     26479     23599
 -1      5690    6    0    1
 -2     21584     20508     21445     21642     26481     22293     26480     26482     26484     26483
 -1      5691    6    0    1
 -2     21134     21228     21539     21189     24654     26485     25591     24531     24665     26486
 -1      5692    6    0    1
 -2     21465     21584     20507     20508     26270     26271     22343     22341     26481     21847
 -1      5693    6    0    1
 -2     20787     20680     20745     21109     23232     23110     23233     26487     26488     25753
 -1      5694    6    0    1
 -2     20467     21361     21560     20466     21953     25386     25385     21797     21954     26286
 -1      5695    6    0    1
 -2     21202     20780     20825     20853     25621     23352     25619     26489     23446     23448
 -1      5696    6    0    1
 -2     20809     20864     21207     20813     23480     26490     25942     23319     23481     26491
 -1      5697    6    0    1
 -2     20973     20463     21649     21581     23861     26493     26492     26494     26209     26495
 -1      5698    6    0    1
 -2     20770     20799     21210     21120     23280     26496     26052     25304     26477     24596
 -1      5699    6    0    1
 -2     20499     20500     21471     21590     21839     22362     22361     26497     26499     26498
 -1      5700    6    0    1
 -2     21644     20692     21679     21426     26502     26501     26500     26503     26505     26504
 -1      5701    6    0    1
 -2     21471     21522     21449     21456     26506     25684     22380     22436     26507     22410
 -1      5702    6    0    1
 -2     21539     21118     21059     21121     26508     24319     26418     26420     24327     24326
 -1      5703    6    0    1
 -2     21675     21643     21425     20480     26057     26058     26054     26509     26510     22231
 -1      5704    6    0    1
 -2     21732     21539     20816     21189     26512     25493     26511     25173     26486     26513
 -1      5705    6    0    1
 -2     21273     21259     20892     20825     24817     25650     26514     26515     26516     23567
 -1      5706    6    0    1
 -2     21535     20727     21573     21112     26518     25795     26517     26143     26332     25767
 -1      5707    6    0    1
 -2     21713     21723     21467     20988     26521     26520     26519     25750     26523     26522
 -1      5708    6    0    1
 -2     21732     21189     20816     20848     25173     26513     26511     25174     25171     23426
 -1      5709    6    0    1
 -2     21647     21518     21457     21697     25744     26525     26524     26526     26528     26527
 -1      5710    6    0    1
 -2     21732     21134     21537     21539     26530     25592     26529     26512     25591     25590
 -1      5711    6    0    1
 -2     21538     21081     21727     21038     26307     26532     26531     26305     24180     25270
 -1      5712    6    0    1
 -2     20801     21200     20872     20859     25362     25363     23503     23461     26533     23505
 -1      5713    6    0    1
 -2     21588     21536     21638     21397     26083     26535     26534     26536     26538     26537
 -1      5714    6    0    1
 -2     21604     21452     21679     20651     26540     26218     26539     26541     26543     26542
 -1      5715    6    0    1
 -2     21732     20848     20816     20768     25174     23426     26511     26544     23425     23327
 -1      5716    6    0    1
 -2     21528     20546     20601     20641     25233     22652     25598     26545     22742     22741
 -1      5717    6    0    1
 -2     21639     21396     21365     21369     26328     22107     26426     26546     22144     22162
 -1      5718    6    0    1
 -2     21262     21186     20889     21240     24764     26548     26547     24801     24692     26549
 -1      5719    6    0    1
 -2     20512     20513     21443     21676     21852     22290     22289     26550     26552     26551
 -1      5720    6    0    1
 -2     21579     21649     21391     21531     26555     26554     26553     26556     26557     26339
 -1      5721    6    0    1
 -2     20872     21200     21245     20859     25363     24704     26076     23505     26533     26558
 -1      5722    6    0    1
 -2     21644     20493     21474     21604     26560     22367     26559     26561     26563     26562
 -1      5723    6    0    1
 -2     21693     21665     20600     21528     26566     26565     26564     26567     26569     26568
 -1      5724    6    0    1
 -2     20493     21348     21574     21426     22244     25925     26570     22309     22246     26571
 -1      5725    6    0    1
 -2     21038     21068     21682     21591     24142     26573     26572     26574     26576     26575
 -1      5726    6    0    1
 -2     21234     21253     21277     20895     24733     24844     24843     26577     26579     26578
 -1      5727    6    0    1
 -2     20914     21289     21733     21547     26003     25980     26580     26004     26002     25678
 -1      5728    6    0    1
 -2     20728     20653     21522     20614     23037     26582     26581     23039     22864     26583
 -1      5729    6    0    1
 -2     21693     20600     20545     21528     26564     22649     26584     26567     26568     25809
 -1      5730    6    0    1
 -2     21430     21450     21629     21472     22438     26586     26585     22437     22381     25917
 -1      5731    6    0    1
 -2     21252     21200     21208     20859     24727     24646     24728     25923     26533     25920
 -1      5732    6    0    1
 -2     21269     21243     20871     21291     24782     25927     25929     24858     24857     25999
 -1      5733    6    0    1
 -2     20878     20931     21311     21291     23705     26138     26587     26001     26588     24934
 -1      5734    6    0    1
 -2     21717     20683     21527     21593     26591     26590     26589     26592     26593     25276
 -1      5735    6    0    1
 -2     21245     21200     21252     20859     24704     24727     24730     26558     26533     25923
 -1      5736    6    0    1
 -2     20720     21001     21715     21092     25853     25849     25852     26594     24213     26595
 -1      5737    6    0    1
 -2     21208     21200     20827     20859     24646     26304     26596     25920     26533     23460
 -1      5738    6    0    1
 -2     20491     21516     20492     20982     26598     26597     21827     23879     26106     23880
 -1      5739    6    0    1
 -2     20783     21537     21732     21133     25442     26529     26599     25968     26600     25175
 -1      5740    6    0    1
 -2     21539     20774     20819     20776     26292     23335     25494     26460     23200     23336
 -1      5741    6    0    1
 -2     21481     21526     21662     21510     25485     25486     25482     22588     26602     26601
 -1      5742    6    0    1
 -2     21548     21281     20845     21271     25197     26604     26603     26605     24823     25898
 -1      5743    6    0    1
 -2     21715     21092     21526     20720     26595     25655     26606     25852     26594     26607
 -1      5744    6    0    1
 -2     21447     21523     21458     21469     26608     25989     22403     22378     26609     22407
 -1      5745    6    0    1
 -2     21651     20720     21715     21592     25851     25852     25848     26610     26612     26611
 -1      5746    6    0    1
 -2     20827     21200     20801     20859     26304     25362     23358     23460     26533     23461
 -1      5747    6    0    1
 -2     20583     21486     20584     21591     22472     22471     21926     26613     26615     26614
 -1      5748    6    0    1
 -2     21167     21530     21531     21051     25269     25514     25512     24455     26146     25875
 -1      5749    6    0    1
 -2     21196     21540     21166     21123     26617     26616     24550     24551     26618     24451
 -1      5750    6    0    1
 -2     21398     21663     21709     21477     26621     26620     26619     26622     26624     26623
 -1      5751    6    0    1
 -2     21266     21225     21237     20876     24774     24683     24799     25242     25903     25241
 -1      5752    6    0    1
 -2     20688     20725     21108     20777     23027     25987     25988     23202     23201     25996
 -1      5753    6    0    1
 -2     20779     21085     21119     20777     26625     24321     26438     23210     26626     26160
 -1      5754    6    0    1
 -2     21592     20555     20554     21492     26628     21896     26627     26629     22492     22491
 -1      5755    6    0    1
 -2     20907     20876     20891     21544     23660     23565     23646     26630     26632     26631
 -1      5756    6    0    1
 -2     21067     20700     20988     21107     26633     25751     24140     24256     26634     24254
 -1      5757    6    0    1
 -2     21679     20996     21727     20692     26232     26636     26635     26501     26638     26637
 -1      5758    6    0    1
 -2     21259     20892     20919     21299     25650     23662     25886     24885     26640     26639
 -1      5759    6    0    1
 -2     20870     21255     21544     20891     25560     25135     26641     23564     26642     26631
 -1      5760    6    0    1
 -2     21538     21038     21727     20692     26305     25270     26531     26643     26644     26637
 -1      5761    6    0    1
 -2     20431     21565     21375     20430     26645     25846     21986     21760     25847     21985
 -1      5762    6    0    1
 -2     20809     20813     21179     20766     23319     26647     26646     23306     23317     26648
 -1      5763    6    0    1
 -2     20900     20876     20907     21544     23594     23660     23659     26649     26632     26630
 -1      5764    6    0    1
 -2     21520     20736     20670     20714     26352     23088     26650     26351     23087     22996
 -1      5765    6    0    1
 -2     20638     21726     21687     20598     26414     26652     26651     22812     26415     26653
 -1      5766    6    0    1
 -2     21107     21127     21734     21140     24340     26655     26654     24371     24373     26656
 -1      5767    6    0    1
 -2     20741     21150     21132     21048     26444     24400     26442     26657     24399     24349
 -1      5768    6    0    1
 -2     21481     21510     21662     21493     22588     26601     25482     22593     22576     26658
 -1      5769    6    0    1
 -2     21376     21532     21585     21533     26661     26660     26659     26402     26663     26662
 -1      5770    6    0    1
 -2     21147     21540     21166     21181     26664     26616     24498     24513     26665     24514
 -1      5771    6    0    1
 -2     21727     20692     20610     21426     26637     22929     26666     26667     26505     26668
 -1      5772    6    0    1
 -2     21363     21371     21677     21401     22185     26670     26669     22156     22090     26671
 -1      5773    6    0    1
 -2     21213     20765     20836     20845     26673     23383     26672     26674     23409     23411
 -1      5774    6    0    1
 -2     20844     20802     20861     21541     23435     23471     23470     26675     26677     26676
 -1      5775    6    0    1
 -2     20830     21251     21201     21180     26678     24725     25068     25070     24724     24567
 -1      5776    6    0    1
 -2     21251     21544     21201     21233     26375     25072     24725     24734     26679     24675
 -1      5777    6    0    1
 -2     21529     21057     20805     21131     26681     26188     26680     26682     24347     26683
 -1      5778    6    0    1
 -2     20720     21114     21001     21092     26684     24282     25853     26594     24314     24213
 -1      5779    6    0    1
 -2     20594     20633     20712     21531     22838     22986     22988     26685     26686     26099
 -1      5780    6    0    1
 -2     21378     21534     21553     21387     25297     26688     26687     22140     26689     25143
 -1      5781    6    0    1
 -2     21560     21530     21578     21658     26346     26347     26344     26406     26409     26423
 -1      5782    6    0    1
 -2     21201     21544     21226     21233     25072     26690     24668     24675     26679     24676
 -1      5783    6    0    1
 -2     21535     21035     20995     21078     26137     24076     26028     26029     24172     24171
 -1      5784    6    0    1
 -2     21550     21323     21292     21297     25428     24976     26691     25430     24978     24879
 -1      5785    6    0    1
 -2     20775     21198     21149     21126     26692     24558     25397     26693     24557     24397
 -1      5786    6    0    1
 -2     21509     21701     21563     21651     26696     26695     26694     26697     26699     26698
 -1      5787    6    0    1
 -2     21629     21573     20497     20650     25918     25755     25916     26700     26333     22759
 -1      5788    6    0    1
 -2     20818     21198     20865     21231     25432     25641     23482     25433     24670     25640
 -1      5789    6    0    1
 -2     21523     21128     21161     20697     25097     24435     25095     26701     25105     25106
 -1      5790    6    0    1
 -2     20753     21526     20682     20685     26703     26702     23132     23133     26704     22914
 -1      5791    6    0    1
 -2     21706     21491     21483     21612     26706     22608     26705     26707     26709     26708
 -1      5792    6    0    1
 -2     21540     21222     21196     21181     26710     24699     26617     26665     24633     24552
 -1      5793    6    0    1
 -2     21097     21049     21122     21519     24261     24330     24329     26159     26712     26711
 -1      5794    6    0    1
 -2     21158     20749     21080     21117     26713     26233     24423     24424     26714     24317
 -1      5795    6    0    1
 -2     20926     21297     20904     21550     25663     26206     23686     26715     25430     25782
 -1      5796    6    0    1
 -2     21593     21511     21502     21669     26359     22606     26716     25279     25479     26717
 -1      5797    6    0    1
 -2     20646     21563     21737     21701     26720     26719     26718     26721     26695     26722
 -1      5798    6    0    1
 -2     21426     21474     21679     21644     22388     26723     26504     26503     26559     26500
 -1      5799    6    0    1
 -2     21677     21371     20438     21401     26670     21977     26724     26671     22090     22052
 -1      5800    6    0    1
 -2     21677     21371     20439     20438     26670     21978     26725     26724     21977     21768
 -1      5801    6    0    1
 -2     21620     21068     21682     20998     25961     26573     26726     25964     24141     26727
 -1      5802    6    0    1
 -2     20908     20898     21542     21275     23691     26729     26728     26730     25984     26731
 -1      5803    6    0    1
 -2     21618     21521     21379     21529     25206     26732     26032     26031     25411     25266
 -1      5804    6    0    1
 -2     21378     21583     20425     21407     25295     26733     21992     22111     26734     22063
 -1      5805    6    0    1
 -2     21538     20758     20690     20692     26736     23147     26735     26643     23146     22931
 -1      5806    6    0    1
 -2     20851     21238     21255     21211     25533     24741     25559     25140     24687     24742
 -1      5807    6    0    1
 -2     21678     21345     21594     21476     26739     26738     26737     26740     22450     26741
 -1      5808    6    0    1
 -2     21238     21255     21240     20870     24741     24810     24809     25534     25560     26742
 -1      5809    6    0    1
 -2     21370     21569     21603     21364     26388     25192     26385     22182     26744     26743
 -1      5810    6    0    1
 -2     21536     20601     20679     20681     26746     22898     26745     26747     22902     22905
 -1      5811    6    0    1
 -2     20870     20891     21544     20889     23564     26631     26641     23559     23692     26748
 -1      5812    6    0    1
 -2     21109     21087     21714     21004     24267     26750     26749     24266     24194     26751
 -1      5813    6    0    1
 -2     20804     21225     21211     20876     26752     24659     25138     23515     25903     26753
 -1      5814    6    0    1
 -2     20837     21225     20804     20876     25902     26752     23386     23514     25903     23515
 -1      5815    6    0    1
 -2     21568     21475     21368     21515     26756     26755     26754     25818     22567     26757
 -1      5816    6    0    1
 -2     21636     20723     21706     20606     26760     26759     26758     26761     23017     26762
 -1      5817    6    0    1
 -2     20804     21211     21255     20876     25138     24742     26763     23515     26753     26764
 -1      5818    6    0    1
 -2     20955     20942     21300     21321     23794     25623     25159     25161     26765     24972
 -1      5819    6    0    1
 -2     21067     21127     21734     21107     24339     26655     26766     24256     24340     26654
 -1      5820    6    0    1
 -2     21211     21225     21266     20876     24659     24774     24773     26753     25903     25242
 -1      5821    6    0    1
 -2     21582     20520     21428     20519     26256     22251     26220     26767     21860     22252
 -1      5822    6    0    1
 -2     20731     21525     21067     20988     25459     26769     26768     26770     26771     24140
 -1      5823    6    0    1
 -2     21110     21144     21538     21151     24383     25958     26772     24402     24404     25960
 -1      5824    6    0    1
 -2     20923     20914     21547     21317     23676     26004     25182     25180     25618     25183
 -1      5825    6    0    1
 -2     21645     20495     21473     21600     26774     22365     26773     26775     26777     26776
 -1      5826    6    0    1
 -2     21232     21277     20888     21542     24925     26779     26778     26780     26782     26781
 -1      5827    6    0    1
 -2     20687     20723     21083     20751     23018     26784     26783     23127     23126     25628
 -1      5828    6    0    1
 -2     21207     20809     21542     20864     25942     25943     25941     26490     23480     26785
 -1      5829    6    0    1
 -2     21377     21407     20426     21646     22096     22064     21989     25687     25689     25651
 -1      5830    6    0    1
 -2     21234     21277     20886     20895     24843     26787     26786     26577     26578     23629
 -1      5831    6    0    1
 -2     20494     20495     21452     21645     21834     22308     22307     26788     26774     26789
 -1      5832    6    0    1
 -2     21517     21414     20486     21424     25580     22192     25577     26790     22226     22223
 -1      5833    6    0    1
 -2     21631     21516     21090     20734     26107     26109     26108     26319     25378     26791
 -1      5834    6    0    1
 -2     20990     21074     21524     21030     24158     26793     26792     24087     24159     26794
 -1      5835    6    0    1
 -2     20684     20758     21538     20692     23149     26736     26795     23025     23146     26643
 -1      5836    6    0    1
 -2     20545     20600     21693     20544     22649     26564     26584     21886     22650     26796
 -1      5837    6    0    1
 -2     21538     20758     20684     20755     26736     23149     26795     26464     23253     23138
 -1      5838    6    0    1
 -2     20687     21114     20720     20764     26797     26684     23024     23162     26410     23163
 -1      5839    6    0    1
 -2     21542     21221     21193     21277     26799     24630     26798     26782     24838     24812
 -1      5840    6    0    1
 -2     21256     21542     21193     21277     26800     26798     24744     24811     26782     24812
 -1      5841    6    0    1
 -2     20715     20593     21674     21532     22997     26802     26801     26227     25617     26803
 -1      5842    6    0    1
 -2     20879     21283     21733     20862     25361     25954     25680     23525     25360     25572
 -1      5843    6    0    1
 -2     21565     21532     21359     21405     25614     26805     26804     25845     26806     22165
 -1      5844    6    0    1
 -2     20690     20758     21538     20747     23147     26736     26735     23114     23148     26807
 -1      5845    6    0    1
 -2     21448     21518     21575     21457     25574     26809     26808     22413     26525     26810
 -1      5846    6    0    1
 -2     20781     21123     21540     21219     25091     26618     26450     26452     24622     26451
 -1      5847    6    0    1
 -2     21724     21480     20572     21593     26812     22459     26811     26813     26815     26814
 -1      5848    6    0    1
 -2     20761     20810     20808     21215     23308     23310     23304     26816     26817     25187
 -1      5849    6    0    1
 -2     20616     20655     20695     21523     22852     22938     22937     26818     26820     26819
 -1      5850    6    0    1
 -2     21547     20879     21265     21288     25679     26822     26821     25682     25683     24849
 -1      5851    6    0    1
 -2     20593     21565     21674     21532     25616     26823     26802     25617     25614     26803
 -1      5852    6    0    1
 -2     21432     21523     21448     21469     25948     26824     22412     22408     26609     22399
 -1      5853    6    0    1
 -2     20519     21679     21704     21455     26827     26826     26825     22316     26829     26828
 -1      5854    6    0    1
 -2     21273     21310     20875     21299     24930     26831     26830     24884     24931     26832
 -1      5855    6    0    1
 -2     21718     21427     20518     21704     26834     22250     26833     26835     26837     26836
 -1      5856    6    0    1
 -2     21680     21346     21347     21413     26838     21811     25129     26839     22188     22187
 -1      5857    6    0    1
 -2     20776     21106     20770     21121     26840     25303     23254     26841     24325     26053
 -1      5858    6    0    1
 -2     21699     20542     20541     21007     26842     21882     26323     26843     23934     23981
 -1      5859    6    0    1
 -2     21333     20965     21314     20953     26845     26844     25015     26149     23843     26148
 -1      5860    6    0    1
 -2     21299     21322     20955     21300     24973     25160     25601     24888     24974     25159
 -1      5861    6    0    1
 -2     20478     20564     21594     20410     23845     26847     26846     21809     21906     26848
 -1      5862    6    0    1
 -2     21550     21549     21337     21339     25150     25151     25148     25520     25522     25056
 -1      5863    6    0    1
 -2     20510     21729     20619     21634     26850     26849     22690     26851     26853     26852
 -1      5864    6    0    1
 -2     20761     21194     20762     20810     26855     26854     23159     23308     26856     23309
 -1      5865    6    0    1
 -2     21305     20857     21310     20923     26858     26857     24956     25610     23675     25611
 -1      5866    6    0    1
 -2     21542     21734     21127     21140     26859     26655     25704     26860     26656     24373
 -1      5867    6    0    1
 -2     21673     20719     20968     21011     25190     25844     25842     26861     25884     24028
 -1      5868    6    0    1
 -2     21260     21261     20911     20868     24759     26862     26454     26863     26864     23625
 -1      5869    6    0    1
 -2     21279     20901     21301     21261     26866     26865     24919     24815     26867     24894
 -1      5870    6    0    1
 -2     21519     21096     21012     21049     26869     24223     26868     26712     24293     24101
 -1      5871    6    0    1
 -2     21083     21114     20687     20751     24281     26797     26783     25628     26411     23127
 -1      5872    6    0    1
 -2     21538     20788     21535     21151     26466     26871     26870     25960     26873     26872
 -1      5873    6    0    1
 -2     21625     21011     20677     21673     26876     26875     26874     25829     26861     26877
 -1      5874    6    0    1
 -2     20552     21493     21511     21595     22493     22557     22542     26878     26880     26879
 -1      5875    6    0    1
 -2     21124     21226     21201     20835     24647     24668     24566     26881     25518     25073
 -1      5876    6    0    1
 -2     20416     21681     21721     21382     26884     26883     26882     21999     26886     26885
 -1      5877    6    0    1
 -2     20872     21236     21245     21187     26887     24705     26076     25364     24682     24703
 -1      5878    6    0    1
 -2     21238     21219     21527     20851     24688     25542     25540     25533     25531     26888
 -1      5879    6    0    1
 -2     21552     20542     21699     21007     26889     26842     26474     26890     23934     26843
 -1      5880    6    0    1
 -2     20440     21370     21400     21569     21975     22089     22050     26891     26388     26892
 -1      5881    6    0    1
 -2     20416     21382     21721     20417     21999     26885     26882     21746     22000     26893
 -1      5882    6    0    1
 -2     21716     20988     21713     21467     25749     25750     25746     26894     26522     26519
 -1      5883    6    0    1
 -2     20932     20942     20954     21321     23746     23789     23788     25061     26765     25320
 -1      5884    6    0    1
 -2     21571     21626     21403     21530     25880     25881     25499     25497     26895     25500
 -1      5885    6    0    1
 -2     21067     21542     21734     21127     25702     26859     26766     24339     25704     26655
 -1      5886    6    0    1
 -2     20770     21121     21210     20776     26053     24602     26052     23254     26841     26458
 -1      5887    6    0    1
 -2     21596     21647     21431     20525     26898     26897     26896     26899     26900     22258
 -1      5888    6    0    1
 -2     21000     21037     20688     21652     24010     25877     26901     26902     25878     25855
 -1      5889    6    0    1
 -2     20558     21508     21572     21490     22536     26248     26249     22487     22564     25889
 -1      5890    6    0    1
 -2     21534     20782     20668     20709     25282     23219     25204     26903     23218     22978
 -1      5891    6    0    1
 -2     21547     20940     20918     20929     25344     23738     25343     26904     23740     23697
 -1      5892    6    0    1
 -2     21119     20779     21157     21085     26438     25629     24420     24321     26625     24419
 -1      5893    6    0    1
 -2     21273     20825     20892     20875     26515     23567     26514     26830     23513     23650
 -1      5894    6    0    1
 -2     20877     21217     20896     21267     26906     26905     23581     26907     24775     26908
 -1      5895    6    0    1
 -2     20726     21705     21698     21039     25933     25932     25935     26909     26911     26910
 -1      5896    6    0    1
 -2     21560     21530     21392     21361     26346     25498     26285     25386     26348     22103
 -1      5897    6    0    1
 -2     21295     21543     21546     21284     25596     26178     26912     24871     26914     26913
 -1      5898    6    0    1
 -2     21664     21525     21461     21610     26917     26916     26915     26918     26920     26919
 -1      5899    6    0    1
 -2     20658     21525     20731     20988     26921     25459     23049     26922     26771     26770
 -1      5900    6    0    1
 -2     21026     20661     21076     20703     26924     26923     24203     26925     22955     26926
 -1      5901    6    0    1
 -2     20690     21038     21735     21591     26929     26928     26927     26930     26574     26931
 -1      5902    6    0    1
 -2     21287     20873     21270     21305     25982     26932     24842     24910     25178     24911
 -1      5903    6    0    1
 -2     21634     21713     21729     20619     26934     26933     26853     26852     26935     26849
 -1      5904    6    0    1
 -2     20762     21194     20836     20810     26854     26936     23382     23309     26856     23384
 -1      5905    6    0    1
 -2     20699     20766     20754     21525     23170     23172     23136     25460     26938     26937
 -1      5906    6    0    1
 -2     20943     20927     20921     21546     23747     23719     23748     25539     25840     25538
 -1      5907    6    0    1
 -2     21465     21435     21615     21525     22416     26940     26939     26941     26943     26942
 -1      5908    6    0    1
 -2     21543     21546     21550     21332     26178     26945     26944     25634     26946     25429
 -1      5909    6    0    1
 -2     20960     21321     20954     20955     26947     25320     23835     23816     25161     23837
 -1      5910    6    0    1
 -2     21188     21543     20812     20821     26949     26948     26140     26300     26950     23423
 -1      5911    6    0    1
 -2     21572     20559     20558     21490     25892     21900     26249     25889     22488     22487
 -1      5912    6    0    1
 -2     20833     21227     21287     20856     26951     24840     25981     23492     26952     25983
 -1      5913    6    0    1
 -2     20621     20661     21026     20703     22831     26924     26953     22956     22955     26925
 -1      5914    6    0    1
 -2     20619     21729     20510     21716     26849     26850     22690     26954     26956     26955
 -1      5915    6    0    1
 -2     21442     21439     21699     21517     22443     25333     25330     26957     26473     26475
 -1      5916    6    0    1
 -2     20700     21067     21734     21107     26633     26766     26958     26634     24256     26654
 -1      5917    6    0    1
 -2     20767     21518     21136     20760     25699     25700     25697     23176     26960     26959
 -1      5918    6    0    1
 -2     20864     21280     20908     21275     26962     26961     23618     26963     24889     26730
 -1      5919    6    0    1
 -2     20952     20961     21329     20939     23813     26964     25528     23784     23811     25529
 -1      5920    6    0    1
 -2     21105     21022     20979     21537     24243     24039     24244     25589     26966     26965
 -1      5921    6    0    1
 -2     21149     21522     21111     21142     26968     26967     24396     24475     26969     24377
 -1      5922    6    0    1
 -2     21625     20677     21707     21395     26874     26971     26970     25825     26973     26972
 -1      5923    6    0    1
 -2     21270     20857     21310     21305     26974     26857     24932     24911     26858     24956
 -1      5924    6    0    1
 -2     20955     21321     20954     20942     25161     25320     23837     23794     26765     23789
 -1      5925    6    0    1
 -2     21518     21522     21160     21075     25745     26975     25701     25743     25742     24431
 -1      5926    6    0    1
 -2     20761     20808     21173     21215     23304     25357     25354     26816     25187     24611
 -1      5927    6    0    1
 -2     21518     20760     20767     20710     26960     23176     25699     26976     23153     23173
 -1      5928    6    0    1
 -2     20667     20770     21106     21060     23182     25303     26977     26978     25305     24294
 -1      5929    6    0    1
 -2     20873     20857     21270     21305     23508     26974     26932     25178     26858     24911
 -1      5930    6    0    1
 -2     20855     20884     20847     21205     23541     23540     23451     25383     25078     25384
 -1      5931    6    0    1
 -2     21613     21342     21419     21418     26979     22205     25154     26980     22203     22206
 -1      5932    6    0    1
 -2     21076     21093     21026     20703     24295     24216     24203     26926     26098     26925
 -1      5933    6    0    1
 -2     21522     20500     20653     21590     26981     22768     26582     25715     26499     26982
 -1      5934    6    0    1
 -2     21124     20743     20739     21050     26983     23105     26439     24334     25806     26984
 -1      5935    6    0    1
 -2     21478     21514     21496     21528     22582     22560     22583     26985     25810     25234
 -1      5936    6    0    1
 -2     21561     21619     21714     21512     25437     26987     26986     26988     25953     26989
 -1      5937    6    0    1
 -2     21536     20678     21726     20721     25406     25407     25403     26990     23029     26991
 -1      5938    6    0    1
 -2     21042     21527     21086     21084     26992     26010     24190     24186     26365     24193
 -1      5939    6    0    1
 -2     20569     21561     21044     21648     26994     26993     24020     26995     26996     25550
 -1      5940    6    0    1
 -2     20750     20722     21536     21088     23122     26997     25868     25834     26998     25869
 -1      5941    6    0    1
 -2     21716     21713     20619     21729     25746     26935     26954     26956     26933     26849
 -1      5942    6    0    1
 -2     21399     21580     20441     20442     26170     26999     22047     22048     26169     21771
 -1      5943    6    0    1
 -2     20662     21517     20622     20661     27000     26198     22788     22867     27001     22858
 -1      5944    6    0    1
 -2     21726     21010     21603     20678     25836     26268     27002     25407     25837     26267
 -1      5945    6    0    1
 -2     21675     20480     21425     21421     26509     22231     26054     27003     22213     22232
 -1      5946    6    0    1
 -2     21478     21498     21514     21528     22512     22611     22582     26985     27004     25810
 -1      5947    6    0    1
 -2     21633     21577     21559     21023     26183     25113     25374     27005     27007     27006
 -1      5948    6    0    1
 -2     20967     21091     21639     21588     24209     26085     27008     27009     26086     26082
 -1      5949    6    0    1
 -2     20795     21159     20850     20798     27011     27010     23431     23277     25292     23433
 -1      5950    6    0    1
 -2     21649     20464     21391     20463     27012     22025     26554     26493     21794     22026
 -1      5951    6    0    1
 -2     21560     21658     21578     21393     26406     26423     26344     25387     26062     27013
 -1      5952    6    0    1
 -2     21133     21189     20848     21192     24532     25171     25172     24540     24542     27014
 -1      5953    6    0    1
 -2     20620     21730     21650     21676     27016     26215     27015     27017     27019     27018
 -1      5954    6    0    1
 -2     21687     21370     20441     21569     26387     21976     27020     26389     26388     27021
 -1      5955    6    0    1
 -2     21731     21567     20622     20516     26200     26201     26197     26078     25779     22696
 -1      5956    6    0    1
 -2     21530     21658     21013     20675     26409     26089     27022     27023     27025     27024
 -1      5957    6    0    1
 -2     21095     20719     21048     21011     25883     27026     24308     24221     25884     24099
 -1      5958    6    0    1
 -2     20732     20700     20796     21107     23053     23263     23262     27027     26634     27028
 -1      5959    6    0    1
 -2     20717     21519     21097     20743     25252     26159     25807     23103     27029     25808
 -1      5960    6    0    1
 -2     20717     20743     21050     20675     23103     25806     25805     23076     23104     27030
 -1      5961    6    0    1
 -2     20985     21007     21699     20541     23980     26843     26322     23887     23981     26323
 -1      5962    6    0    1
 -2     21361     21393     21578     21373     22083     27013     26345     22152     22151     26126
 -1      5963    6    0    1
 -2     21621     21566     20586     21721     27032     27031     26244     27033     27035     27034
 -1      5964    6    0    1
 -2     21530     20716     20595     20675     26303     23000     27036     27023     23081     22889
 -1      5965    6    0    1
 -2     20886     21277     20888     20895     26787     26779     23555     23629     26578     23630
 -1      5966    6    0    1
 -2     21167     21051     21531     21125     24455     25875     25512     24497     24336     25874
 -1      5967    6    0    1
 -2     21135     21096     21519     21049     24359     26869     27037     24358     24293     26712
 -1      5968    6    0    1
 -2     21658     21530     21578     20675     26409     26347     26423     27025     27023     27038
 -1      5969    6    0    1
 -2     20739     21530     21050     20675     27039     25219     26984     23093     27023     27030
 -1      5970    6    0    1
 -2     20717     20675     21050     21013     23076     27030     25805     26047     27024     24103
 -1      5971    6    0    1
 -2     21207     21214     21542     21165     24760     27040     25941     24585     24608     25703
 -1      5972    6    0    1
 -2     21467     21444     21713     21729     22376     27041     26519     27042     27043     26933
 -1      5973    6    0    1
 -2     20766     21179     21069     20794     26648     24510     27044     23279     27046     27045
 -1      5974    6    0    1
 -2     20830     21544     20867     20835     25071     27047     23488     23421     25074     23487
 -1      5975    6    0    1
 -2     20677     21096     21048     20969     27049     24283     27048     25895     24224     24098
 -1      5976    6    0    1
 -2     21725     21497     21498     21528     27051     22612     27050     27052     27053     27004
 -1      5977    6    0    1
 -2     21725     21528     21498     20566     27052     27004     27050     27054     27055     22504
 -1      5978    6    0    1
 -2     20858     21541     20844     20861     27056     26675     23459     23473     26676     23470
 -1      5979    6    0    1
 -2     20858     21541     20905     21543     27056     26014     23664     27057     26036     26035
 -1      5980    6    0    1
 -2     20846     21140     21734     21542     27059     26656     27058     27060     26860     26859
 -1      5981    6    0    1
 -2     21536     20722     20679     20642     26997     23015     26745     26384     23014     22897
 -1      5982    6    0    1
 -2     21565     21405     21359     21375     25845     22165     26804     25846     22094     22146
 -1      5983    6    0    1
 -2     20767     20760     21136     21182     23176     26959     25697     27061     27062     24516
 -1      5984    6    0    1
 -2     21712     21631     21551     21064     26317     26065     27063     27064     27066     27065
 -1      5985    6    0    1
 -2     21117     20749     21080     20752     26714     26233     24317     27067     23130     26234
 -1      5986    6    0    1
 -2     21439     21699     21552     20542     25333     26474     26472     22273     26842     26889
 -1      5987    6    0    1
 -2     21043     20572     21669     21593     24019     27069     27068     27070     26814     25279
 -1      5988    6    0    1
 -2     21537     20711     21621     21566     25395     27072     27071     27073     27074     27032
 -1      5989    6    0    1
 -2     21163     20747     21068     21538     27076     27075     24441     25660     26807     26306
 -1      5990    6    0    1
 -2     21105     21537     21059     21022     25589     27077     24309     24243     26966     24121
 -1      5991    6    0    1
 -2     20626     21537     20418     21566     25396     27078     22707     27079     27073     25760
 -1      5992    6    0    1
 -2     20431     21404     21375     21565     22057     22108     21986     26645     26340     25846
 -1      5993    6    0    1
 -2     21544     20880     20917     21545     26376     23648     27080     26377     26373     27081
 -1      5994    6    0    1
 -2     21347     21552     21414     20412     25132     25130     22190     21812     27082     22189
 -1      5995    6    0    1
 -2     20944     21545     20917     20928     27083     27081     23750     23751     27084     23695
 -1      5996    6    0    1
 -2     20539     20986     21602     21728     23889     27086     27085     27087     27089     27088
 -1      5997    6    0    1
 -2     20888     21232     21542     20898     26778     26780     26781     23657     25977     26729
 -1      5998    6    0    1
 -2     20880     21544     20917     20867     26376     27080     23648     23528     27047     23647
 -1      5999    6    0    1
 -2     21110     21151     21538     21535     24402     25960     26772     26019     26872     26870
 -1      6000    6    0    1
 -2     21146     21079     21144     21538     24388     24382     24389     25659     26354     25958
 -1      6001    6    0    1
 -2     21093     20986     20621     20702     24215     27091     27090     27092     27093     22953
 -1      6002    6    0    1
 -2     21544     20917     20900     21545     27080     23703     26649     26377     27081     27094
 -1      6003    6    0    1
 -2     20707     21527     21595     20683     27097     27096     27095     22970     26590     27098
 -1      6004    6    0    1
 -2     21521     21154     21056     21156     27100     24410     27099     27101     24416     24415
 -1      6005    6    0    1
 -2     21093     20702     20621     20703     27092     22953     27090     26098     22957     22956
 -1      6006    6    0    1
 -2     21470     21457     21647     21518     22432     26524     27102     25573     26525     25744
 -1      6007    6    0    1
 -2     21520     20975     20671     20591     26266     27104     27103     25546     26070     22881
 -1      6008    6    0    1
 -2     21520     20591     20671     20714     25546     22881     27103     26351     22993     23078
 -1      6009    6    0    1
 -2     21682     20582     20583     21507     27106     21925     27105     27107     22530     22529
 -1      6010    6    0    1
 -2     21509     20556     21701     21651     22538     27108     26696     26697     27109     26699
 -1      6011    6    0    1
 -2     20809     20807     21542     20887     23307     27110     25943     23548     23550     27111
 -1      6012    6    0    1
 -2     21735     21656     21591     21488     27113     27112     26931     27114     27116     27115
 -1      6013    6    0    1
 -2     21679     21582     21428     20519     26219     26220     26217     26827     26767     22252
 -1      6014    6    0    1
 -2     21239     21291     20916     21263     24891     25226     25224     24767     24907     27117
 -1      6015    6    0    1
 -2     21694     21728     21602     20986     27118     27088     25288     27119     27089     27086
 -1      6016    6    0    1
 -2     21567     21413     20479     21720     27120     22215     26360     27121     27123     27122
 -1      6017    6    0    1
 -2     21076     20623     21061     20703     27125     27124     24167     26926     22966     26096
 -1      6018    6    0    1
 -2     21508     21000     21652     21616     27127     26902     27126     27128     27130     27129
 -1      6019    6    0    1
 -2     21627     21698     21562     21506     25937     25931     25936     25899     27131     26379
 -1      6020    6    0    1
 -2     21520     20714     20671     21102     26351     23078     27103     27132     26258     27133
 -1      6021    6    0    1
 -2     20878     21311     21287     21269     26587     24946     27134     26000     24935     24841
 -1      6022    6    0    1
 -2     20607     21572     21490     21627     27136     25889     27135     27137     25890     25888
 -1      6023    6    0    1
 -2     21080     21158     21108     20749     24423     24422     24264     26233     26713     25995
 -1      6024    6    0    1
 -2     21712     21689     21420     21631     26321     26390     27138     26317     26320     27139
 -1      6025    6    0    1
 -2     20667     21060     21106     21023     26978     24294     26977     27140     24123     24245
 -1      6026    6    0    1
 -2     21424     21517     21425     21415     26790     26055     22236     22233     27141     22238
 -1      6027    6    0    1
 -2     20732     21066     21028     21107     27143     24137     27142     27027     24253     24252
 -1      6028    6    0    1
 -2     20902     20835     20867     21544     23598     23487     23614     27144     25074     27047
 -1      6029    6    0    1
 -2     20739     20835     21201     20830     23380     25073     26441     23366     23421     25068
 -1      6030    6    0    1
 -2     20698     20656     21524     20617     22946     27145     25081     22945     22853     27146
 -1      6031    6    0    1
 -2     21610     21642     21467     21716     27149     27148     27147     27150     27151     26894
 -1      6032    6    0    1
 -2     21631     21689     21420     21516     26320     26390     27139     26107     25379     26391
 -1      6033    6    0    1
 -2     21525     21445     21435     21461     27152     22417     26943     26916     22418     22374
 -1      6034    6    0    1
 -2     21459     20531     21524     21434     22327     27154     27153     22384     22264     27155
 -1      6035    6    0    1
 -2     21631     21420     21417     21516     27139     22243     27156     26107     26391     27157
 -1      6036    6    0    1
 -2     21081     21538     21146     21068     26307     25659     24387     24262     26306     24390
 -1      6037    6    0    1
 -2     21631     21712     21551     21416     26317     27063     26065     26063     27158     25094
 -1      6038    6    0    1
 -2     21631     21064     21712     20734     27066     27064     26317     26319     27159     26318
 -1      6039    6    0    1
 -2     21660     20623     21076     21675     27161     27125     27160     27162     27164     27163
 -1      6040    6    0    1
 -2     20704     21061     21551     20623     26095     27166     27165     22960     27124     27167
 -1      6041    6    0    1
 -2     20767     21197     21160     21142     27168     24555     25698     27169     24554     24432
 -1      6042    6    0    1
 -2     21035     21535     21573     21112     26137     26517     27170     24274     26143     25767
 -1      6043    6    0    1
 -2     21038     20692     21538     20690     26644     26643     26305     26929     22931     26735
 -1      6044    6    0    1
 -2     20690     21068     20726     20747     27171     25962     23083     23114     27075     23115
 -1      6045    6    0    1
 -2     21083     21686     21040     21000     27173     27172     24183     24184     27174     24053
 -1      6046    6    0    1
 -2     20701     20733     20620     21730     23057     23056     22951     26222     25673     27016
 -1      6047    6    0    1
 -2     21520     21583     21378     21407     27176     25295     27175     25690     26734     22111
 -1      6048    6    0    1
 -2     20630     21520     21583     20590     26263     27176     27177     22804     27179     27178
 -1      6049    6    0    1
 -2     20734     21064     21551     20704     27159     27065     27180     23069     27181     27165
 -1      6050    6    0    1
 -2     21064     20763     20784     21153     27183     23259     27182     24408     27184     25329
 -1      6051    6    0    1
 -2     21408     21534     21378     21387     25312     25297     22097     22172     26689     22140
 -1      6052    6    0    1
 -2     20833     20790     20792     21224     23375     23248     23373     27185     27187     27186
 -1      6053    6    0    1
 -2     21170     20778     20812     20771     26141     23315     26139     27188     23221     23316
 -1      6054    6    0    1
 -2     20701     21066     20795     21070     27190     27189     23260     27191     24147     27192
 -1      6055    6    0    1
 -2     21273     20853     21270     21202     27194     27193     24798     24796     26489     24787
 -1      6056    6    0    1
 -2     21454     21430     21573     21472     22319     25772     25821     22442     22437     25919
 -1      6057    6    0    1
 -2     21656     21735     20610     21488     27113     27196     27195     27116     27114     27197
 -1      6058    6    0    1
 -2     21547     20940     20929     20934     25344     23740     26904     27198     23782     23775
 -1      6059    6    0    1
 -2     20919     21259     20863     20892     25886     25644     23661     23662     25650     23568
 -1      6060    6    0    1
 -2     21114     21563     20720     21001     27200     27199     26684     24282     27201     25853
 -1      6061    6    0    1
 -2     21006     21089     21009     21528     24198     24201     24202     25243     25111     27202
 -1      6062    6    0    1
 -2     20578     21000     21616     20579     23918     27130     27203     21921     23919     27204
 -1      6063    6    0    1
 -2     21202     20853     20825     21273     26489     23448     25619     24796     27194     26515
 -1      6064    6    0    1
 -2     21202     21273     20825     21204     24796     26515     25619     24576     24797     25620
 -1      6065    6    0    1
 -2     20910     20898     21275     21248     23640     25984     27205     27206     25972     24846
 -1      6066    6    0    1
 -2     21356     21407     21388     21520     22135     22134     22078     26049     25690     26110
 -1      6067    6    0    1
 -2     21021     20979     21614     21537     24071     27208     27207     26184     26965     27209
 -1      6068    6    0    1
 -2     20720     20746     20764     21092     23112     23164     23163     26594     27211     27210
 -1      6069    6    0    1
 -2     20852     20779     21119     20777     23443     26438     25101     23442     23210     26160
 -1      6070    6    0    1
 -2     20816     20898     20848     21189     23586     23588     23426     26513     25973     25171
 -1      6071    6    0    1
 -2     20794     20766     21179     20813     23279     26648     27046     23318     23317     26647
 -1      6072    6    0    1
 -2     20690     21591     21656     21486     26930     27112     27212     25474     26615     27213
 -1      6073    6    0    1
 -2     20661     21076     20662     21517     26923     27214     22867     27001     27215     27000
 -1      6074    6    0    1
 -2     21652     20607     21627     20725     25854     27137     27216     25856     23026     27217
 -1      6075    6    0    1
 -2     21317     21326     21547     21318     24985     26120     25183     24961     24986     25184
 -1      6076    6    0    1
 -2     20682     20720     21592     21526     23009     26612     27218     26702     26607     26024
 -1      6077    6    0    1
 -2     20833     20790     21227     20856     23375     27219     26951     23492     23463     26952
 -1      6078    6    0    1
 -2     21534     20709     20668     20629     26903     22978     25204     27220     22977     22872
 -1      6079    6    0    1
 -2     21547     20914     20929     20913     26004     23737     26904     27221     23765     23696
 -1      6080    6    0    1
 -2     21477     21515     21368     21500     22613     26757     27222     22568     22604     25556
 -1      6081    6    0    1
 -2     21547     20955     21322     21548     27224     25160     27223     25346     27225     25326
 -1      6082    6    0    1
 -2     21396     21603     21726     21639     27227     27002     27226     26328     27229     27228
 -1      6083    6    0    1
 -2     21652     20725     21627     21698     25856     27217     27216     27230     27231     25937
 -1      6084    6    0    1
 -2     20784     21090     21516     20734     25328     26109     27232     23258     26791     25378
 -1      6085    6    0    1
 -2     21299     21300     20955     20919     24888     25159     25601     26639     25885     23791
 -1      6086    6    0    1
 -2     21221     20886     21234     21277     27233     26786     24901     24838     26787     24843
 -1      6087    6    0    1
 -2     21256     21232     21542     21277     24924     26780     26800     24811     24925     26782
 -1      6088    6    0    1
 -2     21542     21277     20888     20886     26782     26779     26781     27234     26787     23555
 -1      6089    6    0    1
 -2     21627     20689     21698     20725     25940     25938     25937     27217     23031     27231
 -1      6090    6    0    1
 -2     21503     21482     21592     21492     22569     26026     26023     22581     22580     26629
 -1      6091    6    0    1
 -2     21145     20838     20824     20751     25424     23389     25423     26412     23388     23349
 -1      6092    6    0    1
 -2     21379     21355     21611     21521     22136     26172     25264     26732     25873     26174
 -1      6093    6    0    1
 -2     21289     20931     21311     20914     27235     26138     24936     26003     23707     25177
 -1      6094    6    0    1
 -2     20666     21529     21557     21057     27237     25274     27236     27238     26681     27239
 -1      6095    6    0    1
 -2     21018     21520     21102     21055     27240     27132     24235     24113     25422     24297
 -1      6096    6    0    1
 -2     21632     21533     21389     20459     27242     26421     27241     27243     27244     22022
 -1      6097    6    0    1
 -2     21137     20837     20824     21199     27245     23464     26417     24560     27246     25417
 -1      6098    6    0    1
 -2     20478     21594     21345     20410     26846     26738     21965     21809     26848     21743
 -1      6099    6    0    1
 -2     21199     21254     20874     20824     24735     27248     27247     25417     25416     23509
 -1      6100    6    0    1
 -2     20764     20824     20751     21145     23350     23349     23165     26413     25423     26412
 -1      6101    6    0    1
 -2     21640     20986     20539     21728     27249     23889     26476     27250     27089     27087
 -1      6102    6    0    1
 -2     21000     21616     20579     21652     27130     27204     23919     26902     27129     27251
 -1      6103    6    0    1
 -2     21223     20824     21199     21145     25415     25417     24638     24635     25423     24561
 -1      6104    6    0    1
 -2     21006     21528     21009     20966     25243     27202     24202     24024     27252     24083
 -1      6105    6    0    1
 -2     21486     20583     21682     21591     22472     27105     27253     26615     26613     26575
 -1      6106    6    0    1
 -2     21535     21645     20684     21452     27255     27254     26396     27256     26789     26236
 -1      6107    6    0    1
 -2     21108     20999     21698     21037     24263     25910     25908     24265     24004     27257
 -1      6108    6    0    1
 -2     20837     21137     20824     20764     27245     26417     23464     23387     26416     23350
 -1      6109    6    0    1
 -2     21323     21332     21550     21340     25011     25429     25428     25047     25050     26210
 -1      6110    6    0    1
 -2     21163     21538     21190     21541     25660     25658     24535     27258     25959     26042
 -1      6111    6    0    1
 -2     20848     21189     21248     21192     25171     24713     25971     27014     24542     24714
 -1      6112    6    0    1
 -2     20841     20799     21178     20854     23398     25666     25668     23462     23450     26479
 -1      6113    6    0    1
 -2     21349     21426     21727     21348     22245     26667     27259     21830     22246     27260
 -1      6114    6    0    1
 -2     21542     20809     20754     20807     25943     23305     26133     27110     23307     23302
 -1      6115    6    0    1
 -2     21177     21191     20803     21169     24539     25461     27261     24505     24536     25323
 -1      6116    6    0    1
 -2     21727     21718     21427     21349     25122     26834     27262     27259     27263     22248
 -1      6117    6    0    1
 -2     21275     20864     21207     21542     26963     26490     24806     26731     26785     25941
 -1      6118    6    0    1
 -2     21518     21136     21229     21161     25700     24655     27264     27265     24436     24656
 -1      6119    6    0    1
 -2     20505     21468     21447     21597     22355     22400     22298     27266     27268     27267
 -1      6120    6    0    1
 -2     21627     21506     21490     21484     25899     22533     25888     27269     22599     22598
 -1      6121    6    0    1
 -2     20693     20765     21518     20760     23167     27271     27270     23152     23168     26960
 -1      6122    6    0    1
 -2     20750     21152     21047     20773     25833     24406     25866     23191     27273     27272
 -1      6123    6    0    1
 -2     21542     21214     21207     21275     27040     24760     25941     26731     24804     24806
 -1      6124    6    0    1
 -2     21034     20993     21596     20524     24049     27275     27274     23998     23902     27276
 -1      6125    6    0    1
 -2     21568     20445     21368     20446     27277     21969     26754     27278     21775     21970
 -1      6126    6    0    1
 -2     21043     21003     21669     20572     24056     27279     27068     24019     23924     27069
 -1      6127    6    0    1
 -2     21518     21046     20992     21075     26152     24094     26151     25743     24257     24163
 -1      6128    6    0    1
 -2     21410     20420     21630     21598     22070     25974     25602     25604     27280     25603
 -1      6129    6    0    1
 -2     21732     21539     21537     20768     26512     25590     26529     26544     27281     25443
 -1      6130    6    0    1
 -2     21670     21057     21557     21529     27283     27239     27282     27284     26681     25274
 -1      6131    6    0    1
 -2     21147     20787     20745     21109     27285     23233     25754     24391     26487     25753
 -1      6132    6    0    1
 -2     20955     21322     21318     21547     25160     24975     25600     27224     27223     25184
 -1      6133    6    0    1
 -2     20743     20835     20831     21143     23379     23381     23369     27286     25517     25530
 -1      6134    6    0    1
 -2     21503     21492     21592     21510     22581     26629     26023     22587     22578     27287
 -1      6135    6    0    1
 -2     21449     21522     21431     21456     25684     27288     22409     22410     26507     22392
 -1      6136    6    0    1
 -2     21563     21114     20720     20687     27200     26684     27199     27289     26797     23024
 -1      6137    6    0    1
 -2     20811     20892     21259     20825     23566     25650     25642     23353     23567     26516
 -1      6138    6    0    1
 -2     21273     20875     20892     21299     26830     23650     26514     24884     26832     26640
 -1      6139    6    0    1
 -2     20437     21372     21685     21599     21980     27291     27290     27292     27293     25250
 -1      6140    6    0    1
 -2     20673     20593     21565     20633     22885     25616     25613     22884     22807     27294
 -1      6141    6    0    1
 -2     20607     21627     21490     21484     27137     25888     27135     27295     27269     22598
 -1      6142    6    0    1
 -2     21093     20703     20621     21026     26098     22956     27090     24216     26925     26953
 -1      6143    6    0    1
 -2     21447     21523     21524     21433     26608     27297     27296     22402     25967     27298
 -1      6144    6    0    1
 -2     20605     21592     21651     20555     27300     26610     27299     22659     26628     27301
 -1      6145    6    0    1
 -2     20796     21140     20795     21066     27303     27302     23265     27304     24372     27189
 -1      6146    6    0    1
 -2     20541     21464     21439     21589     22339     22393     22274     26325     26471     25334
 -1      6147    6    0    1
 -2     21659     21519     21554     21394     27306     26313     27305     27307     26314     25208
 -1      6148    6    0    1
 -2     21564     21628     21376     21533     25912     25913     25911     27308     27309     26402
 -1      6149    6    0    1
 -2     20736     21130     21204     20811     26094     24574     27310     23312     26093     27311
 -1      6150    6    0    1
 -2     20558     21636     21508     20557     26252     26250     22536     21899     27312     22535
 -1      6151    6    0    1
 -2     20577     21563     21715     21504     26157     27314     27313     22521     27316     27315
 -1      6152    6    0    1
 -2     20770     20776     21210     20799     23254     26458     26052     23280     23314     26496
 -1      6153    6    0    1
 -2     21540     21123     21196     21219     26618     24551     26617     26451     24622     24624
 -1      6154    6    0    1
 -2     21532     21162     20829     21148     25509     27318     27317     25510     24449     27319
 -1      6155    6    0    1
 -2     21640     21728     21694     20986     27250     27118     27320     27249     27089     27119
 -1      6156    6    0    1
 -2     21549     21307     21329     20939     26468     24995     26467     27321     27322     25529
 -1      6157    6    0    1
 -2     21642     21445     21525     21461     26483     27152     27323     27324     22418     26916
 -1      6158    6    0    1
 -2     20530     21524     21459     20531     27325     27153     22328     21871     27154     22327
 -1      6159    6    0    1
 -2     20794     20729     20698     21524     23257     23043     23255     27326     27327     25081
 -1      6160    6    0    1
 -2     21564     21533     21376     21406     27308     26402     25911     25586     26403     22095
 -1      6161    6    0    1
 -2     21397     20443     21638     21369     22046     27328     26537     22045     21974     27329
 -1      6162    6    0    1
 -2     20709     21534     20782     20780     26903     25282     23218     23214     26180     23220
 -1      6163    6    0    1
 -2     21202     21172     21204     20780     24569     24573     24576     25621     26181     25622
 -1      6164    6    0    1
 -2     21325     21329     21298     21545     25006     24996     24982     27330     25525     25524
 -1      6165    6    0    1
 -2     21336     20952     20959     20961     27332     23828     27331     27333     23813     23844
 -1      6166    6    0    1
 -2     21053     21162     21532     21100     24437     25509     26033     24303     24438     25508
 -1      6167    6    0    1
 -2     21339     21335     21336     21549     25042     25027     25039     25522     25100     27334
 -1      6168    6    0    1
 -2     21527     20604     20685     20707     27336     22913     27335     27097     22968     22971
 -1      6169    6    0    1
 -2     20666     20628     21529     20708     22868     27337     27237     22974     22973     27338
 -1      6170    6    0    1
 -2     21320     21545     21325     21312     25367     27330     25007     24969     25718     25001
 -1      6171    6    0    1
 -2     21168     21099     21531     21052     24458     25222     25732     24457     24299     25223
 -1      6172    6    0    1
 -2     21550     20958     20936     20947     25831     23804     25783     25784     23803     23763
 -1      6173    6    0    1
 -2     20503     21653     21448     20502     27340     27339     22300     21842     25691     22299
 -1      6174    6    0    1
 -2     21651     20605     20720     21592     27299     23008     25851     26610     27300     26612
 -1      6175    6    0    1
 -2     21550     20963     21314     20965     26308     27341     26355     25830     23834     26844
 -1      6176    6    0    1
 -2     21529     20708     20792     20666     27338     23246     27342     27237     22974     23247
 -1      6177    6    0    1
 -2     21582     21079     21538     21535     26021     26354     27343     26020     26022     26870
 -1      6178    6    0    1
 -2     21645     21600     21473     21535     26775     26776     26773     27255     27345     27344
 -1      6179    6    0    1
 -2     20946     21276     21292     20963     25169     24861     27346     23821     27348     27347
 -1      6180    6    0    1
 -2     21430     21590     21471     21522     25716     26498     22440     25709     25715     26506
 -1      6181    6    0    1
 -2     21292     21276     21314     20963     24861     24944     24943     27347     27348     27341
 -1      6182    6    0    1
 -2     21112     21170     20727     21126     24463     27349     26332     24337     24464     26331
 -1      6183    6    0    1
 -2     21314     21550     21292     20963     26355     26691     24943     27341     26308     27347
 -1      6184    6    0    1
 -2     21548     21271     21306     21316     26605     24914     25695     27350     24952     24955
 -1      6185    6    0    1
 -2     21357     21388     21601     20458     22118     26111     26264     21946     22019     27351
 -1      6186    6    0    1
 -2     21581     20462     21390     21585     26208     22023     27352     27353     27354     26335
 -1      6187    6    0    1
 -2     20893     21263     20864     20813     27356     27355     23571     23569     27357     23481
 -1      6188    6    0    1
 -2     21532     20672     21053     21533     27359     27358     26033     26663     27361     27360
 -1      6189    6    0    1
 -2     21357     20459     20458     21632     21945     21789     21946     26265     27243     27362
 -1      6190    6    0    1
 -2     21292     21550     20926     20963     26691     26715     25391     27347     26308     23822
 -1      6191    6    0    1
 -2     20726     21068     21113     20747     25962     24302     27363     23115     27075     27364
 -1      6192    6    0    1
 -2     21686     21508     21636     21483     27366     26250     27365     27367     22596     27368
 -1      6193    6    0    1
 -2     21376     21533     21585     21358     26402     26662     26659     22176     26401     26334
 -1      6194    6    0    1
 -2     21540     21186     21135     20815     27370     24525     27369     25489     25255     27371
 -1      6195    6    0    1
 -2     21708     21719     20701     21437     27373     26224     27372     27374     27375     25993
 -1      6196    6    0    1
 -2     20701     21466     21708     21437     25990     27376     27372     25993     22422     27374
 -1      6197    6    0    1
 -2     21592     21526     21510     21662     26024     26602     27287     27377     25486     26601
 -1      6198    6    0    1
 -2     21376     21358     21585     21390     22176     26334     26659     22141     22080     26335
 -1      6199    6    0    1
 -2     20733     20986     21027     21063     27378     24042     25674     27379     24130     24129
 -1      6200    6    0    1
 -2     20864     21275     21207     21263     26963     24806     26490     27355     24909     24766
 -1      6201    6    0    1
 -2     21163     21541     20752     20747     27258     27381     27380     27076     27382     23131
 -1      6202    6    0    1
 -2     21538     21541     21163     20747     25959     27258     25660     26807     27382     27076
 -1      6203    6    0    1
 -2     20726     20747     21113     20752     23115     27364     27363     23128     23131     27383
 -1      6204    6    0    1
 -2     21177     21169     20803     20811     24505     25323     27261     25643     27384     23313
 -1      6205    6    0    1
 -2     21113     20747     21163     20752     27364     27076     24440     27383     23131     27380
 -1      6206    6    0    1
 -2     20539     21602     21463     21438     27085     25287     22336     22272     27385     22335
 -1      6207    6    0    1
 -2     21414     21552     21680     21517     25130     25131     25128     25580     25579     27386
 -1      6208    6    0    1
 -2     21727     21349     21427     21426     27259     22248     27262     26667     22245     22249
 -1      6209    6    0    1
 -2     20747     21163     21068     21113     27076     24441     27075     27364     24440     24302
 -1      6210    6    0    1
 -2     21349     21487     21718     20414     22476     27387     27263     21831     22473     25389
 -1      6211    6    0    1
 -2     21732     20768     20816     21539     26544     23327     26511     26512     27281     25493
 -1      6212    6    0    1
 -2     20773     21132     21152     21095     27388     24407     27273     27389     24350     24405
 -1      6213    6    0    1
 -2     20548     21654     21691     21495     27391     25307     27390     22497     25308     25306
 -1      6214    6    0    1
 -2     21584     21642     21445     21525     26482     26483     26480     27392     27323     27152
 -1      6215    6    0    1
 -2     21642     21445     20509     20508     26483     22294     27393     26484     22293     21848
 -1      6216    6    0    1
 -2     21254     21296     21290     20925     24872     24874     24855     27394     27395     26434
 -1      6217    6    0    1
 -2     21511     21593     21661     21717     26359     27397     27396     27398     26592     27399
 -1      6218    6    0    1
 -2     20932     20953     20935     21309     23786     23785     23721     25059     26150     27400
 -1      6219    6    0    1
 -2     20822     21132     20773     20791     27401     27388     23344     23345     27402     23275
 -1      6220    6    0    1
 -2     21676     21463     21437     21719     27404     22425     27403     27405     26275     27375
 -1      6221    6    0    1
 -2     21698     20999     21080     21039     25910     24175     25909     26910     24078     24176
 -1      6222    6    0    1
 -2     21107     21140     20796     21066     24371     27303     27028     24253     24372     27304
 -1      6223    6    0    1
 -2     21582     21535     21538     20684     26020     26870     27343     26228     26396     26795
 -1      6224    6    0    1
 -2     21273     20857     20875     21310     27406     23512     26830     24930     26857     26831
 -1      6225    6    0    1
 -2     21130     21055     21102     21520     24345     24297     24346     25421     25422     27132
 -1      6226    6    0    1
 -2     20690     21486     21489     21736     25474     22610     25473     27407     27409     27408
 -1      6227    6    0    1
 -2     20822     21132     21152     20773     27401     24407     27410     23344     27388     27273
 -1      6228    6    0    1
 -2     20976     21534     21520     21055     27412     25420     27411     24112     25419     25422
 -1      6229    6    0    1
 -2     20737     21143     20743     20831     27413     27286     23106     23368     25530     23369
 -1      6230    6    0    1
 -2     20906     21546     21272     20877     26176     26177     26175     23698     27415     27414
 -1      6231    6    0    1
 -2     21527     21123     20781     21219     25090     25091     25088     25542     24622     26452
 -1      6232    6    0    1
 -2     21601     21357     21377     21388     26264     22127     25734     26111     22118     22128
 -1      6233    6    0    1
 -2     21122     21143     20737     20831     24479     27413     25569     25258     25530     23368
 -1      6234    6    0    1
 -2     21202     20782     20853     20856     27416     23447     26489     27417     23454     23453
 -1      6235    6    0    1
 -2     20618     21525     20731     20658     25458     25459     23050     22828     26921     23049
 -1      6236    6    0    1
 -2     21432     20528     21523     21458     22259     25947     25948     22371     22326     25989
 -1      6237    6    0    1
 -2     21072     21029     21067     21525     24152     24139     24153     27418     27419     26769
 -1      6238    6    0    1
 -2     20869     21186     21540     20815     27420     27370     25125     23495     25255     25489
 -1      6239    6    0    1
 -2     20657     20617     20729     21525     22827     23042     23044     27421     27423     27422
 -1      6240    6    0    1
 -2     21097     20743     21519     21143     25808     27029     26159     24380     27286     27424
 -1      6241    6    0    1
 -2     21534     21520     20736     20670     25420     26352     26404     27425     26650     23088
 -1      6242    6    0    1
 -2     21318     20923     21317     21310     25181     25180     24961     24959     25611     24958
 -1      6243    6    0    1
 -2     21429     21535     21573     21035     26135     26517     27426     26129     26137     27170
 -1      6244    6    0    1
 -2     21505     21616     21686     21508     27429     27428     27427     22595     27128     27366
 -1      6245    6    0    1
 -2     21637     21035     21535     21453     27430     26137     26461     27431     26131     26136
 -1      6246    6    0    1
 -2     21574     21727     21488     20610     27433     27432     25926     27434     26666     27197
 -1      6247    6    0    1
 -2     21604     20651     21679     21644     26541     26542     26539     26561     27435     26500
 -1      6248    6    0    1
 -2     21698     20580     21037     20999     27436     24003     27257     25910     23916     24004
 -1      6249    6    0    1
 -2     20690     21620     21489     21710     27438     27437     25473     25476     27439     25475
 -1      6250    6    0    1
 -2     21571     21531     21635     21360     26343     26145     27440     27441     27442     26161
 -1      6251    6    0    1
 -2     21109     20722     20745     21088     27443     23111     25753     24288     26998     25835
 -1      6252    6    0    1
 -2     21659     21394     21554     21363     27307     25208     27305     27444     22105     27445
 -1      6253    6    0    1
 -2     20753     21526     21527     21176     26703     25487     27446     25293     25300     27447
 -1      6254    6    0    1
 -2     21558     20521     21453     21637     27448     22312     26132     27449     27450     27431
 -1      6255    6    0    1
 -2     20712     20633     20673     21531     22986     22884     22987     26099     26686     27451
 -1      6256    6    0    1
 -2     20748     20839     20830     21180     23391     23394     23367     25137     26400     25070
 -1      6257    6    0    1
 -2     20914     20923     21547     20929     23676     25182     26004     23737     23736     26904
 -1      6258    6    0    1
 -2     21649     21532     21565     21531     27453     25614     27452     26557     27454     26338
 -1      6259    6    0    1
 -2     20914     21547     21733     20913     26004     25678     26580     23765     27221     25570
 -1      6260    6    0    1
 -2     20505     21655     21447     20504     27456     27455     22298     21844     27457     22297
 -1      6261    6    0    1
 -2     20431     21404     21684     20432     22057     27459     27458     21761     22058     27460
 -1      6262    6    0    1
 -2     21273     21299     20892     21259     24884     26640     26514     24817     24885     25650
 -1      6263    6    0    1
 -2     21534     20670     20736     20780     27425     23088     26404     26180     23213     23215
 -1      6264    6    0    1
 -2     21579     21531     21391     21360     26556     26339     26553     26163     27442     22102
 -1      6265    6    0    1
 -2     20742     20757     21532     20715     23145     26034     25800     23102     23142     26227
 -1      6266    6    0    1
 -2     21070     20733     21027     21063     27461     25674     24146     24248     27379     24129
 -1      6267    6    0    1
 -2     21590     21430     21471     21450     25716     22440     26498     27462     22438     22396
 -1      6268    6    0    1
 -2     21470     21518     21522     21556     25573     25745     25260     25263     25067     25262
 -1      6269    6    0    1
 -2     21257     21289     21733     20924     24852     25980     25979     27463     27464     25571
 -1      6270    6    0    1
 -2     21471     20500     21522     21590     22362     26981     26506     26498     26499     25715
 -1      6271    6    0    1
 -2     20940     20955     21547     21548     23793     27224     25344     25347     27225     25346
 -1      6272    6    0    1
 -2     20709     20670     21534     20780     22979     27425     26903     23214     23213     26180
 -1      6273    6    0    1
 -2     21062     21522     20993     21033     27466     27465     24126     24127     27467     24074
 -1      6274    6    0    1
 -2     21303     21241     21251     21545     24900     24726     24898     25717     27468     26374
 -1      6275    6    0    1
 -2     21111     21522     20993     21062     26967     27465     24273     24277     27466     24126
 -1      6276    6    0    1
 -2     21034     21522     21111     21077     27469     26967     24272     24170     25710     24313
 -1      6277    6    0    1
 -2     21674     21376     21405     20429     27470     22109     26237     26239     21988     22059
 -1      6278    6    0    1
 -2     20745     21152     20822     21147     25752     27410     23343     25754     24503     27471
 -1      6279    6    0    1
 -2     21457     21575     21432     20527     26810     25951     22391     22323     27472     22260
 -1      6280    6    0    1
 -2     20951     21330     21304     21324     27474     24998     27473     27475     25000     24980
 -1      6281    6    0    1
 -2     21518     20765     20693     20697     27271     23167     27270     27476     23166     23040
 -1      6282    6    0    1
 -2     21141     21523     21065     21071     25238     25239     24374     24375     25907     24150
 -1      6283    6    0    1
 -2     20736     21534     21172     21130     26404     25789     27477     26094     25418     24496
 -1      6284    6    0    1
 -2     21520     21534     20590     20670     25420     27478     27179     26650     27425     22879
 -1      6285    6    0    1
 -2     20616     21523     21605     20655     26818     27480     27479     22852     26820     27481
 -1      6286    6    0    1
 -2     21094     21529     21611     21521     27483     25265     27482     27484     25411     26174
 -1      6287    6    0    1
 -2     21653     20503     21469     21605     27340     22357     27485     27486     27488     27487
 -1      6288    6    0    1
 -2     21523     20697     21161     21518     26701     25106     25095     27489     27476     27265
 -1      6289    6    0    1
 -2     20797     21527     20781     20832     27490     25088     23271     23371     27491     23372
 -1      6290    6    0    1
 -2     21043     21115     21087     20686     24286     24316     24195     27492     27494     27493
 -1      6291    6    0    1
 -2     21631     21090     20982     21024     26108     24206     26105     27495     24205     23970
 -1      6292    6    0    1
 -2     21713     21729     21444     21634     26933     27043     27041     26934     26853     27496
 -1      6293    6    0    1
 -2     21731     21589     21640     20985     25860     25861     25857     27497     26324     27498
 -1      6294    6    0    1
 -2     21083     21114     20751     21145     24281     26411     25628     24385     24384     26412
 -1      6295    6    0    1
 -2     21694     21438     21640     21711     27499     26449     27320     27500     27501     25858
 -1      6296    6    0    1
 -2     21292     20946     20885     21246     27346     23759     25390     24860     27502     25434
 -1      6297    6    0    1
 -2     21438     21442     21589     21711     22431     25332     26447     27501     26125     25862
 -1      6298    6    0    1
 -2     20800     21540     20822     20791     25194     27503     23412     23282     27504     23345
 -1      6299    6    0    1
 -2     20610     21574     20563     21703     27434     25924     22670     27505     27507     27506
 -1      6300    6    0    1
 -2     20677     21011     21048     20719     26875     24099     27048     23074     25884     27026
 -1      6301    6    0    1
 -2     20882     21241     20839     21208     26350     27508     23534     25921     24693     27509
 -1      6302    6    0    1
 -2     20677     21625     21673     21395     26874     25829     26877     26973     25825     25828
 -1      6303    6    0    1
 -2     21514     21498     21497     21528     22611     22612     22566     25810     27004     27053
 -1      6304    6    0    1
 -2     21095     20719     20968     20678     25883     25844     24222     25457     23065     25456
 -1      6305    6    0    1
 -2     20472     20473     21603     21364     21803     27511     27510     21960     21959     26743
 -1      6306    6    0    1
 -2     21536     21005     21116     21088     25077     24291     25076     25869     24196     24312
 -1      6307    6    0    1
 -2     20642     20722     21648     21536     23014     25229     25213     26384     26997     26383
 -1      6308    6    0    1
 -2     20982     21516     21577     21060     26106     27513     27512     24128     26212     27514
 -1      6309    6    0    1
 -2     21568     20543     21475     21515     25819     22503     26756     25818     22549     22567
 -1      6310    6    0    1
 -2     20437     21599     21685     20596     27292     25250     27290     22638     27516     27515
 -1      6311    6    0    1
 -2     20543     20446     21568     21623     22648     27278     25819     25803     27518     27517
 -1      6312    6    0    1
 -2     20786     21130     20811     21169     26092     26093     23311     25321     24499     27384
 -1      6313    6    0    1
 -2     20847     21162     21138     21205     27519     24439     25339     25384     24578     24577
 -1      6314    6    0    1
 -2     21053     20738     21138     21533     27520     26293     24366     27360     26283     27521
 -1      6315    6    0    1
 -2     21040     21686     20578     21000     27172     27522     24013     24053     27174     23918
 -1      6316    6    0    1
 -2     21210     21209     21539     21121     24674     27523     26459     24602     24591     26420
 -1      6317    6    0    1
 -2     21718     21692     21487     21727     25119     27524     27387     25122     25123     27525
 -1      6318    6    0    1
 -2     20700     20789     21067     20731     23240     27526     26633     23085     23238     26768
 -1      6319    6    0    1
 -2     21631     21024     20982     20491     27495     23970     26105     27527     23969     23879
 -1      6320    6    0    1
 -2     21505     21508     21686     21483     22595     27366     27427     22555     22596     27367
 -1      6321    6    0    1
 -2     20736     21130     21172     21204     26094     24496     27477     27310     24574     24573
 -1      6322    6    0    1
 -2     20494     21474     21604     21452     22368     26562     27528     22307     22383     26540
 -1      6323    6    0    1
 -2     21485     20581     21698     21705     22470     27530     27529     27531     27532     25932
 -1      6324    6    0    1
 -2     21097     21519     21122     21143     26159     26711     24329     24380     27424     24479
 -1      6325    6    0    1
 -2     21213     21128     20762     20765     24603     27534     27533     26673     25107     23169
 -1      6326    6    0    1
 -2     21579     21360     21391     20464     26163     22102     26553     27535     21952     22025
 -1      6327    6    0    1
 -2     21447     21523     21433     21458     26608     25967     22402     22403     25989     22390
 -1      6328    6    0    1
 -2     20695     21523     20655     20697     26819     26820     22938     22944     26701     22942
 -1      6329    6    0    1
 -2     21519     20743     20737     21143     27029     23106     27536     27424     27286     27413
 -1      6330    6    0    1
 -2     21658     21393     20467     20468     26062     22030     27537     27538     22029     21798
 -1      6331    6    0    1
 -2     21607     21057     21104     20669     25635     24285     25162     27539     27541     27540
 -1      6332    6    0    1
 -2     20819     20854     21210     20799     23449     27542     26457     23422     23450     26496
 -1      6333    6    0    1
 -2     21210     20854     21234     21178     27542     27543     24678     24595     26479     24677
 -1      6334    6    0    1
 -2     20761     21194     21215     21141     26855     24612     26816     27544     24546     24610
 -1      6335    6    0    1
 -2     21653     21605     21469     21523     27486     27487     27485     27545     27480     26609
 -1      6336    6    0    1
 -2     21433     21458     21523     20529     22390     25989     25967     22262     22325     25955
 -1      6337    6    0    1
 -2     21224     21131     20792     20823     24640     27546     27186     26040     27547     23347
 -1      6338    6    0    1
 -2     21189     21539     21232     21228     26486     27548     24673     24665     26485     24672
 -1      6339    6    0    1
 -2     21072     21165     21179     21525     24448     24583     24549     27418     27550     27549
 -1      6340    6    0    1
 -2     20848     21192     20910     20840     27014     26298     23623     23427     26297     23622
 -1      6341    6    0    1
 -2     21122     21519     20737     21143     26711     27536     25569     24479     27424     27413
 -1      6342    6    0    1
 -2     20773     21132     21095     20791     27388     24350     27389     23275     27402     27551
 -1      6343    6    0    1
 -2     20711     21537     21621     21059     25395     27071     27072     27552     27077     27553
 -1      6344    6    0    1
 -2     21410     21537     20419     21598     26116     26190     22069     25604     26193     26191
 -1      6345    6    0    1
 -2     20764     21114     20720     21092     26410     26684     23163     27210     24314     26594
 -1      6346    6    0    1
 -2     21521     21156     21227     21154     27101     24649     27554     27100     24416     24650
 -1      6347    6    0    1
 -2     21521     21154     21227     20782     27100     24650     27554     25283     27556     27555
 -1      6348    6    0    1
 -2     20720     21526     20682     20746     26607     26702     23009     23112     27557     23113
 -1      6349    6    0    1
 -2     20494     21604     20651     21645     27528     26541     22762     26788     27559     27558
 -1      6350    6    0    1
 -2     20652     20691     21535     20724     22928     27561     27560     23022     23034     26398
 -1      6351    6    0    1
 -2     21149     21195     20759     21142     24547     27562     25399     24475     24548     27563
 -1      6352    6    0    1
 -2     21616     21686     21508     21000     27428     27366     27128     27130     27174     27127
 -1      6353    6    0    1
 -2     20783     21133     21732     20848     25968     25175     26599     23424     25172     25174
 -1      6354    6    0    1
 -2     20741     21048     21132     20791     26657     24349     26442     23274     27564     27402
 -1      6355    6    0    1
 -2     21659     21599     21372     20437     27566     27293     27565     27567     27292     21980
 -1      6356    6    0    1
 -2     21519     20815     20737     20744     27568     23324     27536     27569     23323     23212
 -1      6357    6    0    1
 -2     21207     20809     21179     21165     25942     26646     24584     24585     25944     24583
 -1      6358    6    0    1
 -2     21048     20719     21095     20791     27026     25883     24308     27564     23244     27551
 -1      6359    6    0    1
 -2     21516     21090     21120     21060     26109     24357     27570     26212     24247     24323
 -1      6360    6    0    1
 -2     20422     21557     21409     20421     25273     27571     22068     21751     27572     22067
 -1      6361    6    0    1
 -2     21660     20488     20489     21422     27574     21824     27573     26369     22216     22218
 -1      6362    6    0    1
 -2     21150     21181     21540     21132     24593     26665     26445     24400     24582     26443
 -1      6363    6    0    1
 -2     21633     21559     20448     21023     25374     25375     25372     27005     27006     23967
 -1      6364    6    0    1
 -2     20578     21483     21706     20577     22465     26705     27575     21920     22466     26158
 -1      6365    6    0    1
 -2     21538     20758     20755     20802     26736     23253     26464     27576     23286     23288
 -1      6366    6    0    1
 -2     21213     21128     20765     21161     24603     25107     26673     24605     24435     25108
 -1      6367    6    0    1
 -2     21523     21524     20730     20616     27297     25083     27577     26818     27578     23046
 -1      6368    6    0    1
 -2     20840     21184     21139     21192     27579     24519     25469     26297     24613     24541
 -1      6369    6    0    1
 -2     21521     20782     21227     20790     25283     27555     27554     25413     23243     27219
 -1      6370    6    0    1
 -2     21213     20765     21229     21161     26673     27580     24751     24605     25108     24656
 -1      6371    6    0    1
 -2     21356     20456     21553     20457     21944     25144     25142     21943     21787     26048
 -1      6372    6    0    1
 -2     21533     20713     20671     20631     27582     22991     27581     27583     22990     22880
 -1      6373    6    0    1
 -2     20767     21182     21136     21160     27061     24516     25697     25698     24515     24467
 -1      6374    6    0    1
 -2     21521     20790     21227     21156     25413     27219     27554     27101     27584     24649
 -1      6375    6    0    1
 -2     21520     21601     20457     21018     26112     26113     26051     27240     27585     23956
 -1      6376    6    0    1
 -2     21038     21727     20997     21081     25270     25124     24011     24180     26532     24177
 -1      6377    6    0    1
 -2     21532     21405     21674     21376     26806     26237     26803     26661     22109     27470
 -1      6378    6    0    1
 -2     21591     21488     21656     21486     27115     27116     27112     26615     22603     27213
 -1      6379    6    0    1
 -2     21232     21275     21542     20898     24845     26731     26780     25977     25984     26729
 -1      6380    6    0    1
 -2     20766     20794     21069     20729     23279     27045     27044     23171     23257     27586
 -1      6381    6    0    1
 -2     21550     21543     20904     20909     26944     26205     25782     27587     25770     23621
 -1      6382    6    0    1
 -2     20924     20931     20933     21294     23774     23713     23753     27588     27589     25824
 -1      6383    6    0    1
 -2     21206     21179     20794     21175     24581     27046     27590     24580     24509     27591
 -1      6384    6    0    1
 -2     20744     21540     21150     21135     25488     26445     27592     27593     27369     24401
 -1      6385    6    0    1
 -2     20794     21524     20698     20756     27326     25081     23255     23256     25082     23140
 -1      6386    6    0    1
 -2     21333     20957     20965     20953     27594     23840     26845     26149     23800     23843
 -1      6387    6    0    1
 -2     21179     21206     20794     20813     24581     27590     27046     26647     27595     23318
 -1      6388    6    0    1
 -2     21399     21370     20441     21687     22123     21976     22047     27596     26387     27020
 -1      6389    6    0    1
 -2     21268     20901     21279     21261     27597     26866     24816     24791     26867     24815
 -1      6390    6    0    1
 -2     21547     21548     21334     21293     25346     27598     26119     26121     27599     25016
 -1      6391    6    0    1
 -2     20804     20876     21255     20891     23515     26764     26763     23562     23565     26642
 -1      6392    6    0    1
 -2     21525     20766     20754     21165     26938     23172     26937     27550     27600     26134
 -1      6393    6    0    1
 -2     21539     21134     21105     21118     25591     24353     25588     26508     24355     24320
 -1      6394    6    0    1
 -2     21292     21276     20946     21246     24861     25169     27346     24860     24807     27502
 -1      6395    6    0    1
 -2     21282     21274     21278     21544     24927     24875     24826     25409     27601     25134
 -1      6396    6    0    1
 -2     20616     20656     21597     21524     22826     27603     27602     27578     27145     27604
 -1      6397    6    0    1
 -2     21244     21543     21188     21250     25839     26949     24701     24723     25401     24720
 -1      6398    6    0    1
 -2     21300     20942     21301     21321     25623     25625     24895     24972     26765     24970
 -1      6399    6    0    1
 -2     20952     20961     21336     21329     23813     27333     27332     25528     26964     25025
 -1      6400    6    0    1
 -2     20869     20815     20889     21186     23495     23557     23556     27420     25255     26548
 -1      6401    6    0    1
 -2     20809     21165     20754     20766     25944     26134     23305     23306     27600     23172
 -1      6402    6    0    1
 -2     21251     21274     21303     21545     24802     24899     24898     26374     25719     25717
 -1      6403    6    0    1
 -2     20706     20664     20624     21516     22964     22833     22965     25230     25231     25381
 -1      6404    6    0    1
 -2     21539     21189     21232     20816     26486     24673     27548     25493     26513     27605
 -1      6405    6    0    1
 -2     21378     21387     21553     21356     22140     25143     26687     22139     22119     25142
 -1      6406    6    0    1
 -2     21283     21215     20808     20810     24828     25187     25185     25359     26817     23310
 -1      6407    6    0    1
 -2     21524     20730     20616     20656     25083     23046     27578     27145     23045     22826
 -1      6408    6    0    1
 -2     21733     21288     21547     21289     25681     25682     25678     25980     24853     26002
 -1      6409    6    0    1
 -2     20918     20879     21547     20913     23653     25679     25343     23655     23634     27221
 -1      6410    6    0    1
 -2     21130     21177     20811     21169     24504     25643     26093     24499     24505     27384
 -1      6411    6    0    1
 -2     21061     20623     20704     20703     27124     22960     26095     26096     22966     22989
 -1      6412    6    0    1
 -2     20698     20617     21524     20729     22945     27146     25081     23043     23042     27327
 -1      6413    6    0    1
 -2     21067     21525     20754     21165     26769     26937     27606     24446     27550     26134
 -1      6414    6    0    1
 -2     21579     20464     21391     21649     27535     22025     26553     26555     27012     26554
 -1      6415    6    0    1
 -2     20910     21248     21275     21280     27206     24846     27205     27607     24818     24889
 -1      6416    6    0    1
 -2     20682     21526     21592     20645     26702     26024     27218     22907     27609     27608
 -1      6417    6    0    1
 -2     21249     21544     21278     21233     25133     25134     24912     24719     26679     24876
 -1      6418    6    0    1
 -2     21530     21098     21051     21167     25220     24300     26146     25269     24456     24455
 -1      6419    6    0    1
 -2     20698     20730     21524     20656     23084     25083     25081     22946     23045     27145
 -1      6420    6    0    1
 -2     21698     21652     20725     21037     27230     25856     27231     27257     25878     25876
 -1      6421    6    0    1
 -2     21145     20824     21199     21137     25423     25417     24561     24386     26417     24560
 -1      6422    6    0    1
 -2     21503     20574     21671     21606     22520     27611     27610     27612     27614     27613
 -1      6423    6    0    1
 -2     21307     20939     21549     20941     27322     27321     26468     27615     23743     25506
 -1      6424    6    0    1
 -2     21168     21200     20827     21208     24563     26304     25245     24590     24646     26596
 -1      6425    6    0    1
 -2     20907     21544     20902     20867     26630     27144     23615     23616     27047     23614
 -1      6426    6    0    1
 -2     20869     20870     21219     21262     23498     25532     27616     27617     27618     24763
 -1      6427    6    0    1
 -2     21171     21176     20804     21211     24501     25139     25299     24599     24598     25138
 -1      6428    6    0    1
 -2     20778     21198     20775     21126     27619     26692     23206     27620     24557     26693
 -1      6429    6    0    1
 -2     21542     20886     21221     21277     27234     27233     26799     26782     26787     24838
 -1      6430    6    0    1
 -2     21545     21241     21252     21298     27468     24729     27621     25524     24882     24881
 -1      6431    6    0    1
 -2     20690     21538     21068     20747     26735     26306     27171     23114     26807     27075
 -1      6432    6    0    1
 -2     21521     21534     21103     21154     25207     25788     26240     27100     27622     24411
 -1      6433    6    0    1
 -2     20829     21187     20801     21148     27623     25365     23365     27319     24528     27624
 -1      6434    6    0    1
 -2     21304     21330     20943     21302     24998     27626     27625     24904     24999     25536
 -1      6435    6    0    1
 -2     21289     21305     21317     20914     24988     24957     24963     26003     25179     25618
 -1      6436    6    0    1
 -2     20684     21679     20692     20996     26231     26501     23025     26230     26232     26638
 -1      6437    6    0    1
 -2     20551     21494     20550     21661     22496     22495     21892     27627     27629     27628
 -1      6438    6    0    1
 -2     21299     20919     20955     20934     26639     23791     25601     27630     23718     23792
 -1      6439    6    0    1
 -2     21700     20591     20631     21533     25545     22805     25790     26068     26069     27583
 -1      6440    6    0    1
 -2     20630     20590     21583     20425     22804     27178     27177     22716     22626     26733
 -1      6441    6    0    1
 -2     20668     21618     21529     21521     25202     26031     25414     25205     25206     25411
 -1      6442    6    0    1
 -2     21529     20628     20589     20708     27337     22797     27631     27338     22973     22972
 -1      6443    6    0    1
 -2     21265     20879     20836     20810     26822     23524     27632     27633     23523     23384
 -1      6444    6    0    1
 -2     20924     21257     21289     21294     27463     24852     27464     27588     24866     24868
 -1      6445    6    0    1
 -2     20833     20790     21224     21227     23375     27187     27185     26951     27219     24652
 -1      6446    6    0    1
 -2     21227     20790     21224     21156     27219     27187     24652     24649     27584     24641
 -1      6447    6    0    1
 -2     21073     21065     21128     21523     24251     24342     24341     25096     25239     25097
 -1      6448    6    0    1
 -2     21511     21717     21661     20551     27398     27399     27396     22541     27634     27627
 -1      6449    6    0    1
 -2     20836     21194     20762     21213     26936     26854     23382     26672     24604     27533
 -1      6450    6    0    1
 -2     21182     20760     20849     20767     27062     23428     27635     27061     23176     23429
 -1      6451    6    0    1
 -2     21518     21161     21229     20765     27265     24656     27264     27271     25108     27580
 -1      6452    6    0    1
 -2     20804     20891     21255     20851     23562     26642     26763     23440     23563     25559
 -1      6453    6    0    1
 -2     20869     21262     21219     21540     27617     24763     27616     25125     27636     26451
 -1      6454    6    0    1
 -2     21521     20977     21094     21056     27637     24218     27484     27099     24114     24219
 -1      6455    6    0    1
 -2     21527     21176     20851     20753     27447     25141     26888     27446     25293     23437
 -1      6456    6    0    1
 -2     21281     21213     20836     20845     24821     26672     27638     26604     26674     23411
 -1      6457    6    0    1
 -2     21092     20746     21171     21526     27211     27639     24469     25655     27557     25302
 -1      6458    6    0    1
 -2     21279     21315     21549     21285     24948     27641     27640     24833     24949     27642
 -1      6459    6    0    1
 -2     20781     21540     20860     20832     26450     25126     23467     23372     25127     23469
 -1      6460    6    0    1
 -2     20801     21187     21200     21148     25365     24564     25362     27624     24528     24562
 -1      6461    6    0    1
 -2     21361     21373     21578     21403     22152     26126     26345     22150     22092     27643
 -1      6462    6    0    1
 -2     20884     21236     20872     21187     25080     26887     23542     26077     24682     25364
 -1      6463    6    0    1
 -2     20830     21544     21251     20880     25071     26375     26678     23526     26376     26372
 -1      6464    6    0    1
 -2     20944     20925     20900     21545     23752     23683     23749     27083     27644     27094
 -1      6465    6    0    1
 -2     21545     20952     21324     21329     25526     27645     25727     25525     25528     25013
 -1      6466    6    0    1
 -2     20954     21327     21309     21321     27646     25020     25319     25320     25019     24971
 -1      6467    6    0    1
 -2     21124     21201     20739     20835     24566     26441     26439     26881     25073     23380
 -1      6468    6    0    1
 -2     21550     20950     20936     20958     25521     23778     25783     25831     23808     23804
 -1      6469    6    0    1
 -2     20870     20889     21544     21240     23559     26748     26641     26742     26549     27647
 -1      6470    6    0    1
 -2     20845     20760     21182     21229     23410     27062     27648     27649     27650     24657
 -1      6471    6    0    1
 -2     20919     21299     20892     20934     26639     26640     23662     23718     27630     23715
 -1      6472    6    0    1
 -2     20937     21264     21304     21302     27651     24903     25649     25900     24896     24904
 -1      6473    6    0    1
 -2     20875     20923     21310     20857     23677     25611     26831     23512     23675     26857
 -1      6474    6    0    1
 -2     20955     21547     21318     20934     27224     25184     25600     23792     27198     27652
 -1      6475    6    0    1
 -2     21299     21310     20875     20923     24931     26831     26832     27653     25611     23677
 -1      6476    6    0    1
 -2     20916     21291     20933     20931     25226     25227     23710     23706     26588     23713
 -1      6477    6    0    1
 -2     21299     20934     21318     20923     27630     27652     24960     27653     23717     25181
 -1      6478    6    0    1
 -2     21276     21242     20946     21246     24808     25167     25169     24807     24739     27502
 -1      6479    6    0    1
 -2     21257     20862     20808     20881     27654     23474     25186     27655     23530     23529
 -1      6480    6    0    1
 -2     20960     20945     21548     20922     23815     25694     27656     23810     23757     27657
 -1      6481    6    0    1
 -2     21543     21151     21170     20771     25633     24481     25631     27658     27659     27188
 -1      6482    6    0    1
 -2     20829     20884     20872     21187     23539     23542     23504     27623     26077     25364
 -1      6483    6    0    1
 -2     21158     21217     21119     20820     24617     24616     24425     25945     25104     25102
 -1      6484    6    0    1
 -2     20849     21271     21182     21242     25897     24788     27635     27660     24790     24696
 -1      6485    6    0    1
 -2     21688     20547     21496     21513     25581     22500     25576     25466     22545     22565
 -1      6486    6    0    1
 -2     21607     20669     21104     21410     27539     27540     25162     25164     25605     25163
 -1      6487    6    0    1
 -2     21677     21707     20439     21371     27662     27661     26725     26670     27663     21978
 -1      6488    6    0    1
 -2     21240     20870     21262     21238     26742     27618     24801     24809     25534     24908
 -1      6489    6    0    1
 -2     21668     20452     20978     21607     27665     23870     27664     27666     27667     25165
 -1      6490    6    0    1
 -2     20891     20902     20907     21544     23645     23615     23646     26631     27144     26630
 -1      6491    6    0    1
 -2     20548     21513     20547     21688     22546     22545     21889     25612     25466     25581
 -1      6492    6    0    1
 -2     20786     20671     21102     21054     23230     27133     26259     27668     27669     24250
 -1      6493    6    0    1
 -2     20460     21533     21358     21585     27670     26401     21948     26349     26662     26334
 -1      6494    6    0    1
 -2     21226     21544     21201     20835     26690     25072     24668     25518     25074     25073
 -1      6495    6    0    1
 -2     20682     20645     20685     21526     22907     22912     22914     26702     27609     26704
 -1      6496    6    0    1
 -2     21183     21249     21226     21544     24717     24716     24664     27671     25133     26690
 -1      6497    6    0    1
 -2     21175     21220     20756     20817     24626     26278     26276     27672     25147     23330
 -1      6498    6    0    1
 -2     21005     21045     21609     21536     24058     27674     27673     25077     25075     27675
 -1      6499    6    0    1
 -2     21708     21437     20537     21719     27374     22270     27676     27373     27375     27677
 -1      6500    6    0    1
 -2     21548     21293     21281     21316     27599     24865     25197     27350     24954     24953
 -1      6501    6    0    1
 -2     21555     21536     21648     21609     26382     26383     26381     27678     27675     27679
 -1      6502    6    0    1
 -2     21281     21271     21548     21316     24823     26605     25197     24953     24952     27350
 -1      6503    6    0    1
 -2     20783     20848     21732     20768     23424     25174     26599     23223     23425     26544
 -1      6504    6    0    1
 -2     21473     20496     21622     21600     22366     26432     27680     26776     26433     26430
 -1      6505    6    0    1
 -2     20578     21686     21616     21000     27522     27428     27203     23918     27174     27130
 -1      6506    6    0    1
 -2     21451     21573     20497     21472     25756     25755     22306     22395     25919     22363
 -1      6507    6    0    1
 -2     21339     21546     20959     21330     26329     27682     27681     25040     27684     27683
 -1      6508    6    0    1
 -2     21279     21285     21549     20915     24833     27642     27640     27685     27687     27686
 -1      6509    6    0    1
 -2     21295     21284     21546     21319     24871     26913     26912     24965     24964     25454
 -1      6510    6    0    1
 -2     21592     21662     21510     20554     27377     26601     27287     26627     27688     22540
 -1      6511    6    0    1
 -2     21503     21526     21481     21510     26025     25485     22553     22587     26602     22588
 -1      6512    6    0    1
 -2     20903     21264     21212     21258     27689     24768     25492     25491     24770     24749
 -1      6513    6    0    1
 -2     20685     21526     21662     21527     26704     25486     27690     27335     25487     25483
 -1      6514    6    0    1
 -2     21339     21340     21550     21341     25058     26210     25520     25054     25057     26211
 -1      6515    6    0    1
 -2     21052     20973     21649     21532     24106     26492     27691     27692     26122     27453
 -1      6516    6    0    1
 -2     21313     21335     21337     21549     25022     25033     25032     25099     25100     25151
 -1      6517    6    0    1
 -2     20818     21198     20821     20865     25432     27693     23342     23482     25641     23483
 -1      6518    6    0    1
 -2     21337     21335     21339     21549     25033     25042     25056     25151     25100     25522
 -1      6519    6    0    1
 -2     21550     21340     21337     21333     26210     25049     25148     25149     25048     25034
 -1      6520    6    0    1
 -2     21727     21488     21348     21574     27432     22479     27260     27433     25926     25925
 -1      6521    6    0    1
 -2     20865     21198     20821     21543     25641     27693     23483     25639     25402     26950
 -1      6522    6    0    1
 -2     21265     21293     21547     21288     24863     26121     26821     24849     24864     25682
 -1      6523    6    0    1
 -2     21257     20881     20808     21220     27655     23529     25186     24745     25905     27694
 -1      6524    6    0    1
 -2     21547     20929     20918     20913     26904     23697     25343     27221     23696     23655
 -1      6525    6    0    1
 -2     20905     21541     20842     20843     26014     27695     23606     23607     26017     23406
 -1      6526    6    0    1
 -2     20879     20862     21733     20913     23525     25572     25680     23634     23633     25570
 -1      6527    6    0    1
 -2     21069     20989     21072     21525     24144     24151     24154     27696     27697     27418
 -1      6528    6    0    1
 -2     21657     20659     20619     21634     27699     22829     27698     27700     27701     26852
 -1      6529    6    0    1
 -2     20914     20913     21733     20924     23765     25570     26580     23766     23680     25571
 -1      6530    6    0    1
 -2     20941     20961     20939     21549     23812     23811     23743     25506     25817     27321
 -1      6531    6    0    1
 -2     21292     20963     20926     20946     27347     23822     25391     27346     23821     23760
 -1      6532    6    0    1
 -2     20833     21269     20823     20878     27702     25998     23374     23519     26000     23520
 -1      6533    6    0    1
 -2     21329     20961     21336     21549     26964     27333     25025     26467     25817     27334
 -1      6534    6    0    1
 -2     21117     21216     21158     20843     24615     24614     24424     27703     26016     27704
 -1      6535    6    0    1
 -2     21039     20999     20581     21698     24078     23917     24008     26910     25910     27530
 -1      6536    6    0    1
 -2     20962     20961     20941     21549     23820     23812     23817     25352     25817     25506
 -1      6537    6    0    1
 -2     21133     21104     20783     21537     24352     27705     25968     26600     26186     25442
 -1      6538    6    0    1
 -2     21546     21341     21550     21332     25453     26211     26945     26946     25053     25429
 -1      6539    6    0    1
 -2     21168     21531     21532     21052     25732     27454     25801     24457     25223     27692
 -1      6540    6    0    1
 -2     21518     20710     20767     21522     26976     23173     25699     25745     27707     27706
 -1      6541    6    0    1
 -2     20952     21329     21336     21324     25528     25025     27332     27645     25013     25026
 -1      6542    6    0    1
 -2     20767     20710     20728     21522     23173     23059     23174     27706     27707     26581
 -1      6543    6    0    1
 -2     21075     21522     21160     21062     25742     26975     24431     24164     27466     24430
 -1      6544    6    0    1
 -2     21539     21537     20768     20705     25590     25443     27281     26290     25394     23178
 -1      6545    6    0    1
 -2     20935     21315     20957     21549     27709     27708     23799     27710     27641     27711
 -1      6546    6    0    1
 -2     21518     21522     20767     21160     25745     27706     25699     25701     26975     25698
 -1      6547    6    0    1
 -2     21171     21211     20804     21225     24599     25138     25299     24645     24659     26752
 -1      6548    6    0    1
 -2     20743     21143     21124     20835     27286     24381     26983     23379     25517     26881
 -1      6549    6    0    1
 -2     20484     21587     21689     20624     26395     26393     26394     22702     27712     25380
 -1      6550    6    0    1
 -2     21532     21148     20829     20742     25510     27319     27317     25800     25799     23363
 -1      6551    6    0    1
 -2     21058     21104     21133     21537     24310     24352     24351     26185     26186     26600
 -1      6552    6    0    1
 -2     21058     21537     21105     20979     26185     25589     24307     24118     26965     24244
 -1      6553    6    0    1
 -2     20590     21534     20709     20670     27478     26903     22976     22879     27425     22979
 -1      6554    6    0    1
 -2     21731     21517     21567     21442     26199     26202     26200     26124     26957     27713
 -1      6555    6    0    1
 -2     21535     20788     20691     20771     26871     23237     27561     27714     23267     23185
 -1      6556    6    0    1
 -2     21425     20479     21643     21413     22230     26362     26058     22234     22215     27715
 -1      6557    6    0    1
 -2     21535     20788     20771     21151     26871     23267     27714     26872     26873     27659
 -1      6558    6    0    1
 -2     20419     21381     20418     21537     21998     21997     21748     26190     27716     27078
 -1      6559    6    0    1
 -2     21608     21415     21421     21517     27717     22242     26370     27718     27141     27719
 -1      6560    6    0    1
 -2     21632     20459     21389     21357     27243     22022     27241     26265     21945     22079
 -1      6561    6    0    1
 -2     21545     21252     20859     21307     27621     25923     27720     25523     24917     27721
 -1      6562    6    0    1
 -2     21263     21206     21207     20813     24765     24586     24766     27357     27595     26491
 -1      6563    6    0    1
 -2     20521     21558     21429     20522     27448     25370     22254     21862     25371     22253
 -1      6564    6    0    1
 -2     21488     21727     21348     21487     27432     27260     22479     22480     27525     22477
 -1      6565    6    0    1
 -2     21632     21357     21389     21377     26265     22079     27241     25738     22127     22138
 -1      6566    6    0    1
 -2     21546     21302     20943     21330     25537     25536     25539     27684     24999     27626
 -1      6567    6    0    1
 -2     21422     21421     21608     21415     22239     26370     26367     22217     22242     27717
 -1      6568    6    0    1
 -2     21439     21517     21567     21680     26473     26202     27722     27723     27386     27724
 -1      6569    6    0    1
 -2     20530     21433     21459     21524     22261     22372     22328     27325     27298     27153
 -1      6570    6    0    1
 -2     21339     21330     20959     21336     25040     27683     27681     25039     25028     27331
 -1      6571    6    0    1
 -2     21289     20931     20924     21294     27235     23774     27464     24868     27589     27588
 -1      6572    6    0    1
 -2     21377     21520     21700     20975     25688     25548     27725     25735     26266     26071
 -1      6573    6    0    1
 -2     20676     21519     20718     20636     25654     27726     23075     22890     27727     23005
 -1      6574    6    0    1
 -2     21179     21165     20809     20766     24583     25944     26646     26648     27600     23306
 -1      6575    6    0    1
 -2     21349     21727     21718     21487     27259     25122     27263     22476     27525     27387
 -1      6576    6    0    1
 -2     20943     21330     20959     21546     27626     27683     23807     25539     27684     27682
 -1      6577    6    0    1
 -2     21533     21054     21017     20975     25561     24111     27728     26072     24110     24067
 -1      6578    6    0    1
 -2     21635     21392     20465     20466     26288     22028     26164     26289     22027     21796
 -1      6579    6    0    1
 -2     21542     20886     20888     20846     27234     23555     26781     27060     23547     23552
 -1      6580    6    0    1
 -2     21580     20721     20599     21638     27730     23011     27729     27731     27733     27732
 -1      6581    6    0    1
 -2     21631     21423     21420     21416     26366     22241     27139     26063     22220     22240
 -1      6582    6    0    1
 -2     20736     21204     21172     20780     27310     24573     27477     23215     25622     26181
 -1      6583    6    0    1
 -2     21349     21727     21487     21348     27259     27525     22476     21830     27260     22477
 -1      6584    6    0    1
 -2     21295     21319     21546     21332     24965     25454     26912     25009     25012     26946
 -1      6585    6    0    1
 -2     21270     20856     20853     20857     27734     23453     27193     26974     23457     23456
 -1      6586    6    0    1
 -2     21273     20857     20853     20875     27406     23456     27194     26830     23512     23511
 -1      6587    6    0    1
 -2     21093     21026     20621     20986     24216     26953     27090     24215     23982     27091
 -1      6588    6    0    1
 -2     21273     20857     21270     20853     27406     26974     24798     27194     23456     27193
 -1      6589    6    0    1
 -2     21726     21687     20598     21603     26652     26653     26415     27002     26386     27735
 -1      6590    6    0    1
 -2     21295     21332     21546     21543     25009     26946     26912     25596     25634     26178
 -1      6591    6    0    1
 -2     20691     21535     21622     20652     27561     27737     27736     22928     27560     26429
 -1      6592    6    0    1
 -2     21473     21600     21622     21535     26776     26430     27680     27344     27345     27737
 -1      6593    6    0    1
 -2     21580     21369     21399     21396     26171     22088     26170     27738     22144     22143
 -1      6594    6    0    1
 -2     21603     21396     21726     21399     27227     27226     27002     27739     22143     27740
 -1      6595    6    0    1
 -2     21529     21131     20805     20792     26682     26683     26680     27342     27546     23297
 -1      6596    6    0    1
 -2     21678     21476     21594     21500     26740     26741     26737     25555     22514     27741
 -1      6597    6    0    1
 -2     21245     20859     21252     21307     26558     25923     24730     24916     27721     24917
 -1      6598    6    0    1
 -2     20814     21543     21151     21541     27743     25633     27742     27744     26036     25957
 -1      6599    6    0    1
 -2     21398     21500     21678     21594     25554     25555     25552     27745     27741     26737
 -1      6600    6    0    1
 -2     21594     21398     20478     21367     27745     22042     26846     27746     22166     22002
 -1      6601    6    0    1
 -2     20773     21095     21047     20678     27389     24240     27272     23189     25457     25455
 -1      6602    6    0    1
 -2     21436     21713     21657     20536     27749     27748     27747     22267     27751     27750
 -1      6603    6    0    1
 -2     21588     21397     21638     21369     26536     26537     26534     27752     22045     27329
 -1      6604    6    0    1
 -2     20474     21365     20475     21588     21962     21961     21805     26428     26427     27753
 -1      6605    6    0    1
 -2     20441     21370     20440     21569     21976     21975     21770     27021     26388     26891
 -1      6606    6    0    1
 -2     20816     21232     21539     20895     27605     27548     25493     23577     27754     25495
 -1      6607    6    0    1
 -2     21727     21735     21488     20610     27755     27114     27432     26666     27196     27197
 -1      6608    6    0    1
 -2     21345     21594     20478     21367     26738     26846     21965     21967     27746     22002
 -1      6609    6    0    1
 -2     21277     21253     21232     20895     24844     24740     24925     26578     26579     27754
 -1      6610    6    0    1
 -2     20674     21531     21571     20594     26100     26343     26342     22887     26685     27756
 -1      6611    6    0    1
 -2     20846     21542     21734     20789     27060     26859     27058     23413     27758     27757
 -1      6612    6    0    1
 -2     21621     21537     21690     21022     27071     27760     27759     27761     26966     27762
 -1      6613    6    0    1
 -2     20855     20868     21185     20834     23491     27763     25382     23452     23489     25337
 -1      6614    6    0    1
 -2     21539     20705     20768     20774     26290     23178     27281     26292     23192     23194
 -1      6615    6    0    1
 -2     21352     21559     21385     21681     27764     25376     22117     27765     26246     27766
 -1      6616    6    0    1
 -2     21265     20810     20836     21194     27633     23384     27632     24772     26856     26936
 -1      6617    6    0    1
 -2     20525     21647     21431     20526     26900     26897     22258     21866     27767     22257
 -1      6618    6    0    1
 -2     20625     20586     21681     21559     22789     26245     27768     25117     26067     26246
 -1      6619    6    0    1
 -2     21368     20445     21568     21665     21969     27277     26754     27769     27771     27770
 -1      6620    6    0    1
 -2     21260     21261     21301     20911     24759     24894     24893     26454     26862     25626
 -1      6621    6    0    1
 -2     20564     21663     20478     21594     27773     27772     23845     26847     27774     26846
 -1      6622    6    0    1
 -2     21698     21039     21113     20726     26910     24278     27775     25935     26909     27363
 -1      6623    6    0    1
 -2     21148     21162     20829     21187     24449     27318     27319     24528     24527     27623
 -1      6624    6    0    1
 -2     20932     21309     20935     21279     25059     27400     23721     27776     24929     27777
 -1      6625    6    0    1
 -2     21707     21569     20440     21400     27779     26891     27778     27780     26892     22050
 -1      6626    6    0    1
 -2     21521     21355     21408     21379     25873     22173     25313     26732     22136     22112
 -1      6627    6    0    1
 -2     20481     21675     21722     21421     27783     27782     27781     22214     27003     27784
 -1      6628    6    0    1
 -2     20959     20950     20943     21546     23806     23777     23807     27682     25841     25539
 -1      6629    6    0    1
 -2     20932     20911     21301     20901     23709     25626     25060     23708     23627     26865
 -1      6630    6    0    1
 -2     20808     20881     20817     21220     23529     23531     23331     27694     25905     25147
 -1      6631    6    0    1
 -2     21571     21404     21374     20432     27785     22093     25608     27786     22058     21983
 -1      6632    6    0    1
 -2     20610     20692     21644     21426     22929     26502     27787     26668     26505     26503
 -1      6633    6    0    1
 -2     20594     21571     21684     21531     27756     27789     27788     26685     26343     27790
 -1      6634    6    0    1
 -2     21082     21526     21606     21092     25656     27792     27791     24214     25655     27793
 -1      6635    6    0    1
 -2     21509     21491     21563     21701     22556     27794     26694     26696     27795     26695
 -1      6636    6    0    1
 -2     21571     21531     21360     21404     26343     27442     27441     27785     26341     22175
 -1      6637    6    0    1
 -2     21391     21404     21565     21375     22163     26340     26337     22145     22108     25846
 -1      6638    6    0    1
 -2     21179     20766     21525     21165     26648     26938     27549     24583     27600     27550
 -1      6639    6    0    1
 -2     21571     21404     21360     21374     27785     22175     27441     25608     22093     22149
 -1      6640    6    0    1
 -2     21378     21407     21356     21520     22111     22135     22139     27175     25690     26049
 -1      6641    6    0    1
 -2     21191     20868     21185     21261     25462     27763     24538     24757     26864     24758
 -1      6642    6    0    1
 -2     20704     20703     20702     21093     22989     22957     23097     26097     26098     27092
 -1      6643    6    0    1
 -2     21657     20732     20619     20659     27796     23052     27698     27699     23051     22829
 -1      6644    6    0    1
 -2     21359     21581     21649     20463     26207     26495     27797     21949     26209     26493
 -1      6645    6    0    1
 -2     21376     20428     20429     21628     21987     21758     21988     25913     25914     27798
 -1      6646    6    0    1
 -2     21377     21520     21388     21407     25688     26110     22128     22096     25690     22134
 -1      6647    6    0    1
 -2     20912     21307     21545     20859     27800     25523     27799     23631     27721     27720
 -1      6648    6    0    1
 -2     21293     21326     21547     21288     24987     26120     26121     24864     24984     25682
 -1      6649    6    0    1
 -2     20627     21537     20665     20669     26189     25441     22865     22875     27801     22876
 -1      6650    6    0    1
 -2     21359     20463     21649     21391     21949     26493     27797     22081     22026     26554
 -1      6651    6    0    1
 -2     21674     21628     21376     20429     27802     25913     27470     26239     27798     21988
 -1      6652    6    0    1
 -2     21185     20868     21191     20834     27763     25462     24538     25337     23489     25463
 -1      6653    6    0    1
 -2     21257     21220     20808     21215     24745     27694     25186     24747     24627     25187
 -1      6654    6    0    1
 -2     21524     21173     20808     21220     25355     25357     25358     26279     24625     27694
 -1      6655    6    0    1
 -2     20604     20644     21595     20552     22860     27804     27803     22658     22747     26878
 -1      6656    6    0    1
 -2     21175     20817     20756     20794     27672     23330     26276     27591     23329     23256
 -1      6657    6    0    1
 -2     21394     20470     20469     21617     22031     21800     22032     25211     25212     27805
 -1      6658    6    0    1
 -2     20970     21519     21012     21049     27806     26868     24062     24100     26712     24101
 -1      6659    6    0    1
 -2     21662     20552     21595     21493     27808     26878     27807     26658     22493     26880
 -1      6660    6    0    1
 -2     21197     21242     20849     21182     24695     27660     27809     24639     24696     27635
 -1      6661    6    0    1
 -2     21091     21536     21588     21089     25405     26083     26086     24210     25109     27810
 -1      6662    6    0    1
 -2     20756     21220     20808     20817     26278     27694     23303     23330     25147     23331
 -1      6663    6    0    1
 -2     20814     20812     21543     20890     23322     26948     27743     23561     23560     25771
 -1      6664    6    0    1
 -2     20814     21543     20858     20890     27743     27057     23458     23561     25771     23573
 -1      6665    6    0    1
 -2     21075     21136     21518     21046     24361     25700     25743     24257     24362     26152
 -1      6666    6    0    1
 -2     21570     21519     21372     21394     27813     27812     27811     25865     26314     22155
 -1      6667    6    0    1
 -2     21588     21397     21369     21365     26536     22045     27752     26427     22164     22162
 -1      6668    6    0    1
 -2     21577     21672     20625     21624     25115     25118     25116     27814     25813     27815
 -1      6669    6    0    1
 -2     20478     21398     21594     21663     22042     27745     26846     27772     26621     27774
 -1      6670    6    0    1
 -2     21182     20767     20849     21197     27061     23429     27635     24639     27168     27809
 -1      6671    6    0    1
 -2     21570     21394     21372     21362     25865     22155     27811     25864     22084     22154
 -1      6672    6    0    1
 -2     21554     21363     20471     21625     27445     21957     27816     27817     27818     25826
 -1      6673    6    0    1
 -2     21659     20437     21372     21401     27567     21980     27565     27819     22051     22124
 -1      6674    6    0    1
 -2     21108     21037     21698     20725     24265     27257     25908     25987     25876     27231
 -1      6675    6    0    1
 -2     21713     21657     21634     21444     27748     27700     26934     27041     27820     27496
 -1      6676    6    0    1
 -2     21519     21096     21150     20741     26869     24398     27821     27822     27823     26444
 -1      6677    6    0    1
 -2     20581     20999     20580     21698     23917     23916     21923     27530     25910     27436
 -1      6678    6    0    1
 -2     21111     21522     21062     21142     26967     27466     24277     24377     26969     24378
 -1      6679    6    0    1
 -2     21168     21099     21125     21531     24458     24335     24466     25732     25222     25874
 -1      6680    6    0    1
 -2     20759     21522     21149     21142     27824     26968     25399     27563     26969     24475
 -1      6681    6    0    1
 -2     21685     21599     21372     21519     25250     27293     27291     25248     25249     27812
 -1      6682    6    0    1
 -2     21385     21559     21633     21350     25376     25374     25373     22126     27826     27825
 -1      6683    6    0    1
 -2     20538     21719     21463     21602     27827     26275     22337     27828     26274     25287
 -1      6684    6    0    1
 -2     21477     21500     21368     21398     22568     25556     27222     26622     25554     22167
 -1      6685    6    0    1
 -2     20792     21131     20805     20823     27546     26683     23297     23347     27547     23348
 -1      6686    6    0    1
 -2     21477     21398     21368     21366     26622     22167     27222     27829     22087     22171
 -1      6687    6    0    1
 -2     21398     21477     21709     21366     26622     26623     26619     22087     27829     27830
 -1      6688    6    0    1
 -2     21618     20424     21378     21583     26261     21991     25294     25296     27831     25295
 -1      6689    6    0    1
 -2     20422     21379     21618     20423     21993     26032     26030     21752     21994     27832
 -1      6690    6    0    1
 -2     20750     21536     20721     20678     25868     26990     23124     23139     25406     23029
 -1      6691    6    0    1
 -2     20646     20687     21737     21563     22920     27833     26718     26720     27289     26719
 -1      6692    6    0    1
 -2     21672     21412     21350     21385     27834     22116     25814     27835     22174     22126
 -1      6693    6    0    1
 -2     20678     21536     21091     21047     25406     25405     25408     25455     25867     24211
 -1      6694    6    0    1
 -2     21383     21690     20449     21352     26435     27836     22004     22005     26437     21935
 -1      6695    6    0    1
 -2     21047     21536     20750     20678     25867     25868     25866     25455     25406     23139
 -1      6696    6    0    1
 -2     20781     20793     20860     21540     23252     23468     23467     26450     25768     25126
 -1      6697    6    0    1
 -2     21122     20815     20737     21519     25256     23324     25569     26711     27568     27536
 -1      6698    6    0    1
 -2     20477     21709     20476     21366     27838     27837     21807     21963     27830     21964
 -1      6699    6    0    1
 -2     20866     21543     20812     20890     25769     26948     23485     23572     25771     23560
 -1      6700    6    0    1
 -2     20481     21421     21722     20482     22214     27784     27781     21816     22229     27839
 -1      6701    6    0    1
 -2     20479     21720     21346     20411     27122     25676     22186     21813     25677     21810
 -1      6702    6    0    1
 -2     20915     20901     20935     21279     23638     23720     23722     27685     26866     27777
 -1      6703    6    0    1
 -2     20568     21499     20569     21648     22507     22509     21911     27840     25445     26995
 -1      6704    6    0    1
 -2     21565     21375     21359     21391     25846     22146     26804     26337     22145     22081
 -1      6705    6    0    1
 -2     21640     21438     21694     21728     26449     27499     27320     27250     27841     27118
 -1      6706    6    0    1
 -2     21152     21132     20822     21147     24407     27401     27410     24503     24553     27471
 -1      6707    6    0    1
 -2     20648     20608     21562     20689     22849     27843     27842     22924     22923     25939
 -1      6708    6    0    1
 -2     21495     21479     21691     21512     22585     25309     25306     22572     22586     27844
 -1      6709    6    0    1
 -2     20667     21023     21106     20735     27140     24245     26977     23068     27846     27845
 -1      6710    6    0    1
 -2     20935     20901     20932     21279     23720     23708     23721     27777     26866     27776
 -1      6711    6    0    1
 -2     21712     21631     21420     21416     26317     27139     27138     27158     26063     22240
 -1      6712    6    0    1
 -2     20606     21040     21737     20687     27849     27848     27847     22919     27850     27833
 -1      6713    6    0    1
 -2     20784     20734     21516     20706     23258     25378     27232     23226     23086     25230
 -1      6714    6    0    1
 -2     20808     21220     20756     21524     27694     26278     23303     25358     26279     25082
 -1      6715    6    0    1
 -2     21590     21450     21471     20499     27462     22396     26498     26497     22304     22361
 -1      6716    6    0    1
 -2     21574     21348     20413     20563     25925     21829     27851     25924     22478     21905
 -1      6717    6    0    1
 -2     21488     21486     21710     21656     22603     25477     27852     27116     27213     27853
 -1      6718    6    0    1
 -2     21706     20606     20723     21083     26762     23017     26759     27854     27855     26784
 -1      6719    6    0    1
 -2     21486     21488     21692     21591     22603     27857     27856     26615     27115     27858
 -1      6720    6    0    1
 -2     20959     21330     20951     21324     27683     27474     23814     27859     25000     27475
 -1      6721    6    0    1
 -2     21651     21509     20556     20555     26697     22538     27109     27301     22537     21897
 -1      6722    6    0    1
 -2     21394     21363     21659     21401     22105     27444     27307     22157     22156     27819
 -1      6723    6    0    1
 -2     21182     21136     21229     20760     24516     24655     24657     27062     26959     27650
 -1      6724    6    0    1
 -2     21257     20862     21733     21283     27654     25572     25979     24848     25360     25954
 -1      6725    6    0    1
 -2     21535     21112     21078     21170     26143     24311     26029     27860     24463     24465
 -1      6726    6    0    1
 -2     21506     20559     20560     21627     22534     21901     22528     25899     25891     27861
 -1      6727    6    0    1
 -2     21716     21467     21713     21729     26894     26519     25746     26956     27042     26933
 -1      6728    6    0    1
 -2     21076     20661     20662     20703     26923     22867     27214     26926     22955     22958
 -1      6729    6    0    1
 -2     21394     21401     21659     21372     22157     27819     27307     22155     22124     27565
 -1      6730    6    0    1
 -2     21555     21609     21648     21499     27678     27679     26381     25564     27862     25445
 -1      6731    6    0    1
 -2     21288     21283     21289     21733     24850     24851     24853     25681     25954     25980
 -1      6732    6    0    1
 -2     20701     21070     20795     20798     27191     27192     23260     23276     25291     23277
 -1      6733    6    0    1
 -2     21070     20733     20701     21027     27461     23057     27191     24146     25674     26223
 -1      6734    6    0    1
 -2     21441     21567     21442     20516     25780     27713     22345     22284     25779     22286
 -1      6735    6    0    1
 -2     21659     21519     21372     21599     27306     27812     27565     27566     25249     27293
 -1      6736    6    0    1
 -2     21567     21346     21680     21413     27863     26838     27724     27120     22188     26839
 -1      6737    6    0    1
 -2     20500     21522     20653     20614     26981     26582     22768     22680     26583     22864
 -1      6738    6    0    1
 -2     20872     20859     21245     20912     23505     26558     26076     23632     23631     25557
 -1      6739    6    0    1
 -2     21459     21433     21447     21524     22372     22402     22411     27153     27298     27296
 -1      6740    6    0    1
 -2     21108     20725     21698     21080     25987     27231     25908     24264     27864     25909
 -1      6741    6    0    1
 -2     21069     21072     21179     21525     24154     24549     24510     27696     27418     27549
 -1      6742    6    0    1
 -2     21170     20771     20812     21543     27188     23316     26139     25631     27658     26948
 -1      6743    6    0    1
 -2     21609     20568     21478     20567     27866     22455     27865     27867     21910     22456
 -1      6744    6    0    1
 -2     20878     21269     21287     20833     26000     24841     27134     23519     27702     25981
 -1      6745    6    0    1
 -2     20818     21231     20885     21195     25433     25393     23543     25431     24671     25435
 -1      6746    6    0    1
 -2     21505     21483     21686     20578     22555     27367     27427     22524     22465     27522
 -1      6747    6    0    1
 -2     20883     20922     20918     21548     23672     23674     23654     25201     27657     25345
 -1      6748    6    0    1
 -2     21539     20774     20776     20711     26292     23200     26460     26291     23193     23198
 -1      6749    6    0    1
 -2     21284     21308     21546     21319     24922     25970     26913     24964     24966     25454
 -1      6750    6    0    1
 -2     20711     21106     20776     21539     27868     26840     23198     26291     26419     26460
 -1      6751    6    0    1
 -2     20496     21600     21473     20495     26433     26776     22366     21835     26777     22365
 -1      6752    6    0    1
 -2     20940     20922     20960     21548     23739     23810     23809     25347     27657     27656
 -1      6753    6    0    1
 -2     21548     21306     20964     21327     25695     25348     25693     25335     24990     25350
 -1      6754    6    0    1
 -2     20944     20928     20949     21545     23751     23770     23773     27083     27084     25985
 -1      6755    6    0    1
 -2     20729     20699     20657     21525     23047     22948     23044     27422     25460     27421
 -1      6756    6    0    1
 -2     21545     21252     21307     21298     27621     24917     25523     25524     24881     24926
 -1      6757    6    0    1
 -2     21733     20913     21547     20879     25570     27221     25678     25680     23634     25679
 -1      6758    6    0    1
 -2     21205     20884     20829     21187     25078     23539     27869     24594     26077     27623
 -1      6759    6    0    1
 -2     21413     21720     21346     20479     27123     25676     22188     22215     27122     22186
 -1      6760    6    0    1
 -2     21106     20711     20735     20980     27868     23071     27845     24246     27871     27870
 -1      6761    6    0    1
 -2     21059     20711     21106     20980     27552     27868     24306     24120     27871     24246
 -1      6762    6    0    1
 -2     21461     21467     21723     21610     22445     26520     27872     26919     27147     27873
 -1      6763    6    0    1
 -2     21285     21286     21313     21549     24836     24942     24941     27642     25505     25099
 -1      6764    6    0    1
 -2     20912     20859     21545     20920     23631     27720     27799     23667     23666     25986
 -1      6765    6    0    1
 -2     21086     21176     21174     21527     24502     24597     24487     26010     27447     25541
 -1      6766    6    0    1
 -2     21147     21540     20822     20787     26664     27503     27471     27285     27874     23346
 -1      6767    6    0    1
 -2     21664     21610     21461     20534     26918     26919     26915     27875     27876     22332
 -1      6768    6    0    1
 -2     21257     20924     21733     20862     27463     25571     25979     27654     23679     25572
 -1      6769    6    0    1
 -2     20556     21701     20646     21612     27108     26721     22751     27877     27879     27878
 -1      6770    6    0    1
 -2     20534     21461     21723     21610     22332     27872     27880     27876     26919     27873
 -1      6771    6    0    1
 -2     21592     20554     21510     21492     26627     22540     27287     26629     22491     22578
 -1      6772    6    0    1
 -2     21726     21536     21638     21639     25403     26535     27881     27228     26084     27882
 -1      6773    6    0    1
 -2     21664     20534     21461     21435     27875     22332     26915     27883     22265     22374
 -1      6774    6    0    1
 -2     21610     21525     21642     20658     26920     27323     27149     27884     26921     27885
 -1      6775    6    0    1
 -2     21185     21261     20855     21268     24758     27886     25382     24778     24791     26470
 -1      6776    6    0    1
 -2     21573     21112     21126     21077     25767     24337     26330     25765     24304     24338
 -1      6777    6    0    1
 -2     21428     21452     21473     21535     22426     22394     22427     26462     27256     27344
 -1      6778    6    0    1
 -2     21567     21720     21346     21413     27121     25676     27863     27120     27123     22188
 -1      6779    6    0    1
 -2     21664     20533     20534     21435     27887     21874     27875     27883     22266     22265
 -1      6780    6    0    1
 -2     20885     21231     20818     20865     25393     25433     23543     23544     25640     23482
 -1      6781    6    0    1
 -2     21301     20911     21300     21260     25626     25624     24895     24893     26454     24887
 -1      6782    6    0    1
 -2     21698     20726     21113     20689     25935     27363     27775     25938     23073     27888
 -1      6783    6    0    1
 -2     20750     20722     20679     21536     23122     23015     23123     25868     26997     26745
 -1      6784    6    0    1
 -2     20874     20900     21237     20876     23593     25723     25721     23516     23594     25241
 -1      6785    6    0    1
 -2     21245     20859     21307     20912     26558     27721     24916     25557     23631     27800
 -1      6786    6    0    1
 -2     21548     21271     21242     21306     26605     24790     27889     25695     24914     24913
 -1      6787    6    0    1
 -2     20945     20946     21242     20899     23761     25167     25168     23756     23758     25342
 -1      6788    6    0    1
 -2     20912     21307     21245     21286     27800     24916     25557     25558     24918     24835
 -1      6789    6    0    1
 -2     21657     20659     21702     21576     27699     27891     27890     27892     27893     26196
 -1      6790    6    0    1
 -2     21091     21089     21116     21536     24210     24289     24292     25405     25109     25076
 -1      6791    6    0    1
 -2     20943     20959     21330     20951     23807     27683     27626     23779     23814     27474
 -1      6792    6    0    1
 -2     21475     21500     21368     21515     22579     25556     26755     22567     22604     26757
 -1      6793    6    0    1
 -2     21368     20445     21665     21366     21969     27771     27769     22171     21972     27894
 -1      6794    6    0    1
 -2     21436     20536     21657     21462     22267     27750     27747     22375     22334     27895
 -1      6795    6    0    1
 -2     20823     21131     21139     21184     27547     24459     25470     25997     24520     24519
 -1      6796    6    0    1
 -2     21685     21658     20675     21013     26090     27025     27896     26045     26089     27024
 -1      6797    6    0    1
 -2     21540     21132     20822     20791     26443     27401     27503     27504     27402     23345
 -1      6798    6    0    1
 -2     21384     21381     21410     21537     22131     22114     22181     26117     27716     26116
 -1      6799    6    0    1
 -2     21383     21690     21411     21537     26435     26436     22168     27897     27760     27898
 -1      6800    6    0    1
 -2     21480     21593     21724     21494     26815     26813     26812     22589     27900     27899
 -1      6801    6    0    1
 -2     21104     21021     21668     21537     24241     27902     27901     26186     26184     26118
 -1      6802    6    0    1
 -2     20539     21602     20538     21463     27085     27828     21879     22336     25287     22337
 -1      6803    6    0    1
 -2     21107     21140     21734     20796     24371     26656     26654     27028     27303     27903
 -1      6804    6    0    1
 -2     20900     20917     20944     21545     23703     23750     23749     27094     27081     27083
 -1      6805    6    0    1
 -2     21716     21467     20509     21642     26894     22352     27904     27151     27148     27393
 -1      6806    6    0    1
 -2     21657     21576     21702     21444     27892     26196     27890     27820     26007     26195
 -1      6807    6    0    1
 -2     21669     21042     21671     20573     27907     27906     27905     27908     24016     27909
 -1      6808    6    0    1
 -2     21730     21650     20660     20620     26215     26216     26213     27016     27015     22830
 -1      6809    6    0    1
 -2     20982     21060     21577     20981     24128     27514     27512     23968     24122     27910
 -1      6810    6    0    1
 -2     20970     21570     21617     21519     27913     27912     27911     27806     27813     26315
 -1      6811    6    0    1
 -2     21675     20984     21608     21517     27916     27915     27914     26056     27917     27718
 -1      6812    6    0    1
 -2     21075     21518     21647     20992     25743     25744     25740     24163     26151     27918
 -1      6813    6    0    1
 -2     21559     21672     21681     20625     25114     27919     26246     25117     25118     27768
 -1      6814    6    0    1
 -2     21727     20610     21574     21426     26666     27434     27433     26667     26668     26571
 -1      6815    6    0    1
 -2     21556     20501     21470     20502     25261     22359     25263     25692     21841     22360
 -1      6816    6    0    1
 -2     21379     21521     21611     21529     26732     26174     25264     25266     25411     25265
 -1      6817    6    0    1
 -2     20638     20598     21687     20441     22812     26653     26651     22732     22642     27020
 -1      6818    6    0    1
 -2     20735     20711     21621     20980     23071     27072     27920     27870     27871     27921
 -1      6819    6    0    1
 -2     21448     21556     21470     20502     25575     25263     22379     22299     25692     22360
 -1      6820    6    0    1
 -2     20628     21529     20422     21557     27337     25275     22711     27922     25274     25273
 -1      6821    6    0    1
 -2     20462     20461     21390     21585     21792     22024     22023     27354     26336     26335
 -1      6822    6    0    1
 -2     21360     20465     21635     21392     21951     26164     26161     22082     22028     26288
 -1      6823    6    0    1
 -2     20635     20435     21685     20436     22726     27924     27923     22725     21765     27925
 -1      6824    6    0    1
 -2     21373     21578     21403     20434     26126     27643     22092     21981     26128     22056
 -1      6825    6    0    1
 -2     21685     21013     20675     20717     26045     27024     27896     25251     26047     23076
 -1      6826    6    0    1
 -2     21304     21302     20943     20937     24904     25536     27625     25649     25900     23754
 -1      6827    6    0    1
 -2     20748     21125     20740     20839     25228     27926     23118     23391     26399     23392
 -1      6828    6    0    1
 -2     21303     21545     21325     21298     25717     27330     24983     24906     25524     24982
 -1      6829    6    0    1
 -2     21532     21390     21405     21376     27927     22142     26806     26661     22141     22109
 -1      6830    6    0    1
 -2     21636     21706     21612     20606     26758     26707     27928     26761     26762     27929
 -1      6831    6    0    1
 -2     21240     20889     21544     21183     26549     26748     27647     24691     27930     27671
 -1      6832    6    0    1
 -2     21376     21390     21585     21532     22141     26335     26659     26661     27927     26660
 -1      6833    6    0    1
 -2     20687     21114     21083     21040     26797     24281     26783     27850     24280     24183
 -1      6834    6    0    1
 -2     21402     21373     21578     21393     22122     26126     26422     22184     22151     27013
 -1      6835    6    0    1
 -2     20675     21685     21578     21658     27896     26425     27038     27025     26090     26423
 -1      6836    6    0    1
 -2     21069     21175     20794     21179     24490     27591     27045     24510     24509     27046
 -1      6837    6    0    1
 -2     21542     20754     20789     20807     26133     23239     27758     27110     23302     23301
 -1      6838    6    0    1
 -2     20718     20741     21519     20744     23100     27822     27726     23107     23109     27569
 -1      6839    6    0    1
 -2     21530     20675     21013     21050     27023     27024     27022     25219     27030     24103
 -1      6840    6    0    1
 -2     21396     21399     21603     21364     22143     27739     27227     22086     22161     26743
 -1      6841    6    0    1
 -2     21618     20668     21529     20589     25202     25414     26031     27931     22873     27631
 -1      6842    6    0    1
 -2     20718     21519     20676     20744     27726     25654     23075     23107     27569     23108
 -1      6843    6    0    1
 -2     21521     21056     21094     21156     27099     24219     27484     27101     24415     24414
 -1      6844    6    0    1
 -2     21386     21355     20454     21611     22120     21942     22015     25267     26172     27932
 -1      6845    6    0    1
 -2     21394     21372     21659     21519     22155     27565     27307     26314     27812     27306
 -1      6846    6    0    1
 -2     21570     21362     21372     21402     25864     22154     27811     27933     22153     22091
 -1      6847    6    0    1
 -2     20929     20923     21547     20934     23736     25182     26904     23775     23717     27198
 -1      6848    6    0    1
 -2     21528     20566     20567     21498     27055     21909     25244     27004     22504     22506
 -1      6849    6    0    1
 -2     20638     21580     21726     20721     27935     27934     26414     23012     27730     26991
 -1      6850    6    0    1
 -2     21623     21367     21344     20446     27936     21966     25802     27518     22003     21968
 -1      6851    6    0    1
 -2     21465     21435     21525     21445     22416     26943     26941     22342     22417     27152
 -1      6852    6    0    1
 -2     20549     21691     21586     21512     27938     27937     26356     22543     27844     26357
 -1      6853    6    0    1
 -2     21588     21369     21638     21639     27752     27329     26534     26082     26546     27882
 -1      6854    6    0    1
 -2     20755     20788     21541     20844     23236     26465     26463     23408     23407     26675
 -1      6855    6    0    1
 -2     21588     21639     21638     21536     26082     27882     26534     26083     26084     26535
 -1      6856    6    0    1
 -2     21642     21610     21467     21461     27149     27147     27148     27324     26919     22445
 -1      6857    6    0    1
 -2     21639     21638     21580     21369     27882     27731     27939     26546     27329     26171
 -1      6858    6    0    1
 -2     21163     21068     21146     21538     24441     24390     24442     25660     26306     25659
 -1      6859    6    0    1
 -2     21076     21061     21660     21025     24167     27940     27160     24166     24124     27941
 -1      6860    6    0    1
 -2     20752     21541     20842     20747     27381     27695     23401     23131     27382     23400
 -1      6861    6    0    1
 -2     21713     21716     20619     20700     25746     26954     26935     25747     25748     22949
 -1      6862    6    0    1
 -2     21277     21232     20888     20895     24925     26778     26779     26578     27754     23630
 -1      6863    6    0    1
 -2     21573     21472     21451     21454     25919     22395     25756     25821     22442     22406
 -1      6864    6    0    1
 -2     21685     21372     21570     21519     27291     27811     26087     25248     27812     27813
 -1      6865    6    0    1
 -2     21573     21472     21430     21629     25919     22437     25772     25918     25917     26585
 -1      6866    6    0    1
 -2     20908     21275     21542     20864     26730     26731     26728     23618     26963     26785
 -1      6867    6    0    1
 -2     21573     21430     20613     21629     25772     27943     27942     25918     26585     27944
 -1      6868    6    0    1
 -2     20739     21167     21124     21530     26440     24472     26439     27039     25269     25218
 -1      6869    6    0    1
 -2     20469     21362     21570     20468     21955     25864     25863     21799     21956     27945
 -1      6870    6    0    1
 -2     20715     20757     21532     20672     23142     26034     26227     23023     23143     27359
 -1      6871    6    0    1
 -2     20523     20522     21454     21666     21863     22313     22315     27946     27947     25823
 -1      6872    6    0    1
 -2     21296     20897     21258     20938     25685     25662     24873     25657     23731     25646
 -1      6873    6    0    1
 -2     21639     21369     21580     21396     26546     26171     27939     26328     22144     27738
 -1      6874    6    0    1
 -2     21491     21612     21636     21483     26709     27928     27948     22608     26708     27368
 -1      6875    6    0    1
 -2     21666     21558     21429     21035     27950     25370     27949     27951     26130     26129
 -1      6876    6    0    1
 -2     21377     21406     21389     21533     22110     22178     22138     27952     26403     26421
 -1      6877    6    0    1
 -2     21064     20763     21153     21164     27183     27184     24408     24485     27953     24493
 -1      6878    6    0    1
 -2     21408     21355     21667     21387     22173     25872     25870     22172     22077     27954
 -1      6879    6    0    1
 -2     21521     21156     21094     21529     27101     24414     27484     25411     27955     27483
 -1      6880    6    0    1
 -2     21538     20802     21541     20747     27576     26677     25959     26807     23287     27382
 -1      6881    6    0    1
 -2     21408     21387     21667     21534     22172     27954     25870     25312     26689     27956
 -1      6882    6    0    1
 -2     21618     20423     21379     21408     27832     21994     26032     25311     22065     22112
 -1      6883    6    0    1
 -2     20665     21537     20627     20587     25441     26189     22865     22866     27957     22801
 -1      6884    6    0    1
 -2     21687     21603     21726     21399     26386     27002     26652     27596     27739     27740
 -1      6885    6    0    1
 -2     20437     20596     21685     20436     22638     27515     27290     21766     22639     27925
 -1      6886    6    0    1
 -2     20451     21384     20452     21668     22007     22009     21782     27958     26114     27665
 -1      6887    6    0    1
 -2     21560     21361     21392     20466     25386     22103     26285     26286     21954     22027
 -1      6888    6    0    1
 -2     21659     21363     21554     21677     27444     27445     27305     27959     26669     27960
 -1      6889    6    0    1
 -2     21668     21537     21614     21384     26118     27209     27961     26114     26117     27962
 -1      6890    6    0    1
 -2     21639     21396     21580     21726     26328     27738     27939     27228     27226     27934
 -1      6891    6    0    1
 -2     21542     20807     20888     20887     27110     23553     26781     27111     23550     23554
 -1      6892    6    0    1
 -2     20864     21263     21207     20813     27355     24766     26490     23481     27357     26491
 -1      6893    6    0    1
 -2     20817     21206     20893     20813     25145     27963     23570     23332     27595     23569
 -1      6894    6    0    1
 -2     21536     21726     21638     20721     25403     27881     26535     26990     26991     27733
 -1      6895    6    0    1
 -2     21539     21228     21134     21118     26485     24654     25591     26508     24653     24355
 -1      6896    6    0    1
 -2     21318     20934     21547     20923     27652     27198     25184     25181     23717     25182
 -1      6897    6    0    1
 -2     20919     20942     21300     20955     23745     25623     25885     23791     23794     25159
 -1      6898    6    0    1
 -2     20770     21106     20776     20735     25303     26840     23254     23211     27845     23199
 -1      6899    6    0    1
 -2     20899     21197     20849     20826     25341     27809     23589     23590     27964     23500
 -1      6900    6    0    1
 -2     20966     21725     21663     20565     27967     27966     27965     23932     27969     27968
 -1      6901    6    0    1
 -2     20677     20791     21048     20741     23245     27564     27048     23099     23274     26657
 -1      6902    6    0    1
 -2     20767     21197     21142     20826     27168     24554     27169     23356     27964     27970
 -1      6903    6    0    1
 -2     21086     21526     21002     21082     26011     27971     24191     24192     25656     24181
 -1      6904    6    0    1
 -2     21122     21049     21135     21519     24330     24358     24360     26711     26712     27037
 -1      6905    6    0    1
 -2     20441     21580     21399     21687     26999     26170     22047     27020     27972     27596
 -1      6906    6    0    1
 -2     21395     21364     20472     21673     22106     21960     22033     25828     27974     27973
 -1      6907    6    0    1
 -2     20988     21028     20700     21713     24090     27975     25751     25750     27976     25747
 -1      6908    6    0    1
 -2     21537     21566     21621     21411     27073     27032     27071     27898     25762     27977
 -1      6909    6    0    1
 -2     21069     20729     20794     21524     27586     23257     27045     27978     27327     27326
 -1      6910    6    0    1
 -2     21569     21687     21603     20598     26389     26386     25192     27979     26653     27735
 -1      6911    6    0    1
 -2     20512     21641     21466     21576     26455     25991     22346     27980     27981     26005
 -1      6912    6    0    1
 -2     21664     21435     21461     21525     27883     22374     26915     26917     26943     26916
 -1      6913    6    0    1
 -2     21053     20738     21533     20672     27520     26283     27360     27358     23091     27361
 -1      6914    6    0    1
 -2     21028     20700     20732     21107     27975     23053     27142     24252     26634     27027
 -1      6915    6    0    1
 -2     21263     21206     20893     21239     24765     27963     27356     24767     24690     27982
 -1      6916    6    0    1
 -2     20718     21096     20677     20969     27983     27049     23077     25893     24224     25895
 -1      6917    6    0    1
 -2     21119     20777     21158     20820     26160     27984     24425     25102     23339     25945
 -1      6918    6    0    1
 -2     21296     21545     20925     20956     25368     27644     27395     25728     25729     23795
 -1      6919    6    0    1
 -2     20737     21519     20717     20743     27536     25252     23090     23106     27029     23103
 -1      6920    6    0    1
 -2     21540     21181     21147     21132     26665     24513     26664     26443     24582     24553
 -1      6921    6    0    1
 -2     20848     21192     21248     20910     27014     24714     25971     23623     26298     27206
 -1      6922    6    0    1
 -2     20456     21667     20455     21387     27986     27985     21786     22017     27954     22018
 -1      6923    6    0    1
 -2     21550     20958     20957     21549     25831     23841     25832     25150     25351     27711
 -1      6924    6    0    1
 -2     21564     21406     21376     20428     25586     22095     25911     25587     22062     21987
 -1      6925    6    0    1
 -2     20749     20725     21080     20689     23121     27864     26233     23120     23031     26235
 -1      6926    6    0    1
 -2     21515     21665     21568     21693     27987     27770     25818     27988     26566     27989
 -1      6927    6    0    1
 -2     21406     21564     21700     20427     25586     25792     27990     22061     25585     25793
 -1      6928    6    0    1
 -2     20442     21369     21638     20443     21973     27329     27991     21772     21974     27328
 -1      6929    6    0    1
 -2     21620     20998     21705     20726     25964     27993     27992     25963     25965     25933
 -1      6930    6    0    1
 -2     20487     21517     21424     21415     27994     26790     22222     22194     27141     22233
 -1      6931    6    0    1
 -2     21705     20726     21562     21620     25933     25934     25930     27992     25963     25447
 -1      6932    6    0    1
 -2     20726     21039     20998     21705     26909     24052     25965     25933     26911     27993
 -1      6933    6    0    1
 -2     21620     21485     21705     21682     25448     27531     27992     26726     27996     27995
 -1      6934    6    0    1
 -2     20914     20924     21733     21289     23766     25571     26580     26003     27464     25980
 -1      6935    6    0    1
 -2     21548     21306     21242     20945     25695     24913     27889     25694     25696     25168
 -1      6936    6    0    1
 -2     21239     20817     21206     20893     25146     25145     24690     27982     23570     27963
 -1      6937    6    0    1
 -2     21102     21169     20786     21054     24460     25321     26259     24250     24461     27668
 -1      6938    6    0    1
 -2     20892     21299     20875     20934     26640     26832     23650     23715     27630     23716
 -1      6939    6    0    1
 -2     21418     21417     21419     21516     22201     22237     22206     27997     27157     25157
 -1      6940    6    0    1
 -2     21108     20749     21158     20777     25995     26713     24422     25996     23203     27984
 -1      6941    6    0    1
 -2     20723     20779     20688     21085     23208     23207     23030     27998     26625     27999
 -1      6942    6    0    1
 -2     20896     20877     21267     20921     23581     26907     26908     23671     23670     28000
 -1      6943    6    0    1
 -2     21535     20611     20652     20724     26397     22822     27560     26398     23020     23022
 -1      6944    6    0    1
 -2     20951     21304     20937     20938     27473     25649     23780     23787     25648     23733
 -1      6945    6    0    1
 -2     20826     20818     20885     21195     23355     23543     23545     28001     25431     25435
 -1      6946    6    0    1
 -2     21113     20726     20998     21068     27363     25965     24279     24302     25962     24141
 -1      6947    6    0    1
 -2     21491     21483     21636     21508     22608     27368     27948     22575     22596     26250
 -1      6948    6    0    1
 -2     21479     20602     21648     21654     28002     25214     25446     25310     25217     25215
 -1      6949    6    0    1
 -2     21567     21413     21680     21517     27120     26839     27724     26202     28003     27386
 -1      6950    6    0    1
 -2     21584     21525     21445     21465     27392     27152     26480     26270     26941     22342
 -1      6951    6    0    1
 -2     21061     20983     21660     21025     24125     28004     27940     24124     24041     27941
 -1      6952    6    0    1
 -2     20673     20715     20742     21532     23080     23102     23101     25615     26227     25800
 -1      6953    6    0    1
 -2     21543     20865     21231     21297     25639     25640     25400     25597     25664     24878
 -1      6954    6    0    1
 -2     21108     21158     21119     20777     24422     24425     24322     25996     27984     26160
 -1      6955    6    0    1
 -2     21149     21198     20775     20818     24558     26692     25397     25398     25432     23334
 -1      6956    6    0    1
 -2     21402     20435     21578     21373     22053     26127     26422     22122     21982     26126
 -1      6957    6    0    1
 -2     21543     21297     21231     21250     25597     24878     25400     25401     24877     24722
 -1      6958    6    0    1
 -2     21218     21543     21541     21151     25632     26036     28005     24620     25633     25957
 -1      6959    6    0    1
 -2     20966     21663     21725     21709     27965     27966     27967     28006     26620     28007
 -1      6960    6    0    1
 -2     20897     21258     20938     20903     25662     25646     23731     23602     25491     23730
 -1      6961    6    0    1
 -2     20877     21272     21267     21546     27414     24795     26907     27415     26177     28008
 -1      6962    6    0    1
 -2     21133     20840     20783     21139     25969     23396     25968     24370     25469     28009
 -1      6963    6    0    1
 -2     21299     20923     20875     20934     27653     23677     26832     27630     23717     23716
 -1      6964    6    0    1
 -2     21679     20519     21428     21455     26827     22252     26217     26829     22316     22389
 -1      6965    6    0    1
 -2     21111     21522     21034     20993     26967     27469     24272     24273     27465     24049
 -1      6966    6    0    1
 -2     21685     20717     20675     20635     25251     23076     27896     27923     23003     22888
 -1      6967    6    0    1
 -2     20883     21548     20894     20922     25201     28010     23576     23672     27657     23673
 -1      6968    6    0    1
 -2     20767     20826     20849     21197     23356     23500     23429     27168     27964     27809
 -1      6969    6    0    1
 -2     21548     21271     20845     20894     26605     25898     26603     28010     25896     23574
 -1      6970    6    0    1
 -2     21547     20955     20940     20934     27224     23793     25344     27198     23792     23782
 -1      6971    6    0    1
 -2     21078     21151     21535     21170     24403     26872     26029     24465     24481     27860
 -1      6972    6    0    1
 -2     21511     21493     21527     21595     22557     25480     25481     26879     26880     27096
 -1      6973    6    0    1
 -2     21207     21206     21179     20813     24586     24581     24584     26491     27595     26647
 -1      6974    6    0    1
 -2     20814     21541     21151     20788     27744     25957     27742     23321     26465     26873
 -1      6975    6    0    1
 -2     21593     21669     21502     20572     25279     26717     26716     26814     27069     22518
 -1      6976    6    0    1
 -2     20904     20865     20866     21543     23604     23486     23605     26205     25639     25769
 -1      6977    6    0    1
 -2     21669     20572     20573     21502     27069     21915     27908     26717     22518     22517
 -1      6978    6    0    1
 -2     21110     21535     21538     21079     26019     26870     26772     24276     26022     26354
 -1      6979    6    0    1
 -2     21669     21671     21481     20573     27905     26044     28011     27908     27909     22462
 -1      6980    6    0    1
 -2     21333     21550     21314     20965     25149     26355     25015     26845     25830     26844
 -1      6981    6    0    1
 -2     20525     21456     21596     20524     22321     28012     26899     21865     22322     27276
 -1      6982    6    0    1
 -2     20814     20788     21151     20771     23321     26873     27742     23320     23267     27659
 -1      6983    6    0    1
 -2     20855     21205     21185     21268     25383     24579     25382     26470     24779     24778
 -1      6984    6    0    1
 -2     20505     20506     21468     21597     21845     22356     22355     27266     28013     27268
 -1      6985    6    0    1
 -2     21546     20927     20921     20906     25840     23719     25538     26176     23690     23714
 -1      6986    6    0    1
 -2     20761     21524     20756     20730     25356     25082     23156     23154     25083     23141
 -1      6987    6    0    1
 -2     21664     21435     21615     20533     27883     26940     28014     27887     22266     28015
 -1      6988    6    0    1
 -2     21434     21615     20532     20531     28017     28016     22263     22264     28018     21872
 -1      6989    6    0    1
 -2     20990     21071     21524     21074     24149     28019     26792     24158     24161     26793
 -1      6990    6    0    1
 -2     21568     21515     21693     20544     25818     27988     27989     25820     22550     26796
 -1      6991    6    0    1
 -2     21693     21515     21497     20544     27988     22561     28020     26796     22550     22501
 -1      6992    6    0    1
 -2     21438     20515     21711     21694     22288     28021     27501     27499     28022     27500
 -1      6993    6    0    1
 -2     21438     21711     21589     21640     27501     25862     26447     26449     25858     25861
 -1      6994    6    0    1
 -2     20926     21550     20904     20947     26715     25782     23686     23764     25784     23762
 -1      6995    6    0    1
 -2     20915     21549     20948     20930     27686     25511     23768     23701     25507     23767
 -1      6996    6    0    1
 -2     20926     20963     21550     20947     23822     26308     26715     23764     23827     25784
 -1      6997    6    0    1
 -2     21336     21330     20959     21324     25028     27683     27331     25026     25000     27859
 -1      6998    6    0    1
 -2     21695     21597     21468     20506     28024     27268     28023     28025     28013     22356
 -1      6999    6    0    1
 -2     21053     21533     21585     21532     27360     26662     28026     26033     26663     26660
 -1      7000    6    0    1
 -2     20690     21486     21736     21591     25474     27409     27407     26930     26615     28027
 -1      7001    6    0    1
 -2     21709     21528     21725     20966     28028     27052     28007     28006     27252     27967
 -1      7002    6    0    1
 -2     20596     20635     21685     20436     22840     27923     27515     22639     22725     27925
 -1      7003    6    0    1
 -2     20959     21549     20962     20950     25816     25352     23842     23806     25353     23833
 -1      7004    6    0    1
 -2     20513     21676     21463     21443     26552     27404     22350     22290     26551     22349
 -1      7005    6    0    1
 -2     21066     21028     21657     20732     24137     25595     25593     27143     27142     27796
 -1      7006    6    0    1
 -2     21276     21242     21306     20945     24808     24913     24915     25170     25168     25696
 -1      7007    6    0    1
 -2     21589     21439     21442     21464     25334     22443     25332     26471     22393     22434
 -1      7008    6    0    1
 -2     21548     20945     21242     20894     25694     25168     27889     28010     23755     28029
 -1      7009    6    0    1
 -2     20566     21528     20966     21725     27055     27252     23933     27054     27052     27967
 -1      7010    6    0    1
 -2     21076     20661     20985     21517     26923     28030     24168     27215     27001     28031
 -1      7011    6    0    1
 -2     21485     21682     20582     21705     27996     27106     22469     27531     27995     28032
 -1      7012    6    0    1
 -2     21682     21485     20582     21507     27996     22469     27106     27107     22531     22530
 -1      7013    6    0    1
 -2     20729     20617     21524     21525     23042     27146     27327     27422     27423     28033
 -1      7014    6    0    1
 -2     21524     21446     21468     21434     28035     22377     28034     27155     22415     22429
 -1      7015    6    0    1
 -2     21664     21525     21615     21435     26917     26942     28014     27883     26943     26940
 -1      7016    6    0    1
 -2     20979     21021     21058     21537     24071     24119     24118     26965     26184     26185
 -1      7017    6    0    1
 -2     21537     21410     20419     21381     26116     22069     26190     27716     22114     21998
 -1      7018    6    0    1
 -2     20500     21471     21522     21449     22362     26506     26981     22301     22380     25684
 -1      7019    6    0    1
 -2     21210     21253     21234     20854     24731     24733     24678     27542     28036     27543
 -1      7020    6    0    1
 -2     20565     20966     21725     20566     23932     27967     27969     21908     23933     27054
 -1      7021    6    0    1
 -2     21411     20418     21537     21566     22072     27078     27898     25762     25760     27073
 -1      7022    6    0    1
 -2     20407     21613     21624     21342     28039     28038     28037     21738     26979     28040
 -1      7023    6    0    1
 -2     21668     21607     20978     21410     27666     25165     27664     26115     25164     25166
 -1      7024    6    0    1
 -2     20783     21104     21133     21139     27705     24352     25968     28009     24368     24370
 -1      7025    6    0    1
 -2     21528     21709     21725     21497     28028     28007     27052     27053     28041     27051
 -1      7026    6    0    1
 -2     21679     21455     21428     21452     26829     22389     26217     26218     22441     22426
 -1      7027    6    0    1
 -2     21411     21721     20417     21566     28042     26893     22071     25762     27035     25761
 -1      7028    6    0    1
 -2     21069     21074     21524     21175     24160     26793     27978     24490     24489     26277
 -1      7029    6    0    1
 -2     21695     20506     21468     21446     28025     22356     28023     28043     22295     22377
 -1      7030    6    0    1
 -2     21524     21074     21069     21030     26793     24160     27978     26794     24159     24143
 -1      7031    6    0    1
 -2     21282     21266     20876     21544     24824     25242     25240     25409     25410     26632
 -1      7032    6    0    1
 -2     21598     20669     21410     21537     25607     25605     25604     26193     27801     26116
 -1      7033    6    0    1
 -2     21088     21044     21648     21005     24197     25550     25551     24196     24081     28044
 -1      7034    6    0    1
 -2     20553     21493     20552     21662     22494     22493     21894     28045     26658     27808
 -1      7035    6    0    1
 -2     21544     21255     21278     21266     25135     24813     25134     25410     24785     24814
 -1      7036    6    0    1
 -2     21632     21377     21389     21533     25738     22138     27241     27242     27952     26421
 -1      7037    6    0    1
 -2     21452     20684     21679     20651     26236     26231     26218     26543     22911     26542
 -1      7038    6    0    1
 -2     21674     21532     21565     21405     26803     25614     26823     26237     26806     25845
 -1      7039    6    0    1
 -2     21604     21644     21679     21474     26561     26500     26539     26562     26559     26723
 -1      7040    6    0    1
 -2     21577     20667     21613     21624     28048     28047     28046     27814     28049     28038
 -1      7041    6    0    1
 -2     20669     21104     21410     21537     27540     25163     25605     27801     26186     26116
 -1      7042    6    0    1
 -2     21444     21467     21713     21436     22376     26519     27041     22420     22419     27749
 -1      7043    6    0    1
 -2     21615     20989     20532     21030     28050     23894     28016     28051     24045     23990
 -1      7044    6    0    1
 -2     21516     21060     20770     20667     26212     25305     28052     25232     26978     23182
 -1      7045    6    0    1
 -2     20511     21576     20512     21466     26006     27980     21851     22348     26005     22346
 -1      7046    6    0    1
 -2     20545     20600     20641     21528     22649     22739     22738     25809     26568     26545
 -1      7047    6    0    1
 -2     21466     21641     20701     21576     25991     25992     25990     26005     27981     28053
 -1      7048    6    0    1
 -2     20499     20498     21629     21450     21838     28055     28054     22304     22303     26586
 -1      7049    6    0    1
 -2     21657     21444     21466     21576     27820     22351     28056     27892     26007     26005
 -1      7050    6    0    1
 -2     21400     21370     21364     21569     22089     22182     22160     26892     26388     26744
 -1      7051    6    0    1
 -2     20869     21186     21262     21540     27420     24764     27617     25125     27370     27636
 -1      7052    6    0    1
 -2     20899     20945     20894     21242     23756     23755     23592     25342     25168     28029
 -1      7053    6    0    1
 -2     21538     20692     21727     20996     26643     26637     26531     26353     26638     26636
 -1      7054    6    0    1
 -2     21368     21367     21623     20446     22044     27936     28057     21970     22003     27518
 -1      7055    6    0    1
 -2     21685     20675     21578     20635     27896     27038     26425     27923     22888     28058
 -1      7056    6    0    1
 -2     21345     21344     21678     21367     21742     28059     26739     21967     21966     28060
 -1      7057    6    0    1
 -2     21416     21422     21722     21551     22224     28062     28061     25094     28064     28063
 -1      7058    6    0    1
 -2     21262     21240     20889     20870     24801     26549     26547     27618     26742     23559
 -1      7059    6    0    1
 -2     20682     20645     21592     20605     22907     27608     27218     22906     22846     27300
 -1      7060    6    0    1
 -2     20819     20895     21539     21253     23578     25495     25494     28065     26579     28066
 -1      7061    6    0    1
 -2     21548     20945     20894     20922     25694     23755     28010     27657     23757     23673
 -1      7062    6    0    1
 -2     21548     20894     21242     21271     28010     28029     27889     26605     25896     24790
 -1      7063    6    0    1
 -2     21479     20570     21619     21501     22457     25439     25436     22551     22516     25952
 -1      7064    6    0    1
 -2     21250     21543     21188     21198     25401     26949     24720     24721     25402     24559
 -1      7065    6    0    1
 -2     20688     21085     20779     20777     27999     26625     23207     23202     26626     23210
 -1      7066    6    0    1
 -2     20775     21198     20778     20821     26692     27619     23206     23340     27693     23341
 -1      7067    6    0    1
 -2     21083     21157     20779     21085     24418     25629     25627     24189     24419     26625
 -1      7068    6    0    1
 -2     21304     20937     20943     20951     25649     23754     27625     27473     23780     23779
 -1      7069    6    0    1
 -2     20874     21199     21237     21254     27247     24684     25721     27248     24735     24737
 -1      7070    6    0    1
 -2     21479     21654     21499     21495     25310     25444     22513     22585     25308     22609
 -1      7071    6    0    1
 -2     21430     21590     20613     21629     25716     28067     27943     26585     28068     27944
 -1      7072    6    0    1
 -2     20921     20906     20877     21546     23714     23698     23670     25538     26176     27415
 -1      7073    6    0    1
 -2     21657     20619     21713     21634     27698     26935     27748     27700     26852     26934
 -1      7074    6    0    1
 -2     20607     21484     21490     21508     27295     22598     27135     28069     22597     22564
 -1      7075    6    0    1
 -2     21508     21616     21652     21484     27128     27129     27126     22597     28071     28070
 -1      7076    6    0    1
 -2     21246     20826     20885     21195     28072     23545     25434     24706     28001     25435
 -1      7077    6    0    1
 -2     21309     21279     20932     21301     24929     27776     25059     24928     24919     25060
 -1      7078    6    0    1
 -2     20915     21268     20855     20901     26469     26470     23637     23638     27597     23595
 -1      7079    6    0    1
 -2     20671     21533     20772     20713     27581     26281     23187     22991     27582     23186
 -1      7080    6    0    1
 -2     20658     20988     20731     20700     26922     26770     23049     22950     25751     23085
 -1      7081    6    0    1
 -2     21563     21737     21701     21491     26719     26722     26695     27794     28073     27795
 -1      7082    6    0    1
 -2     20778     21198     21188     20821     27619     24559     26142     23341     27693     26300
 -1      7083    6    0    1
 -2     21604     21474     21679     21452     26562     26723     26539     26540     22383     26218
 -1      7084    6    0    1
 -2     21539     21210     20819     21253     26459     26457     25494     28066     24731     28065
 -1      7085    6    0    1
 -2     20701     21657     21466     21576     28074     28056     25990     28053     27892     26005
 -1      7086    6    0    1
 -2     21491     21509     21563     21504     22556     26694     27794     22614     22591     27316
 -1      7087    6    0    1
 -2     21561     21619     21512     21479     25437     25953     26988     25438     25436     22586
 -1      7088    6    0    1
 -2     20687     21040     21563     21114     27850     26156     27289     26797     24280     27200
 -1      7089    6    0    1
 -2     21593     21661     21717     20603     27397     27399     26592     28075     28077     28076
 -1      7090    6    0    1
 -2     21512     20550     21696     21586     22544     28079     28078     26357     26358     28080
 -1      7091    6    0    1
 -2     21503     20575     20574     21606     22519     21917     22520     27612     28081     27614
 -1      7092    6    0    1
 -2     20745     21152     20750     20773     25752     25833     23125     23294     27273     23191
 -1      7093    6    0    1
 -2     21631     21516     21417     20491     26107     27157     27156     27527     26598     22198
 -1      7094    6    0    1
 -2     21582     21079     21110     21036     26021     24276     26018     28082     24174     24271
 -1      7095    6    0    1
 -2     21238     20851     21527     21176     25533     26888     25540     24686     25141     27447
 -1      7096    6    0    1
 -2     21652     21484     20607     21508     28070     27295     25854     27126     22597     28069
 -1      7097    6    0    1
 -2     20451     21384     21614     21353     22007     27962     28083     21937     22008     28084
 -1      7098    6    0    1
 -2     21737     21040     21706     21563     27848     26155     28085     26719     26156     26154
 -1      7099    6    0    1
 -2     20499     20613     21629     20498     22677     27944     28054     21838     22678     28055
 -1      7100    6    0    1
 -2     20781     20683     21527     20707     23217     26590     25088     23216     22970     27097
 -1      7101    6    0    1
 -2     20745     21109     20680     20722     25753     26488     23110     23111     27443     23066
 -1      7102    6    0    1
 -2     20851     21219     21527     20832     25531     25542     26888     23439     26453     27491
 -1      7103    6    0    1
 -2     20694     20653     21590     21522     22935     26982     25714     25713     26582     25715
 -1      7104    6    0    1
 -2     21287     21227     21270     20856     24840     24786     24842     25983     26952     27734
 -1      7105    6    0    1
 -2     21613     20485     21342     20407     28086     22204     26979     28039     21820     21738
 -1      7106    6    0    1
 -2     20532     20989     21615     20533     23894     28050     28016     21873     23895     28015
 -1      7107    6    0    1
 -2     21609     21499     21478     20568     27862     22508     27865     27866     22507     22455
 -1      7108    6    0    1
 -2     21687     21399     21726     21580     27596     27740     26652     27972     26170     27934
 -1      7109    6    0    1
 -2     21512     21696     21714     21586     28078     28087     26989     26357     28080     28088
 -1      7110    6    0    1
 -2     20548     21688     20642     21654     25612     25568     22743     27391     25465     25216
 -1      7111    6    0    1
 -2     21135     21186     21540     21222     24525     27370     27369     24631     24634     26710
 -1      7112    6    0    1
 -2     21086     21527     21174     21084     26010     25541     24487     24193     26365     24486
 -1      7113    6    0    1
 -2     20860     20806     20869     21540     23466     23494     23493     25126     25195     25125
 -1      7114    6    0    1
 -2     20541     21464     21589     20540     22339     26471     26325     21881     22340     26446
 -1      7115    6    0    1
 -2     20569     21561     21479     20570     26994     25438     22458     21912     25440     22457
 -1      7116    6    0    1
 -2     21219     20832     20851     20870     26453     23439     25531     25532     23497     23499
 -1      7117    6    0    1
 -2     21536     20642     20679     20601     26384     22897     26745     26746     22814     22898
 -1      7118    6    0    1
 -2     20536     21462     21708     21657     22334     28090     28089     27750     27895     28091
 -1      7119    6    0    1
 -2     20641     21528     20639     20681     26545     28092     22896     22903     28093     22904
 -1      7120    6    0    1
 -2     20493     21474     21604     20494     22367     26562     26563     21833     22368     27528
 -1      7121    6    0    1
 -2     21555     21536     21609     21528     26382     27675     27678     25237     25112     28094
 -1      7122    6    0    1
 -2     20866     20865     20821     21543     23486     23483     23484     25769     25639     26950
 -1      7123    6    0    1
 -2     20727     21170     20778     21126     27349     26141     23205     26331     24464     27620
 -1      7124    6    0    1
 -2     21550     21340     21333     21323     26210     25048     25149     25428     25047     25014
 -1      7125    6    0    1
 -2     21307     21549     21328     21286     26468     25098     24993     24918     25505     24992
 -1      7126    6    0    1
 -2     21419     21417     21420     21516     22237     22243     22228     25157     27157     26391
 -1      7127    6    0    1
 -2     21265     21194     20836     21213     24772     26936     27632     24771     24604     26672
 -1      7128    6    0    1
 -2     20895     21253     20819     20854     26579     28065     23578     23582     28036     23449
 -1      7129    6    0    1
 -2     21550     21339     21337     21340     25520     25056     25148     26210     25058     25049
 -1      7130    6    0    1
 -2     21292     21246     20885     21231     24860     25434     25390     24862     24708     25393
 -1      7131    6    0    1
 -2     21065     20991     21031     21523     24134     24086     24135     25239     25426     25906
 -1      7132    6    0    1
 -2     21661     20686     21714     21696     28097     28096     28095     28098     28099     28087
 -1      7133    6    0    1
 -2     20836     21265     21281     20883     27632     24822     27638     23535     25199     25200
 -1      7134    6    0    1
 -2     21040     20687     21563     21737     27850     27289     26156     27848     27833     26719
 -1      7135    6    0    1
 -2     20819     21253     21210     20854     28065     24731     26457     23449     28036     27542
 -1      7136    6    0    1
 -2     21138     20757     20847     20738     25786     23416     25339     26293     23144     23417
 -1      7137    6    0    1
 -2     21212     21264     20896     21217     24768     28101     28100     24619     24769     26905
 -1      7138    6    0    1
 -2     20886     20854     21234     20895     23610     27543     26786     23629     23582     26577
 -1      7139    6    0    1
 -2     20485     21419     21587     21613     22207     25153     28102     28086     25154     25155
 -1      7140    6    0    1
 -2     20591     21533     20671     20631     26069     27581     22881     22805     27583     22880
 -1      7141    6    0    1
 -2     20827     21125     21168     21208     28103     24466     25245     26596     24588     24590
 -1      7142    6    0    1
 -2     20712     20674     20594     21531     22999     22887     22988     26099     26100     26685
 -1      7143    6    0    1
 -2     21610     21461     21642     21525     26919     27324     27149     26920     26916     27323
 -1      7144    6    0    1
 -2     21527     21219     20781     20832     25542     26452     25088     27491     26453     23372
 -1      7145    6    0    1
 -2     20741     20791     21132     21540     23274     27402     26442     25196     27504     26443
 -1      7146    6    0    1
 -2     21722     20482     21421     21422     27839     22229     27784     28062     22227     22239
 -1      7147    6    0    1
 -2     21660     21675     21722     20623     27162     27782     28104     27161     27164     28105
 -1      7148    6    0    1
 -2     21661     21696     21714     21494     28098     28087     28095     27629     28107     28106
 -1      7149    6    0    1
 -2     20550     21494     21696     21661     22495     28107     28079     27628     27629     28098
 -1      7150    6    0    1
 -2     21259     21273     21204     20825     24817     24797     24752     26516     26515     25620
 -1      7151    6    0    1
 -2     21281     21548     21265     21293     25197     25198     24822     24865     27599     24863
 -1      7152    6    0    1
 -2     20805     21131     21139     20823     26683     24459     25468     23348     27547     25470
 -1      7153    6    0    1
 -2     21512     21494     21714     21696     22558     28106     26989     28078     28107     28087
 -1      7154    6    0    1
 -2     21270     20857     21273     21310     26974     27406     24798     24932     26857     24930
 -1      7155    6    0    1
 -2     21714     21724     21494     21501     28108     27899     28106     28109     28110     22590
 -1      7156    6    0    1
 -2     21416     21551     21722     21712     25094     28063     28061     27158     27063     28111
 -1      7157    6    0    1
 -2     20932     21309     20954     20953     25059     25319     23788     23786     26150     23790
 -1      7158    6    0    1
 -2     20481     20482     21722     20623     21816     27839     27781     22701     22700     28105
 -1      7159    6    0    1
 -2     21416     21712     21722     20482     27158     28111     28061     22211     28112     27839
 -1      7160    6    0    1
 -2     20804     20851     21255     21211     23440     25559     26763     25138     25140     24742
 -1      7161    6    0    1
 -2     21292     21550     21314     21323     26691     26355     24943     24976     25428     24977
 -1      7162    6    0    1
 -2     21550     21546     21339     21341     26945     26329     25520     26211     25453     25054
 -1      7163    6    0    1
 -2     21544     20876     21255     21266     26632     26764     25135     25410     25242     24785
 -1      7164    6    0    1
 -2     20625     20735     21023     20667     23064     27846     28113     22870     23068     27140
 -1      7165    6    0    1
 -2     21197     21195     21142     20826     24556     24548     24554     27964     28001     27970
 -1      7166    6    0    1
 -2     21295     21543     21284     21244     25596     26914     24871     24869     25839     24830
 -1      7167    6    0    1
 -2     20799     21120     21153     21178     26477     24462     25665     25666     24521     24507
 -1      7168    6    0    1
 -2     21160     20767     21182     21197     25698     27061     24515     24555     27168     24639
 -1      7169    6    0    1
 -2     21327     21338     21548     21306     25038     25325     25335     24990     25035     25695
 -1      7170    6    0    1
 -2     20924     20862     21257     20881     23679     27654     27463     23681     23530     27655
 -1      7171    6    0    1
 -2     21518     20765     21229     20760     27271     27580     27264     26960     23168     27650
 -1      7172    6    0    1
 -2     20885     21292     20926     20946     25390     25391     23687     23759     27346     23760
 -1      7173    6    0    1
 -2     21229     20765     21213     20845     27580     26673     24751     27649     23409     26674
 -1      7174    6    0    1
 -2     21106     20711     20776     20735     27868     23198     26840     27845     23071     23199
 -1      7175    6    0    1
 -2     21685     21402     21570     21372     26424     27933     26087     27291     22091     27811
 -1      7176    6    0    1
 -2     21539     21106     21059     20711     26419     24306     26418     26291     27868     27552
 -1      7177    6    0    1
 -2     21544     20876     20891     21255     26632     23565     26631     25135     26764     26642
 -1      7178    6    0    1
 -2     20976     21520     21018     21055     27411     27240     24068     24112     25422     24113
 -1      7179    6    0    1
 -2     21554     21363     21394     20470     27445     22105     25208     25209     21958     22031
 -1      7180    6    0    1
 -2     20437     21659     20438     21401     27567     28114     21767     22051     27819     22052
 -1      7181    6    0    1
 -2     20951     21296     20938     20956     28115     25657     23787     23805     25728     23798
 -1      7182    6    0    1
 -2     21731     20985     21640     20661     27497     27498     25857     26080     28030     28116
 -1      7183    6    0    1
 -2     21109     21004     21714     21561     24266     26751     26749     28117     28118     26986
 -1      7184    6    0    1
 -2     21138     21205     21185     20847     24577     24579     24523     25339     25384     25338
 -1      7185    6    0    1
 -2     21731     20516     20622     20661     26078     22696     26197     26080     22784     22858
 -1      7186    6    0    1
 -2     21524     21523     21447     21655     27297     26608     27296     28119     28120     27455
 -1      7187    6    0    1
 -2     20765     21128     20762     20697     25107     27534     23169     23166     25105     23158
 -1      7188    6    0    1
 -2     20905     21216     20877     21272     26013     28121     23608     26038     24792     27414
 -1      7189    6    0    1
 -2     21645     21535     21473     21452     27255     27344     26773     26789     27256     22394
 -1      7190    6    0    1
 -2     21216     20843     21117     21541     26016     27703     24615     26015     26017     28122
 -1      7191    6    0    1
 -2     21239     21263     20916     20893     24767     27117     25224     27982     27356     23669
 -1      7192    6    0    1
 -2     20794     21175     21069     21524     27591     24490     27045     27326     26277     27978
 -1      7193    6    0    1
 -2     20761     21524     20808     20756     25356     25358     23304     23156     25082     23303
 -1      7194    6    0    1
 -2     20556     20557     21491     21612     21898     22490     22489     27877     28123     26709
 -1      7195    6    0    1
 -2     21615     20989     21069     21525     28050     24144     28124     26942     27697     27696
 -1      7196    6    0    1
 -2     21737     21563     21706     21491     26719     26154     28085     28073     27794     26706
 -1      7197    6    0    1
 -2     21655     21524     21597     21447     28119     27604     28125     27455     27296     27267
 -1      7198    6    0    1
 -2     20700     21107     21734     20796     26634     26654     26958     23263     27028     27903
 -1      7199    6    0    1
 -2     21458     21523     21432     21469     25989     25948     22371     22407     26609     22408
 -1      7200    6    0    1
 -2     21459     21524     21447     21468     27153     27296     22411     22435     28034     22400
 -1      7201    6    0    1
 -2     20809     20887     21542     20864     23548     27111     25943     23480     23549     26785
 -1      7202    6    0    1
 -2     21637     21535     21428     21453     26461     26462     26253     27431     26136     22311
 -1      7203    6    0    1
 -2     20651     21452     20684     21645     26543     26236     22911     27558     26789     27254
 -1      7204    6    0    1
 -2     21706     21083     20723     21686     27854     26784     26759     28126     27173     28127
 -1      7205    6    0    1
 -2     21069     20729     21524     21525     27586     27327     27978     27696     27422     28033
 -1      7206    6    0    1
 -2     21336     21335     21328     21549     25027     25023     25024     27334     25100     25098
 -1      7207    6    0    1
 -2     21546     20906     21543     20909     26176     25776     26178     28128     23656     25770
 -1      7208    6    0    1
 -2     21516     20491     20492     21417     26598     21827     26597     27157     22198     22197
 -1      7209    6    0    1
 -2     21091     21089     21588     20967     24210     27810     26086     24209     24200     27009
 -1      7210    6    0    1
 -2     21089     21536     21588     21528     25109     26083     27810     25111     25112     28129
 -1      7211    6    0    1
 -2     20805     21104     20783     21139     26187     27705     23326     25468     24368     28009
 -1      7212    6    0    1
 -2     21402     21685     21578     20435     26424     26425     26422     22053     27924     26127
 -1      7213    6    0    1
 -2     21665     21497     21709     21528     28131     28041     28130     26569     27053     28028
 -1      7214    6    0    1
 -2     20908     20864     21542     20887     23618     26785     26728     23617     23549     27111
 -1      7215    6    0    1
 -2     21457     20526     21697     20527     22324     28132     26527     22323     21867     28133
 -1      7216    6    0    1
 -2     21647     21697     21457     20526     26526     26527     26524     27767     28132     22324
 -1      7217    6    0    1
 -2     21051     21530     21635     21014     26146     26147     26144     24105     28135     28134
 -1      7218    6    0    1
 -2     21262     20870     20889     20869     27618     23559     26547     27617     23498     23556
 -1      7219    6    0    1
 -2     20985     20661     21731     21517     28030     26080     27497     28031     27001     26199
 -1      7220    6    0    1
 -2     21685     20435     21402     20436     27924     22053     26424     27925     21765     22054
 -1      7221    6    0    1
 -2     20677     20719     21048     20791     23074     27026     27048     23245     23244     27564
 -1      7222    6    0    1
 -2     20421     21380     21630     21557     21996     25725     28136     27572     28138     28137
 -1      7223    6    0    1
 -2     21608     21415     20487     20488     27717     22194     28139     28140     22193     21823
 -1      7224    6    0    1
 -2     21413     21424     21414     21517     22235     22226     22191     28003     26790     25580
 -1      7225    6    0    1
 -2     20800     20741     21540     20791     23283     25196     25194     23282     23274     27504
 -1      7226    6    0    1
 -2     21089     21528     21588     21009     25111     28129     27810     24201     27202     28141
 -1      7227    6    0    1
 -2     21691     20680     21714     21561     25318     28143     28142     25314     25317     26986
 -1      7228    6    0    1
 -2     21561     21512     21691     21479     26988     27844     25314     25438     22586     25309
 -1      7229    6    0    1
 -2     21691     21561     21714     21512     25314     26986     28142     27844     26988     26989
 -1      7230    6    0    1
 -2     21691     21512     21714     21586     27844     26989     28142     27937     26357     28088
 -1      7231    6    0    1
 -2     21075     21522     21062     21033     25742     27466     24164     24162     27467     24127
 -1      7232    6    0    1
 -2     21400     20439     21707     21371     22049     27661     27780     22125     21978     27663
 -1      7233    6    0    1
 -2     20471     21395     20472     21673     22034     22033     21802     25827     25828     27973
 -1      7234    6    0    1
 -2     21536     21528     21397     21588     25112     28144     26538     26083     28129     26536
 -1      7235    6    0    1
 -2     21397     21588     20475     21365     26536     27753     22039     22164     26427     21961
 -1      7236    6    0    1
 -2     21684     21531     21571     21404     27790     26343     27789     27459     26341     27785
 -1      7237    6    0    1
 -2     21724     21593     20572     21043     26813     26814     26811     28145     27070     24019
 -1      7238    6    0    1
 -2     21711     20515     20516     20661     28021     21855     26079     26081     22785     22784
 -1      7239    6    0    1
 -2     21546     20936     20927     20909     28146     23725     25840     28128     23724     23689
 -1      7240    6    0    1
 -2     20952     21545     21324     20956     25526     25727     27645     23802     25729     25730
 -1      7241    6    0    1
 -2     21169     21191     20803     21129     24536     25461     25323     24495     24537     26299
 -1      7242    6    0    1
 -2     21666     21035     21429     21573     27951     26129     27949     25766     27170     27426
 -1      7243    6    0    1
 -2     21651     21592     21715     21509     26610     26611     25848     26697     28148     28147
 -1      7244    6    0    1
 -2     21607     20669     21630     20588     27539     25606     25726     28149     22874     28150
 -1      7245    6    0    1
 -2     20863     21177     21259     21260     25645     24753     25644     26260     24754     24756
 -1      7246    6    0    1
 -2     21416     20482     21722     21422     22211     27839     28061     22224     22227     28062
 -1      7247    6    0    1
 -2     20817     21206     20794     21175     25145     27590     23329     27672     24580     27591
 -1      7248    6    0    1
 -2     21613     20664     20667     21516     28151     22967     28047     25158     25231     25232
 -1      7249    6    0    1
 -2     21550     21546     21543     20909     26945     26178     26944     27587     28128     25770
 -1      7250    6    0    1
 -2     21026     20661     20985     21076     26924     28030     23978     24203     26923     24168
 -1      7251    6    0    1
 -2     21550     20936     21546     20909     25783     28146     26945     27587     23724     28128
 -1      7252    6    0    1
 -2     20715     21532     21674     20672     26227     26803     26801     23023     27359     28152
 -1      7253    6    0    1
 -2     21533     20713     20592     20672     27582     22992     28153     27361     22995     22883
 -1      7254    6    0    1
 -2     21731     21567     20516     21442     26200     25779     26078     26124     27713     22286
 -1      7255    6    0    1
 -2     20750     20773     21047     20678     23191     27272     25866     23139     23189     25455
 -1      7256    6    0    1
 -2     21095     20719     20773     20791     25883     23190     27389     27551     23244     23275
 -1      7257    6    0    1
 -2     21282     21545     21312     21274     28154     25718     24938     24927     25719     24937
 -1      7258    6    0    1
 -2     21545     20882     21252     21241     28155     25922     27621     27468     26350     24729
 -1      7259    6    0    1
 -2     21146     21538     21081     21079     25659     26307     24387     24388     26354     24179
 -1      7260    6    0    1
 -2     21322     21334     21547     21548     25046     26119     27223     25326     27598     25346
 -1      7261    6    0    1
 -2     20616     20655     21605     20504     22852     27481     27479     22684     22772     28156
 -1      7262    6    0    1
 -2     21486     21591     21682     21736     26615     26575     27253     27409     28027     28157
 -1      7263    6    0    1
 -2     21582     20684     21538     20996     26228     26795     27343     26229     26230     26353
 -1      7264    6    0    1
 -2     21038     20690     21538     21068     26929     26735     26305     24142     27171     26306
 -1      7265    6    0    1
 -2     20653     20613     21590     20499     22823     28067     26982     22769     22677     26497
 -1      7266    6    0    1
 -2     21607     21057     20666     21557     25635     27238     28158     28159     27239     27236
 -1      7267    6    0    1
 -2     21516     21060     21120     20770     26212     24323     27570     28052     25305     25304
 -1      7268    6    0    1
 -2     20728     21522     20710     20614     26581     27707     23059     23039     26583     22981
 -1      7269    6    0    1
 -2     21218     21151     21541     21203     24620     25957     28005     24658     24571     26041
 -1      7270    6    0    1
 -2     21144     21538     21541     21190     25958     25959     25956     24534     25658     26042
 -1      7271    6    0    1
 -2     21163     21117     21113     20752     24443     24318     24440     27380     27067     27383
 -1      7272    6    0    1
 -2     21541     20802     20842     20747     26677     23402     27695     27382     23287     23400
 -1      7273    6    0    1
 -2     21670     21529     21557     21386     27284     25274     27282     28160     25268     26280
 -1      7274    6    0    1
 -2     21455     21704     21727     21679     26828     28162     28161     26829     26826     26635
 -1      7275    6    0    1
 -2     20996     20684     21538     20692     26230     26795     26353     26638     23025     26643
 -1      7276    6    0    1
 -2     21470     21457     21518     21448     22432     26525     25573     22379     22413     25574
 -1      7277    6    0    1
 -2     21523     20616     20730     20695     26818     23046     27577     26819     22937     23048
 -1      7278    6    0    1
 -2     20755     20844     21541     20802     23408     26675     26463     23288     23435     26677
 -1      7279    6    0    1
 -2     21035     21112     21573     21666     24274     25767     27170     27951     25764     25766
 -1      7280    6    0    1
 -2     21615     20532     21460     21434     28016     22330     28163     28017     22263     22373
 -1      7281    6    0    1
 -2     21683     20524     21596     21430     28165     27276     28164     25705     22255     28166
 -1      7282    6    0    1
 -2     21072     20989     21029     21525     24151     24088     24152     27418     27697     27419
 -1      7283    6    0    1
 -2     21155     20763     20841     20785     28168     23419     28167     28169     23360     23436
 -1      7284    6    0    1
 -2     21714     21661     21593     20686     28095     27397     28170     28096     28097     28171
 -1      7285    6    0    1
 -2     21682     21507     21489     21485     27107     22601     28172     27996     22531     22602
 -1      7286    6    0    1
 -2     21155     21063     21164     20785     24413     24480     24483     28169     28174     28173
 -1      7287    6    0    1
 -2     21164     20704     20702     21093     28176     23097     28175     24444     26097     27092
 -1      7288    6    0    1
 -2     21164     20763     21155     20785     27953     28168     24483     28173     23360     28169
 -1      7289    6    0    1
 -2     21439     21680     21567     21441     27723     27724     27722     22428     28177     25780
 -1      7290    6    0    1
 -2     21674     21532     21533     20672     26803     26663     28178     28152     27359     27361
 -1      7291    6    0    1
 -2     21675     21421     21425     21517     27003     22232     26054     26056     27719     26055
 -1      7292    6    0    1
 -2     21731     21442     21699     21517     26124     25330     28179     26199     26957     26475
 -1      7293    6    0    1
 -2     21631     20734     21090     21064     26319     26791     26108     27066     27159     24207
 -1      7294    6    0    1
 -2     21021     20451     21614     20979     23962     28083     27207     24071     23873     27208
 -1      7295    6    0    1
 -2     21138     20738     20847     20834     26293     23417     25339     25336     23378     23434
 -1      7296    6    0    1
 -2     21613     21342     21577     21624     26979     26074     28046     28038     28040     27814
 -1      7297    6    0    1
 -2     21532     20757     21053     20672     26034     25785     26033     27359     23143     27358
 -1      7298    6    0    1
 -2     21674     20672     21533     21628     28152     27361     28178     27802     28180     27309
 -1      7299    6    0    1
 -2     21674     21628     21533     21376     27802     27309     28178     27470     25913     26402
 -1      7300    6    0    1
 -2     21136     21161     21518     21046     24436     27265     25700     24362     24433     26152
 -1      7301    6    0    1
 -2     21653     21523     21469     21448     27545     26609     27485     27339     26824     22399
 -1      7302    6    0    1
 -2     20453     21354     21386     21607     21939     22076     22016     28181     26204     26203
 -1      7303    6    0    1
 -2     20514     21438     21694     20515     22287     27499     28182     21854     22288     28022
 -1      7304    6    0    1
 -2     21301     20942     20932     21321     25625     23746     25060     24970     26765     25061
 -1      7305    6    0    1
 -2     21653     21448     21469     20503     27339     22399     27485     27340     22300     22357
 -1      7306    6    0    1
 -2     20878     20833     21287     20873     23519     25981     27134     23522     23507     25982
 -1      7307    6    0    1
 -2     20932     20942     21301     20911     23746     25625     25060     23709     23744     25626
 -1      7308    6    0    1
 -2     21523     21518     21161     21073     27489     27265     25095     25096     28183     24434
 -1      7309    6    0    1
 -2     21614     21353     20450     20451     28084     21938     28184     28083     21937     21781
 -1      7310    6    0    1
 -2     21463     21602     21694     21438     25287     25288     25284     22335     27385     27499
 -1      7311    6    0    1
 -2     21083     21085     20779     20723     24189     26625     25627     26784     27998     23208
 -1      7312    6    0    1
 -2     21157     20779     20838     20751     25629     23390     25978     25630     23209     23388
 -1      7313    6    0    1
 -2     20793     21123     21527     21115     25089     25090     25087     28185     24331     25277
 -1      7314    6    0    1
 -2     20852     21157     20838     21212     25471     25978     23444     25472     24600     25686
 -1      7315    6    0    1
 -2     21157     20852     20838     20779     25471     23444     25978     25629     23443     23390
 -1      7316    6    0    1
 -2     21496     20546     20547     21555     22499     21888     22500     25235     25236     25582
 -1      7317    6    0    1
 -2     21690     21537     21353     21614     27760     28187     28186     28188     27209     28084
 -1      7318    6    0    1
 -2     20937     21264     20903     21258     27651     27689     23728     25647     24770     25491
 -1      7319    6    0    1
 -2     21541     21543     21235     21272     26036     25838     28189     26039     26037     24883
 -1      7320    6    0    1
 -2     20925     21545     20944     20956     27644     27083     23752     23795     25729     23796
 -1      7321    6    0    1
 -2     21724     21043     20572     20571     28145     24019     26811     28190     24018     21914
 -1      7322    6    0    1
 -2     20732     21028     21713     20700     27142     27976     28191     23053     27975     25747
 -1      7323    6    0    1
 -2     20646     21612     21737     20687     27878     28192     26718     22920     28193     27833
 -1      7324    6    0    1
 -2     21333     20953     21309     21315     26149     26150     25029     25030     28194     24951
 -1      7325    6    0    1
 -2     21056     21154     21521     21103     24410     27100     27099     24296     24411     26240
 -1      7326    6    0    1
 -2     21309     20953     20935     21315     26150     23785     27400     24951     28194     27709
 -1      7327    6    0    1
 -2     21067     20700     20731     20988     26633     23085     26768     24140     25751     26770
 -1      7328    6    0    1
 -2     20739     20743     21124     20835     23105     26983     26439     23380     23379     26881
 -1      7329    6    0    1
 -2     21709     20476     21397     21588     27837     22038     28195     28196     28197     26536
 -1      7330    6    0    1
 -2     21658     21402     21578     21393     26061     26422     26423     26062     22184     27013
 -1      7331    6    0    1
 -2     21333     21315     20957     20953     25030     27708     27594     26149     28194     23800
 -1      7332    6    0    1
 -2     21124     21143     21226     20835     24381     24648     24647     26881     25517     25518
 -1      7333    6    0    1
 -2     21542     20807     20789     20846     27110     23301     27758     27060     23414     23413
 -1      7334    6    0    1
 -2     20842     21541     20752     20843     27695     27381     23401     23406     26017     23403
 -1      7335    6    0    1
 -2     20888     20807     21542     20846     23553     27110     26781     23552     23414     27060
 -1      7336    6    0    1
 -2     21696     20686     21714     20643     28099     28096     28087     28198     22916     28199
 -1      7337    6    0    1
 -2     21115     21593     20686     21043     25278     28171     27494     24286     27070     27492
 -1      7338    6    0    1
 -2     21221     21140     20828     20846     24628     28201     28200     28202     27059     23476
 -1      7339    6    0    1
 -2     20793     21115     21527     20683     28185     25277     25087     23249     28203     26590
 -1      7340    6    0    1
 -2     20781     20793     21540     21123     23252     25768     26450     25091     25089     26618
 -1      7341    6    0    1
 -2     21482     21526     21606     21503     26027     27792     28204     22569     26025     27612
 -1      7342    6    0    1
 -2     20957     21315     20935     20953     27708     27709     23799     23800     28194     23785
 -1      7343    6    0    1
 -2     21713     21436     20535     20536     27749     22268     28205     27751     22267     21876
 -1      7344    6    0    1
 -2     21276     21327     21314     20964     24989     24991     24944     25349     25350     28206
 -1      7345    6    0    1
 -2     21188     21543     20821     21198     26949     26950     26300     24559     25402     27693
 -1      7346    6    0    1
 -2     20752     21541     21117     20843     27381     28122     27067     23403     26017     27703
 -1      7347    6    0    1
 -2     21158     20843     20820     20749     27704     23405     25945     26713     23404     23338
 -1      7348    6    0    1
 -2     21584     21465     21445     20508     26270     22342     26480     26481     22341     22293
 -1      7349    6    0    1
 -2     20571     21043     21714     21724     24018     28208     28207     28190     28145     28108
 -1      7350    6    0    1
 -2     21538     21535     20724     20684     26870     26398     28209     26795     26396     23021
 -1      7351    6    0    1
 -2     21057     21670     21607     20978     27283     28210     25635     24116     28211     25165
 -1      7352    6    0    1
 -2     20926     21297     21292     21231     25663     24879     25391     25392     24878     24862
 -1      7353    6    0    1
 -2     20452     21354     20453     21607     21940     21939     21783     27667     26204     28181
 -1      7354    6    0    1
 -2     21620     20690     21736     21068     27438     27407     28212     25961     27171     28213
 -1      7355    6    0    1
 -2     20818     21198     20775     20821     25432     26692     23334     23342     27693     23340
 -1      7356    6    0    1
 -2     21117     20843     20749     20752     27703     23404     26714     27067     23403     23130
 -1      7357    6    0    1
 -2     21700     21533     21377     20975     26068     27952     27725     26071     26072     25735
 -1      7358    6    0    1
 -2     21287     21305     21311     20873     24910     24947     24946     25982     25178     25176
 -1      7359    6    0    1
 -2     20924     20931     21289     20914     23774     27235     27464     23766     23707     26003
 -1      7360    6    0    1
 -2     21239     20893     20916     20933     27982     23669     25224     25225     23711     23710
 -1      7361    6    0    1
 -2     20762     21128     21213     21194     27534     24603     27533     26854     24545     24604
 -1      7362    6    0    1
 -2     21102     21054     20671     20975     24250     27669     27133     24236     24110     27104
 -1      7363    6    0    1
 -2     21448     21457     21575     21432     22413     26810     26808     22412     22391     25951
 -1      7364    6    0    1
 -2     21518     20760     21229     21136     26960     27650     27264     25700     26959     24655
 -1      7365    6    0    1
 -2     21518     21075     21160     21136     25743     24431     25701     25700     24361     24467
 -1      7366    6    0    1
 -2     21263     21280     20864     21275     24945     26962     27355     24909     24889     26963
 -1      7367    6    0    1
 -2     20911     20868     21261     20901     23625     26864     26862     23627     23596     26867
 -1      7368    6    0    1
 -2     20932     21301     21279     20901     25060     24919     27776     23708     26865     26866
 -1      7369    6    0    1
 -2     21546     21308     21267     21302     25970     24920     28008     25537     24923     24897
 -1      7370    6    0    1
 -2     21300     20911     20919     21260     25624     23663     25885     24887     26454     25887
 -1      7371    6    0    1
 -2     20772     21054     21169     21129     28214     24461     25322     26282     24343     24495
 -1      7372    6    0    1
 -2     21221     20850     21234     20886     28216     28215     24901     27233     23611     26786
 -1      7373    6    0    1
 -2     20976     20457     21018     21520     23867     23956     24068     27411     26051     27240
 -1      7374    6    0    1
 -2     20847     20829     21205     20884     23418     27869     25384     23540     23539     25078
 -1      7375    6    0    1
 -2     20946     20964     21276     20963     23824     25349     25169     23821     23825     27348
 -1      7376    6    0    1
 -2     20666     20669     20805     21057     22877     23296     23295     27238     27541     26188
 -1      7377    6    0    1
 -2     21534     20780     21202     20782     26180     25621     26179     25282     23220     27416
 -1      7378    6    0    1
 -2     21268     20884     20855     21205     25079     23541     26470     24779     25078     25383
 -1      7379    6    0    1
 -2     20630     20714     21520     20670     22994     26351     26263     22878     22996     26650
 -1      7380    6    0    1
 -2     20973     21100     21532     21052     24232     25508     26122     24106     24258     27692
 -1      7381    6    0    1
 -2     21548     20894     20845     20883     28010     23574     26603     25201     23576     23536
 -1      7382    6    0    1
 -2     21548     20883     20845     21281     25201     23536     26603     25197     25200     26604
 -1      7383    6    0    1
 -2     21229     20845     21281     21271     27649     26604     24820     24789     25898     24823
 -1      7384    6    0    1
 -2     20678     21047     21091     21010     25455     24211     25408     25837     24097     24208
 -1      7385    6    0    1
 -2     21617     21519     21570     21394     26315     27813     27912     25211     26314     25865
 -1      7386    6    0    1
 -2     21665     20444     21397     21366     28218     22040     28217     27894     21971     22037
 -1      7387    6    0    1
 -2     21363     21677     21625     21554     26669     28219     27818     27445     27960     27817
 -1      7388    6    0    1
 -2     20845     21229     21182     21271     27649     24657     27648     25898     24789     24788
 -1      7389    6    0    1
 -2     21362     21393     21658     20468     22104     26062     26060     21956     22029     27538
 -1      7390    6    0    1
 -2     20845     21271     21182     20849     25898     24788     27648     23430     25897     27635
 -1      7391    6    0    1
 -2     20477     21398     20478     21663     22043     22042     21808     28220     26621     27772
 -1      7392    6    0    1
 -2     21690     21614     21353     20450     28188     28084     28186     28221     28184     21938
 -1      7393    6    0    1
 -2     20671     21054     21533     20975     27669     25561     27581     27104     24110     26072
 -1      7394    6    0    1
 -2     21202     20856     21270     21227     27417     27734     24787     24651     26952     24786
 -1      7395    6    0    1
 -2     21570     21013     21685     21519     26088     26045     26087     27813     26046     25248
 -1      7396    6    0    1
 -2     21500     21663     21594     21398     28222     27774     27741     25554     26621     27745
 -1      7397    6    0    1
 -2     21500     21663     20565     20564     28222     27968     22510     22511     27773     21907
 -1      7398    6    0    1
 -2     21270     20856     21202     20853     27734     27417     24787     27193     23453     26489
 -1      7399    6    0    1
 -2     21408     21534     21667     21521     25312     27956     25870     25313     25207     25871
 -1      7400    6    0    1
 -2     20912     20920     21545     20939     23667     25986     27799     23735     23734     25527
 -1      7401    6    0    1
 -2     21521     20790     20668     20782     25413     23241     25205     25283     23243     23219
 -1      7402    6    0    1
 -2     21017     21533     20974     21101     27728     28223     24034     24233     25562     24234
 -1      7403    6    0    1
 -2     20671     21533     20591     20975     27581     26069     22881     27104     26072     26070
 -1      7404    6    0    1
 -2     20532     21615     21460     20533     28016     28163     22330     21873     28015     22329
 -1      7405    6    0    1
 -2     20660     20733     20702     20986     23055     23058     22954     28224     27378     27093
 -1      7406    6    0    1
 -2     21357     20458     21601     21632     21946     27351     26264     26265     27362     25737
 -1      7407    6    0    1
 -2     20742     21532     21168     20769     25800     25801     25798     23229     28225     25247
 -1      7408    6    0    1
 -2     21053     20757     21138     20738     25785     25786     24366     27520     23144     26293
 -1      7409    6    0    1
 -2     21577     21418     21613     21516     26102     26980     28046     27513     27997     25158
 -1      7410    6    0    1
 -2     20591     20630     21646     20426     22835     26262     25543     22629     22715     25651
 -1      7411    6    0    1
 -2     21352     21690     20449     21621     26437     27836     21935     25637     27759     25636
 -1      7412    6    0    1
 -2     20907     21544     20867     20917     26630     27047     23616     23649     27080     23647
 -1      7413    6    0    1
 -2     20621     20986     20660     20702     27091     28224     22857     22953     27093     22954
 -1      7414    6    0    1
 -2     21455     21679     21727     21426     26829     26635     28161     22401     26504     26667
 -1      7415    6    0    1
 -2     21670     20453     20454     21386     28227     21784     28226     28160     22016     22015
 -1      7416    6    0    1
 -2     20910     21280     21275     20908     27607     24889     27205     23658     26961     26730
 -1      7417    6    0    1
 -2     20831     21544     20889     21183     28228     26748     23558     25257     27671     27930
 -1      7418    6    0    1
 -2     21183     21186     21240     20889     24526     24692     24691     27930     26548     26549
 -1      7419    6    0    1
 -2     20709     20590     20629     21534     22976     22834     22977     26903     27478     27220
 -1      7420    6    0    1
 -2     21588     20475     20476     21397     27753     21806     28197     26536     22039     22038
 -1      7421    6    0    1
 -2     21240     21183     21544     21249     24691     27671     27647     24718     24717     25133
 -1      7422    6    0    1
 -2     20952     21324     20951     20956     27645     27475     23829     23802     25730     23805
 -1      7423    6    0    1
 -2     20979     21614     20450     20451     27208     28184     23872     23873     28083     21781
 -1      7424    6    0    1
 -2     20880     21241     20882     21545     28229     26350     23644     26373     27468     28155
 -1      7425    6    0    1
 -2     21183     20831     20815     20889     25257     23370     25254     27930     23558     23557
 -1      7426    6    0    1
 -2     21667     20456     21553     21387     27986     25144     28230     27954     22017     25143
 -1      7427    6    0    1
 -2     21540     21186     21262     21222     27370     24764     27636     26710     24634     24761
 -1      7428    6    0    1
 -2     21668     21384     21614     20451     26114     27962     27961     27958     22007     28083
 -1      7429    6    0    1
 -2     21425     20479     20480     21643     22230     21814     22231     26058     26362     26510
 -1      7430    6    0    1
 -2     20412     20542     21552     20486     21883     26889     27082     21821     23885     25578
 -1      7431    6    0    1
 -2     20869     21540     21219     20832     25125     26451     27616     23496     25127     26453
 -1      7432    6    0    1
 -2     21237     20900     21290     21282     25723     25722     24854     24825     28231     24856
 -1      7433    6    0    1
 -2     20407     21342     21624     20415     21738     28040     28037     21744     21928     25812
 -1      7434    6    0    1
 -2     21164     20785     20704     20763     28173     23227     28176     27953     23360     23161
 -1      7435    6    0    1
 -2     21278     21544     21274     21233     25134     27601     24875     24876     26679     24803
 -1      7436    6    0    1
 -2     20900     20925     21290     21545     23683     26434     25722     27094     27644     25366
 -1      7437    6    0    1
 -2     21517     21424     20486     20487     26790     22223     25577     27994     22222     21822
 -1      7438    6    0    1
 -2     21565     21531     20633     21684     26338     26686     27294     28232     27790     28233
 -1      7439    6    0    1
 -2     21076     21025     21660     20984     24166     27941     27160     24165     24085     28234
 -1      7440    6    0    1
 -2     20869     20832     21219     20870     23496     26453     27616     23498     23497     25532
 -1      7441    6    0    1
 -2     21577     21350     21343     21351     26075     21929     26073     26182     21933     21932
 -1      7442    6    0    1
 -2     21349     20414     21718     21427     21831     25389     27263     22248     22247     26834
 -1      7443    6    0    1
 -2     21418     21417     21516     20492     22201     27157     27997     22200     22197     26597
 -1      7444    6    0    1
 -2     21631     20491     21417     21423     27527     22198     27156     26366     22221     22225
 -1      7445    6    0    1
 -2     20431     21684     21565     20633     27458     28232     26645     22722     28233     27294
 -1      7446    6    0    1
 -2     21712     20483     20482     21416     28235     21817     28112     27158     22212     22211
 -1      7447    6    0    1
 -2     21155     21164     21153     20763     24483     24493     24506     28168     27953     27184
 -1      7448    6    0    1
 -2     20828     20850     20795     21159     23432     23431     23361     28236     27010     27011
 -1      7449    6    0    1
 -2     21692     21487     21727     21488     27524     27525     25123     27857     22480     27432
 -1      7450    6    0    1
 -2     20736     20811     21204     20825     23312     27311     27310     23351     23353     25620
 -1      7451    6    0    1
 -2     21527     20753     20851     20797     27446     23437     26888     27490     23272     23438
 -1      7452    6    0    1
 -2     21474     21426     21679     21455     22388     26504     26723     22424     22401     26829
 -1      7453    6    0    1
 -2     20414     20584     21487     21692     21927     22474     22473     25388     25609     27524
 -1      7454    6    0    1
 -2     21582     21452     21428     21535     26221     22426     26220     26020     27256     26462
 -1      7455    6    0    1
 -2     21647     20526     21457     21431     27767     22324     26524     26897     22257     22370
 -1      7456    6    0    1
 -2     21301     20901     20911     21261     26865     23627     25626     24894     26867     26862
 -1      7457    6    0    1
 -2     21547     21548     21265     20879     25346     25198     26821     25679     28237     26822
 -1      7458    6    0    1
 -2     21265     21548     20883     20879     25198     25201     25199     26822     28237     23537
 -1      7459    6    0    1
 -2     20989     20533     21664     21615     23895     27887     28238     28050     28015     28014
 -1      7460    6    0    1
 -2     21732     21133     21537     21134     25175     26600     26529     26530     24468     25592
 -1      7461    6    0    1
 -2     21288     20879     21265     21283     25683     26822     24849     24850     25361     24837
 -1      7462    6    0    1
 -2     21298     21241     21303     21545     24882     24900     24906     25524     27468     25717
 -1      7463    6    0    1
 -2     21640     21728     20539     21438     27250     27087     26476     26449     27841     22272
 -1      7464    6    0    1
 -2     20989     21615     21664     21525     28050     28014     28238     27697     26942     26917
 -1      7465    6    0    1
 -2     20618     21525     20657     20699     25458     27421     22854     22947     25460     22948
 -1      7466    6    0    1
 -2     21714     20686     21043     21087     28096     27492     28208     26750     27493     24195
 -1      7467    6    0    1
 -2     21242     21197     20849     20899     24695     27809     27660     25342     25341     23589
 -1      7468    6    0    1
 -2     20914     20857     21305     20923     23635     26858     25179     23676     23675     25610
 -1      7469    6    0    1
 -2     20537     21437     20538     21719     22270     22269     21878     27677     27375     27827
 -1      7470    6    0    1
 -2     21732     21189     21133     21134     25173     24532     25175     26530     24531     24468
 -1      7471    6    0    1
 -2     20966     20565     21663     21008     23932     27968     27965     24204     24025     28239
 -1      7472    6    0    1
 -2     21477     20565     21500     21663     22454     22510     22568     26624     27968     28222
 -1      7473    6    0    1
 -2     20594     20432     21684     21571     22635     27460     27788     27756     27786     27789
 -1      7474    6    0    1
 -2     21723     21467     20988     21610     26520     26522     26523     27873     27147     28240
 -1      7475    6    0    1
 -2     20702     21063     21093     20986     28241     24217     27092     27093     24130     24215
 -1      7476    6    0    1
 -2     21470     21518     21647     21522     25573     25744     27102     25260     25745     25741
 -1      7477    6    0    1
 -2     20916     20931     20878     21291     23706     23705     23642     25226     26588     26001
 -1      7478    6    0    1
 -2     20710     21518     21556     21522     26976     25067     28242     27707     25745     25262
 -1      7479    6    0    1
 -2     21732     21134     21539     21189     26530     25591     26512     25173     24531     26486
 -1      7480    6    0    1
 -2     20496     20497     21451     21622     21836     22306     22305     26432     25758     25759
 -1      7481    6    0    1
 -2     21629     20498     21472     21450     28055     22364     25917     26586     22303     22381
 -1      7482    6    0    1
 -2     21311     20931     20878     20873     26138     23705     26587     25176     23704     23522
 -1      7483    6    0    1
 -2     21695     21446     21468     21524     28043     22377     28023     28243     28035     28034
 -1      7484    6    0    1
 -2     20900     21545     21282     21544     27094     28154     28231     26649     26377     25409
 -1      7485    6    0    1
 -2     21311     21294     21291     20931     24933     24890     24934     26138     27589     26588
 -1      7486    6    0    1
 -2     21500     21398     21477     21663     25554     26622     22568     28222     26621     26624
 -1      7487    6    0    1
 -2     20673     20769     20712     21531     23180     23179     22987     27451     25733     26099
 -1      7488    6    0    1
 -2     21254     20925     20874     20897     27394     23682     27248     25661     23684     23584
 -1      7489    6    0    1
 -2     20534     21610     21723     20988     27876     27873     27880     23892     28240     26523
 -1      7490    6    0    1
 -2     21314     21327     21309     20953     24991     25020     25055     26148     28244     26150
 -1      7491    6    0    1
 -2     21620     21489     21736     20690     27437     27408     28212     27438     25473     27407
 -1      7492    6    0    1
 -2     21056     21019     21521     20977     24115     26241     27099     24114     24069     27637
 -1      7493    6    0    1
 -2     21334     21548     21322     21338     27598     25326     25046     25037     25325     25044
 -1      7494    6    0    1
 -2     21314     21327     20953     20964     24991     28244     26148     28206     25350     23838
 -1      7495    6    0    1
 -2     21521     21019     21056     21103     26241     24115     27099     26240     24237     24296
 -1      7496    6    0    1
 -2     21262     21219     21238     20870     24763     24688     24908     27618     25532     25534
 -1      7497    6    0    1
 -2     21493     21510     21662     20553     22576     26601     26658     22494     22539     28045
 -1      7498    6    0    1
 -2     21196     21219     21262     21540     24624     24763     24762     26617     26451     27636
 -1      7499    6    0    1
 -2     21465     21525     21615     21446     26941     26942     26939     22354     28246     28245
 -1      7500    6    0    1
 -2     21665     21528     21709     21397     26569     28028     28130     28217     28144     28195
 -1      7501    6    0    1
 -2     20721     21536     20679     20681     26990     26745     23098     23082     26747     22905
 -1      7502    6    0    1
 -2     20581     21698     20580     21506     27530     27436     21923     22526     27131     22527
 -1      7503    6    0    1
 -2     20594     20633     21684     20432     22838     28233     27788     22635     22721     27460
 -1      7504    6    0    1
 -2     21609     21499     21496     21478     27862     22584     28247     27865     22508     22583
 -1      7505    6    0    1
 -2     21505     20578     21686     21616     22524     27522     27427     27429     27203     27428
 -1      7506    6    0    1
 -2     20617     20657     21584     21525     22827     28249     28248     27423     27421     27392
 -1      7507    6    0    1
 -2     21232     21253     21539     20895     24740     28066     27548     27754     26579     25495
 -1      7508    6    0    1
 -2     20782     21534     21521     21154     25282     25207     25283     27556     27622     27100
 -1      7509    6    0    1
 -2     20850     21178     21234     20854     26478     24677     28215     23599     26479     27543
 -1      7510    6    0    1
 -2     21713     20988     20535     21723     25750     23893     28205     26521     26523     28250
 -1      7511    6    0    1
 -2     21491     21508     21636     20557     22575     26250     27948     22490     22535     27312
 -1      7512    6    0    1
 -2     21030     20990     20531     21524     24087     23897     23989     26794     26792     27154
 -1      7513    6    0    1
 -2     21103     21534     21172     21154     25788     25789     24473     24411     27622     24494
 -1      7514    6    0    1
 -2     21713     21723     20535     21436     26521     28250     28205     27749     28251     22268
 -1      7515    6    0    1
 -2     21221     20850     20828     21159     28216     23432     28200     24629     27010     28236
 -1      7516    6    0    1
 -2     21465     21446     21584     21525     22354     26272     26270     26941     28246     27392
 -1      7517    6    0    1
 -2     20621     20661     21711     21640     22831     26081     28252     28253     28116     25858
 -1      7518    6    0    1
 -2     21592     21509     21651     20555     28148     26697     26610     26628     22537     27301
 -1      7519    6    0    1
 -2     21527     21123     21084     21115     25090     24332     26365     25277     24331     24301
 -1      7520    6    0    1
 -2     21070     21066     20795     21159     24147     27189     27192     24427     24426     27011
 -1      7521    6    0    1
 -2     20732     20796     20795     21066     23262     23265     23261     27143     27304     27189
 -1      7522    6    0    1
 -2     21088     21005     21648     21536     24196     28044     25551     25869     25077     26383
 -1      7523    6    0    1
 -2     21497     20545     21514     21528     22502     22547     22566     27053     25809     25810
 -1      7524    6    0    1
 -2     20906     20877     21272     20905     23698     27414     26175     23688     23608     26038
 -1      7525    6    0    1
 -2     20649     21620     21710     20561     28255     27439     28254     22758     25451     28256
 -1      7526    6    0    1
 -2     20905     20906     20858     21543     23688     23613     23664     26035     25776     27057
 -1      7527    6    0    1
 -2     20562     20649     21710     20561     22757     28254     28257     21903     22758     28256
 -1      7528    6    0    1
 -2     21113     20689     20726     20752     27888     23073     27363     27383     23129     23128
 -1      7529    6    0    1
 -2     21709     21009     21588     21528     28258     28141     28196     28028     27202     28129
 -1      7530    6    0    1
 -2     21009     20475     20476     21588     23938     21806     23939     28141     27753     28197
 -1      7531    6    0    1
 -2     21593     20572     21502     21480     26814     22518     26716     26815     22459     22552
 -1      7532    6    0    1
 -2     20685     21527     21662     20604     27335     25483     27690     22913     27336     28259
 -1      7533    6    0    1
 -2     20838     21145     21157     20751     25424     24421     25978     23388     26412     25630
 -1      7534    6    0    1
 -2     20431     21684     20633     20432     27458     28233     22722     21761     27460     22721
 -1      7535    6    0    1
 -2     21045     21536     21116     21089     25075     25076     24290     24199     25109     24289
 -1      7536    6    0    1
 -2     21654     21688     21513     20548     25465     25466     25464     27391     25612     22546
 -1      7537    6    0    1
 -2     21726     21603     20598     20678     27002     27735     26415     25407     26267     22895
 -1      7538    6    0    1
 -2     21624     20415     21342     21350     25812     21928     28040     25811     22001     21930
 -1      7539    6    0    1
 -2     20669     21104     20805     21057     27540     26187     23296     27541     24285     26188
 -1      7540    6    0    1
 -2     20827     20769     21531     20740     23357     25733     25731     23359     23181     26101
 -1      7541    6    0    1
 -2     20665     20587     20705     21537     22866     22961     22963     25441     27957     25394
 -1      7542    6    0    1
 -2     21058     21537     21133     21134     26185     26600     24351     24354     25592     24468
 -1      7543    6    0    1
 -2     21571     21360     21635     21392     27441     26161     27440     25496     22082     26288
 -1      7544    6    0    1
 -2     20595     21578     21626     21530     26311     26312     26309     27036     26347     26895
 -1      7545    6    0    1
 -2     21058     21134     21105     21537     24354     24353     24307     26185     25592     25589
 -1      7546    6    0    1
 -2     21715     21509     21592     21482     28147     28148     26611     28260     22592     26026
 -1      7547    6    0    1
 -2     20748     21167     20739     21530     25136     26440     23119     25515     25269     27039
 -1      7548    6    0    1
 -2     21709     20476     21588     21009     27837     28197     28196     28258     23939     28141
 -1      7549    6    0    1
 -2     20687     21114     20764     20751     26797     26410     23162     23127     26411     23165
 -1      7550    6    0    1
 -2     21031     21523     21524     21071     25906     27297     28261     24148     25907     28019
 -1      7551    6    0    1
 -2     20762     20697     21128     21523     23158     25105     27534     28262     26701     25097
 -1      7552    6    0    1
 -2     21448     21432     21575     21523     22412     25951     26808     26824     25948     25950
 -1      7553    6    0    1
 -2     21032     21518     21697     21575     26153     26528     28263     28264     26809     28265
 -1      7554    6    0    1
 -2     21470     21522     21647     21431     25260     25741     27102     22433     27288     26897
 -1      7555    6    0    1
 -2     21447     21468     21524     21597     22400     28034     27296     27267     27268     27604
 -1      7556    6    0    1
 -2     20419     20420     21410     21598     21749     22070     22069     26191     27280     25604
 -1      7557    6    0    1
 -2     21615     21434     21460     21446     28017     22373     28163     28245     22415     22414
 -1      7558    6    0    1
 -2     20571     21724     21714     21501     28190     28108     28207     22515     28110     28109
 -1      7559    6    0    1
 -2     21529     20790     20792     20708     25412     23248     27342     27338     23242     23246
 -1      7560    6    0    1
 -2     21672     20415     21350     21412     25815     22001     25814     27834     22073     22116
 -1      7561    6    0    1
 -2     20421     20420     21630     21380     21750     25974     28136     21996     21995     25725
 -1      7562    6    0    1
 -2     21615     21525     21069     21524     26942     27696     28124     28266     28033     27978
 -1      7563    6    0    1
 -2     21545     20920     20859     20882     25986     23666     27720     28155     23668     23533
 -1      7564    6    0    1
 -2     20773     20719     21095     20678     23190     25883     27389     23189     23065     25457
 -1      7565    6    0    1
 -2     20837     21137     21171     21225     27245     24470     28267     25902     24643     24645
 -1      7566    6    0    1
 -2     20745     20722     20750     21088     23111     23122     23125     25835     26998     25834
 -1      7567    6    0    1
 -2     21625     21395     21707     21371     25825     26972     26970     28268     22158     27663
 -1      7568    6    0    1
 -2     20793     21166     21147     21540     25086     24498     25084     25768     26616     26664
 -1      7569    6    0    1
 -2     20820     20843     21158     21216     23405     27704     25945     25946     26016     24614
 -1      7570    6    0    1
 -2     21705     21485     20581     20582     27531     22470     27532     28032     22469     21924
 -1      7571    6    0    1
 -2     21735     21727     21692     21038     27755     25123     28269     26928     25270     25271
 -1      7572    6    0    1
 -2     21486     21591     21692     20584     26615     27858     27856     22471     26614     25609
 -1      7573    6    0    1
 -2     20660     20514     21650     21694     22782     28270     26216     28271     28182     25285
 -1      7574    6    0    1
 -2     20834     20738     20772     21129     23378     23188     23376     26294     26284     26282
 -1      7575    6    0    1
 -2     20786     21169     20772     21054     25321     25322     23268     27668     24461     28214
 -1      7576    6    0    1
 -2     20772     20671     20786     21054     23187     23230     23268     28214     27669     27668
 -1      7577    6    0    1
 -2     21525     21695     21524     21446     28272     28243     28033     28246     28043     28035
 -1      7578    6    0    1
 -2     21086     21526     21082     21176     26011     25656     24192     24502     25300     24500
 -1      7579    6    0    1
 -2     20974     21533     21053     21101     28223     27360     24108     24234     25562     24255
 -1      7580    6    0    1
 -2     21442     20515     20516     21711     22285     21855     22286     26125     28021     26079
 -1      7581    6    0    1
 -2     21449     20500     20501     21522     22301     21840     22302     25684     26981     25259
 -1      7582    6    0    1
 -2     21076     20703     21061     21093     26926     26096     24167     24295     26098     24356
 -1      7583    6    0    1
 -2     20882     20928     20880     21545     23694     23693     23644     28155     27084     26373
 -1      7584    6    0    1
 -2     21251     21241     20880     21545     24726     28229     26372     26374     27468     26373
 -1      7585    6    0    1
 -2     21406     20427     21700     21377     22061     25793     27990     22110     21990     27725
 -1      7586    6    0    1
 -2     21102     21130     20786     21169     24346     26092     26259     24460     24499     25321
 -1      7587    6    0    1
 -2     21073     21523     21518     21032     25096     27489     28183     24155     28273     26153
 -1      7588    6    0    1
 -2     21448     21523     21575     21518     26824     25950     26808     25574     27489     26809
 -1      7589    6    0    1
 -2     21378     21583     20424     20425     25295     27831     21991     21992     26733     21754
 -1      7590    6    0    1
 -2     20660     21694     21650     21602     28271     25285     26216     26214     25288     25289
 -1      7591    6    0    1
 -2     21518     20693     20654     20615     27270     22934     25064     28274     22933     22863
 -1      7592    6    0    1
 -2     21224     21156     21529     21131     24641     27955     28275     24640     24417     26682
 -1      7593    6    0    1
 -2     21064     21164     21061     20704     24485     24445     24133     27181     28176     26095
 -1      7594    6    0    1
 -2     21509     20555     21592     21492     22537     26628     28148     22577     22492     26629
 -1      7595    6    0    1
 -2     21267     21308     21546     21272     24920     25970     28008     24795     24921     26177
 -1      7596    6    0    1
 -2     21251     21544     21274     21545     26375     27601     24802     26374     26377     25719
 -1      7597    6    0    1
 -2     20762     20765     20836     21213     23169     23383     23382     27533     26673     26672
 -1      7598    6    0    1
 -2     20487     21415     21608     21517     22194     27717     28139     27994     27141     27718
 -1      7599    6    0    1
 -2     20654     20693     21518     20710     22934     27270     25064     22980     22982     26976
 -1      7600    6    0    1
 -2     20710     21522     21556     20614     27707     25262     28242     22981     26583     28276
 -1      7601    6    0    1
 -2     20655     20615     20697     21523     22825     22943     22942     26820     28277     26701
 -1      7602    6    0    1
 -2     21715     21482     21592     21526     28260     26026     26611     26606     26027     26024
 -1      7603    6    0    1
 -2     20489     21416     21551     21422     22196     25094     25092     22218     22224     28064
 -1      7604    6    0    1
 -2     20804     21526     20753     21176     25301     26703     23293     25139     25300     25293
 -1      7605    6    0    1
 -2     21710     20649     20562     20609     28254     22757     28257     28278     22850     22668
 -1      7606    6    0    1
 -2     21546     21308     21284     21272     25970     24922     26913     26177     24921     24892
 -1      7607    6    0    1
 -2     21593     21714     21494     21661     28170     28106     27900     27397     28095     27629
 -1      7608    6    0    1
 -2     21631     21423     21417     21420     26366     22225     27156     27139     22241     22243
 -1      7609    6    0    1
 -2     20575     21482     21715     21606     22464     28260     28279     28081     28204     28280
 -1      7610    6    0    1
 -2     21389     21533     21358     20460     26421     26401     22041     22021     27670     21948
 -1      7611    6    0    1
 -2     20935     20957     20948     21549     23799     23801     23781     27710     27711     25511
 -1      7612    6    0    1
 -2     21208     20882     20859     20827     25921     23533     25920     26596     23532     23460
 -1      7613    6    0    1
 -2     21017     21533     20460     20974     27728     27670     23955     24034     28223     23862
 -1      7614    6    0    1
 -2     20575     21606     21715     21041     28081     28280     28279     24014     28282     28281
 -1      7615    6    0    1
 -2     21705     21620     21562     21485     27992     25447     25930     27531     25448     25449
 -1      7616    6    0    1
 -2     21717     21593     21527     21511     26592     25276     26589     27398     26359     25481
 -1      7617    6    0    1
 -2     20646     21701     21737     21612     26721     26722     26718     27878     27879     28192
 -1      7618    6    0    1
 -2     21718     21704     20518     20997     26835     26836     26833     25121     28283     23911
 -1      7619    6    0    1
 -2     21698     21485     21562     21506     27529     25449     25931     27131     22525     26379
 -1      7620    6    0    1
 -2     21705     21485     21562     21698     27531     25449     25930     25932     27529     25931
 -1      7621    6    0    1
 -2     21092     20746     20764     21137     27211     23164     27210     24363     28284     26416
 -1      7622    6    0    1
 -2     21620     21485     21489     20561     25448     22602     27437     25451     22486     22483
 -1      7623    6    0    1
 -2     21286     21549     20941     21307     25505     25506     25504     24918     26468     27615
 -1      7624    6    0    1
 -2     21014     21051     21530     21098     24105     26146     28135     24227     24300     25220
 -1      7625    6    0    1
 -2     21545     20882     20859     21252     28155     23533     27720     27621     25922     25923
 -1      7626    6    0    1
 -2     21296     21545     21290     20925     25368     25366     24874     27395     27644     26434
 -1      7627    6    0    1
 -2     20912     20939     21545     21307     23735     25527     27799     27800     27322     25523
 -1      7628    6    0    1
 -2     21050     21098     20971     21530     24260     24228     24102     25219     25220     26408
 -1      7629    6    0    1
 -2     20971     21098     21014     21530     24228     24227     24031     26408     25220     28135
 -1      7630    6    0    1
 -2     21180     20880     20830     21251     28285     23526     25070     24724     26372     26678
 -1      7631    6    0    1
 -2     20680     21109     20787     21087     26488     26487     23232     28286     24267     28287
 -1      7632    6    0    1
 -2     21282     21544     20876     20900     25409     26632     25240     28231     26649     23594
 -1      7633    6    0    1
 -2     20787     21109     21147     21087     26487     24391     27285     28287     24267     24392
 -1      7634    6    0    1
 -2     21688     21513     21496     21499     25466     22565     25576     25467     22605     22584
 -1      7635    6    0    1
 -2     20679     20721     20750     21536     23098     23124     23123     26745     26990     25868
 -1      7636    6    0    1
 -2     20660     21694     21602     20986     28271     25288     26214     28224     27119     27086
 -1      7637    6    0    1
 -2     21478     21528     21609     20567     26985     28094     27865     22456     25244     27867
 -1      7638    6    0    1
 -2     21064     21153     20784     21090     24408     25329     27182     24207     24409     25328
 -1      7639    6    0    1
 -2     20899     20894     20849     21242     23592     23575     23589     25342     28029     27660
 -1      7640    6    0    1
 -2     21064     21090     20784     20734     24207     25328     27182     27159     26791     23258
 -1      7641    6    0    1
 -2     21034     21683     21596     21522     28288     28164     27274     27469     25708     28289
 -1      7642    6    0    1
 -2     20784     20706     21516     20770     23226     25230     27232     23225     23183     28052
 -1      7643    6    0    1
 -2     21539     21106     20776     21121     26419     26840     26460     26420     24325     26841
 -1      7644    6    0    1
 -2     21524     21446     21434     21615     28035     22415     27155     28266     28245     28017
 -1      7645    6    0    1
 -2     21100     21148     21532     21052     24393     25510     25508     24258     24394     27692
 -1      7646    6    0    1
 -2     21631     20491     20982     21516     27527     23879     26105     26107     26598     26106
 -1      7647    6    0    1
 -2     21238     21176     21211     20851     24686     24598     24687     25533     25141     25140
 -1      7648    6    0    1
 -2     21155     20850     20841     21178     28290     23538     28167     24508     26478     25668
 -1      7649    6    0    1
 -2     21532     21148     21168     21052     25510     24484     25801     27692     24394     24457
 -1      7650    6    0    1
 -2     20744     21135     21150     21519     27593     24401     27592     27569     27037     27821
 -1      7651    6    0    1
 -2     20785     21063     20702     20733     28174     28241     23228     23273     27379     23058
 -1      7652    6    0    1
 -2     21097     21519     20970     21049     26159     27806     24226     24261     26712     24100
 -1      7653    6    0    1
 -2     21370     21364     21603     21399     22182     26743     26385     22123     22161     27739
 -1      7654    6    0    1
 -2     21607     21557     20666     20588     28159     27236     28158     28149     28291     22869
 -1      7655    6    0    1
 -2     21164     21093     20702     21063     24444     27092     28175     24480     24217     28241
 -1      7656    6    0    1
 -2     20798     21063     20785     20733     25915     28174     23291     23278     27379     23273
 -1      7657    6    0    1
 -2     21537     21621     21690     21411     27071     27759     27760     27898     27977     26436
 -1      7658    6    0    1
 -2     20795     21066     20701     20732     27189     27190     23260     23261     27143     23054
 -1      7659    6    0    1
 -2     20784     20799     20770     21120     23281     23280     23225     25327     26477     25304
 -1      7660    6    0    1
 -2     20418     21411     21537     21381     22072     27898     27078     21997     22100     27716
 -1      7661    6    0    1
 -2     20811     21130     21204     21177     26093     24574     27311     25643     24504     24575
 -1      7662    6    0    1
 -2     21529     21131     21094     21057     26682     24348     27483     26681     24347     24239
 -1      7663    6    0    1
 -2     21202     20782     21227     21154     27416     27555     24651     24568     27556     24650
 -1      7664    6    0    1
 -2     20811     20803     20786     21169     23313     23290     23311     27384     25323     25321
 -1      7665    6    0    1
 -2     20811     21177     21204     21259     25643     24575     27311     25642     24753     24752
 -1      7666    6    0    1
 -2     21163     21541     21117     20752     27258     28122     24443     27380     27381     27067
 -1      7667    6    0    1
 -2     20848     20910     21248     20898     23623     27206     25971     23588     23640     25972
 -1      7668    6    0    1
 -2     21529     20790     21521     21156     25412     25413     25411     27955     27584     27101
 -1      7669    6    0    1
 -2     20801     20829     20872     21187     23365     23504     23503     25365     27623     25364
 -1      7670    6    0    1
 -2     20851     20891     21255     20870     23563     26642     25559     23499     23564     25560
 -1      7671    6    0    1
 -2     20927     20906     21546     20909     23690     26176     25840     23689     23656     28128
 -1      7672    6    0    1
 -2     20833     21269     21287     21224     27702     24841     25981     27185     24781     24839
 -1      7673    6    0    1
 -2     21534     20782     21202     21154     25282     27416     26179     27622     27556     24568
 -1      7674    6    0    1
 -2     21202     20780     20853     20782     25621     23446     26489     27416     23220     23447
 -1      7675    6    0    1
 -2     20798     21063     21155     20785     25915     24413     25290     23291     28174     28169
 -1      7676    6    0    1
 -2     21265     21548     21547     21293     25198     25346     26821     24863     27599     26121
 -1      7677    6    0    1
 -2     21630     21557     21607     20588     28137     28159     25726     28150     28291     28149
 -1      7678    6    0    1
 -2     20766     20729     21069     21525     23171     27586     27044     26938     27422     27696
 -1      7679    6    0    1
 -2     20482     21722     20663     21712     27839     28292     22793     28112     28111     28293
 -1      7680    6    0    1
 -2     20946     21242     20899     21246     25167     25342     23758     27502     24739     25340
 -1      7681    6    0    1
 -2     21545     21307     20939     21329     25523     27322     25527     25525     24995     25529
 -1      7682    6    0    1
 -2     21674     21376     21533     21532     27470     26402     28178     26803     26661     26663
 -1      7683    6    0    1
 -2     20833     21269     21224     20823     27702     24781     27185     23374     25998     26040
 -1      7684    6    0    1
 -2     21406     21377     21700     21533     22110     27725     27990     26403     27952     26068
 -1      7685    6    0    1
 -2     20761     21215     21173     21141     26816     24611     25354     27544     24610     24478
 -1      7686    6    0    1
 -2     20877     20843     20820     21216     23517     23405     23518     28121     26016     25946
 -1      7687    6    0    1
 -2     21083     20723     20779     20751     26784     23208     25627     25628     23126     23209
 -1      7688    6    0    1
 -2     20894     21271     20849     21242     25896     25897     23575     28029     24790     27660
 -1      7689    6    0    1
 -2     20690     20649     21620     21710     22926     28255     27438     25476     28254     27439
 -1      7690    6    0    1
 -2     21460     21615     21435     20533     28163     26940     22385     22329     28015     22266
 -1      7691    6    0    1
 -2     20759     21142     20767     21522     27563     27169     23175     27824     26969     27706
 -1      7692    6    0    1
 -2     20822     21540     20800     20787     27503     25194     23412     23346     27874     23455
 -1      7693    6    0    1
 -2     21135     21186     21122     20815     24525     24524     24360     27371     25255     25256
 -1      7694    6    0    1
 -2     20767     21142     21160     21522     27169     24432     25698     27706     26969     26975
 -1      7695    6    0    1
 -2     21465     21446     21615     21460     22354     28245     26939     22444     22414     28163
 -1      7696    6    0    1
 -2     20841     21153     20784     20763     25667     25329     23399     23419     27184     23259
 -1      7697    6    0    1
 -2     21175     21074     21524     21173     24489     26793     26277     24491     24477     25355
 -1      7698    6    0    1
 -2     21530     21392     21361     21403     25498     22103     26348     25500     22133     22150
 -1      7699    6    0    1
 -2     21706     21483     20578     21686     26705     22465     27575     28126     27367     27522
 -1      7700    6    0    1
 -2     20921     21267     21264     21302     28000     24777     28294     25535     24897     24896
 -1      7701    6    0    1
 -2     20827     20740     21531     21125     23359     26101     25731     28103     27926     25874
 -1      7702    6    0    1
 -2     21249     21233     21226     21544     24719     24676     24716     25133     26679     26690
 -1      7703    6    0    1
 -2     20830     21544     21201     21251     25071     25072     25068     26678     26375     24725
 -1      7704    6    0    1
 -2     21571     21392     21635     21530     25496     26288     27440     25497     25498     26147
 -1      7705    6    0    1
 -2     21183     21226     20835     21544     24664     25518     25516     27671     26690     25074
 -1      7706    6    0    1
 -2     20663     21722     21551     21712     28292     28063     28295     28293     28111     27063
 -1      7707    6    0    1
 -2     21237     20876     20837     20874     25241     23514     25901     25721     23516     23510
 -1      7708    6    0    1
 -2     21051     21099     20972     21531     24259     24230     24104     25875     25222     26380
 -1      7709    6    0    1
 -2     21312     21282     21290     21545     24938     24856     24939     25718     28154     25366
 -1      7710    6    0    1
 -2     21717     21511     21527     21595     27398     25481     26589     28296     26879     27096
 -1      7711    6    0    1
 -2     20830     21544     20880     20867     25071     26376     23526     23488     27047     23528
 -1      7712    6    0    1
 -2     21167     21125     21531     20748     24497     25874     25512     25136     25228     25513
 -1      7713    6    0    1
 -2     20723     21000     21083     21085     28297     24184     26784     27998     24187     24189
 -1      7714    6    0    1
 -2     21097     21143     21050     20743     24380     24379     24305     25808     27286     25806
 -1      7715    6    0    1
 -2     21706     21636     21612     21483     26758     27928     26707     26705     27368     26708
 -1      7716    6    0    1
 -2     21670     21386     21557     21607     28160     26280     27282     28210     26203     28159
 -1      7717    6    0    1
 -2     21311     21305     21289     20914     24947     24988     24936     25177     25179     26003
 -1      7718    6    0    1
 -2     20704     20763     21064     21164     23161     27183     27181     28176     27953     24485
 -1      7719    6    0    1
 -2     20690     20649     21710     20609     22926     28254     25476     22925     22850     28278
 -1      7720    6    0    1
 -2     20585     20485     21613     20407     22704     28086     28298     22617     21820     28039
 -1      7721    6    0    1
 -2     21034     20524     21683     20523     23998     28165     28288     23997     21864     28299
 -1      7722    6    0    1
 -2     20407     20415     21624     20585     21744     25812     28037     22617     22616     28300
 -1      7723    6    0    1
 -2     21636     20688     21652     21000     28302     25855     28301     28303     26901     26902
 -1      7724    6    0    1
 -2     21289     21288     21547     21317     24853     25682     26002     24963     24962     25183
 -1      7725    6    0    1
 -2     21164     20785     20702     20704     28173     23228     28175     28176     23227     23097
 -1      7726    6    0    1
 -2     21224     21131     21529     20792     24640     26682     28275     27186     27546     27342
 -1      7727    6    0    1
 -2     21164     21063     20702     20785     24480     28241     28175     28173     28174     23228
 -1      7728    6    0    1
 -2     20914     20857     20873     21305     23635     23508     23636     25179     26858     25178
 -1      7729    6    0    1
 -2     21523     20695     20730     20761     26819     23048     27577     28304     23155     23154
 -1      7730    6    0    1
 -2     21260     20911     20863     20868     26454     23626     26260     26863     23625     23551
 -1      7731    6    0    1
 -2     21175     20794     20756     21524     27591     23256     26276     26277     27326     25082
 -1      7732    6    0    1
 -2     21636     21000     21652     21508     28303     26902     28301     26250     27127     27126
 -1      7733    6    0    1
 -2     21061     20983     21551     21660     24125     28305     27166     27940     28004     28306
 -1      7734    6    0    1
 -2     21263     21291     20916     21280     24907     25226     27117     24945     24859     28307
 -1      7735    6    0    1
 -2     20623     21660     21076     21061     27161     27160     27125     27124     27940     24167
 -1      7736    6    0    1
 -2     21229     21213     21281     20845     24751     24821     24820     27649     26674     26604
 -1      7737    6    0    1
 -2     21095     21132     21048     20791     24350     24349     24308     27551     27402     27564
 -1      7738    6    0    1
 -2     21196     21540     21262     21222     26617     27636     24762     24699     26710     24761
 -1      7739    6    0    1
 -2     20621     20515     21711     20661     22693     28021     28252     22831     22785     26081
 -1      7740    6    0    1
 -2     21736     21591     21682     21068     28027     26575     28157     28213     26576     26573
 -1      7741    6    0    1
 -2     21034     20524     21596     21683     23998     27276     27274     28288     28165     28164
 -1      7742    6    0    1
 -2     21550     20950     21546     20936     25521     25841     26945     25783     23778     28146
 -1      7743    6    0    1
 -2     21550     20965     21333     20957     25830     26845     25149     25832     23840     27594
 -1      7744    6    0    1
 -2     20935     21279     21309     21315     27777     24929     27400     27709     24948     24951
 -1      7745    6    0    1
 -2     20822     21152     20745     20773     27410     25752     23343     23344     27273     23294
 -1      7746    6    0    1
 -2     21183     20889     20815     21186     27930     23557     25254     24526     26548     25255
 -1      7747    6    0    1
 -2     21625     21371     21707     21677     28268     27663     26970     28219     26670     27662
 -1      7748    6    0    1
 -2     21569     21364     21395     21673     26744     22106     28308     25193     27974     25828
 -1      7749    6    0    1
 -2     21135     20815     21122     21519     27371     25256     24360     27037     27568     26711
 -1      7750    6    0    1
 -2     21370     21399     21603     21687     22123     27739     26385     26387     27596     26386
 -1      7751    6    0    1
 -2     21714     21586     21696     20643     28088     28080     28087     28199     28309     28198
 -1      7752    6    0    1
 -2     21624     21350     21342     21577     25811     21930     28040     27814     26075     26074
 -1      7753    6    0    1
 -2     20579     21616     21484     21652     27204     28071     22468     27251     27129     28070
 -1      7754    6    0    1
 -2     21529     20792     20805     20666     27342     23297     26680     27237     23247     23295
 -1      7755    6    0    1
 -2     20578     21616     21505     20579     27203     27429     22524     21921     27204     22523
 -1      7756    6    0    1
 -2     20767     21142     20759     20826     27169     27563     23175     23356     27970     23354
 -1      7757    6    0    1
 -2     21246     21197     20899     20826     24707     25341     25340     28072     27964     23590
 -1      7758    6    0    1
 -2     20530     20990     21031     21524     23896     24046     23992     27325     26792     28261
 -1      7759    6    0    1
 -2     21034     20523     21683     20994     23997     28299     28288     24075     23905     28310
 -1      7760    6    0    1
 -2     20839     21180     21125     21208     26400     24511     26399     27509     24589     24588
 -1      7761    6    0    1
 -2     21605     21523     21447     21469     27480     26608     28311     27487     26609     22378
 -1      7762    6    0    1
 -2     21523     20761     20730     21524     28304     23154     27577     27297     25356     25083
 -1      7763    6    0    1
 -2     21149     21077     20696     21126     24395     25775     25975     24397     24338     28312
 -1      7764    6    0    1
 -2     21636     21508     21652     20607     26250     27126     28301     28313     28069     25854
 -1      7765    6    0    1
 -2     21083     21040     20606     20687     24183     27849     27855     26783     27850     22919
 -1      7766    6    0    1
 -2     20882     20839     20827     21208     23534     23393     23532     25921     27509     26596
 -1      7767    6    0    1
 -2     21125     20827     20839     21208     28103     23393     26399     24588     26596     27509
 -1      7768    6    0    1
 -2     20962     21549     20948     20957     25352     25511     23818     23819     27711     23801
 -1      7769    6    0    1
 -2     20739     20716     20748     21530     23094     23116     23119     27039     26303     25515
 -1      7770    6    0    1
 -2     20827     21125     20839     20740     28103     26399     23393     23359     27926     23392
 -1      7771    6    0    1
 -2     20646     21612     20687     20606     27878     28193     22920     22847     27929     22919
 -1      7772    6    0    1
 -2     20718     21096     21519     20741     27983     26869     27726     23100     27823     27822
 -1      7773    6    0    1
 -2     21174     21123     21527     21219     24488     25090     25541     24623     24622     25542
 -1      7774    6    0    1
 -2     21677     21363     21625     21371     26669     27818     28219     26670     22185     28268
 -1      7775    6    0    1
 -2     21147     21132     20822     21540     24553     27401     27471     26664     26443     27503
 -1      7776    6    0    1
 -2     20755     20802     21541     21538     23288     26677     26463     26464     27576     25959
 -1      7777    6    0    1
 -2     21117     21230     21216     21541     24660     24663     24615     28122     28314     26015
 -1      7778    6    0    1
 -2     20885     21246     20899     20826     25434     25340     23591     23545     28072     23590
 -1      7779    6    0    1
 -2     21048     20741     21150     21096     26657     26444     24399     24283     27823     24398
 -1      7780    6    0    1
 -2     20718     20741     20677     21096     23100     23099     23077     27983     27823     27049
 -1      7781    6    0    1
 -2     20759     21195     21149     20818     27562     24547     25399     23333     25431     25398
 -1      7782    6    0    1
 -2     20677     20741     21048     21096     23099     26657     27048     27049     27823     24283
 -1      7783    6    0    1
 -2     21149     21126     20696     20775     24397     28312     25975     25397     26693     23196
 -1      7784    6    0    1
 -2     20852     21119     21212     21217     25101     24601     25472     25103     24616     24619
 -1      7785    6    0    1
 -2     21541     20788     20814     20844     26465     23321     27744     26675     23407     23420
 -1      7786    6    0    1
 -2     21230     21541     21190     21247     28314     26042     24662     24712     26043     24709
 -1      7787    6    0    1
 -2     20641     20601     21528     20681     22741     25598     26545     22903     22902     28093
 -1      7788    6    0    1
 -2     20882     21241     20880     20839     26350     28229     23644     23534     27508     23527
 -1      7789    6    0    1
 -2     21609     21478     21496     21528     27865     22583     28247     28094     26985     25234
 -1      7790    6    0    1
 -2     21150     21222     21540     21181     24632     26710     26445     24593     24633     26665
 -1      7791    6    0    1
 -2     20880     21241     21251     21180     28229     24726     26372     28285     24694     24724
 -1      7792    6    0    1
 -2     21103     21534     20976     21055     25788     27412     24238     24249     25419     24112
 -1      7793    6    0    1
 -2     21667     21387     21355     20455     27954     22077     25872     27985     22018     21941
 -1      7794    6    0    1
 -2     21094     21521     21611     20977     27484     26174     27482     24218     27637     28315
 -1      7795    6    0    1
 -2     21667     20455     21355     21611     27985     21941     25872     26173     28316     26172
 -1      7796    6    0    1
 -2     21542     21214     21127     21165     27040     24606     25704     25703     24608     24447
 -1      7797    6    0    1
 -2     20917     21545     20880     20928     27081     26373     23648     23695     27084     23693
 -1      7798    6    0    1
 -2     21544     21251     21274     21233     26375     24802     27601     26679     24734     24803
 -1      7799    6    0    1
 -2     20828     20886     21221     20846     23546     27233     28200     23476     23547     28202
 -1      7800    6    0    1
 -2     21545     20956     20952     20949     25729     23802     25526     25985     23797     23783
 -1      7801    6    0    1
 -2     20731     20754     20789     21067     23135     23239     23238     26768     27606     27526
 -1      7802    6    0    1
 -2     21067     20789     21542     20754     27526     27758     25702     27606     23239     26133
 -1      7803    6    0    1
 -2     20795     21140     20828     21159     27302     28201     23361     27011     24429     28236
 -1      7804    6    0    1
 -2     21439     21441     21567     21442     22428     25780     27722     22443     22345     27713
 -1      7805    6    0    1
 -2     20732     21107     20796     21066     27027     27028     23262     27143     24253     27304
 -1      7806    6    0    1
 -2     20941     20912     21307     20939     23741     27800     27615     23743     23735     27322
 -1      7807    6    0    1
 -2     20949     20920     21545     20928     23771     25986     25985     23770     23726     27084
 -1      7808    6    0    1
 -2     20908     20887     21542     20898     23617     27111     26728     23691     23678     26729
 -1      7809    6    0    1
 -2     21429     21454     21573     21451     22314     25821     27426     22404     22406     25756
 -1      7810    6    0    1
 -2     20778     21170     20727     20771     26141     27349     23205     23221     27188     23184
 -1      7811    6    0    1
 -2     21280     21243     20910     21248     24819     26296     27607     24818     24783     27206
 -1      7812    6    0    1
 -2     21047     21536     21091     21116     25867     25405     24211     24482     25076     24292
 -1      7813    6    0    1
 -2     21256     21275     21542     21232     24805     26731     26800     24924     24845     26780
 -1      7814    6    0    1
 -2     21441     20517     21346     21567     22283     22280     22281     25780     25781     27863
 -1      7815    6    0    1
 -2     21581     21585     21390     21532     27353     26335     27352     28317     26660     27927
 -1      7816    6    0    1
 -2     21052     21532     21649     21531     27692     27453     27691     25223     27454     26557
 -1      7817    6    0    1
 -2     21282     20900     20876     21237     28231     23594     25240     24825     25723     25241
 -1      7818    6    0    1
 -2     21581     21532     21390     21359     28317     27927     27352     26207     26805     22075
 -1      7819    6    0    1
 -2     21518     20710     20693     20760     26976     22982     27270     26960     23153     23152
 -1      7820    6    0    1
 -2     21470     21449     21522     21431     22397     25684     25260     22433     22409     27288
 -1      7821    6    0    1
 -2     21290     21545     21320     21312     25366     25367     24967     24939     25718     24969
 -1      7822    6    0    1
 -2     21573     21077     21126     20696     25765     24338     26330     25774     25775     28312
 -1      7823    6    0    1
 -2     21543     20812     20814     20771     26948     23322     27743     27658     23316     23320
 -1      7824    6    0    1
 -2     21149     20775     20696     20694     25397     23196     25975     25976     23195     22941
 -1      7825    6    0    1
 -2     21053     21532     21585     21016     26033     26660     28026     24109     26123     28318
 -1      7826    6    0    1
 -2     21545     20949     20952     20939     25985     23783     25526     25527     23772     23784
 -1      7827    6    0    1
 -2     20744     21519     21150     20741     27569     27821     27592     23109     27822     26444
 -1      7828    6    0    1
 -2     21532     21016     21053     21100     26123     24109     26033     25508     24231     24303
 -1      7829    6    0    1
 -2     20536     21657     21708     20987     27750     28091     28089     23890     25594     28319
 -1      7830    6    0    1
 -2     21328     21549     21313     21286     25098     25099     24994     24992     25505     24942
 -1      7831    6    0    1
 -2     21540     21150     21135     21222     26445     24401     27369     26710     24632     24631
 -1      7832    6    0    1
 -2     20987     21070     20701     21027     24145     27191     28320     24089     24146     26223
 -1      7833    6    0    1
 -2     21286     21307     20941     20912     24918     27615     25504     25558     27800     23741
 -1      7834    6    0    1
 -2     21542     20887     20888     20898     27111     23554     26781     26729     23678     23657
 -1      7835    6    0    1
 -2     20666     20588     21557     20628     22869     28291     27236     22868     22802     27922
 -1      7836    6    0    1
 -2     21730     21463     21676     21719     26273     27404     27019     26225     26275     27405
 -1      7837    6    0    1
 -2     20838     20852     21212     20903     23444     25472     25686     23601     23600     25492
 -1      7838    6    0    1
 -2     21541     21272     21235     21247     26039     24883     28189     26043     24794     24711
 -1      7839    6    0    1
 -2     20951     21304     20938     21296     27473     25648     23787     28115     24905     25657
 -1      7840    6    0    1
 -2     20944     21545     20949     20956     27083     25985     23773     23796     25729     23797
 -1      7841    6    0    1
 -2     21066     20732     21657     20701     27143     27796     25593     27190     23054     28074
 -1      7842    6    0    1
 -2     21290     20925     20874     21254     26434     23682     25720     24855     27394     27248
 -1      7843    6    0    1
 -2     21290     21254     20874     21237     24855     27248     25720     24854     24737     25721
 -1      7844    6    0    1
 -2     20556     21612     20646     20606     27877     27878     22751     22662     27929     22847
 -1      7845    6    0    1
 -2     21286     20912     20941     20930     25558     23741     25504     25502     23702     23742
 -1      7846    6    0    1
 -2     21535     20771     20727     21170     27714     23184     26518     27860     27188     27349
 -1      7847    6    0    1
 -2     21636     21483     21706     21686     27368     26705     26758     27365     27367     28126
 -1      7848    6    0    1
 -2     20538     21437     21463     21719     22269     22425     22337     27827     27375     26275
 -1      7849    6    0    1
 -2     21516     20770     21120     20784     28052     25304     27570     27232     23225     25327
 -1      7850    6    0    1
 -2     20841     20850     21155     20798     23538     28290     28167     23441     23433     25290
 -1      7851    6    0    1
 -2     21730     21602     21650     21463     25669     25289     26215     26273     25287     25286
 -1      7852    6    0    1
 -2     21463     21676     21437     21443     27404     27403     22425     22349     26551     22430
 -1      7853    6    0    1
 -2     21717     21595     21527     20683     28296     27096     26589     26591     27098     26590
 -1      7854    6    0    1
 -2     21727     21426     21574     21348     26667     26571     27433     27260     22246     25925
 -1      7855    6    0    1
 -2     21441     21346     21680     21567     22281     26838     28177     25780     27863     27724
 -1      7856    6    0    1
 -2     21547     21326     21334     21318     26120     25017     26119     25184     24986     25045
 -1      7857    6    0    1
 -2     21547     21334     21322     21318     26119     25046     27223     25184     25045     24975
 -1      7858    6    0    1
 -2     21727     21081     20996     20997     26532     24178     26636     25124     24177     23912
 -1      7859    6    0    1
 -2     21727     20996     21704     20997     26636     28321     28162     25124     23912     28283
 -1      7860    6    0    1
 -2     21138     21101     21533     21129     24365     25562     27521     24367     24344     25563
 -1      7861    6    0    1
 -2     21259     21299     20919     21300     24885     26639     25886     24886     24888     25885
 -1      7862    6    0    1
 -2     20606     20687     21737     21612     22919     27833     27847     27929     28193     28192
 -1      7863    6    0    1
 -2     21268     21236     20915     20884     24800     28322     26469     25079     25080     23639
 -1      7864    6    0    1
 -2     21533     21054     20772     21129     25561     28214     26281     25563     24343     26282
 -1      7865    6    0    1
 -2     21138     21129     21533     20738     24367     25563     27521     26293     26284     26283
 -1      7866    6    0    1
 -2     21270     20873     20856     20857     26932     23506     27734     26974     23508     23457
 -1      7867    6    0    1
 -2     21282     21545     21274     21544     28154     25719     24927     25409     26377     27601
 -1      7868    6    0    1
 -2     20885     20946     20899     21246     23759     23758     23591     25434     27502     25340
 -1      7869    6    0    1
 -2     21282     20900     21290     21545     28231     25722     24856     28154     27094     25366
 -1      7870    6    0    1
 -2     21144     21190     21541     21203     24534     26042     25956     24570     24572     26041
 -1      7871    6    0    1
 -2     20747     20758     21538     20802     23148     26736     26807     23287     23286     27576
 -1      7872    6    0    1
 -2     21284     21543     21235     21244     26914     25838     24829     24830     25839     24702
 -1      7873    6    0    1
 -2     20646     21701     20556     21651     26721     27108     22751     28323     26699     27109
 -1      7874    6    0    1
 -2     20937     20938     21258     20903     23733     25646     25647     23728     23730     25491
 -1      7875    6    0    1
 -2     21546     21330     21331     21302     27684     25005     25452     25537     24999     25002
 -1      7876    6    0    1
 -2     21455     21426     21727     21427     22401     26667     28161     22320     22249     27262
 -1      7877    6    0    1
 -2     20556     20557     21612     20606     21898     28123     27877     22662     22661     27929
 -1      7878    6    0    1
 -2     21537     20419     20627     20587     26190     22710     26189     27957     22620     22801
 -1      7879    6    0    1
 -2     21234     20886     20850     20854     26786     23611     28215     27543     23610     23599
 -1      7880    6    0    1
 -2     21546     21341     21332     21319     25453     25053     26946     25454     25052     25012
 -1      7881    6    0    1
 -2     20734     20763     21064     20704     23160     27183     27159     23069     23161     27181
 -1      7882    6    0    1
 -2     21551     21722     20623     21660     28063     28105     27167     28306     28104     27161
 -1      7883    6    0    1
 -2     21519     21096     21135     21150     26869     24359     27037     27821     24398     24401
 -1      7884    6    0    1
 -2     21519     21096     20718     20969     26869     27983     27726     28324     24224     25893
 -1      7885    6    0    1
 -2     21232     20898     20888     20895     25977     23657     26778     27754     23587     23630
 -1      7886    6    0    1
 -2     21368     21477     21665     21515     27222     28325     27769     26757     22613     27987
 -1      7887    6    0    1
 -2     21210     20854     21178     20799     27542     26479     24595     26496     23450     25666
 -1      7888    6    0    1
 -2     21012     21096     21519     20969     24223     26869     26868     24029     24224     28324
 -1      7889    6    0    1
 -2     21654     20548     21513     21495     27391     22546     25464     25308     22497     22559
 -1      7890    6    0    1
 -2     20828     20850     21221     20886     23432     28216     28200     23546     23611     27233
 -1      7891    6    0    1
 -2     21555     21499     21648     20642     25564     25445     26381     25565     25566     25213
 -1      7892    6    0    1
 -2     20910     20908     21275     20898     23658     26730     27205     23640     23691     25984
 -1      7893    6    0    1
 -2     21224     20792     21529     20790     27186     27342     28275     27187     23248     25412
 -1      7894    6    0    1
 -2     21287     21227     20833     21224     24840     26951     25981     24839     24652     27185
 -1      7895    6    0    1
 -2     20987     21066     20701     21070     24138     27190     28320     24145     24147     27191
 -1      7896    6    0    1
 -2     20833     21224     20792     20823     27185     27186     23373     23374     26040     23347
 -1      7897    6    0    1
 -2     20982     20981     21577     20492     23968     27910     27512     23880     23878     26103
 -1      7898    6    0    1
 -2     21159     21066     20795     21140     24426     27189     27011     24429     24372     27302
 -1      7899    6    0    1
 -2     21333     21549     20957     21315     25152     27711     27594     25030     27641     27708
 -1      7900    6    0    1
 -2     21577     20981     21060     21023     27910     24122     27514     27007     24073     24123
 -1      7901    6    0    1
 -2     21080     20689     21113     20752     26235     27888     24315     26234     23129     27383
 -1      7902    6    0    1
 -2     21518     21161     21073     21046     27265     24434     28183     26152     24433     24157
 -1      7903    6    0    1
 -2     20761     21141     21128     21194     27544     24376     28326     26855     24546     24545
 -1      7904    6    0    1
 -2     21240     21249     21544     21255     24718     25133     27647     24810     24847     25135
 -1      7905    6    0    1
 -2     21544     20831     20889     20902     28228     23558     26748     27144     23597     23628
 -1      7906    6    0    1
 -2     21183     21544     20835     20831     27671     25074     25516     25257     28228     23381
 -1      7907    6    0    1
 -2     20761     21194     21128     20762     26855     24545     28326     23159     26854     27534
 -1      7908    6    0    1
 -2     20477     21663     20966     21709     28220     27965     23847     27838     26620     28006
 -1      7909    6    0    1
 -2     21183     20831     20835     21143     25257     23381     25516     24517     25530     25517
 -1      7910    6    0    1
 -2     20870     21240     21544     21255     26742     27647     26641     25560     24810     25135
 -1      7911    6    0    1
 -2     20891     20889     20902     21544     23692     23628     23645     26631     26748     27144
 -1      7912    6    0    1
 -2     21725     21663     21477     21709     27966     26624     28327     28007     26620     26623
 -1      7913    6    0    1
 -2     21577     21023     21060     20667     27007     24123     27514     28048     27140     26978
 -1      7914    6    0    1
 -2     20557     21612     20606     21636     28123     27929     22661     27312     27928     26761
 -1      7915    6    0    1
 -2     21062     21522     21160     21142     27466     26975     24430     24378     26969     24432
 -1      7916    6    0    1
 -2     21491     20557     21636     21612     22490     27312     27948     26709     28123     27928
 -1      7917    6    0    1
 -2     20955     20934     21318     21299     23792     27652     25600     25601     27630     24960
 -1      7918    6    0    1
 -2     21139     21192     21133     20840     24541     24540     24370     25469     26297     25969
 -1      7919    6    0    1
 -2     21273     20853     20825     20875     27194     23448     26515     26830     23511     23513
 -1      7920    6    0    1
 -2     20783     20768     21732     21537     23223     26544     26599     25442     25443     26529
 -1      7921    6    0    1
 -2     21318     21310     21299     20923     24959     24931     24960     25181     25611     27653
 -1      7922    6    0    1
 -2     20783     21104     20805     20669     27705     26187     23326     23224     27540     23296
 -1      7923    6    0    1
 -2     21672     21624     21577     21350     25813     27814     25115     25814     25811     26075
 -1      7924    6    0    1
 -2     21073     21523     21032     20991     25096     28273     24155     24156     25426     24047
 -1      7925    6    0    1
 -2     20927     20936     21546     20950     23725     28146     25840     23776     23778     25841
 -1      7926    6    0    1
 -2     21238     21176     21527     21174     24686     27447     25540     24685     24597     25541
 -1      7927    6    0    1
 -2     21444     21657     21466     21462     27820     28056     22351     22421     27895     22423
 -1      7928    6    0    1
 -2     21621     21411     21566     21721     27977     25762     27032     27033     28042     27035
 -1      7929    6    0    1
 -2     21053     20672     20757     20738     27358     23143     25785     27520     23091     23144
 -1      7930    6    0    1
 -2     21497     21725     21477     21709     27051     28327     22615     28041     28007     26623
 -1      7931    6    0    1
 -2     20511     21702     21444     21634     26194     26195     22292     28328     28329     27496
 -1      7932    6    0    1
 -2     21314     20953     20965     20963     26148     23843     26844     27341     23839     23834
 -1      7933    6    0    1
 -2     21471     21456     21430     21522     22436     22369     22440     26506     26507     25709
 -1      7934    6    0    1
 -2     21031     21071     21524     20990     24148     28019     28261     24046     24149     26792
 -1      7935    6    0    1
 -2     21503     21510     21592     21526     22587     27287     26023     26025     26602     26024
 -1      7936    6    0    1
 -2     20882     20920     20928     21545     23668     23726     23694     28155     25986     27084
 -1      7937    6    0    1
 -2     21503     21606     21671     21526     27612     27613     27610     26025     27792     26012
 -1      7938    6    0    1
 -2     21268     21279     20915     21285     24816     27685     26469     24831     24833     27687
 -1      7939    6    0    1
 -2     21296     20925     20938     20956     27395     23732     25657     25728     23795     23798
 -1      7940    6    0    1
 -2     20897     21296     21254     20925     25685     24872     25661     23684     27395     27394
 -1      7941    6    0    1
 -2     20828     21140     21221     21159     28201     24628     28200     28236     24429     24629
 -1      7942    6    0    1
 -2     21715     21482     21526     21606     28260     26027     26606     28280     28204     27792
 -1      7943    6    0    1
 -2     21133     21192     20848     20840     24540     27014     25172     25969     26297     23427
 -1      7944    6    0    1
 -2     21092     21526     20720     20746     25655     26607     26594     27211     27557     23112
 -1      7945    6    0    1
 -2     21320     21324     21329     21545     24981     25013     25008     25367     25727     25525
 -1      7946    6    0    1
 -2     21482     21503     21606     20575     22569     27612     28204     22464     22519     28081
 -1      7947    6    0    1
 -2     21593     21480     21502     21511     26815     22552     26716     26359     22600     22606
 -1      7948    6    0    1
 -2     21587     21516     21419     21420     25156     25157     25153     26392     26391     22228
 -1      7949    6    0    1
 -2     20753     20804     20746     21526     23293     23292     23134     26703     25301     27557
 -1      7950    6    0    1
 -2     21602     21719     21730     21027     26274     26225     25669     25671     26226     25670
 -1      7951    6    0    1
 -2     21152     21109     20745     21088     24492     25753     25752     24453     24288     25835
 -1      7952    6    0    1
 -2     21596     21456     21430     20524     28012     22369     28166     27276     22322     22255
 -1      7953    6    0    1
 -2     21587     21420     21419     20484     26392     22228     25153     26395     22210     22208
 -1      7954    6    0    1
 -2     21430     21456     21596     21522     22369     28012     28166     25709     26507     28289
 -1      7955    6    0    1
 -2     21419     21516     21613     21418     25157     25158     25154     22206     27997     26980
 -1      7956    6    0    1
 -2     21255     20876     21211     21266     26764     26753     24742     24785     25242     24773
 -1      7957    6    0    1
 -2     21482     21509     21592     21492     22592     28148     26026     22580     22577     26629
 -1      7958    6    0    1
 -2     20663     21722     20482     20623     28292     27839     22793     22832     28105     22700
 -1      7959    6    0    1
 -2     20797     21527     20753     20685     27490     27446     23272     23269     27335     23133
 -1      7960    6    0    1
 -2     21715     21606     21526     21092     28280     27792     26606     26595     27793     25655
 -1      7961    6    0    1
 -2     21009     21709     20966     21528     28258     28006     24083     27202     28028     27252
 -1      7962    6    0    1
 -2     21444     21634     21729     20510     27496     26853     27043     22291     26851     26850
 -1      7963    6    0    1
 -2     21086     21526     21671     21002     26011     26012     26008     24191     27971     28330
 -1      7964    6    0    1
 -2     21070     21063     20798     20733     24248     25915     25291     27461     27379     23278
 -1      7965    6    0    1
 -2     21551     21660     20623     21061     28306     27161     27167     27166     27940     27124
 -1      7966    6    0    1
 -2     20733     21063     20702     20986     27379     28241     23058     27378     24130     27093
 -1      7967    6    0    1
 -2     21461     21467     21642     21445     22445     27148     27324     22418     22398     26483
 -1      7968    6    0    1
 -2     21067     21525     20731     20754     26769     25459     26768     27606     26937     23135
 -1      7969    6    0    1
 -2     20893     21206     21263     20813     27963     24765     27356     23569     27595     27357
 -1      7970    6    0    1
 -2     20515     21438     21711     21442     22288     27501     28021     22285     22431     26125
 -1      7971    6    0    1
 -2     20731     21525     20699     20754     25459     25460     23070     23135     26937     23136
 -1      7972    6    0    1
 -2     21528     21496     20546     21514     25234     22499     25233     25810     22560     22548
 -1      7973    6    0    1
 -2     21267     20921     20877     21546     28000     23670     26907     28008     25538     27415
 -1      7974    6    0    1
 -2     21315     21313     21337     21549     24950     25032     25031     27641     25099     25151
 -1      7975    6    0    1
 -2     21541     21247     21235     21203     26043     24711     28189     26041     24710     24679
 -1      7976    6    0    1
 -2     21698     20689     21080     20725     25938     26235     25909     27231     23031     27864
 -1      7977    6    0    1
 -2     21539     20776     21210     21121     26460     26458     26459     26420     26841     24602
 -1      7978    6    0    1
 -2     21397     20443     20444     21665     22046     21773     22040     28217     28331     28218
 -1      7979    6    0    1
 -2     20937     21264     20896     20903     27651     28101     23727     23728     27689     23603
 -1      7980    6    0    1
 -2     21550     20950     20958     21549     25521     23808     25831     25150     25353     25351
 -1      7981    6    0    1
 -2     20768     21537     20665     20705     25443     25441     23177     23178     25394     22963
 -1      7982    6    0    1
 -2     20452     21668     21384     21354     27665     26114     22009     21940     28332     22013
 -1      7983    6    0    1
 -2     21666     21573     21429     21454     25766     27426     27949     25823     25821     22314
 -1      7984    6    0    1
 -2     21528     20601     21536     20681     25598     26746     25112     28093     22902     26747
 -1      7985    6    0    1
 -2     21020     20977     21611     20454     24037     28315     28333     23961     23868     27932
 -1      7986    6    0    1
 -2     21378     21356     21553     21520     22139     25142     26687     27175     26049     26050
 -1      7987    6    0    1
 -2     21618     21408     21379     21521     25311     22112     26032     25206     25313     26732
 -1      7988    6    0    1
 -2     21683     21077     21034     20994     25707     24170     28288     28310     24169     24075
 -1      7989    6    0    1
 -2     21566     21621     20586     20711     27032     26244     27031     27074     27072     22984
 -1      7990    6    0    1
 -2     21353     21537     21383     21381     28187     27897     22012     22129     27716     22130
 -1      7991    6    0    1
 -2     20454     21355     20455     21611     21942     21941     21785     27932     26172     28316
 -1      7992    6    0    1
 -2     21690     20450     21353     21383     28221     21938     28186     26435     22006     22012
 -1      7993    6    0    1
 -2     21675     20481     20480     21421     27783     21815     26509     27003     22214     22213
 -1      7994    6    0    1
 -2     21411     21381     21383     21537     22100     22130     22168     27898     27716     27897
 -1      7995    6    0    1
 -2     21103     21019     20976     21534     24237     24036     24238     25788     26242     27412
 -1      7996    6    0    1
 -2     21607     21630     21380     21557     25726     25725     25724     28159     28137     28138
 -1      7997    6    0    1
 -2     20803     21129     21191     20834     26299     24537     25461     23377     26294     25463
 -1      7998    6    0    1
 -2     20880     21180     20830     20839     28285     25070     23526     23527     26400     23394
 -1      7999    6    0    1
 -2     20772     21129     20803     20834     26282     26299     23289     23376     26294     23377
 -1      8000    6    0    1
 -2     20793     20683     21527     20781     23249     26590     25087     23252     23217     25088
 -1      8001    6    0    1
 -2     20793     21115     21166     21123     28185     24450     25086     25089     24331     24451
 -1      8002    6    0    1
 -2     21087     21115     21166     20793     24316     24450     24452     25085     28185     25086
 -1      8003    6    0    1
 -2     20683     20686     20793     21115     22918     23250     23249     28203     27494     28185
 -1      8004    6    0    1
 -2     21364     21569     21395     21400     26744     28308     22106     22160     26892     22159
 -1      8005    6    0    1
 -2     20793     20686     21087     21115     23250     27493     25085     28185     27494     24316
 -1      8006    6    0    1
 -2     21009     21709     20476     20966     28258     27837     23939     24083     28006     23846
 -1      8007    6    0    1
 -2     21573     20696     21126     20727     25774     28312     26330     25795     23041     26331
 -1      8008    6    0    1
 -2     20778     21126     20696     20727     27620     28312     23204     23205     26331     23041
 -1      8009    6    0    1
 -2     20778     21126     20775     20696     27620     26693     23206     23204     28312     23196
 -1      8010    6    0    1
 -2     21077     21149     21522     21111     24395     26968     25710     24313     24396     26967
 -1      8011    6    0    1
 -2     21191     21129     21185     20834     24537     24522     24538     25463     26294     25337
 -1      8012    6    0    1
 -2     21714     20686     21593     21043     28096     28171     28170     28208     27492     27070
 -1      8013    6    0    1
 -2     21527     21123     21174     21084     25090     24488     25541     26365     24332     24486
 -1      8014    6    0    1
 -2     20477     20966     20476     21709     23847     23846     21807     27838     28006     27837
 -1      8015    6    0    1
 -2     20690     21736     21068     21591     27407     28213     27171     26930     28027     26576
 -1      8016    6    0    1
 -2     21511     20551     21661     21494     22541     27627     27396     22574     22496     27629
 -1      8017    6    0    1
 -2     20707     20683     21595     20644     22970     27098     27095     22969     22908     27804
 -1      8018    6    0    1
 -2     21494     21593     21511     21480     27900     26359     22574     22589     26815     22600
 -1      8019    6    0    1
 -2     21477     21497     21665     21515     22615     28131     28325     22613     22561     27987
 -1      8020    6    0    1
 -2     20764     21145     21114     21137     26413     24384     26410     26416     24386     24364
 -1      8021    6    0    1
 -2     20764     21114     21092     21137     26410     24314     27210     26416     24364     24363
 -1      8022    6    0    1
 -2     21171     20837     20746     21137     28267     23385     27639     24470     27245     28284
 -1      8023    6    0    1
 -2     20746     20837     20764     21137     23385     23387     23164     28284     27245     26416
 -1      8024    6    0    1
 -2     21677     20677     21625     20969     28334     26874     28219     28335     25895     28336
 -1      8025    6    0    1
 -2     20744     20741     21150     21540     23109     26444     27592     25488     25196     26445
 -1      8026    6    0    1
 -2     20910     21192     21248     21243     26298     24714     27206     26296     24697     24783
 -1      8027    6    0    1
 -2     20742     20829     20801     21148     23363     23365     23285     25799     27319     27624
 -1      8028    6    0    1
 -2     21138     20834     21185     21129     25336     25337     24523     24367     26294     24522
 -1      8029    6    0    1
 -2     21352     21681     21385     21382     27765     27766     22117     22179     26886     22180
 -1      8030    6    0    1
 -2     21677     20438     20636     21659     26724     22727     28337     27959     28114     28338
 -1      8031    6    0    1
 -2     21621     21411     21721     21352     27977     28042     27033     25637     22169     28339
 -1      8032    6    0    1
 -2     20521     21558     21453     21429     27448     26132     22312     22254     25370     22318
 -1      8033    6    0    1
 -2     21193     21542     21127     21140     26798     25704     24543     24544     26860     24373
 -1      8034    6    0    1
 -2     21168     21148     20801     21200     24484     27624     25246     24563     24562     25362
 -1      8035    6    0    1
 -2     21439     20542     21552     21440     22273     26889     26472     22277     22276     28340
 -1      8036    6    0    1
 -2     20846     20789     21734     20796     23413     27757     27058     23415     23264     27903
 -1      8037    6    0    1
 -2     20916     20864     20893     21263     23665     23571     23669     27117     27355     27356
 -1      8038    6    0    1
 -2     20828     21140     20795     20796     28201     27302     23361     23362     27303     23265
 -1      8039    6    0    1
 -2     20454     21611     20455     20977     27932     28316     21785     23868     28315     23869
 -1      8040    6    0    1
 -2     20700     20796     21734     20789     23263     27903     26958     23240     23264     27757
 -1      8041    6    0    1
 -2     21067     20789     21734     21542     27526     27757     26766     25702     27758     26859
 -1      8042    6    0    1
 -2     20951     21324     21296     20956     27475     24979     28115     23805     25730     25728
 -1      8043    6    0    1
 -2     21155     21159     20850     21178     24428     27010     28290     24508     24587     26478
 -1      8044    6    0    1
 -2     20850     21159     21234     21178     27010     24784     28215     26478     24587     24677
 -1      8045    6    0    1
 -2     21615     21524     21069     21030     28266     27978     28124     28051     26794     24143
 -1      8046    6    0    1
 -2     21110     21079     21538     21144     24276     26354     26772     24383     24382     25958
 -1      8047    6    0    1
 -2     20771     21170     21535     21151     27188     27860     27714     27659     24481     26872
 -1      8048    6    0    1
 -2     20761     20762     21128     21523     23159     27534     28326     28304     28262     25097
 -1      8049    6    0    1
 -2     21541     20788     21538     21151     26465     26466     25959     25957     26873     25960
 -1      8050    6    0    1
 -2     21677     21659     20636     21519     27959     28338     28337     28341     27306     27727
 -1      8051    6    0    1
 -2     21144     21203     21541     21151     24570     26041     25956     24404     24571     25957
 -1      8052    6    0    1
 -2     21166     21540     21196     21181     26616     26617     24550     24514     26665     24552
 -1      8053    6    0    1
 -2     21518     20697     20693     20615     27476     23040     27270     28274     22943     22933
 -1      8054    6    0    1
 -2     20761     21523     20695     20762     28304     26819     23155     23159     28262     23157
 -1      8055    6    0    1
 -2     20814     20771     21151     21543     23320     27659     27742     27743     27658     25633
 -1      8056    6    0    1
 -2     21239     20881     21294     21257     25904     28342     24867     24746     27655     24866
 -1      8057    6    0    1
 -2     21218     21203     21541     21235     24658     26041     28005     24680     24679     28189
 -1      8058    6    0    1
 -2     21486     21736     21682     21489     27409     28157     27253     22610     27408     28172
 -1      8059    6    0    1
 -2     20697     20615     21518     21523     22943     28274     27476     26701     28277     27489
 -1      8060    6    0    1
 -2     20761     20810     21215     21194     23308     26817     26816     26855     26856     24612
 -1      8061    6    0    1
 -2     21522     20653     20728     20694     26582     23037     26581     25713     22935     23038
 -1      8062    6    0    1
 -2     21645     21452     21473     20495     26789     22394     26773     26774     22308     22365
 -1      8063    6    0    1
 -2     20694     21149     20759     21522     25976     25399     23151     25713     26968     27824
 -1      8064    6    0    1
 -2     21532     20742     20829     20757     25800     23363     27317     26034     23145     23364
 -1      8065    6    0    1
 -2     20840     21192     21243     21184     26297     24697     26295     27579     24613     24698
 -1      8066    6    0    1
 -2     20874     20837     21199     20824     23510     27246     27247     23509     23464     25417
 -1      8067    6    0    1
 -2     21083     20751     21157     21145     25628     25630     24418     24385     26412     24421
 -1      8068    6    0    1
 -2     20772     20713     21533     20738     23186     27582     26281     23188     23092     26283
 -1      8069    6    0    1
 -2     21171     20746     21092     21137     27639     27211     24469     24470     28284     24363
 -1      8070    6    0    1
 -2     21532     20757     20829     21162     26034     23364     27317     25509     25787     27318
 -1      8071    6    0    1
 -2     20757     21162     20847     20829     25787     27519     23416     23364     27318     23418
 -1      8072    6    0    1
 -2     20878     20873     21287     21311     23522     25982     27134     26587     25176     24946
 -1      8073    6    0    1
 -2     21262     20869     20889     21186     27617     23556     26547     24764     27420     26548
 -1      8074    6    0    1
 -2     21082     21092     21606     21041     24214     27793     27791     24182     24212     28282
 -1      8075    6    0    1
 -2     20977     20455     21667     21611     23869     27985     28343     28315     28316     26173
 -1      8076    6    0    1
 -2     20571     21714     21619     21501     28207     26987     28344     22515     28109     25952
 -1      8077    6    0    1
 -2     21291     21294     20933     20931     24890     25824     25227     26588     27589     23713
 -1      8078    6    0    1
 -2     21082     21526     21171     21176     25656     25302     24471     24500     25300     24501
 -1      8079    6    0    1
 -2     21527     21526     20753     20685     25487     26703     27446     27335     26704     23133
 -1      8080    6    0    1
 -2     21681     21559     21621     21352     26246     26247     26243     27765     27764     25637
 -1      8081    6    0    1
 -2     21094     20977     21611     21020     24218     28315     27482     24220     24037     28333
 -1      8082    6    0    1
 -2     21686     21083     20723     21000     27173     26784     28127     27174     24184     28297
 -1      8083    6    0    1
 -2     20847     21162     21205     20829     27519     24578     25384     23418     27318     27869
 -1      8084    6    0    1
 -2     21729     21467     20510     21716     27042     22353     26850     26956     26894     26955
 -1      8085    6    0    1
 -2     20694     21430     21590     20613     25711     25716     25714     22936     27943     28067
 -1      8086    6    0    1
 -2     21524     21074     21071     21173     26793     24161     28019     25355     24477     24476
 -1      8087    6    0    1
 -2     21698     20689     21113     21080     25938     27888     27775     25909     26235     24315
 -1      8088    6    0    1
 -2     20902     21544     20831     20835     27144     28228     23597     23598     25074     23381
 -1      8089    6    0    1
 -2     21524     21071     21141     21173     28019     24375     28345     25355     24476     24478
 -1      8090    6    0    1
 -2     21113     21117     21080     20752     24318     24317     24315     27383     27067     26234
 -1      8091    6    0    1
 -2     20858     20890     21543     20906     23573     25771     27057     23613     23612     25776
 -1      8092    6    0    1
 -2     20416     20417     21721     20586     21746     26893     26882     22619     22618     27034
 -1      8093    6    0    1
 -2     21538     20684     20724     20755     26795     23021     28209     26464     23138     23137
 -1      8094    6    0    1
 -2     21292     21297     20926     21550     24879     25663     25391     26691     25430     26715
 -1      8095    6    0    1
 -2     20727     21112     21535     21170     26332     26143     26518     27349     24463     27860
 -1      8096    6    0    1
 -2     21686     21000     20723     21636     27174     28297     28127     27365     28303     26760
 -1      8097    6    0    1
 -2     21538     20755     20724     20788     26464     23137     28209     26466     23236     23235
 -1      8098    6    0    1
 -2     21256     21214     21193     21542     24743     24607     24744     26800     27040     26798
 -1      8099    6    0    1
 -2     21094     21020     21611     21529     24220     28333     27482     27483     28346     25265
 -1      8100    6    0    1
 -2     21034     21077     21683     21522     24170     25707     28288     27469     25710     25708
 -1      8101    6    0    1
 -2     20562     21710     21489     20561     28257     25475     22484     21903     28256     22483
 -1      8102    6    0    1
 -2     21193     21214     21127     21542     24607     24606     24543     26798     27040     25704
 -1      8103    6    0    1
 -2     21072     21525     21067     21165     27418     26769     24153     24448     27550     24446
 -1      8104    6    0    1
 -2     21067     20754     21542     21165     27606     26133     25702     24446     26134     25703
 -1      8105    6    0    1
 -2     20804     20837     21171     21225     23386     28267     25299     26752     25902     24645
 -1      8106    6    0    1
 -2     20808     21173     21215     21220     25357     24611     25187     27694     24625     24627
 -1      8107    6    0    1
 -2     21695     21524     21468     21597     28243     28034     28023     28024     27604     27268
 -1      8108    6    0    1
 -2     21199     21137     20837     21225     24560     27245     27246     24644     24643     25902
 -1      8109    6    0    1
 -2     21607     20588     20666     20669     28149     22869     28158     27539     22874     22877
 -1      8110    6    0    1
 -2     20783     20840     20805     21139     23396     23395     23326     28009     25469     25468
 -1      8111    6    0    1
 -2     20678     21603     20719     20968     26267     25188     23065     25456     25843     25844
 -1      8112    6    0    1
 -2     20968     21010     21047     20678     24060     24097     24096     25456     25837     25455
 -1      8113    6    0    1
 -2     21237     20874     20837     21199     25721     23510     25901     24684     27247     27246
 -1      8114    6    0    1
 -2     21038     20998     21682     21068     24091     26727     26572     24142     24141     26573
 -1      8115    6    0    1
 -2     21485     21506     21698     20581     22525     27131     27529     22470     22526     27530
 -1      8116    6    0    1
 -2     21620     21682     21736     21489     26726     28157     28212     27437     28172     27408
 -1      8117    6    0    1
 -2     21237     21199     20837     21225     24684     27246     25901     24683     24644     25902
 -1      8118    6    0    1
 -2     20915     21236     21268     21285     28322     24800     26469     27687     24832     24831
 -1      8119    6    0    1
 -2     21642     21467     20509     21445     27148     22352     27393     26483     22398     22294
 -1      8120    6    0    1
 -2     21038     20583     21682     20998     24006     27105     26572     24091     23915     26727
 -1      8121    6    0    1
 -2     20761     21141     21173     21524     27544     24478     25354     25356     28345     25355
 -1      8122    6    0    1
 -2     20787     20686     20680     21087     23234     22917     23232     28287     27493     28286
 -1      8123    6    0    1
 -2     20787     20686     21087     20793     23234     27493     28287     23251     23250     25085
 -1      8124    6    0    1
 -2     20872     20884     20930     21236     23542     23700     23699     26887     25080     25503
 -1      8125    6    0    1
 -2     20872     20930     21245     21236     23699     25501     26076     26887     25503     24705
 -1      8126    6    0    1
 -2     21135     20815     21519     20744     27371     27568     27037     27593     23323     27569
 -1      8127    6    0    1
 -2     20915     21236     20930     20884     28322     25503     23701     23639     25080     23700
 -1      8128    6    0    1
 -2     21581     21359     21390     20462     26207     22075     27352     26208     21950     22023
 -1      8129    6    0    1
 -2     21102     21520     21018     20975     27132     27240     24235     24236     26266     24035
 -1      8130    6    0    1
 -2     21593     21115     20686     20683     25278     27494     28171     26593     28203     22918
 -1      8131    6    0    1
 -2     21236     20915     21549     21285     28322     27686     28347     24832     27687     27642
 -1      8132    6    0    1
 -2     20906     20905     21272     21543     23688     26038     26175     25776     26035     26037
 -1      8133    6    0    1
 -2     21543     21546     21284     21272     26178     26913     26914     26037     26177     24892
 -1      8134    6    0    1
 -2     20973     21581     21649     21532     26494     26495     26492     26122     28317     27453
 -1      8135    6    0    1
 -2     21270     20873     21287     20856     26932     25982     24842     27734     23506     25983
 -1      8136    6    0    1
 -2     20840     21184     21243     20871     27579     24698     26295     23502     25928     25927
 -1      8137    6    0    1
 -2     20858     21541     20861     20905     27056     26676     23473     23664     26014     23609
 -1      8138    6    0    1
 -2     21681     21352     21621     21721     27765     25637     26243     26883     28339     27033
 -1      8139    6    0    1
 -2     21190     21230     21163     21541     24662     24661     24535     26042     28314     27258
 -1      8140    6    0    1
 -2     20905     21541     20861     20842     26014     26676     23609     23606     27695     23472
 -1      8141    6    0    1
 -2     20840     20871     21243     20910     23502     25927     26295     23622     23624     26296
 -1      8142    6    0    1
 -2     21223     20838     20903     20897     25425     23601     25490     25427     23585     23602
 -1      8143    6    0    1
 -2     21670     21386     21611     21529     28160     25267     28348     27284     25268     25265
 -1      8144    6    0    1
 -2     21223     20897     20903     21258     25427     23602     25490     24748     25662     25491
 -1      8145    6    0    1
 -2     21659     21677     21554     21519     27959     27960     27305     27306     28341     26313
 -1      8146    6    0    1
 -2     20921     21302     21264     20937     25535     24896     28294     23729     25900     27651
 -1      8147    6    0    1
 -2     20921     20937     21264     20896     23729     27651     28294     23671     23727     28101
 -1      8148    6    0    1
 -2     21391     21404     21360     21531     22163     22175     22102     26339     26341     27442
 -1      8149    6    0    1
 -2     20871     20878     20823     21269     23521     23520     23501     25929     26000     25998
 -1      8150    6    0    1
 -2     21382     21681     21721     21352     26886     26883     26885     22179     27765     28339
 -1      8151    6    0    1
 -2     20977     21611     21667     21521     28315     26173     28343     27637     26174     25871
 -1      8152    6    0    1
 -2     21607     20669     20666     21057     27539     22877     28158     25635     27541     27238
 -1      8153    6    0    1
 -2     20421     20588     21630     20420     22622     28150     28136     21750     22623     25974
 -1      8154    6    0    1
 -2     20740     21531     20712     20769     26101     26099     23096     23181     25733     23179
 -1      8155    6    0    1
 -2     20871     21184     20823     20840     25928     25997     23501     23502     27579     23397
 -1      8156    6    0    1
 -2     21520     21534     21378     21583     25420     25297     27175     27176     25298     25295
 -1      8157    6    0    1
 -2     20823     21184     21139     20840     25997     24519     25470     23397     27579     25469
 -1      8158    6    0    1
 -2     20458     20457     21388     21601     21788     22020     22019     27351     26113     26111
 -1      8159    6    0    1
 -2     20457     21388     21520     21356     22020     26110     26051     21943     22078     26049
 -1      8160    6    0    1
 -2     21210     21253     21539     21209     24731     28066     26459     24674     24732     27523
 -1      8161    6    0    1
 -2     21224     21131     20823     21184     24640     27547     26040     24642     24520     25997
 -1      8162    6    0    1
 -2     21554     21625     20471     20969     27817     25826     27816     28349     28336     23853
 -1      8163    6    0    1
 -2     21673     20677     21707     20637     26877     26971     28350     28351     22892     28352
 -1      8164    6    0    1
 -2     21532     21359     21405     21390     26805     22165     26806     27927     22075     22142
 -1      8165    6    0    1
 -2     20719     21011     21673     20677     25884     26861     25190     23074     26875     26877
 -1      8166    6    0    1
 -2     21017     21054     21533     21101     24111     25561     27728     24233     24298     25562
 -1      8167    6    0    1
 -2     20459     21533     21389     20460     27244     26421     22022     21790     27670     22021
 -1      8168    6    0    1
 -2     21032     20992     21697     21518     24084     28353     28263     26153     26151     26528
 -1      8169    6    0    1
 -2     20826     21195     20759     20818     28001     27562     23354     23355     25431     23333
 -1      8170    6    0    1
 -2     21539     21209     21118     21121     27523     24592     26508     26420     24591     24327
 -1      8171    6    0    1
 -2     21152     21095     21047     20773     24405     24240     24406     27273     27389     27272
 -1      8172    6    0    1
 -2     21707     21400     20440     20439     27780     22050     27778     27661     22049     21769
 -1      8173    6    0    1
 -2     21032     20527     21697     20992     23993     28133     28263     24084     23901     28353
 -1      8174    6    0    1
 -2     21709     21588     21397     21528     28196     26536     28195     28028     28129     28144
 -1      8175    6    0    1
 -2     21670     20454     21611     21386     28226     27932     28348     28160     22015     25267
 -1      8176    6    0    1
 -2     21142     21195     20759     20826     24548     27562     27563     27970     28001     23354
 -1      8177    6    0    1
 -2     21256     21214     21542     21275     24743     27040     26800     24805     24804     26731
 -1      8178    6    0    1
 -2     20705     20711     21539     21537     22985     26291     26290     25394     25395     25590
 -1      8179    6    0    1
 -2     21539     20768     20816     20774     27281     23327     25493     26292     23194     23328
 -1      8180    6    0    1
 -2     21690     21383     21353     21537     26435     22012     28186     27760     27897     28187
 -1      8181    6    0    1
 -2     20534     20988     21723     20535     23892     26523     27880     21875     23893     28250
 -1      8182    6    0    1
 -2     20864     21263     20916     21280     27355     27117     23665     26962     24945     28307
 -1      8183    6    0    1
 -2     21647     20992     21697     20526     27918     28353     26526     27767     23900     28132
 -1      8184    6    0    1
 -2     20916     20908     20864     21280     23651     23618     23665     28307     26961     26962
 -1      8185    6    0    1
 -2     20534     20988     21029     21610     23892     24044     23988     27876     28240     28354
 -1      8186    6    0    1
 -2     21603     21364     20473     21396     26743     21959     27511     27227     22086     22036
 -1      8187    6    0    1
 -2     20473     21603     21010     20968     27511     26268     23940     23851     25843     24060
 -1      8188    6    0    1
 -2     20916     21280     20871     20908     28307     28355     23643     23651     26961     23652
 -1      8189    6    0    1
 -2     21280     20908     20910     20871     26961     23658     27607     28355     23652     23624
 -1      8190    6    0    1
 -2     20871     21243     21280     21291     25927     24819     28355     25999     24857     24859
 -1      8191    6    0    1
 -2     21419     21342     21613     20485     22205     26979     25154     22207     22204     28086
 -1      8192    6    0    1
 -2     20871     21291     21280     20916     25999     24859     28355     23643     25226     28307
 -1      8193    6    0    1
 -2     20426     21377     21700     20427     21989     27725     25652     21756     21990     25793
 -1      8194    6    0    1
 -2     20592     20713     21533     20631     22992     27582     28153     22836     22990     27583
 -1      8195    6    0    1
 -2     21530     20634     20595     20716     26302     22839     27036     26303     23001     23000
 -1      8196    6    0    1
 -2     21607     21380     21410     21354     25724     22099     25164     26204     22148     22170
 -1      8197    6    0    1
 -2     21094     21020     21529     21057     24220     28346     27483     24239     24117     26681
 -1      8198    6    0    1
 -2     21428     21535     21473     21453     26462     27344     22427     22311     26136     22439
 -1      8199    6    0    1
 -2     21637     20520     20521     21453     26254     21861     27450     27431     22310     22312
 -1      8200    6    0    1
 -2     21637     21453     21428     20520     27431     22311     26253     26254     22310     22251
 -1      8201    6    0    1
 -2     21311     21269     20878     21291     24935     26000     26587     24934     24858     26001
 -1      8202    6    0    1
 -2     21523     21433     20530     21524     25967     22261     25966     27297     27298     27325
 -1      8203    6    0    1
 -2     20805     21057     21139     21131     26188     24369     25468     26683     24347     24459
 -1      8204    6    0    1
 -2     21727     20692     21038     21735     26637     26644     25270     27755     28356     26928
 -1      8205    6    0    1
 -2     20499     21450     21629     21590     22304     26586     28054     26497     27462     28068
 -1      8206    6    0    1
 -2     21524     21523     21141     21071     27297     25238     28345     28019     25907     24375
 -1      8207    6    0    1
 -2     21721     20586     20417     21566     27034     22618     26893     27035     27031     25761
 -1      8208    6    0    1
 -2     20695     20697     20762     21523     22944     23158     23157     26819     26701     28262
 -1      8209    6    0    1
 -2     21384     21668     21410     21354     26114     26115     22181     22013     28332     22170
 -1      8210    6    0    1
 -2     21620     21068     21736     21682     25961     28213     28212     26726     26573     28157
 -1      8211    6    0    1
 -2     21646     21407     20426     20425     25689     22064     25651     28357     22063     21755
 -1      8212    6    0    1
 -2     21550     21543     21332     21297     26944     25634     25429     25430     25597     25010
 -1      8213    6    0    1
 -2     20424     20423     21618     21408     21753     27832     26261     22066     22065     25311
 -1      8214    6    0    1
 -2     21697     20526     20992     20527     28132     23900     28353     28133     21867     23901
 -1      8215    6    0    1
 -2     20871     21291     20916     20878     25999     25226     23643     23521     26001     23642
 -1      8216    6    0    1
 -2     21710     21486     20609     21656     25477     28358     28278     27853     27213     28359
 -1      8217    6    0    1
 -2     20921     21546     21267     21302     25538     28008     28000     25535     25537     24897
 -1      8218    6    0    1
 -2     21665     21397     21709     21366     28217     28195     28130     27894     22037     27830
 -1      8219    6    0    1
 -2     21221     20886     21542     20846     27233     27234     26799     28202     23547     27060
 -1      8220    6    0    1
 -2     21542     21140     21193     21221     26860     24544     26798     26799     24628     24630
 -1      8221    6    0    1
 -2     20700     20789     21734     21067     23240     27757     26958     26633     27526     26766
 -1      8222    6    0    1
 -2     21542     21140     21221     20846     26860     24628     26799     27060     27059     28202
 -1      8223    6    0    1
 -2     21629     20650     20497     20498     26700     22759     25916     28055     22761     21837
 -1      8224    6    0    1
 -2     21683     20524     21430     20523     28165     22255     25705     28299     21864     22256
 -1      8225    6    0    1
 -2     21518     21653     21448     21523     25063     27339     25574     27489     27545     26824
 -1      8226    6    0    1
 -2     21477     21368     21665     21366     27222     27769     28325     27829     22171     27894
 -1      8227    6    0    1
 -2     21304     21264     20937     21258     24903     27651     25649     24902     24770     25647
 -1      8228    6    0    1
 -2     21398     21594     21678     21367     27745     26737     25552     22166     27746     28060
 -1      8229    6    0    1
 -2     21709     21366     21397     20476     27830     22037     28195     27837     21964     22038
 -1      8230    6    0    1
 -2     21683     21430     21454     20523     25705     22319     25822     28299     22256     22315
 -1      8231    6    0    1
 -2     21473     21535     21622     21451     27344     27737     27680     22382     28360     25759
 -1      8232    6    0    1
 -2     21477     21366     21665     21709     27829     27894     28325     26623     27830     28130
 -1      8233    6    0    1
 -2     20588     20421     21557     20628     22622     27572     28291     22802     22712     27922
 -1      8234    6    0    1
 -2     21557     21386     21379     21409     26280     22137     25272     27571     22183     22098
 -1      8235    6    0    1
 -2     20921     20896     21264     21267     23671     28101     28294     28000     26908     24777
 -1      8236    6    0    1
 -2     21695     21525     21584     21446     28272     27392     28361     28043     28246     26272
 -1      8237    6    0    1
 -2     21524     21468     21459     21434     28034     22435     27153     27155     22429     22384
 -1      8238    6    0    1
 -2     21429     21451     21573     21535     22404     25756     27426     26135     28360     26517
 -1      8239    6    0    1
 -2     20866     20909     20904     21543     23619     23621     23605     25769     25770     26205
 -1      8240    6    0    1
 -2     20412     20486     21552     21414     21821     25578     27082     22189     22192     25130
 -1      8241    6    0    1
 -2     21032     21575     21697     20527     28264     28265     28263     23993     27472     28133
 -1      8242    6    0    1
 -2     21439     20542     20541     21699     22273     21882     22274     25333     26842     26323
 -1      8243    6    0    1
 -2     20728     20759     20767     21522     23150     23175     23174     26581     27824     27706
 -1      8244    6    0    1
 -2     21477     21709     21665     21497     26623     28130     28325     22615     28041     28131
 -1      8245    6    0    1
 -2     21647     21518     21697     20992     25744     26528     26526     27918     26151     28353
 -1      8246    6    0    1
 -2     20485     21613     21587     20664     28086     25155     28102     22795     28151     28362
 -1      8247    6    0    1
 -2     21633     21023     20448     20447     27005     23967     25372     26168     23966     21778
 -1      8248    6    0    1
 -2     20658     21525     20988     21610     26921     26771     26922     27884     26920     28240
 -1      8249    6    0    1
 -2     21478     21528     20567     21498     26985     25244     22456     22512     27004     22506
 -1      8250    6    0    1
 -2     21731     20661     21640     21711     26080     28116     25857     25859     26081     25858
 -1      8251    6    0    1
 -2     21671     20573     20574     21481     27909     21916     27611     26044     22462     22461
 -1      8252    6    0    1
 -2     21342     21613     21577     21418     26979     28046     26074     22203     26980     26102
 -1      8253    6    0    1
 -2     21304     20951     20943     21330     27473     23779     27625     24998     27474     27626
 -1      8254    6    0    1
 -2     21669     20573     21481     21502     27908     22462     28011     26717     22517     22570
 -1      8255    6    0    1
 -2     21188     21198     20778     21126     24559     27619     26142     24530     24557     27620
 -1      8256    6    0    1
 -2     20560     21485     21562     20561     22485     25449     26378     21902     22486     25450
 -1      8257    6    0    1
 -2     21076     21675     21517     20984     27163     26056     27215     24165     27916     27917
 -1      8258    6    0    1
 -2     21727     20692     21735     20610     26637     28356     27755     26666     22929     27196
 -1      8259    6    0    1
 -2     21439     21442     21567     21517     22443     27713     27722     26473     26957     26202
 -1      8260    6    0    1
 -2     21574     21348     20493     20413     25925     22244     26570     27851     21829     21832
 -1      8261    6    0    1
 -2     21731     21517     21699     20985     26199     26475     28179     27497     28031     26322
 -1      8262    6    0    1
 -2     20984     21076     20985     21517     24165     24168     24136     27917     27215     28031
 -1      8263    6    0    1
 -2     21643     21517     21425     21413     26059     26055     26058     27715     28003     22234
 -1      8264    6    0    1
 -2     21656     20692     20610     21735     28363     22929     27195     27113     28356     27196
 -1      8265    6    0    1
 -2     21413     21517     21425     21424     28003     26055     22234     22235     26790     22236
 -1      8266    6    0    1
 -2     21638     21528     20639     21665     28365     28092     28364     28366     26569     28367
 -1      8267    6    0    1
 -2     21665     20445     20444     21366     27771     21774     28218     27894     21972     21971
 -1      8268    6    0    1
 -2     21710     21486     20690     20609     25477     25474     25476     28278     28358     22925
 -1      8269    6    0    1
 -2     20545     21693     21497     20544     26584     28020     22502     21886     26796     22501
 -1      8270    6    0    1
 -2     20690     21591     21735     21656     26930     26931     26927     27212     27112     27113
 -1      8271    6    0    1
 -2     20510     21467     20509     21716     22353     22352     21849     26955     26894     27904
 -1      8272    6    0    1
 -2     21236     21285     21549     21286     24832     27642     28347     24834     24836     25505
 -1      8273    6    0    1
 -2     20905     20843     20877     21216     23607     23517     23608     26013     26016     28121
 -1      8274    6    0    1
 -2     21108     21085     21037     20688     24284     24188     24265     25988     27999     25877
 -1      8275    6    0    1
 -2     21108     20725     21080     20749     25987     27864     24264     25995     23121     26233
 -1      8276    6    0    1
 -2     20534     20535     21723     21461     21875     28250     27880     22332     22331     27872
 -1      8277    6    0    1
 -2     21105     21059     21539     21118     24309     26418     25588     24320     24319     26508
 -1      8278    6    0    1
 -2     21692     20997     20584     21038     25120     23913     25609     25271     24011     24007
 -1      8279    6    0    1
 -2     20794     21206     20817     20813     27590     25145     23329     23318     27595     23332
 -1      8280    6    0    1
 -2     21473     21453     21535     21451     22439     26136     27344     22382     22405     28360
 -1      8281    6    0    1
 -2     20979     21537     21690     21614     26965     27760     28368     27208     27209     28188
 -1      8282    6    0    1
 -2     21674     21628     20632     20672     27802     28370     28369     28152     28180     22882
 -1      8283    6    0    1
 -2     21432     21575     20528     20527     25951     25949     22259     22260     27472     21868
 -1      8284    6    0    1
 -2     20643     21696     20550     21586     28198     28079     22745     28309     28080     26358
 -1      8285    6    0    1
 -2     21328     21329     21336     21549     24997     25025     25024     25098     26467     27334
 -1      8286    6    0    1
 -2     20950     21549     21339     20959     25353     25522     25519     23806     25816     27681
 -1      8287    6    0    1
 -2     21207     20813     21179     20809     26491     26647     24584     25942     23319     26646
 -1      8288    6    0    1
 -2     20715     20672     21674     20632     23023     28152     26801     22998     22882     28369
 -1      8289    6    0    1
 -2     20597     21519     20718     20969     28371     27726     23004     25894     28324     25893
 -1      8290    6    0    1
 -2     20688     21000     20723     21085     26901     28297     23030     27999     24187     27998
 -1      8291    6    0    1
 -2     21339     21330     21331     21546     25040     25005     25041     26329     27684     25452
 -1      8292    6    0    1
 -2     20688     21636     20723     21000     28302     26760     23030     26901     28303     28297
 -1      8293    6    0    1
 -2     20959     20952     21336     21324     23828     27332     27331     27859     27645     25026
 -1      8294    6    0    1
 -2     21461     20535     21723     21436     22331     28250     27872     22386     22268     28251
 -1      8295    6    0    1
 -2     20951     20952     20959     21324     23829     23828     23814     27475     27645     27859
 -1      8296    6    0    1
 -2     21339     21336     20959     21549     25039     27331     27681     25522     27334     25816
 -1      8297    6    0    1
 -2     20877     21217     21267     21216     26906     24775     26907     28121     24618     24776
 -1      8298    6    0    1
 -2     21713     21436     21467     21723     27749     22419     26519     26521     28251     26520
 -1      8299    6    0    1
 -2     21236     21286     21549     20930     24834     25505     28347     25503     25502     25507
 -1      8300    6    0    1
 -2     20959     21549     21336     20961     25816     27334     27331     23844     25817     27333
 -1      8301    6    0    1
 -2     21285     21313     21315     21549     24941     24950     24949     27642     25099     27641
 -1      8302    6    0    1
 -2     21378     21520     21553     21534     27175     26050     26687     25297     25420     26688
 -1      8303    6    0    1
 -2     21534     21172     21130     21055     25789     24496     25418     25419     24474     24345
 -1      8304    6    0    1
 -2     21520     21102     20671     20975     27132     27133     27103     26266     24236     27104
 -1      8305    6    0    1
 -2     21333     21549     21315     21337     25152     27641     25030     25034     25151     25031
 -1      8306    6    0    1
 -2     21534     21154     21202     21172     27622     24568     26179     25789     24494     24569
 -1      8307    6    0    1
 -2     21601     21388     21377     21520     26111     22128     25734     26112     26110     25688
 -1      8308    6    0    1
 -2     20701     21730     21676     21719     26222     27019     28372     26224     26225     27405
 -1      8309    6    0    1
 -2     21567     21643     20479     21413     26361     26362     26360     27120     27715     22215
 -1      8310    6    0    1
 -2     20543     20409     20446     21623     21884     21776     22648     25803     25804     27518
 -1      8311    6    0    1
 -2     21735     21038     21692     21591     26928     25271     28269     26931     26574     27858
 -1      8312    6    0    1
 -2     20950     20959     21339     21546     23806     27681     25519     25841     27682     26329
 -1      8313    6    0    1
 -2     21045     21089     21006     21528     24199     24198     24082     25110     25111     25243
 -1      8314    6    0    1
 -2     21076     20703     20662     20623     26926     22958     27214     27125     22966     22790
 -1      8315    6    0    1
 -2     21466     21641     21443     21437     25991     26456     22347     22422     25994     22430
 -1      8316    6    0    1
 -2     21430     20613     20694     20696     27943     22936     25711     25773     22939     22941
 -1      8317    6    0    1
 -2     20778     21170     21188     21126     26141     24529     26142     27620     24464     24530
 -1      8318    6    0    1
 -2     20759     21522     20728     20694     27824     26581     23150     23151     25713     23038
 -1      8319    6    0    1
 -2     21462     20537     21708     21437     22333     27676     28090     22387     22270     27374
 -1      8320    6    0    1
 -2     20704     20623     21551     20663     22960     27167     27165     22959     22832     28295
 -1      8321    6    0    1
 -2     21422     21415     21608     20488     22217     27717     26367     22216     22193     28140
 -1      8322    6    0    1
 -2     20983     20490     21631     21551     23882     26064     28373     28305     25093     26065
 -1      8323    6    0    1
 -2     21050     20743     20739     20675     25806     23105     26984     27030     23104     23093
 -1      8324    6    0    1
 -2     20786     20714     21102     20671     23231     26258     26259     23230     23078     27133
 -1      8325    6    0    1
 -2     21124     21050     20739     21530     24334     26984     26439     25218     25219     27039
 -1      8326    6    0    1
 -2     21361     21403     21578     21530     22150     27643     26345     26348     25500     26347
 -1      8327    6    0    1
 -2     21217     20877     20896     20820     26906     23581     26905     25104     23518     23579
 -1      8328    6    0    1
 -2     21520     20590     20630     20670     27179     22804     26263     26650     22879     22878
 -1      8329    6    0    1
 -2     20988     21525     21029     21610     26771     27419     24044     28240     26920     28354
 -1      8330    6    0    1
 -2     21669     21115     21084     21003     25281     24301     26364     27279     24287     24185
 -1      8331    6    0    1
 -2     20896     21264     21267     21217     28101     24777     26908     26905     24769     24775
 -1      8332    6    0    1
 -2     20630     20714     20591     21520     22994     22993     22835     26263     26351     25546
 -1      8333    6    0    1
 -2     20896     20820     20852     21217     23579     23445     23580     26905     25104     25103
 -1      8334    6    0    1
 -2     20822     20787     20745     21147     23346     23233     23343     27471     27285     25754
 -1      8335    6    0    1
 -2     21212     20896     20852     21217     28100     23580     25472     24619     26905     25103
 -1      8336    6    0    1
 -2     20905     21541     21216     21272     26014     26015     26013     26038     26039     24792
 -1      8337    6    0    1
 -2     20550     21696     20643     21661     28079     28198     22745     27628     28098     28374
 -1      8338    6    0    1
 -2     21149     20694     20759     20775     25976     23151     25399     25397     23195     23197
 -1      8339    6    0    1
 -2     21284     21272     21235     21543     24892     24883     24829     26914     26037     25838
 -1      8340    6    0    1
 -2     21149     21077     21522     20694     24395     25710     26968     25976     25712     25713
 -1      8341    6    0    1
 -2     21461     21436     21723     21467     22386     28251     27872     22445     22419     26520
 -1      8342    6    0    1
 -2     21234     21253     20895     20854     24733     26579     26577     27543     28036     23582
 -1      8343    6    0    1
 -2     21247     21272     21230     21541     24794     24793     24712     26043     26039     28314
 -1      8344    6    0    1
 -2     20896     21212     20903     21264     28100     25492     23603     28101     24768     27689
 -1      8345    6    0    1
 -2     21717     21595     20552     21511     28296     26878     28375     27398     26879     22542
 -1      8346    6    0    1
 -2     21527     20685     20797     20707     27335     23269     27490     27097     22971     23270
 -1      8347    6    0    1
 -2     20781     21527     20797     20707     25088     27490     23271     23216     27097     23270
 -1      8348    6    0    1
 -2     21717     21511     20552     20551     27398     22542     28375     27634     22541     21893
 -1      8349    6    0    1
 -2     21605     20504     20503     21469     28156     21843     27488     27487     22358     22357
 -1      8350    6    0    1
 -2     21518     21161     20765     20697     27265     25108     27271     27476     25106     23166
 -1      8351    6    0    1
 -2     20761     21523     21141     21524     28304     25238     27544     25356     27297     28345
 -1      8352    6    0    1
 -2     21447     20504     21605     21469     22297     28156     28311     22378     22358     27487
 -1      8353    6    0    1
 -2     21333     21549     21550     20957     25152     25150     25149     27594     27711     25832
 -1      8354    6    0    1
 -2     20676     20717     21599     20596     23079     25253     25653     22891     23002     27516
 -1      8355    6    0    1
 -2     21279     20915     21549     20935     27685     27686     27640     27777     23722     27710
 -1      8356    6    0    1
 -2     20800     20806     20860     21540     23300     23466     23465     25194     25195     25126
 -1      8357    6    0    1
 -2     21212     20896     20903     20852     28100     23603     25492     25472     23580     23600
 -1      8358    6    0    1
 -2     21236     20930     21549     20915     25503     25507     28347     28322     23701     27686
 -1      8359    6    0    1
 -2     21279     20935     21549     21315     27777     27710     27640     24948     27709     27641
 -1      8360    6    0    1
 -2     20915     20935     20948     21549     23722     23781     23768     27686     27710     25511
 -1      8361    6    0    1
 -2     21067     21525     21029     20988     26769     27419     24139     24140     26771     24044
 -1      8362    6    0    1
 -2     21725     20566     21498     21477     27054     22504     27050     28327     22453     22505
 -1      8363    6    0    1
 -2     20766     21525     21069     21179     26938     27696     27044     26648     27549     24510
 -1      8364    6    0    1
 -2     20565     21725     21477     20566     27969     28327     22454     21908     27054     22453
 -1      8365    6    0    1
 -2     20966     21528     20566     21006     27252     27055     23933     24024     25243     23930
 -1      8366    6    0    1
 -2     21171     20804     20746     20837     25299     23292     27639     28267     23386     23385
 -1      8367    6    0    1
 -2     21384     21537     21614     21353     26117     27209     27962     22008     28187     28084
 -1      8368    6    0    1
 -2     20465     20464     21360     21579     21795     21952     21951     26165     27535     26163
 -1      8369    6    0    1
 -2     21527     20797     20851     20832     27490     23438     26888     27491     23371     23439
 -1      8370    6    0    1
 -2     21118     21209     21539     21228     24592     27523     26508     24653     24669     26485
 -1      8371    6    0    1
 -2     21254     20897     20874     20824     25661     23584     27248     25416     23583     23509
 -1      8372    6    0    1
 -2     20988     21467     21716     21610     26522     26894     25749     28240     27147     27150
 -1      8373    6    0    1
 -2     21609     21528     21045     20567     28094     25110     27674     27867     25244     24022
 -1      8374    6    0    1
 -2     21669     21527     21493     21481     25280     25480     25478     28011     25484     22593
 -1      8375    6    0    1
 -2     20881     21239     21294     20933     25904     24867     28342     23712     25225     25824
 -1      8376    6    0    1
 -2     21669     21527     21481     21671     25280     25484     28011     27905     26009     26044
 -1      8377    6    0    1
 -2     20845     20849     21182     20760     23430     27635     27648     23410     23428     27062
 -1      8378    6    0    1
 -2     21384     21537     21353     21381     26117     28187     22008     22131     27716     22129
 -1      8379    6    0    1
 -2     21265     20879     20810     21283     26822     23523     27633     24837     25361     25359
 -1      8380    6    0    1
 -2     20933     21239     20893     20881     25225     27982     23711     23712     25904     23641
 -1      8381    6    0    1
 -2     21484     21652     21698     20580     28070     27230     28376     22467     28377     27436
 -1      8382    6    0    1
 -2     21484     20580     21698     21506     22467     27436     28376     22599     22527     27131
 -1      8383    6    0    1
 -2     21609     21536     21045     21528     27675     25075     27674     28094     25112     25110
 -1      8384    6    0    1
 -2     20548     21495     21691     20549     22497     25306     27390     21890     22498     27938
 -1      8385    6    0    1
 -2     21524     21220     21175     21173     26279     24626     26277     25355     24625     24491
 -1      8386    6    0    1
 -2     20776     20819     21210     20799     23336     26457     26458     23314     23422     26496
 -1      8387    6    0    1
 -2     21175     21220     20817     21206     24626     25147     27672     24580     24666     25145
 -1      8388    6    0    1
 -2     21463     20514     21650     20513     22338     28270     25286     22350     21853     28378
 -1      8389    6    0    1
 -2     21730     21463     21650     21676     26273     25286     26215     27019     27404     27018
 -1      8390    6    0    1
 -2     21669     21481     21493     21502     28011     22593     25478     26717     22570     22594
 -1      8391    6    0    1
 -2     20753     20746     20682     21526     23134     23113     23132     26703     27557     26702
 -1      8392    6    0    1
 -2     21713     21028     21657     20536     27976     25595     27748     27751     23986     27750
 -1      8393    6    0    1
 -2     20850     21159     21155     20798     27010     24428     28290     23433     25292     25290
 -1      8394    6    0    1
 -2     20746     20804     21171     21526     23292     25299     27639     27557     25301     25302
 -1      8395    6    0    1
 -2     20510     21634     20511     21444     26851     28328     21850     22291     27496     22292
 -1      8396    6    0    1
 -2     20806     20744     21540     20741     23299     25488     25195     23298     23109     25196
 -1      8397    6    0    1
 -2     21685     21402     21372     20436     26424     22091     27291     27925     22054     21979
 -1      8398    6    0    1
 -2     20676     21519     20717     20737     25654     25252     23079     23089     27536     23090
 -1      8399    6    0    1
 -2     20737     20744     20676     21519     23212     23108     23089     27536     27569     25654
 -1      8400    6    0    1
 -2     21135     20744     21540     20815     27593     25488     27369     27371     23323     25489
 -1      8401    6    0    1
 -2     20554     21510     20553     21662     22540     22539     21895     27688     26601     28045
 -1      8402    6    0    1
 -2     20893     21239     20817     20881     27982     25146     23570     23641     25904     23531
 -1      8403    6    0    1
 -2     20699     21525     20729     20766     25460     27422     23047     23170     26938     23171
 -1      8404    6    0    1
 -2     21280     20871     20910     21243     28355     23624     27607     24819     25927     26296
 -1      8405    6    0    1
 -2     21481     21493     21662     21527     22593     26658     25482     25484     25480     25483
 -1      8406    6    0    1
 -2     21228     21209     21539     21253     24669     27523     26485     24738     24732     28066
 -1      8407    6    0    1
 -2     21669     21502     21493     21511     26717     22594     25478     25479     22606     22557
 -1      8408    6    0    1
 -2     21155     21178     20841     21153     24508     25668     28167     24506     24507     25667
 -1      8409    6    0    1
 -2     21221     21159     21234     20850     24629     24784     24901     28216     27010     28215
 -1      8410    6    0    1
 -2     20841     20798     21155     20785     23441     25290     28167     23436     23291     28169
 -1      8411    6    0    1
 -2     21555     21528     21609     21496     25237     28094     27678     25235     25234     28247
 -1      8412    6    0    1
 -2     21528     21638     20681     21536     28365     28379     28093     25112     26535     26747
 -1      8413    6    0    1
 -2     21638     21528     20681     20639     28365     28093     28379     28364     28092     22904
 -1      8414    6    0    1
 -2     20632     21628     21674     20429     28370     27802     28369     22720     27798     26239
 -1      8415    6    0    1
 -2     21685     20635     21578     20435     27923     28058     26425     27924     22726     26127
 -1      8416    6    0    1
 -2     21504     21563     21715     21509     27316     27314     27315     22591     26694     28147
 -1      8417    6    0    1
 -2     21539     21253     21232     21228     28066     24740     27548     26485     24738     24672
 -1      8418    6    0    1
 -2     21504     21509     21715     21482     22591     28147     27315     22554     22592     28260
 -1      8419    6    0    1
 -2     20828     21140     20796     20846     28201     27303     23362     23476     27059     23415
 -1      8420    6    0    1
 -2     20979     21614     21690     20450     27208     28188     28368     23872     28184     28221
 -1      8421    6    0    1
 -2     21698     21080     21113     21039     25909     24315     27775     26910     24176     24278
 -1      8422    6    0    1
 -2     20885     20865     20926     21231     23544     23685     23687     25393     25640     25392
 -1      8423    6    0    1
 -2     21636     21686     21706     20723     27365     28126     26758     26760     28127     26759
 -1      8424    6    0    1
 -2     21383     21690     20450     20449     26435     28221     22006     22004     27836     21780
 -1      8425    6    0    1
 -2     21168     20769     21532     21531     25247     28225     25801     25732     25733     27454
 -1      8426    6    0    1
 -2     20812     21543     20866     20821     26948     25769     23485     23423     26950     23484
 -1      8427    6    0    1
 -2     20829     21162     21205     21187     27318     24578     27869     27623     24527     24594
 -1      8428    6    0    1
 -2     21244     21250     21295     21543     24723     24870     24869     25839     25401     25596
 -1      8429    6    0    1
 -2     21191     21260     20863     20868     24755     26260     28380     25462     26863     23551
 -1      8430    6    0    1
 -2     21005     20568     21609     21045     23928     27866     27673     24058     24023     27674
 -1      8431    6    0    1
 -2     20803     21191     20863     20868     25461     28380     23478     23490     25462     23551
 -1      8432    6    0    1
 -2     21547     21326     21317     21288     26120     24985     25183     25682     24984     24962
 -1      8433    6    0    1
 -2     21548     21327     20964     20960     25335     25350     25693     27656     28381     23826
 -1      8434    6    0    1
 -2     21547     20879     20918     21548     25679     23653     25343     25346     28237     25345
 -1      8435    6    0    1
 -2     21185     20868     20855     21261     27763     23491     25382     24758     26864     27886
 -1      8436    6    0    1
 -2     21548     20960     20964     20945     27656     23826     25693     25694     23815     23823
 -1      8437    6    0    1
 -2     21560     21393     21578     21361     25387     27013     26344     25386     22083     26345
 -1      8438    6    0    1
 -2     21260     20863     21177     21191     26260     25645     24754     24755     28380     24539
 -1      8439    6    0    1
 -2     21276     20964     21314     20963     25349     28206     24944     27348     23825     27341
 -1      8440    6    0    1
 -2     21314     20953     20963     20964     26148     23839     27341     28206     23838     23825
 -1      8441    6    0    1
 -2     20904     20936     21550     20909     23723     25783     25782     23621     23724     27587
 -1      8442    6    0    1
 -2     20742     20769     20673     21532     23229     23180     23101     25800     28225     25615
 -1      8443    6    0    1
 -2     20965     20958     21550     20947     23831     25831     25830     23830     23803     25784
 -1      8444    6    0    1
 -2     20748     20716     20674     21530     23116     23067     23117     25515     26303     26301
 -1      8445    6    0    1
 -2     21541     20844     20814     20858     26675     23420     27744     27056     23459     23458
 -1      8446    6    0    1
 -2     21403     21626     20433     20434     25881     25882     22055     22056     26310     21763
 -1      8447    6    0    1
 -2     20846     20796     21734     21140     23415     27903     27058     27059     27303     26656
 -1      8448    6    0    1
 -2     21232     20898     20816     21189     25977     23586     27605     24673     25973     26513
 -1      8449    6    0    1
 -2     20816     20898     21232     20895     23586     25977     27605     23577     23587     27754
 -1      8450    6    0    1
 -2     21571     21374     21403     20433     25608     22121     25499     25879     21984     22055
 -1      8451    6    0    1
 -2     21227     20782     21202     20856     27555     27416     24651     26952     23454     27417
 -1      8452    6    0    1
 -2     20580     21484     21652     20579     22467     28070     28377     21922     22468     27251
 -1      8453    6    0    1
 -2     21083     20687     20606     20723     26783     22919     27855     26784     23018     23017
 -1      8454    6    0    1
 -2     21538     20788     20724     21535     26466     23235     28209     26870     26871     26398
 -1      8455    6    0    1
 -2     21538     20996     21727     21081     26353     26636     26531     26307     24178     26532
 -1      8456    6    0    1
 -2     20950     21546     21339     21550     25841     26329     25519     25521     26945     25520
 -1      8457    6    0    1
 -2     20556     21491     21701     21612     22489     27795     27108     27877     26709     27879
 -1      8458    6    0    1
 -2     21701     21491     21737     21612     27795     28073     26722     27879     26709     28192
 -1      8459    6    0    1
 -2     20957     20958     20962     21549     23841     23832     23819     27711     25351     25352
 -1      8460    6    0    1
 -2     21191     21261     21260     20868     24757     24759     24755     25462     26864     26863
 -1      8461    6    0    1
 -2     20877     21216     21267     21272     28121     24776     26907     27414     24792     24795
 -1      8462    6    0    1
 -2     21567     20517     21346     21720     25781     22280     27863     27121     25675     25676
 -1      8463    6    0    1
 -2     21484     21616     20579     21505     28071     27204     22468     22563     27429     22523
 -1      8464    6    0    1
 -2     20951     21324     21304     21296     27475     24980     27473     28115     24979     24905
 -1      8465    6    0    1
 -2     20563     21488     20562     21656     22481     22482     21904     28382     27116     28383
 -1      8466    6    0    1
 -2     21320     21329     21325     21545     25008     25006     25007     25367     25525     27330
 -1      8467    6    0    1
 -2     20506     21695     20507     21446     28025     28384     21846     22295     28043     22296
 -1      8468    6    0    1
 -2     21494     21512     21714     21501     22558     26989     28106     22590     22607     28109
 -1      8469    6    0    1
 -2     21050     21143     21124     20743     24379     24381     24334     25806     27286     26983
 -1      8470    6    0    1
 -2     21325     21545     21303     21312     27330     25717     24983     25001     25718     24940
 -1      8471    6    0    1
 -2     20517     21720     20479     20411     25675     27122     22697     21857     25677     21813
 -1      8472    6    0    1
 -2     21529     20589     20668     20708     27631     22873     25414     27338     22972     22975
 -1      8473    6    0    1
 -2     20918     20922     20940     21548     23674     23739     23738     25345     27657     25347
 -1      8474    6    0    1
 -2     20668     20790     21529     20708     23241     25412     25414     22975     23242     27338
 -1      8475    6    0    1
 -2     21276     20964     20946     20945     25349     23824     25169     25170     23823     23761
 -1      8476    6    0    1
 -2     21557     21409     21379     20422     27571     22098     25272     25273     22068     21993
 -1      8477    6    0    1
 -2     21097     21013     20970     21519     24225     24030     24226     26159     26046     27806
 -1      8478    6    0    1
 -2     20666     20628     21557     21529     22868     27922     27236     27237     27337     25274
 -1      8479    6    0    1
 -2     21531     21530     20748     20674     25514     25515     25513     26100     26301     23117
 -1      8480    6    0    1
 -2     21531     20674     20748     20740     26100     23117     25513     26101     23095     23118
 -1      8481    6    0    1
 -2     21649     21531     21565     21391     26557     26338     27452     26554     26339     26337
 -1      8482    6    0    1
 -2     21409     20421     21557     21380     22067     27572     27571     22113     21996     28138
 -1      8483    6    0    1
 -2     21670     21607     21557     21057     28210     28159     27282     27283     25635     27239
 -1      8484    6    0    1
 -2     21064     20734     20784     20763     27159     23258     27182     27183     23160     23259
 -1      8485    6    0    1
 -2     21516     20492     21577     21418     26597     26103     27513     27997     22200     26102
 -1      8486    6    0    1
 -2     21045     20568     21609     20567     24023     27866     27674     24022     21910     27867
 -1      8487    6    0    1
 -2     21497     21693     20545     21528     28020     26584     22502     27053     26567     25809
 -1      8488    6    0    1
 -2     21488     21656     21710     20562     27116     27853     27852     22482     28383     28257
 -1      8489    6    0    1
 -2     21411     21352     21621     21690     22169     25637     27977     26436     26437     27759
 -1      8490    6    0    1
 -2     20681     21536     21638     20721     26747     26535     28379     23082     26990     27733
 -1      8491    6    0    1
 -2     21528     21665     21638     21397     26569     28366     28365     28144     28217     26537
 -1      8492    6    0    1
 -2     21528     21397     21638     21536     28144     26537     28365     25112     26538     26535
 -1      8493    6    0    1
 -2     21197     20826     21246     21195     27964     28072     24707     24556     28001     24706
 -1      8494    6    0    1
 -2     20643     20686     21661     21696     22916     28097     28374     28198     28099     28098
 -1      8495    6    0    1
 -2     20600     20639     20641     21528     22844     22896     22739     26568     28092     26545
 -1      8496    6    0    1
 -2     20793     21540     21147     20787     25768     26664     25084     23251     27874     27285
 -1      8497    6    0    1
 -2     21047     21536     21116     21088     25867     25076     24482     24454     25869     24312
 -1      8498    6    0    1
 -2     21567     20517     20479     20622     25781     22697     26360     26201     22695     22699
 -1      8499    6    0    1
 -2     21535     20724     20691     20788     26398     23034     27561     26871     23235     23237
 -1      8500    6    0    1
 -2     21649     21391     21565     21359     26554     26337     27452     27797     22081     26804
 -1      8501    6    0    1
 -2     21571     21374     21360     21392     25608     22149     27441     25496     22132     22082
 -1      8502    6    0    1
 -2     21571     20432     21374     20433     27786     21983     25608     25879     21762     21984
 -1      8503    6    0    1
 -2     21531     20740     20748     21125     26101     23118     25513     25874     27926     25228
 -1      8504    6    0    1
 -2     21194     20810     21215     21283     26856     26817     24612     24827     25359     24828
 -1      8505    6    0    1
 -2     20617     21695     21584     20507     28385     28361     28248     22685     28384     26271
 -1      8506    6    0    1
 -2     21070     21159     20795     20798     24427     27011     27192     25291     25292     23277
 -1      8507    6    0    1
 -2     21070     20798     20701     20733     25291     23276     27191     27461     23278     23057
 -1      8508    6    0    1
 -2     20918     20879     20883     21548     23653     23537     23654     25345     28237     25201
 -1      8509    6    0    1
 -2     20691     20652     21622     20612     22928     26429     27736     22927     22851     25796
 -1      8510    6    0    1
 -2     21265     20810     21194     21283     27633     26856     24772     24837     25359     24827
 -1      8511    6    0    1
 -2     20667     20735     21106     20770     23068     27845     26977     23182     23211     25303
 -1      8512    6    0    1
 -2     21283     20810     20808     20862     25359     23310     25185     25360     23475     23474
 -1      8513    6    0    1
 -2     21648     21499     21609     20568     25445     27862     27679     27840     22507     27866
 -1      8514    6    0    1
 -2     20984     21517     20985     21007     27917     28031     24136     24026     28386     23980
 -1      8515    6    0    1
 -2     21517     20487     20486     21007     27994     21822     25577     28386     23976     23935
 -1      8516    6    0    1
 -2     20984     20488     21660     21608     23884     27574     28234     27915     28140     26368
 -1      8517    6    0    1
 -2     21425     21517     21421     21415     26055     27719     22232     22238     27141     22242
 -1      8518    6    0    1
 -2     20487     21517     20984     21007     27994     27917     23883     23976     28386     24026
 -1      8519    6    0    1
 -2     20487     21608     20984     21517     28139     27915     23883     27994     27718     27917
 -1      8520    6    0    1
 -2     21283     20862     20808     21257     25360     23474     25185     24848     27654     25186
 -1      8521    6    0    1
 -2     20506     20617     20507     21695     22686     22685     21846     28025     28385     28384
 -1      8522    6    0    1
 -2     21722     21422     21421     21660     28062     22239     27784     28104     26369     26371
 -1      8523    6    0    1
 -2     21422     20488     21608     21660     22216     28140     26367     26369     27574     26368
 -1      8524    6    0    1
 -2     20416     20415     21681     21412     21745     28387     26884     22074     22073     28388
 -1      8525    6    0    1
 -2     21105     21537     21539     21059     25589     25590     25588     24309     27077     26418
 -1      8526    6    0    1
 -2     21382     20416     21681     21412     21999     26884     26886     22101     22074     28388
 -1      8527    6    0    1
 -2     21559     21672     21350     21385     25114     25814     27826     25376     27835     22126
 -1      8528    6    0    1
 -2     20984     21608     20487     20488     27915     28139     23883     23884     28140     21823
 -1      8529    6    0    1
 -2     20488     20984     21660     21025     23884     28234     27574     23973     24085     27941
 -1      8530    6    0    1
 -2     21675     21517     21608     21421     26056     27718     27914     27003     27719     26370
 -1      8531    6    0    1
 -2     21311     20931     21289     21294     26138     27235     24936     24933     27589     24868
 -1      8532    6    0    1
 -2     20924     21294     20933     20881     27588     25824     23753     23681     28342     23712
 -1      8533    6    0    1
 -2     21061     21093     20704     21164     24356     26097     26095     24445     24444     28176
 -1      8534    6    0    1
 -2     21386     21557     21607     21380     26280     28159     26203     22147     28138     25724
 -1      8535    6    0    1
 -2     21257     21294     20924     20881     24866     27588     27463     27655     28342     23681
 -1      8536    6    0    1
 -2     21076     20984     21660     21675     24165     28234     27160     27163     27916     27162
 -1      8537    6    0    1
 -2     20617     21525     21584     21695     27423     27392     28248     28385     28272     28361
 -1      8538    6    0    1
 -2     21535     21151     21078     21110     26872     24403     26029     26019     24402     24270
 -1      8539    6    0    1
 -2     20582     21682     20998     21705     27106     26727     23914     28032     27995     27993
 -1      8540    6    0    1
 -2     21038     21591     21682     20583     26574     26575     26572     24006     26613     27105
 -1      8541    6    0    1
 -2     20800     20787     21540     20793     23455     27874     25194     23477     23251     25768
 -1      8542    6    0    1
 -2     21596     20525     21431     21456     26899     22258     26896     28012     22321     22392
 -1      8543    6    0    1
 -2     21691     21586     21714     20680     27937     28088     28142     25318     28389     28143
 -1      8544    6    0    1
 -2     21568     21693     21665     20600     27989     26566     27770     28390     26564     26565
 -1      8545    6    0    1
 -2     21596     21456     21431     21522     28012     22392     26896     28289     26507     27288
 -1      8546    6    0    1
 -2     21527     21526     21086     21176     25487     26011     26010     27447     25300     24502
 -1      8547    6    0    1
 -2     20452     21607     20453     20978     27667     28181     21783     23870     25165     23871
 -1      8548    6    0    1
 -2     21596     21522     21431     21647     28289     27288     26896     26898     25741     26897
 -1      8549    6    0    1
 -2     21537     20626     20418     20587     25396     22707     27078     27957     22786     22621
 -1      8550    6    0    1
 -2     21654     21648     21499     20642     25215     25445     25444     25216     25213     25566
 -1      8551    6    0    1
 -2     21334     21293     21548     21316     25016     27599     27598     25018     24954     27350
 -1      8552    6    0    1
 -2     21505     21616     21508     21484     27429     27128     22595     22563     28071     22597
 -1      8553    6    0    1
 -2     21654     20642     21499     21688     25216     25566     25444     25465     25568     25467
 -1      8554    6    0    1
 -2     21109     21088     21648     20722     24288     25551     25549     27443     26998     25229
 -1      8555    6    0    1
 -2     21108     21085     20688     20777     24284     27999     25988     25996     26626     23202
 -1      8556    6    0    1
 -2     21722     21660     21421     21675     28104     26371     27784     27782     27162     27003
 -1      8557    6    0    1
 -2     21119     21085     21108     20777     24321     24284     24322     26160     26626     25996
 -1      8558    6    0    1
 -2     21675     21076     20662     20623     27163     27214     28391     27164     27125     22790
 -1      8559    6    0    1
 -2     20978     21607     20453     21670     25165     28181     23871     28211     28210     28227
 -1      8560    6    0    1
 -2     20839     21241     21180     21208     27508     24694     26400     27509     24693     24589
 -1      8561    6    0    1
 -2     20827     21125     21531     21168     28103     25874     25731     25245     24466     25732
 -1      8562    6    0    1
 -2     20722     20680     21561     21109     23066     25317     28392     27443     26488     28117
 -1      8563    6    0    1
 -2     20836     20883     21281     20845     23535     25200     27638     23411     23536     26604
 -1      8564    6    0    1
 -2     21470     21431     21647     21457     22433     26897     27102     22432     22370     26524
 -1      8565    6    0    1
 -2     21479     21691     20602     21654     25309     25315     28002     25310     25307     25217
 -1      8566    6    0    1
 -2     20783     21104     20669     21537     27705     27540     23224     25442     26186     27801
 -1      8567    6    0    1
 -2     20793     20787     21147     21087     23251     27285     25084     25085     28287     24392
 -1      8568    6    0    1
 -2     21540     20793     21166     21123     25768     25086     26616     26618     25089     24451
 -1      8569    6    0    1
 -2     21327     20960     21548     21321     28381     27656     25335     25019     26947     25324
 -1      8570    6    0    1
 -2     20481     20623     21722     21675     22701     28105     27781     27783     27164     27782
 -1      8571    6    0    1
 -2     21586     21691     20602     20680     27937     25315     28393     28389     25318     22901
 -1      8572    6    0    1
 -2     21158     20749     21117     20843     26713     26714     24424     27704     23404     27703
 -1      8573    6    0    1
 -2     20587     20626     20705     21537     22786     22962     22961     27957     25396     25394
 -1      8574    6    0    1
 -2     21687     21569     20441     20598     26389     27021     27020     26653     27979     22642
 -1      8575    6    0    1
 -2     20671     21054     20772     21533     27669     28214     23187     27581     25561     26281
 -1      8576    6    0    1
 -2     21539     20774     20816     20819     26292     23328     25493     25494     23335     23337
 -1      8577    6    0    1
 -2     21053     21533     21138     21101     27360     27521     24366     24255     25562     24365
 -1      8578    6    0    1
 -2     21533     20738     20713     20672     26283     23092     27582     27361     23091     22995
 -1      8579    6    0    1
 -2     21120     20799     21210     21178     26477     26496     24596     24521     25666     24595
 -1      8580    6    0    1
 -2     20839     21241     20880     21180     27508     28229     23527     26400     24694     28285
 -1      8581    6    0    1
 -2     21665     20443     20444     20639     28331     21773     28218     28367     22734     22733
 -1      8582    6    0    1
 -2     21104     21537     21668     21410     26186     26118     27901     25163     26116     26115
 -1      8583    6    0    1
 -2     20783     20669     20665     21537     23224     22876     23222     25442     27801     25441
 -1      8584    6    0    1
 -2     21669     21003     21084     21042     27279     24185     26364     27907     24079     24186
 -1      8585    6    0    1
 -2     21532     20769     20673     21531     28225     23180     25615     27454     25733     27451
 -1      8586    6    0    1
 -2     20742     20769     21168     20801     23229     25247     25798     23285     23284     25246
 -1      8587    6    0    1
 -2     21555     21496     21609     21499     25235     28247     27678     25564     22584     27862
 -1      8588    6    0    1
 -2     21177     20811     20803     20863     25643     23313     27261     25645     23479     23478
 -1      8589    6    0    1
 -2     21177     20863     20803     21191     25645     23478     27261     24539     28380     25461
 -1      8590    6    0    1
 -2     20855     20834     21185     20847     23452     25337     25382     23451     23434     25338
 -1      8591    6    0    1
 -2     20742     20801     21168     21148     23285     25246     25798     25799     27624     24484
 -1      8592    6    0    1
 -2     20681     20721     21638     20599     23082     27733     28379     23013     23011     27732
 -1      8593    6    0    1
 -2     20739     20716     21530     20675     23094     26303     27039     23093     23081     27023
 -1      8594    6    0    1
 -2     20960     20964     20954     21327     23826     23836     23835     28381     25350     27646
 -1      8595    6    0    1
 -2     21138     21162     20847     20757     24439     27519     25339     25786     25787     23416
 -1      8596    6    0    1
 -2     20441     21569     20440     20598     27021     26891     21770     22642     27979     22643
 -1      8597    6    0    1
 -2     21170     21543     20812     21188     25631     26948     26139     24529     26949     26140
 -1      8598    6    0    1
 -2     21543     21188     21170     21218     26949     24529     25631     25632     24667     24621
 -1      8599    6    0    1
 -2     21539     20711     21059     21537     26291     27552     26418     25590     25395     27077
 -1      8600    6    0    1
 -2     20536     20987     21708     20537     23890     28319     28089     21877     23891     27676
 -1      8601    6    0    1
 -2     20691     20727     21535     20771     23072     26518     27561     23185     23184     27714
 -1      8602    6    0    1
 -2     21227     20856     20790     20782     26952     23463     27219     27555     23454     23243
 -1      8603    6    0    1
 -2     20953     21327     20954     20964     28244     27646     23790     23838     25350     23836
 -1      8604    6    0    1
 -2     20836     20879     21265     20883     23524     26822     27632     23535     23537     25199
 -1      8605    6    0    1
 -2     21155     21153     20841     20763     24506     25667     28167     28168     27184     23419
 -1      8606    6    0    1
 -2     21577     20667     21060     21516     28048     26978     27514     27513     25232     26212
 -1      8607    6    0    1
 -2     21430     20696     20694     21077     25773     22941     25711     25706     25775     25712
 -1      8608    6    0    1
 -2     21518     21046     21073     21032     26152     24157     28183     26153     24095     24155
 -1      8609    6    0    1
 -2     20836     21213     21281     21265     26672     24821     27638     27632     24771     24822
 -1      8610    6    0    1
 -2     21229     20760     20765     20845     27650     23168     27580     27649     23410     23409
 -1      8611    6    0    1
 -2     21516     20667     20770     20706     25232     23182     28052     25230     23062     23183
 -1      8612    6    0    1
 -2     21695     21597     20656     21524     28024     27603     28394     28243     27604     27145
 -1      8613    6    0    1
 -2     21529     21156     21094     21131     27955     24414     27483     26682     24417     24348
 -1      8614    6    0    1
 -2     21529     20666     20805     21057     27237     23295     26680     26681     27238     26188
 -1      8615    6    0    1
 -2     21224     20790     21529     21156     27187     25412     28275     24641     27584     27955
 -1      8616    6    0    1
 -2     20861     20802     20842     21541     23471     23402     23472     26676     26677     27695
 -1      8617    6    0    1
 -2     21541     20858     20814     21543     27056     23458     27744     26036     27057     27743
 -1      8618    6    0    1
 -2     21163     21230     21117     21541     24661     24660     24443     27258     28314     28122
 -1      8619    6    0    1
 -2     21230     21272     21216     21541     24793     24792     24663     28314     26039     26015
 -1      8620    6    0    1
 -2     21218     21543     21188     21244     25632     26949     24667     24700     25839     24701
 -1      8621    6    0    1
 -2     21218     21235     21541     21543     24680     28189     28005     25632     25838     26036
 -1      8622    6    0    1
 -2     20987     21708     20537     21027     28319     27676     23891     24089     28395     23983
 -1      8623    6    0    1
 -2     21516     20784     21120     21090     27232     25327     27570     26109     25328     24357
 -1      8624    6    0    1
 -2     21550     21297     20904     21543     25430     26206     25782     26944     25597     26205
 -1      8625    6    0    1
 -2     21309     21327     20954     20953     25020     27646     25319     26150     28244     23790
 -1      8626    6    0    1
 -2     21665     20445     21568     20600     27771     27277     27770     26565     22646     28390
 -1      8627    6    0    1
 -2     21104     20978     21668     21021     24242     27664     27901     24241     24038     27902
 -1      8628    6    0    1
 -2     20761     21523     21128     21141     28304     25097     28326     27544     25238     24376
 -1      8629    6    0    1
 -2     20960     21321     21327     20954     26947     25019     28381     23835     25320     27646
 -1      8630    6    0    1
 -2     20820     20777     21158     20749     23339     27984     25945     23338     23203     26713
 -1      8631    6    0    1
 -2     21708     20701     21657     21466     27372     28074     28091     27376     25990     28056
 -1      8632    6    0    1
 -2     21257     21239     20881     21220     24746     25904     27655     24745     24689     25905
 -1      8633    6    0    1
 -2     21548     21322     21321     20955     25326     25021     25324     27225     25160     25161
 -1      8634    6    0    1
 -2     21261     20868     20855     20901     26864     23491     27886     26867     23596     23595
 -1      8635    6    0    1
 -2     21245     21200     20872     21187     24704     25363     26076     24703     24564     25364
 -1      8636    6    0    1
 -2     20987     21027     20701     21708     24089     26223     28320     28319     28395     27372
 -1      8637    6    0    1
 -2     20820     21217     20877     21216     25104     26906     23518     25946     24618     28121
 -1      8638    6    0    1
 -2     21582     21036     21110     20995     28082     24271     26018     28396     24051     24269
 -1      8639    6    0    1
 -2     20855     20901     21268     21261     23595     27597     26470     27886     26867     24791
 -1      8640    6    0    1
 -2     20915     21279     21268     20901     27685     24816     26469     23638     26866     27597
 -1      8641    6    0    1
 -2     20930     21549     20948     20941     25507     25511     23767     23742     25506     23769
 -1      8642    6    0    1
 -2     20939     20961     21329     21549     23811     26964     25529     27321     25817     26467
 -1      8643    6    0    1
 -2     20938     21296     20897     20925     25657     25685     23731     23732     27395     23684
 -1      8644    6    0    1
 -2     21673     20637     21707     21569     28351     28352     28350     25193     28397     27779
 -1      8645    6    0    1
 -2     20907     20917     20900     21544     23649     23703     23659     26630     27080     26649
 -1      8646    6    0    1
 -2     21548     20955     21321     20960     27225     25161     25324     27656     23816     26947
 -1      8647    6    0    1
 -2     21730     20701     21676     20620     26222     28372     27019     27016     22951     27017
 -1      8648    6    0    1
 -2     21306     21338     21548     21316     25035     25325     25695     24955     25036     27350
 -1      8649    6    0    1
 -2     21548     21338     21334     21316     25325     25037     27598     27350     25036     25018
 -1      8650    6    0    1
 -2     20714     21520     21130     21102     26351     25421     26257     26258     27132     24346
 -1      8651    6    0    1
 -2     20736     20825     21204     20780     23351     25620     27310     23215     23352     25622
 -1      8652    6    0    1
 -2     20960     20955     20940     21548     23816     23793     23809     27656     27225     25347
 -1      8653    6    0    1
 -2     20489     21551     20490     20983     25092     25093     21825     23881     28305     23882
 -1      8654    6    0    1
 -2     21707     20439     20440     20637     27661     21769     27778     28352     22730     22729
 -1      8655    6    0    1
 -2     21668     21021     20978     20452     27902     24038     27664     27665     23963     23870
 -1      8656    6    0    1
 -2     20734     20704     21551     20663     23069     27165     27180     23061     22959     28295
 -1      8657    6    0    1
 -2     20983     21551     21631     21064     28305     26065     28373     24131     27065     27066
 -1      8658    6    0    1
 -2     21722     21422     21660     21551     28062     26369     28104     28063     28064     28306
 -1      8659    6    0    1
 -2     20489     21551     21660     21422     25092     28306     27573     22218     28064     26369
 -1      8660    6    0    1
 -2     21414     21517     21680     21413     25580     27386     25128     22191     28003     26839
 -1      8661    6    0    1
 -2     21440     20542     21552     20412     22276     26889     28340     22275     21883     27082
 -1      8662    6    0    1
 -2     21347     21440     21552     20412     22278     28340     25132     21812     22275     27082
 -1      8663    6    0    1
 -2     21414     21413     21680     21347     22191     26839     25128     22190     22187     25129
 -1      8664    6    0    1
 -2     20519     20996     21704     21679     23909     28321     26825     26827     26232     26826
 -1      8665    6    0    1
 -2     21561     21479     21691     20602     25438     25309     25314     25316     28002     25315
 -1      8666    6    0    1
 -2     21667     21387     21553     21534     27954     25143     28230     27956     26689     26688
 -1      8667    6    0    1
 -2     21553     20457     20976     21520     26048     23867     25584     26050     26051     27411
 -1      8668    6    0    1
 -2     21553     20456     20976     20457     25144     23866     25584     26048     21787     23867
 -1      8669    6    0    1
 -2     20976     21534     21553     21520     27412     26688     25584     27411     25420     26050
 -1      8670    6    0    1
 -2     21019     21534     21553     20976     26242     26688     25583     24036     27412     25584
 -1      8671    6    0    1
 -2     21012     20969     21554     20470     24029     28349     28398     23945     23852     25209
 -1      8672    6    0    1
 -2     21519     21554     21012     20969     26313     28398     26868     28324     28349     24029
 -1      8673    6    0    1
 -2     21677     21519     20636     20597     28341     27727     28337     28399     28371     22841
 -1      8674    6    0    1
 -2     21554     20969     20471     20470     28349     23853     27816     25209     23852     21801
 -1      8675    6    0    1
 -2     21363     20471     21625     21395     21957     25826     27818     22085     22034     25825
 -1      8676    6    0    1
 -2     21677     20969     21625     21554     28335     28336     28219     27960     28349     27817
 -1      8677    6    0    1
 -2     21363     21395     21625     21371     22085     25825     27818     22185     22158     28268
 -1      8678    6    0    1
 -2     21027     21719     20538     21602     26226     27827     23984     25671     26274     27828
 -1      8679    6    0    1
 -2     21555     20601     21536     21528     25599     26746     26382     25237     25598     25112
 -1      8680    6    0    1
 -2     21555     20546     20547     20601     25236     21888     25582     25599     22652     22651
 -1      8681    6    0    1
 -2     20547     20642     21555     20601     22744     25565     25582     22651     22814     25599
 -1      8682    6    0    1
 -2     21673     21569     21707     21395     25193     27779     28350     25828     28308     26972
 -1      8683    6    0    1
 -2     21555     20642     21536     20601     25565     26384     26382     25599     22814     26746
 -1      8684    6    0    1
 -2     20654     20614     21556     20501     22824     28276     25065     22771     22679     25261
 -1      8685    6    0    1
 -2     21653     20502     21556     21448     25691     25692     25066     27339     22299     25575
 -1      8686    6    0    1
 -2     20654     20501     21556     20502     22771     25261     25065     22770     21841     25692
 -1      8687    6    0    1
 -2     21653     21448     21556     21518     27339     25575     25066     25063     25574     25067
 -1      8688    6    0    1
 -2     20710     20614     21556     20654     22981     28276     28242     22980     22824     25065
 -1      8689    6    0    1
 -2     20537     21719     20538     21027     27677     27827     21878     23983     26226     23984
 -1      8690    6    0    1
 -2     21529     20628     20422     20589     27337     22711     25275     27631     22797     22625
 -1      8691    6    0    1
 -2     21409     21380     21557     21386     22113     28138     27571     22183     22147     26280
 -1      8692    6    0    1
 -2     20422     20628     21557     20421     22711     27922     25273     21751     22712     27572
 -1      8693    6    0    1
 -2     21707     21677     20597     20677     27662     28399     28400     26971     28334     22893
 -1      8694    6    0    1
 -2     20998     20582     20583     21682     23914     21925     23915     26727     27106     27105
 -1      8695    6    0    1
 -2     21035     21558     20522     21666     26130     25371     24000     27951     27950     27947
 -1      8696    6    0    1
 -2     21429     21451     21535     21453     22404     28360     26135     22318     22405     26136
 -1      8697    6    0    1
 -2     21666     21454     21429     21558     25823     22314     27949     27950     25369     25370
 -1      8698    6    0    1
 -2     21707     20677     20597     20637     26971     22893     28400     28352     22892     22811
 -1      8699    6    0    1
 -2     21558     21035     21637     21453     26130     27430     27449     26132     26131     27431
 -1      8700    6    0    1
 -2     20521     21035     21558     20522     23999     26130     27448     21862     24000     25371
 -1      8701    6    0    1
 -2     21035     21637     20521     21558     27430     27450     23999     26130     27449     27448
 -1      8702    6    0    1
 -2     21385     21350     21633     21351     22126     27825     25373     22014     21933     26166
 -1      8703    6    0    1
 -2     21023     20448     20980     21559     23967     23874     24040     27006     25375     28401
 -1      8704    6    0    1
 -2     21023     20735     20625     21559     27846     23064     28113     27006     26066     25117
 -1      8705    6    0    1
 -2     21385     21351     21633     20447     22014     26166     25373     22011     21934     26168
 -1      8706    6    0    1
 -2     20980     20735     21023     21559     27870     27846     24040     28401     26066     27006
 -1      8707    6    0    1
 -2     20735     20980     21023     21106     27870     24040     27846     27845     24246     24245
 -1      8708    6    0    1
 -2     21633     20447     20448     21385     26168     21778     25372     25373     22011     22010
 -1      8709    6    0    1
 -2     21577     20625     21559     21023     25116     25117     25113     27007     28113     27006
 -1      8710    6    0    1
 -2     21658     21393     21560     20467     26062     25387     26406     27537     22030     25385
 -1      8711    6    0    1
 -2     20971     21560     21014     20466     26407     28402     24031     23856     26286     23949
 -1      8712    6    0    1
 -2     21530     21050     21013     20971     25219     24103     27022     26408     24102     24063
 -1      8713    6    0    1
 -2     20467     21560     20971     20466     25385     26407     23857     21797     26286     23856
 -1      8714    6    0    1
 -2     20971     21530     21014     21560     26408     28135     24031     26407     26346     28402
 -1      8715    6    0    1
 -2     20722     21109     21561     21648     27443     28117     28392     25229     25549     26996
 -1      8716    6    0    1
 -2     21561     21044     21004     20570     26993     24057     28118     25440     24021     23926
 -1      8717    6    0    1
 -2     21455     21427     21704     20518     22320     26837     26828     22317     22250     26836
 -1      8718    6    0    1
 -2     21479     21499     21648     20569     22513     25445     25446     22458     22509     26995
 -1      8719    6    0    1
 -2     21561     21109     21004     21044     28117     24266     28118     26993     24268     24057
 -1      8720    6    0    1
 -2     21737     21491     21706     21612     28073     26706     28085     28192     26709     26707
 -1      8721    6    0    1
 -2     20569     21044     21561     20570     24020     26993     26994     21912     24021     25440
 -1      8722    6    0    1
 -2     21561     21648     21109     21044     26996     25549     28117     26993     25550     24268
 -1      8723    6    0    1
 -2     20608     21562     21620     20561     27843     25447     28403     22665     25450     25451
 -1      8724    6    0    1
 -2     21627     21506     21562     20560     25899     26379     25936     27861     22528     26378
 -1      8725    6    0    1
 -2     20648     20560     21562     20608     22755     26378     27842     22849     22666     27843
 -1      8726    6    0    1
 -2     20608     20561     21620     20649     22665     25451     28403     22821     22758     28255
 -1      8727    6    0    1
 -2     21562     20726     20689     20608     25934     23073     25939     27843     23033     22923
 -1      8728    6    0    1
 -2     20560     21562     20608     20561     26378     27843     22666     21902     25450     22665
 -1      8729    6    0    1
 -2     21563     21491     21483     21706     27794     22608     28404     26154     26706     26705
 -1      8730    6    0    1
 -2     21040     21563     21001     20577     26156     27201     24093     24012     26157     23921
 -1      8731    6    0    1
 -2     21114     21563     21001     21040     27200     27201     24282     24280     26156     24093
 -1      8732    6    0    1
 -2     21563     21715     21651     21001     27314     25848     26698     27201     25849     25850
 -1      8733    6    0    1
 -2     21042     20573     20574     21671     24016     21916     24017     27906     27909     27611
 -1      8734    6    0    1
 -2     20577     21504     21715     20576     22521     27315     27313     21919     22522     28405
 -1      8735    6    0    1
 -2     21563     20687     20720     20646     27289     23024     27199     26720     22920     23010
 -1      8736    6    0    1
 -2     21504     21482     21715     20576     22554     28260     27315     22522     22463     28405
 -1      8737    6    0    1
 -2     20577     20576     21715     21001     21919     28405     27313     23921     23920     25849
 -1      8738    6    0    1
 -2     21564     20631     20427     20428     25791     22718     25585     25587     22717     21757
 -1      8739    6    0    1
 -2     20592     20631     21564     20428     22836     25791     28406     22631     22717     25587
 -1      8740    6    0    1
 -2     21564     20592     21533     20631     28406     28153     27308     25791     22836     27583
 -1      8741    6    0    1
 -2     21406     21533     21700     21564     26403     26068     27990     25586     27308     25792
 -1      8742    6    0    1
 -2     21700     21533     20631     21564     26068     27583     25790     25792     27308     25791
 -1      8743    6    0    1
 -2     21565     20593     20431     20633     25616     22632     26645     27294     22807     22722
 -1      8744    6    0    1
 -2     20673     20633     21565     21531     22884     27294     25613     27451     26686     26338
 -1      8745    6    0    1
 -2     21674     21405     21565     20430     26237     25845     26823     26238     22060     25847
 -1      8746    6    0    1
 -2     20431     20593     21565     20430     22632     25616     26645     21760     22633     25847
 -1      8747    6    0    1
 -2     20715     20632     21674     20593     22998     28369     26801     22997     22837     26802
 -1      8748    6    0    1
 -2     20417     20626     20418     21566     22708     22707     21747     25761     27079     25760
 -1      8749    6    0    1
 -2     21566     21537     20711     20626     27073     25395     27074     27079     25396     22983
 -1      8750    6    0    1
 -2     21708     21719     20537     21027     27373     27677     27676     28395     26226     23983
 -1      8751    6    0    1
 -2     21566     20586     20417     20626     27031     22618     25761     27079     22800     22708
 -1      8752    6    0    1
 -2     21083     21706     21040     21686     27854     26155     24183     27173     28126     27172
 -1      8753    6    0    1
 -2     20549     20602     21586     21691     22653     28393     26356     27938     25315     27937
 -1      8754    6    0    1
 -2     21566     20711     20586     20626     27074     22984     27031     27079     22983     22800
 -1      8755    6    0    1
 -2     21002     21041     21606     20575     24092     28282     28407     23923     24014     28081
 -1      8756    6    0    1
 -2     20606     21612     21737     21706     27929     28192     27847     26762     26707     28085
 -1      8757    6    0    1
 -2     20516     20517     21567     20622     21856     25781     25779     22696     22695     26201
 -1      8758    6    0    1
 -2     21567     21720     20479     20517     27121     27122     26360     25781     25675     22697
 -1      8759    6    0    1
 -2     21503     21526     21671     21481     26025     26012     27610     22553     25485     26044
 -1      8760    6    0    1
 -2     21731     21442     20516     21711     26124     22286     26078     25859     26125     26079
 -1      8761    6    0    1
 -2     21731     20661     20622     21517     26080     22858     26197     26199     27001     26198
 -1      8762    6    0    1
 -2     21567     21517     21643     21413     26202     26059     26361     27120     28003     27715
 -1      8763    6    0    1
 -2     20640     20543     21568     20544     22735     25819     28408     22740     21885     25820
 -1      8764    6    0    1
 -2     21568     21368     21623     20446     26754     28057     27517     27278     21970     27518
 -1      8765    6    0    1
 -2     20446     20543     21568     20640     22648     25819     27278     22736     22735     28408
 -1      8766    6    0    1
 -2     21040     21706     20578     21686     26155     27575     24013     27172     28126     27522
 -1      8767    6    0    1
 -2     20640     21568     20600     20544     28408     28390     22899     22740     25820     22650
 -1      8768    6    0    1
 -2     20719     20677     21673     20637     23074     26877     25190     23007     22892     28351
 -1      8769    6    0    1
 -2     20598     20719     21569     20637     23006     25191     27979     22842     23007     28397
 -1      8770    6    0    1
 -2     20440     20598     21569     20637     22643     27979     26891     22729     22842     28397
 -1      8771    6    0    1
 -2     21400     21371     21707     21395     22125     27663     27780     22159     22158     26972
 -1      8772    6    0    1
 -2     21400     21395     21707     21569     22159     26972     27780     26892     28308     27779
 -1      8773    6    0    1
 -2     21673     21395     21707     20677     25828     26972     28350     26877     26973     26971
 -1      8774    6    0    1
 -2     21707     20637     20440     21569     28352     22729     27778     27779     28397     26891
 -1      8775    6    0    1
 -2     21617     21394     21570     20469     25211     25865     27912     27805     22032     25863
 -1      8776    6    0    1
 -2     21519     21013     20970     21570     26046     24030     27806     27813     26088     27913
 -1      8777    6    0    1
 -2     20970     21519     21617     21012     27806     26315     27911     24062     26868     28409
 -1      8778    6    0    1
 -2     20469     21570     20970     20468     25863     27913     23855     21799     27945     23854
 -1      8779    6    0    1
 -2     21570     21013     20970     20468     26088     24030     27913     27945     23947     23854
 -1      8780    6    0    1
 -2     20594     20433     21571     20634     22634     25879     27756     22808     22724     28410
 -1      8781    6    0    1
 -2     20674     20594     21571     20634     22887     27756     26342     22886     22808     28410
 -1      8782    6    0    1
 -2     21684     21404     21571     20432     27459     27785     27789     27460     22058     27786
 -1      8783    6    0    1
 -2     20594     21531     21684     20633     26685     27790     27788     22838     26686     28233
 -1      8784    6    0    1
 -2     20674     20634     21571     21530     22886     28410     26342     26301     26302     25497
 -1      8785    6    0    1
 -2     20594     20432     21571     20433     22635     27786     27756     22634     21762     25879
 -1      8786    6    0    1
 -2     20607     21572     21627     20559     27136     25890     27137     22663     25892     25891
 -1      8787    6    0    1
 -2     21652     21698     21627     21484     27230     25937     27216     28070     28376     27269
 -1      8788    6    0    1
 -2     21508     21572     20607     21636     26248     27136     28069     26250     26251     28313
 -1      8789    6    0    1
 -2     20607     20559     20558     21572     22663     21900     22664     27136     25892     26249
 -1      8790    6    0    1
 -2     21652     21484     21627     20607     28070     27269     27216     25854     27295     27137
 -1      8791    6    0    1
 -2     21083     21706     20606     21040     27854     26762     27855     24183     26155     27849
 -1      8792    6    0    1
 -2     20607     21508     21490     21572     28069     22564     27135     27136     26248     25889
 -1      8793    6    0    1
 -2     20558     21636     20607     21572     26252     28313     22664     26249     26251     27136
 -1      8794    6    0    1
 -2     20489     21551     20983     21660     25092     28305     23881     27573     28306     28004
 -1      8795    6    0    1
 -2     21061     21064     21551     20983     24133     27065     27166     24125     24131     28305
 -1      8796    6    0    1
 -2     21082     21041     21606     21002     24182     28282     27791     24181     24092     28407
 -1      8797    6    0    1
 -2     20650     21573     20497     20612     26333     25755     22759     22760     25797     22675
 -1      8798    6    0    1
 -2     21726     21580     21638     20721     27934     27731     27881     26991     27730     27733
 -1      8799    6    0    1
 -2     20650     20498     21629     20613     22761     28055     26700     22766     22678     27944
 -1      8800    6    0    1
 -2     21606     20575     20574     21002     28081     21917     27614     28407     23923     23922
 -1      8801    6    0    1
 -2     21573     21535     21451     21622     26517     28360     25756     25757     27737     25759
 -1      8802    6    0    1
 -2     21629     20498     20497     21472     28055     21837     25916     25917     22364     22363
 -1      8803    6    0    1
 -2     21535     21622     21573     20727     27737     25757     26517     26518     25794     25795
 -1      8804    6    0    1
 -2     20563     21574     21488     21703     25924     25926     22481     27506     27507     28411
 -1      8805    6    0    1
 -2     20493     21644     21426     21574     26560     26503     22309     26570     28412     26571
 -1      8806    6    0    1
 -2     20610     21574     20413     20563     27434     27851     22669     22670     25924     21905
 -1      8807    6    0    1
 -2     21679     20684     20692     20651     26231     23025     26501     26542     22911     22932
 -1      8808    6    0    1
 -2     20610     21574     20493     20413     27434     26570     22672     22669     27851     21832
 -1      8809    6    0    1
 -2     20528     21523     21032     21575     25947     28273     23994     25949     25950     28264
 -1      8810    6    0    1
 -2     21697     20527     21575     21457     28133     27472     28265     26527     22323     26810
 -1      8811    6    0    1
 -2     21697     21457     21575     21518     26527     26810     28265     26528     26525     26809
 -1      8812    6    0    1
 -2     21518     21523     21575     21032     27489     25950     26809     26153     28273     28264
 -1      8813    6    0    1
 -2     21523     20528     21032     20991     25947     23994     28273     25426     23898     24047
 -1      8814    6    0    1
 -2     21575     21032     20528     20527     28264     23994     25949     27472     23993     21868
 -1      8815    6    0    1
 -2     21031     20529     20530     21523     23991     21870     23992     25906     25955     25966
 -1      8816    6    0    1
 -2     21708     21027     20701     21719     28395     26223     27372     27373     26226     26224
 -1      8817    6    0    1
 -2     21727     20997     21704     21718     25124     28283     28162     25122     25121     26835
 -1      8818    6    0    1
 -2     21718     20997     20518     20414     25121     23911     26833     25389     23910     21858
 -1      8819    6    0    1
 -2     21031     21523     20530     21524     25906     25966     23992     28261     27297     27325
 -1      8820    6    0    1
 -2     21657     21444     21702     21634     27820     26195     27890     27700     27496     28329
 -1      8821    6    0    1
 -2     20512     20620     21576     20659     22692     28413     27980     22780     22856     27893
 -1      8822    6    0    1
 -2     20511     20659     20512     21576     22781     22780     21851     26006     27893     27980
 -1      8823    6    0    1
 -2     21576     20620     20701     20659     28413     22951     28053     27893     22856     22952
 -1      8824    6    0    1
 -2     20704     21064     21551     21061     27181     27065     27165     26095     24133     27166
 -1      8825    6    0    1
 -2     20701     20732     21657     20659     23054     27796     28074     22952     23051     27699
 -1      8826    6    0    1
 -2     21570     21658     21013     20468     26091     26089     26088     27945     27538     23947
 -1      8827    6    0    1
 -2     21577     20492     20981     20408     26103     23878     27910     26104     21828     23876
 -1      8828    6    0    1
 -2     21577     20408     21351     21343     26104     21931     26182     26073     21740     21932
 -1      8829    6    0    1
 -2     21577     21633     21559     21350     26183     25374     25113     26075     27825     27826
 -1      8830    6    0    1
 -2     20982     20492     21577     21516     23880     26103     27512     26106     26597     27513
 -1      8831    6    0    1
 -2     21023     21633     21577     20981     27005     26183     27007     24073     28414     27910
 -1      8832    6    0    1
 -2     21503     21481     21671     20574     22553     26044     27610     22520     22461     27611
 -1      8833    6    0    1
 -2     21351     21350     21633     21577     21933     27825     26166     26182     26075     26183
 -1      8834    6    0    1
 -2     21655     21447     21605     21523     27455     28311     28415     28120     26608     27480
 -1      8835    6    0    1
 -2     21487     21718     20414     21692     27387     25389     22473     27524     25119     25388
 -1      8836    6    0    1
 -2     21727     21704     21427     21718     28162     26837     27262     25122     26835     26834
 -1      8837    6    0    1
 -2     21017     20975     20459     21533     24067     23865     23954     27728     26072     27244
 -1      8838    6    0    1
 -2     21017     21533     20459     20460     27728     27244     23954     23955     27670     21790
 -1      8839    6    0    1
 -2     21578     20434     20435     20595     26128     21764     26127     26311     22637     22636
 -1      8840    6    0    1
 -2     21578     20595     20635     20675     26311     22809     28058     27038     22889     22888
 -1      8841    6    0    1
 -2     21626     21530     21578     21403     26895     26347     26312     25881     25500     27643
 -1      8842    6    0    1
 -2     21530     20595     21578     20675     27036     26311     26347     27023     22889     27038
 -1      8843    6    0    1
 -2     21578     20435     20635     20595     26127     22726     28058     26311     22636     22809
 -1      8844    6    0    1
 -2     21626     21403     21578     20434     25881     27643     26312     26310     22056     26128
 -1      8845    6    0    1
 -2     21571     21530     21635     21531     25497     26147     27440     26343     25514     26145
 -1      8846    6    0    1
 -2     21579     20972     21015     21531     28417     24032     28416     26556     26380     25221
 -1      8847    6    0    1
 -2     21579     20464     21015     20972     27535     23951     28416     28417     23858     24032
 -1      8848    6    0    1
 -2     21360     21531     21635     21579     27442     26145     26161     26163     26556     26162
 -1      8849    6    0    1
 -2     20465     20464     21579     20972     21795     27535     26165     23859     23858     28417
 -1      8850    6    0    1
 -2     21580     21638     20599     20442     27731     27732     27729     26169     27991     22645
 -1      8851    6    0    1
 -2     21580     20638     20441     20442     27935     22732     26999     26169     22731     21771
 -1      8852    6    0    1
 -2     21690     21022     20450     20449     27762     23965     28221     27836     23964     21780
 -1      8853    6    0    1
 -2     21396     21580     21726     21399     27738     27934     27226     22143     26170     27740
 -1      8854    6    0    1
 -2     21639     21726     21580     21638     27228     27934     27939     27882     27881     27731
 -1      8855    6    0    1
 -2     20638     20441     21687     21580     22732     27020     26651     27935     26999     27972
 -1      8856    6    0    1
 -2     20638     20721     21726     20678     23012     26991     26414     22894     23029     25407
 -1      8857    6    0    1
 -2     21581     20462     20973     20463     26208     23860     26494     26209     21793     23861
 -1      8858    6    0    1
 -2     20973     20462     21581     21016     23860     26208     26494     24033     23953     28418
 -1      8859    6    0    1
 -2     21649     21359     21565     21532     27797     26804     27452     27453     26805     25614
 -1      8860    6    0    1
 -2     21359     21532     21649     21581     26805     27453     27797     26207     28317     26495
 -1      8861    6    0    1
 -2     20973     21581     21532     21016     26494     28317     26122     24033     28418     26123
 -1      8862    6    0    1
 -2     21582     20520     21036     20995     26256     24002     28082     28396     23906     24051
 -1      8863    6    0    1
 -2     21036     20520     21582     20519     24002     26256     28082     24001     21860     26767
 -1      8864    6    0    1
 -2     21525     20617     21524     21695     27423     27146     28033     28272     28385     28243
 -1      8865    6    0    1
 -2     20663     20483     20482     21712     22792     21817     22793     28293     28235     28112
 -1      8866    6    0    1
 -2     21582     20995     21110     21535     28396     24269     26018     26020     26028     26019
 -1      8867    6    0    1
 -2     21582     21535     20684     21452     26020     26396     26228     26221     27256     26236
 -1      8868    6    0    1
 -2     20629     20590     21583     21534     22834     27178     28419     27220     27478     25298
 -1      8869    6    0    1
 -2     20424     21583     20629     20590     27831     28419     22713     22627     27178     22834
 -1      8870    6    0    1
 -2     21646     20425     21583     21407     28357     26733     28420     25689     22063     26734
 -1      8871    6    0    1
 -2     21646     21407     21583     21520     25689     26734     28420     25547     25690     27176
 -1      8872    6    0    1
 -2     21583     20590     20424     20425     27178     22627     27831     26733     22626     21754
 -1      8873    6    0    1
 -2     21520     21534     21583     20590     25420     25298     27176     27179     27478     27178
 -1      8874    6    0    1
 -2     21695     21446     21584     20507     28043     26272     28361     28384     22296     26271
 -1      8875    6    0    1
 -2     20618     20657     21584     20508     22854     28249     28421     22688     22776     26481
 -1      8876    6    0    1
 -2     21584     20657     20507     20508     28249     22777     26271     26481     22776     21847
 -1      8877    6    0    1
 -2     20618     21525     21584     20657     25458     27392     28421     22854     27421     28249
 -1      8878    6    0    1
 -2     20617     20507     21584     20657     22685     26271     28248     22827     22777     28249
 -1      8879    6    0    1
 -2     21718     20414     20518     21427     25389     21858     26833     26834     22247     22250
 -1      8880    6    0    1
 -2     20460     20974     21585     20461     23862     28422     26349     21791     23863     26336
 -1      8881    6    0    1
 -2     21638     21665     20639     20443     28366     28367     28364     27328     28331     22734
 -1      8882    6    0    1
 -2     20460     21533     21585     20974     27670     26662     26349     23862     28223     28422
 -1      8883    6    0    1
 -2     20549     21586     20643     20550     26356     28309     22746     21891     26358     22745
 -1      8884    6    0    1
 -2     20549     20602     20643     21586     22653     22815     22746     26356     28393     28309
 -1      8885    6    0    1
 -2     20996     21079     21582     21036     24173     26021     26229     24077     24174     28082
 -1      8886    6    0    1
 -2     20979     21022     21690     21537     24039     27762     28368     26965     26966     27760
 -1      8887    6    0    1
 -2     21512     21494     21696     20550     22558     28107     28078     22544     22495     28079
 -1      8888    6    0    1
 -2     20680     21586     21714     20643     28389     28088     28143     22900     28309     28199
 -1      8889    6    0    1
 -2     20643     21586     20602     20680     28309     28393     22815     22900     28389     22901
 -1      8890    6    0    1
 -2     20624     20664     21587     21516     22833     28362     27712     25381     25231     25156
 -1      8891    6    0    1
 -2     21712     21416     21420     20483     27158     22240     27138     28235     22212     22209
 -1      8892    6    0    1
 -2     20484     20624     21689     20483     22702     25380     26394     21818     22703     28423
 -1      8893    6    0    1
 -2     21712     20483     21420     21689     28235     22209     27138     26321     28423     26390
 -1      8894    6    0    1
 -2     20574     21671     21606     21002     27611     27613     27614     23922     28330     28407
 -1      8895    6    0    1
 -2     21587     20664     20624     20484     28362     22833     27712     26395     22796     22702
 -1      8896    6    0    1
 -2     20979     20450     21690     21022     23872     28221     28368     24039     23965     27762
 -1      8897    6    0    1
 -2     20967     21588     21639     20474     27009     26082     27008     23848     26428     26327
 -1      8898    6    0    1
 -2     21639     21369     21365     21588     26546     22162     26426     26082     27752     26427
 -1      8899    6    0    1
 -2     20655     20504     20503     21605     22772     21843     22773     27481     28156     27488
 -1      8900    6    0    1
 -2     21620     21682     21705     20998     26726     27995     27992     25964     26727     27993
 -1      8901    6    0    1
 -2     20474     21588     20475     20967     26428     27753     21805     23848     27009     23849
 -1      8902    6    0    1
 -2     21620     21485     21682     21489     25448     27996     26726     27437     22602     28172
 -1      8903    6    0    1
 -2     21655     20504     21605     21447     27457     28156     28415     27455     22297     28311
 -1      8904    6    0    1
 -2     21606     21002     21671     21526     28407     28330     27613     27792     27971     26012
 -1      8905    6    0    1
 -2     20985     21640     20540     21589     27498     26448     23886     26324     25861     26446
 -1      8906    6    0    1
 -2     21438     21464     21589     21442     22344     26471     26447     22431     22434     25332
 -1      8907    6    0    1
 -2     21699     21439     21589     20541     25333     25334     25331     26323     22274     26325
 -1      8908    6    0    1
 -2     21731     20985     21699     21589     27497     26322     28179     25860     26324     25331
 -1      8909    6    0    1
 -2     20985     21517     21699     21007     28031     26475     26322     23980     28386     26843
 -1      8910    6    0    1
 -2     20541     21589     20985     20540     26325     26324     23887     21881     26446     23886
 -1      8911    6    0    1
 -2     20578     21706     21040     20577     27575     26155     24013     21920     26158     24012
 -1      8912    6    0    1
 -2     21731     21589     21699     21442     25860     25331     28179     26124     25332     25330
 -1      8913    6    0    1
 -2     21695     21524     20656     20617     28243     27145     28394     28385     27146     22853
 -1      8914    6    0    1
 -2     20499     20500     21590     20653     21839     26499     26497     22769     22768     26982
 -1      8915    6    0    1
 -2     20606     21706     21737     21040     26762     28085     27847     27849     26155     27848
 -1      8916    6    0    1
 -2     21710     20609     20562     21656     28278     22668     28257     27853     28359     28383
 -1      8917    6    0    1
 -2     20694     20613     21590     20653     22936     28067     25714     22935     22823     26982
 -1      8918    6    0    1
 -2     21615     21524     20531     21434     28266     27154     28018     28017     27155     22264
 -1      8919    6    0    1
 -2     20484     20483     21689     21420     21818     28423     26394     22210     22209     26390
 -1      8920    6    0    1
 -2     21673     20472     21603     21364     27973     27510     25189     27974     21960     26743
 -1      8921    6    0    1
 -2     20530     21524     20531     20990     27325     27154     21871     23896     26792     23897
 -1      8922    6    0    1
 -2     21605     20615     20655     21523     28424     22825     27481     27480     28277     26820
 -1      8923    6    0    1
 -2     21382     21411     21721     20417     22115     28042     26885     22000     22071     26893
 -1      8924    6    0    1
 -2     21006     20566     20567     21528     23930     21909     23931     25243     27055     25244
 -1      8925    6    0    1
 -2     20503     20615     20655     21605     22681     22825     22773     27488     28424     27481
 -1      8926    6    0    1
 -2     20625     20415     21672     21681     22706     25815     25118     27768     28387     27919
 -1      8927    6    0    1
 -2     20583     21591     20584     21038     26613     26614     21926     24006     26574     24007
 -1      8928    6    0    1
 -2     20690     21486     21656     20609     25474     27213     27212     22925     28358     28359
 -1      8929    6    0    1
 -2     21486     21489     21682     21507     22610     28172     27253     22573     22601     27107
 -1      8930    6    0    1
 -2     21735     21591     21692     21488     26931     27858     28269     27114     27115     27857
 -1      8931    6    0    1
 -2     21486     20584     21692     21487     22471     25609     27856     22475     22474     27524
 -1      8932    6    0    1
 -2     20690     21591     21068     21038     26930     26576     27171     26929     26574     24142
 -1      8933    6    0    1
 -2     21486     21507     21682     20583     22573     27107     27253     22472     22529     27105
 -1      8934    6    0    1
 -2     21486     21487     21692     21488     22475     27524     27856     22603     22480     27857
 -1      8935    6    0    1
 -2     20605     20555     20554     21592     22659     21896     22660     27300     26628     26627
 -1      8936    6    0    1
 -2     21715     21526     21592     20720     26606     26024     26611     25852     26607     26612
 -1      8937    6    0    1
 -2     20682     20605     21592     20720     22906     27300     27218     23009     23008     26612
 -1      8938    6    0    1
 -2     20554     20645     20605     21592     22749     22846     22660     26627     27608     27300
 -1      8939    6    0    1
 -2     20621     20514     20660     21694     22694     22782     22857     28425     28182     28271
 -1      8940    6    0    1
 -2     20514     21694     20621     20515     28182     28425     22694     21854     28022     22693
 -1      8941    6    0    1
 -2     20519     20518     21704     20996     21859     26836     26825     23909     23908     28321
 -1      8942    6    0    1
 -2     21043     21593     21669     21115     27070     25279     27068     24286     25278     25281
 -1      8943    6    0    1
 -2     21480     21494     21724     21501     22589     27899     26812     22571     22590     28110
 -1      8944    6    0    1
 -2     21714     21043     21593     21724     28208     27070     28170     28108     28145     26813
 -1      8945    6    0    1
 -2     21480     21501     21724     20571     22571     28110     26812     22460     22515     28190
 -1      8946    6    0    1
 -2     21724     20571     20572     21480     28190     21914     26811     26812     22460     22459
 -1      8947    6    0    1
 -2     21043     21115     21669     21003     24286     25281     27068     24056     24287     27279
 -1      8948    6    0    1
 -2     21714     21593     21494     21724     28170     27900     28106     28108     26813     27899
 -1      8949    6    0    1
 -2     21594     20564     21476     20410     26847     22452     26741     26848     21906     22449
 -1      8950    6    0    1
 -2     21594     21476     21345     20410     26741     22450     26738     26848     22449     21743
 -1      8951    6    0    1
 -2     21398     21367     21678     21368     22166     28060     25552     22167     22044     25553
 -1      8952    6    0    1
 -2     21678     21367     21594     21345     28060     27746     26737     26739     21967     26738
 -1      8953    6    0    1
 -2     21500     21476     21594     20564     22514     26741     27741     22511     22452     26847
 -1      8954    6    0    1
 -2     21500     20564     21594     21663     22511     26847     27741     28222     27773     27774
 -1      8955    6    0    1
 -2     21662     21493     21595     21527     26658     26880     27807     25483     25480     27096
 -1      8956    6    0    1
 -2     20707     20644     21595     20604     22969     27804     27095     22968     22860     27803
 -1      8957    6    0    1
 -2     20707     20604     21595     21527     22968     27803     27095     27097     27336     27096
 -1      8958    6    0    1
 -2     20644     21595     21717     20683     27804     28296     28426     22908     27098     26591
 -1      8959    6    0    1
 -2     20644     20683     21717     20603     22908     26591     28426     22816     22909     28076
 -1      8960    6    0    1
 -2     21717     20551     20552     20644     27634     21893     28375     28426     22748     22747
 -1      8961    6    0    1
 -2     20993     21596     20525     21033     27275     26899     23903     24074     28427     23995
 -1      8962    6    0    1
 -2     20525     21596     20993     20524     26899     27275     23903     21865     27276     23902
 -1      8963    6    0    1
 -2     21683     21430     21596     21522     25705     28166     28164     25708     25709     28289
 -1      8964    6    0    1
 -2     21034     21522     21596     20993     27469     28289     27274     24049     27465     27275
 -1      8965    6    0    1
 -2     21522     21596     20993     21033     28289     27275     27465     27467     28427     24074
 -1      8966    6    0    1
 -2     21655     21447     21597     20505     27455     27267     28125     27456     22298     27266
 -1      8967    6    0    1
 -2     20505     20506     21597     20656     21845     28013     27266     22775     22774     27603
 -1      8968    6    0    1
 -2     21695     20617     20656     20506     28385     22853     28394     28025     22686     22774
 -1      8969    6    0    1
 -2     20616     20505     21597     20656     22683     27266     27602     22826     22775     27603
 -1      8970    6    0    1
 -2     21695     20506     20656     21597     28025     22774     28394     28024     28013     27603
 -1      8971    6    0    1
 -2     21598     20627     20588     20669     26192     22798     28428     25607     22875     22874
 -1      8972    6    0    1
 -2     21598     20420     20588     20627     27280     22623     28428     26192     22709     22798
 -1      8973    6    0    1
 -2     21672     21559     21681     21385     25114     26246     27919     27835     25376     27766
 -1      8974    6    0    1
 -2     20726     20689     21698     21562     23073     25938     25935     25934     25939     25931
 -1      8975    6    0    1
 -2     20627     20669     21598     21537     22875     25607     26192     26189     27801     26193
 -1      8976    6    0    1
 -2     20419     20420     21598     20627     21749     27280     26191     22710     22709     26192
 -1      8977    6    0    1
 -2     20437     20436     21685     21372     21766     27925     27290     21980     21979     27291
 -1      8978    6    0    1
 -2     20437     21599     20596     20636     27292     27516     22638     22728     28429     22810
 -1      8979    6    0    1
 -2     21681     21721     21621     20586     26883     27033     26243     26245     27034     26244
 -1      8980    6    0    1
 -2     20676     20596     21599     20636     22891     27516     25653     22890     22810     28429
 -1      8981    6    0    1
 -2     20416     20415     20625     21681     21745     22706     22705     26884     28387     27768
 -1      8982    6    0    1
 -2     20652     20611     21600     20495     22822     28430     26431     22765     22673     26777
 -1      8983    6    0    1
 -2     21473     21451     21622     20496     22382     25759     27680     22366     22305     26432
 -1      8984    6    0    1
 -2     20496     20652     21600     20495     22764     26431     26433     21835     22765     26777
 -1      8985    6    0    1
 -2     21535     20611     21600     20652     26397     28430     27345     27560     22822     26431
 -1      8986    6    0    1
 -2     20652     20496     21622     20612     22764     26432     26429     22851     22676     25796
 -1      8987    6    0    1
 -2     21039     21705     20581     20582     26911     27532     24008     24009     28032     21924
 -1      8988    6    0    1
 -2     21601     20975     20458     21018     25736     23864     27351     27585     24035     23957
 -1      8989    6    0    1
 -2     21018     21520     21601     20975     27240     26112     27585     24035     26266     25736
 -1      8990    6    0    1
 -2     20458     20457     21601     21018     21788     26113     27351     23957     23956     27585
 -1      8991    6    0    1
 -2     21644     21426     21474     20493     26503     22388     26559     26560     22309     22367
 -1      8992    6    0    1
 -2     21694     21438     21602     21728     27499     27385     25288     27118     27841     27088
 -1      8993    6    0    1
 -2     21027     20733     21602     20986     25674     25672     25671     24042     27378     27086
 -1      8994    6    0    1
 -2     20539     21728     21602     21438     27087     27088     27085     22272     27841     27385
 -1      8995    6    0    1
 -2     20539     20986     20538     21602     23889     23888     21879     27085     27086     27828
 -1      8996    6    0    1
 -2     21602     20733     20660     20986     25672     23055     26214     27086     27378     28224
 -1      8997    6    0    1
 -2     21602     20986     20538     21027     27086     23888     27828     25671     24042     23984
 -1      8998    6    0    1
 -2     21603     20678     20719     20598     26267     23065     25188     27735     22895     23006
 -1      8999    6    0    1
 -2     20472     20473     20968     21603     21803     23851     23850     27510     27511     25843
 -1      9000    6    0    1
 -2     20638     21580     21687     21726     27935     27972     26651     26414     27934     26652
 -1      9001    6    0    1
 -2     21673     21011     20968     20472     26861     24028     25842     27973     23943     23850
 -1      9002    6    0    1
 -2     21705     20998     20582     21039     27993     23914     28032     26911     24052     24009
 -1      9003    6    0    1
 -2     21039     20726     20998     21113     26909     25965     24052     24278     27363     24279
 -1      9004    6    0    1
 -2     20624     21516     21587     21689     25381     25156     27712     25380     25379     26393
 -1      9005    6    0    1
 -2     21603     20473     21639     21396     27511     26326     27229     27227     22036     26328
 -1      9006    6    0    1
 -2     20493     21604     20651     20494     26563     26541     22763     21833     27528     22762
 -1      9007    6    0    1
 -2     21679     21452     21474     21455     26218     22383     26723     26829     22441     22424
 -1      9008    6    0    1
 -2     20651     21604     21452     21645     26541     26540     26543     27558     27559     26789
 -1      9009    6    0    1
 -2     21426     21644     20610     21574     26503     27787     26668     26571     28412     27434
 -1      9010    6    0    1
 -2     21554     20470     21617     21012     25209     25212     25210     28398     23945     28409
 -1      9011    6    0    1
 -2     21554     21012     21617     21519     28398     28409     25210     26313     26868     26315
 -1      9012    6    0    1
 -2     21617     20470     20469     21012     25212     21800     27805     28409     23945     23944
 -1      9013    6    0    1
 -2     20970     21012     21617     20469     24062     28409     27911     23855     23944     27805
 -1      9014    6    0    1
 -2     20970     20469     21617     21570     23855     27805     27911     27913     25863     27912
 -1      9015    6    0    1
 -2     21556     20614     21522     20501     28276     26583     25262     25261     22679     25259
 -1      9016    6    0    1
 -2     21382     21412     21681     21385     22101     28388     26886     22180     22174     27766
 -1      9017    6    0    1
 -2     21522     20500     20501     20614     26981     21840     25259     26583     22680     22679
 -1      9018    6    0    1
 -2     20710     20654     21556     21518     22980     25065     28242     26976     25064     25067
 -1      9019    6    0    1
 -2     21679     21704     21727     20996     26826     28162     26635     26232     28321     26636
 -1      9020    6    0    1
 -2     21705     20581     21698     21039     27532     27530     25932     26911     24008     26910
 -1      9021    6    0    1
 -2     21583     21534     21618     20629     25298     25203     25296     28419     27220     28431
 -1      9022    6    0    1
 -2     21583     20629     21618     20424     28419     28431     25296     27831     22713     26261
 -1      9023    6    0    1
 -2     20668     20589     21618     20629     22873     27931     25202     22872     22803     28431
 -1      9024    6    0    1
 -2     20668     20629     21618     21534     22872     28431     25202     25204     27220     25203
 -1      9025    6    0    1
 -2     20629     20589     21618     20423     22803     27931     28431     22714     22624     27832
 -1      9026    6    0    1
 -2     20424     20423     20629     21618     21753     22714     22713     26261     27832     28431
 -1      9027    6    0    1
 -2     21619     21561     21004     20570     25437     28118     28432     25439     25440     23926
 -1      9028    6    0    1
 -2     21619     21501     21714     21512     25952     28109     26987     25953     22607     26989
 -1      9029    6    0    1
 -2     21109     21561     21714     20680     28117     26986     26749     26488     25317     28143
 -1      9030    6    0    1
 -2     20571     21501     21619     20570     22515     25952     28344     21913     22516     25439
 -1      9031    6    0    1
 -2     21638     20443     20639     20599     27328     22734     28364     27732     22644     22813
 -1      9032    6    0    1
 -2     21109     20680     21714     21087     26488     28143     26749     24267     28286     26750
 -1      9033    6    0    1
 -2     20608     20649     21620     20726     22821     28255     28403     23033     23032     25963
 -1      9034    6    0    1
 -2     20690     20726     21620     20649     23083     25963     27438     22926     23032     28255
 -1      9035    6    0    1
 -2     21620     20690     21068     20726     27438     27171     25961     25963     23083     25962
 -1      9036    6    0    1
 -2     20608     20726     21620     21562     23033     25963     28403     27843     25934     25447
 -1      9037    6    0    1
 -2     21710     21620     21489     20561     27439     27437     25475     28256     25451     22483
 -1      9038    6    0    1
 -2     21563     21706     21483     20577     26154     26705     28404     26157     26158     22466
 -1      9039    6    0    1
 -2     21735     21488     21692     21727     27114     27857     28269     27755     27432     25123
 -1      9040    6    0    1
 -2     21563     20577     21483     21504     26157     22466     28404     27316     22521     22562
 -1      9041    6    0    1
 -2     21563     21504     21483     21491     27316     22562     28404     27794     22614     22608
 -1      9042    6    0    1
 -2     21568     20445     20640     20600     27277     22737     28408     28390     22646     22899
 -1      9043    6    0    1
 -2     21517     21007     20486     21552     28386     23935     25577     25579     26890     25578
 -1      9044    6    0    1
 -2     21552     21007     21699     21517     26890     26843     26474     25579     28386     26475
 -1      9045    6    0    1
 -2     21007     20486     21552     20542     23935     25578     26890     23934     23885     26889
 -1      9046    6    0    1
 -2     21439     21517     21680     21552     26473     27386     27723     26472     25579     25131
 -1      9047    6    0    1
 -2     21717     21661     20551     20603     27399     27627     27634     28076     28077     22655
 -1      9048    6    0    1
 -2     20644     20603     21717     20551     22816     28076     28426     22748     22655     27634
 -1      9049    6    0    1
 -2     20431     21404     21565     21684     22057     26340     26645     27458     27459     28232
 -1      9050    6    0    1
 -2     21565     21531     21684     21404     26338     27790     28232     26340     26341     27459
 -1      9051    6    0    1
 -2     20673     21531     21565     21532     27451     26338     25613     25615     27454     25614
 -1      9052    6    0    1
 -2     21352     21385     21559     20448     22117     25376     27764     21936     22010     25375
 -1      9053    6    0    1
 -2     20449     20448     21621     20980     21779     25638     25636     23875     23874     27921
 -1      9054    6    0    1
 -2     20735     20980     21621     21559     27870     27921     27920     26066     28401     26247
 -1      9055    6    0    1
 -2     21059     21022     21621     20980     24121     27761     27553     24120     24072     27921
 -1      9056    6    0    1
 -2     21621     21022     20449     20980     27761     23964     25636     27921     24072     23875
 -1      9057    6    0    1
 -2     21352     20448     21559     21621     21936     25375     27764     25637     25638     26247
 -1      9058    6    0    1
 -2     20624     21689     20483     20663     25380     28423     22703     22859     26269     22792
 -1      9059    6    0    1
 -2     21621     20711     21059     20980     27072     27552     27553     27921     27871     24120
 -1      9060    6    0    1
 -2     20497     21573     21622     20612     25755     25757     25758     22675     25797     25796
 -1      9061    6    0    1
 -2     20727     20612     21573     20650     23036     25797     25795     23035     22760     26333
 -1      9062    6    0    1
 -2     20691     20612     21622     20727     22927     25796     27736     23072     23036     25794
 -1      9063    6    0    1
 -2     20691     20727     21622     21535     23072     25794     27736     27561     26518     27737
 -1      9064    6    0    1
 -2     20496     20497     21622     20612     21836     25758     26432     22676     22675     25796
 -1      9065    6    0    1
 -2     20584     21591     21692     21038     26614     27858     25609     24007     26574     25271
 -1      9066    6    0    1
 -2     20652     21535     21622     21600     27560     27737     26429     26431     27345     26430
 -1      9067    6    0    1
 -2     21344     20543     21475     21623     22446     22503     22448     25802     25803     28433
 -1      9068    6    0    1
 -2     21623     21475     21568     20543     28433     26756     27517     25803     22503     25819
 -1      9069    6    0    1
 -2     21678     21367     21344     21623     28060     21966     28059     28434     27936     25802
 -1      9070    6    0    1
 -2     21368     21367     21678     21623     22044     28060     25553     28057     27936     28434
 -1      9071    6    0    1
 -2     21623     21368     21568     21475     28057     26754     27517     28433     26755     26756
 -1      9072    6    0    1
 -2     20545     20546     21528     20641     21887     25233     25809     22738     22742     26545
 -1      9073    6    0    1
 -2     21717     20644     20552     21595     28426     22747     28375     28296     27804     26878
 -1      9074    6    0    1
 -2     21593     20603     21717     20683     28075     28076     26592     26593     22909     26591
 -1      9075    6    0    1
 -2     20658     21716     20509     21642     28435     27904     22779     27885     27151     27393
 -1      9076    6    0    1
 -2     20734     20663     21551     21712     23061     28295     27180     26318     28293     27063
 -1      9077    6    0    1
 -2     20585     20415     21624     20625     22616     25812     28300     22799     22706     27815
 -1      9078    6    0    1
 -2     21577     21516     21613     20667     27513     25158     28046     28048     25232     28047
 -1      9079    6    0    1
 -2     20407     20585     21624     21613     22617     28300     28037     28039     28298     28038
 -1      9080    6    0    1
 -2     21681     20625     20416     20586     27768     22705     26884     26245     22789     22619
 -1      9081    6    0    1
 -2     20585     20625     21624     20667     22799     27815     28300     22871     22870     28049
 -1      9082    6    0    1
 -2     20471     20969     21625     21011     23853     28336     25826     23942     24061     26876
 -1      9083    6    0    1
 -2     21011     20677     20969     21625     26875     25895     24061     26876     26874     28336
 -1      9084    6    0    1
 -2     21582     20996     21538     21079     26229     26353     27343     26021     24173     26354
 -1      9085    6    0    1
 -2     20677     21011     20969     21048     26875     24061     25895     27048     24099     24098
 -1      9086    6    0    1
 -2     21625     21677     21707     20677     28219     27662     26970     26874     28334     26971
 -1      9087    6    0    1
 -2     21554     20470     20471     21363     25209     21801     27816     27445     21958     21957
 -1      9088    6    0    1
 -2     21569     20598     21603     20719     27979     27735     25192     25191     23006     25188
 -1      9089    6    0    1
 -2     20621     21694     20660     20986     28425     28271     22857     27091     27119     28224
 -1      9090    6    0    1
 -2     20640     20445     21568     20446     22737     27277     28408     22736     21775     27278
 -1      9091    6    0    1
 -2     21610     20658     21642     21716     27884     27885     27149     27150     28435     27151
 -1      9092    6    0    1
 -2     20988     21716     20658     21610     25749     28435     26922     28240     27150     27884
 -1      9093    6    0    1
 -2     20510     21716     20509     20658     26955     27904     21849     22778     28435     22779
 -1      9094    6    0    1
 -2     20619     21716     20510     20658     26954     26955     22690     22855     28435     22778
 -1      9095    6    0    1
 -2     21725     21477     21498     21497     28327     22505     27050     27051     22615     22612
 -1      9096    6    0    1
 -2     20658     20700     20619     21716     22950     22949     22855     28435     25748     26954
 -1      9097    6    0    1
 -2     21571     20433     21626     20634     25879     25882     25880     28410     22724     28436
 -1      9098    6    0    1
 -2     21571     20634     21626     21530     28410     28436     25880     25497     26302     26895
 -1      9099    6    0    1
 -2     21626     20634     20433     20434     28436     22724     25882     26310     22723     21763
 -1      9100    6    0    1
 -2     20595     21530     21626     20634     27036     26895     26309     22839     26302     28436
 -1      9101    6    0    1
 -2     20595     20634     21626     20434     22839     28436     26309     22637     22723     26310
 -1      9102    6    0    1
 -2     20607     20559     21627     20648     22663     25891     27137     22820     22756     28437
 -1      9103    6    0    1
 -2     21627     20689     20725     20648     25940     23031     27217     28437     22924     23028
 -1      9104    6    0    1
 -2     20607     20648     21627     20725     22820     28437     27137     23026     23028     27217
 -1      9105    6    0    1
 -2     20621     21694     21711     20515     28425     27500     28252     22693     28022     28021
 -1      9106    6    0    1
 -2     20648     20689     21562     21627     22924     25939     27842     28437     25940     25936
 -1      9107    6    0    1
 -2     21627     20559     20560     20648     25891     21901     27861     28437     22756     22755
 -1      9108    6    0    1
 -2     20648     21627     21562     20560     28437     25936     27842     22755     27861     26378
 -1      9109    6    0    1
 -2     21640     21694     20621     20986     27320     28425     28253     27249     27119     27091
 -1      9110    6    0    1
 -2     21564     20428     21628     20592     25587     25914     25912     28406     22631     28438
 -1      9111    6    0    1
 -2     21564     20592     21628     21533     28406     28438     25912     27308     28153     27309
 -1      9112    6    0    1
 -2     21628     20428     20429     20592     25914     21758     27798     28438     22631     22630
 -1      9113    6    0    1
 -2     20632     20592     21628     20429     22806     28438     28370     22720     22630     27798
 -1      9114    6    0    1
 -2     21628     20592     20632     20672     28438     22806     28370     28180     22883     22882
 -1      9115    6    0    1
 -2     21533     20592     21628     20672     28153     28438     27309     27361     22883     28180
 -1      9116    6    0    1
 -2     21573     21629     20613     20650     25918     27944     27942     26333     26700     22766
 -1      9117    6    0    1
 -2     21430     21450     21590     21629     22438     27462     25716     26585     26586     28068
 -1      9118    6    0    1
 -2     21573     20650     20613     20696     26333     22766     27942     25774     22940     22939
 -1      9119    6    0    1
 -2     21573     20696     20613     21430     25774     22939     27942     25772     25773     27943
 -1      9120    6    0    1
 -2     20499     21590     21629     20613     26497     28068     28054     22677     28067     27944
 -1      9121    6    0    1
 -2     20996     20519     21582     21679     23909     26767     26229     26232     26827     26219
 -1      9122    6    0    1
 -2     20528     20991     21523     20529     23898     25426     25947     21869     23899     25955
 -1      9123    6    0    1
 -2     20604     21662     21595     21527     28259     27807     27803     27336     25483     27096
 -1      9124    6    0    1
 -2     20988     20700     20658     21716     25751     22950     26922     25749     25748     28435
 -1      9125    6    0    1
 -2     20577     21001     21715     21563     23921     25849     27313     26157     27201     27314
 -1      9126    6    0    1
 -2     21630     21598     20588     20669     25603     28428     28150     25606     25607     22874
 -1      9127    6    0    1
 -2     20659     21702     20511     21634     27891     26194     22781     27701     28329     28328
 -1      9128    6    0    1
 -2     20421     21557     21630     20588     27572     28137     28136     22622     28291     28150
 -1      9129    6    0    1
 -2     21630     20420     20588     21598     25974     22623     28150     25603     27280     28428
 -1      9130    6    0    1
 -2     21607     21410     21630     20669     25164     25602     25726     27539     25605     25606
 -1      9131    6    0    1
 -2     20983     21064     21631     21024     24131     27066     28373     23972     24132     27495
 -1      9132    6    0    1
 -2     21516     21689     20734     21631     25379     25377     25378     26107     26320     26319
 -1      9133    6    0    1
 -2     20491     21423     21631     20490     22221     26366     27527     21826     22219     26064
 -1      9134    6    0    1
 -2     20621     21640     21711     21694     28253     25858     28252     28425     27320     27500
 -1      9135    6    0    1
 -2     20491     20490     21631     21024     21826     26064     27527     23969     23971     27495
 -1      9136    6    0    1
 -2     21631     21064     21090     21024     27066     24207     26108     27495     24132     24205
 -1      9137    6    0    1
 -2     20983     21024     21631     20490     23972     27495     28373     23882     23971     26064
 -1      9138    6    0    1
 -2     20975     21601     21377     21520     25736     25734     25735     26266     26112     25688
 -1      9139    6    0    1
 -2     21715     21563     21651     21509     27314     26698     25848     28147     26694     26697
 -1      9140    6    0    1
 -2     20459     20975     21632     21533     23865     25739     27243     27244     26072     27242
 -1      9141    6    0    1
 -2     21632     20459     20458     20975     27243     21789     27362     25739     23865     23864
 -1      9142    6    0    1
 -2     21377     21533     21632     20975     27952     27242     25738     25735     26072     25739
 -1      9143    6    0    1
 -2     21632     20458     21601     20975     27362     27351     25737     25739     23864     25736
 -1      9144    6    0    1
 -2     20996     21036     21582     20519     24077     28082     26229     23909     24001     26767
 -1      9145    6    0    1
 -2     21633     20408     20981     20447     26167     23876     28414     26168     21777     23877
 -1      9146    6    0    1
 -2     20408     21577     21633     20981     26104     26183     26167     23876     27910     28414
 -1      9147    6    0    1
 -2     20519     21455     21704     20518     22316     26828     26825     21859     22317     26836
 -1      9148    6    0    1
 -2     20981     21023     21633     20447     24073     27005     28414     23877     23966     26168
 -1      9149    6    0    1
 -2     21368     21678     21475     21623     25553     28439     26755     28057     28434     28433
 -1      9150    6    0    1
 -2     20619     20659     20511     21634     22829     22781     22689     26852     27701     28328
 -1      9151    6    0    1
 -2     20553     21662     20552     20604     28045     27808     21894     22657     28259     22658
 -1      9152    6    0    1
 -2     20732     20700     21713     20619     23053     25747     28191     23052     22949     26935
 -1      9153    6    0    1
 -2     21444     20510     21729     21467     22291     26850     27043     22376     22353     27042
 -1      9154    6    0    1
 -2     20732     20619     21713     21657     23052     26935     28191     27796     27698     27748
 -1      9155    6    0    1
 -2     21475     21678     21344     21623     28439     28059     22448     28433     28434     25802
 -1      9156    6    0    1
 -2     20510     20619     20511     21634     22690     22689     21850     26851     26852     28328
 -1      9157    6    0    1
 -2     21014     20972     20465     21635     24064     23859     23948     28134     28440     26164
 -1      9158    6    0    1
 -2     21560     20466     21635     21014     26286     26289     26287     28402     23949     28134
 -1      9159    6    0    1
 -2     21051     21014     21635     20972     24105     28134     26144     24104     24064     28440
 -1      9160    6    0    1
 -2     21560     21014     21635     21530     28402     28134     26287     26346     28135     26147
 -1      9161    6    0    1
 -2     21014     21635     20465     20466     28134     26164     23948     23949     26289     21796
 -1      9162    6    0    1
 -2     21636     20558     20607     20647     26252     22664     28313     28441     22753     22848
 -1      9163    6    0    1
 -2     21636     20647     20723     20606     28441     23019     26760     26761     22819     23017
 -1      9164    6    0    1
 -2     20558     20647     21636     20557     22753     28441     26252     21899     22754     27312
 -1      9165    6    0    1
 -2     21636     20557     20647     20606     27312     22754     28441     26761     22661     22819
 -1      9166    6    0    1
 -2     21636     20688     20723     20647     28302     23030     26760     28441     22922     23019
 -1      9167    6    0    1
 -2     20607     20688     21636     20647     22921     28302     28313     22848     22922     28441
 -1      9168    6    0    1
 -2     21679     20692     21727     21426     26501     26637     26635     26504     26505     26667
 -1      9169    6    0    1
 -2     21455     21427     21727     21704     22320     27262     28161     26828     26837     28162
 -1      9170    6    0    1
 -2     21582     20995     21637     20520     28396     28442     26255     26256     23906     26254
 -1      9171    6    0    1
 -2     20995     21035     21535     21637     24076     26137     26028     28442     27430     26461
 -1      9172    6    0    1
 -2     21637     21035     20521     20995     27430     23999     27450     28442     24076     23907
 -1      9173    6    0    1
 -2     20995     20520     20521     21637     23906     21861     23907     28442     26254     27450
 -1      9174    6    0    1
 -2     21582     21535     21637     20995     26020     26461     26255     28396     26028     28442
 -1      9175    6    0    1
 -2     20996     20518     21704     20997     23908     26836     28321     23912     23911     28283
 -1      9176    6    0    1
 -2     21585     20461     20974     21016     26336     23863     28422     28318     23952     24066
 -1      9177    6    0    1
 -2     21053     21016     21585     20974     24109     28318     28026     24108     24066     28422
 -1      9178    6    0    1
 -2     21053     20974     21585     21533     24108     28422     28026     27360     28223     26662
 -1      9179    6    0    1
 -2     21715     21092     21041     21606     26595     24212     28281     28280     27793     28282
 -1      9180    6    0    1
 -2     20575     21041     21715     20576     24014     28281     28279     21918     24015     28405
 -1      9181    6    0    1
 -2     21580     20442     20599     20638     26169     22645     27729     27935     22731     22843
 -1      9182    6    0    1
 -2     21397     21638     20443     21665     26537     27328     22046     28217     28366     28331
 -1      9183    6    0    1
 -2     21368     21500     21475     21678     25556     22579     26755     25553     25555     28439
 -1      9184    6    0    1
 -2     21580     20638     20599     20721     27935     22843     27729     27730     23012     23011
 -1      9185    6    0    1
 -2     20442     21638     20599     20443     27991     27732     22645     21772     27328     22644
 -1      9186    6    0    1
 -2     20681     20599     21638     20639     23013     27732     28379     22904     22813     28364
 -1      9187    6    0    1
 -2     20473     21639     20474     21010     26326     26327     21804     23940     28443     23941
 -1      9188    6    0    1
 -2     20967     20474     21639     21010     23848     26327     27008     24027     23941     28443
 -1      9189    6    0    1
 -2     20604     20552     21595     21662     22658     26878     27803     28259     27808     27807
 -1      9190    6    0    1
 -2     21726     21639     21603     21010     27228     27229     27002     25836     28443     26268
 -1      9191    6    0    1
 -2     21726     21010     21091     21639     25836     24208     25404     27228     28443     26085
 -1      9192    6    0    1
 -2     20735     21559     21621     20586     26066     26247     27920     23063     26067     26244
 -1      9193    6    0    1
 -2     21345     21344     21475     21678     21742     22448     22447     26739     28059     28439
 -1      9194    6    0    1
 -2     21536     21639     21726     21091     26084     27228     25403     25405     26085     25404
 -1      9195    6    0    1
 -2     20967     21010     21639     21091     24027     28443     27008     24209     24208     26085
 -1      9196    6    0    1
 -2     21603     20473     21010     21639     27511     23940     26268     27229     26326     28443
 -1      9197    6    0    1
 -2     21640     20985     20540     21026     27498     23886     26448     28444     23978     23977
 -1      9198    6    0    1
 -2     21026     21640     20539     20540     28444     26476     23979     23977     26448     21880
 -1      9199    6    0    1
 -2     21026     21640     20985     20661     28444     27498     23978     26924     28116     28030
 -1      9200    6    0    1
 -2     20621     21640     21026     20661     28253     28444     26953     22831     28116     26924
 -1      9201    6    0    1
 -2     21026     21640     20621     20986     28444     28253     26953     23982     27249     27091
 -1      9202    6    0    1
 -2     21026     20986     20539     21640     23982     23889     23979     28444     27249     26476
 -1      9203    6    0    1
 -2     20980     20448     21621     21559     23874     25638     27921     28401     25375     26247
 -1      9204    6    0    1
 -2     20701     21719     21676     21437     26224     27405     28372     25993     27375     27403
 -1      9205    6    0    1
 -2     21641     21676     20512     21443     28445     26550     26455     26456     26551     22289
 -1      9206    6    0    1
 -2     20512     20620     21641     21576     22692     28446     26455     27980     28413     27981
 -1      9207    6    0    1
 -2     21641     20620     20701     21576     28446     22951     25992     27981     28413     28053
 -1      9208    6    0    1
 -2     21641     21676     21443     21437     28445     26551     26456     25994     27403     22430
 -1      9209    6    0    1
 -2     20658     21642     20618     21525     27885     28447     22828     26921     27323     25458
 -1      9210    6    0    1
 -2     21584     20508     21642     20618     26481     26484     26482     28421     22688     28447
 -1      9211    6    0    1
 -2     21584     20618     21642     21525     28421     28447     26482     27392     25458     27323
 -1      9212    6    0    1
 -2     20618     21642     20509     20508     28447     27393     22687     22688     26484     21848
 -1      9213    6    0    1
 -2     20509     21642     20618     20658     27393     28447     22687     22779     27885     22828
 -1      9214    6    0    1
 -2     20662     20622     21643     20480     22788     26363     28448     22787     22698     26510
 -1      9215    6    0    1
 -2     20662     21517     21643     20622     27000     26059     28448     22788     26198     26363
 -1      9216    6    0    1
 -2     21500     21476     21475     21678     22514     22451     22579     25555     26740     28439
 -1      9217    6    0    1
 -2     21643     20479     20480     20622     26362     21814     26510     26363     22699     22698
 -1      9218    6    0    1
 -2     20571     20570     21619     21004     21913     25439     28344     23927     23926     28432
 -1      9219    6    0    1
 -2     21644     20651     21679     20692     27435     26542     26500     26502     22932     26501
 -1      9220    6    0    1
 -2     21644     20651     20493     21604     27435     22763     26560     26561     26541     26563
 -1      9221    6    0    1
 -2     20610     20692     20651     21644     22929     22932     22767     27787     26502     27435
 -1      9222    6    0    1
 -2     21475     21476     21345     21678     22451     22450     22447     28439     26740     26739
 -1      9223    6    0    1
 -2     20651     21644     20493     20610     27435     26560     22763     22767     27787     22672
 -1      9224    6    0    1
 -2     21645     20495     21600     20611     26774     26777     26775     28449     22673     28430
 -1      9225    6    0    1
 -2     20494     20495     21645     20611     21834     26774     26788     22674     22673     28449
 -1      9226    6    0    1
 -2     21535     20611     20684     21645     26397     22910     26396     27255     28449     27254
 -1      9227    6    0    1
 -2     21645     20611     21600     21535     28449     28430     26775     27255     26397     27345
 -1      9228    6    0    1
 -2     20494     21645     20651     20611     26788     27558     22762     22674     28449     22862
 -1      9229    6    0    1
 -2     20651     21645     20684     20611     27558     27254     22911     22862     28449     22910
 -1      9230    6    0    1
 -2     21700     20426     21646     21377     25652     25651     25544     27725     21989     25687
 -1      9231    6    0    1
 -2     21700     21377     21646     21520     27725     25687     25544     25548     25688     25547
 -1      9232    6    0    1
 -2     20630     21646     20426     20425     26262     25651     22715     22716     28357     21755
 -1      9233    6    0    1
 -2     20630     20425     21583     21646     22716     26733     27177     26262     28357     28420
 -1      9234    6    0    1
 -2     20630     21646     21583     21520     26262     28420     27177     26263     25547     27176
 -1      9235    6    0    1
 -2     21075     20992     21647     21033     24163     27918     25740     24162     24048     28450
 -1      9236    6    0    1
 -2     21596     21033     21647     20525     28427     28450     26898     26899     23995     26900
 -1      9237    6    0    1
 -2     20525     21033     21647     20526     23995     28450     26900     21866     23996     27767
 -1      9238    6    0    1
 -2     21647     21033     20992     20526     28450     24048     27918     27767     23996     23900
 -1      9239    6    0    1
 -2     21075     21033     21647     21522     24162     28450     25740     25742     27467     25741
 -1      9240    6    0    1
 -2     21596     21522     21647     21033     28289     25741     26898     28427     27467     28450
 -1      9241    6    0    1
 -2     20569     21044     21005     21648     24020     24081     23929     26995     25550     28044
 -1      9242    6    0    1
 -2     20568     21648     20569     21005     27840     26995     21911     23928     28044     23929
 -1      9243    6    0    1
 -2     21005     21536     21609     21648     25077     27675     27673     28044     26383     27679
 -1      9244    6    0    1
 -2     21088     21536     21648     20722     25869     26383     25551     26998     26997     25229
 -1      9245    6    0    1
 -2     21005     21648     21609     20568     28044     27679     27673     23928     27840     27866
 -1      9246    6    0    1
 -2     20722     21648     21561     20602     25229     26996     28392     23016     25214     25316
 -1      9247    6    0    1
 -2     21579     21015     21649     21531     28416     28451     26555     26556     25221     26557
 -1      9248    6    0    1
 -2     21015     20464     21649     20463     23951     27012     28451     23950     21794     26493
 -1      9249    6    0    1
 -2     21052     21531     21649     21015     25223     26557     27691     24107     25221     28451
 -1      9250    6    0    1
 -2     21579     20464     21649     21015     27535     27012     26555     28416     23951     28451
 -1      9251    6    0    1
 -2     21052     21015     21649     20973     24107     28451     27691     24106     24065     26492
 -1      9252    6    0    1
 -2     20973     21015     21649     20463     24065     28451     26492     23861     23950     26493
 -1      9253    6    0    1
 -2     21463     21438     21694     20514     22335     27499     25284     22338     22287     28182
 -1      9254    6    0    1
 -2     20620     20513     21650     20660     22691     28378     27015     22830     22783     26216
 -1      9255    6    0    1
 -2     21730     20620     20660     20733     27016     22830     26213     25673     23056     23055
 -1      9256    6    0    1
 -2     21463     20514     21694     21650     22338     28182     25284     25286     28270     25285
 -1      9257    6    0    1
 -2     21730     20733     20660     21602     25673     23055     26213     25669     25672     26214
 -1      9258    6    0    1
 -2     21650     20514     20660     20513     28270     22782     26216     28378     21853     22783
 -1      9259    6    0    1
 -2     21563     20646     20720     21651     26720     23010     27199     26698     28323     25851
 -1      9260    6    0    1
 -2     20646     20605     20720     21651     22818     23008     23010     28323     27299     25851
 -1      9261    6    0    1
 -2     21651     21701     21563     20646     26699     26695     26698     28323     26721     26720
 -1      9262    6    0    1
 -2     20732     21657     21713     21028     27796     27748     28191     27142     25595     27976
 -1      9263    6    0    1
 -2     20646     21651     20556     20555     28323     27109     22751     22752     27301     21897
 -1      9264    6    0    1
 -2     21509     21491     21701     20556     22556     27795     26696     22538     22489     27108
 -1      9265    6    0    1
 -2     20605     21651     20646     20555     27299     28323     22818     22659     27301     22752
 -1      9266    6    0    1
 -2     21563     21651     20720     21001     26698     25851     27199     27201     25850     25853
 -1      9267    6    0    1
 -2     21028     21713     20535     20536     27976     28205     23985     23986     27751     21876
 -1      9268    6    0    1
 -2     21037     21000     20688     21085     24010     26901     25877     24188     24187     27999
 -1      9269    6    0    1
 -2     21519     20969     21677     21554     28324     28335     28341     26313     28349     27960
 -1      9270    6    0    1
 -2     21398     20477     21709     21663     22043     27838     26619     26621     28220     26620
 -1      9271    6    0    1
 -2     21000     21652     20579     21037     26902     27251     23919     24010     25878     24005
 -1      9272    6    0    1
 -2     20597     20969     20677     21677     25894     25895     22893     28399     28335     28334
 -1      9273    6    0    1
 -2     21037     21652     20580     21698     25878     28377     24003     27257     27230     27436
 -1      9274    6    0    1
 -2     20580     21652     21037     20579     28377     25878     24003     21922     27251     24005
 -1      9275    6    0    1
 -2     20503     20615     21653     20502     22681     28452     27340     21842     22682     25691
 -1      9276    6    0    1
 -2     21653     20503     21605     20615     27340     27488     27486     28452     22681     28424
 -1      9277    6    0    1
 -2     21653     20615     21605     21523     28452     28424     27486     27545     28277     27480
 -1      9278    6    0    1
 -2     21518     20615     21653     21523     28274     28452     25063     27489     28277     27545
 -1      9279    6    0    1
 -2     20654     20502     21653     20615     22770     25691     25062     22863     22682     28452
 -1      9280    6    0    1
 -2     20654     20615     21653     21518     22863     28452     25062     25064     28274     25063
 -1      9281    6    0    1
 -2     21519     20597     21677     20969     28371     28399     28341     28324     25894     28335
 -1      9282    6    0    1
 -2     21495     21512     21691     20549     22572     27844     25306     22498     22543     27938
 -1      9283    6    0    1
 -2     20602     21479     21648     21561     28002     25446     25214     25316     25438     26996
 -1      9284    6    0    1
 -2     20548     20549     21691     20602     21890     27938     27390     22654     22653     25315
 -1      9285    6    0    1
 -2     20548     20602     21691     21654     22654     25315     27390     27391     25217     25307
 -1      9286    6    0    1
 -2     20548     20642     20602     21654     22743     22845     22654     27391     25216     25217
 -1      9287    6    0    1
 -2     20722     20602     21561     20680     23016     25316     28392     23066     22901     25317
 -1      9288    6    0    1
 -2     21707     20439     20597     21677     27661     22640     28400     27662     26725     28399
 -1      9289    6    0    1
 -2     20505     20616     21655     20504     22683     28453     27456     21844     22684     27457
 -1      9290    6    0    1
 -2     21524     21523     21655     20616     27297     28120     28119     27578     26818     28453
 -1      9291    6    0    1
 -2     20616     21524     21597     21655     27578     27604     27602     28453     28119     28125
 -1      9292    6    0    1
 -2     20616     21655     21605     21523     28453     28415     27479     26818     28120     27480
 -1      9293    6    0    1
 -2     20616     20504     21605     21655     22684     28156     27479     28453     27457     28415
 -1      9294    6    0    1
 -2     20616     21655     21597     20505     28453     28125     27602     22683     27456     27266
 -1      9295    6    0    1
 -2     20690     20609     21656     20692     22925     28359     27212     22931     22930     28363
 -1      9296    6    0    1
 -2     20609     20692     20610     21656     22930     22929     22671     28359     28363     27195
 -1      9297    6    0    1
 -2     20610     21656     20563     20609     27195     28382     22670     22671     28359     22667
 -1      9298    6    0    1
 -2     20690     20692     21735     21038     22931     28356     26927     26929     26644     26928
 -1      9299    6    0    1
 -2     21488     20562     21710     21489     22482     28257     27852     22532     22484     25475
 -1      9300    6    0    1
 -2     20563     21656     20562     20609     28382     28383     21904     22667     28359     22668
 -1      9301    6    0    1
 -2     21488     21489     21710     21486     22532     25475     27852     22603     22610     25477
 -1      9302    6    0    1
 -2     20690     21656     21735     20692     27212     27113     26927     22931     28363     28356
 -1      9303    6    0    1
 -2     20596     21599     21685     20717     27516     25250     27515     23002     25253     25251
 -1      9304    6    0    1
 -2     20596     20717     21685     20635     23002     25251     27515     22840     23003     27923
 -1      9305    6    0    1
 -2     20676     20636     21599     21519     22890     28429     25653     25654     27727     25249
 -1      9306    6    0    1
 -2     21561     21004     21714     21619     28118     26751     26986     25437     28432     26987
 -1      9307    6    0    1
 -2     20680     20686     21714     21087     22917     28096     28143     28286     27493     26750
 -1      9308    6    0    1
 -2     21028     20987     21657     20536     24043     25594     25595     23986     23890     27750
 -1      9309    6    0    1
 -2     20701     20659     21657     21576     22952     27699     28074     28053     27893     27892
 -1      9310    6    0    1
 -2     20701     21708     21657     20987     27372     28091     28074     28320     28319     25594
 -1      9311    6    0    1
 -2     20536     20537     21708     21462     21877     27676     28089     22334     22333     28090
 -1      9312    6    0    1
 -2     21462     21437     21708     21466     22387     27374     28090     22423     22422     27376
 -1      9313    6    0    1
 -2     21462     21466     21708     21657     22423     27376     28090     27895     28056     28091
 -1      9314    6    0    1
 -2     21066     20701     21657     20987     27190     28074     25593     24138     28320     25594
 -1      9315    6    0    1
 -2     21028     20988     20535     21713     24090     23893     23985     27976     25750     28205
 -1      9316    6    0    1
 -2     21402     21570     21362     21658     27933     25864     22153     26061     26091     26060
 -1      9317    6    0    1
 -2     20971     21013     21658     20467     24063     26089     26405     23857     23946     27537
 -1      9318    6    0    1
 -2     21382     21352     21721     21411     22179     28339     26885     22115     22169     28042
 -1      9319    6    0    1
 -2     21530     20971     21013     21658     26408     24063     27022     26409     26405     26089
 -1      9320    6    0    1
 -2     21013     21658     20467     20468     26089     27537     23946     23947     27538     21798
 -1      9321    6    0    1
 -2     21707     20637     20597     20439     28352     22811     28400     27661     22730     22640
 -1      9322    6    0    1
 -2     21685     21658     21570     21402     26090     26091     26087     26424     26061     27933
 -1      9323    6    0    1
 -2     21362     21658     21570     20468     26060     26091     25864     21956     27538     27945
 -1      9324    6    0    1
 -2     20971     20467     21658     21560     23857     27537     26405     26407     25385     26406
 -1      9325    6    0    1
 -2     21599     20437     21659     20636     27292     27567     27566     28429     22728     28338
 -1      9326    6    0    1
 -2     21599     20636     21659     21519     28429     28338     27566     25249     27727     27306
 -1      9327    6    0    1
 -2     20636     20597     21519     20718     22841     28371     27727     23005     23004     27726
 -1      9328    6    0    1
 -2     21677     20597     20636     20438     28399     22841     28337     26724     22641     22727
 -1      9329    6    0    1
 -2     20437     20636     20438     21659     22728     22727     21767     27567     28338     28114
 -1      9330    6    0    1
 -2     21398     21366     21709     20477     22087     27830     26619     22043     21963     27838
 -1      9331    6    0    1
 -2     21675     21421     21608     21660     27003     26370     27914     27162     26371     26368
 -1      9332    6    0    1
 -2     21025     20488     20489     21660     23973     21824     23974     27941     27574     27573
 -1      9333    6    0    1
 -2     20489     20983     21025     21660     23881     24041     23974     27573     28004     27941
 -1      9334    6    0    1
 -2     21551     20663     20623     21722     28295     22832     27167     28063     28292     28105
 -1      9335    6    0    1
 -2     21675     21660     21608     20984     27162     26368     27914     27916     28234     27915
 -1      9336    6    0    1
 -2     20735     20586     21621     20711     23063     26244     27920     23071     22984     27072
 -1      9337    6    0    1
 -2     20551     21661     20550     20603     27627     27628     21892     22655     28077     22656
 -1      9338    6    0    1
 -2     20416     20586     21721     21681     22619     27034     26882     26884     26245     26883
 -1      9339    6    0    1
 -2     20643     20686     20603     21661     22916     22915     22861     28374     28097     28077
 -1      9340    6    0    1
 -2     20550     21661     20643     20603     27628     28374     22745     22656     28077     22861
 -1      9341    6    0    1
 -2     20686     21661     21593     20603     28097     27397     28171     22915     28077     28075
 -1      9342    6    0    1
 -2     21511     21494     21661     21593     22574     27629     27396     26359     27900     27397
 -1      9343    6    0    1
 -2     20597     21677     20439     20438     28399     26725     22640     22641     26724     21768
 -1      9344    6    0    1
 -2     20686     20603     21593     20683     22915     28075     28171     22918     22909     26593
 -1      9345    6    0    1
 -2     20685     20604     21662     20645     22913     28259     27690     22912     22817     28454
 -1      9346    6    0    1
 -2     20685     20645     21662     21526     22912     28454     27690     26704     27609     25486
 -1      9347    6    0    1
 -2     21592     21526     21662     20645     26024     25486     27377     27608     27609     28454
 -1      9348    6    0    1
 -2     21592     20645     21662     20554     27608     28454     27377     26627     22749     27688
 -1      9349    6    0    1
 -2     21662     20604     20553     20645     28259     22657     28045     28454     22817     22750
 -1      9350    6    0    1
 -2     20554     21662     20553     20645     27688     28045     21895     22749     28454     22750
 -1      9351    6    0    1
 -2     20419     21537     20418     20587     26190     27078     21748     22620     27957     22621
 -1      9352    6    0    1
 -2     20571     21004     21619     21714     23927     28432     28344     28207     26751     26987
 -1      9353    6    0    1
 -2     20734     21712     21689     20663     26318     26321     25377     23061     28293     26269
 -1      9354    6    0    1
 -2     20686     20680     21714     20643     22917     28143     28096     22916     22900     28199
 -1      9355    6    0    1
 -2     21613     21624     20667     20585     28038     28049     28047     28298     28300     22871
 -1      9356    6    0    1
 -2     20966     21663     20477     21008     27965     28220     23847     24204     28239     23936
 -1      9357    6    0    1
 -2     21663     20564     20478     21008     27773     23845     27772     28239     23975     23937
 -1      9358    6    0    1
 -2     20477     21663     20478     21008     28220     27772     21808     23936     28239     23937
 -1      9359    6    0    1
 -2     21659     21677     20438     21401     27959     26724     28114     27819     26671     22052
 -1      9360    6    0    1
 -2     20571     21043     21004     21714     24018     24080     23927     28207     28208     26751
 -1      9361    6    0    1
 -2     20967     21588     20475     21009     27009     27753     23849     24059     28141     23938
 -1      9362    6    0    1
 -2     21439     21440     21680     21441     22277     28455     27723     22428     22282     28177
 -1      9363    6    0    1
 -2     21615     21030     20532     20531     28051     23990     28016     28018     23989     21872
 -1      9364    6    0    1
 -2     21714     21043     21004     21087     28208     24080     26751     26750     24195     24194
 -1      9365    6    0    1
 -2     21615     21030     21069     20989     28051     24143     28124     28050     24045     24144
 -1      9366    6    0    1
 -2     21465     21460     21615     21435     22444     28163     26939     22416     22385     26940
 -1      9367    6    0    1
 -2     21615     21446     21525     21524     28245     28246     26942     28266     28035     28033
 -1      9368    6    0    1
 -2     21030     21524     20531     21615     26794     27154     23989     28051     28266     28018
 -1      9369    6    0    1
 -2     21689     21712     20483     20663     26321     28235     28423     26269     28293     22792
 -1      9370    6    0    1
 -2     21664     21525     21610     21029     26917     26920     26918     28456     27419     28354
 -1      9371    6    0    1
 -2     21664     21029     21610     20534     28456     28354     26918     27875     23988     27876
 -1      9372    6    0    1
 -2     21029     20533     20534     21664     23987     21874     23988     28456     27887     27875
 -1      9373    6    0    1
 -2     20989     21525     21664     21029     27697     26917     28238     24088     27419     28456
 -1      9374    6    0    1
 -2     20989     21029     21664     20533     24088     28456     28238     23895     23987     27887
 -1      9375    6    0    1
 -2     21552     21440     21347     21680     28340     22278     25132     25131     28455     25129
 -1      9376    6    0    1
 -2     20600     21665     20639     21528     26565     28367     22844     26568     26569     28092
 -1      9377    6    0    1
 -2     20444     20639     20600     21665     22733     22844     22647     28218     28367     26565
 -1      9378    6    0    1
 -2     21497     21665     21693     21528     28131     26566     28020     27053     26569     26567
 -1      9379    6    0    1
 -2     21665     21515     21568     21368     27987     25818     27770     27769     26757     26754
 -1      9380    6    0    1
 -2     21497     21515     21693     21665     22561     27988     28020     28131     27987     26566
 -1      9381    6    0    1
 -2     20600     20445     20444     21665     22646     21774     22647     26565     27771     28218
 -1      9382    6    0    1
 -2     20736     20780     21172     21534     23215     26181     27477     26404     26180     25789
 -1      9383    6    0    1
 -2     21568     21693     20600     20544     27989     26564     28390     25820     26796     22650
 -1      9384    6    0    1
 -2     21657     21634     21702     20659     27700     28329     27890     27699     27701     27891
 -1      9385    6    0    1
 -2     20811     21259     21204     20825     25642     24752     27311     23353     26516     25620
 -1      9386    6    0    1
 -2     20523     20522     21666     20994     21863     27947     27946     23905     23904     26316
 -1      9387    6    0    1
 -2     21666     20522     21035     20994     27947     24000     27951     26316     23904     24050
 -1      9388    6    0    1
 -2     21035     21112     21666     20994     24274     25764     27951     24050     24275     26316
 -1      9389    6    0    1
 -2     21573     21430     21683     21077     25772     25705     25777     25765     25706     25707
 -1      9390    6    0    1
 -2     21077     21683     21666     20994     25707     25778     25763     24169     28310     26316
 -1      9391    6    0    1
 -2     20994     21666     20523     21683     26316     27946     23905     28310     25778     28299
 -1      9392    6    0    1
 -2     20734     21712     21551     21064     26318     27063     27180     27159     27064     27065
 -1      9393    6    0    1
 -2     21439     21552     21680     21440     26472     25131     27723     22277     28340     28455
 -1      9394    6    0    1
 -2     20977     21521     21667     21019     27637     25871     28343     24069     26241     28457
 -1      9395    6    0    1
 -2     20977     21019     21667     20455     24069     28457     28343     23869     23958     27985
 -1      9396    6    0    1
 -2     20456     21019     20455     21667     23959     23958     21786     27986     28457     27985
 -1      9397    6    0    1
 -2     21521     21534     21667     21019     25207     27956     25871     26241     26242     28457
 -1      9398    6    0    1
 -2     21019     20456     21553     21667     23959     25144     25583     28457     27986     28230
 -1      9399    6    0    1
 -2     21019     21667     21553     21534     28457     28230     25583     26242     27956     26688
 -1      9400    6    0    1
 -2     21104     21410     21668     20978     25163     26115     27901     24242     25166     27664
 -1      9401    6    0    1
 -2     20451     21668     20452     21021     27958     27665     21782     23962     27902     23963
 -1      9402    6    0    1
 -2     21021     21537     21614     21668     26184     27209     27207     27902     26118     27961
 -1      9403    6    0    1
 -2     21021     21668     21614     20451     27902     27961     27207     23962     27958     28083
 -1      9404    6    0    1
 -2     20452     21668     21354     21607     27665     28332     21940     27667     27666     26204
 -1      9405    6    0    1
 -2     21410     21668     21607     21354     26115     27666     25164     22170     28332     26204
 -1      9406    6    0    1
 -2     21593     20683     21527     21115     26593     26590     25276     25278     28203     25277
 -1      9407    6    0    1
 -2     21363     21677     21659     21401     26669     27959     27444     22156     26671     27819
 -1      9408    6    0    1
 -2     21003     20572     20573     21669     23924     21915     23925     27279     27069     27908
 -1      9409    6    0    1
 -2     21003     20573     21042     21669     23925     24016     24079     27279     27908     27907
 -1      9410    6    0    1
 -2     21669     21527     21671     21042     25280     26009     27905     27907     26992     27906
 -1      9411    6    0    1
 -2     21669     21042     21084     21527     27907     24186     26364     25280     26992     26365
 -1      9412    6    0    1
 -2     21587     20664     21613     21516     28362     28151     25155     25156     25231     25158
 -1      9413    6    0    1
 -2     20485     20664     21587     20484     22795     28362     28102     21819     22796     26395
 -1      9414    6    0    1
 -2     21613     20485     20585     20664     28086     22704     28298     28151     22795     22794
 -1      9415    6    0    1
 -2     21613     20585     20667     20664     28298     22871     28047     28151     22794     22967
 -1      9416    6    0    1
 -2     20485     20484     21587     21419     21819     26395     28102     22207     22208     25153
 -1      9417    6    0    1
 -2     21089     21009     21588     20967     24201     28141     27810     24200     24059     27009
 -1      9418    6    0    1
 -2     21529     21057     21020     21670     26681     24117     28346     27284     27283     28458
 -1      9419    6    0    1
 -2     21020     20453     21670     20978     23960     28227     28458     24070     23871     28211
 -1      9420    6    0    1
 -2     21020     20453     20454     21670     23960     21784     23961     28458     28227     28226
 -1      9421    6    0    1
 -2     21020     21670     21611     21529     28458     28348     28333     28346     27284     25265
 -1      9422    6    0    1
 -2     21020     20454     21611     21670     23961     27932     28333     28458     28226     28348
 -1      9423    6    0    1
 -2     21670     21057     21020     20978     27283     24117     28458     28211     24116     24070
 -1      9424    6    0    1
 -2     21690     21022     20449     21621     27762     23964     27836     27759     27761     25636
 -1      9425    6    0    1
 -2     20575     20576     21715     21482     21918     28405     28279     22464     22463     28260
 -1      9426    6    0    1
 -2     21715     20576     21041     21001     28405     24015     28281     25849     23920     24054
 -1      9427    6    0    1
 -2     21715     21001     21041     21092     25849     24054     28281     26595     24213     24212
 -1      9428    6    0    1
 -2     21537     21022     21621     21059     26966     27761     27071     27077     24121     27553
 -1      9429    6    0    1
 -2     21082     21002     21606     21526     24181     28407     27791     25656     27971     27792
 -1      9430    6    0    1
 -2     21086     21002     21671     21042     24191     28330     26008     24190     24055     27906
 -1      9431    6    0    1
 -2     21086     21042     21671     21527     24190     27906     26008     26010     26992     26009
 -1      9432    6    0    1
 -2     21042     21671     20574     21002     27906     27611     24017     24055     28330     23922
 -1      9433    6    0    1
 -2     20446     20409     21344     21623     21776     21741     21968     27518     25804     25802
 -1      9434    6    0    1
 -2     20659     21576     20511     21702     27893     26006     22781     27891     26196     26194
 -1      9435    6    0    1
 -2     20442     21580     21638     21369     26169     27731     27991     21973     26171     27329
 -1      9436    6    0    1
 -2     21479     20569     21648     21561     22458     26995     25446     25438     26994     26996
 -1      9437    6    0    1
 -2     21636     20607     21652     20688     28313     25854     28301     28302     22921     25855
 -1      9438    6    0    1
 -2     21488     21574     20610     21703     25926     27434     27197     28411     27507     27505
 -1      9439    6    0    1
 -2     21452     21604     20494     21645     26540     27528     22307     26789     27559     26788
 -1      9440    6    0    1
 -2     21488     21703     20610     21656     28411     27505     27197     27116     28459     27195
 -1      9441    6    0    1
 -2     20522     21558     21454     21666     25371     25369     22313     27947     27950     25823
 -1      9442    6    0    1
 -2     20453     21607     21386     21670     28181     26203     22016     28227     28210     28160
 -1      9443    6    0    1
 -2     21686     21000     21636     21508     27174     28303     27365     27366     27127     26250
 -1      9444    6    0    1
 -2     20610     21644     20493     21574     27787     26560     22672     27434     28412     26570
 -1      9445    6    0    1
 -2     21577     21624     20625     20667     27814     27815     25116     28048     28049     22870
 -1      9446    6    0    1
 -2     21624     20415     21672     20625     25812     25815     25813     27815     22706     25118
 -1      9447    6    0    1
 -2     21681     21412     21672     21385     28388     27834     27919     27766     22174     27835
 -1      9448    6    0    1
 -2     21681     20415     21672     21412     28387     25815     27919     28388     22073     27834
 -1      9449    6    0    1
 -2     21577     20667     20625     21023     28048     22870     25116     27007     27140     28113
 -1      9450    6    0    1
 -2     20701     21641     21676     20620     25992     28445     28372     22951     28446     27017
 -1      9451    6    0    1
 -2     21577     21350     21559     21672     26075     27826     25113     25115     25814     25114
 -1      9452    6    0    1
 -2     20471     21625     21673     21011     25826     25829     25827     23942     26876     26861
 -1      9453    6    0    1
 -2     21441     21346     21440     21680     22281     22279     22282     28177     26838     28455
 -1      9454    6    0    1
 -2     21673     21364     21603     21569     27974     26743     25189     25193     26744     25192
 -1      9455    6    0    1
 -2     20471     21673     20472     21011     25827     27973     21802     23942     26861     23943
 -1      9456    6    0    1
 -2     21418     21342     21343     21577     22203     21739     22202     26102     26074     26073
 -1      9457    6    0    1
 -2     21627     21484     21698     21506     27269     28376     25937     25899     22599     27131
 -1      9458    6    0    1
 -2     21673     20472     20968     21603     27973     23850     25842     25189     27510     25843
 -1      9459    6    0    1
 -2     20719     20637     21673     21569     23007     28351     25190     25191     28397     25193
 -1      9460    6    0    1
 -2     21641     20620     20512     21676     28446     22692     26455     28445     27017     26550
 -1      9461    6    0    1
 -2     20422     20423     21618     20589     21752     27832     26030     22625     22624     27931
 -1      9462    6    0    1
 -2     21463     21676     20513     21650     27404     26552     22350     25286     27018     28378
 -1      9463    6    0    1
 -2     20422     20589     21618     21529     22625     27931     26030     25275     27631     26031
 -1      9464    6    0    1
 -2     21654     21495     21513     21499     25308     22559     25464     25444     22609     22605
 -1      9465    6    0    1
 -2     21683     20523     21454     21666     28299     22315     25822     25778     27946     25823
 -1      9466    6    0    1
 -2     21725     21477     21663     20565     28327     26624     27966     27969     22454     27968
 -1      9467    6    0    1
 -2     20513     21676     20620     21650     26552     27017     22691     28378     27018     27015
 -1      9468    6    0    1
 -2     21663     21008     20565     20564     28239     24025     27968     27773     23975     21907
 -1      9469    6    0    1
 -2     21051     20972     21635     21531     24104     28440     26144     25875     26380     26145
 -1      9470    6    0    1
 -2     20465     20972     21579     21635     23859     28417     26165     26164     28440     26162
 -1      9471    6    0    1
 -2     21635     20972     21579     21531     28440     28417     26162     26145     26380     26556
 -1      9472    6    0    1
 -2     21674     20430     20632     20429     26238     22719     28369     26239     21759     22720
 -1      9473    6    0    1
 -2     21436     21462     21657     21444     22375     27895     27747     22420     22421     27820
 -1      9474    6    0    1
 -2     21436     21444     21657     21713     22420     27820     27747     27749     27041     27748
 -1      9475    6    0    1
 -2     20593     20632     21674     20430     22837     28369     26802     22633     22719     26238
 -1      9476    6    0    1
 -2     20593     20430     21674     21565     22633     26238     26802     25616     25847     26823
 -1      9477    6    0    1
 -2     20701     21437     21676     21641     25993     27403     28372     25992     25994     28445
 -1      9478    6    0    1
 -2     21581     20462     21585     21016     26208     27354     27353     28418     23953     28318
 -1      9479    6    0    1
 -2     21028     20988     20700     21107     24090     25751     27975     24252     24254     26634
 -1      9480    6    0    1
 -2     20462     20461     21585     21016     21792     26336     27354     23953     23952     28318
 -1      9481    6    0    1
 -2     21581     21016     21585     21532     28418     28318     27353     28317     26123     26660
 -1      9482    6    0    1
 -2     21675     21517     21643     20662     26056     26059     26057     28391     27000     28448
 -1      9483    6    0    1
 -2     21675     20662     21643     20480     28391     28448     26057     26509     22787     26510
 -1      9484    6    0    1
 -2     21675     21076     21517     20662     27163     27215     26056     28391     27214     27000
 -1      9485    6    0    1
 -2     20563     21703     21488     21656     27506     28411     22481     28382     28459     27116
 -1      9486    6    0    1
 -2     21675     20623     20662     20481     27164     22790     28391     27783     22701     22791
 -1      9487    6    0    1
 -2     21440     21346     21347     21680     22279     21811     22278     28455     26838     25129
 -1      9488    6    0    1
 -2     20610     21703     20563     21656     27505     27506     22670     27195     28459     28382
 -1      9489    6    0    1
 -2     20662     20481     20480     21675     22791     21815     22787     28391     27783     26509
 -1      9490    6    0    1
 -2     20512     20513     21676     20620     21852     26552     26550     22692     22691     27017
 -3
    1PSTEP                         1           1           1          
  100CL  101 1.000000000        8053                     0    1           1
 -4  DISP        4    1
 -5  D1          1    2    1    0
 -5  D2          1    2    2    0
 -5  D3          1    2    3    0
 -5  ALL         1    2    0    0    1ALL
 -1     20407-6.10555E+00 2.98314E+01 0.00000E+00
 -1     20408-6.10404E+00 2.98303E+01 0.00000E+00
 -1     20409 0.00000E+00 0.00000E+00 0.00000E+00
 -1     20410 0.00000E+00 0.00000E+00 0.00000E+00
 -1     20411-2.39718E+01 3.22757E+01 0.00000E+00
 -1     20412-2.39629E+01 3.22666E+01 0.00000E+00
 -1     20413 0.00000E+00 0.00000E+00 0.00000E+00
 -1     20414 0.00000E+00 0.00000E+00 0.00000E+00
 -1     20415-4.80849E+00 2.79512E+01 0.00000E+00
 -1     20416-3.69659E+00 2.60913E+01 0.00000E+00
 -1     20417-2.71165E+00 2.42755E+01 0.00000E+00
 -1     20418-1.83731E+00 2.25170E+01 0.00000E+00
 -1     20419-1.06368E+00 2.08245E+01 0.00000E+00
 -1     20420-3.84855E-01 1.92015E+01 0.00000E+00
 -1     20421 2.06446E-01 1.76508E+01 0.00000E+00
 -1     20422 7.14740E-01 1.61738E+01 0.00000E+00
 -1     20423 1.14372E+00 1.47713E+01 0.00000E+00
 -1     20424 1.49772E+00 1.34431E+01 0.00000E+00
 -1     20425 1.78007E+00 1.21896E+01 0.00000E+00
 -1     20426 1.99430E+00 1.10105E+01 0.00000E+00
 -1     20427 2.14402E+00 9.90596E+00 0.00000E+00
 -1     20428 2.23304E+00 8.87590E+00 0.00000E+00
 -1     20429 2.26557E+00 7.92027E+00 0.00000E+00
 -1     20430 2.24665E+00 7.03876E+00 0.00000E+00
 -1     20431 2.18137E+00 6.23081E+00 0.00000E+00
 -1     20432 2.07596E+00 5.49521E+00 0.00000E+00
 -1     20433 1.93736E+00 4.83028E+00 0.00000E+00
 -1     20434 1.77262E+00 4.23308E+00 0.00000E+00
 -1     20435 1.58960E+00 3.69994E+00 0.00000E+00
 -1     20436 1.39615E+00 3.22615E+00 0.00000E+00
 -1     20437 1.19964E+00 2.80535E+00 0.00000E+00
 -1     20438 1.00768E+00 2.43063E+00 0.00000E+00
 -1     20439 8.26055E-01 2.09453E+00 0.00000E+00
 -1     20440 6.60273E-01 1.78845E+00 0.00000E+00
 -1     20441 5.13726E-01 1.50400E+00 0.00000E+00
 -1     20442 3.88371E-01 1.23359E+00 0.00000E+00
 -1     20443 2.83463E-01 9.70040E-01 0.00000E+00
 -1     20444 1.96097E-01 7.09983E-01 0.00000E+00
 -1     20445 1.22341E-01 4.53435E-01 0.00000E+00
 -1     20446 5.61212E-02 2.07771E-01 0.00000E+00
 -1     20447-4.80817E+00 2.79495E+01 0.00000E+00
 -1     20448-3.69706E+00 2.60911E+01 0.00000E+00
 -1     20449-2.71103E+00 2.42758E+01 0.00000E+00
 -1     20450-1.83695E+00 2.25173E+01 0.00000E+00
 -1     20451-1.06392E+00 2.08244E+01 0.00000E+00
 -1     20452-3.84859E-01 1.92014E+01 0.00000E+00
 -1     20453 2.06511E-01 1.76508E+01 0.00000E+00
 -1     20454 7.14597E-01 1.61739E+01 0.00000E+00
 -1     20455 1.14374E+00 1.47712E+01 0.00000E+00
 -1     20456 1.49766E+00 1.34431E+01 0.00000E+00
 -1     20457 1.78006E+00 1.21895E+01 0.00000E+00
 -1     20458 1.99431E+00 1.10105E+01 0.00000E+00
 -1     20459 2.14397E+00 9.90574E+00 0.00000E+00
 -1     20460 2.23321E+00 8.87599E+00 0.00000E+00
 -1     20461 2.26568E+00 7.92030E+00 0.00000E+00
 -1     20462 2.24659E+00 7.03878E+00 0.00000E+00
 -1     20463 2.18128E+00 6.23079E+00 0.00000E+00
 -1     20464 2.07596E+00 5.49530E+00 0.00000E+00
 -1     20465 1.93724E+00 4.83030E+00 0.00000E+00
 -1     20466 1.77271E+00 4.23316E+00 0.00000E+00
 -1     20467 1.58974E+00 3.69992E+00 0.00000E+00
 -1     20468 1.39614E+00 3.22612E+00 0.00000E+00
 -1     20469 1.19976E+00 2.80546E+00 0.00000E+00
 -1     20470 1.00769E+00 2.43085E+00 0.00000E+00
 -1     20471 8.26102E-01 2.09468E+00 0.00000E+00
 -1     20472 6.60360E-01 1.78849E+00 0.00000E+00
 -1     20473 5.13756E-01 1.50408E+00 0.00000E+00
 -1     20474 3.88313E-01 1.23345E+00 0.00000E+00
 -1     20475 2.83434E-01 9.70083E-01 0.00000E+00
 -1     20476 1.96201E-01 7.09963E-01 0.00000E+00
 -1     20477 1.22290E-01 4.53448E-01 0.00000E+00
 -1     20478 5.61781E-02 2.07788E-01 0.00000E+00
 -1     20479-2.07173E+01 3.19627E+01 0.00000E+00
 -1     20480-1.81142E+01 3.15646E+01 0.00000E+00
 -1     20481-1.58102E+01 3.11733E+01 0.00000E+00
 -1     20482-1.37070E+01 3.07978E+01 0.00000E+00
 -1     20483-1.17466E+01 3.04569E+01 0.00000E+00
 -1     20484-9.88267E+00 3.01663E+01 0.00000E+00
 -1     20485-8.05442E+00 2.99515E+01 0.00000E+00
 -1     20486-2.07134E+01 3.19624E+01 0.00000E+00
 -1     20487-1.81134E+01 3.15677E+01 0.00000E+00
 -1     20488-1.58102E+01 3.11724E+01 0.00000E+00
 -1     20489-1.37069E+01 3.07982E+01 0.00000E+00
 -1     20490-1.17469E+01 3.04568E+01 0.00000E+00
 -1     20491-9.88361E+00 3.01687E+01 0.00000E+00
 -1     20492-8.05474E+00 2.99545E+01 0.00000E+00
 -1     20493-1.22416E+00 5.04967E-01 0.00000E+00
 -1     20494-2.05726E+00 8.19248E-01 0.00000E+00
 -1     20495-2.81966E+00 1.14223E+00 0.00000E+00
 -1     20496-3.56207E+00 1.51338E+00 0.00000E+00
 -1     20497-4.30167E+00 1.94256E+00 0.00000E+00
 -1     20498-5.04759E+00 2.43525E+00 0.00000E+00
 -1     20499-5.80592E+00 2.99595E+00 0.00000E+00
 -1     20500-6.58106E+00 3.62822E+00 0.00000E+00
 -1     20501-7.37557E+00 4.33583E+00 0.00000E+00
 -1     20502-8.19177E+00 5.12293E+00 0.00000E+00
 -1     20503-9.03093E+00 5.99344E+00 0.00000E+00
 -1     20504-9.89344E+00 6.95166E+00 0.00000E+00
 -1     20505-1.07792E+01 8.00170E+00 0.00000E+00
 -1     20506-1.16872E+01 9.14751E+00 0.00000E+00
 -1     20507-1.26159E+01 1.03930E+01 0.00000E+00
 -1     20508-1.35629E+01 1.17414E+01 0.00000E+00
 -1     20509-1.45256E+01 1.31955E+01 0.00000E+00
 -1     20510-1.55003E+01 1.47576E+01 0.00000E+00
 -1     20511-1.64837E+01 1.64289E+01 0.00000E+00
 -1     20512-1.74732E+01 1.82104E+01 0.00000E+00
 -1     20513-1.84680E+01 2.01032E+01 0.00000E+00
 -1     20514-1.94717E+01 2.21116E+01 0.00000E+00
 -1     20515-2.04949E+01 2.42492E+01 0.00000E+00
 -1     20516-2.15590E+01 2.65488E+01 0.00000E+00
 -1     20517-2.27058E+01 2.91053E+01 0.00000E+00
 -1     20518-1.23943E+00 5.17539E-01 0.00000E+00
 -1     20519-2.05742E+00 8.21371E-01 0.00000E+00
 -1     20520-2.82046E+00 1.14234E+00 0.00000E+00
 -1     20521-3.56233E+00 1.51310E+00 0.00000E+00
 -1     20522-4.30166E+00 1.94242E+00 0.00000E+00
 -1     20523-5.04759E+00 2.43522E+00 0.00000E+00
 -1     20524-5.80597E+00 2.99599E+00 0.00000E+00
 -1     20525-6.58092E+00 3.62825E+00 0.00000E+00
 -1     20526-7.37554E+00 4.33590E+00 0.00000E+00
 -1     20527-8.19176E+00 5.12291E+00 0.00000E+00
 -1     20528-9.03103E+00 5.99336E+00 0.00000E+00
 -1     20529-9.89364E+00 6.95163E+00 0.00000E+00
 -1     20530-1.07791E+01 8.00153E+00 0.00000E+00
 -1     20531-1.16870E+01 9.14757E+00 0.00000E+00
 -1     20532-1.26158E+01 1.03930E+01 0.00000E+00
 -1     20533-1.35630E+01 1.17414E+01 0.00000E+00
 -1     20534-1.45256E+01 1.31955E+01 0.00000E+00
 -1     20535-1.55004E+01 1.47575E+01 0.00000E+00
 -1     20536-1.64838E+01 1.64289E+01 0.00000E+00
 -1     20537-1.74732E+01 1.82103E+01 0.00000E+00
 -1     20538-1.84680E+01 2.01031E+01 0.00000E+00
 -1     20539-1.94718E+01 2.21118E+01 0.00000E+00
 -1     20540-2.04947E+01 2.42489E+01 0.00000E+00
 -1     20541-2.15594E+01 2.65483E+01 0.00000E+00
 -1     20542-2.27055E+01 2.90999E+01 0.00000E+00
 -1     20543 0.00000E+00 0.00000E+00 0.00000E+00
 -1     20544 0.00000E+00 0.00000E+00 0.00000E+00
 -1     20545 0.00000E+00 0.00000E+00 0.00000E+00
 -1     20546 0.00000E+00 0.00000E+00 0.00000E+00
 -1     20547 0.00000E+00 0.00000E+00 0.00000E+00
 -1     20548 0.00000E+00 0.00000E+00 0.00000E+00
 -1     20549 0.00000E+00 0.00000E+00 0.00000E+00
 -1     20550 0.00000E+00 0.00000E+00 0.00000E+00
 -1     20551 0.00000E+00 0.00000E+00 0.00000E+00
 -1     20552 0.00000E+00 0.00000E+00 0.00000E+00
 -1     20553 0.00000E+00 0.00000E+00 0.00000E+00
 -1     20554 0.00000E+00 0.00000E+00 0.00000E+00
 -1     20555 0.00000E+00 0.00000E+00 0.00000E+00
 -1     20556 0.00000E+00 0.00000E+00 0.00000E+00
 -1     20557 0.00000E+00 0.00000E+00 0.00000E+00
 -1     20558 0.00000E+00 0.00000E+00 0.00000E+00
 -1     20559 0.00000E+00 0.00000E+00 0.00000E+00
 -1     20560 0.00000E+00 0.00000E+00 0.00000E+00
 -1     20561 0.00000E+00 0.00000E+00 0.00000E+00
 -1     20562 0.00000E+00 0.00000E+00 0.00000E+00
 -1     20563 0.00000E+00 0.00000E+00 0.00000E+00
 -1     20564 0.00000E+00 0.00000E+00 0.00000E+00
 -1     20565 0.00000E+00 0.00000E+00 0.00000E+00
 -1     20566 0.00000E+00 0.00000E+00 0.00000E+00
 -1     20567 0.00000E+00 0.00000E+00 0.00000E+00
 -1     20568 0.00000E+00 0.00000E+00 0.00000E+00
 -1     20569 0.00000E+00 0.00000E+00 0.00000E+00
 -1     20570 0.00000E+00 0.00000E+00 0.00000E+00
 -1     20571 0.00000E+00 0.00000E+00 0.00000E+00
 -1     20572 0.00000E+00 0.00000E+00 0.00000E+00
 -1     20573 0.00000E+00 0.00000E+00 0.00000E+00
 -1     20574 0.00000E+00 0.00000E+00 0.00000E+00
 -1     20575 0.00000E+00 0.00000E+00 0.00000E+00
 -1     20576 0.00000E+00 0.00000E+00 0.00000E+00
 -1     20577 0.00000E+00 0.00000E+00 0.00000E+00
 -1     20578 0.00000E+00 0.00000E+00 0.00000E+00
 -1     20579 0.00000E+00 0.00000E+00 0.00000E+00
 -1     20580 0.00000E+00 0.00000E+00 0.00000E+00
 -1     20581 0.00000E+00 0.00000E+00 0.00000E+00
 -1     20582 0.00000E+00 0.00000E+00 0.00000E+00
 -1     20583 0.00000E+00 0.00000E+00 0.00000E+00
 -1     20584 0.00000E+00 0.00000E+00 0.00000E+00
 -1     20585-6.80425E+00 2.78289E+01 0.00000E+00
 -1     20586-4.40262E+00 2.39735E+01 0.00000E+00
 -1     20587-2.44379E+00 2.04980E+01 0.00000E+00
 -1     20588-9.05496E-01 1.73420E+01 0.00000E+00
 -1     20589 2.54700E-01 1.44951E+01 0.00000E+00
 -1     20590 1.10166E+00 1.19616E+01 0.00000E+00
 -1     20591 1.66123E+00 9.72581E+00 0.00000E+00
 -1     20592 1.95601E+00 7.77991E+00 0.00000E+00
 -1     20593 2.01931E+00 6.12220E+00 0.00000E+00
 -1     20594 1.89297E+00 4.74713E+00 0.00000E+00
 -1     20595 1.62869E+00 3.63803E+00 0.00000E+00
 -1     20596 1.28499E+00 2.76166E+00 0.00000E+00
 -1     20597 9.21683E-01 2.06791E+00 0.00000E+00
 -1     20598 5.89282E-01 1.48827E+00 0.00000E+00
 -1     20599 3.19852E-01 9.40677E-01 0.00000E+00
 -1     20600 1.07934E-01 3.52956E-01 0.00000E+00
 -1     20601 1.18577E-01 3.17150E-01 0.00000E+00
 -1     20602 1.27426E-01 2.81658E-01 0.00000E+00
 -1     20603 1.33945E-01 2.48613E-01 0.00000E+00
 -1     20604 1.22607E-01 1.96697E-01 0.00000E+00
 -1     20605 9.08962E-02 1.34547E-01 0.00000E+00
 -1     20606 3.60616E-02 7.06213E-02 0.00000E+00
 -1     20607-4.05007E-02 1.80633E-02 0.00000E+00
 -1     20608-1.41941E-01-5.74565E-03 0.00000E+00
 -1     20609-3.17147E-01 5.30988E-02 0.00000E+00
 -1     20610-5.39594E-01 2.12042E-01 0.00000E+00
 -1     20611-2.02168E+00 8.98756E-01 0.00000E+00
 -1     20612-3.38131E+00 1.68897E+00 0.00000E+00
 -1     20613-4.73725E+00 2.71491E+00 0.00000E+00
 -1     20614-6.15088E+00 4.02409E+00 0.00000E+00
 -1     20615-7.64056E+00 5.65168E+00 0.00000E+00
 -1     20616-9.21054E+00 7.62758E+00 0.00000E+00
 -1     20617-1.08666E+01 9.98197E+00 0.00000E+00
 -1     20618-1.26059E+01 1.27384E+01 0.00000E+00
 -1     20619-1.44140E+01 1.59260E+01 0.00000E+00
 -1     20620-1.61187E+01 1.96344E+01 0.00000E+00
 -1     20621-1.77803E+01 2.39322E+01 0.00000E+00
 -1     20622-1.96849E+01 2.89464E+01 0.00000E+00
 -1     20623-1.47081E+01 2.83344E+01 0.00000E+00
 -1     20624-1.05580E+01 2.80738E+01 0.00000E+00
 -1     20625-5.54929E+00 2.58498E+01 0.00000E+00
 -1     20626-3.36965E+00 2.21931E+01 0.00000E+00
 -1     20627-1.62356E+00 1.88829E+01 0.00000E+00
 -1     20628-2.83166E-01 1.58786E+01 0.00000E+00
 -1     20629 7.15254E-01 1.31901E+01 0.00000E+00
 -1     20630 1.41614E+00 1.08073E+01 0.00000E+00
 -1     20631 1.83989E+00 8.71675E+00 0.00000E+00
 -1     20632 2.01413E+00 6.91521E+00 0.00000E+00
 -1     20633 1.97689E+00 5.40034E+00 0.00000E+00
 -1     20634 1.77448E+00 4.16070E+00 0.00000E+00
 -1     20635 1.46322E+00 3.17410E+00 0.00000E+00
 -1     20636 1.10209E+00 2.39517E+00 0.00000E+00
 -1     20637 7.49290E-01 1.77016E+00 0.00000E+00
 -1     20638 4.45665E-01 1.21397E+00 0.00000E+00
 -1     20639 2.09838E-01 6.59395E-01 0.00000E+00
 -1     20640 6.22386E-02 2.10400E-01 0.00000E+00
 -1     20641 1.13161E-01 3.34084E-01 0.00000E+00
 -1     20642 1.23038E-01 2.98939E-01 0.00000E+00
 -1     20643 1.31767E-01 2.66132E-01 0.00000E+00
 -1     20644 1.31125E-01 2.24972E-01 0.00000E+00
 -1     20645 1.09455E-01 1.66354E-01 0.00000E+00
 -1     20646 6.62298E-02 1.02012E-01 0.00000E+00
 -1     20647 4.65212E-04 4.20057E-02 0.00000E+00
 -1     20648-8.70840E-02 8.02038E-04 0.00000E+00
 -1     20649-2.11656E-01 4.84720E-03 0.00000E+00
 -1     20650-4.05263E+00 2.16849E+00 0.00000E+00
 -1     20651-1.29307E+00 5.59522E-01 0.00000E+00
 -1     20652-2.71124E+00 1.26970E+00 0.00000E+00
 -1     20653-5.43336E+00 3.33083E+00 0.00000E+00
 -1     20654-6.88476E+00 4.79673E+00 0.00000E+00
 -1     20655-8.41547E+00 6.59388E+00 0.00000E+00
 -1     20656-1.00312E+01 8.75675E+00 0.00000E+00
 -1     20657-1.17241E+01 1.13104E+01 0.00000E+00
 -1     20658-1.35085E+01 1.42723E+01 0.00000E+00
 -1     20659-1.52903E+01 1.77151E+01 0.00000E+00
 -1     20660-1.69388E+01 2.17065E+01 0.00000E+00
 -1     20661-1.87049E+01 2.63230E+01 0.00000E+00
 -1     20662-1.70744E+01 2.86769E+01 0.00000E+00
 -1     20663-1.25511E+01 2.81581E+01 0.00000E+00
 -1     20664-8.68207E+00 2.79301E+01 0.00000E+00
 -1     20665-2.96382E+00 1.85874E+01 0.00000E+00
 -1     20666-1.37840E+00 1.55938E+01 0.00000E+00
 -1     20667-7.41997E+00 2.57856E+01 0.00000E+00
 -1     20668-1.71645E-01 1.29281E+01 0.00000E+00
 -1     20669-2.11294E+00 1.70515E+01 0.00000E+00
 -1     20670 7.34455E-01 1.05865E+01 0.00000E+00
 -1     20671 1.34813E+00 8.53732E+00 0.00000E+00
 -1     20672 1.68738E+00 6.76708E+00 0.00000E+00
 -1     20673 1.78892E+00 5.27497E+00 0.00000E+00
 -1     20674 1.69516E+00 4.05107E+00 0.00000E+00
 -1     20675 1.46004E+00 3.07777E+00 0.00000E+00
 -1     20676 1.14231E+00 2.31327E+00 0.00000E+00
 -1     20677 8.04127E-01 1.70920E+00 0.00000E+00
 -1     20678 4.91534E-01 1.18008E+00 0.00000E+00
 -1     20679 2.43168E-01 6.03696E-01 0.00000E+00
 -1     20680 2.66807E-01 5.46195E-01 0.00000E+00
 -1     20681 2.27645E-01 6.32092E-01 0.00000E+00
 -1     20682 2.21201E-01 3.51649E-01 0.00000E+00
 -1     20683 2.82142E-01 4.95674E-01 0.00000E+00
 -1     20684-1.38172E+00 6.57171E-01 0.00000E+00
 -1     20685 2.51426E-01 4.01628E-01 0.00000E+00
 -1     20686 2.79537E-01 5.26566E-01 0.00000E+00
 -1     20687 1.21455E-01 2.43443E-01 0.00000E+00
 -1     20688-2.59735E-02 1.51264E-01 0.00000E+00
 -1     20689-2.20672E-01 1.04116E-01 0.00000E+00
 -1     20690-5.19751E-01 1.76058E-01 0.00000E+00
 -1     20691-2.57087E+00 1.44581E+00 0.00000E+00
 -1     20692-8.03681E-01 3.17943E-01 0.00000E+00
 -1     20693-6.34978E+00 5.32986E+00 0.00000E+00
 -1     20694-4.38018E+00 3.05147E+00 0.00000E+00
 -1     20695-7.75200E+00 7.27213E+00 0.00000E+00
 -1     20696-3.75815E+00 2.44760E+00 0.00000E+00
 -1     20697-7.04119E+00 6.25600E+00 0.00000E+00
 -1     20698-9.23550E+00 9.59367E+00 0.00000E+00
 -1     20699-1.07996E+01 1.23146E+01 0.00000E+00
 -1     20700-1.24950E+01 1.54135E+01 0.00000E+00
 -1     20701-1.40041E+01 1.90687E+01 0.00000E+00
 -1     20702-1.52989E+01 2.34655E+01 0.00000E+00
 -1     20703-1.60860E+01 2.59927E+01 0.00000E+00
 -1     20704-1.35115E+01 2.54729E+01 0.00000E+00
 -1     20705-3.92985E+00 2.02086E+01 0.00000E+00
 -1     20706-9.28765E+00 2.58294E+01 0.00000E+00
 -1     20707 2.71371E-01 4.49915E-01 0.00000E+00
 -1     20708-7.36755E-01 1.42182E+01 0.00000E+00
 -1     20709 3.18542E-01 1.17190E+01 0.00000E+00
 -1     20710-5.67676E+00 4.48876E+00 0.00000E+00
 -1     20711-4.99968E+00 2.19354E+01 0.00000E+00
 -1     20712 1.76336E+00 4.63060E+00 0.00000E+00
 -1     20713 1.54998E+00 7.61699E+00 0.00000E+00
 -1     20714 1.07713E+00 9.52698E+00 0.00000E+00
 -1     20715 1.76531E+00 5.98683E+00 0.00000E+00
 -1     20716 1.59139E+00 3.53418E+00 0.00000E+00
 -1     20717 1.30819E+00 2.67380E+00 0.00000E+00
 -1     20718 9.70927E-01 1.99180E+00 0.00000E+00
 -1     20719 6.43421E-01 1.44506E+00 0.00000E+00
 -1     20720 1.77810E-01 2.98033E-01 0.00000E+00
 -1     20721 3.52986E-01 9.10870E-01 0.00000E+00
 -1     20722 2.54704E-01 5.71840E-01 0.00000E+00
 -1     20723 5.35532E-02 1.93602E-01 0.00000E+00
 -1     20724-1.98419E+00 1.03163E+00 0.00000E+00
 -1     20725-1.16880E-01 1.19742E-01 0.00000E+00
 -1     20726-3.45731E-01 1.14267E-01 0.00000E+00
 -1     20727-3.15687E+00 1.91461E+00 0.00000E+00
 -1     20728-5.02008E+00 3.73056E+00 0.00000E+00
 -1     20729-1.00040E+01 1.09053E+01 0.00000E+00
 -1     20730-8.48459E+00 8.38339E+00 0.00000E+00
 -1     20731-1.16332E+01 1.38149E+01 0.00000E+00
 -1     20732-1.33091E+01 1.71591E+01 0.00000E+00
 -1     20733-1.46486E+01 2.11415E+01 0.00000E+00
 -1     20734-1.12294E+01 2.58947E+01 0.00000E+00
 -1     20735-6.17114E+00 2.37908E+01 0.00000E+00
 -1     20736 3.96902E-01 9.31227E+00 0.00000E+00
 -1     20737 1.13375E+00 2.20094E+00 0.00000E+00
 -1     20738 1.27477E+00 6.60193E+00 0.00000E+00
 -1     20739 1.39328E+00 2.94773E+00 0.00000E+00
 -1     20740 1.54403E+00 3.91740E+00 0.00000E+00
 -1     20741 8.13579E-01 1.59352E+00 0.00000E+00
 -1     20742 1.52132E+00 5.13142E+00 0.00000E+00
 -1     20743 1.27417E+00 2.55143E+00 0.00000E+00
 -1     20744 9.76758E-01 1.88238E+00 0.00000E+00
 -1     20745 3.92903E-01 8.26772E-01 0.00000E+00
 -1     20746 3.26689E-01 5.72632E-01 0.00000E+00
 -1     20747-6.29685E-01 3.47306E-01 0.00000E+00
 -1     20748 1.48606E+00 3.40254E+00 0.00000E+00
 -1     20749-2.45957E-01 3.11462E-01 0.00000E+00
 -1     20750 3.77407E-01 8.72312E-01 0.00000E+00
 -1     20751 1.52584E-01 4.35863E-01 0.00000E+00
 -1     20752-4.16273E-01 3.05560E-01 0.00000E+00
 -1     20753 3.80307E-01 6.33282E-01 0.00000E+00
 -1     20754-9.86057E+00 1.34090E+01 0.00000E+00
 -1     20755-1.40943E+00 8.18734E-01 0.00000E+00
 -1     20756-7.72332E+00 9.21724E+00 0.00000E+00
 -1     20757 1.42826E+00 5.83298E+00 0.00000E+00
 -1     20758-9.33372E-01 4.63292E-01 0.00000E+00
 -1     20759-3.98868E+00 3.45133E+00 0.00000E+00
 -1     20760-5.16448E+00 5.02393E+00 0.00000E+00
 -1     20761-7.05142E+00 8.02686E+00 0.00000E+00
 -1     20762-6.40041E+00 6.93591E+00 0.00000E+00
 -1     20763-1.16899E+01 2.38288E+01 0.00000E+00
 -1     20764 2.49022E-01 5.02299E-01 0.00000E+00
 -1     20765-5.77309E+00 5.93631E+00 0.00000E+00
 -1     20766-9.10944E+00 1.19179E+01 0.00000E+00
 -1     20767-4.56998E+00 4.19646E+00 0.00000E+00
 -1     20768-4.40332E+00 1.83086E+01 0.00000E+00
 -1     20769 1.55843E+00 4.49422E+00 0.00000E+00
 -1     20770-7.99334E+00 2.37205E+01 0.00000E+00
 -1     20771-2.37474E+00 1.67598E+00 0.00000E+00
 -1     20772 1.05575E+00 7.44029E+00 0.00000E+00
 -1     20773 5.20520E-01 1.12977E+00 0.00000E+00
 -1     20774-5.51076E+00 1.99533E+01 0.00000E+00
 -1     20775-3.42459E+00 2.78531E+00 0.00000E+00
 -1     20776-6.71706E+00 2.17630E+01 0.00000E+00
 -1     20777-9.50309E-02 3.38425E-01 0.00000E+00
 -1     20778-2.88255E+00 2.19392E+00 0.00000E+00
 -1     20779 3.81165E-02 3.80185E-01 0.00000E+00
 -1     20780-4.55089E-02 1.03510E+01 0.00000E+00
 -1     20781 4.35202E-01 7.46429E-01 0.00000E+00
 -1     20782-5.65147E-01 1.14662E+01 0.00000E+00
 -1     20783-3.40746E+00 1.67851E+01 0.00000E+00
 -1     20784-9.87368E+00 2.37064E+01 0.00000E+00
 -1     20785-1.31017E+01 2.26147E+01 0.00000E+00
 -1     20786 7.64002E-01 8.34410E+00 0.00000E+00
 -1     20787 4.21190E-01 8.15100E-01 0.00000E+00
 -1     20788-1.89419E+00 1.22200E+00 0.00000E+00
 -1     20789-1.06737E+01 1.49655E+01 0.00000E+00
 -1     20790-1.15953E+00 1.26618E+01 0.00000E+00
 -1     20791 6.68160E-01 1.36636E+00 0.00000E+00
 -1     20792-1.82521E+00 1.39480E+01 0.00000E+00
 -1     20793 4.46121E-01 8.06413E-01 0.00000E+00
 -1     20794-8.40638E+00 1.05151E+01 0.00000E+00
 -1     20795-1.21510E+01 1.83970E+01 0.00000E+00
 -1     20796-1.15186E+01 1.65799E+01 0.00000E+00
 -1     20797 4.13209E-01 6.86619E-01 0.00000E+00
 -1     20798-1.25340E+01 2.03979E+01 0.00000E+00
 -1     20799-8.55579E+00 2.16748E+01 0.00000E+00
 -1     20800 6.20867E-01 1.17217E+00 0.00000E+00
 -1     20801 1.28430E+00 4.34641E+00 0.00000E+00
 -1     20802-9.80385E-01 6.53332E-01 0.00000E+00
 -1     20803 4.81111E-01 7.25473E+00 0.00000E+00
 -1     20804 5.08341E-01 9.18168E-01 0.00000E+00
 -1     20805-2.55685E+00 1.53295E+01 0.00000E+00
 -1     20806 7.94699E-01 1.46795E+00 0.00000E+00
 -1     20807-8.93711E+00 1.46248E+01 0.00000E+00
 -1     20808-6.32427E+00 8.85237E+00 0.00000E+00
 -1     20809-8.18775E+00 1.30344E+01 0.00000E+00
 -1     20810-5.72237E+00 7.69230E+00 0.00000E+00
 -1     20811 9.08772E-02 8.13623E+00 0.00000E+00
 -1     20812-2.11319E+00 1.95447E+00 0.00000E+00
 -1     20813-7.53846E+00 1.15248E+01 0.00000E+00
 -1     20814-1.71107E+00 1.45517E+00 0.00000E+00
 -1     20815 9.47707E-01 1.76013E+00 0.00000E+00
 -1     20816-5.94511E+00 1.79931E+01 0.00000E+00
 -1     20817-6.93387E+00 1.01275E+01 0.00000E+00
 -1     20818-3.06054E+00 3.18539E+00 0.00000E+00
 -1     20819-7.17532E+00 1.97784E+01 0.00000E+00
 -1     20820-2.22930E-01 6.07639E-01 0.00000E+00
 -1     20821-2.57124E+00 2.53197E+00 0.00000E+00
 -1     20822 5.29215E-01 1.06389E+00 0.00000E+00
 -1     20823-3.00593E+00 1.37058E+01 0.00000E+00
 -1     20824 2.91788E-01 7.54071E-01 0.00000E+00
 -1     20825-3.74782E-01 9.07960E+00 0.00000E+00
 -1     20826-3.56749E+00 3.91715E+00 0.00000E+00
 -1     20827 1.32892E+00 3.77243E+00 0.00000E+00
 -1     20828-1.06383E+01 1.76789E+01 0.00000E+00
 -1     20829 1.17926E+00 4.97471E+00 0.00000E+00
 -1     20830 1.26989E+00 2.79837E+00 0.00000E+00
 -1     20831 1.07778E+00 2.06223E+00 0.00000E+00
 -1     20832 5.81122E-01 1.00108E+00 0.00000E+00
 -1     20833-2.25275E+00 1.23969E+01 0.00000E+00
 -1     20834 7.84826E-01 6.42909E+00 0.00000E+00
 -1     20835 1.18446E+00 2.39857E+00 0.00000E+00
 -1     20836-5.15532E+00 6.61828E+00 0.00000E+00
 -1     20837 4.13281E-01 8.35363E-01 0.00000E+00
 -1     20838 1.46574E-01 6.86858E-01 0.00000E+00
 -1     20839 1.32153E+00 3.25608E+00 0.00000E+00
 -1     20840-3.78755E+00 1.51041E+01 0.00000E+00
 -1     20841-1.07329E+01 2.15852E+01 0.00000E+00
 -1     20842-6.72070E-01 5.78046E-01 0.00000E+00
 -1     20843-4.42058E-01 5.87046E-01 0.00000E+00
 -1     20844-1.36138E+00 1.03048E+00 0.00000E+00
 -1     20845-4.61315E+00 5.63048E+00 0.00000E+00
 -1     20846-9.77860E+00 1.62159E+01 0.00000E+00
 -1     20847 1.01374E+00 5.66809E+00 0.00000E+00
 -1     20848-4.79161E+00 1.65167E+01 0.00000E+00
 -1     20849-4.08547E+00 4.73081E+00 0.00000E+00
 -1     20850-1.06688E+01 1.93647E+01 0.00000E+00
 -1     20851 5.54063E-01 9.55448E-01 0.00000E+00
 -1     20852-2.45151E-02 6.38621E-01 0.00000E+00
 -1     20853-9.19692E-01 1.01032E+01 0.00000E+00
 -1     20854-8.93206E+00 1.96849E+01 0.00000E+00
 -1     20855 5.29566E-01 5.49768E+00 0.00000E+00
 -1     20856-1.55075E+00 1.12054E+01 0.00000E+00
 -1     20857-1.88999E+00 9.85257E+00 0.00000E+00
 -1     20858-1.15835E+00 1.23826E+00 0.00000E+00
 -1     20859 1.05801E+00 3.62914E+00 0.00000E+00
 -1     20860 6.11508E-01 1.08757E+00 0.00000E+00
 -1     20861-9.68951E-01 8.69344E-01 0.00000E+00
 -1     20862-5.01529E+00 8.52853E+00 0.00000E+00
 -1     20863-1.66287E-01 7.06229E+00 0.00000E+00
 -1     20864-6.60171E+00 1.26142E+01 0.00000E+00
 -1     20865-2.23764E+00 2.93252E+00 0.00000E+00
 -1     20866-1.81796E+00 2.28926E+00 0.00000E+00
 -1     20867 1.04901E+00 2.23407E+00 0.00000E+00
 -1     20868 2.29561E-01 6.25444E+00 0.00000E+00
 -1     20869 7.62325E-01 1.36206E+00 0.00000E+00
 -1     20870 7.08943E-01 1.25446E+00 0.00000E+00
 -1     20871-4.29283E+00 1.35435E+01 0.00000E+00
 -1     20872 9.46421E-01 4.19357E+00 0.00000E+00
 -1     20873-2.64483E+00 1.09173E+01 0.00000E+00
 -1     20874 4.65275E-01 1.13762E+00 0.00000E+00
 -1     20875-1.22568E+00 8.82785E+00 0.00000E+00
 -1     20876 6.10131E-01 1.23816E+00 0.00000E+00
 -1     20877-4.34080E-01 9.63394E-01 0.00000E+00
 -1     20878-3.46990E+00 1.21817E+01 0.00000E+00
 -1     20879-4.49653E+00 7.38244E+00 0.00000E+00
 -1     20880 1.09855E+00 2.64609E+00 0.00000E+00
 -1     20881-5.59369E+00 9.73407E+00 0.00000E+00
 -1     20882 1.10516E+00 3.11063E+00 0.00000E+00
 -1     20883-4.02142E+00 6.31102E+00 0.00000E+00
 -1     20884 7.68519E-01 4.81279E+00 0.00000E+00
 -1     20885-2.67287E+00 3.65010E+00 0.00000E+00
 -1     20886-9.18580E+00 1.78127E+01 0.00000E+00
 -1     20887-7.27735E+00 1.43103E+01 0.00000E+00
 -1     20888-8.11009E+00 1.60778E+01 0.00000E+00
 -1     20889 8.82983E-01 1.62090E+00 0.00000E+00
 -1     20890-1.43738E+00 1.71818E+00 0.00000E+00
 -1     20891 7.32072E-01 1.35626E+00 0.00000E+00
 -1     20892-6.79030E-01 7.90056E+00 0.00000E+00
 -1     20893-6.10300E+00 1.11137E+01 0.00000E+00
 -1     20894-3.56321E+00 5.33223E+00 0.00000E+00
 -1     20895-7.55430E+00 1.78342E+01 0.00000E+00
 -1     20896-1.50267E-01 9.73978E-01 0.00000E+00
 -1     20897 2.93804E-01 1.05710E+00 0.00000E+00
 -1     20898-6.33988E+00 1.58939E+01 0.00000E+00
 -1     20899-3.11464E+00 4.44706E+00 0.00000E+00
 -1     20900 6.63991E-01 1.58127E+00 0.00000E+00
 -1     20901-1.68583E-02 5.33467E+00 0.00000E+00
 -1     20902 9.67677E-01 1.87984E+00 0.00000E+00
 -1     20903 9.10722E-02 1.00254E+00 0.00000E+00
 -1     20904-1.52152E+00 2.69830E+00 0.00000E+00
 -1     20905-7.23653E-01 9.27303E-01 0.00000E+00
 -1     20906-8.15660E-01 1.43196E+00 0.00000E+00
 -1     20907 8.25981E-01 1.70624E+00 0.00000E+00
 -1     20908-5.74362E+00 1.38054E+01 0.00000E+00
 -1     20909-1.16074E+00 2.06011E+00 0.00000E+00
 -1     20910-4.98262E+00 1.49378E+01 0.00000E+00
 -1     20911-3.67267E-01 6.08858E+00 0.00000E+00
 -1     20912 7.33740E-01 3.49049E+00 0.00000E+00
 -1     20913-3.79553E+00 8.25430E+00 0.00000E+00
 -1     20914-3.02609E+00 9.37451E+00 0.00000E+00
 -1     20915 2.89105E-01 4.64300E+00 0.00000E+00
 -1     20916-4.95647E+00 1.20797E+01 0.00000E+00
 -1     20917 8.77690E-01 2.08526E+00 0.00000E+00
 -1     20918-3.38660E+00 7.07061E+00 0.00000E+00
 -1     20919-8.79207E-01 6.83913E+00 0.00000E+00
 -1     20920 8.44046E-01 2.97809E+00 0.00000E+00
 -1     20921-3.60153E-01 1.39470E+00 0.00000E+00
 -1     20922-3.00310E+00 6.00111E+00 0.00000E+00
 -1     20923-2.08179E+00 8.67128E+00 0.00000E+00
 -1     20924-4.30377E+00 9.47599E+00 0.00000E+00
 -1     20925 4.72363E-01 1.48224E+00 0.00000E+00
 -1     20926-1.89057E+00 3.39903E+00 0.00000E+00
 -1     20927-6.25426E-01 1.91510E+00 0.00000E+00
 -1     20928 8.85813E-01 2.50693E+00 0.00000E+00
 -1     20929-2.71045E+00 7.89840E+00 0.00000E+00
 -1     20930 5.45435E-01 4.03709E+00 0.00000E+00
 -1     20931-3.81345E+00 1.07413E+01 0.00000E+00
 -1     20932-6.27592E-01 5.20904E+00 0.00000E+00
 -1     20933-4.92751E+00 1.06192E+01 0.00000E+00
 -1     20934-1.62275E+00 7.56177E+00 0.00000E+00
 -1     20935-2.62386E-01 4.49989E+00 0.00000E+00
 -1     20936-9.09640E-01 2.52383E+00 0.00000E+00
 -1     20937-2.46879E-02 1.38848E+00 0.00000E+00
 -1     20938 2.46347E-01 1.41642E+00 0.00000E+00
 -1     20939 5.46318E-01 2.86312E+00 0.00000E+00
 -1     20940-2.39031E+00 6.74127E+00 0.00000E+00
 -1     20941 3.54691E-01 3.34532E+00 0.00000E+00
 -1     20942-9.48718E-01 5.94267E+00 0.00000E+00
 -1     20943-1.97701E-01 1.85728E+00 0.00000E+00
 -1     20944 6.72797E-01 1.96440E+00 0.00000E+00
 -1     20945-2.62417E+00 5.03293E+00 0.00000E+00
 -1     20946-2.25337E+00 4.17233E+00 0.00000E+00
 -1     20947-1.22615E+00 3.17124E+00 0.00000E+00
 -1     20948 7.74455E-02 3.85435E+00 0.00000E+00
 -1     20949 6.35207E-01 2.39221E+00 0.00000E+00
 -1     20950-3.98828E-01 2.43290E+00 0.00000E+00
 -1     20951 1.46870E-01 1.83769E+00 0.00000E+00
 -1     20952 3.47236E-01 2.30946E+00 0.00000E+00
 -1     20953-9.60713E-01 4.42774E+00 0.00000E+00
 -1     20954-1.33650E+00 5.32913E+00 0.00000E+00
 -1     20955-1.56944E+00 6.34703E+00 0.00000E+00
 -1     20956 4.32130E-01 1.87417E+00 0.00000E+00
 -1     20957-4.33537E-01 3.73542E+00 0.00000E+00
 -1     20958-6.40354E-01 3.05661E+00 0.00000E+00
 -1     20959 5.58522E-03 2.33986E+00 0.00000E+00
 -1     20960-2.11117E+00 5.66991E+00 0.00000E+00
 -1     20961 2.35926E-01 2.76532E+00 0.00000E+00
 -1     20962-1.07972E-01 3.05399E+00 0.00000E+00
 -1     20963-1.51015E+00 3.91820E+00 0.00000E+00
 -1     20964-1.78307E+00 4.72895E+00 0.00000E+00
 -1     20965-9.38834E-01 3.65388E+00 0.00000E+00
 -1     20966 1.07496E-01 3.51587E-01 0.00000E+00
 -1     20967 3.14354E-01 9.32953E-01 0.00000E+00
 -1     20968 5.73739E-01 1.43575E+00 0.00000E+00
 -1     20969 9.13981E-01 2.04135E+00 0.00000E+00
 -1     20970 1.28248E+00 2.75189E+00 0.00000E+00
 -1     20971 1.62736E+00 3.63300E+00 0.00000E+00
 -1     20972 1.89206E+00 4.74350E+00 0.00000E+00
 -1     20973 2.01694E+00 6.11546E+00 0.00000E+00
 -1     20974 1.95106E+00 7.76756E+00 0.00000E+00
 -1     20975 1.65806E+00 9.71492E+00 0.00000E+00
 -1     20976 1.10444E+00 1.19643E+01 0.00000E+00
 -1     20977 2.54887E-01 1.45075E+01 0.00000E+00
 -1     20978-9.14559E-01 1.73444E+01 0.00000E+00
 -1     20979-2.42832E+00 2.04933E+01 0.00000E+00
 -1     20980-4.42388E+00 2.39286E+01 0.00000E+00
 -1     20981-6.87781E+00 2.77344E+01 0.00000E+00
 -1     20982-8.80526E+00 2.77857E+01 0.00000E+00
 -1     20983-1.27257E+01 2.82357E+01 0.00000E+00
 -1     20984-1.71458E+01 2.87830E+01 0.00000E+00
 -1     20985-1.87586E+01 2.64024E+01 0.00000E+00
 -1     20986-1.68724E+01 2.18740E+01 0.00000E+00
 -1     20987-1.51181E+01 1.78629E+01 0.00000E+00
 -1     20988-1.34433E+01 1.43177E+01 0.00000E+00
 -1     20989-1.17080E+01 1.13104E+01 0.00000E+00
 -1     20990-1.00300E+01 8.75331E+00 0.00000E+00
 -1     20991-8.42326E+00 6.59053E+00 0.00000E+00
 -1     20992-6.89132E+00 4.79604E+00 0.00000E+00
 -1     20993-5.44315E+00 3.33531E+00 0.00000E+00
 -1     20994-4.06644E+00 2.17361E+00 0.00000E+00
 -1     20995-2.71638E+00 1.27130E+00 0.00000E+00
 -1     20996-1.29533E+00 5.60237E-01 0.00000E+00
 -1     20997-5.48147E-01 2.14536E-01 0.00000E+00
 -1     20998-2.14735E-01 7.71981E-03 0.00000E+00
 -1     20999-8.84234E-02 2.19791E-03 0.00000E+00
 -1     21000 7.90403E-04 4.32791E-02 0.00000E+00
 -1     21001 6.73458E-02 1.03985E-01 0.00000E+00
 -1     21002 1.12082E-01 1.70706E-01 0.00000E+00
 -1     21003 1.33186E-01 2.28813E-01 0.00000E+00
 -1     21004 1.44156E-01 2.91128E-01 0.00000E+00
 -1     21005 1.34363E-01 3.26652E-01 0.00000E+00
 -1     21006 1.12245E-01 3.32124E-01 0.00000E+00
 -1     21007-1.97167E+01 2.89844E+01 0.00000E+00
 -1     21008 6.21939E-02 2.10003E-01 0.00000E+00
 -1     21009 2.07744E-01 6.55674E-01 0.00000E+00
 -1     21010 4.35980E-01 1.18768E+00 0.00000E+00
 -1     21011 7.37187E-01 1.72811E+00 0.00000E+00
 -1     21012 1.09774E+00 2.37995E+00 0.00000E+00
 -1     21013 1.46119E+00 3.16674E+00 0.00000E+00
 -1     21014 1.77347E+00 4.15695E+00 0.00000E+00
 -1     21015 1.97553E+00 5.39538E+00 0.00000E+00
 -1     21016 2.01054E+00 6.90556E+00 0.00000E+00
 -1     21017 1.83502E+00 8.70368E+00 0.00000E+00
 -1     21018 1.41628E+00 1.08024E+01 0.00000E+00
 -1     21019 7.18787E-01 1.31995E+01 0.00000E+00
 -1     21020-2.88474E-01 1.58883E+01 0.00000E+00
 -1     21021-1.62420E+00 1.88782E+01 0.00000E+00
 -1     21022-3.35050E+00 2.21806E+01 0.00000E+00
 -1     21023-5.62323E+00 2.57522E+01 0.00000E+00
 -1     21024-1.07276E+01 2.79685E+01 0.00000E+00
 -1     21025-1.48455E+01 2.85188E+01 0.00000E+00
 -1     21026-1.78057E+01 2.40603E+01 0.00000E+00
 -1     21027-1.59656E+01 1.98099E+01 0.00000E+00
 -1     21028-1.42899E+01 1.60242E+01 0.00000E+00
 -1     21029-1.25740E+01 1.27518E+01 0.00000E+00
 -1     21030-1.08588E+01 9.97854E+00 0.00000E+00
 -1     21031-9.21499E+00 7.62409E+00 0.00000E+00
 -1     21032-7.64841E+00 5.64926E+00 0.00000E+00
 -1     21033-6.15855E+00 4.02665E+00 0.00000E+00
 -1     21034-4.74904E+00 2.71967E+00 0.00000E+00
 -1     21035-3.39107E+00 1.69203E+00 0.00000E+00
 -1     21036-2.02166E+00 8.99017E-01 0.00000E+00
 -1     21037-4.08202E-02 1.91529E-02 0.00000E+00
 -1     21038-3.19755E-01 5.39540E-02 0.00000E+00
 -1     21039-1.44291E-01-4.52171E-03 0.00000E+00
 -1     21040 3.66835E-02 7.17795E-02 0.00000E+00
 -1     21041 9.29752E-02 1.37891E-01 0.00000E+00
 -1     21042 1.24722E-01 2.00208E-01 0.00000E+00
 -1     21043 1.39642E-01 2.59447E-01 0.00000E+00
 -1     21044 1.43471E-01 3.16908E-01 0.00000E+00
 -1     21045 1.21589E-01 3.25907E-01 0.00000E+00
 -1     21046-6.36422E+00 5.32538E+00 0.00000E+00
 -1     21047 4.31606E-01 1.02597E+00 0.00000E+00
 -1     21048 7.83023E-01 1.64859E+00 0.00000E+00
 -1     21049 1.13623E+00 2.29423E+00 0.00000E+00
 -1     21050 1.45660E+00 3.06672E+00 0.00000E+00
 -1     21051 1.69362E+00 4.04444E+00 0.00000E+00
 -1     21052 1.78491E+00 5.26256E+00 0.00000E+00
 -1     21053 1.67743E+00 6.74369E+00 0.00000E+00
 -1     21054 1.33822E+00 8.51207E+00 0.00000E+00
 -1     21055 7.39168E-01 1.05868E+01 0.00000E+00
 -1     21056-1.65055E-01 1.29533E+01 0.00000E+00
 -1     21057-1.39783E+00 1.56058E+01 0.00000E+00
 -1     21058-2.95840E+00 1.85790E+01 0.00000E+00
 -1     21059-4.95333E+00 2.18780E+01 0.00000E+00
 -1     21060-7.61354E+00 2.55082E+01 0.00000E+00
 -1     21061-1.39138E+01 2.59962E+01 0.00000E+00
 -1     21062-5.03500E+00 3.73884E+00 0.00000E+00
 -1     21063-1.44455E+01 2.16000E+01 0.00000E+00
 -1     21064-1.17451E+01 2.57454E+01 0.00000E+00
 -1     21065-7.76545E+00 7.26290E+00 0.00000E+00
 -1     21066-1.29809E+01 1.74150E+01 0.00000E+00
 -1     21067-1.15485E+01 1.38366E+01 0.00000E+00
 -1     21068-5.23779E-01 1.80427E-01 0.00000E+00
 -1     21069-9.97821E+00 1.08928E+01 0.00000E+00
 -1     21070-1.36236E+01 1.94569E+01 0.00000E+00
 -1     21071-8.48669E+00 8.37333E+00 0.00000E+00
 -1     21072-1.07560E+01 1.23070E+01 0.00000E+00
 -1     21073-7.05840E+00 6.24813E+00 0.00000E+00
 -1     21074-9.22359E+00 9.58223E+00 0.00000E+00
 -1     21075-5.68785E+00 4.49033E+00 0.00000E+00
 -1     21076-1.62269E+01 2.62240E+01 0.00000E+00
 -1     21077-3.78701E+00 2.46085E+00 0.00000E+00
 -1     21078-2.58775E+00 1.45214E+00 0.00000E+00
 -1     21079-1.38484E+00 6.60748E-01 0.00000E+00
 -1     21080-2.23727E-01 1.11475E-01 0.00000E+00
 -1     21081-7.98491E-01 3.19358E-01 0.00000E+00
 -1     21082 2.28028E-01 3.63418E-01 0.00000E+00
 -1     21083 5.53665E-02 1.97329E-01 0.00000E+00
 -1     21084 2.74299E-01 4.55351E-01 0.00000E+00
 -1     21085-2.44366E-02 1.55934E-01 0.00000E+00
 -1     21086 2.58054E-01 4.13074E-01 0.00000E+00
 -1     21087 2.97677E-01 5.61825E-01 0.00000E+00
 -1     21088 2.90084E-01 6.53533E-01 0.00000E+00
 -1     21089 2.23784E-01 6.26865E-01 0.00000E+00
 -1     21090-9.64257E+00 2.55037E+01 0.00000E+00
 -1     21091 3.36403E-01 8.89238E-01 0.00000E+00
 -1     21092 1.81605E-01 3.04608E-01 0.00000E+00
 -1     21093-1.53207E+01 2.38460E+01 0.00000E+00
 -1     21094-7.40186E-01 1.42420E+01 0.00000E+00
 -1     21095 6.07111E-01 1.34421E+00 0.00000E+00
 -1     21096 9.60898E-01 1.96156E+00 0.00000E+00
 -1     21097 1.30334E+00 2.65892E+00 0.00000E+00
 -1     21098 1.58925E+00 3.52702E+00 0.00000E+00
 -1     21099 1.76119E+00 4.62216E+00 0.00000E+00
 -1     21100 1.75857E+00 5.96890E+00 0.00000E+00
 -1     21101 1.53792E+00 7.59002E+00 0.00000E+00
 -1     21102 1.07384E+00 9.51176E+00 0.00000E+00
 -1     21103 3.27828E-01 1.17349E+01 0.00000E+00
 -1     21104-2.14051E+00 1.70516E+01 0.00000E+00
 -1     21105-3.86803E+00 2.01972E+01 0.00000E+00
 -1     21106-6.26788E+00 2.35967E+01 0.00000E+00
 -1     21107-1.23163E+01 1.55198E+01 0.00000E+00
 -1     21108-1.17371E-01 1.26008E-01 0.00000E+00
 -1     21109 3.00407E-01 6.15641E-01 0.00000E+00
 -1     21110-1.99162E+00 1.03596E+00 0.00000E+00
 -1     21111-4.40031E+00 3.06243E+00 0.00000E+00
 -1     21112-3.18324E+00 1.92494E+00 0.00000E+00
 -1     21113-3.51387E-01 1.21512E-01 0.00000E+00
 -1     21114 1.23936E-01 2.47880E-01 0.00000E+00
 -1     21115 2.86609E-01 5.04206E-01 0.00000E+00
 -1     21116 2.55732E-01 6.39300E-01 0.00000E+00
 -1     21117-4.21556E-01 3.24626E-01 0.00000E+00
 -1     21118-5.32265E+00 1.99348E+01 0.00000E+00
 -1     21119-9.04824E-02 3.50420E-01 0.00000E+00
 -1     21120-8.41580E+00 2.30143E+01 0.00000E+00
 -1     21121-6.60670E+00 2.15175E+01 0.00000E+00
 -1     21122 1.12460E+00 2.17721E+00 0.00000E+00
 -1     21123 4.33079E-01 7.43478E-01 0.00000E+00
 -1     21124 1.38970E+00 2.93671E+00 0.00000E+00
 -1     21125 1.54175E+00 3.90631E+00 0.00000E+00
 -1     21126-2.93368E+00 2.21863E+00 0.00000E+00
 -1     21127-1.05040E+01 1.49568E+01 0.00000E+00
 -1     21128-6.43030E+00 6.91665E+00 0.00000E+00
 -1     21129 1.03308E+00 7.39324E+00 0.00000E+00
 -1     21130 3.98819E-01 9.30374E+00 0.00000E+00
 -1     21131-1.84059E+00 1.39805E+01 0.00000E+00
 -1     21132 6.29101E-01 1.26505E+00 0.00000E+00
 -1     21133-3.47060E+00 1.67828E+01 0.00000E+00
 -1     21134-4.37372E+00 1.83138E+01 0.00000E+00
 -1     21135 9.68204E-01 1.85844E+00 0.00000E+00
 -1     21136-5.18232E+00 5.02054E+00 0.00000E+00
 -1     21137 2.54160E-01 5.11046E-01 0.00000E+00
 -1     21138 1.25430E+00 6.55883E+00 0.00000E+00
 -1     21139-2.61492E+00 1.53384E+01 0.00000E+00
 -1     21140-1.11567E+01 1.67362E+01 0.00000E+00
 -1     21141-7.06440E+00 8.00676E+00 0.00000E+00
 -1     21142-4.01481E+00 3.47263E+00 0.00000E+00
 -1     21143 1.26700E+00 2.53258E+00 0.00000E+00
 -1     21144-1.41799E+00 8.28097E-01 0.00000E+00
 -1     21145 1.57156E-01 4.43700E-01 0.00000E+00
 -1     21146-9.36645E-01 4.69531E-01 0.00000E+00
 -1     21147 4.64184E-01 8.99911E-01 0.00000E+00
 -1     21148 1.51198E+00 5.10317E+00 0.00000E+00
 -1     21149-3.46317E+00 2.80888E+00 0.00000E+00
 -1     21150 8.01205E-01 1.55824E+00 0.00000E+00
 -1     21151-1.91790E+00 1.23512E+00 0.00000E+00
 -1     21152 4.57563E-01 9.68769E-01 0.00000E+00
 -1     21153-1.07792E+01 2.33446E+01 0.00000E+00
 -1     21154-5.46078E-01 1.15067E+01 0.00000E+00
 -1     21155-1.21565E+01 2.12888E+01 0.00000E+00
 -1     21156-1.14978E+00 1.27063E+01 0.00000E+00
 -1     21157 4.30888E-02 3.89483E-01 0.00000E+00
 -1     21158-2.45642E-01 3.28756E-01 0.00000E+00
 -1     21159-1.13485E+01 1.90008E+01 0.00000E+00
 -1     21160-4.58489E+00 4.20690E+00 0.00000E+00
 -1     21161-5.80141E+00 5.92168E+00 0.00000E+00
 -1     21162 1.41364E+00 5.79714E+00 0.00000E+00
 -1     21163-6.37061E-01 3.61269E-01 0.00000E+00
 -1     21164-1.30039E+01 2.35955E+01 0.00000E+00
 -1     21165-9.77016E+00 1.33630E+01 0.00000E+00
 -1     21166 4.54459E-01 8.22306E-01 0.00000E+00
 -1     21167 1.48443E+00 3.39447E+00 0.00000E+00
 -1     21168 1.55310E+00 4.47486E+00 0.00000E+00
 -1     21169 7.50227E-01 8.30878E+00 0.00000E+00
 -1     21170-2.41562E+00 1.69390E+00 0.00000E+00
 -1     21171 3.35650E-01 5.88356E-01 0.00000E+00
 -1     21172-3.06902E-02 1.03721E+01 0.00000E+00
 -1     21173-7.71052E+00 9.19442E+00 0.00000E+00
 -1     21174 4.22326E-01 7.03494E-01 0.00000E+00
 -1     21175-8.37358E+00 1.04861E+01 0.00000E+00
 -1     21176 3.98672E-01 6.66432E-01 0.00000E+00
 -1     21177 7.93770E-02 8.10316E+00 0.00000E+00
 -1     21178-9.99975E+00 2.10629E+01 0.00000E+00
 -1     21179-9.05095E+00 1.18801E+01 0.00000E+00
 -1     21180 1.32118E+00 3.24563E+00 0.00000E+00
 -1     21181 6.29435E-01 1.17708E+00 0.00000E+00
 -1     21182-4.10139E+00 4.74094E+00 0.00000E+00
 -1     21183 1.06314E+00 2.02863E+00 0.00000E+00
 -1     21184-3.04854E+00 1.37310E+01 0.00000E+00
 -1     21185 7.44578E-01 6.35319E+00 0.00000E+00
 -1     21186 9.33660E-01 1.72662E+00 0.00000E+00
 -1     21187 1.16320E+00 4.92094E+00 0.00000E+00
 -1     21188-2.19387E+00 1.99498E+00 0.00000E+00
 -1     21189-4.92855E+00 1.65530E+01 0.00000E+00
 -1     21190-9.89816E-01 6.72991E-01 0.00000E+00
 -1     21191 4.42604E-01 7.18414E+00 0.00000E+00
 -1     21192-3.94166E+00 1.50975E+01 0.00000E+00
 -1     21193-9.47686E+00 1.60548E+01 0.00000E+00
 -1     21194-5.76228E+00 7.65196E+00 0.00000E+00
 -1     21195-3.10426E+00 3.22869E+00 0.00000E+00
 -1     21196 6.07822E-01 1.07934E+00 0.00000E+00
 -1     21197-3.58640E+00 3.94870E+00 0.00000E+00
 -1     21198-2.64091E+00 2.57640E+00 0.00000E+00
 -1     21199 2.99778E-01 7.66086E-01 0.00000E+00
 -1     21200 1.27415E+00 4.30484E+00 0.00000E+00
 -1     21201 1.26859E+00 2.78940E+00 0.00000E+00
 -1     21202-8.88946E-01 1.01628E+01 0.00000E+00
 -1     21203-1.38685E+00 1.05433E+00 0.00000E+00
 -1     21204-3.57913E-01 9.10203E+00 0.00000E+00
 -1     21205 9.86863E-01 5.60366E+00 0.00000E+00
 -1     21206-7.47425E+00 1.14574E+01 0.00000E+00
 -1     21207-8.06837E+00 1.29537E+01 0.00000E+00
 -1     21208 1.32524E+00 3.74912E+00 0.00000E+00
 -1     21209-6.65893E+00 1.96946E+01 0.00000E+00
 -1     21210-8.10011E+00 2.05216E+01 0.00000E+00
 -1     21211 5.24698E-01 9.48541E-01 0.00000E+00
 -1     21212-1.12313E-02 6.57611E-01 0.00000E+00
 -1     21213-5.21211E+00 6.58169E+00 0.00000E+00
 -1     21214-8.78011E+00 1.44577E+01 0.00000E+00
 -1     21215-6.31554E+00 8.81332E+00 0.00000E+00
 -1     21216-4.42187E-01 6.28163E-01 0.00000E+00
 -1     21217-2.09762E-01 6.33059E-01 0.00000E+00
 -1     21218-1.77392E+00 1.48961E+00 0.00000E+00
 -1     21219 5.68566E-01 9.78727E-01 0.00000E+00
 -1     21220-6.88767E+00 1.00788E+01 0.00000E+00
 -1     21221-9.94383E+00 1.76423E+01 0.00000E+00
 -1     21222 7.88971E-01 1.45093E+00 0.00000E+00
 -1     21223 1.56937E-01 7.02341E-01 0.00000E+00
 -1     21224-2.24302E+00 1.24609E+01 0.00000E+00
 -1     21225 4.20905E-01 8.48253E-01 0.00000E+00
 -1     21226 1.17865E+00 2.38333E+00 0.00000E+00
 -1     21227-1.51660E+00 1.12787E+01 0.00000E+00
 -1     21228-5.86384E+00 1.81151E+01 0.00000E+00
 -1     21229-4.64964E+00 5.61364E+00 0.00000E+00
 -1     21230-6.82082E-01 6.15510E-01 0.00000E+00
 -1     21231-2.30875E+00 3.00388E+00 0.00000E+00
 -1     21232-6.66074E+00 1.63997E+01 0.00000E+00
 -1     21233 1.04846E+00 2.22793E+00 0.00000E+00
 -1     21234-9.19682E+00 1.90653E+01 0.00000E+00
 -1     21235-1.23357E+00 1.30072E+00 0.00000E+00
 -1     21236 7.44894E-01 4.72071E+00 0.00000E+00
 -1     21237 4.74581E-01 1.15048E+00 0.00000E+00
 -1     21238 6.13321E-01 1.06685E+00 0.00000E+00
 -1     21239-6.02818E+00 1.10243E+01 0.00000E+00
 -1     21240 8.48970E-01 1.55049E+00 0.00000E+00
 -1     21241 1.10607E+00 3.08736E+00 0.00000E+00
 -1     21242-3.12062E+00 4.49444E+00 0.00000E+00
 -1     21243-4.34395E+00 1.35060E+01 0.00000E+00
 -1     21244-1.56796E+00 1.79112E+00 0.00000E+00
 -1     21245 9.30798E-01 4.11089E+00 0.00000E+00
 -1     21246-2.69746E+00 3.71731E+00 0.00000E+00
 -1     21247-9.91250E-01 9.15732E-01 0.00000E+00
 -1     21248-5.40047E+00 1.48940E+01 0.00000E+00
 -1     21249 9.59820E-01 1.86382E+00 0.00000E+00
 -1     21250-1.93205E+00 2.35959E+00 0.00000E+00
 -1     21251 1.10291E+00 2.63885E+00 0.00000E+00
 -1     21252 1.04828E+00 3.57124E+00 0.00000E+00
 -1     21253-7.47859E+00 1.84368E+01 0.00000E+00
 -1     21254 3.10128E-01 1.07962E+00 0.00000E+00
 -1     21255 7.37014E-01 1.37684E+00 0.00000E+00
 -1     21256-8.00214E+00 1.56345E+01 0.00000E+00
 -1     21257-5.52090E+00 9.66017E+00 0.00000E+00
 -1     21258 1.16031E-01 1.03424E+00 0.00000E+00
 -1     21259-6.62440E-01 7.91710E+00 0.00000E+00
 -1     21260-2.27211E-01 6.97596E+00 0.00000E+00
 -1     21261 1.49101E-01 6.13041E+00 0.00000E+00
 -1     21262 7.41307E-01 1.31729E+00 0.00000E+00
 -1     21263-6.51419E+00 1.24714E+01 0.00000E+00
 -1     21264-1.13162E-01 1.00825E+00 0.00000E+00
 -1     21265-4.59791E+00 7.29610E+00 0.00000E+00
 -1     21266 6.15577E-01 1.24986E+00 0.00000E+00
 -1     21267-3.90825E-01 1.00552E+00 0.00000E+00
 -1     21268 4.78745E-01 5.38621E+00 0.00000E+00
 -1     21269-3.45663E+00 1.22122E+01 0.00000E+00
 -1     21270-1.83472E+00 9.95810E+00 0.00000E+00
 -1     21271-3.59469E+00 5.33806E+00 0.00000E+00
 -1     21272-7.43812E-01 1.04123E+00 0.00000E+00
 -1     21273-1.18975E+00 8.91889E+00 0.00000E+00
 -1     21274 8.84766E-01 2.08310E+00 0.00000E+00
 -1     21275-6.97314E+00 1.42612E+01 0.00000E+00
 -1     21276-2.23912E+00 4.28159E+00 0.00000E+00
 -1     21277-8.42274E+00 1.72237E+01 0.00000E+00
 -1     21278 8.27755E-01 1.71115E+00 0.00000E+00
 -1     21279-1.21221E-01 5.13550E+00 0.00000E+00
 -1     21280-5.60895E+00 1.33903E+01 0.00000E+00
 -1     21281-4.10711E+00 6.26048E+00 0.00000E+00
 -1     21282 6.72431E-01 1.58761E+00 0.00000E+00
 -1     21283-5.02986E+00 8.45125E+00 0.00000E+00
 -1     21284-1.03581E+00 1.59042E+00 0.00000E+00
 -1     21285 2.59448E-01 4.49838E+00 0.00000E+00
 -1     21286 5.36345E-01 3.90749E+00 0.00000E+00
 -1     21287-2.58909E+00 1.10446E+01 0.00000E+00
 -1     21288-3.93229E+00 8.03812E+00 0.00000E+00
 -1     21289-4.11109E+00 9.35319E+00 0.00000E+00
 -1     21290 4.93111E-01 1.50651E+00 0.00000E+00
 -1     21291-4.89385E+00 1.19628E+01 0.00000E+00
 -1     21292-1.92094E+00 3.50204E+00 0.00000E+00
 -1     21293-3.57432E+00 6.93499E+00 0.00000E+00
 -1     21294-4.83271E+00 1.05356E+01 0.00000E+00
 -1     21295-1.33806E+00 2.15797E+00 0.00000E+00
 -1     21296 2.84119E-01 1.46770E+00 0.00000E+00
 -1     21297-1.63468E+00 2.79273E+00 0.00000E+00
 -1     21298 8.41141E-01 2.91073E+00 0.00000E+00
 -1     21299-1.46020E+00 7.77078E+00 0.00000E+00
 -1     21300-9.64463E-01 6.81037E+00 0.00000E+00
 -1     21301-5.36503E-01 5.90308E+00 0.00000E+00
 -1     21302-2.58935E-01 1.43947E+00 0.00000E+00
 -1     21303 9.02824E-01 2.49453E+00 0.00000E+00
 -1     21304 3.56589E-02 1.45082E+00 0.00000E+00
 -1     21305-2.88388E+00 9.72958E+00 0.00000E+00
 -1     21306-2.62840E+00 5.11509E+00 0.00000E+00
 -1     21307 7.15151E-01 3.35194E+00 0.00000E+00
 -1     21308-6.09073E-01 1.46565E+00 0.00000E+00
 -1     21309-8.73181E-01 4.80569E+00 0.00000E+00
 -1     21310-2.08925E+00 8.75243E+00 0.00000E+00
 -1     21311-3.74616E+00 1.07831E+01 0.00000E+00
 -1     21312 6.94313E-01 1.96430E+00 0.00000E+00
 -1     21313 1.04501E-01 3.70473E+00 0.00000E+00
 -1     21314-1.45899E+00 4.07843E+00 0.00000E+00
 -1     21315-2.89848E-01 4.21422E+00 0.00000E+00
 -1     21316-3.08938E+00 5.99753E+00 0.00000E+00
 -1     21317-3.04638E+00 8.55382E+00 0.00000E+00
 -1     21318-2.28719E+00 7.66605E+00 0.00000E+00
 -1     21319-8.51299E-01 1.98876E+00 0.00000E+00
 -1     21320 4.80602E-01 1.93728E+00 0.00000E+00
 -1     21321-1.30334E+00 5.78824E+00 0.00000E+00
 -1     21322-1.76033E+00 6.72611E+00 0.00000E+00
 -1     21323-1.26442E+00 3.27579E+00 0.00000E+00
 -1     21324 2.31021E-01 1.95753E+00 0.00000E+00
 -1     21325 6.88577E-01 2.36360E+00 0.00000E+00
 -1     21326-3.07746E+00 7.57067E+00 0.00000E+00
 -1     21327-1.73898E+00 4.94878E+00 0.00000E+00
 -1     21328 3.57658E-01 3.15874E+00 0.00000E+00
 -1     21329 4.96132E-01 2.57752E+00 0.00000E+00
 -1     21330-8.65474E-02 1.95336E+00 0.00000E+00
 -1     21331-4.38012E-01 1.93248E+00 0.00000E+00
 -1     21332-1.08437E+00 2.59064E+00 0.00000E+00
 -1     21333-8.18229E-01 3.78426E+00 0.00000E+00
 -1     21334-2.61633E+00 6.72889E+00 0.00000E+00
 -1     21335 5.65234E-05 3.04558E+00 0.00000E+00
 -1     21336 1.34814E-01 2.50600E+00 0.00000E+00
 -1     21337-3.40402E-01 3.38370E+00 0.00000E+00
 -1     21338-2.15476E+00 5.84001E+00 0.00000E+00
 -1     21339-2.82363E-01 2.57480E+00 0.00000E+00
 -1     21340-7.26288E-01 3.00357E+00 0.00000E+00
 -1     21341-6.59437E-01 2.40448E+00 0.00000E+00
 -1     21342-6.10657E+00 2.98345E+01 2.77774E-04
 -1     21343-6.09910E+00 2.98376E+01-3.77644E-04
 -1     21344 0.00000E+00 0.00000E+00 0.00000E+00
 -1     21345 0.00000E+00 0.00000E+00 0.00000E+00
 -1     21346-2.39509E+01 3.22517E+01-1.22158E-03
 -1     21347-2.39728E+01 3.22837E+01-3.86438E-04
 -1     21348 0.00000E+00 0.00000E+00 0.00000E+00
 -1     21349 0.00000E+00 0.00000E+00 0.00000E+00
 -1     21350-5.05439E+00 2.83345E+01 6.60582E-04
 -1     21351-5.16601E+00 2.85085E+01-1.25928E-03
 -1     21352-3.02724E+00 2.48755E+01 6.13878E-06
 -1     21353-1.43547E+00 2.16557E+01-2.17536E-04
 -1     21354-1.57630E-01 1.86238E+01 5.67922E-05
 -1     21355 9.93890E-01 1.52813E+01-9.00115E-05
 -1     21356 1.69265E+00 1.26037E+01 1.50527E-05
 -1     21357 2.07679E+00 1.04502E+01 4.98704E-06
 -1     21358 2.24995E+00 8.55049E+00 8.60431E-07
 -1     21359 2.22997E+00 6.76217E+00-2.29690E-05
 -1     21360 2.03336E+00 5.26582E+00 7.33415E-06
 -1     21361 1.71345E+00 4.04840E+00 4.28351E-05
 -1     21362 1.33030E+00 3.08001E+00-1.92377E-05
 -1     21363 9.44291E-01 2.31229E+00-4.08413E-05
 -1     21364 5.86299E-01 1.64762E+00 3.15805E-05
 -1     21365 3.35698E-01 1.10677E+00-1.20887E-06
 -1     21366 1.56981E-01 5.78384E-01-1.24576E-05
 -1     21367 4.42265E-02 1.62930E-01-5.31210E-05
 -1     21368 9.40658E-02 3.48730E-01 8.28865E-06
 -1     21369 3.52259E-01 1.14757E+00 1.12986E-05
 -1     21370 5.85248E-01 1.64545E+00 8.22538E-06
 -1     21371 8.85205E-01 2.20346E+00 1.28644E-05
 -1     21372 1.26520E+00 2.94020E+00 8.41210E-05
 -1     21373 1.65201E+00 3.87051E+00-6.17624E-05
 -1     21374 1.98665E+00 5.04384E+00-1.63341E-05
 -1     21375 2.20785E+00 6.49270E+00-3.14974E-05
 -1     21376 2.26057E+00 8.23936E+00-3.64415E-05
 -1     21377 2.07681E+00 1.04502E+01-3.18875E-05
 -1     21378 1.60146E+00 1.30098E+01 3.17745E-05
 -1     21379 8.74397E-01 1.56717E+01 6.54284E-05
 -1     21380 1.07066E-03 1.82072E+01-2.57929E-05
 -1     21381-1.43547E+00 2.16554E+01-5.39987E-06
 -1     21382-3.28882E+00 2.53587E+01-1.48750E-04
 -1     21383-2.13263E+00 2.31278E+01 1.51140E-04
 -1     21384-8.06377E-01 2.02262E+01-8.01438E-05
 -1     21385-4.10470E+00 2.67950E+01-1.23368E-04
 -1     21386 4.69284E-01 1.69068E+01-8.19739E-05
 -1     21387 1.38460E+00 1.38898E+01-8.96369E-05
 -1     21388 1.92547E+00 1.14224E+01-8.90661E-06
 -1     21389 2.18207E+00 9.53394E+00-3.96406E-05
 -1     21390 2.26466E+00 7.62006E+00-1.17628E-04
 -1     21391 2.15025E+00 5.97776E+00-3.82617E-05
 -1     21392 1.88477E+00 4.62366E+00-5.58264E-05
 -1     21393 1.52564E+00 3.53544E+00 1.62437E-06
 -1     21394 1.13490E+00 2.67523E+00 4.10390E-05
 -1     21395 7.63935E-01 1.98038E+00 1.13494E-04
 -1     21396 4.38619E-01 1.34622E+00 2.06149E-05
 -1     21397 2.48050E-01 8.71091E-01-2.34321E-05
 -1     21398 9.41467E-02 3.49223E-01-6.94398E-05
 -1     21399 4.68172E-01 1.40959E+00-7.09449E-06
 -1     21400 7.17649E-01 1.89511E+00 3.95064E-05
 -1     21401 1.07078E+00 2.55057E+00-1.23091E-05
 -1     21402 1.46110E+00 3.37755E+00-4.08343E-05
 -1     21403 1.82983E+00 4.42465E+00 7.61966E-05
 -1     21404 2.11510E+00 5.73258E+00 1.15270E-04
 -1     21405 2.25849E+00 7.32724E+00 9.64589E-05
 -1     21406 2.20690E+00 9.24777E+00 5.31081E-05
 -1     21407 1.86615E+00 1.17494E+01 2.15805E-05
 -1     21408 1.26991E+00 1.43203E+01-7.48456E-05
 -1     21409 4.68529E-01 1.69090E+01 9.68461E-06
 -1     21410-6.24455E-01 1.97892E+01-9.32415E-05
 -1     21411-2.36384E+00 2.35941E+01-2.10105E-04
 -1     21412-4.17374E+00 2.69121E+01 2.78483E-05
 -1     21413-2.12995E+01 3.20354E+01-1.01568E-03
 -1     21414-2.17171E+01 3.20906E+01 2.89325E-04
 -1     21415-1.70638E+01 3.13881E+01 8.62150E-04
 -1     21416-1.24613E+01 3.05782E+01-2.29981E-04
 -1     21417-9.18448E+00 3.00725E+01-8.08626E-05
 -1     21418-7.53119E+00 2.99067E+01 5.55540E-04
 -1     21419-8.52549E+00 2.99977E+01-9.44793E-04
 -1     21420-1.04507E+01 3.02487E+01 3.59278E-04
 -1     21421-1.62038E+01 3.12402E+01 3.16867E-05
 -1     21422-1.47141E+01 3.09774E+01-6.41918E-05
 -1     21423-1.07758E+01 3.02981E+01 1.43441E-05
 -1     21424-1.94299E+01 3.17698E+01 3.84282E-04
 -1     21425-1.87271E+01 3.16604E+01 1.19457E-04
 -1     21426-1.00675E+00 4.51252E-01 5.30224E-03
 -1     21427-9.40913E-01 4.09414E-01-2.63022E-03
 -1     21428-2.56725E+00 1.03062E+00 3.37476E-04
 -1     21429-3.94169E+00 1.72574E+00 2.74076E-04
 -1     21430-5.42483E+00 2.70635E+00-3.73798E-05
 -1     21431-7.10030E+00 4.08411E+00 6.83889E-05
 -1     21432-8.74730E+00 5.69244E+00-3.30373E-05
 -1     21433-1.03332E+01 7.46441E+00-1.56621E-05
 -1     21434-1.19939E+01 9.55087E+00 2.74088E-05
 -1     21435-1.38809E+01 1.22121E+01 7.24979E-05
 -1     21436-1.58230E+01 1.52951E+01-1.98344E-05
 -1     21437-1.78021E+01 1.88244E+01 1.22330E-04
 -1     21438-2.00770E+01 2.33678E+01 9.00123E-05
 -1     21439-2.19713E+01 2.74575E+01-2.98947E-04
 -1     21440-2.30217E+01 2.98464E+01 2.44600E-04
 -1     21441-2.23640E+01 2.83488E+01 1.00901E-03
 -1     21442-2.12127E+01 2.57863E+01 5.60127E-04
 -1     21443-1.79663E+01 1.91362E+01 2.18961E-05
 -1     21444-1.61411E+01 1.58355E+01-8.26591E-06
 -1     21445-1.42010E+01 1.26958E+01-2.68908E-05
 -1     21446-1.22951E+01 9.95416E+00 5.78501E-06
 -1     21447-1.03328E+01 7.46413E+00 4.63527E-05
 -1     21448-8.47511E+00 5.41000E+00-1.17068E-05
 -1     21449-6.84210E+00 3.85434E+00 1.48794E-05
 -1     21450-5.41629E+00 2.70049E+00-7.20408E-05
 -1     21451-3.93553E+00 1.72233E+00-1.01971E-04
 -1     21452-2.36594E+00 9.45436E-01-1.33954E-03
 -1     21453-3.30333E+00 1.37707E+00-4.14782E-04
 -1     21454-4.59248E+00 2.12743E+00-3.73293E-05
 -1     21455-1.75604E+00 7.06122E-01-7.33334E-04
 -1     21456-6.29214E+00 3.38568E+00-5.36816E-05
 -1     21457-7.91530E+00 4.84953E+00-7.77345E-06
 -1     21458-9.58381E+00 6.60047E+00-1.29241E-05
 -1     21459-1.10987E+01 8.39704E+00 9.28896E-07
 -1     21460-1.29279E+01 1.08285E+01-2.35872E-05
 -1     21461-1.48472E+01 1.37012E+01-1.61430E-05
 -1     21462-1.68047E+01 1.69954E+01-2.06161E-05
 -1     21463-1.88739E+01 2.09040E+01 1.11333E-04
 -1     21464-2.10208E+01 2.53801E+01-1.34496E-04
 -1     21465-1.32424E+01 1.12761E+01-5.41856E-07
 -1     21466-1.70945E+01 1.75157E+01 1.34254E-05
 -1     21467-1.51699E+01 1.42178E+01 4.68006E-06
 -1     21468-1.13495E+01 8.71321E+00-8.09023E-05
 -1     21469-9.34544E+00 6.33549E+00-1.85115E-05
 -1     21470-7.64475E+00 4.58873E+00 5.37815E-05
 -1     21471-6.07593E+00 3.20950E+00 5.62818E-05
 -1     21472-4.75519E+00 2.23497E+00 5.70445E-05
 -1     21473-3.10637E+00 1.27783E+00 4.71696E-04
 -1     21474-1.69974E+00 6.84461E-01-9.40930E-04
 -1     21475 0.00000E+00 0.00000E+00 0.00000E+00
 -1     21476 0.00000E+00 0.00000E+00 0.00000E+00
 -1     21477 0.00000E+00 0.00000E+00 0.00000E+00
 -1     21478 0.00000E+00 0.00000E+00 0.00000E+00
 -1     21479 0.00000E+00 0.00000E+00 0.00000E+00
 -1     21480 0.00000E+00 0.00000E+00 0.00000E+00
 -1     21481 0.00000E+00 0.00000E+00 0.00000E+00
 -1     21482 0.00000E+00 0.00000E+00 0.00000E+00
 -1     21483 0.00000E+00 0.00000E+00 0.00000E+00
 -1     21484 0.00000E+00 0.00000E+00 0.00000E+00
 -1     21485 0.00000E+00 0.00000E+00 0.00000E+00
 -1     21486 0.00000E+00 0.00000E+00 0.00000E+00
 -1     21487 0.00000E+00 0.00000E+00 0.00000E+00
 -1     21488 0.00000E+00 0.00000E+00 0.00000E+00
 -1     21489 0.00000E+00 0.00000E+00 0.00000E+00
 -1     21490 0.00000E+00 0.00000E+00 0.00000E+00
 -1     21491 0.00000E+00 0.00000E+00 0.00000E+00
 -1     21492 0.00000E+00 0.00000E+00 0.00000E+00
 -1     21493 0.00000E+00 0.00000E+00 0.00000E+00
 -1     21494 0.00000E+00 0.00000E+00 0.00000E+00
 -1     21495 0.00000E+00 0.00000E+00 0.00000E+00
 -1     21496 0.00000E+00 0.00000E+00 0.00000E+00
 -1     21497 0.00000E+00 0.00000E+00 0.00000E+00
 -1     21498 0.00000E+00 0.00000E+00 0.00000E+00
 -1     21499 0.00000E+00 0.00000E+00 0.00000E+00
 -1     21500 0.00000E+00 0.00000E+00 0.00000E+00
 -1     21501 0.00000E+00 0.00000E+00 0.00000E+00
 -1     21502 0.00000E+00 0.00000E+00 0.00000E+00
 -1     21503 0.00000E+00 0.00000E+00 0.00000E+00
 -1     21504 0.00000E+00 0.00000E+00 0.00000E+00
 -1     21505 0.00000E+00 0.00000E+00 0.00000E+00
 -1     21506 0.00000E+00 0.00000E+00 0.00000E+00
 -1     21507 0.00000E+00 0.00000E+00 0.00000E+00
 -1     21508 0.00000E+00 0.00000E+00 0.00000E+00
 -1     21509 0.00000E+00 0.00000E+00 0.00000E+00
 -1     21510 0.00000E+00 0.00000E+00 0.00000E+00
 -1     21511 0.00000E+00 0.00000E+00 0.00000E+00
 -1     21512 0.00000E+00 0.00000E+00 0.00000E+00
 -1     21513 0.00000E+00 0.00000E+00 0.00000E+00
 -1     21514 0.00000E+00 0.00000E+00 0.00000E+00
 -1     21515 0.00000E+00 0.00000E+00 0.00000E+00
 -1     21516-9.00188E+00 2.73154E+01 9.52904E-05
 -1     21517-1.91863E+01 2.94090E+01-1.00727E-03
 -1     21518-6.50828E+00 5.15545E+00 1.17910E-06
 -1     21519 1.14148E+00 2.33344E+00-2.81083E-05
 -1     21520 1.32579E+00 1.08922E+01 2.21780E-05
 -1     21521 2.82828E-02 1.32633E+01-6.90568E-06
 -1     21522-5.34229E+00 3.54986E+00-8.84478E-08
 -1     21523-8.18724E+00 6.84098E+00-5.80653E-06
 -1     21524-9.41059E+00 8.96823E+00 2.36408E-05
 -1     21525-1.16123E+01 1.20189E+01-8.31715E-06
 -1     21526 1.80093E-01 2.79747E-01-4.43363E-05
 -1     21527 2.70797E-01 4.45154E-01 1.87005E-05
 -1     21528 1.16863E-01 3.43912E-01 1.91684E-05
 -1     21529-5.21775E-01 1.44754E+01 6.38193E-05
 -1     21530 1.66244E+00 3.74980E+00 2.09863E-05
 -1     21531 1.81539E+00 4.71883E+00-3.08090E-06
 -1     21532 1.86129E+00 6.10139E+00-3.44529E-05
 -1     21533 1.78713E+00 8.16059E+00 4.60734E-06
 -1     21534 5.64850E-01 1.18745E+01 5.55524E-05
 -1     21535-2.48819E+00 1.24737E+00 2.54342E-04
 -1     21536 2.45429E-01 6.36352E-01 1.41729E-05
 -1     21537-2.70416E+00 2.00221E+01 7.20344E-05
 -1     21538-1.09638E+00 5.63167E-01-4.53215E-04
 -1     21539-5.59519E+00 1.96055E+01 1.08282E-04
 -1     21540 6.72275E-01 1.22965E+00-2.72388E-05
 -1     21541-1.00443E+00 8.26499E-01 2.76465E-05
 -1     21542-8.65889E+00 1.48908E+01-1.80964E-05
 -1     21543-1.52709E+00 1.82931E+00-3.32219E-05
 -1     21544 9.43528E-01 1.91940E+00-3.68371E-05
 -1     21545 7.47782E-01 2.37433E+00-1.06764E-06
 -1     21546-6.73165E-01 1.86590E+00 8.63090E-05
 -1     21547-3.05953E+00 7.43561E+00-2.07805E-05
 -1     21548-2.92853E+00 6.07727E+00 3.83898E-05
 -1     21549 2.78100E-02 3.42187E+00-2.76592E-05
 -1     21550-9.72557E-01 2.95128E+00-6.70112E-05
 -1     21551-1.30590E+01 2.85278E+01 7.70854E-05
 -1     21552-2.14940E+01 3.00161E+01-2.12333E-05
 -1     21553 1.22627E+00 1.25221E+01 1.32182E-05
 -1     21554 1.02118E+00 2.33397E+00 6.00952E-05
 -1     21555 9.97243E-02 2.62094E-01-2.39270E-05
 -1     21556-6.83069E+00 4.61633E+00 2.05939E-05
 -1     21557-1.59814E-01 1.64618E+01 2.00056E-05
 -1     21558-3.81803E+00 1.73108E+00 4.14483E-05
 -1     21559-4.70552E+00 2.57756E+01 7.24547E-05
 -1     21560 1.67899E+00 3.84293E+00-5.16055E-06
 -1     21561 1.31588E-01 2.82806E-01 1.08240E-05
 -1     21562-8.62755E-02-1.71196E-02 1.14105E-04
 -1     21563 2.92497E-02 4.24906E-02 3.87617E-05
 -1     21564 2.04260E+00 8.71668E+00 1.75006E-05
 -1     21565 2.05063E+00 5.99833E+00-1.03085E-04
 -1     21566-3.30459E+00 2.25836E+01 1.26617E-04
 -1     21567-2.08911E+01 2.91490E+01-2.26531E-05
 -1     21568 5.60300E-02 1.88392E-01 9.68536E-05
 -1     21569 6.50188E-01 1.67260E+00-2.07237E-05
 -1     21570 1.30392E+00 2.87786E+00-2.99216E-05
 -1     21571 1.88892E+00 4.65408E+00-8.39627E-05
 -1     21572-1.08353E-02-4.31628E-03-2.12330E-05
 -1     21573-3.97589E+00 2.09636E+00-1.53068E-05
 -1     21574-2.68807E-01 1.14684E-01-5.61831E-03
 -1     21575-7.84304E+00 5.51962E+00 1.10663E-05
 -1     21576-1.65017E+01 1.74961E+01 2.33105E-05
 -1     21577-6.67500E+00 2.77863E+01 1.01655E-04
 -1     21578 1.61600E+00 3.64526E+00-3.69361E-05
 -1     21579 1.98358E+00 5.14500E+00 1.25929E-05
 -1     21580 4.17214E-01 1.21181E+00 9.05795E-06
 -1     21581 2.10870E+00 6.61088E+00 1.27056E-05
 -1     21582-2.07835E+00 9.27065E-01-2.66600E-04
 -1     21583 1.38443E+00 1.22045E+01-3.32247E-05
 -1     21584-1.24764E+01 1.13379E+01-3.06995E-05
 -1     21585 2.05095E+00 7.46582E+00 3.43183E-05
 -1     21586 6.32384E-02 1.32861E-01 3.61875E-05
 -1     21587-9.25371E+00 2.89692E+01-6.89659E-05
 -1     21588 2.82135E-01 8.61999E-01 3.68448E-05
 -1     21589-2.01836E+01 2.57324E+01-5.47950E-05
 -1     21590-5.55678E+00 3.08826E+00 2.26691E-05
 -1     21591-1.72250E-01 5.64141E-03 2.58178E-05
 -1     21592 6.91580E-02 1.00520E-01-4.76790E-08
 -1     21593 1.30058E-01 2.33404E-01 8.14881E-05
 -1     21594 3.35902E-02 1.12364E-01 2.24136E-04
 -1     21595 1.22678E-01 2.03198E-01-4.04695E-05
 -1     21596-5.85152E+00 3.37063E+00-5.97003E-06
 -1     21597-1.04546E+01 8.49249E+00-9.78298E-06
 -1     21598-1.05052E+00 1.92926E+01-2.56764E-06
 -1     21599 1.22565E+00 2.62112E+00-2.24044E-05
 -1     21600-2.85096E+00 1.25450E+00 1.53376E-04
 -1     21601 1.76466E+00 1.08032E+01-3.99811E-06
 -1     21602-1.77525E+01 2.10896E+01 1.16674E-04
 -1     21603 5.60751E-01 1.49140E+00 2.31316E-05
 -1     21604-1.69816E+00 7.00156E-01 3.24896E-04
 -1     21605-8.99951E+00 6.61863E+00-1.01299E-05
 -1     21606 8.06691E-02 1.19549E-01 7.15799E-06
 -1     21607-3.41321E-01 1.74933E+01-2.96270E-06
 -1     21608-1.64970E+01 3.01728E+01-3.19259E-04
 -1     21609 8.97421E-02 2.37139E-01 4.82314E-05
 -1     21610-1.32473E+01 1.32963E+01-1.48241E-05
 -1     21611 2.98010E-01 1.50458E+01 6.13841E-05
 -1     21612 1.34688E-02 2.06432E-02-1.08606E-05
 -1     21613-7.78119E+00 2.85004E+01 2.32863E-04
 -1     21614-1.80768E+00 2.06804E+01-4.17556E-05
 -1     21615-1.17661E+01 1.07678E+01-5.41898E-05
 -1     21616-5.24669E-03 1.10623E-03-6.78974E-06
 -1     21617 1.16920E+00 2.59560E+00 2.96842E-06
 -1     21618 6.85883E-01 1.37603E+01-6.85135E-05
 -1     21619 6.22743E-02 1.31269E-01-1.16852E-07
 -1     21620-1.51389E-01-1.10056E-02 2.50260E-04
 -1     21621-3.60026E+00 2.33354E+01-1.31388E-04
 -1     21622-3.23065E+00 1.55126E+00 1.05745E-04
 -1     21623 2.82859E-02 9.45324E-02-1.07735E-04
 -1     21624-6.33281E+00 2.81009E+01-1.89038E-04
 -1     21625 8.68153E-01 2.07159E+00-1.35093E-05
 -1     21626 1.77204E+00 4.15037E+00 5.39323E-05
 -1     21627-5.20465E-02-8.68084E-03-1.15665E-04
 -1     21628 2.06040E+00 7.75522E+00-2.88955E-05
 -1     21629-4.80051E+00 2.44940E+00 2.00658E-06
 -1     21630-5.17832E-01 1.82582E+01-1.08628E-05
 -1     21631-1.07282E+01 2.84413E+01 1.24745E-04
 -1     21632 1.97385E+00 9.91860E+00-6.18764E-06
 -1     21633-5.43012E+00 2.72042E+01 1.18695E-04
 -1     21634-1.53913E+01 1.60895E+01-3.24462E-05
 -1     21635 1.84660E+00 4.45892E+00 8.72996E-05
 -1     21636 1.86275E-03 1.51187E-02-5.55158E-05
 -1     21637-2.96892E+00 1.30217E+00-1.18604E-05
 -1     21638 3.12906E-01 9.24243E-01-2.97556E-05
 -1     21639 3.84667E-01 1.12382E+00-2.08235E-05
 -1     21640-1.92490E+01 2.42556E+01 4.55322E-05
 -1     21641-1.69093E+01 1.84954E+01-3.59161E-05
 -1     21642-1.35503E+01 1.29868E+01 1.96550E-06
 -1     21643-1.92578E+01 3.05215E+01-7.25301E-05
 -1     21644-1.20018E+00 5.11700E-01 3.50110E-03
 -1     21645-2.24936E+00 9.45354E-01 3.34337E-05
 -1     21646 1.71352E+00 1.10352E+01 2.11973E-05
 -1     21647-6.57723E+00 4.29964E+00-2.44814E-07
 -1     21648 1.42418E-01 3.35428E-01 3.73181E-05
 -1     21649 2.02997E+00 5.77906E+00 9.20618E-05
 -1     21650-1.79366E+01 2.10467E+01-6.36137E-05
 -1     21651 4.16538E-02 5.88120E-02 3.51741E-05
 -1     21652-2.67465E-02 6.43106E-03-7.22963E-05
 -1     21653-8.01445E+00 5.61725E+00-5.90338E-06
 -1     21654 5.42038E-02 1.28246E-01 1.39550E-05
 -1     21655-9.60337E+00 7.54923E+00 3.06328E-05
 -1     21656-2.52836E-01 3.89115E-02-1.72916E-04
 -1     21657-1.52186E+01 1.69647E+01-9.69455E-05
 -1     21658 1.51921E+00 3.39619E+00 1.01973E-05
 -1     21659 1.11683E+00 2.50850E+00-5.08561E-05
 -1     21660-1.48846E+01 2.89925E+01 9.04263E-06
 -1     21661 7.14184E-02 1.35453E-01-1.66476E-05
 -1     21662 9.39140E-02 1.45652E-01-9.01435E-05
 -1     21663 6.17389E-02 2.06836E-01 1.14449E-05
 -1     21664-1.30123E+01 1.22396E+01 2.41657E-05
 -1     21665 1.25497E-01 4.20128E-01-1.09940E-04
 -1     21666-4.06319E+00 2.07088E+00-4.43264E-06
 -1     21667 8.16555E-01 1.37845E+01 4.70205E-05
 -1     21668-8.26497E-01 1.91813E+01 1.03852E-05
 -1     21669 1.18178E-01 1.99358E-01 3.89773E-05
 -1     21670-1.41886E-01 1.64126E+01-1.01172E-05
 -1     21671 1.03450E-01 1.60988E-01 1.12702E-04
 -1     21672-5.04104E+00 2.69452E+01-1.97595E-04
 -1     21673 6.91372E-01 1.70150E+00 5.26630E-06
 -1     21674 2.02126E+00 6.87234E+00 1.42216E-05
 -1     21675-1.66470E+01 2.95124E+01 8.03408E-04
 -1     21676-1.72251E+01 1.96865E+01-7.21000E-06
 -1     21677 9.07783E-01 2.15031E+00-1.59326E-05
 -1     21678 2.93595E-02 9.75710E-02-7.45059E-05
 -1     21679-1.51761E+00 6.48307E-01-6.45717E-04
 -1     21680-2.16563E+01 3.02253E+01-6.57328E-04
 -1     21681-4.18398E+00 2.54676E+01 2.98465E-05
 -1     21682-9.47889E-02-1.60598E-02-3.82028E-04
 -1     21683-4.95330E+00 2.58087E+00 3.22294E-05
 -1     21684 2.01201E+00 5.35944E+00 5.71281E-05
 -1     21685 1.38386E+00 3.00912E+00 3.46750E-06
 -1     21686 5.24118E-03 1.47678E-02-1.69705E-05
 -1     21687 5.16923E-01 1.43319E+00 2.86135E-06
 -1     21688 4.11265E-02 1.04957E-01 2.19298E-05
 -1     21689-1.07241E+01 2.87622E+01-9.25771E-05
 -1     21690-2.74135E+00 2.23935E+01 1.25734E-05
 -1     21691 4.67070E-02 1.02640E-01-2.14461E-05
 -1     21692-1.82976E-01 2.77147E-02 1.36689E-03
 -1     21693 5.29801E-02 1.68437E-01 1.43846E-04
 -1     21694-1.86113E+01 2.27591E+01-5.09773E-05
 -1     21695-1.12001E+01 9.64498E+00 1.47651E-05
 -1     21696 5.67967E-02 1.13953E-01-5.76912E-06
 -1     21697-7.37991E+00 4.93929E+00-4.43594E-06
 -1     21698-8.68186E-02-3.20913E-03 1.46040E-04
 -1     21699-2.02921E+01 2.75073E+01 3.46693E-04
 -1     21700 1.90962E+00 9.89250E+00-8.97710E-06
 -1     21701 1.37781E-02 1.84644E-02 6.50431E-07
 -1     21702-1.58325E+01 1.67695E+01-1.25617E-05
 -1     21703-1.22469E-01 1.40421E-02 8.17693E-05
 -1     21704-1.14892E+00 4.95759E-01-1.62788E-04
 -1     21705-9.02987E-02-1.90975E-02-3.93491E-05
 -1     21706 1.37448E-02 2.41306E-02-6.22623E-07
 -1     21707 7.99493E-01 1.96228E+00-6.46391E-05
 -1     21708-1.61938E+01 1.78825E+01-2.88802E-05
 -1     21709 1.37769E-01 4.54051E-01 6.14689E-05
 -1     21710-8.25187E-02-1.22993E-02 2.69270E-04
 -1     21711-1.99340E+01 2.49519E+01-5.61868E-05
 -1     21712-1.18685E+01 2.88753E+01-1.58207E-05
 -1     21713-1.46234E+01 1.55225E+01 9.53456E-06
 -1     21714 1.27497E-01 2.54100E-01 2.59430E-05
 -1     21715 4.84640E-02 6.88645E-02 5.97918E-05
 -1     21716-1.44759E+01 1.46485E+01-2.11613E-05
 -1     21717 1.09233E-01 1.92386E-01-8.43934E-05
 -1     21718-4.74238E-01 2.21197E-01-4.65788E-03
 -1     21719-1.68347E+01 1.94795E+01-1.64107E-05
 -1     21720-2.19685E+01 3.08843E+01-3.48651E-04
 -1     21721-3.39727E+00 2.40799E+01 3.31847E-06
 -1     21722-1.42555E+01 2.97181E+01 2.12305E-04
 -1     21723-1.46368E+01 1.42182E+01-7.31509E-07
 -1     21724 6.82059E-02 1.30413E-01-2.60025E-05
 -1     21725 5.11231E-02 1.59481E-01-5.98867E-05
 -1     21726 4.31105E-01 1.17250E+00 1.83187E-05
 -1     21727-5.69150E-01 2.34394E-01-1.47085E-04
 -1     21728-1.86864E+01 2.25425E+01-5.94217E-05
 -1     21729-1.51726E+01 1.52046E+01-5.00085E-06
 -1     21730-1.64539E+01 2.03646E+01-3.78200E-05
 -1     21731-1.97333E+01 2.66157E+01 1.80669E-04
 -1     21732-4.28639E+00 1.81905E+01-2.16055E-05
 -1     21733-4.02192E+00 8.49910E+00 3.10885E-06
 -1     21734-1.06744E+01 1.53633E+01 4.12008E-05
 -1     21735-3.66315E-01 9.93101E-02-8.66590E-04
 -1     21736-1.85749E-01-7.72937E-04-5.55595E-04
 -1     21737 3.28272E-02 5.23032E-02 4.82746E-05
 -1     21738-6.10543E+00 2.98331E+01-5.37096E-05
 -1     21739-6.10132E+00 2.98363E+01-1.29534E-04
 -1     21740-6.10136E+00 2.98346E+01-5.11031E-04
 -1     21741 0.00000E+00 0.00000E+00 0.00000E+00
 -1     21742 0.00000E+00 0.00000E+00 0.00000E+00
 -1     21743 0.00000E+00 0.00000E+00 0.00000E+00
 -1     21744-5.42421E+00 2.88865E+01 0.00000E+00
 -1     21745-4.23611E+00 2.70168E+01 0.00000E+00
 -1     21746-3.18996E+00 2.51771E+01 0.00000E+00
 -1     21747-2.26152E+00 2.33889E+01 0.00000E+00
 -1     21748-1.43841E+00 2.16623E+01 0.00000E+00
 -1     21749-7.13085E-01 2.00041E+01 0.00000E+00
 -1     21750-7.85594E-02 1.84171E+01 0.00000E+00
 -1     21751 4.70663E-01 1.69032E+01 0.00000E+00
 -1     21752 9.38814E-01 1.54633E+01 0.00000E+00
 -1     21753 1.32987E+00 1.40980E+01 0.00000E+00
 -1     21754 1.64759E+00 1.28071E+01 0.00000E+00
 -1     21755 1.89545E+00 1.15908E+01 0.00000E+00
 -1     21756 2.07696E+00 1.04490E+01 0.00000E+00
 -1     21757 2.19584E+00 9.38167E+00 0.00000E+00
 -1     21758 2.25607E+00 8.38886E+00 0.00000E+00
 -1     21759 2.26221E+00 7.47041E+00 0.00000E+00
 -1     21760 2.21942E+00 6.62573E+00 0.00000E+00
 -1     21761 2.13324E+00 5.85417E+00 0.00000E+00
 -1     21762 2.01041E+00 5.15420E+00 0.00000E+00
 -1     21763 1.85777E+00 4.52354E+00 0.00000E+00
 -1     21764 1.68296E+00 3.95895E+00 0.00000E+00
 -1     21765 1.49380E+00 3.45619E+00 0.00000E+00
 -1     21766 1.29804E+00 3.00959E+00 0.00000E+00
 -1     21767 1.10286E+00 2.61283E+00 0.00000E+00
 -1     21768 9.15257E-01 2.25841E+00 0.00000E+00
 -1     21769 7.41044E-01 1.93828E+00 0.00000E+00
 -1     21770 5.84567E-01 1.64401E+00 0.00000E+00
 -1     21771 4.48490E-01 1.36751E+00 0.00000E+00
 -1     21772 3.33547E-01 1.10120E+00 0.00000E+00
 -1     21773 2.37840E-01 8.39643E-01 0.00000E+00
 -1     21774 1.57826E-01 5.81013E-01 0.00000E+00
 -1     21775 8.83649E-02 3.28428E-01 0.00000E+00
 -1     21776 2.64966E-02 9.42978E-02 0.00000E+00
 -1     21777-5.42966E+00 2.88865E+01 0.00000E+00
 -1     21778-4.23578E+00 2.70164E+01 0.00000E+00
 -1     21779-3.18985E+00 2.51769E+01 0.00000E+00
 -1     21780-2.26112E+00 2.33889E+01 0.00000E+00
 -1     21781-1.43845E+00 2.16624E+01 0.00000E+00
 -1     21782-7.13109E-01 2.00040E+01 0.00000E+00
 -1     21783-7.85351E-02 1.84171E+01 0.00000E+00
 -1     21784 4.70672E-01 1.69032E+01 0.00000E+00
 -1     21785 9.38790E-01 1.54633E+01 0.00000E+00
 -1     21786 1.32987E+00 1.40979E+01 0.00000E+00
 -1     21787 1.64759E+00 1.28071E+01 0.00000E+00
 -1     21788 1.89545E+00 1.15908E+01 0.00000E+00
 -1     21789 2.07695E+00 1.04489E+01 0.00000E+00
 -1     21790 2.19593E+00 9.38167E+00 0.00000E+00
 -1     21791 2.25618E+00 8.38894E+00 0.00000E+00
 -1     21792 2.26237E+00 7.47038E+00 0.00000E+00
 -1     21793 2.21944E+00 6.62573E+00 0.00000E+00
 -1     21794 2.13335E+00 5.85420E+00 0.00000E+00
 -1     21795 2.01046E+00 5.15422E+00 0.00000E+00
 -1     21796 1.85787E+00 4.52360E+00 0.00000E+00
 -1     21797 1.68313E+00 3.95895E+00 0.00000E+00
 -1     21798 1.49382E+00 3.45614E+00 0.00000E+00
 -1     21799 1.29796E+00 3.00968E+00 0.00000E+00
 -1     21800 1.10295E+00 2.61291E+00 0.00000E+00
 -1     21801 9.15434E-01 2.25848E+00 0.00000E+00
 -1     21802 7.41201E-01 1.93845E+00 0.00000E+00
 -1     21803 5.84641E-01 1.64416E+00 0.00000E+00
 -1     21804 4.48516E-01 1.36755E+00 0.00000E+00
 -1     21805 3.33497E-01 1.10121E+00 0.00000E+00
 -1     21806 2.37797E-01 8.39672E-01 0.00000E+00
 -1     21807 1.57838E-01 5.81000E-01 0.00000E+00
 -1     21808 8.83972E-02 3.28421E-01 0.00000E+00
 -1     21809 2.65178E-02 9.43102E-02 0.00000E+00
 -1     21810-2.39637E+01 3.22683E+01-2.27662E-04
 -1     21811-2.39651E+01 3.22735E+01 5.04666E-04
 -1     21812-2.39725E+01 3.22767E+01-1.20005E-03
 -1     21813-2.22099E+01 3.21574E+01 0.00000E+00
 -1     21814-1.93701E+01 3.17656E+01 0.00000E+00
 -1     21815-1.69335E+01 3.13691E+01 0.00000E+00
 -1     21816-1.47374E+01 3.09834E+01 0.00000E+00
 -1     21817-1.27125E+01 3.06230E+01 0.00000E+00
 -1     21818-1.08065E+01 3.03049E+01 0.00000E+00
 -1     21819-8.96942E+00 3.00492E+01 0.00000E+00
 -1     21820-7.11493E+00 2.98835E+01 0.00000E+00
 -1     21821-2.22176E+01 3.21376E+01 0.00000E+00
 -1     21822-1.93684E+01 3.17699E+01 0.00000E+00
 -1     21823-1.69338E+01 3.13697E+01 0.00000E+00
 -1     21824-1.47378E+01 3.09835E+01 0.00000E+00
 -1     21825-1.27120E+01 3.06234E+01 0.00000E+00
 -1     21826-1.08066E+01 3.03062E+01 0.00000E+00
 -1     21827-8.96941E+00 3.00533E+01 0.00000E+00
 -1     21828-7.11303E+00 2.98819E+01 0.00000E+00
 -1     21829 0.00000E+00 0.00000E+00 0.00000E+00
 -1     21830 0.00000E+00 0.00000E+00 0.00000E+00
 -1     21831 0.00000E+00 0.00000E+00 0.00000E+00
 -1     21832-7.50110E-01 3.70859E-01 0.00000E+00
 -1     21833-1.65686E+00 6.67952E-01 0.00000E+00
 -1     21834-2.44239E+00 9.75184E-01 0.00000E+00
 -1     21835-3.19212E+00 1.32067E+00 0.00000E+00
 -1     21836-3.93164E+00 1.72008E+00 0.00000E+00
 -1     21837-4.67343E+00 2.18056E+00 0.00000E+00
 -1     21838-5.42496E+00 2.70680E+00 0.00000E+00
 -1     21839-6.19125E+00 3.30289E+00 0.00000E+00
 -1     21840-6.97587E+00 3.97236E+00 0.00000E+00
 -1     21841-7.78093E+00 4.71921E+00 0.00000E+00
 -1     21842-8.60848E+00 5.54749E+00 0.00000E+00
 -1     21843-9.45932E+00 6.46136E+00 0.00000E+00
 -1     21844-1.03335E+01 7.46499E+00 0.00000E+00
 -1     21845-1.12305E+01 8.56245E+00 0.00000E+00
 -1     21846-1.21491E+01 9.75762E+00 0.00000E+00
 -1     21847-1.30873E+01 1.10542E+01 0.00000E+00
 -1     21848-1.40426E+01 1.24551E+01 0.00000E+00
 -1     21849-1.50117E+01 1.39631E+01 0.00000E+00
 -1     21850-1.59912E+01 1.55796E+01 0.00000E+00
 -1     21851-1.69779E+01 1.73058E+01 0.00000E+00
 -1     21852-1.79699E+01 1.91427E+01 0.00000E+00
 -1     21853-1.89685E+01 2.10923E+01 0.00000E+00
 -1     21854-1.99806E+01 2.31628E+01 0.00000E+00
 -1     21855-2.10212E+01 2.53750E+01 0.00000E+00
 -1     21856-2.21227E+01 2.77848E+01 0.00000E+00
 -1     21857-2.33323E+01 3.05549E+01 0.00000E+00
 -1     21858-7.13559E-01 3.43479E-01 0.00000E+00
 -1     21859-1.65991E+00 6.70416E-01 0.00000E+00
 -1     21860-2.44273E+00 9.75849E-01 0.00000E+00
 -1     21861-3.19218E+00 1.32065E+00 0.00000E+00
 -1     21862-3.93172E+00 1.71998E+00 0.00000E+00
 -1     21863-4.67344E+00 2.18048E+00 0.00000E+00
 -1     21864-5.42492E+00 2.70682E+00 0.00000E+00
 -1     21865-6.19120E+00 3.30292E+00 0.00000E+00
 -1     21866-6.97570E+00 3.97235E+00 0.00000E+00
 -1     21867-7.78090E+00 4.71921E+00 0.00000E+00
 -1     21868-8.60854E+00 5.54746E+00 0.00000E+00
 -1     21869-9.45949E+00 6.46125E+00 0.00000E+00
 -1     21870-1.03336E+01 7.46494E+00 0.00000E+00
 -1     21871-1.12305E+01 8.56236E+00 0.00000E+00
 -1     21872-1.21491E+01 9.75759E+00 0.00000E+00
 -1     21873-1.30873E+01 1.10542E+01 0.00000E+00
 -1     21874-1.40426E+01 1.24551E+01 0.00000E+00
 -1     21875-1.50117E+01 1.39630E+01 0.00000E+00
 -1     21876-1.59912E+01 1.55795E+01 0.00000E+00
 -1     21877-1.69780E+01 1.73058E+01 0.00000E+00
 -1     21878-1.79700E+01 1.91426E+01 0.00000E+00
 -1     21879-1.89685E+01 2.10922E+01 0.00000E+00
 -1     21880-1.99804E+01 2.31625E+01 0.00000E+00
 -1     21881-2.10215E+01 2.53748E+01 0.00000E+00
 -1     21882-2.21226E+01 2.77848E+01 0.00000E+00
 -1     21883-2.33169E+01 3.05679E+01 0.00000E+00
 -1     21884 0.00000E+00 0.00000E+00 0.00000E+00
 -1     21885 0.00000E+00 0.00000E+00 0.00000E+00
 -1     21886 0.00000E+00 0.00000E+00 0.00000E+00
 -1     21887 0.00000E+00 0.00000E+00 0.00000E+00
 -1     21888 0.00000E+00 0.00000E+00 0.00000E+00
 -1     21889 0.00000E+00 0.00000E+00 0.00000E+00
 -1     21890 0.00000E+00 0.00000E+00 0.00000E+00
 -1     21891 0.00000E+00 0.00000E+00 0.00000E+00
 -1     21892 0.00000E+00 0.00000E+00 0.00000E+00
 -1     21893 0.00000E+00 0.00000E+00 0.00000E+00
 -1     21894 0.00000E+00 0.00000E+00 0.00000E+00
 -1     21895 0.00000E+00 0.00000E+00 0.00000E+00
 -1     21896 0.00000E+00 0.00000E+00 0.00000E+00
 -1     21897 0.00000E+00 0.00000E+00 0.00000E+00
 -1     21898 0.00000E+00 0.00000E+00 0.00000E+00
 -1     21899 0.00000E+00 0.00000E+00 0.00000E+00
 -1     21900 0.00000E+00 0.00000E+00 0.00000E+00
 -1     21901 0.00000E+00 0.00000E+00 0.00000E+00
 -1     21902 0.00000E+00 0.00000E+00 0.00000E+00
 -1     21903 0.00000E+00 0.00000E+00 0.00000E+00
 -1     21904 0.00000E+00 0.00000E+00 0.00000E+00
 -1     21905 0.00000E+00 0.00000E+00 0.00000E+00
 -1     21906 0.00000E+00 0.00000E+00 0.00000E+00
 -1     21907 0.00000E+00 0.00000E+00 0.00000E+00
 -1     21908 0.00000E+00 0.00000E+00 0.00000E+00
 -1     21909 0.00000E+00 0.00000E+00 0.00000E+00
 -1     21910 0.00000E+00 0.00000E+00 0.00000E+00
 -1     21911 0.00000E+00 0.00000E+00 0.00000E+00
 -1     21912 0.00000E+00 0.00000E+00 0.00000E+00
 -1     21913 0.00000E+00 0.00000E+00 0.00000E+00
 -1     21914 0.00000E+00 0.00000E+00 0.00000E+00
 -1     21915 0.00000E+00 0.00000E+00 0.00000E+00
 -1     21916 0.00000E+00 0.00000E+00 0.00000E+00
 -1     21917 0.00000E+00 0.00000E+00 0.00000E+00
 -1     21918 0.00000E+00 0.00000E+00 0.00000E+00
 -1     21919 0.00000E+00 0.00000E+00 0.00000E+00
 -1     21920 0.00000E+00 0.00000E+00 0.00000E+00
 -1     21921 0.00000E+00 0.00000E+00 0.00000E+00
 -1     21922 0.00000E+00 0.00000E+00 0.00000E+00
 -1     21923 0.00000E+00 0.00000E+00 0.00000E+00
 -1     21924 0.00000E+00 0.00000E+00 0.00000E+00
 -1     21925 0.00000E+00 0.00000E+00 0.00000E+00
 -1     21926 0.00000E+00 0.00000E+00 0.00000E+00
 -1     21927 0.00000E+00 0.00000E+00 0.00000E+00
 -1     21928-5.42289E+00 2.88894E+01 7.66515E-04
 -1     21929-5.55462E+00 2.90819E+01 5.26769E-04
 -1     21930-5.55888E+00 2.90804E+01 8.94445E-04
 -1     21931-5.61706E+00 2.91678E+01-4.01931E-06
 -1     21932-5.61471E+00 2.91692E+01-1.07925E-04
 -1     21933-5.11009E+00 2.84218E+01-4.53689E-04
 -1     21934-4.98557E+00 2.82281E+01-8.69204E-04
 -1     21935-2.86779E+00 2.45750E+01-5.11320E-05
 -1     21936-3.35549E+00 2.54804E+01 9.02178E-05
 -1     21937-1.24685E+00 2.12380E+01-7.70613E-05
 -1     21938-1.63307E+00 2.20843E+01-2.11162E-05
 -1     21939 2.86056E-02 1.81337E+01 3.03644E-05
 -1     21940-2.69861E-01 1.89115E+01 1.25355E-05
 -1     21941 1.07013E+00 1.50250E+01-2.62345E-05
 -1     21942 8.58071E-01 1.57240E+01-3.07376E-05
 -1     21943 1.73729E+00 1.23955E+01 9.96078E-06
 -1     21944 1.59897E+00 1.30194E+01 7.93488E-06
 -1     21945 2.11233E+00 1.01757E+01 3.75243E-06
 -1     21946 2.03750E+00 1.07281E+01 1.52070E-05
 -1     21947 2.26074E+00 8.23131E+00 3.07130E-05
 -1     21948 2.24234E+00 8.71222E+00-3.25284E-06
 -1     21949 2.20791E+00 6.49237E+00-4.97817E-06
 -1     21950 2.23874E+00 6.89950E+00-1.07251E-05
 -1     21951 1.98680E+00 5.04417E+00 1.15746E-06
 -1     21952 2.05490E+00 5.37961E+00-9.17689E-06
 -1     21953 1.65228E+00 3.87069E+00-5.61472E-06
 -1     21954 1.74314E+00 4.13988E+00-2.34027E-05
 -1     21955 1.26495E+00 2.94002E+00-3.13140E-05
 -1     21956 1.36323E+00 3.15236E+00-1.92956E-05
 -1     21957 8.84510E-01 2.20168E+00 2.54771E-06
 -1     21958 9.75891E-01 2.37098E+00 9.91148E-06
 -1     21959 5.49409E-01 1.57529E+00 3.98458E-05
 -1     21960 6.22736E-01 1.71745E+00 5.96627E-06
 -1     21961 3.08975E-01 1.03823E+00-8.88898E-06
 -1     21962 3.61415E-01 1.16996E+00-2.13635E-05
 -1     21963 1.39363E-01 5.16064E-01-4.99372E-05
 -1     21964 1.76375E-01 6.44351E-01-4.82336E-05
 -1     21965 2.59640E-02 9.40108E-02-1.70689E-04
 -1     21966 2.07359E-02 7.43954E-02 1.15637E-06
 -1     21967 2.06849E-02 7.41347E-02-1.29336E-04
 -1     21968 2.58794E-02 9.41567E-02 2.01482E-04
 -1     21969 1.08022E-01 4.00839E-01-2.40428E-05
 -1     21970 7.49661E-02 2.77368E-01-1.28655E-05
 -1     21971 1.76338E-01 6.44407E-01 4.48197E-05
 -1     21972 1.39416E-01 5.15981E-01 6.02256E-05
 -1     21973 3.70026E-01 1.19048E+00 7.13828E-06
 -1     21974 3.16889E-01 1.05846E+00-6.82101E-06
 -1     21975 6.22182E-01 1.71630E+00-1.22108E-05
 -1     21976 5.48852E-01 1.57420E+00 6.32791E-06
 -1     21977 9.45738E-01 2.31506E+00 3.30235E-05
 -1     21978 8.55478E-01 2.14850E+00 3.86309E-05
 -1     21979 1.33062E+00 3.08014E+00 1.48986E-05
 -1     21980 1.23238E+00 2.87202E+00 1.90106E-05
 -1     21981 1.71317E+00 4.04838E+00-1.96710E-05
 -1     21982 1.62095E+00 3.78441E+00-1.80889E-05
 -1     21983 2.03304E+00 5.26573E+00 5.39276E-06
 -1     21984 1.96232E+00 4.93611E+00 7.87887E-06
 -1     21985 2.22969E+00 6.76175E+00-1.78021E-06
 -1     21986 2.19512E+00 6.36075E+00 2.33017E-06
 -1     21987 2.24970E+00 8.55377E+00-1.02033E-05
 -1     21988 2.26378E+00 8.07884E+00-3.01763E-05
 -1     21989 2.03751E+00 1.07281E+01-2.34135E-05
 -1     21990 2.11226E+00 1.01759E+01-2.69832E-06
 -1     21991 1.55058E+00 1.32253E+01 8.59408E-06
 -1     21992 1.69442E+00 1.25956E+01 1.73206E-05
 -1     21993 7.95785E-01 1.59217E+01 5.74424E-05
 -1     21994 1.01305E+00 1.52177E+01-5.98443E-06
 -1     21995-1.87669E-01 1.87008E+01-5.34564E-05
 -1     21996 1.05118E-01 1.79278E+01-2.32887E-05
 -1     21997-1.63332E+00 2.20844E+01 6.70002E-05
 -1     21998-1.24694E+00 2.12379E+01 1.03681E-04
 -1     21999-3.49043E+00 2.57241E+01-4.73954E-05
 -1     22000-2.99513E+00 2.48151E+01-1.36214E-04
 -1     22001-4.92961E+00 2.81430E+01-4.73653E-04
 -1     22002 5.00120E-02 1.84960E-01 4.13332E-05
 -1     22003 5.00815E-02 1.85046E-01-6.63098E-05
 -1     22004-2.41635E+00 2.36988E+01 6.88963E-05
 -1     22005-2.56669E+00 2.39945E+01 3.72418E-05
 -1     22006-1.98335E+00 2.28218E+01 2.63889E-05
 -1     22007-9.33674E-01 2.05241E+01-1.83448E-05
 -1     22008-1.11220E+00 2.09346E+01-1.58615E-04
 -1     22009-5.91142E-01 1.97102E+01 1.92706E-05
 -1     22010-3.89871E+00 2.64425E+01-1.32788E-04
 -1     22011-4.45045E+00 2.73713E+01 2.57592E-04
 -1     22012-1.77488E+00 2.23857E+01-8.28255E-05
 -1     22013-4.71005E-01 1.94159E+01 7.37383E-05
 -1     22014-4.62031E+00 2.76487E+01 1.44057E-04
 -1     22015 5.94492E-01 1.65380E+01-1.48796E-05
 -1     22016 3.40420E-01 1.72766E+01-1.93008E-05
 -1     22017 1.44221E+00 1.36653E+01-1.30105E-05
 -1     22018 1.26810E+00 1.43265E+01-1.20540E-05
 -1     22019 1.96091E+00 1.12153E+01-5.76939E-06
 -1     22020 1.85624E+00 1.18021E+01-1.75860E-07
 -1     22021 2.21058E+00 9.20114E+00-2.19074E-05
 -1     22022 2.16393E+00 9.71875E+00-2.51756E-05
 -1     22023 2.25840E+00 7.32529E+00-5.00560E-05
 -1     22024 2.26584E+00 7.76917E+00-2.77796E-05
 -1     22025 2.11515E+00 5.73261E+00-1.92310E-05
 -1     22026 2.16628E+00 6.10335E+00-2.71270E-05
 -1     22027 1.82997E+00 4.42479E+00-2.03835E-05
 -1     22028 1.91131E+00 4.72608E+00-2.66430E-05
 -1     22029 1.46123E+00 3.37771E+00-6.86870E-06
 -1     22030 1.55783E+00 3.61684E+00-2.31583E-05
 -1     22031 1.07072E+00 2.55063E+00-1.43668E-06
 -1     22032 1.16708E+00 2.73964E+00 5.04351E-05
 -1     22033 7.11200E-01 1.88296E+00 1.90186E-05
 -1     22034 7.94679E-01 2.03700E+00 2.70006E-05
 -1     22035 4.13025E-01 1.28953E+00 3.90694E-06
 -1     22036 4.75269E-01 1.42468E+00 8.07802E-06
 -1     22037 2.00407E-01 7.24319E-01-3.65166E-05
 -1     22038 2.21539E-01 7.90443E-01-1.47533E-05
 -1     22039 2.65715E-01 9.20440E-01-1.97151E-05
 -1     22040 2.21550E-01 7.90374E-01 3.82537E-05
 -1     22041 2.22283E+00 9.03333E+00-2.71445E-05
 -1     22042 7.51068E-02 2.77334E-01-6.27754E-05
 -1     22043 1.08009E-01 4.00983E-01-2.71906E-06
 -1     22044 6.88960E-02 2.53939E-01 2.88837E-05
 -1     22045 2.97825E-01 1.00868E+00 2.36914E-05
 -1     22046 2.65587E-01 9.20520E-01 1.22492E-06
 -1     22047 4.90634E-01 1.45660E+00-3.30110E-06
 -1     22048 4.27132E-01 1.32096E+00 7.75687E-06
 -1     22049 7.70999E-01 1.99339E+00-1.91221E-05
 -1     22050 6.88657E-01 1.84138E+00-1.52225E-05
 -1     22051 1.13487E+00 2.67554E+00-2.16652E-05
 -1     22052 1.03912E+00 2.49003E+00-1.88732E-05
 -1     22053 1.52582E+00 3.53564E+00-2.20806E-05
 -1     22054 1.42861E+00 3.30108E+00-2.11724E-06
 -1     22055 1.88489E+00 4.62371E+00-2.68108E-05
 -1     22056 1.80149E+00 4.32794E+00 3.65063E-05
 -1     22057 2.15033E+00 5.97765E+00-2.15168E-05
 -1     22058 2.09601E+00 5.61289E+00 4.68317E-05
 -1     22059 2.26466E+00 7.61977E+00 3.94011E-05
 -1     22060 2.25325E+00 7.18189E+00 2.70832E-05
 -1     22061 2.17843E+00 9.57315E+00 2.96991E-06
 -1     22062 2.22091E+00 9.06056E+00 3.96456E-05
 -1     22063 1.82423E+00 1.19682E+01 3.01230E-06
 -1     22064 1.93350E+00 1.13762E+01 1.18064E-06
 -1     22065 1.20775E+00 1.45448E+01-1.29781E-05
 -1     22066 1.38776E+00 1.38776E+01 1.98755E-05
 -1     22067 3.39989E-01 1.72776E+01-2.47489E-06
 -1     22068 5.94094E-01 1.65391E+01 2.91922E-05
 -1     22069-8.39338E-01 2.03037E+01 8.07671E-05
 -1     22070-5.03138E-01 1.94946E+01-1.28222E-04
 -1     22071-2.53608E+00 2.39338E+01-1.27833E-04
 -1     22072-2.09573E+00 2.30526E+01-1.06618E-04
 -1     22073-4.48553E+00 2.74300E+01-4.95842E-05
 -1     22074-3.93214E+00 2.65012E+01-1.37468E-04
 -1     22075 2.25324E+00 7.18200E+00-1.17231E-04
 -1     22076 1.69207E-01 1.77535E+01 1.27596E-05
 -1     22077 1.19908E+00 1.45758E+01-1.99809E-05
 -1     22078 1.81716E+00 1.20041E+01-1.23828E-06
 -1     22079 2.13500E+00 9.98526E+00-2.40507E-05
 -1     22080 2.26383E+00 8.07606E+00-6.94662E-06
 -1     22081 2.19524E+00 6.36095E+00 1.75207E-05
 -1     22082 1.96247E+00 4.93626E+00 3.58980E-05
 -1     22083 1.62126E+00 3.78433E+00-3.62766E-05
 -1     22084 1.23214E+00 2.87163E+00 9.04560E-06
 -1     22085 8.52107E-01 2.14211E+00-1.61341E-05
 -1     22086 5.09339E-01 1.49494E+00 1.57089E-05
 -1     22087 1.24483E-01 4.62870E-01-8.11045E-05
 -1     22088 4.07660E-01 1.27753E+00-6.03897E-06
 -1     22089 6.49684E-01 1.76831E+00-1.96392E-05
 -1     22090 9.76558E-01 2.37235E+00-2.42654E-05
 -1     22091 1.36339E+00 3.15235E+00 6.90644E-05
 -1     22092 1.74308E+00 4.13974E+00-3.40510E-06
 -1     22093 2.05497E+00 5.37953E+00 2.98452E-05
 -1     22094 2.23891E+00 6.90078E+00 1.16785E-05
 -1     22095 2.24106E+00 8.73394E+00 4.82678E-05
 -1     22096 1.98192E+00 1.10880E+01 1.11199E-05
 -1     22097 1.44483E+00 1.36557E+01 6.43836E-05
 -1     22098 6.78704E-01 1.62835E+01 3.16378E-05
 -1     22099-3.00756E-01 1.89894E+01-1.46612E-04
 -1     22100-1.88372E+00 2.26147E+01-6.80706E-05
 -1     22101-3.72018E+00 2.61318E+01-9.56402E-05
 -1     22102 2.09612E+00 5.61312E+00-8.06365E-05
 -1     22103 1.80160E+00 4.32811E+00-6.67756E-05
 -1     22104 1.42865E+00 3.30094E+00-1.68891E-05
 -1     22105 1.03843E+00 2.48869E+00 8.18954E-05
 -1     22106 6.72186E-01 1.81033E+00 2.18749E-05
 -1     22107 3.85068E-01 1.22573E+00-8.29008E-06
 -1     22108 2.16639E+00 6.10353E+00 1.01623E-05
 -1     22109 2.26585E+00 7.77416E+00 5.01339E-05
 -1     22110 2.15153E+00 9.83721E+00 3.44413E-05
 -1     22111 1.74283E+00 1.23698E+01 2.12831E-05
 -1     22112 1.08127E+00 1.49871E+01 2.62000E-05
 -1     22113 2.42509E-01 1.75512E+01-2.06137E-05
 -1     22114-1.01528E+00 2.07115E+01-1.96151E-05
 -1     22115-2.81287E+00 2.44698E+01-1.31418E-04
 -1     22116-4.60301E+00 2.76213E+01-9.72443E-06
 -1     22117-3.54923E+00 2.58289E+01-1.06837E-04
 -1     22118 2.00700E+00 1.09295E+01-3.44124E-06
 -1     22119 1.54759E+00 1.32374E+01-1.00526E-05
 -1     22120 7.44228E-01 1.60822E+01-1.52766E-05
 -1     22121 1.91138E+00 4.72576E+00 1.21728E-05
 -1     22122 1.55783E+00 3.61674E+00-2.56520E-05
 -1     22123 5.24824E-01 1.52619E+00 2.34731E-06
 -1     22124 1.16720E+00 2.73969E+00 5.38394E-06
 -1     22125 7.99553E-01 2.04581E+00-2.24326E-05
 -1     22126-4.56666E+00 2.75618E+01 2.39765E-04
 -1     22127 2.07679E+00 1.04503E+01-1.95699E-06
 -1     22128 2.00705E+00 1.09296E+01-2.16010E-05
 -1     22129-1.43555E+00 2.16557E+01-1.15812E-04
 -1     22130-1.77480E+00 2.23858E+01-1.02854E-05
 -1     22131-1.11248E+00 2.09344E+01-8.78582E-05
 -1     22132 1.93720E+00 4.82991E+00 9.60615E-06
 -1     22133 1.85752E+00 4.52328E+00 1.11316E-05
 -1     22134 1.89639E+00 1.15852E+01-4.74422E-06
 -1     22135 1.78361E+00 1.21719E+01-2.93206E-06
 -1     22136 9.34827E-01 1.54758E+01-3.09154E-05
 -1     22137 6.79091E-01 1.62825E+01-2.85210E-05
 -1     22138 2.13497E+00 9.98538E+00-5.38986E-05
 -1     22139 1.64794E+00 1.28057E+01 3.63426E-06
 -1     22140 1.49715E+00 1.34456E+01-5.08093E-05
 -1     22141 2.26548E+00 7.92560E+00-8.16088E-05
 -1     22142 2.26214E+00 7.47278E+00-3.00684E-05
 -1     22143 4.53242E-01 1.37783E+00 7.04829E-06
 -1     22144 3.93983E-01 1.24633E+00-3.47380E-06
 -1     22145 2.18131E+00 6.23116E+00-5.54046E-06
 -1     22146 2.21945E+00 6.62640E+00-3.49542E-05
 -1     22147 2.42972E-01 1.75501E+01-2.27180E-05
 -1     22148-7.74189E-02 1.84148E+01-4.35193E-05
 -1     22149 2.01033E+00 5.15384E+00-1.18192E-05
 -1     22150 1.77266E+00 4.23301E+00 5.25124E-05
 -1     22151 1.58951E+00 3.69962E+00-3.54668E-05
 -1     22152 1.68285E+00 3.95855E+00-4.66827E-05
 -1     22153 1.39588E+00 3.22585E+00-2.69058E-06
 -1     22154 1.29760E+00 3.00930E+00 2.28401E-05
 -1     22155 1.19985E+00 2.80521E+00 9.41161E-05
 -1     22156 1.00702E+00 2.42917E+00-1.00429E-05
 -1     22157 1.10259E+00 2.61216E+00 2.60564E-05
 -1     22158 8.23579E-01 2.08991E+00-6.99765E-06
 -1     22159 7.40527E-01 1.93738E+00 9.05669E-05
 -1     22160 6.50322E-01 1.76938E+00 1.75514E-05
 -1     22161 5.25338E-01 1.52730E+00 2.12754E-05
 -1     22162 3.43921E-01 1.12715E+00 1.63839E-05
 -1     22163 2.13310E+00 5.85422E+00 4.54244E-05
 -1     22164 2.90259E-01 9.88448E-01-5.32809E-06
 -1     22165 2.24682E+00 7.04062E+00 6.04839E-05
 -1     22166 6.89008E-02 2.54137E-01 4.54288E-05
 -1     22167 9.41368E-02 3.49163E-01-2.40095E-05
 -1     22168-2.24720E+00 2.33603E+01-3.04163E-05
 -1     22169-2.68856E+00 2.42311E+01-1.03561E-04
 -1     22170-3.84871E-01 1.92018E+01 6.77869E-05
 -1     22171 1.24535E-01 4.62483E-01 1.24991E-04
 -1     22172 1.32815E+00 1.41041E+01-8.73136E-05
 -1     22173 1.13652E+00 1.47963E+01-7.31986E-05
 -1     22174-4.13908E+00 2.68537E+01-7.21231E-05
 -1     22175 2.07608E+00 5.49539E+00 8.04457E-05
 -1     22176 2.25600E+00 8.39406E+00-2.83689E-05
 -1     22177 2.23180E+00 8.89456E+00 3.49886E-06
 -1     22178 2.19505E+00 9.39018E+00-1.44152E-05
 -1     22179-3.15709E+00 2.51165E+01-1.50945E-04
 -1     22180-3.68736E+00 2.60737E+01-2.06858E-04
 -1     22181-7.14545E-01 2.00073E+01-1.24262E-04
 -1     22182 5.85786E-01 1.64653E+00 1.89601E-05
 -1     22183 4.68912E-01 1.69079E+01-4.04101E-05
 -1     22184 1.49349E+00 3.45571E+00-1.60091E-05
 -1     22185 9.14532E-01 2.25744E+00-5.33592E-05
 -1     22186-2.22151E+01 3.21519E+01-2.18291E-03
 -1     22187-2.25382E+01 3.21880E+01 1.98130E-03
 -1     22188-2.25384E+01 3.21693E+01 1.00632E-03
 -1     22189-2.27728E+01 3.22052E+01-1.90102E-04
 -1     22190-2.27746E+01 3.22073E+01 4.75514E-05
 -1     22191-2.15050E+01 3.20636E+01-3.29754E-05
 -1     22192-2.12077E+01 3.20254E+01-7.90107E-04
 -1     22193-1.64295E+01 3.12800E+01 3.57486E-04
 -1     22194-1.75822E+01 3.14766E+01 6.36573E-04
 -1     22195-1.21023E+01 3.05165E+01 1.50352E-04
 -1     22196-1.30785E+01 3.06862E+01 4.04812E-05
 -1     22197-8.61936E+00 3.00090E+01 2.45707E-04
 -1     22198-9.53344E+00 3.01190E+01-3.29109E-04
 -1     22199-6.84150E+00 2.98647E+01 3.50618E-05
 -1     22200-7.79366E+00 2.99288E+01 4.25291E-04
 -1     22201-8.36095E+00 2.99818E+01 7.12931E-05
 -1     22202-6.84568E+00 2.98673E+01-5.77179E-04
 -1     22203-6.84197E+00 2.98670E+01-7.64609E-04
 -1     22204-7.11480E+00 2.98836E+01-2.67279E-04
 -1     22205-7.36171E+00 2.98970E+01-4.30298E-05
 -1     22206-8.03162E+00 2.99490E+01-4.27080E-04
 -1     22207-8.29067E+00 2.99723E+01 1.86638E-04
 -1     22208-9.20502E+00 3.00758E+01 3.13701E-05
 -1     22209-1.10942E+01 3.03493E+01-8.91213E-05
 -1     22210-1.01660E+01 3.02065E+01 4.24869E-05
 -1     22211-1.30778E+01 3.06864E+01-2.09167E-04
 -1     22212-1.21029E+01 3.05167E+01-1.76508E-04
 -1     22213-1.71395E+01 3.14016E+01 1.04403E-04
 -1     22214-1.60061E+01 3.12064E+01-1.66453E-04
 -1     22215-2.10062E+01 3.20017E+01-1.96245E-03
 -1     22216-1.52570E+01 3.10740E+01-6.25292E-06
 -1     22217-1.58612E+01 3.11810E+01 6.46657E-05
 -1     22218-1.42057E+01 3.08867E+01-2.30208E-05
 -1     22219-1.12592E+01 3.03754E+01-1.06463E-04
 -1     22220-1.16100E+01 3.04335E+01 6.45045E-05
 -1     22221-1.03279E+01 3.02306E+01-1.21049E-05
 -1     22222-1.87620E+01 3.16680E+01 4.47934E-04
 -1     22223-2.00630E+01 3.18658E+01-5.71946E-04
 -1     22224-1.35661E+01 3.07735E+01 3.16248E-04
 -1     22225-9.97515E+00 3.01792E+01-1.50809E-04
 -1     22226-2.05330E+01 3.19352E+01-5.58901E-06
 -1     22227-1.42059E+01 3.08868E+01 3.71951E-05
 -1     22228-9.48656E+00 3.01137E+01-7.16559E-06
 -1     22229-1.49254E+01 3.10157E+01-1.40672E-04
 -1     22230-1.96942E+01 3.18102E+01-5.35767E-04
 -1     22231-1.84183E+01 3.16114E+01-2.31917E-05
 -1     22232-1.74278E+01 3.14524E+01-5.31281E-04
 -1     22233-1.82124E+01 3.15791E+01-7.42362E-05
 -1     22234-1.99614E+01 3.18517E+01-1.79375E-04
 -1     22235-2.03381E+01 3.19062E+01-6.01304E-04
 -1     22236-1.90752E+01 3.17152E+01-3.28127E-04
 -1     22237-8.85544E+00 3.00340E+01-5.11448E-04
 -1     22238-1.78785E+01 3.15246E+01-8.07857E-05
 -1     22239-1.54481E+01 3.11084E+01 5.56921E-05
 -1     22240-1.14436E+01 3.04068E+01 2.06077E-04
 -1     22241-1.06129E+01 3.02732E+01 1.37463E-04
 -1     22242-1.66293E+01 3.13140E+01 5.32369E-04
 -1     22243-9.81558E+00 3.01569E+01 4.01911E-05
 -1     22244-7.57927E-01 3.41692E-01 4.16365E-03
 -1     22245-6.17648E-01 3.06498E-01-4.26157E-03
 -1     22246-5.78696E-01 2.87358E-01 2.16588E-03
 -1     22247-5.79728E-01 2.75566E-01 8.50141E-03
 -1     22248-5.59692E-01 2.84147E-01 3.61181E-03
 -1     22249-9.87571E-01 4.21665E-01-2.30988E-03
 -1     22250-1.09753E+00 4.65638E-01-2.90405E-03
 -1     22251-2.69432E+00 1.08534E+00 5.81771E-05
 -1     22252-2.31476E+00 9.23774E-01 5.46203E-05
 -1     22253-4.12114E+00 1.83199E+00 1.14880E-04
 -1     22254-3.75169E+00 1.61707E+00 5.58545E-05
 -1     22255-5.61452E+00 2.84882E+00-2.35938E-05
 -1     22256-5.23527E+00 2.56849E+00 9.78369E-05
 -1     22257-7.23756E+00 4.20883E+00 5.63820E-06
 -1     22258-6.83952E+00 3.85201E+00 1.36449E-05
 -1     22259-8.88882E+00 5.84168E+00-1.80748E-05
 -1     22260-8.46826E+00 5.40302E+00 5.81119E-07
 -1     22261-1.05555E+01 7.73001E+00-1.88544E-06
 -1     22262-1.01127E+01 7.20524E+00 5.97192E-07
 -1     22263-1.23038E+01 9.96630E+00-3.66521E-05
 -1     22264-1.18402E+01 9.34783E+00 1.12851E-05
 -1     22265-1.42025E+01 1.26978E+01 3.31361E-07
 -1     22266-1.37217E+01 1.19753E+01 2.83374E-05
 -1     22267-1.61531E+01 1.58558E+01-1.84799E-05
 -1     22268-1.56616E+01 1.50248E+01 3.70971E-06
 -1     22269-1.81347E+01 1.94576E+01 2.95804E-05
 -1     22270-1.76376E+01 1.85158E+01 2.40720E-05
 -1     22271-2.02851E+01 2.38053E+01 5.39585E-05
 -1     22272-1.97734E+01 2.27339E+01 4.55986E-05
 -1     22273-2.23296E+01 2.82619E+01-1.12904E-03
 -1     22274-2.17621E+01 2.69989E+01 1.56584E-05
 -1     22275-2.34989E+01 3.09725E+01 1.74956E-04
 -1     22276-2.28600E+01 2.94723E+01 1.83786E-03
 -1     22277-2.24824E+01 2.86052E+01-1.27102E-04
 -1     22278-2.35006E+01 3.09719E+01-5.24684E-04
 -1     22279-2.34958E+01 3.09739E+01-5.45301E-04
 -1     22280-2.33272E+01 3.05629E+01 3.31370E-03
 -1     22281-2.31417E+01 3.01314E+01 1.26301E-05
 -1     22282-2.26858E+01 2.90766E+01 4.14278E-04
 -1     22283-2.25326E+01 2.87234E+01-1.38018E-04
 -1     22284-2.19549E+01 2.74289E+01 4.52915E-04
 -1     22285-2.08492E+01 2.50082E+01 1.56471E-04
 -1     22286-2.13843E+01 2.61656E+01-2.30689E-04
 -1     22287-1.97734E+01 2.27338E+01 7.85355E-05
 -1     22288-2.02851E+01 2.38054E+01 1.19959E-04
 -1     22289-1.77196E+01 1.86699E+01-2.48819E-05
 -1     22290-1.82169E+01 1.96161E+01 9.15689E-06
 -1     22291-1.58203E+01 1.52907E+01 1.48784E-06
 -1     22292-1.63123E+01 1.61305E+01-2.04882E-05
 -1     22293-1.38812E+01 1.22127E+01 2.57129E-06
 -1     22294-1.43632E+01 1.29442E+01-2.50647E-05
 -1     22295-1.19901E+01 9.54562E+00 3.85808E-07
 -1     22296-1.24552E+01 1.01721E+01 2.98296E-05
 -1     22297-1.01124E+01 7.20507E+00 2.66906E-05
 -1     22298-1.05553E+01 7.73002E+00 2.26626E-05
 -1     22299-8.33308E+00 5.26524E+00-1.73715E-06
 -1     22300-8.75171E+00 5.69705E+00 7.35009E-07
 -1     22301-6.71127E+00 3.74024E+00 1.84799E-05
 -1     22302-7.10770E+00 4.09081E+00-7.28981E-06
 -1     22303-5.23145E+00 2.56578E+00-3.29004E-05
 -1     22304-5.61057E+00 2.84591E+00-2.04686E-06
 -1     22305-3.74849E+00 1.61552E+00 3.74970E-05
 -1     22306-4.11828E+00 1.83055E+00-3.35671E-05
 -1     22307-2.21205E+00 8.81167E-01-4.75330E-04
 -1     22308-2.59338E+00 1.04020E+00-3.39362E-04
 -1     22309-1.14390E+00 4.82882E-01 1.09203E-03
 -1     22310-3.06231E+00 1.25685E+00-5.61926E-05
 -1     22311-2.93751E+00 1.19753E+00-2.15015E-04
 -1     22312-3.43300E+00 1.44415E+00-1.50265E-04
 -1     22313-4.44691E+00 2.03366E+00-3.43162E-05
 -1     22314-4.26647E+00 1.92039E+00 7.32603E-05
 -1     22315-4.81952E+00 2.27827E+00 2.62030E-05
 -1     22316-1.90623E+00 7.63364E-01-7.54283E-04
 -1     22317-1.49729E+00 6.11392E-01 3.07206E-04
 -1     22318-3.62260E+00 1.54569E+00-1.00025E-04
 -1     22319-5.00661E+00 2.40637E+00 6.21912E-05
 -1     22320-1.36656E+00 5.63812E-01-1.92990E-03
 -1     22321-6.43616E+00 3.50573E+00-2.58826E-05
 -1     22322-6.04820E+00 3.18723E+00-6.79508E-05
 -1     22323-8.05315E+00 4.98509E+00-1.92893E-05
 -1     22324-7.64415E+00 4.58828E+00 2.24367E-05
 -1     22325-9.73834E+00 6.77467E+00-1.08996E-05
 -1     22326-9.30621E+00 6.29234E+00-1.23617E-05
 -1     22327-1.13918E+01 8.76727E+00 5.71052E-06
 -1     22328-1.09386E+01 8.19788E+00 9.08421E-06
 -1     22329-1.32446E+01 1.12791E+01-5.35529E-06
 -1     22330-1.27716E+01 1.06094E+01-2.39477E-05
 -1     22331-1.51733E+01 1.42233E+01-2.05843E-05
 -1     22332-1.46863E+01 1.34468E+01-2.33356E-06
 -1     22333-1.71387E+01 1.75966E+01 8.90995E-06
 -1     22334-1.66442E+01 1.67107E+01-2.03080E-06
 -1     22335-1.94728E+01 2.21133E+01-3.28244E-05
 -1     22336-1.91722E+01 2.15024E+01-5.24100E-07
 -1     22337-1.86707E+01 2.05011E+01 5.46188E-05
 -1     22338-1.91721E+01 2.15026E+01 2.98048E-05
 -1     22339-2.12873E+01 2.59587E+01-3.09975E-04
 -1     22340-2.07563E+01 2.48089E+01-1.66337E-04
 -1     22341-1.34025E+01 1.15073E+01-4.58852E-05
 -1     22342-1.37198E+01 1.19726E+01-5.57768E-05
 -1     22343-1.29281E+01 1.08288E+01-1.12230E-05
 -1     22344-2.05449E+01 2.43563E+01-2.27311E-05
 -1     22345-2.17762E+01 2.70280E+01 3.24566E-04
 -1     22346-1.72837E+01 1.78612E+01 1.67146E-05
 -1     22347-1.75299E+01 1.83154E+01 4.04824E-05
 -1     22348-1.67887E+01 1.69672E+01-1.79587E-05
 -1     22349-1.84193E+01 2.00083E+01 1.92636E-06
 -1     22350-1.86706E+01 2.05013E+01-2.91350E-06
 -1     22351-1.66171E+01 1.66628E+01-3.69326E-05
 -1     22352-1.48472E+01 1.37008E+01 1.86729E-05
 -1     22353-1.53350E+01 1.44862E+01-1.07486E-05
 -1     22354-1.27666E+01 1.06021E+01-1.30438E-05
 -1     22355-1.10632E+01 8.35265E+00-2.02657E-05
 -1     22356-1.15179E+01 8.92865E+00-3.74290E-05
 -1     22357-9.18775E+00 6.16297E+00-3.26790E-06
 -1     22358-9.61826E+00 6.63910E+00-2.77118E-05
 -1     22359-7.50982E+00 4.46120E+00 7.59670E-06
 -1     22360-7.91700E+00 4.85135E+00-3.69054E-06
 -1     22361-5.94062E+00 3.10164E+00 3.64362E-05
 -1     22362-6.32745E+00 3.41494E+00 3.72288E-05
 -1     22363-4.52805E+00 2.08565E+00 5.27023E-05
 -1     22364-4.90120E+00 2.33381E+00 7.40629E-06
 -1     22365-2.96312E+00 1.20925E+00 1.08833E-04
 -1     22366-3.33443E+00 1.39304E+00 2.05213E-04
 -1     22367-1.47277E+00 5.97487E-01 3.41693E-04
 -1     22368-1.87999E+00 7.50590E-01-9.26697E-05
 -1     22369-5.85565E+00 3.03434E+00-7.75508E-05
 -1     22370-7.50499E+00 4.45670E+00 2.01228E-05
 -1     22371-9.16280E+00 6.13585E+00 5.03540E-06
 -1     22372-1.07139E+01 7.92200E+00 1.45714E-05
 -1     22373-1.24586E+01 1.01769E+01-5.53831E-05
 -1     22374-1.43625E+01 1.29432E+01 4.51104E-05
 -1     22375-1.63131E+01 1.61316E+01-5.24630E-06
 -1     22376-1.56545E+01 1.50133E+01-1.90856E-05
 -1     22377-1.18197E+01 9.32064E+00-6.53427E-05
 -1     22378-9.83549E+00 6.88520E+00-3.25238E-05
 -1     22379-8.05716E+00 4.98886E+00 1.33775E-05
 -1     22380-6.45672E+00 3.52294E+00 2.45193E-05
 -1     22381-5.08451E+00 2.46120E+00-8.97657E-05
 -1     22382-3.52143E+00 1.49084E+00 2.81251E-04
 -1     22383-2.03811E+00 8.12016E-01-7.88305E-04
 -1     22384-1.15439E+01 8.96215E+00 8.76789E-06
 -1     22385-1.34024E+01 1.15071E+01 3.00521E-05
 -1     22386-1.53340E+01 1.44845E+01-4.55143E-06
 -1     22387-1.73028E+01 1.78960E+01 7.15407E-06
 -1     22388-1.37253E+00 5.72204E-01-1.81049E-03
 -1     22389-2.16713E+00 8.63300E-01-6.72545E-05
 -1     22390-9.95643E+00 7.02410E+00-3.01893E-05
 -1     22391-8.32839E+00 5.26048E+00 5.20865E-06
 -1     22392-6.69364E+00 3.72487E+00-6.40787E-06
 -1     22393-2.14883E+01 2.63963E+01-2.66753E-05
 -1     22394-2.73879E+00 1.10508E+00-1.76567E-04
 -1     22395-4.34407E+00 1.96874E+00 5.02812E-05
 -1     22396-5.74464E+00 2.94838E+00 2.58170E-05
 -1     22397-7.24088E+00 4.21182E+00 1.40264E-05
 -1     22398-1.46841E+01 1.34433E+01-1.61394E-06
 -1     22399-8.90728E+00 5.86115E+00 1.56374E-05
 -1     22400-1.08377E+01 8.07326E+00-3.70068E-05
 -1     22401-1.40263E+00 5.80164E-01 3.52755E-03
 -1     22402-1.03330E+01 7.46423E+00 1.77075E-07
 -1     22403-9.95627E+00 7.02399E+00-2.55218E-06
 -1     22404-3.93852E+00 1.72409E+00 1.13336E-04
 -1     22405-3.61947E+00 1.54392E+00-1.43037E-04
 -1     22406-4.26329E+00 1.91848E+00 6.90199E-05
 -1     22407-9.46439E+00 6.46715E+00 7.20628E-06
 -1     22408-9.04492E+00 6.00852E+00-7.88341E-06
 -1     22409-6.97094E+00 3.96822E+00 3.49188E-05
 -1     22410-6.56591E+00 3.61536E+00-2.65805E-05
 -1     22411-1.07138E+01 7.92185E+00 3.24479E-05
 -1     22412-8.61089E+00 5.55007E+00-2.50644E-05
 -1     22413-8.19392E+00 5.12502E+00 4.82698E-06
 -1     22414-1.26105E+01 1.03855E+01-5.25561E-05
 -1     22415-1.21443E+01 9.75124E+00 3.29348E-05
 -1     22416-1.35608E+01 1.17382E+01 3.43286E-05
 -1     22417-1.40408E+01 1.24525E+01 1.15852E-05
 -1     22418-1.45235E+01 1.31925E+01-1.05017E-05
 -1     22419-1.54960E+01 1.47504E+01 5.45128E-06
 -1     22420-1.59819E+01 1.55639E+01-7.51020E-06
 -1     22421-1.64726E+01 1.64092E+01-1.44545E-05
 -1     22422-1.74481E+01 1.81630E+01 6.00610E-05
 -1     22423-1.69495E+01 1.72544E+01 7.14437E-07
 -1     22424-1.72544E+00 6.94505E-01-9.25306E-04
 -1     22425-1.83370E+01 1.98479E+01 6.13258E-05
 -1     22426-2.46720E+00 9.87942E-01-3.24148E-04
 -1     22427-2.83874E+00 1.15051E+00 7.89359E-05
 -1     22428-2.21637E+01 2.78986E+01 4.19071E-04
 -1     22429-1.16705E+01 9.12600E+00-1.81004E-05
 -1     22430-1.78841E+01 1.89800E+01 8.25243E-05
 -1     22431-2.06375E+01 2.45524E+01 3.80090E-04
 -1     22432-7.77974E+00 4.71800E+00 2.02560E-05
 -1     22433-7.37134E+00 4.33196E+00 6.62832E-05
 -1     22434-2.11151E+01 2.55830E+01 2.11096E-04
 -1     22435-1.12239E+01 8.55421E+00-3.10799E-05
 -1     22436-6.18391E+00 3.29686E+00 1.11842E-05
 -1     22437-5.08856E+00 2.46389E+00-7.18119E-05
 -1     22438-5.42036E+00 2.70339E+00-1.04947E-04
 -1     22439-3.20500E+00 1.32671E+00-1.45878E-05
 -1     22440-5.74870E+00 2.95129E+00 5.27259E-05
 -1     22441-2.06250E+00 8.22320E-01-4.01948E-04
 -1     22442-4.67365E+00 2.18079E+00 4.68029E-05
 -1     22443-2.15882E+01 2.66066E+01 4.52383E-04
 -1     22444-1.30849E+01 1.10508E+01-4.29514E-06
 -1     22445-1.50085E+01 1.39580E+01-1.21585E-05
 -1     22446 0.00000E+00 0.00000E+00 0.00000E+00
 -1     22447 0.00000E+00 0.00000E+00 0.00000E+00
 -1     22448 0.00000E+00 0.00000E+00 0.00000E+00
 -1     22449 0.00000E+00 0.00000E+00 0.00000E+00
 -1     22450 0.00000E+00 0.00000E+00 0.00000E+00
 -1     22451 0.00000E+00 0.00000E+00 0.00000E+00
 -1     22452 0.00000E+00 0.00000E+00 0.00000E+00
 -1     22453 0.00000E+00 0.00000E+00 0.00000E+00
 -1     22454 0.00000E+00 0.00000E+00 0.00000E+00
 -1     22455 0.00000E+00 0.00000E+00 0.00000E+00
 -1     22456 0.00000E+00 0.00000E+00 0.00000E+00
 -1     22457 0.00000E+00 0.00000E+00 0.00000E+00
 -1     22458 0.00000E+00 0.00000E+00 0.00000E+00
 -1     22459 0.00000E+00 0.00000E+00 0.00000E+00
 -1     22460 0.00000E+00 0.00000E+00 0.00000E+00
 -1     22461 0.00000E+00 0.00000E+00 0.00000E+00
 -1     22462 0.00000E+00 0.00000E+00 0.00000E+00
 -1     22463 0.00000E+00 0.00000E+00 0.00000E+00
 -1     22464 0.00000E+00 0.00000E+00 0.00000E+00
 -1     22465 0.00000E+00 0.00000E+00 0.00000E+00
 -1     22466 0.00000E+00 0.00000E+00 0.00000E+00
 -1     22467 0.00000E+00 0.00000E+00 0.00000E+00
 -1     22468 0.00000E+00 0.00000E+00 0.00000E+00
 -1     22469 0.00000E+00 0.00000E+00 0.00000E+00
 -1     22470 0.00000E+00 0.00000E+00 0.00000E+00
 -1     22471 0.00000E+00 0.00000E+00 0.00000E+00
 -1     22472 0.00000E+00 0.00000E+00 0.00000E+00
 -1     22473 0.00000E+00 0.00000E+00 0.00000E+00
 -1     22474 0.00000E+00 0.00000E+00 0.00000E+00
 -1     22475 0.00000E+00 0.00000E+00 0.00000E+00
 -1     22476 0.00000E+00 0.00000E+00 0.00000E+00
 -1     22477 0.00000E+00 0.00000E+00 0.00000E+00
 -1     22478 0.00000E+00 0.00000E+00 0.00000E+00
 -1     22479 0.00000E+00 0.00000E+00 0.00000E+00
 -1     22480 0.00000E+00 0.00000E+00 0.00000E+00
 -1     22481 0.00000E+00 0.00000E+00 0.00000E+00
 -1     22482 0.00000E+00 0.00000E+00 0.00000E+00
 -1     22483 0.00000E+00 0.00000E+00 0.00000E+00
 -1     22484 0.00000E+00 0.00000E+00 0.00000E+00
 -1     22485 0.00000E+00 0.00000E+00 0.00000E+00
 -1     22486 0.00000E+00 0.00000E+00 0.00000E+00
 -1     22487 0.00000E+00 0.00000E+00 0.00000E+00
 -1     22488 0.00000E+00 0.00000E+00 0.00000E+00
 -1     22489 0.00000E+00 0.00000E+00 0.00000E+00
 -1     22490 0.00000E+00 0.00000E+00 0.00000E+00
 -1     22491 0.00000E+00 0.00000E+00 0.00000E+00
 -1     22492 0.00000E+00 0.00000E+00 0.00000E+00
 -1     22493 0.00000E+00 0.00000E+00 0.00000E+00
 -1     22494 0.00000E+00 0.00000E+00 0.00000E+00
 -1     22495 0.00000E+00 0.00000E+00 0.00000E+00
 -1     22496 0.00000E+00 0.00000E+00 0.00000E+00
 -1     22497 0.00000E+00 0.00000E+00 0.00000E+00
 -1     22498 0.00000E+00 0.00000E+00 0.00000E+00
 -1     22499 0.00000E+00 0.00000E+00 0.00000E+00
 -1     22500 0.00000E+00 0.00000E+00 0.00000E+00
 -1     22501 0.00000E+00 0.00000E+00 0.00000E+00
 -1     22502 0.00000E+00 0.00000E+00 0.00000E+00
 -1     22503 0.00000E+00 0.00000E+00 0.00000E+00
 -1     22504 0.00000E+00 0.00000E+00 0.00000E+00
 -1     22505 0.00000E+00 0.00000E+00 0.00000E+00
 -1     22506 0.00000E+00 0.00000E+00 0.00000E+00
 -1     22507 0.00000E+00 0.00000E+00 0.00000E+00
 -1     22508 0.00000E+00 0.00000E+00 0.00000E+00
 -1     22509 0.00000E+00 0.00000E+00 0.00000E+00
 -1     22510 0.00000E+00 0.00000E+00 0.00000E+00
 -1     22511 0.00000E+00 0.00000E+00 0.00000E+00
 -1     22512 0.00000E+00 0.00000E+00 0.00000E+00
 -1     22513 0.00000E+00 0.00000E+00 0.00000E+00
 -1     22514 0.00000E+00 0.00000E+00 0.00000E+00
 -1     22515 0.00000E+00 0.00000E+00 0.00000E+00
 -1     22516 0.00000E+00 0.00000E+00 0.00000E+00
 -1     22517 0.00000E+00 0.00000E+00 0.00000E+00
 -1     22518 0.00000E+00 0.00000E+00 0.00000E+00
 -1     22519 0.00000E+00 0.00000E+00 0.00000E+00
 -1     22520 0.00000E+00 0.00000E+00 0.00000E+00
 -1     22521 0.00000E+00 0.00000E+00 0.00000E+00
 -1     22522 0.00000E+00 0.00000E+00 0.00000E+00
 -1     22523 0.00000E+00 0.00000E+00 0.00000E+00
 -1     22524 0.00000E+00 0.00000E+00 0.00000E+00
 -1     22525 0.00000E+00 0.00000E+00 0.00000E+00
 -1     22526 0.00000E+00 0.00000E+00 0.00000E+00
 -1     22527 0.00000E+00 0.00000E+00 0.00000E+00
 -1     22528 0.00000E+00 0.00000E+00 0.00000E+00
 -1     22529 0.00000E+00 0.00000E+00 0.00000E+00
 -1     22530 0.00000E+00 0.00000E+00 0.00000E+00
 -1     22531 0.00000E+00 0.00000E+00 0.00000E+00
 -1     22532 0.00000E+00 0.00000E+00 0.00000E+00
 -1     22533 0.00000E+00 0.00000E+00 0.00000E+00
 -1     22534 0.00000E+00 0.00000E+00 0.00000E+00
 -1     22535 0.00000E+00 0.00000E+00 0.00000E+00
 -1     22536 0.00000E+00 0.00000E+00 0.00000E+00
 -1     22537 0.00000E+00 0.00000E+00 0.00000E+00
 -1     22538 0.00000E+00 0.00000E+00 0.00000E+00
 -1     22539 0.00000E+00 0.00000E+00 0.00000E+00
 -1     22540 0.00000E+00 0.00000E+00 0.00000E+00
 -1     22541 0.00000E+00 0.00000E+00 0.00000E+00
 -1     22542 0.00000E+00 0.00000E+00 0.00000E+00
 -1     22543 0.00000E+00 0.00000E+00 0.00000E+00
 -1     22544 0.00000E+00 0.00000E+00 0.00000E+00
 -1     22545 0.00000E+00 0.00000E+00 0.00000E+00
 -1     22546 0.00000E+00 0.00000E+00 0.00000E+00
 -1     22547 0.00000E+00 0.00000E+00 0.00000E+00
 -1     22548 0.00000E+00 0.00000E+00 0.00000E+00
 -1     22549 0.00000E+00 0.00000E+00 0.00000E+00
 -1     22550 0.00000E+00 0.00000E+00 0.00000E+00
 -1     22551 0.00000E+00 0.00000E+00 0.00000E+00
 -1     22552 0.00000E+00 0.00000E+00 0.00000E+00
 -1     22553 0.00000E+00 0.00000E+00 0.00000E+00
 -1     22554 0.00000E+00 0.00000E+00 0.00000E+00
 -1     22555 0.00000E+00 0.00000E+00 0.00000E+00
 -1     22556 0.00000E+00 0.00000E+00 0.00000E+00
 -1     22557 0.00000E+00 0.00000E+00 0.00000E+00
 -1     22558 0.00000E+00 0.00000E+00 0.00000E+00
 -1     22559 0.00000E+00 0.00000E+00 0.00000E+00
 -1     22560 0.00000E+00 0.00000E+00 0.00000E+00
 -1     22561 0.00000E+00 0.00000E+00 0.00000E+00
 -1     22562 0.00000E+00 0.00000E+00 0.00000E+00
 -1     22563 0.00000E+00 0.00000E+00 0.00000E+00
 -1     22564 0.00000E+00 0.00000E+00 0.00000E+00
 -1     22565 0.00000E+00 0.00000E+00 0.00000E+00
 -1     22566 0.00000E+00 0.00000E+00 0.00000E+00
 -1     22567 0.00000E+00 0.00000E+00 0.00000E+00
 -1     22568 0.00000E+00 0.00000E+00 0.00000E+00
 -1     22569 0.00000E+00 0.00000E+00 0.00000E+00
 -1     22570 0.00000E+00 0.00000E+00 0.00000E+00
 -1     22571 0.00000E+00 0.00000E+00 0.00000E+00
 -1     22572 0.00000E+00 0.00000E+00 0.00000E+00
 -1     22573 0.00000E+00 0.00000E+00 0.00000E+00
 -1     22574 0.00000E+00 0.00000E+00 0.00000E+00
 -1     22575 0.00000E+00 0.00000E+00 0.00000E+00
 -1     22576 0.00000E+00 0.00000E+00 0.00000E+00
 -1     22577 0.00000E+00 0.00000E+00 0.00000E+00
 -1     22578 0.00000E+00 0.00000E+00 0.00000E+00
 -1     22579 0.00000E+00 0.00000E+00 0.00000E+00
 -1     22580 0.00000E+00 0.00000E+00 0.00000E+00
 -1     22581 0.00000E+00 0.00000E+00 0.00000E+00
 -1     22582 0.00000E+00 0.00000E+00 0.00000E+00
 -1     22583 0.00000E+00 0.00000E+00 0.00000E+00
 -1     22584 0.00000E+00 0.00000E+00 0.00000E+00
 -1     22585 0.00000E+00 0.00000E+00 0.00000E+00
 -1     22586 0.00000E+00 0.00000E+00 0.00000E+00
 -1     22587 0.00000E+00 0.00000E+00 0.00000E+00
 -1     22588 0.00000E+00 0.00000E+00 0.00000E+00
 -1     22589 0.00000E+00 0.00000E+00 0.00000E+00
 -1     22590 0.00000E+00 0.00000E+00 0.00000E+00
 -1     22591 0.00000E+00 0.00000E+00 0.00000E+00
 -1     22592 0.00000E+00 0.00000E+00 0.00000E+00
 -1     22593 0.00000E+00 0.00000E+00 0.00000E+00
 -1     22594 0.00000E+00 0.00000E+00 0.00000E+00
 -1     22595 0.00000E+00 0.00000E+00 0.00000E+00
 -1     22596 0.00000E+00 0.00000E+00 0.00000E+00
 -1     22597 0.00000E+00 0.00000E+00 0.00000E+00
 -1     22598 0.00000E+00 0.00000E+00 0.00000E+00
 -1     22599 0.00000E+00 0.00000E+00 0.00000E+00
 -1     22600 0.00000E+00 0.00000E+00 0.00000E+00
 -1     22601 0.00000E+00 0.00000E+00 0.00000E+00
 -1     22602 0.00000E+00 0.00000E+00 0.00000E+00
 -1     22603 0.00000E+00 0.00000E+00 0.00000E+00
 -1     22604 0.00000E+00 0.00000E+00 0.00000E+00
 -1     22605 0.00000E+00 0.00000E+00 0.00000E+00
 -1     22606 0.00000E+00 0.00000E+00 0.00000E+00
 -1     22607 0.00000E+00 0.00000E+00 0.00000E+00
 -1     22608 0.00000E+00 0.00000E+00 0.00000E+00
 -1     22609 0.00000E+00 0.00000E+00 0.00000E+00
 -1     22610 0.00000E+00 0.00000E+00 0.00000E+00
 -1     22611 0.00000E+00 0.00000E+00 0.00000E+00
 -1     22612 0.00000E+00 0.00000E+00 0.00000E+00
 -1     22613 0.00000E+00 0.00000E+00 0.00000E+00
 -1     22614 0.00000E+00 0.00000E+00 0.00000E+00
 -1     22615 0.00000E+00 0.00000E+00 0.00000E+00
 -1     22616-5.81286E+00 2.78715E+01 0.00000E+00
 -1     22617-6.47137E+00 2.88167E+01 0.00000E+00
 -1     22618-3.54731E+00 2.41182E+01 0.00000E+00
 -1     22619-4.06261E+00 2.50149E+01 0.00000E+00
 -1     22620-1.74155E+00 2.06586E+01 0.00000E+00
 -1     22621-2.14849E+00 2.14912E+01 0.00000E+00
 -1     22622-3.36605E-01 1.74958E+01 0.00000E+00
 -1     22623-6.51029E-01 1.82563E+01 0.00000E+00
 -1     22624 7.12371E-01 1.46336E+01 0.00000E+00
 -1     22625 4.80252E-01 1.53199E+01 0.00000E+00
 -1     22626 1.45395E+00 1.20769E+01 0.00000E+00
 -1     22627 1.29641E+00 1.26889E+01 0.00000E+00
 -1     22628 1.91546E+00 9.81805E+00 0.00000E+00
 -1     22629 1.82561E+00 1.03561E+01 0.00000E+00
 -1     22630 2.12336E+00 7.85317E+00 0.00000E+00
 -1     22631 2.09361E+00 8.31723E+00 0.00000E+00
 -1     22632 2.11238E+00 6.18053E+00 0.00000E+00
 -1     22633 2.13343E+00 6.57155E+00 0.00000E+00
 -1     22634 1.92645E+00 4.79372E+00 0.00000E+00
 -1     22635 1.98654E+00 5.11436E+00 0.00000E+00
 -1     22636 1.61911E+00 3.67478E+00 0.00000E+00
 -1     22637 1.70420E+00 3.93119E+00 0.00000E+00
 -1     22638 1.25025E+00 2.78930E+00 0.00000E+00
 -1     22639 1.34503E+00 2.99196E+00 0.00000E+00
 -1     22640 8.78915E-01 2.08639E+00 0.00000E+00
 -1     22641 9.69460E-01 2.24975E+00 0.00000E+00
 -1     22642 5.53907E-01 1.49998E+00 0.00000E+00
 -1     22643 6.28912E-01 1.64011E+00 0.00000E+00
 -1     22644 3.02742E-01 9.58264E-01 0.00000E+00
 -1     22645 3.57665E-01 1.08955E+00 0.00000E+00
 -1     22646 1.17699E-01 4.07037E-01 0.00000E+00
 -1     22647 1.56115E-01 5.34868E-01 0.00000E+00
 -1     22648 3.20728E-02 1.07386E-01 0.00000E+00
 -1     22649 5.83058E-02 1.82599E-01 0.00000E+00
 -1     22650 5.49788E-02 1.77128E-01 0.00000E+00
 -1     22651 6.05534E-02 1.60398E-01 0.00000E+00
 -1     22652 5.78880E-02 1.60448E-01 0.00000E+00
 -1     22653 6.30898E-02 1.39412E-01 0.00000E+00
 -1     22654 6.19546E-02 1.43397E-01 0.00000E+00
 -1     22655 6.45980E-02 1.19404E-01 0.00000E+00
 -1     22656 6.53569E-02 1.26179E-01 0.00000E+00
 -1     22657 5.72463E-02 9.01042E-02 0.00000E+00
 -1     22658 6.03020E-02 9.83678E-02 0.00000E+00
 -1     22659 3.98920E-02 5.59606E-02 0.00000E+00
 -1     22660 4.53661E-02 6.48880E-02 0.00000E+00
 -1     22661 1.13580E-02 2.13548E-02 0.00000E+00
 -1     22662 1.95040E-02 2.96854E-02 0.00000E+00
 -1     22663-2.78218E-02-6.64552E-03 0.00000E+00
 -1     22664-1.69619E-02-5.95550E-04 0.00000E+00
 -1     22665-7.98223E-02-1.91446E-02 0.00000E+00
 -1     22666-6.45124E-02-1.82964E-02 0.00000E+00
 -1     22667-1.71985E-01 1.50626E-02 0.00000E+00
 -1     22668-1.41558E-01-4.32136E-03 0.00000E+00
 -1     22669-3.22619E-01 1.32529E-01 0.00000E+00
 -1     22670-2.27100E-01 5.08436E-02 0.00000E+00
 -1     22671-4.01440E-01 1.13472E-01 0.00000E+00
 -1     22672-8.12124E-01 3.64596E-01 0.00000E+00
 -1     22673-2.40622E+00 1.02244E+00 0.00000E+00
 -1     22674-2.03338E+00 8.53492E-01 0.00000E+00
 -1     22675-3.83029E+00 1.81513E+00 0.00000E+00
 -1     22676-3.47287E+00 1.59406E+00 0.00000E+00
 -1     22677-5.26057E+00 2.85359E+00 0.00000E+00
 -1     22678-4.89598E+00 2.56721E+00 0.00000E+00
 -1     22679-6.75157E+00 4.17754E+00 0.00000E+00
 -1     22680-6.37071E+00 3.81761E+00 0.00000E+00
 -1     22681-8.32306E+00 5.81982E+00 0.00000E+00
 -1     22682-7.92165E+00 5.37789E+00 0.00000E+00
 -1     22683-9.98077E+00 7.81200E+00 0.00000E+00
 -1     22684-9.55747E+00 7.27948E+00 0.00000E+00
 -1     22685-1.17256E+01 1.01852E+01 0.00000E+00
 -1     22686-1.12818E+01 9.55410E+00 0.00000E+00
 -1     22687-1.35486E+01 1.29654E+01 0.00000E+00
 -1     22688-1.30880E+01 1.22293E+01 0.00000E+00
 -1     22689-1.54307E+01 1.61767E+01 0.00000E+00
 -1     22690-1.49594E+01 1.53314E+01 0.00000E+00
 -1     22691-1.72717E+01 1.98683E+01 0.00000E+00
 -1     22692-1.67972E+01 1.89105E+01 0.00000E+00
 -1     22693-1.91075E+01 2.40891E+01 0.00000E+00
 -1     22694-1.86295E+01 2.30037E+01 0.00000E+00
 -1     22695-2.11220E+01 2.90320E+01 0.00000E+00
 -1     22696-2.06252E+01 2.77124E+01 0.00000E+00
 -1     22697-2.16751E+01 3.05116E+01 0.00000E+00
 -1     22698-1.88655E+01 3.02770E+01 0.00000E+00
 -1     22699-2.01847E+01 3.03894E+01 0.00000E+00
 -1     22700-1.41942E+01 2.95858E+01 0.00000E+00
 -1     22701-1.52464E+01 2.97327E+01 0.00000E+00
 -1     22702-1.02197E+01 2.91326E+01 0.00000E+00
 -1     22703-1.11444E+01 2.92643E+01 0.00000E+00
 -1     22704-7.43393E+00 2.89030E+01 0.00000E+00
 -1     22705-4.61692E+00 2.59597E+01 0.00000E+00
 -1     22706-5.19683E+00 2.68822E+01 0.00000E+00
 -1     22707-2.59183E+00 2.23511E+01 0.00000E+00
 -1     22708-3.05057E+00 2.32173E+01 0.00000E+00
 -1     22709-9.91406E-01 1.90408E+01 0.00000E+00
 -1     22710-1.35055E+00 1.98377E+01 0.00000E+00
 -1     22711 2.28688E-01 1.60261E+01 0.00000E+00
 -1     22712-4.34671E-02 1.67496E+01 0.00000E+00
 -1     22713 1.11961E+00 1.33175E+01 0.00000E+00
 -1     22714 9.25638E-01 1.39667E+01 0.00000E+00
 -1     22715 1.71823E+00 1.09107E+01 0.00000E+00
 -1     22716 1.59537E+00 1.14857E+01 0.00000E+00
 -1     22717 2.04918E+00 8.79891E+00 0.00000E+00
 -1     22718 1.99039E+00 9.29995E+00 0.00000E+00
 -1     22719 2.14269E+00 6.98054E+00 0.00000E+00
 -1     22720 2.13962E+00 7.40798E+00 0.00000E+00
 -1     22721 2.03819E+00 5.45235E+00 0.00000E+00
 -1     22722 2.08032E+00 5.80763E+00 0.00000E+00
 -1     22723 1.78428E+00 4.20236E+00 0.00000E+00
 -1     22724 1.85868E+00 4.48983E+00 0.00000E+00
 -1     22725 1.43864E+00 3.20595E+00 0.00000E+00
 -1     22726 1.53051E+00 3.43403E+00 0.00000E+00
 -1     22727 1.06144E+00 2.41846E+00 0.00000E+00
 -1     22728 1.15558E+00 2.59956E+00 0.00000E+00
 -1     22729 7.08341E-01 1.78372E+00 0.00000E+00
 -1     22730 7.92096E-01 1.93347E+00 0.00000E+00
 -1     22731 4.18451E-01 1.22704E+00 0.00000E+00
 -1     22732 4.83574E-01 1.36130E+00 0.00000E+00
 -1     22733 2.04256E-01 6.87557E-01 0.00000E+00
 -1     22734 2.50109E-01 8.17473E-01 0.00000E+00
 -1     22735 3.14633E-02 1.03145E-01 0.00000E+00
 -1     22736 6.06371E-02 2.10937E-01 0.00000E+00
 -1     22737 9.42421E-02 3.32893E-01 0.00000E+00
 -1     22738 5.58601E-02 1.68298E-01 0.00000E+00
 -1     22739 1.11123E-01 3.45446E-01 0.00000E+00
 -1     22740 3.35537E-02 1.08925E-01 0.00000E+00
 -1     22741 1.16208E-01 3.26849E-01 0.00000E+00
 -1     22742 5.90205E-02 1.70666E-01 0.00000E+00
 -1     22743 6.18059E-02 1.49713E-01 0.00000E+00
 -1     22744 5.98640E-02 1.51856E-01 0.00000E+00
 -1     22745 6.43934E-02 1.29962E-01 0.00000E+00
 -1     22746 6.41516E-02 1.35418E-01 0.00000E+00
 -1     22747 6.23411E-02 1.05915E-01 0.00000E+00
 -1     22748 6.41235E-02 1.13538E-01 0.00000E+00
 -1     22749 4.99748E-02 7.34470E-02 0.00000E+00
 -1     22750 5.41138E-02 8.21410E-02 0.00000E+00
 -1     22751 2.70328E-02 3.83872E-02 0.00000E+00
 -1     22752 3.37484E-02 4.70662E-02 0.00000E+00
 -1     22753-6.90454E-03 6.03542E-03 0.00000E+00
 -1     22754 2.61281E-03 1.33880E-02 0.00000E+00
 -1     22755-5.16103E-02-1.56995E-02 0.00000E+00
 -1     22756-3.88884E-02-1.17323E-02 0.00000E+00
 -1     22757-1.16151E-01-1.31297E-02 0.00000E+00
 -1     22758-9.62519E-02-1.79274E-02 0.00000E+00
 -1     22759-4.17979E+00 2.04798E+00 0.00000E+00
 -1     22760-3.71663E+00 1.92106E+00 0.00000E+00
 -1     22761-4.53916E+00 2.30057E+00 0.00000E+00
 -1     22762-1.65271E+00 6.94126E-01 0.00000E+00
 -1     22763-1.24513E+00 5.33907E-01 0.00000E+00
 -1     22764-3.12491E+00 1.39200E+00 0.00000E+00
 -1     22765-2.76420E+00 1.19947E+00 0.00000E+00
 -1     22766-4.39395E+00 2.43347E+00 0.00000E+00
 -1     22767-9.16431E-01 3.91498E-01 0.00000E+00
 -1     22768-5.99583E+00 3.47733E+00 0.00000E+00
 -1     22769-5.62392E+00 3.15525E+00 0.00000E+00
 -1     22770-7.52615E+00 4.95717E+00 0.00000E+00
 -1     22771-7.13537E+00 4.55731E+00 0.00000E+00
 -1     22772-9.14112E+00 6.77004E+00 0.00000E+00
 -1     22773-8.72877E+00 6.28385E+00 0.00000E+00
 -1     22774-1.08444E+01 8.94968E+00 0.00000E+00
 -1     22775-1.04105E+01 8.36878E+00 0.00000E+00
 -1     22776-1.26270E+01 1.15240E+01 0.00000E+00
 -1     22777-1.21743E+01 1.08409E+01 0.00000E+00
 -1     22778-1.44868E+01 1.45138E+01 0.00000E+00
 -1     22779-1.40199E+01 1.37235E+01 0.00000E+00
 -1     22780-1.63624E+01 1.79623E+01 0.00000E+00
 -1     22781-1.58886E+01 1.70611E+01 0.00000E+00
 -1     22782-1.81803E+01 2.19083E+01 0.00000E+00
 -1     22783-1.77052E+01 2.08906E+01 0.00000E+00
 -1     22784-2.00903E+01 2.64347E+01 0.00000E+00
 -1     22785-1.96058E+01 2.52612E+01 0.00000E+00
 -1     22786-2.89349E+00 2.13364E+01 0.00000E+00
 -1     22787-1.75801E+01 3.00874E+01 0.00000E+00
 -1     22788-1.83365E+01 2.88199E+01 0.00000E+00
 -1     22789-4.95984E+00 2.49035E+01 0.00000E+00
 -1     22790-1.58610E+01 2.85101E+01 0.00000E+00
 -1     22791-1.64201E+01 2.99470E+01 0.00000E+00
 -1     22792-1.21431E+01 2.93236E+01 0.00000E+00
 -1     22793-1.31182E+01 2.94681E+01 0.00000E+00
 -1     22794-7.75446E+00 2.78759E+01 0.00000E+00
 -1     22795-8.37304E+00 2.89452E+01 0.00000E+00
 -1     22796-9.27937E+00 2.90563E+01 0.00000E+00
 -1     22797-4.08518E-03 1.51775E+01 0.00000E+00
 -1     22798-1.25312E+00 1.81032E+01 0.00000E+00
 -1     22799-6.15997E+00 2.68325E+01 0.00000E+00
 -1     22800-3.87188E+00 2.30746E+01 0.00000E+00
 -1     22801-2.02130E+00 1.96812E+01 0.00000E+00
 -1     22802-5.83722E-01 1.66010E+01 0.00000E+00
 -1     22803 4.94625E-01 1.38334E+01 0.00000E+00
 -1     22804 1.26775E+00 1.13753E+01 0.00000E+00
 -1     22805 1.75850E+00 9.21211E+00 0.00000E+00
 -1     22806 1.99195E+00 7.33849E+00 0.00000E+00
 -1     22807 2.00359E+00 5.75254E+00 0.00000E+00
 -1     22808 1.83758E+00 4.44585E+00 0.00000E+00
 -1     22809 1.54795E+00 3.39926E+00 0.00000E+00
 -1     22810 1.19372E+00 2.57333E+00 0.00000E+00
 -1     22811 8.34082E-01 1.91609E+00 0.00000E+00
 -1     22812 5.15163E-01 1.34991E+00 0.00000E+00
 -1     22813 2.62492E-01 7.99769E-01 0.00000E+00
 -1     22814 1.21266E-01 3.09163E-01 0.00000E+00
 -1     22815 1.29975E-01 2.74602E-01 0.00000E+00
 -1     22816 1.33083E-01 2.37251E-01 0.00000E+00
 -1     22817 1.16795E-01 1.81755E-01 0.00000E+00
 -1     22818 7.91261E-02 1.18164E-01 0.00000E+00
 -1     22819 1.88824E-02 5.57348E-02 0.00000E+00
 -1     22820-6.31776E-02 8.42791E-03 0.00000E+00
 -1     22821-1.74802E-01-2.79487E-03 0.00000E+00
 -1     22822-2.36870E+00 1.07891E+00 0.00000E+00
 -1     22823-5.08369E+00 3.01407E+00 0.00000E+00
 -1     22824-6.51555E+00 4.40038E+00 0.00000E+00
 -1     22825-8.02544E+00 6.11157E+00 0.00000E+00
 -1     22826-9.61831E+00 8.17991E+00 0.00000E+00
 -1     22827-1.12932E+01 1.06331E+01 0.00000E+00
 -1     22828-1.30554E+01 1.34919E+01 0.00000E+00
 -1     22829-1.48520E+01 1.68062E+01 0.00000E+00
 -1     22830-1.65300E+01 2.06544E+01 0.00000E+00
 -1     22831-1.82425E+01 2.51041E+01 0.00000E+00
 -1     22832-1.36085E+01 2.82485E+01 0.00000E+00
 -1     22833-9.61551E+00 2.80003E+01 0.00000E+00
 -1     22834 9.17747E-01 1.25667E+01 0.00000E+00
 -1     22835 1.54720E+00 1.02574E+01 0.00000E+00
 -1     22836 1.90546E+00 8.23920E+00 0.00000E+00
 -1     22837 2.02298E+00 6.50975E+00 0.00000E+00
 -1     22838 1.93975E+00 5.06523E+00 0.00000E+00
 -1     22839 1.70463E+00 3.89185E+00 0.00000E+00
 -1     22840 1.37519E+00 2.96187E+00 0.00000E+00
 -1     22841 1.01138E+00 2.22753E+00 0.00000E+00
 -1     22842 6.67281E-01 1.62707E+00 0.00000E+00
 -1     22843 3.80294E-01 1.07674E+00 0.00000E+00
 -1     22844 1.56987E-01 5.05797E-01 0.00000E+00
 -1     22845 1.25659E-01 2.91122E-01 0.00000E+00
 -1     22846 1.00893E-01 1.50572E-01 0.00000E+00
 -1     22847 5.17915E-02 8.60443E-02 0.00000E+00
 -1     22848-1.96070E-02 2.94979E-02 0.00000E+00
 -1     22849-1.13526E-01-3.91694E-03 0.00000E+00
 -1     22850-2.58125E-01 2.15509E-02 0.00000E+00
 -1     22851-3.04711E+00 1.47245E+00 0.00000E+00
 -1     22852-8.81044E+00 7.09903E+00 0.00000E+00
 -1     22853-1.04465E+01 9.35674E+00 0.00000E+00
 -1     22854-1.21630E+01 1.20112E+01 0.00000E+00
 -1     22855-1.39601E+01 1.50853E+01 0.00000E+00
 -1     22856-1.57053E+01 1.86599E+01 0.00000E+00
 -1     22857-1.73609E+01 2.28011E+01 0.00000E+00
 -1     22858-1.91916E+01 2.75945E+01 0.00000E+00
 -1     22859-1.15406E+01 2.81156E+01 0.00000E+00
 -1     22860 1.27514E-01 2.11180E-01 0.00000E+00
 -1     22861 1.33311E-01 2.57938E-01 0.00000E+00
 -1     22862-1.66409E+00 7.27504E-01 0.00000E+00
 -1     22863-7.26017E+00 5.21360E+00 0.00000E+00
 -1     22864-5.79010E+00 3.66799E+00 0.00000E+00
 -1     22865-2.28279E+00 1.87330E+01 0.00000E+00
 -1     22866-2.71045E+00 1.95280E+01 0.00000E+00
 -1     22867-1.78737E+01 2.74923E+01 0.00000E+00
 -1     22868-8.18981E-01 1.57356E+01 0.00000E+00
 -1     22869-1.14729E+00 1.64532E+01 0.00000E+00
 -1     22870-6.48858E+00 2.58093E+01 0.00000E+00
 -1     22871-7.11886E+00 2.68008E+01 0.00000E+00
 -1     22872 2.84056E-01 1.30594E+01 0.00000E+00
 -1     22873 3.72512E-02 1.36978E+01 0.00000E+00
 -1     22874-1.49748E+00 1.71956E+01 0.00000E+00
 -1     22875-1.87428E+00 1.79523E+01 0.00000E+00
 -1     22876-2.52613E+00 1.78097E+01 0.00000E+00
 -1     22877-1.73459E+00 1.63130E+01 0.00000E+00
 -1     22878 1.08748E+00 1.06979E+01 0.00000E+00
 -1     22879 9.14836E-01 1.12614E+01 0.00000E+00
 -1     22880 1.60571E+00 8.62876E+00 0.00000E+00
 -1     22881 1.50251E+00 9.12010E+00 0.00000E+00
 -1     22882 1.86210E+00 6.84373E+00 0.00000E+00
 -1     22883 1.82063E+00 7.26361E+00 0.00000E+00
 -1     22884 1.89349E+00 5.34107E+00 0.00000E+00
 -1     22885 1.90436E+00 5.69051E+00 0.00000E+00
 -1     22886 1.74449E+00 4.11005E+00 0.00000E+00
 -1     22887 1.79564E+00 4.39294E+00 0.00000E+00
 -1     22888 1.47007E+00 3.13075E+00 0.00000E+00
 -1     22889 1.54723E+00 3.35396E+00 0.00000E+00
 -1     22890 1.12860E+00 2.35883E+00 0.00000E+00
 -1     22891 1.21708E+00 2.53548E+00 0.00000E+00
 -1     22892 7.81185E-01 1.74399E+00 0.00000E+00
 -1     22893 8.66581E-01 1.88860E+00 0.00000E+00
 -1     22894 4.70621E-01 1.20005E+00 0.00000E+00
 -1     22895 5.43526E-01 1.33535E+00 0.00000E+00
 -1     22896 1.64872E-01 4.99930E-01 0.00000E+00
 -1     22897 1.84773E-01 4.52238E-01 0.00000E+00
 -1     22898 1.78976E-01 4.61328E-01 0.00000E+00
 -1     22899 8.41085E-02 2.80723E-01 0.00000E+00
 -1     22900 1.99125E-01 4.04320E-01 0.00000E+00
 -1     22901 1.95473E-01 4.15260E-01 0.00000E+00
 -1     22902 1.75575E-01 4.76668E-01 0.00000E+00
 -1     22903 1.68621E-01 4.83511E-01 0.00000E+00
 -1     22904 2.19688E-01 6.48064E-01 0.00000E+00
 -1     22905 2.36413E-01 6.19819E-01 0.00000E+00
 -1     22906 1.51633E-01 2.33661E-01 0.00000E+00
 -1     22907 1.65805E-01 2.55768E-01 0.00000E+00
 -1     22908 2.04672E-01 3.55167E-01 0.00000E+00
 -1     22909 2.06937E-01 3.72057E-01 0.00000E+00
 -1     22910-1.68072E+00 7.77481E-01 0.00000E+00
 -1     22911-1.33877E+00 5.99183E-01 0.00000E+00
 -1     22912 1.76951E-01 2.76193E-01 0.00000E+00
 -1     22913 1.86887E-01 2.97394E-01 0.00000E+00
 -1     22914 2.37633E-01 3.76886E-01 0.00000E+00
 -1     22915 2.05621E-01 3.84090E-01 0.00000E+00
 -1     22916 2.04188E-01 3.97218E-01 0.00000E+00
 -1     22917 2.74088E-01 5.37608E-01 0.00000E+00
 -1     22918 2.81806E-01 5.11981E-01 0.00000E+00
 -1     22919 7.29728E-02 1.45202E-01 0.00000E+00
 -1     22920 9.58495E-02 1.66869E-01 0.00000E+00
 -1     22921-3.99931E-02 7.13818E-02 0.00000E+00
 -1     22922-8.84573E-03 8.76209E-02 0.00000E+00
 -1     22923-1.89534E-01 3.62558E-02 0.00000E+00
 -1     22924-1.46993E-01 3.91666E-02 0.00000E+00
 -1     22925-4.31413E-01 1.06269E-01 0.00000E+00
 -1     22926-3.50830E-01 6.82530E-02 0.00000E+00
 -1     22927-2.96252E+00 1.56663E+00 0.00000E+00
 -1     22928-2.64293E+00 1.34931E+00 0.00000E+00
 -1     22929-6.82841E-01 2.62653E-01 0.00000E+00
 -1     22930-5.38967E-01 1.67085E-01 0.00000E+00
 -1     22931-6.43655E-01 2.34542E-01 0.00000E+00
 -1     22932-1.00682E+00 4.31859E-01 0.00000E+00
 -1     22933-6.98239E+00 5.48835E+00 0.00000E+00
 -1     22934-6.62202E+00 5.05424E+00 0.00000E+00
 -1     22935-4.89466E+00 3.18912E+00 0.00000E+00
 -1     22936-4.56253E+00 2.87500E+00 0.00000E+00
 -1     22937-8.46752E+00 7.44748E+00 0.00000E+00
 -1     22938-8.08848E+00 6.92340E+00 0.00000E+00
 -1     22939-4.23572E+00 2.57968E+00 0.00000E+00
 -1     22940-3.90869E+00 2.29987E+00 0.00000E+00
 -1     22941-4.06795E+00 2.74118E+00 0.00000E+00
 -1     22942-7.71504E+00 6.42254E+00 0.00000E+00
 -1     22943-7.34567E+00 5.94450E+00 0.00000E+00
 -1     22944-7.39422E+00 6.75252E+00 0.00000E+00
 -1     22945-1.00361E+01 9.78578E+00 0.00000E+00
 -1     22946-9.63758E+00 9.16523E+00 0.00000E+00
 -1     22947-1.16866E+01 1.25251E+01 0.00000E+00
 -1     22948-1.12651E+01 1.18024E+01 0.00000E+00
 -1     22949-1.34376E+01 1.56690E+01 0.00000E+00
 -1     22950-1.30037E+01 1.48333E+01 0.00000E+00
 -1     22951-1.50415E+01 1.93515E+01 0.00000E+00
 -1     22952-1.46474E+01 1.83813E+01 0.00000E+00
 -1     22953-1.65101E+01 2.37011E+01 0.00000E+00
 -1     22954-1.61147E+01 2.25728E+01 0.00000E+00
 -1     22955-1.73579E+01 2.61623E+01 0.00000E+00
 -1     22956-1.69260E+01 2.49486E+01 0.00000E+00
 -1     22957-1.56940E+01 2.47056E+01 0.00000E+00
 -1     22958-1.65765E+01 2.73057E+01 0.00000E+00
 -1     22959-1.30231E+01 2.68165E+01 0.00000E+00
 -1     22960-1.41037E+01 2.68807E+01 0.00000E+00
 -1     22961-3.17666E+00 2.03501E+01 0.00000E+00
 -1     22962-3.65731E+00 2.11860E+01 0.00000E+00
 -1     22963-3.43385E+00 1.93882E+01 0.00000E+00
 -1     22964-8.98544E+00 2.68779E+01 0.00000E+00
 -1     22965-9.91929E+00 2.69468E+01 0.00000E+00
 -1     22966-1.53834E+01 2.71634E+01 0.00000E+00
 -1     22967-8.04749E+00 2.68537E+01 0.00000E+00
 -1     22968 1.94370E-01 3.17090E-01 0.00000E+00
 -1     22969 2.00515E-01 3.36742E-01 0.00000E+00
 -1     22970 2.77958E-01 4.73478E-01 0.00000E+00
 -1     22971 2.62733E-01 4.26271E-01 0.00000E+00
 -1     22972-2.28938E-01 1.43564E+01 0.00000E+00
 -1     22973-5.14736E-01 1.50341E+01 0.00000E+00
 -1     22974-1.04722E+00 1.48965E+01 0.00000E+00
 -1     22975-4.44099E-01 1.35639E+01 0.00000E+00
 -1     22976 7.22346E-01 1.18409E+01 0.00000E+00
 -1     22977 5.13208E-01 1.24413E+01 0.00000E+00
 -1     22978 8.31621E-02 1.23144E+01 0.00000E+00
 -1     22979 5.35938E-01 1.11438E+01 0.00000E+00
 -1     22980-6.26835E+00 4.64042E+00 0.00000E+00
 -1     22981-5.91838E+00 4.24766E+00 0.00000E+00
 -1     22982-6.01114E+00 4.89886E+00 0.00000E+00
 -1     22983-4.17610E+00 2.20598E+01 0.00000E+00
 -1     22984-4.70990E+00 2.29405E+01 0.00000E+00
 -1     22985-4.45151E+00 2.10617E+01 0.00000E+00
 -1     22986 1.87113E+00 5.00836E+00 0.00000E+00
 -1     22987 1.78176E+00 4.94432E+00 0.00000E+00
 -1     22988 1.83833E+00 4.69258E+00 0.00000E+00
 -1     22989-1.47655E+01 2.57372E+01 0.00000E+00
 -1     22990 1.69335E+00 8.15630E+00 0.00000E+00
 -1     22991 1.45717E+00 8.06817E+00 0.00000E+00
 -1     22992 1.76455E+00 7.70057E+00 0.00000E+00
 -1     22993 1.38128E+00 9.62777E+00 0.00000E+00
 -1     22994 1.24396E+00 1.01551E+01 0.00000E+00
 -1     22995 1.62626E+00 7.18313E+00 0.00000E+00
 -1     22996 9.14865E-01 1.00477E+01 0.00000E+00
 -1     22997 1.90327E+00 6.05744E+00 0.00000E+00
 -1     22998 1.88936E+00 6.44199E+00 0.00000E+00
 -1     22999 1.73410E+00 4.33284E+00 0.00000E+00
 -1     23000 1.61911E+00 3.59054E+00 0.00000E+00
 -1     23001 1.68522E+00 3.84237E+00 0.00000E+00
 -1     23002 1.30407E+00 2.72247E+00 0.00000E+00
 -1     23003 1.38901E+00 2.92106E+00 0.00000E+00
 -1     23004 9.52062E-01 2.03440E+00 0.00000E+00
 -1     23005 1.04000E+00 2.19231E+00 0.00000E+00
 -1     23006 6.19322E-01 1.47020E+00 0.00000E+00
 -1     23007 6.99632E-01 1.60807E+00 0.00000E+00
 -1     23008 1.35423E-01 2.11907E-01 0.00000E+00
 -1     23009 2.00752E-01 3.24713E-01 0.00000E+00
 -1     23010 1.16801E-01 1.89102E-01 0.00000E+00
 -1     23011 3.37727E-01 9.28461E-01 0.00000E+00
 -1     23012 4.02470E-01 1.06407E+00 0.00000E+00
 -1     23013 2.76932E-01 7.88469E-01 0.00000E+00
 -1     23014 1.87116E-01 4.36517E-01 0.00000E+00
 -1     23015 2.49858E-01 5.89314E-01 0.00000E+00
 -1     23016 1.91635E-01 4.26148E-01 0.00000E+00
 -1     23017 4.78771E-02 1.24514E-01 0.00000E+00
 -1     23018 8.87003E-02 2.17668E-01 0.00000E+00
 -1     23019 2.06834E-02 1.05033E-01 0.00000E+00
 -1     23020-2.00446E+00 9.56326E-01 0.00000E+00
 -1     23021-1.68235E+00 8.39703E-01 0.00000E+00
 -1     23022-2.33114E+00 1.14994E+00 0.00000E+00
 -1     23023 1.73333E+00 6.36808E+00 0.00000E+00
 -1     23024 1.50838E-01 2.70275E-01 0.00000E+00
 -1     23025-1.08644E+00 4.82594E-01 0.00000E+00
 -1     23026-7.32956E-02 5.76099E-02 0.00000E+00
 -1     23027-7.00553E-02 1.33888E-01 0.00000E+00
 -1     23028-1.09330E-01 4.67787E-02 0.00000E+00
 -1     23029 4.20147E-01 1.04513E+00 0.00000E+00
 -1     23030 1.50394E-02 1.71306E-01 0.00000E+00
 -1     23031-1.67079E-01 1.09469E-01 0.00000E+00
 -1     23032-2.87910E-01 4.83146E-02 0.00000E+00
 -1     23033-2.34902E-01 3.85578E-02 0.00000E+00
 -1     23034-2.27810E+00 1.23279E+00 0.00000E+00
 -1     23035-3.59204E+00 2.04023E+00 0.00000E+00
 -1     23036-3.27157E+00 1.79372E+00 0.00000E+00
 -1     23037-5.23103E+00 3.52215E+00 0.00000E+00
 -1     23038-4.69841E+00 3.38183E+00 0.00000E+00
 -1     23039-5.57322E+00 3.87511E+00 0.00000E+00
 -1     23040-6.69320E+00 5.78196E+00 0.00000E+00
 -1     23041-3.45684E+00 2.17339E+00 0.00000E+00
 -1     23042-1.04391E+01 1.04335E+01 0.00000E+00
 -1     23043-9.61753E+00 1.02365E+01 0.00000E+00
 -1     23044-1.08485E+01 1.11062E+01 0.00000E+00
 -1     23045-9.24350E+00 8.56788E+00 0.00000E+00
 -1     23046-8.85210E+00 7.99571E+00 0.00000E+00
 -1     23047-1.03997E+01 1.15967E+01 0.00000E+00
 -1     23048-8.11587E+00 7.81571E+00 0.00000E+00
 -1     23049-1.25541E+01 1.40425E+01 0.00000E+00
 -1     23050-1.21221E+01 1.32669E+01 0.00000E+00
 -1     23051-1.42824E+01 1.74367E+01 0.00000E+00
 -1     23052-1.38627E+01 1.65329E+01 0.00000E+00
 -1     23053-1.29013E+01 1.62721E+01 0.00000E+00
 -1     23054-1.36578E+01 1.80984E+01 0.00000E+00
 -1     23055-1.57697E+01 2.14249E+01 0.00000E+00
 -1     23056-1.53814E+01 2.03768E+01 0.00000E+00
 -1     23057-1.43287E+01 2.00884E+01 0.00000E+00
 -1     23058-1.49770E+01 2.22839E+01 0.00000E+00
 -1     23059-5.34646E+00 4.09990E+00 0.00000E+00
 -1     23060-1.08914E+01 2.69860E+01 0.00000E+00
 -1     23061-1.18833E+01 2.70152E+01 0.00000E+00
 -1     23062-8.35330E+00 2.58071E+01 0.00000E+00
 -1     23063-5.28137E+00 2.38752E+01 0.00000E+00
 -1     23064-5.86993E+00 2.48082E+01 0.00000E+00
 -1     23065 5.65592E-01 1.31136E+00 0.00000E+00
 -1     23066 2.61608E-01 5.60304E-01 0.00000E+00
 -1     23067 1.64726E+00 3.78507E+00 0.00000E+00
 -1     23068-6.78364E+00 2.47779E+01 0.00000E+00
 -1     23069-1.23469E+01 2.56912E+01 0.00000E+00
 -1     23070-1.12142E+01 1.30515E+01 0.00000E+00
 -1     23071-5.57126E+00 2.28522E+01 0.00000E+00
 -1     23072-2.86422E+00 1.67342E+00 0.00000E+00
 -1     23073-2.80867E-01 1.05846E-01 0.00000E+00
 -1     23074 7.22505E-01 1.57525E+00 0.00000E+00
 -1     23075 1.05694E+00 2.14850E+00 0.00000E+00
 -1     23076 1.38623E+00 2.86981E+00 0.00000E+00
 -1     23077 8.87178E-01 1.84762E+00 0.00000E+00
 -1     23078 1.22133E+00 9.02315E+00 0.00000E+00
 -1     23079 1.22645E+00 2.48847E+00 0.00000E+00
 -1     23080 1.78351E+00 5.62226E+00 0.00000E+00
 -1     23081 1.52883E+00 3.29923E+00 0.00000E+00
 -1     23082 2.88145E-01 7.71541E-01 0.00000E+00
 -1     23083-4.25224E-01 1.38065E-01 0.00000E+00
 -1     23084-8.85773E+00 8.97597E+00 0.00000E+00
 -1     23085-1.20621E+01 1.46009E+01 0.00000E+00
 -1     23086-1.02492E+01 2.58640E+01 0.00000E+00
 -1     23087 7.48384E-01 9.42031E+00 0.00000E+00
 -1     23088 5.62479E-01 9.93726E+00 0.00000E+00
 -1     23089 1.14405E+00 2.26067E+00 0.00000E+00
 -1     23090 1.22313E+00 2.43435E+00 0.00000E+00
 -1     23091 1.49160E+00 6.68615E+00 0.00000E+00
 -1     23092 1.41069E+00 7.09950E+00 0.00000E+00
 -1     23093 1.43439E+00 3.01627E+00 0.00000E+00
 -1     23094 1.49395E+00 3.23609E+00 0.00000E+00
 -1     23095 1.62837E+00 3.98711E+00 0.00000E+00
 -1     23096 1.65421E+00 4.26738E+00 0.00000E+00
 -1     23097-1.43908E+01 2.44633E+01 0.00000E+00
 -1     23098 3.00497E-01 7.58416E-01 0.00000E+00
 -1     23099 8.13644E-01 1.65497E+00 0.00000E+00
 -1     23100 8.94745E-01 1.79077E+00 0.00000E+00
 -1     23101 1.66493E+00 5.20544E+00 0.00000E+00
 -1     23102 1.64269E+00 5.55082E+00 0.00000E+00
 -1     23103 1.29790E+00 2.61626E+00 0.00000E+00
 -1     23104 1.36906E+00 2.81076E+00 0.00000E+00
 -1     23105 1.33685E+00 2.74361E+00 0.00000E+00
 -1     23106 1.20593E+00 2.37126E+00 0.00000E+00
 -1     23107 9.79210E-01 1.94063E+00 0.00000E+00
 -1     23108 1.06189E+00 2.09540E+00 0.00000E+00
 -1     23109 8.95578E-01 1.73464E+00 0.00000E+00
 -1     23110 3.30833E-01 6.85593E-01 0.00000E+00
 -1     23111 3.22310E-01 6.99447E-01 0.00000E+00
 -1     23112 2.48102E-01 4.26407E-01 0.00000E+00
 -1     23113 2.75356E-01 4.57287E-01 0.00000E+00
 -1     23114-5.85267E-01 2.54540E-01 0.00000E+00
 -1     23115-4.76560E-01 2.18388E-01 0.00000E+00
 -1     23116 1.54705E+00 3.47157E+00 0.00000E+00
 -1     23117 1.59176E+00 3.72094E+00 0.00000E+00
 -1     23118 1.52004E+00 3.65225E+00 0.00000E+00
 -1     23119 1.44380E+00 3.16814E+00 0.00000E+00
 -1     23120-2.41026E-01 1.96853E-01 0.00000E+00
 -1     23121-1.73821E-01 2.04117E-01 0.00000E+00
 -1     23122 3.17734E-01 7.22151E-01 0.00000E+00
 -1     23123 3.08428E-01 7.38125E-01 0.00000E+00
 -1     23124 3.66708E-01 8.93817E-01 0.00000E+00
 -1     23125 3.86737E-01 8.51322E-01 0.00000E+00
 -1     23126 9.75450E-02 3.04264E-01 0.00000E+00
 -1     23127 1.40562E-01 3.32445E-01 0.00000E+00
 -1     23128-3.89873E-01 2.01277E-01 0.00000E+00
 -1     23129-3.09587E-01 1.92677E-01 0.00000E+00
 -1     23130-3.27873E-01 3.04727E-01 0.00000E+00
 -1     23131-5.16293E-01 3.20627E-01 0.00000E+00
 -1     23132 2.97509E-01 4.84896E-01 0.00000E+00
 -1     23133 3.16497E-01 5.13893E-01 0.00000E+00
 -1     23134 3.55649E-01 6.03030E-01 0.00000E+00
 -1     23135-1.07310E+01 1.36110E+01 0.00000E+00
 -1     23136-1.03327E+01 1.28521E+01 0.00000E+00
 -1     23137-1.67880E+00 9.21069E-01 0.00000E+00
 -1     23138-1.40379E+00 7.29033E-01 0.00000E+00
 -1     23139 4.36827E-01 1.02688E+00 0.00000E+00
 -1     23140-8.46501E+00 9.40353E+00 0.00000E+00
 -1     23141-8.10774E+00 8.79092E+00 0.00000E+00
 -1     23142 1.60684E+00 5.91185E+00 0.00000E+00
 -1     23143 1.55667E+00 6.29094E+00 0.00000E+00
 -1     23144 1.35919E+00 6.20882E+00 0.00000E+00
 -1     23145 1.48195E+00 5.47378E+00 0.00000E+00
 -1     23146-8.79203E-01 3.83581E-01 0.00000E+00
 -1     23147-7.14840E-01 3.09416E-01 0.00000E+00
 -1     23148-7.67702E-01 3.97066E-01 0.00000E+00
 -1     23149-1.13929E+00 5.52973E-01 0.00000E+00
 -1     23150-4.49156E+00 3.58881E+00 0.00000E+00
 -1     23151-4.18835E+00 3.24303E+00 0.00000E+00
 -1     23152-5.74416E+00 5.17466E+00 0.00000E+00
 -1     23153-5.42488E+00 4.74756E+00 0.00000E+00
 -1     23154-7.75395E+00 8.20301E+00 0.00000E+00
 -1     23155-7.40580E+00 7.64013E+00 0.00000E+00
 -1     23156-7.38501E+00 8.60954E+00 0.00000E+00
 -1     23157-7.06254E+00 7.10183E+00 0.00000E+00
 -1     23158-6.72497E+00 6.58680E+00 0.00000E+00
 -1     23159-6.72360E+00 7.46947E+00 0.00000E+00
 -1     23160-1.14584E+01 2.48555E+01 0.00000E+00
 -1     23161-1.25883E+01 2.46438E+01 0.00000E+00
 -1     23162 1.80374E-01 3.63145E-01 0.00000E+00
 -1     23163 2.15880E-01 3.94172E-01 0.00000E+00
 -1     23164 2.89995E-01 5.36992E-01 0.00000E+00
 -1     23165 2.02957E-01 4.68135E-01 0.00000E+00
 -1     23166-6.39387E+00 6.09393E+00 0.00000E+00
 -1     23167-6.06570E+00 5.62409E+00 0.00000E+00
 -1     23168-5.46676E+00 5.46921E+00 0.00000E+00
 -1     23169-6.08458E+00 6.42465E+00 0.00000E+00
 -1     23170-9.93901E+00 1.21149E+01 0.00000E+00
 -1     23171-9.55974E+00 1.14018E+01 0.00000E+00
 -1     23172-9.48267E+00 1.26499E+01 0.00000E+00
 -1     23173-5.11057E+00 4.34039E+00 0.00000E+00
 -1     23174-4.79915E+00 3.95498E+00 0.00000E+00
 -1     23175-4.27750E+00 3.81438E+00 0.00000E+00
 -1     23176-4.86527E+00 4.59988E+00 0.00000E+00
 -1     23177-3.67388E+00 1.84458E+01 0.00000E+00
 -1     23178-4.17231E+00 1.92448E+01 0.00000E+00
 -1     23179 1.67003E+00 4.56493E+00 0.00000E+00
 -1     23180 1.67360E+00 4.87698E+00 0.00000E+00
 -1     23181 1.55702E+00 4.19778E+00 0.00000E+00
 -1     23182-7.70946E+00 2.47457E+01 0.00000E+00
 -1     23183-8.63477E+00 2.47652E+01 0.00000E+00
 -1     23184-2.75126E+00 1.79329E+00 0.00000E+00
 -1     23185-2.47620E+00 1.55212E+00 0.00000E+00
 -1     23186 1.31374E+00 7.53001E+00 0.00000E+00
 -1     23187 1.19979E+00 7.97824E+00 0.00000E+00
 -1     23188 1.17354E+00 7.01234E+00 0.00000E+00
 -1     23189 5.08159E-01 1.15738E+00 0.00000E+00
 -1     23190 5.83936E-01 1.28710E+00 0.00000E+00
 -1     23191 4.47392E-01 1.00048E+00 0.00000E+00
 -1     23192-4.71194E+00 2.00784E+01 0.00000E+00
 -1     23193-5.26084E+00 2.09314E+01 0.00000E+00
 -1     23194-4.94413E+00 1.91200E+01 0.00000E+00
 -1     23195-3.88902E+00 2.91628E+00 0.00000E+00
 -1     23196-3.59512E+00 2.60811E+00 0.00000E+00
 -1     23197-3.70500E+00 3.10963E+00 0.00000E+00
 -1     23198-5.85208E+00 2.18464E+01 0.00000E+00
 -1     23199-6.44853E+00 2.27664E+01 0.00000E+00
 -1     23200-6.10163E+00 2.08463E+01 0.00000E+00
 -1     23201-1.12701E-01 2.17903E-01 0.00000E+00
 -1     23202-5.43556E-02 2.34587E-01 0.00000E+00
 -1     23203-1.67718E-01 3.22081E-01 0.00000E+00
 -1     23204-3.30654E+00 2.31872E+00 0.00000E+00
 -1     23205-3.02313E+00 2.04583E+00 0.00000E+00
 -1     23206-3.15221E+00 2.48173E+00 0.00000E+00
 -1     23207-9.41338E-06 2.54827E-01 0.00000E+00
 -1     23208 5.06194E-02 2.78150E-01 0.00000E+00
 -1     23209 9.77018E-02 4.06543E-01 0.00000E+00
 -1     23210-2.58639E-02 3.57197E-01 0.00000E+00
 -1     23211-7.07874E+00 2.37533E+01 0.00000E+00
 -1     23212 1.05658E+00 2.03743E+00 0.00000E+00
 -1     23213 3.55923E-01 1.04691E+01 0.00000E+00
 -1     23214 1.32845E-01 1.10223E+01 0.00000E+00
 -1     23215 1.85371E-01 9.82283E+00 0.00000E+00
 -1     23216 3.51880E-01 5.93350E-01 0.00000E+00
 -1     23217 3.58180E-01 6.19412E-01 0.00000E+00
 -1     23218-1.11741E-01 1.15927E+01 0.00000E+00
 -1     23219-3.72521E-01 1.21839E+01 0.00000E+00
 -1     23220-2.95341E-01 1.08997E+01 0.00000E+00
 -1     23221-2.62798E+00 1.92787E+00 0.00000E+00
 -1     23222-3.19119E+00 1.76722E+01 0.00000E+00
 -1     23223-3.89270E+00 1.75367E+01 0.00000E+00
 -1     23224-2.74995E+00 1.69167E+01 0.00000E+00
 -1     23225-8.92646E+00 2.37153E+01 0.00000E+00
 -1     23226-9.57986E+00 2.47622E+01 0.00000E+00
 -1     23227-1.33103E+01 2.40189E+01 0.00000E+00
 -1     23228-1.41780E+01 2.30411E+01 0.00000E+00
 -1     23229 1.54639E+00 4.80436E+00 0.00000E+00
 -1     23230 1.06712E+00 8.44170E+00 0.00000E+00
 -1     23231 9.17858E-01 8.92432E+00 0.00000E+00
 -1     23232 3.42675E-01 6.80340E-01 0.00000E+00
 -1     23233 4.08342E-01 8.22505E-01 0.00000E+00
 -1     23234 3.50634E-01 6.68677E-01 0.00000E+00
 -1     23235-1.94375E+00 1.11801E+00 0.00000E+00
 -1     23236-1.64980E+00 1.01471E+00 0.00000E+00
 -1     23237-2.21752E+00 1.33184E+00 0.00000E+00
 -1     23238-1.11553E+01 1.43811E+01 0.00000E+00
 -1     23239-1.02644E+01 1.41742E+01 0.00000E+00
 -1     23240-1.15685E+01 1.51889E+01 0.00000E+00
 -1     23241-6.54039E-01 1.27946E+01 0.00000E+00
 -1     23242-9.52735E-01 1.34262E+01 0.00000E+00
 -1     23243-8.52134E-01 1.20548E+01 0.00000E+00
 -1     23244 6.59099E-01 1.40872E+00 0.00000E+00
 -1     23245 7.38224E-01 1.53694E+00 0.00000E+00
 -1     23246-1.26968E+00 1.40825E+01 0.00000E+00
 -1     23247-1.60676E+00 1.47568E+01 0.00000E+00
 -1     23248-1.48206E+00 1.32954E+01 0.00000E+00
 -1     23249 3.63167E-01 6.46963E-01 0.00000E+00
 -1     23250 3.61701E-01 6.65285E-01 0.00000E+00
 -1     23251 4.35169E-01 8.12071E-01 0.00000E+00
 -1     23252 4.42405E-01 7.77516E-01 0.00000E+00
 -1     23253-1.16564E+00 6.34201E-01 0.00000E+00
 -1     23254-7.34485E+00 2.27295E+01 0.00000E+00
 -1     23255-8.82444E+00 1.00447E+01 0.00000E+00
 -1     23256-8.06270E+00 9.85299E+00 0.00000E+00
 -1     23257-9.19031E+00 1.07085E+01 0.00000E+00
 -1     23258-1.05462E+01 2.47895E+01 0.00000E+00
 -1     23259-1.07699E+01 2.37707E+01 0.00000E+00
 -1     23260-1.30616E+01 1.87326E+01 0.00000E+00
 -1     23261-1.27291E+01 1.77701E+01 0.00000E+00
 -1     23262-1.23987E+01 1.68690E+01 0.00000E+00
 -1     23263-1.20077E+01 1.59886E+01 0.00000E+00
 -1     23264-1.10936E+01 1.57602E+01 0.00000E+00
 -1     23265-1.18353E+01 1.74739E+01 0.00000E+00
 -1     23266 5.89835E-01 8.81946E+00 0.00000E+00
 -1     23267-2.13447E+00 1.44272E+00 0.00000E+00
 -1     23268 9.18719E-01 7.88344E+00 0.00000E+00
 -1     23269 3.30088E-01 5.38169E-01 0.00000E+00
 -1     23270 3.42393E-01 5.65903E-01 0.00000E+00
 -1     23271 4.26274E-01 7.17267E-01 0.00000E+00
 -1     23272 3.98816E-01 6.60507E-01 0.00000E+00
 -1     23273-1.38678E+01 2.18711E+01 0.00000E+00
 -1     23274 7.40684E-01 1.47855E+00 0.00000E+00
 -1     23275 5.93230E-01 1.24705E+00 0.00000E+00
 -1     23276-1.32640E+01 1.97257E+01 0.00000E+00
 -1     23277-1.23453E+01 1.93813E+01 0.00000E+00
 -1     23278-1.35706E+01 2.07704E+01 0.00000E+00
 -1     23279-8.75581E+00 1.12029E+01 0.00000E+00
 -1     23280-8.27622E+00 2.26874E+01 0.00000E+00
 -1     23281-9.20776E+00 2.26780E+01 0.00000E+00
 -1     23282 6.48819E-01 1.27174E+00 0.00000E+00
 -1     23283 7.18563E-01 1.37963E+00 0.00000E+00
 -1     23284 1.42981E+00 4.42192E+00 0.00000E+00
 -1     23285 1.40208E+00 4.73144E+00 0.00000E+00
 -1     23286-9.65654E-01 5.51071E-01 0.00000E+00
 -1     23287-7.96021E-01 4.92192E-01 0.00000E+00
 -1     23288-1.18096E+00 7.30360E-01 0.00000E+00
 -1     23289 7.78443E-01 7.34803E+00 0.00000E+00
 -1     23290 6.19759E-01 7.78882E+00 0.00000E+00
 -1     23291-1.28200E+01 2.14888E+01 0.00000E+00
 -1     23292 4.14298E-01 7.37825E-01 0.00000E+00
 -1     23293 4.45811E-01 7.70231E-01 0.00000E+00
 -1     23294 4.58315E-01 9.77807E-01 0.00000E+00
 -1     23295-1.95680E+00 1.54606E+01 0.00000E+00
 -1     23296-2.34012E+00 1.61764E+01 0.00000E+00
 -1     23297-2.18075E+00 1.46289E+01 0.00000E+00
 -1     23298 8.08178E-01 1.53316E+00 0.00000E+00
 -1     23299 8.87103E-01 1.67210E+00 0.00000E+00
 -1     23300 7.07832E-01 1.31712E+00 0.00000E+00
 -1     23301-9.79050E+00 1.47948E+01 0.00000E+00
 -1     23302-9.40092E+00 1.40075E+01 0.00000E+00
 -1     23303-7.00961E+00 9.03295E+00 0.00000E+00
 -1     23304-6.69120E+00 8.43073E+00 0.00000E+00
 -1     23305-9.00888E+00 1.32208E+01 0.00000E+00
 -1     23306-8.65100E+00 1.24666E+01 0.00000E+00
 -1     23307-8.55932E+00 1.38156E+01 0.00000E+00
 -1     23308-6.37298E+00 7.85762E+00 0.00000E+00
 -1     23309-6.06490E+00 7.30525E+00 0.00000E+00
 -1     23310-6.02081E+00 8.26014E+00 0.00000E+00
 -1     23311 4.37828E-01 8.24040E+00 0.00000E+00
 -1     23312 2.40578E-01 8.71289E+00 0.00000E+00
 -1     23313 2.95606E-01 7.68711E+00 0.00000E+00
 -1     23314-7.62770E+00 2.17192E+01 0.00000E+00
 -1     23315-2.48292E+00 2.07119E+00 0.00000E+00
 -1     23316-2.24824E+00 1.80671E+00 0.00000E+00
 -1     23317-8.30901E+00 1.17200E+01 0.00000E+00
 -1     23318-7.97508E+00 1.10107E+01 0.00000E+00
 -1     23319-7.86094E+00 1.22654E+01 0.00000E+00
 -1     23320-2.02813E+00 1.56211E+00 0.00000E+00
 -1     23321-1.80774E+00 1.33003E+00 0.00000E+00
 -1     23322-1.91099E+00 1.69764E+00 0.00000E+00
 -1     23323 9.67427E-01 1.82403E+00 0.00000E+00
 -1     23324 1.04234E+00 1.97758E+00 0.00000E+00
 -1     23325 8.72383E-01 1.61064E+00 0.00000E+00
 -1     23326-2.97076E+00 1.60473E+01 0.00000E+00
 -1     23327-5.16552E+00 1.81494E+01 0.00000E+00
 -1     23328-5.73234E+00 1.89593E+01 0.00000E+00
 -1     23329-7.65579E+00 1.03196E+01 0.00000E+00
 -1     23330-7.33158E+00 9.66343E+00 0.00000E+00
 -1     23331-6.62676E+00 9.47683E+00 0.00000E+00
 -1     23332-7.23426E+00 1.08123E+01 0.00000E+00
 -1     23333-3.51100E+00 3.31598E+00 0.00000E+00
 -1     23334-3.24647E+00 2.97724E+00 0.00000E+00
 -1     23335-6.33444E+00 1.98651E+01 0.00000E+00
 -1     23336-6.94930E+00 2.07587E+01 0.00000E+00
 -1     23337-6.54799E+00 1.88727E+01 0.00000E+00
 -1     23338-2.41370E-01 4.49811E-01 0.00000E+00
 -1     23339-1.50972E-01 4.62623E-01 0.00000E+00
 -1     23340-2.98366E+00 2.65602E+00 0.00000E+00
 -1     23341-2.73083E+00 2.35481E+00 0.00000E+00
 -1     23342-2.81383E+00 2.85021E+00 0.00000E+00
 -1     23343 4.60058E-01 9.44625E-01 0.00000E+00
 -1     23344 5.26743E-01 1.09846E+00 0.00000E+00
 -1     23345 5.99238E-01 1.21364E+00 0.00000E+00
 -1     23346 4.76489E-01 9.38789E-01 0.00000E+00
 -1     23347-2.40498E+00 1.38260E+01 0.00000E+00
 -1     23348-2.78636E+00 1.45040E+01 0.00000E+00
 -1     23349 2.17515E-01 5.86269E-01 0.00000E+00
 -1     23350 2.74261E-01 6.21191E-01 0.00000E+00
 -1     23351 2.15027E-02 9.19582E+00 0.00000E+00
 -1     23352-2.13906E-01 9.70320E+00 0.00000E+00
 -1     23353-1.32095E-01 8.59961E+00 0.00000E+00
 -1     23354-3.78201E+00 3.67602E+00 0.00000E+00
 -1     23355-3.31202E+00 3.54203E+00 0.00000E+00
 -1     23356-4.05546E+00 4.05453E+00 0.00000E+00
 -1     23357 1.44358E+00 4.12672E+00 0.00000E+00
 -1     23358 1.31326E+00 4.05151E+00 0.00000E+00
 -1     23359 1.44491E+00 3.84705E+00 0.00000E+00
 -1     23360-1.23877E+01 2.32205E+01 0.00000E+00
 -1     23361-1.13838E+01 1.80368E+01 0.00000E+00
 -1     23362-1.10786E+01 1.71234E+01 0.00000E+00
 -1     23363 1.35971E+00 5.05468E+00 0.00000E+00
 -1     23364 1.30261E+00 5.39575E+00 0.00000E+00
 -1     23365 1.23919E+00 4.65249E+00 0.00000E+00
 -1     23366 1.33838E+00 2.87532E+00 0.00000E+00
 -1     23367 1.37837E+00 3.09482E+00 0.00000E+00
 -1     23368 1.11141E+00 2.13439E+00 0.00000E+00
 -1     23369 1.17705E+00 2.30290E+00 0.00000E+00
 -1     23370 1.01506E+00 1.90694E+00 0.00000E+00
 -1     23371 4.96101E-01 8.39441E-01 0.00000E+00
 -1     23372 5.08518E-01 8.70998E-01 0.00000E+00
 -1     23373-2.04382E+00 1.31588E+01 0.00000E+00
 -1     23374-2.61919E+00 1.30413E+01 0.00000E+00
 -1     23375-1.69526E+00 1.25286E+01 0.00000E+00
 -1     23376 9.17944E-01 6.92479E+00 0.00000E+00
 -1     23377 6.41838E-01 6.83343E+00 0.00000E+00
 -1     23378 1.03941E+00 6.51626E+00 0.00000E+00
 -1     23379 1.23568E+00 2.47762E+00 0.00000E+00
 -1     23380 1.28965E+00 2.66827E+00 0.00000E+00
 -1     23381 1.13440E+00 2.22536E+00 0.00000E+00
 -1     23382-5.76421E+00 6.77504E+00 0.00000E+00
 -1     23383-5.46794E+00 6.26847E+00 0.00000E+00
 -1     23384-5.43665E+00 7.14343E+00 0.00000E+00
 -1     23385 3.72728E-01 6.97703E-01 0.00000E+00
 -1     23386 4.63873E-01 8.76460E-01 0.00000E+00
 -1     23387 3.27157E-01 6.60609E-01 0.00000E+00
 -1     23388 1.54698E-01 5.53239E-01 0.00000E+00
 -1     23389 2.22507E-01 7.18905E-01 0.00000E+00
 -1     23390 8.69994E-02 5.24427E-01 0.00000E+00
 -1     23391 1.41121E+00 3.33134E+00 0.00000E+00
 -1     23392 1.43290E+00 3.58045E+00 0.00000E+00
 -1     23393 1.33107E+00 3.50659E+00 0.00000E+00
 -1     23394 1.30063E+00 3.02015E+00 0.00000E+00
 -1     23395-3.16265E+00 1.52158E+01 0.00000E+00
 -1     23396-3.60213E+00 1.59314E+01 0.00000E+00
 -1     23397-3.38738E+00 1.43946E+01 0.00000E+00
 -1     23398-9.62791E+00 2.16338E+01 0.00000E+00
 -1     23399-1.03021E+01 2.26356E+01 0.00000E+00
 -1     23400-6.59557E-01 4.55474E-01 0.00000E+00
 -1     23401-5.35313E-01 4.33175E-01 0.00000E+00
 -1     23402-8.17415E-01 6.09835E-01 0.00000E+00
 -1     23403-4.37313E-01 4.37483E-01 0.00000E+00
 -1     23404-3.34885E-01 4.38744E-01 0.00000E+00
 -1     23405-3.28425E-01 5.93611E-01 0.00000E+00
 -1     23406-5.52632E-01 5.77958E-01 0.00000E+00
 -1     23407-1.61418E+00 1.12218E+00 0.00000E+00
 -1     23408-1.39239E+00 9.16971E-01 0.00000E+00
 -1     23409-5.17974E+00 5.78126E+00 0.00000E+00
 -1     23410-4.89263E+00 5.31862E+00 0.00000E+00
 -1     23411-4.88228E+00 6.11296E+00 0.00000E+00
 -1     23412 5.75855E-01 1.11870E+00 0.00000E+00
 -1     23413-1.02277E+01 1.55821E+01 0.00000E+00
 -1     23414-9.35405E+00 1.54079E+01 0.00000E+00
 -1     23415-1.06342E+01 1.63980E+01 0.00000E+00
 -1     23416 1.23035E+00 5.75160E+00 0.00000E+00
 -1     23417 1.14235E+00 6.12586E+00 0.00000E+00
 -1     23418 1.10443E+00 5.31317E+00 0.00000E+00
 -1     23419-1.12094E+01 2.26915E+01 0.00000E+00
 -1     23420-1.53591E+00 1.23624E+00 0.00000E+00
 -1     23421 1.23133E+00 2.59220E+00 0.00000E+00
 -1     23422-7.85426E+00 2.07135E+01 0.00000E+00
 -1     23423-2.34023E+00 2.23549E+00 0.00000E+00
 -1     23424-4.09015E+00 1.66496E+01 0.00000E+00
 -1     23425-4.60201E+00 1.73993E+01 0.00000E+00
 -1     23426-5.35569E+00 1.72450E+01 0.00000E+00
 -1     23427-4.27759E+00 1.58006E+01 0.00000E+00
 -1     23428-4.61173E+00 4.87515E+00 0.00000E+00
 -1     23429-4.33162E+00 4.45527E+00 0.00000E+00
 -1     23430-4.34742E+00 5.16991E+00 0.00000E+00
 -1     23431-1.14034E+01 1.88776E+01 0.00000E+00
 -1     23432-1.06561E+01 1.85098E+01 0.00000E+00
 -1     23433-1.15857E+01 1.98794E+01 0.00000E+00
 -1     23434 9.07544E-01 6.04018E+00 0.00000E+00
 -1     23435-1.16693E+00 8.35221E-01 0.00000E+00
 -1     23436-1.18933E+01 2.21006E+01 0.00000E+00
 -1     23437 4.65296E-01 7.88942E-01 0.00000E+00
 -1     23438 4.84370E-01 8.17250E-01 0.00000E+00
 -1     23439 5.70365E-01 9.78999E-01 0.00000E+00
 -1     23440 5.34506E-01 9.37080E-01 0.00000E+00
 -1     23441-1.16216E+01 2.09895E+01 0.00000E+00
 -1     23442-6.58507E-02 4.79054E-01 0.00000E+00
 -1     23443 1.33270E-02 4.99999E-01 0.00000E+00
 -1     23444 6.47580E-02 6.60484E-01 0.00000E+00
 -1     23445-1.19642E-01 6.20097E-01 0.00000E+00
 -1     23446-4.71980E-01 1.02268E+01 0.00000E+00
 -1     23447-7.46547E-01 1.07720E+01 0.00000E+00
 -1     23448-6.37058E-01 9.58279E+00 0.00000E+00
 -1     23449-8.04330E+00 1.97326E+01 0.00000E+00
 -1     23450-8.74576E+00 2.06675E+01 0.00000E+00
 -1     23451 7.80374E-01 5.58307E+00 0.00000E+00
 -1     23452 6.54565E-01 5.95407E+00 0.00000E+00
 -1     23453-1.22468E+00 1.06454E+01 0.00000E+00
 -1     23454-1.04711E+00 1.13353E+01 0.00000E+00
 -1     23455 5.19911E-01 9.90245E-01 0.00000E+00
 -1     23456-1.39466E+00 9.97704E+00 0.00000E+00
 -1     23457-1.72487E+00 1.05161E+01 0.00000E+00
 -1     23458-1.41960E+00 1.34201E+00 0.00000E+00
 -1     23459-1.26421E+00 1.12691E+00 0.00000E+00
 -1     23460 1.20091E+00 3.70167E+00 0.00000E+00
 -1     23461 1.16982E+00 3.98069E+00 0.00000E+00
 -1     23462-9.81838E+00 2.06232E+01 0.00000E+00
 -1     23463-1.35963E+00 1.19203E+01 0.00000E+00
 -1     23464 3.55643E-01 7.93778E-01 0.00000E+00
 -1     23465 6.19574E-01 1.13182E+00 0.00000E+00
 -1     23466 7.03762E-01 1.27461E+00 0.00000E+00
 -1     23467 5.23354E-01 9.13563E-01 0.00000E+00
 -1     23468 5.28364E-01 9.44482E-01 0.00000E+00
 -1     23469 5.99045E-01 1.04544E+00 0.00000E+00
 -1     23470-1.15464E+00 9.46046E-01 0.00000E+00
 -1     23471-9.80907E-01 7.55659E-01 0.00000E+00
 -1     23472-8.12912E-01 7.17800E-01 0.00000E+00
 -1     23473-1.06565E+00 1.04781E+00 0.00000E+00
 -1     23474-5.65557E+00 8.68868E+00 0.00000E+00
 -1     23475-5.37191E+00 8.10171E+00 0.00000E+00
 -1     23476-1.02050E+01 1.69380E+01 0.00000E+00
 -1     23477 5.34671E-01 9.86516E-01 0.00000E+00
 -1     23478 1.66622E-01 7.15831E+00 0.00000E+00
 -1     23479-4.10250E-02 7.58866E+00 0.00000E+00
 -1     23480-7.37914E+00 1.28230E+01 0.00000E+00
 -1     23481-7.07201E+00 1.20607E+01 0.00000E+00
 -1     23482-2.63506E+00 3.05613E+00 0.00000E+00
 -1     23483-2.40855E+00 2.72457E+00 0.00000E+00
 -1     23484-2.17936E+00 2.40712E+00 0.00000E+00
 -1     23485-1.96976E+00 2.11417E+00 0.00000E+00
 -1     23486-2.02473E+00 2.60252E+00 0.00000E+00
 -1     23487 1.12221E+00 2.31774E+00 0.00000E+00
 -1     23488 1.15921E+00 2.51054E+00 0.00000E+00
 -1     23489 5.16002E-01 6.34177E+00 0.00000E+00
 -1     23490 3.52398E-01 6.74463E+00 0.00000E+00
 -1     23491 3.88061E-01 5.86787E+00 0.00000E+00
 -1     23492-1.89123E+00 1.17919E+01 0.00000E+00
 -1     23493 6.87530E-01 1.22170E+00 0.00000E+00
 -1     23494 7.81875E-01 1.41664E+00 0.00000E+00
 -1     23495 8.55469E-01 1.55770E+00 0.00000E+00
 -1     23496 6.71603E-01 1.17784E+00 0.00000E+00
 -1     23497 6.45832E-01 1.12466E+00 0.00000E+00
 -1     23498 7.38264E-01 1.30910E+00 0.00000E+00
 -1     23499 6.31106E-01 1.10222E+00 0.00000E+00
 -1     23500-3.82456E+00 4.31398E+00 0.00000E+00
 -1     23501-3.63843E+00 1.36238E+01 0.00000E+00
 -1     23502-4.04493E+00 1.43110E+01 0.00000E+00
 -1     23503 1.12324E+00 4.27060E+00 0.00000E+00
 -1     23504 1.06117E+00 4.57653E+00 0.00000E+00
 -1     23505 1.00966E+00 3.90362E+00 0.00000E+00
 -1     23506-2.08745E+00 1.10603E+01 0.00000E+00
 -1     23507-2.45383E+00 1.16430E+01 0.00000E+00
 -1     23508-2.25624E+00 1.03765E+01 0.00000E+00
 -1     23509 3.74648E-01 9.38436E-01 0.00000E+00
 -1     23510 4.43423E-01 9.79567E-01 0.00000E+00
 -1     23511-1.07691E+00 9.45301E+00 0.00000E+00
 -1     23512-1.54680E+00 9.33145E+00 0.00000E+00
 -1     23513-7.90648E-01 8.95302E+00 0.00000E+00
 -1     23514 5.08540E-01 1.02966E+00 0.00000E+00
 -1     23515 5.62039E-01 1.07171E+00 0.00000E+00
 -1     23516 5.41828E-01 1.18715E+00 0.00000E+00
 -1     23517-4.45044E-01 7.65812E-01 0.00000E+00
 -1     23518-3.18470E-01 7.75273E-01 0.00000E+00
 -1     23519-2.85007E+00 1.22884E+01 0.00000E+00
 -1     23520-3.24289E+00 1.29302E+01 0.00000E+00
 -1     23521-3.87180E+00 1.28516E+01 0.00000E+00
 -1     23522-3.04612E+00 1.15389E+01 0.00000E+00
 -1     23523-5.09545E+00 7.53545E+00 0.00000E+00
 -1     23524-4.82922E+00 6.99163E+00 0.00000E+00
 -1     23525-4.75348E+00 7.94332E+00 0.00000E+00
 -1     23526 1.19037E+00 2.72344E+00 0.00000E+00
 -1     23527 1.20940E+00 2.94500E+00 0.00000E+00
 -1     23528 1.07861E+00 2.43336E+00 0.00000E+00
 -1     23529-5.96167E+00 9.28505E+00 0.00000E+00
 -1     23530-5.30132E+00 9.11941E+00 0.00000E+00
 -1     23531-6.24997E+00 9.92901E+00 0.00000E+00
 -1     23532 1.21618E+00 3.43510E+00 0.00000E+00
 -1     23533 1.08818E+00 3.36227E+00 0.00000E+00
 -1     23534 1.22002E+00 3.18434E+00 0.00000E+00
 -1     23535-4.57469E+00 6.46259E+00 0.00000E+00
 -1     23536-4.32061E+00 5.96237E+00 0.00000E+00
 -1     23537-4.25714E+00 6.83467E+00 0.00000E+00
 -1     23538-1.07037E+01 2.04572E+01 0.00000E+00
 -1     23539 9.82423E-01 4.89420E+00 0.00000E+00
 -1     23540 8.88923E-01 5.23191E+00 0.00000E+00
 -1     23541 6.57411E-01 5.14727E+00 0.00000E+00
 -1     23542 8.65596E-01 4.49538E+00 0.00000E+00
 -1     23543-2.87065E+00 3.40996E+00 0.00000E+00
 -1     23544-2.45277E+00 3.28222E+00 0.00000E+00
 -1     23545-3.10664E+00 3.78109E+00 0.00000E+00
 -1     23546-9.90380E+00 1.77464E+01 0.00000E+00
 -1     23547-9.48534E+00 1.70027E+01 0.00000E+00
 -1     23548-7.73510E+00 1.36623E+01 0.00000E+00
 -1     23549-6.93624E+00 1.34459E+01 0.00000E+00
 -1     23550-8.09244E+00 1.44671E+01 0.00000E+00
 -1     23551 4.11959E-02 6.65026E+00 0.00000E+00
 -1     23552-8.93148E+00 1.61472E+01 0.00000E+00
 -1     23553-8.52656E+00 1.53403E+01 0.00000E+00
 -1     23554-7.68878E+00 1.51785E+01 0.00000E+00
 -1     23555-8.64076E+00 1.69320E+01 0.00000E+00
 -1     23556 8.24746E-01 1.48816E+00 0.00000E+00
 -1     23557 9.19780E-01 1.69238E+00 0.00000E+00
 -1     23558 9.80513E-01 1.83729E+00 0.00000E+00
 -1     23559 7.95569E-01 1.43343E+00 0.00000E+00
 -1     23560-1.75908E+00 1.83209E+00 0.00000E+00
 -1     23561-1.57793E+00 1.57887E+00 0.00000E+00
 -1     23562 6.18229E-01 1.13074E+00 0.00000E+00
 -1     23563 6.44095E-01 1.14766E+00 0.00000E+00
 -1     23564 7.24816E-01 1.30415E+00 0.00000E+00
 -1     23565 6.76040E-01 1.29749E+00 0.00000E+00
 -1     23566-2.84258E-01 8.01783E+00 0.00000E+00
 -1     23567-5.30840E-01 8.47842E+00 0.00000E+00
 -1     23568-4.11773E-01 7.47375E+00 0.00000E+00
 -1     23569-6.80644E+00 1.13177E+01 0.00000E+00
 -1     23570-6.52083E+00 1.06120E+01 0.00000E+00
 -1     23571-6.35099E+00 1.18494E+01 0.00000E+00
 -1     23572-1.62470E+00 1.99571E+00 0.00000E+00
 -1     23573-1.29742E+00 1.47077E+00 0.00000E+00
 -1     23574-4.07468E+00 5.47916E+00 0.00000E+00
 -1     23575-3.82788E+00 5.02339E+00 0.00000E+00
 -1     23576-3.79054E+00 5.81016E+00 0.00000E+00
 -1     23577-6.74002E+00 1.79133E+01 0.00000E+00
 -1     23578-7.36829E+00 1.87922E+01 0.00000E+00
 -1     23579-1.92825E-01 7.82255E-01 0.00000E+00
 -1     23580-7.92317E-02 7.96666E-01 0.00000E+00
 -1     23581-2.86088E-01 9.64828E-01 0.00000E+00
 -1     23582-8.23175E+00 1.87459E+01 0.00000E+00
 -1     23583 2.98085E-01 8.97909E-01 0.00000E+00
 -1     23584 3.83828E-01 1.09590E+00 0.00000E+00
 -1     23585 2.15620E-01 8.64289E-01 0.00000E+00
 -1     23586-6.14798E+00 1.69246E+01 0.00000E+00
 -1     23587-6.93513E+00 1.68470E+01 0.00000E+00
 -1     23588-5.55802E+00 1.62030E+01 0.00000E+00
 -1     23589-3.58666E+00 4.58658E+00 0.00000E+00
 -1     23590-3.34481E+00 4.17417E+00 0.00000E+00
 -1     23591-2.89167E+00 4.03876E+00 0.00000E+00
 -1     23592-3.33708E+00 4.87902E+00 0.00000E+00
 -1     23593 5.61694E-01 1.35293E+00 0.00000E+00
 -1     23594 6.41664E-01 1.40287E+00 0.00000E+00
 -1     23595 2.64564E-01 5.41564E+00 0.00000E+00
 -1     23596 1.03062E-01 5.78515E+00 0.00000E+00
 -1     23597 1.02779E+00 1.97272E+00 0.00000E+00
 -1     23598 1.07599E+00 2.13379E+00 0.00000E+00
 -1     23599-9.78970E+00 1.95263E+01 0.00000E+00
 -1     23600 2.79294E-02 8.12586E-01 0.00000E+00
 -1     23601 1.25361E-01 8.36081E-01 0.00000E+00
 -1     23602 1.97207E-01 1.02765E+00 0.00000E+00
 -1     23603-2.40692E-02 9.85244E-01 0.00000E+00
 -1     23604-1.86537E+00 2.81197E+00 0.00000E+00
 -1     23605-1.67433E+00 2.48665E+00 0.00000E+00
 -1     23606-7.05507E-01 7.43889E-01 0.00000E+00
 -1     23607-5.72078E-01 7.48080E-01 0.00000E+00
 -1     23608-5.74828E-01 9.41033E-01 0.00000E+00
 -1     23609-8.44775E-01 8.94146E-01 0.00000E+00
 -1     23610-9.06169E+00 1.87353E+01 0.00000E+00
 -1     23611-9.91638E+00 1.85797E+01 0.00000E+00
 -1     23612-1.10516E+00 1.56816E+00 0.00000E+00
 -1     23613-9.87375E-01 1.32808E+00 0.00000E+00
 -1     23614 1.01240E+00 2.05110E+00 0.00000E+00
 -1     23615 9.01375E-01 1.79384E+00 0.00000E+00
 -1     23616 9.36430E-01 1.96394E+00 0.00000E+00
 -1     23617-6.49511E+00 1.40563E+01 0.00000E+00
 -1     23618-6.17495E+00 1.32010E+01 0.00000E+00
 -1     23619-1.47341E+00 2.17018E+00 0.00000E+00
 -1     23620-1.30366E+00 1.88187E+00 0.00000E+00
 -1     23621-1.33640E+00 2.37010E+00 0.00000E+00
 -1     23622-4.37726E+00 1.50203E+01 0.00000E+00
 -1     23623-4.89025E+00 1.57157E+01 0.00000E+00
 -1     23624-4.63166E+00 1.42303E+01 0.00000E+00
 -1     23625-6.11323E-02 6.17092E+00 0.00000E+00
 -1     23626-2.69964E-01 6.56562E+00 0.00000E+00
 -1     23627-1.84105E-01 5.70374E+00 0.00000E+00
 -1     23628 9.28859E-01 1.74663E+00 0.00000E+00
 -1     23629-8.35929E+00 1.78242E+01 0.00000E+00
 -1     23630-7.83603E+00 1.69426E+01 0.00000E+00
 -1     23631 9.02594E-01 3.55970E+00 0.00000E+00
 -1     23632 8.38002E-01 3.83492E+00 0.00000E+00
 -1     23633-4.39097E+00 8.38971E+00 0.00000E+00
 -1     23634-4.14910E+00 7.80935E+00 0.00000E+00
 -1     23635-2.44905E+00 9.61081E+00 0.00000E+00
 -1     23636-2.84202E+00 1.01282E+01 0.00000E+00
 -1     23637 4.06344E-01 5.06157E+00 0.00000E+00
 -1     23638 1.44670E-01 4.98098E+00 0.00000E+00
 -1     23639 5.36838E-01 4.72750E+00 0.00000E+00
 -1     23640-5.64670E+00 1.54110E+01 0.00000E+00
 -1     23641-5.84667E+00 1.04100E+01 0.00000E+00
 -1     23642-4.19815E+00 1.21296E+01 0.00000E+00
 -1     23643-4.62952E+00 1.27986E+01 0.00000E+00
 -1     23644 1.10760E+00 2.87101E+00 0.00000E+00
 -1     23645 8.48852E-01 1.61058E+00 0.00000E+00
 -1     23646 7.83385E-01 1.52456E+00 0.00000E+00
 -1     23647 9.68512E-01 2.16018E+00 0.00000E+00
 -1     23648 9.86769E-01 2.35961E+00 0.00000E+00
 -1     23649 8.56721E-01 1.88887E+00 0.00000E+00
 -1     23650-9.42589E-01 8.35614E+00 0.00000E+00
 -1     23651-5.34313E+00 1.29251E+01 0.00000E+00
 -1     23652-5.00353E+00 1.36734E+01 0.00000E+00
 -1     23653-3.92757E+00 7.22449E+00 0.00000E+00
 -1     23654-3.70702E+00 6.68246E+00 0.00000E+00
 -1     23655-3.58936E+00 7.64919E+00 0.00000E+00
 -1     23656-9.81853E-01 1.73448E+00 0.00000E+00
 -1     23657-7.20934E+00 1.59857E+01 0.00000E+00
 -1     23658-5.36509E+00 1.43647E+01 0.00000E+00
 -1     23659 7.50047E-01 1.64372E+00 0.00000E+00
 -1     23660 7.16245E-01 1.46600E+00 0.00000E+00
 -1     23661-5.14497E-01 6.94982E+00 0.00000E+00
 -1     23662-7.82699E-01 7.35905E+00 0.00000E+00
 -1     23663-6.12537E-01 6.45674E+00 0.00000E+00
 -1     23664-9.26445E-01 1.07682E+00 0.00000E+00
 -1     23665-5.75888E+00 1.23446E+01 0.00000E+00
 -1     23666 9.49249E-01 3.29704E+00 0.00000E+00
 -1     23667 7.96269E-01 3.22689E+00 0.00000E+00
 -1     23668 9.80636E-01 3.04436E+00 0.00000E+00
 -1     23669-5.52888E+00 1.15893E+01 0.00000E+00
 -1     23670-4.03636E-01 1.17094E+00 0.00000E+00
 -1     23671-2.45245E-01 1.17449E+00 0.00000E+00
 -1     23672-3.49863E+00 6.15385E+00 0.00000E+00
 -1     23673-3.28624E+00 5.65881E+00 0.00000E+00
 -1     23674-3.19336E+00 6.52354E+00 0.00000E+00
 -1     23675-1.98955E+00 9.25077E+00 0.00000E+00
 -1     23676-2.53943E+00 9.01828E+00 0.00000E+00
 -1     23677-1.64534E+00 8.74876E+00 0.00000E+00
 -1     23678-6.81228E+00 1.50893E+01 0.00000E+00
 -1     23679-4.66261E+00 8.99328E+00 0.00000E+00
 -1     23680-4.04634E+00 8.85276E+00 0.00000E+00
 -1     23681-4.93467E+00 9.60363E+00 0.00000E+00
 -1     23682 4.74203E-01 1.30262E+00 0.00000E+00
 -1     23683 5.73194E-01 1.53078E+00 0.00000E+00
 -1     23684 3.79325E-01 1.26305E+00 0.00000E+00
 -1     23685-2.06821E+00 3.15854E+00 0.00000E+00
 -1     23686-1.70255E+00 3.03944E+00 0.00000E+00
 -1     23687-2.26828E+00 3.52172E+00 0.00000E+00
 -1     23688-7.75693E-01 1.16906E+00 0.00000E+00
 -1     23689-8.79588E-01 1.98297E+00 0.00000E+00
 -1     23690-7.28635E-01 1.66428E+00 0.00000E+00
 -1     23691-6.03887E+00 1.48274E+01 0.00000E+00
 -1     23692 8.11257E-01 1.48906E+00 0.00000E+00
 -1     23693 9.97843E-01 2.57670E+00 0.00000E+00
 -1     23694 9.93849E-01 2.80241E+00 0.00000E+00
 -1     23695 8.87364E-01 2.28900E+00 0.00000E+00
 -1     23696-3.23826E+00 8.07425E+00 0.00000E+00
 -1     23697-3.05087E+00 7.47647E+00 0.00000E+00
 -1     23698-6.08719E-01 1.18652E+00 0.00000E+00
 -1     23699 7.53446E-01 4.11508E+00 0.00000E+00
 -1     23700 6.54452E-01 4.41702E+00 0.00000E+00
 -1     23701 4.26095E-01 4.33266E+00 0.00000E+00
 -1     23702 6.47976E-01 3.75652E+00 0.00000E+00
 -1     23703 7.68950E-01 1.82718E+00 0.00000E+00
 -1     23704-3.21856E+00 1.08282E+01 0.00000E+00
 -1     23705-3.64665E+00 1.14477E+01 0.00000E+00
 -1     23706-4.36885E+00 1.13984E+01 0.00000E+00
 -1     23707-3.40957E+00 1.00439E+01 0.00000E+00
 -1     23708-3.13888E-01 5.27074E+00 0.00000E+00
 -1     23709-5.01251E-01 5.63979E+00 0.00000E+00
 -1     23710-4.94513E+00 1.13350E+01 0.00000E+00
 -1     23711-5.50343E+00 1.08644E+01 0.00000E+00
 -1     23712-5.26275E+00 1.01698E+01 0.00000E+00
 -1     23713-4.36208E+00 1.06793E+01 0.00000E+00
 -1     23714-5.75710E-01 1.40765E+00 0.00000E+00
 -1     23715-1.14046E+00 7.72933E+00 0.00000E+00
 -1     23716-1.42973E+00 8.18071E+00 0.00000E+00
 -1     23717-1.84644E+00 8.10532E+00 0.00000E+00
 -1     23718-1.23615E+00 7.19430E+00 0.00000E+00
 -1     23719-4.83958E-01 1.64522E+00 0.00000E+00
 -1     23720-1.43419E-01 4.90841E+00 0.00000E+00
 -1     23721-4.36709E-01 4.84658E+00 0.00000E+00
 -1     23722 2.16255E-02 4.57021E+00 0.00000E+00
 -1     23723-1.20235E+00 2.60741E+00 0.00000E+00
 -1     23724-1.04077E+00 2.28465E+00 0.00000E+00
 -1     23725-7.61345E-01 2.20999E+00 0.00000E+00
 -1     23726 8.71219E-01 2.73506E+00 0.00000E+00
 -1     23727-9.29331E-02 1.17397E+00 0.00000E+00
 -1     23728 4.09130E-02 1.18666E+00 0.00000E+00
 -1     23729-1.84258E-01 1.38779E+00 0.00000E+00
 -1     23730 1.64178E-01 1.20267E+00 0.00000E+00
 -1     23731 2.76445E-01 1.22879E+00 0.00000E+00
 -1     23732 3.64894E-01 1.44749E+00 0.00000E+00
 -1     23733 1.17368E-01 1.39972E+00 0.00000E+00
 -1     23734 7.00868E-01 2.91999E+00 0.00000E+00
 -1     23735 6.37800E-01 3.17034E+00 0.00000E+00
 -1     23736-2.39737E+00 8.27889E+00 0.00000E+00
 -1     23737-2.86765E+00 8.61799E+00 0.00000E+00
 -1     23738-2.87424E+00 6.90373E+00 0.00000E+00
 -1     23739-2.69922E+00 6.36346E+00 0.00000E+00
 -1     23740-2.54893E+00 7.30675E+00 0.00000E+00
 -1     23741 5.50725E-01 3.41705E+00 0.00000E+00
 -1     23742 4.47311E-01 3.68392E+00 0.00000E+00
 -1     23743 4.59182E-01 3.09731E+00 0.00000E+00
 -1     23744-6.52141E-01 6.01475E+00 0.00000E+00
 -1     23745-9.16276E-01 6.38216E+00 0.00000E+00
 -1     23746-7.82968E-01 5.56877E+00 0.00000E+00
 -1     23747-4.01028E-01 1.88224E+00 0.00000E+00
 -1     23748-2.84852E-01 1.61877E+00 0.00000E+00
 -1     23749 6.73850E-01 1.76568E+00 0.00000E+00
 -1     23750 7.80695E-01 2.02452E+00 0.00000E+00
 -1     23751 7.77195E-01 2.22964E+00 0.00000E+00
 -1     23752 5.69709E-01 1.71727E+00 0.00000E+00
 -1     23753-4.61070E+00 1.00378E+01 0.00000E+00
 -1     23754-1.03234E-01 1.61386E+00 0.00000E+00
 -1     23755-3.08016E+00 5.18017E+00 0.00000E+00
 -1     23756-2.87266E+00 4.73249E+00 0.00000E+00
 -1     23757-2.81196E+00 5.50542E+00 0.00000E+00
 -1     23758-2.67056E+00 4.30713E+00 0.00000E+00
 -1     23759-2.46673E+00 3.90390E+00 0.00000E+00
 -1     23760-2.06961E+00 3.77610E+00 0.00000E+00
 -1     23761-2.43683E+00 4.59225E+00 0.00000E+00
 -1     23762-1.37809E+00 2.92829E+00 0.00000E+00
 -1     23763-1.06275E+00 2.83894E+00 0.00000E+00
 -1     23764-1.54578E+00 3.28205E+00 0.00000E+00
 -1     23765-3.41490E+00 8.80259E+00 0.00000E+00
 -1     23766-3.64975E+00 9.42396E+00 0.00000E+00
 -1     23767 3.18271E-01 3.94448E+00 0.00000E+00
 -1     23768 1.79793E-01 4.24015E+00 0.00000E+00
 -1     23769 2.25506E-01 3.59336E+00 0.00000E+00
 -1     23770 7.66216E-01 2.44905E+00 0.00000E+00
 -1     23771 7.37375E-01 2.67895E+00 0.00000E+00
 -1     23772 5.97038E-01 2.62051E+00 0.00000E+00
 -1     23773 6.59965E-01 2.17108E+00 0.00000E+00
 -1     23774-4.06378E+00 1.00961E+01 0.00000E+00
 -1     23775-2.14827E+00 7.72767E+00 0.00000E+00
 -1     23776-5.18225E-01 2.16637E+00 0.00000E+00
 -1     23777-2.91774E-01 2.13568E+00 0.00000E+00
 -1     23778-6.42893E-01 2.47483E+00 0.00000E+00
 -1     23779-1.69889E-02 1.84437E+00 0.00000E+00
 -1     23780 5.65470E-02 1.60689E+00 0.00000E+00
 -1     23781-8.24617E-02 4.16908E+00 0.00000E+00
 -1     23782-2.00725E+00 7.14358E+00 0.00000E+00
 -1     23783 4.97043E-01 2.34963E+00 0.00000E+00
 -1     23784 4.43950E-01 2.58046E+00 0.00000E+00
 -1     23785-6.00047E-01 4.46160E+00 0.00000E+00
 -1     23786-7.98545E-01 4.80992E+00 0.00000E+00
 -1     23787 2.03517E-01 1.61899E+00 0.00000E+00
 -1     23788-9.70168E-01 5.26728E+00 0.00000E+00
 -1     23789-1.14460E+00 5.63093E+00 0.00000E+00
 -1     23790-1.14238E+00 4.86713E+00 0.00000E+00
 -1     23791-1.22122E+00 6.58979E+00 0.00000E+00
 -1     23792-1.59853E+00 6.93928E+00 0.00000E+00
 -1     23793-1.96686E+00 6.54150E+00 0.00000E+00
 -1     23794-1.24907E+00 6.14213E+00 0.00000E+00
 -1     23795 4.58273E-01 1.67085E+00 0.00000E+00
 -1     23796 5.58189E-01 1.91813E+00 0.00000E+00
 -1     23797 5.30831E-01 2.12739E+00 0.00000E+00
 -1     23798 3.35581E-01 1.63935E+00 0.00000E+00
 -1     23799-3.51885E-01 4.10902E+00 0.00000E+00
 -1     23800-6.82523E-01 4.07243E+00 0.00000E+00
 -1     23801-1.70877E-01 3.79310E+00 0.00000E+00
 -1     23802 3.95659E-01 2.08471E+00 0.00000E+00
 -1     23803-9.21781E-01 3.11089E+00 0.00000E+00
 -1     23804-7.80031E-01 2.78313E+00 0.00000E+00
 -1     23805 2.96289E-01 1.85380E+00 0.00000E+00
 -1     23806-1.86738E-01 2.38337E+00 0.00000E+00
 -1     23807-1.00713E-01 2.09248E+00 0.00000E+00
 -1     23808-5.13938E-01 2.73601E+00 0.00000E+00
 -1     23809-2.24996E+00 6.19279E+00 0.00000E+00
 -1     23810-2.54371E+00 5.83308E+00 0.00000E+00
 -1     23811 3.96013E-01 2.81313E+00 0.00000E+00
 -1     23812 2.93254E-01 3.04913E+00 0.00000E+00
 -1     23813 2.96597E-01 2.53124E+00 0.00000E+00
 -1     23814 8.29322E-02 2.08035E+00 0.00000E+00
 -1     23815-2.37033E+00 5.34449E+00 0.00000E+00
 -1     23816-1.84223E+00 6.00216E+00 0.00000E+00
 -1     23817 1.27832E-01 3.19713E+00 0.00000E+00
 -1     23818-1.99419E-02 3.44365E+00 0.00000E+00
 -1     23819-2.60463E-01 3.38469E+00 0.00000E+00
 -1     23820 7.46874E-02 2.90552E+00 0.00000E+00
 -1     23821-1.86885E+00 4.04252E+00 0.00000E+00
 -1     23822-1.70399E+00 3.65192E+00 0.00000E+00
 -1     23823-2.18964E+00 4.87821E+00 0.00000E+00
 -1     23824-2.02092E+00 4.44402E+00 0.00000E+00
 -1     23825-1.64494E+00 4.31392E+00 0.00000E+00
 -1     23826-1.94479E+00 5.18804E+00 0.00000E+00
 -1     23827-1.36551E+00 3.53526E+00 0.00000E+00
 -1     23828 1.84882E-01 2.32220E+00 0.00000E+00
 -1     23829 2.43610E-01 2.06837E+00 0.00000E+00
 -1     23830-1.08567E+00 3.40741E+00 0.00000E+00
 -1     23831-7.83835E-01 3.34837E+00 0.00000E+00
 -1     23832-3.63762E-01 3.05250E+00 0.00000E+00
 -1     23833-2.58899E-01 2.73537E+00 0.00000E+00
 -1     23834-1.21404E+00 3.78338E+00 0.00000E+00
 -1     23835-1.71069E+00 5.49677E+00 0.00000E+00
 -1     23836-1.56218E+00 5.02314E+00 0.00000E+00
 -1     23837-1.45160E+00 5.82583E+00 0.00000E+00
 -1     23838-1.35443E+00 4.57472E+00 0.00000E+00
 -1     23839-1.23610E+00 4.16699E+00 0.00000E+00
 -1     23840-6.80210E-01 3.69277E+00 0.00000E+00
 -1     23841-5.41923E-01 3.38777E+00 0.00000E+00
 -1     23842-4.73267E-02 2.68512E+00 0.00000E+00
 -1     23843-9.52121E-01 4.03149E+00 0.00000E+00
 -1     23844 1.18324E-01 2.54879E+00 0.00000E+00
 -1     23845 3.20165E-02 1.07237E-01 0.00000E+00
 -1     23846 1.55893E-01 5.34145E-01 0.00000E+00
 -1     23847 1.17433E-01 4.06327E-01 0.00000E+00
 -1     23848 3.54587E-01 1.08545E+00 0.00000E+00
 -1     23849 2.99995E-01 9.54153E-01 0.00000E+00
 -1     23850 6.22495E-01 1.61438E+00 0.00000E+00
 -1     23851 5.47646E-01 1.47494E+00 0.00000E+00
 -1     23852 9.66226E-01 2.23647E+00 0.00000E+00
 -1     23853 8.76031E-01 2.07380E+00 0.00000E+00
 -1     23854 1.34402E+00 2.98717E+00 0.00000E+00
 -1     23855 1.24921E+00 2.78473E+00 0.00000E+00
 -1     23856 1.70357E+00 3.92853E+00 0.00000E+00
 -1     23857 1.61863E+00 3.67223E+00 0.00000E+00
 -1     23858 1.98603E+00 5.11242E+00 0.00000E+00
 -1     23859 1.92602E+00 4.79193E+00 0.00000E+00
 -1     23860 2.13225E+00 6.56799E+00 0.00000E+00
 -1     23861 2.11135E+00 6.17720E+00 0.00000E+00
 -1     23862 2.09113E+00 8.31090E+00 0.00000E+00
 -1     23863 2.12109E+00 7.84701E+00 0.00000E+00
 -1     23864 1.82399E+00 1.03504E+01 0.00000E+00
 -1     23865 1.91385E+00 9.81253E+00 0.00000E+00
 -1     23866 1.29777E+00 1.26903E+01 0.00000E+00
 -1     23867 1.45522E+00 1.20782E+01 0.00000E+00
 -1     23868 4.80386E-01 1.53263E+01 0.00000E+00
 -1     23869 7.12548E-01 1.46398E+01 0.00000E+00
 -1     23870-6.55454E-01 1.82575E+01 0.00000E+00
 -1     23871-3.40887E-01 1.74971E+01 0.00000E+00
 -1     23872-2.14078E+00 2.14887E+01 0.00000E+00
 -1     23873-1.73393E+00 2.06563E+01 0.00000E+00
 -1     23874-4.07387E+00 2.49916E+01 0.00000E+00
 -1     23875-3.55820E+00 2.40950E+01 0.00000E+00
 -1     23876-6.51133E+00 2.87662E+01 0.00000E+00
 -1     23877-5.85311E+00 2.78221E+01 0.00000E+00
 -1     23878-7.46697E+00 2.88536E+01 0.00000E+00
 -1     23879-9.34168E+00 2.89841E+01 0.00000E+00
 -1     23880-8.43568E+00 2.88720E+01 0.00000E+00
 -1     23881-1.32072E+01 2.95086E+01 0.00000E+00
 -1     23882-1.22288E+01 2.93636E+01 0.00000E+00
 -1     23883-1.76172E+01 3.01424E+01 0.00000E+00
 -1     23884-1.64563E+01 3.00002E+01 0.00000E+00
 -1     23885-2.16742E+01 3.05117E+01 0.00000E+00
 -1     23886-1.96341E+01 2.52990E+01 0.00000E+00
 -1     23887-2.01197E+01 2.64746E+01 0.00000E+00
 -1     23888-1.76730E+01 2.09714E+01 0.00000E+00
 -1     23889-1.81463E+01 2.19918E+01 0.00000E+00
 -1     23890-1.58027E+01 1.71324E+01 0.00000E+00
 -1     23891-1.62738E+01 1.80363E+01 0.00000E+00
 -1     23892-1.39874E+01 1.37453E+01 0.00000E+00
 -1     23893-1.44532E+01 1.45366E+01 0.00000E+00
 -1     23894-1.21662E+01 1.08409E+01 0.00000E+00
 -1     23895-1.26188E+01 1.15239E+01 0.00000E+00
 -1     23896-1.04096E+01 8.36717E+00 0.00000E+00
 -1     23897-1.08437E+01 8.94802E+00 0.00000E+00
 -1     23898-8.73252E+00 6.28233E+00 0.00000E+00
 -1     23899-9.14515E+00 6.76842E+00 0.00000E+00
 -1     23900-7.13866E+00 4.55702E+00 0.00000E+00
 -1     23901-7.52956E+00 4.95685E+00 0.00000E+00
 -1     23902-5.62897E+00 3.15747E+00 0.00000E+00
 -1     23903-6.00102E+00 3.47959E+00 0.00000E+00
 -1     23904-4.18675E+00 2.05048E+00 0.00000E+00
 -1     23905-4.54622E+00 2.30315E+00 0.00000E+00
 -1     23906-2.76701E+00 1.20021E+00 0.00000E+00
 -1     23907-3.12766E+00 1.39269E+00 0.00000E+00
 -1     23908-1.24703E+00 5.37113E-01 0.00000E+00
 -1     23909-1.65082E+00 6.95365E-01 0.00000E+00
 -1     23910-3.21960E-01 1.29852E-01 0.00000E+00
 -1     23911-8.08157E-01 3.62812E-01 0.00000E+00
 -1     23912-9.20550E-01 3.90390E-01 0.00000E+00
 -1     23913-2.31111E-01 5.44066E-02 0.00000E+00
 -1     23914-9.77889E-02-1.73315E-02 0.00000E+00
 -1     23915-1.17975E-01-1.29984E-02 0.00000E+00
 -1     23916-3.95360E-02-1.17646E-02 0.00000E+00
 -1     23917-5.25418E-02-1.55904E-02 0.00000E+00
 -1     23918 2.72860E-03 1.36461E-02 0.00000E+00
 -1     23919-6.89481E-03 6.29563E-03 0.00000E+00
 -1     23920 3.42341E-02 4.77561E-02 0.00000E+00
 -1     23921 2.74507E-02 3.89539E-02 0.00000E+00
 -1     23922 5.54019E-02 8.39481E-02 0.00000E+00
 -1     23923 5.09708E-02 7.51129E-02 0.00000E+00
 -1     23924 6.51246E-02 1.15318E-01 0.00000E+00
 -1     23925 6.31902E-02 1.07536E-01 0.00000E+00
 -1     23926 7.00709E-02 1.47821E-01 0.00000E+00
 -1     23927 7.04433E-02 1.42039E-01 0.00000E+00
 -1     23928 6.54468E-02 1.65814E-01 0.00000E+00
 -1     23929 6.76261E-02 1.63590E-01 0.00000E+00
 -1     23930 5.55053E-02 1.67347E-01 0.00000E+00
 -1     23931 5.86444E-02 1.69728E-01 0.00000E+00
 -1     23932 5.47133E-02 1.76510E-01 0.00000E+00
 -1     23933 5.80992E-02 1.81948E-01 0.00000E+00
 -1     23934-2.11429E+01 2.90488E+01 0.00000E+00
 -1     23935-2.02009E+01 3.04127E+01 0.00000E+00
 -1     23936 9.41864E-02 3.32726E-01 0.00000E+00
 -1     23937 6.05690E-02 2.10665E-01 0.00000E+00
 -1     23938 2.48946E-01 8.15480E-01 0.00000E+00
 -1     23939 2.03291E-01 6.85607E-01 0.00000E+00
 -1     23940 4.79097E-01 1.34828E+00 0.00000E+00
 -1     23941 4.14260E-01 1.21418E+00 0.00000E+00
 -1     23942 7.87187E-01 1.91278E+00 0.00000E+00
 -1     23943 7.03666E-01 1.76375E+00 0.00000E+00
 -1     23944 1.15385E+00 2.59195E+00 0.00000E+00
 -1     23945 1.05981E+00 2.41133E+00 0.00000E+00
 -1     23946 1.52970E+00 3.43019E+00 0.00000E+00
 -1     23947 1.43782E+00 3.20247E+00 0.00000E+00
 -1     23948 1.85816E+00 4.48790E+00 0.00000E+00
 -1     23949 1.78379E+00 4.20049E+00 0.00000E+00
 -1     23950 2.07965E+00 5.80508E+00 0.00000E+00
 -1     23951 2.03755E+00 5.44987E+00 0.00000E+00
 -1     23952 2.13783E+00 7.40293E+00 0.00000E+00
 -1     23953 2.14107E+00 6.97571E+00 0.00000E+00
 -1     23954 1.98797E+00 9.29324E+00 0.00000E+00
 -1     23955 2.04682E+00 8.79239E+00 0.00000E+00
 -1     23956 1.59543E+00 1.14831E+01 0.00000E+00
 -1     23957 1.71825E+00 1.09082E+01 0.00000E+00
 -1     23958 9.27462E-01 1.39715E+01 0.00000E+00
 -1     23959 1.12135E+00 1.33222E+01 0.00000E+00
 -1     23960-4.60116E-02 1.67546E+01 0.00000E+00
 -1     23961 2.26325E-01 1.60311E+01 0.00000E+00
 -1     23962-1.35088E+00 1.98352E+01 0.00000E+00
 -1     23963-9.91760E-01 1.90384E+01 0.00000E+00
 -1     23964-3.04089E+00 2.32109E+01 0.00000E+00
 -1     23965-2.58250E+00 2.23447E+01 0.00000E+00
 -1     23966-5.23599E+00 2.68308E+01 0.00000E+00
 -1     23967-4.65534E+00 2.59092E+01 0.00000E+00
 -1     23968-7.85281E+00 2.77563E+01 0.00000E+00
 -1     23969-1.03044E+01 2.90815E+01 0.00000E+00
 -1     23970-9.76075E+00 2.78752E+01 0.00000E+00
 -1     23971-1.12304E+01 2.92131E+01 0.00000E+00
 -1     23972-1.17120E+01 2.81012E+01 0.00000E+00
 -1     23973-1.53170E+01 2.98291E+01 0.00000E+00
 -1     23974-1.42618E+01 2.96793E+01 0.00000E+00
 -1     23975 3.14212E-02 1.02968E-01 0.00000E+00
 -1     23976-1.88801E+01 3.02961E+01 0.00000E+00
 -1     23977-1.91211E+01 2.41530E+01 0.00000E+00
 -1     23978-1.82811E+01 2.52079E+01 0.00000E+00
 -1     23979-1.86439E+01 2.30654E+01 0.00000E+00
 -1     23980-1.92347E+01 2.76541E+01 0.00000E+00
 -1     23981-2.06424E+01 2.77301E+01 0.00000E+00
 -1     23982-1.73388E+01 2.29494E+01 0.00000E+00
 -1     23983-1.67210E+01 1.89952E+01 0.00000E+00
 -1     23984-1.71930E+01 1.99562E+01 0.00000E+00
 -1     23985-1.48975E+01 1.53786E+01 0.00000E+00
 -1     23986-1.53669E+01 1.62259E+01 0.00000E+00
 -1     23987-1.30722E+01 1.22356E+01 0.00000E+00
 -1     23988-1.35322E+01 1.29721E+01 0.00000E+00
 -1     23989-1.12777E+01 9.55248E+00 0.00000E+00
 -1     23990-1.17215E+01 1.01835E+01 0.00000E+00
 -1     23991-9.55965E+00 7.27788E+00 0.00000E+00
 -1     23992-9.98311E+00 7.81029E+00 0.00000E+00
 -1     23993-7.92549E+00 5.37680E+00 0.00000E+00
 -1     23994-8.32709E+00 5.81867E+00 0.00000E+00
 -1     23995-6.37466E+00 3.81885E+00 0.00000E+00
 -1     23996-6.75560E+00 4.17882E+00 0.00000E+00
 -1     23997-4.90197E+00 2.56956E+00 0.00000E+00
 -1     23998-5.26677E+00 2.85601E+00 0.00000E+00
 -1     23999-3.47782E+00 1.59546E+00 0.00000E+00
 -1     24000-3.83539E+00 1.81661E+00 0.00000E+00
 -1     24001-2.03342E+00 8.54731E-01 0.00000E+00
 -1     24002-2.40585E+00 1.02312E+00 0.00000E+00
 -1     24003-2.81173E-02-6.42072E-03 0.00000E+00
 -1     24004-6.39192E-02 9.69887E-03 0.00000E+00
 -1     24005-1.69483E-02-5.99805E-04 0.00000E+00
 -1     24006-1.43919E-01-3.23812E-03 0.00000E+00
 -1     24007-1.73792E-01 1.62263E-02 0.00000E+00
 -1     24008-6.55261E-02-1.81991E-02 0.00000E+00
 -1     24009-8.12189E-02-1.90714E-02 0.00000E+00
 -1     24010-1.91708E-02 3.03522E-02 0.00000E+00
 -1     24011-4.02549E-01 1.12306E-01 0.00000E+00
 -1     24012 1.97471E-02 3.00399E-02 0.00000E+00
 -1     24013 1.16315E-02 2.17932E-02 0.00000E+00
 -1     24014 4.63448E-02 6.62435E-02 0.00000E+00
 -1     24015 4.07797E-02 5.71774E-02 0.00000E+00
 -1     24016 6.12880E-02 9.99794E-02 0.00000E+00
 -1     24017 5.81543E-02 9.15929E-02 0.00000E+00
 -1     24018 6.80365E-02 1.31435E-01 0.00000E+00
 -1     24019 6.73353E-02 1.24505E-01 0.00000E+00
 -1     24020 6.97245E-02 1.61005E-01 0.00000E+00
 -1     24021 7.10566E-02 1.56807E-01 0.00000E+00
 -1     24022 5.94634E-02 1.64889E-01 0.00000E+00
 -1     24023 6.21764E-02 1.64851E-01 0.00000E+00
 -1     24024 1.10427E-01 3.43742E-01 0.00000E+00
 -1     24025 3.34903E-02 1.08685E-01 0.00000E+00
 -1     24026-1.83885E+01 2.88931E+01 0.00000E+00
 -1     24027 3.72609E-01 1.05985E+00 0.00000E+00
 -1     24028 6.53479E-01 1.57980E+00 0.00000E+00
 -1     24029 1.00532E+00 2.20634E+00 0.00000E+00
 -1     24030 1.37289E+00 2.95343E+00 0.00000E+00
 -1     24031 1.70342E+00 3.88739E+00 0.00000E+00
 -1     24032 1.93866E+00 5.06096E+00 0.00000E+00
 -1     24033 2.02009E+00 6.50158E+00 0.00000E+00
 -1     24034 1.90050E+00 8.22649E+00 0.00000E+00
 -1     24035 1.54555E+00 1.02494E+01 0.00000E+00
 -1     24036 9.20924E-01 1.25726E+01 0.00000E+00
 -1     24037-6.59944E-03 1.51887E+01 0.00000E+00
 -1     24038-1.25828E+00 1.81021E+01 0.00000E+00
 -1     24039-2.87630E+00 2.13280E+01 0.00000E+00
 -1     24040-5.00780E+00 2.48320E+01 0.00000E+00
 -1     24041-1.37643E+01 2.83784E+01 0.00000E+00
 -1     24042-1.64195E+01 2.08262E+01 0.00000E+00
 -1     24043-1.47045E+01 1.69285E+01 0.00000E+00
 -1     24044-1.30074E+01 1.35207E+01 0.00000E+00
 -1     24045-1.12814E+01 1.06314E+01 0.00000E+00
 -1     24046-9.62005E+00 8.17643E+00 0.00000E+00
 -1     24047-8.03330E+00 6.10871E+00 0.00000E+00
 -1     24048-6.52265E+00 4.40138E+00 0.00000E+00
 -1     24049-5.09448E+00 3.01864E+00 0.00000E+00
 -1     24050-3.72835E+00 1.92509E+00 0.00000E+00
 -1     24051-2.37191E+00 1.08014E+00 0.00000E+00
 -1     24052-1.77247E-01-1.33764E-03 0.00000E+00
 -1     24053 1.95242E-02 5.70854E-02 0.00000E+00
 -1     24054 8.08819E-02 1.20866E-01 0.00000E+00
 -1     24055 1.19210E-01 1.85682E-01 0.00000E+00
 -1     24056 1.37025E-01 2.44524E-01 0.00000E+00
 -1     24057 1.44282E-01 3.04683E-01 0.00000E+00
 -1     24058 1.28269E-01 3.27423E-01 0.00000E+00
 -1     24059 2.58916E-01 7.94068E-01 0.00000E+00
 -1     24060 5.02609E-01 1.31090E+00 0.00000E+00
 -1     24061 8.24187E-01 1.88150E+00 0.00000E+00
 -1     24062 1.19029E+00 2.56073E+00 0.00000E+00
 -1     24063 1.54646E+00 3.39291E+00 0.00000E+00
 -1     24064 1.83663E+00 4.44213E+00 0.00000E+00
 -1     24065 2.00178E+00 5.74670E+00 0.00000E+00
 -1     24066 1.98769E+00 7.32755E+00 0.00000E+00
 -1     24067 1.75441E+00 9.20009E+00 0.00000E+00
 -1     24068 1.26918E+00 1.13740E+01 0.00000E+00
 -1     24069 4.96655E-01 1.38442E+01 0.00000E+00
 -1     24070-5.90824E-01 1.66072E+01 0.00000E+00
 -1     24071-2.01427E+00 1.96766E+01 0.00000E+00
 -1     24072-3.87195E+00 2.30459E+01 0.00000E+00
 -1     24073-6.23504E+00 2.67353E+01 0.00000E+00
 -1     24074-5.79882E+00 3.67154E+00 0.00000E+00
 -1     24075-4.40672E+00 2.43837E+00 0.00000E+00
 -1     24076-3.05447E+00 1.47484E+00 0.00000E+00
 -1     24077-1.66278E+00 7.27849E-01 0.00000E+00
 -1     24078-1.15018E-01-2.78370E-03 0.00000E+00
 -1     24079 1.29583E-01 2.14819E-01 0.00000E+00
 -1     24080 1.42522E-01 2.75797E-01 0.00000E+00
 -1     24081 1.39390E-01 3.22730E-01 0.00000E+00
 -1     24082 1.17126E-01 3.30192E-01 0.00000E+00
 -1     24083 1.55852E-01 5.03275E-01 0.00000E+00
 -1     24084-7.26736E+00 5.21209E+00 0.00000E+00
 -1     24085-1.59671E+01 2.86547E+01 0.00000E+00
 -1     24086-8.81661E+00 7.09556E+00 0.00000E+00
 -1     24087-1.04421E+01 9.35325E+00 0.00000E+00
 -1     24088-1.21393E+01 1.20175E+01 0.00000E+00
 -1     24089-1.55426E+01 1.88213E+01 0.00000E+00
 -1     24090-1.38663E+01 1.51561E+01 0.00000E+00
 -1     24091-2.61954E-01 2.53739E-02 0.00000E+00
 -1     24092 1.03257E-01 1.54308E-01 0.00000E+00
 -1     24093 5.28495E-02 8.76307E-02 0.00000E+00
 -1     24094-6.63247E+00 5.05178E+00 0.00000E+00
 -1     24095-6.99364E+00 5.48491E+00 0.00000E+00
 -1     24096 5.06880E-01 1.23170E+00 0.00000E+00
 -1     24097 4.38764E-01 1.11139E+00 0.00000E+00
 -1     24098 8.52398E-01 1.84454E+00 0.00000E+00
 -1     24099 7.64671E-01 1.69252E+00 0.00000E+00
 -1     24100 1.21290E+00 2.52099E+00 0.00000E+00
 -1     24101 1.12351E+00 2.34173E+00 0.00000E+00
 -1     24102 1.54467E+00 3.34557E+00 0.00000E+00
 -1     24103 1.46719E+00 3.12125E+00 0.00000E+00
 -1     24104 1.79439E+00 4.38772E+00 0.00000E+00
 -1     24105 1.74315E+00 4.10487E+00 0.00000E+00
 -1     24106 1.90117E+00 5.68081E+00 0.00000E+00
 -1     24107 1.89088E+00 5.33244E+00 0.00000E+00
 -1     24108 1.81320E+00 7.24556E+00 0.00000E+00
 -1     24109 1.85541E+00 6.82727E+00 0.00000E+00
 -1     24110 1.49593E+00 9.10198E+00 0.00000E+00
 -1     24111 1.59839E+00 8.60963E+00 0.00000E+00
 -1     24112 9.18570E-01 1.12628E+01 0.00000E+00
 -1     24113 1.08980E+00 1.06956E+01 0.00000E+00
 -1     24114 4.07554E-02 1.37168E+01 0.00000E+00
 -1     24115 2.89156E-01 1.30767E+01 0.00000E+00
 -1     24116-1.16152E+00 1.64606E+01 0.00000E+00
 -1     24117-8.31003E-01 1.57465E+01 0.00000E+00
 -1     24118-2.70007E+00 1.95213E+01 0.00000E+00
 -1     24119-2.28051E+00 1.87265E+01 0.00000E+00
 -1     24120-4.69640E+00 2.28895E+01 0.00000E+00
 -1     24121-4.14371E+00 2.20249E+01 0.00000E+00
 -1     24122-7.25301E+00 2.66136E+01 0.00000E+00
 -1     24123-6.62351E+00 2.56228E+01 0.00000E+00
 -1     24124-1.43746E+01 2.72390E+01 0.00000E+00
 -1     24125-1.33085E+01 2.71216E+01 0.00000E+00
 -1     24126-5.24340E+00 3.52851E+00 0.00000E+00
 -1     24127-5.58474E+00 3.88057E+00 0.00000E+00
 -1     24128-8.20560E+00 2.66417E+01 0.00000E+00
 -1     24129-1.52038E+01 2.06903E+01 0.00000E+00
 -1     24130-1.56326E+01 2.17393E+01 0.00000E+00
 -1     24131-1.22310E+01 2.69795E+01 0.00000E+00
 -1     24132-1.12306E+01 2.68604E+01 0.00000E+00
 -1     24133-1.28078E+01 2.58747E+01 0.00000E+00
 -1     24134-8.09902E+00 6.91727E+00 0.00000E+00
 -1     24135-8.47656E+00 7.44112E+00 0.00000E+00
 -1     24136-1.79351E+01 2.75849E+01 0.00000E+00
 -1     24137-1.36358E+01 1.67077E+01 0.00000E+00
 -1     24138-1.40293E+01 1.76392E+01 0.00000E+00
 -1     24139-1.20637E+01 1.32841E+01 0.00000E+00
 -1     24140-1.24788E+01 1.40761E+01 0.00000E+00
 -1     24141-3.55584E-01 7.39240E-02 0.00000E+00
 -1     24142-4.34756E-01 1.10093E-01 0.00000E+00
 -1     24143-1.04223E+01 1.04257E+01 0.00000E+00
 -1     24144-1.08272E+01 1.10999E+01 0.00000E+00
 -1     24145-1.43696E+01 1.86466E+01 0.00000E+00
 -1     24146-1.47707E+01 1.96348E+01 0.00000E+00
 -1     24147-1.33043E+01 1.84186E+01 0.00000E+00
 -1     24148-8.85530E+00 7.98903E+00 0.00000E+00
 -1     24149-9.24397E+00 8.56112E+00 0.00000E+00
 -1     24150-8.12383E+00 7.80602E+00 0.00000E+00
 -1     24151-1.12351E+01 1.17986E+01 0.00000E+00
 -1     24152-1.16485E+01 1.25279E+01 0.00000E+00
 -1     24153-1.11507E+01 1.30580E+01 0.00000E+00
 -1     24154-1.03652E+01 1.15866E+01 0.00000E+00
 -1     24155-7.35814E+00 5.93951E+00 0.00000E+00
 -1     24156-7.72770E+00 6.41695E+00 0.00000E+00
 -1     24157-6.70897E+00 5.77585E+00 0.00000E+00
 -1     24158-9.63092E+00 9.15786E+00 0.00000E+00
 -1     24159-1.00262E+01 9.77831E+00 0.00000E+00
 -1     24160-9.59885E+00 1.02245E+01 0.00000E+00
 -1     24161-8.85303E+00 8.96520E+00 0.00000E+00
 -1     24162-5.92775E+00 4.24978E+00 0.00000E+00
 -1     24163-6.27729E+00 4.64086E+00 0.00000E+00
 -1     24164-5.35947E+00 4.10500E+00 0.00000E+00
 -1     24165-1.66806E+01 2.74747E+01 0.00000E+00
 -1     24166-1.55200E+01 2.73754E+01 0.00000E+00
 -1     24167-1.50413E+01 2.61152E+01 0.00000E+00
 -1     24168-1.74546E+01 2.63187E+01 0.00000E+00
 -1     24169-3.93019E+00 2.30897E+00 0.00000E+00
 -1     24170-4.25641E+00 2.58856E+00 0.00000E+00
 -1     24171-2.65423E+00 1.35340E+00 0.00000E+00
 -1     24172-2.97583E+00 1.57128E+00 0.00000E+00
 -1     24173-1.34649E+00 6.00786E-01 0.00000E+00
 -1     24174-1.68190E+00 7.77780E-01 0.00000E+00
 -1     24175-1.48742E-01 4.29282E-02 0.00000E+00
 -1     24176-1.92305E-01 4.05888E-02 0.00000E+00
 -1     24177-6.90952E-01 2.61773E-01 0.00000E+00
 -1     24178-1.01515E+00 4.29243E-01 0.00000E+00
 -1     24179-1.08459E+00 4.83741E-01 0.00000E+00
 -1     24180-5.40671E-01 1.72920E-01 0.00000E+00
 -1     24181 1.70462E-01 2.63455E-01 0.00000E+00
 -1     24182 1.55906E-01 2.40807E-01 0.00000E+00
 -1     24183 4.90872E-02 1.27049E-01 0.00000E+00
 -1     24184 2.17779E-02 1.07675E-01 0.00000E+00
 -1     24185 2.02966E-01 3.41325E-01 0.00000E+00
 -1     24186 1.96854E-01 3.21479E-01 0.00000E+00
 -1     24187-7.50524E-03 8.99886E-02 0.00000E+00
 -1     24188-3.94993E-02 7.44479E-02 0.00000E+00
 -1     24189 1.71533E-02 1.75336E-01 0.00000E+00
 -1     24190 1.91145E-01 3.04544E-01 0.00000E+00
 -1     24191 1.81465E-01 2.83773E-01 0.00000E+00
 -1     24192 2.44437E-01 3.88521E-01 0.00000E+00
 -1     24193 2.67572E-01 4.34810E-01 0.00000E+00
 -1     24194 2.19363E-01 4.27098E-01 0.00000E+00
 -1     24195 2.17768E-01 4.07104E-01 0.00000E+00
 -1     24196 2.10254E-01 4.91082E-01 0.00000E+00
 -1     24197 2.17930E-01 4.84715E-01 0.00000E+00
 -1     24198 1.66467E-01 4.79901E-01 0.00000E+00
 -1     24199 1.75291E-01 4.78480E-01 0.00000E+00
 -1     24200 2.72175E-01 7.82017E-01 0.00000E+00
 -1     24201 2.16688E-01 6.43432E-01 0.00000E+00
 -1     24202 1.63422E-01 4.97130E-01 0.00000E+00
 -1     24203-1.70088E+01 2.51277E+01 0.00000E+00
 -1     24204 8.38212E-02 2.79927E-01 0.00000E+00
 -1     24205-1.01820E+01 2.67293E+01 0.00000E+00
 -1     24206-9.22422E+00 2.66427E+01 0.00000E+00
 -1     24207-1.06800E+01 2.56274E+01 0.00000E+00
 -1     24208 3.87947E-01 1.03909E+00 0.00000E+00
 -1     24209 3.26563E-01 9.13232E-01 0.00000E+00
 -1     24210 2.78498E-01 7.58050E-01 0.00000E+00
 -1     24211 3.82758E-01 9.58601E-01 0.00000E+00
 -1     24212 1.38214E-01 2.16928E-01 0.00000E+00
 -1     24213 1.19412E-01 1.93597E-01 0.00000E+00
 -1     24214 2.06105E-01 3.33895E-01 0.00000E+00
 -1     24215-1.60933E+01 2.28444E+01 0.00000E+00
 -1     24216-1.65320E+01 2.39566E+01 0.00000E+00
 -1     24217-1.48838E+01 2.27051E+01 0.00000E+00
 -1     24218-2.30321E-01 1.43746E+01 0.00000E+00
 -1     24219-4.42312E-01 1.35884E+01 0.00000E+00
 -1     24220-5.18994E-01 1.50512E+01 0.00000E+00
 -1     24221 6.76180E-01 1.53642E+00 0.00000E+00
 -1     24222 5.94416E-01 1.39397E+00 0.00000E+00
 -1     24223 1.03300E+00 2.16947E+00 0.00000E+00
 -1     24224 9.42994E-01 2.00580E+00 0.00000E+00
 -1     24225 1.38543E+00 2.90995E+00 0.00000E+00
 -1     24226 1.30026E+00 2.71004E+00 0.00000E+00
 -1     24227 1.68363E+00 3.83682E+00 0.00000E+00
 -1     24228 1.61731E+00 3.58437E+00 0.00000E+00
 -1     24229 1.86935E+00 5.00157E+00 0.00000E+00
 -1     24230 1.83680E+00 4.68657E+00 0.00000E+00
 -1     24231 1.88422E+00 6.42813E+00 0.00000E+00
 -1     24232 1.89884E+00 6.04514E+00 0.00000E+00
 -1     24233 1.68484E+00 8.13597E+00 0.00000E+00
 -1     24234 1.75625E+00 7.68096E+00 0.00000E+00
 -1     24235 1.24231E+00 1.01448E+01 0.00000E+00
 -1     24236 1.37790E+00 9.61468E+00 0.00000E+00
 -1     24237 5.19617E-01 1.24541E+01 0.00000E+00
 -1     24238 7.28323E-01 1.18502E+01 0.00000E+00
 -1     24239-1.05832E+00 1.49146E+01 0.00000E+00
 -1     24240 5.17004E-01 1.18362E+00 0.00000E+00
 -1     24241-1.88851E+00 1.79499E+01 0.00000E+00
 -1     24242-1.51555E+00 1.71967E+01 0.00000E+00
 -1     24243-3.61652E+00 2.11742E+01 0.00000E+00
 -1     24244-3.13865E+00 2.03423E+01 0.00000E+00
 -1     24245-5.95393E+00 2.46628E+01 0.00000E+00
 -1     24246-5.34229E+00 2.37561E+01 0.00000E+00
 -1     24247-8.62524E+00 2.55066E+01 0.00000E+00
 -1     24248-1.40355E+01 2.05115E+01 0.00000E+00
 -1     24249 5.42864E-01 1.11517E+01 0.00000E+00
 -1     24250 1.21445E+00 9.00280E+00 0.00000E+00
 -1     24251-7.40964E+00 6.74399E+00 0.00000E+00
 -1     24252-1.32854E+01 1.57714E+01 0.00000E+00
 -1     24253-1.26499E+01 1.64505E+01 0.00000E+00
 -1     24254-1.28813E+01 1.49083E+01 0.00000E+00
 -1     24255 1.61525E+00 7.15798E+00 0.00000E+00
 -1     24256-1.19318E+01 1.46633E+01 0.00000E+00
 -1     24257-6.02379E+00 4.89758E+00 0.00000E+00
 -1     24258 1.77823E+00 5.60720E+00 0.00000E+00
 -1     24259 1.73230E+00 4.32534E+00 0.00000E+00
 -1     24260 1.52593E+00 3.28997E+00 0.00000E+00
 -1     24261 1.22096E+00 2.47137E+00 0.00000E+00
 -1     24262-6.43954E-01 2.38198E-01 0.00000E+00
 -1     24263-1.10442E-01 5.04044E-02 0.00000E+00
 -1     24264-1.68341E-01 1.16083E-01 0.00000E+00
 -1     24265-7.34781E-02 6.09022E-02 0.00000E+00
 -1     24266 2.22103E-01 4.51035E-01 0.00000E+00
 -1     24267 3.00219E-01 5.89804E-01 0.00000E+00
 -1     24268 2.20055E-01 4.67154E-01 0.00000E+00
 -1     24269-2.33789E+00 1.15299E+00 0.00000E+00
 -1     24270-2.28991E+00 1.23812E+00 0.00000E+00
 -1     24271-2.00898E+00 9.58333E-01 0.00000E+00
 -1     24272-4.57870E+00 2.88262E+00 0.00000E+00
 -1     24273-4.90980E+00 3.19690E+00 0.00000E+00
 -1     24274-3.28998E+00 1.80021E+00 0.00000E+00
 -1     24275-3.61267E+00 2.04799E+00 0.00000E+00
 -1     24276-1.68717E+00 8.43283E-01 0.00000E+00
 -1     24277-4.71602E+00 3.39157E+00 0.00000E+00
 -1     24278-2.38936E-01 4.33406E-02 0.00000E+00
 -1     24279-2.92772E-01 5.39063E-02 0.00000E+00
 -1     24280 7.46370E-02 1.48220E-01 0.00000E+00
 -1     24281 9.11998E-02 2.21753E-01 0.00000E+00
 -1     24282 9.76901E-02 1.70016E-01 0.00000E+00
 -1     24283 8.71341E-01 1.80172E+00 0.00000E+00
 -1     24284-6.89499E-02 1.39127E-01 0.00000E+00
 -1     24285-1.75797E+00 1.63192E+01 0.00000E+00
 -1     24286 2.12021E-01 3.81805E-01 0.00000E+00
 -1     24287 2.07923E-01 3.61254E-01 0.00000E+00
 -1     24288 2.96446E-01 6.36151E-01 0.00000E+00
 -1     24289 2.40161E-01 6.34815E-01 0.00000E+00
 -1     24290 1.86802E-01 4.83467E-01 0.00000E+00
 -1     24291 1.97104E-01 4.84009E-01 0.00000E+00
 -1     24292 2.98568E-01 7.65550E-01 0.00000E+00
 -1     24293 1.04877E+00 2.12362E+00 0.00000E+00
 -1     24294-6.92992E+00 2.45423E+01 0.00000E+00
 -1     24295-1.57730E+01 2.50137E+01 0.00000E+00
 -1     24296 9.13067E-02 1.23349E+01 0.00000E+00
 -1     24297 9.15354E-01 1.00400E+01 0.00000E+00
 -1     24298 1.44602E+00 8.04210E+00 0.00000E+00
 -1     24299 1.77876E+00 4.93396E+00 0.00000E+00
 -1     24300 1.64536E+00 3.77817E+00 0.00000E+00
 -1     24301 2.81668E-01 4.80439E-01 0.00000E+00
 -1     24302-4.30742E-01 1.44345E-01 0.00000E+00
 -1     24303 1.72507E+00 6.34756E+00 0.00000E+00
 -1     24304-3.48454E+00 2.18505E+00 0.00000E+00
 -1     24305 1.38206E+00 2.85691E+00 0.00000E+00
 -1     24306-5.59589E+00 2.27273E+01 0.00000E+00
 -1     24307-3.40128E+00 1.93784E+01 0.00000E+00
 -1     24308 6.93596E-01 1.49399E+00 0.00000E+00
 -1     24309-4.39714E+00 2.10279E+01 0.00000E+00
 -1     24310-2.53806E+00 1.78057E+01 0.00000E+00
 -1     24311-2.88568E+00 1.68173E+00 0.00000E+00
 -1     24312 2.73341E-01 6.48033E-01 0.00000E+00
 -1     24313-4.09250E+00 2.75308E+00 0.00000E+00
 -1     24314 1.54240E-01 2.75742E-01 0.00000E+00
 -1     24315-2.84640E-01 1.12936E-01 0.00000E+00
 -1     24316 2.93425E-01 5.33856E-01 0.00000E+00
 -1     24317-3.13950E-01 2.05888E-01 0.00000E+00
 -1     24318-3.95789E-01 2.13763E-01 0.00000E+00
 -1     24319-5.14240E+00 2.08943E+01 0.00000E+00
 -1     24320-4.58831E+00 2.00638E+01 0.00000E+00
 -1     24321-5.13908E-02 2.42763E-01 0.00000E+00
 -1     24322-1.10858E-01 2.27151E-01 0.00000E+00
 -1     24323-8.01757E+00 2.42512E+01 0.00000E+00
 -1     24324-7.33847E+00 2.33044E+01 0.00000E+00
 -1     24325-6.44019E+00 2.25456E+01 0.00000E+00
 -1     24326-5.77482E+00 2.16953E+01 0.00000E+00
 -1     24327-5.95188E+00 2.07168E+01 0.00000E+00
 -1     24328-7.49761E+00 2.22577E+01 0.00000E+00
 -1     24329 1.21624E+00 2.41496E+00 0.00000E+00
 -1     24330 1.13665E+00 2.23934E+00 0.00000E+00
 -1     24331 3.59390E-01 6.22417E-01 0.00000E+00
 -1     24332 3.52322E-01 5.94804E-01 0.00000E+00
 -1     24333 1.49105E+00 3.22694E+00 0.00000E+00
 -1     24334 1.43058E+00 3.00510E+00 0.00000E+00
 -1     24335 1.65200E+00 4.25756E+00 0.00000E+00
 -1     24336 1.62646E+00 3.97830E+00 0.00000E+00
 -1     24337-3.06207E+00 2.06329E+00 0.00000E+00
 -1     24338-3.34746E+00 2.33790E+00 0.00000E+00
 -1     24339-1.10272E+01 1.43882E+01 0.00000E+00
 -1     24340-1.13939E+01 1.52373E+01 0.00000E+00
 -1     24341-6.74846E+00 6.57347E+00 0.00000E+00
 -1     24342-7.08450E+00 7.08759E+00 0.00000E+00
 -1     24343 1.18345E+00 7.94189E+00 0.00000E+00
 -1     24344 1.29653E+00 7.49302E+00 0.00000E+00
 -1     24345 5.65752E-01 9.93297E+00 0.00000E+00
 -1     24346 7.47545E-01 9.40848E+00 0.00000E+00
 -1     24347-1.62410E+00 1.47795E+01 0.00000E+00
 -1     24348-1.27878E+00 1.41106E+01 0.00000E+00
 -1     24349 7.08756E-01 1.45571E+00 0.00000E+00
 -1     24350 6.21473E-01 1.30763E+00 0.00000E+00
 -1     24351-3.22039E+00 1.76669E+01 0.00000E+00
 -1     24352-2.79504E+00 1.69155E+01 0.00000E+00
 -1     24353-4.12673E+00 1.92419E+01 0.00000E+00
 -1     24354-3.65661E+00 1.84443E+01 0.00000E+00
 -1     24355-4.83797E+00 1.91138E+01 0.00000E+00
 -1     24356-1.46073E+01 2.49137E+01 0.00000E+00
 -1     24357-9.02359E+00 2.42451E+01 0.00000E+00
 -1     24358 1.05474E+00 2.07404E+00 0.00000E+00
 -1     24359 9.69815E-01 1.91347E+00 0.00000E+00
 -1     24360 1.04770E+00 2.01361E+00 0.00000E+00
 -1     24361-5.43925E+00 4.74685E+00 0.00000E+00
 -1     24362-5.76040E+00 5.17075E+00 0.00000E+00
 -1     24363 2.20422E-01 4.01815E-01 0.00000E+00
 -1     24364 1.84259E-01 3.69823E-01 0.00000E+00
 -1     24365 1.39433E+00 7.06413E+00 0.00000E+00
 -1     24366 1.47637E+00 6.65287E+00 0.00000E+00
 -1     24367 1.15195E+00 6.96729E+00 0.00000E+00
 -1     24368-2.38299E+00 1.61812E+01 0.00000E+00
 -1     24369-1.99515E+00 1.54710E+01 0.00000E+00
 -1     24370-3.03147E+00 1.60507E+01 0.00000E+00
 -1     24371-1.17363E+01 1.61193E+01 0.00000E+00
 -1     24372-1.20529E+01 1.70749E+01 0.00000E+00
 -1     24373-1.08300E+01 1.58310E+01 0.00000E+00
 -1     24374-7.41889E+00 7.62562E+00 0.00000E+00
 -1     24375-7.76157E+00 8.18792E+00 0.00000E+00
 -1     24376-6.74533E+00 7.44960E+00 0.00000E+00
 -1     24377-4.21171E+00 3.25899E+00 0.00000E+00
 -1     24378-4.51242E+00 3.60364E+00 0.00000E+00
 -1     24379 1.36366E+00 2.79568E+00 0.00000E+00
 -1     24380 1.29165E+00 2.59927E+00 0.00000E+00
 -1     24381 1.33134E+00 2.72863E+00 0.00000E+00
 -1     24382-1.40930E+00 7.35202E-01 0.00000E+00
 -1     24383-1.68681E+00 9.27937E-01 0.00000E+00
 -1     24384 1.44143E-01 3.38473E-01 0.00000E+00
 -1     24385 1.00813E-01 3.10247E-01 0.00000E+00
 -1     24386 2.08068E-01 4.76394E-01 0.00000E+00
 -1     24387-8.79385E-01 3.86422E-01 0.00000E+00
 -1     24388-1.14060E+00 5.57149E-01 0.00000E+00
 -1     24389-1.17093E+00 6.42206E-01 0.00000E+00
 -1     24390-7.18280E-01 3.14242E-01 0.00000E+00
 -1     24391 3.80863E-01 7.57065E-01 0.00000E+00
 -1     24392 3.81315E-01 7.28217E-01 0.00000E+00
 -1     24393 1.63465E+00 5.52756E+00 0.00000E+00
 -1     24394 1.65831E+00 5.18516E+00 0.00000E+00
 -1     24395-3.62905E+00 2.62629E+00 0.00000E+00
 -1     24396-3.91934E+00 2.93369E+00 0.00000E+00
 -1     24397-3.19753E+00 2.50577E+00 0.00000E+00
 -1     24398 8.83637E-01 1.75801E+00 0.00000E+00
 -1     24399 7.96337E-01 1.60658E+00 0.00000E+00
 -1     24400 7.14563E-01 1.40900E+00 0.00000E+00
 -1     24401 8.85010E-01 1.70476E+00 0.00000E+00
 -1     24402-1.95956E+00 1.12674E+00 0.00000E+00
 -1     24403-2.23809E+00 1.34158E+00 0.00000E+00
 -1     24404-1.66528E+00 1.02607E+00 0.00000E+00
 -1     24405 5.35308E-01 1.15614E+00 0.00000E+00
 -1     24406 4.47156E-01 1.00033E+00 0.00000E+00
 -1     24407 5.41871E-01 1.11532E+00 0.00000E+00
 -1     24408-1.12599E+01 2.45304E+01 0.00000E+00
 -1     24409-1.02074E+01 2.44187E+01 0.00000E+00
 -1     24410-3.59646E-01 1.22170E+01 0.00000E+00
 -1     24411-9.75918E-02 1.16209E+01 0.00000E+00
 -1     24412-1.28863E+01 2.03604E+01 0.00000E+00
 -1     24413-1.32773E+01 2.14478E+01 0.00000E+00
 -1     24414-9.49449E-01 1.34607E+01 0.00000E+00
 -1     24415-6.45848E-01 1.28295E+01 0.00000E+00
 -1     24416-8.37512E-01 1.20973E+01 0.00000E+00
 -1     24417-1.48434E+00 1.33341E+01 0.00000E+00
 -1     24418 5.39587E-02 2.84557E-01 0.00000E+00
 -1     24419 3.21200E-03 2.61943E-01 0.00000E+00
 -1     24420-2.07300E-02 3.67805E-01 0.00000E+00
 -1     24421 1.02770E-01 4.15090E-01 0.00000E+00
 -1     24422-1.74023E-01 2.15619E-01 0.00000E+00
 -1     24423-2.42682E-01 2.09141E-01 0.00000E+00
 -1     24424-3.30028E-01 3.22802E-01 0.00000E+00
 -1     24425-1.64674E-01 3.36644E-01 0.00000E+00
 -1     24426-1.21603E+01 1.81962E+01 0.00000E+00
 -1     24427-1.24628E+01 1.92307E+01 0.00000E+00
 -1     24428-1.17524E+01 2.01253E+01 0.00000E+00
 -1     24429-1.12575E+01 1.78458E+01 0.00000E+00
 -1     24430-4.81410E+00 3.96428E+00 0.00000E+00
 -1     24431-5.12374E+00 4.34644E+00 0.00000E+00
 -1     24432-4.29810E+00 3.83047E+00 0.00000E+00
 -1     24433-6.08694E+00 5.61483E+00 0.00000E+00
 -1     24434-6.41678E+00 6.08268E+00 0.00000E+00
 -1     24435-6.11365E+00 6.40782E+00 0.00000E+00
 -1     24436-5.48961E+00 5.46051E+00 0.00000E+00
 -1     24437 1.54436E+00 6.26119E+00 0.00000E+00
 -1     24438 1.59637E+00 5.88504E+00 0.00000E+00
 -1     24439 1.34189E+00 6.16948E+00 0.00000E+00
 -1     24440-4.83709E-01 2.29249E-01 0.00000E+00
 -1     24441-5.91086E-01 2.63009E-01 0.00000E+00
 -1     24442-7.73760E-01 4.07299E-01 0.00000E+00
 -1     24443-5.23226E-01 3.37392E-01 0.00000E+00
 -1     24444-1.41357E+01 2.37253E+01 0.00000E+00
 -1     24445-1.34574E+01 2.47779E+01 0.00000E+00
 -1     24446-1.06433E+01 1.35986E+01 0.00000E+00
 -1     24447-1.01353E+01 1.41460E+01 0.00000E+00
 -1     24448-1.02652E+01 1.28257E+01 0.00000E+00
 -1     24449 1.47021E+00 5.44185E+00 0.00000E+00
 -1     24450 3.70092E-01 6.59532E-01 0.00000E+00
 -1     24451 4.45674E-01 7.83919E-01 0.00000E+00
 -1     24452 3.75200E-01 6.91040E-01 0.00000E+00
 -1     24453 3.71929E-01 8.10650E-01 0.00000E+00
 -1     24454 3.64639E-01 8.40690E-01 0.00000E+00
 -1     24455 1.59015E+00 3.71352E+00 0.00000E+00
 -1     24456 1.54500E+00 3.46396E+00 0.00000E+00
 -1     24457 1.66896E+00 4.86096E+00 0.00000E+00
 -1     24458 1.66640E+00 4.55113E+00 0.00000E+00
 -1     24459-2.21660E+00 1.46499E+01 0.00000E+00
 -1     24460 9.09255E-01 8.89873E+00 0.00000E+00
 -1     24461 1.05509E+00 8.41137E+00 0.00000E+00
 -1     24462-9.58081E+00 2.31829E+01 0.00000E+00
 -1     24463-2.78579E+00 1.80763E+00 0.00000E+00
 -1     24464-2.67401E+00 1.94894E+00 0.00000E+00
 -1     24465-2.50550E+00 1.56421E+00 0.00000E+00
 -1     24466 1.55336E+00 4.18274E+00 0.00000E+00
 -1     24467-4.88149E+00 4.60385E+00 0.00000E+00
 -1     24468-3.91135E+00 1.75382E+01 0.00000E+00
 -1     24469 2.54486E-01 4.37533E-01 0.00000E+00
 -1     24470 2.97192E-01 5.49184E-01 0.00000E+00
 -1     24471 2.83202E-01 4.71069E-01 0.00000E+00
 -1     24472 1.44096E+00 3.15864E+00 0.00000E+00
 -1     24473 1.44917E-01 1.10409E+01 0.00000E+00
 -1     24474 3.65579E-01 1.04798E+01 0.00000E+00
 -1     24475-3.73764E+00 3.13205E+00 0.00000E+00
 -1     24476-8.10214E+00 8.77465E+00 0.00000E+00
 -1     24477-8.45250E+00 9.38639E+00 0.00000E+00
 -1     24478-7.38548E+00 8.58801E+00 0.00000E+00
 -1     24479 1.19769E+00 2.34985E+00 0.00000E+00
 -1     24480-1.37188E+01 2.25862E+01 0.00000E+00
 -1     24481-2.16609E+00 1.45815E+00 0.00000E+00
 -1     24482 3.42012E-01 8.32176E-01 0.00000E+00
 -1     24483-1.25801E+01 2.24247E+01 0.00000E+00
 -1     24484 1.53930E+00 4.78079E+00 0.00000E+00
 -1     24485-1.23666E+01 2.46656E+01 0.00000E+00
 -1     24486 3.48240E-01 5.76719E-01 0.00000E+00
 -1     24487 3.37993E-01 5.52227E-01 0.00000E+00
 -1     24488 4.29643E-01 7.24331E-01 0.00000E+00
 -1     24489-8.80180E+00 1.00248E+01 0.00000E+00
 -1     24490-9.16080E+00 1.06877E+01 0.00000E+00
 -1     24491-8.04019E+00 9.82719E+00 0.00000E+00
 -1     24492 3.80692E-01 7.91075E-01 0.00000E+00
 -1     24493-1.18708E+01 2.34745E+01 0.00000E+00
 -1     24494-2.78414E-01 1.09302E+01 0.00000E+00
 -1     24495 9.00191E-01 7.84210E+00 0.00000E+00
 -1     24496 1.93453E-01 9.82857E+00 0.00000E+00
 -1     24497 1.51805E+00 3.64273E+00 0.00000E+00
 -1     24498 4.61401E-01 8.62466E-01 0.00000E+00
 -1     24499 5.83423E-01 8.79711E+00 0.00000E+00
 -1     24500 3.09816E-01 5.06584E-01 0.00000E+00
 -1     24501 3.69377E-01 6.27378E-01 0.00000E+00
 -1     24502 3.28720E-01 5.35430E-01 0.00000E+00
 -1     24503 4.63105E-01 9.36349E-01 0.00000E+00
 -1     24504 2.35690E-01 8.69173E+00 0.00000E+00
 -1     24505 4.24942E-01 8.20615E+00 0.00000E+00
 -1     24506-1.14622E+01 2.23076E+01 0.00000E+00
 -1     24507-1.03877E+01 2.21873E+01 0.00000E+00
 -1     24508-1.10590E+01 2.11791E+01 0.00000E+00
 -1     24509-8.71040E+00 1.11697E+01 0.00000E+00
 -1     24510-9.51711E+00 1.13772E+01 0.00000E+00
 -1     24511 1.43151E+00 3.56972E+00 0.00000E+00
 -1     24512 1.40994E+00 3.32207E+00 0.00000E+00
 -1     24513 5.46115E-01 1.03662E+00 0.00000E+00
 -1     24514 5.42483E-01 9.96751E-01 0.00000E+00
 -1     24515-4.34708E+00 4.46550E+00 0.00000E+00
 -1     24516-4.62878E+00 4.87853E+00 0.00000E+00
 -1     24517 1.16608E+00 2.27628E+00 0.00000E+00
 -1     24518 1.09934E+00 2.10550E+00 0.00000E+00
 -1     24519-2.83656E+00 1.45214E+01 0.00000E+00
 -1     24520-2.43365E+00 1.38548E+01 0.00000E+00
 -1     24521-9.20403E+00 2.20320E+01 0.00000E+00
 -1     24522 8.86222E-01 6.86278E+00 0.00000E+00
 -1     24523 1.00914E+00 6.45663E+00 0.00000E+00
 -1     24524 1.03035E+00 1.94844E+00 0.00000E+00
 -1     24525 9.55652E-01 1.79504E+00 0.00000E+00
 -1     24526 1.00048E+00 1.87350E+00 0.00000E+00
 -1     24527 1.28683E+00 5.35026E+00 0.00000E+00
 -1     24528 1.34631E+00 5.01324E+00 0.00000E+00
 -1     24529-2.30970E+00 1.83584E+00 0.00000E+00
 -1     24530-2.55044E+00 2.10421E+00 0.00000E+00
 -1     24531-4.65620E+00 1.74205E+01 0.00000E+00
 -1     24532-4.18909E+00 1.66666E+01 0.00000E+00
 -1     24533-9.72683E-01 5.63778E-01 0.00000E+00
 -1     24534-1.19012E+00 7.44672E-01 0.00000E+00
 -1     24535-8.04285E-01 5.08883E-01 0.00000E+00
 -1     24536 5.93311E-01 7.73522E+00 0.00000E+00
 -1     24537 7.47865E-01 7.28909E+00 0.00000E+00
 -1     24538 6.02354E-01 6.76008E+00 0.00000E+00
 -1     24539 2.69830E-01 7.63466E+00 0.00000E+00
 -1     24540-3.71105E+00 1.59269E+01 0.00000E+00
 -1     24541-3.26747E+00 1.52168E+01 0.00000E+00
 -1     24542-4.42361E+00 1.58149E+01 0.00000E+00
 -1     24543-9.99049E+00 1.54990E+01 0.00000E+00
 -1     24544-1.03026E+01 1.63941E+01 0.00000E+00
 -1     24545-6.09971E+00 7.27574E+00 0.00000E+00
 -1     24546-6.39980E+00 7.82734E+00 0.00000E+00
 -1     24547-3.28801E+00 3.01024E+00 0.00000E+00
 -1     24548-3.54671E+00 3.34842E+00 0.00000E+00
 -1     24549-9.88741E+00 1.20921E+01 0.00000E+00
 -1     24550 5.30957E-01 9.48779E-01 0.00000E+00
 -1     24551 5.20288E-01 9.07944E-01 0.00000E+00
 -1     24552 6.21291E-01 1.12966E+00 0.00000E+00
 -1     24553 5.48317E-01 1.08072E+00 0.00000E+00
 -1     24554-3.80464E+00 3.70217E+00 0.00000E+00
 -1     24555-4.07272E+00 4.07559E+00 0.00000E+00
 -1     24556-3.34378E+00 3.57970E+00 0.00000E+00
 -1     24557-2.79167E+00 2.38894E+00 0.00000E+00
 -1     24558-3.03924E+00 2.69032E+00 0.00000E+00
 -1     24559-2.41605E+00 2.27764E+00 0.00000E+00
 -1     24560 2.80757E-01 6.31552E-01 0.00000E+00
 -1     24561 2.23853E-01 5.96344E-01 0.00000E+00
 -1     24562 1.39202E+00 4.69609E+00 0.00000E+00
 -1     24563 1.42183E+00 4.39130E+00 0.00000E+00
 -1     24564 1.22628E+00 4.60501E+00 0.00000E+00
 -1     24565 1.37698E+00 3.08637E+00 0.00000E+00
 -1     24566 1.33565E+00 2.86530E+00 0.00000E+00
 -1     24567 1.29967E+00 3.01056E+00 0.00000E+00
 -1     24568-7.21335E-01 1.08225E+01 0.00000E+00
 -1     24569-4.48869E-01 1.02674E+01 0.00000E+00
 -1     24570-1.40999E+00 9.33391E-01 0.00000E+00
 -1     24571-1.63907E+00 1.14070E+00 0.00000E+00
 -1     24572-1.18325E+00 8.57063E-01 0.00000E+00
 -1     24573-1.97902E-01 9.72498E+00 0.00000E+00
 -1     24574 3.08522E-02 9.20294E+00 0.00000E+00
 -1     24575-1.30083E-01 8.59334E+00 0.00000E+00
 -1     24576-6.13476E-01 9.62317E+00 0.00000E+00
 -1     24577 1.11845E+00 6.07163E+00 0.00000E+00
 -1     24578 1.20956E+00 5.70131E+00 0.00000E+00
 -1     24579 8.74408E-01 5.97017E+00 0.00000E+00
 -1     24580-7.92624E+00 1.09630E+01 0.00000E+00
 -1     24581-8.24746E+00 1.16672E+01 0.00000E+00
 -1     24582 6.32407E-01 1.22326E+00 0.00000E+00
 -1     24583-9.40849E+00 1.26081E+01 0.00000E+00
 -1     24584-8.56140E+00 1.24081E+01 0.00000E+00
 -1     24585-8.90335E+00 1.31573E+01 0.00000E+00
 -1     24586-7.76973E+00 1.21915E+01 0.00000E+00
 -1     24587-1.06724E+01 2.00177E+01 0.00000E+00
 -1     24588 1.44112E+00 3.82945E+00 0.00000E+00
 -1     24589 1.32902E+00 3.49003E+00 0.00000E+00
 -1     24590 1.43861E+00 4.10488E+00 0.00000E+00
 -1     24591-6.63408E+00 2.05956E+01 0.00000E+00
 -1     24592-5.98573E+00 1.98140E+01 0.00000E+00
 -1     24593 7.16762E-01 1.36526E+00 0.00000E+00
 -1     24594 1.08333E+00 5.25418E+00 0.00000E+00
 -1     24595-9.03631E+00 2.07925E+01 0.00000E+00
 -1     24596-8.25696E+00 2.17494E+01 0.00000E+00
 -1     24597 4.12745E-01 6.85632E-01 0.00000E+00
 -1     24598 4.63386E-01 8.01876E-01 0.00000E+00
 -1     24599 4.27028E-01 7.60912E-01 0.00000E+00
 -1     24600 2.19732E-02 5.14068E-01 0.00000E+00
 -1     24601-5.71441E-02 4.94636E-01 0.00000E+00
 -1     24602-7.35191E+00 2.10175E+01 0.00000E+00
 -1     24603-5.80806E+00 6.74710E+00 0.00000E+00
 -1     24604-5.48538E+00 7.10499E+00 0.00000E+00
 -1     24605-5.51038E+00 6.24339E+00 0.00000E+00
 -1     24606-9.62656E+00 1.47063E+01 0.00000E+00
 -1     24607-9.12622E+00 1.52435E+01 0.00000E+00
 -1     24608-9.27618E+00 1.39024E+01 0.00000E+00
 -1     24609-2.87128E+00 2.89400E+00 0.00000E+00
 -1     24610-6.69311E+00 8.40137E+00 0.00000E+00
 -1     24611-6.99896E+00 9.00191E+00 0.00000E+00
 -1     24612-6.03721E+00 8.22039E+00 0.00000E+00
 -1     24613-3.48371E+00 1.44042E+01 0.00000E+00
 -1     24614-3.35087E-01 4.67409E-01 0.00000E+00
 -1     24615-4.40705E-01 4.66604E-01 0.00000E+00
 -1     24616-1.42755E-01 4.81216E-01 0.00000E+00
 -1     24617-2.35061E-01 4.71246E-01 0.00000E+00
 -1     24618-3.20764E-01 6.26800E-01 0.00000E+00
 -1     24619-1.05972E-01 6.42375E-01 0.00000E+00
 -1     24620-1.85163E+00 1.35417E+00 0.00000E+00
 -1     24621-2.08150E+00 1.58870E+00 0.00000E+00
 -1     24622 5.00927E-01 8.58931E-01 0.00000E+00
 -1     24623 4.94756E-01 8.37863E-01 0.00000E+00
 -1     24624 5.90231E-01 1.02981E+00 0.00000E+00
 -1     24625-7.30208E+00 9.62771E+00 0.00000E+00
 -1     24626-7.61605E+00 1.02806E+01 0.00000E+00
 -1     24627-6.59987E+00 9.43305E+00 0.00000E+00
 -1     24628-1.05473E+01 1.71855E+01 0.00000E+00
 -1     24629-1.06367E+01 1.83149E+01 0.00000E+00
 -1     24630-9.71025E+00 1.68372E+01 0.00000E+00
 -1     24631 8.79938E-01 1.65182E+00 0.00000E+00
 -1     24632 7.98938E-01 1.50686E+00 0.00000E+00
 -1     24633 7.09299E-01 1.31142E+00 0.00000E+00
 -1     24634 8.62363E-01 1.58565E+00 0.00000E+00
 -1     24635 1.61918E-01 5.64772E-01 0.00000E+00
 -1     24636 9.46278E-02 5.36901E-01 0.00000E+00
 -1     24637 7.68007E-02 6.77810E-01 0.00000E+00
 -1     24638 2.31824E-01 7.32759E-01 0.00000E+00
 -1     24639-3.84185E+00 4.33532E+00 0.00000E+00
 -1     24640-2.04641E+00 1.32075E+01 0.00000E+00
 -1     24641-1.68513E+00 1.25830E+01 0.00000E+00
 -1     24642-2.63454E+00 1.30864E+01 0.00000E+00
 -1     24643 3.33664E-01 6.71602E-01 0.00000E+00
 -1     24644 3.63515E-01 8.06319E-01 0.00000E+00
 -1     24645 3.81062E-01 7.12358E-01 0.00000E+00
 -1     24646 1.30650E+00 4.01939E+00 0.00000E+00
 -1     24647 1.28497E+00 2.65512E+00 0.00000E+00
 -1     24648 1.22885E+00 2.46035E+00 0.00000E+00
 -1     24649-1.33737E+00 1.19798E+01 0.00000E+00
 -1     24650-1.02028E+00 1.13924E+01 0.00000E+00
 -1     24651-1.19214E+00 1.07117E+01 0.00000E+00
 -1     24652-1.86859E+00 1.18607E+01 0.00000E+00
 -1     24653-5.59779E+00 1.90129E+01 0.00000E+00
 -1     24654-5.11008E+00 1.82132E+01 0.00000E+00
 -1     24655-4.91991E+00 5.30870E+00 0.00000E+00
 -1     24656-5.21253E+00 5.76550E+00 0.00000E+00
 -1     24657-4.37311E+00 5.16715E+00 0.00000E+00
 -1     24658-1.57873E+00 1.26545E+00 0.00000E+00
 -1     24659 4.76027E-01 8.98065E-01 0.00000E+00
 -1     24660-5.43086E-01 4.60874E-01 0.00000E+00
 -1     24661-6.69220E-01 4.80237E-01 0.00000E+00
 -1     24662-8.27845E-01 6.38251E-01 0.00000E+00
 -1     24663-5.57706E-01 6.17242E-01 0.00000E+00
 -1     24664 1.12397E+00 2.20049E+00 0.00000E+00
 -1     24665-5.38698E+00 1.73233E+01 0.00000E+00
 -1     24666-7.17926E+00 1.07545E+01 0.00000E+00
 -1     24667-1.98256E+00 1.73517E+00 0.00000E+00
 -1     24668 1.22746E+00 2.58005E+00 0.00000E+00
 -1     24669-6.25545E+00 1.88951E+01 0.00000E+00
 -1     24670-2.47938E+00 2.78198E+00 0.00000E+00
 -1     24671-2.69387E+00 3.11380E+00 0.00000E+00
 -1     24672-6.26655E+00 1.72454E+01 0.00000E+00
 -1     24673-5.78118E+00 1.64757E+01 0.00000E+00
 -1     24674-7.36966E+00 2.01051E+01 0.00000E+00
 -1     24675 1.15827E+00 2.50305E+00 0.00000E+00
 -1     24676 1.11879E+00 2.30699E+00 0.00000E+00
 -1     24677-9.59557E+00 2.00493E+01 0.00000E+00
 -1     24678-8.64798E+00 1.97872E+01 0.00000E+00
 -1     24679-1.31595E+00 1.17006E+00 0.00000E+00
 -1     24680-1.49018E+00 1.39089E+00 0.00000E+00
 -1     24681 8.63376E-01 5.15287E+00 0.00000E+00
 -1     24682 9.61937E-01 4.82102E+00 0.00000E+00
 -1     24683 4.51604E-01 9.92760E-01 0.00000E+00
 -1     24684 3.83534E-01 9.51121E-01 0.00000E+00
 -1     24685 5.17476E-01 8.78661E-01 0.00000E+00
 -1     24686 5.03678E-01 8.59347E-01 0.00000E+00
 -1     24687 5.72567E-01 1.00803E+00 0.00000E+00
 -1     24688 5.93537E-01 1.02279E+00 0.00000E+00
 -1     24689-6.46000E+00 1.05434E+01 0.00000E+00
 -1     24690-6.73652E+00 1.12391E+01 0.00000E+00
 -1     24691 9.56200E-01 1.78455E+00 0.00000E+00
 -1     24692 8.95692E-01 1.64029E+00 0.00000E+00
 -1     24693 1.21474E+00 3.41158E+00 0.00000E+00
 -1     24694 1.21998E+00 3.16755E+00 0.00000E+00
 -1     24695-3.35735E+00 4.21327E+00 0.00000E+00
 -1     24696-3.59771E+00 4.61542E+00 0.00000E+00
 -1     24697-4.14745E+00 1.42885E+01 0.00000E+00
 -1     24698-3.68580E+00 1.36175E+01 0.00000E+00
 -1     24699 6.98789E-01 1.26189E+00 0.00000E+00
 -1     24700-1.67606E+00 1.63257E+00 0.00000E+00
 -1     24701-1.86796E+00 1.88972E+00 0.00000E+00
 -1     24702-1.39863E+00 1.53862E+00 0.00000E+00
 -1     24703 1.04504E+00 4.50748E+00 0.00000E+00
 -1     24704 1.10974E+00 4.20837E+00 0.00000E+00
 -1     24705 8.46404E-01 4.40799E+00 0.00000E+00
 -1     24706-2.90504E+00 3.46458E+00 0.00000E+00
 -1     24707-3.12898E+00 3.83063E+00 0.00000E+00
 -1     24708-2.50184E+00 3.35156E+00 0.00000E+00
 -1     24709-9.97412E-01 7.88191E-01 0.00000E+00
 -1     24710-1.17877E+00 9.81085E-01 0.00000E+00
 -1     24711-1.11228E+00 1.10229E+00 0.00000E+00
 -1     24712-8.28376E-01 7.59639E-01 0.00000E+00
 -1     24713-5.16900E+00 1.57106E+01 0.00000E+00
 -1     24714-4.65987E+00 1.49948E+01 0.00000E+00
 -1     24715-6.01668E+00 1.56357E+01 0.00000E+00
 -1     24716 1.06916E+00 2.11820E+00 0.00000E+00
 -1     24717 1.01639E+00 1.94777E+00 0.00000E+00
 -1     24718 9.07439E-01 1.70212E+00 0.00000E+00
 -1     24719 1.00780E+00 2.03989E+00 0.00000E+00
 -1     24720-2.06796E+00 2.16915E+00 0.00000E+00
 -1     24721-2.27361E+00 2.46506E+00 0.00000E+00
 -1     24722-2.11898E+00 2.67333E+00 0.00000E+00
 -1     24723-1.74825E+00 2.06753E+00 0.00000E+00
 -1     24724 1.21148E+00 2.93615E+00 0.00000E+00
 -1     24725 1.19147E+00 2.71531E+00 0.00000E+00
 -1     24726 1.11017E+00 2.85618E+00 0.00000E+00
 -1     24727 1.15976E+00 3.93052E+00 0.00000E+00
 -1     24728 1.19358E+00 3.66097E+00 0.00000E+00
 -1     24729 1.08400E+00 3.32233E+00 0.00000E+00
 -1     24730 9.97055E-01 3.83381E+00 0.00000E+00
 -1     24731-7.78632E+00 1.94628E+01 0.00000E+00
 -1     24732-7.07047E+00 1.90602E+01 0.00000E+00
 -1     24733-8.32409E+00 1.87499E+01 0.00000E+00
 -1     24734 1.08014E+00 2.42681E+00 0.00000E+00
 -1     24735 3.09755E-01 9.15149E-01 0.00000E+00
 -1     24736 2.29010E-01 8.83322E-01 0.00000E+00
 -1     24737 3.96610E-01 1.11384E+00 0.00000E+00
 -1     24738-6.65931E+00 1.82751E+01 0.00000E+00
 -1     24739-2.90714E+00 4.09655E+00 0.00000E+00
 -1     24740-7.06398E+00 1.74005E+01 0.00000E+00
 -1     24741 6.77986E-01 1.21656E+00 0.00000E+00
 -1     24742 6.28804E-01 1.15588E+00 0.00000E+00
 -1     24743-8.39293E+00 1.50386E+01 0.00000E+00
 -1     24744-8.72819E+00 1.58441E+01 0.00000E+00
 -1     24745-6.18983E+00 9.86750E+00 0.00000E+00
 -1     24746-5.77285E+00 1.03286E+01 0.00000E+00
 -1     24747-5.92035E+00 9.22893E+00 0.00000E+00
 -1     24748 1.42308E-01 8.59415E-01 0.00000E+00
 -1     24749 4.68465E-02 8.37783E-01 0.00000E+00
 -1     24750 2.17804E-01 1.05501E+00 0.00000E+00
 -1     24751-4.92857E+00 6.08674E+00 0.00000E+00
 -1     24752-5.14045E-01 8.49779E+00 0.00000E+00
 -1     24753-2.81917E-01 8.00979E+00 0.00000E+00
 -1     24754-7.77207E-02 7.52799E+00 0.00000E+00
 -1     24755 1.17154E-01 7.07971E+00 0.00000E+00
 -1     24756-4.35978E-01 7.43721E+00 0.00000E+00
 -1     24757 2.92337E-01 6.64626E+00 0.00000E+00
 -1     24758 4.56102E-01 6.24157E+00 0.00000E+00
 -1     24759-3.01189E-02 6.54442E+00 0.00000E+00
 -1     24760-8.42136E+00 1.36930E+01 0.00000E+00
 -1     24761 7.68639E-01 1.38575E+00 0.00000E+00
 -1     24762 6.75550E-01 1.19591E+00 0.00000E+00
 -1     24763 6.54461E-01 1.14413E+00 0.00000E+00
 -1     24764 8.37751E-01 1.51809E+00 0.00000E+00
 -1     24765-6.99558E+00 1.19565E+01 0.00000E+00
 -1     24766-7.27575E+00 1.27109E+01 0.00000E+00
 -1     24767-6.26982E+00 1.17343E+01 0.00000E+00
 -1     24768-5.54909E-02 8.23339E-01 0.00000E+00
 -1     24769-1.68206E-01 8.12106E-01 0.00000E+00
 -1     24770 6.73869E-03 1.01859E+00 0.00000E+00
 -1     24771-4.90804E+00 6.93110E+00 0.00000E+00
 -1     24772-5.16715E+00 7.47204E+00 0.00000E+00
 -1     24773 5.73445E-01 1.09319E+00 0.00000E+00
 -1     24774 5.15411E-01 1.04231E+00 0.00000E+00
 -1     24775-2.92321E-01 8.09239E-01 0.00000E+00
 -1     24776-4.24419E-01 8.07854E-01 0.00000E+00
 -1     24777-2.45610E-01 1.00329E+00 0.00000E+00
 -1     24778 6.08661E-01 5.85958E+00 0.00000E+00
 -1     24779 7.41542E-01 5.49493E+00 0.00000E+00
 -1     24780-3.25740E+00 1.29582E+01 0.00000E+00
 -1     24781-2.83879E+00 1.23356E+01 0.00000E+00
 -1     24782-3.88956E+00 1.28491E+01 0.00000E+00
 -1     24783-4.85991E+00 1.41895E+01 0.00000E+00
 -1     24784-1.02537E+01 1.90356E+01 0.00000E+00
 -1     24785 6.80373E-01 1.31355E+00 0.00000E+00
 -1     24786-1.67981E+00 1.06062E+01 0.00000E+00
 -1     24787-1.35156E+00 1.00598E+01 0.00000E+00
 -1     24788-3.85160E+00 5.03145E+00 0.00000E+00
 -1     24789-4.10890E+00 5.47370E+00 0.00000E+00
 -1     24790-3.35501E+00 4.90659E+00 0.00000E+00
 -1     24791 3.23373E-01 5.75019E+00 0.00000E+00
 -1     24792-5.81725E-01 8.23555E-01 0.00000E+00
 -1     24793-7.22618E-01 8.16888E-01 0.00000E+00
 -1     24794-8.68200E-01 9.73064E-01 0.00000E+00
 -1     24795-5.58575E-01 1.01847E+00 0.00000E+00
 -1     24796-1.04326E+00 9.52901E+00 0.00000E+00
 -1     24797-7.63988E-01 9.01002E+00 0.00000E+00
 -1     24798-1.50159E+00 9.42957E+00 0.00000E+00
 -1     24799 5.49020E-01 1.19966E+00 0.00000E+00
 -1     24800 6.21165E-01 5.04564E+00 0.00000E+00
 -1     24801 7.97406E-01 1.43099E+00 0.00000E+00
 -1     24802 9.92535E-01 2.35498E+00 0.00000E+00
 -1     24803 9.71369E-01 2.15602E+00 0.00000E+00
 -1     24804-7.85973E+00 1.43591E+01 0.00000E+00
 -1     24805-7.47962E+00 1.49383E+01 0.00000E+00
 -1     24806-7.52271E+00 1.35968E+01 0.00000E+00
 -1     24807-2.47222E+00 3.99117E+00 0.00000E+00
 -1     24808-2.66653E+00 4.38557E+00 0.00000E+00
 -1     24809 7.30170E-01 1.30148E+00 0.00000E+00
 -1     24810 7.96920E-01 1.46444E+00 0.00000E+00
 -1     24811-8.21199E+00 1.64173E+01 0.00000E+00
 -1     24812-8.94950E+00 1.66330E+01 0.00000E+00
 -1     24813 7.85966E-01 1.53802E+00 0.00000E+00
 -1     24814 7.19956E-01 1.47456E+00 0.00000E+00
 -1     24815 9.75809E-03 5.62178E+00 0.00000E+00
 -1     24816 1.87189E-01 5.25980E+00 0.00000E+00
 -1     24817-9.16596E-01 8.40867E+00 0.00000E+00
 -1     24818-5.50821E+00 1.41301E+01 0.00000E+00
 -1     24819-4.96729E+00 1.34475E+01 0.00000E+00
 -1     24820-4.38171E+00 5.92934E+00 0.00000E+00
 -1     24821-4.64662E+00 6.41903E+00 0.00000E+00
 -1     24822-4.35041E+00 6.76697E+00 0.00000E+00
 -1     24823-3.84791E+00 5.78918E+00 0.00000E+00
 -1     24824 6.48004E-01 1.41241E+00 0.00000E+00
 -1     24825 5.70836E-01 1.36297E+00 0.00000E+00
 -1     24826 7.54576E-01 1.64940E+00 0.00000E+00
 -1     24827-5.39875E+00 8.04337E+00 0.00000E+00
 -1     24828-5.65866E+00 8.63039E+00 0.00000E+00
 -1     24829-1.13962E+00 1.43902E+00 0.00000E+00
 -1     24830-1.28871E+00 1.68669E+00 0.00000E+00
 -1     24831 3.65734E-01 4.93243E+00 0.00000E+00
 -1     24832 5.09106E-01 4.60856E+00 0.00000E+00
 -1     24833 8.01839E-02 4.80967E+00 0.00000E+00
 -1     24834 6.37695E-01 4.30482E+00 0.00000E+00
 -1     24835 7.40036E-01 4.00876E+00 0.00000E+00
 -1     24836 4.07813E-01 4.19540E+00 0.00000E+00
 -1     24837-4.81303E+00 7.86114E+00 0.00000E+00
 -1     24838-9.17221E+00 1.74328E+01 0.00000E+00
 -1     24839-2.42049E+00 1.17399E+01 0.00000E+00
 -1     24840-2.04230E+00 1.11608E+01 0.00000E+00
 -1     24841-3.01082E+00 1.16193E+01 0.00000E+00
 -1     24842-2.20056E+00 1.04926E+01 0.00000E+00
 -1     24843-8.80636E+00 1.81304E+01 0.00000E+00
 -1     24844-7.95106E+00 1.78246E+01 0.00000E+00
 -1     24845-6.82326E+00 1.53079E+01 0.00000E+00
 -1     24846-6.17849E+00 1.45751E+01 0.00000E+00
 -1     24847 8.47478E-01 1.61420E+00 0.00000E+00
 -1     24848-5.27358E+00 9.04365E+00 0.00000E+00
 -1     24849-4.26717E+00 7.66011E+00 0.00000E+00
 -1     24850-4.46836E+00 8.24255E+00 0.00000E+00
 -1     24851-4.57183E+00 8.89347E+00 0.00000E+00
 -1     24852-4.79868E+00 9.50484E+00 0.00000E+00
 -1     24853-4.02386E+00 8.68082E+00 0.00000E+00
 -1     24854 4.88567E-01 1.32118E+00 0.00000E+00
 -1     24855 3.98092E-01 1.28662E+00 0.00000E+00
 -1     24856 5.87671E-01 1.54621E+00 0.00000E+00
 -1     24857-4.62433E+00 1.27201E+01 0.00000E+00
 -1     24858-4.16237E+00 1.20862E+01 0.00000E+00
 -1     24859-5.24557E+00 1.26644E+01 0.00000E+00
 -1     24860-2.29650E+00 3.60709E+00 0.00000E+00
 -1     24861-2.07873E+00 3.88217E+00 0.00000E+00
 -1     24862-2.11915E+00 3.24484E+00 0.00000E+00
 -1     24863-4.07393E+00 7.11348E+00 0.00000E+00
 -1     24864-3.75251E+00 7.47470E+00 0.00000E+00
 -1     24865-3.84336E+00 6.59105E+00 0.00000E+00
 -1     24866-5.17887E+00 1.00911E+01 0.00000E+00
 -1     24867-5.41816E+00 1.07779E+01 0.00000E+00
 -1     24868-4.46506E+00 9.93392E+00 0.00000E+00
 -1     24869-1.45816E+00 1.96740E+00 0.00000E+00
 -1     24870-1.62311E+00 2.25560E+00 0.00000E+00
 -1     24871-1.18391E+00 1.86555E+00 0.00000E+00
 -1     24872 3.02561E-01 1.26525E+00 0.00000E+00
 -1     24873 1.95475E-01 1.24390E+00 0.00000E+00
 -1     24874 3.94392E-01 1.48561E+00 0.00000E+00
 -1     24875 8.60427E-01 1.89067E+00 0.00000E+00
 -1     24876 9.37098E-01 1.96369E+00 0.00000E+00
 -1     24877-1.78828E+00 2.56857E+00 0.00000E+00
 -1     24878-1.95970E+00 2.89549E+00 0.00000E+00
 -1     24879-1.77705E+00 3.13800E+00 0.00000E+00
 -1     24880-1.48491E+00 2.46668E+00 0.00000E+00
 -1     24881 9.42959E-01 3.23396E+00 0.00000E+00
 -1     24882 9.79032E-01 2.99911E+00 0.00000E+00
 -1     24883-9.71836E-01 1.16495E+00 0.00000E+00
 -1     24884-1.32905E+00 8.33344E+00 0.00000E+00
 -1     24885-1.05226E+00 7.84320E+00 0.00000E+00
 -1     24886-8.17837E-01 7.35213E+00 0.00000E+00
 -1     24887-5.86609E-01 6.89229E+00 0.00000E+00
 -1     24888-1.20393E+00 7.28106E+00 0.00000E+00
 -1     24889-6.27676E+00 1.38214E+01 0.00000E+00
 -1     24890-4.86599E+00 1.12354E+01 0.00000E+00
 -1     24891-5.45999E+00 1.14865E+01 0.00000E+00
 -1     24892-8.86194E-01 1.30484E+00 0.00000E+00
 -1     24893-3.86456E-01 6.42757E+00 0.00000E+00
 -1     24894-1.84545E-01 6.01565E+00 0.00000E+00
 -1     24895-7.42111E-01 6.34695E+00 0.00000E+00
 -1     24896-1.79647E-01 1.21465E+00 0.00000E+00
 -1     24897-3.32171E-01 1.21421E+00 0.00000E+00
 -1     24898 1.00768E+00 2.56692E+00 0.00000E+00
 -1     24899 8.98655E-01 2.28217E+00 0.00000E+00
 -1     24900 1.00297E+00 2.78452E+00 0.00000E+00
 -1     24901-9.57133E+00 1.83459E+01 0.00000E+00
 -1     24902 8.18868E-02 1.23329E+00 0.00000E+00
 -1     24903-4.46766E-02 1.22169E+00 0.00000E+00
 -1     24904-1.05386E-01 1.44231E+00 0.00000E+00
 -1     24905 1.65968E-01 1.45703E+00 0.00000E+00
 -1     24906 8.78811E-01 2.69615E+00 0.00000E+00
 -1     24907-5.68431E+00 1.22148E+01 0.00000E+00
 -1     24908 6.80236E-01 1.19244E+00 0.00000E+00
 -1     24909-6.74330E+00 1.33480E+01 0.00000E+00
 -1     24910-2.74094E+00 1.03746E+01 0.00000E+00
 -1     24911-2.34938E+00 9.84274E+00 0.00000E+00
 -1     24912 8.98238E-01 1.78820E+00 0.00000E+00
 -1     24913-2.87812E+00 4.79670E+00 0.00000E+00
 -1     24914-3.09810E+00 5.22438E+00 0.00000E+00
 -1     24915-2.43110E+00 4.68876E+00 0.00000E+00
 -1     24916 8.20631E-01 3.72280E+00 0.00000E+00
 -1     24917 8.87466E-01 3.46148E+00 0.00000E+00
 -1     24918 6.34347E-01 3.62204E+00 0.00000E+00
 -1     24919-3.18883E-01 5.51087E+00 0.00000E+00
 -1     24920-4.93731E-01 1.22637E+00 0.00000E+00
 -1     24921-6.85369E-01 1.24409E+00 0.00000E+00
 -1     24922-8.11873E-01 1.52405E+00 0.00000E+00
 -1     24923-4.26292E-01 1.44902E+00 0.00000E+00
 -1     24924-7.32706E+00 1.60143E+01 0.00000E+00
 -1     24925-7.52405E+00 1.68088E+01 0.00000E+00
 -1     24926 7.85575E-01 3.12521E+00 0.00000E+00
 -1     24927 7.76799E-01 1.82955E+00 0.00000E+00
 -1     24928-7.11657E-01 5.33954E+00 0.00000E+00
 -1     24929-4.88159E-01 4.96775E+00 0.00000E+00
 -1     24930-1.63016E+00 8.83485E+00 0.00000E+00
 -1     24931-1.76476E+00 8.25266E+00 0.00000E+00
 -1     24932-1.96599E+00 9.34378E+00 0.00000E+00
 -1     24933-4.28228E+00 1.06581E+01 0.00000E+00
 -1     24934-4.30412E+00 1.13635E+01 0.00000E+00
 -1     24935-3.60602E+00 1.14842E+01 0.00000E+00
 -1     24936-3.93471E+00 1.00525E+01 0.00000E+00
 -1     24937 7.94302E-01 2.02348E+00 0.00000E+00
 -1     24938 6.87850E-01 1.76932E+00 0.00000E+00
 -1     24939 5.91092E-01 1.73014E+00 0.00000E+00
 -1     24940 7.96624E-01 2.22363E+00 0.00000E+00
 -1     24941 1.78958E-01 4.09241E+00 0.00000E+00
 -1     24942 3.25955E-01 3.80492E+00 0.00000E+00
 -1     24943-1.69382E+00 3.78222E+00 0.00000E+00
 -1     24944-1.83568E+00 4.17735E+00 0.00000E+00
 -1     24945-6.06196E+00 1.29253E+01 0.00000E+00
 -1     24946-3.15788E+00 1.09126E+01 0.00000E+00
 -1     24947-3.30356E+00 1.02480E+01 0.00000E+00
 -1     24948-2.09655E-01 4.66377E+00 0.00000E+00
 -1     24949-9.27663E-03 4.35442E+00 0.00000E+00
 -1     24950-8.11308E-02 3.95331E+00 0.00000E+00
 -1     24951-5.65598E-01 4.50291E+00 0.00000E+00
 -1     24952-3.34527E+00 5.66033E+00 0.00000E+00
 -1     24953-3.58521E+00 6.12702E+00 0.00000E+00
 -1     24954-3.32819E+00 6.45679E+00 0.00000E+00
 -1     24955-2.85517E+00 5.54684E+00 0.00000E+00
 -1     24956-2.47465E+00 9.23299E+00 0.00000E+00
 -1     24957-2.96896E+00 9.13037E+00 0.00000E+00
 -1     24958-2.55950E+00 8.65187E+00 0.00000E+00
 -1     24959-2.19208E+00 8.19862E+00 0.00000E+00
 -1     24960-1.86547E+00 7.71746E+00 0.00000E+00
 -1     24961-2.65593E+00 8.10253E+00 0.00000E+00
 -1     24962-3.48641E+00 8.29226E+00 0.00000E+00
 -1     24963-3.56329E+00 8.94783E+00 0.00000E+00
 -1     24964-9.49314E-01 1.78288E+00 0.00000E+00
 -1     24965-1.08428E+00 2.07003E+00 0.00000E+00
 -1     24966-7.25520E-01 1.71873E+00 0.00000E+00
 -1     24967 4.91944E-01 1.71384E+00 0.00000E+00
 -1     24968 3.79083E-01 1.69677E+00 0.00000E+00
 -1     24969 5.93707E-01 1.94954E+00 0.00000E+00
 -1     24970-9.09612E-01 5.84415E+00 0.00000E+00
 -1     24971-1.08009E+00 5.28413E+00 0.00000E+00
 -1     24972-1.13908E+00 6.28773E+00 0.00000E+00
 -1     24973-1.61484E+00 7.23762E+00 0.00000E+00
 -1     24974-1.35302E+00 6.76708E+00 0.00000E+00
 -1     24975-2.01666E+00 7.18713E+00 0.00000E+00
 -1     24976-1.58069E+00 3.38603E+00 0.00000E+00
 -1     24977-1.36175E+00 3.66654E+00 0.00000E+00
 -1     24978-1.45357E+00 3.02710E+00 0.00000E+00
 -1     24979 2.62851E-01 1.70321E+00 0.00000E+00
 -1     24980 1.28218E-01 1.69679E+00 0.00000E+00
 -1     24981 3.62662E-01 1.94561E+00 0.00000E+00
 -1     24982 7.63449E-01 2.63099E+00 0.00000E+00
 -1     24983 7.99572E-01 2.42874E+00 0.00000E+00
 -1     24984-3.49499E+00 7.80193E+00 0.00000E+00
 -1     24985-3.06453E+00 8.05332E+00 0.00000E+00
 -1     24986-2.67605E+00 7.61738E+00 0.00000E+00
 -1     24987-3.32761E+00 7.24781E+00 0.00000E+00
 -1     24988-3.48771E+00 9.53894E+00 0.00000E+00
 -1     24989-1.99298E+00 4.60661E+00 0.00000E+00
 -1     24990-2.16990E+00 5.02959E+00 0.00000E+00
 -1     24991-1.59708E+00 4.50283E+00 0.00000E+00
 -1     24992 4.43981E-01 3.52414E+00 0.00000E+00
 -1     24993 5.41440E-01 3.25435E+00 0.00000E+00
 -1     24994 2.40444E-01 3.42431E+00 0.00000E+00
 -1     24995 6.01982E-01 2.95401E+00 0.00000E+00
 -1     24996 6.71676E-01 2.74259E+00 0.00000E+00
 -1     24997 4.34989E-01 2.85877E+00 0.00000E+00
 -1     24998-1.94888E-02 1.69269E+00 0.00000E+00
 -1     24999-1.79040E-01 1.68824E+00 0.00000E+00
 -1     25000 7.93282E-02 1.95305E+00 0.00000E+00
 -1     25001 6.95451E-01 2.15794E+00 0.00000E+00
 -1     25002-3.43038E-01 1.67761E+00 0.00000E+00
 -1     25003-5.30248E-01 1.69127E+00 0.00000E+00
 -1     25004-6.36476E-01 1.95746E+00 0.00000E+00
 -1     25005-2.55997E-01 1.94027E+00 0.00000E+00
 -1     25006 6.00474E-01 2.46719E+00 0.00000E+00
 -1     25007 5.82670E-01 2.14680E+00 0.00000E+00
 -1     25008 4.91829E-01 2.24545E+00 0.00000E+00
 -1     25009-1.21632E+00 2.36750E+00 0.00000E+00
 -1     25010-1.34898E+00 2.68880E+00 0.00000E+00
 -1     25011-1.17446E+00 2.92389E+00 0.00000E+00
 -1     25012-9.65362E-01 2.28104E+00 0.00000E+00
 -1     25013 3.58914E-01 2.25952E+00 0.00000E+00
 -1     25014-1.04384E+00 3.52369E+00 0.00000E+00
 -1     25015-1.12541E+00 3.92805E+00 0.00000E+00
 -1     25016-3.08352E+00 6.83037E+00 0.00000E+00
 -1     25017-2.84273E+00 7.14269E+00 0.00000E+00
 -1     25018-2.85605E+00 6.35598E+00 0.00000E+00
 -1     25019-1.52608E+00 5.35865E+00 0.00000E+00
 -1     25020-1.28949E+00 4.87440E+00 0.00000E+00
 -1     25021-1.52495E+00 6.24709E+00 0.00000E+00
 -1     25022 4.97948E-02 3.36771E+00 0.00000E+00
 -1     25023 1.83563E-01 3.10087E+00 0.00000E+00
 -1     25024 2.41960E-01 2.82442E+00 0.00000E+00
 -1     25025 3.23196E-01 2.53985E+00 0.00000E+00
 -1     25026 1.88273E-01 2.22268E+00 0.00000E+00
 -1     25027 7.20382E-02 2.76855E+00 0.00000E+00
 -1     25028 1.92664E-02 2.22264E+00 0.00000E+00
 -1     25029-8.48255E-01 4.27960E+00 0.00000E+00
 -1     25030-5.52723E-01 3.99508E+00 0.00000E+00
 -1     25031-3.17964E-01 3.78794E+00 0.00000E+00
 -1     25032-1.15620E-01 3.54159E+00 0.00000E+00
 -1     25033-1.61505E-01 3.21082E+00 0.00000E+00
 -1     25034-5.67667E-01 3.57940E+00 0.00000E+00
 -1     25035-2.39547E+00 5.46928E+00 0.00000E+00
 -1     25036-2.60940E+00 5.91691E+00 0.00000E+00
 -1     25037-2.38066E+00 6.27566E+00 0.00000E+00
 -1     25038-1.94216E+00 5.38445E+00 0.00000E+00
 -1     25039-6.35673E-02 2.53745E+00 0.00000E+00
 -1     25040-1.77066E-01 2.25321E+00 0.00000E+00
 -1     25041-3.66976E-01 2.24347E+00 0.00000E+00
 -1     25042-1.44041E-01 2.80548E+00 0.00000E+00
 -1     25043-1.71695E+00 5.81238E+00 0.00000E+00
 -1     25044-1.96215E+00 6.27352E+00 0.00000E+00
 -1     25045-2.45603E+00 7.18817E+00 0.00000E+00
 -1     25046-2.17865E+00 6.72621E+00 0.00000E+00
 -1     25047-9.83684E-01 3.13632E+00 0.00000E+00
 -1     25048-7.73296E-01 3.38326E+00 0.00000E+00
 -1     25049-5.34119E-01 3.18976E+00 0.00000E+00
 -1     25050-9.07894E-01 2.79157E+00 0.00000E+00
 -1     25051-5.43637E-01 2.16225E+00 0.00000E+00
 -1     25052-7.59680E-01 2.19123E+00 0.00000E+00
 -1     25053-8.63436E-01 2.49494E+00 0.00000E+00
 -1     25054-4.68272E-01 2.48697E+00 0.00000E+00
 -1     25055-1.16952E+00 4.43254E+00 0.00000E+00
 -1     25056-3.11801E-01 2.96638E+00 0.00000E+00
 -1     25057-6.94010E-01 2.69647E+00 0.00000E+00
 -1     25058-4.90732E-01 2.78302E+00 0.00000E+00
 -1     25059-7.51336E-01 5.00515E+00-1.57326E-05
 -1     25060-5.83849E-01 5.55032E+00 5.82283E-06
 -1     25061-9.50276E-01 5.49300E+00-3.00599E-06
 -1     25062-7.43982E+00 5.19833E+00 5.20855E-07
 -1     25063-7.24384E+00 5.38268E+00-9.94544E-07
 -1     25064-6.69880E+00 4.97178E+00 3.70893E-06
 -1     25065-6.85800E+00 4.70586E+00 9.88567E-06
 -1     25066-7.41288E+00 5.10301E+00 4.06874E-06
 -1     25067-6.67448E+00 4.87762E+00-6.11461E-06
 -1     25068 1.26925E+00 2.79386E+00-5.73976E-06
 -1     25069 1.37763E+00 3.09107E+00-5.43880E-06
 -1     25070 1.30017E+00 3.01529E+00-1.07896E-05
 -1     25071 1.10585E+00 2.34150E+00-5.79644E-05
 -1     25072 1.10533E+00 2.33756E+00 5.01031E-05
 -1     25073 1.23040E+00 2.58798E+00-2.58993E-05
 -1     25074 1.06709E+00 2.15784E+00-7.43014E-06
 -1     25075 1.82953E-01 4.81854E-01-8.02983E-05
 -1     25076 2.50619E-01 6.38010E-01 2.64528E-06
 -1     25077 1.93460E-01 4.83292E-01 4.24633E-05
 -1     25078 8.75799E-01 5.20090E+00-1.25980E-05
 -1     25079 6.33114E-01 5.09341E+00 5.37696E-07
 -1     25080 7.56616E-01 4.76654E+00-1.00671E-05
 -1     25081-9.32508E+00 9.27674E+00-1.36735E-05
 -1     25082-8.55537E+00 9.08844E+00 2.39680E-05
 -1     25083-8.94148E+00 8.67309E+00-2.82466E-06
 -1     25084 4.57119E-01 8.54308E-01 1.55361E-05
 -1     25085 3.70960E-01 6.83314E-01-8.36100E-06
 -1     25086 4.50103E-01 8.14283E-01-9.08965E-06
 -1     25087 3.61104E-01 6.20631E-01-5.32515E-06
 -1     25088 3.52219E-01 5.90939E-01-2.42128E-05
 -1     25089 4.41250E-01 7.75986E-01-3.26773E-06
 -1     25090 3.51063E-01 5.89389E-01 2.59103E-06
 -1     25091 4.34128E-01 7.44936E-01-1.53267E-05
 -1     25092-1.33767E+01 2.96597E+01 2.98969E-04
 -1     25093-1.23933E+01 2.95114E+01 1.34017E-06
 -1     25094-1.27545E+01 2.95664E+01-8.86722E-05
 -1     25095-6.94688E+00 6.37100E+00-1.20561E-05
 -1     25096-7.61250E+00 6.54096E+00 1.92602E-05
 -1     25097-7.29249E+00 6.87347E+00-2.15557E-05
 -1     25098 2.01858E-01 3.28708E+00-3.55225E-05
 -1     25099 6.55458E-02 3.56205E+00 7.24141E-06
 -1     25100 1.34156E-02 3.23127E+00-8.70487E-06
 -1     25101-6.28747E-02 4.85990E-01 1.14886E-05
 -1     25102-1.48354E-01 4.69390E-01 8.03358E-06
 -1     25103-1.12709E-01 6.33167E-01 2.98708E-06
 -1     25104-2.16410E-01 6.20244E-01 7.64402E-06
 -1     25105-6.73969E+00 6.57778E+00-6.02606E-06
 -1     25106-6.40839E+00 6.08670E+00-8.02723E-06
 -1     25107-6.09890E+00 6.41559E+00-5.75112E-07
 -1     25108-5.78723E+00 5.92901E+00 5.17272E-06
 -1     25109 2.34690E-01 6.32428E-01 1.76778E-05
 -1     25110 1.19561E-01 3.35931E-01 7.41567E-05
 -1     25111 1.69073E-01 4.85721E-01-6.79139E-05
 -1     25112 1.77048E-01 4.91131E-01-2.85477E-05
 -1     25113-5.65999E+00 2.67704E+01-6.23088E-05
 -1     25114-4.87103E+00 2.63582E+01-1.01771E-04
 -1     25115-5.84841E+00 2.73583E+01-8.61106E-05
 -1     25116-6.09763E+00 2.68112E+01-1.73776E-04
 -1     25117-5.12547E+00 2.58110E+01-5.55779E-05
 -1     25118-5.30042E+00 2.63925E+01-1.31585E-04
 -1     25119-2.83088E-01 9.14943E-02 3.40772E-03
 -1     25120-3.44569E-01 1.04262E-01 9.23698E-04
 -1     25121-5.09983E-01 2.13555E-01-2.33983E-03
 -1     25122-5.25610E-01 2.29439E-01-2.19696E-03
 -1     25123-3.45857E-01 1.06410E-01 1.53588E-03
 -1     25124-5.57322E-01 2.24132E-01-2.98060E-04
 -1     25125 7.20606E-01 1.29562E+00 3.14487E-05
 -1     25126 6.42625E-01 1.15856E+00 3.34365E-07
 -1     25127 6.32826E-01 1.11737E+00 1.98003E-05
 -1     25128-2.16790E+01 3.11381E+01-1.96140E-04
 -1     25129-2.27460E+01 3.11876E+01 1.22925E-04
 -1     25130-2.15981E+01 3.10191E+01 7.63590E-04
 -1     25131-2.15751E+01 3.01184E+01-2.89897E-05
 -1     25132-2.26521E+01 3.10703E+01-2.74358E-04
 -1     25133 9.53617E-01 1.89123E+00-3.07534E-05
 -1     25134 8.85928E-01 1.81472E+00-2.90963E-05
 -1     25135 8.40560E-01 1.63742E+00 8.47509E-05
 -1     25136 1.48529E+00 3.39852E+00-4.80529E-06
 -1     25137 1.41072E+00 3.32607E+00-2.18760E-05
 -1     25138 5.16499E-01 9.33362E-01 1.22229E-05
 -1     25139 4.55550E-01 7.87880E-01-3.10273E-06
 -1     25140 5.42567E-01 9.52069E-01-4.72452E-06
 -1     25141 4.74950E-01 8.06704E-01 7.81175E-06
 -1     25142 1.46596E+00 1.25636E+01 3.35116E-05
 -1     25143 1.30339E+00 1.31947E+01-9.00724E-06
 -1     25144 1.36078E+00 1.29776E+01-2.06399E-06
 -1     25145-7.20278E+00 1.07798E+01-3.31330E-06
 -1     25146-6.48229E+00 1.05685E+01-6.02612E-06
 -1     25147-6.91079E+00 1.01030E+01-1.62622E-05
 -1     25148-6.53987E-01 3.16052E+00 1.14805E-05
 -1     25149-9.02463E-01 3.35496E+00 4.22410E-05
 -1     25150-4.55380E-01 3.17413E+00 3.29741E-06
 -1     25151-1.51559E-01 3.40165E+00-3.50895E-05
 -1     25152-3.62616E-01 3.59469E+00-6.04606E-05
 -1     25153-8.89208E+00 2.94852E+01-3.04819E-06
 -1     25154-8.15632E+00 2.92585E+01-2.17829E-05
 -1     25155-8.51982E+00 2.87331E+01 4.61129E-05
 -1     25156-9.12795E+00 2.81446E+01-3.61564E-05
 -1     25157-8.76951E+00 2.86681E+01 6.79871E-04
 -1     25158-8.39644E+00 2.79049E+01 4.71806E-04
 -1     25159-1.26499E+00 6.57581E+00 1.35409E-06
 -1     25160-1.66376E+00 6.53493E+00-5.05146E-06
 -1     25161-1.43392E+00 6.06390E+00 6.26285E-06
 -1     25162-1.21393E+00 1.72697E+01 4.92205E-07
 -1     25163-1.39347E+00 1.83853E+01-3.20915E-05
 -1     25164-4.79369E-01 1.86206E+01-2.12804E-05
 -1     25165-6.24924E-01 1.74187E+01-2.55457E-05
 -1     25166-7.76776E-01 1.85420E+01-5.79479E-05
 -1     25167-2.67303E+00 4.33057E+00 5.20917E-06
 -1     25168-2.87489E+00 4.75718E+00 1.19939E-05
 -1     25169-2.24638E+00 4.22676E+00 3.30681E-06
 -1     25170-2.42881E+00 4.64947E+00 4.58397E-07
 -1     25171-4.85995E+00 1.65348E+01 5.40932E-06
 -1     25172-4.12274E+00 1.66486E+01-2.57851E-05
 -1     25173-4.61204E+00 1.73605E+01-3.77547E-05
 -1     25174-4.54350E+00 1.73419E+01 3.62986E-06
 -1     25175-3.86965E+00 1.74781E+01 5.56818E-05
 -1     25176-3.18577E+00 1.08494E+01 3.21137E-06
 -1     25177-3.37738E+00 1.00641E+01-6.34454E-07
 -1     25178-2.76791E+00 1.03132E+01-3.55290E-06
 -1     25179-2.95539E+00 9.55104E+00 3.81020E-06
 -1     25180-2.55489E+00 8.61149E+00-1.56812E-05
 -1     25181-2.18794E+00 8.15950E+00 1.28850E-05
 -1     25182-2.57455E+00 8.03766E+00-6.62517E-06
 -1     25183-3.05613E+00 7.98302E+00 2.54608E-05
 -1     25184-2.66848E+00 7.54940E+00-3.22728E-05
 -1     25185-5.66259E+00 8.64971E+00 2.88733E-06
 -1     25186-5.92426E+00 9.24909E+00-9.42918E-06
 -1     25187-6.31989E+00 8.83283E+00 2.36056E-08
 -1     25188 6.07291E-01 1.47474E+00-6.72359E-06
 -1     25189 6.24549E-01 1.59546E+00 3.09283E-05
 -1     25190 6.72696E-01 1.57644E+00-2.64934E-05
 -1     25191 6.54617E-01 1.56517E+00-8.76827E-06
 -1     25192 6.04799E-01 1.58119E+00 3.44421E-07
 -1     25193 6.70913E-01 1.68730E+00-8.56984E-06
 -1     25194 6.47179E-01 1.20116E+00 2.69096E-05
 -1     25195 7.33324E-01 1.34697E+00-4.19400E-05
 -1     25196 7.47728E-01 1.41232E+00-8.51771E-06
 -1     25197-3.50134E+00 6.16648E+00-6.57208E-06
 -1     25198-3.72249E+00 6.67028E+00-4.95333E-06
 -1     25199-4.30574E+00 6.79344E+00-2.99919E-06
 -1     25200-4.06428E+00 6.28564E+00-9.46600E-07
 -1     25201-3.46012E+00 6.19197E+00 1.85952E-05
 -1     25202 2.63091E-01 1.33407E+01 5.26298E-05
 -1     25203 6.22249E-01 1.27957E+01 2.79917E-05
 -1     25204 2.14308E-01 1.23947E+01 3.68130E-05
 -1     25205-7.17457E-02 1.30950E+01 1.16692E-05
 -1     25206 3.61804E-01 1.35107E+01-5.33547E-06
 -1     25207 3.09248E-01 1.25572E+01 5.52689E-06
 -1     25208 1.07884E+00 2.50170E+00 5.10740E-05
 -1     25209 1.01622E+00 2.38375E+00 2.42580E-05
 -1     25210 1.09505E+00 2.46229E+00-1.82636E-05
 -1     25211 1.15476E+00 2.63756E+00-8.21073E-06
 -1     25212 1.09148E+00 2.51471E+00 2.58605E-06
 -1     25213 1.32619E-01 3.17278E-01 3.72606E-05
 -1     25214 1.35389E-01 3.08760E-01 9.40940E-06
 -1     25215 9.83531E-02 2.31890E-01-5.01377E-05
 -1     25216 8.91668E-02 2.13542E-01-3.88616E-05
 -1     25217 9.01502E-02 2.06018E-01 1.40116E-05
 -1     25218 1.53074E+00 3.33607E+00 3.16993E-05
 -1     25219 1.56076E+00 3.39609E+00 2.60354E-05
 -1     25220 1.62677E+00 3.63839E+00 3.94703E-05
 -1     25221 1.89545E+00 5.05039E+00 4.19526E-05
 -1     25222 1.78875E+00 4.67067E+00 4.08873E-08
 -1     25223 1.80986E+00 4.98469E+00-3.57059E-05
 -1     25224-5.49296E+00 1.15435E+01-5.04276E-06
 -1     25225-5.46774E+00 1.08203E+01-3.90583E-06
 -1     25226-4.92511E+00 1.20212E+01-3.69049E-06
 -1     25227-4.91380E+00 1.12787E+01-3.56587E-06
 -1     25228 1.51889E+00 3.64701E+00-2.01137E-05
 -1     25229 1.97699E-01 4.53985E-01-3.91951E-06
 -1     25230-9.14469E+00 2.65703E+01 1.41327E-04
 -1     25231-8.84216E+00 2.76222E+01 5.63002E-05
 -1     25232-8.20732E+00 2.65458E+01-1.55451E-04
 -1     25233 6.07376E-02 1.75556E-01-5.17768E-05
 -1     25234 6.26344E-02 1.76449E-01-9.12190E-06
 -1     25235 4.95622E-02 1.32509E-01-7.55314E-05
 -1     25236 4.81971E-02 1.32560E-01-1.73360E-05
 -1     25237 1.09500E-01 3.04781E-01 1.45958E-05
 -1     25238-7.63633E+00 7.39966E+00 2.60070E-05
 -1     25239-7.97795E+00 7.04839E+00 8.68784E-06
 -1     25240 6.45307E-01 1.40612E+00 4.20166E-05
 -1     25241 5.46331E-01 1.19371E+00 7.06617E-06
 -1     25242 6.12860E-01 1.24400E+00 9.04902E-06
 -1     25243 1.14539E-01 3.37983E-01 4.97737E-06
 -1     25244 6.07510E-02 1.75614E-01 4.68110E-05
 -1     25245 1.44066E+00 4.11728E+00 4.56786E-05
 -1     25246 1.42720E+00 4.41214E+00 1.60322E-05
 -1     25247 1.55567E+00 4.48451E+00 3.95158E-06
 -1     25248 1.26479E+00 2.66011E+00-4.45657E-05
 -1     25249 1.18573E+00 2.47712E+00-5.57986E-05
 -1     25250 1.30483E+00 2.81012E+00-1.01949E-05
 -1     25251 1.35299E+00 2.84473E+00-5.31528E-05
 -1     25252 1.22721E+00 2.49891E+00-2.11250E-05
 -1     25253 1.27478E+00 2.65117E+00-3.15127E-05
 -1     25254 1.00820E+00 1.89105E+00-8.26002E-06
 -1     25255 9.40854E-01 1.74352E+00 1.25783E-05
 -1     25256 1.03727E+00 1.96571E+00 6.59818E-05
 -1     25257 1.07053E+00 2.04546E+00-7.29562E-06
 -1     25258 1.10626E+00 2.12212E+00 7.62210E-06
 -1     25259-6.32241E+00 3.93339E+00 3.10924E-05
 -1     25260-6.44693E+00 4.05378E+00 6.93350E-06
 -1     25261-7.10511E+00 4.47112E+00 1.52658E-05
 -1     25262-6.06805E+00 4.06534E+00-2.99838E-05
 -1     25263-7.23492E+00 4.60024E+00 3.53448E-05
 -1     25264 5.88704E-01 1.53568E+01 3.74373E-05
 -1     25265-1.06021E-01 1.47589E+01 4.67789E-05
 -1     25266 1.92535E-01 1.50666E+01-5.58872E-05
 -1     25267 3.80139E-01 1.59592E+01-2.71082E-05
 -1     25268-3.45576E-02 1.56609E+01 6.75999E-05
 -1     25269 1.58747E+00 3.57813E+00-2.27545E-05
 -1     25270-4.06752E-01 1.20030E-01-3.24067E-04
 -1     25271-2.58730E-01 4.29460E-02 3.46746E-05
 -1     25272 3.81796E-01 1.60650E+01 8.38069E-06
 -1     25273 2.91454E-01 1.63180E+01-2.69825E-06
 -1     25274-3.46874E-01 1.54485E+01 4.74161E-05
 -1     25275 1.00691E-01 1.53098E+01-2.04431E-05
 -1     25276 2.02084E-01 3.43446E-01-5.54693E-05
 -1     25277 2.80848E-01 4.75808E-01-6.70335E-05
 -1     25278 2.06709E-01 3.66299E-01-1.50410E-05
 -1     25279 1.24454E-01 2.16346E-01 3.58694E-05
 -1     25280 1.93483E-01 3.20701E-01 7.35744E-05
 -1     25281 2.00010E-01 3.44471E-01-1.63854E-05
 -1     25282 1.82202E-02 1.16700E+01 4.07052E-05
 -1     25283-2.74593E-01 1.23450E+01-1.92199E-05
 -1     25284-1.87497E+01 2.18164E+01 2.16951E-05
 -1     25285-1.82745E+01 2.18919E+01 3.28301E-05
 -1     25286-1.84028E+01 2.09749E+01-1.42660E-05
 -1     25287-1.83096E+01 2.09960E+01 1.10370E-04
 -1     25288-1.81804E+01 2.19141E+01-3.10139E-05
 -1     25289-1.78445E+01 2.10681E+01 7.14776E-06
 -1     25290-1.23454E+01 2.08407E+01 5.28935E-06
 -1     25291-1.30756E+01 1.99239E+01-6.08335E-06
 -1     25292-1.19352E+01 1.96927E+01-1.79689E-05
 -1     25293 3.89415E-01 6.49579E-01 1.55511E-05
 -1     25294 1.17379E+00 1.33838E+01 2.44412E-05
 -1     25295 1.49200E+00 1.26031E+01-2.23203E-05
 -1     25296 1.06082E+00 1.29688E+01 1.92218E-06
 -1     25297 1.09661E+00 1.24363E+01-5.59613E-05
 -1     25298 9.88810E-01 1.20402E+01 5.62106E-06
 -1     25299 4.19229E-01 7.46610E-01-2.08352E-05
 -1     25300 2.84016E-01 4.58799E-01-1.04688E-05
 -1     25301 3.38225E-01 5.65024E-01 1.31212E-05
 -1     25302 2.59852E-01 4.24330E-01-6.73279E-06
 -1     25303-7.12646E+00 2.36565E+01 2.93902E-05
 -1     25304-8.20474E+00 2.33666E+01 8.17875E-06
 -1     25305-7.80484E+00 2.46086E+01-5.29899E-05
 -1     25306 2.30059E-02 5.23195E-02 1.19860E-06
 -1     25307 5.06521E-02 1.15402E-01 3.84478E-06
 -1     25308 2.70810E-02 6.39097E-02 2.08817E-05
 -1     25309 2.30845E-02 5.18016E-02-2.35906E-05
 -1     25310 2.72480E-02 6.34756E-02 6.02145E-05
 -1     25311 9.81897E-01 1.40390E+01-6.45144E-05
 -1     25312 9.07902E-01 1.30620E+01 1.77966E-05
 -1     25313 6.66530E-01 1.37870E+01 1.22320E-05
 -1     25314 8.87400E-02 1.92554E-01 9.20889E-06
 -1     25315 8.69688E-02 1.91425E-01-2.56168E-06
 -1     25316 1.29543E-01 2.82266E-01-9.97043E-07
 -1     25317 1.98018E-01 4.14547E-01-2.62174E-05
 -1     25318 1.53766E-01 3.24177E-01 2.86654E-05
 -1     25319-1.09704E+00 5.06315E+00-8.48432E-06
 -1     25320-1.32077E+00 5.55611E+00 3.85462E-06
 -1     25321 7.57127E-01 8.32643E+00 2.23957E-06
 -1     25322 9.12137E-01 7.86645E+00 1.54613E-06
 -1     25323 6.13032E-01 7.77183E+00 3.59827E-06
 -1     25324-2.07235E+00 5.92657E+00-8.79166E-06
 -1     25325-2.53200E+00 5.95707E+00-1.39322E-06
 -1     25326-2.33689E+00 6.39343E+00 1.89137E-05
 -1     25327-9.13862E+00 2.33596E+01-1.20711E-04
 -1     25328-9.75803E+00 2.46000E+01 1.34263E-04
 -1     25329-1.03237E+01 2.35264E+01-6.25710E-06
 -1     25330-2.07577E+01 2.66290E+01-8.40413E-04
 -1     25331-2.02421E+01 2.66023E+01-1.93694E-04
 -1     25332-2.06921E+01 2.57588E+01-5.06876E-05
 -1     25333-2.11161E+01 2.74811E+01-8.11405E-04
 -1     25334-2.10512E+01 2.65791E+01-2.25016E-04
 -1     25335-2.30180E+00 5.49625E+00-3.38142E-06
 -1     25336 1.02870E+00 6.49460E+00-6.45296E-06
 -1     25337 7.64722E-01 6.39109E+00-1.84881E-06
 -1     25338 8.88491E-01 6.00355E+00-5.29036E-06
 -1     25339 1.13224E+00 6.10506E+00 4.39524E-06
 -1     25340-2.90401E+00 4.07403E+00 1.66025E-05
 -1     25341-3.35364E+00 4.19059E+00 6.05213E-06
 -1     25342-3.11767E+00 4.47073E+00 7.78452E-06
 -1     25343-3.22351E+00 7.25139E+00-1.00028E-05
 -1     25344-2.71647E+00 7.08333E+00 1.80731E-05
 -1     25345-3.15425E+00 6.56343E+00 1.45877E-05
 -1     25346-2.99828E+00 6.73659E+00-9.92535E-06
 -1     25347-2.66144E+00 6.40319E+00-1.37020E-05
 -1     25348-2.19102E+00 4.91867E+00-1.29475E-06
 -1     25349-2.01231E+00 4.50069E+00 6.03691E-06
 -1     25350-1.76141E+00 4.83814E+00 7.85514E-06
 -1     25351-2.99170E-01 3.23344E+00-1.12866E-05
 -1     25352-4.14939E-02 3.23565E+00-7.84274E-06
 -1     25353-1.98422E-01 2.90836E+00-2.55741E-05
 -1     25354-7.37866E+00 8.59861E+00-1.31784E-05
 -1     25355-8.54836E+00 9.07725E+00-5.29067E-05
 -1     25356-8.19145E+00 8.48913E+00 1.59158E-05
 -1     25357-7.00363E+00 9.02159E+00 1.20390E-06
 -1     25358-7.81383E+00 8.90224E+00 3.82126E-05
 -1     25359-5.37849E+00 8.06439E+00 1.43668E-06
 -1     25360-5.02259E+00 8.48982E+00 5.86735E-06
 -1     25361-4.76031E+00 7.90627E+00 3.61888E-06
 -1     25362 1.27926E+00 4.32560E+00-4.31156E-06
 -1     25363 1.11836E+00 4.24968E+00 3.43907E-06
 -1     25364 1.05329E+00 4.55055E+00 8.94569E-06
 -1     25365 1.23130E+00 4.62668E+00-2.83971E-06
 -1     25366 6.15556E-01 1.91983E+00 3.78461E-05
 -1     25367 6.12403E-01 2.15217E+00-3.79530E-06
 -1     25368 5.04801E-01 1.90262E+00-4.32247E-06
 -1     25369-4.20192E+00 1.92495E+00 1.66277E-05
 -1     25370-3.87955E+00 1.72816E+00 1.37636E-04
 -1     25371-4.05799E+00 1.83575E+00 4.78936E-05
 -1     25372-4.53988E+00 2.66431E+01 1.70758E-04
 -1     25373-4.75756E+00 2.69962E+01 2.30929E-04
 -1     25374-5.06019E+00 2.64869E+01 9.15409E-05
 -1     25375-4.19983E+00 2.59300E+01-1.46101E-04
 -1     25376-4.40974E+00 2.62794E+01-1.44983E-04
 -1     25377-1.09743E+01 2.73300E+01-1.13629E-04
 -1     25378-1.01039E+01 2.66094E+01-5.34217E-05
 -1     25379-9.85660E+00 2.80352E+01-1.51018E-04
 -1     25380-1.06408E+01 2.84179E+01-7.67598E-05
 -1     25381-9.77557E+00 2.76925E+01-2.94105E-04
 -1     25382 6.34888E-01 5.91747E+00-3.84488E-06
 -1     25383 7.66600E-01 5.55079E+00-4.95219E-06
 -1     25384 1.00031E+00 5.63584E+00-6.25478E-06
 -1     25385 1.63954E+00 3.77293E+00 1.12278E-05
 -1     25386 1.69810E+00 3.94618E+00 2.03068E-05
 -1     25387 1.60958E+00 3.68858E+00-1.93580E-05
 -1     25388-1.19611E-01 3.03284E-02-3.51587E-03
 -1     25389-2.67597E-01 1.30803E-01-3.66423E-03
 -1     25390-2.28560E+00 3.57364E+00 5.85926E-06
 -1     25391-1.90582E+00 3.45033E+00 1.43413E-06
 -1     25392-2.10195E+00 3.19529E+00 1.64340E-06
 -1     25393-2.48951E+00 3.31958E+00 5.60580E-06
 -1     25394-3.30739E+00 2.01137E+01-4.77257E-05
 -1     25395-3.80370E+00 2.09627E+01-7.65459E-06
 -1     25396-3.02822E+00 2.10920E+01 1.30084E-05
 -1     25397-3.44386E+00 2.79715E+00-5.00492E-06
 -1     25398-3.26511E+00 2.98940E+00-1.05678E-05
 -1     25399-3.72481E+00 3.12192E+00 6.08833E-06
 -1     25400-1.90678E+00 2.38664E+00-3.55237E-05
 -1     25401-1.72535E+00 2.08781E+00-1.71027E-05
 -1     25402-2.04640E+00 2.18965E+00 4.08817E-06
 -1     25403 3.43996E-01 9.06875E-01-2.52485E-05
 -1     25404 3.85317E-01 1.03144E+00-2.25225E-05
 -1     25405 2.92140E-01 7.63401E-01 7.20362E-05
 -1     25406 3.64552E-01 9.06917E-01-1.86144E-05
 -1     25407 4.62452E-01 1.17876E+00 2.60533E-05
 -1     25408 4.10927E-01 1.03440E+00 4.55943E-06
 -1     25409 8.15124E-01 1.75315E+00-1.65991E-04
 -1     25410 7.76677E-01 1.57414E+00 1.32801E-05
 -1     25411-2.36990E-01 1.38614E+01 2.62264E-05
 -1     25412-8.46820E-01 1.35501E+01-6.40933E-06
 -1     25413-5.51921E-01 1.29605E+01-1.44321E-05
 -1     25414-3.41412E-01 1.36885E+01 2.99100E-05
 -1     25415 2.27784E-01 7.26823E-01-1.33035E-05
 -1     25416 3.05388E-01 9.08721E-01 9.46207E-07
 -1     25417 2.95797E-01 7.60067E-01-3.21892E-06
 -1     25418 4.75522E-01 1.05411E+01 3.39247E-06
 -1     25419 6.55234E-01 1.12191E+01 2.89014E-05
 -1     25420 9.71211E-01 1.13775E+01 7.29608E-06
 -1     25421 8.65590E-01 1.00816E+01-2.90654E-05
 -1     25422 1.04006E+00 1.07398E+01-5.95086E-05
 -1     25423 2.20190E-01 5.90777E-01 1.09031E-07
 -1     25424 1.57255E-01 5.57582E-01-8.02487E-06
 -1     25425 1.51716E-01 6.94587E-01-2.53421E-06
 -1     25426-8.30595E+00 6.71439E+00-6.56860E-06
 -1     25427 2.21409E-01 8.72788E-01 2.80848E-06
 -1     25428-1.11449E+00 3.11116E+00-2.70594E-05
 -1     25429-1.03068E+00 2.76784E+00 5.25849E-05
 -1     25430-1.29604E+00 2.86657E+00-1.07295E-04
 -1     25431-3.08236E+00 3.20704E+00 7.94198E-07
 -1     25432-2.84987E+00 2.87333E+00-7.05691E-06
 -1     25433-2.67349E+00 3.09239E+00 8.40928E-06
 -1     25434-2.68519E+00 3.68363E+00 7.66449E-06
 -1     25435-2.89146E+00 3.43236E+00 7.23020E-06
 -1     25436 3.06434E-02 6.72995E-02 1.54570E-05
 -1     25437 9.69537E-02 2.06178E-01-1.30131E-05
 -1     25438 6.43373E-02 1.42651E-01 5.30550E-05
 -1     25439 3.07147E-02 6.63784E-02 1.31574E-05
 -1     25440 6.46929E-02 1.40940E-01 3.94407E-05
 -1     25441-2.83709E+00 1.92966E+01 2.80831E-05
 -1     25442-3.07232E+00 1.83603E+01 7.83813E-05
 -1     25443-3.55594E+00 1.91506E+01-1.76663E-04
 -1     25444 2.65659E-02 6.50965E-02 6.14781E-06
 -1     25445 6.96974E-02 1.70007E-01 2.65483E-05
 -1     25446 7.17683E-02 1.66256E-01 1.06951E-05
 -1     25447-1.15383E-01-1.66266E-02 2.25884E-04
 -1     25448-6.62903E-02-1.77172E-02 5.34344E-05
 -1     25449-4.73941E-02-1.64621E-02 6.64193E-05
 -1     25450-5.17608E-02-1.67969E-02 5.52913E-05
 -1     25451-7.17145E-02-1.72909E-02 1.84327E-04
 -1     25452-5.53991E-01 1.89800E+00-1.10616E-06
 -1     25453-6.69847E-01 2.12788E+00 7.76403E-05
 -1     25454-7.60019E-01 1.92655E+00 7.11007E-05
 -1     25455 4.61977E-01 1.10308E+00 1.88106E-05
 -1     25456 5.34698E-01 1.30862E+00 1.67537E-05
 -1     25457 5.48345E-01 1.26236E+00-4.57416E-06
 -1     25458-1.21037E+01 1.23759E+01 5.52455E-06
 -1     25459-1.16307E+01 1.28951E+01-3.07723E-05
 -1     25460-1.12043E+01 1.21654E+01 6.40302E-07
 -1     25461 4.61888E-01 7.21940E+00 6.01888E-06
 -1     25462 3.33619E-01 6.71062E+00 4.56816E-06
 -1     25463 6.23582E-01 6.79933E+00 1.23521E-06
 -1     25464 2.65840E-02 6.51255E-02-4.46513E-06
 -1     25465 4.76483E-02 1.17007E-01-2.01085E-05
 -1     25466 2.06457E-02 5.25386E-02 1.55220E-05
 -1     25467 2.06520E-02 5.25085E-02 2.31015E-05
 -1     25468-2.58585E+00 1.53339E+01 4.78941E-06
 -1     25469-3.19283E+00 1.52203E+01 9.97913E-06
 -1     25470-2.81526E+00 1.45083E+01 1.08270E-05
 -1     25471 1.61406E-02 5.05203E-01 1.48617E-06
 -1     25472-1.79264E-02 6.48080E-01 6.26381E-06
 -1     25473-2.41060E-01 1.47047E-02 4.88703E-04
 -1     25474-2.74877E-01 3.14482E-02 2.17173E-05
 -1     25475-3.91423E-02-9.18700E-03 2.44834E-04
 -1     25476-2.96744E-01 3.65782E-02 5.56466E-06
 -1     25477-4.48387E-02-6.32316E-03-1.69227E-04
 -1     25478 5.58276E-02 9.28292E-02-1.28903E-04
 -1     25479 5.79519E-02 1.00075E-01-8.37767E-05
 -1     25480 1.25933E-01 2.05618E-01-1.13884E-04
 -1     25481 1.31088E-01 2.20447E-01-4.61120E-05
 -1     25482 4.60978E-02 7.19127E-02-1.16573E-04
 -1     25483 1.77522E-01 2.84141E-01 8.56978E-05
 -1     25484 1.24404E-01 2.00099E-01 5.25113E-05
 -1     25485 9.14772E-02 1.40186E-01-2.58372E-06
 -1     25486 1.38705E-01 2.13628E-01 4.16930E-05
 -1     25487 2.26518E-01 3.59694E-01 1.02881E-05
 -1     25488 8.26050E-01 1.54598E+00-9.76912E-05
 -1     25489 8.10666E-01 1.48408E+00-4.09884E-06
 -1     25490 1.31144E-01 8.44329E-01-1.88376E-06
 -1     25491 1.03513E-01 1.01835E+00 4.51017E-06
 -1     25492 3.55173E-02 8.23025E-01 5.15029E-06
 -1     25493-5.77310E+00 1.87899E+01 2.94266E-05
 -1     25494-6.37513E+00 1.96914E+01-4.68580E-05
 -1     25495-6.57336E+00 1.87088E+01 2.11312E-05
 -1     25496 1.89507E+00 4.64209E+00-1.09012E-05
 -1     25497 1.77676E+00 4.18437E+00-2.86462E-05
 -1     25498 1.78109E+00 4.17894E+00 5.79893E-05
 -1     25499 1.87111E+00 4.54168E+00 1.99219E-05
 -1     25500 1.75663E+00 4.08711E+00-3.29636E-05
 -1     25501 7.46308E-01 4.07353E+00-1.68235E-05
 -1     25502 5.40888E-01 3.97193E+00-1.41977E-05
 -1     25503 6.43104E-01 4.37264E+00-1.84282E-05
 -1     25504 4.43584E-01 3.62177E+00 4.27149E-06
 -1     25505 2.85036E-01 3.66136E+00-5.71277E-05
 -1     25506 1.97374E-01 3.38233E+00 6.45634E-05
 -1     25507 2.87212E-01 3.72414E+00 1.88362E-05
 -1     25508 1.81071E+00 6.03528E+00-2.10680E-05
 -1     25509 1.65409E+00 5.95253E+00-5.96190E-05
 -1     25510 1.68721E+00 5.59302E+00 1.12795E-04
 -1     25511 5.18135E-02 3.63507E+00-2.29021E-05
 -1     25512 1.65128E+00 4.02387E+00 1.04187E-05
 -1     25513 1.65199E+00 4.02829E+00 2.61341E-06
 -1     25514 1.75709E+00 4.21092E+00 1.88354E-05
 -1     25515 1.58862E+00 3.58223E+00 5.07738E-05
 -1     25516 1.12679E+00 2.20782E+00 5.63924E-06
 -1     25517 1.23175E+00 2.46792E+00 2.34869E-08
 -1     25518 1.18153E+00 2.39093E+00-9.87393E-07
 -1     25519-3.40849E-01 2.50331E+00 1.60106E-06
 -1     25520-6.02413E-01 2.75483E+00-8.93153E-05
 -1     25521-6.65485E-01 2.68300E+00 7.25627E-05
 -1     25522-1.35902E-01 2.98489E+00 3.87003E-05
 -1     25523 7.44619E-01 2.83728E+00 3.35443E-05
 -1     25524 7.94576E-01 2.63564E+00 3.76218E-05
 -1     25525 6.34116E-01 2.47171E+00-2.13664E-05
 -1     25526 5.61784E-01 2.33894E+00 7.41216E-05
 -1     25527 6.62913E-01 2.60836E+00-1.23490E-05
 -1     25528 4.20899E-01 2.44207E+00 3.17360E-06
 -1     25529 5.20975E-01 2.71862E+00 3.16480E-05
 -1     25530 1.17333E+00 2.29364E+00 1.67509E-05
 -1     25531 5.64784E-01 9.67917E-01-3.44075E-06
 -1     25532 6.39967E-01 1.11273E+00 5.86088E-06
 -1     25533 5.83578E-01 1.01070E+00-2.08163E-05
 -1     25534 6.61044E-01 1.15969E+00-1.07956E-05
 -1     25535-3.09213E-01 1.41668E+00-2.54762E-05
 -1     25536-2.31146E-01 1.64300E+00-2.42587E-05
 -1     25537-4.47969E-01 1.64306E+00 8.78962E-05
 -1     25538-5.05283E-01 1.62144E+00-7.15548E-05
 -1     25539-4.24010E-01 1.85694E+00-1.02217E-05
 -1     25540 4.40279E-01 7.35324E-01 4.43499E-05
 -1     25541 3.45999E-01 5.70439E-01 6.60982E-05
 -1     25542 4.15689E-01 6.97026E-01 6.89934E-05
 -1     25543 1.68740E+00 1.03671E+01-1.22531E-05
 -1     25544 1.81987E+00 1.04538E+01-2.15757E-05
 -1     25545 1.78795E+00 9.80947E+00 1.41591E-06
 -1     25546 1.50629E+00 1.02985E+01 1.75821E-05
 -1     25547 1.52457E+00 1.09642E+01 2.27342E-05
 -1     25548 1.64583E+00 1.03861E+01 8.82068E-06
 -1     25549 2.18611E-01 4.78761E-01-6.09807E-06
 -1     25550 1.43203E-01 3.26508E-01 3.85453E-06
 -1     25551 2.15309E-01 4.94837E-01 4.32069E-05
 -1     25552 6.21238E-02 2.21157E-01 3.93700E-05
 -1     25553 6.23315E-02 2.21124E-01-4.53273E-06
 -1     25554 5.30352E-02 1.79658E-01 5.97166E-05
 -1     25555 1.62641E-02 5.20782E-02 7.78894E-05
 -1     25556 5.29788E-02 1.79902E-01-5.10928E-05
 -1     25557 8.30528E-01 3.79519E+00-3.00414E-05
 -1     25558 6.42433E-01 3.69424E+00-2.27759E-05
 -1     25559 6.47024E-01 1.15690E+00-1.88401E-05
 -1     25560 7.28013E-01 1.31413E+00-4.58477E-05
 -1     25561 1.57867E+00 8.33606E+00-3.11726E-05
 -1     25562 1.66298E+00 7.87298E+00 2.31399E-05
 -1     25563 1.42736E+00 7.77657E+00 4.99725E-07
 -1     25564 5.12274E-02 1.31673E-01-4.44798E-06
 -1     25565 1.11310E-01 2.81194E-01 3.83570E-05
 -1     25566 6.08888E-02 1.50943E-01-1.63569E-05
 -1     25567 7.11010E-02 1.83871E-01-1.14546E-05
 -1     25568 8.14938E-02 2.02868E-01 5.04691E-06
 -1     25569 1.12917E+00 2.18905E+00 2.54915E-05
 -1     25570-3.90800E+00 8.37617E+00 1.86193E-06
 -1     25571-4.16237E+00 8.97966E+00 4.43792E-06
 -1     25572-4.51052E+00 8.51289E+00-1.90181E-06
 -1     25573-7.08238E+00 4.85447E+00-2.02593E-05
 -1     25574-7.46746E+00 5.27627E+00 1.69202E-05
 -1     25575-7.63150E+00 5.00508E+00 4.30386E-06
 -1     25576 2.01318E-02 5.30415E-02-1.31930E-05
 -1     25577-1.99302E+01 3.06296E+01 8.40457E-04
 -1     25578-2.10915E+01 3.09846E+01 6.33924E-05
 -1     25579-2.02977E+01 2.97128E+01-1.41960E-03
 -1     25580-2.03989E+01 3.06669E+01-6.92274E-04
 -1     25581 2.03276E-02 5.28269E-02 2.09083E-05
 -1     25582 5.02593E-02 1.32222E-01-4.80841E-05
 -1     25583 9.83054E-01 1.28585E+01 1.85263E-06
 -1     25584 1.16487E+00 1.22412E+01 5.80898E-06
 -1     25585 2.09307E+00 9.29858E+00-1.09570E-05
 -1     25586 2.12478E+00 8.98001E+00 1.97477E-05
 -1     25587 2.14070E+00 8.79684E+00 2.67624E-05
 -1     25588-4.72392E+00 1.98975E+01-1.40227E-05
 -1     25589-3.27731E+00 2.01081E+01 5.99746E-05
 -1     25590-4.11591E+00 1.98050E+01 6.16763E-05
 -1     25591-4.97098E+00 1.89525E+01-8.38768E-05
 -1     25592-3.54141E+00 1.91532E+01 2.12542E-04
 -1     25593-1.40820E+01 1.71876E+01 9.75689E-06
 -1     25594-1.51700E+01 1.74098E+01-7.21166E-05
 -1     25595-1.47507E+01 1.64909E+01-4.65718E-05
 -1     25596-1.43623E+00 1.98836E+00-7.06825E-05
 -1     25597-1.59543E+00 2.28611E+00 5.29523E-05
 -1     25598 1.18140E-01 3.31655E-01-5.37733E-05
 -1     25599 1.09271E-01 2.89720E-01-2.96583E-05
 -1     25600-1.91447E+00 6.98839E+00-1.06415E-05
 -1     25601-1.52066E+00 7.03851E+00 1.57801E-05
 -1     25602-5.70999E-01 1.90147E+01-2.85406E-05
 -1     25603-7.77795E-01 1.87716E+01 3.43881E-05
 -1     25604-8.37194E-01 1.95398E+01-2.93210E-05
 -1     25605-1.37985E+00 1.83855E+01 4.24690E-05
 -1     25606-1.30446E+00 1.76460E+01 4.89948E-05
 -1     25607-1.59055E+00 1.81487E+01 1.44464E-06
 -1     25608 1.94062E+00 4.84845E+00-3.59577E-05
 -1     25609-8.84077E-02 5.12308E-03 8.98410E-04
 -1     25610-2.47041E+00 9.19106E+00 1.12685E-06
 -1     25611-2.08552E+00 8.71178E+00-1.75925E-06
 -1     25612 2.09504E-02 5.21341E-02-2.60149E-05
 -1     25613 1.92333E+00 5.63331E+00 5.78203E-05
 -1     25614 1.96846E+00 6.05218E+00 4.65732E-05
 -1     25615 1.82730E+00 5.67744E+00 1.72557E-05
 -1     25616 2.03620E+00 6.06018E+00-2.70297E-05
 -1     25617 1.94592E+00 6.11315E+00-2.15477E-05
 -1     25618-3.03769E+00 8.95863E+00-1.18756E-05
 -1     25619-6.22268E-01 9.61165E+00 2.63458E-06
 -1     25620-3.66343E-01 9.09081E+00 7.58284E-07
 -1     25621-4.56683E-01 1.02568E+01 4.03422E-05
 -1     25622-2.05240E-01 9.71482E+00 3.43504E-06
 -1     25623-9.57803E-01 6.36828E+00 1.43243E-05
 -1     25624-6.52533E-01 6.44260E+00 5.92439E-06
 -1     25625-7.38735E-01 5.92243E+00 1.30372E-06
 -1     25626-4.51784E-01 5.99544E+00 5.81073E-06
 -1     25627 5.16955E-02 2.80447E-01-1.08847E-05
 -1     25628 9.88122E-02 3.06758E-01-9.50741E-06
 -1     25629 4.05448E-02 3.84843E-01 2.68912E-07
 -1     25630 1.00420E-01 4.11323E-01-8.99700E-06
 -1     25631-1.95571E+00 1.74306E+00 3.01547E-05
 -1     25632-1.65651E+00 1.64938E+00 1.15910E-04
 -1     25633-1.74603E+00 1.49574E+00 8.96867E-06
 -1     25634-1.32323E+00 2.18598E+00-1.06663E-04
 -1     25635-8.73979E-01 1.65318E+01-1.02501E-05
 -1     25636-3.15820E+00 2.37996E+01-1.44154E-06
 -1     25637-3.32033E+00 2.40955E+01 3.51780E-05
 -1     25638-3.65372E+00 2.46918E+01 6.31729E-05
 -1     25639-1.87399E+00 2.35402E+00 5.04526E-05
 -1     25640-2.27306E+00 2.96814E+00-5.65287E-06
 -1     25641-2.44194E+00 2.74731E+00-8.08828E-06
 -1     25642-2.76120E-01 8.02624E+00 7.93504E-07
 -1     25643 8.51900E-02 8.11970E+00 3.71218E-06
 -1     25644-4.03881E-01 7.48180E+00-5.44549E-06
 -1     25645-4.64570E-02 7.57283E+00 1.75020E-05
 -1     25646 1.77735E-01 1.21961E+00 5.21241E-06
 -1     25647 5.48071E-02 1.20319E+00 9.33283E-06
 -1     25648 1.46499E-01 1.43159E+00 7.95601E-06
 -1     25649 5.47583E-03 1.41949E+00 7.13464E-06
 -1     25650-6.70707E-01 7.90884E+00-5.68219E-06
 -1     25651 1.85804E+00 1.10234E+01 1.37263E-05
 -1     25652 1.95147E+00 1.04417E+01-1.72522E-05
 -1     25653 1.18751E+00 2.46802E+00 2.24047E-06
 -1     25654 1.14204E+00 2.32343E+00 1.07569E-06
 -1     25655 1.84744E-01 2.93079E-01-5.54224E-05
 -1     25656 2.04016E-01 3.20726E-01-3.81531E-06
 -1     25657 2.65226E-01 1.44205E+00 8.68362E-06
 -1     25658-1.04825E+00 6.09963E-01-2.04947E-04
 -1     25659-1.01491E+00 5.15739E-01-2.21484E-04
 -1     25660-8.40319E-01 4.49024E-01-2.02585E-04
 -1     25661 3.01933E-01 1.06837E+00-1.97409E-06
 -1     25662 2.09527E-01 1.04386E+00-4.67743E-06
 -1     25663-1.76193E+00 3.08899E+00 2.90927E-05
 -1     25664-1.92695E+00 2.86040E+00-2.41546E-05
 -1     25665-9.64946E+00 2.25022E+01 3.60214E-06
 -1     25666-9.27204E+00 2.13697E+01-4.59253E-05
 -1     25667-1.07569E+01 2.24556E+01-8.83033E-05
 -1     25668-1.03642E+01 2.13235E+01 1.99600E-05
 -1     25669-1.70958E+01 2.07259E+01-3.01672E-05
 -1     25670-1.62087E+01 2.00863E+01-2.19040E-05
 -1     25671-1.68453E+01 2.04453E+01-1.13237E-05
 -1     25672-1.61613E+01 2.11162E+01-1.18539E-04
 -1     25673-1.55407E+01 2.07497E+01-3.36699E-05
 -1     25674-1.53050E+01 2.04672E+01 4.13716E-05
 -1     25675-2.23410E+01 2.99655E+01 4.60230E-03
 -1     25676-2.29212E+01 3.15465E+01 7.68634E-07
 -1     25677-2.29242E+01 3.15526E+01-2.62801E-04
 -1     25678-3.52623E+00 7.95678E+00 1.21989E-05
 -1     25679-3.75943E+00 7.40615E+00-2.98424E-05
 -1     25680-4.26534E+00 7.92751E+00 1.75040E-05
 -1     25681-3.97727E+00 8.26667E+00 7.78375E-08
 -1     25682-3.48496E+00 7.73309E+00-1.02042E-07
 -1     25683-4.21609E+00 7.70490E+00 1.96833E-06
 -1     25684-6.07389E+00 3.69802E+00 1.64216E-05
 -1     25685 2.93689E-01 1.25343E+00-8.17230E-07
 -1     25686 7.14992E-02 6.70265E-01-2.66226E-06
 -1     25687 1.90762E+00 1.07413E+01 1.38925E-06
 -1     25688 1.73508E+00 1.06733E+01-1.15386E-05
 -1     25689 1.78910E+00 1.13888E+01 5.48029E-06
 -1     25690 1.59979E+00 1.13169E+01-2.73588E-05
 -1     25691-8.10701E+00 5.36392E+00-2.83955E-06
 -1     25692-7.49686E+00 4.86586E+00 8.44677E-06
 -1     25693-2.32492E+00 5.37984E+00 1.21248E-05
 -1     25694-2.77658E+00 5.54164E+00 1.11320E-05
 -1     25695-2.77823E+00 5.58490E+00-1.80152E-06
 -1     25696-2.62637E+00 5.07386E+00-7.76352E-07
 -1     25697-4.87378E+00 4.59841E+00-1.45859E-07
 -1     25698-4.57739E+00 4.20167E+00 5.47123E-06
 -1     25699-5.49925E+00 4.66394E+00 4.55088E-06
 -1     25700-5.83119E+00 5.08500E+00-1.55489E-05
 -1     25701-5.50734E+00 4.66945E+00-9.71127E-06
 -1     25702-1.00778E+01 1.43539E+01 6.44608E-06
 -1     25703-9.21819E+00 1.41122E+01 1.77939E-05
 -1     25704-9.56581E+00 1.49237E+01 1.73456E-05
 -1     25705-5.18669E+00 2.64324E+00 1.73878E-05
 -1     25706-4.57615E+00 2.57670E+00 1.30627E-05
 -1     25707-4.35509E+00 2.51623E+00-2.85375E-05
 -1     25708-5.16362E+00 3.03300E+00 3.17029E-05
 -1     25709-5.40236E+00 3.09613E+00 2.27835E-05
 -1     25710-4.54189E+00 2.98330E+00-2.17096E-05
 -1     25711-4.90306E+00 2.85894E+00 7.27406E-06
 -1     25712-4.08267E+00 2.74793E+00-1.34671E-05
 -1     25713-4.85084E+00 3.29686E+00 1.71776E-05
 -1     25714-4.95686E+00 3.06445E+00-3.60629E-05
 -1     25715-5.45554E+00 3.30902E+00-7.95536E-06
 -1     25716-5.49380E+00 2.89097E+00 4.47866E-05
 -1     25717 8.26935E-01 2.43435E+00-6.41214E-05
 -1     25718 7.22245E-01 2.16406E+00 4.81799E-05
 -1     25719 8.29628E-01 2.22247E+00-1.67094E-05
 -1     25720 4.83493E-01 1.31438E+00 6.31361E-06
 -1     25721 4.69898E-01 1.14404E+00 5.91534E-06
 -1     25722 5.82903E-01 1.54304E+00 1.34714E-05
 -1     25723 5.66655E-01 1.35977E+00 1.50285E-05
 -1     25724-1.70721E-01 1.78479E+01 4.42650E-06
 -1     25725-2.54810E-01 1.82327E+01-2.47631E-05
 -1     25726-4.28431E-01 1.78734E+01 2.76270E-05
 -1     25727 4.98009E-01 2.16091E+00-6.36724E-05
 -1     25728 3.55659E-01 1.66637E+00-1.65629E-05
 -1     25729 5.87847E-01 2.11953E+00 4.96767E-05
 -1     25730 3.37318E-01 1.91394E+00-9.65056E-06
 -1     25731 1.58920E+00 4.24619E+00-1.94896E-05
 -1     25732 1.69820E+00 4.60095E+00-8.19338E-05
 -1     25733 1.70051E+00 4.61038E+00 8.11342E-05
 -1     25734 1.92901E+00 1.06267E+01-2.12292E-05
 -1     25735 1.87082E+00 1.00799E+01-1.49877E-05
 -1     25736 1.71042E+00 1.02497E+01 2.47410E-05
 -1     25737 1.87691E+00 1.03550E+01-4.37922E-06
 -1     25738 2.02491E+00 1.01823E+01-1.65530E-05
 -1     25739 1.82032E+00 9.81736E+00-9.65896E-06
 -1     25740-6.13037E+00 4.38984E+00 1.05414E-05
 -1     25741-5.94595E+00 3.91620E+00-1.54340E-05
 -1     25742-5.52287E+00 4.00020E+00-1.59898E-05
 -1     25743-6.09207E+00 4.81699E+00 1.21686E-05
 -1     25744-6.55261E+00 4.71035E+00 2.01596E-05
 -1     25745-5.92675E+00 4.30660E+00 1.56195E-06
 -1     25746-1.45510E+01 1.50812E+01-1.22891E-05
 -1     25747-1.35403E+01 1.54675E+01-3.29228E-05
 -1     25748-1.34751E+01 1.50244E+01-1.27274E-05
 -1     25749-1.39546E+01 1.44826E+01-1.47488E-05
 -1     25750-1.40273E+01 1.49134E+01 1.39513E-05
 -1     25751-1.29708E+01 1.48570E+01 2.32594E-06
 -1     25752 4.25373E-01 8.97527E-01-3.03927E-06
 -1     25753 3.47411E-01 7.20738E-01-5.60658E-06
 -1     25754 4.28986E-01 8.64686E-01-2.84373E-06
 -1     25755-4.13949E+00 2.01412E+00 1.07380E-05
 -1     25756-3.96201E+00 1.89642E+00-5.79289E-05
 -1     25757-3.60490E+00 1.81271E+00-6.20461E-05
 -1     25758-3.75346E+00 1.74511E+00-6.11799E-05
 -1     25759-3.57545E+00 1.63663E+00 1.64492E-05
 -1     25760-2.55631E+00 2.25479E+01-1.30572E-04
 -1     25761-3.01494E+00 2.34180E+01 4.16232E-05
 -1     25762-2.83573E+00 2.30827E+01-1.11765E-04
 -1     25763-3.93195E+00 2.25153E+00-7.50741E-06
 -1     25764-3.61106E+00 1.99549E+00-1.49042E-05
 -1     25765-3.88731E+00 2.26751E+00-2.18753E-05
 -1     25766-4.01953E+00 2.08344E+00-1.03130E-06
 -1     25767-3.56940E+00 2.00916E+00-9.85638E-05
 -1     25768 5.58068E-01 1.01261E+00-4.11917E-05
 -1     25769-1.67108E+00 2.05408E+00-3.56926E-05
 -1     25770-1.34443E+00 1.93923E+00 1.68128E-04
 -1     25771-1.48189E+00 1.77339E+00 3.93801E-05
 -1     25772-4.67891E+00 2.39510E+00 4.63588E-05
 -1     25773-4.56064E+00 2.57020E+00 5.36869E-09
 -1     25774-3.87257E+00 2.26121E+00-1.00567E-05
 -1     25775-3.77248E+00 2.45415E+00-1.64892E-05
 -1     25776-1.14360E+00 1.62094E+00-1.40716E-04
 -1     25777-4.45561E+00 2.33407E+00 1.43943E-05
 -1     25778-4.50249E+00 2.31981E+00 2.91914E-06
 -1     25779-2.12425E+01 2.78058E+01 6.70677E-05
 -1     25780-2.16212E+01 2.87418E+01-5.09046E-04
 -1     25781-2.17721E+01 2.91260E+01-1.12279E-03
 -1     25782-1.24423E+00 2.81940E+00 1.04531E-04
 -1     25783-9.41854E-01 2.73366E+00-1.67195E-05
 -1     25784-1.09650E+00 3.06001E+00-2.43021E-05
 -1     25785 1.55150E+00 6.27959E+00-1.82995E-05
 -1     25786 1.34942E+00 6.18805E+00 8.98886E-06
 -1     25787 1.42088E+00 5.81511E+00 1.72197E-05
 -1     25788 4.47048E-01 1.18047E+01 1.34523E-05
 -1     25789 2.63146E-01 1.11085E+01 7.00131E-05
 -1     25790 1.87493E+00 9.29231E+00-1.27115E-05
 -1     25791 1.94473E+00 8.71733E+00 1.06720E-05
 -1     25792 1.98501E+00 9.29219E+00-2.36026E-05
 -1     25793 2.03070E+00 9.89989E+00 4.99330E-06
 -1     25794-3.20156E+00 1.71780E+00-5.80302E-06
 -1     25795-3.55531E+00 2.00395E+00 6.41549E-05
 -1     25796-3.30654E+00 1.61897E+00 3.14783E-05
 -1     25797-3.67809E+00 1.88733E+00 2.63591E-06
 -1     25798 1.54371E+00 4.79423E+00 2.86442E-05
 -1     25799 1.51659E+00 5.11724E+00-1.08675E-05
 -1     25800 1.69168E+00 5.60747E+00-9.75830E-05
 -1     25801 1.70650E+00 5.24972E+00 1.01091E-06
 -1     25802 1.32055E-02 4.40581E-02 9.82875E-05
 -1     25803 1.53754E-02 4.92267E-02-9.74364E-05
 -1     25804 1.29755E-02 4.35707E-02 1.08658E-04
 -1     25805 1.38459E+00 2.86470E+00 1.18978E-05
 -1     25806 1.36709E+00 2.80533E+00 1.25503E-05
 -1     25807 1.30577E+00 2.66633E+00-8.12775E-06
 -1     25808 1.29496E+00 2.60846E+00-1.72178E-05
 -1     25809 5.76306E-02 1.73179E-01 1.06670E-04
 -1     25810 5.96778E-02 1.74962E-01-1.65908E-05
 -1     25811-5.69751E+00 2.82081E+01 1.75802E-04
 -1     25812-5.56767E+00 2.80161E+01-1.18720E-04
 -1     25813-5.67367E+00 2.75195E+01 4.58808E-05
 -1     25814-5.05008E+00 2.76348E+01 1.14214E-04
 -1     25815-4.92846E+00 2.74434E+01 1.27779E-04
 -1     25816 1.47164E-02 2.85708E+00-1.01993E-05
 -1     25817 1.40425E-01 3.08334E+00-2.05342E-05
 -1     25818 2.96364E-02 9.63416E-02 2.26509E-05
 -1     25819 2.83374E-02 9.25762E-02-4.77552E-05
 -1     25820 3.01281E-02 9.77284E-02-1.97284E-07
 -1     25821-4.28005E+00 2.11010E+00 1.46762E-05
 -1     25822-4.77663E+00 2.34478E+00 2.68217E-05
 -1     25823-4.32472E+00 2.09832E+00-4.12029E-06
 -1     25824-4.88002E+00 1.05774E+01-1.28165E-06
 -1     25825 8.16572E-01 2.02685E+00 3.95012E-05
 -1     25826 8.48320E-01 2.08431E+00 2.91901E-05
 -1     25827 7.60785E-01 1.89597E+00 2.13751E-06
 -1     25828 7.30242E-01 1.84117E+00 3.15176E-05
 -1     25829 7.78328E-01 1.88244E+00 2.23711E-05
 -1     25830-9.59595E-01 3.29354E+00-5.19860E-05
 -1     25831-8.04363E-01 3.00265E+00-6.80474E-06
 -1     25832-7.10293E-01 3.32992E+00-5.57327E-06
 -1     25833 4.17229E-01 9.21605E-01-7.29508E-06
 -1     25834 3.34768E-01 7.62926E-01-1.71085E-05
 -1     25835 3.40499E-01 7.40539E-01-3.46916E-06
 -1     25836 4.33591E-01 1.18012E+00-7.15597E-06
 -1     25837 4.65308E-01 1.18666E+00-2.71775E-05
 -1     25838-1.38055E+00 1.55594E+00-7.56906E-05
 -1     25839-1.54745E+00 1.81010E+00-1.32909E-06
 -1     25840-6.49297E-01 1.89043E+00 2.10284E-05
 -1     25841-5.43361E-01 2.13993E+00-5.07493E-05
 -1     25842 6.32130E-01 1.56725E+00 1.54888E-05
 -1     25843 5.68178E-01 1.46451E+00 2.84151E-06
 -1     25844 6.10267E-01 1.44288E+00-1.39478E-05
 -1     25845 2.15439E+00 6.63906E+00-3.25810E-05
 -1     25846 2.13162E+00 6.24401E+00-4.79125E-05
 -1     25847 2.14798E+00 6.50446E+00-5.00903E-05
 -1     25848 4.50526E-02 6.37278E-02-1.89926E-06
 -1     25849 5.93965E-02 8.68938E-02-7.37165E-06
 -1     25850 5.50690E-02 8.09706E-02-1.67879E-05
 -1     25851 1.03585E-01 1.61464E-01 3.07442E-05
 -1     25852 1.10339E-01 1.70186E-01 1.72200E-05
 -1     25853 1.17659E-01 1.90570E-01 6.41403E-06
 -1     25854-3.33553E-02 1.17054E-02 5.86667E-05
 -1     25855-3.33062E-02 5.93069E-02 4.07129E-05
 -1     25856-6.31387E-02 4.59328E-02 1.00819E-04
 -1     25857-1.94961E+01 2.54095E+01 4.58083E-05
 -1     25858-1.95888E+01 2.46019E+01 1.02222E-04
 -1     25859-1.98394E+01 2.57699E+01 1.90843E-04
 -1     25860-1.99596E+01 2.61699E+01-1.07174E-04
 -1     25861-1.97118E+01 2.49846E+01-4.35383E-05
 -1     25862-2.00585E+01 2.53392E+01 1.61975E-04
 -1     25863 1.25532E+00 2.84386E+00-3.26491E-05
 -1     25864 1.31939E+00 2.97976E+00-1.44240E-05
 -1     25865 1.22294E+00 2.77741E+00-7.58601E-05
 -1     25866 4.05359E-01 9.49468E-01 1.99673E-05
 -1     25867 3.35124E-01 8.30780E-01-1.76913E-05
 -1     25868 3.08918E-01 7.55275E-01 4.50402E-07
 -1     25869 2.68546E-01 6.47852E-01-8.53379E-06
 -1     25870 1.04519E+00 1.40510E+01 3.86785E-05
 -1     25871 4.30068E-01 1.35229E+01 3.34819E-05
 -1     25872 9.02671E-01 1.45207E+01-5.57683E-06
 -1     25873 5.08164E-01 1.42502E+01 7.13700E-05
 -1     25874 1.68043E+00 4.30593E+00 1.22127E-04
 -1     25875 1.75662E+00 4.37191E+00-1.46894E-05
 -1     25876-7.34823E-02 5.88282E-02 6.50885E-06
 -1     25877-3.99742E-02 7.27462E-02 1.69487E-06
 -1     25878-3.34796E-02 1.20795E-02-2.14383E-05
 -1     25879 1.91825E+00 4.74452E+00 1.10985E-05
 -1     25880 1.83517E+00 4.39632E+00-3.98225E-05
 -1     25881 1.80286E+00 4.28757E+00 4.08969E-05
 -1     25882 1.85504E+00 4.48094E+00-2.17415E-05
 -1     25883 6.25538E-01 1.39467E+00-6.15805E-06
 -1     25884 6.92586E-01 1.58676E+00 3.33728E-07
 -1     25885-9.21710E-01 6.82471E+00 1.11634E-05
 -1     25886-7.74505E-01 7.36710E+00 1.28345E-05
 -1     25887-5.45725E-01 6.90693E+00 3.33186E-06
 -1     25888-2.07035E-02-8.01410E-03 3.93900E-05
 -1     25889-5.78176E-03-3.18736E-03-4.50944E-06
 -1     25890-2.72946E-02-7.47431E-03 4.04219E-05
 -1     25891-2.49509E-02-1.01514E-02-1.00265E-04
 -1     25892-7.30949E-03-4.05784E-03-6.13744E-06
 -1     25893 9.47431E-01 2.02047E+00 2.18882E-05
 -1     25894 9.17896E-01 2.05463E+00 3.21850E-05
 -1     25895 8.61950E-01 1.87509E+00 2.89679E-05
 -1     25896-3.57892E+00 5.33518E+00-7.51182E-06
 -1     25897-3.84383E+00 5.02631E+00 5.11341E-06
 -1     25898-4.09126E+00 5.48218E+00-9.29567E-07
 -1     25899-2.83048E-02-1.14521E-02-9.54909E-05
 -1     25900-1.36613E-01 1.41189E+00 8.55219E-06
 -1     25901 4.47569E-01 9.85797E-01 2.94664E-06
 -1     25902 4.17098E-01 8.41796E-01-6.89105E-06
 -1     25903 5.12738E-01 1.03666E+00 4.23258E-06
 -1     25904-5.81004E+00 1.03670E+01-5.86582E-06
 -1     25905-6.22810E+00 9.90484E+00-6.11957E-07
 -1     25906-8.69336E+00 7.22661E+00 6.41585E-06
 -1     25907-8.34618E+00 7.57965E+00 2.31612E-05
 -1     25908-1.11632E-01 4.48388E-02-7.25115E-05
 -1     25909-1.48700E-01 3.74463E-02 1.78194E-04
 -1     25910-8.75528E-02-9.04561E-04 6.44069E-05
 -1     25911 2.16407E+00 8.47728E+00 4.38866E-05
 -1     25912 2.05541E+00 8.22611E+00-2.07447E-05
 -1     25913 2.16218E+00 7.99610E+00-5.57934E-05
 -1     25914 2.14550E+00 8.30296E+00-1.51409E-05
 -1     25915-1.34731E+01 2.09962E+01-2.40291E-05
 -1     25916-4.55503E+00 2.18415E+00-1.49604E-05
 -1     25917-4.77942E+00 2.33926E+00 5.06660E-06
 -1     25918-4.38116E+00 2.27081E+00 9.68500E-05
 -1     25919-4.35856E+00 2.16461E+00 8.77497E-05
 -1     25920 1.19911E+00 3.68987E+00-3.77473E-06
 -1     25921 1.21424E+00 3.42382E+00-1.48908E-05
 -1     25922 1.08295E+00 3.33461E+00-2.59649E-06
 -1     25923 1.05319E+00 3.60015E+00-9.29417E-06
 -1     25924-9.80266E-02 1.68257E-02-1.64755E-03
 -1     25925-1.42681E-01 5.77437E-02-1.61302E-03
 -1     25926-8.90428E-02 8.64208E-03 1.74122E-03
 -1     25927-4.31836E+00 1.35247E+01 2.21826E-06
 -1     25928-3.66076E+00 1.36364E+01 9.05441E-06
 -1     25929-3.86491E+00 1.28673E+01 2.81196E-06
 -1     25930-8.84246E-02-1.85971E-02 5.67402E-05
 -1     25931-8.81621E-02-1.17608E-02 1.09005E-04
 -1     25932-9.22960E-02-1.44770E-02 4.14537E-05
 -1     25933-2.09764E-01 1.87255E-02 5.50489E-05
 -1     25934-1.98217E-01 2.07034E-02 1.50778E-04
 -1     25935-1.87233E-01 3.17407E-02 1.05320E-04
 -1     25936-6.83594E-02-1.39629E-02 8.43743E-05
 -1     25937-6.80971E-02-6.79032E-03 9.05751E-06
 -1     25938-1.46935E-01 3.47353E-02-1.38961E-04
 -1     25939-1.59203E-01 2.04324E-02-2.70055E-05
 -1     25940-1.22343E-01 2.46859E-02 1.32310E-05
 -1     25941-8.36326E+00 1.39014E+01-2.19898E-05
 -1     25942-8.12793E+00 1.29940E+01 1.67484E-05
 -1     25943-8.42419E+00 1.39434E+01-1.36067E-05
 -1     25944-8.96539E+00 1.31979E+01 1.88274E-06
 -1     25945-2.40231E-01 4.59796E-01 8.98303E-06
 -1     25946-3.27014E-01 6.14434E-01-6.34973E-06
 -1     25947-8.61927E+00 6.39890E+00 2.11354E-05
 -1     25948-8.48446E+00 6.23888E+00 1.90649E-05
 -1     25949-8.42678E+00 5.75371E+00-1.21727E-05
 -1     25950-8.02507E+00 6.15393E+00-1.13310E-05
 -1     25951-8.29011E+00 5.60485E+00-8.20056E-06
 -1     25952 3.07938E-02 6.46401E-02 1.82434E-05
 -1     25953 3.07615E-02 6.54996E-02 5.82038E-06
 -1     25954-4.51818E+00 8.47408E+00-3.28293E-06
 -1     25955-9.02581E+00 6.89195E+00-7.33690E-05
 -1     25956-1.20273E+00 8.15957E-01-8.58057E-05
 -1     25957-1.41553E+00 1.01796E+00-8.50978E-05
 -1     25958-1.25819E+00 6.92232E-01-6.75023E-05
 -1     25959-1.06700E+00 6.75780E-01-1.58589E-04
 -1     25960-1.50525E+00 8.81784E-01-2.66953E-04
 -1     25961-3.13264E-01 5.20718E-02 2.54451E-04
 -1     25962-4.27198E-01 1.40789E-01 1.44452E-04
 -1     25963-2.55424E-01 3.28571E-02 1.78206E-04
 -1     25964-1.81396E-01-2.93894E-03 2.50998E-05
 -1     25965-2.89300E-01 5.05548E-02 1.69500E-04
 -1     25966-9.43786E+00 7.40821E+00 3.55579E-06
 -1     25967-9.23089E+00 7.14697E+00-2.28498E-05
 -1     25968-3.43908E+00 1.67839E+01-2.65944E-05
 -1     25969-3.63341E+00 1.59303E+01 3.09980E-06
 -1     25970-6.42087E-01 1.66088E+00-1.83844E-07
 -1     25971-5.10057E+00 1.56930E+01-1.03668E-05
 -1     25972-5.86245E+00 1.53888E+01-2.30405E-05
 -1     25973-5.62850E+00 1.62211E+01-2.06742E-05
 -1     25974-4.52578E-01 1.87260E+01-4.60791E-05
 -1     25975-3.61508E+00 2.61960E+00 1.06773E-06
 -1     25976-3.90962E+00 2.92828E+00-5.50008E-05
 -1     25977-6.49940E+00 1.61456E+01-1.01511E-05
 -1     25978 8.99978E-02 5.29804E-01 1.59129E-06
 -1     25979-4.74571E+00 9.06833E+00-1.32010E-06
 -1     25980-4.06755E+00 8.92006E+00-2.97103E-06
 -1     25981-2.42501E+00 1.17090E+01-3.46949E-06
 -1     25982-2.61699E+00 1.09808E+01-3.61115E-08
 -1     25983-2.05954E+00 1.11243E+01 1.82462E-06
 -1     25984-6.66111E+00 1.50641E+01-1.25376E-05
 -1     25985 6.93236E-01 2.38291E+00 2.63915E-05
 -1     25986 7.96358E-01 2.66749E+00-4.48936E-05
 -1     25987-1.17252E-01 1.22930E-01 3.31180E-05
 -1     25988-6.97732E-02 1.37040E-01 2.55996E-06
 -1     25989-8.88056E+00 6.71378E+00-2.42965E-05
 -1     25990-1.55264E+01 1.82743E+01-1.90512E-05
 -1     25991-1.70040E+01 1.80008E+01-1.23949E-05
 -1     25992-1.54276E+01 1.87779E+01-4.21801E-05
 -1     25993-1.58498E+01 1.89442E+01-9.09500E-05
 -1     25994-1.73525E+01 1.86598E+01 1.59064E-05
 -1     25995-1.74010E-01 2.08062E-01 1.73246E-05
 -1     25996-1.12484E-01 2.21921E-01 2.28969E-05
 -1     25997-3.02720E+00 1.37184E+01 1.42257E-05
 -1     25998-3.23603E+00 1.29460E+01 5.01848E-06
 -1     25999-4.59905E+00 1.27381E+01 2.50239E-06
 -1     26000-3.46325E+00 1.21969E+01 6.35580E-07
 -1     26001-4.16902E+00 1.20710E+01 5.06989E-08
 -1     26002-3.56762E+00 8.36225E+00-2.16282E-06
 -1     26003-3.55828E+00 9.36292E+00 5.53621E-06
 -1     26004-3.05169E+00 8.37172E+00-5.35997E-06
 -1     26005-1.67968E+01 1.75059E+01 1.39995E-05
 -1     26006-1.64952E+01 1.69566E+01 6.04480E-06
 -1     26007-1.63257E+01 1.66519E+01-4.45026E-05
 -1     26008 1.78232E-01 2.80769E-01-3.77632E-05
 -1     26009 1.82855E-01 2.93208E-01-5.14840E-05
 -1     26010 2.65305E-01 4.29302E-01-4.97790E-06
 -1     26011 2.18492E-01 3.44112E-01-5.75879E-05
 -1     26012 1.43630E-01 2.21787E-01-5.53231E-06
 -1     26013-5.72085E-01 7.70315E-01-2.52254E-05
 -1     26014-8.64065E-01 8.70092E-01 3.97975E-06
 -1     26015-6.92130E-01 7.11836E-01-2.12391E-05
 -1     26016-4.42073E-01 6.07393E-01 2.06522E-05
 -1     26017-6.90170E-01 6.90398E-01-6.30201E-05
 -1     26018-2.03532E+00 9.73374E-01-1.68031E-04
 -1     26019-2.23350E+00 1.14118E+00 1.73342E-04
 -1     26020-2.29121E+00 1.07846E+00-7.72353E-05
 -1     26021-1.70923E+00 7.91778E-01-1.86022E-04
 -1     26022-1.91770E+00 9.46553E-01 3.00712E-05
 -1     26023 3.57229E-02 5.15222E-02 6.62627E-05
 -1     26024 1.20704E-01 1.82139E-01-3.79453E-05
 -1     26025 8.43123E-02 1.26482E-01 8.62318E-05
 -1     26026 3.18217E-02 4.46412E-02 2.74213E-05
 -1     26027 7.67500E-02 1.12771E-01 5.87239E-05
 -1     26028-2.60067E+00 1.25864E+00 7.11193E-05
 -1     26029-2.54102E+00 1.34519E+00 1.09799E-04
 -1     26030 6.98190E-01 1.49365E+01-4.37585E-05
 -1     26031 1.14234E-01 1.41161E+01 6.49040E-05
 -1     26032 7.76333E-01 1.46963E+01-7.83319E-06
 -1     26033 1.78270E+00 6.41667E+00-1.93560E-05
 -1     26034 1.66076E+00 5.97023E+00 6.20003E-05
 -1     26035-1.08811E+00 1.34893E+00 7.93052E-05
 -1     26036-1.27691E+00 1.28972E+00-8.74616E-05
 -1     26037-1.09892E+00 1.41231E+00-4.64575E-05
 -1     26038-7.34230E-01 9.83589E-01-2.95771E-05
 -1     26039-8.79616E-01 9.23785E-01 9.85719E-05
 -1     26040-2.61419E+00 1.30742E+01 6.85300E-06
 -1     26041-1.18623E+00 9.37271E-01-1.42215E-04
 -1     26042-9.99920E-01 7.47116E-01 1.56622E-04
 -1     26043-9.98897E-01 8.70224E-01 2.33637E-06
 -1     26044 5.05774E-02 7.88844E-02 1.17938E-04
 -1     26045 1.42332E+00 3.08721E+00 7.03293E-06
 -1     26046 1.30228E+00 2.72911E+00 4.31721E-05
 -1     26047 1.38780E+00 2.91752E+00-4.47551E-05
 -1     26048 1.51636E+00 1.23563E+01 3.16119E-05
 -1     26049 1.50479E+00 1.17283E+01 3.32942E-05
 -1     26050 1.27906E+00 1.16889E+01 3.20541E-05
 -1     26051 1.55131E+00 1.15300E+01 2.03067E-05
 -1     26052-8.04852E+00 2.20923E+01 6.03113E-05
 -1     26053-7.28780E+00 2.26033E+01-3.52933E-06
 -1     26054-1.76595E+01 3.05510E+01-3.08507E-04
 -1     26055-1.89442E+01 3.05345E+01-6.45828E-04
 -1     26056-1.78771E+01 2.94735E+01-1.51363E-05
 -1     26057-1.79119E+01 3.00078E+01-8.18618E-05
 -1     26058-1.89860E+01 3.10974E+01-7.69913E-05
 -1     26059-1.92211E+01 2.99597E+01-8.33148E-04
 -1     26060 1.43005E+00 3.23688E+00-1.31186E-06
 -1     26061 1.49327E+00 3.38871E+00-2.09492E-05
 -1     26062 1.52452E+00 3.46696E+00-5.70238E-06
 -1     26063-1.15810E+01 2.94999E+01-1.23263E-04
 -1     26064-1.12316E+01 2.94470E+01 1.09136E-05
 -1     26065-1.18737E+01 2.84844E+01-1.94864E-04
 -1     26066-5.45502E+00 2.47655E+01 1.19017E-04
 -1     26067-4.55247E+00 2.48677E+01 1.05392E-04
 -1     26068 1.84806E+00 8.99892E+00-3.38612E-06
 -1     26069 1.73384E+00 8.92005E+00 1.31847E-06
 -1     26070 1.65967E+00 9.72042E+00-1.59770E-05
 -1     26071 1.78644E+00 9.80405E+00-1.73867E-05
 -1     26072 1.73243E+00 8.91498E+00 6.45125E-06
 -1     26073-6.40726E+00 2.87929E+01 1.17581E-05
 -1     26074-6.40555E+00 2.87947E+01 3.23951E-04
 -1     26075-5.87851E+00 2.80429E+01 1.48342E-04
 -1     26076 9.38616E-01 4.15215E+00-4.54685E-06
 -1     26077 9.74276E-01 4.86716E+00 2.84034E-07
 -1     26078-2.06317E+01 2.65807E+01-5.88196E-04
 -1     26079-2.07292E+01 2.57392E+01 2.87665E-04
 -1     26080-1.92127E+01 2.64692E+01 2.04988E-04
 -1     26081-1.93207E+01 2.56272E+01-2.17778E-04
 -1     26082 3.32031E-01 9.92567E-01-5.22016E-06
 -1     26083 2.70269E-01 7.55543E-01 1.70539E-05
 -1     26084 3.25282E-01 8.86241E-01 4.23164E-05
 -1     26085 3.64445E-01 1.00930E+00-3.48245E-05
 -1     26086 3.09489E-01 8.78193E-01-5.71156E-06
 -1     26087 1.34484E+00 2.94320E+00-1.25829E-05
 -1     26088 1.38602E+00 3.02031E+00-4.19325E-06
 -1     26089 1.49108E+00 3.28100E+00 2.62741E-07
 -1     26090 1.45166E+00 3.19813E+00-9.08501E-06
 -1     26091 1.41237E+00 3.12784E+00 4.06111E-06
 -1     26092 5.90641E-01 8.81533E+00-1.29486E-05
 -1     26093 2.41682E-01 8.70883E+00 1.31533E-05
 -1     26094 3.97879E-01 9.30797E+00-5.28287E-06
 -1     26095-1.37123E+01 2.57334E+01 8.58509E-05
 -1     26096-1.49752E+01 2.59997E+01 4.81407E-06
 -1     26097-1.43996E+01 2.46586E+01-3.67689E-05
 -1     26098-1.57034E+01 2.49021E+01-1.56469E-04
 -1     26099 1.78981E+00 4.67489E+00-2.84817E-06
 -1     26100 1.75736E+00 4.37537E+00 1.58377E-05
 -1     26101 1.68139E+00 4.31150E+00-1.30622E-04
 -1     26102-7.10468E+00 2.88562E+01-1.09494E-04
 -1     26103-7.36774E+00 2.88814E+01 1.39431E-04
 -1     26104-6.40579E+00 2.87937E+01 1.92269E-04
 -1     26105-9.76096E+00 2.81106E+01 9.77811E-05
 -1     26106-8.90361E+00 2.75502E+01-1.41204E-04
 -1     26107-9.85906E+00 2.78754E+01 2.68874E-04
 -1     26108-1.01824E+01 2.69637E+01 4.48217E-05
 -1     26109-9.32212E+00 2.64066E+01-1.70983E-04
 -1     26110 1.63493E+00 1.11571E+01-1.24535E-05
 -1     26111 1.84455E+00 1.11101E+01 2.57874E-06
 -1     26112 1.55376E+00 1.08485E+01-2.57377E-05
 -1     26113 1.77309E+00 1.14828E+01 2.15199E-05
 -1     26114-8.17153E-01 1.96994E+01-3.14526E-06
 -1     26115-7.26010E-01 1.94839E+01-3.60725E-05
 -1     26116-1.62429E+00 1.99032E+01 3.84366E-05
 -1     26117-1.72805E+00 2.01206E+01 3.74187E-05
 -1     26118-1.72542E+00 1.95980E+01 2.28819E-05
 -1     26119-2.83407E+00 7.07717E+00-2.31176E-05
 -1     26120-3.06852E+00 7.50296E+00-9.33106E-06
 -1     26121-3.31747E+00 7.18188E+00 1.19346E-05
 -1     26122 1.94474E+00 6.10971E+00-1.33354E-05
 -1     26123 1.93529E+00 6.49554E+00 3.88168E-05
 -1     26124-2.04678E+01 2.61962E+01 4.19920E-04
 -1     26125-2.05631E+01 2.53660E+01 2.64163E-04
 -1     26126 1.63644E+00 3.75861E+00-4.93303E-05
 -1     26127 1.60654E+00 3.67486E+00-4.93363E-06
 -1     26128 1.69497E+00 3.93152E+00-3.39912E-05
 -1     26129-3.66106E+00 1.70698E+00 6.67993E-05
 -1     26130-3.60152E+00 1.71077E+00-2.72444E-05
 -1     26131-3.35290E+00 1.52159E+00 6.63422E-06
 -1     26132-3.56353E+00 1.54643E+00-7.80170E-05
 -1     26133-9.26238E+00 1.41359E+01-1.92097E-06
 -1     26134-9.81528E+00 1.33859E+01 1.89001E-05
 -1     26135-3.18173E+00 1.48546E+00-5.28065E-05
 -1     26136-2.87857E+00 1.31023E+00 2.12929E-04
 -1     26137-2.93105E+00 1.46569E+00-5.69920E-05
 -1     26138-3.77978E+00 1.07622E+01-1.99371E-06
 -1     26139-2.26803E+00 1.81557E+00 2.04433E-05
 -1     26140-2.15341E+00 1.97470E+00 1.20338E-05
 -1     26141-2.64930E+00 1.93701E+00-2.73530E-05
 -1     26142-2.52665E+00 2.09211E+00 2.71135E-05
 -1     26143-2.84731E+00 1.56378E+00 1.18037E-04
 -1     26144 1.77745E+00 4.25413E+00-7.14346E-05
 -1     26145 1.84693E+00 4.59046E+00-1.07629E-05
 -1     26146 1.68600E+00 3.89531E+00-3.22541E-05
 -1     26147 1.75509E+00 4.09390E+00 4.68547E-05
 -1     26148-1.20868E+00 4.24981E+00-1.30993E-05
 -1     26149-8.88639E-01 4.09957E+00-2.92255E-05
 -1     26150-9.17935E-01 4.61469E+00-6.28780E-06
 -1     26151-6.70207E+00 4.97137E+00 3.42792E-06
 -1     26152-6.43663E+00 5.23966E+00 6.43808E-07
 -1     26153-7.06741E+00 5.39931E+00-1.31002E-05
 -1     26154 2.14387E-02 3.27798E-02 1.89152E-05
 -1     26155 2.41710E-02 4.50253E-02-2.64019E-05
 -1     26156 3.51140E-02 5.71226E-02-1.45969E-07
 -1     26157 1.30386E-02 1.76199E-02-7.44436E-06
 -1     26158 8.71578E-03 1.19747E-02 6.56735E-06
 -1     26159 1.22512E+00 2.49184E+00 8.42440E-06
 -1     26160-9.28265E-02 3.44421E-01 1.18597E-05
 -1     26161 1.94055E+00 4.85124E+00 5.08957E-05
 -1     26162 1.91733E+00 4.79192E+00 6.64758E-06
 -1     26163 2.01213E+00 5.20700E+00 3.73954E-06
 -1     26164 1.89554E+00 4.64488E+00 2.76467E-05
 -1     26165 1.97083E+00 4.98806E+00 3.15006E-05
 -1     26166-5.30445E+00 2.78492E+01-3.21483E-04
 -1     26167-5.75082E+00 2.85080E+01-5.64010E-04
 -1     26168-5.12318E+00 2.75722E+01-4.14284E-05
 -1     26169 4.03297E-01 1.22378E+00-1.68349E-06
 -1     26170 4.43956E-01 1.31139E+00-3.88626E-06
 -1     26171 3.83993E-01 1.18067E+00-1.45050E-05
 -1     26172 6.53485E-01 1.51637E+01 2.26867E-05
 -1     26173 5.68533E-01 1.44070E+01 2.18762E-05
 -1     26174 1.58588E-01 1.41369E+01-3.09108E-06
 -1     26175-7.82747E-01 1.23061E+00 3.07616E-05
 -1     26176-7.50783E-01 1.64162E+00 7.91461E-05
 -1     26177-7.29548E-01 1.42736E+00-6.20121E-05
 -1     26178-1.07602E+00 1.83438E+00-3.18246E-05
 -1     26179-1.51766E-01 1.10006E+01 1.22739E-05
 -1     26180 2.55772E-01 1.10976E+01-5.41341E-05
 -1     26181-3.81503E-02 1.03615E+01 1.04454E-05
 -1     26182-5.93892E+00 2.81287E+01 3.21290E-04
 -1     26183-6.04904E+00 2.74903E+01 2.36169E-05
 -1     26184-2.14798E+00 1.94454E+01 8.66434E-05
 -1     26185-2.83439E+00 1.92923E+01 1.46479E-05
 -1     26186-2.41495E+00 1.85022E+01-8.72544E-06
 -1     26187-2.35379E+00 1.61765E+01 2.97391E-07
 -1     26188-1.96711E+00 1.54665E+01 3.16771E-05
 -1     26189-2.14766E+00 1.94478E+01-5.75596E-06
 -1     26190-1.87179E+00 2.04168E+01-1.59699E-05
 -1     26191-1.05832E+00 2.00495E+01-4.35799E-05
 -1     26192-1.33568E+00 1.90867E+01-2.71698E-06
 -1     26193-1.84723E+00 1.96545E+01 1.87475E-05
 -1     26194-1.61574E+01 1.65981E+01-1.74420E-05
 -1     26195-1.59892E+01 1.62972E+01-3.47700E-05
 -1     26196-1.61655E+01 1.71307E+01 3.82273E-06
 -1     26197-1.97146E+01 2.77514E+01 4.90507E-04
 -1     26198-1.94345E+01 2.91785E+01 1.06353E-04
 -1     26199-1.94686E+01 2.79733E+01-4.94500E-04
 -1     26200-2.03053E+01 2.78444E+01 4.93009E-04
 -1     26201-2.02757E+01 2.90499E+01-8.72580E-04
 -1     26202-2.00171E+01 2.92852E+01 7.37658E-04
 -1     26203 7.71837E-02 1.71991E+01-1.61169E-05
 -1     26204-2.51277E-01 1.80529E+01-3.80769E-07
 -1     26205-1.53943E+00 2.24199E+00-9.31200E-05
 -1     26206-1.57779E+00 2.74537E+00 1.41246E-05
 -1     26207 2.17312E+00 6.68770E+00-1.88089E-06
 -1     26208 2.17879E+00 6.82357E+00-1.99612E-05
 -1     26209 2.15780E+00 6.42092E+00 3.08592E-05
 -1     26210-8.48091E-01 2.97675E+00-5.64933E-05
 -1     26211-8.09360E-01 2.67100E+00-1.42787E-05
 -1     26212-8.30371E+00 2.64058E+01 2.65432E-04
 -1     26213-1.66972E+01 2.10289E+01-2.42331E-05
 -1     26214-1.73447E+01 2.13959E+01-2.49630E-05
 -1     26215-1.71858E+01 2.07047E+01-2.63105E-05
 -1     26216-1.74362E+01 2.13738E+01-3.84350E-05
 -1     26217-2.03591E+00 8.43005E-01-4.35146E-04
 -1     26218-1.93148E+00 8.00596E-01-8.18383E-04
 -1     26219-1.80650E+00 7.83050E-01-2.08698E-04
 -1     26220-2.31225E+00 9.78734E-01-3.52789E-05
 -1     26221-2.21432E+00 9.33272E-01-2.55580E-04
 -1     26222-1.52017E+01 1.97132E+01 2.54245E-05
 -1     26223-1.49676E+01 1.94388E+01-3.29794E-05
 -1     26224-1.53857E+01 1.92747E+01-2.84755E-05
 -1     26225-1.66458E+01 1.99182E+01-4.13391E-05
 -1     26226-1.63980E+01 1.96439E+01-2.26555E-06
 -1     26227 1.81397E+00 6.04422E+00-8.69882E-07
 -1     26228-1.70590E+00 7.91678E-01 2.12065E-04
 -1     26229-1.69052E+00 7.41491E-01 4.38616E-05
 -1     26230-1.34357E+00 5.99658E-01 2.27748E-04
 -1     26231-1.43898E+00 6.41459E-01 3.06498E-04
 -1     26232-1.40268E+00 6.04517E-01-4.89147E-05
 -1     26233-2.41842E-01 2.01649E-01 3.31645E-05
 -1     26234-3.11170E-01 1.97549E-01 5.59075E-05
 -1     26235-2.22194E-01 1.07835E-01 4.75840E-05
 -1     26236-1.81058E+00 7.96345E-01 3.44132E-04
 -1     26237 2.14553E+00 7.10018E+00-1.67547E-05
 -1     26238 2.14480E+00 6.95878E+00 5.72046E-06
 -1     26239 2.14283E+00 7.38523E+00-3.74229E-06
 -1     26240 1.83464E-01 1.24846E+01-2.91496E-05
 -1     26241 3.83030E-01 1.32318E+01-2.17802E-05
 -1     26242 6.39533E-01 1.25261E+01 2.18907E-05
 -1     26243-3.88602E+00 2.43908E+01-3.52059E-05
 -1     26244-3.99610E+00 2.36531E+01 7.60071E-05
 -1     26245-4.29744E+00 2.47138E+01 6.44641E-05
 -1     26246-4.44267E+00 2.56214E+01-3.55071E-05
 -1     26247-4.13454E+00 2.45425E+01-1.00439E-04
 -1     26248-3.03671E-03-1.51396E-03 5.03836E-05
 -1     26249-4.52692E-03-2.38351E-03-1.84484E-05
 -1     26250-5.63548E-04 3.42039E-03-4.21897E-05
 -1     26251-7.52614E-03 1.90207E-03 2.03837E-05
 -1     26252-3.47436E-03 1.20572E-03 1.00600E-05
 -1     26253-2.77248E+00 1.15851E+00-2.07987E-05
 -1     26254-2.89583E+00 1.21863E+00 9.67864E-05
 -1     26255-2.51726E+00 1.11338E+00 6.02355E-05
 -1     26256-2.43534E+00 1.03690E+00-1.00032E-04
 -1     26257 7.49187E-01 9.41599E+00 1.53366E-06
 -1     26258 1.07550E+00 9.51929E+00-1.33752E-05
 -1     26259 9.16351E-01 8.91700E+00 1.28631E-05
 -1     26260-1.96711E-01 7.01905E+00 8.24029E-06
 -1     26261 1.11121E+00 1.36026E+01 2.88482E-06
 -1     26262 1.56725E+00 1.09214E+01 2.07059E-05
 -1     26263 1.37133E+00 1.08497E+01 1.74900E-05
 -1     26264 1.92903E+00 1.06266E+01-2.90640E-06
 -1     26265 2.02493E+00 1.01822E+01-1.73617E-06
 -1     26266 1.50459E+00 1.02928E+01-1.53233E-05
 -1     26267 5.32497E-01 1.33957E+00-9.83368E-06
 -1     26268 4.97733E-01 1.33861E+00 3.91474E-05
 -1     26269-1.16256E+01 2.84642E+01 1.47467E-04
 -1     26270-1.28573E+01 1.13063E+01-2.42015E-05
 -1     26271-1.25505E+01 1.08569E+01-1.33693E-05
 -1     26272-1.23925E+01 1.06291E+01-2.36044E-05
 -1     26273-1.76411E+01 2.06337E+01-9.58698E-06
 -1     26274-1.72920E+01 2.02752E+01-8.91202E-06
 -1     26275-1.78373E+01 2.01858E+01 1.56259E-05
 -1     26276-8.04663E+00 9.83905E+00 3.02322E-05
 -1     26277-8.90327E+00 9.70153E+00 2.77166E-05
 -1     26278-7.30809E+00 9.63959E+00 2.76358E-05
 -1     26279-8.13635E+00 9.50052E+00-2.13116E-05
 -1     26280 1.58183E-01 1.66833E+01-2.04169E-05
 -1     26281 1.43840E+00 7.80032E+00 1.33490E-05
 -1     26282 1.04439E+00 7.41674E+00-8.20608E-06
 -1     26283 1.52828E+00 7.35990E+00-1.43542E-05
 -1     26284 1.16276E+00 6.98963E+00-1.35380E-06
 -1     26285 1.78248E+00 4.21915E+00-4.73089E-05
 -1     26286 1.72679E+00 4.03554E+00-1.35879E-05
 -1     26287 1.77073E+00 4.14153E+00-1.73543E-05
 -1     26288 1.87180E+00 4.54429E+00 4.88922E-05
 -1     26289 1.82232E+00 4.34899E+00-1.44970E-06
 -1     26290-4.75568E+00 1.99033E+01 7.48422E-05
 -1     26291-5.30537E+00 2.07527E+01 7.87146E-06
 -1     26292-5.55319E+00 1.97791E+01 4.13290E-06
 -1     26293 1.26449E+00 6.58033E+00-4.28770E-06
 -1     26294 9.06808E-01 6.90213E+00 1.86695E-06
 -1     26295-4.07077E+00 1.42916E+01 7.95972E-06
 -1     26296-4.65795E+00 1.42110E+01-4.97053E-06
 -1     26297-3.86445E+00 1.51008E+01 6.62517E-06
 -1     26298-4.45634E+00 1.50171E+01 1.57172E-06
 -1     26299 7.66663E-01 7.32449E+00 3.58156E-06
 -1     26300-2.38240E+00 2.25638E+00 1.35800E-05
 -1     26301 1.68686E+00 3.89849E+00 2.79851E-05
 -1     26302 1.71874E+00 3.95208E+00-6.25889E-06
 -1     26303 1.62782E+00 3.64199E+00 2.45858E-06
 -1     26304 1.30833E+00 4.03173E+00-1.04436E-05
 -1     26305-7.09461E-01 2.75158E-01 3.49486E-04
 -1     26306-7.85742E-01 3.53434E-01 2.82551E-04
 -1     26307-9.60562E-01 4.33452E-01-8.97157E-05
 -1     26308-1.22847E+00 3.41791E+00-1.29431E-05
 -1     26309 1.70077E+00 3.88777E+00-7.73711E-06
 -1     26310 1.77592E+00 4.19368E+00 1.85326E-05
 -1     26311 1.62383E+00 3.64241E+00 1.34296E-05
 -1     26312 1.69622E+00 3.89070E+00-6.63443E-06
 -1     26313 1.09249E+00 2.34233E+00-9.14313E-05
 -1     26314 1.15806E+00 2.51830E+00-3.12564E-05
 -1     26315 1.16310E+00 2.46947E+00 7.26854E-06
 -1     26316-4.06528E+00 2.12142E+00-6.12624E-06
 -1     26317-1.12938E+01 2.86567E+01-6.83814E-05
 -1     26318-1.15453E+01 2.73758E+01 1.95469E-04
 -1     26319-1.09769E+01 2.71674E+01-1.18575E-04
 -1     26320-1.07259E+01 2.86024E+01-1.89554E-05
 -1     26321-1.12920E+01 2.88178E+01-7.75188E-05
 -1     26322-1.95102E+01 2.69483E+01-1.44656E-04
 -1     26323-2.09242E+01 2.70202E+01-1.01828E-05
 -1     26324-1.94647E+01 2.60647E+01 3.04733E-04
 -1     26325-2.08590E+01 2.61376E+01-5.08468E-04
 -1     26326 4.49914E-01 1.31357E+00 2.58885E-06
 -1     26327 3.88014E-01 1.18011E+00-1.84207E-05
 -1     26328 4.13510E-01 1.23613E+00-3.66200E-05
 -1     26329-4.88738E-01 2.20556E+00 4.12051E-05
 -1     26330-3.44181E+00 2.14266E+00-4.68750E-05
 -1     26331-3.04946E+00 2.05807E+00-2.12422E-05
 -1     26332-3.17036E+00 1.91979E+00-2.54009E-05
 -1     26333-4.01435E+00 2.13224E+00 6.10332E-06
 -1     26334 2.14911E+00 7.99611E+00 4.51781E-05
 -1     26335 2.16491E+00 7.54480E+00 4.21159E-05
 -1     26336 2.16118E+00 7.69235E+00 3.42863E-05
 -1     26337 2.11028E+00 5.99100E+00-2.61856E-05
 -1     26338 1.93386E+00 5.33205E+00-9.26009E-07
 -1     26339 1.98798E+00 5.33098E+00 4.29871E-05
 -1     26340 2.09785E+00 5.86759E+00 1.22126E-05
 -1     26341 1.97445E+00 5.21849E+00-6.92080E-05
 -1     26342 1.79741E+00 4.35140E+00 7.30222E-05
 -1     26343 1.86474E+00 4.69009E+00 7.86724E-05
 -1     26344 1.64766E+00 3.74286E+00-1.68079E-05
 -1     26345 1.66592E+00 3.84408E+00-3.05128E-05
 -1     26346 1.67880E+00 3.80065E+00-6.07554E-05
 -1     26347 1.64951E+00 3.70101E+00 9.50828E-05
 -1     26348 1.70555E+00 3.90872E+00-5.80799E-05
 -1     26349 2.14092E+00 8.15020E+00 3.32612E-05
 -1     26350 1.10558E+00 3.09894E+00 1.79910E-05
 -1     26351 1.19848E+00 1.01957E+01-1.30719E-05
 -1     26352 8.64818E-01 1.00861E+01 2.76570E-05
 -1     26353-1.18711E+00 5.36244E-01 3.29019E-04
 -1     26354-1.23112E+00 6.07844E-01 4.35601E-04
 -1     26355-1.20558E+00 3.49272E+00-1.58097E-05
 -1     26356 3.11624E-02 6.72225E-02 2.11901E-05
 -1     26357 3.12370E-02 6.64345E-02-1.64375E-05
 -1     26358 3.12863E-02 6.45309E-02-1.85242E-05
 -1     26359 6.24536E-02 1.11742E-01 6.84989E-05
 -1     26360-2.07919E+01 3.05183E+01 1.48378E-03
 -1     26361-2.00485E+01 2.98492E+01 4.48569E-05
 -1     26362-1.99704E+01 3.12174E+01-9.08634E-04
 -1     26363-1.94675E+01 2.97294E+01 5.71265E-04
 -1     26364 1.94570E-01 3.24505E-01 4.20742E-05
 -1     26365 2.72762E-01 4.50279E-01 1.29911E-05
 -1     26366-1.07503E+01 2.93773E+01 7.43422E-05
 -1     26367-1.55863E+01 3.05909E+01 4.24331E-05
 -1     26368-1.56772E+01 2.95721E+01-2.01483E-04
 -1     26369-1.47934E+01 2.99905E+01 2.31012E-04
 -1     26370-1.63475E+01 3.07098E+01 5.02102E-05
 -1     26371-1.55313E+01 3.00979E+01 2.32542E-05
 -1     26372 1.10066E+00 2.64245E+00 1.98201E-05
 -1     26373 9.34550E-01 2.51066E+00 1.73192E-04
 -1     26374 9.37456E-01 2.50706E+00-1.75276E-04
 -1     26375 1.03018E+00 2.26050E+00 1.35511E-04
 -1     26376 1.02883E+00 2.26353E+00-1.61116E-04
 -1     26377 8.88827E-01 2.12902E+00-3.90912E-06
 -1     26378-4.16317E-02-1.55596E-02 3.32920E-05
 -1     26379-3.60523E-02-1.41458E-02-8.15627E-05
 -1     26380 1.85964E+00 4.73315E+00-4.91993E-06
 -1     26381 1.20630E-01 3.00057E-01 9.05869E-06
 -1     26382 1.73056E-01 4.50583E-01 2.23340E-06
 -1     26383 1.98599E-01 4.88034E-01-7.84954E-06
 -1     26384 1.88067E-01 4.69592E-01-3.47427E-05
 -1     26385 5.74711E-01 1.56953E+00 1.95296E-05
 -1     26386 5.38615E-01 1.46231E+00 1.66859E-05
 -1     26387 5.51755E-01 1.53923E+00 4.58845E-06
 -1     26388 6.18210E-01 1.66020E+00 3.26105E-06
 -1     26389 5.81547E-01 1.55151E+00 2.88176E-06
 -1     26390-1.05866E+01 2.95126E+01 4.09060E-05
 -1     26391-9.71900E+00 2.87903E+01-2.64371E-04
 -1     26392-9.84848E+00 2.96083E+01 2.17601E-04
 -1     26393-9.98539E+00 2.88641E+01 3.97841E-05
 -1     26394-1.03027E+01 2.94717E+01-3.83856E-05
 -1     26395-9.56707E+00 2.95703E+01 1.06604E-05
 -1     26396-1.91757E+00 9.45038E-01 3.28390E-04
 -1     26397-2.26208E+00 1.06315E+00-1.79886E-05
 -1     26398-2.22977E+00 1.13903E+00 9.58033E-05
 -1     26399 1.43172E+00 3.57522E+00-4.41419E-05
 -1     26400 1.32133E+00 3.25085E+00-1.62786E-05
 -1     26401 2.03432E+00 8.35855E+00-8.13177E-06
 -1     26402 2.04799E+00 8.20520E+00-1.42033E-05
 -1     26403 1.99927E+00 8.69569E+00-7.15162E-05
 -1     26404 4.74590E-01 1.05458E+01 1.86966E-07
 -1     26405 1.57817E+00 3.51396E+00 2.40629E-05
 -1     26406 1.60104E+00 3.61347E+00 1.39565E-05
 -1     26407 1.65402E+00 3.73775E+00-6.86160E-06
 -1     26408 1.64879E+00 3.69197E+00-5.59368E-05
 -1     26409 1.60828E+00 3.57353E+00-4.25109E-05
 -1     26410 1.81914E-01 3.65887E-01-1.08470E-06
 -1     26411 1.42021E-01 3.34999E-01-6.72128E-06
 -1     26412 1.54838E-01 4.39800E-01-3.52631E-06
 -1     26413 2.05400E-01 4.72167E-01-4.36709E-06
 -1     26414 4.38385E-01 1.19321E+00 4.79967E-07
 -1     26415 5.07596E-01 1.32871E+00-1.15462E-05
 -1     26416 2.51564E-01 5.06708E-01 6.68637E-07
 -1     26417 2.77133E-01 6.25982E-01-4.40800E-06
 -1     26418-5.28212E+00 2.07251E+01 2.25074E-05
 -1     26419-5.92268E+00 2.15529E+01-1.24928E-05
 -1     26420-6.09121E+00 2.05488E+01-4.82381E-05
 -1     26421 1.98340E+00 8.83179E+00 8.77797E-06
 -1     26422 1.54567E+00 3.51188E+00-4.09253E-06
 -1     26423 1.56852E+00 3.51885E+00-4.51351E-05
 -1     26424 1.42605E+00 3.19287E+00-1.07636E-05
 -1     26425 1.50124E+00 3.31431E+00-2.63928E-05
 -1     26426 3.60161E-01 1.11679E+00-3.55469E-06
 -1     26427 3.11707E-01 9.86600E-01 4.52625E-06
 -1     26428 3.37666E-01 1.04943E+00-1.61749E-05
 -1     26429-2.96998E+00 1.40815E+00-2.53290E-05
 -1     26430-3.04398E+00 1.39686E+00 2.05295E-05
 -1     26431-2.78008E+00 1.26140E+00 9.32999E-05
 -1     26432-3.39432E+00 1.52982E+00 6.63292E-05
 -1     26433-3.20151E+00 1.38345E+00-2.75696E-05
 -1     26434 4.82683E-01 1.49436E+00 1.40620E-05
 -1     26435-2.43771E+00 2.27576E+01 1.06294E-04
 -1     26436-2.55545E+00 2.29880E+01 3.82789E-05
 -1     26437-2.88415E+00 2.36161E+01 4.95668E-05
 -1     26438-2.32387E-02 3.63343E-01 1.61094E-06
 -1     26439 1.39151E+00 2.94225E+00-6.65806E-06
 -1     26440 1.44293E+00 3.16440E+00 1.55705E-05
 -1     26441 1.33749E+00 2.87084E+00-2.44128E-06
 -1     26442 7.20496E-01 1.42606E+00-1.78349E-06
 -1     26443 6.56139E-01 1.25145E+00-5.33131E-05
 -1     26444 8.07412E-01 1.57587E+00-1.69333E-05
 -1     26445 7.40523E-01 1.39447E+00-1.90932E-05
 -1     26446-2.03445E+01 2.49793E+01-6.25658E-05
 -1     26447-2.01391E+01 2.45237E+01 6.02254E-05
 -1     26448-1.98666E+01 2.42515E+01 1.02499E-04
 -1     26449-1.96651E+01 2.38067E+01 7.42826E-05
 -1     26450 5.55379E-01 9.82514E-01-3.02570E-05
 -1     26451 6.25643E-01 1.10552E+00-3.19482E-05
 -1     26452 5.02061E-01 8.60289E-01-1.23630E-05
 -1     26453 5.74914E-01 9.89811E-01-2.67904E-07
 -1     26454-2.99612E-01 6.52403E+00 8.82199E-06
 -1     26455-1.71907E+01 1.83522E+01-1.52055E-05
 -1     26456-1.74333E+01 1.88146E+01-1.94106E-06
 -1     26457-7.63336E+00 2.01478E+01 6.90935E-05
 -1     26458-7.40822E+00 2.11390E+01-4.38154E-05
 -1     26459-6.81973E+00 2.00587E+01-5.45963E-05
 -1     26460-6.14392E+00 2.06678E+01 6.97680E-05
 -1     26461-2.72099E+00 1.27259E+00 2.49053E-04
 -1     26462-2.52799E+00 1.12097E+00-1.16252E-04
 -1     26463-1.19912E+00 8.11038E-01 4.43728E-05
 -1     26464-1.25396E+00 6.87790E-01-2.35945E-04
 -1     26465-1.40534E+00 1.01178E+00 4.55760E-05
 -1     26466-1.49447E+00 8.75640E-01 9.22124E-05
 -1     26467 2.97234E-01 2.97668E+00 2.30138E-05
 -1     26468 4.00486E-01 3.38192E+00-4.87914E-05
 -1     26469 3.81635E-01 5.00781E+00 1.04226E-05
 -1     26470 5.04133E-01 5.44181E+00-3.98094E-07
 -1     26471-2.06016E+01 2.55545E+01-7.11148E-05
 -1     26472-2.17486E+01 2.86848E+01 3.92984E-04
 -1     26473-2.05464E+01 2.84160E+01-1.09377E-04
 -1     26474-2.08818E+01 2.87132E+01-1.00754E-05
 -1     26475-1.97376E+01 2.84424E+01 1.29590E-03
 -1     26476-1.93697E+01 2.31635E+01 2.97411E-05
 -1     26477-8.48607E+00 2.23402E+01 6.66129E-05
 -1     26478-1.03354E+01 2.02040E+01 4.65268E-05
 -1     26479-9.46068E+00 2.03672E+01 6.05061E-05
 -1     26480-1.33237E+01 1.20062E+01-3.29243E-05
 -1     26481-1.30136E+01 1.15386E+01-3.28792E-05
 -1     26482-1.30105E+01 1.21448E+01-1.15555E-06
 -1     26483-1.38750E+01 1.28399E+01 1.30981E-05
 -1     26484-1.35620E+01 1.23521E+01 1.72593E-05
 -1     26485-5.73186E+00 1.88522E+01 1.14846E-05
 -1     26486-5.25573E+00 1.80418E+01 1.19343E-07
 -1     26487 3.59935E-01 7.15387E-01-8.31229E-06
 -1     26488 2.83584E-01 5.80829E-01 3.99612E-07
 -1     26489-9.04302E-01 1.01330E+01 5.40342E-06
 -1     26490-7.32192E+00 1.27829E+01 9.74357E-06
 -1     26491-7.80241E+00 1.22264E+01 1.42275E-05
 -1     26492 2.02629E+00 5.94553E+00 4.15624E-05
 -1     26493 2.10890E+00 6.00438E+00 2.73084E-05
 -1     26494 2.06269E+00 6.35997E+00 6.03393E-06
 -1     26495 2.07231E+00 6.18433E+00 6.48811E-06
 -1     26496-8.32641E+00 2.10939E+01 8.11008E-05
 -1     26497-5.68169E+00 3.04087E+00 1.39377E-05
 -1     26498-5.81408E+00 3.14844E+00 3.57132E-05
 -1     26499-6.06014E+00 3.35326E+00 1.87238E-05
 -1     26500-1.36621E+00 5.79285E-01 4.86542E-04
 -1     26501-1.09589E+00 4.71426E-01 1.42306E-03
 -1     26502-9.37123E-01 3.97919E-01-3.31329E-04
 -1     26503-1.11197E+00 4.82964E-01 1.67353E-03
 -1     26504-1.27792E+00 5.46497E-01-1.50048E-03
 -1     26505-8.34871E-01 3.52390E-01-1.34681E-03
 -1     26506-5.71287E+00 3.36840E+00-4.45823E-06
 -1     26507-5.81520E+00 3.46040E+00 2.74268E-05
 -1     26508-5.45912E+00 1.97698E+01 1.13078E-04
 -1     26509-1.73655E+01 3.05132E+01-3.77278E-04
 -1     26510-1.86728E+01 3.10560E+01-9.48048E-06
 -1     26511-5.10429E+00 1.80905E+01 5.21546E-05
 -1     26512-4.92502E+00 1.88894E+01 1.41669E-05
 -1     26513-5.42671E+00 1.72637E+01 1.51924E-05
 -1     26514-9.25281E-01 8.40014E+00-8.55097E-07
 -1     26515-7.72653E-01 8.99884E+00-3.74476E-06
 -1     26516-5.22313E-01 8.48704E+00-3.11271E-06
 -1     26517-3.21673E+00 1.65347E+00 6.38234E-05
 -1     26518-2.83441E+00 1.55887E+00-4.01384E-05
 -1     26519-1.49019E+01 1.48584E+01 8.68629E-06
 -1     26520-1.49023E+01 1.42179E+01-1.60545E-05
 -1     26521-1.46345E+01 1.48601E+01 5.41529E-06
 -1     26522-1.42956E+01 1.42663E+01-4.79751E-06
 -1     26523-1.40348E+01 1.42672E+01 4.51586E-05
 -1     26524-7.23180E+00 4.57033E+00-1.62919E-05
 -1     26525-7.20850E+00 4.99080E+00-1.00042E-06
 -1     26526-6.97395E+00 4.61339E+00 6.46479E-06
 -1     26527-7.64710E+00 4.89286E+00-4.10213E-06
 -1     26528-6.94285E+00 5.04267E+00-4.08334E-07
 -1     26529-3.49988E+00 1.90904E+01 5.97827E-06
 -1     26530-4.32999E+00 1.82519E+01 3.49577E-05
 -1     26531-8.99785E-01 3.72599E-01-1.12188E-06
 -1     26532-7.01034E-01 2.68314E-01-1.28667E-04
 -1     26533 1.16488E+00 3.96076E+00-3.27672E-06
 -1     26534 2.97320E-01 8.93049E-01-1.08560E-05
 -1     26535 2.85647E-01 7.85480E-01-2.25529E-06
 -1     26536 2.65786E-01 8.68748E-01 2.07882E-06
 -1     26537 2.80222E-01 9.00429E-01 1.52690E-05
 -1     26538 2.59392E-01 7.69927E-01 1.04967E-05
 -1     26539-1.60514E+00 6.73933E-01 1.79430E-04
 -1     26540-2.03320E+00 8.22344E-01-3.64722E-04
 -1     26541-1.48346E+00 6.31221E-01 6.95576E-04
 -1     26542-1.40501E+00 6.03103E-01 7.71271E-04
 -1     26543-1.80725E+00 7.58451E-01 3.24703E-04
 -1     26544-4.34466E+00 1.82495E+01-2.56872E-06
 -1     26545 1.15006E-01 3.38967E-01 3.74006E-06
 -1     26546 3.69050E-01 1.13718E+00 1.45814E-05
 -1     26547 8.13626E-01 1.46486E+00 1.00470E-05
 -1     26548 9.11883E-01 1.67523E+00-5.90288E-06
 -1     26549 8.66064E-01 1.58560E+00-1.00158E-06
 -1     26550-1.73539E+01 1.89381E+01-1.08164E-05
 -1     26551-1.75953E+01 1.94094E+01 4.83739E-06
 -1     26552-1.78406E+01 1.98944E+01 4.02711E-06
 -1     26553 2.06697E+00 5.55026E+00-4.91511E-05
 -1     26554 2.09683E+00 5.88084E+00 6.26862E-05
 -1     26555 2.01498E+00 5.45503E+00-9.17284E-07
 -1     26556 1.90580E+00 4.93340E+00 4.43684E-05
 -1     26557 1.92284E+00 5.23105E+00-1.31646E-06
 -1     26558 1.00156E+00 3.86404E+00 8.27822E-06
 -1     26559-1.45024E+00 6.02469E-01 7.36076E-05
 -1     26560-1.20660E+00 5.11342E-01 3.16228E-03
 -1     26561-1.45264E+00 6.08788E-01 1.58313E-03
 -1     26562-1.69818E+00 6.91932E-01 5.18926E-05
 -1     26563-1.46893E+00 6.05730E-01 6.85805E-04
 -1     26564 8.11467E-02 2.61534E-01 7.80923E-05
 -1     26565 1.16940E-01 3.86783E-01-4.77848E-05
 -1     26566 9.10061E-02 2.96413E-01 2.36571E-05
 -1     26567 8.30079E-02 2.55844E-01-1.42083E-05
 -1     26568 1.12811E-01 3.50332E-01-2.85024E-05
 -1     26569 1.23141E-01 3.86067E-01 1.65690E-05
 -1     26570-7.53099E-01 3.62035E-01-4.83545E-03
 -1     26571-6.27704E-01 3.03746E-01 8.33578E-04
 -1     26572-1.90022E-01 2.84957E-03-8.59129E-05
 -1     26573-2.93168E-01 3.90822E-02-8.74860E-05
 -1     26574-2.44631E-01 2.65335E-02 1.48204E-04
 -1     26575-1.28921E-01-9.63992E-03-3.52744E-04
 -1     26576-3.64297E-01 7.21016E-02 2.30051E-04
 -1     26577-8.36107E+00 1.84438E+01 8.14213E-06
 -1     26578-7.98714E+00 1.75276E+01-3.86513E-05
 -1     26579-7.51679E+00 1.81341E+01-3.50385E-05
 -1     26580-3.52337E+00 8.92891E+00-2.45055E-05
 -1     26581-5.18182E+00 3.63794E+00-1.82326E-05
 -1     26582-5.38900E+00 3.43830E+00-3.15926E-05
 -1     26583-5.74044E+00 3.78353E+00 6.69886E-06
 -1     26584 2.78810E-02 8.63894E-02 6.67609E-06
 -1     26585-5.10871E+00 2.57667E+00-8.62632E-05
 -1     26586-5.10489E+00 2.57383E+00-4.89179E-05
 -1     26587-3.61245E+00 1.14695E+01-1.26302E-06
 -1     26588-4.33928E+00 1.13419E+01 2.40875E-06
 -1     26589 1.90388E-01 3.21024E-01 7.15549E-05
 -1     26590 2.78728E-01 4.71711E-01 8.52118E-05
 -1     26591 1.93249E-01 3.39309E-01 4.57313E-05
 -1     26592 1.19583E-01 2.12541E-01-2.71181E-05
 -1     26593 2.04649E-01 3.62275E-01 2.18524E-05
 -1     26594 1.79619E-01 3.01250E-01 5.84855E-06
 -1     26595 1.11975E-01 1.73041E-01-2.96909E-05
 -1     26596 1.32719E+00 3.76092E+00 8.00891E-06
 -1     26597-8.53563E+00 2.86382E+01-2.71037E-04
 -1     26598-9.43967E+00 2.87524E+01 6.31423E-05
 -1     26599-3.83685E+00 1.74792E+01-7.46986E-05
 -1     26600-3.10474E+00 1.83589E+01-3.39397E-05
 -1     26601 4.40998E-02 6.71819E-02-8.90775E-05
 -1     26602 8.68615E-02 1.31147E-01-3.93424E-05
 -1     26603-3.75138E+00 5.84279E+00-2.03787E-06
 -1     26604-4.36321E+00 5.93837E+00 1.36994E-05
 -1     26605-3.26511E+00 5.69785E+00 8.20441E-06
 -1     26606 1.07126E-01 1.60595E-01 2.35547E-05
 -1     26607 1.82759E-01 2.89867E-01-2.58671E-06
 -1     26608-9.23088E+00 7.14681E+00 2.03808E-05
 -1     26609-8.76819E+00 6.57759E+00-1.73754E-06
 -1     26610 5.47429E-02 7.83018E-02 2.51767E-05
 -1     26611 5.84568E-02 8.41492E-02-4.43911E-05
 -1     26612 1.24935E-01 1.92600E-01 3.64183E-05
 -1     26613-7.93566E-02-8.81933E-03 7.05646E-05
 -1     26614-9.54464E-02 7.16238E-05-3.93377E-05
 -1     26615-8.43519E-02-5.63693E-03 1.95418E-04
 -1     26616 5.62337E-01 1.02088E+00 4.88854E-05
 -1     26617 6.40802E-01 1.15442E+00-2.72287E-05
 -1     26618 5.54010E-01 9.80768E-01 2.10964E-05
 -1     26619 1.15350E-01 4.03337E-01-3.24054E-05
 -1     26620 9.81711E-02 3.29084E-01 2.04996E-05
 -1     26621 8.00807E-02 2.80432E-01 1.44167E-05
 -1     26622 5.71269E-02 1.88728E-01 6.94398E-05
 -1     26623 7.20525E-02 2.30859E-01-1.34730E-05
 -1     26624 3.37199E-02 1.08024E-01-7.69690E-06
 -1     26625 1.14379E-03 2.57864E-01 7.71769E-06
 -1     26626-5.34006E-02 2.37506E-01 6.72108E-06
 -1     26627 3.44982E-02 4.90838E-02 2.65879E-05
 -1     26628 3.03555E-02 4.21177E-02-3.75396E-06
 -1     26629 3.31239E-02 4.67904E-02 2.59092E-05
 -1     26630 8.84981E-01 1.81225E+00 2.12248E-05
 -1     26631 8.38471E-01 1.62605E+00-1.22783E-04
 -1     26632 7.73626E-01 1.56779E+00-2.17403E-05
 -1     26633-1.20186E+01 1.46123E+01-9.80348E-06
 -1     26634-1.24055E+01 1.54666E+01-4.02115E-06
 -1     26635-1.03980E+00 4.48077E-01 1.09752E-03
 -1     26636-9.37376E-01 3.99170E-01 9.70071E-05
 -1     26637-6.98816E-01 2.68099E-01-7.70422E-04
 -1     26638-1.01419E+00 4.29672E-01-1.40179E-04
 -1     26639-1.15877E+00 7.29578E+00-6.78754E-06
 -1     26640-1.06078E+00 7.83499E+00-1.02346E-06
 -1     26641 8.36481E-01 1.56496E+00-1.71543E-05
 -1     26642 7.34469E-01 1.36656E+00-7.39252E-06
 -1     26643-9.63837E-01 4.33886E-01-1.77881E-04
 -1     26644-5.39093E-01 1.69790E-01-1.23063E-04
 -1     26645 2.12150E+00 6.11633E+00 4.26069E-06
 -1     26646-8.62221E+00 1.24473E+01 1.73098E-05
 -1     26647-8.28097E+00 1.17013E+01 1.73821E-05
 -1     26648-9.08014E+00 1.18990E+01 1.39208E-05
 -1     26649 8.11553E-01 1.74998E+00 1.61283E-04
 -1     26650 1.03786E+00 1.07397E+01 6.74411E-05
 -1     26651 4.82146E-01 1.32380E+00-7.82108E-06
 -1     26652 4.75164E-01 1.30305E+00-2.02761E-05
 -1     26653 5.53144E-01 1.46170E+00 1.28709E-05
 -1     26654-1.14831E+01 1.54415E+01 6.84029E-06
 -1     26655-1.05892E+01 1.51591E+01 8.74339E-06
 -1     26656-1.09156E+01 1.60406E+01 6.03117E-06
 -1     26657 8.01594E-01 1.62358E+00-8.96121E-07
 -1     26658 4.69716E-02 7.43318E-02-1.00845E-04
 -1     26659 2.15579E+00 7.84738E+00 4.07565E-05
 -1     26660 1.95572E+00 6.76041E+00-4.16748E-05
 -1     26661 2.05654E+00 7.11922E+00-1.07684E-05
 -1     26662 1.93594E+00 7.80881E+00-7.79096E-07
 -1     26663 1.84927E+00 7.07757E+00 3.08225E-06
 -1     26664 5.67725E-01 1.06258E+00-2.84311E-05
 -1     26665 6.51148E-01 1.20344E+00-1.68973E-05
 -1     26666-5.54696E-01 2.23878E-01 7.19857E-04
 -1     26667-7.35151E-01 3.36791E-01 2.44660E-03
 -1     26668-7.22095E-01 3.21019E-01-3.60736E-03
 -1     26669 9.27081E-01 2.23139E+00-4.29465E-05
 -1     26670 8.97652E-01 2.17789E+00-3.38050E-07
 -1     26671 9.89182E-01 2.34531E+00-1.46514E-05
 -1     26672-5.18371E+00 6.59995E+00-1.94382E-06
 -1     26673-5.49607E+00 6.25116E+00 2.74432E-06
 -1     26674-4.90945E+00 6.09565E+00-9.68719E-07
 -1     26675-1.17467E+00 9.25738E-01 9.11756E-05
 -1     26676-9.87197E-01 8.47534E-01-1.97718E-05
 -1     26677-9.96038E-01 7.36600E-01-1.50235E-04
 -1     26678 1.19189E+00 2.71973E+00-1.48583E-05
 -1     26679 9.96148E-01 2.07073E+00 2.24731E-05
 -1     26680-1.48388E+00 1.48978E+01-2.15722E-06
 -1     26681-9.43860E-01 1.50343E+01 9.93775E-06
 -1     26682-1.16632E+00 1.42261E+01-2.65660E-06
 -1     26683-2.18888E+00 1.46455E+01 5.34572E-07
 -1     26684 1.52333E-01 2.72591E-01-1.60307E-05
 -1     26685 1.86009E+00 4.73503E+00-5.13354E-06
 -1     26686 1.89615E+00 5.05271E+00-2.17017E-05
 -1     26687 1.41557E+00 1.27648E+01 3.01864E-05
 -1     26688 9.01092E-01 1.21965E+01-6.19606E-06
 -1     26689 9.70841E-01 1.28583E+01 8.29193E-05
 -1     26690 1.06404E+00 2.15031E+00-2.32845E-05
 -1     26691-1.41600E+00 3.21740E+00 1.04820E-05
 -1     26692-3.02097E+00 2.67867E+00-1.23159E-05
 -1     26693-3.17869E+00 2.49450E+00 7.19281E-06
 -1     26694 1.56990E-02 2.09213E-02-1.61166E-05
 -1     26695 2.13515E-02 2.98209E-02 7.52735E-06
 -1     26696 7.59771E-03 9.75559E-03 8.65872E-06
 -1     26697 1.92690E-02 2.58411E-02-3.95879E-06
 -1     26698 3.55936E-02 5.05031E-02 3.33424E-05
 -1     26699 2.61932E-02 3.61841E-02-1.09070E-05
 -1     26700-4.42043E+00 2.30778E+00 2.86059E-05
 -1     26701-7.60362E+00 6.54493E+00 3.60876E-06
 -1     26702 2.00710E-01 3.15121E-01-9.48217E-06
 -1     26703 2.75690E-01 4.44183E-01 1.98002E-05
 -1     26704 2.15325E-01 3.38733E-01 2.79240E-05
 -1     26705 6.09784E-03 9.34787E-03-2.57765E-07
 -1     26706 7.29542E-03 1.04934E-02 2.32471E-05
 -1     26707 1.37843E-02 2.24341E-02-5.57562E-06
 -1     26708 5.62418E-03 7.92405E-03 3.64802E-06
 -1     26709 6.53198E-03 8.84869E-03 1.94313E-06
 -1     26710 7.30459E-01 1.33858E+00 9.17726E-06
 -1     26711 1.14192E+00 2.26039E+00-1.24226E-04
 -1     26712 1.13913E+00 2.31403E+00-1.46649E-05
 -1     26713-2.45812E-01 3.20095E-01 1.02902E-05
 -1     26714-3.29424E-01 3.14318E-01 1.69847E-05
 -1     26715-1.40360E+00 3.16751E+00-1.48466E-05
 -1     26716 6.19587E-02 1.09410E-01 2.75396E-06
 -1     26717 5.72321E-02 9.79332E-02-3.42153E-05
 -1     26718 4.83603E-02 7.53209E-02-2.13119E-07
 -1     26719 3.14788E-02 4.74861E-02 6.19996E-05
 -1     26720 4.63564E-02 6.97673E-02-2.77546E-05
 -1     26721 3.71414E-02 5.40694E-02-3.53172E-05
 -1     26722 2.38965E-02 3.46596E-02 1.03178E-05
 -1     26723-1.59873E+00 6.66553E-01-1.93657E-04
 -1     26724 9.58281E-01 2.28851E+00 1.65848E-05
 -1     26725 8.67883E-01 2.12332E+00 1.09535E-05
 -1     26726-1.24892E-01-1.47154E-02-5.07406E-05
 -1     26727-1.56094E-01-9.03033E-03-2.18902E-04
 -1     26728-7.14805E+00 1.43414E+01-1.94712E-05
 -1     26729-7.48320E+00 1.53870E+01 1.88976E-05
 -1     26730-6.34821E+00 1.40320E+01-2.23870E-05
 -1     26731-7.79922E+00 1.45739E+01 1.50324E-05
 -1     26732 4.42693E-01 1.44360E+01 3.18601E-06
 -1     26733 1.58795E+00 1.21977E+01 7.18897E-06
 -1     26734 1.63788E+00 1.19767E+01 6.31501E-07
 -1     26735-7.83523E-01 3.51612E-01-1.71880E-05
 -1     26736-1.01363E+00 5.12811E-01-1.51262E-04
 -1     26737 3.14454E-02 1.04791E-01 5.10491E-05
 -1     26738 1.55273E-02 5.18310E-02-7.73361E-05
 -1     26739 1.34658E-02 4.49084E-02-5.91751E-05
 -1     26740 1.51236E-02 4.87575E-02-2.28295E-05
 -1     26741 1.72808E-02 5.59890E-02 6.95979E-05
 -1     26742 7.78706E-01 1.39939E+00 1.84747E-05
 -1     26743 5.75271E-01 1.57068E+00 8.82915E-06
 -1     26744 6.18843E-01 1.66129E+00 1.37462E-05
 -1     26745 2.44595E-01 6.20314E-01 1.50398E-05
 -1     26746 1.81549E-01 4.77553E-01 8.65950E-05
 -1     26747 2.36622E-01 6.34825E-01 1.23282E-05
 -1     26748 9.24063E-01 1.76425E+00 4.34191E-05
 -1     26749 2.14251E-01 4.31552E-01 1.59484E-05
 -1     26750 2.10850E-01 4.07352E-01 3.94638E-06
 -1     26751 1.35886E-01 2.72542E-01 1.52814E-05
 -1     26752 4.67739E-01 8.83050E-01-1.43168E-05
 -1     26753 5.70690E-01 1.08775E+00 7.21187E-06
 -1     26754 7.69997E-02 2.70568E-01 3.06102E-05
 -1     26755 5.02111E-02 1.72380E-01-4.26080E-05
 -1     26756 2.77548E-02 9.11303E-02-1.59319E-04
 -1     26757 5.41146E-02 1.82934E-01-1.06342E-04
 -1     26758 8.33698E-03 1.97109E-02-6.27187E-06
 -1     26759 3.48806E-02 8.95104E-02 1.45865E-05
 -1     26760 1.97222E-02 8.05580E-02-3.31695E-05
 -1     26761 1.56212E-02 3.83505E-02 2.00257E-05
 -1     26762 2.38518E-02 4.45639E-02 2.51602E-05
 -1     26763 6.20288E-01 1.13990E+00-7.70228E-06
 -1     26764 6.77365E-01 1.30768E+00 1.01017E-05
 -1     26765-1.12456E+00 5.86487E+00 8.88010E-06
 -1     26766-1.11161E+01 1.45852E+01-1.77031E-05
 -1     26767-2.06364E+00 8.67383E-01-2.28460E-04
 -1     26768-1.15908E+01 1.38258E+01-1.98351E-05
 -1     26769-1.15888E+01 1.29053E+01 2.93045E-05
 -1     26770-1.25223E+01 1.40652E+01-8.46986E-06
 -1     26771-1.25132E+01 1.31387E+01-2.55194E-05
 -1     26772-1.51092E+00 7.92768E-01-2.26558E-05
 -1     26773-2.67475E+00 1.11048E+00 5.76512E-05
 -1     26774-2.53132E+00 1.04407E+00-1.69141E-04
 -1     26775-2.55339E+00 1.09497E+00-4.15268E-05
 -1     26776-2.97689E+00 1.26584E+00 1.75867E-04
 -1     26777-2.83570E+00 1.19543E+00 8.97821E-05
 -1     26778-7.37748E+00 1.62384E+01-1.39548E-05
 -1     26779-8.26613E+00 1.66447E+01 1.49047E-05
 -1     26780-7.65364E+00 1.56341E+01-3.55060E-05
 -1     26781-8.38665E+00 1.54771E+01-3.84636E-06
 -1     26782-8.54745E+00 1.60309E+01 2.25608E-05
 -1     26783 8.99538E-02 2.19741E-01-7.61654E-06
 -1     26784 5.44106E-02 1.95435E-01-2.67555E-05
 -1     26785-7.59830E+00 1.37242E+01 6.73437E-06
 -1     26786-9.19225E+00 1.84327E+01-3.33341E-05
 -1     26787-8.80106E+00 1.75168E+01 1.47590E-05
 -1     26788-2.15419E+00 8.79539E-01 4.35412E-06
 -1     26789-2.30578E+00 9.44427E-01-4.23303E-04
 -1     26790-1.92957E+01 3.05709E+01 3.76223E-04
 -1     26791-1.04290E+01 2.56995E+01 5.13333E-05
 -1     26792-9.71963E+00 8.85937E+00-8.91066E-06
 -1     26793-9.31909E+00 9.27117E+00 2.13349E-05
 -1     26794-1.01210E+01 9.46579E+00-1.20028E-05
 -1     26795-1.23102E+00 6.06048E-01-4.75491E-04
 -1     26796 2.63520E-02 8.38201E-02 5.61639E-05
 -1     26797 1.22642E-01 2.45667E-01-6.43077E-06
 -1     26798-9.06380E+00 1.54663E+01 1.53973E-05
 -1     26799-9.29331E+00 1.62312E+01-6.18240E-06
 -1     26800-8.33072E+00 1.52598E+01-3.30454E-06
 -1     26801 1.89336E+00 6.42178E+00-4.87920E-06
 -1     26802 2.02553E+00 6.48920E+00-1.58025E-05
 -1     26803 1.94069E+00 6.47970E+00 5.52393E-06
 -1     26804 2.14045E+00 6.37332E+00-4.57282E-05
 -1     26805 2.06286E+00 6.43492E+00 3.21341E-05
 -1     26806 2.06465E+00 6.70172E+00-9.31003E-05
 -1     26807-8.36299E-01 4.41772E-01-3.68710E-05
 -1     26808-8.15829E+00 5.46291E+00 1.30222E-05
 -1     26809-7.16211E+00 5.33478E+00-9.38728E-06
 -1     26810-7.88534E+00 5.17410E+00 2.85590E-05
 -1     26811 3.32465E-02 6.25478E-02 4.87550E-05
 -1     26812 3.34082E-02 6.37350E-02 1.65784E-05
 -1     26813 9.90014E-02 1.83213E-01 1.24752E-05
 -1     26814 6.29293E-02 1.14316E-01 1.55480E-05
 -1     26815 6.32369E-02 1.16664E-01 6.25025E-05
 -1     26816-6.68643E+00 8.41191E+00-5.02227E-06
 -1     26817-6.01643E+00 8.24147E+00 2.58720E-06
 -1     26818-8.69128E+00 7.22832E+00-1.93715E-05
 -1     26819-7.97131E+00 7.05283E+00-1.38633E-05
 -1     26820-8.30202E+00 6.71609E+00 5.75446E-06
 -1     26821-3.80872E+00 7.36209E+00 1.58543E-05
 -1     26822-4.54724E+00 7.33914E+00-5.63231E-07
 -1     26823 2.04766E+00 6.42430E+00-1.31403E-05
 -1     26824-8.35413E+00 6.08615E+00-1.65759E-05
 -1     26825-1.60331E+00 6.65816E-01 4.49112E-04
 -1     26826-1.33659E+00 5.72636E-01 6.36088E-04
 -1     26827-1.77693E+00 7.37717E-01-1.69430E-04
 -1     26828-1.44351E+00 6.05631E-01 1.11015E-03
 -1     26829-1.62452E+00 6.78670E-01-1.31086E-03
 -1     26830-1.20773E+00 8.87331E+00-5.96670E-07
 -1     26831-1.64815E+00 8.78951E+00-8.56621E-07
 -1     26832-1.34639E+00 8.28961E+00-4.99243E-08
 -1     26833-8.36451E-01 3.86376E-01 7.43645E-04
 -1     26834-6.71645E-01 3.27281E-01 1.31802E-03
 -1     26835-8.20286E-01 3.67420E-01 1.70451E-03
 -1     26836-1.18415E+00 5.09084E-01-1.60588E-04
 -1     26837-1.03828E+00 4.56731E-01-1.31045E-03
 -1     26838-2.27429E+01 3.11898E+01 4.00281E-04
 -1     26839-2.14678E+01 3.11214E+01-3.07476E-04
 -1     26840-6.49589E+00 2.26709E+01 5.16975E-06
 -1     26841-6.66183E+00 2.16401E+01-5.41892E-06
 -1     26842-2.14470E+01 2.82881E+01-1.27740E-03
 -1     26843-2.00059E+01 2.82347E+01 7.48599E-04
 -1     26844-1.18877E+00 3.86221E+00-1.32637E-05
 -1     26845-8.78662E-01 3.71866E+00-1.06161E-06
 -1     26846 4.57496E-02 1.60361E-01 1.32512E-04
 -1     26847 1.79585E-02 5.75994E-02 1.61673E-04
 -1     26848 1.53803E-02 5.14487E-02-9.99470E-05
 -1     26849-1.47937E+01 1.55614E+01-1.12775E-05
 -1     26850-1.53370E+01 1.49796E+01 1.27453E-06
 -1     26851-1.54505E+01 1.54129E+01 3.83864E-06
 -1     26852-1.48986E+01 1.60077E+01-2.27379E-05
 -1     26853-1.52831E+01 1.56429E+01-1.14174E-05
 -1     26854-6.08458E+00 7.28593E+00-1.38812E-05
 -1     26855-6.39347E+00 7.83734E+00 2.82444E-07
 -1     26856-5.74233E+00 7.67210E+00-3.65927E-06
 -1     26857-1.99283E+00 9.29291E+00-3.57734E-06
 -1     26858-2.37730E+00 9.79029E+00 8.20762E-06
 -1     26859-9.64601E+00 1.51266E+01-8.45848E-06
 -1     26860-9.87280E+00 1.57990E+01 2.61781E-05
 -1     26861 7.14570E-01 1.71524E+00-2.40464E-06
 -1     26862-1.02400E-01 6.10906E+00 2.81343E-06
 -1     26863 1.23259E-02 6.60842E+00 2.85855E-06
 -1     26864 1.89347E-01 6.19228E+00 1.49890E-06
 -1     26865-2.64159E-01 5.61350E+00 1.55094E-06
 -1     26866-6.91914E-02 5.23469E+00-4.55379E-06
 -1     26867 6.38502E-02 5.72533E+00 5.18714E-07
 -1     26868 1.12364E+00 2.35965E+00-5.46129E-05
 -1     26869 1.05089E+00 2.14293E+00 3.23904E-06
 -1     26870-1.72356E+00 8.94090E-01-1.18512E-04
 -1     26871-2.17719E+00 1.22524E+00-3.80534E-04
 -1     26872-2.19056E+00 1.23195E+00 4.55535E-04
 -1     26873-1.90576E+00 1.22861E+00 1.26852E-05
 -1     26874 8.46214E-01 1.89612E+00-8.85921E-06
 -1     26875 7.73843E-01 1.72188E+00-1.57900E-05
 -1     26876 8.03533E-01 1.89773E+00 2.34354E-05
 -1     26877 7.53290E-01 1.71150E+00-1.56329E-05
 -1     26878 5.91976E-02 9.85847E-02 7.18163E-05
 -1     26879 6.07011E-02 1.03465E-01 4.91715E-05
 -1     26880 5.83838E-02 9.59591E-02 2.13499E-05
 -1     26881 1.28791E+00 2.66304E+00 9.38266E-06
 -1     26882-3.54633E+00 2.50753E+01-1.18057E-04
 -1     26883-3.78194E+00 2.47697E+01-1.57590E-05
 -1     26884-3.94212E+00 2.57768E+01 2.03927E-05
 -1     26885-3.34552E+00 2.47140E+01-1.19957E-04
 -1     26886-3.73199E+00 2.54118E+01-8.28477E-05
 -1     26887 8.53817E-01 4.45095E+00 7.58486E-06
 -1     26888 4.13186E-01 6.85643E-01-1.89936E-05
 -1     26889-2.20938E+01 2.95529E+01 5.44349E-04
 -1     26890-2.05779E+01 2.94900E+01-5.26218E-04
 -1     26891 6.56483E-01 1.73138E+00-1.75834E-05
 -1     26892 6.85031E-01 1.78363E+00-9.73082E-06
 -1     26893-3.05273E+00 2.41766E+01-9.31606E-05
 -1     26894-1.48225E+01 1.44312E+01 4.24213E-06
 -1     26895 1.72061E+00 3.94987E+00 3.31631E-05
 -1     26896-6.46337E+00 3.71901E+00-1.05947E-05
 -1     26897-6.83997E+00 4.18800E+00 1.45598E-05
 -1     26898-6.21664E+00 3.81619E+00-4.62513E-06
 -1     26899-6.21164E+00 3.49832E+00-1.43548E-05
 -1     26900-6.58743E+00 3.94968E+00 1.20088E-06
 -1     26901-8.26079E-03 8.81777E-02-2.81813E-05
 -1     26902-1.50069E-02 2.24426E-02-3.91612E-05
 -1     26903 4.42475E-01 1.17967E+01 1.59518E-05
 -1     26904-2.88572E+00 7.66465E+00-9.86388E-06
 -1     26905-1.84891E-01 7.96289E-01 9.07131E-06
 -1     26906-3.10922E-01 7.88886E-01 1.14391E-05
 -1     26907-4.12553E-01 9.84238E-01-3.45162E-06
 -1     26908-2.64912E-01 9.86926E-01 6.29873E-06
 -1     26909-2.36241E-01 4.06192E-02 1.25277E-04
 -1     26910-1.12522E-01-5.91412E-03-1.23352E-05
 -1     26911-1.18429E-01-1.46116E-02-2.90318E-05
 -1     26912-9.83142E-01 2.00474E+00 2.12442E-05
 -1     26913-8.55977E-01 1.72158E+00-4.27813E-05
 -1     26914-1.26945E+00 1.70627E+00 1.14221E-04
 -1     26915-1.39136E+01 1.29592E+01-7.30227E-06
 -1     26916-1.31762E+01 1.28460E+01 3.14346E-06
 -1     26917-1.23031E+01 1.21284E+01-1.43719E-05
 -1     26918-1.31321E+01 1.27604E+01-1.12137E-05
 -1     26919-1.40358E+01 1.34977E+01-1.40305E-05
 -1     26920-1.24155E+01 1.26489E+01 1.38133E-06
 -1     26921-1.25440E+01 1.31173E+01 2.06184E-07
 -1     26922-1.34758E+01 1.42950E+01-1.02650E-05
 -1     26923-1.74315E+01 2.62791E+01-1.78503E-05
 -1     26924-1.82548E+01 2.51696E+01-1.66614E-05
 -1     26925-1.69368E+01 2.50151E+01-1.06415E-04
 -1     26926-1.61562E+01 2.61082E+01-5.71548E-05
 -1     26927-4.67729E-01 1.27931E-01 2.10076E-04
 -1     26928-3.39589E-01 7.42201E-02 4.12552E-04
 -1     26929-4.31326E-01 1.07744E-01 2.42143E-04
 -1     26930-3.60736E-01 7.01607E-02-1.21245E-05
 -1     26931-2.55108E-01 4.07571E-02 5.24530E-04
 -1     26932-2.22755E+00 1.04307E+01 3.22896E-06
 -1     26933-1.48976E+01 1.53627E+01 4.92566E-06
 -1     26934-1.50047E+01 1.58048E+01-1.93671E-05
 -1     26935-1.45191E+01 1.57233E+01-1.38373E-05
 -1     26936-5.45578E+00 7.12422E+00-3.62650E-06
 -1     26937-1.07366E+01 1.26960E+01-1.23817E-05
 -1     26938-1.03317E+01 1.19659E+01 1.40688E-06
 -1     26939-1.24927E+01 1.10201E+01 9.59433E-07
 -1     26940-1.27994E+01 1.14775E+01-6.92446E-06
 -1     26941-1.24238E+01 1.16379E+01 4.16792E-07
 -1     26942-1.16953E+01 1.13802E+01 9.28738E-06
 -1     26943-1.27240E+01 1.21129E+01-6.16644E-05
 -1     26944-1.28310E+00 2.34636E+00 5.17391E-05
 -1     26945-8.19626E-01 2.38146E+00 7.23705E-06
 -1     26946-8.67153E-01 2.21480E+00 8.76020E-05
 -1     26947-1.69820E+00 5.72722E+00 1.76742E-05
 -1     26948-1.80874E+00 1.88863E+00-8.79197E-05
 -1     26949-1.84597E+00 1.90831E+00 8.32171E-05
 -1     26950-2.01535E+00 2.16900E+00-8.44298E-06
 -1     26951-1.87346E+00 1.18296E+01 5.18151E-06
 -1     26952-1.53366E+00 1.12421E+01-2.41423E-06
 -1     26953-1.77930E+01 2.39963E+01-9.35429E-05
 -1     26954-1.44488E+01 1.52777E+01-6.61527E-06
 -1     26955-1.49838E+01 1.47028E+01-1.26685E-05
 -1     26956-1.48220E+01 1.49252E+01-1.23615E-05
 -1     26957-2.02133E+01 2.75278E+01 3.34751E-04
 -1     26958-1.15703E+01 1.53883E+01-9.88469E-06
 -1     26959-5.17337E+00 5.02226E+00-6.16105E-06
 -1     26960-5.82203E+00 5.08656E+00 1.89441E-05
 -1     26961-5.67612E+00 1.35969E+01-6.01526E-06
 -1     26962-6.10413E+00 1.29981E+01-1.73160E-05
 -1     26963-6.78769E+00 1.34222E+01-4.11260E-06
 -1     26964 3.74314E-01 2.66853E+00 2.20333E-05
 -1     26965-2.56664E+00 2.02566E+01 5.26121E-05
 -1     26966-3.01905E+00 2.10861E+01-6.42071E-05
 -1     26967-4.86136E+00 3.30258E+00-2.55357E-05
 -1     26968-4.35684E+00 3.17049E+00-1.70412E-05
 -1     26969-4.66128E+00 3.50569E+00 2.32976E-05
 -1     26970 8.33413E-01 2.01646E+00 1.50261E-06
 -1     26971 8.13232E-01 1.84491E+00-9.52022E-06
 -1     26972 7.82389E-01 1.97198E+00-1.16158E-05
 -1     26973 8.02046E-01 1.85999E+00-3.67279E-05
 -1     26974-1.86237E+00 9.90525E+00 3.11942E-06
 -1     26975-4.97222E+00 3.85861E+00 2.19485E-05
 -1     26976-6.08635E+00 4.81619E+00-8.49306E-06
 -1     26977-6.83260E+00 2.46792E+01-3.37454E-05
 -1     26978-7.51684E+00 2.56467E+01 9.48675E-05
 -1     26979-6.98073E+00 2.91419E+01-1.94998E-04
 -1     26980-7.66006E+00 2.92056E+01 2.10526E-04
 -1     26981-5.95127E+00 3.58457E+00-1.57480E-05
 -1     26982-5.49690E+00 3.20650E+00-1.21598E-05
 -1     26983 1.33501E+00 2.73847E+00-8.53660E-07
 -1     26984 1.43233E+00 3.01059E+00-2.26312E-06
 -1     26985 6.17285E-02 1.76216E-01 5.95310E-05
 -1     26986 1.30045E-01 2.68916E-01 3.01369E-05
 -1     26987 9.45089E-02 1.93574E-01 2.53542E-05
 -1     26988 6.49484E-02 1.39330E-01-1.05835E-05
 -1     26989 6.22178E-02 1.28539E-01-3.41016E-05
 -1     26990 2.99532E-01 7.73800E-01-5.61483E-05
 -1     26991 3.94555E-01 1.04302E+00 1.50096E-05
 -1     26992 1.95420E-01 3.17162E-01 4.71112E-06
 -1     26993 1.37627E-01 2.99851E-01 1.26329E-05
 -1     26994 6.36382E-02 1.45134E-01 2.46100E-05
 -1     26995 7.06262E-02 1.68466E-01 2.72196E-05
 -1     26996 1.37735E-01 3.09683E-01-6.95223E-05
 -1     26997 2.52350E-01 6.07170E-01 4.13818E-05
 -1     26998 2.72433E-01 6.12605E-01-1.70637E-05
 -1     26999 4.66205E-01 1.35786E+00 8.01168E-06
 -1     27000-1.81051E+01 2.90415E+01-4.41370E-04
 -1     27001-1.89493E+01 2.78161E+01 1.12728E-04
 -1     27002 4.95390E-01 1.33089E+00 5.14017E-06
 -1     27003-1.64182E+01 3.03826E+01 5.80287E-04
 -1     27004 5.88363E-02 1.74254E-01-4.43432E-05
 -1     27005-5.53093E+00 2.64726E+01-8.08749E-05
 -1     27006-5.16337E+00 2.57615E+01 1.78198E-04
 -1     27007-6.13627E+00 2.67615E+01 1.73061E-04
 -1     27008 3.49205E-01 1.02820E+00-1.15754E-05
 -1     27009 2.98015E-01 8.97475E-01 1.05705E-05
 -1     27010-1.10071E+01 1.91824E+01-1.50821E-06
 -1     27011-1.17480E+01 1.86974E+01 1.88191E-05
 -1     27012 2.06943E+00 5.63961E+00 9.27276E-06
 -1     27013 1.57632E+00 3.59250E+00-3.74309E-05
 -1     27014-4.35762E+00 1.57974E+01 4.58395E-06
 -1     27015-1.70136E+01 2.03348E+01 2.77217E-06
 -1     27016-1.62864E+01 1.99975E+01-9.91637E-06
 -1     27017-1.66673E+01 1.96604E+01-2.33578E-05
 -1     27018-1.75802E+01 2.03598E+01-2.57890E-05
 -1     27019-1.68392E+01 2.00228E+01-3.88432E-05
 -1     27020 5.16153E-01 1.46937E+00-2.51041E-05
 -1     27021 5.80347E-01 1.58865E+00 1.37625E-05
 -1     27022 1.57353E+00 3.44830E+00-3.37505E-06
 -1     27023 1.56245E+00 3.40192E+00-2.58481E-05
 -1     27024 1.46896E+00 3.12690E+00 3.21554E-05
 -1     27025 1.50377E+00 3.24507E+00 4.01550E-05
 -1     27026 7.12531E-01 1.54604E+00 3.40767E-06
 -1     27027-1.28095E+01 1.63273E+01-5.95724E-09
 -1     27028-1.19185E+01 1.60432E+01-3.63927E-05
 -1     27029 1.22500E+00 2.44421E+00 8.43131E-06
 -1     27030 1.45833E+00 3.07233E+00 4.21549E-06
 -1     27031-3.83990E+00 2.32731E+01 4.90173E-05
 -1     27032-3.45114E+00 2.29580E+01-3.13112E-06
 -1     27033-3.50010E+00 2.37057E+01-9.79524E-05
 -1     27034-3.89660E+00 2.40245E+01 1.65107E-04
 -1     27035-3.35166E+00 2.33250E+01 8.64945E-07
 -1     27036 1.64964E+00 3.69464E+00 6.75221E-06
 -1     27037 1.05892E+00 2.09449E+00 9.36740E-05
 -1     27038 1.54629E+00 3.36203E+00 5.61475E-05
 -1     27039 1.53251E+00 3.34191E+00-2.63562E-05
 -1     27040-8.71988E+00 1.46732E+01-9.16583E-06
 -1     27041-1.53726E+01 1.56786E+01-7.95823E-06
 -1     27042-1.51739E+01 1.47052E+01-1.56071E-05
 -1     27043-1.56527E+01 1.55185E+01-1.52905E-05
 -1     27044-9.54696E+00 1.13956E+01 5.40037E-06
 -1     27045-9.17795E+00 1.07024E+01 1.61774E-05
 -1     27046-8.72713E+00 1.11847E+01 9.02199E-06
 -1     27047 9.96440E-01 2.07367E+00-6.89310E-05
 -1     27048 7.93721E-01 1.67896E+00-2.05374E-06
 -1     27049 8.82425E-01 1.83325E+00-3.55025E-06
 -1     27050 2.67738E-02 8.16503E-02-3.36425E-05
 -1     27051 2.59551E-02 8.01628E-02-3.54778E-05
 -1     27052 8.25572E-02 2.51442E-01 9.53680E-06
 -1     27053 5.66516E-02 1.72013E-01 7.54912E-05
 -1     27054 2.63482E-02 8.10034E-02-1.33637E-05
 -1     27055 5.76322E-02 1.73167E-01-5.96218E-05
 -1     27056-1.08786E+00 1.02382E+00-4.72361E-05
 -1     27057-1.34052E+00 1.52276E+00 4.81435E-05
 -1     27058-1.02258E+01 1.57856E+01-3.04331E-06
 -1     27059-1.04582E+01 1.64754E+01 1.52430E-05
 -1     27060-9.21108E+00 1.55450E+01-1.26876E-05
 -1     27061-4.33980E+00 4.46016E+00 4.11619E-06
 -1     27062-4.62019E+00 4.88029E+00-5.55201E-06
 -1     27063-1.24578E+01 2.87038E+01-2.44883E-05
 -1     27064-1.18037E+01 2.73039E+01-1.35332E-04
 -1     27065-1.23952E+01 2.71209E+01 1.74907E-04
 -1     27066-1.12301E+01 2.70971E+01-2.22434E-05
 -1     27067-4.18864E-01 3.14936E-01-6.08875E-06
 -1     27068 1.29773E-01 2.29378E-01-1.68500E-05
 -1     27069 5.84366E-02 1.02551E-01-1.35872E-05
 -1     27070 1.34937E-01 2.46423E-01 1.50817E-05
 -1     27071-3.13561E+00 2.16449E+01 1.52287E-05
 -1     27072-4.30652E+00 2.26242E+01 1.16137E-04
 -1     27073-2.99672E+00 2.12817E+01 9.33077E-05
 -1     27074-4.14742E+00 2.22524E+01 1.88583E-04
 -1     27075-5.85951E-01 2.56754E-01-9.31664E-07
 -1     27076-6.33058E-01 3.53923E-01 5.22211E-05
 -1     27077-3.78214E+00 2.09351E+01 2.62951E-05
 -1     27078-2.28370E+00 2.12438E+01 7.44005E-05
 -1     27079-3.33743E+00 2.23878E+01 9.03650E-05
 -1     27080 9.19895E-01 1.99919E+00 2.16775E-05
 -1     27081 8.25152E-01 2.22383E+00 1.55982E-05
 -1     27082-2.26493E+01 3.10701E+01-2.55974E-04
 -1     27083 7.10602E-01 2.16458E+00-3.74274E-05
 -1     27084 8.17674E-01 2.44051E+00 3.07800E-05
 -1     27085-1.85995E+01 2.15974E+01-1.03706E-05
 -1     27086-1.73118E+01 2.14784E+01 6.12690E-05
 -1     27087-1.90785E+01 2.23257E+01-7.35794E-05
 -1     27088-1.82164E+01 2.18085E+01 7.32309E-05
 -1     27089-1.77646E+01 2.22071E+01 1.06482E-05
 -1     27090-1.65206E+01 2.38924E+01-3.49819E-05
 -1     27091-1.73262E+01 2.28873E+01-6.00787E-05
 -1     27092-1.53099E+01 2.36554E+01-6.59583E-05
 -1     27093-1.60806E+01 2.26595E+01 3.72545E-05
 -1     27094 7.15708E-01 1.95440E+00-1.09294E-04
 -1     27095 1.95165E-01 3.22749E-01-4.83224E-05
 -1     27096 1.95185E-01 3.21279E-01-1.02757E-04
 -1     27097 2.71268E-01 4.47582E-01-2.65212E-06
 -1     27098 2.00393E-01 3.41770E-01 2.20213E-05
 -1     27099-6.84004E-02 1.31077E+01-4.50698E-06
 -1     27100-2.64854E-01 1.23661E+01-2.08816E-05
 -1     27101-5.46897E-01 1.29830E+01-1.80021E-05
 -1     27102-7.10239E+00 4.44239E+00 4.26841E-06
 -1     27103 1.34082E+00 9.66853E+00-1.67115E-06
 -1     27104 1.50089E+00 9.11487E+00-9.03225E-06
 -1     27105-5.08105E-02-1.07369E-02-2.61072E-04
 -1     27106-4.24131E-02-1.24002E-02 1.02258E-04
 -1     27107-4.64791E-02-1.18949E-02-2.17192E-04
 -1     27108 6.29396E-03 8.05525E-03 6.12792E-06
 -1     27109 1.65911E-02 2.22596E-02-1.56026E-05
 -1     27110-8.79800E+00 1.47573E+01 2.10369E-06
 -1     27111-7.95673E+00 1.45989E+01-1.42136E-05
 -1     27112-2.09075E-01 2.08730E-02 1.29174E-05
 -1     27113-3.05513E-01 6.61500E-02-1.04993E-03
 -1     27114-1.62899E-01 1.64109E-02-4.31488E-04
 -1     27115-9.01383E-02-1.53205E-03-1.45451E-04
 -1     27116-1.23093E-01 4.99164E-03-5.11341E-04
 -1     27117-5.71786E+00 1.22739E+01-6.22475E-06
 -1     27118-1.86490E+01 2.26506E+01-4.76425E-05
 -1     27119-1.77279E+01 2.23146E+01-2.59734E-05
 -1     27120-2.10833E+01 3.05352E+01-6.41042E-04
 -1     27121-2.14148E+01 2.99842E+01 8.40506E-04
 -1     27122-2.13173E+01 3.14374E+01-4.48565E-03
 -1     27123-2.16209E+01 3.14673E+01 1.34183E-04
 -1     27124-1.43081E+01 2.71496E+01 3.41355E-04
 -1     27125-1.54505E+01 2.72836E+01 2.54536E-05
 -1     27126-7.59109E-03 4.00150E-04-2.56140E-05
 -1     27127-1.60542E-03 1.01778E-02 4.11308E-05
 -1     27128-1.91583E-03 4.77438E-05-1.63168E-05
 -1     27129-1.37082E-02 2.93545E-03-5.00576E-06
 -1     27130-5.04117E-03 1.56087E-02-2.52274E-05
 -1     27131-4.24872E-02-1.35928E-02-3.60728E-05
 -1     27132 1.19679E+00 1.01876E+01 4.20207E-06
 -1     27133 1.21964E+00 9.01582E+00-7.68417E-06
 -1     27134-3.01725E+00 1.16045E+01 1.43945E-06
 -1     27135-2.18246E-02-3.49204E-03 3.13693E-05
 -1     27136-2.57799E-02 4.32332E-04 2.12176E-05
 -1     27137-4.88807E-02 2.02816E-03 3.74959E-05
 -1     27138-1.11534E+01 2.95730E+01 5.23113E-06
 -1     27139-1.05882E+01 2.93540E+01 3.74634E-05
 -1     27140-6.52283E+00 2.57626E+01-4.83254E-05
 -1     27141-1.80845E+01 3.04393E+01-4.32098E-04
 -1     27142-1.38006E+01 1.65837E+01 3.57555E-05
 -1     27143-1.31448E+01 1.72866E+01-2.39527E-06
 -1     27144 9.57663E-01 1.89937E+00 3.63582E-05
 -1     27145-9.72014E+00 8.86111E+00 2.96590E-05
 -1     27146-1.01248E+01 9.46745E+00-1.35051E-05
 -1     27147-1.41909E+01 1.37533E+01 2.96095E-05
 -1     27148-1.43478E+01 1.35950E+01-4.95645E-06
 -1     27149-1.33991E+01 1.31406E+01 6.35567E-06
 -1     27150-1.38552E+01 1.39630E+01-3.00341E-06
 -1     27151-1.40123E+01 1.38020E+01 2.10172E-05
 -1     27152-1.28742E+01 1.23539E+01 2.07902E-05
 -1     27153-1.02509E+01 8.67094E+00 7.67754E-06
 -1     27154-1.05244E+01 9.05296E+00-2.96025E-05
 -1     27155-1.06663E+01 9.25390E+00-3.27754E-05
 -1     27156-9.95466E+00 2.92648E+01-9.76569E-06
 -1     27157-9.09405E+00 2.87093E+01 1.23046E-04
 -1     27158-1.21609E+01 2.97264E+01-1.81169E-04
 -1     27159-1.14863E+01 2.58202E+01-1.23279E-05
 -1     27160-1.55378E+01 2.76111E+01-1.61143E-04
 -1     27161-1.47959E+01 2.86619E+01 1.02754E-04
 -1     27162-1.57497E+01 2.92510E+01 1.21859E-04
 -1     27163-1.64313E+01 2.78348E+01-4.64274E-04
 -1     27164-1.56587E+01 2.89138E+01 1.62906E-04
 -1     27165-1.32810E+01 2.69935E+01-2.43186E-05
 -1     27166-1.34787E+01 2.72623E+01 1.38084E-05
 -1     27167-1.38707E+01 2.84351E+01-3.40067E-05
 -1     27168-4.06565E+00 4.07044E+00 6.24304E-06
 -1     27169-4.29081E+00 3.82549E+00-5.73780E-07
 -1     27170-3.68297E+00 1.88890E+00 8.88048E-05
 -1     27171-5.21431E-01 1.78161E-01 9.47283E-05
 -1     27172 1.79202E-02 3.84646E-02-2.46331E-05
 -1     27173 2.46195E-02 8.18783E-02 1.54352E-05
 -1     27174 4.52107E-03 2.72394E-02 1.49576E-05
 -1     27175 1.45814E+00 1.19210E+01 4.07948E-06
 -1     27176 1.35432E+00 1.15364E+01-4.42056E-05
 -1     27177 1.40153E+00 1.14923E+01-2.73211E-05
 -1     27178 1.24446E+00 1.20829E+01-1.96954E-05
 -1     27179 1.21886E+00 1.14189E+01-4.81362E-05
 -1     27180-1.21317E+01 2.71942E+01-1.11465E-07
 -1     27181-1.26135E+01 2.56137E+01 9.65882E-05
 -1     27182-1.07983E+01 2.47160E+01 3.72641E-05
 -1     27183-1.17177E+01 2.47796E+01-8.47493E-05
 -1     27184-1.12315E+01 2.35866E+01 4.08543E-05
 -1     27185-2.24784E+00 1.24289E+01-7.59455E-06
 -1     27186-2.03853E+00 1.31918E+01-9.41869E-08
 -1     27187-1.68988E+00 1.25608E+01-2.65263E-06
 -1     27188-2.39518E+00 1.68499E+00-4.86272E-05
 -1     27189-1.25657E+01 1.79012E+01-8.38540E-06
 -1     27190-1.34892E+01 1.82311E+01 2.41459E-06
 -1     27191-1.38137E+01 1.92620E+01-5.65346E-06
 -1     27192-1.28772E+01 1.89238E+01-3.35685E-05
 -1     27193-1.36724E+00 1.00302E+01 5.11345E-06
 -1     27194-1.05828E+00 9.50028E+00 7.39752E-06
 -1     27195-3.70869E-01 1.07951E-01-2.25610E-05
 -1     27196-4.42933E-01 1.49947E-01-8.43380E-04
 -1     27197-2.08778E-01 4.28035E-02 6.87256E-05
 -1     27198-2.31773E+00 7.49574E+00 1.64993E-05
 -1     27199 9.16029E-02 1.46352E-01-8.12530E-06
 -1     27200 7.42574E-02 1.28272E-01 3.28530E-05
 -1     27201 4.68592E-02 7.04679E-02-5.90667E-06
 -1     27202 1.65900E-01 5.03076E-01 1.44475E-05
 -1     27203-5.06730E-04 1.17733E-03 2.31292E-05
 -1     27204-3.64500E-03-1.30534E-03 6.39668E-06
 -1     27205-5.96299E+00 1.45963E+01-2.49237E-05
 -1     27206-5.19060E+00 1.49159E+01-1.37279E-05
 -1     27207-1.71537E+00 1.97672E+01 4.14229E-05
 -1     27208-2.11589E+00 2.05863E+01-2.78463E-05
 -1     27209-2.25405E+00 2.03482E+01 7.67672E-05
 -1     27210 2.17998E-01 3.97925E-01-3.54708E-06
 -1     27211 2.50329E-01 4.30448E-01-4.90865E-06
 -1     27212-4.13319E-01 9.60365E-02-8.71475E-05
 -1     27213-1.14930E-01 1.54980E-03-5.33090E-04
 -1     27214-1.66464E+01 2.74259E+01 7.86438E-05
 -1     27215-1.76594E+01 2.77592E+01-1.00788E-04
 -1     27216-3.97417E-02-1.84930E-03 1.14300E-05
 -1     27217-9.01976E-02 3.31021E-02-2.02218E-05
 -1     27218 1.39620E-01 2.13227E-01-2.92479E-05
 -1     27219-1.34206E+00 1.19583E+01 4.41474E-06
 -1     27220 6.37810E-01 1.25216E+01 4.43593E-08
 -1     27221-3.41880E+00 7.83858E+00 2.38017E-06
 -1     27222 5.70542E-02 1.89011E-01-2.52864E-05
 -1     27223-2.38066E+00 7.07394E+00-1.57413E-05
 -1     27224-2.27133E+00 6.87677E+00 4.33870E-06
 -1     27225-2.22867E+00 6.20717E+00 7.40562E-06
 -1     27226 4.38905E-01 1.26299E+00-2.72935E-05
 -1     27227 4.97944E-01 1.41982E+00 2.48745E-05
 -1     27228 4.07613E-01 1.14860E+00 3.67359E-06
 -1     27229 4.68628E-01 1.30548E+00-1.53113E-07
 -1     27230-5.27786E-02 4.89510E-04-2.74601E-05
 -1     27231-1.10863E-01 4.27549E-02 1.43399E-04
 -1     27232-9.43565E+00 2.54951E+01 1.75365E-04
 -1     27233-9.56275E+00 1.77276E+01 1.57328E-05
 -1     27234-8.92561E+00 1.63115E+01-4.29471E-06
 -1     27235-3.96785E+00 1.00324E+01-1.56079E-06
 -1     27236-7.60194E-01 1.60233E+01 6.30777E-07
 -1     27237-9.34752E-01 1.50284E+01 1.42905E-05
 -1     27238-1.38821E+00 1.55997E+01 1.20561E-05
 -1     27239-7.69441E-01 1.60294E+01-3.29734E-06
 -1     27240 1.37142E+00 1.08472E+01-3.15572E-07
 -1     27241 2.08436E+00 9.72565E+00-1.45639E-05
 -1     27242 1.87843E+00 9.01151E+00-1.77902E-05
 -1     27243 2.06118E+00 9.91256E+00 1.68560E-05
 -1     27244 1.96142E+00 9.00694E+00-3.64633E-06
 -1     27245 3.30106E-01 6.65605E-01 2.05126E-06
 -1     27246 3.59695E-01 7.99907E-01-1.03363E-05
 -1     27247 3.79117E-01 9.44985E-01 9.99501E-07
 -1     27248 3.91815E-01 1.10743E+00 6.58810E-06
 -1     27249-1.80346E+01 2.30465E+01-4.07654E-05
 -1     27250-1.89690E+01 2.33878E+01-4.24620E-05
 -1     27251-1.18087E-02-2.27857E-03 3.09064E-05
 -1     27252 1.12560E-01 3.49658E-01 2.11359E-05
 -1     27253-5.40944E-02-9.64013E-03-2.35997E-04
 -1     27254-1.77332E+00 7.99926E-01 2.18714E-04
 -1     27255-2.37658E+00 1.08081E+00 1.99494E-04
 -1     27256-2.43330E+00 1.07185E+00 1.23417E-04
 -1     27257-6.38183E-02 6.11307E-03-6.10162E-05
 -1     27258-8.19615E-01 5.76950E-01 6.26272E-05
 -1     27259-3.33903E-01 1.51853E-01 3.72195E-03
 -1     27260-3.35286E-01 1.45032E-01 2.60127E-03
 -1     27261 2.90124E-01 7.67116E+00 2.03600E-07
 -1     27262-7.02994E-01 3.24568E-01-7.55498E-04
 -1     27263-2.75521E-01 1.36173E-01 3.19029E-03
 -1     27264-5.56460E+00 5.36785E+00-5.60211E-07
 -1     27265-6.16190E+00 5.52391E+00 3.32494E-05
 -1     27266-1.06192E+01 8.24305E+00-1.59847E-05
 -1     27267-1.03997E+01 7.96501E+00-2.31725E-06
 -1     27268-1.08977E+01 8.60206E+00-1.90896E-05
 -1     27269-1.97750E-02-7.75144E-03-7.09881E-06
 -1     27270-6.42946E+00 5.24183E+00-6.97070E-06
 -1     27271-6.14799E+00 5.53057E+00-2.25389E-05
 -1     27272 4.75788E-01 1.07891E+00 1.35830E-06
 -1     27273 4.89743E-01 1.04931E+00 6.66656E-06
 -1     27274-5.28990E+00 3.03736E+00 1.74320E-05
 -1     27275-5.64608E+00 3.35251E+00 7.08834E-06
 -1     27276-5.83203E+00 3.17754E+00-2.33363E-05
 -1     27277 9.11680E-02 3.21722E-01 9.09521E-06
 -1     27278 5.77748E-02 2.00176E-01 7.79239E-05
 -1     27279 1.25680E-01 2.13953E-01 1.16629E-05
 -1     27280-7.12469E-01 1.92470E+01 2.29059E-06
 -1     27281-4.98616E+00 1.89499E+01 1.06363E-04
 -1     27282-1.50793E-01 1.64372E+01 1.45522E-05
 -1     27283-7.59170E-01 1.60054E+01 1.43020E-05
 -1     27284-3.37746E-01 1.54248E+01 8.31456E-06
 -1     27285 4.42625E-01 8.57268E-01 1.06192E-05
 -1     27286 1.27055E+00 2.54196E+00 5.46194E-06
 -1     27287 3.69630E-02 5.36716E-02 2.83123E-05
 -1     27288-6.19448E+00 3.81135E+00-4.13154E-05
 -1     27289 7.32845E-02 1.26456E-01-3.33138E-05
 -1     27290 1.29961E+00 2.91017E+00 8.04127E-06
 -1     27291 1.33125E+00 2.97874E+00 5.22950E-05
 -1     27292 1.22071E+00 2.71894E+00-8.42082E-06
 -1     27293 1.25217E+00 2.78365E+00-1.59996E-05
 -1     27294 2.01524E+00 5.69336E+00-4.40839E-05
 -1     27295-2.06906E-02-2.79738E-03 2.97298E-05
 -1     27296-9.89171E+00 8.18096E+00 8.20261E-06
 -1     27297-8.79735E+00 7.85861E+00 7.24111E-06
 -1     27298-9.89185E+00 8.18111E+00 2.99884E-05
 -1     27299 6.43399E-02 9.33154E-02 2.77599E-05
 -1     27300 8.00331E-02 1.17321E-01 5.66153E-06
 -1     27301 2.04936E-02 2.75923E-02 1.41647E-05
 -1     27302-1.16500E+01 1.75550E+01 8.38353E-06
 -1     27303-1.13372E+01 1.66579E+01-4.44834E-06
 -1     27304-1.22392E+01 1.69953E+01-6.00435E-06
 -1     27305 1.06886E+00 2.42006E+00-1.52054E-05
 -1     27306 1.13881E+00 2.42842E+00 1.00814E-04
 -1     27307 1.12765E+00 2.59241E+00-7.22645E-05
 -1     27308 1.91615E+00 8.43667E+00-2.91453E-05
 -1     27309 1.93634E+00 7.95724E+00 1.06953E-05
 -1     27310 2.97624E-02 9.20713E+00 2.47143E-06
 -1     27311-1.24109E-01 8.61044E+00-4.40744E-06
 -1     27312 1.71649E-03 5.51527E-03-2.84198E-05
 -1     27313 1.86273E-02 2.50715E-02 6.06713E-06
 -1     27314 3.89183E-02 5.51103E-02 7.59226E-06
 -1     27315 1.99746E-02 2.68869E-02 2.33021E-06
 -1     27316 1.43643E-02 1.92614E-02 9.77568E-06
 -1     27317 1.53675E+00 5.53381E+00-1.21233E-05
 -1     27318 1.29515E+00 5.37835E+00 3.68332E-05
 -1     27319 1.35470E+00 5.04026E+00-4.76918E-05
 -1     27320-1.89299E+01 2.34988E+01-2.16361E-05
 -1     27321 3.17413E-01 3.12946E+00 3.95034E-06
 -1     27322 6.29144E-01 3.10363E+00 1.68255E-05
 -1     27323-1.25614E+01 1.24980E+01-3.27779E-05
 -1     27324-1.41907E+01 1.33416E+01 3.32841E-05
 -1     27325-1.01015E+01 8.46574E+00 3.83823E-05
 -1     27326-8.92040E+00 9.71508E+00-3.66769E-05
 -1     27327-9.71311E+00 9.90506E+00-4.52801E-06
 -1     27328 2.99549E-01 9.50030E-01-4.69206E-05
 -1     27329 3.35977E-01 1.03875E+00-2.87137E-05
 -1     27330 7.18421E-01 2.36893E+00-1.95444E-05
 -1     27331 6.98372E-02 2.42221E+00-1.84596E-06
 -1     27332 2.47133E-01 2.40512E+00 4.67815E-06
 -1     27333 1.84513E-01 2.63429E+00 1.63806E-06
 -1     27334 8.65811E-02 2.94596E+00 6.11727E-06
 -1     27335 2.62010E-01 4.23502E-01 3.98329E-05
 -1     27336 1.94296E-01 3.15253E-01-2.92971E-05
 -1     27337-4.05445E-01 1.51669E+01-7.74740E-06
 -1     27338-6.29145E-01 1.43464E+01 2.28742E-05
 -1     27339-8.24552E+00 5.51129E+00-1.19602E-05
 -1     27340-8.51541E+00 5.80347E+00 8.57761E-06
 -1     27341-1.48482E+00 3.99787E+00-8.84631E-06
 -1     27342-1.15932E+00 1.42098E+01-9.19287E-06
 -1     27343-1.52324E+00 7.33407E-01 4.21474E-04
 -1     27344-2.78389E+00 1.25816E+00-1.68844E-04
 -1     27345-2.66407E+00 1.24851E+00 1.05861E-04
 -1     27346-2.08498E+00 3.83008E+00 1.42439E-05
 -1     27347-1.71723E+00 3.70528E+00-1.52728E-05
 -1     27348-1.86126E+00 4.09651E+00 4.84385E-07
 -1     27349-2.77357E+00 1.80244E+00 4.61334E-06
 -1     27350-3.00882E+00 6.03725E+00 1.93300E-05
 -1     27351 1.88123E+00 1.09069E+01-7.98968E-06
 -1     27352 2.18630E+00 7.10308E+00-4.57030E-05
 -1     27353 2.09037E+00 7.02910E+00 8.22086E-06
 -1     27354 2.16819E+00 7.25299E+00 7.35891E-06
 -1     27355-6.55790E+00 1.25427E+01-4.36199E-06
 -1     27356-6.30797E+00 1.17806E+01-9.79449E-06
 -1     27357-7.02667E+00 1.19911E+01 1.94094E-06
 -1     27358 1.68221E+00 6.75530E+00 8.61476E-06
 -1     27359 1.78717E+00 6.42786E+00 1.19279E-05
 -1     27360 1.73309E+00 7.43011E+00-2.10621E-05
 -1     27361 1.73821E+00 7.44242E+00 3.01011E-05
 -1     27362 1.98493E+00 1.04551E+01 2.07655E-05
 -1     27363-3.48548E-01 1.18137E-01 9.61284E-05
 -1     27364-4.79363E-01 2.22706E-01 6.25454E-05
 -1     27365 3.69206E-03 1.50526E-02 4.88023E-06
 -1     27366 4.02548E-04 3.52915E-03 9.91966E-06
 -1     27367 3.88881E-03 6.73983E-03-1.91869E-05
 -1     27368 3.47553E-03 7.18880E-03-2.49109E-05
 -1     27369 8.21248E-01 1.53422E+00 4.46606E-05
 -1     27370 8.04005E-01 1.46822E+00 6.40797E-06
 -1     27371 9.62334E-01 1.81160E+00-4.24962E-05
 -1     27372-1.50873E+01 1.84660E+01-2.57817E-06
 -1     27373-1.65154E+01 1.86705E+01 2.00587E-05
 -1     27374-1.69873E+01 1.83508E+01 2.11789E-05
 -1     27375-1.73173E+01 1.91491E+01 4.73279E-05
 -1     27376-1.66421E+01 1.76979E+01-3.94230E-05
 -1     27377 8.20630E-02 1.22747E-01-5.27349E-06
 -1     27378-1.57376E+01 2.15081E+01-6.18618E-05
 -1     27379-1.45473E+01 2.13699E+01 3.91355E-06
 -1     27380-5.19174E-01 3.27635E-01 2.23445E-05
 -1     27381-6.71102E-01 5.37802E-01-1.50020E-04
 -1     27382-8.17268E-01 5.68615E-01-1.33543E-04
 -1     27383-3.91922E-01 2.05332E-01 2.45568E-05
 -1     27384 4.30754E-01 8.22276E+00-2.12136E-06
 -1     27385-1.88911E+01 2.22113E+01-2.70038E-05
 -1     27386-2.03727E+01 2.98145E+01-2.53524E-04
 -1     27387-1.75363E-01 5.11936E-02-1.49541E-03
 -1     27388 5.74766E-01 1.19799E+00 2.25388E-06
 -1     27389 5.64577E-01 1.23677E+00-2.01606E-07
 -1     27390 2.28763E-02 5.28204E-02 1.66899E-05
 -1     27391 2.68724E-02 6.44077E-02 1.27957E-05
 -1     27392-1.20454E+01 1.16728E+01 2.33939E-05
 -1     27393-1.40336E+01 1.30908E+01-1.42819E-05
 -1     27394 3.88151E-01 1.27507E+00 3.37679E-06
 -1     27395 3.83395E-01 1.47351E+00 3.60133E-05
 -1     27396 3.45846E-02 6.38106E-02 6.35452E-06
 -1     27397 1.00624E-01 1.85397E-01 3.22923E-06
 -1     27398 5.28822E-02 9.36154E-02-1.63559E-04
 -1     27399 9.04752E-02 1.65343E-01 1.74201E-05
 -1     27400-5.54231E-01 4.64961E+00-1.26858E-06
 -1     27401 5.79104E-01 1.16370E+00 1.52455E-05
 -1     27402 6.48914E-01 1.31569E+00 2.14493E-06
 -1     27403-1.75148E+01 1.92516E+01 3.01055E-05
 -1     27404-1.80385E+01 2.02908E+01 1.31281E-05
 -1     27405-1.70293E+01 1.95829E+01-1.68775E-05
 -1     27406-1.52818E+00 9.37837E+00 1.01722E-06
 -1     27407-3.45283E-01 6.34792E-02 5.58383E-04
 -1     27408-9.02142E-02-1.21815E-02-4.56757E-04
 -1     27409-1.02669E-01-7.99223E-03-7.86450E-04
 -1     27410 4.93258E-01 1.01663E+00-2.32440E-06
 -1     27411 1.22018E+00 1.14202E+01 5.23563E-05
 -1     27412 8.41202E-01 1.19198E+01-2.66032E-05
 -1     27413 1.20241E+00 2.36221E+00-8.38270E-06
 -1     27414-5.80945E-01 9.98557E-01-5.68843E-06
 -1     27415-5.51431E-01 1.38517E+00-2.90342E-06
 -1     27416-7.30751E-01 1.08029E+01-7.27293E-06
 -1     27417-1.20859E+00 1.06762E+01 9.67399E-06
 -1     27418-1.11822E+01 1.21616E+01-1.24800E-05
 -1     27419-1.20881E+01 1.23824E+01-5.77894E-06
 -1     27420 8.48120E-01 1.54114E+00 9.37863E-06
 -1     27421-1.16701E+01 1.16605E+01-7.84728E-06
 -1     27422-1.07927E+01 1.14547E+01-3.64284E-05
 -1     27423-1.12443E+01 1.09690E+01 1.16922E-05
 -1     27424 1.22184E+00 2.43535E+00-3.65841E-05
 -1     27425 6.52781E-01 1.12190E+01 3.83572E-06
 -1     27426-3.96494E+00 1.89824E+00 1.30611E-04
 -1     27427 2.63719E-04 3.31773E-03 7.96646E-06
 -1     27428-9.18625E-04 6.88617E-03 1.46748E-05
 -1     27429-2.03482E-03-4.82078E-05-2.26774E-06
 -1     27430-3.18589E+00 1.48602E+00-2.21704E-05
 -1     27431-3.13421E+00 1.33972E+00-1.78722E-04
 -1     27432-2.05090E-01 4.12340E-02-2.35954E-03
 -1     27433-4.33241E-01 1.79904E-01 1.12832E-03
 -1     27434-4.17156E-01 1.66849E-01-2.82606E-03
 -1     27435-1.24568E+00 5.33632E-01 1.63187E-03
 -1     27436-3.76494E-02-1.20471E-02 9.10877E-06
 -1     27437-8.12579E-02-1.44284E-02 2.29410E-04
 -1     27438-3.10569E-01 4.84337E-02 2.91645E-04
 -1     27439-1.21467E-01-1.35293E-02 4.58135E-04
 -1     27440 1.86801E+00 4.55566E+00-4.88795E-06
 -1     27441 1.96213E+00 4.95448E+00-4.20941E-05
 -1     27442 1.94410E+00 4.99947E+00 9.36933E-06
 -1     27443 2.77701E-01 5.95112E-01-6.73774E-06
 -1     27444 1.03259E+00 2.41086E+00 2.58969E-05
 -1     27445 9.84582E-01 2.32484E+00 1.36794E-05
 -1     27446 3.30947E-01 5.38643E-01 6.27307E-05
 -1     27447 3.39660E-01 5.54020E-01-4.17295E-05
 -1     27448-3.69153E+00 1.61871E+00 4.61516E-05
 -1     27449-3.39142E+00 1.51039E+00-1.44830E-05
 -1     27450-3.26195E+00 1.40730E+00-1.54514E-05
 -1     27451 1.81164E+00 4.99062E+00 3.31682E-05
 -1     27452 2.04068E+00 5.88795E+00-2.76165E-07
 -1     27453 1.96244E+00 5.94078E+00-3.97206E-06
 -1     27454 1.86015E+00 5.37564E+00 1.33798E-06
 -1     27455-9.96651E+00 7.50532E+00 6.15560E-05
 -1     27456-1.01827E+01 7.77339E+00 2.36132E-05
 -1     27457-9.75238E+00 7.24398E+00 1.67819E-05
 -1     27458 2.09656E+00 5.78343E+00-2.46783E-05
 -1     27459 2.06523E+00 5.54526E+00 5.29126E-05
 -1     27460 2.04805E+00 5.42900E+00 2.13461E-05
 -1     27461-1.41332E+01 2.02892E+01-1.09267E-05
 -1     27462-5.48975E+00 2.88806E+00 1.62411E-05
 -1     27463-4.90020E+00 9.56694E+00-2.31210E-06
 -1     27464-4.20699E+00 9.41448E+00-1.07631E-06
 -1     27465-5.39390E+00 3.44062E+00 1.72293E-05
 -1     27466-5.18940E+00 3.64205E+00 8.00418E-06
 -1     27467-5.74413E+00 3.78478E+00-2.64818E-06
 -1     27468 9.25375E-01 2.72401E+00 3.99153E-05
 -1     27469-5.05061E+00 3.11620E+00 3.29231E-05
 -1     27470 2.13924E+00 7.53590E+00-3.92703E-05
 -1     27471 4.97685E-01 9.81920E-01 2.03770E-05
 -1     27472-8.02053E+00 5.31618E+00 2.68429E-06
 -1     27473 8.86520E-02 1.63979E+00 8.19345E-06
 -1     27474 3.60750E-02 1.89333E+00 6.29116E-06
 -1     27475 1.88715E-01 1.89717E+00 7.42153E-06
 -1     27476-6.77738E+00 5.68840E+00-7.29380E-06
 -1     27477 1.92375E-01 9.83296E+00-8.04145E-06
 -1     27478 8.39770E-01 1.19185E+01 5.36873E-05
 -1     27479-9.11037E+00 7.10946E+00 1.91277E-08
 -1     27480-8.59236E+00 6.72674E+00 2.44213E-05
 -1     27481-8.70585E+00 6.60568E+00 7.00814E-07
 -1     27482-2.12847E-01 1.46405E+01 7.61565E-06
 -1     27483-6.30824E-01 1.43584E+01 2.18958E-05
 -1     27484-3.41218E-01 1.37475E+01-1.48105E-05
 -1     27485-8.66699E+00 5.97059E+00 5.93060E-06
 -1     27486-8.50166E+00 6.10560E+00-2.85327E-06
 -1     27487-9.17373E+00 6.47471E+00-1.74593E-05
 -1     27488-9.01916E+00 6.29900E+00-4.03123E-06
 -1     27489-7.32796E+00 5.96434E+00-1.08166E-05
 -1     27490 3.41671E-01 5.62534E-01-5.53274E-05
 -1     27491 4.21890E-01 7.06915E-01-8.56885E-05
 -1     27492 2.08699E-01 3.89996E-01-1.19844E-06
 -1     27493 2.88530E-01 5.44146E-01 5.54202E-06
 -1     27494 2.84042E-01 5.16390E-01-6.14311E-06
 -1     27495-1.07279E+01 2.82049E+01 4.01739E-05
 -1     27496-1.57647E+01 1.59617E+01-1.25736E-05
 -1     27497-1.92403E+01 2.65091E+01 1.26296E-04
 -1     27498-1.90125E+01 2.53069E+01-3.91864E-05
 -1     27499-1.93353E+01 2.30620E+01 4.17237E-05
 -1     27500-1.92655E+01 2.38371E+01 5.74631E-05
 -1     27501-2.00110E+01 2.41478E+01 4.29525E-05
 -1     27502-2.47772E+00 3.93880E+00-5.15076E-06
 -1     27503 6.03507E-01 1.14874E+00 2.98310E-05
 -1     27504 6.78597E-01 1.30404E+00 3.90910E-05
 -1     27505-3.09171E-01 8.73423E-02-7.20518E-05
 -1     27506-5.75592E-02 9.34028E-04 1.59022E-07
 -1     27507-1.82899E-01 4.95124E-02-1.46572E-03
 -1     27508 1.21982E+00 3.17270E+00-5.75603E-06
 -1     27509 1.32898E+00 3.49552E+00 1.25552E-06
 -1     27510 6.11713E-01 1.63936E+00-4.42689E-06
 -1     27511 5.38178E-01 1.49926E+00 2.47727E-05
 -1     27512-7.75358E+00 2.77815E+01 6.16262E-05
 -1     27513-7.85406E+00 2.75436E+01-2.51535E-07
 -1     27514-7.15384E+00 2.66380E+01-1.01119E-04
 -1     27515 1.33448E+00 2.88336E+00-2.14563E-05
 -1     27516 1.25531E+00 2.69073E+00-2.43299E-05
 -1     27517 4.18466E-02 1.40489E-01-1.48451E-04
 -1     27518 4.29211E-02 1.50812E-01-1.33631E-04
 -1     27519 1.22275E+00 5.73357E+00 1.03596E-05
 -1     27520 1.48609E+00 6.67428E+00 7.65392E-06
 -1     27521 1.51797E+00 7.33717E+00 2.27978E-05
 -1     27522 2.37609E-03 5.26742E-03-3.37482E-05
 -1     27523-6.12258E+00 1.96497E+01 3.89459E-05
 -1     27524-9.51852E-02 9.83862E-03-5.41375E-04
 -1     27525-2.46007E-01 7.18463E-02 1.04126E-03
 -1     27526-1.11131E+01 1.43926E+01-1.93271E-05
 -1     27527-1.03051E+01 2.93128E+01-9.39338E-06
 -1     27528-1.87716E+00 7.60399E-01-2.24463E-04
 -1     27529-5.68078E-02-1.74610E-02 1.97794E-05
 -1     27530-4.93785E-02-1.56617E-02 9.07444E-05
 -1     27531-4.49957E-02-1.55490E-02 3.09210E-05
 -1     27532-3.97410E-02-1.50008E-02 9.79544E-05
 -1     27533-5.79353E+00 6.75673E+00-1.60781E-06
 -1     27534-6.41534E+00 6.92628E+00-4.82887E-06
 -1     27535 2.03134E+00 5.31948E+00-1.92132E-05
 -1     27536 1.14563E+00 2.27165E+00 1.14937E-04
 -1     27537 1.55566E+00 3.54678E+00-2.07261E-05
 -1     27538 1.46181E+00 3.31219E+00-1.27668E-05
 -1     27539-1.20104E+00 1.72699E+01-5.33746E-06
 -1     27540-2.12666E+00 1.70516E+01 3.68576E-06
 -1     27541-1.74480E+00 1.63191E+01 1.69690E-05
 -1     27542-8.51527E+00 2.01016E+01-3.33233E-05
 -1     27543-9.06468E+00 1.93738E+01-5.11241E-06
 -1     27544-7.05791E+00 8.01680E+00-1.38405E-05
 -1     27545-8.11143E+00 6.20555E+00 1.77288E-06
 -1     27546-1.83280E+00 1.39643E+01-1.44756E-05
 -1     27547-2.41330E+00 1.38421E+01 1.39241E-05
 -1     27548-6.14163E+00 1.79625E+01-5.98860E-05
 -1     27549-1.03006E+01 1.19470E+01-5.35148E-06
 -1     27550-1.06899E+01 1.26738E+01-2.00382E-05
 -1     27551 6.38953E-01 1.35690E+00-3.40550E-06
 -1     27552-4.97638E+00 2.19068E+01 5.83429E-05
 -1     27553-4.28276E+00 2.25954E+01-1.27612E-04
 -1     27554-7.39970E-01 1.22472E+01 4.52577E-06
 -1     27555-1.03003E+00 1.13722E+01-3.63037E-07
 -1     27556-5.55663E-01 1.14864E+01 1.66212E-06
 -1     27557 2.55786E-01 4.17287E-01 1.02983E-05
 -1     27558-1.76503E+00 7.55260E-01 2.63710E-04
 -1     27559-1.97943E+00 8.19546E-01-3.46095E-05
 -1     27560-2.59761E+00 1.25792E+00-4.52547E-05
 -1     27561-2.53251E+00 1.34205E+00 5.49219E-05
 -1     27562-3.53441E+00 3.33792E+00 3.85671E-06
 -1     27563-4.00174E+00 3.46204E+00 6.43388E-06
 -1     27564 7.26785E-01 1.50674E+00-9.91590E-06
 -1     27565 1.19167E+00 2.71901E+00-5.33714E-05
 -1     27566 1.17371E+00 2.56581E+00 2.82389E-05
 -1     27567 1.15965E+00 2.65543E+00-1.71817E-05
 -1     27568 1.06093E+00 2.05340E+00-1.35940E-05
 -1     27569 1.06243E+00 2.10623E+00-1.15255E-04
 -1     27570-8.70380E+00 2.51321E+01 1.94920E-05
 -1     27571 1.57777E-01 1.66843E+01 2.12884E-06
 -1     27572 2.09412E-02 1.70495E+01-9.74810E-06
 -1     27573-1.42833E+01 2.99133E+01 7.55956E-05
 -1     27574-1.53388E+01 3.00698E+01 9.09214E-06
 -1     27575 4.58558E-03 7.69316E-03 2.85745E-05
 -1     27576-1.04261E+00 6.00881E-01 1.99931E-06
 -1     27577-8.34532E+00 7.58436E+00-3.16397E-05
 -1     27578-9.31793E+00 8.27811E+00-2.02054E-05
 -1     27579-3.40960E+00 1.44075E+01 1.56859E-05
 -1     27580-5.19874E+00 5.77286E+00 1.36034E-05
 -1     27581 1.58351E+00 8.34853E+00 2.52814E-05
 -1     27582 1.66897E+00 7.88667E+00-3.63251E-06
 -1     27583 1.81330E+00 8.43566E+00-2.12161E-05
 -1     27584-1.15469E+00 1.26840E+01-4.69208E-06
 -1     27585 1.59557E+00 1.08034E+01-1.08653E-05
 -1     27586-9.99107E+00 1.08992E+01-1.99255E-06
 -1     27587-1.08179E+00 2.48516E+00-1.00350E-04
 -1     27588-4.56471E+00 9.99743E+00 3.96643E-07
 -1     27589-4.31665E+00 1.06374E+01-5.62890E-06
 -1     27590-7.94221E+00 1.09779E+01 9.44298E-06
 -1     27591-8.38990E+00 1.05006E+01 2.44294E-05
 -1     27592 8.89058E-01 1.71622E+00 9.43827E-06
 -1     27593 9.72530E-01 1.87044E+00-8.43361E-06
 -1     27594-6.21356E-01 3.75871E+00 2.43371E-05
 -1     27595-7.50632E+00 1.14911E+01 6.54883E-06
 -1     27596 4.92680E-01 1.42218E+00 3.00087E-06
 -1     27597 2.38768E-01 5.35990E+00 2.86947E-06
 -1     27598-2.77505E+00 6.39777E+00 3.76936E-05
 -1     27599-3.24407E+00 6.49826E+00-1.15485E-05
 -1     27600-9.43836E+00 1.26276E+01 1.93582E-05
 -1     27601 9.22507E-01 1.99830E+00-3.84520E-05
 -1     27602-9.82224E+00 8.05353E+00 1.12891E-05
 -1     27603-1.02433E+01 8.62311E+00-1.28518E-05
 -1     27604-9.93224E+00 8.72452E+00 4.72445E-05
 -1     27605-6.30655E+00 1.71859E+01-7.96203E-06
 -1     27606-1.06902E+01 1.36219E+01-1.12146E-05
 -1     27607-5.30049E+00 1.41512E+01-3.65779E-06
 -1     27608 8.86526E-02 1.31727E-01-5.08286E-06
 -1     27609 1.44883E-01 2.22057E-01-1.04300E-06
 -1     27610 4.71770E-02 7.12000E-02 2.93331E-05
 -1     27611 4.94381E-02 7.64494E-02 1.41107E-05
 -1     27612 3.96816E-02 5.80361E-02 2.91516E-05
 -1     27613 9.22153E-02 1.39729E-01 1.99007E-05
 -1     27614 4.21660E-02 6.28296E-02 2.54791E-05
 -1     27615 5.43472E-01 3.34739E+00-2.73898E-05
 -1     27616 6.65069E-01 1.16567E+00-9.82413E-06
 -1     27617 7.51829E-01 1.33962E+00 2.02972E-05
 -1     27618 7.27194E-01 1.28644E+00-1.15215E-05
 -1     27619-2.76684E+00 2.37641E+00 9.29130E-06
 -1     27620-2.90804E+00 2.20627E+00-4.16805E-06
 -1     27621 8.94151E-01 2.94499E+00 6.19999E-05
 -1     27622 2.74353E-02 1.16904E+01-2.99201E-05
 -1     27623 1.17133E+00 4.94791E+00 1.57408E-05
 -1     27624 1.39733E+00 4.71777E+00-1.58075E-05
 -1     27625-6.96799E-02 1.64592E+00 7.23668E-06
 -1     27626-1.42002E-01 1.90491E+00 6.92500E-06
 -1     27627 3.47757E-02 6.51135E-02-2.34436E-05
 -1     27628 3.52226E-02 6.89024E-02 9.13748E-06
 -1     27629 3.51109E-02 6.76857E-02-2.34348E-05
 -1     27630-1.54154E+00 7.66585E+00-6.54146E-06
 -1     27631-1.24465E-01 1.44854E+01 4.80180E-05
 -1     27632-4.87938E+00 6.95030E+00-2.46127E-06
 -1     27633-5.14771E+00 7.49206E+00 3.51851E-07
 -1     27634 5.32667E-02 9.57636E-02-3.32457E-05
 -1     27635-4.09342E+00 4.73589E+00 1.47335E-06
 -1     27636 7.10828E-01 1.27404E+00-5.21591E-05
 -1     27637 1.39131E-01 1.38767E+01 3.80917E-05
 -1     27638-4.61913E+00 6.43726E+00-1.13789E-06
 -1     27639 3.31162E-01 5.80634E-01 1.77621E-06
 -1     27640-4.10851E-02 4.23331E+00-6.26678E-06
 -1     27641-1.20188E-01 3.80582E+00-7.17981E-06
 -1     27642 1.37498E-01 3.94291E+00 8.48751E-05
 -1     27643 1.72349E+00 4.02029E+00-3.78316E-05
 -1     27644 6.04022E-01 1.90696E+00-3.74320E-05
 -1     27645 2.87599E-01 2.13059E+00-1.05706E-05
 -1     27646-1.53794E+00 5.13638E+00 1.80429E-05
 -1     27647 9.06007E-01 1.72669E+00-3.90346E-05
 -1     27648-4.35562E+00 5.17515E+00 6.01686E-06
 -1     27649-4.63142E+00 5.62203E+00 3.22270E-06
 -1     27650-4.91085E+00 5.31065E+00-1.09331E-05
 -1     27651-7.26028E-02 1.19244E+00 4.10855E-06
 -1     27652-1.94839E+00 7.61326E+00 6.37382E-06
 -1     27653-1.76144E+00 8.21342E+00 1.19921E-06
 -1     27654-5.26587E+00 9.08381E+00 5.84908E-06
 -1     27655-5.55727E+00 9.69708E+00-8.87140E-07
 -1     27656-2.50780E+00 5.87080E+00 8.62123E-06
 -1     27657-2.96584E+00 6.03909E+00 2.03488E-05
 -1     27658-1.93728E+00 1.73432E+00 2.05692E-05
 -1     27659-2.14653E+00 1.44950E+00-1.42956E-04
 -1     27660-3.59022E+00 4.61045E+00 4.93428E-06
 -1     27661 8.13609E-01 2.02868E+00-3.28298E-05
 -1     27662 8.53079E-01 2.05502E+00-8.85322E-06
 -1     27663 8.42804E-01 2.08171E+00-6.50454E-06
 -1     27664-8.73433E-01 1.82486E+01-1.44947E-05
 -1     27665-6.03582E-01 1.91913E+01-6.59481E-06
 -1     27666-5.76758E-01 1.83262E+01-1.68491E-05
 -1     27667-3.64037E-01 1.83353E+01 4.27786E-06
 -1     27668 1.06192E+00 8.42910E+00 4.32286E-07
 -1     27669 1.34311E+00 8.52466E+00 1.01154E-05
 -1     27670 2.01857E+00 8.51701E+00 9.50265E-06
 -1     27671 1.01623E+00 1.97673E+00-7.21423E-05
 -1     27672-7.64006E+00 1.03053E+01 8.95742E-06
 -1     27673 1.11569E-01 2.82735E-01-5.01831E-05
 -1     27674 1.05871E-01 2.81713E-01 4.05298E-05
 -1     27675 1.67972E-01 4.38329E-01 2.01888E-05
 -1     27676-1.68270E+01 1.80462E+01 6.41294E-07
 -1     27677-1.71574E+01 1.88364E+01-3.18254E-06
 -1     27678 9.47200E-02 2.49610E-01 1.70791E-05
 -1     27679 1.15348E-01 2.87713E-01-2.43186E-05
 -1     27680-3.17265E+00 1.40436E+00 1.87657E-05
 -1     27681-1.30877E-01 2.45430E+00-2.27018E-05
 -1     27682-3.30808E-01 2.08971E+00 9.41012E-06
 -1     27683-4.24675E-02 2.14289E+00 1.90288E-05
 -1     27684-3.65605E-01 1.90263E+00-4.22662E-05
 -1     27685 9.48128E-02 4.88437E+00 2.40954E-05
 -1     27686 1.50646E-01 4.01053E+00-8.66879E-05
 -1     27687 2.74206E-01 4.57051E+00 1.61974E-06
 -1     27688 4.19297E-02 6.24494E-02-3.23994E-05
 -1     27689-6.07358E-03 1.00311E+00 3.72358E-06
 -1     27690 1.69914E-01 2.66887E-01 3.26078E-05
 -1     27691 1.91381E+00 5.52144E+00-6.37363E-05
 -1     27692 1.82527E+00 5.67103E+00-3.78986E-05
 -1     27693-2.60595E+00 2.55414E+00 2.35784E-05
 -1     27694-6.60418E+00 9.45346E+00-4.00562E-06
 -1     27695-8.27855E-01 6.96531E-01-1.18442E-04
 -1     27696-1.07793E+01 1.14482E+01 1.69868E-05
 -1     27697-1.16621E+01 1.16606E+01-3.86150E-05
 -1     27698-1.48141E+01 1.64408E+01-3.64384E-05
 -1     27699-1.52553E+01 1.73372E+01 3.42832E-05
 -1     27700-1.53068E+01 1.65229E+01-5.77459E-05
 -1     27701-1.53465E+01 1.68885E+01 1.50435E-05
 -1     27702-2.84338E+00 1.23037E+01 1.10149E-06
 -1     27703-4.38515E-01 4.48216E-01-5.11828E-05
 -1     27704-3.34567E-01 4.48599E-01-7.09734E-06
 -1     27705-2.76443E+00 1.69169E+01-4.41284E-05
 -1     27706-4.96443E+00 3.85363E+00-2.31743E-05
 -1     27707-5.51749E+00 3.99937E+00 2.47279E-07
 -1     27708-3.63575E-01 3.97124E+00-1.05236E-05
 -1     27709-2.76436E-01 4.35587E+00-8.62133E-06
 -1     27710-1.06211E-01 3.94036E+00 1.23438E-05
 -1     27711-1.90480E-01 3.57474E+00-5.39413E-06
 -1     27712-9.90354E+00 2.85231E+01-4.01287E-06
 -1     27713-2.10756E+01 2.73982E+01-5.03780E-04
 -1     27714-2.44627E+00 1.43603E+00 5.59889E-05
 -1     27715-2.02441E+01 3.12480E+01-5.41044E-04
 -1     27716-2.07267E+00 2.08243E+01 3.15245E-06
 -1     27717-1.67770E+01 3.07751E+01 3.22743E-04
 -1     27718-1.77928E+01 2.98188E+01-1.31303E-04
 -1     27719-1.76267E+01 3.03826E+01 6.58109E-05
 -1     27720 8.98612E-01 2.97121E+00-3.84938E-05
 -1     27721 8.91688E-01 3.49025E+00-2.20508E-06
 -1     27722-2.14351E+01 2.82845E+01-1.58738E-04
 -1     27723-2.18303E+01 2.87806E+01 5.76840E-04
 -1     27724-2.12669E+01 2.96753E+01-3.44333E-04
 -1     27725 1.99299E+00 1.01692E+01-2.81706E-05
 -1     27726 1.05591E+00 2.15854E+00-2.64783E-05
 -1     27727 1.12615E+00 2.36752E+00 7.78103E-05
 -1     27728 1.81094E+00 8.42925E+00 2.45240E-06
 -1     27729 3.68311E-01 1.07613E+00 2.10960E-06
 -1     27730 3.91399E-01 1.06583E+00-1.28907E-05
 -1     27731 3.64740E-01 1.06795E+00 2.92062E-05
 -1     27732 3.16403E-01 9.32468E-01-6.97836E-06
 -1     27733 3.34105E-01 9.20215E-01 1.73224E-05
 -1     27734-1.69640E+00 1.05709E+01 2.41372E-06
 -1     27735 5.75325E-01 1.49026E+00-1.20935E-05
 -1     27736-2.89000E+00 1.49624E+00 3.27572E-05
 -1     27737-2.85090E+00 1.39831E+00 2.54346E-04
 -1     27738 4.29143E-01 1.27996E+00-1.65793E-05
 -1     27739 5.13991E-01 1.45181E+00 8.42451E-06
 -1     27740 4.54129E-01 1.29437E+00 8.71213E-06
 -1     27741 1.84633E-02 5.96120E-02 2.35141E-04
 -1     27742-1.81864E+00 1.33659E+00 1.22086E-05
 -1     27743-1.62648E+00 1.63239E+00-1.64886E-04
 -1     27744-1.33712E+00 1.12623E+00 2.20342E-04
 -1     27745 6.43046E-02 2.28994E-01-5.39170E-05
 -1     27746 3.97425E-02 1.38276E-01 2.96664E-05
 -1     27747-1.55284E+01 1.61129E+01-1.36128E-05
 -1     27748-1.49220E+01 1.62337E+01-2.64251E-05
 -1     27749-1.52186E+01 1.54076E+01-1.36083E-05
 -1     27750-1.58476E+01 1.66939E+01-7.84490E-06
 -1     27751-1.55383E+01 1.59729E+01-2.75200E-05
 -1     27752 3.19989E-01 1.00682E+00 1.02492E-05
 -1     27753 2.84611E-01 9.18327E-01-1.29001E-05
 -1     27754-7.10129E+00 1.71079E+01-7.08762E-06
 -1     27755-4.51749E-01 1.57504E-01-1.33083E-03
 -1     27756 1.89213E+00 4.70065E+00-1.89155E-05
 -1     27757-1.06743E+01 1.51635E+01 3.32689E-05
 -1     27758-9.64771E+00 1.49281E+01 1.53605E-06
 -1     27759-3.16219E+00 2.28619E+01 4.04955E-05
 -1     27760-2.72594E+00 2.11883E+01-9.41370E-05
 -1     27761-3.47441E+00 2.27543E+01-4.65797E-05
 -1     27762-3.04469E+00 2.22862E+01-4.93967E-07
 -1     27763 4.95261E-01 6.30380E+00-5.46083E-07
 -1     27764-3.84403E+00 2.53216E+01-1.05037E-04
 -1     27765-3.59486E+00 2.51696E+01-2.15600E-04
 -1     27766-4.14707E+00 2.61261E+01-1.07914E-04
 -1     27767-6.97295E+00 4.31604E+00-3.81995E-06
 -1     27768-4.85825E+00 2.56545E+01 1.43095E-04
 -1     27769 1.09800E-01 3.85857E-01 7.24197E-05
 -1     27770 8.95633E-02 3.02703E-01-1.74921E-05
 -1     27771 1.24943E-01 4.38778E-01 7.81641E-06
 -1     27772 6.06998E-02 2.09663E-01-6.19614E-05
 -1     27773 3.08688E-02 1.01016E-01 7.55423E-05
 -1     27774 4.72697E-02 1.58805E-01 5.29305E-05
 -1     27775-1.88926E-01 3.46243E-02 8.02881E-05
 -1     27776-3.66871E-01 5.17136E+00 2.17142E-06
 -1     27777-1.93807E-01 4.81256E+00-4.17234E-05
 -1     27778 7.29046E-01 1.87517E+00 3.44690E-06
 -1     27779 7.23241E-01 1.81484E+00-1.91463E-05
 -1     27780 7.58895E-01 1.92937E+00-1.71941E-05
 -1     27781-1.50201E+01 3.04319E+01-2.59496E-04
 -1     27782-1.54202E+01 2.96258E+01 5.79374E-05
 -1     27783-1.62188E+01 3.03537E+01 4.84645E-04
 -1     27784-1.52098E+01 3.04619E+01 1.28010E-05
 -1     27785 2.00249E+00 5.17243E+00-2.49896E-05
 -1     27786 1.98274E+00 5.06260E+00-3.36498E-05
 -1     27787-8.41310E-01 3.69269E-01-8.46669E-04
 -1     27788 1.95313E+00 5.04623E+00-9.23940E-06
 -1     27789 1.95383E+00 4.99653E+00-3.06245E-05
 -1     27790 1.91667E+00 5.03581E+00-4.45068E-07
 -1     27791 1.51244E-01 2.31805E-01 4.72000E-05
 -1     27792 1.28281E-01 1.94761E-01 2.77919E-05
 -1     27793 1.35814E-01 2.08803E-01 1.24911E-05
 -1     27794 1.15967E-02 1.58224E-02 1.53204E-05
 -1     27795 5.56283E-03 7.15328E-03 1.50272E-05
 -1     27796-1.42504E+01 1.70610E+01 2.46399E-05
 -1     27797 2.12950E+00 6.25784E+00 3.90244E-05
 -1     27798 2.16838E+00 7.83908E+00-2.78153E-05
 -1     27799 7.55056E-01 2.90029E+00-1.93302E-05
 -1     27800 7.24456E-01 3.42088E+00 6.17816E-06
 -1     27801-2.40039E+00 1.85022E+01 3.44518E-05
 -1     27802 2.04315E+00 7.30432E+00-4.09553E-05
 -1     27803 1.22879E-01 2.00153E-01-1.04624E-05
 -1     27804 1.27094E-01 2.14108E-01-9.23971E-06
 -1     27805 1.18679E+00 2.70130E+00-2.56684E-06
 -1     27806 1.21385E+00 2.53964E+00 8.04711E-05
 -1     27807 1.08379E-01 1.73685E-01-2.49644E-05
 -1     27808 4.78189E-02 7.67158E-02-3.01482E-05
 -1     27809-3.83411E+00 4.33051E+00-8.69049E-07
 -1     27810 2.56336E-01 7.47048E-01 4.82088E-05
 -1     27811 1.28715E+00 2.91108E+00-4.36601E-05
 -1     27812 1.22014E+00 2.64167E+00-5.94680E-05
 -1     27813 1.22854E+00 2.60283E+00 1.21947E-04
 -1     27814-6.50534E+00 2.79429E+01 2.36356E-05
 -1     27815-5.92876E+00 2.69682E+01-9.67301E-05
 -1     27816 9.24101E-01 2.21388E+00-7.95250E-06
 -1     27817 9.43799E-01 2.20023E+00-5.56086E-06
 -1     27818 9.07132E-01 2.19105E+00-1.02660E-05
 -1     27819 1.09611E+00 2.53146E+00-8.01322E-06
 -1     27820-1.56821E+01 1.63914E+01-3.06246E-05
 -1     27821 9.72733E-01 1.93079E+00 3.89412E-05
 -1     27822 9.78385E-01 1.94913E+00-2.02094E-05
 -1     27823 8.89140E-01 1.77571E+00 1.55329E-07
 -1     27824-4.64720E+00 3.49511E+00-2.83412E-05
 -1     27825-5.24891E+00 2.77629E+01-2.62646E-05
 -1     27826-4.87954E+00 2.70413E+01-1.89147E-05
 -1     27827-1.76408E+01 1.97904E+01 2.35643E-05
 -1     27828-1.81119E+01 2.05912E+01 6.48796E-05
 -1     27829 9.09433E-02 3.02741E-01-1.16366E-05
 -1     27830 1.49639E-01 5.19037E-01 1.21650E-05
 -1     27831 1.43970E+00 1.28143E+01-4.80370E-06
 -1     27832 9.14164E-01 1.42602E+01-2.95209E-05
 -1     27833 7.25391E-02 1.32585E-01-3.15436E-05
 -1     27834-4.60438E+00 2.69267E+01-4.71708E-05
 -1     27835-4.56844E+00 2.68683E+01-2.80053E-05
 -1     27836-2.72955E+00 2.33230E+01 1.12317E-04
 -1     27837 1.69751E-01 5.84415E-01 3.48364E-05
 -1     27838 1.30834E-01 4.56200E-01 7.62670E-06
 -1     27839-1.39779E+01 3.02639E+01 1.17931E-04
 -1     27840 6.86127E-02 1.71206E-01-2.55303E-05
 -1     27841-1.93735E+01 2.29529E+01-9.16025E-05
 -1     27842-8.97952E-02-1.03892E-02 3.43114E-05
 -1     27843-1.12739E-01-1.31005E-02 1.09719E-04
 -1     27844 2.32622E-02 5.06085E-02-3.77992E-06
 -1     27845-6.21931E+00 2.36934E+01 7.93529E-05
 -1     27846-5.90412E+00 2.47609E+01-4.77565E-05
 -1     27847 3.51496E-02 6.14493E-02 4.94048E-05
 -1     27848 3.54163E-02 6.18920E-02 1.00315E-05
 -1     27849 3.63743E-02 7.11700E-02 9.47258E-06
 -1     27850 7.35928E-02 1.46327E-01 2.81563E-06
 -1     27851-1.52383E-01 6.22023E-02-5.90000E-04
 -1     27852-4.72258E-02-5.86922E-03-2.24739E-04
 -1     27853-1.56121E-01 1.44614E-03-2.36241E-04
 -1     27854 3.56144E-02 9.09768E-02 1.12969E-05
 -1     27855 4.87142E-02 1.26113E-01-1.23186E-05
 -1     27856-7.79191E-02-1.13831E-03-3.19026E-05
 -1     27857-8.37162E-02 2.72761E-03 1.75557E-05
 -1     27858-1.77081E-01 1.55627E-02 1.28240E-04
 -1     27859 1.28192E-01 2.14213E+00 3.26599E-06
 -1     27860-2.46740E+00 1.44482E+00 3.26094E-05
 -1     27861-3.33491E-02-1.33371E-02-1.46591E-05
 -1     27862 4.61164E-02 1.19083E-01-1.43608E-05
 -1     27863-2.23129E+01 3.05918E+01 1.63711E-03
 -1     27864-1.67784E-01 1.13083E-01-1.58124E-05
 -1     27865 4.41592E-02 1.19880E-01 5.20123E-05
 -1     27866 4.52691E-02 1.19443E-01 7.22690E-06
 -1     27867 4.34411E-02 1.19787E-01 1.69300E-05
 -1     27868-5.62014E+00 2.27568E+01-5.36290E-05
 -1     27869 1.09169E+00 5.28226E+00-1.02330E-05
 -1     27870-5.29219E+00 2.38534E+01 8.51324E-05
 -1     27871-4.71993E+00 2.29188E+01 2.96868E-08
 -1     27872-1.47430E+01 1.39576E+01-1.17593E-05
 -1     27873-1.39326E+01 1.37533E+01-1.03393E-05
 -1     27874 5.45323E-01 1.01819E+00 6.39640E-06
 -1     27875-1.37575E+01 1.27129E+01-1.64257E-05
 -1     27876-1.38806E+01 1.32447E+01-3.19961E-06
 -1     27877 7.66368E-03 1.01859E-02-1.12858E-05
 -1     27878 3.54599E-02 5.44702E-02 2.60533E-06
 -1     27879 1.43727E-02 2.00638E-02 2.31169E-05
 -1     27880-1.45839E+01 1.37000E+01-2.72601E-05
 -1     27881 3.69699E-01 1.04803E+00 1.19731E-05
 -1     27882 3.48640E-01 1.02393E+00-3.23064E-05
 -1     27883-1.34438E+01 1.22253E+01 3.00651E-05
 -1     27884-1.33793E+01 1.37785E+01-4.18915E-06
 -1     27885-1.35341E+01 1.36184E+01 2.90775E-05
 -1     27886 3.49941E-01 5.80779E+00-2.83794E-06
 -1     27887-1.32885E+01 1.19876E+01 1.73546E-05
 -1     27888-2.82823E-01 1.09338E-01 9.85079E-05
 -1     27889-3.04236E+00 5.24934E+00-2.22721E-06
 -1     27890-1.55245E+01 1.68667E+01-3.25379E-05
 -1     27891-1.55632E+01 1.72371E+01 1.72026E-05
 -1     27892-1.58530E+01 1.72296E+01-1.70300E-05
 -1     27893-1.58911E+01 1.76048E+01 5.59956E-06
 -1     27894 1.43288E-01 5.01391E-01-8.51968E-05
 -1     27895-1.60023E+01 1.69796E+01-6.12954E-05
 -1     27896 1.43662E+00 3.04967E+00-3.05374E-08
 -1     27897-2.43424E+00 2.15385E+01-4.62003E-05
 -1     27898-2.55023E+00 2.17624E+01 5.31931E-05
 -1     27899 3.35510E-02 6.49340E-02 1.89858E-05
 -1     27900 6.36172E-02 1.18888E-01 3.96027E-05
 -1     27901-1.48940E+00 1.80942E+01 3.51529E-06
 -1     27902-1.22099E+00 1.90288E+01-1.20825E-05
 -1     27903-1.10931E+01 1.59648E+01 3.13950E-05
 -1     27904-1.45070E+01 1.39078E+01 1.60720E-05
 -1     27905 1.11458E-01 1.80292E-01-4.12180E-07
 -1     27906 1.13982E-01 1.80172E-01 3.17435E-05
 -1     27907 1.21919E-01 2.00378E-01 1.93908E-05
 -1     27908 5.65832E-02 9.53382E-02-9.89827E-06
 -1     27909 5.23590E-02 8.40753E-02 4.60442E-05
 -1     27910-6.77620E+00 2.77602E+01 4.64552E-05
 -1     27911 1.22757E+00 2.67364E+00-9.37978E-06
 -1     27912 1.23651E+00 2.73380E+00-1.07404E-05
 -1     27913 1.29410E+00 2.81525E+00 9.66401E-06
 -1     27914-1.65707E+01 2.98436E+01 1.70499E-04
 -1     27915-1.68156E+01 2.94820E+01-6.74190E-04
 -1     27916-1.68943E+01 2.91496E+01-2.21158E-04
 -1     27917-1.81421E+01 2.90960E+01-1.84403E-04
 -1     27918-6.73503E+00 4.54326E+00 5.69622E-06
 -1     27919-4.60239E+00 2.62031E+01-4.47431E-05
 -1     27920-4.86007E+00 2.35513E+01 7.40607E-06
 -1     27921-4.00637E+00 2.36304E+01-6.51280E-05
 -1     27922-2.22073E-01 1.61685E+01 4.75364E-06
 -1     27923 1.42435E+00 3.09076E+00-1.43939E-05
 -1     27924 1.48837E+00 3.34301E+00 5.42238E-07
 -1     27925 1.39466E+00 3.12020E+00 1.76667E-05
 -1     27926 1.54288E+00 3.91183E+00-1.33734E-05
 -1     27927 2.06352E+00 6.83756E+00 6.33531E-05
 -1     27928 8.87535E-03 1.85775E-02 7.63118E-06
 -1     27929 2.43073E-02 4.27988E-02 1.89812E-05
 -1     27930 9.73176E-01 1.82110E+00 1.12880E-05
 -1     27931 4.76737E-01 1.41250E+01-3.43504E-05
 -1     27932 5.04538E-01 1.56033E+01 4.40204E-07
 -1     27933 1.38337E+00 3.12115E+00 8.10018E-06
 -1     27934 4.24801E-01 1.19296E+00 1.34679E-05
 -1     27935 4.31599E-01 1.21344E+00-1.81792E-06
 -1     27936 3.70051E-02 1.29158E-01-3.63271E-05
 -1     27937 5.49822E-02 1.18024E-01 4.18453E-06
 -1     27938 2.31946E-02 5.11712E-02-2.02980E-05
 -1     27939 4.00822E-01 1.16772E+00-4.70166E-06
 -1     27940-1.43929E+01 2.74697E+01-1.74948E-05
 -1     27941-1.48648E+01 2.87555E+01-7.16909E-05
 -1     27942-4.35581E+00 2.39460E+00 3.02966E-05
 -1     27943-5.07732E+00 2.70778E+00-8.62884E-06
 -1     27944-4.77145E+00 2.57761E+00 2.13488E-05
 -1     27945 1.35151E+00 3.04992E+00-4.69210E-06
 -1     27946-4.54543E+00 2.25097E+00 1.13474E-05
 -1     27947-4.18315E+00 2.00323E+00-5.56479E-06
 -1     27948 4.80685E-03 8.48452E-03 1.41651E-05
 -1     27949-4.00725E+00 1.88831E+00 3.11648E-05
 -1     27950-3.94424E+00 1.89362E+00-2.19186E-06
 -1     27951-3.72400E+00 1.87772E+00 4.41712E-05
 -1     27952 1.92703E+00 9.25952E+00-1.78521E-05
 -1     27953-1.23393E+01 2.37140E+01 5.94060E-05
 -1     27954 1.10774E+00 1.38377E+01 2.00962E-05
 -1     27955-8.41738E-01 1.35732E+01 8.08152E-06
 -1     27956 6.85819E-01 1.28073E+01 1.46117E-05
 -1     27957-2.57449E+00 2.02590E+01-5.77219E-07
 -1     27958-9.43459E-01 1.99929E+01 4.65183E-05
 -1     27959 1.01179E+00 2.32456E+00-2.56451E-05
 -1     27960 9.64371E-01 2.24087E+00 3.55535E-05
 -1     27961-1.29938E+00 1.99234E+01-9.36452E-06
 -1     27962-1.29503E+00 2.04525E+01-4.66980E-05
 -1     27963-6.77586E+00 1.12842E+01 7.12728E-08
 -1     27964-3.57695E+00 3.93292E+00 4.72862E-06
 -1     27965 8.37579E-02 2.78435E-01 1.35973E-05
 -1     27966 5.73176E-02 1.85415E-01 6.84165E-06
 -1     27967 8.07351E-02 2.57447E-01-4.08296E-05
 -1     27968 3.28491E-02 1.06453E-01-4.34825E-06
 -1     27969 2.49264E-02 7.87457E-02-5.48011E-05
 -1     27970-3.79455E+00 3.68704E+00 3.93139E-06
 -1     27971 1.46274E-01 2.24342E-01-1.58136E-07
 -1     27972 4.65864E-01 1.32178E+00-1.19208E-05
 -1     27973 6.78594E-01 1.74761E+00 2.25264E-05
 -1     27974 6.40159E-01 1.67723E+00 2.06052E-05
 -1     27975-1.33774E+01 1.57178E+01 3.32759E-07
 -1     27976-1.44572E+01 1.57717E+01 1.25574E-05
 -1     27977-2.97565E+00 2.34617E+01-1.79849E-04
 -1     27978-9.70042E+00 9.89924E+00-7.47483E-07
 -1     27979 6.20387E-01 1.58034E+00-3.13056E-05
 -1     27980-1.69837E+01 1.78515E+01 1.18587E-05
 -1     27981-1.67060E+01 1.79915E+01-1.53981E-05
 -1     27982-6.06556E+00 1.10689E+01-5.84228E-06
 -1     27983 9.65936E-01 1.97675E+00-3.88747E-06
 -1     27984-1.66754E-01 3.30855E-01 5.77387E-06
 -1     27985 9.78815E-01 1.42725E+01 1.15629E-06
 -1     27986 1.17177E+00 1.36143E+01 1.97149E-05
 -1     27987 6.39568E-02 2.09946E-01 1.83236E-05
 -1     27988 2.59090E-02 8.28803E-02-3.88615E-05
 -1     27989 5.50120E-02 1.79888E-01-3.67151E-05
 -1     27990 2.07268E+00 9.56783E+00-2.19994E-06
 -1     27991 3.54266E-01 1.08140E+00 1.94986E-05
 -1     27992-1.18233E-01-1.66856E-02 8.81088E-05
 -1     27993-1.44471E-01-1.21371E-02 9.43861E-05
 -1     27994-1.86314E+01 3.04995E+01-2.94508E-04
 -1     27995-9.43990E-02-1.83890E-02-9.00172E-06
 -1     27996-3.93565E-02-1.27020E-02-6.31436E-05
 -1     27997-8.28084E+00 2.86088E+01-3.11700E-05
 -1     27998 1.61961E-02 1.73590E-01-1.51903E-05
 -1     27999-2.52664E-02 1.53670E-01 8.50248E-06
 -1     28000-3.79346E-01 1.19384E+00-1.06082E-05
 -1     28001-3.33443E+00 3.56470E+00 4.49753E-06
 -1     28002 6.27293E-02 1.40988E-01-2.10420E-05
 -1     28003-2.02040E+01 3.06535E+01-3.25890E-04
 -1     28004-1.37835E+01 2.86099E+01-1.40447E-05
 -1     28005-1.36393E+00 1.14196E+00-1.31109E-04
 -1     28006 1.22672E-01 4.02851E-01 2.73784E-05
 -1     28007 9.68057E-02 3.09706E-01 8.79032E-06
 -1     28008-5.23939E-01 1.40858E+00 2.05242E-06
 -1     28009-3.00114E+00 1.60518E+01-4.10839E-06
 -1     28010-3.24969E+00 5.69497E+00-1.23649E-05
 -1     28011 5.50819E-02 9.05299E-02-5.19532E-05
 -1     28012-6.07071E+00 3.37747E+00-3.08958E-05
 -1     28013-1.10616E+01 8.81662E+00 1.16876E-05
 -1     28014-1.23823E+01 1.14895E+01-2.72661E-05
 -1     28015-1.26470E+01 1.12489E+01-1.95162E-05
 -1     28016-1.21903E+01 1.05774E+01-2.72106E-05
 -1     28017-1.18881E+01 1.01438E+01-5.16364E-05
 -1     28018-1.17381E+01 9.93178E+00-5.91599E-05
 -1     28019-8.94252E+00 8.66795E+00 2.06939E-05
 -1     28020 2.74228E-02 8.56489E-02 1.00390E-04
 -1     28021-2.02159E+01 2.45976E+01-3.93156E-05
 -1     28022-1.95357E+01 2.34962E+01 1.04915E-04
 -1     28023-1.12803E+01 9.16883E+00-1.25690E-05
 -1     28024-1.08263E+01 9.05685E+00 7.51440E-06
 -1     28025-1.14455E+01 9.39232E+00-9.27452E-06
 -1     28026 1.86937E+00 7.10246E+00-6.01652E-05
 -1     28027-1.80477E-01 1.27339E-03-5.19243E-04
 -1     28028 1.29517E-01 4.02444E-01 1.46257E-05
 -1     28029-3.33986E+00 4.90379E+00 1.21257E-05
 -1     28030-1.87312E+01 2.63627E+01-1.54021E-04
 -1     28031-1.89776E+01 2.78583E+01 5.25853E-04
 -1     28032-4.88638E-02-1.55606E-02-4.49559E-05
 -1     28033-1.04889E+01 1.04255E+01-8.03575E-08
 -1     28034-1.03676E+01 8.83310E+00 8.22996E-05
 -1     28035-1.08049E+01 9.45255E+00 1.72766E-06
 -1     28036-8.19407E+00 1.90548E+01 3.20939E-05
 -1     28037-6.22333E+00 2.89597E+01 2.61369E-04
 -1     28038-7.06676E+00 2.82968E+01-1.63350E-04
 -1     28039-6.98176E+00 2.91419E+01-1.67600E-04
 -1     28040-6.22529E+00 2.89596E+01 1.18286E-04
 -1     28041 7.34911E-02 2.33253E-01 1.00650E-05
 -1     28042-2.87105E+00 2.38358E+01-4.62045E-05
 -1     28043-1.17413E+01 9.79857E+00 3.08892E-05
 -1     28044 1.38390E-01 3.31157E-01-8.93127E-07
 -1     28045 4.50995E-02 6.96638E-02-6.12961E-05
 -1     28046-7.23056E+00 2.81428E+01-2.44195E-04
 -1     28047-7.59751E+00 2.71360E+01 1.21555E-04
 -1     28048-7.05565E+00 2.67787E+01 1.86967E-04
 -1     28049-6.89368E+00 2.69314E+01-2.19076E-04
 -1     28050-1.17383E+01 1.10365E+01-1.34625E-05
 -1     28051-1.13078E+01 1.03689E+01-2.48512E-05
 -1     28052-8.49049E+00 2.54944E+01-5.73481E-05
 -1     28053-1.52409E+01 1.82656E+01-1.21601E-05
 -1     28054-5.29532E+00 2.71641E+00-9.35443E-06
 -1     28055-4.92370E+00 2.44184E+00-1.08165E-05
 -1     28056-1.61418E+01 1.72395E+01-6.30832E-05
 -1     28057 6.13421E-02 2.19038E-01-3.76014E-07
 -1     28058 1.53987E+00 3.40351E+00 3.96417E-06
 -1     28059 1.34352E-02 4.47814E-02-3.82145E-05
 -1     28060 3.77087E-02 1.31002E-01-4.70532E-05
 -1     28061-1.33431E+01 3.01611E+01 4.74448E-05
 -1     28062-1.44819E+01 3.03456E+01-2.99991E-06
 -1     28063-1.36505E+01 2.91164E+01 6.78318E-05
 -1     28064-1.38699E+01 2.97337E+01 6.08991E-05
 -1     28065-7.32872E+00 1.91010E+01-4.33516E-05
 -1     28066-6.53202E+00 1.90166E+01 4.06790E-06
 -1     28067-5.14037E+00 2.89930E+00 1.91417E-05
 -1     28068-5.17774E+00 2.75753E+00 4.36561E-06
 -1     28069-1.12949E-02 2.64207E-03 1.76757E-05
 -1     28070-1.45287E-02-4.00769E-03-3.18977E-06
 -1     28071-4.78352E-03-2.20383E-03-7.08907E-06
 -1     28072-3.12027E+00 3.81497E+00 8.77625E-06
 -1     28073 1.37538E-02 1.97561E-02 4.09189E-05
 -1     28074-1.46183E+01 1.79929E+01 7.72198E-05
 -1     28075 1.32111E-01 2.41105E-01 7.36353E-06
 -1     28076 1.21630E-01 2.20055E-01-2.42243E-05
 -1     28077 1.02337E-01 1.91945E-01 2.98112E-06
 -1     28078 2.80802E-02 5.82536E-02-2.55679E-05
 -1     28079 2.80458E-02 5.64683E-02-3.99222E-06
 -1     28080 6.00969E-02 1.23333E-01 5.88493E-07
 -1     28081 3.84274E-02 5.55621E-02-1.18226E-05
 -1     28082-2.04986E+00 9.13046E-01-8.91076E-05
 -1     28083-1.43170E+00 2.07518E+01-5.41062E-05
 -1     28084-1.62345E+00 2.11640E+01-7.68005E-05
 -1     28085 2.23800E-02 3.68476E-02 2.91781E-05
 -1     28086-7.91999E+00 2.92319E+01 1.81479E-04
 -1     28087 9.18013E-02 1.83335E-01-1.69793E-05
 -1     28088 9.50006E-02 1.94174E-01 5.24453E-06
 -1     28089-1.63439E+01 1.71443E+01-1.38483E-05
 -1     28090-1.65008E+01 1.74342E+01-2.86692E-05
 -1     28091-1.57023E+01 1.74205E+01-6.91693E-05
 -1     28092 1.66766E-01 5.04776E-01-3.45790E-05
 -1     28093 1.70668E-01 4.88324E-01 8.43522E-05
 -1     28094 1.04864E-01 2.92381E-01-7.06426E-06
 -1     28095 9.94914E-02 1.93394E-01 1.97238E-05
 -1     28096 2.02001E-01 3.90199E-01 1.62941E-05
 -1     28097 1.72531E-01 3.25388E-01 2.75076E-05
 -1     28098 6.42087E-02 1.25115E-01 1.55862E-06
 -1     28099 1.64587E-01 3.17973E-01 1.04041E-05
 -1     28100-7.16849E-02 8.06773E-01 7.09683E-06
 -1     28101-1.31729E-01 9.91024E-01 7.50069E-06
 -1     28102-8.65800E+00 2.94572E+01 2.81122E-04
 -1     28103 1.44361E+00 3.84127E+00-5.61499E-05
 -1     28104-1.45670E+01 2.93589E+01 9.82003E-05
 -1     28105-1.44784E+01 2.90301E+01 2.32856E-04
 -1     28106 6.22361E-02 1.22929E-01-1.12229E-05
 -1     28107 2.79923E-02 5.55655E-02 3.39048E-05
 -1     28108 9.77955E-02 1.90781E-01-3.38329E-05
 -1     28109 6.21933E-02 1.26796E-01 3.12962E-05
 -1     28110 3.37333E-02 6.73335E-02-8.42129E-07
 -1     28111-1.30373E+01 2.92878E+01-2.23330E-04
 -1     28112-1.27708E+01 2.98211E+01-1.97396E-04
 -1     28113-5.58564E+00 2.58010E+01-2.65788E-05
 -1     28114 1.06465E+00 2.47132E+00-1.72288E-05
 -1     28115 2.24098E-01 1.64564E+00 6.47900E-06
 -1     28116-1.89847E+01 2.52689E+01 6.33037E-05
 -1     28117 2.14465E-01 4.48727E-01-6.28997E-06
 -1     28118 1.38059E-01 2.87431E-01-1.10703E-05
 -1     28119-9.51990E+00 8.23370E+00-2.20137E-05
 -1     28120-8.88093E+00 7.19021E+00-1.63209E-05
 -1     28121-4.43311E-01 7.88608E-01 2.68624E-05
 -1     28122-6.74714E-01 5.48988E-01 1.84618E-04
 -1     28123 4.35483E-03 6.66049E-03 3.19747E-06
 -1     28124-1.08595E+01 1.08273E+01 9.10994E-05
 -1     28125-1.00253E+01 8.01242E+00 1.77130E-05
 -1     28126 9.52918E-03 1.92951E-02-7.68889E-06
 -1     28127 2.39921E-02 8.04108E-02 6.64671E-06
 -1     28128-9.04373E-01 1.95897E+00-6.87625E-05
 -1     28129 2.03460E-01 6.06790E-01-2.65931E-05
 -1     28130 1.31572E-01 4.37162E-01-4.40402E-05
 -1     28131 6.80647E-02 2.17232E-01 2.38349E-07
 -1     28132-7.38309E+00 4.62820E+00 5.23720E-06
 -1     28133-7.78141E+00 5.03010E+00-7.31750E-07
 -1     28134 1.81023E+00 4.30588E+00 3.81697E-05
 -1     28135 1.71818E+00 3.95030E+00 4.62150E-05
 -1     28136-1.45593E-01 1.79534E+01-2.44282E-05
 -1     28137-3.33828E-01 1.73459E+01 6.85554E-07
 -1     28138-8.26491E-02 1.73205E+01 6.16748E-06
 -1     28139-1.72897E+01 3.08524E+01 7.30219E-04
 -1     28140-1.61484E+01 3.06793E+01 9.58592E-05
 -1     28141 2.44110E-01 7.58742E-01-2.25999E-05
 -1     28142 8.65169E-02 1.80502E-01-3.44724E-05
 -1     28143 1.97456E-01 3.97785E-01 4.98745E-07
 -1     28144 1.96164E-01 6.19301E-01-9.81919E-06
 -1     28145 1.03503E-01 1.94939E-01-4.71812E-05
 -1     28146-7.87849E-01 2.18409E+00-4.47555E-05
 -1     28147 2.13298E-02 2.88626E-02 1.76221E-05
 -1     28148 2.88809E-02 3.97601E-02-1.73866E-06
 -1     28149-6.20555E-01 1.74175E+01-1.24558E-05
 -1     28150-7.13065E-01 1.77961E+01 1.68921E-05
 -1     28151-8.23457E+00 2.82135E+01 1.65441E-04
 -1     28152 1.86714E+00 6.82251E+00 3.28379E-05
 -1     28153 1.87705E+00 7.96896E+00-2.06221E-06
 -1     28154 7.20654E-01 1.95750E+00 1.19135E-04
 -1     28155 9.24449E-01 2.73487E+00-4.12324E-05
 -1     28156-9.44124E+00 6.78384E+00-1.48984E-05
 -1     28157-1.38496E-01-1.13166E-02-5.09946E-04
 -1     28158-8.64546E-01 1.65255E+01-5.05599E-06
 -1     28159-2.49140E-01 1.69729E+01 3.54960E-05
 -1     28160 1.66715E-01 1.66586E+01-9.26737E-06
 -1     28161-1.11695E+00 4.84120E-01 9.66204E-04
 -1     28162-8.43808E-01 3.65931E-01-7.68619E-04
 -1     28163-1.23412E+01 1.07970E+01-3.09999E-05
 -1     28164-5.40116E+00 2.95971E+00-1.26363E-05
 -1     28165-5.37346E+00 2.78517E+00 2.32262E-05
 -1     28166-5.64355E+00 3.02351E+00-9.26961E-05
 -1     28167-1.14363E+01 2.14387E+01 6.98497E-05
 -1     28168-1.19254E+01 2.25402E+01-6.76816E-05
 -1     28169-1.26260E+01 2.19462E+01-4.63697E-05
 -1     28170 1.29679E-01 2.44780E-01-2.15185E-06
 -1     28171 2.04042E-01 3.74889E-01 1.04467E-05
 -1     28172-4.78191E-02-1.07648E-02-2.67311E-04
 -1     28173-1.30532E+01 2.31022E+01-1.85797E-05
 -1     28174-1.37666E+01 2.21050E+01 8.92019E-05
 -1     28175-1.41259E+01 2.35355E+01 1.52214E-05
 -1     28176-1.32583E+01 2.45238E+01 1.34120E-05
 -1     28177-2.20219E+01 2.92521E+01-4.39175E-04
 -1     28178 1.93134E+00 7.49748E+00-2.12177E-05
 -1     28179-2.00103E+01 2.70574E+01 8.72254E-05
 -1     28180 1.87579E+00 7.25359E+00 4.98371E-05
 -1     28181-6.41513E-02 1.75720E+01 1.34952E-05
 -1     28182-1.90414E+01 2.24326E+01-3.26404E-06
 -1     28183-6.78550E+00 5.68482E+00-1.76727E-05
 -1     28184-1.82427E+00 2.15870E+01 5.46385E-05
 -1     28185 3.65675E-01 6.51757E-01 5.13861E-05
 -1     28186-2.06986E+00 2.20225E+01 6.00777E-06
 -1     28187-2.07289E+00 2.08248E+01 9.02776E-05
 -1     28188-2.25981E+00 2.15280E+01 3.89515E-06
 -1     28189-1.12442E+00 1.05331E+00 3.55944E-05
 -1     28190 3.36353E-02 6.61183E-02-4.69498E-06
 -1     28191-1.39697E+01 1.63238E+01 1.48423E-05
 -1     28192 2.22508E-02 3.49394E-02 4.07705E-05
 -1     28193 5.70018E-02 1.05483E-01 3.44000E-07
 -1     28194-6.10228E-01 4.31782E+00 5.26900E-06
 -1     28195 1.95452E-01 6.64540E-01 5.06467E-05
 -1     28196 2.05596E-01 6.57461E-01-2.28233E-05
 -1     28197 2.36290E-01 7.87852E-01-3.98274E-06
 -1     28198 9.38906E-02 1.88810E-01-1.03362E-05
 -1     28199 1.29666E-01 2.60082E-01-4.75884E-06
 -1     28200-1.02890E+01 1.76608E+01 1.71067E-06
 -1     28201-1.08984E+01 1.72033E+01-2.08573E-05
 -1     28202-9.86263E+00 1.69199E+01-5.12913E-06
 -1     28203 2.84438E-01 5.00012E-01-3.21270E-09
 -1     28204 3.57852E-02 5.08830E-02-1.79636E-05
 -1     28205-1.50623E+01 1.51351E+01 6.14827E-06
 -1     28206-1.61756E+00 4.39751E+00 3.46838E-06
 -1     28207 6.23165E-02 1.24884E-01-1.38894E-05
 -1     28208 1.33999E-01 2.57477E-01-3.05361E-06
 -1     28209-1.50826E+00 7.90698E-01 3.83553E-05
 -1     28210-2.39953E-01 1.69479E+01-5.21616E-05
 -1     28211-5.15845E-01 1.68751E+01-4.04428E-05
 -1     28212-1.67133E-01-7.10820E-03 3.10082E-05
 -1     28213-3.48542E-01 6.64734E-02 1.71357E-04
 -1     28214 1.19488E+00 7.96622E+00-1.15640E-05
 -1     28215-9.92347E+00 1.92157E+01 6.32949E-05
 -1     28216-1.03046E+01 1.84915E+01-3.57810E-06
 -1     28217 1.88057E-01 6.46808E-01-7.50514E-05
 -1     28218 1.62973E-01 5.66810E-01-6.94800E-06
 -1     28219 8.87873E-01 2.11073E+00-9.86294E-06
 -1     28220 9.44326E-02 3.31872E-01 6.42195E-06
 -1     28221-2.28436E+00 2.24542E+01-1.35314E-05
 -1     28222 3.17893E-02 1.03457E-01 5.71558E-05
 -1     28223 1.87449E+00 7.96263E+00 6.95067E-06
 -1     28224-1.69058E+01 2.17900E+01-4.90738E-05
 -1     28225 1.70902E+00 5.26004E+00 1.62389E-05
 -1     28226 2.99766E-01 1.62936E+01 1.71946E-05
 -1     28227 2.98336E-02 1.70244E+01-2.14375E-05
 -1     28228 1.02416E+00 1.99409E+00 5.71051E-05
 -1     28229 1.10732E+00 2.86008E+00-3.21617E-05
 -1     28230 1.03172E+00 1.31442E+01 1.41175E-05
 -1     28231 6.68243E-01 1.58445E+00-1.68609E-05
 -1     28232 2.03820E+00 5.67204E+00-4.62385E-05
 -1     28233 1.99646E+00 5.38041E+00 3.97609E-05
 -1     28234-1.59865E+01 2.88979E+01-2.57748E-04
 -1     28235-1.18056E+01 2.96714E+01-2.96919E-05
 -1     28236-1.09915E+01 1.83328E+01 1.27738E-05
 -1     28237-3.67549E+00 6.71151E+00 9.17704E-06
 -1     28238-1.23509E+01 1.17700E+01-1.42055E-05
 -1     28239 6.19682E-02 2.08488E-01 5.61138E-06
 -1     28240-1.33472E+01 1.38006E+01-2.92299E-05
 -1     28241-1.48718E+01 2.25205E+01-1.27649E-04
 -1     28242-6.24392E+00 4.54998E+00-2.16584E-06
 -1     28243-1.02859E+01 9.30271E+00 9.31788E-06
 -1     28244-1.33182E+00 4.68265E+00-1.22624E-06
 -1     28245-1.20347E+01 1.03529E+01-3.40615E-05
 -1     28246-1.19751E+01 1.09451E+01 2.76474E-05
 -1     28247 4.46505E-02 1.19752E-01 2.43574E-05
 -1     28248-1.16569E+01 1.06476E+01 1.79043E-05
 -1     28249-1.20978E+01 1.13238E+01-4.56707E-06
 -1     28250-1.50652E+01 1.44867E+01-2.27280E-05
 -1     28251-1.52239E+01 1.47514E+01-5.41009E-06
 -1     28252-1.88341E+01 2.44392E+01 1.17820E-04
 -1     28253-1.85048E+01 2.40939E+01 2.00276E-05
 -1     28254-1.53074E-01-9.44360E-03 2.80617E-04
 -1     28255-1.80289E-01-4.32866E-03 2.19333E-04
 -1     28256-3.49178E-02-9.94685E-03-9.21881E-05
 -1     28257-4.16208E-02-8.60166E-03 1.73898E-04
 -1     28258 1.71413E-01 5.54650E-01 1.23567E-05
 -1     28259 1.08027E-01 1.70457E-01-2.08733E-05
 -1     28260 2.37847E-02 3.27230E-02 7.21383E-05
 -1     28261-9.32025E+00 8.27618E+00 4.85075E-05
 -1     28262-7.27718E+00 6.88267E+00 6.30794E-06
 -1     28263-7.51719E+00 5.28541E+00 2.21858E-06
 -1     28264-7.74600E+00 5.58382E+00 4.69590E-06
 -1     28265-7.61108E+00 5.22432E+00 3.53056E-06
 -1     28266-1.05536E+01 9.84478E+00 1.01450E-05
 -1     28267 3.77536E-01 7.06309E-01-4.36150E-06
 -1     28268 8.77866E-01 2.13814E+00-3.11619E-05
 -1     28269-2.74540E-01 6.09075E-02 2.07294E-04
 -1     28270-1.86942E+01 2.15757E+01-2.22539E-06
 -1     28271-1.77623E+01 2.22299E+01 3.71016E-05
 -1     28272-1.14215E+01 1.07855E+01 6.81122E-06
 -1     28273-7.92178E+00 6.22564E+00 1.19634E-06
 -1     28274-7.06363E+00 5.40049E+00-1.90533E-06
 -1     28275-1.37787E+00 1.34447E+01 1.17143E-06
 -1     28276-6.48778E+00 4.31457E+00 5.75127E-06
 -1     28277-7.91770E+00 6.22698E+00 2.43183E-06
 -1     28278-1.86888E-01 4.25321E-03-1.22089E-04
 -1     28279 2.60708E-02 3.63779E-02 3.85078E-05
 -1     28280 6.39381E-02 9.26279E-02 1.55590E-05
 -1     28281 6.96297E-02 1.01067E-01-2.92984E-05
 -1     28282 8.74981E-02 1.29080E-01 7.33292E-06
 -1     28283-8.18700E-01 3.55158E-01-9.72570E-04
 -1     28284 2.92695E-01 5.41493E-01-1.60268E-06
 -1     28285 1.20929E+00 2.94014E+00-1.16785E-05
 -1     28286 2.82882E-01 5.55350E-01 2.26420E-06
 -1     28287 3.59741E-01 6.86840E-01 2.06326E-05
 -1     28288-4.85200E+00 2.64816E+00 1.12626E-05
 -1     28289-5.59741E+00 3.45647E+00 3.33249E-05
 -1     28290-1.14037E+01 2.03143E+01-2.36912E-05
 -1     28291-5.21374E-01 1.68988E+01 1.49940E-07
 -1     28292-1.33899E+01 2.89267E+01-1.61784E-04
 -1     28293-1.22078E+01 2.85184E+01 9.74729E-05
 -1     28294-2.24048E-01 1.19210E+00 7.75925E-06
 -1     28295-1.28043E+01 2.83425E+01-7.93944E-05
 -1     28296 1.16563E-01 1.98654E-01-4.29770E-05
 -1     28297 2.10983E-02 1.06187E-01-2.24627E-05
 -1     28298-7.29565E+00 2.81644E+01-1.35598E-04
 -1     28299-5.00145E+00 2.50615E+00 1.39730E-05
 -1     28300-6.57016E+00 2.79637E+01-1.31262E-04
 -1     28301-1.00708E-02 1.08827E-02-5.78191E-05
 -1     28302-4.79759E-03 6.44722E-02-4.60138E-05
 -1     28303 1.59936E-03 2.74531E-02 3.41242E-05
 -1     28304-7.63022E+00 7.40907E+00-2.28015E-05
 -1     28305-1.28920E+01 2.83812E+01-1.62308E-05
 -1     28306-1.39563E+01 2.87587E+01 6.74091E-06
 -1     28307-5.27790E+00 1.27248E+01-4.70077E-06
 -1     28308 7.07397E-01 1.82453E+00 3.76262E-05
 -1     28309 9.70690E-02 1.99843E-01 1.94416E-05
 -1     28310-4.50205E+00 2.37434E+00-1.55634E-05
 -1     28311-9.65415E+00 7.03444E+00-2.47591E-05
 -1     28312-3.33392E+00 2.33130E+00 3.33178E-06
 -1     28313-1.37486E-02 1.63670E-02 3.14021E-05
 -1     28314-8.33448E-01 7.16139E-01 8.62284E-05
 -1     28315 2.76149E-01 1.47751E+01 2.62608E-05
 -1     28316 7.37250E-01 1.49091E+01 1.30160E-05
 -1     28317 1.98973E+00 6.35581E+00 5.20513E-05
 -1     28318 2.03130E+00 7.18183E+00 1.37587E-05
 -1     28319-1.56515E+01 1.78726E+01-1.07513E-05
 -1     28320-1.45609E+01 1.84577E+01-6.69711E-07
 -1     28321-1.22235E+00 5.26236E-01-5.96822E-04
 -1     28322 5.25196E-01 4.68126E+00 3.87426E-05
 -1     28323 5.44324E-02 8.00209E-02 2.46935E-05
 -1     28324 1.03251E+00 2.18678E+00 1.14280E-05
 -1     28325 6.67855E-02 2.14979E-01-1.36874E-05
 -1     28326-6.73918E+00 7.45922E+00 1.03838E-07
 -1     28327 2.54755E-02 7.96240E-02-6.49126E-05
 -1     28328-1.59324E+01 1.62588E+01-1.83698E-05
 -1     28329-1.56114E+01 1.64274E+01-2.08098E-05
 -1     28330 1.08138E-01 1.66256E-01 4.70457E-05
 -1     28331 2.04338E-01 6.96009E-01 3.84918E-05
 -1     28332-4.84339E-01 1.89017E+01 2.37785E-05
 -1     28333 1.39004E-02 1.54638E+01 3.15793E-05
 -1     28334 8.66404E-01 1.93380E+00 2.66410E-05
 -1     28335 9.12989E-01 2.09732E+00-3.04767E-05
 -1     28336 8.92899E-01 2.05817E+00-2.93227E-05
 -1     28337 1.00695E+00 2.27206E+00-2.94853E-05
 -1     28338 1.11040E+00 2.45235E+00 1.75775E-05
 -1     28339-3.21419E+00 2.44747E+01-7.58654E-05
 -1     28340-2.22344E+01 2.99305E+01 8.02817E-04
 -1     28341 1.03818E+00 2.25018E+00 4.09487E-05
 -1     28342-5.21429E+00 1.01290E+01-4.20285E-06
 -1     28343 5.45760E-01 1.41436E+01 1.83603E-06
 -1     28344 3.08396E-02 6.37553E-02 5.45640E-05
 -1     28345-8.19803E+00 8.47882E+00 1.32235E-07
 -1     28346-4.08096E-01 1.51716E+01 3.65488E-05
 -1     28347 3.78045E-01 4.04925E+00 1.84475E-05
 -1     28348 8.54692E-02 1.57204E+01 7.77529E-06
 -1     28349 9.68319E-01 2.18585E+00 2.83909E-05
 -1     28350 7.45298E-01 1.83030E+00-2.57324E-05
 -1     28351 7.20193E-01 1.73580E+00-1.77142E-05
 -1     28352 7.75762E-01 1.86653E+00-3.64399E-05
 -1     28353-7.13378E+00 4.86727E+00-2.80722E-06
 -1     28354-1.29084E+01 1.30224E+01-3.03664E-05
 -1     28355-4.94114E+00 1.34662E+01-1.65352E-06
 -1     28356-5.91161E-01 2.02207E-01-2.12976E-04
 -1     28357 1.74628E+00 1.16031E+01-1.48141E-05
 -1     28358-1.51715E-01 3.84832E-03-4.94158E-04
 -1     28359-2.87059E-01 4.56348E-02-9.50020E-05
 -1     28360-3.17903E+00 1.48394E+00 1.38164E-04
 -1     28361-1.18321E+01 1.04701E+01 2.85689E-05
 -1     28362-8.96762E+00 2.84510E+01-1.28043E-04
 -1     28363-5.20038E-01 1.61972E-01-1.22498E-04
 -1     28364 2.59389E-01 7.91615E-01 6.79801E-05
 -1     28365 2.16922E-01 6.37041E-01-1.09132E-05
 -1     28366 2.10375E-01 6.71153E-01 1.66801E-05
 -1     28367 1.65283E-01 5.39447E-01-6.52859E-05
 -1     28368-2.58272E+00 2.14315E+01 2.26039E-05
 -1     28369 2.01774E+00 6.89375E+00 9.92553E-06
 -1     28370 2.03891E+00 7.32667E+00-1.19312E-05
 -1     28371 1.03715E+00 2.20125E+00-7.37699E-06
 -1     28372-1.55709E+01 1.93779E+01-3.79417E-05
 -1     28373-1.17122E+01 2.83405E+01-4.53211E-06
 -1     28374 1.01658E-01 1.98995E-01 1.70863E-06
 -1     28375 5.18491E-02 8.93796E-02-4.56758E-05
 -1     28376-3.01376E-02-9.36076E-03 1.23310E-05
 -1     28377-1.98392E-02-6.99715E-03 5.78725E-05
 -1     28378-1.82041E+01 2.05704E+01-3.08500E-05
 -1     28379 2.73424E-01 7.80319E-01-9.12588E-05
 -1     28380 1.46863E-01 7.12310E+00 3.85096E-06
 -1     28381-1.92120E+00 5.30276E+00 8.36221E-06
 -1     28382-1.29683E-01 9.23350E-03 7.57700E-05
 -1     28383-1.08393E-01-5.04294E-03-2.93388E-04
 -1     28384-1.18965E+01 1.00151E+01 2.11900E-05
 -1     28385-1.10340E+01 9.81186E+00 5.99211E-06
 -1     28386-1.94509E+01 2.91972E+01-5.27443E-04
 -1     28387-4.48984E+00 2.66973E+01-2.07640E-04
 -1     28388-4.18147E+00 2.61841E+01-5.46128E-05
 -1     28389 1.63180E-01 3.37180E-01-1.46943E-07
 -1     28390 8.08101E-02 2.69479E-01-5.81817E-06
 -1     28391-1.68586E+01 2.90957E+01 5.93207E-04
 -1     28392 1.94654E-01 4.26359E-01-9.96246E-06
 -1     28393 9.57330E-02 2.06188E-01 1.08418E-06
 -1     28394-1.06071E+01 9.19478E+00 1.53062E-05
 -1     28395-1.60871E+01 1.88288E+01 1.22778E-05
 -1     28396-2.39964E+00 1.09463E+00 1.68070E-04
 -1     28397 6.99692E-01 1.72201E+00 3.11344E-06
 -1     28398 1.06114E+00 2.35820E+00-2.42570E-06
 -1     28399 9.16342E-01 2.11031E+00 2.36911E-05
 -1     28400 8.61742E-01 2.01648E+00 1.41169E-05
 -1     28401-4.56332E+00 2.48440E+01-1.00377E-04
 -1     28402 1.73240E+00 3.99826E+00-3.57810E-05
 -1     28403-1.48702E-01-9.97014E-03 9.15477E-05
 -1     28404 1.04166E-02 1.44084E-02 1.17198E-05
 -1     28405 2.25367E-02 3.06768E-02 6.07036E-05
 -1     28406 1.99932E+00 8.23932E+00-1.87935E-05
 -1     28407 9.59953E-02 1.44195E-01-7.69294E-06
 -1     28408 5.91268E-02 1.99394E-01 5.01075E-05
 -1     28409 1.13399E+00 2.48687E+00 8.59109E-06
 -1     28410 1.83253E+00 4.40186E+00-3.59564E-05
 -1     28411-5.22386E-02-1.62174E-03 3.54583E-04
 -1     28412-7.71490E-01 3.50978E-01-3.71225E-03
 -1     28413-1.63199E+01 1.85431E+01-1.92457E-05
 -1     28414-6.15257E+00 2.74621E+01 1.10508E-04
 -1     28415-9.30136E+00 7.07385E+00-4.72965E-06
 -1     28416 1.98454E+00 5.26969E+00-1.30543E-05
 -1     28417 1.93790E+00 4.94156E+00 8.81685E-06
 -1     28418 2.06554E+00 6.75767E+00-4.72328E-06
 -1     28419 1.06986E+00 1.26923E+01 1.33429E-05
 -1     28420 1.55999E+00 1.16108E+01-1.50689E-05
 -1     28421-1.25467E+01 1.20233E+01 1.11930E-05
 -1     28422 2.00422E+00 7.61585E+00 9.10290E-08
 -1     28423-1.12300E+01 2.96074E+01-3.75471E-05
 -1     28424-8.30639E+00 6.12470E+00-2.52424E-07
 -1     28425-1.81977E+01 2.33387E+01-2.82978E-05
 -1     28426 1.20260E-01 2.08982E-01-1.80221E-05
 -1     28427-6.00952E+00 3.68725E+00 6.10486E-06
 -1     28428-9.77830E-01 1.83018E+01 2.96073E-05
 -1     28429 1.16414E+00 2.50621E+00 1.90670E-05
 -1     28430-2.43087E+00 1.07533E+00-1.41323E-04
 -1     28431 7.00700E-01 1.34733E+01-3.28083E-05
 -1     28432 1.02651E-01 2.11572E-01-2.23079E-05
 -1     28433 1.49389E-02 4.80621E-02-2.65747E-05
 -1     28434 2.88463E-02 9.63442E-02-1.69414E-05
 -1     28435-1.39878E+01 1.44598E+01-1.20182E-05
 -1     28436 1.77518E+00 4.15634E+00 3.64357E-05
 -1     28437-6.84586E-02-5.19712E-03-3.74567E-06
 -1     28438 2.00967E+00 7.76782E+00 6.53594E-07
 -1     28439 1.54361E-02 4.93411E-02-2.83779E-05
 -1     28440 1.87168E+00 4.59950E+00 3.47679E-05
 -1     28441 1.57707E-03 2.68485E-02-2.94847E-05
 -1     28442-2.84066E+00 1.28630E+00-4.05065E-05
 -1     28443 4.09914E-01 1.15606E+00-3.54039E-06
 -1     28444-1.85181E+01 2.41581E+01-8.93559E-05
 -1     28445-1.70687E+01 1.90851E+01-4.62377E-05
 -1     28446-1.65159E+01 1.90579E+01-2.28010E-05
 -1     28447-1.30739E+01 1.28622E+01-1.52780E-05
 -1     28448-1.81381E+01 2.95722E+01-1.32904E-04
 -1     28449-2.13199E+00 9.21710E-01 1.57502E-04
 -1     28450-6.36640E+00 4.16203E+00-5.98176E-06
 -1     28451 2.00317E+00 5.58474E+00 3.53268E-05
 -1     28452-7.82700E+00 5.63401E+00-4.54946E-06
 -1     28453-9.40656E+00 7.58793E+00 9.90694E-06
 -1     28454 1.02105E-01 1.56482E-01-2.27457E-05
 -1     28455-2.23226E+01 3.00340E+01-1.72538E-04
 -1     28456-1.27941E+01 1.24931E+01 1.61975E-05
 -1     28457 7.67173E-01 1.34900E+01 1.42485E-05
 -1     28458-2.15656E-01 1.61491E+01 6.78569E-07
 -1     28459-1.91541E-01 2.70078E-02-1.08370E-05
 -3
    1PSTEP                         2           1           1          
  100CL  101 1.000000000        8053                     0    1           1
 -4  STRESS      6    1
 -5  SXX         1    4    1    1
 -5  SYY         1    4    2    2
 -5  SZZ         1    4    3    3
 -5  SXY         1    4    1    2
 -5  SYZ         1    4    2    3
 -5  SZX         1    4    3    1
 -1     20407 1.96358E+00 4.74934E+00 2.21766E+00 5.45980E+00 7.48999E-03 1.64339E-02
 -1     20408 2.63513E+00 4.77898E+00 2.44761E+00 5.32635E+00-2.23583E-02-4.27131E-02
 -1     20409 3.64363E+00 1.90145E+00 1.84170E+00 3.08637E+00 3.12619E-02 1.02757E-02
 -1     20410 3.68850E+00 1.90802E+00 1.85852E+00 3.11918E+00-3.26490E-02-1.77628E-02
 -1     20411-2.84490E+00 4.99194E+00 6.95021E-01 2.34900E+00-1.25050E-01 1.81322E-01
 -1     20412-3.27597E+00 4.60108E+00 5.34223E-01 1.91547E+00-1.35140E-01-4.96771E-03
 -1     20413-5.88616E+01-1.69136E+01-2.48607E+01 2.32744E+00 1.93976E-01-8.21511E-01
 -1     20414-5.33857E+01-1.56056E+01-2.27615E+01 1.26164E+00-4.88539E-01 1.06206E+00
 -1     20415 8.95995E+00 7.21098E+00 5.32564E+00 7.66627E+00-3.36802E-02 3.91653E-02
 -1     20416 1.02425E+01 8.63201E+00 6.22121E+00 9.35068E+00 2.26650E-03-5.07640E-03
 -1     20417 1.13339E+01 9.55129E+00 6.87906E+00 1.03755E+01 2.09589E-03 6.18496E-04
 -1     20418 1.21146E+01 1.02070E+01 7.36170E+00 1.10780E+01 2.44555E-03 5.79851E-03
 -1     20419 1.27053E+01 1.06526E+01 7.71170E+00 1.16018E+01-6.34900E-03-3.55186E-03
 -1     20420 1.30858E+01 1.09870E+01 7.93434E+00 1.19851E+01 6.50798E-03 3.56718E-04
 -1     20421 1.33884E+01 1.12403E+01 8.12451E+00 1.22572E+01-1.19912E-03 7.66532E-04
 -1     20422 1.35950E+01 1.14097E+01 8.25285E+00 1.24331E+01 5.11972E-04-1.54493E-03
 -1     20423 1.37342E+01 1.15298E+01 8.33488E+00 1.25794E+01 3.94299E-04-6.37568E-05
 -1     20424 1.38129E+01 1.15954E+01 8.38732E+00 1.26493E+01-8.51396E-04 6.87643E-04
 -1     20425 1.38334E+01 1.16181E+01 8.39946E+00 1.26724E+01-5.92132E-05 1.00052E-03
 -1     20426 1.38009E+01 1.15917E+01 8.37894E+00 1.26448E+01 7.85239E-04 1.07676E-03
 -1     20427 1.37109E+01 1.15187E+01 8.32541E+00 1.25621E+01 1.68599E-03 6.08500E-04
 -1     20428 1.35569E+01 1.13863E+01 8.23406E+00 1.24202E+01 3.66660E-04 6.66163E-04
 -1     20429 1.33299E+01 1.11945E+01 8.09040E+00 1.22107E+01 2.33335E-03 1.59249E-03
 -1     20430 1.30439E+01 1.09465E+01 7.91626E+00 1.19353E+01 5.29394E-04 1.91121E-03
 -1     20431 1.26662E+01 1.06239E+01 7.68414E+00 1.15912E+01-1.64320E-03 1.08810E-03
 -1     20432 1.21992E+01 1.02369E+01 7.40515E+00 1.11681E+01 2.84006E-03 3.52114E-03
 -1     20433 1.16693E+01 9.77800E+00 7.07666E+00 1.06750E+01-1.17420E-03 1.03557E-03
 -1     20434 1.10533E+01 9.26294E+00 6.70452E+00 1.01148E+01 2.34088E-03 3.15183E-03
 -1     20435 1.03803E+01 8.69275E+00 6.29376E+00 9.49258E+00 2.63879E-03 1.96039E-03
 -1     20436 9.67807E+00 8.08657E+00 5.86419E+00 8.84482E+00-1.93172E-03-3.84785E-03
 -1     20437 8.94870E+00 7.46345E+00 5.41531E+00 8.17277E+00-1.29646E-04 2.46196E-03
 -1     20438 8.18598E+00 6.85000E+00 4.96288E+00 7.49171E+00 6.95506E-04 1.99163E-03
 -1     20439 7.47012E+00 6.25138E+00 4.52817E+00 6.83852E+00 4.59794E-04 4.58389E-03
 -1     20440 6.80668E+00 5.69744E+00 4.12425E+00 6.23119E+00 1.14289E-03 1.05843E-04
 -1     20441 6.21673E+00 5.20623E+00 3.76797E+00 5.69624E+00 1.33102E-03 1.26602E-03
 -1     20442 5.73374E+00 4.78895E+00 3.47387E+00 5.25222E+00-5.18238E-04-2.61971E-03
 -1     20443 5.34724E+00 4.49089E+00 3.24584E+00 4.90441E+00-1.07069E-03 7.09681E-04
 -1     20444 5.04086E+00 4.26164E+00 3.07414E+00 4.63073E+00 3.06066E-04 3.79329E-05
 -1     20445 4.78686E+00 4.06046E+00 2.92029E+00 4.39636E+00-1.92492E-04-1.22402E-03
 -1     20446 4.46329E+00 3.86607E+00 2.74634E+00 4.10324E+00-1.45990E-02 8.51213E-03
 -1     20447 8.56636E+00 7.25611E+00 5.25387E+00 7.60528E+00 2.30620E-03-5.99737E-02
 -1     20448 1.02561E+01 8.62084E+00 6.23400E+00 9.32353E+00 7.89975E-03-1.03312E-02
 -1     20449 1.13574E+01 9.54517E+00 6.89331E+00 1.03723E+01 6.51914E-04 2.13969E-03
 -1     20450 1.21332E+01 1.01979E+01 7.36568E+00 1.10993E+01 2.70692E-03 7.26140E-04
 -1     20451 1.26850E+01 1.06586E+01 7.70673E+00 1.16172E+01 4.45489E-05-1.62834E-03
 -1     20452 1.30826E+01 1.09934E+01 7.94492E+00 1.19843E+01-5.20844E-03-6.93256E-04
 -1     20453 1.33813E+01 1.12359E+01 8.12345E+00 1.22541E+01 5.34591E-04 1.80908E-03
 -1     20454 1.35953E+01 1.14098E+01 8.25202E+00 1.24464E+01-6.38333E-05-8.39193E-04
 -1     20455 1.37363E+01 1.15276E+01 8.33794E+00 1.25747E+01 1.75242E-04-3.11890E-05
 -1     20456 1.38153E+01 1.15949E+01 8.38479E+00 1.26492E+01 1.08161E-04-4.78836E-04
 -1     20457 1.38370E+01 1.16188E+01 8.39839E+00 1.26687E+01 4.92268E-04-5.38478E-04
 -1     20458 1.38034E+01 1.15916E+01 8.37955E+00 1.26465E+01 2.34168E-04-4.77501E-04
 -1     20459 1.37093E+01 1.15221E+01 8.32574E+00 1.25550E+01-4.26019E-03-1.91580E-03
 -1     20460 1.35665E+01 1.13813E+01 8.23210E+00 1.24103E+01 2.14566E-03 1.82257E-03
 -1     20461 1.33453E+01 1.11973E+01 8.09490E+00 1.22156E+01 2.83984E-03 1.09051E-03
 -1     20462 1.30567E+01 1.09391E+01 7.92236E+00 1.19448E+01-6.43686E-04-6.47781E-04
 -1     20463 1.26780E+01 1.06244E+01 7.68900E+00 1.15960E+01 1.41462E-03-7.82156E-04
 -1     20464 1.22220E+01 1.02307E+01 7.41304E+00 1.11759E+01-1.77807E-03-1.57215E-04
 -1     20465 1.16843E+01 9.78012E+00 7.08223E+00 1.06816E+01 1.47713E-03-6.43218E-04
 -1     20466 1.10693E+01 9.26120E+00 6.71250E+00 1.01206E+01-9.85497E-04-1.05641E-03
 -1     20467 1.03939E+01 8.70062E+00 6.30334E+00 9.50610E+00 9.14293E-04-2.08434E-03
 -1     20468 9.67310E+00 8.09506E+00 5.86499E+00 8.84399E+00-9.39924E-04-7.69968E-04
 -1     20469 8.93497E+00 7.46805E+00 5.41309E+00 8.16809E+00-2.66292E-03-5.49679E-04
 -1     20470 8.19606E+00 6.85187E+00 4.96470E+00 7.49425E+00-1.02656E-03-1.69641E-03
 -1     20471 7.47636E+00 6.24167E+00 4.52476E+00 6.83930E+00-2.77795E-03-1.61545E-03
 -1     20472 6.81495E+00 5.68703E+00 4.12511E+00 6.22881E+00 2.52860E-03-7.69446E-04
 -1     20473 6.22274E+00 5.19355E+00 3.76521E+00 5.69449E+00-2.29087E-04 1.06668E-03
 -1     20474 5.73205E+00 4.78638E+00 3.47390E+00 5.25045E+00 5.61204E-04 1.45800E-03
 -1     20475 5.33943E+00 4.48974E+00 3.24685E+00 4.90194E+00-1.24914E-04-2.57426E-03
 -1     20476 5.03326E+00 4.26451E+00 3.06878E+00 4.63225E+00-3.78574E-04-3.10735E-04
 -1     20477 4.78356E+00 4.05789E+00 2.91803E+00 4.39428E+00-2.33979E-03 2.31471E-03
 -1     20478 4.47493E+00 3.84054E+00 2.74536E+00 4.10038E+00 1.54527E-02-7.90282E-03
 -1     20479 1.85068E+00 1.60202E+01 5.58232E+00 8.00052E+00 1.49193E-01 1.97915E-01
 -1     20480 1.90365E-01 1.54054E+01 5.12243E+00 6.54321E+00 6.02992E-02 1.73293E-02
 -1     20481 9.94020E-02 1.50696E+01 4.99350E+00 6.45702E+00 1.06983E-02-1.72019E-02
 -1     20482 7.42829E-02 1.41383E+01 4.68454E+00 6.35537E+00 2.55402E-02 9.21765E-03
 -1     20483 3.87933E-02 1.24429E+01 4.10705E+00 6.38584E+00-7.15186E-03 3.90475E-03
 -1     20484 2.36368E-02 1.00961E+01 3.34601E+00 6.43440E+00 9.84366E-03-2.52409E-03
 -1     20485-3.18636E-01 6.49856E+00 2.07862E+00 6.81367E+00 4.11447E-02-6.62441E-02
 -1     20486 1.16821E+00 1.43796E+01 5.16467E+00 7.21704E+00-2.66685E-01-5.90535E-02
 -1     20487 2.51910E-01 1.55159E+01 5.14783E+00 6.72429E+00 6.63523E-02 4.81232E-03
 -1     20488 6.35379E-02 1.50934E+01 4.98565E+00 6.41289E+00-9.61379E-03 9.72877E-03
 -1     20489 6.32874E-02 1.41443E+01 4.67100E+00 6.41812E+00-8.28773E-03-4.93919E-03
 -1     20490 7.03325E-02 1.25103E+01 4.14836E+00 6.43832E+00 7.13503E-03 3.34415E-03
 -1     20491 2.44548E-02 1.00425E+01 3.34149E+00 6.58430E+00 6.66319E-02-1.34806E-02
 -1     20492-4.07733E-01 6.78463E+00 2.08662E+00 6.90749E+00 2.20047E-02-2.43663E-02
 -1     20493-2.31631E+01-1.45007E+00-7.94866E+00-1.11971E+01 5.14551E-02 3.19244E-02
 -1     20494-2.33297E+01-2.50450E+00-8.56915E+00-7.92491E+00 1.43415E-02 1.52361E-02
 -1     20495-2.18490E+01-2.40163E+00-8.01611E+00-7.31707E+00-4.10675E-03 4.64087E-03
 -1     20496-2.08776E+01-2.31445E+00-7.64687E+00-6.98967E+00 1.57554E-03-4.74846E-03
 -1     20497-2.02655E+01-2.23805E+00-7.42752E+00-6.77839E+00 3.82753E-03-5.69559E-04
 -1     20498-1.98390E+01-2.20486E+00-7.27746E+00-6.62781E+00 3.58479E-04-4.38404E-04
 -1     20499-1.95479E+01-2.17518E+00-7.16635E+00-6.52733E+00 1.19099E-03-6.89055E-04
 -1     20500-1.93280E+01-2.15611E+00-7.08838E+00-6.46618E+00-2.49543E-04 3.92332E-03
 -1     20501-1.91529E+01-2.14093E+00-7.02610E+00-6.40370E+00 1.66119E-03 1.60141E-03
 -1     20502-1.90002E+01-2.11653E+00-6.96883E+00-6.34356E+00-3.63985E-06-8.02143E-04
 -1     20503-1.88236E+01-2.09818E+00-6.90343E+00-6.28072E+00-8.23210E-04-9.85301E-04
 -1     20504-1.85957E+01-2.07399E+00-6.82166E+00-6.20529E+00 3.45915E-04 1.34527E-04
 -1     20505-1.83050E+01-2.04028E+00-6.71400E+00-6.10546E+00-5.69333E-04-1.34689E-03
 -1     20506-1.79277E+01-1.99978E+00-6.57750E+00-5.97807E+00 3.20519E-04-3.89665E-04
 -1     20507-1.74421E+01-1.94657E+00-6.39658E+00-5.81472E+00-2.43432E-03-1.02440E-03
 -1     20508-1.68306E+01-1.88101E+00-6.17796E+00-5.61282E+00-1.06557E-03 7.39582E-04
 -1     20509-1.60788E+01-1.79470E+00-5.89880E+00-5.36215E+00-3.97425E-04 3.81562E-04
 -1     20510-1.51898E+01-1.69343E+00-5.57163E+00-5.06265E+00-3.47689E-05-6.46323E-04
 -1     20511-1.41741E+01-1.58198E+00-5.20279E+00-4.72461E+00-2.60818E-04-5.50475E-04
 -1     20512-1.30817E+01-1.45838E+00-4.79923E+00-4.36541E+00 1.73320E-03-2.42485E-03
 -1     20513-1.19966E+01-1.34722E+00-4.40514E+00-4.01864E+00 1.04274E-03-3.13827E-03
 -1     20514-1.10171E+01-1.27197E+00-4.05303E+00-3.73168E+00-2.47287E-04-5.47373E-03
 -1     20515-1.02775E+01-1.23939E+00-3.79561E+00-3.52548E+00-8.79017E-04-1.66247E-03
 -1     20516-9.87298E+00-1.61261E+00-3.82252E+00-3.65625E+00 6.36820E-03-1.78750E-02
 -1     20517-9.75033E+00-4.28372E+00-4.35195E+00-4.50586E+00-3.48567E-01-1.18727E-01
 -1     20518-2.64595E+01-2.07349E+00-9.34102E+00-1.03736E+01-8.50615E-02-6.06692E-02
 -1     20519-2.33697E+01-2.47489E+00-8.51260E+00-8.06362E+00-4.56415E-02-5.13726E-03
 -1     20520-2.18277E+01-2.41555E+00-8.00801E+00-7.35678E+00-8.00522E-03-1.06822E-02
 -1     20521-2.08859E+01-2.31571E+00-7.65755E+00-6.98499E+00 5.47688E-03 5.94368E-03
 -1     20522-2.02639E+01-2.24453E+00-7.43377E+00-6.77011E+00 2.88923E-03-5.37949E-04
 -1     20523-1.98397E+01-2.20683E+00-7.28174E+00-6.63365E+00 1.36728E-03-1.48482E-03
 -1     20524-1.95585E+01-2.17325E+00-7.16820E+00-6.52595E+00 7.03511E-04 7.86424E-04
 -1     20525-1.93437E+01-2.15154E+00-7.09159E+00-6.45742E+00 9.18192E-04 2.12585E-03
 -1     20526-1.91690E+01-2.13696E+00-7.03170E+00-6.40034E+00 1.17347E-04-4.41024E-04
 -1     20527-1.90024E+01-2.11846E+00-6.96923E+00-6.34417E+00-5.92751E-04-8.30109E-05
 -1     20528-1.88146E+01-2.11094E+00-6.90497E+00-6.28852E+00-1.85585E-03-3.41920E-03
 -1     20529-1.85940E+01-2.08101E+00-6.81809E+00-6.21184E+00-1.77304E-03-3.32762E-03
 -1     20530-1.82824E+01-2.05869E+00-6.71444E+00-6.10129E+00-3.82666E-03-3.43610E-04
 -1     20531-1.79230E+01-2.01157E+00-6.57601E+00-5.98248E+00-3.53312E-05 1.21829E-05
 -1     20532-1.74429E+01-1.95011E+00-6.39589E+00-5.81785E+00-8.36550E-04-1.37839E-03
 -1     20533-1.68316E+01-1.87500E+00-6.17451E+00-5.60485E+00 2.22530E-03 2.08787E-03
 -1     20534-1.60830E+01-1.79858E+00-5.89866E+00-5.35655E+00 1.13124E-03-8.43211E-04
 -1     20535-1.51905E+01-1.69994E+00-5.57239E+00-5.06482E+00 2.49517E-04-3.40898E-04
 -1     20536-1.41745E+01-1.58144E+00-5.19946E+00-4.72093E+00 1.89104E-03 1.21536E-03
 -1     20537-1.30822E+01-1.46307E+00-4.80048E+00-4.36831E+00 1.25282E-03 2.19398E-03
 -1     20538-1.19835E+01-1.34958E+00-4.40335E+00-4.02022E+00-2.00521E-03 6.58084E-03
 -1     20539-1.10603E+01-1.26108E+00-4.06304E+00-3.73599E+00-6.46301E-04 1.17613E-02
 -1     20540-1.03430E+01-1.26697E+00-3.83026E+00-3.58495E+00-2.85336E-03 7.03155E-03
 -1     20541-9.81181E+00-1.46843E+00-3.68686E+00-3.61968E+00 1.68963E-03-3.74792E-03
 -1     20542-8.82518E+00-2.59173E+00-3.79722E+00-3.47661E+00 1.55715E-01 1.23988E-01
 -1     20543 5.12601E+00 2.53387E+00 2.51875E+00 4.05011E+00 1.28963E-02-2.29093E-03
 -1     20544 5.64339E+00 2.77967E+00 2.77924E+00 4.52253E+00 5.30865E-03-1.11720E-03
 -1     20545 6.21846E+00 3.06168E+00 3.06452E+00 4.79870E+00 4.93437E-03 2.58951E-05
 -1     20546 6.81001E+00 3.35613E+00 3.35221E+00 4.93264E+00 2.58566E-03 1.92392E-04
 -1     20547 7.34364E+00 3.60898E+00 3.61402E+00 4.91602E+00 1.50264E-03-1.18154E-03
 -1     20548 7.74859E+00 3.80743E+00 3.81376E+00 4.76657E+00 1.76770E-03-1.30354E-03
 -1     20549 7.97318E+00 3.91142E+00 3.92188E+00 4.47795E+00 3.23846E-03-2.16100E-03
 -1     20550 7.99488E+00 3.91612E+00 3.93032E+00 4.09704E+00 3.05370E-03-2.81940E-03
 -1     20551 7.76380E+00 3.79753E+00 3.81254E+00 3.62802E+00 8.21225E-05-5.27289E-03
 -1     20552 7.28889E+00 3.54883E+00 3.58170E+00 3.10031E+00 4.53515E-05-5.77792E-04
 -1     20553 6.50826E+00 3.18563E+00 3.19468E+00 2.53633E+00-1.83248E-04-7.72737E-03
 -1     20554 5.48763E+00 2.66943E+00 2.69340E+00 1.95170E+00-3.43161E-04-1.39008E-03
 -1     20555 4.14194E+00 2.00998E+00 2.03023E+00 1.35614E+00 1.81835E-03-2.14974E-03
 -1     20556 2.51284E+00 1.21033E+00 1.22805E+00 7.70000E-01 6.88221E-05-5.29964E-03
 -1     20557 5.57954E-01 2.50989E-01 2.65954E-01 2.07726E-01-1.34470E-03-4.51485E-03
 -1     20558-1.73871E+00-8.77091E-01-8.63397E-01-3.04349E-01-4.13792E-03-2.70639E-03
 -1     20559-4.41898E+00-2.20349E+00-2.19157E+00-7.34002E-01-5.01822E-03-7.10166E-03
 -1     20560-7.56822E+00-3.76522E+00-3.73912E+00-1.06157E+00-5.52909E-03-4.19011E-03
 -1     20561-1.13456E+01-5.64633E+00-5.60522E+00-1.22008E+00-1.65728E-02-4.27350E-03
 -1     20562-1.61734E+01-8.13223E+00-8.01362E+00-1.08156E+00-6.51476E-02-1.86409E-02
 -1     20563-2.26658E+01-1.19158E+01-1.14191E+01-2.25952E-01-3.43156E-01 1.54989E-01
 -1     20564 5.10812E+00 2.54671E+00 2.51079E+00 4.03399E+00-1.16912E-02 2.14371E-03
 -1     20565 5.64324E+00 2.78744E+00 2.78449E+00 4.51997E+00-3.69265E-03-1.33975E-03
 -1     20566 6.21950E+00 3.06460E+00 3.06506E+00 4.79677E+00-2.85752E-03-1.07218E-03
 -1     20567 6.81378E+00 3.35481E+00 3.35389E+00 4.93254E+00-3.46137E-03 2.04811E-04
 -1     20568 7.33976E+00 3.60462E+00 3.61270E+00 4.91039E+00-1.91364E-03 5.00965E-04
 -1     20569 7.74847E+00 3.80015E+00 3.80974E+00 4.75112E+00-1.59998E-03 1.78183E-03
 -1     20570 7.98087E+00 3.91144E+00 3.92239E+00 4.47526E+00-1.22836E-03 3.30467E-03
 -1     20571 8.00201E+00 3.91214E+00 3.93129E+00 4.09724E+00-1.64753E-03 2.21281E-03
 -1     20572 7.77430E+00 3.79450E+00 3.81755E+00 3.62875E+00-1.87768E-03 1.92222E-03
 -1     20573 7.28612E+00 3.55798E+00 3.57923E+00 3.09807E+00-1.18170E-03 1.75723E-03
 -1     20574 6.52416E+00 3.17896E+00 3.20260E+00 2.53219E+00 2.17259E-04 4.28043E-03
 -1     20575 5.47779E+00 2.66745E+00 2.68888E+00 1.94662E+00-5.07613E-04 4.83595E-03
 -1     20576 4.13722E+00 2.01456E+00 2.02521E+00 1.35116E+00 9.15112E-04 8.03865E-03
 -1     20577 2.52347E+00 1.21285E+00 1.23399E+00 7.63149E-01 2.97119E-05 1.92219E-03
 -1     20578 5.61577E-01 2.46347E-01 2.68856E-01 2.00794E-01-1.27089E-03 5.35168E-03
 -1     20579-1.73456E+00-8.87476E-01-8.67349E-01-3.05944E-01 2.31557E-03 4.88519E-03
 -1     20580-4.40289E+00-2.21923E+00-2.18509E+00-7.39840E-01 7.03637E-03 1.61476E-03
 -1     20581-7.54151E+00-3.78140E+00-3.74159E+00-1.05628E+00 1.13326E-03 6.22416E-03
 -1     20582-1.13463E+01-5.65074E+00-5.61918E+00-1.21261E+00 1.43464E-02 9.58366E-03
 -1     20583-1.62572E+01-8.08569E+00-8.02179E+00-1.04211E+00 3.35593E-02-1.28373E-03
 -1     20584-2.33914E+01-1.16036E+01-1.16029E+01-2.56854E-02 1.45956E-01 3.26445E-02
 -1     20585 1.18800E+00 8.67939E+00 3.22440E+00 7.00886E+00-2.07493E-02-1.22329E-02
 -1     20586 6.94766E+00 9.03110E+00 5.28560E+00 8.40755E+00 1.20940E-02-9.96681E-03
 -1     20587 9.36126E+00 9.50696E+00 6.22428E+00 9.58783E+00 5.14344E-04 1.86277E-03
 -1     20588 1.06669E+01 9.86318E+00 6.77800E+00 1.03370E+01 4.82674E-04-3.81998E-03
 -1     20589 1.13996E+01 1.00376E+01 7.07430E+00 1.07395E+01-1.78031E-03-2.27915E-03
 -1     20590 1.18446E+01 1.00743E+01 7.23218E+00 1.09572E+01 2.28415E-06-1.15417E-03
 -1     20591 1.20720E+01 9.94397E+00 7.26515E+00 1.09968E+01 1.44845E-03-1.24052E-03
 -1     20592 1.20908E+01 9.58861E+00 7.15407E+00 1.08116E+01 6.24791E-04-2.32693E-03
 -1     20593 1.18826E+01 8.99219E+00 6.88713E+00 1.03919E+01-5.16862E-04-1.77096E-03
 -1     20594 1.14085E+01 8.16666E+00 6.45856E+00 9.72420E+00-5.43908E-04-3.19579E-03
 -1     20595 1.06613E+01 7.18846E+00 5.89135E+00 8.83706E+00-7.98229E-04-2.12923E-03
 -1     20596 9.66921E+00 6.18663E+00 5.22738E+00 7.81219E+00 2.97308E-04-6.48326E-05
 -1     20597 8.51433E+00 5.32356E+00 4.57046E+00 6.78460E+00-4.66682E-03-2.17131E-03
 -1     20598 7.29896E+00 4.65521E+00 3.94248E+00 5.83810E+00-3.97698E-03-6.95852E-04
 -1     20599 6.28066E+00 4.18080E+00 3.45234E+00 5.09775E+00-3.32596E-04 8.04964E-04
 -1     20600 5.55391E+00 3.62447E+00 3.02797E+00 4.55612E+00-2.38312E-04-2.65168E-04
 -1     20601 7.09760E+00 3.50155E+00 3.49689E+00 4.85011E+00-1.63155E-03-4.30326E-04
 -1     20602 8.09178E+00 3.41215E+00 3.79572E+00 4.62738E+00-5.45217E-04-5.81095E-05
 -1     20603 8.25393E+00 3.07186E+00 3.73781E+00 4.02006E+00 2.58104E-03 3.37088E-03
 -1     20604 7.37504E+00 2.38257E+00 3.21909E+00 3.17352E+00 1.31820E-03 2.40264E-04
 -1     20605 5.31977E+00 1.29416E+00 2.18465E+00 2.20303E+00-1.52093E-03 1.30754E-03
 -1     20606 2.00463E+00-2.30067E-01 5.89842E-01 1.25777E+00 2.42877E-03 1.49775E-03
 -1     20607-2.64039E+00-2.15877E+00-1.57617E+00 4.96025E-01 5.46995E-03-1.53451E-03
 -1     20608-9.11654E+00-4.47069E+00-4.46858E+00 1.16800E-01 7.09970E-03 3.66510E-03
 -1     20609-1.94323E+01-6.49804E+00-8.59889E+00 7.32109E-01 4.02154E-02-2.15863E-02
 -1     20610-2.87740E+01-3.72539E+00-1.09308E+01-1.05775E-01 6.86716E-02-1.16662E-01
 -1     20611-2.17006E+01-1.68311E+00-7.69856E+00-5.53492E+00-1.30882E-02 3.93464E-02
 -1     20612-1.89022E+01-1.75459E+00-6.81565E+00-5.61965E+00-4.06892E-03-3.71273E-03
 -1     20613-1.75835E+01-1.77210E+00-6.38513E+00-5.50722E+00-2.05625E-03 3.11190E-03
 -1     20614-1.68343E+01-1.72813E+00-6.12505E+00-5.38779E+00-3.61920E-04-1.30206E-03
 -1     20615-1.62534E+01-1.64439E+00-5.90646E+00-5.19381E+00-3.47497E-04-1.69977E-05
 -1     20616-1.56322E+01-1.49463E+00-5.65239E+00-4.89151E+00 1.12162E-03 7.40566E-04
 -1     20617-1.48123E+01-1.26972E+00-5.30621E+00-4.44213E+00 1.87381E-04 3.20309E-04
 -1     20618-1.36562E+01-9.81399E-01-4.83037E+00-3.83060E+00 1.32391E-03-1.55291E-03
 -1     20619-1.20509E+01-6.50525E-01-4.19360E+00-3.05634E+00 2.79497E-03-3.24648E-04
 -1     20620-9.61336E+00-2.56753E-01-3.26051E+00-1.99474E+00 4.14290E-03 1.42761E-03
 -1     20621-6.18990E+00 2.45171E-01-1.96288E+00-6.31269E-01 7.72879E-03 1.06661E-02
 -1     20622-1.27788E+00 3.42055E+00 7.09682E-01 2.87084E+00-7.54237E-03-3.00453E-02
 -1     20623-3.51494E-01 8.63413E+00 2.74232E+00 6.27201E+00-2.77037E-02-9.66020E-03
 -1     20624-2.41203E-01 9.37337E+00 2.99387E+00 7.67141E+00-2.43787E-02 7.32374E-03
 -1     20625 4.88260E+00 8.84398E+00 4.52304E+00 7.54090E+00 6.87208E-03 2.44726E-03
 -1     20626 8.35553E+00 9.28482E+00 5.82849E+00 9.06896E+00-5.17823E-03-5.43531E-03
 -1     20627 1.01110E+01 9.69804E+00 6.53504E+00 1.00087E+01 2.35058E-03 2.65549E-03
 -1     20628 1.10726E+01 9.96811E+00 6.94207E+00 1.05594E+01 1.88047E-04 1.45328E-03
 -1     20629 1.16483E+01 1.00775E+01 7.16803E+00 1.08702E+01 7.84191E-04-1.73171E-03
 -1     20630 1.19791E+01 1.00320E+01 7.26499E+00 1.09958E+01-1.26563E-04-1.82006E-03
 -1     20631 1.21034E+01 9.79171E+00 7.22411E+00 1.09269E+01-1.05562E-03-1.78673E-03
 -1     20632 1.20113E+01 9.31795E+00 7.03944E+00 1.06350E+01-1.79348E-03-1.46134E-03
 -1     20633 1.16671E+01 8.60200E+00 6.68924E+00 1.00879E+01-1.37347E-03-6.19786E-04
 -1     20634 1.10595E+01 7.68375E+00 6.18588E+00 9.30164E+00-2.11301E-03-9.84193E-04
 -1     20635 1.01874E+01 6.68376E+00 5.56629E+00 8.33543E+00-4.56491E-03-2.57471E-03
 -1     20636 9.10953E+00 5.72885E+00 4.90224E+00 7.28749E+00-9.16280E-04-5.68683E-03
 -1     20637 7.89702E+00 4.97620E+00 4.24555E+00 6.29878E+00-4.29016E-03-3.02151E-03
 -1     20638 6.76797E+00 4.39357E+00 3.68219E+00 5.44377E+00-1.53276E-03-1.07191E-03
 -1     20639 5.87654E+00 3.97051E+00 3.25106E+00 4.81079E+00-5.62978E-04 3.18113E-04
 -1     20640 5.08102E+00 3.37707E+00 2.79929E+00 4.26143E+00-3.94889E-05-1.02174E-03
 -1     20641 6.38548E+00 3.51960E+00 3.26856E+00 4.77497E+00 8.64590E-04 3.61423E-04
 -1     20642 7.68423E+00 3.46327E+00 3.67921E+00 4.79271E+00 1.52738E-03 1.77816E-03
 -1     20643 8.29546E+00 3.27794E+00 3.81976E+00 4.36502E+00-4.18695E-03 6.98564E-04
 -1     20644 7.95772E+00 2.78274E+00 3.54495E+00 3.62219E+00 1.51394E-03 3.76849E-03
 -1     20645 6.49762E+00 1.89338E+00 2.76908E+00 2.69142E+00-7.78972E-04-1.29761E-03
 -1     20646 3.82812E+00 6.10840E-01 1.46336E+00 1.72631E+00 3.05200E-03 2.94550E-03
 -1     20647-1.38545E-01-1.10257E+00-4.13967E-01 8.40480E-01-6.89893E-04 5.14872E-03
 -1     20648-5.59316E+00-3.24763E+00-2.91304E+00 2.26599E-01 5.64409E-03 2.85421E-03
 -1     20649-1.34171E+01-5.82548E+00-6.29119E+00 2.07949E-01 4.39905E-02 9.15163E-03
 -1     20650-1.81451E+01-1.76406E+00-6.56664E+00-5.56989E+00-2.11382E-04 2.94541E-03
 -1     20651-2.51024E+01-1.70122E+00-8.67973E+00-4.95198E+00-1.03309E-01-1.33249E-01
 -1     20652-2.00374E+01-1.71822E+00-7.18226E+00-5.65701E+00 7.02005E-03 5.43417E-03
 -1     20653-1.71756E+01-1.75341E+00-6.25076E+00-5.45633E+00-1.96191E-04 1.59069E-03
 -1     20654-1.65343E+01-1.69616E+00-6.01528E+00-5.30032E+00 7.10723E-04 4.76031E-04
 -1     20655-1.59580E+01-1.57793E+00-5.78606E+00-5.05979E+00 4.19701E-04-2.13890E-04
 -1     20656-1.52544E+01-1.39114E+00-5.49217E+00-4.68852E+00 8.86054E-04 1.57598E-03
 -1     20657-1.42714E+01-1.13026E+00-5.08252E+00-4.15337E+00 1.09149E-03 7.14389E-04
 -1     20658-1.29415E+01-8.22063E-01-4.54187E+00-3.47432E+00 1.10331E-03-3.45283E-04
 -1     20659-1.09472E+01-4.56366E-01-3.75791E+00-2.55922E+00 2.49711E-03 9.11566E-03
 -1     20660-8.04530E+00-6.26869E-02-2.67818E+00-1.37260E+00 1.86156E-03 4.02354E-03
 -1     20661-4.07123E+00 8.30594E-01-1.06702E+00 3.72571E-01 2.15490E-03 1.67597E-02
 -1     20662-4.65071E-01 7.06261E+00 2.19333E+00 5.09120E+00-2.53237E-02-1.86400E-02
 -1     20663-3.13023E-01 9.45612E+00 3.01948E+00 7.05468E+00-2.67236E-02-8.87154E-03
 -1     20664-1.99621E-01 8.97390E+00 2.89579E+00 7.99567E+00-1.59042E-02-6.07994E-04
 -1     20665 7.02764E+00 8.61179E+00 5.16222E+00 8.29460E+00-4.86276E-04-2.37963E-04
 -1     20666 8.43115E+00 8.67708E+00 5.64578E+00 8.81572E+00-2.61068E-03-2.59119E-03
 -1     20667 8.98059E-01 9.16915E+00 3.32095E+00 7.61519E+00-1.16279E-02 4.37728E-03
 -1     20668 9.32104E+00 8.67870E+00 5.94384E+00 9.16947E+00 2.52624E-04-1.39656E-03
 -1     20669 7.81805E+00 8.64361E+00 5.43540E+00 8.56843E+00 1.60170E-04 2.48434E-03
 -1     20670 9.97183E+00 8.59988E+00 6.13153E+00 9.41065E+00 2.88282E-03-6.11686E-04
 -1     20671 1.04291E+01 8.36147E+00 6.20140E+00 9.49492E+00-1.22674E-03-3.08042E-03
 -1     20672 1.07049E+01 7.87154E+00 6.13389E+00 9.38384E+00-1.47962E-03-2.44674E-03
 -1     20673 1.07976E+01 7.16643E+00 5.93320E+00 9.05585E+00 3.69349E-04-3.32641E-03
 -1     20674 1.06612E+01 6.29862E+00 5.60118E+00 8.49526E+00 8.61401E-04-1.57488E-03
 -1     20675 1.02952E+01 5.39660E+00 5.17891E+00 7.76253E+00 5.18286E-04 1.49382E-03
 -1     20676 9.61289E+00 4.66209E+00 4.71198E+00 6.95033E+00-1.43539E-04 1.14080E-03
 -1     20677 8.73587E+00 4.16303E+00 4.25651E+00 6.17613E+00-3.62769E-04-7.77284E-04
 -1     20678 7.64504E+00 3.93209E+00 3.82050E+00 5.46441E+00 6.06435E-04 5.06290E-04
 -1     20679 7.47046E+00 3.51294E+00 3.62588E+00 4.93593E+00-1.43855E-03-1.18970E-04
 -1     20680 8.42192E+00 3.03010E+00 3.77937E+00 4.65557E+00 7.39896E-04 1.97032E-04
 -1     20681 6.73051E+00 3.73187E+00 3.45106E+00 4.92895E+00 6.90423E-04-9.23146E-04
 -1     20682 6.33778E+00 9.08042E-01 2.38995E+00 2.96400E+00-2.58014E-03 7.89398E-04
 -1     20683 8.45424E+00 2.38077E+00 3.58112E+00 4.11990E+00 7.60821E-03 5.53651E-03
 -1     20684-2.05427E+01-1.54075E+00-7.26757E+00-2.67732E+00 3.05953E-02-7.29813E-03
 -1     20685 7.34599E+00 1.47222E+00 2.91559E+00 3.35816E+00-2.72311E-03 1.93114E-03
 -1     20686 8.57483E+00 2.70919E+00 3.72449E+00 4.41099E+00 3.19112E-05-1.56874E-03
 -1     20687 3.34197E+00-4.15081E-01 9.64330E-01 2.15777E+00 5.49718E-04 2.03711E-03
 -1     20688-1.03841E+00-1.93262E+00-9.81243E-01 1.44879E+00 2.81270E-03-9.13004E-04
 -1     20689-7.01177E+00-3.46937E+00-3.46287E+00 9.73549E-01-4.48720E-03 9.22100E-03
 -1     20690-1.57449E+01-3.96332E+00-6.47878E+00 7.74651E-01 7.07985E-03 9.17491E-03
 -1     20691-1.74143E+01-1.33781E+00-6.18860E+00-4.06861E+00-1.72591E-03-3.26098E-04
 -1     20692-2.16156E+01-2.79365E+00-8.07991E+00-3.15617E-01-4.17603E-02 1.61213E-02
 -1     20693-1.38549E+01-1.15893E+00-4.95532E+00-4.09319E+00-4.25142E-05 4.06339E-04
 -1     20694-1.51092E+01-1.34231E+00-5.42948E+00-4.33091E+00 6.73256E-04 2.17842E-03
 -1     20695-1.31268E+01-9.11479E-01-4.63388E+00-3.72576E+00-1.49028E-04 9.06297E-04
 -1     20696-1.56929E+01-1.35706E+00-5.62672E+00-4.31299E+00-1.08126E-03-1.32289E-03
 -1     20697-1.34931E+01-1.04713E+00-4.79843E+00-3.92998E+00 9.78872E-04 8.02852E-04
 -1     20698-1.23054E+01-5.65596E-01-4.24951E+00-3.17629E+00 4.43185E-05 1.49508E-03
 -1     20699-1.12860E+01-1.29597E-01-3.76682E+00-2.43592E+00 3.27639E-04 5.78002E-04
 -1     20700-1.00397E+01 2.85203E-01-3.21961E+00-1.57656E+00 5.43468E-04 1.46040E-03
 -1     20701-7.75147E+00 8.37237E-01-2.28202E+00-2.13859E-01-4.35848E-04 2.25197E-03
 -1     20702-4.25897E+00 2.01213E+00-7.44099E-01 1.95876E+00 3.25379E-03-1.23715E-03
 -1     20703-2.16554E+00 3.51058E+00 4.39637E-01 3.40648E+00-3.47960E-03-6.76345E-04
 -1     20704-1.59229E+00 5.39623E+00 1.25732E+00 5.42907E+00-9.46063E-04-1.69494E-03
 -1     20705 5.96555E+00 8.58820E+00 4.79950E+00 7.95117E+00 3.91152E-03 4.03973E-03
 -1     20706-4.73465E-01 8.48483E+00 2.65756E+00 7.70585E+00-1.43226E-02 1.13607E-02
 -1     20707 8.04577E+00 1.95962E+00 3.29801E+00 3.74881E+00 2.32221E-04 1.89038E-03
 -1     20708 8.90916E+00 8.68684E+00 5.80752E+00 9.00592E+00-2.19205E-04-3.71984E-04
 -1     20709 9.66797E+00 8.65429E+00 6.04658E+00 9.30254E+00-4.96135E-04-6.13593E-04
 -1     20710-1.42324E+01-1.24432E+00-5.10808E+00-4.21524E+00 6.21568E-05 1.28628E-03
 -1     20711 4.61768E+00 8.63968E+00 4.37830E+00 7.62009E+00-3.71775E-03-8.22358E-03
 -1     20712 1.07597E+01 6.74853E+00 5.77749E+00 8.79694E+00-1.20659E-03-1.88282E-03
 -1     20713 1.05926E+01 8.14507E+00 6.18295E+00 9.47215E+00-2.21146E-04-1.44802E-03
 -1     20714 1.02224E+01 8.50469E+00 6.17883E+00 9.47472E+00-9.72729E-04-1.83414E-03
 -1     20715 1.07750E+01 7.54634E+00 6.04621E+00 9.24378E+00 1.85537E-04-1.51934E-03
 -1     20716 1.04996E+01 5.84594E+00 5.39371E+00 8.14659E+00-1.05221E-03-2.02860E-03
 -1     20717 9.99240E+00 5.01754E+00 4.95036E+00 7.36193E+00 1.49386E-04 2.15891E-03
 -1     20718 9.17684E+00 4.38048E+00 4.47322E+00 6.53862E+00 2.99069E-03-2.82909E-03
 -1     20719 8.18399E+00 4.05472E+00 4.03808E+00 5.81580E+00-6.23807E-04-6.87347E-04
 -1     20720 5.01586E+00 2.56688E-01 1.74057E+00 2.55701E+00-1.66767E-03 6.15292E-05
 -1     20721 7.17018E+00 3.83412E+00 3.62993E+00 5.17732E+00-1.44549E-03-3.71674E-04
 -1     20722 8.05206E+00 3.29724E+00 3.74515E+00 4.84541E+00-1.51357E-03 3.67700E-04
 -1     20723 1.32053E+00-1.16397E+00 5.04326E-02 1.78614E+00-1.36093E-03-1.21319E-03
 -1     20724-1.87226E+01-1.34508E+00-6.61448E+00-3.67255E+00-2.04092E-03-2.29072E-03
 -1     20725-3.79687E+00-2.72886E+00-2.15054E+00 1.18461E+00 3.25091E-03-3.73722E-03
 -1     20726-1.08553E+01-4.17059E+00-4.95037E+00 9.04735E-01 1.55614E-02-7.78815E-03
 -1     20727-1.64080E+01-1.34936E+00-5.86137E+00-4.23510E+00-3.15550E-03-1.97004E-03
 -1     20728-1.46345E+01-1.30687E+00-5.26261E+00-4.28778E+00-2.98818E-04 6.62493E-04
 -1     20729-1.18204E+01-3.51035E-01-4.01830E+00-2.82594E+00 1.79036E-03-3.95026E-04
 -1     20730-1.27422E+01-7.53554E-01-4.45522E+00-3.47878E+00 2.55959E-03-6.06779E-04
 -1     20731-1.07144E+01 8.47106E-02-3.50945E+00-2.02113E+00 1.83790E-03 2.00257E-03
 -1     20732-9.12023E+00 5.25408E-01-2.83477E+00-1.01927E+00 6.18315E-04-6.03446E-04
 -1     20733-6.19125E+00 1.29739E+00-1.61645E+00 7.43809E-01-2.61473E-03-9.02429E-04
 -1     20734-9.35311E-01 7.49926E+00 2.16560E+00 7.13454E+00-7.44100E-03-3.96635E-03
 -1     20735 2.82603E+00 8.84980E+00 3.85604E+00 7.36047E+00-1.25024E-03 5.90599E-03
 -1     20736 8.18786E+00 7.18506E+00 5.07297E+00 7.99012E+00-7.83973E-04 5.08637E-04
 -1     20737 9.68647E+00 3.70993E+00 4.42671E+00 6.52725E+00-6.76873E-03-7.64631E-04
 -1     20738 9.16066E+00 6.59175E+00 5.19796E+00 8.16907E+00-1.17909E-03-1.67699E-03
 -1     20739 9.95200E+00 4.27634E+00 4.69478E+00 7.15758E+00 1.18728E-03-5.61034E-05
 -1     20740 9.88941E+00 5.11925E+00 4.94520E+00 7.70966E+00-1.38154E-03-7.16171E-03
 -1     20741 9.14989E+00 3.37669E+00 4.13329E+00 5.86537E+00-2.86174E-03-2.26212E-03
 -1     20742 9.60582E+00 5.94287E+00 5.12739E+00 8.05387E+00-1.77103E-03-6.63468E-03
 -1     20743 9.88585E+00 3.95787E+00 4.56866E+00 6.86372E+00-1.03500E-03-3.18390E-03
 -1     20744 9.46521E+00 3.51272E+00 4.27693E+00 6.20820E+00 6.56241E-05-4.01436E-03
 -1     20745 8.39467E+00 3.14463E+00 3.80776E+00 4.99512E+00-1.36613E-03-2.35275E-04
 -1     20746 6.07862E+00 2.54386E-01 2.09046E+00 3.28469E+00 2.05676E-03-7.11800E-04
 -1     20747-1.23875E+01-2.96830E+00-5.06743E+00 6.88879E-01-8.51841E-03-3.62109E-05
 -1     20748 9.94786E+00 4.66974E+00 4.82427E+00 7.43764E+00-2.57195E-03 5.78739E-05
 -1     20749-5.07737E+00-2.64789E+00-2.54839E+00 1.55415E+00 1.03032E-03-1.18131E-04
 -1     20750 7.88535E+00 3.48813E+00 3.75317E+00 5.13150E+00-1.39848E-03 1.50908E-03
 -1     20751 2.68678E+00-9.64113E-01 5.68143E-01 2.53878E+00 3.87704E-04-1.86534E-04
 -1     20752-8.46263E+00-2.98366E+00-3.77896E+00 1.22364E+00-9.76266E-04 1.05465E-03
 -1     20753 7.23059E+00 8.30907E-01 2.66359E+00 3.64569E+00-2.94038E-03-9.17352E-05
 -1     20754-8.46143E+00 1.01554E+00-2.45701E+00-6.83025E-01-1.84399E-03-1.06956E-03
 -1     20755-1.62676E+01-1.57152E+00-5.89418E+00-1.55230E+00 8.05031E-03-1.85212E-02
 -1     20756-9.93776E+00 1.30711E-01-3.23457E+00-1.99765E+00 1.27996E-03-9.10157E-04
 -1     20757 9.39047E+00 6.28045E+00 5.17355E+00 8.13085E+00-1.49315E-03-3.74351E-03
 -1     20758-1.66154E+01-2.39277E+00-6.27662E+00-5.19342E-01 5.21947E-03-3.12249E-03
 -1     20759-1.25068E+01-8.98970E-01-4.42421E+00-3.11067E+00 4.15424E-04 2.62389E-04
 -1     20760-1.15885E+01-6.71823E-01-4.04566E+00-2.97065E+00 7.71499E-04 6.37197E-05
 -1     20761-1.03469E+01-1.12406E-01-3.45202E+00-2.31508E+00 5.68072E-05-1.02544E-04
 -1     20762-1.07480E+01-3.25800E-01-3.65452E+00-2.58267E+00-3.71453E-04-6.97346E-04
 -1     20763-1.96301E+00 5.51198E+00 1.17116E+00 5.62906E+00 1.90355E-03-2.03924E-03
 -1     20764 4.55713E+00-3.41311E-01 1.39115E+00 2.90613E+00 4.67866E-04-5.05251E-04
 -1     20765-1.11616E+01-5.15163E-01-3.85347E+00-2.80356E+00 2.04087E-04 3.63697E-04
 -1     20766-8.96007E+00 7.19387E-01-2.71874E+00-1.15258E+00-1.55486E-04 9.22447E-04
 -1     20767-1.20299E+01-8.04454E-01-4.23546E+00-3.07572E+00-1.87260E-04 6.84479E-04
 -1     20768 3.96901E+00 7.58263E+00 3.80863E+00 6.83265E+00-1.58741E-03-2.32414E-03
 -1     20769 9.75549E+00 5.52450E+00 5.04602E+00 7.88821E+00-6.78420E-03-5.91096E-03
 -1     20770 2.49631E-01 8.18098E+00 2.78098E+00 7.14657E+00 2.41715E-05 2.74310E-04
 -1     20771-1.44586E+01-1.10995E+00-5.14063E+00-2.66277E+00 2.39792E-03-1.88174E-03
 -1     20772 8.88551E+00 6.84723E+00 5.19169E+00 8.16223E+00 3.20651E-04 1.08836E-03
 -1     20773 8.29867E+00 3.48115E+00 3.88750E+00 5.37581E+00 3.67740E-04-2.84232E-05
 -1     20774 2.77621E+00 7.66903E+00 3.44457E+00 6.70173E+00 1.87124E-03-5.20582E-03
 -1     20775-1.30378E+01-9.74294E-01-4.62421E+00-3.05918E+00 9.48666E-04 1.88858E-04
 -1     20776 1.48510E+00 7.87166E+00 3.08803E+00 6.78100E+00-1.38788E-03-3.12975E-04
 -1     20777-2.12387E+00-2.16202E+00-1.41367E+00 1.87419E+00 7.30853E-04-1.40219E-03
 -1     20778-1.36661E+01-1.03152E+00-4.85022E+00-2.91609E+00-3.33346E-04 1.92244E-04
 -1     20779 4.59796E-01-1.58421E+00-3.71057E-01 2.19392E+00 6.17546E-04-1.17262E-03
 -1     20780 7.78153E+00 7.28462E+00 4.97048E+00 7.86381E+00 1.37127E-03-1.65873E-03
 -1     20781 8.59738E+00 1.88451E+00 3.45705E+00 4.32768E+00 2.81365E-03 5.07322E-03
 -1     20782 7.32891E+00 7.34026E+00 4.84097E+00 7.70040E+00-5.03576E-04-6.78747E-04
 -1     20783 4.97762E+00 7.55405E+00 4.13429E+00 7.04822E+00-1.74009E-03-1.28295E-03
 -1     20784-1.17769E+00 6.89461E+00 1.88916E+00 6.62592E+00 3.78697E-03 4.98418E-03
 -1     20785-3.56699E+00 3.41487E+00-4.99996E-02 3.53814E+00 4.24692E-03 3.29162E-03
 -1     20786 8.56380E+00 7.04823E+00 5.15204E+00 8.10610E+00-3.05666E-04 1.55164E-04
 -1     20787 8.71770E+00 2.76465E+00 3.78984E+00 4.82492E+00-1.93769E-03-1.60653E-04
 -1     20788-1.54294E+01-1.21906E+00-5.50030E+00-2.29886E+00-4.93091E-03 7.78783E-03
 -1     20789-8.01492E+00 1.27188E+00-2.22442E+00-2.27103E-01-4.34874E-04-6.73380E-04
 -1     20790 6.83609E+00 7.38810E+00 4.69332E+00 7.53511E+00 5.36085E-04-4.25951E-04
 -1     20791 8.76142E+00 3.44070E+00 4.02738E+00 5.63433E+00 6.09772E-04 2.18085E-05
 -1     20792 6.31401E+00 7.44033E+00 4.53761E+00 7.37717E+00 1.21446E-03 7.07723E-04
 -1     20793 8.82321E+00 2.35374E+00 3.68802E+00 4.62723E+00-1.95720E-03-4.18282E-03
 -1     20794-9.46255E+00 4.11817E-01-2.98653E+00-1.60194E+00-5.36029E-04-2.93964E-05
 -1     20795-6.48805E+00 1.91667E+00-1.50858E+00 1.07099E+00-9.91723E-04 8.29463E-04
 -1     20796-7.50612E+00 1.49203E+00-1.98489E+00 2.44022E-01-1.67161E-03-1.25711E-05
 -1     20797 8.05162E+00 1.40582E+00 3.11391E+00 3.97941E+00-5.98653E-04 3.77062E-03
 -1     20798-5.02549E+00 2.61574E+00-7.95609E-01 2.29796E+00 3.53796E-04 2.32455E-03
 -1     20799-8.61163E-01 6.66784E+00 1.91831E+00 6.01165E+00 1.37714E-03 1.76862E-03
 -1     20800 9.01138E+00 2.73183E+00 3.87910E+00 5.22542E+00 1.69922E-03-1.19376E-03
 -1     20801 8.51107E+00 4.44674E+00 4.27593E+00 7.01622E+00-3.05741E-04-1.00179E-04
 -1     20802-1.31712E+01-2.02878E+00-5.02289E+00-5.85735E-02-9.15745E-03 5.57534E-04
 -1     20803 6.97478E+00 5.69806E+00 4.18227E+00 6.89139E+00 1.40394E-05 5.34071E-04
 -1     20804 7.07064E+00 4.91785E-01 2.49560E+00 3.98351E+00 3.49835E-04-8.41877E-04
 -1     20805 5.74590E+00 7.50109E+00 4.37188E+00 7.22824E+00-1.61174E-04 9.23432E-04
 -1     20806 9.27143E+00 2.67900E+00 3.93964E+00 5.52232E+00-4.63194E-04 2.94558E-03
 -1     20807-5.85096E+00 2.32259E+00-1.16367E+00 1.05933E+00-7.69208E-04-3.45013E-04
 -1     20808-7.65274E+00 8.19339E-01-2.25495E+00-8.65008E-01-1.70533E-04 1.78112E-04
 -1     20809-6.21561E+00 1.96497E+00-1.40240E+00 5.51687E-01-2.03118E-03-6.59147E-04
 -1     20810-8.04381E+00 5.31888E-01-2.47899E+00-1.17921E+00-1.53611E-04 3.96634E-04
 -1     20811 6.48655E+00 5.85822E+00 4.07392E+00 6.73065E+00 4.60027E-06 1.01342E-03
 -1     20812-1.14189E+01-8.79085E-01-4.06156E+00-1.45343E+00 2.52436E-03 1.77889E-03
 -1     20813-6.70779E+00 1.55504E+00-1.69990E+00 1.93041E-02 2.03034E-04 2.57676E-04
 -1     20814-1.21133E+01-1.09482E+00-4.35971E+00-1.13504E+00-1.12647E-03 4.49988E-03
 -1     20815 9.43110E+00 2.69023E+00 4.00048E+00 5.80587E+00 3.63369E-03 2.07548E-03
 -1     20816 1.07123E+00 6.41959E+00 2.47309E+00 5.53035E+00 2.01991E-03 1.60948E-03
 -1     20817-7.22221E+00 1.16194E+00-2.00033E+00-4.71841E-01 3.01199E-04 5.64365E-04
 -1     20818-1.03684E+01-5.62320E-01-3.60719E+00-1.86053E+00 3.52277E-04 4.57669E-04
 -1     20819 9.70466E-02 6.55878E+00 2.19467E+00 5.67428E+00 1.97577E-03 3.03732E-03
 -1     20820-3.28151E+00-1.99067E+00-1.73951E+00 2.03387E+00-9.02613E-04-6.61166E-05
 -1     20821-1.08753E+01-6.99487E-01-3.81877E+00-1.72324E+00-4.84482E-04 3.86905E-03
 -1     20822 8.69957E+00 3.06308E+00 3.88294E+00 5.21390E+00 4.46021E-04 7.39484E-04
 -1     20823 3.65449E+00 6.26813E+00 3.27510E+00 5.86582E+00-5.81908E-04 4.63888E-04
 -1     20824 3.96780E+00-6.36291E-01 1.09918E+00 3.21443E+00 3.76719E-04-2.81310E-04
 -1     20825 5.97133E+00 5.97450E+00 3.94210E+00 6.54807E+00 7.19322E-05 5.38489E-04
 -1     20826-9.88315E+00-4.03495E-01-3.39430E+00-1.89587E+00 2.66986E-04-1.69285E-04
 -1     20827 8.82220E+00 4.03581E+00 4.24304E+00 6.90742E+00 1.98533E-03 2.27020E-03
 -1     20828-5.42096E+00 2.70910E+00-8.95097E-01 1.86784E+00-6.66481E-04 5.07378E-04
 -1     20829 8.16733E+00 4.80451E+00 4.28087E+00 7.04491E+00 1.40419E-03 1.75983E-03
 -1     20830 9.23152E+00 3.27461E+00 4.12585E+00 6.54196E+00-3.16597E-04-2.40376E-04
 -1     20831 9.45115E+00 2.79879E+00 4.04375E+00 6.07014E+00-1.25497E-04 1.22598E-03
 -1     20832 8.63188E+00 1.60934E+00 3.37806E+00 4.57464E+00 8.98607E-05 3.67143E-03
 -1     20833 4.23289E+00 6.16962E+00 3.43265E+00 5.97505E+00-5.29784E-06 2.07040E-04
 -1     20834 7.39569E+00 5.45899E+00 4.24196E+00 6.99168E+00-1.01998E-04 5.00303E-04
 -1     20835 9.37948E+00 2.97450E+00 4.07675E+00 6.30044E+00-3.67300E-04 6.23445E-05
 -1     20836-8.46983E+00 2.54184E-01-2.71129E+00-1.45295E+00-4.21072E-04 7.50562E-06
 -1     20837 5.69698E+00-6.39836E-02 1.85865E+00 3.60380E+00 5.16443E-04-6.74838E-05
 -1     20838 1.89382E+00-1.16862E+00 2.39162E-01 2.83257E+00 4.07764E-04-7.82494E-04
 -1     20839 9.05466E+00 3.64880E+00 4.19123E+00 6.74876E+00 5.65517E-04-8.60762E-04
 -1     20840 3.11285E+00 6.41280E+00 3.14393E+00 5.83034E+00-3.68594E-04 4.98021E-05
 -1     20841-2.70542E+00 4.85015E+00 7.08151E-01 4.72340E+00 1.00396E-03-1.19443E-03
 -1     20842-9.62348E+00-2.29022E+00-3.94532E+00 8.96442E-01-1.23509E-03-8.77045E-04
 -1     20843-6.31187E+00-2.22365E+00-2.81812E+00 1.54784E+00-3.37555E-03 5.90819E-03
 -1     20844-1.29380E+01-1.43701E+00-4.73449E+00-7.57120E-01 6.45554E-03-2.96599E-03
 -1     20845-8.92759E+00-2.21622E-03-2.94667E+00-1.67807E+00 3.47735E-04 2.33569E-04
 -1     20846-5.60122E+00 2.57703E+00-9.98277E-01 1.51028E+00-7.87564E-05 2.38785E-03
 -1     20847 7.78047E+00 5.15606E+00 4.26899E+00 7.04194E+00-2.01660E-04 4.33277E-04
 -1     20848 2.17872E+00 6.42697E+00 2.83989E+00 5.66318E+00 8.68942E-06 7.10709E-04
 -1     20849-9.40477E+00-2.17845E-01-3.17534E+00-1.83065E+00 1.06158E-04 1.01227E-04
 -1     20850-4.12731E+00 3.59886E+00-1.73414E-01 3.12105E+00-5.83186E-04 6.72625E-04
 -1     20851 8.00324E+00 1.05554E+00 2.98853E+00 4.27081E+00 5.45418E-04-1.12799E-03
 -1     20852-5.26075E-01-1.63543E+00-7.12965E-01 2.44966E+00 1.10173E-06-9.04522E-04
 -1     20853 5.42632E+00 6.05568E+00 3.78938E+00 6.35487E+00 3.25300E-04-1.00896E-04
 -1     20854-2.13235E+00 5.20778E+00 1.01536E+00 4.59233E+00 9.11726E-05-3.12711E-04
 -1     20855 5.92485E+00 4.17113E+00 3.33154E+00 5.94896E+00 1.02277E-04 4.60350E-04
 -1     20856 4.83762E+00 6.11172E+00 3.61335E+00 6.15335E+00 1.85019E-04 2.27066E-04
 -1     20857 2.91940E+00 4.89998E+00 2.58053E+00 4.86709E+00 2.66131E-04 3.06544E-04
 -1     20858-9.52623E+00-1.29238E+00-3.56990E+00 2.10319E-01-1.84519E-03-4.13660E-03
 -1     20859 7.41801E+00 3.15431E+00 3.48817E+00 6.13312E+00 8.05820E-04 3.72682E-04
 -1     20860 8.98245E+00 2.14894E+00 3.67417E+00 4.90326E+00-2.43011E-03-5.33455E-04
 -1     20861-1.05425E+01-1.71496E+00-4.04791E+00 3.65370E-01 4.19417E-03-3.98122E-03
 -1     20862-5.37564E+00 1.51835E+00-1.27274E+00 2.70972E-01-1.40328E-04 3.29385E-05
 -1     20863 4.89105E+00 4.65600E+00 3.15091E+00 5.62947E+00 3.53474E-05 1.10827E-03
 -1     20864-3.96756E+00 2.85742E+00-3.66384E-01 1.68490E+00 3.85105E-04-5.31215E-04
 -1     20865-8.17210E+00-3.18481E-01-2.80119E+00-6.11539E-01 8.26763E-04-1.06009E-03
 -1     20866-8.53403E+00-5.73531E-01-3.00859E+00-3.63880E-01 7.91155E-04-1.37120E-04
 -1     20867 8.50351E+00 2.11161E+00 3.49625E+00 5.74074E+00 3.46282E-04 1.69354E-03
 -1     20868 5.45325E+00 4.45964E+00 3.27136E+00 5.82656E+00-4.33354E-06 7.94706E-04
 -1     20869 9.06475E+00 2.04673E+00 3.66837E+00 5.18519E+00-1.86338E-03 7.42043E-04
 -1     20870 8.62160E+00 1.48813E+00 3.33574E+00 4.82883E+00-2.61179E-03 5.72047E-04
 -1     20871 1.00208E+00 5.14402E+00 2.02837E+00 4.44932E+00-8.14280E-05 4.83330E-04
 -1     20872 6.93863E+00 3.52243E+00 3.45223E+00 6.12936E+00 8.95353E-06 1.26234E-03
 -1     20873 2.16999E+00 4.90821E+00 2.33583E+00 4.60508E+00-4.00824E-05 2.13750E-04
 -1     20874 5.18531E+00-1.40632E-01 1.66504E+00 3.85898E+00 3.05321E-04-4.45121E-04
 -1     20875 3.59425E+00 4.84107E+00 2.78362E+00 5.11365E+00 2.56689E-05 1.88940E-04
 -1     20876 6.78890E+00 4.31707E-01 2.38325E+00 4.29491E+00 6.52071E-04 2.72837E-04
 -1     20877-4.48005E+00-1.57862E+00-1.99935E+00 1.87872E+00 7.31231E-05-1.25161E-03
 -1     20878 1.52067E+00 4.99210E+00 2.14923E+00 4.46261E+00-8.28144E-05 2.63458E-04
 -1     20879-5.77583E+00 1.15971E+00-1.52347E+00-4.26235E-02-4.85637E-05-3.11145E-05
 -1     20880 8.19681E+00 2.40432E+00 3.49879E+00 5.91980E+00 1.97464E-03-1.41907E-03
 -1     20881-5.09328E+00 1.85079E+00-1.07015E+00 5.76373E-01 1.17828E-04-5.39108E-04
 -1     20882 7.84225E+00 2.77268E+00 3.50203E+00 6.06599E+00-2.64489E-03-1.04385E-03
 -1     20883-6.27797E+00 8.06621E-01-1.80519E+00-3.35185E-01-1.85903E-03-1.39244E-03
 -1     20884 6.42632E+00 3.85805E+00 3.39344E+00 6.05568E+00 3.36090E-04 3.38144E-04
 -1     20885-7.74466E+00-7.44931E-02-2.57993E+00-7.11229E-01-8.53720E-05-5.01113E-04
 -1     20886-3.58450E+00 3.91277E+00 1.08418E-01 3.13831E+00-2.04414E-05-1.05338E-03
 -1     20887-3.57931E+00 3.35294E+00-7.57210E-02 2.26388E+00 4.88040E-04-2.23136E-04
 -1     20888-3.42296E+00 3.75324E+00 1.09083E-01 2.78470E+00-6.77953E-04-1.82144E-03
 -1     20889 8.99601E+00 1.96216E+00 3.61755E+00 5.39059E+00 2.40524E-03 2.26597E-03
 -1     20890-8.89615E+00-8.82911E-01-3.22170E+00-3.56735E-02-4.83579E-04-1.48079E-03
 -1     20891 8.06013E+00 1.12966E+00 3.02676E+00 4.75164E+00 9.01468E-04-7.37518E-03
 -1     20892 4.18170E+00 4.73544E+00 2.94245E+00 5.33377E+00 1.75227E-04 5.42303E-04
 -1     20893-4.55366E+00 2.32538E+00-7.35638E-01 1.08634E+00-5.46036E-05-4.86405E-04
 -1     20894-6.78287E+00 4.76503E-01-2.08188E+00-5.58753E-01 3.12602E-04-1.23028E-03
 -1     20895-1.46564E+00 5.19453E+00 1.22930E+00 4.34314E+00 4.73333E-04-2.62068E-03
 -1     20896-1.56018E+00-1.39939E+00-9.76235E-01 2.48352E+00-1.19947E-04 2.69413E-04
 -1     20897 3.26693E+00-6.54392E-01 8.62058E-01 3.42853E+00 6.56196E-04-4.63797E-04
 -1     20898-8.75864E-01 4.96814E+00 1.35000E+00 4.06697E+00-4.54407E-04 7.16878E-04
 -1     20899-7.28009E+00 1.81823E-01-2.34191E+00-6.91590E-01 1.44797E-04-9.02860E-04
 -1     20900 6.30292E+00 5.16774E-01 2.25168E+00 4.49956E+00-8.91782E-04 3.32444E-04
 -1     20901 3.88561E+00 3.30802E+00 2.37384E+00 4.85040E+00-1.11408E-04 6.05055E-04
 -1     20902 8.75583E+00 1.93758E+00 3.53397E+00 5.52877E+00 1.92349E-03-3.98840E-04
 -1     20903 1.02125E+00-1.08319E+00-2.02447E-02 2.98174E+00 2.76202E-04-1.92609E-04
 -1     20904-5.86962E+00-1.65982E-01-1.98915E+00 5.91550E-01-2.50714E-04 1.58205E-04
 -1     20905-7.58371E+00-1.66043E+00-3.05033E+00 1.14264E+00 9.83417E-04-6.81541E-03
 -1     20906-5.96452E+00-1.06797E+00-2.32277E+00 1.26579E+00-4.57853E-03 1.67408E-03
 -1     20907 7.70775E+00 1.16577E+00 2.93169E+00 5.00018E+00-1.28768E-03-1.22153E-03
 -1     20908-1.43858E+00 4.20595E+00 9.12350E-01 3.26618E+00 4.54454E-04-4.23388E-04
 -1     20909-5.97707E+00-5.53644E-01-2.15144E+00 8.92286E-01 7.73183E-04 3.20197E-03
 -1     20910 7.69580E-01 5.42242E+00 2.04288E+00 4.63337E+00 2.75472E-05 8.54472E-04
 -1     20911 3.42298E+00 3.59539E+00 2.31639E+00 4.69772E+00-1.60296E-04 5.81988E-04
 -1     20912 5.76102E+00 2.39537E+00 2.69085E+00 5.35029E+00 1.22925E-03-6.50001E-06
 -1     20913-3.05817E+00 2.22890E+00-2.73220E-01 1.44771E+00-9.15366E-04 2.82605E-04
 -1     20914-1.07687E-01 3.57276E+00 1.14327E+00 3.13992E+00 6.02423E-04 6.78689E-04
 -1     20915 4.43918E+00 3.00102E+00 2.45465E+00 5.02341E+00 7.16714E-06 5.59957E-04
 -1     20916-1.47289E+00 3.75791E+00 7.53809E-01 2.87770E+00-1.27516E-06-2.53112E-04
 -1     20917 7.29207E+00 1.37624E+00 2.86317E+00 5.19427E+00-1.60957E-03-6.82631E-05
 -1     20918-3.61416E+00 1.74561E+00-6.16651E-01 1.05885E+00 7.34971E-04 1.20899E-04
 -1     20919 2.63595E+00 3.68461E+00 2.08619E+00 4.35030E+00-8.42051E-05 4.00191E-04
 -1     20920 6.34279E+00 2.04201E+00 2.76202E+00 5.38787E+00-5.73486E-05 1.22126E-03
 -1     20921-2.59808E+00-9.83939E-01-1.18526E+00 2.27457E+00-1.98666E-03-1.10103E-03
 -1     20922-4.18312E+00 1.29517E+00-9.51830E-01 7.43518E-01-2.97060E-04-3.63995E-06
 -1     20923 1.36265E+00 3.90980E+00 1.73987E+00 3.84870E+00-5.15691E-04-7.93070E-05
 -1     20924-2.75837E+00 2.63469E+00-4.07721E-02 1.75670E+00-5.87365E-05 8.23150E-05
 -1     20925 4.56315E+00-2.84304E-02 1.49654E+00 4.02396E+00 8.78141E-04-1.32290E-03
 -1     20926-5.60303E+00 1.77027E-01-1.79017E+00 4.38390E-01-2.07440E-04-1.23975E-03
 -1     20927-3.24981E+00-5.16926E-01-1.24308E+00 1.95537E+00 4.13166E-04-1.20037E-03
 -1     20928 6.83318E+00 1.67572E+00 2.81139E+00 5.31824E+00 1.04600E-03-5.23746E-04
 -1     20929-9.65425E-01 2.83676E+00 6.17034E-01 2.51386E+00 1.06256E-04 5.93694E-04
 -1     20930 5.10212E+00 2.69914E+00 2.57421E+00 5.20920E+00-1.11240E-03-1.24545E-03
 -1     20931-4.53488E-01 3.81859E+00 1.11038E+00 3.16679E+00 2.18903E-04 1.44527E-04
 -1     20932 1.70114E+00 2.56087E+00 1.40626E+00 3.73603E+00 1.27496E-04 5.47215E-04
 -1     20933-2.81700E+00 2.88573E+00 2.25432E-02 1.90801E+00 1.99891E-04-2.25688E-04
 -1     20934 1.37231E+00 3.52611E+00 1.61691E+00 3.73211E+00 1.13942E-03 3.46826E-04
 -1     20935 2.21810E+00 2.25907E+00 1.47691E+00 3.94796E+00 1.28675E-03-1.66368E-05
 -1     20936-3.44017E+00-4.50785E-02-1.15245E+00 1.69346E+00-1.85501E-03-7.63456E-04
 -1     20937 1.37875E-01-7.94839E-01-2.16402E-01 2.96341E+00 3.57430E-04 9.73067E-04
 -1     20938 2.51561E+00-4.68902E-01 6.75844E-01 3.51854E+00 2.97070E-04 1.92581E-04
 -1     20939 4.65137E+00 1.43551E+00 2.00939E+00 4.71208E+00 7.11376E-04 8.88802E-04
 -1     20940-1.55726E+00 2.27452E+00 2.36906E-01 2.11519E+00-7.30625E-04-3.43995E-04
 -1     20941 3.83978E+00 1.72549E+00 1.83987E+00 4.51811E+00 2.71726E-03 1.60238E-04
 -1     20942 1.49381E+00 2.88747E+00 1.44628E+00 3.67334E+00-2.43585E-04 4.31123E-04
 -1     20943-5.87897E-01-3.75087E-01-3.18791E-01 2.82217E+00-7.30218E-04 3.89897E-03
 -1     20944 5.76103E+00 7.43194E-01 2.14227E+00 4.64404E+00 3.95764E-05-2.97011E-03
 -1     20945-4.71788E+00 8.85024E-01-1.26465E+00 5.22086E-01-3.09586E-04-1.36699E-03
 -1     20946-5.18984E+00 5.20667E-01-1.54059E+00 4.21207E-01-1.44398E-04-5.92069E-04
 -1     20947-3.48476E+00 3.54598E-01-1.03378E+00 1.47919E+00 9.77402E-04 9.49855E-04
 -1     20948 2.95858E+00 1.95875E+00 1.62101E+00 4.22923E+00 3.95679E-04 5.20581E-04
 -1     20949 5.20240E+00 1.06783E+00 2.07214E+00 4.70768E+00-3.34749E-04-4.10062E-04
 -1     20950-9.27608E-01 1.14350E-01-2.69017E-01 2.66383E+00 2.22254E-03 8.24244E-04
 -1     20951 1.79399E+00-1.42542E-01 5.45384E-01 3.49738E+00 1.46281E-06 3.96562E-04
 -1     20952 3.33594E+00 5.84150E-01 1.29497E+00 4.08483E+00-1.64098E-03-5.38783E-04
 -1     20953-3.89139E-01 1.59641E+00 3.97816E-01 2.71804E+00-5.76610E-04-1.63407E-04
 -1     20954-4.21796E-01 2.04860E+00 5.37138E-01 2.67549E+00 5.27900E-04-1.07843E-04
 -1     20955 1.66195E-01 2.65788E+00 9.32031E-01 2.99709E+00-1.01155E-03 7.00903E-05
 -1     20956 3.92674E+00 2.33214E-01 1.37431E+00 4.08648E+00-2.25646E-04 1.20248E-03
 -1     20957 7.04108E-01 1.38017E+00 6.88350E-01 3.23546E+00-1.39700E-03-2.59765E-03
 -1     20958-1.14328E+00 5.82208E-01-1.84577E-01 2.50495E+00 3.35378E-03 3.88277E-03
 -1     20959 1.24813E+00 2.88819E-01 5.07073E-01 3.42007E+00-2.36221E-03-5.64684E-04
 -1     20960-2.24138E+00 1.71146E+00-1.74533E-01 1.74865E+00 1.27079E-03 9.36972E-04
 -1     20961 2.87886E+00 9.68022E-01 1.26931E+00 4.03627E+00 4.78103E-04-2.91841E-03
 -1     20962 1.35728E+00 9.62813E-01 7.65531E-01 3.50152E+00 7.01111E-04-9.78064E-04
 -1     20963-3.14613E+00 7.89917E-01-7.77872E-01 1.46309E+00-2.21068E-04 1.27627E-04
 -1     20964-2.68565E+00 1.24077E+00-4.76521E-01 1.57541E+00-5.25672E-04-4.31375E-04
 -1     20965-1.45817E+00 9.45620E-01-1.70767E-01 2.28984E+00 1.25196E-03 1.82625E-03
 -1     20966 5.55139E+00 3.61784E+00 3.02543E+00 4.55379E+00 1.77874E-06-8.46334E-04
 -1     20967 6.22521E+00 4.18599E+00 3.43590E+00 5.08094E+00 8.60283E-04-1.42833E-03
 -1     20968 7.37492E+00 4.50394E+00 3.91984E+00 5.77732E+00 4.06771E-04-2.46370E-05
 -1     20969 8.54599E+00 5.21969E+00 4.54211E+00 6.73390E+00 1.26746E-03-8.39371E-04
 -1     20970 9.67446E+00 6.14419E+00 5.21506E+00 7.79740E+00 5.25011E-03 1.93619E-03
 -1     20971 1.06602E+01 7.17377E+00 5.88822E+00 8.82589E+00 4.26807E-04 3.72047E-03
 -1     20972 1.14051E+01 8.15648E+00 6.45407E+00 9.71884E+00 1.66082E-04 1.66336E-03
 -1     20973 1.18673E+01 8.97177E+00 6.87546E+00 1.03774E+01 4.54701E-04 1.52607E-03
 -1     20974 1.20666E+01 9.56024E+00 7.13741E+00 1.07889E+01 2.47506E-04 2.15702E-04
 -1     20975 1.20559E+01 9.92219E+00 7.25335E+00 1.09753E+01-1.38633E-03-6.30934E-04
 -1     20976 1.18527E+01 1.00804E+01 7.23754E+00 1.09654E+01-3.70208E-04 7.62834E-04
 -1     20977 1.14080E+01 1.00484E+01 7.07797E+00 1.07457E+01-2.17622E-04 5.33725E-04
 -1     20978 1.06464E+01 9.84640E+00 6.76715E+00 1.03213E+01-3.06691E-03 5.94474E-03
 -1     20979 9.39162E+00 9.52263E+00 6.24059E+00 9.60757E+00-1.76276E-03-1.91574E-03
 -1     20980 6.81481E+00 9.04364E+00 5.23634E+00 8.34990E+00 3.01605E-03-1.82483E-04
 -1     20981 1.11191E+00 8.82219E+00 3.27060E+00 7.08343E+00-1.17750E-02 4.67524E-02
 -1     20982-2.39881E-01 8.97097E+00 2.88858E+00 8.01244E+00-5.27601E-03 6.65172E-03
 -1     20983-2.94329E-01 9.49154E+00 3.04020E+00 7.02369E+00 1.59248E-02 8.23630E-03
 -1     20984-4.84507E-01 7.42861E+00 2.32871E+00 5.23064E+00-8.45288E-03 9.09205E-03
 -1     20985-4.02850E+00 9.03352E-01-1.05004E+00 3.53359E-01-5.46341E-04 1.22918E-02
 -1     20986-7.69945E+00 1.66225E-02-2.53467E+00-1.16208E+00-9.99568E-04-6.85606E-03
 -1     20987-1.05427E+01-3.19036E-01-3.58248E+00-2.28567E+00-1.05946E-03 3.95262E-05
 -1     20988-1.27787E+01-7.66556E-01-4.46946E+00-3.36905E+00 7.44947E-05 1.15763E-04
 -1     20989-1.42492E+01-1.12317E+00-5.07029E+00-4.13813E+00-7.46221E-04 6.60146E-04
 -1     20990-1.52577E+01-1.38999E+00-5.49199E+00-4.69058E+00 4.41195E-05 2.77536E-04
 -1     20991-1.59834E+01-1.58311E+00-5.79629E+00-5.06981E+00 3.69832E-05 5.73707E-04
 -1     20992-1.65542E+01-1.69962E+00-6.02410E+00-5.31017E+00-5.78039E-04-4.35408E-04
 -1     20993-1.71845E+01-1.75727E+00-6.25303E+00-5.46658E+00-1.56419E-03-4.48054E-04
 -1     20994-1.81526E+01-1.76719E+00-6.56961E+00-5.57782E+00 2.62777E-03 5.59313E-04
 -1     20995-2.00047E+01-1.71698E+00-7.17543E+00-5.65480E+00 3.29837E-03-4.29979E-03
 -1     20996-2.50141E+01-1.64491E+00-8.79265E+00-4.51338E+00 3.30426E-02 1.09102E-02
 -1     20997-2.88919E+01-3.68855E+00-1.06658E+01-1.76845E-01-6.23471E-02 1.01069E-01
 -1     20998-1.34129E+01-5.66977E+00-6.29043E+00 2.62762E-01-2.45334E-02-1.07049E-02
 -1     20999-5.55678E+00-3.25903E+00-2.91324E+00 2.64902E-01 1.53954E-03 2.47878E-03
 -1     21000-1.13903E-01-1.13257E+00-4.12312E-01 8.63903E-01-2.44242E-03-7.62163E-04
 -1     21001 3.85339E+00 5.92548E-01 1.46912E+00 1.74380E+00 1.19405E-03-1.95795E-03
 -1     21002 6.52166E+00 1.88130E+00 2.77190E+00 2.70625E+00-4.41536E-03 1.34306E-03
 -1     21003 7.96769E+00 2.76691E+00 3.54206E+00 3.62977E+00-1.88670E-03-8.50809E-04
 -1     21004 8.31080E+00 3.24776E+00 3.81521E+00 4.38565E+00 1.24736E-03-1.05222E-03
 -1     21005 7.68065E+00 3.45523E+00 3.67682E+00 4.80336E+00-2.01137E-03-1.65129E-03
 -1     21006 6.36821E+00 3.51884E+00 3.26270E+00 4.77161E+00-6.72794E-04-1.83621E-04
 -1     21007-1.22096E+00 3.43833E+00 7.32228E-01 2.85903E+00-1.55623E-02-5.24626E-02
 -1     21008 5.07757E+00 3.37790E+00 2.78933E+00 4.26252E+00 1.59281E-03-1.58537E-03
 -1     21009 5.85072E+00 3.97217E+00 3.24440E+00 4.80262E+00 1.37989E-03 1.39722E-03
 -1     21010 6.77216E+00 4.35066E+00 3.67038E+00 5.41679E+00-8.68012E-04-6.62470E-04
 -1     21011 7.94926E+00 4.81583E+00 4.21220E+00 6.22767E+00 1.23628E-03 5.42233E-04
 -1     21012 9.11696E+00 5.66462E+00 4.88078E+00 7.25439E+00 2.54438E-03 6.09333E-03
 -1     21013 1.01975E+01 6.64662E+00 5.55809E+00 8.31731E+00-7.07103E-04-3.33601E-04
 -1     21014 1.10612E+01 7.68011E+00 6.18291E+00 9.29718E+00 9.84055E-04 2.43289E-03
 -1     21015 1.16638E+01 8.59272E+00 6.68270E+00 1.00782E+01-9.40231E-04 1.02999E-03
 -1     21016 1.19928E+01 9.29584E+00 7.02314E+00 1.06114E+01 3.87755E-04 4.84940E-04
 -1     21017 1.20845E+01 9.76542E+00 7.21031E+00 1.09063E+01 5.16730E-04-7.95441E-04
 -1     21018 1.19794E+01 1.00260E+01 7.26301E+00 1.09949E+01 1.21833E-03 1.86131E-03
 -1     21019 1.16646E+01 1.00859E+01 7.17791E+00 1.08805E+01-1.03672E-03 7.46064E-04
 -1     21020 1.10746E+01 9.97105E+00 6.94315E+00 1.05582E+01 8.69010E-04 1.18464E-03
 -1     21021 1.01150E+01 9.70772E+00 6.53777E+00 1.00102E+01-3.38631E-03-2.81554E-03
 -1     21022 8.39298E+00 9.29940E+00 5.84244E+00 9.08519E+00-1.59353E-03 9.24267E-03
 -1     21023 4.52392E+00 8.89007E+00 4.42277E+00 7.52127E+00-9.29812E-03-3.60404E-03
 -1     21024-2.97232E-01 9.33442E+00 2.98064E+00 7.66341E+00-8.42947E-04 7.52777E-05
 -1     21025-3.21693E-01 8.94010E+00 2.85747E+00 6.28735E+00 1.01497E-02 7.45749E-03
 -1     21026-6.03428E+00 1.91220E-01-1.92063E+00-6.00703E-01-8.88766E-03-2.82238E-03
 -1     21027-9.19711E+00-1.22340E-01-3.07503E+00-1.70486E+00-2.23089E-03-4.09704E-03
 -1     21028-1.17468E+01-5.45631E-01-4.05698E+00-2.85307E+00-2.88393E-04 9.00265E-05
 -1     21029-1.35852E+01-9.54978E-01-4.79777E+00-3.78837E+00 3.50911E-04 1.96825E-04
 -1     21030-1.47965E+01-1.26513E+00-5.29818E+00-4.43448E+00 3.88845E-04 1.44822E-03
 -1     21031-1.56474E+01-1.49459E+00-5.65932E+00-4.90124E+00 1.68033E-03-7.64377E-04
 -1     21032-1.62814E+01-1.64934E+00-5.91699E+00-5.20549E+00 1.08871E-03 2.02233E-04
 -1     21033-1.68471E+01-1.73306E+00-6.13113E+00-5.39454E+00 5.55121E-04-1.53546E-03
 -1     21034-1.76015E+01-1.76921E+00-6.39535E+00-5.52154E+00 1.15752E-03-5.36047E-03
 -1     21035-1.89212E+01-1.75136E+00-6.82238E+00-5.62717E+00-3.74499E-04-5.31896E-03
 -1     21036-2.18292E+01-1.61225E+00-7.73119E+00-5.51431E+00-5.22173E-03-1.34432E-02
 -1     21037-2.62543E+00-2.13436E+00-1.56809E+00 5.07647E-01-2.26005E-03-2.00680E-04
 -1     21038-1.93166E+01-6.34055E+00-8.48792E+00 8.84728E-01-7.88832E-02 1.13857E-02
 -1     21039-9.09029E+00-4.44051E+00-4.46375E+00 1.51285E-01 4.97131E-03-8.33558E-03
 -1     21040 2.04065E+00-2.02508E-01 6.08309E-01 1.28088E+00-5.41475E-04-1.73946E-03
 -1     21041 5.34045E+00 1.29883E+00 2.19489E+00 2.22319E+00 3.34785E-03-4.46657E-03
 -1     21042 7.38881E+00 2.37617E+00 3.22148E+00 3.18432E+00-1.49792E-03-2.34045E-04
 -1     21043 8.27867E+00 3.05401E+00 3.74190E+00 4.04102E+00-5.25693E-04-7.11412E-04
 -1     21044 8.10265E+00 3.37747E+00 3.78799E+00 4.64217E+00 6.70076E-04 1.00263E-03
 -1     21045 7.08042E+00 3.50432E+00 3.49149E+00 4.85042E+00 1.01242E-03-1.51980E-04
 -1     21046-1.39003E+01-1.16935E+00-4.97302E+00-4.11443E+00-3.41016E-04-1.01321E-03
 -1     21047 7.70638E+00 3.70691E+00 3.76603E+00 5.28818E+00-5.83173E-04-4.46012E-04
 -1     21048 8.72820E+00 4.01942E+00 4.20687E+00 6.06283E+00-3.54943E-04-9.45343E-05
 -1     21049 9.60932E+00 4.59594E+00 4.68861E+00 6.91293E+00-1.21252E-03-1.81811E-03
 -1     21050 1.02627E+01 5.37966E+00 5.16120E+00 7.74046E+00-1.35050E-03 7.79535E-04
 -1     21051 1.06596E+01 6.28845E+00 5.59833E+00 8.49109E+00-1.08374E-03 1.83857E-03
 -1     21052 1.07808E+01 7.13724E+00 5.91929E+00 9.03486E+00-1.84356E-03 1.38049E-03
 -1     21053 1.06587E+01 7.81917E+00 6.09996E+00 9.33808E+00 1.18580E-03 1.03364E-03
 -1     21054 1.03857E+01 8.31129E+00 6.17086E+00 9.45553E+00 1.28486E-03 3.42677E-03
 -1     21055 9.98491E+00 8.60851E+00 6.13857E+00 9.42025E+00-2.32679E-03 8.50649E-04
 -1     21056 9.35175E+00 8.70315E+00 5.95852E+00 9.19249E+00 4.19859E-04 5.01756E-05
 -1     21057 8.40039E+00 8.66064E+00 5.62994E+00 8.79388E+00 1.20933E-03 1.66599E-03
 -1     21058 7.03889E+00 8.61327E+00 5.16557E+00 8.29733E+00 7.39816E-04 1.25779E-03
 -1     21059 4.68653E+00 8.63342E+00 4.39591E+00 7.62551E+00 1.97086E-05 2.85285E-03
 -1     21060 7.05447E-01 9.02778E+00 3.20716E+00 7.60280E+00 2.06480E-02-1.62311E-03
 -1     21061-1.37828E+00 5.60609E+00 1.38944E+00 5.44356E+00 1.60856E-02 8.40971E-03
 -1     21062-1.46544E+01-1.30968E+00-5.26908E+00-4.29947E+00 2.13100E-04-3.18072E-05
 -1     21063-5.54499E+00 1.67156E+00-1.27774E+00 1.33279E+00-1.24963E-03-2.77743E-03
 -1     21064-1.08518E+00 7.01534E+00 1.95729E+00 6.76576E+00-1.35387E-03-2.46406E-03
 -1     21065-1.31736E+01-9.22458E-01-4.65297E+00-3.74809E+00-1.30214E-04-1.33737E-03
 -1     21066-8.42941E+00 8.59179E-01-2.49831E+00-4.88492E-01 2.06181E-03 1.20232E-04
 -1     21067-1.05411E+01 1.32645E-01-3.43459E+00-1.92019E+00-1.85383E-03-7.79439E-04
 -1     21068-1.55169E+01-3.96756E+00-6.45030E+00 6.57291E-01 1.80825E-02-5.39025E-03
 -1     21069-1.17834E+01-3.43257E-01-4.00417E+00-2.80893E+00-8.02276E-04-6.60341E-04
 -1     21070-6.99790E+00 1.30283E+00-1.87876E+00 4.72951E-01 8.71794E-04-6.63243E-04
 -1     21071-1.27621E+01-7.60038E-01-4.46448E+00-3.48976E+00-1.66885E-03-1.55116E-04
 -1     21072-1.12290E+01-1.08864E-01-3.74036E+00-2.39986E+00-2.18758E-03 4.19516E-04
 -1     21073-1.35533E+01-1.06060E+00-4.82358E+00-3.95805E+00-1.91402E-03-1.73028E-03
 -1     21074-1.23005E+01-5.66474E-01-4.24793E+00-3.17396E+00-1.05227E-03-1.11197E-03
 -1     21075-1.42581E+01-1.25226E+00-5.11888E+00-4.22765E+00-1.69499E-04-1.36091E-03
 -1     21076-1.94601E+00 3.40649E+00 4.84185E-01 3.52252E+00-4.33887E-05 1.57437E-03
 -1     21077-1.57144E+01-1.37271E+00-5.63835E+00-4.35214E+00 2.45626E-03 8.38022E-04
 -1     21078-1.74153E+01-1.34521E+00-6.19594E+00-4.10140E+00 1.94999E-03 1.87998E-03
 -1     21079-2.01408E+01-1.58766E+00-7.20331E+00-2.76563E+00-7.26839E-03 1.64936E-02
 -1     21080-6.96866E+00-3.38951E+00-3.42404E+00 9.98756E-01 4.62991E-03-4.23726E-03
 -1     21081-2.09999E+01-2.92367E+00-7.89209E+00-8.11185E-01 4.89103E-02-6.96480E-02
 -1     21082 6.38389E+00 9.03292E-01 2.40140E+00 2.99897E+00 1.44414E-03-2.84885E-03
 -1     21083 1.36331E+00-1.15456E+00 6.94157E-02 1.78932E+00 1.22154E-03 1.18397E-03
 -1     21084 8.06979E+00 1.96624E+00 3.30958E+00 3.76387E+00-1.50716E-03-1.41060E-03
 -1     21085-9.88566E-01-1.89103E+00-9.50495E-01 1.46726E+00-6.32910E-04 1.13475E-03
 -1     21086 7.38577E+00 1.46858E+00 2.92711E+00 3.38893E+00 2.30475E-03-5.47461E-04
 -1     21087 8.59230E+00 2.72400E+00 3.73415E+00 4.46118E+00 9.97068E-04 6.21299E-04
 -1     21088 8.02853E+00 3.31517E+00 3.74333E+00 4.90889E+00-1.72388E-04-7.63855E-04
 -1     21089 6.67070E+00 3.74322E+00 3.43631E+00 4.92086E+00-1.08883E-03 3.30097E-04
 -1     21090-6.38415E-01 8.17627E+00 2.49127E+00 7.54286E+00 1.44225E-02 9.40386E-04
 -1     21091 7.00066E+00 3.87952E+00 3.58949E+00 5.14353E+00 3.41415E-04-2.16751E-03
 -1     21092 5.05749E+00 2.71990E-01 1.76072E+00 2.57482E+00 5.03694E-03-1.02469E-03
 -1     21093-3.84526E+00 2.23127E+00-5.28380E-01 2.28150E+00-1.62634E-03-4.39098E-03
 -1     21094 8.92599E+00 8.69269E+00 5.81448E+00 9.01359E+00 8.52982E-04 1.76052E-03
 -1     21095 8.23290E+00 3.83024E+00 3.98105E+00 5.66240E+00-3.96295E-04-2.03363E-04
 -1     21096 9.17864E+00 4.27728E+00 4.44016E+00 6.48677E+00-2.55100E-03 2.23410E-03
 -1     21097 9.97590E+00 4.97305E+00 4.93282E+00 7.33237E+00 3.14569E-03-3.38724E-03
 -1     21098 1.04935E+01 5.83408E+00 5.38422E+00 8.13497E+00-2.89376E-04 8.60932E-04
 -1     21099 1.07495E+01 6.72906E+00 5.76783E+00 8.78601E+00 1.49147E-03 1.66081E-03
 -1     21100 1.07457E+01 7.50556E+00 6.02441E+00 9.21394E+00 5.41343E-04 1.15407E-03
 -1     21101 1.05404E+01 8.09327E+00 6.14646E+00 9.42344E+00-4.66593E-04 2.16042E-03
 -1     21102 1.02007E+01 8.48937E+00 6.16800E+00 9.45578E+00 1.42649E-03 5.01727E-05
 -1     21103 9.70528E+00 8.68115E+00 6.06862E+00 9.32973E+00 3.14035E-04 2.61305E-03
 -1     21104 7.75663E+00 8.62823E+00 5.40772E+00 8.53401E+00-1.25237E-03-1.59478E-03
 -1     21105 6.08871E+00 8.62181E+00 4.85328E+00 8.00049E+00-3.95059E-03-4.95973E-03
 -1     21106 2.71058E+00 8.75170E+00 3.78163E+00 7.40108E+00 5.07267E-03 5.95139E-03
 -1     21107-9.68738E+00 4.48873E-01-3.04811E+00-1.33257E+00 4.69660E-04-1.20054E-03
 -1     21108-3.74248E+00-2.68225E+00-2.11908E+00 1.20630E+00-6.43193E-04 1.95552E-03
 -1     21109 8.44827E+00 3.02098E+00 3.78515E+00 4.72943E+00 2.64884E-03 4.99750E-04
 -1     21110-1.87104E+01-1.36673E+00-6.63139E+00-3.69123E+00 2.01235E-03-1.79195E-02
 -1     21111-1.51223E+01-1.34982E+00-5.43282E+00-4.33148E+00-8.61294E-04-6.38536E-04
 -1     21112-1.64466E+01-1.37085E+00-5.87656E+00-4.28175E+00 2.32332E-03 2.57396E-03
 -1     21113-1.07596E+01-4.01044E+00-4.87870E+00 8.43711E-01-3.83182E-03 2.34642E-04
 -1     21114 3.37900E+00-3.94119E-01 9.85055E-01 2.16580E+00 3.10947E-04 6.32909E-04
 -1     21115 8.48004E+00 2.38440E+00 3.58719E+00 4.13762E+00-3.43734E-03-2.64279E-04
 -1     21116 7.41711E+00 3.54674E+00 3.61817E+00 4.95741E+00 6.74699E-04 2.82056E-04
 -1     21117-8.32016E+00-2.91067E+00-3.70906E+00 1.23096E+00 2.01783E-03-5.35428E-04
 -1     21118 3.11754E+00 7.76428E+00 3.58044E+00 6.82221E+00 7.92655E-04 3.33983E-03
 -1     21119-2.00730E+00-2.12354E+00-1.36370E+00 1.90489E+00 1.42278E-04 8.47176E-04
 -1     21120-3.08022E-01 7.56216E+00 2.39429E+00 6.79876E+00-9.58933E-03-5.29191E-03
 -1     21121 1.58993E+00 7.78758E+00 3.09853E+00 6.69700E+00-3.35281E-03 9.31083E-04
 -1     21122 9.69458E+00 3.62647E+00 4.39812E+00 6.48090E+00 1.43619E-03-2.88583E-03
 -1     21123 8.60731E+00 1.90871E+00 3.47015E+00 4.33157E+00-1.36251E-03-3.25945E-04
 -1     21124 9.93172E+00 4.25281E+00 4.68050E+00 7.14165E+00-6.95835E-04-6.35826E-04
 -1     21125 9.88890E+00 5.08780E+00 4.94044E+00 7.69248E+00-2.85567E-03 2.20253E-03
 -1     21126-1.37668E+01-1.03531E+00-4.88428E+00-2.99267E+00-2.68577E-04 1.31524E-03
 -1     21127-7.78487E+00 1.39555E+00-2.10977E+00-7.88632E-02 2.85386E-03 4.53539E-03
 -1     21128-1.08562E+01-3.56341E-01-3.69952E+00-2.63894E+00-1.10238E-03 2.73443E-04
 -1     21129 8.78996E+00 6.76445E+00 5.13312E+00 8.08783E+00-5.26913E-04-4.01535E-04
 -1     21130 8.18751E+00 7.17974E+00 5.07177E+00 7.98691E+00 1.39581E-03-1.00352E-03
 -1     21131 6.30234E+00 7.43853E+00 4.53514E+00 7.37332E+00 1.12751E-03-2.02389E-04
 -1     21132 8.79834E+00 3.23021E+00 3.97003E+00 5.46995E+00-5.14698E-04-5.91968E-05
 -1     21133 4.84096E+00 7.50727E+00 4.07556E+00 6.98824E+00 2.78693E-03 2.71098E-03
 -1     21134 4.02276E+00 7.60324E+00 3.83447E+00 6.85884E+00 2.09329E-03 2.43852E-03
 -1     21135 9.47150E+00 3.42286E+00 4.25180E+00 6.15718E+00-3.10385E-03 1.92079E-04
 -1     21136-1.16467E+01-6.80327E-01-4.06703E+00-2.99682E+00-1.61612E-03-1.73511E-03
 -1     21137 4.61610E+00-3.22895E-01 1.41677E+00 2.93173E+00-1.15386E-03 1.95322E-04
 -1     21138 9.06841E+00 6.50427E+00 5.13866E+00 8.09621E+00 2.07022E-04-1.34651E-04
 -1     21139 5.62658E+00 7.46382E+00 4.31954E+00 7.17545E+00 8.66509E-04 3.77024E-04
 -1     21140-6.90668E+00 1.83561E+00-1.67363E+00 6.98191E-01 1.41829E-03-2.94274E-04
 -1     21141-1.04030E+01-1.32195E-01-3.47679E+00-2.34312E+00 5.02060E-04-1.15351E-03
 -1     21142-1.25132E+01-9.05383E-01-4.42900E+00-3.12375E+00 6.67323E-05-2.00347E-04
 -1     21143 9.86328E+00 3.90311E+00 4.54292E+00 6.83173E+00 8.46209E-04 1.51732E-03
 -1     21144-1.62496E+01-1.55555E+00-5.87589E+00-1.56300E+00-1.11475E-02 2.50224E-02
 -1     21145 2.74919E+00-9.44209E-01 5.95852E-01 2.56227E+00-6.60211E-04 5.60649E-04
 -1     21146-1.65253E+01-2.40739E+00-6.23456E+00-4.45040E-01-1.37533E-03 1.19632E-02
 -1     21147 8.77386E+00 2.79313E+00 3.81692E+00 4.93806E+00 1.02927E-03 1.98055E-04
 -1     21148 9.57263E+00 5.86651E+00 5.09195E+00 8.00638E+00-2.25743E-03 2.30091E-03
 -1     21149-1.30823E+01-9.84552E-01-4.64133E+00-3.09902E+00-1.34630E-03 5.07180E-04
 -1     21150 9.15881E+00 3.27569E+00 4.10369E+00 5.80001E+00 1.54576E-03 2.05718E-03
 -1     21151-1.54529E+01-1.23061E+00-5.50802E+00-2.33719E+00 4.17389E-03-4.67527E-03
 -1     21152 8.40034E+00 3.23823E+00 3.84075E+00 5.16058E+00 2.82358E-04 4.77400E-04
 -1     21153-1.83100E+00 5.96054E+00 1.36340E+00 5.91093E+00 1.77251E-03 1.90917E-04
 -1     21154 7.39314E+00 7.39041E+00 4.88083E+00 7.75326E+00 2.55856E-03 2.07189E-03
 -1     21155-3.96382E+00 3.42208E+00-1.78853E-01 3.35405E+00-2.76820E-03-3.34131E-03
 -1     21156 6.88238E+00 7.42544E+00 4.72262E+00 7.57423E+00 1.55841E-03 9.34498E-04
 -1     21157 5.47774E-01-1.55712E+00-3.33036E-01 2.22147E+00-2.05209E-04 8.44127E-04
 -1     21158-4.94934E+00-2.59203E+00-2.48901E+00 1.58602E+00-8.73259E-05-9.06918E-04
 -1     21159-5.09039E+00 2.84401E+00-7.41552E-01 2.27132E+00 1.16789E-04-1.63753E-03
 -1     21160-1.20449E+01-8.04417E-01-4.24085E+00-3.08312E+00 2.96246E-04-1.32710E-03
 -1     21161-1.12523E+01-5.32611E-01-3.88994E+00-2.84530E+00-3.33502E-04-2.05450E-03
 -1     21162 9.33904E+00 6.19680E+00 5.12699E+00 8.07416E+00-2.71919E-04 3.20477E-04
 -1     21163-1.22364E+01-2.94822E+00-5.01168E+00 7.10938E-01 3.88119E-03-5.30166E-03
 -1     21164-2.71238E+00 4.20540E+00 4.91867E-01 4.42612E+00 7.42451E-05-5.65173E-04
 -1     21165-8.37734E+00 1.05369E+00-2.41764E+00-6.38464E-01-3.84794E-04 4.79817E-04
 -1     21166 8.81113E+00 2.35889E+00 3.68409E+00 4.64889E+00 3.17530E-03 4.95251E-03
 -1     21167 9.94230E+00 4.65445E+00 4.81736E+00 7.43039E+00 1.60635E-03 1.49092E-04
 -1     21168 9.75320E+00 5.48232E+00 5.02829E+00 7.86678E+00 2.50131E-03 1.63524E-03
 -1     21169 8.49905E+00 6.99726E+00 5.11369E+00 8.05701E+00-6.88310E-05-2.80442E-04
 -1     21170-1.45462E+01-1.11558E+00-5.16746E+00-2.74667E+00-7.40444E-04 4.91454E-03
 -1     21171 6.14730E+00 2.68331E-01 2.11735E+00 3.32057E+00-7.82482E-04-1.04015E-04
 -1     21172 7.83200E+00 7.33011E+00 5.00088E+00 7.90774E+00 6.59043E-04 3.82989E-03
 -1     21173-9.95529E+00 1.37201E-01-3.23658E+00-1.99989E+00-3.10844E-03-1.92660E-03
 -1     21174 8.10130E+00 1.42495E+00 3.13709E+00 4.02382E+00 6.24566E-04-4.90899E-03
 -1     21175-9.43512E+00 4.25430E-01-2.97472E+00-1.58954E+00-1.05252E-03-2.70996E-03
 -1     21176 7.34233E+00 8.46751E-01 2.70303E+00 3.71991E+00 1.80434E-03 5.75163E-04
 -1     21177 6.42709E+00 5.82009E+00 4.04123E+00 6.69171E+00 1.48830E-05-1.38709E-03
 -1     21178-2.41476E+00 5.15856E+00 9.04378E-01 4.85500E+00-5.15458E-04 1.49135E-03
 -1     21179-8.90295E+00 7.40991E-01-2.69408E+00-1.12463E+00 4.20789E-04-1.19748E-03
 -1     21180 9.05805E+00 3.64239E+00 4.19201E+00 6.74822E+00 2.39210E-04-2.23120E-05
 -1     21181 9.03730E+00 2.65856E+00 3.86074E+00 5.20164E+00-1.96728E-03 6.60008E-04
 -1     21182-9.42533E+00-2.22361E-01-3.18382E+00-1.84436E+00-3.67059E-04-2.25648E-04
 -1     21183 9.40614E+00 2.71475E+00 4.00102E+00 6.00826E+00-1.44512E-03-1.24004E-03
 -1     21184 3.59316E+00 6.24896E+00 3.24715E+00 5.83455E+00 1.66315E-04 3.55841E-05
 -1     21185 7.21309E+00 5.32012E+00 4.13610E+00 6.86542E+00 6.61095E-05-4.33400E-04
 -1     21186 9.38009E+00 2.60839E+00 3.95560E+00 5.74461E+00-2.64184E-03-4.03622E-04
 -1     21187 8.06987E+00 4.73121E+00 4.22386E+00 6.98772E+00-1.46525E-04-2.25088E-04
 -1     21188-1.16031E+01-8.74274E-01-4.12144E+00-1.60392E+00-2.44630E-03 1.33084E-04
 -1     21189 1.96015E+00 6.35302E+00 2.74409E+00 5.57090E+00 7.94450E-04-1.04191E-03
 -1     21190-1.30106E+01-1.98866E+00-4.95725E+00-4.34215E-02 7.40779E-03-4.74733E-03
 -1     21191 6.80679E+00 5.58096E+00 4.08770E+00 6.77696E+00-1.35387E-04-6.47725E-04
 -1     21192 2.81680E+00 6.29354E+00 3.00613E+00 5.67781E+00 1.31334E-04 1.01169E-04
 -1     21193-5.33826E+00 2.71404E+00-8.68375E-01 1.64710E+00-2.37412E-04-1.14196E-03
 -1     21194-8.19008E+00 4.80208E-01-2.54399E+00-1.25603E+00-1.28118E-04 2.12915E-04
 -1     21195-1.03785E+01-5.59785E-01-3.60982E+00-1.88842E+00-4.06121E-04-9.08427E-05
 -1     21196 8.96845E+00 2.13426E+00 3.66614E+00 4.88789E+00 2.46765E-03 1.80242E-03
 -1     21197-9.85558E+00-3.96540E-01-3.38344E+00-1.89310E+00-2.48359E-04-1.93907E-04
 -1     21198-1.09794E+01-7.15263E-01-3.85974E+00-1.80141E+00 4.42154E-04-2.44551E-03
 -1     21199 4.05472E+00-6.02714E-01 1.13938E+00 3.24334E+00 1.42509E-04-1.30918E-04
 -1     21200 8.45507E+00 4.38120E+00 4.23619E+00 6.97072E+00 1.54402E-04-1.10804E-03
 -1     21201 9.23923E+00 3.26647E+00 4.12620E+00 6.53975E+00 7.33484E-04-9.32507E-04
 -1     21202 5.55748E+00 6.12704E+00 3.85538E+00 6.43215E+00-4.90900E-04-4.86125E-04
 -1     21203-1.29291E+01-1.40623E+00-4.71366E+00-8.03414E-01-6.33034E-03-6.41582E-05
 -1     21204 6.03369E+00 6.00738E+00 3.97352E+00 6.58718E+00 2.95717E-04 2.19646E-04
 -1     21205 7.64584E+00 5.04134E+00 4.18721E+00 6.94547E+00-2.83586E-04-1.31821E-04
 -1     21206-6.66774E+00 1.56070E+00-1.68556E+00 2.61202E-02 1.64672E-04 5.99731E-04
 -1     21207-6.10825E+00 2.00438E+00-1.35453E+00 5.95670E-01 1.07363E-03-6.36708E-04
 -1     21208 8.79178E+00 4.01933E+00 4.22761E+00 6.89651E+00-6.94657E-04 4.31028E-04
 -1     21209 8.15934E-01 6.83266E+00 2.52258E+00 5.92225E+00 6.04473E-04 1.35129E-03
 -1     21210-7.83330E-01 6.34396E+00 1.83453E+00 5.60614E+00 1.28047E-03-2.43980E-03
 -1     21211 7.16196E+00 5.66376E-01 2.54993E+00 4.04349E+00-4.14652E-04-4.84711E-05
 -1     21212-3.29919E-01-1.58585E+00-6.32462E-01 2.49500E+00 2.44096E-04 3.82941E-04
 -1     21213-8.66337E+00 1.96099E-01-2.79415E+00-1.55284E+00 2.38929E-04-1.75518E-04
 -1     21214-5.77132E+00 2.34330E+00-1.13069E+00 1.07580E+00 2.48567E-04 8.91823E-04
 -1     21215-7.69445E+00 7.98302E-01-2.27570E+00-8.96589E-01-3.01167E-04-2.10366E-05
 -1     21216-6.07931E+00-2.14898E+00-2.71537E+00 1.59909E+00 9.80874E-04-6.65837E-03
 -1     21217-3.02750E+00-1.93081E+00-1.63668E+00 2.08457E+00 1.00103E-03 3.81645E-04
 -1     21218-1.23026E+01-1.06058E+00-4.41467E+00-1.27437E+00 7.00988E-03-1.63056E-02
 -1     21219 8.65129E+00 1.64822E+00 3.39857E+00 4.55710E+00 2.44954E-03-1.93979E-03
 -1     21220-7.18380E+00 1.15187E+00-1.99037E+00-4.65457E-01 9.66123E-04 6.65358E-04
 -1     21221-4.63765E+00 3.22452E+00-4.66526E-01 2.41237E+00-5.35028E-05-3.98108E-05
 -1     21222 9.25371E+00 2.61181E+00 3.91386E+00 5.48133E+00 2.52933E-04-2.51049E-03
 -1     21223 2.02229E+00-1.13225E+00 2.93902E-01 2.86988E+00 2.09741E-05 2.19152E-04
 -1     21224 4.30315E+00 6.21043E+00 3.46971E+00 6.01688E+00 6.11313E-04-1.42826E-03
 -1     21225 5.76303E+00-3.67998E-02 1.88999E+00 3.63245E+00 9.12188E-05 6.87846E-04
 -1     21226 9.36055E+00 2.94438E+00 4.06125E+00 6.27962E+00 1.22726E-03 2.47822E-03
 -1     21227 4.97770E+00 6.18575E+00 3.68385E+00 6.23583E+00 7.10617E-04-8.06280E-04
 -1     21228 1.26018E+00 6.54404E+00 2.57731E+00 5.64625E+00-1.04161E-03-1.71125E-03
 -1     21229-9.04947E+00-3.54608E-02-2.99813E+00-1.74070E+00 5.94067E-04 4.48634E-04
 -1     21230-9.37878E+00-2.21697E+00-3.83564E+00 9.27855E-01 3.91888E-04 5.06274E-03
 -1     21231-8.23013E+00-3.02068E-01-2.81522E+00-6.81070E-01-7.04701E-04-8.34052E-04
 -1     21232-1.04435E+00 5.02316E+00 1.31474E+00 4.13044E+00-3.75207E-04-1.04058E-03
 -1     21233 8.51042E+00 2.11074E+00 3.50146E+00 5.73911E+00 7.51641E-04-2.43448E-03
 -1     21234-2.78391E+00 4.63711E+00 6.11292E-01 4.00775E+00 1.96504E-04 4.89428E-04
 -1     21235-9.73791E+00-1.22328E+00-3.61497E+00 6.26253E-02 5.31156E-03 2.54316E-03
 -1     21236 6.29460E+00 3.70942E+00 3.30118E+00 5.95132E+00 1.21011E-03 1.96380E-03
 -1     21237 5.26701E+00-1.11285E-01 1.70099E+00 3.88570E+00 3.72427E-04 6.06213E-04
 -1     21238 8.26022E+00 1.18652E+00 3.11747E+00 4.48479E+00-3.18634E-03 2.13843E-03
 -1     21239-4.50602E+00 2.32020E+00-7.21014E-01 1.09466E+00-8.69741E-05 4.39842E-04
 -1     21240 8.88705E+00 1.81441E+00 3.53192E+00 5.26243E+00 1.26627E-03-2.97717E-03
 -1     21241 7.86814E+00 2.75113E+00 3.50319E+00 6.05915E+00 2.48668E-03 1.23864E-03
 -1     21242-7.19251E+00 2.08297E-01-2.30519E+00-6.60362E-01 1.07758E-04-1.01225E-04
 -1     21243 8.75098E-01 5.08330E+00 1.96618E+00 4.37786E+00-2.69627E-04-4.21040E-04
 -1     21244-9.31794E+00-8.52742E-01-3.35710E+00-2.93049E-01-1.00130E-03-8.62611E-04
 -1     21245 6.85027E+00 3.40063E+00 3.38330E+00 6.05938E+00-5.89915E-04 2.73607E-04
 -1     21246-7.65633E+00-4.43113E-02-2.54161E+00-6.90882E-01 7.48919E-05 2.17631E-04
 -1     21247-1.03752E+01-1.64818E+00-3.96719E+00 3.52539E-01-1.71167E-03 5.33744E-03
 -1     21248-4.72490E-03 5.08438E+00 1.67715E+00 4.23838E+00-5.19159E-04-9.52417E-04
 -1     21249 8.72202E+00 1.89575E+00 3.50626E+00 5.49861E+00-2.46803E-03 3.47841E-04
 -1     21250-8.79610E+00-5.74343E-01-3.09127E+00-5.43748E-01-1.38489E-04-1.09642E-03
 -1     21251 8.23992E+00 2.42001E+00 3.51804E+00 5.93211E+00-8.32050E-04 1.27619E-03
 -1     21252 7.36596E+00 3.07763E+00 3.44528E+00 6.08905E+00-3.11127E-04-1.58802E-03
 -1     21253-1.00757E+00 5.59383E+00 1.51513E+00 4.75838E+00 2.41612E-05 4.68110E-03
 -1     21254 3.42547E+00-6.07283E-01 9.29944E-01 3.47271E+00-8.67593E-04 3.35007E-04
 -1     21255 8.01321E+00 1.09429E+00 3.00387E+00 4.76062E+00 1.36867E-03 3.25414E-03
 -1     21256-3.61429E+00 3.57881E+00-1.18532E-02 2.56559E+00-1.67636E-03 1.03498E-03
 -1     21257-5.03599E+00 1.86044E+00-1.04787E+00 5.96700E-01-5.01697E-05 4.94155E-04
 -1     21258 1.29195E+00-1.01371E+00 9.16147E-02 3.05167E+00-1.87101E-04-1.64704E-04
 -1     21259 4.23791E+00 4.76338E+00 2.97051E+00 5.36534E+00-1.81447E-04-8.21518E-04
 -1     21260 4.64005E+00 4.51123E+00 3.01955E+00 5.47442E+00 2.55420E-04-5.59058E-04
 -1     21261 5.09736E+00 4.24125E+00 3.08169E+00 5.60907E+00 1.50503E-04-3.22822E-04
 -1     21262 9.00421E+00 1.95479E+00 3.61730E+00 5.09471E+00 1.51513E-03 1.81728E-03
 -1     21263-3.94606E+00 2.83534E+00-3.66276E-01 1.66676E+00 1.43330E-04 5.89290E-04
 -1     21264-1.12617E+00-1.31911E+00-8.07283E-01 2.57980E+00-2.59520E-04-5.89781E-04
 -1     21265-6.12952E+00 1.03932E+00-1.67978E+00-2.29030E-01-1.01881E-05 6.50527E-05
 -1     21266 6.80805E+00 4.56149E-01 2.39618E+00 4.31166E+00-1.73403E-03-2.24876E-03
 -1     21267-3.90990E+00-1.49927E+00-1.78450E+00 1.99001E+00-2.97625E-04-6.50509E-04
 -1     21268 5.67287E+00 3.98453E+00 3.18679E+00 5.78846E+00 4.18455E-04-5.73912E-04
 -1     21269 1.57242E+00 5.02109E+00 2.17576E+00 4.49464E+00-3.36425E-05-2.61176E-04
 -1     21270 3.14094E+00 5.02416E+00 2.69429E+00 5.00532E+00-2.38429E-04-3.13579E-04
 -1     21271-6.85612E+00 4.55839E-01-2.11195E+00-5.95001E-01-2.96209E-04-3.71836E-04
 -1     21272-7.11340E+00-1.51384E+00-2.84710E+00 1.17110E+00 3.05188E-04 3.42394E-03
 -1     21273 3.76547E+00 4.94646E+00 2.87491E+00 5.22411E+00-1.02190E-04-2.62245E-04
 -1     21274 7.35552E+00 1.39928E+00 2.89166E+00 5.21328E+00 1.43830E-03 1.22642E-03
 -1     21275-3.13115E+00 3.55307E+00 1.39258E-01 2.49516E+00 4.42609E-04-6.26423E-06
 -1     21276-4.92788E+00 6.07456E-01-1.42591E+00 5.29542E-01 2.26559E-05 6.49474E-04
 -1     21277-3.02048E+00 4.17462E+00 3.80256E-01 3.31904E+00-1.32775E-04-3.09621E-04
 -1     21278 7.70592E+00 1.17410E+00 2.93262E+00 5.00172E+00 1.58389E-03 7.16985E-04
 -1     21279 3.33925E+00 3.00436E+00 2.09383E+00 4.54612E+00-2.28349E-03-1.99614E-03
 -1     21280-1.53755E+00 4.05083E+00 8.29751E-01 3.11931E+00-5.32491E-04-1.46286E-04
 -1     21281-6.56753E+00 7.16214E-01-1.93061E+00-4.84996E-01 1.31798E-03-9.04266E-06
 -1     21282 6.37452E+00 5.44282E-01 2.28419E+00 4.52139E+00 2.39240E-03-1.23427E-03
 -1     21283-5.50302E+00 1.45848E+00-1.33481E+00 1.96755E-01 7.31673E-04 3.93033E-04
 -1     21284-6.89484E+00-9.47606E-01-2.59151E+00 8.50002E-01-1.26213E-03-8.35788E-03
 -1     21285 4.20950E+00 2.83343E+00 2.31857E+00 4.89629E+00-3.67111E-03-4.28846E-03
 -1     21286 4.97886E+00 2.55560E+00 2.48859E+00 5.12408E+00-1.89412E-03-2.81335E-04
 -1     21287 2.40046E+00 5.03796E+00 2.45468E+00 4.75103E+00-4.45407E-05-5.28227E-04
 -1     21288-3.63076E+00 1.98779E+00-5.42435E-01 1.12838E+00 1.36097E-03-5.53762E-05
 -1     21289-2.48368E+00 2.70071E+00 7.16467E-02 1.87984E+00-7.07289E-04-4.29080E-04
 -1     21290 4.72453E+00 3.60922E-02 1.56941E+00 4.08020E+00 1.07927E-03 1.90919E-03
 -1     21291-1.46055E+00 3.73402E+00 7.50327E-01 2.85955E+00-2.64904E-04 4.17182E-05
 -1     21292-5.47449E+00 2.35346E-01-1.72942E+00 4.64817E-01 1.74508E-04 7.83204E-04
 -1     21293-4.25471E+00 1.52037E+00-9.02145E-01 7.20386E-01-1.09879E-03-3.40900E-04
 -1     21294-2.71287E+00 2.90160E+00 6.24115E-02 1.94767E+00 1.24046E-04 2.05521E-04
 -1     21295-6.62221E+00-5.13054E-01-2.34976E+00 5.79122E-01-1.04585E-04-4.19195E-03
 -1     21296 2.84928E+00-3.76802E-01 8.15596E-01 3.61613E+00-2.11501E-03-2.19064E-03
 -1     21297-6.10347E+00-1.40892E-01-2.06052E+00 4.40211E-01 7.53632E-04 1.64991E-03
 -1     21298 6.34700E+00 1.96287E+00 2.73798E+00 5.35381E+00 4.72556E-04-1.96108E-03
 -1     21299 2.00020E+00 3.83663E+00 1.92624E+00 4.09611E+00-5.25893E-05-4.35706E-04
 -1     21300 2.36725E+00 3.57705E+00 1.96112E+00 4.20120E+00 7.24212E-04-2.63424E-04
 -1     21301 2.71888E+00 3.25601E+00 1.97148E+00 4.30698E+00-1.89301E-04-5.99494E-04
 -1     21302-1.69904E+00-8.90167E-01-8.55614E-01 2.50572E+00 1.82293E-03 3.61270E-04
 -1     21303 6.96403E+00 1.70694E+00 2.86863E+00 5.35949E+00-1.98758E-03 7.62768E-04
 -1     21304 6.95686E-01-6.67292E-01 8.94667E-03 3.11260E+00-7.91151E-04-1.04666E-03
 -1     21305 5.59322E-01 3.93209E+00 1.48201E+00 3.55129E+00-4.67103E-06-2.73355E-04
 -1     21306-4.58934E+00 9.42351E-01-1.20293E+00 5.83793E-01 7.73657E-04 8.94316E-04
 -1     21307 5.65154E+00 2.20639E+00 2.59302E+00 5.25551E+00-1.39925E-03-1.79246E-03
 -1     21308-4.32243E+00-9.87567E-01-1.74962E+00 1.75725E+00 9.07070E-04 1.30573E-03
 -1     21309 4.09239E-01 1.98773E+00 7.91491E-01 3.08732E+00-1.41003E-04 1.46307E-04
 -1     21310 1.42164E+00 3.96100E+00 1.77638E+00 3.89244E+00-2.72697E-06-4.22193E-04
 -1     21311-2.77086E-01 3.90103E+00 1.19594E+00 3.26731E+00-1.93547E-04-2.02423E-04
 -1     21312 5.93511E+00 7.92265E-01 2.21457E+00 4.69337E+00 9.34585E-04 3.45204E-03
 -1     21313 2.94771E+00 1.82896E+00 1.57464E+00 4.20428E+00-2.99762E-04-8.45099E-04
 -1     21314-2.68739E+00 9.48422E-01-5.73466E-01 1.65485E+00 8.47155E-04-2.88615E-04
 -1     21315 1.82055E+00 1.96007E+00 1.24785E+00 3.74873E+00 2.16249E-03-1.07572E-03
 -1     21316-4.41324E+00 1.23497E+00-1.04993E+00 6.24878E-01-4.04788E-05-3.72964E-04
 -1     21317-1.01826E+00 3.01298E+00 6.57364E-01 2.55667E+00-2.95534E-05-1.03917E-03
 -1     21318-1.98744E-01 3.02080E+00 9.32097E-01 2.89759E+00-6.58329E-04 2.77172E-04
 -1     21319-4.42594E+00-5.18609E-01-1.63781E+00 1.51352E+00-4.57952E-04-9.99778E-04
 -1     21320 4.25964E+00 3.75769E-01 1.53008E+00 4.21257E+00 1.63358E-03 1.19144E-03
 -1     21321 2.63802E-01 2.44695E+00 8.94377E-01 3.02979E+00 1.13332E-04-3.62981E-04
 -1     21322 9.16798E-02 2.77925E+00 9.47521E-01 2.98124E+00 1.18686E-03 3.05171E-04
 -1     21323-3.43475E+00 4.17385E-01-9.94553E-01 1.47481E+00 3.77208E-04-6.91843E-04
 -1     21324 2.45850E+00 6.54301E-02 8.33817E-01 3.71101E+00 1.44671E-03-3.31549E-04
 -1     21325 5.56961E+00 1.13343E+00 2.21418E+00 4.81389E+00-1.11238E-03 1.26559E-03
 -1     21326-2.23060E+00 2.31886E+00 2.96048E-02 1.81924E+00-7.64560E-04-4.27976E-04
 -1     21327-2.20106E+00 1.44102E+00-2.51073E-01 1.79842E+00-5.26363E-04 3.26657E-04
 -1     21328 3.74799E+00 1.52505E+00 1.74347E+00 4.44046E+00-1.66328E-03 2.02924E-04
 -1     21329 4.31694E+00 1.06080E+00 1.77427E+00 4.50048E+00 8.33320E-04 1.90285E-03
 -1     21330 2.77665E-01-2.02930E-01 2.54501E-02 3.08269E+00-4.96450E-04-1.60663E-03
 -1     21331-2.03427E+00-4.23999E-01-8.08433E-01 2.35099E+00-2.31938E-03-1.59762E-04
 -1     21332-4.12597E+00-7.14003E-02-1.38841E+00 1.38304E+00 8.85966E-04-5.15282E-04
 -1     21333-7.73993E-01 1.14260E+00 1.20715E-01 2.58417E+00 5.97971E-04-8.51370E-05
 -1     21334-2.15662E+00 2.09137E+00-2.20546E-02 1.80428E+00-6.34731E-04-2.81414E-04
 -1     21335 1.87660E+00 1.05156E+00 9.66503E-01 3.70213E+00-2.35290E-03 5.32397E-04
 -1     21336 2.12903E+00 5.85280E-01 8.95323E-01 3.73044E+00 2.23564E-04 1.63678E-03
 -1     21337 6.57479E-01 1.10827E+00 5.83837E-01 3.22073E+00 1.17592E-03-1.45772E-03
 -1     21338-2.12405E+00 1.80156E+00-1.05175E-01 1.80205E+00-1.27971E-03-4.54951E-04
 -1     21339-9.39387E-02 3.36160E-01 8.02759E-02 2.95780E+00-5.61514E-04-5.31528E-04
 -1     21340-1.62822E+00 4.85600E-01-3.72523E-01 2.31815E+00-1.36594E-03 6.72525E-05
 -1     21341-2.40021E+00-4.18297E-02-8.09847E-01 2.13052E+00-5.11653E-03-5.06626E-04
 -1     21342 1.92914E+00 4.34933E+00 2.06844E+00 5.49171E+00-2.99120E-02-2.78934E-02
 -1     21343 2.59466E+00 4.44895E+00 2.30029E+00 5.06400E+00-5.17484E-02-3.37604E-02
 -1     21344 3.61347E+00 2.01916E+00 1.85027E+00 3.10658E+00-9.20705E-03 5.42643E-03
 -1     21345 3.61856E+00 2.03414E+00 1.86070E+00 3.08766E+00 1.09370E-02-8.39420E-03
 -1     21346-3.30422E+00 3.79909E+00 1.62317E-01 1.56744E+00-1.00589E-01 5.26693E-02
 -1     21347-1.87603E+00 4.66548E+00 7.36771E-01 2.48136E+00-8.43679E-03 3.78869E-02
 -1     21348-5.63158E+01-1.82659E+01-2.45944E+01 1.94212E+00 1.24714E-01 2.72997E-01
 -1     21349-6.16835E+01-1.52870E+01-2.49990E+01 1.21846E+00 2.98848E-01-2.68770E-01
 -1     21350 8.26373E+00 6.81001E+00 4.97052E+00 7.22132E+00 7.09704E-03 9.77320E-03
 -1     21351 8.20031E+00 6.58328E+00 4.87057E+00 7.02981E+00 1.95279E-02-8.02100E-04
 -1     21352 1.10457E+01 9.26296E+00 6.71391E+00 1.00952E+01 3.02877E-03 5.52731E-05
 -1     21353 1.24410E+01 1.04421E+01 7.55956E+00 1.13823E+01 2.04935E-03-1.53044E-03
 -1     21354 1.32038E+01 1.11027E+01 8.02035E+00 1.21039E+01 6.09651E-04-3.15269E-03
 -1     21355 1.36845E+01 1.14970E+01 8.31139E+00 1.25353E+01-1.32258E-04 9.46809E-04
 -1     21356 1.38290E+01 1.16226E+01 8.40027E+00 1.26754E+01 1.25640E-03-2.61997E-03
 -1     21357 1.37649E+01 1.15651E+01 8.35992E+00 1.26153E+01 1.04092E-03 4.21450E-04
 -1     21358 1.35022E+01 1.13272E+01 8.19591E+00 1.23590E+01 1.22039E-03 7.94421E-04
 -1     21359 1.29384E+01 1.08386E+01 7.84581E+00 1.18292E+01 1.83557E-03-1.09687E-03
 -1     21360 1.20507E+01 1.00813E+01 7.30257E+00 1.10089E+01 6.96329E-04-2.42075E-04
 -1     21361 1.08586E+01 9.06899E+00 6.57663E+00 9.91399E+00 3.26966E-04 1.79363E-03
 -1     21362 9.41862E+00 7.90274E+00 5.71357E+00 8.62836E+00 1.21945E-03 1.72555E-03
 -1     21363 7.92706E+00 6.65043E+00 4.81432E+00 7.26608E+00 3.67664E-03 2.62396E-03
 -1     21364 6.50076E+00 5.45678E+00 3.94591E+00 5.95665E+00-3.67637E-04 5.58633E-04
 -1     21365 5.52389E+00 4.64475E+00 3.35314E+00 5.06484E+00-5.23829E-04-2.04558E-03
 -1     21366 4.90246E+00 4.20287E+00 3.00091E+00 4.50088E+00-4.35045E-04-4.82358E-04
 -1     21367 4.37619E+00 3.79655E+00 2.69630E+00 4.03876E+00-3.67390E-03-2.51496E-03
 -1     21368 4.63944E+00 4.00386E+00 2.85290E+00 4.24027E+00 7.68980E-03 8.67960E-04
 -1     21369 5.58754E+00 4.68884E+00 3.39269E+00 5.12084E+00-8.10384E-04 5.05465E-04
 -1     21370 6.49638E+00 5.44614E+00 3.94167E+00 5.95098E+00 2.22430E-04-1.84792E-03
 -1     21371 7.68818E+00 6.45613E+00 4.66174E+00 7.04240E+00 9.77681E-04-1.15197E-03
 -1     21372 9.19967E+00 7.64580E+00 5.56010E+00 8.39001E+00-4.85295E-04-2.39106E-03
 -1     21373 1.06103E+01 8.90239E+00 6.43670E+00 9.71953E+00-8.73588E-04 9.06015E-04
 -1     21374 1.18598E+01 9.95327E+00 7.19806E+00 1.08660E+01-1.63293E-03 7.62981E-04
 -1     21375 1.28060E+01 1.07514E+01 7.77276E+00 1.17345E+01-1.68376E-03 6.40535E-04
 -1     21376 1.34167E+01 1.12770E+01 8.15057E+00 1.22753E+01-1.43322E-03-8.67267E-04
 -1     21377 1.37720E+01 1.15673E+01 8.36180E+00 1.26063E+01-9.21242E-04 4.30365E-04
 -1     21378 1.38363E+01 1.16042E+01 8.39581E+00 1.26582E+01 4.92513E-04 4.60440E-04
 -1     21379 1.36500E+01 1.14554E+01 8.28363E+00 1.24894E+01-2.75207E-05 5.33104E-04
 -1     21380 1.32815E+01 1.11716E+01 8.06937E+00 1.21748E+01-9.64905E-05 1.82990E-03
 -1     21381 1.24495E+01 1.04505E+01 7.54600E+00 1.14122E+01-1.93289E-03 1.23540E-03
 -1     21382 1.07509E+01 9.02329E+00 6.51938E+00 9.84381E+00-6.54183E-03-1.80878E-03
 -1     21383 1.18603E+01 1.00375E+01 7.22956E+00 1.08956E+01-5.82233E-04-6.54072E-03
 -1     21384 1.28766E+01 1.07760E+01 7.81119E+00 1.17653E+01 2.06511E-03 2.18545E-03
 -1     21385 9.72100E+00 8.13719E+00 5.90011E+00 8.88623E+00 4.67954E-03-3.88098E-03
 -1     21386 1.34964E+01 1.13417E+01 8.19802E+00 1.23597E+01 1.14429E-03-1.40481E-04
 -1     21387 1.37872E+01 1.15793E+01 8.37493E+00 1.26278E+01 2.98703E-04-3.54572E-04
 -1     21388 1.38251E+01 1.16049E+01 8.39319E+00 1.26637E+01 7.18372E-04 1.67686E-03
 -1     21389 1.36642E+01 1.14818E+01 8.29931E+00 1.25250E+01 6.53485E-04-2.04059E-03
 -1     21390 1.32407E+01 1.11261E+01 8.04457E+00 1.21284E+01-4.07765E-04 1.29908E-03
 -1     21391 1.25219E+01 1.05000E+01 7.59708E+00 1.14543E+01 1.27340E-03 2.36309E-03
 -1     21392 1.14749E+01 9.60683E+00 6.95695E+00 1.04932E+01 3.62411E-03 2.65190E-03
 -1     21393 1.01575E+01 8.51190E+00 6.16082E+00 9.29939E+00-8.15544E-04 1.78981E-04
 -1     21394 8.70474E+00 7.24122E+00 5.26136E+00 7.93704E+00 3.32321E-04 2.37374E-03
 -1     21395 7.23586E+00 6.01765E+00 4.37410E+00 6.61127E+00 1.68298E-03 2.33255E-03
 -1     21396 5.91683E+00 4.95722E+00 3.58849E+00 5.42858E+00-1.21854E-03 2.09270E-03
 -1     21397 5.21770E+00 4.39015E+00 3.17090E+00 4.80926E+00 9.43408E-05 1.48308E-03
 -1     21398 4.66712E+00 3.97324E+00 2.84558E+00 4.25449E+00-1.61497E-02 5.73234E-04
 -1     21399 6.03438E+00 5.05559E+00 3.66006E+00 5.53105E+00 4.92174E-04 9.14421E-04
 -1     21400 7.02472E+00 5.89349E+00 4.26841E+00 6.43843E+00-6.68053E-05 1.02319E-03
 -1     21401 8.40502E+00 7.06582E+00 5.10776E+00 7.71079E+00-3.09266E-04-1.08015E-03
 -1     21402 9.90813E+00 8.30394E+00 6.00983E+00 9.07322E+00 4.46449E-04-1.86594E-04
 -1     21403 1.12701E+01 9.43557E+00 6.83418E+00 1.03072E+01-4.60570E-04-2.86342E-03
 -1     21404 1.23670E+01 1.03667E+01 7.50470E+00 1.13129E+01-4.14811E-04-3.15035E-03
 -1     21405 1.31472E+01 1.10370E+01 7.98135E+00 1.20381E+01-1.72050E-04 3.27379E-04
 -1     21406 1.36331E+01 1.14407E+01 8.27237E+00 1.24896E+01-1.49611E-03 6.09998E-04
 -1     21407 1.38361E+01 1.16124E+01 8.39711E+00 1.26743E+01-1.37270E-03-6.20281E-04
 -1     21408 1.37691E+01 1.15508E+01 8.35497E+00 1.25936E+01 8.28358E-04-9.63375E-04
 -1     21409 1.35039E+01 1.13341E+01 8.19383E+00 1.23690E+01-1.51715E-04 8.07941E-04
 -1     21410 1.29447E+01 1.08950E+01 7.86707E+00 1.18218E+01-4.19339E-04 2.73647E-04
 -1     21411 1.16525E+01 9.84641E+00 7.10011E+00 1.06773E+01-2.46806E-03 4.06068E-03
 -1     21412 9.61342E+00 8.05970E+00 5.83583E+00 8.78405E+00-2.90606E-03 9.62992E-04
 -1     21413 6.93098E-01 1.50058E+01 5.25114E+00 6.97174E+00 1.09992E-01-3.52821E-02
 -1     21414 6.70096E-01 1.45895E+01 5.01523E+00 7.01448E+00-8.16109E-02-4.82046E-02
 -1     21415 9.64791E-02 1.54751E+01 5.15883E+00 6.37653E+00-6.55978E-03-4.39694E-03
 -1     21416 3.43019E-02 1.32291E+01 4.39056E+00 6.31939E+00-6.38136E-03 2.50006E-04
 -1     21417-1.48166E-02 9.03363E+00 2.97469E+00 6.50934E+00-1.51736E-04 1.67074E-03
 -1     21418-6.58884E-01 5.39803E+00 1.61017E+00 6.91205E+00-1.72103E-02 4.23148E-02
 -1     21419-1.61060E-02 7.60548E+00 2.45903E+00 6.60513E+00-2.10680E-02-1.10401E-03
 -1     21420 4.48667E-03 1.09426E+01 3.61347E+00 6.40392E+00-1.33002E-02 6.72757E-03
 -1     21421 2.90443E-02 1.52768E+01 5.06836E+00 6.38645E+00 6.90593E-03 3.14456E-03
 -1     21422 2.27422E-02 1.47157E+01 4.86435E+00 6.29318E+00-1.36566E-02-1.48187E-02
 -1     21423 4.03072E-03 1.14389E+01 3.76656E+00 6.32602E+00-7.21784E-03-1.19734E-02
 -1     21424-3.98831E-02 1.58836E+01 5.25014E+00 6.59356E+00-2.01986E-02-8.73051E-02
 -1     21425 1.64532E-01 1.55428E+01 5.16312E+00 6.50160E+00-5.58738E-02 1.84557E-02
 -1     21426-2.93171E+01-9.44403E-01-9.90425E+00-9.81770E+00-9.19265E-02 5.71194E-02
 -1     21427-2.71147E+01-2.76523E+00-9.48923E+00-1.14288E+01-3.46280E-02 3.65514E-02
 -1     21428-2.23458E+01-2.43917E+00-8.17296E+00-7.46201E+00 4.89806E-03 1.88327E-02
 -1     21429-2.05301E+01-2.25688E+00-7.52793E+00-6.88917E+00-6.39187E-03 8.09020E-03
 -1     21430-1.97006E+01-2.18440E+00-7.21890E+00-6.60820E+00-1.47655E-03 8.55570E-04
 -1     21431-1.92128E+01-2.14051E+00-7.04820E+00-6.41762E+00 7.47015E-04-1.45715E-03
 -1     21432-1.88885E+01-2.11079E+00-6.92954E+00-6.30659E+00-9.55439E-05-5.14396E-04
 -1     21433-1.84520E+01-2.07669E+00-6.77377E+00-6.16475E+00 1.71709E-03-3.49862E-03
 -1     21434-1.77847E+01-1.98370E+00-6.52570E+00-5.92503E+00 5.44422E-04 8.52387E-04
 -1     21435-1.66082E+01-1.84445E+00-6.08915E+00-5.52578E+00 9.76666E-04 9.56618E-04
 -1     21436-1.48707E+01-1.65336E+00-5.45332E+00-4.96082E+00-6.43228E-04-1.31483E-03
 -1     21437-1.26983E+01-1.43608E+00-4.66471E+00-4.24670E+00-1.73590E-03-3.09225E-03
 -1     21438-1.05967E+01-1.19108E+00-3.89493E+00-3.54885E+00 1.71183E-03-6.70057E-04
 -1     21439-9.78467E+00-1.86816E+00-3.91422E+00-3.88070E+00-4.76995E-02-2.52315E-02
 -1     21440-1.08141E+01-2.09339E+00-4.14684E+00-4.59538E+00-1.50352E-02-2.56287E-02
 -1     21441-1.04458E+01-2.05392E+00-4.10876E+00-4.20456E+00 1.66074E-01 5.67136E-02
 -1     21442-9.98188E+00-1.56016E+00-3.80641E+00-3.74095E+00 4.26209E-02 1.27273E-02
 -1     21443-1.25329E+01-1.39385E+00-4.59060E+00-4.18193E+00 7.24978E-05 2.65517E-04
 -1     21444-1.45448E+01-1.61816E+00-5.33303E+00-4.84987E+00-4.57918E-04-1.43945E-03
 -1     21445-1.63644E+01-1.81670E+00-6.00095E+00-5.43936E+00-5.11201E-04-1.58232E-03
 -1     21446-1.76179E+01-1.98009E+00-6.46986E+00-5.87751E+00-1.57009E-03 9.25819E-04
 -1     21447-1.84591E+01-2.07286E+00-6.77690E+00-6.16393E+00-1.78231E-04 2.22864E-03
 -1     21448-1.89374E+01-2.11719E+00-6.94757E+00-6.33261E+00 5.42354E-04 2.05487E-03
 -1     21449-1.92735E+01-2.14334E+00-7.06789E+00-6.44227E+00-7.07011E-04-2.89418E-04
 -1     21450-1.96981E+01-2.18702E+00-7.22843E+00-6.56825E+00 6.81127E-04-2.81880E-04
 -1     21451-2.05122E+01-2.26659E+00-7.51533E+00-6.89737E+00-1.21557E-03 4.12043E-03
 -1     21452-2.27861E+01-2.37090E+00-8.32770E+00-7.76057E+00 1.51660E-02 1.42913E-02
 -1     21453-2.11770E+01-2.33189E+00-7.75241E+00-7.06416E+00 6.53548E-04-1.42393E-03
 -1     21454-2.00610E+01-2.24090E+00-7.36344E+00-6.70235E+00 1.38654E-03-9.88427E-04
 -1     21455-2.39378E+01-2.40159E+00-8.68733E+00-8.82823E+00-2.34514E-02 1.97396E-02
 -1     21456-1.94001E+01-2.16485E+00-7.11887E+00-6.47957E+00-1.77490E-04 1.32556E-03
 -1     21457-1.90534E+01-2.12919E+00-6.99039E+00-6.36633E+00-6.48510E-05-5.50901E-04
 -1     21458-1.86858E+01-2.08334E+00-6.85537E+00-6.24269E+00 4.20452E-04-1.88562E-03
 -1     21459-1.81814E+01-2.03266E+00-6.66989E+00-6.07595E+00 9.16537E-04-1.15721E-03
 -1     21460-1.72693E+01-1.91928E+00-6.33207E+00-5.75774E+00 7.26261E-04 2.14783E-03
 -1     21461-1.58161E+01-1.74910E+00-5.79795E+00-5.24525E+00 2.06480E-04 1.41213E-03
 -1     21462-1.38349E+01-1.53600E+00-5.07150E+00-4.60913E+00 1.82933E-03-8.03566E-05
 -1     21463-1.15793E+01-1.30279E+00-4.24722E+00-3.87891E+00-1.02199E-03-1.07203E-03
 -1     21464-1.01345E+01-1.16031E+00-3.75572E+00-3.40456E+00 5.27815E-03-2.55755E-03
 -1     21465-1.70539E+01-1.90605E+00-6.25288E+00-5.69220E+00-5.44986E-04-1.47827E-03
 -1     21466-1.34918E+01-1.51871E+00-4.95405E+00-4.50925E+00-1.25826E-03-3.74281E-03
 -1     21467-1.55089E+01-1.73169E+00-5.68989E+00-5.16116E+00-1.87593E-03-8.67260E-05
 -1     21468-1.80828E+01-2.01921E+00-6.63351E+00-6.03800E+00-4.25012E-04 8.01994E-04
 -1     21469-1.87422E+01-2.09463E+00-6.87488E+00-6.25802E+00 9.34182E-04 1.70845E-03
 -1     21470-1.90953E+01-2.14107E+00-7.00756E+00-6.38603E+00 4.74005E-04-7.45208E-05
 -1     21471-1.94654E+01-2.16853E+00-7.13911E+00-6.49672E+00-7.09510E-04-3.89988E-03
 -1     21472-1.99872E+01-2.22418E+00-7.32877E+00-6.67237E+00-3.03041E-03 9.54298E-04
 -1     21473-2.13983E+01-2.38001E+00-7.84792E+00-7.14257E+00 3.82036E-03-4.66046E-03
 -1     21474-2.42971E+01-2.74711E+00-9.06608E+00-8.20630E+00 5.09432E-02 1.32409E-01
 -1     21475 4.90861E+00 2.42701E+00 2.42566E+00 3.88716E+00-9.21245E-03-2.44193E-03
 -1     21476 4.79659E+00 2.36189E+00 2.36332E+00 3.81790E+00 3.37330E-03 1.50607E-03
 -1     21477 5.88275E+00 2.88398E+00 2.89121E+00 4.60661E+00 4.99192E-03-2.44883E-03
 -1     21478 7.02440E+00 3.45120E+00 3.45699E+00 4.96154E+00-1.05818E-03 2.23174E-03
 -1     21479 7.92565E+00 3.88237E+00 3.89699E+00 4.60082E+00-9.38751E-04 1.88259E-03
 -1     21480 7.85533E+00 3.86014E+00 3.86612E+00 3.79032E+00 1.18211E-03 2.99123E-03
 -1     21481 6.83411E+00 3.29141E+00 3.34782E+00 2.72328E+00 2.20801E-03-3.05830E-03
 -1     21482 4.62841E+00 2.24172E+00 2.26687E+00 1.57478E+00-2.86004E-03 2.35617E-03
 -1     21483 1.29602E+00 6.21975E-01 6.33055E-01 4.04647E-01 9.60607E-04-1.44096E-03
 -1     21484-2.60220E+00-1.33470E+00-1.29984E+00-4.82043E-01-3.31322E-03 2.69369E-03
 -1     21485-9.66788E+00-4.81821E+00-4.78002E+00-1.20967E+00 1.30569E-03 3.91491E-03
 -1     21486-1.84895E+01-9.29036E+00-9.14253E+00-6.63327E-01-1.12416E-02-9.48703E-03
 -1     21487-2.58301E+01-1.29913E+01-1.29137E+01 6.41380E-01-1.90868E-01 1.15839E-01
 -1     21488-2.01131E+01-1.08483E+01-1.02467E+01-2.34294E-01 3.36670E-02-1.12939E-02
 -1     21489-1.44634E+01-7.13201E+00-7.14590E+00-1.01488E+00 1.69302E-02 3.33169E-03
 -1     21490-2.91591E+00-1.46233E+00-1.44394E+00-5.15324E-01 1.48898E-03 4.23390E-03
 -1     21491 1.85283E+00 8.95542E-01 9.06893E-01 5.55071E-01 1.66714E-03 2.64178E-03
 -1     21492 5.03756E+00 2.48119E+00 2.48119E+00 1.74847E+00-1.07814E-08 2.09242E-03
 -1     21493 7.07016E+00 3.45666E+00 3.46958E+00 2.91679E+00 2.32757E-03-2.58496E-03
 -1     21494 7.94632E+00 3.88924E+00 3.90614E+00 3.94940E+00 6.08287E-05 1.38839E-03
 -1     21495 7.84704E+00 3.86426E+00 3.86485E+00 4.68625E+00-2.59816E-05 1.96733E-03
 -1     21496 7.17872E+00 3.51968E+00 3.53285E+00 4.95262E+00 3.39642E-04-2.81054E-03
 -1     21497 6.04627E+00 2.99591E+00 2.97945E+00 4.71810E+00-5.17131E-03 3.30836E-03
 -1     21498 6.43260E+00 3.15972E+00 3.16546E+00 4.87043E+00-1.26738E-04-2.57172E-03
 -1     21499 7.57167E+00 3.70947E+00 3.72217E+00 4.85800E+00-5.45201E-04 5.12128E-05
 -1     21500 5.32708E+00 2.58458E+00 2.61964E+00 4.25150E+00 9.89982E-03 9.16059E-03
 -1     21501 8.00363E+00 3.93826E+00 3.94093E+00 4.23990E+00 4.92728E-04 1.92165E-03
 -1     21502 7.46932E+00 3.66154E+00 3.67319E+00 3.29127E+00-3.94176E-04-2.44596E-03
 -1     21503 5.84981E+00 2.86796E+00 2.87447E+00 2.14178E+00 4.46198E-03 2.84656E-03
 -1     21504 3.08350E+00 1.51252E+00 1.51653E+00 9.60321E-01 9.70444E-04-3.11367E-05
 -1     21505-5.41529E-01-2.72570E-01-2.68863E-01-5.60816E-02-8.84507E-04 5.07920E-04
 -1     21506-5.65411E+00-2.80797E+00-2.79138E+00-8.85217E-01 6.93016E-04-9.45346E-03
 -1     21507-1.37297E+01-6.76240E+00-6.76240E+00-1.20496E+00 7.13124E-08-1.86075E-02
 -1     21508-4.19751E-01-2.49176E-01-2.21613E-01-5.87362E-02-1.40748E-03 1.12180E-03
 -1     21509 3.63787E+00 1.77286E+00 1.78544E+00 1.15670E+00-9.15783E-04-7.21567E-04
 -1     21510 6.21153E+00 3.03876E+00 3.05422E+00 2.32964E+00-4.89445E-03-7.77651E-04
 -1     21511 7.64568E+00 3.71178E+00 3.75223E+00 3.43909E+00-3.36077E-03-1.40092E-03
 -1     21512 8.00466E+00 3.92360E+00 3.93728E+00 4.36441E+00-2.10631E-03-1.80457E-03
 -1     21513 7.55898E+00 3.72295E+00 3.72275E+00 4.86661E+00-3.28853E-04 6.51937E-04
 -1     21514 6.61754E+00 3.25938E+00 3.25939E+00 4.90480E+00-8.24311E-11-1.17865E-03
 -1     21515 5.47692E+00 2.71804E+00 2.70386E+00 4.39218E+00-1.04900E-02-2.92566E-03
 -1     21516-2.45100E-01 9.14006E+00 2.92988E+00 8.17109E+00 2.93984E-03 4.55162E-03
 -1     21517-3.92191E-01 5.35444E+00 1.64538E+00 4.15741E+00 7.83046E-03-1.73063E-02
 -1     21518-1.46485E+01-1.34008E+00-5.27603E+00-4.47650E+00-8.82924E-05 6.10034E-04
 -1     21519 9.61022E+00 4.80165E+00 4.75590E+00 7.02028E+00-1.94313E-04 1.08835E-03
 -1     21520 1.17791E+01 9.88690E+00 7.14964E+00 1.08282E+01 2.67569E-04 4.42445E-04
 -1     21521 1.00263E+01 9.11096E+00 6.31500E+00 9.66520E+00-1.44110E-03-6.24514E-05
 -1     21522-1.61350E+01-1.58221E+00-5.84578E+00-5.01330E+00-1.95840E-04-2.58515E-04
 -1     21523-1.49112E+01-1.36451E+00-5.37099E+00-4.59240E+00 1.51280E-04 3.29693E-04
 -1     21524-1.36159E+01-9.90256E-01-4.82025E+00-3.89092E+00 3.07268E-04-6.98723E-04
 -1     21525-1.30354E+01-7.58137E-01-4.55250E+00-3.45099E+00-5.50530E-04-8.71638E-04
 -1     21526 6.41936E+00 1.16931E+00 2.50410E+00 2.83963E+00-1.66470E-03 1.29522E-05
 -1     21527 7.95546E+00 1.78531E+00 3.21578E+00 3.66176E+00-3.99468E-04-9.05000E-04
 -1     21528 6.41234E+00 3.52197E+00 3.27872E+00 4.77760E+00 2.34110E-04 4.28909E-05
 -1     21529 9.58098E+00 9.04529E+00 6.14667E+00 9.44588E+00-9.56779E-04-7.22674E-05
 -1     21530 1.07560E+01 6.63557E+00 5.73850E+00 8.62879E+00 3.79800E-04-9.53053E-04
 -1     21531 1.10072E+01 7.15269E+00 5.99343E+00 9.07617E+00 4.26560E-04 2.64723E-04
 -1     21532 1.11936E+01 8.03614E+00 6.34637E+00 9.63252E+00 5.21323E-04 6.12748E-04
 -1     21533 1.16599E+01 9.23804E+00 6.89714E+00 1.04437E+01 1.14182E-03 6.06982E-04
 -1     21534 1.03906E+01 9.10925E+00 6.43470E+00 9.82405E+00-1.22158E-04-2.91617E-04
 -1     21535-1.91881E+01-1.45321E+00-6.80660E+00-4.83629E+00-3.47876E-03-1.08861E-02
 -1     21536 7.20199E+00 3.58798E+00 3.56108E+00 4.96247E+00 3.61744E-04 4.36445E-04
 -1     21537 8.45788E+00 9.23698E+00 5.84195E+00 9.08748E+00 1.56755E-03 2.33025E-03
 -1     21538-1.73264E+01-1.90296E+00-6.33369E+00-9.91435E-01-4.76256E-04 2.55507E-03
 -1     21539 2.47163E+00 7.47755E+00 3.28252E+00 6.51374E+00-8.67505E-04-1.22643E-03
 -1     21540 9.14592E+00 2.44786E+00 3.82546E+00 5.19616E+00 5.78815E-04-1.00857E-03
 -1     21541-1.13951E+01-1.73943E+00-4.33111E+00 2.40102E-01-1.72406E-03 3.55750E-03
 -1     21542-5.20013E+00 2.66732E+00-8.35020E-01 1.50295E+00 2.36314E-04-1.28202E-04
 -1     21543-8.91394E+00-8.17800E-01-3.20973E+00-1.40793E-01-3.31422E-04 2.29486E-03
 -1     21544 8.36223E+00 1.64358E+00 3.30205E+00 5.39790E+00-5.95108E-04 3.31089E-04
 -1     21545 6.00021E+00 1.21539E+00 2.38100E+00 4.95093E+00-6.01261E-04 2.17530E-04
 -1     21546-3.66173E+00-5.98112E-01-1.40440E+00 1.83794E+00 5.99366E-04 5.36400E-04
 -1     21547-2.34741E+00 2.23852E+00-3.61578E-02 1.73973E+00 3.03412E-04 3.35254E-04
 -1     21548-3.86346E+00 1.39781E+00-8.13794E-01 9.00603E-01 2.10841E-04 4.52819E-04
 -1     21549 2.37609E+00 1.44400E+00 1.26018E+00 3.92476E+00 2.44071E-04 9.93521E-04
 -1     21550-2.82071E+00 2.88157E-01-8.35975E-01 1.82072E+00-1.89521E-04 5.85468E-04
 -1     21551-2.09137E-01 9.74745E+00 3.15230E+00 6.95249E+00-1.54498E-03 1.42098E-05
 -1     21552-2.12489E+00 1.95005E+00-6.03535E-02 1.73313E+00 1.59623E-01 7.15288E-03
 -1     21553 1.25237E+01 1.06104E+01 7.63375E+00 1.15411E+01 4.16643E-04 1.11188E-03
 -1     21554 8.57261E+00 6.11639E+00 4.84679E+00 7.26106E+00 1.96846E-03-1.56096E-03
 -1     21555 7.24154E+00 3.49050E+00 3.54197E+00 4.85332E+00 7.37481E-04 1.12655E-03
 -1     21556-1.68811E+01-1.75604E+00-6.15061E+00-5.44746E+00 1.17799E-03-1.42802E-03
 -1     21557 1.17508E+01 1.03498E+01 7.29475E+00 1.10485E+01 2.62084E-03 3.32389E-03
 -1     21558-2.00864E+01-2.13351E+00-7.33417E+00-6.54235E+00 3.50739E-03 5.64100E-03
 -1     21559 7.19847E+00 8.68011E+00 5.24374E+00 8.14748E+00 4.36198E-03-7.22323E-03
 -1     21560 1.07722E+01 8.01446E+00 6.20097E+00 9.31564E+00 8.95392E-04 4.78620E-03
 -1     21561 8.17829E+00 3.36992E+00 3.81118E+00 4.55343E+00-4.15712E-04-1.60847E-03
 -1     21562-8.13295E+00-4.21798E+00-4.07559E+00-2.21833E-01 1.29666E-03 1.41125E-02
 -1     21563 3.09697E+00 7.38590E-01 1.26504E+00 1.27215E+00-6.53970E-04-4.48893E-04
 -1     21564 1.27961E+01 1.04996E+01 7.68659E+00 1.16056E+01-2.24247E-03-6.48335E-04
 -1     21565 1.19977E+01 9.21862E+00 7.00173E+00 1.05488E+01 7.61216E-04 4.53427E-04
 -1     21566 8.77222E+00 9.34032E+00 5.97313E+00 9.21701E+00 7.82430E-03-1.67140E-03
 -1     21567-2.71613E+00 8.46586E-01-5.92201E-01 9.40937E-01-6.18242E-02 3.94456E-03
 -1     21568 5.07383E+00 3.31878E+00 2.76539E+00 4.24909E+00-2.09048E-03-3.86675E-04
 -1     21569 7.18309E+00 5.15201E+00 4.07172E+00 6.09175E+00-1.58506E-03 1.64393E-03
 -1     21570 9.58514E+00 6.80393E+00 5.40958E+00 8.11292E+00 4.69919E-03 4.02235E-03
 -1     21571 1.14167E+01 8.42473E+00 6.54746E+00 9.84586E+00-2.88328E-06 4.81947E-04
 -1     21572-2.60717E+00-1.55038E+00-1.36660E+00-2.05704E-01-2.71300E-03 2.58348E-03
 -1     21573-1.83003E+01-1.76905E+00-6.62408E+00-5.62167E+00 2.72858E-03 1.64977E-03
 -1     21574-4.01414E+01-7.55941E+00-1.54947E+01 1.05404E+00-1.30078E-01 3.92509E-02
 -1     21575-1.70824E+01-1.79133E+00-6.22941E+00-5.54684E+00 5.02289E-04-8.76240E-05
 -1     21576-1.27679E+01-1.21405E+00-4.61525E+00-3.94366E+00 1.21418E-03 2.08546E-03
 -1     21577 1.47074E+00 8.82975E+00 3.40831E+00 6.96330E+00-7.82320E-03-1.18032E-02
 -1     21578 1.05833E+01 7.70879E+00 6.03480E+00 9.06017E+00-8.15546E-04-1.40119E-03
 -1     21579 1.17618E+01 9.00970E+00 6.85346E+00 1.03257E+01 2.15893E-03 2.60344E-03
 -1     21580 6.32334E+00 4.55947E+00 3.59156E+00 5.36583E+00 1.30536E-03 2.81782E-04
 -1     21581 1.23395E+01 9.77054E+00 7.29377E+00 1.10052E+01 2.96495E-03 2.54104E-03
 -1     21582-2.15987E+01-1.58818E+00-7.65489E+00-5.58305E+00 3.01727E-04 5.18957E-03
 -1     21583 1.27532E+01 1.07539E+01 7.75490E+00 1.17194E+01-1.48766E-03 3.39775E-04
 -1     21584-1.55751E+01-1.50280E+00-5.63511E+00-4.87327E+00 8.03625E-04 2.93531E-03
 -1     21585 1.23187E+01 9.81277E+00 7.30170E+00 1.10236E+01-4.94556E-03-1.24898E-03
 -1     21586 8.14089E+00 3.59070E+00 3.86939E+00 4.37580E+00-2.70547E-04 4.10712E-03
 -1     21587-9.88884E-02 9.11668E+00 2.98704E+00 7.43033E+00-2.62142E-03 8.85005E-03
 -1     21588 6.05122E+00 4.15900E+00 3.36838E+00 4.99270E+00 1.02264E-03-6.84101E-04
 -1     21589-7.62230E+00-6.84317E-01-2.74786E+00-2.19381E+00 1.14013E-03-2.41999E-02
 -1     21590-1.84580E+01-1.97386E+00-6.74012E+00-6.03008E+00-1.21802E-03-3.79668E-04
 -1     21591-1.89077E+01-7.82578E+00-8.82056E+00 3.32719E-01 9.12911E-03-3.08412E-02
 -1     21592 5.35641E+00 1.56709E+00 2.28407E+00 2.12998E+00 3.52002E-03-2.27922E-03
 -1     21593 8.16368E+00 2.95642E+00 3.67012E+00 3.85788E+00 2.73735E-03-1.75336E-03
 -1     21594 4.70479E+00 3.19487E+00 2.61215E+00 3.92657E+00 3.78428E-03 1.57821E-03
 -1     21595 7.67520E+00 2.61893E+00 3.39226E+00 3.38379E+00-3.30699E-03-8.39100E-03
 -1     21596-1.82148E+01-1.95281E+00-6.65413E+00-5.95056E+00-1.99747E-03 4.90400E-04
 -1     21597-1.66243E+01-1.70380E+00-6.04634E+00-5.34357E+00 8.86153E-04 2.55200E-03
 -1     21598 1.16617E+01 1.03365E+01 7.26056E+00 1.09856E+01 2.79489E-03-4.83210E-03
 -1     21599 9.53457E+00 5.91473E+00 5.09613E+00 7.60094E+00-4.26603E-03-1.37041E-03
 -1     21600-2.07762E+01-2.01188E+00-7.52206E+00-6.38532E+00 4.23492E-05-1.87230E-02
 -1     21601 1.29847E+01 1.08523E+01 7.86689E+00 1.18796E+01-5.31297E-04-8.31519E-05
 -1     21602-9.82794E+00-7.31829E-01-3.48081E+00-2.66237E+00 1.40538E-03 1.67723E-03
 -1     21603 6.92252E+00 4.85479E+00 3.88742E+00 5.80654E+00 1.45382E-03 6.64686E-05
 -1     21604-2.44015E+01-2.23685E+00-8.76589E+00-7.40252E+00-6.54761E-02-2.57419E-02
 -1     21605-1.72645E+01-1.82838E+00-6.30068E+00-5.62876E+00-1.45586E-04 1.43413E-03
 -1     21606 5.89055E+00 1.78479E+00 2.53069E+00 2.36278E+00 3.60146E-04 4.41923E-03
 -1     21607 1.20354E+01 1.05145E+01 7.43911E+00 1.12514E+01-6.75066E-04-3.51679E-03
 -1     21608-1.70908E-02 1.19195E+01 3.92489E+00 6.22726E+00-2.25652E-02 1.89078E-02
 -1     21609 7.22130E+00 3.49058E+00 3.53453E+00 4.85666E+00-2.24444E-03 2.89826E-04
 -1     21610-1.38832E+01-1.08058E+00-4.93988E+00-4.00621E+00-6.31154E-05-2.34990E-06
 -1     21611 1.18682E+01 1.03475E+01 7.33037E+00 1.11044E+01-1.23360E-03-1.56979E-03
 -1     21612 1.89224E+00 3.62278E-01 7.44786E-01 8.57679E-01-2.06921E-03 2.26875E-03
 -1     21613-3.44379E-01 8.54992E+00 2.71442E+00 7.65841E+00 3.23777E-02 2.56168E-02
 -1     21614 1.09120E+01 1.00041E+01 6.90015E+00 1.04902E+01 1.08118E-03-4.09186E-04
 -1     21615-1.52030E+01-1.38905E+00-5.47565E+00-4.64595E+00-4.90013E-04 7.94767E-04
 -1     21616-1.03548E+00-8.97099E-01-6.36102E-01 1.26346E-01 5.32179E-04-2.00502E-03
 -1     21617 9.14813E+00 6.38560E+00 5.12811E+00 7.67403E+00 4.60351E-03 5.09693E-03
 -1     21618 1.19510E+01 1.03123E+01 7.34704E+00 1.11274E+01 8.02103E-04-5.11735E-04
 -1     21619 8.13158E+00 3.59487E+00 3.86976E+00 4.38976E+00 1.16521E-03-1.44929E-03
 -1     21620-1.24701E+01-5.75228E+00-6.02219E+00-3.63072E-02 1.84346E-02 2.91308E-03
 -1     21621 8.50820E+00 9.26212E+00 5.86254E+00 9.07226E+00-5.53503E-03 2.41060E-03
 -1     21622-1.94633E+01-1.80227E+00-7.01058E+00-5.82128E+00-2.57878E-03 6.26187E-03
 -1     21623 4.62672E+00 3.14157E+00 2.57353E+00 3.85092E+00 1.04157E-02 5.11148E-04
 -1     21624 2.61668E+00 8.03962E+00 3.52100E+00 6.54903E+00 3.51448E-03-2.80076E-02
 -1     21625 7.97879E+00 5.77445E+00 4.53967E+00 6.80238E+00 6.65240E-04 4.77867E-03
 -1     21626 1.10648E+01 8.24028E+00 6.37093E+00 9.58438E+00 5.24731E-04-1.12707E-03
 -1     21627-4.85147E+00-2.90166E+00-2.56078E+00-3.56148E-02 5.36700E-03-2.41396E-03
 -1     21628 1.24643E+01 1.00151E+01 7.41448E+00 1.11899E+01 4.19390E-03 2.45573E-03
 -1     21629-1.90222E+01-2.02748E+00-6.94752E+00-6.19690E+00-3.46561E-03 2.58880E-03
 -1     21630 1.21552E+01 1.05840E+01 7.50581E+00 1.13479E+01 5.09289E-03-9.16033E-04
 -1     21631-1.87163E-01 9.65995E+00 3.12812E+00 7.57430E+00-2.44926E-02-6.14636E-03
 -1     21632 1.31456E+01 1.09542E+01 7.95569E+00 1.20039E+01-2.81606E-03 3.45531E-04
 -1     21633 5.87987E+00 8.01993E+00 4.58473E+00 7.19238E+00 1.05027E-02 2.56369E-02
 -1     21634-1.31635E+01-1.13167E+00-4.71852E+00-3.90298E+00 7.34652E-05-6.55012E-04
 -1     21635 1.12918E+01 8.18470E+00 6.42515E+00 9.66605E+00-1.18166E-03-2.24247E-03
 -1     21636 1.22836E-01-6.31664E-01-1.69028E-01 5.38916E-01-2.09013E-03 2.68904E-03
 -1     21637-2.07558E+01-2.05055E+00-7.52103E+00-6.46780E+00 4.54227E-04 3.49959E-03
 -1     21638 6.26159E+00 4.17241E+00 3.44183E+00 5.07849E+00-1.55534E-03-1.35383E-03
 -1     21639 6.30290E+00 4.42092E+00 3.53878E+00 5.27071E+00-3.42682E-04 4.29997E-04
 -1     21640-7.98556E+00-6.25274E-01-2.84497E+00-2.18171E+00 7.49163E-03 9.48791E-04
 -1     21641-1.20211E+01-1.08733E+00-4.32684E+00-3.61567E+00 9.44007E-03 6.76118E-05
 -1     21642-1.48287E+01-1.37387E+00-5.34512E+00-4.55787E+00-1.31518E-04-2.47222E-03
 -1     21643 4.40084E-02 9.67198E+00 3.17178E+00 5.60040E+00 9.74987E-03 3.36889E-02
 -1     21644-2.71197E+01-1.86830E+00-9.73600E+00-7.03977E+00-1.76693E-02-2.27675E-01
 -1     21645-2.22898E+01-2.03275E+00-8.03578E+00-6.72910E+00-2.72314E-02 3.50727E-03
 -1     21646 1.29690E+01 1.08550E+01 7.86187E+00 1.18727E+01-6.34132E-04-1.30306E-03
 -1     21647-1.71413E+01-1.79428E+00-6.24843E+00-5.54166E+00-1.56306E-04 2.40609E-03
 -1     21648 7.84206E+00 3.43378E+00 3.72062E+00 4.76477E+00-5.84461E-05 1.34149E-04
 -1     21649 1.19026E+01 9.04330E+00 6.91013E+00 1.04175E+01-1.68627E-03-1.58172E-03
 -1     21650-1.01478E+01-8.06807E-01-3.61447E+00-2.87896E+00-5.38586E-04-9.34307E-05
 -1     21651 4.15083E+00 1.23527E+00 1.77600E+00 1.62424E+00 2.00178E-03 4.53274E-03
 -1     21652-2.32593E+00-1.85678E+00-1.38199E+00 3.03646E-01-2.30762E-03-5.63270E-04
 -1     21653-1.72557E+01-1.82458E+00-6.29685E+00-5.62394E+00-6.51994E-04 1.83462E-04
 -1     21654 7.83385E+00 3.62863E+00 3.78406E+00 4.72085E+00 1.21999E-03-1.88942E-03
 -1     21655-1.66493E+01-1.70757E+00-6.05643E+00-5.35470E+00-8.05078E-05-4.74630E-04
 -1     21656-2.16660E+01-7.61372E+00-9.71348E+00 9.08220E-01 3.81749E-02 1.68850E-02
 -1     21657-1.17745E+01-7.10925E-01-4.12308E+00-3.05636E+00-1.64943E-03-2.13494E-03
 -1     21658 1.02746E+01 7.54530E+00 5.88169E+00 8.83523E+00-4.93304E-04-3.11963E-04
 -1     21659 8.92685E+00 6.33838E+00 5.03510E+00 7.53184E+00-3.58449E-03-5.52457E-03
 -1     21660-1.76366E-01 9.87916E+00 3.19485E+00 6.41835E+00 1.29529E-03 5.11541E-03
 -1     21661 8.12549E+00 3.41397E+00 3.80656E+00 3.97754E+00-3.72318E-04 3.65957E-03
 -1     21662 6.90357E+00 2.30380E+00 3.03610E+00 2.86511E+00 2.69830E-03 6.81690E-03
 -1     21663 5.15973E+00 3.35034E+00 2.80648E+00 4.31106E+00 7.34847E-03 2.35564E-03
 -1     21664-1.50787E+01-1.39832E+00-5.43691E+00-4.64319E+00 2.52402E-04-9.82013E-05
 -1     21665 5.38438E+00 3.78199E+00 3.02426E+00 4.53109E+00 3.65894E-03 1.05951E-03
 -1     21666-1.87536E+01-1.86787E+00-6.80384E+00-5.87365E+00-2.46270E-03-3.97858E-03
 -1     21667 1.22852E+01 1.05351E+01 7.52744E+00 1.13929E+01-4.28614E-04 3.33687E-04
 -1     21668 1.21003E+01 1.05172E+01 7.46354E+00 1.12787E+01-2.59030E-03 1.68115E-03
 -1     21669 7.80589E+00 2.73743E+00 3.48166E+00 3.47906E+00 4.88490E-03 4.25976E-03
 -1     21670 1.17654E+01 1.03564E+01 7.30005E+00 1.10584E+01-3.71443E-03-4.14188E-03
 -1     21671 6.96781E+00 2.27096E+00 3.04444E+00 2.91511E+00-1.44398E-03-5.49093E-03
 -1     21672 6.94068E+00 8.06929E+00 4.94094E+00 7.62988E+00-1.85843E-04 5.32152E-04
 -1     21673 7.54309E+00 5.02011E+00 4.14719E+00 6.16804E+00 2.02033E-03 2.26774E-03
 -1     21674 1.20276E+01 9.33349E+00 7.04849E+00 1.06533E+01-3.67082E-04 7.68603E-04
 -1     21675-9.67844E-02 9.83353E+00 3.20671E+00 5.93948E+00 1.67868E-02 1.18658E-03
 -1     21676-1.09169E+01-8.50567E-01-3.88374E+00-3.08731E+00 2.11564E-03 1.58181E-03
 -1     21677 8.12226E+00 5.93569E+00 4.63754E+00 6.95848E+00 2.23914E-03 1.96475E-04
 -1     21678 4.67785E+00 3.11984E+00 2.57449E+00 3.89716E+00-8.07460E-03-2.17716E-03
 -1     21679-2.47590E+01-1.65631E+00-8.72917E+00-6.05871E+00-4.58829E-04 7.98545E-02
 -1     21680-2.02977E+00 2.00230E+00 1.01986E-02 1.99830E+00-6.78689E-02-4.57509E-03
 -1     21681 8.45045E+00 8.79780E+00 5.68318E+00 8.71598E+00 5.42453E-03-3.33491E-03
 -1     21682-1.41650E+01-6.72216E+00-6.87891E+00-3.97552E-01-2.50419E-02 7.27659E-03
 -1     21683-1.88527E+01-2.00061E+00-6.88368E+00-6.14633E+00 7.16934E-04-4.92362E-03
 -1     21684 1.18513E+01 9.10329E+00 6.91422E+00 1.04215E+01 6.94753E-04-4.33224E-04
 -1     21685 9.91583E+00 6.67643E+00 5.47641E+00 8.19789E+00-6.75925E-05 5.78784E-04
 -1     21686 5.85608E-01-3.26498E-01 8.35138E-02 5.84257E-01-1.37699E-04 1.73174E-03
 -1     21687 6.61193E+00 4.86943E+00 3.79075E+00 5.67601E+00-3.33021E-04-7.27493E-05
 -1     21688 7.49005E+00 3.58764E+00 3.65609E+00 4.85333E+00 9.20994E-04 9.49205E-04
 -1     21689-1.07475E-01 9.95672E+00 3.24408E+00 7.45476E+00 2.65779E-02-7.75034E-06
 -1     21690 9.93092E+00 9.60367E+00 6.44631E+00 9.84394E+00-1.90993E-03-5.06125E-03
 -1     21691 8.05381E+00 3.68693E+00 3.87380E+00 4.50377E+00-3.16063E-04-5.68657E-04
 -1     21692-2.42766E+01-9.47049E+00-1.11908E+01 1.07138E+00 1.28649E-01 7.53299E-03
 -1     21693 5.73801E+00 3.25366E+00 2.96747E+00 4.58519E+00-7.71653E-04-1.86757E-04
 -1     21694-8.94732E+00-6.60974E-01-3.17466E+00-2.46498E+00 1.69931E-03-6.76703E-03
 -1     21695-1.60319E+01-1.57722E+00-5.80965E+00-5.06423E+00-6.57222E-04-1.49579E-03
 -1     21696 8.13649E+00 3.58384E+00 3.86762E+00 4.17682E+00 2.02489E-03-8.91815E-04
 -1     21697-1.74230E+01-1.85288E+00-6.36107E+00-5.68626E+00-7.01876E-04-4.89174E-04
 -1     21698-5.87079E+00-3.42708E+00-3.06718E+00 1.59295E-01-3.54254E-03 2.69619E-03
 -1     21699-4.87387E+00 2.88453E-01-1.51355E+00-5.51828E-01-6.51482E-02 3.14827E-02
 -1     21700 1.29358E+01 1.07385E+01 7.81161E+00 1.17954E+01 1.96156E-03 1.26038E-03
 -1     21701 2.96582E+00 1.05473E+00 1.32732E+00 1.07529E+00 4.22775E-04-3.18038E-03
 -1     21702-1.28445E+01-1.11611E+00-4.60875E+00-3.82270E+00-2.27075E-03-4.52376E-04
 -1     21703-2.54064E+01-1.05975E+01-1.18255E+01 7.57935E-01 4.87603E-02-2.03919E-02
 -1     21704-2.78300E+01-1.69879E+00-9.75559E+00-6.44154E+00 1.15124E-01-1.42369E-01
 -1     21705-9.76689E+00-4.82091E+00-4.81665E+00-3.62044E-01-1.26128E-03-2.72881E-03
 -1     21706 1.57636E+00 1.12935E-01 5.57034E-01 8.33229E-01-1.31848E-03-8.65291E-04
 -1     21707 7.67038E+00 5.66763E+00 4.40100E+00 6.60418E+00-3.75663E-03-1.41641E-03
 -1     21708-1.18782E+01-9.09733E-01-4.21794E+00-3.34873E+00-1.13984E-03-1.41907E-03
 -1     21709 5.51990E+00 3.78484E+00 3.07225E+00 4.59040E+00-5.37079E-03-2.51622E-03
 -1     21710-1.59580E+01-7.52760E+00-7.75168E+00-4.09469E-01 5.28097E-02-1.85545E-02
 -1     21711-8.26347E+00-8.05723E-01-2.98145E+00-2.45944E+00-8.13943E-03 6.95468E-03
 -1     21712-9.63317E-02 1.03710E+01 3.38130E+00 7.19921E+00 1.90757E-02-2.54394E-03
 -1     21713-1.28600E+01-9.33069E-01-4.55077E+00-3.57896E+00-1.69195E-03-4.53946E-04
 -1     21714 8.29831E+00 3.26261E+00 3.81595E+00 4.29926E+00 7.17529E-04 5.48194E-04
 -1     21715 4.67428E+00 1.41763E+00 2.01005E+00 1.80911E+00-5.54068E-03-3.39836E-03
 -1     21716-1.38490E+01-1.20136E+00-4.96648E+00-4.12700E+00 6.30811E-04-1.53355E-03
 -1     21717 8.01997E+00 3.00430E+00 3.63121E+00 3.71460E+00-9.94490E-03 5.56075E-03
 -1     21718-3.55795E+01-2.42058E+00-1.28849E+01-1.37780E+00 6.02433E-02-1.15429E-01
 -1     21719-1.06838E+01-7.09340E-01-3.75903E+00-2.83837E+00-1.23909E-04-3.44040E-03
 -1     21720-1.43675E+00 4.80714E+00 1.28056E+00 2.74439E+00 3.30514E-01-2.99539E-01
 -1     21721 9.50317E+00 9.27053E+00 6.19246E+00 9.45259E+00 4.06019E-03-1.92742E-04
 -1     21722-7.77756E-02 1.17594E+01 3.86122E+00 6.55407E+00-4.51309E-04 8.65868E-04
 -1     21723-1.47063E+01-1.45411E+00-5.33340E+00-4.63028E+00-1.62271E-03 1.39796E-03
 -1     21724 8.11999E+00 3.44319E+00 3.81481E+00 4.00224E+00 1.21544E-03-4.28694E-03
 -1     21725 5.94039E+00 3.27114E+00 3.03994E+00 4.66468E+00 5.87439E-03 1.48209E-03
 -1     21726 6.78816E+00 4.31166E+00 3.66269E+00 5.39510E+00 5.38256E-04-4.13731E-04
 -1     21727-2.98469E+01-2.85979E+00-1.08668E+01-1.07407E+00 9.12249E-02-1.02571E-01
 -1     21728-9.37398E+00-7.49466E-01-3.34192E+00-2.68529E+00-7.61850E-03-2.58220E-03
 -1     21729-1.40722E+01-1.35091E+00-5.09017E+00-4.37814E+00 4.44137E-05-2.96599E-04
 -1     21730-9.09334E+00-2.07614E-01-3.07200E+00-1.80571E+00 2.38630E-04 8.32410E-04
 -1     21731-5.39805E+00 1.64945E-01-1.72795E+00-7.75450E-01 1.17072E-02 9.28482E-03
 -1     21732 4.11879E+00 7.60494E+00 3.87038E+00 6.88763E+00-1.38308E-03-2.09369E-04
 -1     21733-3.26495E+00 2.21674E+00-3.46008E-01 1.36725E+00 8.30204E-06-4.89748E-04
 -1     21734-7.59966E+00 1.48159E+00-2.01983E+00 8.21735E-02-6.58063E-04-2.24908E-04
 -1     21735-2.43795E+01-6.52439E+00-1.01452E+01 8.83484E-01-1.85096E-02-1.65773E-02
 -1     21736-1.51361E+01-6.39851E+00-7.12152E+00 8.41709E-02-3.37659E-02 2.73959E-02
 -1     21737 2.59314E+00 3.44869E-01 9.71160E-01 1.23427E+00-2.13764E-03-1.89408E-03
 -1     21738 1.80988E+00 4.48975E+00 2.09054E+00 5.51176E+00 3.36425E-02-2.45331E-02
 -1     21739 2.31017E+00 4.37480E+00 2.17852E+00 5.13246E+00 1.01470E-02 8.72077E-02
 -1     21740 2.36066E+00 4.29590E+00 2.21252E+00 5.08448E+00-1.30652E-01-1.10795E-01
 -1     21741 3.64118E+00 2.00217E+00 1.86230E+00 3.11406E+00 5.67667E-03 8.86808E-03
 -1     21742 3.60285E+00 1.98998E+00 1.84563E+00 3.07026E+00-5.20143E-05-4.58036E-03
 -1     21743 3.65915E+00 2.02324E+00 1.87519E+00 3.11018E+00-5.80937E-03-7.68178E-03
 -1     21744 6.23585E+00 6.36598E+00 4.19838E+00 6.28152E+00 1.67219E-02 4.28389E-03
 -1     21745 9.51026E+00 8.08743E+00 5.78674E+00 8.63453E+00-1.28267E-02 3.44338E-02
 -1     21746 1.08717E+01 9.18075E+00 6.60049E+00 9.91106E+00 3.80944E-04 1.82746E-02
 -1     21747 1.18081E+01 9.95321E+00 7.16741E+00 1.07605E+01-1.21469E-02 5.40272E-04
 -1     21748 1.24442E+01 1.04643E+01 7.56689E+00 1.13582E+01 6.71746E-03-6.11738E-03
 -1     21749 1.29271E+01 1.08520E+01 7.84236E+00 1.18159E+01 3.68484E-05 1.14577E-02
 -1     21750 1.32562E+01 1.11325E+01 8.04105E+00 1.21289E+01-2.64484E-03-1.09915E-03
 -1     21751 1.35079E+01 1.13364E+01 8.19878E+00 1.23563E+01-3.04167E-03-3.19456E-03
 -1     21752 1.36726E+01 1.14889E+01 8.30154E+00 1.25173E+01 5.24941E-03 1.06674E-02
 -1     21753 1.37895E+01 1.15739E+01 8.37228E+00 1.26191E+01-2.71297E-03-3.12797E-03
 -1     21754 1.38341E+01 1.16174E+01 8.40075E+00 1.26672E+01-3.58501E-04 1.22718E-03
 -1     21755 1.38293E+01 1.16152E+01 8.39552E+00 1.26644E+01-7.34810E-04 2.25059E-03
 -1     21756 1.37673E+01 1.15620E+01 8.35782E+00 1.26103E+01 1.35021E-03 6.30063E-04
 -1     21757 1.36506E+01 1.14677E+01 8.29021E+00 1.24978E+01 1.22973E-03 3.75318E-03
 -1     21758 1.34650E+01 1.13092E+01 8.17240E+00 1.23249E+01 9.22745E-04 3.16177E-03
 -1     21759 1.32134E+01 1.10921E+01 8.02125E+00 1.20817E+01 1.11582E-03 9.43169E-04
 -1     21760 1.28758E+01 1.08027E+01 7.81483E+00 1.17752E+01 6.70805E-04 1.46514E-03
 -1     21761 1.24580E+01 1.04548E+01 7.55755E+00 1.13907E+01 6.36270E-04 6.87255E-03
 -1     21762 1.19533E+01 1.00230E+01 7.25391E+00 1.09316E+01 7.94472E-04 1.41123E-03
 -1     21763 1.13833E+01 9.54135E+00 6.90176E+00 1.04042E+01 3.64412E-04 5.91895E-03
 -1     21764 1.07330E+01 8.99287E+00 6.50840E+00 9.81551E+00 2.36460E-04 1.71066E-03
 -1     21765 1.00382E+01 8.39929E+00 6.08504E+00 9.17231E+00 2.73923E-03 1.04121E-03
 -1     21766 9.31099E+00 7.77536E+00 5.63936E+00 8.50931E+00-1.64359E-03 1.41263E-03
 -1     21767 8.55003E+00 7.15228E+00 5.17994E+00 7.82718E+00-7.84205E-04 3.19517E-03
 -1     21768 7.81548E+00 6.54095E+00 4.74199E+00 7.16113E+00-2.29249E-03 1.33531E-03
 -1     21769 7.12357E+00 5.96286E+00 4.31638E+00 6.52528E+00 3.73487E-03 1.82619E-03
 -1     21770 6.49453E+00 5.44274E+00 3.93911E+00 5.95564E+00 2.42182E-03 1.09514E-03
 -1     21771 5.95254E+00 4.97452E+00 3.60640E+00 5.45933E+00-2.04890E-03-3.86933E-03
 -1     21772 5.51285E+00 4.61529E+00 3.34141E+00 5.07096E+00-1.11642E-03 4.71103E-04
 -1     21773 5.19553E+00 4.36808E+00 3.16111E+00 4.76252E+00 8.16652E-04-3.39320E-03
 -1     21774 4.91877E+00 4.16791E+00 3.00411E+00 4.51521E+00 4.97229E-04 3.14925E-04
 -1     21775 4.65840E+00 3.92001E+00 2.83215E+00 4.25579E+00 1.15434E-03 4.34249E-03
 -1     21776 4.10414E+00 3.12814E+00 2.39701E+00 3.59254E+00 1.05652E-02 2.31746E-03
 -1     21777 6.07161E+00 6.25570E+00 4.12954E+00 6.37072E+00 2.39364E-02-1.50260E-01
 -1     21778 9.64131E+00 8.05011E+00 5.82571E+00 8.60086E+00 3.68212E-02 3.38010E-02
 -1     21779 1.08608E+01 9.18928E+00 6.61092E+00 9.88512E+00-2.00594E-03-1.65287E-02
 -1     21780 1.18064E+01 9.92203E+00 7.16411E+00 1.07717E+01 2.27745E-03-2.72855E-03
 -1     21781 1.24440E+01 1.04633E+01 7.55701E+00 1.13757E+01 1.50577E-03-6.77429E-03
 -1     21782 1.29102E+01 1.08521E+01 7.83694E+00 1.18141E+01 4.62489E-04-5.00808E-03
 -1     21783 1.32504E+01 1.11379E+01 8.04679E+00 1.21274E+01-3.51396E-03-4.80283E-04
 -1     21784 1.35100E+01 1.13412E+01 8.20059E+00 1.23583E+01 2.61509E-03-1.58663E-04
 -1     21785 1.36817E+01 1.14830E+01 8.30588E+00 1.25169E+01 2.26376E-03 1.09156E-03
 -1     21786 1.37885E+01 1.15739E+01 8.36894E+00 1.26184E+01 1.64756E-03 7.24950E-04
 -1     21787 1.38366E+01 1.16145E+01 8.39718E+00 1.26662E+01 1.72461E-03 6.08295E-04
 -1     21788 1.38276E+01 1.16164E+01 8.39549E+00 1.26635E+01-4.90381E-04-4.07887E-03
 -1     21789 1.37738E+01 1.15710E+01 8.35999E+00 1.26118E+01-6.74873E-04-4.07135E-03
 -1     21790 1.36526E+01 1.14639E+01 8.28954E+00 1.24878E+01-3.52207E-03 2.48470E-03
 -1     21791 1.34718E+01 1.13125E+01 8.17477E+00 1.23250E+01-1.24098E-03-6.34274E-03
 -1     21792 1.32176E+01 1.10787E+01 8.01714E+00 1.20858E+01 6.81270E-03 8.81806E-04
 -1     21793 1.28757E+01 1.07960E+01 7.81148E+00 1.17770E+01 3.18303E-03 1.84161E-03
 -1     21794 1.24617E+01 1.04391E+01 7.55894E+00 1.13896E+01 3.28657E-03 5.18164E-04
 -1     21795 1.19583E+01 1.00181E+01 7.25227E+00 1.09344E+01 2.72160E-03 1.84459E-03
 -1     21796 1.13858E+01 9.52953E+00 6.90383E+00 1.04012E+01 2.69594E-03 2.45299E-04
 -1     21797 1.07329E+01 8.98780E+00 6.50992E+00 9.81771E+00 1.52733E-03 3.04569E-04
 -1     21798 1.00384E+01 8.40074E+00 6.08784E+00 9.17594E+00 1.31757E-03 5.74253E-04
 -1     21799 9.30493E+00 7.78226E+00 5.64146E+00 8.50490E+00 7.04374E-07 1.22623E-03
 -1     21800 8.55241E+00 7.14931E+00 5.18049E+00 7.82754E+00-3.60752E-03-1.09650E-03
 -1     21801 7.81935E+00 6.54177E+00 4.73856E+00 7.15941E+00-4.01186E-03-3.70667E-03
 -1     21802 7.12875E+00 5.94994E+00 4.31571E+00 6.52756E+00 1.52447E-03 3.58480E-04
 -1     21803 6.50183E+00 5.42995E+00 3.93611E+00 5.95577E+00 8.17704E-04 1.85823E-03
 -1     21804 5.95787E+00 4.97355E+00 3.60753E+00 5.46381E+00 3.70897E-03 5.15245E-03
 -1     21805 5.51793E+00 4.61713E+00 3.34858E+00 5.06714E+00 9.61158E-04 3.86733E-03
 -1     21806 5.17616E+00 4.36787E+00 3.15211E+00 4.76457E+00-4.50927E-03-5.34251E-03
 -1     21807 4.91845E+00 4.16490E+00 2.99955E+00 4.51725E+00 8.37858E-04-8.99777E-04
 -1     21808 4.66943E+00 3.92067E+00 2.84151E+00 4.25252E+00 2.47079E-03-9.39621E-04
 -1     21809 4.11266E+00 3.11723E+00 2.39898E+00 3.59422E+00-1.31031E-02-6.05035E-03
 -1     21810-2.94803E+00 4.95211E+00 6.10040E-01 2.34012E+00-3.25269E-01 2.13678E-01
 -1     21811-2.46072E+00 3.85128E+00 4.93961E-01 2.50136E+00 3.95539E-01-2.47844E-01
 -1     21812-2.24550E+00 3.56378E+00 4.51261E-01 2.21805E+00-2.89687E-01 1.46156E-01
 -1     21813 1.52635E+00 1.28563E+01 4.23689E+00 6.37816E+00 1.73789E-01 2.75092E-01
 -1     21814 4.40993E-01 1.58244E+01 5.28355E+00 6.81875E+00-1.03442E-02 1.33198E-01
 -1     21815 2.02010E-01 1.54614E+01 5.15247E+00 6.49302E+00-2.44289E-05 8.55963E-03
 -1     21816 2.06030E-01 1.48378E+01 4.93724E+00 6.38861E+00 1.37512E-02 1.42097E-04
 -1     21817 1.09917E-01 1.34375E+01 4.45451E+00 6.35134E+00 3.25300E-02 1.48396E-02
 -1     21818 1.17322E-01 1.14706E+01 3.81345E+00 6.40178E+00-9.35025E-04 8.38057E-03
 -1     21819-9.07526E-03 8.45130E+00 2.83901E+00 6.50014E+00-1.25341E-02 1.43600E-03
 -1     21820 2.05851E-01 4.80970E+00 1.63000E+00 6.33455E+00 9.08820E-02-1.49929E-04
 -1     21821 4.33065E-01 1.21922E+01 4.24463E+00 5.54428E+00-6.44279E-01-5.17811E-01
 -1     21822 5.58426E-01 1.57691E+01 5.36798E+00 6.92201E+00 9.96526E-02 2.71994E-02
 -1     21823 2.46782E-01 1.56182E+01 5.16031E+00 6.51050E+00-3.48463E-03-5.58769E-02
 -1     21824 1.45693E-01 1.47697E+01 4.91835E+00 6.42312E+00 1.46414E-02-4.35178E-03
 -1     21825 1.24782E-01 1.34617E+01 4.46490E+00 6.42353E+00-1.73136E-03-5.45374E-03
 -1     21826 5.99077E-02 1.13493E+01 3.77382E+00 6.48146E+00 7.07348E-02 6.32980E-03
 -1     21827-3.02658E-02 8.40399E+00 2.77200E+00 6.71673E+00 6.95020E-02-1.90619E-02
 -1     21828 1.18279E-01 4.92955E+00 1.64823E+00 6.42269E+00 3.76832E-02 7.54294E-02
 -1     21829-6.04414E+01-1.88530E+01-2.61672E+01 2.01846E+00 3.17199E-02 7.25075E-02
 -1     21830-5.78050E+01-1.65761E+01-2.45458E+01 1.58232E+00-1.98013E-01 8.26124E-02
 -1     21831-6.42300E+01-1.87479E+01-2.73827E+01 1.76470E+00 2.79110E-01 2.27300E-01
 -1     21832-3.94729E+01-1.82879E+00-1.36877E+01-8.37660E+00-5.87918E-01 3.98955E-01
 -1     21833-2.52165E+01-2.65700E+00-9.12223E+00-8.17699E+00-1.04896E-02-7.82749E-02
 -1     21834-2.25380E+01-2.45195E+00-8.27199E+00-7.53759E+00 1.13096E-02-6.27634E-03
 -1     21835-2.12821E+01-2.32629E+00-7.78879E+00-7.13018E+00 1.49310E-02-1.30411E-03
 -1     21836-2.05274E+01-2.25968E+00-7.52064E+00-6.87507E+00 6.03850E-03 8.00386E-03
 -1     21837-2.00379E+01-2.21520E+00-7.34447E+00-6.68827E+00 6.67907E-04-8.14930E-03
 -1     21838-1.96825E+01-2.18530E+00-7.21813E+00-6.57577E+00 2.86515E-03 3.12431E-03
 -1     21839-1.94413E+01-2.16611E+00-7.12692E+00-6.49442E+00 1.54055E-05 8.52447E-04
 -1     21840-1.92361E+01-2.14358E+00-7.05472E+00-6.43592E+00 2.63486E-03 4.31584E-03
 -1     21841-1.90793E+01-2.12569E+00-6.99778E+00-6.37323E+00 9.52760E-05 1.73440E-03
 -1     21842-1.89174E+01-2.11071E+00-6.93850E+00-6.31337E+00-4.43101E-04 1.69073E-04
 -1     21843-1.87174E+01-2.08978E+00-6.86823E+00-6.24519E+00-4.85673E-04 1.22717E-03
 -1     21844-1.84642E+01-2.06509E+00-6.77227E+00-6.15790E+00-7.60183E-04-4.20850E-04
 -1     21845-1.81350E+01-2.02828E+00-6.65454E+00-6.04559E+00-2.79028E-03-5.15101E-04
 -1     21846-1.77042E+01-1.97884E+00-6.49394E+00-5.90103E+00 5.35350E-04-1.31475E-03
 -1     21847-1.71558E+01-1.92138E+00-6.30025E+00-5.71820E+00-1.42764E-03 1.80573E-03
 -1     21848-1.64770E+01-1.84870E+00-6.04772E+00-5.49233E+00-1.26299E-03 2.72973E-03
 -1     21849-1.56520E+01-1.75230E+00-5.74236E+00-5.21653E+00-5.99261E-04 2.52166E-03
 -1     21850-1.47014E+01-1.64766E+00-5.39563E+00-4.89747E+00-2.99596E-03 1.99707E-03
 -1     21851-1.36407E+01-1.52847E+00-5.00542E+00-4.54687E+00 9.35180E-04-3.50668E-04
 -1     21852-1.25356E+01-1.40700E+00-4.60252E+00-4.19058E+00 1.29893E-03-2.31448E-03
 -1     21853-1.14992E+01-1.31025E+00-4.22802E+00-3.87091E+00-1.83636E-03-4.08646E-03
 -1     21854-1.06647E+01-1.25826E+00-3.92514E+00-3.63287E+00-5.77095E-03-2.90040E-03
 -1     21855-1.01934E+01-1.36201E+00-3.81188E+00-3.56142E+00-2.10490E-02 1.86275E-03
 -1     21856-9.99893E+00-2.03796E+00-4.03529E+00-3.90776E+00-3.71925E-03 1.07351E-01
 -1     21857-7.93226E+00-2.20525E+00-2.76203E+00-2.01507E+00-1.25669E-01-1.95397E-02
 -1     21858-4.07223E+01-3.06724E+00-1.47929E+01-8.25555E+00-3.08076E-01 1.18960E+00
 -1     21859-2.44555E+01-2.55170E+00-8.93848E+00-8.40481E+00-1.03568E-01-2.29251E-01
 -1     21860-2.24870E+01-2.39211E+00-8.19804E+00-7.60369E+00-3.49870E-04 1.68324E-02
 -1     21861-2.12645E+01-2.32892E+00-7.79533E+00-7.13503E+00-1.70184E-02 1.19277E-03
 -1     21862-2.05255E+01-2.25367E+00-7.53412E+00-6.86771E+00 5.88485E-03-2.85461E-03
 -1     21863-2.00235E+01-2.21296E+00-7.33903E+00-6.70024E+00-2.91993E-03-9.35405E-04
 -1     21864-1.96873E+01-2.18250E+00-7.22272E+00-6.57294E+00 1.59334E-03-4.45040E-03
 -1     21865-1.94339E+01-2.15719E+00-7.11970E+00-6.48932E+00-6.92201E-04 1.88396E-03
 -1     21866-1.92497E+01-2.14164E+00-7.05840E+00-6.42648E+00 4.46245E-04 9.72494E-04
 -1     21867-1.90841E+01-2.12685E+00-7.00045E+00-6.37114E+00-5.46813E-04-6.71258E-05
 -1     21868-1.89229E+01-2.11957E+00-6.94326E+00-6.31725E+00 2.42258E-04-1.24236E-03
 -1     21869-1.87144E+01-2.10239E+00-6.86725E+00-6.25451E+00-3.88825E-03-6.29612E-03
 -1     21870-1.84612E+01-2.07986E+00-6.77679E+00-6.15683E+00 2.60376E-03 4.34512E-03
 -1     21871-1.81356E+01-2.04864E+00-6.66133E+00-6.04775E+00-7.75476E-03 1.14612E-04
 -1     21872-1.77011E+01-1.98636E+00-6.49231E+00-5.90878E+00 1.77326E-03-7.52943E-03
 -1     21873-1.71601E+01-1.92115E+00-6.29513E+00-5.71540E+00 2.01012E-03 1.97150E-03
 -1     21874-1.64834E+01-1.84708E+00-6.04780E+00-5.48678E+00 4.16413E-03 2.93385E-03
 -1     21875-1.56573E+01-1.75848E+00-5.74280E+00-5.21811E+00 3.26022E-03-2.98335E-03
 -1     21876-1.47008E+01-1.65066E+00-5.39502E+00-4.89374E+00 1.85303E-03 1.02251E-03
 -1     21877-1.36385E+01-1.52978E+00-5.00630E+00-4.54936E+00 2.44788E-03-4.46990E-04
 -1     21878-1.25322E+01-1.40646E+00-4.60072E+00-4.18903E+00-4.42014E-04 5.83969E-03
 -1     21879-1.14901E+01-1.29115E+00-4.21762E+00-3.87346E+00 1.94612E-03 4.95695E-03
 -1     21880-1.06564E+01-1.25759E+00-3.93788E+00-3.64008E+00-3.09838E-03 7.01758E-03
 -1     21881-1.01850E+01-1.38277E+00-3.77200E+00-3.59008E+00-4.15381E-03-4.40206E-02
 -1     21882-1.01092E+01-2.02014E+00-3.86964E+00-3.75465E+00 1.30333E-01 1.80906E-02
 -1     21883-7.51040E+00-4.28612E-01-2.71890E+00-1.70035E+00 5.82116E-01 3.55968E-01
 -1     21884 4.41701E+00 2.17712E+00 2.18032E+00 3.58954E+00 3.12451E-02 1.24537E-02
 -1     21885 5.36249E+00 2.63843E+00 2.63275E+00 4.29650E+00 2.42127E-03-2.38062E-03
 -1     21886 5.94371E+00 2.92721E+00 2.92661E+00 4.66717E+00 8.98152E-03-3.59949E-04
 -1     21887 6.51284E+00 3.20828E+00 3.20923E+00 4.87285E+00-5.99266E-04 3.10800E-04
 -1     21888 7.07449E+00 3.48356E+00 3.48174E+00 4.93331E+00 2.89736E-03-2.58718E-03
 -1     21889 7.55108E+00 3.71870E+00 3.71770E+00 4.85007E+00 3.85765E-03-4.69009E-04
 -1     21890 7.86999E+00 3.87643E+00 3.87678E+00 4.62606E+00 9.43882E-04-1.26542E-04
 -1     21891 7.99701E+00 3.93817E+00 3.93683E+00 4.29265E+00 6.10979E-03-2.22064E-03
 -1     21892 7.89110E+00 3.88645E+00 3.88601E+00 3.86328E+00 1.69777E-03-4.32865E-03
 -1     21893 7.55120E+00 3.71824E+00 3.71619E+00 3.37089E+00 5.80775E-03-1.43896E-03
 -1     21894 6.91748E+00 3.40617E+00 3.40423E+00 2.81141E+00-6.24647E-03-3.57839E-03
 -1     21895 6.02677E+00 2.96741E+00 2.96538E+00 2.25357E+00 8.69009E-03-2.15771E-03
 -1     21896 4.82649E+00 2.37765E+00 2.37851E+00 1.65179E+00 5.96274E-04-1.87059E-03
 -1     21897 3.35114E+00 1.65016E+00 1.64933E+00 1.06426E+00 2.29636E-03-2.19494E-03
 -1     21898 1.55472E+00 7.65636E-01 7.65383E-01 4.85405E-01-2.21712E-03-3.71249E-03
 -1     21899-5.74149E-01-2.82541E-01-2.82046E-01-4.80924E-02 1.13698E-03-4.10220E-03
 -1     21900-3.06534E+00-1.51068E+00-1.51250E+00-5.17155E-01-3.09244E-03-2.99384E-03
 -1     21901-5.96492E+00-2.93916E+00-2.94165E+00-8.97124E-01-2.16228E-03-4.37993E-03
 -1     21902-9.46334E+00-4.66034E+00-4.65891E+00-1.13436E+00-4.86801E-03-3.92959E-03
 -1     21903-1.37513E+01-6.77536E+00-6.78007E+00-1.16073E+00-5.73493E-02 1.30177E-03
 -1     21904-1.96021E+01-9.65914E+00-9.66801E+00-5.93082E-01-1.28195E-01 2.57615E-02
 -1     21905-3.49022E+01-1.71718E+01-1.71335E+01 2.04377E+00-2.95799E-01-1.63996E-01
 -1     21906 4.40867E+00 2.17282E+00 2.17566E+00 3.57895E+00-3.73162E-02-1.50942E-02
 -1     21907 5.35016E+00 2.63299E+00 2.62861E+00 4.29422E+00-4.81797E-03 4.57349E-03
 -1     21908 5.93251E+00 2.92283E+00 2.92455E+00 4.66816E+00-6.61482E-03 2.92973E-04
 -1     21909 6.51527E+00 3.20925E+00 3.20972E+00 4.87354E+00 1.60921E-04 2.54595E-04
 -1     21910 7.07524E+00 3.48482E+00 3.48482E+00 4.93099E+00-2.23066E-03 2.16917E-03
 -1     21911 7.55397E+00 3.72082E+00 3.72125E+00 4.83760E+00 5.81367E-04 2.43297E-03
 -1     21912 7.87621E+00 3.87851E+00 3.87684E+00 4.61872E+00 1.79909E-04 3.07479E-03
 -1     21913 8.00580E+00 3.94180E+00 3.93905E+00 4.29661E+00-4.29282E-03 3.74014E-03
 -1     21914 7.89323E+00 3.88674E+00 3.88475E+00 3.86772E+00-2.56867E-03 3.51670E-03
 -1     21915 7.54505E+00 3.71698E+00 3.71850E+00 3.36196E+00 4.14416E-03 9.91195E-04
 -1     21916 6.92537E+00 3.41091E+00 3.41072E+00 2.81222E+00 9.06921E-03 2.51586E-03
 -1     21917 6.02904E+00 2.96928E+00 2.96877E+00 2.23398E+00 9.26843E-03 6.51882E-04
 -1     21918 4.83643E+00 2.38076E+00 2.37797E+00 1.64460E+00 4.49917E-03 4.29164E-03
 -1     21919 3.35667E+00 1.65256E+00 1.65108E+00 1.06433E+00-5.26443E-03 2.02944E-03
 -1     21920 1.56526E+00 7.70431E-01 7.69368E-01 4.78041E-01 5.37583E-03 2.30796E-03
 -1     21921-5.66578E-01-2.79992E-01-2.81890E-01-5.86876E-02 3.77323E-03 3.02323E-03
 -1     21922-3.03957E+00-1.49863E+00-1.50173E+00-5.22660E-01 3.57904E-03 4.46311E-03
 -1     21923-5.95307E+00-2.93246E+00-2.93319E+00-9.00838E-01 3.12523E-03 1.72445E-03
 -1     21924-9.41016E+00-4.63592E+00-4.63808E+00-1.13729E+00 9.43154E-03 2.48376E-03
 -1     21925-1.37901E+01-6.79300E+00-6.79474E+00-1.12842E+00 1.88181E-02 5.04704E-03
 -1     21926-1.97794E+01-9.74258E+00-9.74350E+00-5.49501E-01 9.32122E-02-9.44646E-03
 -1     21927-3.27150E+01-1.60362E+01-1.58796E+01 1.93425E+00 2.95925E-01-2.79138E-01
 -1     21928 6.35796E+00 6.09658E+00 4.12344E+00 6.30538E+00-3.08087E-03 1.36362E-02
 -1     21929 6.08425E+00 5.96473E+00 3.92841E+00 6.10462E+00 1.65698E-02 5.93718E-02
 -1     21930 5.57098E+00 5.92365E+00 3.80731E+00 6.09559E+00-1.19616E-02 6.33292E-02
 -1     21931 5.85448E+00 5.80492E+00 3.84487E+00 6.03206E+00-6.85615E-02-1.62393E-01
 -1     21932 5.90339E+00 5.82649E+00 3.83842E+00 5.97788E+00 1.17611E-02-2.45007E-02
 -1     21933 8.39040E+00 6.71808E+00 4.89960E+00 7.11440E+00 3.54037E-02 5.52832E-03
 -1     21934 8.29686E+00 6.94681E+00 5.07948E+00 7.48314E+00-3.08515E-02-4.31063E-02
 -1     21935 1.11931E+01 9.42958E+00 6.80428E+00 1.02449E+01 6.01707E-03-6.77892E-04
 -1     21936 1.06196E+01 8.94829E+00 6.46630E+00 9.73207E+00 3.29470E-04 4.38634E-03
 -1     21937 1.25630E+01 1.05515E+01 7.63887E+00 1.15133E+01 8.90204E-04 1.27121E-03
 -1     21938 1.22898E+01 1.03169E+01 7.47023E+00 1.12481E+01 6.99862E-03 4.23890E-03
 -1     21939 1.33003E+01 1.11756E+01 8.07483E+00 1.21865E+01-1.45392E-03 5.54224E-04
 -1     21940 1.31397E+01 1.10435E+01 7.97714E+00 1.20445E+01-3.01238E-03-1.06074E-04
 -1     21941 1.37065E+01 1.15112E+01 8.32496E+00 1.25585E+01-9.37694E-04 1.53992E-04
 -1     21942 1.36452E+01 1.14578E+01 8.28586E+00 1.25001E+01 9.48065E-04-3.27631E-04
 -1     21943 1.38320E+01 1.16182E+01 8.39834E+00 1.26742E+01 6.27811E-04-2.33688E-05
 -1     21944 1.38231E+01 1.16116E+01 8.39270E+00 1.26670E+01 7.04496E-04-1.05986E-03
 -1     21945 1.37425E+01 1.15457E+01 8.34615E+00 1.25957E+01-1.38458E-03 4.37632E-04
 -1     21946 1.37820E+01 1.15774E+01 8.36912E+00 1.26319E+01 5.24181E-04 1.67003E-04
 -1     21947 1.34248E+01 1.12746E+01 8.14998E+00 1.22989E+01 1.33719E-03 1.65641E-03
 -1     21948 1.35301E+01 1.13552E+01 8.21324E+00 1.23848E+01 2.43912E-03 1.79036E-03
 -1     21949 1.28027E+01 1.07410E+01 7.76997E+00 1.17210E+01-2.33950E-03-3.99910E-03
 -1     21950 1.29931E+01 1.08984E+01 7.88643E+00 1.18962E+01-2.06649E-03-5.20921E-03
 -1     21951 1.18604E+01 9.94323E+00 7.19415E+00 1.08539E+01-3.08639E-03-4.36219E-03
 -1     21952 1.21296E+01 1.01677E+01 7.35897E+00 1.11018E+01-2.78519E-03-6.19115E-03
 -1     21953 1.06200E+01 8.90017E+00 6.44149E+00 9.71721E+00-3.03146E-04-2.70480E-03
 -1     21954 1.09499E+01 9.17440E+00 6.64026E+00 1.00238E+01-2.17432E-03-5.32306E-03
 -1     21955 9.16187E+00 7.68680E+00 5.55898E+00 8.39769E+00 3.56764E-07 4.14173E-03
 -1     21956 9.54249E+00 8.00633E+00 5.79186E+00 8.73671E+00 2.47482E-03-7.04238E-04
 -1     21957 7.68525E+00 6.45202E+00 4.66656E+00 7.05367E+00 4.98202E-04 4.35323E-03
 -1     21958 8.04886E+00 6.75164E+00 4.88477E+00 7.37186E+00 4.63415E-03 9.51297E-04
 -1     21959 6.34728E+00 5.32312E+00 3.85016E+00 5.82189E+00-1.98815E-03 2.85532E-03
 -1     21960 6.65709E+00 5.58357E+00 4.03827E+00 6.08905E+00 3.85133E-03-1.19618E-03
 -1     21961 5.42471E+00 4.56024E+00 3.29485E+00 4.97907E+00 3.96693E-04-2.78670E-03
 -1     21962 5.62717E+00 4.71162E+00 3.41164E+00 5.15376E+00 3.46989E-05-1.58229E-03
 -1     21963 4.85692E+00 4.11247E+00 2.96018E+00 4.46375E+00 8.36129E-03 3.62543E-03
 -1     21964 4.97895E+00 4.23201E+00 3.03975E+00 4.57749E+00 6.86295E-03 2.22148E-03
 -1     21965 3.99783E+00 3.22080E+00 2.38580E+00 3.58525E+00 1.28601E-02 1.07523E-03
 -1     21966 3.93330E+00 3.05121E+00 2.29376E+00 3.51273E+00-4.44860E-03-3.07840E-04
 -1     21967 3.93810E+00 3.07170E+00 2.30697E+00 3.50051E+00-2.63200E-03-6.90821E-03
 -1     21968 3.97721E+00 3.24484E+00 2.38402E+00 3.59238E+00-1.32963E-02 4.41079E-03
 -1     21969 4.73754E+00 4.00353E+00 2.88830E+00 4.33085E+00-1.67946E-03-3.29758E-03
 -1     21970 4.55178E+00 3.82860E+00 2.76364E+00 4.19480E+00-6.74192E-03 9.78022E-03
 -1     21971 4.98075E+00 4.22848E+00 3.03817E+00 4.57662E+00-7.64868E-03-1.14556E-03
 -1     21972 4.86020E+00 4.12373E+00 2.96532E+00 4.46744E+00-1.20809E-02-3.41591E-03
 -1     21973 5.65824E+00 4.73872E+00 3.43110E+00 5.18344E+00-7.29270E-04 1.19112E-03
 -1     21974 5.45361E+00 4.58105E+00 3.31221E+00 5.00859E+00-9.16119E-04 3.33719E-03
 -1     21975 6.64256E+00 5.57065E+00 4.02901E+00 6.08273E+00-2.43222E-03-1.08117E-03
 -1     21976 6.35254E+00 5.33411E+00 3.85607E+00 5.82553E+00 1.08937E-03-1.20717E-03
 -1     21977 7.93487E+00 6.65378E+00 4.81249E+00 7.26378E+00-2.76408E-03-1.33332E-03
 -1     21978 7.57500E+00 6.36203E+00 4.59829E+00 6.94173E+00 2.50445E-03-1.12158E-03
 -1     21979 9.41947E+00 7.86847E+00 5.70929E+00 8.61410E+00 2.22419E-03 6.86448E-04
 -1     21980 9.07239E+00 7.56618E+00 5.49265E+00 8.28818E+00 6.51105E-03 3.77640E-03
 -1     21981 1.08284E+01 9.09505E+00 6.57336E+00 9.92102E+00-1.05664E-03 2.14301E-03
 -1     21982 1.04946E+01 8.79833E+00 6.36438E+00 9.61454E+00 1.78885E-03-2.29554E-03
 -1     21983 1.20279E+01 1.01067E+01 7.30429E+00 1.10218E+01-4.14696E-04 2.24357E-03
 -1     21984 1.17647E+01 9.86538E+00 7.13656E+00 1.07769E+01 2.28453E-04-3.31639E-03
 -1     21985 1.29226E+01 1.08589E+01 7.84666E+00 1.18424E+01-9.25364E-04 1.96974E-03
 -1     21986 1.27365E+01 1.06862E+01 7.72743E+00 1.16693E+01 1.12999E-04-3.27447E-03
 -1     21987 1.34911E+01 1.13429E+01 8.19805E+00 1.23616E+01-5.08106E-03 1.33586E-03
 -1     21988 1.33663E+01 1.12380E+01 8.11888E+00 1.22471E+01-3.32136E-03 1.69522E-03
 -1     21989 1.37859E+01 1.15835E+01 8.37149E+00 1.26319E+01-3.42013E-03 1.70415E-03
 -1     21990 1.37409E+01 1.15433E+01 8.34347E+00 1.25916E+01-2.77014E-03-8.97973E-04
 -1     21991 1.38202E+01 1.15980E+01 8.39068E+00 1.26596E+01 8.13246E-04 4.12109E-03
 -1     21992 1.38360E+01 1.16182E+01 8.40093E+00 1.26759E+01 1.54747E-04 1.84540E-03
 -1     21993 1.36245E+01 1.14368E+01 8.27318E+00 1.24644E+01-3.52261E-03-2.79339E-03
 -1     21994 1.36864E+01 1.15056E+01 8.31506E+00 1.25464E+01-6.61355E-04-1.97404E-03
 -1     21995 1.31832E+01 1.10783E+01 8.00004E+00 1.20869E+01 1.25171E-03-6.07603E-04
 -1     21996 1.33322E+01 1.12063E+01 8.09732E+00 1.22202E+01 1.09421E-03 1.42605E-03
 -1     21997 1.22776E+01 1.03436E+01 7.46178E+00 1.12615E+01 4.92992E-03-1.12282E-04
 -1     21998 1.25780E+01 1.05388E+01 7.62912E+00 1.15098E+01-2.30771E-03-6.53151E-03
 -1     21999 1.04912E+01 8.81996E+00 6.36777E+00 9.62042E+00 2.29173E-04-5.58917E-03
 -1     22000 1.10573E+01 9.29566E+00 6.70933E+00 1.01362E+01-2.30831E-03-2.50457E-03
 -1     22001 8.77938E+00 6.96067E+00 5.20950E+00 7.48333E+00 2.20990E-02-1.22366E-02
 -1     22002 4.44799E+00 3.85155E+00 2.73836E+00 4.11868E+00-8.84869E-03-2.48097E-03
 -1     22003 4.44168E+00 3.89090E+00 2.74721E+00 4.10457E+00 7.91456E-03 6.09897E-03
 -1     22004 1.16348E+01 9.81860E+00 7.07643E+00 1.06689E+01 6.12792E-03-9.60074E-04
 -1     22005 1.14653E+01 9.69921E+00 6.98739E+00 1.05296E+01 5.19015E-03-5.34212E-03
 -1     22006 1.20116E+01 1.00998E+01 7.29242E+00 1.10125E+01 9.02582E-03 8.04175E-03
 -1     22007 1.27717E+01 1.07167E+01 7.75727E+00 1.16973E+01-1.19953E-03-3.97916E-03
 -1     22008 1.26810E+01 1.06233E+01 7.69304E+00 1.15757E+01 1.96511E-03 9.33726E-04
 -1     22009 1.29683E+01 1.08935E+01 7.87467E+00 1.18923E+01-4.26895E-03-4.35559E-04
 -1     22010 9.97591E+00 8.31569E+00 6.05026E+00 9.11893E+00 8.28856E-03 3.14439E-03
 -1     22011 9.19140E+00 7.69077E+00 5.57672E+00 8.36755E+00-4.79045E-03 3.76606E-03
 -1     22012 1.21582E+01 1.02430E+01 7.39446E+00 1.11394E+01-6.03599E-03-6.20029E-03
 -1     22013 1.30275E+01 1.09583E+01 7.91597E+00 1.19457E+01-1.50039E-03-2.88126E-03
 -1     22014 8.95587E+00 7.44960E+00 5.40388E+00 8.12150E+00-1.20714E-02-3.38246E-02
 -1     22015 1.35374E+01 1.13765E+01 8.22494E+00 1.24051E+01-5.14747E-04 5.37079E-04
 -1     22016 1.34467E+01 1.12921E+01 8.16536E+00 1.23147E+01 3.12018E-03 7.71778E-04
 -1     22017 1.37982E+01 1.15871E+01 8.38071E+00 1.26422E+01-2.76029E-04-7.60792E-04
 -1     22018 1.37652E+01 1.15572E+01 8.35864E+00 1.26104E+01 1.60750E-03-2.03741E-04
 -1     22019 1.38160E+01 1.16041E+01 8.38876E+00 1.26605E+01 6.58461E-05 1.24390E-03
 -1     22020 1.38283E+01 1.16148E+01 8.39708E+00 1.26670E+01 9.79562E-04 9.66785E-04
 -1     22021 1.36246E+01 1.14376E+01 8.27186E+00 1.24729E+01 1.29637E-03 2.26428E-03
 -1     22022 1.36813E+01 1.14983E+01 8.31029E+00 1.25424E+01-5.56245E-04-9.64405E-04
 -1     22023 1.31446E+01 1.10328E+01 7.98586E+00 1.20410E+01-1.16482E-03 1.15772E-03
 -1     22024 1.33019E+01 1.11648E+01 8.07711E+00 1.21804E+01 4.73313E-03 6.16259E-04
 -1     22025 1.23623E+01 1.03654E+01 7.50464E+00 1.13183E+01-2.57574E-03 2.10741E-03
 -1     22026 1.26034E+01 1.05698E+01 7.64788E+00 1.15331E+01 4.58812E-03-1.22979E-03
 -1     22027 1.12582E+01 9.43844E+00 6.83417E+00 1.03080E+01-2.85863E-03 1.64063E-03
 -1     22028 1.15795E+01 9.70073E+00 7.02368E+00 1.05915E+01 4.13469E-03-1.54035E-03
 -1     22029 9.89539E+00 8.30588E+00 6.00647E+00 9.07095E+00-1.57007E-03 4.30081E-03
 -1     22030 1.02708E+01 8.60862E+00 6.23037E+00 9.40491E+00 1.12580E-03-1.96548E-03
 -1     22031 8.43547E+00 7.06199E+00 5.11073E+00 7.71732E+00-3.28247E-03-2.64784E-03
 -1     22032 8.79712E+00 7.36327E+00 5.33252E+00 8.04920E+00-5.18169E-03-4.78667E-03
 -1     22033 7.02787E+00 5.85354E+00 4.24794E+00 6.42163E+00-3.83702E-03-2.59353E-04
 -1     22034 7.35116E+00 6.13238E+00 4.44507E+00 6.71696E+00-4.80542E-03-6.16837E-03
 -1     22035 5.81794E+00 4.86708E+00 3.52614E+00 5.33332E+00-2.22060E-03 1.42457E-03
 -1     22036 6.06708E+00 5.08458E+00 3.67826E+00 5.55476E+00-7.25674E-04-1.35005E-03
 -1     22037 5.07100E+00 4.31732E+00 3.09897E+00 4.65361E+00-3.12723E-04 1.61204E-03
 -1     22038 5.12282E+00 4.32424E+00 3.11814E+00 4.71486E+00 2.40625E-04 3.37402E-03
 -1     22039 5.26804E+00 4.43861E+00 3.20373E+00 4.84411E+00 2.38450E-04 3.53057E-03
 -1     22040 5.13363E+00 4.31373E+00 3.11743E+00 4.70679E+00-5.03545E-04-4.15787E-04
 -1     22041 1.36009E+01 1.14135E+01 8.25496E+00 1.24428E+01 6.46018E-04 7.96207E-04
 -1     22042 4.57001E+00 3.83595E+00 2.77343E+00 4.18799E+00-3.54200E-03-1.06799E-02
 -1     22043 4.73289E+00 3.99504E+00 2.88376E+00 4.33054E+00-5.33692E-03 3.28895E-03
 -1     22044 4.46899E+00 3.82488E+00 2.73856E+00 4.16275E+00 1.16885E-02 6.68708E-03
 -1     22045 5.38198E+00 4.52762E+00 3.27011E+00 4.95806E+00-1.00513E-03-2.02503E-03
 -1     22046 5.27660E+00 4.43593E+00 3.20424E+00 4.85303E+00 7.92542E-04-2.31367E-03
 -1     22047 6.12319E+00 5.13129E+00 3.71337E+00 5.60761E+00-4.73905E-04 2.69216E-03
 -1     22048 5.87485E+00 4.92011E+00 3.56212E+00 5.38078E+00-6.38164E-04-2.80885E-05
 -1     22049 7.23901E+00 6.07156E+00 4.39434E+00 6.63149E+00-3.19007E-03 1.86800E-03
 -1     22050 6.91033E+00 5.79889E+00 4.19490E+00 6.33642E+00 3.92398E-04-9.22234E-04
 -1     22051 8.66761E+00 7.26942E+00 5.25891E+00 7.93446E+00-2.15970E-03 8.91615E-04
 -1     22052 8.29116E+00 6.96715E+00 5.03514E+00 7.60473E+00 2.46663E-03-2.17462E-03
 -1     22053 1.01425E+01 8.50825E+00 6.15369E+00 9.28523E+00-2.20851E-03 1.30229E-03
 -1     22054 9.79286E+00 8.19875E+00 5.93670E+00 8.96129E+00-1.07843E-03-4.66751E-03
 -1     22055 1.14680E+01 9.61458E+00 6.96052E+00 1.04961E+01-3.02728E-03-9.89309E-04
 -1     22056 1.11544E+01 9.36321E+00 6.77313E+00 1.02139E+01 3.87454E-03 1.08732E-03
 -1     22057 1.25186E+01 1.05012E+01 7.60058E+00 1.14589E+01-3.78709E-03-1.64249E-03
 -1     22058 1.22777E+01 1.03154E+01 7.46002E+00 1.12446E+01 3.79859E-03 1.69601E-03
 -1     22059 1.32479E+01 1.11271E+01 8.04677E+00 1.21323E+01 1.17281E-03 2.31297E-03
 -1     22060 1.30954E+01 1.09970E+01 7.95365E+00 1.19900E+01 3.96241E-03 3.63410E-03
 -1     22061 1.36684E+01 1.14822E+01 8.30150E+00 1.25281E+01-3.16384E-04 1.98933E-04
 -1     22062 1.35976E+01 1.14171E+01 8.25746E+00 1.24582E+01 5.61330E-04-1.85637E-03
 -1     22063 1.38301E+01 1.16169E+01 8.39893E+00 1.26750E+01-4.41394E-04 3.10568E-04
 -1     22064 1.38171E+01 1.16051E+01 8.38995E+00 1.26621E+01 8.34913E-04-1.00945E-03
 -1     22065 1.37585E+01 1.15494E+01 8.34850E+00 1.25979E+01-9.97470E-04 2.25815E-03
 -1     22066 1.37960E+01 1.15751E+01 8.37232E+00 1.26314E+01-1.10154E-03 4.79784E-04
 -1     22067 1.34458E+01 1.12912E+01 8.16198E+00 1.23157E+01-8.90666E-04 4.40601E-04
 -1     22068 1.35466E+01 1.13643E+01 8.22255E+00 1.24105E+01-4.08728E-04-3.43429E-03
 -1     22069 1.28627E+01 1.07790E+01 7.80496E+00 1.17399E+01-1.42220E-02-8.66926E-03
 -1     22070 1.30158E+01 1.09293E+01 7.89555E+00 1.19223E+01-5.71372E-03-7.40685E-03
 -1     22071 1.15094E+01 9.70528E+00 6.99285E+00 1.05523E+01 4.71393E-04 2.69899E-04
 -1     22072 1.18833E+01 1.00448E+01 7.23650E+00 1.08866E+01 3.12085E-03 9.83455E-03
 -1     22073 9.10197E+00 7.63701E+00 5.52300E+00 8.33852E+00-1.31631E-02 9.32807E-04
 -1     22074 9.91954E+00 8.33100E+00 6.02340E+00 9.08805E+00 8.79607E-04-1.35958E-02
 -1     22075 1.31109E+01 1.09996E+01 7.95428E+00 1.19810E+01-3.94283E-04 2.64259E-03
 -1     22076 1.33759E+01 1.12319E+01 8.12423E+00 1.22450E+01 9.53097E-04-1.31503E-03
 -1     22077 1.37438E+01 1.15479E+01 8.34979E+00 1.25914E+01 3.87367E-05-7.65730E-04
 -1     22078 1.38356E+01 1.16189E+01 8.40098E+00 1.26706E+01 6.34968E-04 5.02972E-04
 -1     22079 1.37201E+01 1.15257E+01 8.33244E+00 1.25718E+01 1.25045E-03 2.21213E-04
 -1     22080 1.33881E+01 1.12407E+01 8.13234E+00 1.22585E+01 5.05672E-03-1.13869E-03
 -1     22081 1.27518E+01 1.06953E+01 7.73912E+00 1.16636E+01 5.38300E-03 7.90765E-04
 -1     22082 1.17835E+01 9.87157E+00 7.14724E+00 1.07713E+01 5.34598E-03 1.08964E-03
 -1     22083 1.05151E+01 8.79949E+00 6.37560E+00 9.61552E+00 1.37483E-04 2.62598E-03
 -1     22084 9.02351E+00 7.56315E+00 5.47083E+00 8.26938E+00-7.15013E-03-1.62390E-03
 -1     22085 7.54933E+00 6.33405E+00 4.58450E+00 6.91963E+00 2.71919E-04-1.08744E-03
 -1     22086 6.18215E+00 5.20364E+00 3.75786E+00 5.67909E+00-1.13846E-05 1.70688E-04
 -1     22087 4.79553E+00 4.07625E+00 2.92070E+00 4.36525E+00-1.50964E-02 3.53623E-04
 -1     22088 5.79845E+00 4.86460E+00 3.51810E+00 5.31385E+00 3.22378E-04 1.02439E-03
 -1     22089 6.75262E+00 5.66047E+00 4.09872E+00 6.19145E+00-2.12982E-04 5.41290E-04
 -1     22090 8.04374E+00 6.75715E+00 4.88171E+00 7.38311E+00-2.59495E-04 3.54036E-04
 -1     22091 9.53851E+00 7.96637E+00 5.77413E+00 8.72300E+00-7.52696E-04-2.60507E-03
 -1     22092 1.09346E+01 9.19329E+00 6.64180E+00 1.00216E+01 1.54859E-03 4.27384E-03
 -1     22093 1.21072E+01 1.01855E+01 7.35803E+00 1.10994E+01 2.04076E-03 3.34281E-03
 -1     22094 1.29766E+01 1.09181E+01 7.88662E+00 1.18978E+01 1.74238E-03 2.72865E-03
 -1     22095 1.35502E+01 1.13651E+01 8.21882E+00 1.23976E+01-6.70014E-04-1.02698E-03
 -1     22096 1.38151E+01 1.15866E+01 8.38179E+00 1.26489E+01-2.75919E-03-6.99089E-04
 -1     22097 1.38257E+01 1.15929E+01 8.38323E+00 1.26315E+01 6.18619E-03-1.19728E-03
 -1     22098 1.35795E+01 1.13886E+01 8.23535E+00 1.24370E+01-8.09407E-04-3.67985E-04
 -1     22099 1.30911E+01 1.10239E+01 7.96225E+00 1.20112E+01-3.04591E-03 4.87931E-03
 -1     22100 1.20468E+01 1.01989E+01 7.33948E+00 1.10680E+01-2.91348E-03 3.69383E-04
 -1     22101 1.02051E+01 8.57936E+00 6.19644E+00 9.32691E+00-5.71944E-03 1.59703E-03
 -1     22102 1.23087E+01 1.03114E+01 7.46079E+00 1.12313E+01-1.04884E-04 5.41334E-03
 -1     22103 1.11778E+01 9.34736E+00 6.77080E+00 1.02028E+01 2.06202E-03 7.45349E-03
 -1     22104 9.76993E+00 8.20522E+00 5.93077E+00 8.95906E+00 3.49491E-05 1.15218E-03
 -1     22105 8.31858E+00 6.95757E+00 5.04276E+00 7.60841E+00 3.39262E-03 3.44551E-03
 -1     22106 6.86922E+00 5.74009E+00 4.15918E+00 6.28467E+00 1.54965E-03 2.88936E-03
 -1     22107 5.70923E+00 4.78492E+00 3.46184E+00 5.23869E+00-2.18587E-03 3.43544E-04
 -1     22108 1.25943E+01 1.05511E+01 7.64022E+00 1.15307E+01-1.10872E-03-2.58937E-03
 -1     22109 1.32929E+01 1.11781E+01 8.07425E+00 1.21628E+01-2.60963E-04 1.39350E-03
 -1     22110 1.37010E+01 1.15186E+01 8.32022E+00 1.25499E+01 4.79961E-04 3.96718E-03
 -1     22111 1.38427E+01 1.16252E+01 8.40392E+00 1.26755E+01 8.56005E-04 3.47522E-03
 -1     22112 1.37288E+01 1.15313E+01 8.33546E+00 1.25527E+01 5.00715E-04-3.35236E-03
 -1     22113 1.33992E+01 1.12630E+01 8.13828E+00 1.22767E+01 1.18312E-03 2.31189E-03
 -1     22114 1.27663E+01 1.06798E+01 7.72353E+00 1.16481E+01 1.46507E-03-1.23461E-03
 -1     22115 1.12425E+01 9.43245E+00 6.82259E+00 1.02948E+01-4.03077E-03 1.76165E-03
 -1     22116 8.86759E+00 7.51793E+00 5.44348E+00 8.15028E+00 2.54802E-04-1.35608E-02
 -1     22117 1.04506E+01 8.71858E+00 6.33592E+00 9.50745E+00-8.57217E-03-7.36574E-04
 -1     22118 1.37973E+01 1.15906E+01 8.37896E+00 1.26422E+01-1.89808E-04-1.44995E-03
 -1     22119 1.38116E+01 1.16096E+01 8.39214E+00 1.26594E+01-1.12872E-03-3.05206E-03
 -1     22120 1.35937E+01 1.14298E+01 8.25962E+00 1.24572E+01 7.50681E-04 4.96492E-04
 -1     22121 1.15675E+01 9.68780E+00 7.01645E+00 1.05905E+01-3.31828E-04-1.79498E-03
 -1     22122 1.02549E+01 8.60127E+00 6.22188E+00 9.39757E+00-1.43517E-03 8.57441E-04
 -1     22123 6.25424E+00 5.24539E+00 3.79545E+00 5.73505E+00 1.53641E-03 7.53503E-04
 -1     22124 8.80633E+00 7.38226E+00 5.34721E+00 8.06169E+00 2.27822E-03 5.10910E-03
 -1     22125 7.35808E+00 6.17914E+00 4.46735E+00 6.73632E+00 1.33798E-03-1.71000E-03
 -1     22126 8.89107E+00 7.56190E+00 5.42715E+00 8.17417E+00-2.74230E-03-2.18222E-03
 -1     22127 1.37702E+01 1.15637E+01 8.36164E+00 1.26165E+01 2.69629E-03 7.78015E-05
 -1     22128 1.38073E+01 1.15794E+01 8.37852E+00 1.26419E+01 1.98889E-03 6.11272E-04
 -1     22129 1.24472E+01 1.04572E+01 7.55015E+00 1.13986E+01 1.44099E-03 4.67929E-04
 -1     22130 1.21407E+01 1.02598E+01 7.39184E+00 1.11557E+01-3.19409E-03-1.32285E-04
 -1     22131 1.26787E+01 1.06073E+01 7.68007E+00 1.15862E+01 1.80443E-03 5.35051E-03
 -1     22132 1.16694E+01 9.77763E+00 7.07739E+00 1.06870E+01 9.83091E-04 2.63753E-03
 -1     22133 1.13860E+01 9.51864E+00 6.89299E+00 1.04019E+01 3.13411E-03-3.86138E-03
 -1     22134 1.38342E+01 1.16050E+01 8.39360E+00 1.26678E+01-1.30412E-03 1.57803E-03
 -1     22135 1.38378E+01 1.16235E+01 8.40174E+00 1.26761E+01-9.15485E-04-1.57948E-03
 -1     22136 1.36742E+01 1.14837E+01 8.29700E+00 1.25150E+01 2.38976E-03-8.44750E-04
 -1     22137 1.35791E+01 1.14070E+01 8.24239E+00 1.24278E+01 1.52419E-03 1.17742E-03
 -1     22138 1.37089E+01 1.15335E+01 8.33018E+00 1.25663E+01-9.22908E-04-1.61105E-03
 -1     22139 1.38266E+01 1.16227E+01 8.39780E+00 1.26702E+01-1.20368E-03-3.74271E-03
 -1     22140 1.38189E+01 1.16010E+01 8.38663E+00 1.26419E+01-1.34746E-03-1.65966E-03
 -1     22141 1.33300E+01 1.12120E+01 8.09840E+00 1.22048E+01 2.94007E-04-3.37393E-03
 -1     22142 1.32034E+01 1.10894E+01 8.00868E+00 1.20829E+01-3.85030E-03-3.02061E-03
 -1     22143 5.97161E+00 5.00024E+00 3.62218E+00 5.48100E+00-4.47302E-05 2.03860E-03
 -1     22144 5.74086E+00 4.81058E+00 3.48270E+00 5.26655E+00-1.59662E-03 9.96677E-04
 -1     22145 1.26692E+01 1.06223E+01 7.68588E+00 1.16042E+01-4.06888E-04 1.98188E-03
 -1     22146 1.28741E+01 1.08055E+01 7.81467E+00 1.17934E+01 5.98516E-04 1.48838E-03
 -1     22147 1.34095E+01 1.12635E+01 8.14154E+00 1.22756E+01-7.37093E-04 3.77625E-04
 -1     22148 1.32569E+01 1.11468E+01 8.05688E+00 1.21416E+01-3.73138E-04-9.85100E-04
 -1     22149 1.19565E+01 1.00322E+01 7.25737E+00 1.09501E+01 7.06753E-04 2.80006E-03
 -1     22150 1.10645E+01 9.24988E+00 6.70359E+00 1.01065E+01-2.82818E-03 2.21893E-03
 -1     22151 1.03789E+01 8.70467E+00 6.29704E+00 9.50840E+00-2.04347E-03 1.69989E-03
 -1     22152 1.07316E+01 9.00263E+00 6.51477E+00 9.82473E+00 4.14139E-03 4.34862E-03
 -1     22153 9.65784E+00 8.10929E+00 5.86174E+00 8.84850E+00-1.82224E-03 1.57458E-03
 -1     22154 9.28506E+00 7.76866E+00 5.62405E+00 8.49798E+00-3.85547E-03-4.97338E-03
 -1     22155 8.95395E+00 7.43968E+00 5.40927E+00 8.16302E+00-2.40562E-03 4.72632E-03
 -1     22156 8.16188E+00 6.85965E+00 4.96075E+00 7.49263E+00 1.48912E-03 2.57854E-03
 -1     22157 8.56476E+00 7.16873E+00 5.19440E+00 7.83161E+00 2.89467E-03 5.12274E-03
 -1     22158 7.43756E+00 6.24366E+00 4.51516E+00 6.81953E+00 3.31535E-03 3.30321E-03
 -1     22159 7.12844E+00 5.98092E+00 4.32982E+00 6.52202E+00 6.70000E-03 4.74815E-03
 -1     22160 6.75837E+00 5.67042E+00 4.10353E+00 6.19566E+00-5.31955E-04 1.94203E-03
 -1     22161 6.24971E+00 5.24947E+00 3.79550E+00 5.73424E+00 3.26003E-04 3.05267E-04
 -1     22162 5.55652E+00 4.66544E+00 3.37263E+00 5.09367E+00-7.83982E-04-1.60736E-03
 -1     22163 1.24569E+01 1.04308E+01 7.54715E+00 1.13835E+01 1.22035E-03-2.60256E-03
 -1     22164 5.36037E+00 4.51139E+00 3.25570E+00 4.92902E+00 1.38546E-04 3.22195E-03
 -1     22165 1.30496E+01 1.09430E+01 7.91344E+00 1.19325E+01-3.43471E-03-2.24913E-03
 -1     22166 4.50797E+00 3.86313E+00 2.75544E+00 4.16383E+00-1.21811E-02-4.46117E-03
 -1     22167 4.64788E+00 3.98782E+00 2.84663E+00 4.24060E+00 7.15060E-03 2.49400E-04
 -1     22168 1.17308E+01 9.95034E+00 7.16907E+00 1.07930E+01-3.40975E-03-4.91074E-03
 -1     22169 1.13885E+01 9.59756E+00 6.93495E+00 1.04035E+01 4.77931E-03 4.34233E-03
 -1     22170 1.30530E+01 1.09764E+01 7.93659E+00 1.19772E+01 5.81581E-03 4.44979E-03
 -1     22171 4.80685E+00 4.08825E+00 2.93211E+00 4.37463E+00 1.77922E-02-2.58705E-03
 -1     22172 1.37856E+01 1.15747E+01 8.36897E+00 1.26135E+01 8.09641E-04-3.38062E-03
 -1     22173 1.37346E+01 1.15337E+01 8.33877E+00 1.25690E+01 2.03882E-03-7.83771E-04
 -1     22174 9.67643E+00 8.11377E+00 5.86565E+00 8.83075E+00 9.82161E-04 9.62472E-04
 -1     22175 1.22132E+01 1.02294E+01 7.40321E+00 1.11568E+01-2.88253E-03-8.23966E-06
 -1     22176 1.34695E+01 1.12996E+01 8.17543E+00 1.23239E+01 8.51213E-03 3.76341E-04
 -1     22177 1.35767E+01 1.13848E+01 8.23408E+00 1.24226E+01-2.05818E-03 2.12391E-03
 -1     22178 1.36503E+01 1.14664E+01 8.28487E+00 1.25087E+01-1.46240E-03-9.92322E-04
 -1     22179 1.08948E+01 9.13701E+00 6.61434E+00 9.96653E+00-1.30756E-03 2.36942E-03
 -1     22180 1.02347E+01 8.61955E+00 6.21960E+00 9.38346E+00-5.49925E-03-5.27388E-03
 -1     22181 1.29401E+01 1.08217E+01 7.84415E+00 1.18121E+01 1.46526E-02 6.01089E-03
 -1     22182 6.49957E+00 5.45054E+00 3.94445E+00 5.95188E+00-8.70913E-04-1.66328E-03
 -1     22183 1.35081E+01 1.13350E+01 8.19462E+00 1.23693E+01-1.33493E-03 2.11284E-04
 -1     22184 1.00231E+01 8.40791E+00 6.08367E+00 9.18579E+00 2.13235E-03-3.48702E-03
 -1     22185 7.80808E+00 6.54841E+00 4.73562E+00 7.15172E+00 2.10197E-03-1.18886E-04
 -1     22186 1.14370E-01 1.21029E+01 3.99266E+00 6.10790E+00-2.89542E-01 1.56249E-01
 -1     22187 3.55616E-01 1.20039E+01 3.98004E+00 5.33509E+00 2.02656E-01 1.39512E-01
 -1     22188-5.95716E-01 1.04681E+01 3.37726E+00 4.59672E+00 9.05567E-02 4.70683E-02
 -1     22189-1.98891E-01 1.14600E+01 3.71713E+00 4.95473E+00-3.94244E-01-2.03515E-01
 -1     22190 8.74266E-02 1.14934E+01 3.73230E+00 4.74650E+00-5.61235E-02-1.18643E-02
 -1     22191 7.81389E-01 1.49183E+01 5.21914E+00 6.88551E+00 9.92106E-02-8.43010E-02
 -1     22192 6.24930E-01 1.46711E+01 5.04954E+00 6.99120E+00-6.14193E-02 2.04065E-01
 -1     22193-1.66104E-02 1.53322E+01 5.04026E+00 6.33274E+00 4.19344E-02 3.02220E-02
 -1     22194 1.31073E-01 1.54339E+01 5.12255E+00 6.42495E+00 7.94227E-02-1.59397E-02
 -1     22195 3.82237E-02 1.28593E+01 4.26397E+00 6.34861E+00 2.39097E-03 1.95569E-02
 -1     22196 6.63238E-02 1.37617E+01 4.56515E+00 6.34662E+00 7.41894E-03-1.79038E-02
 -1     22197-1.47612E-01 7.76268E+00 2.50080E+00 6.56093E+00 7.60293E-02 1.14050E-02
 -1     22198 4.67831E-02 9.57906E+00 3.18478E+00 6.52919E+00 4.73132E-02-3.42422E-02
 -1     22199-3.47998E-02 4.00916E+00 1.35090E+00 6.37223E+00-1.76670E-02 1.28795E-01
 -1     22200-3.42742E-01 6.22433E+00 1.91904E+00 6.81784E+00 2.92157E-02-5.89124E-02
 -1     22201-1.81798E-01 7.17414E+00 2.35120E+00 6.51152E+00-6.11639E-03 8.96978E-03
 -1     22202 3.37778E-02 3.79641E+00 1.28736E+00 6.26383E+00-1.25147E-02-2.76837E-02
 -1     22203 3.57912E-01 4.26245E+00 1.52398E+00 6.29618E+00-3.76165E-02-1.39020E-01
 -1     22204 3.88793E-02 4.49780E+00 1.52460E+00 6.25995E+00-4.54748E-02 4.49557E-02
 -1     22205 3.48048E-01 5.24106E+00 1.77843E+00 6.26887E+00-4.16055E-04 1.03282E-02
 -1     22206-3.22485E-01 6.40488E+00 2.05733E+00 6.70064E+00-2.74326E-02 7.50746E-02
 -1     22207-1.07513E-01 7.08502E+00 2.26104E+00 6.59960E+00-1.03573E-02-4.57267E-02
 -1     22208 2.83854E-02 8.97587E+00 2.93636E+00 6.34477E+00 1.66072E-02 1.30870E-02
 -1     22209 2.37468E-02 1.17925E+01 3.90794E+00 6.35235E+00-1.41677E-02 1.13746E-02
 -1     22210 3.74233E-03 1.05084E+01 3.48861E+00 6.35749E+00-5.49859E-03-3.00613E-02
 -1     22211 1.28021E-02 1.37117E+01 4.53387E+00 6.27758E+00 4.62449E-03 2.12301E-02
 -1     22212 1.11898E-02 1.29285E+01 4.26630E+00 6.33197E+00-1.33523E-02-8.97950E-03
 -1     22213 7.87074E-02 1.54672E+01 5.11835E+00 6.36099E+00-2.54144E-02 2.76066E-02
 -1     22214-9.17801E-02 1.50586E+01 4.93517E+00 6.33892E+00-1.47120E-02-4.43798E-02
 -1     22215 9.92746E-01 1.58021E+01 5.53333E+00 7.39249E+00-1.16241E-01-9.91102E-02
 -1     22216 7.27442E-03 1.49748E+01 4.94256E+00 6.31483E+00 5.17554E-03-2.09832E-02
 -1     22217-3.24059E-02 1.50873E+01 4.96132E+00 6.32225E+00 6.20300E-03-2.81135E-02
 -1     22218 1.38849E-02 1.43819E+01 4.74821E+00 6.33177E+00-7.39986E-03 1.01901E-02
 -1     22219 4.73759E-02 1.19994E+01 3.96843E+00 6.33986E+00 2.42809E-02-3.49335E-03
 -1     22220 7.55702E-02 1.23959E+01 4.11462E+00 6.28207E+00-2.03858E-02-2.59236E-03
 -1     22221-2.82684E-02 1.07514E+01 3.54668E+00 6.40762E+00 5.99993E-02 1.29405E-03
 -1     22222-1.18592E-01 1.56437E+01 5.09319E+00 6.62470E+00 1.22750E-01 2.62910E-02
 -1     22223 1.12321E-01 1.55431E+01 5.18697E+00 6.51017E+00 6.17147E-02-5.62831E-02
 -1     22224 7.79678E-02 1.40776E+01 4.67802E+00 6.31157E+00-3.00347E-03-5.08443E-03
 -1     22225-7.10294E-02 1.01946E+01 3.32687E+00 6.39310E+00-1.57050E-03 1.98102E-03
 -1     22226 2.88839E-01 1.55543E+01 5.16093E+00 6.33590E+00-4.81299E-02-3.06301E-02
 -1     22227 2.28851E-02 1.45066E+01 4.79704E+00 6.31672E+00-1.16465E-02-1.03122E-02
 -1     22228 1.01193E-01 9.43860E+00 3.13195E+00 6.44622E+00-1.15829E-02-2.29844E-02
 -1     22229-1.49961E-02 1.47752E+01 4.88074E+00 6.26888E+00-1.47859E-02-1.76327E-02
 -1     22230-4.61761E-03 1.57292E+01 5.14801E+00 6.44431E+00-3.29480E-02 6.88051E-02
 -1     22231 6.25253E-02 1.54161E+01 5.10814E+00 6.35007E+00-1.39519E-02-2.83545E-02
 -1     22232 1.62530E-01 1.55174E+01 5.17125E+00 6.44823E+00-7.77783E-02 6.99238E-02
 -1     22233-4.73558E-03 1.55261E+01 5.18562E+00 6.56628E+00-4.90386E-03-3.22216E-02
 -1     22234 2.15257E-01 1.55804E+01 5.23778E+00 6.42310E+00-3.54066E-02-3.59687E-02
 -1     22235 1.66213E-01 1.55964E+01 5.25638E+00 6.28939E+00 2.73379E-02-1.27212E-02
 -1     22236 6.85343E-02 1.58131E+01 5.24696E+00 6.68440E+00-1.42945E-02-4.39561E-02
 -1     22237 6.07133E-02 8.33952E+00 2.79511E+00 6.53754E+00-6.24404E-03-8.31426E-02
 -1     22238 1.10452E-01 1.54595E+01 5.14088E+00 6.48248E+00-3.34184E-02 3.50298E-02
 -1     22239 1.04786E-01 1.50210E+01 4.99761E+00 6.26720E+00-1.56218E-03 1.56759E-02
 -1     22240 3.56631E-02 1.21801E+01 4.03442E+00 6.35006E+00-1.88884E-04 2.58518E-03
 -1     22241 3.52888E-04 1.12365E+01 3.69126E+00 6.37987E+00-5.32366E-03-8.05309E-03
 -1     22242-4.30372E-02 1.54073E+01 5.10712E+00 6.40593E+00-1.69675E-02-2.54227E-02
 -1     22243 3.92421E-03 9.99569E+00 3.28883E+00 6.46751E+00-2.55759E-03 3.54525E-02
 -1     22244-3.82928E+01-3.62433E+00-1.37943E+01-1.01794E+01 1.63151E-01-5.36971E-02
 -1     22245-4.40383E+01-2.24794E+00-1.53233E+01-7.81512E+00-6.54845E-02-6.71328E-01
 -1     22246-4.34665E+01-3.23765E+00-1.55431E+01-7.07870E+00 2.71754E-01 1.65640E-01
 -1     22247-4.10778E+01-2.55233E+00-1.45616E+01-1.01490E+01-2.77343E-02 4.17185E-01
 -1     22248-4.53960E+01-3.87351E+00-1.56053E+01-8.01357E+00-1.40341E-01 1.86304E-01
 -1     22249-2.53368E+01-1.56945E+00-9.22637E+00-1.08496E+01-4.67456E-01-1.20055E-01
 -1     22250-2.67556E+01-2.87682E+00-9.44969E+00-1.10323E+01 1.76525E-01-3.67889E-01
 -1     22251-2.20670E+01-2.42031E+00-8.09297E+00-7.39843E+00-5.37611E-03-2.85918E-02
 -1     22252-2.27989E+01-2.44252E+00-8.32702E+00-7.68610E+00-1.47858E-02-2.52280E-02
 -1     22253-2.03727E+01-2.26261E+00-7.47979E+00-6.80008E+00-4.27626E-03 7.57268E-03
 -1     22254-2.07203E+01-2.31640E+00-7.60760E+00-6.89802E+00-2.60592E-03 1.58094E-02
 -1     22255-1.96229E+01-2.17763E+00-7.18918E+00-6.54621E+00-1.03452E-03 1.06677E-02
 -1     22256-1.97674E+01-2.20232E+00-7.25132E+00-6.59619E+00 1.52263E-04 9.10400E-03
 -1     22257-1.91895E+01-2.13710E+00-7.04062E+00-6.40580E+00 1.20025E-03-1.04636E-03
 -1     22258-1.92819E+01-2.14579E+00-7.07248E+00-6.43246E+00-4.63082E-04 1.89444E-03
 -1     22259-1.88514E+01-2.10891E+00-6.91603E+00-6.29502E+00-7.62306E-04-3.15857E-03
 -1     22260-1.89516E+01-2.11211E+00-6.95031E+00-6.32441E+00-1.82576E-03-2.20120E-03
 -1     22261-1.83623E+01-2.06124E+00-6.74017E+00-6.12865E+00-1.65202E-03-4.47806E-03
 -1     22262-1.85427E+01-2.08281E+00-6.80493E+00-6.18789E+00-2.62677E-04-3.19214E-03
 -1     22263-1.76193E+01-1.96400E+00-6.46105E+00-5.87994E+00-7.88536E-04-2.01625E-03
 -1     22264-1.78542E+01-1.99286E+00-6.55144E+00-5.95552E+00-7.66726E-05-2.49379E-04
 -1     22265-1.63538E+01-1.81786E+00-5.99931E+00-5.44428E+00-1.25261E-04 1.39923E-04
 -1     22266-1.67233E+01-1.85847E+00-6.13469E+00-5.56634E+00 1.31266E-05 2.17571E-03
 -1     22267-1.45241E+01-1.61434E+00-5.32655E+00-4.83931E+00 1.75944E-04-4.83709E-04
 -1     22268-1.50315E+01-1.67169E+00-5.51089E+00-5.01415E+00-1.01886E-03-5.47742E-04
 -1     22269-1.23436E+01-1.37728E+00-4.53171E+00-4.12238E+00 8.60342E-04 1.48813E-05
 -1     22270-1.28975E+01-1.44030E+00-4.73554E+00-4.30573E+00 2.24232E-03 3.87833E-03
 -1     22271-1.05124E+01-1.18961E+00-3.86096E+00-3.54920E+00 4.49979E-03-7.93906E-03
 -1     22272-1.08061E+01-1.19214E+00-3.95856E+00-3.61203E+00-4.50109E-03 8.97465E-04
 -1     22273-9.56634E+00-1.61035E+00-3.77561E+00-3.55670E+00-2.06473E-02-9.94286E-02
 -1     22274-9.96427E+00-1.32317E+00-3.72190E+00-3.56516E+00-2.90178E-02 1.14107E-02
 -1     22275-7.77082E+00 4.19926E-02-2.43342E+00-1.83011E+00 2.56987E-01 2.52025E-01
 -1     22276-1.00859E+01-2.14896E+00-4.02810E+00-4.10488E+00-2.09147E-01-7.95825E-02
 -1     22277-9.28666E+00-1.43132E+00-3.51341E+00-3.89639E+00 7.54030E-03-1.02374E-02
 -1     22278-6.92220E+00 3.76021E-01-2.19867E+00-1.32432E+00-7.20607E-02-4.09448E-02
 -1     22279-7.27674E+00-2.04474E-01-2.40811E+00-1.77597E+00-2.40504E-01-2.70335E-01
 -1     22280-7.42203E+00-4.83156E-01-2.76420E+00-1.83142E+00 3.34890E-02 1.11686E-01
 -1     22281-8.05432E+00-4.66532E-01-2.91337E+00-2.09254E+00-7.55460E-02 5.05275E-02
 -1     22282-1.04495E+01-2.08339E+00-4.15544E+00-4.27759E+00 2.78672E-01 1.00932E-01
 -1     22283-1.04880E+01-2.01503E+00-4.05773E+00-4.24062E+00-1.98994E-02 4.15057E-02
 -1     22284-9.89126E+00-1.23925E+00-3.64559E+00-3.62261E+00 1.33872E-01 4.43637E-02
 -1     22285-1.03430E+01-1.19343E+00-3.77684E+00-3.52288E+00 6.46324E-03-1.77086E-02
 -1     22286-9.94353E+00-1.44492E+00-3.74562E+00-3.60084E+00-3.92943E-02-2.54770E-02
 -1     22287-1.08043E+01-1.21775E+00-3.96800E+00-3.63088E+00 1.03735E-02 3.55889E-03
 -1     22288-1.04535E+01-1.17587E+00-3.83525E+00-3.48357E+00-3.95977E-03 1.64906E-02
 -1     22289-1.28097E+01-1.42157E+00-4.69437E+00-4.27224E+00 2.69856E-03 8.04153E-04
 -1     22290-1.22661E+01-1.36650E+00-4.49853E+00-4.09053E+00 5.07227E-05 3.16835E-03
 -1     22291-1.48700E+01-1.65440E+00-5.45407E+00-4.95721E+00 1.45698E-04-1.00648E-03
 -1     22292-1.43623E+01-1.59469E+00-5.26732E+00-4.78720E+00 2.70807E-04-1.87129E-03
 -1     22293-1.65975E+01-1.84439E+00-6.08949E+00-5.52812E+00-6.02168E-04 9.08603E-04
 -1     22294-1.62325E+01-1.80476E+00-5.95305E+00-5.40721E+00-9.83349E-04 4.39011E-04
 -1     22295-1.77863E+01-1.97981E+00-6.52512E+00-5.93064E+00-1.93765E-03 1.92822E-03
 -1     22296-1.75378E+01-1.95524E+00-6.43324E+00-5.84594E+00-5.07213E-03 1.17915E-03
 -1     22297-1.85302E+01-2.06427E+00-6.79692E+00-6.17961E+00-2.60505E-04 4.79013E-04
 -1     22298-1.83900E+01-2.05024E+00-6.74550E+00-6.13509E+00-3.90609E-03-8.04545E-04
 -1     22299-1.89688E+01-2.11127E+00-6.95691E+00-6.33123E+00 1.67786E-03-1.67007E-03
 -1     22300-1.88898E+01-2.10304E+00-6.92736E+00-6.30287E+00-1.27885E-03-3.07491E-04
 -1     22301-1.93013E+01-2.14604E+00-7.07650E+00-6.45480E+00 1.23122E-03 2.18619E-03
 -1     22302-1.92169E+01-2.14643E+00-7.05014E+00-6.41943E+00-6.13630E-05 1.78357E-03
 -1     22303-1.97666E+01-2.19786E+00-7.25376E+00-6.59427E+00 7.81784E-04 9.10048E-04
 -1     22304-1.96239E+01-2.18163E+00-7.19636E+00-6.54195E+00-3.06631E-04 1.99171E-03
 -1     22305-2.06766E+01-2.29479E+00-7.57850E+00-6.92395E+00-7.45654E-04-1.40580E-02
 -1     22306-2.03881E+01-2.25864E+00-7.47555E+00-6.82483E+00 1.80600E-03-9.01534E-03
 -1     22307-2.30630E+01-2.57843E+00-8.51591E+00-7.68554E+00 4.12256E-02-1.22261E-02
 -1     22308-2.22086E+01-2.44165E+00-8.16985E+00-7.45832E+00 1.64088E-02 1.16861E-02
 -1     22309-2.39631E+01-1.09820E+00-8.12337E+00-1.19951E+01 1.14525E-01 1.90694E-01
 -1     22310-2.14369E+01-2.36267E+00-7.83697E+00-7.15860E+00-2.74149E-03-1.02339E-02
 -1     22311-2.17287E+01-2.35878E+00-7.94543E+00-7.20968E+00 1.29781E-03-1.22025E-03
 -1     22312-2.10365E+01-2.33863E+00-7.69800E+00-7.01972E+00 5.18619E-03-7.40649E-03
 -1     22313-2.01666E+01-2.25458E+00-7.39950E+00-6.72198E+00-7.44759E-04 5.74424E-05
 -1     22314-2.02450E+01-2.23310E+00-7.42426E+00-6.76925E+00-4.17402E-03 3.25679E-03
 -1     22315-1.99632E+01-2.22316E+00-7.32368E+00-6.66496E+00 5.98409E-03 4.06413E-04
 -1     22316-2.35455E+01-2.61094E+00-8.57127E+00-8.33036E+00-5.18384E-02 6.43205E-02
 -1     22317-2.48110E+01-2.65314E+00-8.94278E+00-8.68605E+00-7.73949E-02 1.42495E-01
 -1     22318-2.08372E+01-2.27035E+00-7.62877E+00-6.98002E+00-3.18362E-03-3.24910E-03
 -1     22319-1.98907E+01-2.22984E+00-7.29569E+00-6.65277E+00-2.47267E-03 2.09552E-03
 -1     22320-2.61404E+01-2.52840E+00-9.47941E+00-9.35901E+00 3.60852E-02 3.56973E-02
 -1     22321-1.93709E+01-2.15480E+00-7.10228E+00-6.46539E+00 2.22537E-03 1.23250E-03
 -1     22322-1.94795E+01-2.16510E+00-7.13975E+00-6.49713E+00 5.45511E-04 1.83508E-03
 -1     22323-1.90278E+01-2.11905E+00-6.97848E+00-6.35058E+00 4.53216E-04 1.33419E-03
 -1     22324-1.91174E+01-2.13068E+00-7.01152E+00-6.38028E+00-1.23881E-04 1.99434E-04
 -1     22325-1.86460E+01-2.08270E+00-6.83981E+00-6.22675E+00-2.87490E-04-3.45423E-03
 -1     22326-1.87503E+01-2.09369E+00-6.87854E+00-6.26834E+00-2.76231E-03-3.57471E-03
 -1     22327-1.80614E+01-2.02648E+00-6.62895E+00-6.02617E+00-4.49744E-04 1.20797E-05
 -1     22328-1.82426E+01-2.04438E+00-6.69500E+00-6.09769E+00-5.20208E-03 1.15872E-03
 -1     22329-1.70585E+01-1.89253E+00-6.25447E+00-5.68190E+00 1.12198E-03 1.82370E-03
 -1     22330-1.73610E+01-1.93292E+00-6.36476E+00-5.79039E+00-9.07319E-04 5.62056E-04
 -1     22331-1.55171E+01-1.72472E+00-5.68966E+00-5.16958E+00 1.41199E-04-1.48939E-03
 -1     22332-1.59521E+01-1.77120E+00-5.84830E+00-5.30354E+00-8.27497E-04-3.53682E-03
 -1     22333-1.34570E+01-1.49454E+00-4.93271E+00-4.48811E+00 6.88169E-04 7.81765E-04
 -1     22334-1.40050E+01-1.55632E+00-5.13447E+00-4.66860E+00 9.60445E-04 5.79598E-04
 -1     22335-1.10550E+01-1.23750E+00-4.06016E+00-3.70145E+00-1.30528E-04-4.02290E-03
 -1     22336-1.13111E+01-1.26174E+00-4.15002E+00-3.78382E+00 2.32382E-03-4.65866E-03
 -1     22337-1.17725E+01-1.31449E+00-4.32107E+00-3.94368E+00-4.45005E-03 3.80783E-03
 -1     22338-1.13199E+01-1.26445E+00-4.14991E+00-3.78513E+00-3.17259E-03 1.34369E-03
 -1     22339-1.00771E+01-1.18375E+00-3.71974E+00-3.40346E+00 3.35865E-03-5.54859E-02
 -1     22340-1.02678E+01-1.11055E+00-3.75697E+00-3.45199E+00-1.93239E-02-1.58648E-02
 -1     22341-1.69514E+01-1.88589E+00-6.21673E+00-5.65193E+00 1.08761E-03-1.59372E-03
 -1     22342-1.67208E+01-1.86629E+00-6.13129E+00-5.56597E+00 2.59384E-03-6.09046E-04
 -1     22343-1.72535E+01-1.92337E+00-6.32671E+00-5.75518E+00 1.37801E-03-3.50593E-04
 -1     22344-1.03619E+01-1.10953E+00-3.80391E+00-3.44828E+00-5.99153E-03-8.68898E-03
 -1     22345-9.57374E+00-9.64391E-01-3.44828E+00-3.51165E+00 8.43110E-02-4.68108E-02
 -1     22346-1.32856E+01-1.47370E+00-4.87023E+00-4.42767E+00-5.45340E-04-5.31048E-03
 -1     22347-1.29957E+01-1.44141E+00-4.76038E+00-4.33740E+00-1.11846E-03-4.78691E-03
 -1     22348-1.38526E+01-1.54028E+00-5.08113E+00-4.61890E+00-3.46702E-03-3.43896E-03
 -1     22349-1.20577E+01-1.34600E+00-4.41925E+00-4.02137E+00 2.55668E-04-3.01954E-03
 -1     22350-1.17897E+01-1.31530E+00-4.32172E+00-3.93738E+00 2.58162E-03-5.11120E-04
 -1     22351-1.40477E+01-1.57542E+00-5.15445E+00-4.68740E+00-2.19786E-04-3.10280E-03
 -1     22352-1.57964E+01-1.75841E+00-5.79391E+00-5.26390E+00-1.37832E-03-8.34820E-04
 -1     22353-1.53555E+01-1.70879E+00-5.63156E+00-5.11692E+00-1.61848E-03-6.42725E-04
 -1     22354-1.73435E+01-1.94491E+00-6.36571E+00-5.79544E+00-6.12940E-04-1.41228E-03
 -1     22355-1.82019E+01-2.02543E+00-6.67730E+00-6.07041E+00 9.86255E-04-1.66681E-03
 -1     22356-1.80081E+01-2.00571E+00-6.60828E+00-6.00563E+00-3.90118E-04-8.38448E-04
 -1     22357-1.87847E+01-2.09083E+00-6.88880E+00-6.26386E+00 5.97893E-04-1.54938E-03
 -1     22358-1.86781E+01-2.07842E+00-6.85085E+00-6.23023E+00-6.06692E-04-6.94948E-04
 -1     22359-1.91266E+01-2.13999E+00-7.01611E+00-6.39276E+00 8.16894E-04-7.96949E-04
 -1     22360-1.90602E+01-2.12517E+00-6.98939E+00-6.36109E+00-2.67527E-03-4.26754E-04
 -1     22361-1.95108E+01-2.16970E+00-7.15211E+00-6.50897E+00 7.19269E-04-1.08690E-03
 -1     22362-1.93995E+01-2.16670E+00-7.11556E+00-6.47768E+00-5.78216E-04 2.50784E-03
 -1     22363-2.01261E+01-2.22964E+00-7.37282E+00-6.71739E+00 2.66597E-05 2.18612E-03
 -1     22364-1.99065E+01-2.21132E+00-7.29962E+00-6.63960E+00-1.99069E-03 1.41320E-03
 -1     22365-2.16386E+01-2.41765E+00-7.92605E+00-7.20386E+00-4.06632E-04 2.11339E-03
 -1     22366-2.11420E+01-2.33598E+00-7.72707E+00-7.04906E+00-2.23936E-03-9.13609E-03
 -1     22367-2.55001E+01-3.06760E+00-9.50044E+00-8.50079E+00 7.45650E-02-1.87180E-01
 -1     22368-2.36929E+01-2.61663E+00-8.73708E+00-8.00589E+00-1.20674E-02 5.43659E-02
 -1     22369-1.95203E+01-2.16503E+00-7.16320E+00-6.51257E+00 6.55050E-04 4.95016E-03
 -1     22370-1.91423E+01-2.13426E+00-7.02313E+00-6.39174E+00 9.94201E-04 7.93332E-04
 -1     22371-1.87852E+01-2.09835E+00-6.89305E+00-6.27729E+00-1.21041E-04-6.42129E-04
 -1     22372-1.83162E+01-2.05256E+00-6.72200E+00-6.12550E+00 5.76694E-04-9.82757E-04
 -1     22373-1.75355E+01-1.95689E+00-6.43371E+00-5.85073E+00 8.32322E-04-4.01759E-04
 -1     22374-1.62194E+01-1.79480E+00-5.94523E+00-5.38510E+00 1.36700E-03 1.28927E-03
 -1     22375-1.43576E+01-1.59977E+00-5.26603E+00-4.78885E+00 4.46444E-04-8.18958E-04
 -1     22376-1.50380E+01-1.67822E+00-5.51502E+00-5.01237E+00-2.11801E-04 2.25415E-04
 -1     22377-1.78714E+01-2.00734E+00-6.56017E+00-5.95715E+00-1.15607E-03-1.64366E-03
 -1     22378-1.86171E+01-2.08757E+00-6.83093E+00-6.21186E+00 2.37598E-03 2.39076E-03
 -1     22379-1.90281E+01-2.13309E+00-6.98262E+00-6.35735E+00 8.20203E-04 4.13387E-03
 -1     22380-1.93628E+01-2.15514E+00-7.10309E+00-6.47206E+00-5.21354E-04-2.13022E-03
 -1     22381-1.98368E+01-2.19977E+00-7.27632E+00-6.61621E+00-1.37709E-03-3.31265E-03
 -1     22382-2.09030E+01-2.29084E+00-7.66414E+00-7.02761E+00 2.54337E-03 1.61218E-02
 -1     22383-2.34640E+01-2.60237E+00-8.63951E+00-7.93965E+00-1.37449E-02 3.74655E-02
 -1     22384-1.79961E+01-2.01654E+00-6.60331E+00-5.99863E+00 4.96000E-04 1.85604E-03
 -1     22385-1.69497E+01-1.87482E+00-6.21307E+00-5.64001E+00 7.17977E-04 1.83680E-03
 -1     22386-1.53584E+01-1.70216E+00-5.63030E+00-5.11662E+00-9.00885E-05-7.14840E-04
 -1     22387-1.32841E+01-1.47959E+00-4.87401E+00-4.42658E+00 2.42890E-03 4.14895E-03
 -1     22388-2.72707E+01-2.90205E+00-9.85170E+00-8.71356E+00-2.40804E-02 2.77642E-01
 -1     22389-2.27170E+01-2.50556E+00-8.34121E+00-7.97184E+00 6.17232E-02 3.69193E-03
 -1     22390-1.85883E+01-2.08757E+00-6.82225E+00-6.20417E+00 1.70529E-03-2.32345E-03
 -1     22391-1.89687E+01-2.11595E+00-6.95831E+00-6.33248E+00-5.12181E-04 1.80345E-03
 -1     22392-1.93097E+01-2.15583E+00-7.08373E+00-6.45044E+00 3.73979E-04-1.41254E-03
 -1     22393-1.02281E+01-1.21067E+00-3.80203E+00-3.46121E+00 3.47155E-02 5.05739E-02
 -1     22394-2.20109E+01-2.36608E+00-8.05858E+00-7.32941E+00 1.60867E-02-2.38893E-02
 -1     22395-2.02159E+01-2.23666E+00-7.40573E+00-6.75397E+00-9.00982E-04 1.47437E-03
 -1     22396-1.95760E+01-2.17329E+00-7.17853E+00-6.53090E+00-8.33742E-04-8.86316E-04
 -1     22397-1.91957E+01-2.14822E+00-7.04040E+00-6.41103E+00 1.04693E-04-2.50710E-04
 -1     22398-1.59500E+01-1.77228E+00-5.84891E+00-5.30895E+00-1.21048E-03 2.79536E-03
 -1     22399-1.88449E+01-2.10525E+00-6.91387E+00-6.29707E+00-6.38577E-04 3.57693E-03
 -1     22400-1.82794E+01-2.05255E+00-6.70863E+00-6.10889E+00-1.31654E-04 1.96407E-03
 -1     22401-2.67820E+01-2.13037E+00-9.58463E+00-9.27805E+00-2.18590E-01-1.07497E-01
 -1     22402-1.84493E+01-2.07547E+00-6.77559E+00-6.16515E+00 7.62552E-04-5.15050E-04
 -1     22403-1.85865E+01-2.08334E+00-6.82280E+00-6.20221E+00-1.31537E-04 4.21214E-04
 -1     22404-2.05363E+01-2.26210E+00-7.50880E+00-6.90842E+00-3.25553E-04-4.54168E-04
 -1     22405-2.07893E+01-2.28823E+00-7.62680E+00-7.00845E+00-7.77207E-03 1.34800E-02
 -1     22406-2.02607E+01-2.24886E+00-7.42727E+00-6.76609E+00 4.23900E-03-4.54172E-03
 -1     22407-1.87148E+01-2.09252E+00-6.86545E+00-6.25464E+00 1.08606E-03 4.35565E-04
 -1     22408-1.88135E+01-2.10370E+00-6.90238E+00-6.28497E+00-1.42699E-06 2.41167E-03
 -1     22409-1.92445E+01-2.14249E+00-7.05662E+00-6.43145E+00 1.39131E-03 2.04675E-05
 -1     22410-1.93340E+01-2.15498E+00-7.09367E+00-6.46396E+00-2.36864E-03 1.21009E-04
 -1     22411-1.83235E+01-2.05802E+00-6.72550E+00-6.12796E+00 1.39181E-03 9.66491E-05
 -1     22412-1.89112E+01-2.11085E+00-6.93789E+00-6.32122E+00 6.03724E-04 1.00496E-03
 -1     22413-1.89981E+01-2.13102E+00-6.97203E+00-6.35047E+00-2.76377E-03 1.75341E-04
 -1     22414-1.74534E+01-1.94160E+00-6.40170E+00-5.82181E+00 2.91887E-03 2.33567E-03
 -1     22415-1.77035E+01-1.97942E+00-6.49553E+00-5.89648E+00 3.04644E-03 2.65447E-03
 -1     22416-1.68349E+01-1.87747E+00-6.17136E+00-5.60759E+00-1.41879E-03-2.46196E-03
 -1     22417-1.64903E+01-1.83549E+00-6.04313E+00-5.47972E+00 9.18043E-04-2.85261E-03
 -1     22418-1.60909E+01-1.77997E+00-5.89771E+00-5.33839E+00-1.55604E-03-4.20081E-04
 -1     22419-1.51967E+01-1.69337E+00-5.57437E+00-5.06679E+00 2.18431E-04-1.54012E-03
 -1     22420-1.47024E+01-1.63631E+00-5.39179E+00-4.90426E+00-4.50686E-04-3.34848E-04
 -1     22421-1.41958E+01-1.58098E+00-5.20551E+00-4.73196E+00 3.66332E-04-9.41687E-04
 -1     22422-1.30932E+01-1.48337E+00-4.80937E+00-4.37501E+00-1.94133E-03-2.38592E-03
 -1     22423-1.36818E+01-1.52891E+00-5.02023E+00-4.56229E+00 4.86316E-03 2.74637E-03
 -1     22424-2.40006E+01-2.60967E+00-8.77461E+00-8.21268E+00 4.44204E-02-7.56415E-02
 -1     22425-1.21327E+01-1.35646E+00-4.44992E+00-4.05826E+00-1.21169E-05-4.81747E-03
 -1     22426-2.27206E+01-2.48748E+00-8.25717E+00-7.57023E+00 1.30569E-02 5.58895E-02
 -1     22427-2.18519E+01-2.34832E+00-7.99544E+00-7.25569E+00 1.30829E-02 1.59033E-02
 -1     22428-9.49665E+00-1.16672E+00-3.55356E+00-3.82758E+00-1.00279E-01-2.21724E-02
 -1     22429-1.79410E+01-2.00602E+00-6.57919E+00-5.97897E+00-1.41100E-04 3.80281E-03
 -1     22430-1.26094E+01-1.40593E+00-4.62139E+00-4.21199E+00-3.06781E-03-5.19425E-03
 -1     22431-1.04096E+01-1.20487E+00-3.84481E+00-3.57234E+00 1.71355E-02 1.64827E-02
 -1     22432-1.90723E+01-2.13217E+00-6.99948E+00-6.37949E+00 3.15045E-03-3.42723E-03
 -1     22433-1.91633E+01-2.14530E+00-7.03138E+00-6.40164E+00 4.10852E-04 9.10284E-04
 -1     22434-1.02731E+01-1.24965E+00-3.82707E+00-3.51476E+00 3.00743E-02 5.50673E-02
 -1     22435-1.81323E+01-2.02793E+00-6.64979E+00-6.05877E+00-1.17907E-03 1.51538E-03
 -1     22436-1.94304E+01-2.16722E+00-7.13116E+00-6.48860E+00-3.98684E-04-2.96451E-03
 -1     22437-1.98502E+01-2.22664E+00-7.27780E+00-6.63580E+00-2.39273E-03-8.10019E-03
 -1     22438-1.96979E+01-2.18730E+00-7.22087E+00-6.56819E+00 1.54462E-03-9.46957E-03
 -1     22439-2.12263E+01-2.34558E+00-7.81662E+00-7.11167E+00 8.66824E-03 5.64334E-03
 -1     22440-1.95655E+01-2.16800E+00-7.17384E+00-6.52429E+00-9.71903E-04-9.07560E-03
 -1     22441-2.31212E+01-2.57412E+00-8.44230E+00-8.02635E+00 5.80401E-02-5.65526E-02
 -1     22442-2.00199E+01-2.23088E+00-7.34764E+00-6.69259E+00-2.74007E-03-3.27234E-04
 -1     22443-9.76449E+00-1.57072E+00-3.78015E+00-3.75265E+00 6.29407E-02-3.66662E-02
 -1     22444-1.71621E+01-1.90853E+00-6.29277E+00-5.72199E+00-2.55993E-03 1.18449E-03
 -1     22445-1.56830E+01-1.74312E+00-5.75165E+00-5.20276E+00 1.13687E-04 1.58918E-03
 -1     22446 4.54954E+00 2.24082E+00 2.24082E+00 3.67933E+00-6.86810E-09 4.37494E-03
 -1     22447 4.37448E+00 2.15459E+00 2.15459E+00 3.54813E+00-3.82178E-08-3.92556E-03
 -1     22448 4.38723E+00 2.16618E+00 2.15826E+00 3.56012E+00-5.78505E-03 1.60454E-03
 -1     22449 4.28703E+00 2.11152E+00 2.11152E+00 3.51404E+00 6.07082E-08-9.76402E-03
 -1     22450 4.30243E+00 2.11076E+00 2.11407E+00 3.52560E+00 7.17938E-03-4.24064E-03
 -1     22451 4.88437E+00 2.40573E+00 2.40573E+00 3.84853E+00-3.58008E-08-1.08904E-03
 -1     22452 4.98368E+00 2.45465E+00 2.45465E+00 3.93573E+00 2.43783E-08 8.17249E-03
 -1     22453 6.05011E+00 2.97991E+00 2.97991E+00 4.72809E+00-1.08380E-08-2.82522E-03
 -1     22454 5.76955E+00 2.84646E+00 2.84228E+00 4.58729E+00-1.49792E-05-4.84395E-03
 -1     22455 7.18047E+00 3.53665E+00 3.53665E+00 4.93752E+00 2.30149E-08 1.43618E-03
 -1     22456 6.91524E+00 3.40244E+00 3.40464E+00 4.95053E+00-6.83026E-04 6.05631E-04
 -1     22457 7.95471E+00 3.91888E+00 3.91857E+00 4.53881E+00-3.60319E-04 2.83924E-03
 -1     22458 7.83685E+00 3.84014E+00 3.85437E+00 4.67767E+00-4.53950E-03-1.88779E-03
 -1     22459 7.81307E+00 3.83393E+00 3.84446E+00 3.71556E+00 1.09236E-03 3.18600E-03
 -1     22460 7.92175E+00 3.90176E+00 3.90176E+00 3.94467E+00-4.11330E-09 1.51844E-03
 -1     22461 6.67262E+00 3.28652E+00 3.28652E+00 2.62387E+00-1.24891E-08 2.65397E-03
 -1     22462 7.06205E+00 3.44836E+00 3.47103E+00 2.91668E+00-7.06035E-03 4.02809E-04
 -1     22463 4.37386E+00 2.15429E+00 2.15429E+00 1.45534E+00 2.37527E-08 5.17211E-03
 -1     22464 5.05904E+00 2.46771E+00 2.48687E+00 1.75735E+00-5.31918E-03 1.47074E-03
 -1     22465 9.17164E-01 4.40493E-01 4.50807E-01 3.03134E-01-4.70078E-04 1.50455E-04
 -1     22466 1.91301E+00 9.27568E-01 9.37877E-01 5.76559E-01-3.71441E-03 7.08638E-05
 -1     22467-3.48745E+00-1.77309E+00-1.73347E+00-6.16641E-01 1.28815E-02-5.10486E-03
 -1     22468-2.17473E+00-1.08168E+00-1.07398E+00-3.96702E-01-8.74177E-04 2.43736E-03
 -1     22469-1.05143E+01-5.22977E+00-5.19765E+00-1.22189E+00 7.94648E-03 4.37158E-03
 -1     22470-8.59868E+00-4.27342E+00-4.24592E+00-1.12864E+00-4.86961E-03 5.39441E-03
 -1     22471-2.07776E+01-1.03602E+01-1.02774E+01-5.48811E-01 3.34182E-02-3.40220E-03
 -1     22472-1.72942E+01-8.53029E+00-8.51495E+00-9.61179E-01 3.71104E-03 1.30205E-03
 -1     22473-3.61378E+01-1.68414E+01-1.75784E+01 2.54102E+00-2.44879E-01 1.22129E-02
 -1     22474-2.52274E+01-1.24254E+01-1.24254E+01 7.67443E-02 3.19200E-07-2.26838E-02
 -1     22475-2.23546E+01-1.10105E+01-1.10105E+01-3.58398E-01 1.74152E-07-8.73387E-02
 -1     22476-3.85625E+01-1.89876E+01-1.89572E+01 3.53089E+00 7.52894E-02-5.48949E-02
 -1     22477-3.77719E+01-1.86041E+01-1.86041E+01 3.21970E+00 9.89525E-08 1.20028E-01
 -1     22478-3.28041E+01-1.61573E+01-1.61573E+01 1.34889E+00 2.41434E-07-3.53462E-02
 -1     22479-3.14688E+01-1.55331E+01-1.56033E+01 1.53211E+00 2.41304E-01 9.24726E-03
 -1     22480-2.23768E+01-1.10540E+01-1.10484E+01 2.85476E-02 1.50399E-02-1.55783E-01
 -1     22481-2.07956E+01-1.13469E+01-1.05723E+01-5.77906E-01-9.00270E-02 1.43810E-01
 -1     22482-1.84460E+01-9.10660E+00-9.08684E+00-8.39023E-01 4.24917E-03-3.17655E-02
 -1     22483-1.29135E+01-6.41361E+00-6.37565E+00-1.17385E+00 1.25780E-02 4.37331E-03
 -1     22484-1.53737E+01-7.57212E+00-7.57212E+00-1.14930E+00-1.08140E-08 2.80533E-02
 -1     22485-8.66014E+00-4.26544E+00-4.26544E+00-1.12347E+00-1.55300E-08 2.04272E-03
 -1     22486-1.05273E+01-5.22339E+00-5.19748E+00-1.21555E+00-3.78683E-03 5.86338E-03
 -1     22487-2.34043E+00-1.15275E+00-1.15275E+00-4.14353E-01 1.02182E-08-1.49844E-03
 -1     22488-3.65721E+00-1.81066E+00-1.80442E+00-6.34312E-01-2.24718E-03 5.89197E-04
 -1     22489 2.17431E+00 1.06448E+00 1.06915E+00 6.54035E-01 6.17141E-04 8.05489E-04
 -1     22490 1.21596E+00 5.89155E-01 5.95679E-01 3.73756E-01-2.47594E-03 1.27371E-03
 -1     22491 5.25617E+00 2.58886E+00 2.58886E+00 1.84103E+00-6.12857E-10 2.11982E-03
 -1     22492 4.59719E+00 2.26429E+00 2.26429E+00 1.55987E+00 1.22022E-09 8.95182E-04
 -1     22493 7.17670E+00 3.51115E+00 3.52890E+00 3.00307E+00 1.45695E-03 9.78833E-04
 -1     22494 6.78229E+00 3.34053E+00 3.34053E+00 2.71476E+00 9.49638E-09-4.46562E-03
 -1     22495 7.95875E+00 3.90978E+00 3.91722E+00 4.02125E+00 8.16930E-04 1.35968E-03
 -1     22496 7.85285E+00 3.86783E+00 3.86782E+00 3.79369E+00-3.95280E-10-2.24773E-03
 -1     22497 7.79436E+00 3.84052E+00 3.83944E+00 4.72644E+00-1.63443E-04 2.02185E-03
 -1     22498 7.91138E+00 3.89665E+00 3.89665E+00 4.58378E+00-6.94160E-09-7.35961E-04
 -1     22499 6.99394E+00 3.43626E+00 3.44240E+00 4.94839E+00 2.14513E-03 7.74514E-04
 -1     22500 7.26704E+00 3.58316E+00 3.58157E+00 4.93544E+00 1.37295E-03-3.26658E-03
 -1     22501 5.84576E+00 2.87925E+00 2.87925E+00 4.63437E+00-1.61154E-09 4.60072E-03
 -1     22502 6.12143E+00 3.01540E+00 3.01564E+00 4.76956E+00 5.12942E-04 1.57665E-03
 -1     22503 5.02785E+00 2.47863E+00 2.47653E+00 3.99315E+00-1.11456E-03-9.81692E-03
 -1     22504 6.31259E+00 3.10013E+00 3.10553E+00 4.83619E+00-1.85087E-03-3.78709E-03
 -1     22505 6.14817E+00 3.02820E+00 3.02820E+00 4.76590E+00-2.13171E-08-4.01059E-03
 -1     22506 6.64270E+00 3.27178E+00 3.27178E+00 4.90331E+00-6.30081E-09-1.96137E-04
 -1     22507 7.44991E+00 3.65144E+00 3.66371E+00 4.88651E+00-3.00099E-03-2.68453E-03
 -1     22508 7.31701E+00 3.60390E+00 3.60390E+00 4.92278E+00 1.38812E-08 5.53467E-04
 -1     22509 7.66199E+00 3.77382E+00 3.77381E+00 4.80322E+00 2.67777E-09 9.87571E-04
 -1     22510 5.49641E+00 2.70719E+00 2.70719E+00 4.39797E+00-2.07498E-08 1.94457E-03
 -1     22511 5.22368E+00 2.56550E+00 2.56618E+00 4.17216E+00-3.78650E-03 7.82650E-03
 -1     22512 6.74889E+00 3.32408E+00 3.32408E+00 4.91989E+00-1.68121E-08 1.54415E-04
 -1     22513 7.77471E+00 3.82889E+00 3.82780E+00 4.74153E+00-2.14960E-04 3.14880E-03
 -1     22514 5.13047E+00 2.52908E+00 2.53043E+00 4.06889E+00 2.20595E-03 9.95046E-03
 -1     22515 8.00495E+00 3.93011E+00 3.93944E+00 4.17344E+00 9.79067E-04 1.98960E-03
 -1     22516 7.98685E+00 3.93382E+00 3.93382E+00 4.36271E+00-6.36269E-09 2.09910E-03
 -1     22517 7.37471E+00 3.63232E+00 3.63232E+00 3.20009E+00 2.91900E-08-2.17470E-03
 -1     22518 7.62439E+00 3.73918E+00 3.74927E+00 3.45464E+00-4.57444E-03-2.92758E-03
 -1     22519 5.65618E+00 2.78588E+00 2.78588E+00 2.04491E+00 1.55198E-08 5.22393E-04
 -1     22520 6.19488E+00 3.02847E+00 3.04489E+00 2.33920E+00-5.65571E-03 1.31699E-03
 -1     22521 2.80162E+00 1.37196E+00 1.37726E+00 8.67744E-01 1.10273E-03 3.64115E-05
 -1     22522 3.61944E+00 1.78271E+00 1.78271E+00 1.16213E+00 1.04352E-08 1.66488E-03
 -1     22523-1.14834E+00-5.65599E-01-5.65600E-01-1.81761E-01 1.38592E-09 7.17238E-04
 -1     22524 9.77594E-03-5.34579E-03 2.52375E-03 6.88114E-02-2.06664E-03 1.10762E-03
 -1     22525-7.62348E+00-3.75533E+00-3.75481E+00-1.03514E+00 7.23643E-03-4.67791E-03
 -1     22526-6.61959E+00-3.26039E+00-3.26039E+00-9.58407E-01-8.15662E-09-6.36044E-04
 -1     22527-5.01728E+00-2.47120E+00-2.47120E+00-8.33118E-01-5.49455E-09-3.46572E-03
 -1     22528-6.57754E+00-3.26957E+00-3.25019E+00-9.82997E-01-5.32806E-03-1.94946E-03
 -1     22529-1.50349E+01-7.40525E+00-7.40525E+00-1.11642E+00 8.44706E-09-2.19624E-02
 -1     22530-1.25045E+01-6.15894E+00-6.15894E+00-1.24359E+00 1.94097E-08 5.81686E-03
 -1     22531-1.15835E+01-5.70529E+00-5.70529E+00-1.26667E+00 1.11463E-07-6.82932E-03
 -1     22532-1.75550E+01-8.64650E+00-8.64650E+00-8.79479E-01-2.80313E-08-1.13103E-02
 -1     22533-4.25526E+00-2.09587E+00-2.09587E+00-7.10518E-01 1.91909E-08 8.13519E-05
 -1     22534-5.04159E+00-2.48317E+00-2.48317E+00-8.10916E-01-2.00226E-09-6.47880E-03
 -1     22535 4.88409E-02 2.40579E-02 2.40566E-02 7.69756E-02 6.61104E-09-2.39672E-03
 -1     22536-1.07545E+00-5.44497E-01-5.33687E-01-1.82217E-01-2.35190E-03 3.13739E-03
 -1     22537 3.89112E+00 1.89850E+00 1.91062E+00 1.25856E+00 2.39902E-03 4.32801E-04
 -1     22538 3.07510E+00 1.50417E+00 1.51240E+00 9.64783E-01-2.30298E-03-1.15420E-03
 -1     22539 6.35055E+00 3.12788E+00 3.12788E+00 2.44203E+00 1.29112E-08-4.01676E-03
 -1     22540 5.85783E+00 2.86395E+00 2.87985E+00 2.14521E+00-5.08285E-03-8.57654E-04
 -1     22541 7.70228E+00 3.77404E+00 3.78837E+00 3.54494E+00 1.56045E-03-3.52108E-03
 -1     22542 7.47515E+00 3.65294E+00 3.67939E+00 3.27481E+00-5.11822E-03-1.01598E-03
 -1     22543 7.98431E+00 3.92540E+00 3.93014E+00 4.42619E+00 1.02637E-03-5.66449E-04
 -1     22544 8.00173E+00 3.93291E+00 3.93897E+00 4.23607E+00-2.02767E-03-3.06588E-03
 -1     22545 7.44254E+00 3.66573E+00 3.66573E+00 4.89326E+00-5.30826E-09 2.35615E-03
 -1     22546 7.65398E+00 3.76494E+00 3.76871E+00 4.82083E+00-1.06609E-03-1.50715E-03
 -1     22547 6.39517E+00 3.14986E+00 3.14986E+00 4.85568E+00 2.25631E-08 2.21847E-03
 -1     22548 6.73266E+00 3.31608E+00 3.31609E+00 4.92119E+00 3.84765E-09-2.14837E-03
 -1     22549 5.28066E+00 2.60092E+00 2.60092E+00 4.23631E+00-4.07765E-09-3.28858E-03
 -1     22550 5.56770E+00 2.75165E+00 2.74510E+00 4.47113E+00 6.80800E-04-3.12098E-03
 -1     22551 7.96809E+00 3.92458E+00 3.92458E+00 4.42417E+00-2.16808E-09 2.25256E-03
 -1     22552 7.69223E+00 3.78871E+00 3.78871E+00 3.54793E+00-3.17256E-09 7.95159E-04
 -1     22553 6.37618E+00 3.14106E+00 3.14218E+00 2.41726E+00 2.02428E-02-8.31045E-04
 -1     22554 3.86655E+00 1.90442E+00 1.90442E+00 1.26494E+00 2.29549E-08 2.23937E-03
 -1     22555 3.88463E-01 1.91334E-01 1.91333E-01 1.72021E-01 3.18314E-09-1.75980E-04
 -1     22556 2.75118E+00 1.35452E+00 1.35346E+00 8.54491E-01 3.57990E-04 1.25445E-03
 -1     22557 7.39405E+00 3.63849E+00 3.63165E+00 3.16624E+00 8.77158E-04-1.40131E-03
 -1     22558 7.99532E+00 3.93729E+00 3.93587E+00 4.16285E+00 4.00073E-04 6.99601E-04
 -1     22559 7.70437E+00 3.79469E+00 3.79469E+00 4.77704E+00-2.90375E-09 6.94646E-04
 -1     22560 6.93869E+00 3.41756E+00 3.41756E+00 4.94580E+00-9.11797E-09-9.72781E-04
 -1     22561 5.74234E+00 2.82797E+00 2.83029E+00 4.56901E+00-7.68722E-03-4.07077E-04
 -1     22562 2.21028E+00 1.08865E+00 1.08865E+00 6.86075E-01-1.47772E-09 1.16769E-04
 -1     22563-1.57610E+00-7.76285E-01-7.76285E-01-2.67413E-01-9.62508E-11-5.68343E-04
 -1     22564-1.60895E+00-7.93812E-01-7.95614E-01-3.11527E-01-8.45754E-04 3.57986E-03
 -1     22565 7.37112E+00 3.63055E+00 3.63055E+00 4.91311E+00-2.58911E-09-7.99043E-04
 -1     22566 6.28883E+00 3.09748E+00 3.09748E+00 4.82354E+00 1.23689E-08 1.35915E-03
 -1     22567 5.16175E+00 2.53149E+00 2.54517E+00 4.14418E+00-1.69962E-02-6.63100E-03
 -1     22568 5.67285E+00 2.79666E+00 2.79793E+00 4.44312E+00 6.71384E-03-1.81656E-03
 -1     22569 5.26948E+00 2.59434E+00 2.59216E+00 1.86979E+00 1.59022E-03 2.19807E-03
 -1     22570 7.17241E+00 3.53268E+00 3.53268E+00 3.03569E+00 7.64141E-10-3.61263E-03
 -1     22571 7.94530E+00 3.91336E+00 3.91336E+00 4.01882E+00-3.78419E-09 1.75354E-03
 -1     22572 7.93478E+00 3.90817E+00 3.90817E+00 4.53434E+00 1.69476E-09 7.15363E-04
 -1     22573-1.60244E+01-7.89263E+00-7.89263E+00-1.03256E+00 7.27728E-08-2.00452E-02
 -1     22574 7.80737E+00 3.84602E+00 3.84719E+00 3.70533E+00-4.82186E-03 7.40675E-04
 -1     22575 7.30048E-01 3.59578E-01 3.59577E-01 2.43046E-01 5.54304E-09-1.49118E-05
 -1     22576 6.63200E+00 3.26651E+00 3.26651E+00 2.62009E+00 8.15773E-09-5.52535E-03
 -1     22577 4.36262E+00 2.14875E+00 2.14875E+00 1.46471E+00-1.28479E-08 9.76513E-04
 -1     22578 5.64825E+00 2.78198E+00 2.78198E+00 2.02620E+00-1.40649E-08 2.18941E-03
 -1     22579 5.12436E+00 2.49899E+00 2.52130E+00 4.07533E+00 7.39419E-03 1.21720E-02
 -1     22580 4.83042E+00 2.37917E+00 2.37916E+00 1.66172E+00-2.24922E-08 2.15344E-03
 -1     22581 5.45098E+00 2.68481E+00 2.68481E+00 1.93945E+00-2.18925E-08 3.72113E-03
 -1     22582 6.84029E+00 3.36910E+00 3.36910E+00 4.93938E+00-1.63798E-08 9.19306E-04
 -1     22583 7.10485E+00 3.48052E+00 3.49336E+00 4.95944E+00-1.85952E-03 2.78783E-04
 -1     22584 7.39569E+00 3.64050E+00 3.64229E+00 4.91409E+00 7.54589E-04-1.21938E-03
 -1     22585 7.88379E+00 3.87755E+00 3.88191E+00 4.64804E+00-1.25976E-04 2.97767E-03
 -1     22586 7.97349E+00 3.92477E+00 3.92712E+00 4.48641E+00-4.72646E-04 3.34387E-04
 -1     22587 6.04500E+00 2.97114E+00 2.97472E+00 2.22459E+00 1.37678E-03 1.61892E-03
 -1     22588 6.52220E+00 3.18153E+00 3.20532E+00 2.51079E+00-7.14353E-03 8.23704E-04
 -1     22589 7.89491E+00 3.87597E+00 3.88465E+00 3.86354E+00 1.44761E-03 2.37512E-03
 -1     22590 7.99038E+00 3.92951E+00 3.93413E+00 4.09915E+00-1.43708E-03 1.18949E-04
 -1     22591 3.36060E+00 1.64350E+00 1.65150E+00 1.05504E+00 1.39090E-03-7.33806E-04
 -1     22592 4.14006E+00 2.03321E+00 2.03781E+00 1.36925E+00-1.37325E-03 1.53973E-03
 -1     22593 6.96079E+00 3.38963E+00 3.41542E+00 2.82960E+00 5.40284E-03-2.91459E-03
 -1     22594 7.27289E+00 3.58217E+00 3.58217E+00 3.11430E+00-3.35077E-08-6.24370E-03
 -1     22595-5.03112E-01-2.57007E-01-2.50784E-01-4.39595E-02-4.13589E-04 1.01657E-04
 -1     22596 4.33923E-01 2.18376E-01 2.15866E-01 1.77221E-01 1.81052E-03-1.55295E-03
 -1     22597-1.48356E+00-7.36715E-01-7.33560E-01-2.79902E-01 2.68288E-03-1.28120E-03
 -1     22598-2.76291E+00-1.39813E+00-1.37297E+00-4.96930E-01-9.48331E-04 3.44915E-03
 -1     22599-4.03653E+00-1.99753E+00-1.99188E+00-7.20603E-01-8.20083E-03 1.71417E-03
 -1     22600 7.75550E+00 3.81988E+00 3.81988E+00 3.62359E+00-2.36969E-08 2.92789E-03
 -1     22601-1.41335E+01-6.96128E+00-6.96128E+00-1.11855E+00 1.44335E-07-2.24394E-02
 -1     22602-1.20269E+01-5.92957E+00-5.92974E+00-1.15079E+00-4.74255E-03 1.24561E-03
 -1     22603-1.96069E+01-9.73846E+00-9.67275E+00-6.19250E-01-1.32855E-03-2.86217E-02
 -1     22604 5.41140E+00 2.66531E+00 2.66531E+00 4.30863E+00 4.84750E-08-3.69387E-03
 -1     22605 7.55835E+00 3.72301E+00 3.72285E+00 4.86386E+00-4.15748E-04 1.23582E-03
 -1     22606 7.55055E+00 3.68542E+00 3.71054E+00 3.36782E+00 2.11280E-03-1.17480E-03
 -1     22607 7.99528E+00 3.93007E+00 3.93591E+00 4.29744E+00 5.31715E-04 2.67181E-04
 -1     22608 1.58021E+00 7.62470E-01 7.73106E-01 4.79560E-01 1.73631E-03 7.91301E-04
 -1     22609 7.69911E+00 3.79210E+00 3.79210E+00 4.77491E+00 8.38445E-10 1.47567E-03
 -1     22610-1.65157E+01-8.10116E+00-8.13642E+00-8.12832E-01-5.74354E-03-1.34881E-02
 -1     22611 6.52614E+00 3.21437E+00 3.21437E+00 4.88532E+00-1.37046E-08-1.94354E-03
 -1     22612 6.22335E+00 3.06765E+00 3.06518E+00 4.79922E+00-3.46305E-04 1.16239E-03
 -1     22613 5.69933E+00 2.80409E+00 2.80279E+00 4.50302E+00 2.00908E-03 9.88407E-03
 -1     22614 2.46711E+00 1.21515E+00 1.21514E+00 7.64155E-01 1.26059E-09 3.15598E-04
 -1     22615 5.95679E+00 2.93864E+00 2.93365E+00 4.66551E+00-1.23076E-03-2.14142E-03
 -1     22616 5.15522E+00 7.84771E+00 4.27042E+00 7.02832E+00-1.80196E-02 3.09225E-02
 -1     22617 1.61101E+00 6.84491E+00 2.78750E+00 6.19827E+00-5.57454E-02 3.79715E-02
 -1     22618 9.12467E+00 9.22002E+00 6.06018E+00 9.33519E+00-1.54203E-05-2.54831E-03
 -1     22619 8.47366E+00 8.80507E+00 5.70845E+00 8.83432E+00 2.05552E-03-1.10240E-02
 -1     22620 1.10242E+01 1.00492E+01 6.95109E+00 1.05802E+01 1.33555E-03 7.08725E-04
 -1     22621 1.06924E+01 9.84710E+00 6.78032E+00 1.03242E+01 1.95759E-03-1.62364E-03
 -1     22622 1.20282E+01 1.05336E+01 7.44438E+00 1.12860E+01-1.65008E-03-2.72047E-03
 -1     22623 1.18591E+01 1.04266E+01 7.35512E+00 1.11519E+01 4.25587E-03 1.28523E-03
 -1     22624 1.25632E+01 1.07670E+01 7.69509E+00 1.16524E+01-1.52165E-03-2.23056E-03
 -1     22625 1.24807E+01 1.07173E+01 7.65264E+00 1.15811E+01-2.31759E-03-3.89520E-03
 -1     22626 1.28393E+01 1.08342E+01 7.81282E+00 1.18087E+01 1.12898E-03-5.27910E-04
 -1     22627 1.28125E+01 1.08285E+01 7.80044E+00 1.17959E+01-5.41092E-04-1.01077E-03
 -1     22628 1.28936E+01 1.07153E+01 7.79227E+00 1.17714E+01 9.00385E-04-1.84124E-03
 -1     22629 1.29259E+01 1.07625E+01 7.81579E+00 1.18123E+01 4.42570E-04-1.22006E-03
 -1     22630 1.27132E+01 1.03753E+01 7.61730E+00 1.15051E+01 1.33170E-03-1.53366E-04
 -1     22631 1.28149E+01 1.04838E+01 7.68851E+00 1.16072E+01-1.63369E-03-1.04165E-03
 -1     22632 1.22771E+01 9.79030E+00 7.28463E+00 1.09862E+01-4.02529E-04-4.61066E-04
 -1     22633 1.24458E+01 9.96358E+00 7.39297E+00 1.11578E+01-1.27264E-03-2.47680E-04
 -1     22634 1.15483E+01 8.95897E+00 6.77036E+00 1.01951E+01-5.79683E-04-1.01725E-03
 -1     22635 1.17921E+01 9.19230E+00 6.92330E+00 1.04388E+01-1.13779E-03-1.21992E-03
 -1     22636 1.05380E+01 7.93526E+00 6.09844E+00 9.16541E+00 1.18599E-05-5.17714E-04
 -1     22637 1.08505E+01 8.21244E+00 6.28964E+00 9.46846E+00-1.27610E-03-1.20536E-03
 -1     22638 9.32558E+00 6.83045E+00 5.32911E+00 7.99594E+00 1.27489E-03 1.83401E-03
 -1     22639 9.66631E+00 7.12557E+00 5.54076E+00 8.32223E+00 2.10184E-03-3.66608E-04
 -1     22640 8.01076E+00 5.79125E+00 4.55777E+00 6.81641E+00-4.10773E-03-1.26105E-03
 -1     22641 8.36269E+00 6.07238E+00 4.76794E+00 7.13680E+00-5.87416E-03-1.98202E-03
 -1     22642 6.77190E+00 4.94321E+00 3.86465E+00 5.77728E+00-2.42755E-03-1.89666E-03
 -1     22643 7.06852E+00 5.16430E+00 4.03284E+00 6.03933E+00-2.79236E-03-1.71165E-03
 -1     22644 5.81642E+00 4.35038E+00 3.35088E+00 5.00889E+00-2.78062E-03-1.24900E-03
 -1     22645 6.02133E+00 4.48501E+00 3.46876E+00 5.18047E+00 9.63546E-04-1.31753E-03
 -1     22646 5.15681E+00 3.82479E+00 2.96217E+00 4.47232E+00-2.34282E-03 4.42378E-04
 -1     22647 5.30342E+00 3.95975E+00 3.05686E+00 4.59044E+00-2.28534E-03-1.43311E-03
 -1     22648 4.78539E+00 3.21656E+00 2.62527E+00 4.02043E+00 5.36611E-03 6.66525E-03
 -1     22649 5.90720E+00 3.33708E+00 3.05362E+00 4.66587E+00 6.34631E-03 4.36006E-05
 -1     22650 5.57875E+00 3.20296E+00 2.90068E+00 4.52480E+00 6.31099E-03-2.98352E-03
 -1     22651 7.24369E+00 3.55887E+00 3.55891E+00 4.88513E+00-4.54101E-04-2.23776E-03
 -1     22652 6.93604E+00 3.41868E+00 3.41245E+00 4.88728E+00 4.91305E-03 3.35365E-04
 -1     22653 8.04632E+00 3.65145E+00 3.85947E+00 4.55432E+00 9.87531E-04 1.03135E-03
 -1     22654 7.90435E+00 3.59118E+00 3.79602E+00 4.68300E+00 5.20110E-04 1.22016E-03
 -1     22655 8.00961E+00 3.41105E+00 3.76649E+00 3.83140E+00-4.09368E-04-2.63053E-03
 -1     22656 8.11121E+00 3.47035E+00 3.82591E+00 4.04737E+00 2.68219E-03 1.28071E-03
 -1     22657 6.93814E+00 2.75765E+00 3.19549E+00 2.86461E+00 3.49130E-04-4.63919E-03
 -1     22658 7.31333E+00 2.94652E+00 3.39152E+00 3.12466E+00 5.42972E-03 1.32291E-03
 -1     22659 4.72322E+00 1.62834E+00 2.09733E+00 1.78745E+00-9.18816E-04-1.38635E-03
 -1     22660 5.39391E+00 1.94817E+00 2.42611E+00 2.06447E+00 1.13814E-03-1.11315E-03
 -1     22661 1.27213E+00-1.98995E-02 4.18029E-01 7.47541E-01 1.03446E-02 7.91753E-04
 -1     22662 2.26410E+00 4.65014E-01 9.03890E-01 1.00560E+00 5.39818E-03-6.54183E-04
 -1     22663-3.54644E+00-2.21331E+00-1.89727E+00-1.03359E-01-3.95939E-03-1.27932E-03
 -1     22664-2.18827E+00-1.54720E+00-1.22570E+00 9.11013E-02-1.03441E-02-3.34956E-04
 -1     22665-1.02723E+01-5.10984E+00-5.06194E+00-5.11181E-01-8.45863E-03-2.68823E-04
 -1     22666-8.31970E+00-4.17481E+00-4.11283E+00-4.80450E-01 1.86966E-03-1.61883E-04
 -1     22667-2.12116E+01-9.06618E+00-9.97957E+00 5.10346E-01-8.75686E-02 2.03555E-02
 -1     22668-1.77963E+01-7.48081E+00-8.37730E+00-1.45090E-01-5.29575E-03-8.05852E-03
 -1     22669-4.15148E+01-7.99484E+00-1.64463E+01 7.15677E-01-2.17550E-02-6.17946E-01
 -1     22670-2.62693E+01-8.26399E+00-1.14896E+01 4.73892E-01-1.80952E-01 1.22682E-01
 -1     22671-2.39423E+01-5.71802E+00-9.79350E+00 7.65846E-01 6.67374E-02-4.31044E-03
 -1     22672-2.66961E+01-1.75168E+00-9.72657E+00-5.91026E+00-4.25540E-02 4.54537E-01
 -1     22673-2.18603E+01-2.04642E+00-7.90226E+00-6.49720E+00-2.05384E-02 2.25148E-02
 -1     22674-2.28626E+01-2.18983E+00-8.23680E+00-6.69642E+00 1.18550E-02 8.87243E-03
 -1     22675-1.95907E+01-2.00188E+00-7.13008E+00-6.21668E+00 1.03124E-03-4.21077E-03
 -1     22676-1.99636E+01-2.04865E+00-7.25850E+00-6.30595E+00-2.11912E-03-1.59101E-03
 -1     22677-1.85701E+01-1.97490E+00-6.77725E+00-6.02861E+00-8.94099E-04 2.06165E-04
 -1     22678-1.87381E+01-1.99507E+00-6.84031E+00-6.07326E+00-1.01723E-03-7.78004E-04
 -1     22679-1.79920E+01-1.93311E+00-6.57354E+00-5.89708E+00 1.06467E-03-1.42624E-03
 -1     22680-1.80981E+01-1.94772E+00-6.61561E+00-5.92835E+00-3.52936E-04 2.90633E-03
 -1     22681-1.75305E+01-1.87049E+00-6.40171E+00-5.73749E+00-4.31576E-04-6.83510E-04
 -1     22682-1.76258E+01-1.88402E+00-6.43881E+00-5.77091E+00 9.86894E-04-1.41258E-04
 -1     22683-1.69588E+01-1.76512E+00-6.17761E+00-5.49463E+00-1.76951E-04-1.14715E-03
 -1     22684-1.71062E+01-1.78889E+00-6.23511E+00-5.55107E+00 3.38961E-04 1.07629E-03
 -1     22685-1.61162E+01-1.60423E+00-5.84488E+00-5.12132E+00-9.06607E-04-2.02693E-03
 -1     22686-1.63510E+01-1.63900E+00-5.93817E+00-5.21259E+00 1.17722E-03 4.87869E-05
 -1     22687-1.48505E+01-1.37741E+00-5.35927E+00-4.58452E+00 3.57579E-04-1.44530E-03
 -1     22688-1.52272E+01-1.43254E+00-5.49810E+00-4.72384E+00 7.15979E-04 3.20666E-04
 -1     22689-1.30985E+01-1.11127E+00-4.69433E+00-3.88117E+00 2.30863E-04-1.19719E-03
 -1     22690-1.36038E+01-1.17376E+00-4.87744E+00-4.06107E+00 1.75970E-03 1.24893E-03
 -1     22691-1.07856E+01-8.01275E-01-3.82458E+00-3.00657E+00 2.78130E-03-2.21387E-03
 -1     22692-1.13523E+01-8.63085E-01-4.03458E+00-3.19163E+00 2.55904E-03 2.20576E-03
 -1     22693-8.12548E+00-4.90226E-01-2.83307E+00-2.10890E+00 2.56720E-03 2.46393E-03
 -1     22694-8.61346E+00-5.54985E-01-3.02608E+00-2.24793E+00 1.47714E-04 5.32383E-03
 -1     22695-3.50152E+00 1.49656E+00-8.71327E-01 2.98425E-02-1.48756E-01-5.95605E-02
 -1     22696-5.20278E+00 6.98877E-01-1.53448E+00-5.57966E-01 3.87124E-02-5.63532E-02
 -1     22697-2.57832E+00 4.92156E+00 8.21335E-01 2.24703E+00 8.96490E-02 1.75491E-01
 -1     22698-5.16188E-01 9.05414E+00 2.89797E+00 5.03295E+00 1.38791E-02-6.51234E-02
 -1     22699-9.45855E-01 7.52113E+00 2.18380E+00 4.84286E+00 7.55000E-02 6.49853E-02
 -1     22700-1.89427E-01 1.12895E+01 3.68828E+00 6.43322E+00 1.19599E-02-8.32885E-04
 -1     22701-1.64059E-01 1.16920E+01 3.80762E+00 6.34373E+00 6.79545E-03-1.40275E-02
 -1     22702-9.45773E-02 9.73899E+00 3.18030E+00 7.12855E+00-2.67400E-03 5.79400E-03
 -1     22703-1.33294E-01 1.07531E+01 3.49639E+00 7.04396E+00-1.69150E-02 1.03028E-02
 -1     22704 1.05265E-02 7.53206E+00 2.48105E+00 7.16936E+00 7.33260E-03-4.57584E-02
 -1     22705 7.43900E+00 8.58696E+00 5.30414E+00 8.33020E+00-6.06729E-04-1.68358E-02
 -1     22706 6.36532E+00 7.92496E+00 4.71409E+00 7.56768E+00-3.05091E-02 3.46182E-02
 -1     22707 1.02210E+01 9.70780E+00 6.57096E+00 1.00483E+01-4.00215E-03 6.83714E-03
 -1     22708 9.77123E+00 9.38429E+00 6.32898E+00 9.68729E+00-3.58964E-03-4.46263E-03
 -1     22709 1.15950E+01 1.03237E+01 7.23337E+00 1.09844E+01 3.07403E-03-2.15717E-03
 -1     22710 1.13659E+01 1.01674E+01 7.09910E+00 1.07944E+01-6.57425E-03-2.61229E-03
 -1     22711 1.23341E+01 1.06756E+01 7.59115E+00 1.14925E+01 2.86024E-03 1.61985E-04
 -1     22712 1.22115E+01 1.05970E+01 7.52548E+00 1.14020E+01-6.24715E-04 1.18612E-03
 -1     22713 1.27340E+01 1.08272E+01 7.77701E+00 1.17557E+01 8.75179E-05-7.85017E-04
 -1     22714 1.26754E+01 1.07946E+01 7.74140E+00 1.17175E+01-1.22713E-03 4.38882E-05
 -1     22715 1.28885E+01 1.07971E+01 7.81987E+00 1.18143E+01 7.28355E-04 1.32568E-04
 -1     22716 1.28977E+01 1.08210E+01 7.82657E+00 1.18281E+01 1.07778E-03 9.19936E-04
 -1     22717 1.28311E+01 1.05720E+01 7.72712E+00 1.16678E+01-8.43962E-05-5.66138E-04
 -1     22718 1.28995E+01 1.06521E+01 7.77117E+00 1.17386E+01 7.19706E-04 1.99103E-04
 -1     22719 1.25265E+01 1.01143E+01 7.47251E+00 1.12804E+01 1.48097E-03-2.02087E-04
 -1     22720 1.26614E+01 1.02524E+01 7.56011E+00 1.14166E+01-9.64425E-04 1.75920E-03
 -1     22721 1.19332E+01 9.39783E+00 7.04398E+00 1.06233E+01 1.72311E-03-6.76403E-04
 -1     22722 1.21568E+01 9.60747E+00 7.18178E+00 1.08322E+01-1.53223E-03 2.33998E-03
 -1     22723 1.10610E+01 8.45677E+00 6.44488E+00 9.70516E+00 1.21009E-03-1.58914E-04
 -1     22724 1.13563E+01 8.72350E+00 6.62628E+00 9.98124E+00-9.00907E-04 2.57953E-03
 -1     22725 9.94602E+00 7.37970E+00 5.71764E+00 8.59372E+00-1.65146E-03 5.66109E-04
 -1     22726 1.02788E+01 7.67260E+00 5.92394E+00 8.90817E+00 1.41583E-03 2.01243E-03
 -1     22727 8.65129E+00 6.29188E+00 4.93235E+00 7.39235E+00 5.04400E-04 8.21371E-04
 -1     22728 9.01553E+00 6.58336E+00 5.15022E+00 7.72475E+00-8.74744E-04-1.45181E-03
 -1     22729 7.36540E+00 5.34275E+00 4.19341E+00 6.27041E+00-1.16491E-03-2.50312E-03
 -1     22730 7.69696E+00 5.60173E+00 4.38309E+00 6.56631E+00-1.40998E-03-1.32153E-03
 -1     22731 6.25774E+00 4.60846E+00 3.58468E+00 5.35809E+00-1.31580E-03-2.56274E-03
 -1     22732 6.50686E+00 4.79224E+00 3.72624E+00 5.57477E+00-8.94387E-05 1.18317E-03
 -1     22733 5.44471E+00 4.11069E+00 3.15180E+00 4.72680E+00-2.37461E-03-1.65287E-03
 -1     22734 5.62391E+00 4.23806E+00 3.25757E+00 4.86290E+00 1.99802E-04 2.03820E-03
 -1     22735 5.08687E+00 2.97523E+00 2.65327E+00 4.15495E+00 5.39289E-03 1.21095E-03
 -1     22736 4.71952E+00 3.48357E+00 2.71949E+00 4.14864E+00-2.28597E-03 4.20450E-04
 -1     22737 4.92775E+00 3.72350E+00 2.85660E+00 4.31749E+00-2.84852E-03-2.49084E-03
 -1     22738 6.28687E+00 3.29106E+00 3.16634E+00 4.78294E+00 3.90197E-04 1.58034E-03
 -1     22739 5.97031E+00 3.55503E+00 3.14145E+00 4.67594E+00 1.07079E-03-4.15106E-04
 -1     22740 5.37782E+00 3.08585E+00 2.79324E+00 4.39426E+00 1.73362E-03-4.07031E-03
 -1     22741 6.74721E+00 3.51368E+00 3.38277E+00 4.82043E+00-8.20445E-05-1.64136E-04
 -1     22742 6.61589E+00 3.43708E+00 3.31427E+00 4.85032E+00-7.18834E-04-1.38875E-03
 -1     22743 7.72340E+00 3.62701E+00 3.74146E+00 4.77731E+00 3.80376E-03-1.54814E-04
 -1     22744 7.49224E+00 3.52099E+00 3.63593E+00 4.84508E+00 2.76134E-03 1.72879E-03
 -1     22745 8.15037E+00 3.58510E+00 3.87177E+00 4.23253E+00 2.80664E-04-1.10104E-03
 -1     22746 8.12204E+00 3.57618E+00 3.86562E+00 4.41044E+00-2.25638E-03-1.11159E-03
 -1     22747 7.62270E+00 3.14489E+00 3.55765E+00 3.36855E+00-1.56338E-03-2.52402E-05
 -1     22748 7.85117E+00 3.26385E+00 3.66661E+00 3.61374E+00-2.10830E-04-1.01492E-04
 -1     22749 5.97970E+00 2.25830E+00 2.71901E+00 2.33044E+00-7.06442E-04 3.68619E-05
 -1     22750 6.49339E+00 2.50585E+00 2.96542E+00 2.60277E+00-1.39545E-03-3.85642E-03
 -1     22751 3.16454E+00 8.88964E-01 1.33554E+00 1.25905E+00 4.41520E-03-1.98486E-03
 -1     22752 3.97830E+00 1.27387E+00 1.73567E+00 1.52736E+00 1.80558E-04 5.88810E-04
 -1     22753-9.51127E-01-1.03300E+00-6.53586E-01 2.85277E-01-7.58591E-03 3.68866E-03
 -1     22754 2.15586E-01-4.68304E-01-8.76462E-02 5.17170E-01-1.58582E-04 4.08830E-04
 -1     22755-6.60546E+00-3.55072E+00-3.34854E+00-3.96398E-01-3.72576E-03-8.59736E-04
 -1     22756-4.99589E+00-2.77979E+00-2.57131E+00-2.60087E-01 1.11537E-03-1.05130E-03
 -1     22757-1.48538E+01-7.04606E+00-7.15119E+00-3.54196E-01 7.32011E-03-4.88306E-03
 -1     22758-1.23671E+01-5.73743E+00-5.95147E+00-4.94098E-01 1.18927E-02-2.14363E-03
 -1     22759-1.92377E+01-2.00823E+00-7.00938E+00-6.17243E+00 1.38699E-03 3.14085E-03
 -1     22760-1.84767E+01-1.74067E+00-6.67068E+00-5.59196E+00 1.34193E-03-4.17392E-03
 -1     22761-1.90029E+01-1.99339E+00-6.92591E+00-6.11066E+00 4.89872E-06 4.49151E-03
 -1     22762-2.42723E+01-2.03640E+00-8.61068E+00-6.61951E+00-3.20800E-02 2.16400E-02
 -1     22763-2.73754E+01-2.68248E+00-9.43620E+00-6.65997E+00-3.92470E-02-3.69787E-02
 -1     22764-2.04826E+01-2.03227E+00-7.43159E+00-6.35487E+00 5.21421E-03-1.07426E-03
 -1     22765-2.10574E+01-2.09003E+00-7.62021E+00-6.49046E+00 2.16804E-03 7.24848E-03
 -1     22766-1.78424E+01-1.76083E+00-6.46441E+00-5.53331E+00-2.34935E-03 2.27572E-03
 -1     22767-2.70790E+01-2.40021E+00-9.90727E+00-3.02375E+00 1.66451E-01-4.20875E-01
 -1     22768-1.82504E+01-1.95612E+00-6.66993E+00-5.96527E+00-6.14538E-04-6.06007E-04
 -1     22769-1.83771E+01-1.97093E+00-6.71623E+00-5.99513E+00 3.21982E-04-1.20597E-03
 -1     22770-1.77625E+01-1.90516E+00-6.48971E+00-5.82235E+00-2.74776E-04-9.43743E-04
 -1     22771-1.78537E+01-1.92197E+00-6.52412E+00-5.85302E+00 3.53211E-04 1.51776E-03
 -1     22772-1.72662E+01-1.82341E+00-6.30085E+00-5.62855E+00 9.47115E-06-1.29166E-04
 -1     22773-1.73833E+01-1.83919E+00-6.34319E+00-5.67250E+00 8.34445E-04-1.58974E-03
 -1     22774-1.65802E+01-1.69191E+00-6.02960E+00-5.32783E+00-1.69192E-04-7.70325E-04
 -1     22775-1.67658E+01-1.71739E+00-6.10294E+00-5.39962E+00 6.82238E-04-5.21901E-04
 -1     22776-1.55345E+01-1.49608E+00-5.62351E+00-4.87210E+00 1.47380E-03 8.43096E-05
 -1     22777-1.58345E+01-1.53741E+00-5.73312E+00-4.98472E+00 4.33450E-04-2.24000E-03
 -1     22778-1.40488E+01-1.25034E+00-5.05038E+00-4.25559E+00-7.76330E-04-6.55511E-04
 -1     22779-1.44931E+01-1.31204E+00-5.21391E+00-4.41783E+00-3.06931E-04-2.98123E-04
 -1     22780-1.20043E+01-9.59365E-01-4.27663E+00-3.45803E+00 3.27504E-03 2.20859E-03
 -1     22781-1.25436E+01-1.02082E+00-4.47521E+00-3.64485E+00 2.30882E-03 5.31261E-03
 -1     22782-9.48657E+00-6.68605E-01-3.34910E+00-2.55720E+00-2.27365E-03-4.84566E-03
 -1     22783-1.00130E+01-7.07879E-01-3.54321E+00-2.71752E+00 9.96846E-06 1.40232E-04
 -1     22784-6.55048E+00-1.79844E-01-2.23901E+00-1.57970E+00-8.19169E-03-2.26636E-02
 -1     22785-7.07934E+00-2.84758E-01-2.45536E+00-1.67165E+00 4.69350E-03 3.11415E-03
 -1     22786 8.90351E+00 9.42285E+00 6.04628E+00 9.34418E+00-4.55438E-03 5.27261E-03
 -1     22787-2.36206E-01 1.09000E+01 3.50353E+00 5.86608E+00 4.24783E-02-3.77869E-03
 -1     22788-6.21105E-01 5.92781E+00 1.77553E+00 4.13460E+00-1.03335E-01-5.68172E-02
 -1     22789 6.03128E+00 8.99284E+00 4.96219E+00 8.00151E+00 1.32816E-02-7.63414E-03
 -1     22790-3.04402E-01 8.12000E+00 2.59589E+00 5.72581E+00-3.26514E-02-1.06875E-02
 -1     22791-2.52547E-01 1.09346E+01 3.58469E+00 5.93741E+00-1.41413E-02-2.18400E-02
 -1     22792-1.23688E-01 1.09190E+01 3.57188E+00 6.82196E+00-1.52832E-02 6.85468E-03
 -1     22793-1.67523E-01 1.15786E+01 3.75432E+00 6.72216E+00-1.41143E-03 4.42086E-03
 -1     22794 2.77329E-01 8.74264E+00 2.96676E+00 7.73705E+00-3.23253E-02 6.23539E-03
 -1     22795-4.05315E-03 8.07375E+00 2.68990E+00 7.39586E+00 3.69376E-02-2.72945E-02
 -1     22796-8.72167E-02 9.39725E+00 3.06004E+00 7.24759E+00-1.44708E-04-9.03888E-03
 -1     22797 1.12574E+01 1.00201E+01 7.02210E+00 1.06567E+01-1.01431E-03 1.21506E-03
 -1     22798 1.04244E+01 9.80893E+00 6.68365E+00 1.01845E+01-5.31247E-04-1.04162E-02
 -1     22799 3.29287E+00 8.83531E+00 3.98466E+00 7.17945E+00 4.61330E-02-1.47595E-02
 -1     22800 7.72823E+00 9.19747E+00 5.59396E+00 8.74677E+00 1.08607E-02-4.32783E-03
 -1     22801 9.77261E+00 9.63463E+00 6.40185E+00 9.80908E+00 2.95568E-03 2.03395E-03
 -1     22802 1.08959E+01 9.93147E+00 6.87259E+00 1.04516E+01 1.97459E-03-1.33227E-03
 -1     22803 1.15414E+01 1.00736E+01 7.12863E+00 1.08089E+01 9.37693E-04-1.17435E-03
 -1     22804 1.19230E+01 1.00662E+01 7.25343E+00 1.09823E+01-8.15748E-04-2.57179E-03
 -1     22805 1.21034E+01 9.87987E+00 7.25346E+00 1.09669E+01 3.89240E-04-1.35537E-03
 -1     22806 1.20701E+01 9.46729E+00 7.10780E+00 1.07288E+01-1.90575E-03-3.87937E-03
 -1     22807 1.17965E+01 8.81569E+00 6.80040E+00 1.02450E+01-3.79886E-04-6.60177E-04
 -1     22808 1.12523E+01 7.93897E+00 6.33202E+00 9.51651E+00-6.33303E-04-1.79190E-03
 -1     22809 1.04386E+01 6.94064E+00 5.73816E+00 8.58828E+00-1.79709E-03-5.25142E-03
 -1     22810 9.39382E+00 5.95017E+00 5.06440E+00 7.54855E+00 6.04991E-04-6.26347E-04
 -1     22811 8.18711E+00 5.13010E+00 4.39616E+00 6.53302E+00-6.52234E-03-5.64732E-03
 -1     22812 7.02131E+00 4.51144E+00 3.80498E+00 5.63610E+00-3.86552E-03-9.97883E-04
 -1     22813 6.06522E+00 4.06924E+00 3.35247E+00 4.95361E+00 1.22511E-04 3.01876E-03
 -1     22814 7.40144E+00 3.49112E+00 3.59672E+00 4.82802E+00-1.14199E-03 2.72406E-03
 -1     22815 8.20869E+00 3.37784E+00 3.82411E+00 4.50093E+00-7.09852E-03 2.01927E-03
 -1     22816 8.12328E+00 2.95334E+00 3.65528E+00 3.82202E+00 1.79709E-03 1.87893E-03
 -1     22817 6.95978E+00 2.17233E+00 3.01376E+00 2.93383E+00-2.76530E-04 8.45291E-05
 -1     22818 4.59095E+00 9.82145E-01 1.84315E+00 1.96059E+00-1.99217E-03 2.32439E-03
 -1     22819 9.66430E-01-6.22844E-01 1.15963E-01 1.04913E+00-1.84799E-03 5.99919E-03
 -1     22820-4.09468E+00-2.65928E+00-2.21823E+00 3.53900E-01 4.97721E-04 8.94390E-03
 -1     22821-1.12673E+01-5.11015E+00-5.38551E+00 1.66787E-01 1.47453E-02 1.85010E-06
 -1     22822-2.07605E+01-1.64751E+00-7.41020E+00-5.59740E+00-4.85153E-04 1.33072E-02
 -1     22823-1.73658E+01-1.75525E+00-6.31057E+00-5.48308E+00-1.68379E-03 2.89604E-03
 -1     22824-1.66807E+01-1.71097E+00-6.06860E+00-5.34552E+00 7.21909E-04-1.11204E-03
 -1     22825-1.61143E+01-1.61640E+00-5.85050E+00-5.12788E+00 1.07527E-03 1.75703E-03
 -1     22826-1.54560E+01-1.45090E+00-5.57914E+00-4.79354E+00 3.30580E-03 3.01785E-03
 -1     22827-1.45623E+01-1.21069E+00-5.20302E+00-4.30071E+00 3.09268E-03 4.68155E-03
 -1     22828-1.33196E+01-9.12473E-01-4.69554E+00-3.65530E+00 8.46344E-04-3.83223E-03
 -1     22829-1.15218E+01-5.64263E-01-3.98579E+00-2.80921E+00 2.62028E-03 2.44098E-03
 -1     22830-8.86014E+00-1.85761E-01-2.98636E+00-1.68876E+00 1.70489E-03 3.26441E-03
 -1     22831-5.31663E+00 4.31326E-01-1.61393E+00-1.92880E-01 2.39453E-03 1.96198E-02
 -1     22832-2.29374E-01 9.23225E+00 2.96504E+00 6.67148E+00-3.05931E-02-5.74541E-03
 -1     22833-1.91720E-01 9.17204E+00 2.94767E+00 7.83751E+00-2.16511E-02 3.97558E-03
 -1     22834 1.17570E+01 1.00871E+01 7.20999E+00 1.09167E+01 4.43407E-04-1.02320E-03
 -1     22835 1.20357E+01 9.99903E+00 7.27220E+00 1.09998E+01-8.46048E-04-3.85113E-03
 -1     22836 1.21103E+01 9.70374E+00 7.19689E+00 1.08747E+01-7.43930E-04-2.87634E-03
 -1     22837 1.19587E+01 9.16609E+00 6.96958E+00 1.05175E+01-1.18171E-03-1.85886E-04
 -1     22838 1.15510E+01 8.39515E+00 6.58163E+00 9.91186E+00-1.31775E-03-3.53955E-03
 -1     22839 1.08720E+01 7.44469E+00 6.04431E+00 9.07378E+00-1.98742E-03-3.23442E-03
 -1     22840 9.93566E+00 6.43856E+00 5.39969E+00 8.07555E+00-1.40409E-03 4.31962E-04
 -1     22841 8.80200E+00 5.51964E+00 4.72859E+00 7.03474E+00-3.41288E-03-2.84927E-03
 -1     22842 7.58909E+00 4.79846E+00 4.08604E+00 6.06465E+00-4.71324E-03-2.11424E-03
 -1     22843 6.50307E+00 4.27341E+00 3.55562E+00 5.26382E+00-3.17847E-04 1.13342E-03
 -1     22844 5.70830E+00 3.79674E+00 3.13208E+00 4.68839E+00-1.80042E-03-1.93810E-03
 -1     22845 7.89359E+00 3.46111E+00 3.74669E+00 4.71389E+00-4.83251E-05 1.34014E-03
 -1     22846 5.92772E+00 1.62535E+00 2.49257E+00 2.44597E+00-3.27074E-04-1.14079E-03
 -1     22847 2.94473E+00 2.40811E-01 1.05799E+00 1.48865E+00-2.67323E-05 3.66683E-03
 -1     22848-1.37040E+00-1.58617E+00-9.71484E-01 6.66160E-01 1.77107E-02-6.90228E-03
 -1     22849-7.33438E+00-3.83400E+00-3.67508E+00 1.64490E-01 5.66371E-03 4.61179E-03
 -1     22850-1.64189E+01-6.22042E+00-7.46531E+00 4.10683E-01 1.02855E-01-1.91841E-02
 -1     22851-1.93971E+01-1.70009E+00-6.96783E+00-5.63613E+00 2.24228E-03 4.38956E-03
 -1     22852-1.58029E+01-1.54022E+00-5.72321E+00-4.97690E+00-1.76855E-04-4.57876E-04
 -1     22853-1.50471E+01-1.33839E+00-5.40621E+00-4.56860E+00-6.59826E-04 3.30807E-05
 -1     22854-1.39861E+01-1.06720E+00-4.96614E+00-3.99639E+00 7.29045E-04-1.41167E-03
 -1     22855-1.25185E+01-7.51086E-01-4.37991E+00-3.26627E+00 3.02321E-03-8.19411E-04
 -1     22856-1.03144E+01-3.65977E-01-3.53059E+00-2.28019E+00 7.55355E-03 3.87505E-03
 -1     22857-7.20303E+00 3.56533E-02-2.36627E+00-1.03087E+00-2.06571E-03 5.28985E-03
 -1     22858-3.07618E+00 1.74704E+00-3.99726E-01 1.37673E+00 5.27478E-02 1.86868E-02
 -1     22859-2.21300E-01 9.54055E+00 3.08936E+00 7.38559E+00-2.00433E-02-8.21894E-03
 -1     22860 7.68396E+00 2.61074E+00 3.39733E+00 3.39899E+00-3.08097E-05 1.05181E-03
 -1     22861 8.29114E+00 3.20936E+00 3.79771E+00 4.19446E+00-7.94880E-03 1.48862E-03
 -1     22862-2.31030E+01-1.60903E+00-8.06995E+00-5.22908E+00-5.09792E-02-9.24291E-02
 -1     22863-1.63966E+01-1.67040E+00-5.96216E+00-5.24781E+00 8.89688E-04 1.30636E-03
 -1     22864-1.69975E+01-1.73717E+00-6.18377E+00-5.42219E+00-5.57607E-04 8.96469E-04
 -1     22865 8.56886E+00 9.14446E+00 5.84458E+00 9.13731E+00 7.05493E-03 1.11896E-02
 -1     22866 8.15998E+00 9.05765E+00 5.68131E+00 8.93727E+00 1.93801E-03 3.40957E-03
 -1     22867-2.09431E+00 3.64278E+00 5.15799E-01 2.82419E+00-1.22298E-02-2.09580E-02
 -1     22868 9.75372E+00 9.31365E+00 6.29131E+00 9.68180E+00-3.97953E-03-2.63927E-03
 -1     22869 9.52711E+00 9.26080E+00 6.19928E+00 9.57154E+00-1.94834E-04-7.03488E-04
 -1     22870 2.89181E+00 9.03001E+00 3.92838E+00 7.54080E+00 1.09484E-04-9.35469E-03
 -1     22871 1.21495E+00 9.05021E+00 3.36174E+00 7.35694E+00 6.64665E-03-4.14524E-02
 -1     22872 1.04837E+01 9.36617E+00 6.55427E+00 1.00144E+01-8.88436E-04-1.91041E-03
 -1     22873 1.03399E+01 9.35168E+00 6.50287E+00 9.94979E+00 1.42606E-03 1.88195E-03
 -1     22874 9.23054E+00 9.23297E+00 6.09710E+00 9.44205E+00-6.23215E-03 6.20853E-05
 -1     22875 8.94795E+00 9.17750E+00 5.98117E+00 9.29440E+00-2.14713E-03 9.69261E-03
 -1     22876 7.45752E+00 8.65388E+00 5.31835E+00 8.44548E+00 1.95563E-03-8.83006E-03
 -1     22877 8.16279E+00 8.68172E+00 5.55910E+00 8.70523E+00 3.06766E-04-1.04313E-03
 -1     22878 1.09750E+01 9.30186E+00 6.69551E+00 1.01996E+01 4.55435E-04-2.51132E-03
 -1     22879 1.08976E+01 9.33524E+00 6.67794E+00 1.01794E+01 1.16891E-03-6.94530E-04
 -1     22880 1.12664E+01 9.06002E+00 6.70783E+00 1.02071E+01-2.10500E-03-3.52202E-03
 -1     22881 1.12457E+01 9.14759E+00 6.72982E+00 1.02419E+01-8.91065E-04-2.59544E-03
 -1     22882 1.13571E+01 8.57928E+00 6.58463E+00 1.00045E+01-3.10064E-03-1.15915E-03
 -1     22883 1.13840E+01 8.72439E+00 6.64109E+00 1.00911E+01 1.78947E-03 3.94199E-03
 -1     22884 1.12368E+01 7.87057E+00 6.30841E+00 9.56802E+00-6.42670E-04-8.52338E-04
 -1     22885 1.13216E+01 8.06792E+00 6.40239E+00 9.71428E+00 1.99391E-03 3.77080E-04
 -1     22886 1.08654E+01 6.98157E+00 5.89290E+00 8.89615E+00-6.96603E-04-2.81480E-04
 -1     22887 1.10174E+01 7.22092E+00 6.02325E+00 9.10180E+00 3.34752E-03 2.16973E-03
 -1     22888 1.02503E+01 6.03989E+00 5.37782E+00 8.04696E+00 1.31057E-04-1.81351E-03
 -1     22889 1.04567E+01 6.27721E+00 5.52527E+00 8.29242E+00 2.34213E-03 5.69576E-03
 -1     22890 9.37445E+00 5.19455E+00 4.81278E+00 7.12023E+00 8.34264E-04-1.30465E-03
 -1     22891 9.64289E+00 5.42066E+00 4.96935E+00 7.38283E+00-5.86556E-04 1.86313E-03
 -1     22892 8.33201E+00 4.58918E+00 4.26211E+00 6.24478E+00 7.04607E-03-1.10786E-03
 -1     22893 8.59904E+00 4.71255E+00 4.39636E+00 6.46858E+00 2.53608E-03 1.82499E-03
 -1     22894 7.20714E+00 4.16921E+00 3.75555E+00 5.45844E+00-2.84135E-03-2.25366E-03
 -1     22895 7.48857E+00 4.29439E+00 3.88716E+00 5.66191E+00-1.95440E-03 9.30065E-04
 -1     22896 6.14787E+00 3.75408E+00 3.26539E+00 4.78805E+00-8.13162E-04-7.01109E-05
 -1     22897 7.58720E+00 3.48560E+00 3.65244E+00 4.86704E+00 2.20953E-03 7.62817E-04
 -1     22898 7.26838E+00 3.49930E+00 3.55891E+00 4.88669E+00-3.50925E-03 1.53063E-04
 -1     22899 5.32262E+00 3.52061E+00 2.91762E+00 4.41420E+00 2.13656E-03 2.17325E-03
 -1     22900 8.36290E+00 3.14605E+00 3.79745E+00 4.51599E+00 4.38598E-03-1.24119E-03
 -1     22901 8.25033E+00 3.21597E+00 3.78439E+00 4.63459E+00 1.44729E-03-3.71234E-03
 -1     22902 6.92481E+00 3.61670E+00 3.48213E+00 4.88707E+00-2.92567E-03-1.66567E-03
 -1     22903 6.54197E+00 3.62256E+00 3.35867E+00 4.84745E+00-1.25338E-04 7.52771E-04
 -1     22904 6.30515E+00 3.85200E+00 3.35268E+00 4.87383E+00 5.92421E-04 4.88744E-04
 -1     22905 7.10577E+00 3.62527E+00 3.54244E+00 4.93943E+00-6.20305E-04-1.52324E-03
 -1     22906 5.81880E+00 1.07974E+00 2.27416E+00 2.59211E+00 1.54213E-03 1.38643E-03
 -1     22907 6.41355E+00 1.37169E+00 2.56843E+00 2.82227E+00-6.61876E-04-1.91987E-03
 -1     22908 8.19982E+00 2.56053E+00 3.55873E+00 3.87257E+00 3.36014E-03 7.64721E-04
 -1     22909 8.34135E+00 2.69954E+00 3.64527E+00 4.05850E+00 3.85913E-03 2.30443E-03
 -1     22910-2.10728E+01-1.52534E+00-7.41237E+00-4.20203E+00 3.98439E-02 3.21654E-02
 -1     22911-2.30210E+01-1.76847E+00-8.08299E+00-3.75881E+00 4.96205E-02-8.27433E-02
 -1     22912 6.91600E+00 1.65611E+00 2.83305E+00 3.03175E+00 3.45795E-03 9.27070E-04
 -1     22913 7.35201E+00 1.89986E+00 3.05612E+00 3.25795E+00-1.49828E-03 4.27710E-04
 -1     22914 6.85689E+00 1.23142E+00 2.67141E+00 3.16388E+00-3.54385E-03 2.19563E-03
 -1     22915 8.41447E+00 2.87609E+00 3.72837E+00 4.21964E+00 2.90985E-03-3.29061E-03
 -1     22916 8.42696E+00 2.97976E+00 3.76513E+00 4.37878E+00-1.24214E-03-4.21146E-03
 -1     22917 8.51180E+00 2.92772E+00 3.77526E+00 4.54233E+00-2.32644E-03-8.55467E-04
 -1     22918 8.52714E+00 2.59573E+00 3.67027E+00 4.26958E+00-1.68362E-03 1.40290E-03
 -1     22919 2.67812E+00-3.15731E-01 7.79822E-01 1.71788E+00-1.65017E-05 4.39479E-04
 -1     22920 3.57571E+00 5.69077E-02 1.19615E+00 1.93317E+00-7.79832E-03 1.41829E-03
 -1     22921-1.86384E+00-2.08971E+00-1.29955E+00 9.79987E-01 6.76852E-03-4.24719E-03
 -1     22922-5.87705E-01-1.53505E+00-7.07238E-01 1.13620E+00 4.37102E-03-5.69975E-03
 -1     22923-8.08602E+00-3.98404E+00-3.98003E+00 5.49005E-01-1.69887E-02 8.71032E-03
 -1     22924-6.30844E+00-3.40232E+00-3.20184E+00 6.09818E-01 6.80498E-06 1.67558E-03
 -1     22925-1.74442E+01-4.84647E+00-7.38322E+00 6.35925E-01-9.84672E-02 5.10648E-02
 -1     22926-1.46341E+01-5.03449E+00-6.45239E+00 5.29431E-01-7.75171E-02 5.20112E-02
 -1     22927-1.81875E+01-1.54407E+00-6.51002E+00-4.86438E+00-2.95167E-03 1.03596E-02
 -1     22928-1.87894E+01-1.54951E+00-6.71823E+00-4.84765E+00 4.73118E-03-2.94595E-03
 -1     22929-2.42741E+01-2.73762E+00-9.08436E+00-4.55165E-01-7.92786E-02 9.35167E-02
 -1     22930-2.10178E+01-4.62675E+00-8.48631E+00 2.31127E-01 4.93603E-02-9.65081E-02
 -1     22931-1.86422E+01-3.81827E+00-7.40678E+00 1.67249E-02 6.93470E-02-1.49437E-02
 -1     22932-2.36061E+01-2.35824E+00-8.49593E+00-2.51915E+00-1.04075E-01 1.32307E-01
 -1     22933-1.50482E+01-1.39651E+00-5.42725E+00-4.64303E+00-7.77531E-04-3.60461E-04
 -1     22934-1.51948E+01-1.43232E+00-5.48714E+00-4.69834E+00 4.09756E-04-6.46673E-04
 -1     22935-1.61338E+01-1.54519E+00-5.83809E+00-4.89717E+00 1.58210E-03 6.94194E-04
 -1     22936-1.63776E+01-1.57376E+00-5.92448E+00-4.91761E+00 3.55068E-04-9.25228E-04
 -1     22937-1.43661E+01-1.19391E+00-5.13634E+00-4.30438E+00 1.14611E-04 1.38834E-03
 -1     22938-1.45366E+01-1.24927E+00-5.20960E+00-4.39521E+00-3.75106E-05 1.21788E-03
 -1     22939-1.66445E+01-1.56429E+00-6.00820E+00-4.92199E+00-2.35546E-03-3.67537E-04
 -1     22940-1.69407E+01-1.56956E+00-6.10814E+00-4.94029E+00-1.14121E-03-4.64784E-03
 -1     22941-1.53774E+01-1.33724E+00-5.51636E+00-4.32244E+00-4.40759E-04 8.86886E-04
 -1     22942-1.47192E+01-1.30666E+00-5.28793E+00-4.49257E+00-1.78670E-04-8.90602E-04
 -1     22943-1.48711E+01-1.35157E+00-5.35351E+00-4.56509E+00-3.14795E-04-1.15650E-03
 -1     22944-1.33168E+01-9.85646E-01-4.72019E+00-3.83087E+00 4.56256E-04 6.56032E-04
 -1     22945-1.35417E+01-9.06125E-01-4.76987E+00-3.80300E+00-3.32627E-04 2.85489E-03
 -1     22946-1.37680E+01-9.83483E-01-4.86775E+00-3.93513E+00-2.26830E-04 1.72676E-03
 -1     22947-1.24581E+01-5.45117E-01-4.29045E+00-3.12211E+00 1.21668E-03 8.64021E-04
 -1     22948-1.27615E+01-6.32672E-01-4.42024E+00-3.29648E+00 6.94034E-06 1.03526E-03
 -1     22949-1.10291E+01-1.73871E-01-3.69929E+00-2.30770E+00-1.35667E-03-2.34594E-04
 -1     22950-1.14677E+01-2.69444E-01-3.87398E+00-2.52880E+00-1.94914E-03 3.65373E-03
 -1     22951-8.64856E+00 3.09933E-01-2.75619E+00-1.08927E+00-8.14934E-03-2.13178E-03
 -1     22952-9.36405E+00 1.75244E-01-3.02781E+00-1.40265E+00-5.48596E-03-1.87464E-04
 -1     22953-5.11364E+00 1.20343E+00-1.29235E+00 6.99121E-01 3.97667E-03 5.14320E-03
 -1     22954-6.07081E+00 9.54233E-01-1.68880E+00 2.74577E-01 4.51912E-03 3.99755E-03
 -1     22955-2.88289E+00 2.44965E+00-1.45558E-01 1.99787E+00-3.59375E-03-7.69955E-05
 -1     22956-4.03939E+00 1.78914E+00-7.48096E-01 1.38899E+00 1.35366E-03 4.37985E-03
 -1     22957-3.35648E+00 2.62260E+00-2.48406E-01 2.61989E+00-1.58995E-03-4.42963E-03
 -1     22958-1.54664E+00 4.93071E+00 1.11735E+00 4.15037E+00-1.00092E-02 6.61828E-03
 -1     22959-9.46326E-01 7.31705E+00 2.09591E+00 6.31588E+00-1.50739E-02-1.22057E-02
 -1     22960-1.08426E+00 6.77011E+00 1.88252E+00 5.80459E+00-5.96407E-03-7.09091E-03
 -1     22961 7.65411E+00 9.03154E+00 5.50120E+00 8.74681E+00 1.00478E-03-5.94929E-03
 -1     22962 7.09198E+00 8.92324E+00 5.28078E+00 8.51069E+00-6.31284E-03-8.81578E-03
 -1     22963 6.53296E+00 8.61689E+00 4.99611E+00 8.13339E+00-4.35883E-04-1.80763E-03
 -1     22964-2.30132E-01 8.81744E+00 2.84263E+00 7.84546E+00-1.25281E-02 1.92056E-04
 -1     22965-4.35074E-01 8.88095E+00 2.77536E+00 7.68641E+00-1.86270E-02 9.80443E-03
 -1     22966-1.20048E+00 5.97196E+00 1.57762E+00 4.91675E+00-1.89906E-03-5.03152E-04
 -1     22967 1.84329E-01 9.01532E+00 3.03868E+00 7.81805E+00-2.10868E-02 5.85544E-02
 -1     22968 7.70887E+00 2.14805E+00 3.24903E+00 3.46419E+00-4.73687E-04 4.61746E-04
 -1     22969 7.98801E+00 2.35333E+00 3.40698E+00 3.67634E+00-1.59195E-03 3.20911E-03
 -1     22970 8.28212E+00 2.20640E+00 3.46375E+00 3.94205E+00-3.69087E-03 2.17440E-03
 -1     22971 7.71950E+00 1.74958E+00 3.12643E+00 3.55474E+00-1.78033E-04 1.19581E-03
 -1     22972 1.01541E+01 9.35152E+00 6.43921E+00 9.86590E+00 7.15929E-04 2.87874E-03
 -1     22973 9.97662E+00 9.32460E+00 6.36838E+00 9.77874E+00-2.51563E-03-1.44931E-03
 -1     22974 8.69048E+00 8.69808E+00 5.73854E+00 8.92056E+00-1.14931E-04 1.70207E-04
 -1     22975 9.12561E+00 8.69668E+00 5.88262E+00 9.09201E+00 8.25051E-04-3.63307E-03
 -1     22976 1.07553E+01 9.35222E+00 6.63788E+00 1.01243E+01-8.55942E-04 1.49626E-04
 -1     22977 1.06446E+01 9.36219E+00 6.60157E+00 1.00810E+01-1.51707E-03-1.87761E-03
 -1     22978 9.50813E+00 8.67693E+00 6.00249E+00 9.24050E+00 1.75527E-03-1.58752E-03
 -1     22979 9.83149E+00 8.63900E+00 6.09481E+00 9.36034E+00 7.90833E-04-8.15479E-04
 -1     22980-1.53790E+01-1.46658E+00-5.55936E+00-4.75894E+00 3.58166E-04-7.12551E-04
 -1     22981-1.55394E+01-1.49295E+00-5.62083E+00-4.80193E+00 3.03400E-05-9.11949E-04
 -1     22982-1.40432E+01-1.20338E+00-5.03221E+00-4.15536E+00 9.92957E-04 4.70739E-04
 -1     22983 6.48819E+00 8.95397E+00 5.10935E+00 8.32127E+00-1.26253E-02-1.38101E-02
 -1     22984 5.67366E+00 8.78663E+00 4.78598E+00 8.00547E+00-2.24978E-03-9.18923E-03
 -1     22985 5.36265E+00 8.63542E+00 4.61712E+00 7.80482E+00 1.20191E-02 1.05385E-02
 -1     22986 1.12036E+01 7.66838E+00 6.22647E+00 9.43627E+00-2.90602E-03-1.43625E-03
 -1     22987 1.07917E+01 6.96637E+00 5.86195E+00 8.93179E+00-1.41705E-04-3.08412E-03
 -1     22988 1.10892E+01 7.44378E+00 6.11554E+00 9.25690E+00 1.18273E-03 1.02117E-04
 -1     22989-1.77721E+00 4.68878E+00 9.60238E-01 4.46676E+00-8.38282E-04 9.73670E-04
 -1     22990 1.13360E+01 8.96217E+00 6.69698E+00 1.01911E+01-6.60525E-04-1.74119E-03
 -1     22991 1.05263E+01 8.26805E+00 6.20314E+00 9.49108E+00 2.61342E-03-1.10476E-03
 -1     22992 1.13446E+01 8.85085E+00 6.66410E+00 1.01380E+01 4.89729E-04-1.31109E-03
 -1     22993 1.11438E+01 9.20406E+00 6.71443E+00 1.02298E+01 1.53305E-03-1.19723E-03
 -1     22994 1.10931E+01 9.26143E+00 6.71662E+00 1.02305E+01 1.61543E-03-8.24896E-04
 -1     22995 1.06607E+01 8.02621E+00 6.16793E+00 9.43519E+00-1.87117E-03-3.95726E-03
 -1     22996 1.01154E+01 8.56458E+00 6.16682E+00 9.44920E+00 1.79352E-03-2.07328E-03
 -1     22997 1.13279E+01 8.25371E+00 6.46065E+00 9.81362E+00 5.11899E-05-1.47408E-03
 -1     22998 1.13821E+01 8.42740E+00 6.53689E+00 9.93406E+00 1.98403E-03 1.42937E-03
 -1     22999 1.07185E+01 6.53891E+00 5.69576E+00 8.65138E+00 5.54320E-06-3.53971E-03
 -1     23000 1.05878E+01 6.50621E+00 5.64097E+00 8.48777E+00 9.74010E-04-1.33239E-04
 -1     23001 1.07716E+01 6.75549E+00 5.78313E+00 8.71807E+00-2.53968E-03-1.88652E-03
 -1     23002 9.84662E+00 5.60577E+00 5.09212E+00 7.59116E+00-6.96240E-04-1.24846E-04
 -1     23003 1.00816E+01 5.83892E+00 5.24676E+00 7.84600E+00 7.15129E-04 5.91442E-03
 -1     23004 8.85194E+00 4.84868E+00 4.52182E+00 6.65808E+00 2.18992E-03 8.45706E-04
 -1     23005 9.14671E+00 5.04022E+00 4.68528E+00 6.90937E+00 5.32703E-03-3.52774E-03
 -1     23006 7.76032E+00 4.37410E+00 4.00229E+00 5.83532E+00 1.89515E-03-1.29521E-03
 -1     23007 8.04479E+00 4.50324E+00 4.13912E+00 6.05891E+00-1.74070E-03-1.02375E-03
 -1     23008 5.15853E+00 7.46151E-01 1.95293E+00 2.37552E+00-2.91323E-03-1.90713E-03
 -1     23009 5.70429E+00 6.42167E-01 2.09493E+00 2.75649E+00 1.47978E-03 7.48724E-04
 -1     23010 4.41267E+00 4.08255E-01 1.59084E+00 2.14898E+00-4.34485E-06-3.09302E-03
 -1     23011 6.73325E+00 4.02091E+00 3.54985E+00 5.14465E+00 1.25256E-03 3.40622E-03
 -1     23012 6.97332E+00 4.10819E+00 3.65637E+00 5.30861E+00 3.76931E-04-3.40674E-03
 -1     23013 6.52310E+00 3.96300E+00 3.45152E+00 5.01551E+00 6.49888E-04-2.47651E-03
 -1     23014 7.85834E+00 3.37021E+00 3.70586E+00 4.81692E+00 1.01862E-03 5.67891E-04
 -1     23015 7.76418E+00 3.42222E+00 3.69442E+00 4.89301E+00-8.86200E-04 9.16099E-04
 -1     23016 8.07783E+00 3.34901E+00 3.77017E+00 4.73841E+00-1.41478E-03 7.53592E-04
 -1     23017 1.66260E+00-7.20663E-01 3.11262E-01 1.51779E+00-4.87604E-03-2.93491E-04
 -1     23018 2.35686E+00-7.15711E-01 5.40617E-01 1.96153E+00-4.15626E-04 1.03914E-03
 -1     23019 5.75946E-01-1.13906E+00-1.90746E-01 1.31881E+00-8.06830E-03-6.38341E-04
 -1     23020-2.03387E+01-1.60152E+00-7.24317E+00-4.55094E+00 8.86033E-03 4.36421E-02
 -1     23021-1.94439E+01-1.42964E+00-6.88406E+00-3.23603E+00-9.62008E-03-2.89305E-02
 -1     23022-1.93985E+01-1.52157E+00-6.90810E+00-4.68963E+00 4.64658E-03-5.74645E-03
 -1     23023 1.07638E+01 7.72672E+00 6.10364E+00 9.32006E+00 6.20986E-05-2.30436E-03
 -1     23024 4.20448E+00-1.61846E-02 1.38078E+00 2.35823E+00-2.87972E-03 5.61418E-04
 -1     23025-2.08518E+01-2.16807E+00-7.58913E+00-1.51041E+00 1.76931E-02-4.75248E-02
 -1     23026-3.23540E+00-2.47683E+00-1.87581E+00 8.35339E-01-2.52357E-03 5.35037E-04
 -1     23027-2.38686E+00-2.26799E+00-1.53512E+00 1.30676E+00 4.10583E-03-3.25325E-03
 -1     23028-4.71562E+00-3.00113E+00-2.54261E+00 7.14746E-01-7.85790E-03 1.77235E-03
 -1     23029 7.39065E+00 3.87571E+00 3.71632E+00 5.30793E+00 1.77724E-03-2.06081E-03
 -1     23030 1.78550E-01-1.48751E+00-4.33993E-01 1.60632E+00 8.67132E-04-2.07388E-05
 -1     23031-5.36847E+00-3.02809E+00-2.77082E+00 1.07302E+00 3.09508E-04 4.78781E-03
 -1     23032-1.21068E+01-4.95730E+00-5.60325E+00 5.40670E-01-3.14931E-03 1.06688E-02
 -1     23033-9.98684E+00-4.32917E+00-4.70342E+00 5.10101E-01 1.45558E-02-1.51493E-02
 -1     23034-1.79890E+01-1.34954E+00-6.38034E+00-3.86617E+00 6.30818E-04-9.63294E-03
 -1     23035-1.72907E+01-1.55991E+00-6.21564E+00-4.91895E+00-3.10665E-03 2.37751E-03
 -1     23036-1.76969E+01-1.57079E+00-6.35798E+00-4.91796E+00-4.47860E-03-1.86620E-03
 -1     23037-1.59123E+01-1.53399E+00-5.75996E+00-4.87107E+00 6.29512E-04 1.41579E-03
 -1     23038-1.48530E+01-1.32189E+00-5.33777E+00-4.30736E+00 6.40010E-04 5.54219E-04
 -1     23039-1.57329E+01-1.51607E+00-5.69279E+00-4.84205E+00-9.53500E-04-2.44004E-04
 -1     23040-1.36793E+01-1.10772E+00-4.88050E+00-4.01435E+00-3.39158E-04 6.20142E-04
 -1     23041-1.59988E+01-1.33945E+00-5.72020E+00-4.27263E+00-1.56333E-04-1.25922E-04
 -1     23042-1.33048E+01-8.16805E-01-4.66151E+00-3.63790E+00 4.36872E-04-1.10360E-03
 -1     23043-1.20807E+01-4.71785E-01-4.14392E+00-3.00346E+00 6.57938E-04-5.67218E-04
 -1     23044-1.30326E+01-7.30263E-01-4.54407E+00-3.48126E+00-1.21662E-03-3.50505E-03
 -1     23045-1.39843E+01-1.06063E+00-4.96402E+00-4.07645E+00 2.45688E-04-5.88008E-04
 -1     23046-1.41804E+01-1.13024E+00-5.05466E+00-4.18859E+00 1.80912E-03-3.46833E-04
 -1     23047-1.15711E+01-2.52749E-01-3.90371E+00-2.63444E+00 2.04868E-03 1.76628E-03
 -1     23048-1.29451E+01-8.40347E-01-4.55135E+00-3.60541E+00 1.18091E-03-4.40339E-04
 -1     23049-1.18264E+01-3.62346E-01-4.02316E+00-2.73764E+00 2.05141E-03 3.90583E-03
 -1     23050-1.21666E+01-4.48448E-01-4.16418E+00-2.92606E+00 3.68454E-03 4.35385E-03
 -1     23051-1.00301E+01 4.18149E-02-3.28924E+00-1.77856E+00-7.64757E-04 1.14257E-03
 -1     23052-1.05648E+01-5.71156E-02-3.50452E+00-2.03688E+00 2.23866E-03-1.97357E-04
 -1     23053-9.62070E+00 3.85912E-01-3.04722E+00-1.30473E+00 7.43255E-04 1.00451E-04
 -1     23054-8.51075E+00 6.67252E-01-2.58486E+00-6.35646E-01 2.06439E-03-1.94146E-03
 -1     23055-7.05693E+00 6.48207E-01-2.12046E+00-2.90789E-01-4.59274E-03-4.46347E-03
 -1     23056-7.86061E+00 5.16637E-01-2.42599E+00-6.34317E-01-5.43028E-03-5.61411E-03
 -1     23057-7.09501E+00 1.03825E+00-1.99866E+00 2.48654E-01 2.61387E-03 3.70772E-03
 -1     23058-5.33129E+00 1.59378E+00-1.23578E+00 1.32486E+00 1.68965E-03 1.25329E-03
 -1     23059-1.44298E+01-1.27485E+00-5.18349E+00-4.25266E+00-1.77907E-03 2.73459E-03
 -1     23060-5.10737E-01 8.51359E+00 2.62111E+00 7.43069E+00-7.52228E-03-1.89403E-02
 -1     23061-7.38506E-01 8.27816E+00 2.49675E+00 7.06435E+00 1.50210E-02 5.21619E-03
 -1     23062 1.51250E-01 8.77326E+00 2.94146E+00 7.72502E+00-1.88401E-02 7.21598E-03
 -1     23063 4.83729E+00 8.92008E+00 4.54788E+00 7.83032E+00 1.37634E-02-4.46762E-03
 -1     23064 3.78483E+00 8.86184E+00 4.17247E+00 7.48607E+00-2.37231E-03 1.31413E-02
 -1     23065 7.89112E+00 3.97447E+00 3.91537E+00 5.63766E+00-2.74922E-04-4.11984E-04
 -1     23066 8.25118E+00 3.19145E+00 3.77526E+00 4.75665E+00-2.69711E-03-3.66204E-04
 -1     23067 1.05889E+01 6.07774E+00 5.50108E+00 8.32460E+00-4.67244E-04-1.94237E-03
 -1     23068 1.91106E+00 8.97705E+00 3.59288E+00 7.48102E+00 2.20268E-05 7.89622E-03
 -1     23069-1.18064E+00 6.62304E+00 1.79660E+00 6.28388E+00-1.52776E-02-7.16060E-03
 -1     23070-1.10274E+01-3.64376E-02-3.65257E+00-2.23445E+00 1.27243E-03-3.13320E-03
 -1     23071 3.85956E+00 8.80111E+00 4.17996E+00 7.49827E+00 1.00850E-03-9.66708E-04
 -1     23072-1.68637E+01-1.31302E+00-6.00406E+00-4.15033E+00-7.93173E-03 8.23880E-03
 -1     23073-8.88124E+00-3.76356E+00-4.17078E+00 9.15514E-01 1.65502E-02-9.88071E-03
 -1     23074 8.41914E+00 4.09682E+00 4.12991E+00 5.98094E+00-7.99442E-04-1.67564E-03
 -1     23075 9.39388E+00 4.51918E+00 4.59068E+00 6.74561E+00 4.74339E-03-3.70388E-03
 -1     23076 1.01381E+01 5.20006E+00 5.06073E+00 7.56093E+00 2.40554E-03-3.01301E-04
 -1     23077 8.95025E+00 4.27691E+00 4.36535E+00 6.35066E+00 4.56772E-04-6.09493E-05
 -1     23078 1.03350E+01 8.45047E+00 6.19833E+00 9.48645E+00-3.40130E-03-5.01354E-03
 -1     23079 9.79593E+00 4.83684E+00 4.82776E+00 7.15745E+00-3.48484E-03 1.66311E-03
 -1     23080 1.07957E+01 7.37448E+00 5.99792E+00 9.15779E+00-1.08176E-03-4.01588E-03
 -1     23081 1.04014E+01 5.64109E+00 5.29216E+00 7.96189E+00-2.17621E-03-4.42606E-03
 -1     23082 6.93354E+00 3.76898E+00 3.52748E+00 5.04682E+00-7.93338E-04-4.31602E-04
 -1     23083-1.32688E+01-4.06715E+00-5.70458E+00 8.09640E-01 1.92074E-02-1.38025E-02
 -1     23084-1.25346E+01-6.65614E-01-4.35758E+00-3.32913E+00 6.35050E-05 5.05752E-04
 -1     23085-1.04074E+01 1.70414E-01-3.37881E+00-1.80425E+00 8.20614E-04 1.43338E-03
 -1     23086-7.05293E-01 8.06011E+00 2.42945E+00 7.42582E+00-3.66122E-02-1.43351E-02
 -1     23087 9.20937E+00 7.83692E+00 5.62527E+00 8.73047E+00-6.11930E-04 1.84492E-03
 -1     23088 9.06838E+00 7.88690E+00 5.59688E+00 8.69364E+00 1.38478E-03 1.76099E-03
 -1     23089 9.66085E+00 4.18825E+00 4.57735E+00 6.74158E+00-7.18086E-03-4.55385E-04
 -1     23090 9.83067E+00 4.36050E+00 4.68901E+00 6.94791E+00-1.04048E-02-2.11196E-03
 -1     23091 9.92088E+00 7.21892E+00 5.65667E+00 8.77444E+00-2.61821E-03-4.40462E-03
 -1     23092 9.86488E+00 7.36704E+00 5.68548E+00 8.81806E+00-1.90672E-04 3.08549E-05
 -1     23093 1.01042E+01 4.84744E+00 4.93290E+00 7.45998E+00 1.08434E-03-1.94229E-03
 -1     23094 1.02092E+01 5.05828E+00 5.03638E+00 7.65190E+00 2.51754E-03 9.26179E-04
 -1     23095 1.02679E+01 5.69630E+00 5.26184E+00 8.09530E+00-2.84084E-03-1.14604E-02
 -1     23096 1.03087E+01 5.92453E+00 5.34958E+00 8.24484E+00 1.34676E-03-5.12830E-03
 -1     23097-2.82235E+00 3.71029E+00 2.91546E-01 3.71607E+00 8.80136E-03 1.16039E-03
 -1     23098 7.32792E+00 3.66844E+00 3.62596E+00 5.05263E+00-6.99285E-04 1.39076E-03
 -1     23099 8.93351E+00 3.80361E+00 4.20316E+00 6.01211E+00-4.63226E-04-5.26488E-04
 -1     23100 9.15125E+00 3.86488E+00 4.29466E+00 6.20273E+00-3.76205E-03-4.18135E-03
 -1     23101 1.01943E+01 6.53787E+00 5.51832E+00 8.54926E+00-3.29748E-03-1.15466E-02
 -1     23102 1.01786E+01 6.73678E+00 5.57784E+00 8.64283E+00 1.42862E-03-5.18113E-03
 -1     23103 9.94839E+00 4.49281E+00 4.76544E+00 7.11151E+00-2.22715E-03-4.45276E-03
 -1     23104 1.00533E+01 4.67728E+00 4.86156E+00 7.31625E+00 5.15536E-04-5.99728E-04
 -1     23105 9.90927E+00 4.11898E+00 4.62928E+00 7.00918E+00 3.33982E-04-8.70080E-04
 -1     23106 9.78122E+00 3.82732E+00 4.49333E+00 6.69834E+00-5.31184E-03-5.96013E-03
 -1     23107 9.32488E+00 3.95286E+00 4.37464E+00 6.37134E+00 2.04161E-05-1.18819E-02
 -1     23108 9.53487E+00 4.08167E+00 4.48795E+00 6.57344E+00-1.69177E-03-5.78639E-03
 -1     23109 9.31411E+00 3.45019E+00 4.20910E+00 6.03623E+00-3.91734E-03-4.60781E-03
 -1     23110 8.41481E+00 3.09023E+00 3.79651E+00 4.83472E+00-2.03346E-04 1.44609E-04
 -1     23111 8.20488E+00 3.20670E+00 3.76534E+00 4.91164E+00-1.36469E-03-4.67300E-04
 -1     23112 5.53396E+00 2.50382E-01 1.90940E+00 2.92548E+00 7.67207E-04-8.14144E-04
 -1     23113 6.20087E+00 5.72892E-01 2.23662E+00 3.11417E+00-3.91621E-03-1.32908E-03
 -1     23114-1.38811E+01-3.36245E+00-5.68563E+00 5.95751E-01-6.24998E-03 1.08298E-02
 -1     23115-1.17112E+01-3.48371E+00-5.01001E+00 7.76081E-01 3.58613E-03-9.05679E-05
 -1     23116 1.02250E+01 5.26262E+00 5.11327E+00 7.78855E+00 8.70643E-04 4.77809E-03
 -1     23117 1.02933E+01 5.47684E+00 5.20650E+00 7.95941E+00-2.83312E-03-3.81185E-03
 -1     23118 9.92999E+00 4.91045E+00 4.89435E+00 7.57813E+00-5.90153E-03-9.10837E-03
 -1     23119 9.96527E+00 4.48520E+00 4.76911E+00 7.30219E+00 8.34630E-04 2.56727E-03
 -1     23120-6.06356E+00-3.04805E+00-3.00457E+00 1.26107E+00 2.62164E-03 5.23403E-04
 -1     23121-4.44158E+00-2.67372E+00-2.34695E+00 1.36312E+00 1.72519E-03-7.49244E-04
 -1     23122 7.97355E+00 3.39991E+00 3.75330E+00 4.98929E+00-3.49358E-03-5.38600E-04
 -1     23123 7.66407E+00 3.48997E+00 3.68133E+00 5.02728E+00-4.41117E-03-2.56736E-04
 -1     23124 7.53019E+00 3.67357E+00 3.69354E+00 5.15427E+00 2.19339E-03 4.35245E-03
 -1     23125 8.14272E+00 3.32574E+00 3.78417E+00 5.06439E+00-1.37065E-03-2.97288E-04
 -1     23126 1.99479E+00-1.06022E+00 3.07392E-01 2.16331E+00 6.86230E-04-2.81269E-04
 -1     23127 3.01100E+00-6.89385E-01 7.65727E-01 2.33644E+00 7.22197E-04 3.19890E-04
 -1     23128-9.64666E+00-3.50137E+00-4.33547E+00 1.03300E+00 1.73801E-03-1.46048E-03
 -1     23129-7.72294E+00-3.17803E+00-3.59423E+00 1.06838E+00 2.45533E-03-7.03318E-04
 -1     23130-6.77483E+00-2.83276E+00-3.16941E+00 1.38013E+00 6.15973E-04 9.73668E-04
 -1     23131-1.04592E+01-3.00427E+00-4.44528E+00 9.49577E-01-2.27896E-03-3.73600E-03
 -1     23132 6.77998E+00 8.66309E-01 2.52509E+00 3.30663E+00 9.11050E-05 2.98426E-03
 -1     23133 7.28066E+00 1.14012E+00 2.78357E+00 3.49675E+00-7.33029E-03 7.29500E-04
 -1     23134 6.67466E+00 5.92683E-01 2.40114E+00 3.46364E+00 1.74081E-03-4.72881E-04
 -1     23135-9.57473E+00 5.61115E-01-2.97583E+00-1.34764E+00-5.20083E-04-3.23692E-03
 -1     23136-9.86253E+00 4.45484E-01-3.10806E+00-1.56037E+00-2.95603E-03-3.47140E-05
 -1     23137-1.74236E+01-1.39082E+00-6.20725E+00-2.61943E+00 5.06806E-03 3.43595E-03
 -1     23138-1.82052E+01-1.61991E+00-6.56735E+00-2.08047E+00 1.16039E-02 9.86931E-03
 -1     23139 7.76585E+00 3.69484E+00 3.78229E+00 5.29038E+00 3.14765E-03 3.14785E-03
 -1     23140-1.11131E+01-2.03575E-01-3.73457E+00-2.58262E+00 7.67773E-04-1.29180E-03
 -1     23141-1.13316E+01-3.13060E-01-3.84224E+00-2.73636E+00 4.85918E-03 2.86537E-03
 -1     23142 1.00841E+01 6.90483E+00 5.61045E+00 8.68989E+00-4.80121E-03-5.21516E-03
 -1     23143 1.00414E+01 7.08142E+00 5.65193E+00 8.75927E+00-2.58671E-03-4.34928E-03
 -1     23144 9.28724E+00 6.44900E+00 5.19294E+00 8.15635E+00-8.70402E-04-2.67421E-03
 -1     23145 9.51390E+00 6.12787E+00 5.16083E+00 8.09928E+00 1.01190E-03-1.84055E-03
 -1     23146-1.86245E+01-2.53824E+00-6.98902E+00-6.94269E-01 1.27289E-02-5.67229E-03
 -1     23147-1.63041E+01-3.31408E+00-6.47099E+00 6.24688E-02-1.01639E-02 1.69235E-02
 -1     23148-1.45033E+01-2.75505E+00-5.69326E+00 1.37025E-01 3.81537E-03-1.15637E-02
 -1     23149-1.83918E+01-2.01906E+00-6.75626E+00-1.50240E+00 8.06411E-03 2.47267E-02
 -1     23150-1.35703E+01-1.09786E+00-4.84301E+00-3.70078E+00-1.49755E-03 1.32253E-03
 -1     23151-1.38190E+01-1.13326E+00-4.93527E+00-3.71618E+00 5.07911E-04-2.25457E-04
 -1     23152-1.27171E+01-9.09658E-01-4.49623E+00-3.53127E+00 3.76239E-04 1.38992E-04
 -1     23153-1.29126E+01-9.64116E-01-4.57880E+00-3.58925E+00 2.41174E-03 1.19669E-03
 -1     23154-1.15344E+01-4.27844E-01-3.94854E+00-2.89476E+00 1.37297E-03-3.50343E-04
 -1     23155-1.17316E+01-5.16703E-01-4.04366E+00-3.02036E+00-8.59888E-04-9.39210E-04
 -1     23156-1.01609E+01-2.40215E-03-3.35240E+00-2.16194E+00 4.14510E-03 4.48503E-03
 -1     23157-1.19346E+01-6.09025E-01-4.13962E+00-3.15186E+00-1.80821E-03-2.00188E-03
 -1     23158-1.21180E+01-6.87339E-01-4.22574E+00-3.25614E+00 8.45620E-04 3.26778E-04
 -1     23159-1.05569E+01-2.30077E-01-3.56005E+00-2.45238E+00-9.98505E-04-9.56592E-04
 -1     23160-1.39351E+00 6.52771E+00 1.69157E+00 6.38231E+00-9.05609E-03-8.64339E-03
 -1     23161-1.83347E+00 5.40842E+00 1.18096E+00 5.48619E+00 2.44341E-03 2.86073E-03
 -1     23162 3.93792E+00-3.84956E-01 1.17227E+00 2.53562E+00 1.08039E-03-6.26161E-04
 -1     23163 4.77768E+00-3.98591E-02 1.56336E+00 2.71985E+00-6.37307E-04-4.12382E-04
 -1     23164 5.33279E+00-1.11319E-02 1.75605E+00 3.09421E+00 9.68307E-04-3.02111E-05
 -1     23165 3.63712E+00-6.23031E-01 9.94429E-01 2.72103E+00 4.05765E-04 7.57621E-06
 -1     23166-1.23250E+01-7.74043E-01-4.32317E+00-3.36557E+00 5.40520E-04 1.03990E-03
 -1     23167-1.25092E+01-8.40546E-01-4.40700E+00-3.44680E+00 9.36028E-04 1.39765E-03
 -1     23168-1.13786E+01-6.00587E-01-3.95319E+00-2.89069E+00-6.53871E-05 1.44718E-04
 -1     23169-1.09646E+01-4.27011E-01-3.75932E+00-2.69777E+00 2.59188E-04 7.73064E-05
 -1     23170-1.01174E+01 3.06032E-01-3.23740E+00-1.78895E+00-1.29592E-03 5.10783E-05
 -1     23171-1.03712E+01 1.88126E-01-3.36097E+00-1.98492E+00 2.46448E-03 2.48712E-03
 -1     23172-8.74183E+00 8.45130E-01-2.60533E+00-9.23556E-01-1.69115E-03 8.09240E-04
 -1     23173-1.31296E+01-1.01697E+00-4.66905E+00-3.64602E+00-1.12129E-03 2.20485E-03
 -1     23174-1.33406E+01-1.06307E+00-4.75545E+00-3.67922E+00 1.06089E-04-1.07641E-03
 -1     23175-1.22634E+01-8.53786E-01-4.32947E+00-3.09489E+00-4.11433E-04 5.71158E-04
 -1     23176-1.18086E+01-7.37860E-01-4.14012E+00-3.02554E+00 1.23109E-03 8.56777E-04
 -1     23177 5.50274E+00 8.09683E+00 4.47677E+00 7.55574E+00-7.09699E-03-1.51948E-02
 -1     23178 4.94639E+00 8.07333E+00 4.29202E+00 7.40134E+00 1.32928E-04 3.33342E-03
 -1     23179 1.02656E+01 6.13863E+00 5.41788E+00 8.34448E+00-5.24471E-03-4.38004E-03
 -1     23180 1.02705E+01 6.34432E+00 5.48730E+00 8.47092E+00-5.91263E-03-8.92855E-03
 -1     23181 9.84020E+00 5.34122E+00 5.00719E+00 7.81065E+00-9.12838E-04-1.21217E-03
 -1     23182 5.98316E-01 8.65787E+00 3.05137E+00 7.36351E+00 1.20404E-04-5.33388E-03
 -1     23183-2.37203E-01 8.27105E+00 2.65330E+00 7.40159E+00 1.89986E-02 2.42900E-02
 -1     23184-1.54369E+01-1.21413E+00-5.49784E+00-3.46882E+00-1.48462E-03 3.61648E-04
 -1     23185-1.59489E+01-1.25416E+00-5.67798E+00-3.36064E+00 1.04007E-03-6.24590E-03
 -1     23186 9.73571E+00 7.48567E+00 5.68344E+00 8.81514E+00-9.83564E-05 3.58905E-03
 -1     23187 9.64784E+00 7.59068E+00 5.68932E+00 8.82337E+00 1.74112E-03 9.43517E-04
 -1     23188 9.03949E+00 6.73764E+00 5.20622E+00 8.16870E+00-9.34726E-04 7.58229E-04
 -1     23189 7.97288E+00 3.72359E+00 3.86006E+00 5.41980E+00 5.75220E-04 2.77526E-04
 -1     23190 8.23863E+00 3.76828E+00 3.96210E+00 5.59404E+00 4.66671E-04-1.05650E-04
 -1     23191 8.08014E+00 3.46900E+00 3.81150E+00 5.24786E+00-3.96465E-04 2.37607E-04
 -1     23192 4.39044E+00 8.13688E+00 4.13529E+00 7.31849E+00 2.94240E-03 6.73901E-03
 -1     23193 3.69104E+00 8.13826E+00 3.90150E+00 7.17694E+00 5.82054E-03-6.80966E-03
 -1     23194 3.38078E+00 7.61295E+00 3.63083E+00 6.76780E+00 3.50720E-03-7.06648E-04
 -1     23195-1.40730E+01-1.14952E+00-5.02511E+00-3.69706E+00 9.04460E-04-7.67739E-04
 -1     23196-1.43855E+01-1.18278E+00-5.13749E+00-3.67528E+00 5.10989E-04-5.96417E-04
 -1     23197-1.27630E+01-9.37209E-01-4.52104E+00-3.08486E+00 2.89336E-04 1.10254E-03
 -1     23198 3.10577E+00 8.29045E+00 3.76050E+00 7.19008E+00-1.87610E-03-4.50266E-03
 -1     23199 2.14298E+00 8.30992E+00 3.45182E+00 7.12782E+00-1.00304E-02 4.17028E-03
 -1     23200 2.12372E+00 7.75005E+00 3.25936E+00 6.72566E+00-2.08310E-03-5.20559E-03
 -1     23201-2.97968E+00-2.44760E+00-1.78944E+00 1.53345E+00 2.45277E-03-2.71732E-03
 -1     23202-1.58127E+00-2.03786E+00-1.19379E+00 1.65340E+00 1.92145E-03-1.20638E-03
 -1     23203-3.59663E+00-2.39292E+00-1.97586E+00 1.71305E+00 5.49513E-04-6.58581E-04
 -1     23204-1.46729E+01-1.18307E+00-5.23248E+00-3.61680E+00 3.21896E-04-1.30227E-03
 -1     23205-1.50695E+01-1.21276E+00-5.37384E+00-3.57208E+00 8.26332E-04-3.77505E-04
 -1     23206-1.33430E+01-1.00611E+00-4.73517E+00-2.99090E+00 7.70420E-06 1.29569E-04
 -1     23207-3.09828E-01-1.77097E+00-6.86210E-01 1.82790E+00 2.28803E-03-1.41055E-03
 -1     23208 8.92742E-01-1.36700E+00-1.57268E-01 1.97359E+00-1.04819E-04-5.74411E-04
 -1     23209 1.58745E+00-1.24780E+00 1.11727E-01 2.36514E+00 5.09979E-04-5.49360E-05
 -1     23210-8.20694E-01-1.85284E+00-8.81880E-01 2.03162E+00 6.85061E-04-9.01754E-04
 -1     23211 1.55627E+00 8.52745E+00 3.33067E+00 7.30632E+00-4.50267E-03 2.89116E-03
 -1     23212 9.58361E+00 3.60397E+00 4.35265E+00 6.36821E+00-3.75339E-03-3.58401E-04
 -1     23213 8.87033E+00 7.92716E+00 5.53872E+00 8.63363E+00 1.26853E-03-4.05578E-03
 -1     23214 8.71332E+00 7.96562E+00 5.50029E+00 8.58063E+00 3.69346E-03-6.08607E-04
 -1     23215 7.99770E+00 7.25255E+00 5.03150E+00 7.93448E+00-1.73353E-03-4.03974E-03
 -1     23216 8.31592E+00 1.92144E+00 3.37620E+00 4.04227E+00 7.84336E-03 5.16606E-03
 -1     23217 8.49369E+00 2.11630E+00 3.50433E+00 4.20707E+00 9.66147E-03 7.29048E-03
 -1     23218 8.49679E+00 7.99050E+00 5.44245E+00 8.49928E+00-2.32846E-03-2.17053E-03
 -1     23219 8.31578E+00 8.00813E+00 5.38762E+00 8.43289E+00 3.70335E-04-1.57382E-03
 -1     23220 7.57490E+00 7.32846E+00 4.91766E+00 7.78888E+00 1.34717E-03-4.22009E-04
 -1     23221-1.40534E+01-1.06117E+00-4.98994E+00-2.80387E+00 7.94988E-04 3.77266E-05
 -1     23222 5.98242E+00 8.07175E+00 4.64211E+00 7.67024E+00-5.22585E-03-1.61894E-04
 -1     23223 4.48112E+00 7.57906E+00 3.97456E+00 6.94385E+00-3.85013E-03-6.34221E-03
 -1     23224 6.40003E+00 8.09596E+00 4.78446E+00 7.80577E+00-6.05231E-04-3.66847E-03
 -1     23225-4.57814E-01 7.56625E+00 2.34527E+00 6.93347E+00 7.81320E-03 1.07330E-02
 -1     23226-7.20822E-01 7.71472E+00 2.32380E+00 7.14822E+00 8.83575E-03-4.91505E-03
 -1     23227-2.63562E+00 4.30932E+00 5.52174E-01 4.44937E+00 7.37761E-03 4.40530E-03
 -1     23228-3.85699E+00 2.78077E+00-3.55704E-01 2.78449E+00 2.05893E-03 2.93172E-03
 -1     23229 9.69601E+00 5.74798E+00 5.09600E+00 7.97161E+00-6.25184E-03-9.86572E-03
 -1     23230 9.49624E+00 7.68732E+00 5.67082E+00 8.79771E+00-5.82368E-04-1.09825E-03
 -1     23231 9.38602E+00 7.77881E+00 5.66428E+00 8.78749E+00-8.13486E-04 2.68896E-04
 -1     23232 8.55854E+00 2.90181E+00 3.78203E+00 4.74265E+00-1.07458E-03-6.62060E-04
 -1     23233 8.56830E+00 2.98333E+00 3.81200E+00 4.91459E+00-1.57191E-03 1.29210E-05
 -1     23234 8.64487E+00 2.74002E+00 3.75775E+00 4.63430E+00-1.64503E-04-8.39160E-04
 -1     23235-1.70929E+01-1.32370E+00-6.08247E+00-2.98612E+00 3.37965E-03 2.85548E-03
 -1     23236-1.58868E+01-1.41925E+00-5.70675E+00-1.94726E+00 1.58314E-04-2.32868E-02
 -1     23237-1.63947E+01-1.26297E+00-5.85348E+00-3.19131E+00-8.80825E-03 3.03249E-02
 -1     23238-9.34283E+00 6.78023E-01-2.86048E+00-1.13087E+00 1.77973E-03 2.05027E-03
 -1     23239-8.26985E+00 1.12690E+00-2.35747E+00-4.61366E-01 1.96614E-05-8.03437E-04
 -1     23240-9.02743E+00 7.88197E-01-2.71923E+00-8.99326E-01 1.22444E-03 8.62532E-04
 -1     23241 8.07298E+00 8.02770E+00 5.31310E+00 8.34727E+00 4.90656E-05-3.58938E-03
 -1     23242 7.86069E+00 8.03378E+00 5.24424E+00 8.26897E+00 1.33328E-03 9.85277E-04
 -1     23243 7.10526E+00 7.38489E+00 4.78121E+00 7.62366E+00 8.20138E-05-7.94368E-04
 -1     23244 8.45920E+00 3.75425E+00 4.03021E+00 5.72074E+00 2.77930E-05-9.97741E-05
 -1     23245 8.72440E+00 3.81867E+00 4.13888E+00 5.90010E+00 4.77473E-04 1.37331E-04
 -1     23246 7.60968E+00 8.05388E+00 5.16787E+00 8.18776E+00-7.74220E-04-3.50233E-03
 -1     23247 7.35557E+00 8.05194E+00 5.08285E+00 8.09948E+00 1.08158E-03-8.55412E-04
 -1     23248 6.59563E+00 7.43053E+00 4.62737E+00 7.46275E+00 5.89255E-04-7.73715E-05
 -1     23249 8.63839E+00 2.34994E+00 3.62849E+00 4.36918E+00-7.24316E-05 4.31632E-04
 -1     23250 8.68904E+00 2.53111E+00 3.70306E+00 4.51235E+00 5.95706E-04-7.69588E-04
 -1     23251 8.77820E+00 2.58882E+00 3.75130E+00 4.72729E+00-3.97896E-03-3.13805E-03
 -1     23252 8.74463E+00 2.14998E+00 3.59357E+00 4.48687E+00-1.84779E-03-1.80830E-04
 -1     23253-1.65114E+01-1.99606E+00-6.11576E+00-1.05606E+00 1.19618E-02-1.24522E-02
 -1     23254 8.41247E-01 7.98430E+00 2.91267E+00 6.94771E+00-3.07932E-03-4.40073E-03
 -1     23255-1.08773E+01-7.83703E-02-3.61869E+00-2.38665E+00-7.54555E-04 7.38965E-04
 -1     23256-9.71791E+00 2.55811E-01-3.12191E+00-1.80373E+00-7.97026E-04-1.33255E-03
 -1     23257-1.06309E+01 3.82750E-02-3.49625E+00-2.20698E+00 7.28368E-04 1.71302E-04
 -1     23258-1.14945E+00 7.17512E+00 1.99161E+00 6.83453E+00-3.65185E-03 2.18445E-03
 -1     23259-1.57038E+00 6.26013E+00 1.54768E+00 6.14857E+00-1.34026E-03-3.56128E-03
 -1     23260-7.13766E+00 1.41736E+00-1.88840E+00 4.38741E-01-6.48747E-04-1.03976E-03
 -1     23261-7.77902E+00 1.21911E+00-2.16507E+00 2.79970E-02-7.70697E-04 1.91679E-04
 -1     23262-8.30486E+00 1.02119E+00-2.40416E+00-3.73672E-01-1.21248E-03-6.94604E-05
 -1     23263-8.75301E+00 8.93682E-01-2.59433E+00-6.68968E-01-5.84808E-05 3.99714E-04
 -1     23264-7.79704E+00 1.35901E+00-2.12223E+00 1.67282E-03-1.23618E-03-2.83459E-03
 -1     23265-7.02489E+00 1.69222E+00-1.75989E+00 6.49357E-01-1.14239E-03 1.21200E-03
 -1     23266 8.39199E+00 7.13239E+00 5.12254E+00 8.05703E+00-5.23078E-04-4.18277E-04
 -1     23267-1.49193E+01-1.17087E+00-5.32092E+00-2.47582E+00-6.77046E-03 1.53289E-02
 -1     23268 8.73922E+00 6.96499E+00 5.18235E+00 8.14191E+00 9.01962E-04-1.15474E-05
 -1     23269 7.69972E+00 1.42042E+00 3.00819E+00 3.67461E+00-3.20254E-03 2.82640E-03
 -1     23270 8.04886E+00 1.66769E+00 3.20251E+00 3.85925E+00-3.99267E-03 3.82527E-03
 -1     23271 8.34044E+00 1.68582E+00 3.30345E+00 4.15266E+00-9.45088E-04 7.23911E-03
 -1     23272 7.66081E+00 1.14860E+00 2.90699E+00 3.81368E+00 6.53285E-03 6.08235E-05
 -1     23273-4.85255E+00 2.33150E+00-8.29340E-01 2.13563E+00 4.14761E-03 3.48599E-03
 -1     23274 8.96141E+00 3.41261E+00 4.08387E+00 5.75136E+00 5.42396E-04-5.64144E-04
 -1     23275 8.52485E+00 3.45514E+00 3.95342E+00 5.50286E+00 6.79744E-04-3.30506E-04
 -1     23276-6.38666E+00 1.73573E+00-1.53514E+00 1.03444E+00-7.42326E-04 7.06098E-04
 -1     23277-5.79185E+00 2.24459E+00-1.17111E+00 1.67200E+00-2.36719E-04 2.26017E-03
 -1     23278-5.60764E+00 1.98974E+00-1.19443E+00 1.54272E+00 5.41539E-04-9.40231E-04
 -1     23279-9.23486E+00 5.54333E-01-2.86395E+00-1.38449E+00 4.02228E-04 3.85633E-04
 -1     23280-2.19661E-01 7.42491E+00 2.38059E+00 6.58429E+00 7.76728E-04-3.83131E-04
 -1     23281-1.11118E+00 6.75432E+00 1.86143E+00 6.29589E+00 3.75092E-03 3.90062E-03
 -1     23282 8.89061E+00 3.08536E+00 3.95661E+00 5.42603E+00 1.68997E-03 2.37587E-03
 -1     23283 9.07702E+00 3.04795E+00 4.00306E+00 5.54888E+00 1.60774E-03-3.70900E-03
 -1     23284 9.13679E+00 4.95946E+00 4.65232E+00 7.45080E+00-1.92856E-03-2.36462E-03
 -1     23285 9.06155E+00 5.19234E+00 4.70370E+00 7.53229E+00-2.36197E-03-2.59274E-03
 -1     23286-1.48320E+01-2.18287E+00-5.61089E+00-3.06291E-01-1.96171E-03-2.61528E-03
 -1     23287-1.28604E+01-2.54163E+00-5.08705E+00 3.40622E-01-1.73718E-02 2.75526E-03
 -1     23288-1.47296E+01-1.79543E+00-5.45677E+00-7.91284E-01 1.20310E-03-1.60216E-02
 -1     23289 7.92645E+00 6.26480E+00 4.68308E+00 7.52850E+00-1.57751E-04-3.09793E-04
 -1     23290 7.76110E+00 6.37366E+00 4.66463E+00 7.49555E+00 2.16554E-04 3.78164E-04
 -1     23291-4.33939E+00 2.97620E+00-4.49727E-01 2.90800E+00 3.59111E-03 3.77444E-03
 -1     23292 6.56777E+00 3.57443E-01 2.28580E+00 3.63686E+00 3.40539E-03-2.93031E-03
 -1     23293 7.13877E+00 6.40656E-01 2.56852E+00 3.80096E+00-4.32936E-03-3.08335E-03
 -1     23294 8.35050E+00 3.30459E+00 3.84628E+00 5.18510E+00-2.35881E-04 1.39315E-04
 -1     23295 7.09247E+00 8.08413E+00 5.00869E+00 8.01715E+00 5.87651E-04-1.16874E-03
 -1     23296 6.76881E+00 8.07480E+00 4.89893E+00 7.90724E+00-3.13941E-04 7.51570E-04
 -1     23297 6.05223E+00 7.48131E+00 4.46493E+00 7.30792E+00 4.88864E-03 3.71273E-03
 -1     23298 9.22175E+00 3.04152E+00 4.04478E+00 5.69996E+00-4.53026E-03-1.25904E-03
 -1     23299 9.36786E+00 3.10080E+00 4.10747E+00 5.87466E+00 3.48264E-03 7.14758E-04
 -1     23300 9.14162E+00 2.69525E+00 3.90609E+00 5.37081E+00-2.90219E-04-1.72689E-05
 -1     23301-6.92649E+00 1.81330E+00-1.68669E+00 4.24321E-01-9.72560E-05 1.99909E-03
 -1     23302-7.15152E+00 1.67116E+00-1.80803E+00 1.85228E-01-2.88072E-03-2.04888E-03
 -1     23303-8.78877E+00 4.87578E-01-2.73776E+00-1.42554E+00-2.34910E-03-1.40495E-03
 -1     23304-8.99715E+00 3.55152E-01-2.85171E+00-1.58841E+00-1.56787E-04 5.60243E-04
 -1     23305-7.33101E+00 1.50815E+00-1.92127E+00-6.09439E-02-1.56834E-03 1.45764E-04
 -1     23306-7.58203E+00 1.33668E+00-2.06019E+00-3.02048E-01-3.76816E-04 6.09050E-04
 -1     23307-6.05000E+00 2.13366E+00-1.29252E+00 8.00233E-01-9.16290E-04-1.33473E-04
 -1     23308-9.19420E+00 2.23153E-01-2.96053E+00-1.74429E+00-1.47920E-05 1.61201E-04
 -1     23309-9.39515E+00 9.88410E-02-3.06827E+00-1.87917E+00-6.82504E-04-2.06709E-04
 -1     23310-7.86065E+00 6.68138E-01-2.37344E+00-1.02741E+00-4.48990E-06 5.39061E-04
 -1     23311 7.52287E+00 6.44389E+00 4.60903E+00 7.41603E+00-1.63928E-04 2.76244E-05
 -1     23312 7.32844E+00 6.52075E+00 4.57036E+00 7.36180E+00-1.19380E-05 9.55868E-04
 -1     23313 6.74249E+00 5.79179E+00 4.13640E+00 6.81575E+00 1.24455E-04 7.56352E-04
 -1     23314 3.27074E-01 7.30821E+00 2.52069E+00 6.39984E+00 4.44191E-03 1.11764E-04
 -1     23315-1.25306E+01-9.36682E-01-4.44355E+00-2.18994E+00 2.89525E-04-1.69300E-03
 -1     23316-1.29328E+01-9.93092E-01-4.59704E+00-2.05284E+00 1.73509E-03-4.94910E-03
 -1     23317-7.82810E+00 1.15333E+00-2.20180E+00-5.63612E-01-4.08924E-04-5.51503E-04
 -1     23318-8.07790E+00 9.85467E-01-2.33995E+00-7.91375E-01-1.10034E-04-4.93915E-04
 -1     23319-6.47490E+00 1.74915E+00-1.55860E+00 2.82620E-01-4.42383E-04 6.10768E-04
 -1     23320-1.32657E+01-1.08021E+00-4.73936E+00-1.90247E+00 5.90516E-03-2.25771E-03
 -1     23321-1.37728E+01-1.17437E+00-4.92742E+00-1.70116E+00-5.52259E-03 4.81435E-03
 -1     23322-1.17742E+01-1.00509E+00-4.23052E+00-1.30386E+00 9.88165E-03 1.52836E-03
 -1     23323 9.48042E+00 3.11321E+00 4.15233E+00 6.01074E+00 5.15868E-03 2.12597E-03
 -1     23324 9.54811E+00 3.17104E+00 4.20116E+00 6.16083E+00 1.52470E-03 4.03996E-03
 -1     23325 9.33560E+00 2.67243E+00 3.96080E+00 5.65207E+00 3.99430E-03-1.52618E-03
 -1     23326 5.37968E+00 7.54208E+00 4.26377E+00 7.14638E+00-3.66785E-04-7.58280E-04
 -1     23327 2.53001E+00 7.01306E+00 3.15303E+00 6.18316E+00 1.33594E-03 4.63772E-03
 -1     23328 1.92460E+00 7.04320E+00 2.95831E+00 6.12690E+00 1.90524E-03-3.23276E-03
 -1     23329-8.33571E+00 8.04132E-01-2.48474E+00-1.03313E+00 1.65805E-05-3.58482E-04
 -1     23330-8.57276E+00 6.47460E-01-2.61476E+00-1.23050E+00-6.63593E-04-1.01161E-03
 -1     23331-7.45166E+00 9.82369E-01-2.13543E+00-6.72978E-01 1.02679E-03 8.16096E-04
 -1     23332-6.97708E+00 1.34938E+00-1.85705E+00-2.31610E-01 6.62825E-04 6.39195E-04
 -1     23333-1.14318E+01-7.20648E-01-4.01028E+00-2.48607E+00 5.44094E-04 5.60034E-04
 -1     23334-1.17143E+01-7.80318E-01-4.12368E+00-2.45575E+00 7.25371E-04 5.51685E-04
 -1     23335 1.43409E+00 7.13714E+00 2.82352E+00 6.19162E+00 6.61290E-03 3.25057E-03
 -1     23336 8.06850E-01 7.21197E+00 2.64595E+00 6.23270E+00 4.37496E-03 4.34650E-03
 -1     23337 5.60558E-01 6.46195E+00 2.31374E+00 5.59432E+00 3.93196E-03 1.00191E-03
 -1     23338-4.17688E+00-2.31200E+00-2.14079E+00 1.79241E+00 6.58444E-05 3.50185E-05
 -1     23339-2.70864E+00-2.07344E+00-1.57758E+00 1.95269E+00 4.66249E-04-1.09376E-03
 -1     23340-1.19519E+01-8.32703E-01-4.21859E+00-2.38906E+00 6.50447E-04 1.44031E-04
 -1     23341-1.22881E+01-8.89046E-01-4.34747E+00-2.30846E+00-8.10917E-04-4.75462E-04
 -1     23342-1.06169E+01-6.40241E-01-3.71440E+00-1.79318E+00-3.24124E-04 2.52221E-04
 -1     23343 8.53231E+00 3.09173E+00 3.83607E+00 5.09634E+00-9.08445E-06 5.10340E-05
 -1     23344 8.49878E+00 3.27855E+00 3.88681E+00 5.29039E+00 8.24203E-04 6.53452E-04
 -1     23345 8.72500E+00 3.24849E+00 3.95309E+00 5.42141E+00 1.44494E-03 1.81735E-03
 -1     23346 8.71749E+00 2.89748E+00 3.83444E+00 5.01933E+00 2.39118E-04 1.56335E-03
 -1     23347 4.98409E+00 6.85231E+00 3.90606E+00 6.61743E+00-4.37194E-04 7.28122E-04
 -1     23348 4.68493E+00 6.88130E+00 3.81728E+00 6.55267E+00-6.46484E-04 3.88142E-04
 -1     23349 3.31797E+00-8.11661E-01 8.26985E-01 2.88218E+00 1.03150E-03-3.44304E-04
 -1     23350 4.25762E+00-4.96142E-01 1.24118E+00 3.05484E+00 5.58373E-04-2.79160E-04
 -1     23351 7.07667E+00 6.56566E+00 4.50206E+00 7.27262E+00 5.03974E-04 1.06837E-03
 -1     23352 6.87090E+00 6.63000E+00 4.45578E+00 7.20413E+00 5.94340E-04 1.20437E-03
 -1     23353 6.23796E+00 5.92720E+00 4.01441E+00 6.64319E+00 1.43045E-04 4.13256E-04
 -1     23354-1.12029E+01-6.62974E-01-3.91547E+00-2.49854E+00 8.78393E-04-1.05042E-04
 -1     23355-1.01244E+01-4.86442E-01-3.50144E+00-1.88249E+00-2.81799E-05 8.48982E-05
 -1     23356-1.09534E+01-5.93102E-01-3.81013E+00-2.48565E+00 1.47667E-04 8.84688E-05
 -1     23357 9.27864E+00 4.75173E+00 4.63213E+00 7.39192E+00 1.91652E-05 2.39117E-03
 -1     23358 8.68467E+00 4.26609E+00 4.27409E+00 6.97821E+00-4.36979E-04 9.40214E-04
 -1     23359 9.38848E+00 4.57480E+00 4.60380E+00 7.31233E+00-1.34369E-04 1.76068E-03
 -1     23360-2.76690E+00 4.47082E+00 5.61569E-01 4.57455E+00 3.29988E-03 2.94139E-03
 -1     23361-5.94484E+00 2.32694E+00-1.19362E+00 1.47359E+00-8.06530E-04 1.30973E-03
 -1     23362-6.44591E+00 2.09994E+00-1.43488E+00 1.05243E+00-1.25757E-04 1.14623E-03
 -1     23363 8.91192E+00 5.36236E+00 4.70779E+00 7.55034E+00-1.72697E-03 1.28567E-03
 -1     23364 8.76659E+00 5.51656E+00 4.71562E+00 7.57595E+00 1.17149E-03 2.22836E-03
 -1     23365 8.33541E+00 4.63214E+00 4.27889E+00 7.02976E+00 1.39582E-03-8.32927E-05
 -1     23366 9.59154E+00 3.77649E+00 4.41139E+00 6.84677E+00 2.11014E-04 6.67209E-04
 -1     23367 9.57727E+00 3.97089E+00 4.47039E+00 6.99810E+00 8.95182E-05 5.93839E-04
 -1     23368 9.56270E+00 3.24668E+00 4.22778E+00 6.29463E+00-1.72383E-03-1.81210E-03
 -1     23369 9.65588E+00 3.36787E+00 4.29846E+00 6.46177E+00-1.12250E-03-3.96185E-04
 -1     23370 9.45401E+00 2.75974E+00 4.03101E+00 5.95000E+00 5.04814E-05 8.56156E-04
 -1     23371 8.33417E+00 1.50082E+00 3.23672E+00 4.28583E+00 4.12836E-03 3.28459E-03
 -1     23372 8.60783E+00 1.73029E+00 3.40966E+00 4.44978E+00-4.64714E-04 4.36867E-03
 -1     23373 5.26011E+00 6.80275E+00 3.98053E+00 6.67657E+00-6.20096E-04-1.04279E-04
 -1     23374 3.95341E+00 6.22436E+00 3.35871E+00 5.92241E+00-1.91847E-04 4.53348E-04
 -1     23375 5.53929E+00 6.77678E+00 4.06421E+00 6.75556E+00 2.39743E-04 7.74311E-04
 -1     23376 8.13007E+00 6.15517E+00 4.71395E+00 7.57543E+00-7.63031E-05-1.84763E-04
 -1     23377 7.19504E+00 5.59016E+00 4.21930E+00 6.94498E+00 1.43749E-04 6.37727E-04
 -1     23378 8.27651E+00 6.01111E+00 4.71472E+00 7.57920E+00-7.52046E-04-7.25331E-04
 -1     23379 9.62382E+00 3.46956E+00 4.32100E+00 6.57085E+00-2.63878E-04-7.34123E-04
 -1     23380 9.65031E+00 3.62252E+00 4.37982E+00 6.73020E+00 1.07162E-04 2.96277E-04
 -1     23381 9.42142E+00 2.88941E+00 4.06361E+00 6.18370E+00 2.43560E-04 3.11500E-04
 -1     23382-9.60473E+00-2.83391E-02-3.17915E+00-2.01599E+00-3.12264E-04-2.14207E-04
 -1     23383-9.81583E+00-1.36600E-01-3.28428E+00-2.12695E+00-2.33105E-04-1.51987E-04
 -1     23384-8.26348E+00 3.87452E-01-2.59924E+00-1.31879E+00-3.01049E-04 9.52226E-05
 -1     23385 5.87930E+00 8.92293E-02 1.96957E+00 3.43609E+00 1.59548E-03 2.54766E-05
 -1     23386 6.39497E+00 2.56589E-01 2.19438E+00 3.79681E+00 1.03033E-03 7.73431E-04
 -1     23387 5.11822E+00-2.13811E-01 1.61853E+00 3.26119E+00 1.59429E-03-8.13108E-05
 -1     23388 2.28798E+00-1.07152E+00 4.01150E-01 2.68149E+00 5.76959E-04-6.41460E-04
 -1     23389 2.94363E+00-8.84567E-01 6.79124E-01 3.02264E+00 4.85630E-04-2.53295E-04
 -1     23390 1.16875E+00-1.38512E+00-7.13476E-02 2.51740E+00 9.25251E-04-9.21806E-04
 -1     23391 9.50558E+00 4.15373E+00 4.50625E+00 7.09864E+00-5.63670E-04-8.74978E-04
 -1     23392 9.47458E+00 4.38681E+00 4.57265E+00 7.23168E+00-5.18226E-04-1.39619E-03
 -1     23393 8.92728E+00 3.84198E+00 4.21307E+00 6.82362E+00 2.33020E-03-3.31151E-05
 -1     23394 9.15263E+00 3.46769E+00 4.16395E+00 6.64933E+00 2.08505E-04-9.32552E-04
 -1     23395 4.43005E+00 6.95804E+00 3.75848E+00 6.52910E+00-7.73722E-04-3.22244E-04
 -1     23396 4.03371E+00 6.97322E+00 3.63192E+00 6.44282E+00-3.60497E-04-4.70518E-04
 -1     23397 3.39575E+00 6.34616E+00 3.21558E+00 5.84946E+00-4.19596E-04-4.71089E-05
 -1     23398-1.79948E+00 5.79036E+00 1.31558E+00 5.39925E+00-3.27380E-03-6.45937E-03
 -1     23399-1.87297E+00 5.89240E+00 1.32376E+00 5.66397E+00-1.83204E-03-7.86169E-04
 -1     23400-1.09273E+01-2.56774E+00-4.46799E+00 7.61348E-01-5.04014E-03-1.75479E-02
 -1     23401-9.07462E+00-2.63341E+00-3.87918E+00 1.06500E+00 1.26322E-03 1.10009E-02
 -1     23402-1.14093E+01-2.18273E+00-4.50092E+00 4.51382E-01-1.64285E-03-3.44933E-03
 -1     23403-7.35510E+00-2.56509E+00-3.27889E+00 1.38508E+00-2.29409E-03 6.63042E-03
 -1     23404-5.71260E+00-2.40852E+00-2.68025E+00 1.54107E+00-1.23331E-04 1.68546E-03
 -1     23405-4.80586E+00-2.10805E+00-2.28132E+00 1.78150E+00-1.04546E-03 1.68292E-03
 -1     23406-7.97035E+00-2.28421E+00-3.39475E+00 1.22365E+00-2.89474E-03 1.05791E-02
 -1     23407-1.41837E+01-1.33805E+00-5.11542E+00-1.52751E+00-5.18159E-03 8.89688E-04
 -1     23408-1.45728E+01-1.48473E+00-5.29228E+00-1.16725E+00 6.13657E-03-2.68616E-02
 -1     23409-1.00384E+01-2.43383E-01-3.39267E+00-2.23898E+00 1.84752E-04-5.31964E-05
 -1     23410-1.02650E+01-3.44460E-01-3.50124E+00-2.32357E+00-6.52918E-04-2.72171E-04
 -1     23411-8.70248E+00 1.22077E-01-2.83146E+00-1.56845E+00-2.79031E-04 1.21230E-04
 -1     23412 8.86488E+00 2.91410E+00 3.89107E+00 5.22579E+00-2.65971E-03 1.66762E-03
 -1     23413-6.79003E+00 1.93019E+00-1.60347E+00 6.43909E-01-1.85778E-03-3.79438E-04
 -1     23414-5.74773E+00 2.43551E+00-1.09311E+00 1.27867E+00-1.95612E-03-1.48853E-04
 -1     23415-6.55212E+00 2.04731E+00-1.48625E+00 8.86659E-01-4.69753E-04-2.98782E-04
 -1     23416 8.58444E+00 5.69792E+00 4.71381E+00 7.57972E+00-4.20615E-04-2.19589E-03
 -1     23417 8.46580E+00 5.87160E+00 4.73134E+00 7.60260E+00-2.47669E-04-6.85804E-04
 -1     23418 7.99259E+00 5.00684E+00 4.28999E+00 7.05791E+00-4.58062E-05 4.18898E-04
 -1     23419-2.39547E+00 5.14584E+00 9.06900E-01 5.15519E+00-1.13283E-03-2.43505E-03
 -1     23420-1.25293E+01-1.28025E+00-4.54077E+00-9.50496E-01-9.36314E-03 6.84681E-03
 -1     23421 9.31792E+00 3.12936E+00 4.10613E+00 6.42610E+00-4.83854E-04 2.64772E-04
 -1     23422-4.22006E-01 6.58293E+00 2.03731E+00 5.81973E+00 1.76291E-03-2.54772E-04
 -1     23423-1.11493E+01-7.88449E-01-3.94056E+00-1.59918E+00-1.68455E-03 3.30333E-03
 -1     23424 3.59099E+00 6.99322E+00 3.49062E+00 6.35505E+00-1.28322E-04-1.55912E-03
 -1     23425 3.05893E+00 6.98906E+00 3.31654E+00 6.25214E+00-2.69927E-03 1.63376E-03
 -1     23426 1.61888E+00 6.41510E+00 2.65295E+00 5.59357E+00-1.82826E-04 2.25183E-03
 -1     23427 2.65301E+00 6.42268E+00 2.99494E+00 5.74460E+00 6.80501E-05-3.86874E-04
 -1     23428-1.04911E+01-4.32612E-01-3.60494E+00-2.39884E+00 4.21010E-04-2.96583E-04
 -1     23429-1.07232E+01-5.19902E-01-3.71007E+00-2.45136E+00-7.73212E-05 3.68256E-05
 -1     23430-9.17443E+00-1.13850E-01-3.06495E+00-1.75718E+00-8.97831E-05 1.19682E-05
 -1     23431-5.29094E+00 2.74429E+00-8.39910E-01 2.09891E+00-2.44204E-04-9.85321E-05
 -1     23432-4.76255E+00 3.15286E+00-5.31064E-01 2.48704E+00 7.82763E-04 7.50638E-04
 -1     23433-4.56941E+00 3.12968E+00-4.75642E-01 2.71579E+00-7.39693E-04-3.15690E-04
 -1     23434 7.59711E+00 5.32036E+00 4.26262E+00 7.02008E+00-4.42578E-05 4.82473E-04
 -1     23435-1.31234E+01-1.73561E+00-4.90750E+00-4.15271E-01 4.34547E-03-2.01960E-03
 -1     23436-3.13661E+00 4.17735E+00 3.44101E-01 4.16637E+00 3.17695E-04 9.77781E-05
 -1     23437 7.61257E+00 9.19281E-01 2.81662E+00 3.96399E+00 3.89688E-03-1.19999E-03
 -1     23438 8.01425E+00 1.21967E+00 3.04228E+00 4.12296E+00 5.74852E-03-3.47798E-03
 -1     23439 8.33019E+00 1.35493E+00 3.19383E+00 4.42434E+00 2.21066E-03 8.36956E-04
 -1     23440 7.55171E+00 8.06456E-01 2.75816E+00 4.12737E+00 1.64041E-04-9.70554E-04
 -1     23441-3.83866E+00 3.72506E+00-3.53828E-02 3.52466E+00 2.18901E-03-8.78996E-04
 -1     23442-1.33013E+00-1.90161E+00-1.06582E+00 2.16306E+00 5.07939E-04-1.05462E-03
 -1     23443-3.54308E-02-1.61096E+00-5.43150E-01 2.31912E+00 6.47304E-04-1.29919E-03
 -1     23444 6.90693E-01-1.39086E+00-2.30960E-01 2.64082E+00 3.09609E-04-4.93638E-04
 -1     23445-1.90213E+00-1.81122E+00-1.22502E+00 2.24072E+00-3.39157E-04-4.09808E-04
 -1     23446 6.60540E+00 6.66273E+00 4.37976E+00 7.10741E+00 1.03278E-03 1.12253E-03
 -1     23447 6.36875E+00 6.69839E+00 4.31210E+00 7.02863E+00 1.47445E-04-4.91791E-04
 -1     23448 5.70842E+00 6.02516E+00 3.87226E+00 6.45560E+00 5.68264E-05-3.86299E-05
 -1     23449-1.01976E+00 5.90253E+00 1.61172E+00 5.15459E+00-5.93831E-04 1.78415E-04
 -1     23450-1.43403E+00 5.96085E+00 1.49477E+00 5.31255E+00-5.10847E-04-8.53420E-04
 -1     23451 6.84898E+00 4.65321E+00 3.79543E+00 6.49510E+00-7.46214E-07 2.70904E-04
 -1     23452 6.65631E+00 4.81503E+00 3.78538E+00 6.46699E+00 1.74155E-04 4.49651E-04
 -1     23453 5.14211E+00 6.09271E+00 3.70784E+00 6.25744E+00 1.35717E-04 4.06809E-04
 -1     23454 6.08708E+00 6.72181E+00 4.22691E+00 6.92729E+00 7.44937E-04 8.85319E-04
 -1     23455 8.84752E+00 2.72993E+00 3.82324E+00 5.01438E+00-7.21432E-04 3.44794E-03
 -1     23456 4.17326E+00 5.47301E+00 3.18350E+00 5.60917E+00 4.16514E-05 2.74869E-04
 -1     23457 3.87026E+00 5.50361E+00 3.09353E+00 5.50820E+00-1.79987E-04-1.87533E-05
 -1     23458-1.08129E+01-1.16857E+00-3.95228E+00-4.45705E-01-1.02448E-03 5.53717E-03
 -1     23459-1.12212E+01-1.37030E+00-4.15355E+00-2.61619E-01 6.71604E-03 3.97652E-04
 -1     23460 8.10872E+00 3.60782E+00 3.86640E+00 6.52742E+00 2.19344E-03 1.31649E-03
 -1     23461 7.95274E+00 3.80433E+00 3.87962E+00 6.57666E+00 8.72492E-04 5.54354E-04
 -1     23462-2.48063E+00 5.00009E+00 8.33675E-01 4.64272E+00-2.40499E-05 2.14859E-03
 -1     23463 5.82691E+00 6.75034E+00 4.15055E+00 6.84481E+00-3.97367E-04-3.06992E-04
 -1     23464 4.84690E+00-3.27952E-01 1.49098E+00 3.40751E+00 5.06961E-04 5.05415E-04
 -1     23465 9.02011E+00 2.45585E+00 3.78940E+00 5.06774E+00-8.74711E-04-3.33665E-03
 -1     23466 9.12547E+00 2.39601E+00 3.80049E+00 5.21362E+00-3.14025E-03 2.62871E-04
 -1     23467 8.79972E+00 2.01232E+00 3.56704E+00 4.62339E+00 2.12379E-03 5.25215E-03
 -1     23468 8.87475E+00 2.22792E+00 3.66233E+00 4.75271E+00-4.82339E-06-4.07239E-03
 -1     23469 8.81659E+00 1.90640E+00 3.54051E+00 4.73871E+00 1.89734E-03 3.93229E-03
 -1     23470-1.17446E+01-1.57991E+00-4.39392E+00-1.76484E-01 9.28496E-03-3.00363E-03
 -1     23471-1.18301E+01-1.84530E+00-4.52299E+00 1.48827E-01 1.59340E-03 9.41362E-05
 -1     23472-1.01204E+01-2.00662E+00-4.01028E+00 6.40947E-01-1.11870E-03-2.92179E-03
 -1     23473-1.00517E+01-1.52156E+00-3.82362E+00 2.86179E-01 3.56651E-03-7.19842E-03
 -1     23474-6.51106E+00 1.17851E+00-1.75962E+00-2.96764E-01-7.45256E-05 2.40185E-04
 -1     23475-6.70689E+00 1.01759E+00-1.87726E+00-4.53013E-01-3.91155E-04-2.74588E-05
 -1     23476-5.53301E+00 2.62724E+00-9.59027E-01 1.68782E+00 1.58620E-05 7.30941E-04
 -1     23477 8.90627E+00 2.52984E+00 3.77388E+00 4.92968E+00-4.12913E-03-5.30096E-03
 -1     23478 5.92963E+00 5.16634E+00 3.66202E+00 6.25954E+00 2.25576E-04 1.05008E-03
 -1     23479 5.68236E+00 5.25471E+00 3.60959E+00 6.17714E+00 5.21046E-04 1.66086E-03
 -1     23480-5.09188E+00 2.42485E+00-8.79588E-01 1.11964E+00-2.99863E-03-2.84408E-03
 -1     23481-5.33002E+00 2.20345E+00-1.03156E+00 8.53148E-01-2.84783E-04-3.18123E-04
 -1     23482-9.25998E+00-4.22823E-01-3.19543E+00-1.23513E+00 6.12222E-04 4.48850E-04
 -1     23483-9.53127E+00-5.26658E-01-3.31770E+00-1.16714E+00 1.26463E-03 3.26030E-03
 -1     23484-9.69538E+00-6.24474E-01-3.40711E+00-1.03908E+00 9.47063E-04 1.07754E-02
 -1     23485-9.97865E+00-7.37545E-01-3.54239E+00-9.06856E-01 1.21340E-03 5.87646E-03
 -1     23486-8.36098E+00-4.54170E-01-2.90723E+00-4.91738E-01-3.92463E-04-1.64455E-03
 -1     23487 8.95216E+00 2.54918E+00 3.79217E+00 6.02225E+00-5.15210E-04 2.97508E-03
 -1     23488 8.85865E+00 2.69034E+00 3.80505E+00 6.14510E+00 8.79141E-04-1.60691E-03
 -1     23489 6.42103E+00 4.94830E+00 3.75189E+00 6.40818E+00-1.64820E-04 4.78224E-04
 -1     23490 6.20877E+00 5.07826E+00 3.72502E+00 6.35607E+00 3.25965E-04 7.28169E-04
 -1     23491 5.69444E+00 4.32416E+00 3.30607E+00 5.89017E+00 1.33309E-04 7.94993E-04
 -1     23492 4.54517E+00 6.14752E+00 3.52862E+00 6.06702E+00-3.06167E-05 5.11892E-04
 -1     23493 9.01821E+00 2.08868E+00 3.66786E+00 5.03846E+00-5.22978E-03 3.37197E-04
 -1     23494 9.18224E+00 2.37941E+00 3.81552E+00 5.34972E+00 1.64126E-03 2.02752E-03
 -1     23495 9.22475E+00 2.36310E+00 3.82519E+00 5.49646E+00 2.73762E-03-9.89086E-05
 -1     23496 8.84653E+00 1.83117E+00 3.52461E+00 4.87688E+00-3.10717E-03 1.98983E-03
 -1     23497 8.61382E+00 1.54585E+00 3.35285E+00 4.69229E+00-2.21922E-03 1.17610E-03
 -1     23498 8.84708E+00 1.79355E+00 3.51154E+00 4.99952E+00-1.60280E-03 1.03838E-03
 -1     23499 8.30590E+00 1.25233E+00 3.15333E+00 4.56087E+00-1.48305E-03-3.30408E-04
 -1     23500-9.64622E+00-3.13681E-01-3.28666E+00-1.86765E+00-2.55737E-04 4.13622E-05
 -1     23501 2.32937E+00 5.70587E+00 2.65214E+00 5.15535E+00-4.82710E-04 2.77609E-04
 -1     23502 2.04997E+00 5.77434E+00 2.58245E+00 5.14165E+00-3.19992E-04 2.63785E-04
 -1     23503 7.71935E+00 3.97894E+00 3.86048E+00 6.57101E+00 1.98621E-04 7.30376E-04
 -1     23504 7.53024E+00 4.17222E+00 3.86250E+00 6.58737E+00 1.86357E-03 2.44913E-03
 -1     23505 7.18734E+00 3.34959E+00 3.47726E+00 6.13569E+00 8.54128E-04 1.05359E-03
 -1     23506 3.50400E+00 5.50538E+00 2.97318E+00 5.37673E+00-3.92273E-05 4.02183E-04
 -1     23507 3.19350E+00 5.53585E+00 2.88059E+00 5.28908E+00-2.58423E-04 5.93680E-07
 -1     23508 2.55090E+00 4.90886E+00 2.46188E+00 4.73758E+00-6.73472E-05 2.55520E-04
 -1     23509 4.57282E+00-3.94936E-01 1.37873E+00 3.54060E+00 1.00864E-03 2.54007E-04
 -1     23510 5.43853E+00-1.07928E-01 1.75917E+00 3.72667E+00 4.30012E-04-1.74260E-04
 -1     23511 4.50485E+00 5.44824E+00 3.28471E+00 5.73152E+00-2.47766E-04-1.97480E-04
 -1     23512 3.26393E+00 4.87774E+00 2.68671E+00 4.99351E+00 4.78658E-05 2.92304E-04
 -1     23513 4.78277E+00 5.40016E+00 3.36025E+00 5.82921E+00 4.19692E-04 3.10747E-04
 -1     23514 6.23833E+00 1.77996E-01 2.11743E+00 3.95272E+00 8.36297E-04 6.74271E-04
 -1     23515 6.91794E+00 4.59864E-01 2.43488E+00 4.13428E+00 3.86579E-04-2.71347E-04
 -1     23516 5.99410E+00 1.67675E-01 2.03375E+00 4.07596E+00 7.98001E-05-7.16812E-05
 -1     23517-5.35923E+00-1.88535E+00-2.38938E+00 1.69447E+00-1.26139E-03 2.86588E-03
 -1     23518-3.88867E+00-1.78864E+00-1.87297E+00 1.95462E+00-3.42557E-04-5.26388E-06
 -1     23519 2.87640E+00 5.57904E+00 2.79031E+00 5.21629E+00-1.54808E-04 3.90299E-04
 -1     23520 2.58000E+00 5.62695E+00 2.70845E+00 5.16594E+00-4.12947E-04 6.92951E-05
 -1     23521 1.26434E+00 5.06692E+00 2.08940E+00 4.45587E+00-8.26316E-05 3.99261E-04
 -1     23522 1.85010E+00 4.95233E+00 2.24485E+00 4.53513E+00-9.29952E-05 2.59934E-04
 -1     23523-6.90470E+00 8.55953E-01-1.99604E+00-6.08785E-01-3.38167E-04 1.80719E-05
 -1     23524-7.12363E+00 6.99564E-01-2.12003E+00-7.47194E-01-6.60488E-04-3.87333E-04
 -1     23525-5.58338E+00 1.32988E+00-1.40317E+00 1.11213E-01-4.46344E-04 2.00729E-04
 -1     23526 8.71171E+00 2.84169E+00 3.80972E+00 6.23100E+00 1.63543E-04 9.56385E-04
 -1     23527 8.61268E+00 3.02607E+00 3.83991E+00 6.33765E+00-3.61367E-05-9.60741E-04
 -1     23528 8.35321E+00 2.26048E+00 3.49059E+00 5.83206E+00 1.83653E-03 6.61503E-03
 -1     23529-6.37211E+00 1.33066E+00-1.66391E+00-1.45752E-01 5.30062E-04 7.32780E-05
 -1     23530-5.24165E+00 1.67676E+00-1.17627E+00 4.20804E-01 1.01698E-04-1.76639E-04
 -1     23531-6.14907E+00 1.51658E+00-1.52915E+00 5.44079E-02-3.04972E-06-2.71860E-04
 -1     23532 8.30265E+00 3.41995E+00 3.86827E+00 6.48864E+00 1.78956E-03 1.93878E-03
 -1     23533 7.63823E+00 2.96847E+00 3.49883E+00 6.10154E+00-5.02066E-04 3.89941E-04
 -1     23534 8.44050E+00 3.20950E+00 3.84459E+00 6.40551E+00-4.83515E-04-8.12019E-04
 -1     23535-7.36832E+00 5.39481E-01-2.25361E+00-8.92944E-01-8.71270E-04-6.13625E-04
 -1     23536-7.60295E+00 3.92736E-01-2.37918E+00-1.00691E+00 7.67941E-05-6.94250E-04
 -1     23537-6.03189E+00 9.81831E-01-1.66641E+00-1.91087E-01-1.81339E-03-1.56995E-03
 -1     23538-3.39902E+00 4.22598E+00 2.74505E-01 3.91741E+00 2.83722E-03 9.19898E-05
 -1     23539 7.28636E+00 4.33693E+00 3.83575E+00 6.55522E+00 1.93888E-03 1.07762E-03
 -1     23540 7.09729E+00 4.50942E+00 3.82969E+00 6.54630E+00 9.23691E-04 6.21237E-04
 -1     23541 6.18086E+00 4.02476E+00 3.36767E+00 6.00500E+00 7.17218E-04 5.03908E-04
 -1     23542 6.69152E+00 3.69783E+00 3.42854E+00 6.09560E+00-2.22110E-04 5.90215E-04
 -1     23543-9.05761E+00-3.28159E-01-3.09702E+00-1.28404E+00 1.87180E-04 6.49857E-05
 -1     23544-7.96476E+00-2.01026E-01-2.69471E+00-6.64603E-01-3.05262E-04-3.68446E-04
 -1     23545-8.80602E+00-2.25580E-01-2.98002E+00-1.30374E+00 9.20365E-05-3.33938E-04
 -1     23546-4.51509E+00 3.31631E+00-3.95108E-01 2.51355E+00-6.03753E-04 1.14459E-03
 -1     23547-4.57669E+00 3.24416E+00-4.39720E-01 2.31958E+00 1.06576E-03 2.63725E-03
 -1     23548-4.89058E+00 2.65511E+00-7.38694E-01 1.40913E+00-3.12746E-03-4.48598E-03
 -1     23549-3.77920E+00 3.09777E+00-2.24788E-01 1.97035E+00 2.97552E-03-1.24200E-03
 -1     23550-4.71093E+00 2.84841E+00-6.14791E-01 1.66880E+00-1.77895E-03-1.97112E-03
 -1     23551 5.17857E+00 4.56667E+00 3.21621E+00 5.73085E+00 2.51951E-04 1.01599E-03
 -1     23552-4.50986E+00 3.17967E+00-4.39356E-01 2.15620E+00 7.60647E-04 1.80805E-03
 -1     23553-4.62349E+00 3.03494E+00-5.23836E-01 1.92368E+00 8.89696E-05 2.22312E-04
 -1     23554-3.51703E+00 3.54154E+00 7.61215E-03 2.51689E+00-7.20067E-04 3.71845E-04
 -1     23555-3.52402E+00 3.82091E+00 9.85088E-02 2.95495E+00-5.78326E-04-3.11016E-03
 -1     23556 9.03776E+00 1.99520E+00 3.64143E+00 5.28295E+00 3.00429E-04 3.79953E-05
 -1     23557 9.20774E+00 2.35199E+00 3.81486E+00 5.59669E+00 2.69810E-03 1.77905E-03
 -1     23558 9.20753E+00 2.37788E+00 3.82548E+00 5.73349E+00 2.19879E-03 2.25069E-03
 -1     23559 8.79827E+00 1.70861E+00 3.46811E+00 5.11137E+00-1.99401E-03 3.75792E-03
 -1     23560-1.01648E+01-8.63248E-01-3.64106E+00-7.35223E-01 3.53593E-03 5.27873E-03
 -1     23561-1.04958E+01-1.00030E+00-3.79986E+00-5.81654E-01 1.44142E-03 1.10594E-03
 -1     23562 7.56992E+00 8.09614E-01 2.76483E+00 4.37479E+00-3.04835E-04-3.17447E-03
 -1     23563 8.02231E+00 1.08639E+00 3.00514E+00 4.50170E+00 9.74378E-04-2.10713E-03
 -1     23564 8.36326E+00 1.32199E+00 3.19288E+00 4.78892E+00-5.05462E-03-4.12253E-03
 -1     23565 7.43957E+00 8.01553E-01 2.71732E+00 4.53013E+00 3.63184E-03-3.75778E-03
 -1     23566 5.33257E+00 5.28761E+00 3.50452E+00 6.03247E+00 7.23452E-04 1.33560E-03
 -1     23567 5.07002E+00 5.35299E+00 3.43939E+00 5.93723E+00 9.84031E-05 6.89030E-04
 -1     23568 4.54452E+00 4.70715E+00 3.05274E+00 5.48548E+00 1.04247E-04 3.23543E-04
 -1     23569-5.62311E+00 1.94997E+00-1.21209E+00 5.53918E-01 9.31929E-05-4.11067E-04
 -1     23570-5.88459E+00 1.73631E+00-1.36918E+00 3.07033E-01 4.01611E-05-2.17363E-04
 -1     23571-4.26485E+00 2.58558E+00-5.54556E-01 1.38275E+00 6.27519E-04-2.93531E-04
 -1     23572-8.72747E+00-7.29784E-01-3.11975E+00-2.08046E-01-1.65954E-03-1.72883E-03
 -1     23573-9.23115E+00-1.10692E+00-3.40568E+00 8.52194E-02-2.27283E-03-1.86555E-05
 -1     23574-7.84474E+00 2.49071E-01-2.50735E+00-1.11533E+00 3.14986E-03-1.93213E-04
 -1     23575-8.09439E+00 1.21394E-01-2.63097E+00-1.19265E+00-4.07012E-04-3.11198E-04
 -1     23576-6.53827E+00 6.31917E-01-1.94981E+00-4.51166E-01 3.33517E-04-1.85855E-03
 -1     23577-1.98590E-01 5.82064E+00 1.85496E+00 4.94115E+00 3.45409E-03-4.40217E-03
 -1     23578-6.56010E-01 5.89178E+00 1.72496E+00 5.01697E+00-3.55059E-04-4.30262E-03
 -1     23579-2.41037E+00-1.68621E+00-1.35141E+00 2.25275E+00-1.06687E-03 4.84584E-04
 -1     23580-1.05099E+00-1.51668E+00-8.46970E-01 2.46553E+00-8.12566E-05-7.59567E-04
 -1     23581-3.02201E+00-1.50686E+00-1.49427E+00 2.18341E+00-2.78018E-04 1.24351E-04
 -1     23582-1.82763E+00 5.18417E+00 1.10766E+00 4.45223E+00 7.91127E-05-2.23113E-04
 -1     23583 3.61510E+00-6.49693E-01 9.78460E-01 3.31745E+00 1.03523E-03-8.60672E-04
 -1     23584 4.23503E+00-3.88420E-01 1.26951E+00 3.64321E+00 8.26569E-04-4.81290E-04
 -1     23585 2.57665E+00-9.15862E-01 5.48068E-01 3.13221E+00 8.84026E-04-5.23795E-04
 -1     23586 1.04212E-01 5.69215E+00 1.91244E+00 4.79809E+00 8.74486E-05 9.04049E-04
 -1     23587-1.18394E+00 5.07378E+00 1.28317E+00 4.19483E+00-2.18692E-04-1.27937E-03
 -1     23588 6.49991E-01 5.70669E+00 2.09710E+00 4.86413E+00-4.52028E-04 7.43297E-04
 -1     23589-8.33578E+00-5.69274E-03-2.75241E+00-1.26051E+00 3.15733E-04-3.40895E-04
 -1     23590-8.58217E+00-1.17545E-01-2.87046E+00-1.29173E+00 8.34026E-05-4.11884E-04
 -1     23591-7.51754E+00 4.75602E-02-2.46441E+00-7.05964E-01-3.58443E-04-7.39003E-04
 -1     23592-7.03711E+00 3.25735E-01-2.21419E+00-6.29067E-01-8.25389E-04-5.99306E-04
 -1     23593 5.74177E+00 1.86460E-01 1.95689E+00 4.18442E+00 3.39341E-04-8.25598E-04
 -1     23594 6.54458E+00 4.64358E-01 2.31565E+00 4.39255E+00 6.45395E-04 2.38831E-03
 -1     23595 4.90166E+00 3.72956E+00 2.84832E+00 5.39929E+00-4.49176E-04 1.32901E-04
 -1     23596 4.66829E+00 3.88398E+00 2.82231E+00 5.33498E+00-5.17761E-05 2.80742E-04
 -1     23597 9.10326E+00 2.37559E+00 3.79433E+00 5.79504E+00 6.55193E-05 2.73420E-03
 -1     23598 9.05498E+00 2.44656E+00 3.79818E+00 5.91461E+00 1.27502E-03-1.74493E-03
 -1     23599-3.15099E+00 4.40179E+00 4.14973E-01 3.87169E+00 1.55786E-04 3.28466E-03
 -1     23600 2.50365E-01-1.35800E+00-3.65199E-01 2.71516E+00 1.62419E-05-1.95310E-04
 -1     23601 1.45284E+00-1.12733E+00 1.07364E-01 2.90498E+00 3.82939E-04-7.43630E-04
 -1     23602 2.15281E+00-8.63566E-01 4.25455E-01 3.20509E+00 5.87043E-04-1.18365E-05
 -1     23603-2.68883E-01-1.24212E+00-4.98307E-01 2.73455E+00 2.56085E-04 2.38530E-04
 -1     23604-7.00910E+00-2.22801E-01-2.38722E+00-6.92073E-03 3.37857E-03 6.10258E-04
 -1     23605-7.19525E+00-3.71599E-01-2.50340E+00 1.15114E-01 7.81175E-03 4.51639E-03
 -1     23606-8.56650E+00-1.95090E+00-3.47780E+00 1.00102E+00-4.97715E-03 3.17011E-03
 -1     23607-6.96581E+00-1.97147E+00-2.95079E+00 1.35630E+00-5.41735E-03 6.29039E-03
 -1     23608-6.05480E+00-1.65499E+00-2.54479E+00 1.51970E+00 5.69678E-04 1.75298E-03
 -1     23609-9.05024E+00-1.69162E+00-3.54644E+00 7.54896E-01 4.33475E-03-8.00262E-03
 -1     23610-2.81717E+00 4.57808E+00 5.80022E-01 3.86524E+00-4.95670E-04-1.16944E-03
 -1     23611-3.88155E+00 3.75495E+00-4.11989E-02 3.12635E+00-2.02359E-04 1.15041E-03
 -1     23612-7.44002E+00-9.71789E-01-2.78069E+00 6.33667E-01-7.39756E-03-5.94705E-03
 -1     23613-7.74249E+00-1.19518E+00-2.95372E+00 7.46354E-01-6.24112E-03-9.24485E-03
 -1     23614 8.63799E+00 2.02082E+00 3.51661E+00 5.63531E+00 7.61630E-04-3.66438E-04
 -1     23615 8.24952E+00 1.55445E+00 3.23959E+00 5.26172E+00-8.37775E-05-2.51200E-03
 -1     23616 8.09906E+00 1.62381E+00 3.20690E+00 5.36823E+00-1.95590E-03-1.11744E-03
 -1     23617-2.50233E+00 3.78898E+00 4.23299E-01 2.76424E+00 1.32355E-03 3.62539E-04
 -1     23618-2.69992E+00 3.52528E+00 2.71762E-01 2.47765E+00 7.38103E-04-4.04122E-04
 -1     23619-7.24779E+00-5.44609E-01-2.56307E+00 2.70731E-01 1.76796E-03-2.52262E-03
 -1     23620-7.41819E+00-7.18101E-01-2.67231E+00 4.28866E-01 4.00596E-03 2.93129E-03
 -1     23621-5.95108E+00-3.73565E-01-2.08348E+00 7.33999E-01-6.95555E-04 5.14640E-04
 -1     23622 1.94517E+00 5.91954E+00 2.59553E+00 5.23031E+00-8.90750E-05 5.15564E-04
 -1     23623 1.47636E+00 5.92595E+00 2.44245E+00 5.14981E+00-4.82172E-04 1.03701E-03
 -1     23624 8.87004E-01 5.28018E+00 2.03507E+00 4.54029E+00 1.14912E-04 8.38221E-04
 -1     23625 4.43439E+00 4.01854E+00 2.78966E+00 5.26188E+00-1.45190E-04 5.94077E-04
 -1     23626 4.15314E+00 4.12595E+00 2.73258E+00 5.16119E+00 2.01583E-04 7.28267E-04
 -1     23627 3.65505E+00 3.45637E+00 2.34693E+00 4.77512E+00 3.50531E-05 7.04161E-04
 -1     23628 8.88367E+00 1.95886E+00 3.58357E+00 5.46314E+00 1.93755E-03 1.86458E-03
 -1     23629-2.52924E+00 4.55800E+00 6.68805E-01 3.74993E+00-5.77156E-04-1.41038E-03
 -1     23630-2.42107E+00 4.47047E+00 6.75670E-01 3.56238E+00-9.87506E-04-1.70196E-03
 -1     23631 6.58751E+00 2.76854E+00 3.08661E+00 5.73938E+00 1.29507E-03 3.80043E-05
 -1     23632 6.34847E+00 2.96564E+00 3.07269E+00 5.74211E+00 3.12662E-04 6.00096E-04
 -1     23633-4.20964E+00 1.88311E+00-7.67858E-01 8.61612E-01 4.50050E-04-1.80974E-04
 -1     23634-4.41580E+00 1.68844E+00-8.99752E-01 7.03571E-01-1.82472E-03-1.98775E-04
 -1     23635 1.40701E+00 4.22942E+00 1.86036E+00 4.00323E+00 5.80027E-04 3.47682E-04
 -1     23636 1.02698E+00 4.23745E+00 1.73729E+00 3.87223E+00 1.43712E-04 1.42938E-04
 -1     23637 5.17880E+00 3.58531E+00 2.89244E+00 5.48403E+00-2.89878E-04-5.59042E-04
 -1     23638 4.16352E+00 3.16009E+00 2.41726E+00 4.93968E+00-7.72628E-05 4.11004E-04
 -1     23639 5.43344E+00 3.41971E+00 2.92216E+00 5.54108E+00-7.05544E-04-1.44117E-03
 -1     23640-5.50224E-02 5.19612E+00 1.69553E+00 4.34414E+00-8.21027E-04 1.82416E-03
 -1     23641-4.83080E+00 2.08209E+00-9.07402E-01 8.28052E-01 4.81281E-04-3.90122E-04
 -1     23642 2.47905E-02 4.37884E+00 1.45310E+00 3.66846E+00-2.21544E-04 2.27092E-04
 -1     23643-2.40950E-01 4.44621E+00 1.38765E+00 3.66408E+00 3.59143E-04 1.01364E-04
 -1     23644 8.03190E+00 2.59039E+00 3.50755E+00 5.99389E+00-6.45054E-04-4.60174E-03
 -1     23645 8.39658E+00 1.51106E+00 3.26569E+00 5.14203E+00 3.35580E-04-3.38174E-03
 -1     23646 7.88986E+00 1.13807E+00 2.97453E+00 4.87867E+00 2.73718E-03-7.17726E-03
 -1     23647 7.90024E+00 1.74452E+00 3.18115E+00 5.46080E+00-8.16212E-04-6.14031E-04
 -1     23648 7.73657E+00 1.88048E+00 3.17540E+00 5.55731E+00 1.82700E-03-1.14397E-03
 -1     23649 7.50065E+00 1.26840E+00 2.89724E+00 5.09491E+00-3.58406E-03 8.47845E-04
 -1     23650 3.89406E+00 4.79546E+00 2.86750E+00 5.22508E+00-2.08255E-04 1.80020E-04
 -1     23651-1.45898E+00 3.97321E+00 8.29396E-01 3.06785E+00 5.27197E-04-1.76530E-04
 -1     23652-2.15290E-01 4.67701E+00 1.47215E+00 3.85648E+00-8.63876E-05 5.13327E-04
 -1     23653-4.68645E+00 1.46565E+00-1.06364E+00 5.11202E-01 2.65305E-03 1.73810E-04
 -1     23654-4.94313E+00 1.26555E+00-1.21283E+00 3.62584E-01-1.08995E-03-6.66991E-04
 -1     23655-3.34289E+00 1.98041E+00-4.49468E-01 1.24955E+00-2.43826E-03-1.28351E-04
 -1     23656-6.00923E+00-8.27992E-01-2.25598E+00 1.08089E+00-1.69729E-03 4.29079E-03
 -1     23657-2.15083E+00 4.37373E+00 7.33636E-01 3.43240E+00-2.52732E-03-1.11867E-04
 -1     23658-3.40673E-01 4.80582E+00 1.47280E+00 3.95063E+00 1.16931E-03 3.64309E-04
 -1     23659 7.00984E+00 8.54320E-01 2.60650E+00 4.74837E+00 1.71792E-03 7.48053E-03
 -1     23660 7.24195E+00 7.93361E-01 2.65266E+00 4.65269E+00 2.71353E-03 3.06578E-03
 -1     23661 3.76140E+00 4.16147E+00 2.61483E+00 4.98980E+00 7.15224E-05 5.46190E-04
 -1     23662 3.40349E+00 4.20735E+00 2.51164E+00 4.83786E+00 7.87062E-04 9.12685E-04
 -1     23663 3.03477E+00 3.64700E+00 2.20541E+00 4.52691E+00 4.42692E-05 5.50222E-04
 -1     23664-8.54927E+00-1.46752E+00-3.30291E+00 6.85678E-01 1.09625E-03-1.75273E-02
 -1     23665-2.71252E+00 3.31770E+00 1.99296E-01 2.28343E+00 1.22595E-04-6.38038E-04
 -1     23666 6.87534E+00 2.59752E+00 3.12144E+00 5.76111E+00 9.69670E-04-4.84558E-04
 -1     23667 6.05872E+00 2.22164E+00 2.72898E+00 5.36776E+00 4.26605E-03 1.69841E-03
 -1     23668 7.09273E+00 2.40111E+00 3.12821E+00 5.72934E+00-2.63206E-03-9.82743E-05
 -1     23669-3.01427E+00 3.03354E+00 5.99969E-03 1.98333E+00 2.08370E-04-3.75260E-04
 -1     23670-3.51748E+00-1.25778E+00-1.57822E+00 2.07025E+00-9.66016E-04-7.01105E-03
 -1     23671-2.09547E+00-1.19310E+00-1.08502E+00 2.38017E+00 1.54108E-04 4.02059E-04
 -1     23672-5.22359E+00 1.06021E+00-1.37282E+00 2.05761E-01 3.39259E-05-4.83920E-04
 -1     23673-5.48348E+00 8.78629E-01-1.52022E+00 9.32526E-02-1.62147E-03-2.28156E-03
 -1     23674-3.90439E+00 1.51235E+00-7.88501E-01 8.96901E-01-8.96442E-04 2.07223E-04
 -1     23675 2.13347E+00 4.40600E+00 2.15801E+00 4.35509E+00 2.53683E-04 5.33470E-04
 -1     23676 6.35790E-01 3.75169E+00 1.44760E+00 3.49641E+00-4.71000E-04-2.52245E-04
 -1     23677 2.47431E+00 4.37519E+00 2.26030E+00 4.47990E+00-4.02705E-04 2.20674E-04
 -1     23678-2.22000E+00 4.15784E+00 6.40211E-01 3.16922E+00 1.36922E-03 4.51047E-03
 -1     23679-4.06374E+00 2.07034E+00-6.57741E-01 1.01490E+00-2.57697E-04 7.71708E-05
 -1     23680-2.91264E+00 2.42266E+00-1.61388E-01 1.60014E+00-4.17010E-04 1.40608E-04
 -1     23681-3.91958E+00 2.25215E+00-5.50347E-01 1.16848E+00 5.97356E-05-2.72171E-04
 -1     23682 4.87303E+00-8.74457E-02 1.57970E+00 3.93656E+00 8.12997E-04-1.08743E-03
 -1     23683 5.42857E+00 2.51829E-01 1.87237E+00 4.26425E+00-9.30114E-05-4.48674E-03
 -1     23684 3.91990E+00-3.40052E-01 1.18172E+00 3.72642E+00 1.18048E-03 4.18359E-04
 -1     23685-6.88138E+00-7.53428E-02-2.29574E+00-8.27311E-02 5.05909E-04-4.84387E-04
 -1     23686-5.75390E+00-2.38054E-03-1.89643E+00 5.11905E-01-2.08557E-03-3.68125E-03
 -1     23687-6.66565E+00 6.60033E-02-2.17768E+00-1.36227E-01-2.16860E-04-7.00460E-04
 -1     23688-6.76030E+00-1.33450E+00-2.67211E+00 1.20008E+00 3.75134E-03-7.01492E-03
 -1     23689-4.60511E+00-5.28198E-01-1.69865E+00 1.43592E+00-2.43550E-04 5.60603E-03
 -1     23690-4.57734E+00-7.86184E-01-1.76704E+00 1.59941E+00-1.05852E-03-2.20040E-03
 -1     23691-1.15297E+00 4.58234E+00 1.13104E+00 3.66443E+00 1.98064E-03 8.00172E-04
 -1     23692 8.54133E+00 1.54719E+00 3.32578E+00 5.06774E+00-2.01379E-03 1.30327E-03
 -1     23693 7.52178E+00 2.04375E+00 3.16799E+00 5.61765E+00 6.34735E-04-5.53731E-03
 -1     23694 7.32963E+00 2.21911E+00 3.15053E+00 5.69062E+00-3.93685E-03-3.34815E-03
 -1     23695 7.06344E+00 1.52537E+00 2.83691E+00 5.25559E+00 1.48300E-03-8.75345E-04
 -1     23696-2.00417E+00 2.54256E+00 1.77824E-01 1.98230E+00-2.49474E-04 1.68569E-03
 -1     23697-2.28724E+00 2.28266E+00-2.02353E-03 1.78696E+00 4.66990E-04 4.05355E-04
 -1     23698-5.23207E+00-1.31156E+00-2.15828E+00 1.57295E+00-1.64728E-03 2.12457E-03
 -1     23699 6.01657E+00 3.10811E+00 3.01066E+00 5.67134E+00-5.83334E-04 5.22895E-04
 -1     23700 5.75929E+00 3.28462E+00 2.98370E+00 5.63151E+00-8.77505E-05 5.31593E-04
 -1     23701 4.78101E+00 2.86019E+00 2.52074E+00 5.11766E+00-3.72503E-04-9.33277E-04
 -1     23702 5.43748E+00 2.55857E+00 2.63756E+00 5.28562E+00-1.08134E-03 5.70907E-05
 -1     23703 6.79333E+00 9.38559E-01 2.55470E+00 4.84629E+00-3.04143E-03 2.64898E-03
 -1     23704 8.57195E-01 4.36238E+00 1.72249E+00 3.88400E+00 7.23177E-05 2.49088E-04
 -1     23705 5.29695E-01 4.40448E+00 1.62824E+00 3.81445E+00 2.55338E-04 2.19928E-04
 -1     23706-9.61248E-01 3.79167E+00 9.34003E-01 3.02128E+00 1.37112E-04-6.25275E-05
 -1     23707-2.79712E-01 3.69806E+00 1.12805E+00 3.15419E+00 1.70712E-04 1.82933E-04
 -1     23708 2.79095E+00 2.92750E+00 1.88713E+00 4.29408E+00 2.61129E-04 4.79573E-04
 -1     23709 2.56466E+00 3.07788E+00 1.86237E+00 4.21337E+00 1.27577E-04 1.48973E-04
 -1     23710-2.14724E+00 3.31588E+00 3.85431E-01 2.39093E+00 2.41460E-04-2.14457E-04
 -1     23711-3.68093E+00 2.61335E+00-3.52574E-01 1.49875E+00-1.04463E-04-6.42661E-04
 -1     23712-3.95479E+00 2.36318E+00-5.25428E-01 1.24273E+00 2.57252E-04-4.57320E-04
 -1     23713-1.63420E+00 3.35336E+00 5.67185E-01 2.53723E+00 1.85899E-04 1.33273E-04
 -1     23714-4.28305E+00-1.04823E+00-1.76115E+00 1.78212E+00-4.12136E-03-3.24220E-03
 -1     23715 2.77904E+00 4.12199E+00 2.27713E+00 4.53294E+00 5.58481E-04 7.64282E-04
 -1     23716 2.48045E+00 4.18155E+00 2.19828E+00 4.41936E+00-4.15530E-04-4.46373E-05
 -1     23717 1.36388E+00 3.71362E+00 1.67592E+00 3.78914E+00-1.33024E-04-4.37043E-04
 -1     23718 2.01338E+00 3.61857E+00 1.85817E+00 4.04550E+00-1.86506E-05-5.33026E-04
 -1     23719-2.95365E+00-7.62439E-01-1.23112E+00 2.11888E+00-2.19492E-03 1.91416E-05
 -1     23720 3.05691E+00 2.78717E+00 1.92725E+00 4.39718E+00 1.30459E-03 7.14963E-04
 -1     23721 1.95698E+00 2.40987E+00 1.44027E+00 3.84183E+00 1.05596E-03 5.13679E-04
 -1     23722 3.32007E+00 2.61921E+00 1.95837E+00 4.48478E+00 1.49400E-03 1.22750E-03
 -1     23723-4.64341E+00-9.19060E-02-1.55600E+00 1.15201E+00-3.15785E-03 1.23575E-03
 -1     23724-4.69422E+00-2.98276E-01-1.65364E+00 1.28966E+00-4.12327E-03 1.99680E-03
 -1     23725-3.36636E+00-2.94458E-01-1.21150E+00 1.82289E+00 3.85387E-07-2.11300E-03
 -1     23726 6.58961E+00 1.85978E+00 2.78754E+00 5.35698E+00-9.33709E-05-7.66524E-04
 -1     23727-6.96481E-01-1.08676E+00-5.88143E-01 2.71974E+00-4.81739E-05 1.23465E-03
 -1     23728 5.69397E-01-9.41116E-01-1.22344E-01 2.97185E+00 3.15387E-04-8.89971E-05
 -1     23729-1.23470E+00-9.01175E-01-7.05015E-01 2.62356E+00 1.29760E-05 1.34509E-03
 -1     23730 1.77342E+00-7.73917E-01 3.30107E-01 3.24920E+00 3.08875E-04 4.98158E-05
 -1     23731 2.88740E+00-5.66881E-01 7.65910E-01 3.47163E+00 7.56910E-04-4.53865E-04
 -1     23732 3.54740E+00-2.44578E-01 1.09118E+00 3.77273E+00 5.13952E-04 1.94986E-04
 -1     23733 1.32934E+00-6.35336E-01 2.29440E-01 3.24354E+00 4.65202E-04 5.70005E-04
 -1     23734 5.50039E+00 1.73470E+00 2.38443E+00 5.04309E+00 4.90122E-04-6.16726E-04
 -1     23735 5.21120E+00 1.91075E+00 2.35012E+00 5.02660E+00 7.72228E-04-4.66896E-04
 -1     23736 2.00927E-01 3.36888E+00 1.17771E+00 3.18322E+00-6.68433E-04-1.13096E-03
 -1     23737-5.43334E-01 3.20099E+00 8.76765E-01 2.82343E+00 3.05626E-04-3.43301E-05
 -1     23738-2.57949E+00 2.02149E+00-1.84038E-01 1.58988E+00-4.59695E-05-3.55528E-04
 -1     23739-2.86837E+00 1.77469E+00-3.61608E-01 1.42931E+00 4.20389E-04 7.58647E-04
 -1     23740-1.26892E+00 2.54827E+00 4.23191E-01 2.31100E+00 8.09788E-04 5.34137E-05
 -1     23741 4.79731E+00 2.05321E+00 2.26011E+00 4.93284E+00 2.98503E-04 7.31612E-04
 -1     23742 4.46531E+00 2.21044E+00 2.20462E+00 4.85854E+00 6.36448E-04-1.08268E-03
 -1     23743 4.24367E+00 1.58117E+00 1.92414E+00 4.61811E+00 1.30769E-03 2.24675E-03
 -1     23744 2.45551E+00 3.23688E+00 1.87883E+00 4.18534E+00-9.77304E-05 6.53079E-04
 -1     23745 2.05942E+00 3.28623E+00 1.76478E+00 4.00917E+00 2.33784E-04 5.21458E-04
 -1     23746 1.59382E+00 2.72351E+00 1.42490E+00 3.70501E+00 3.06315E-04 6.82014E-04
 -1     23747-1.92125E+00-4.53207E-01-7.85229E-01 2.39837E+00 1.19156E-03-1.23467E-03
 -1     23748-1.56219E+00-6.68253E-01-7.39290E-01 2.54232E+00-1.04580E-03 3.23035E-03
 -1     23749 6.02840E+00 6.26026E-01 2.18783E+00 4.57247E+00-9.86306E-04-5.50109E-03
 -1     23750 6.52906E+00 1.06090E+00 2.50350E+00 4.91447E+00-2.28342E-04-9.49749E-04
 -1     23751 6.29594E+00 1.20009E+00 2.47335E+00 4.97807E+00 1.40597E-03-6.41649E-04
 -1     23752 5.16321E+00 3.60015E-01 1.81853E+00 4.33605E+00-4.68660E-04-5.47678E-03
 -1     23753-2.79120E+00 2.75606E+00-1.16188E-02 1.83164E+00 3.59232E-04-7.80862E-05
 -1     23754-2.46560E-01-5.92238E-01-2.76762E-01 2.89114E+00 5.21811E-04 1.64279E-03
 -1     23755-5.74166E+00 6.95764E-01-1.66525E+00-1.61789E-02 2.86832E-05-1.33644E-03
 -1     23756-5.99718E+00 5.27891E-01-1.80431E+00-8.11130E-02 8.61171E-04-4.66331E-04
 -1     23757-4.45865E+00 1.08383E+00-1.11301E+00 6.29311E-01 1.56223E-03-2.83825E-04
 -1     23758-6.22667E+00 3.66507E-01-1.93350E+00-1.32545E-01 1.02823E-04-6.22250E-04
 -1     23759-6.46553E+00 2.16327E-01-2.06199E+00-1.43088E-01-2.95452E-04-5.55138E-04
 -1     23760-5.40994E+00 3.36612E-01-1.67376E+00 4.22791E-01-5.69448E-04-1.13876E-03
 -1     23761-4.96032E+00 6.97140E-01-1.40661E+00 4.68764E-01 2.24716E-04-5.31040E-04
 -1     23762-4.66546E+00 9.28835E-02-1.50271E+00 1.03611E+00-3.63543E-03-3.00081E-03
 -1     23763-3.47390E+00 1.52827E-01-1.09637E+00 1.58384E+00 1.41589E-04 7.70746E-04
 -1     23764-4.53926E+00 2.75306E-01-1.40742E+00 9.62390E-01 9.03824E-04 7.82019E-04
 -1     23765-1.58411E+00 2.89036E+00 4.30328E-01 2.29269E+00 1.38564E-03 1.63570E-03
 -1     23766-1.42435E+00 3.11376E+00 5.57153E-01 2.45062E+00-2.02296E-04 1.08074E-03
 -1     23767 4.02494E+00 2.31988E+00 2.09431E+00 4.72175E+00 1.12135E-03-2.15319E-03
 -1     23768 3.69866E+00 2.48213E+00 2.03454E+00 4.62600E+00-6.07455E-04 1.36261E-03
 -1     23769 3.40764E+00 1.85138E+00 1.73844E+00 4.37695E+00 1.06186E-03-1.63080E-03
 -1     23770 6.02991E+00 1.36874E+00 2.44476E+00 5.01465E+00 6.84833E-04 2.46872E-04
 -1     23771 5.77316E+00 1.54928E+00 2.41541E+00 5.04370E+00-1.17671E-03-5.85080E-04
 -1     23772 4.92077E+00 1.25232E+00 2.03793E+00 4.70669E+00 8.39746E-04-2.57251E-03
 -1     23773 5.48131E+00 9.01796E-01 2.10584E+00 4.67943E+00 4.31672E-04-1.14332E-03
 -1     23774-1.60663E+00 3.22311E+00 5.33335E-01 2.46218E+00 4.86478E-04 1.18081E-04
 -1     23775 2.11093E-01 3.19202E+00 1.12395E+00 3.12563E+00-1.28342E-03-1.33892E-03
 -1     23776-2.07159E+00-1.93031E-01-7.51064E-01 2.30492E+00 7.52698E-04 2.42906E-03
 -1     23777-7.99146E-01-1.48949E-01-3.18214E-01 2.73976E+00-1.74417E-03 1.53042E-03
 -1     23778-2.18910E+00 3.72475E-02-7.10797E-01 2.18870E+00-2.97576E-04-9.92116E-04
 -1     23779 5.97026E-01-2.64616E-01 1.10090E-01 3.16064E+00 4.64368E-04 2.15634E-03
 -1     23780 9.81557E-01-4.61201E-01 1.72146E-01 3.22589E+00 4.53023E-04 1.49923E-03
 -1     23781 2.59200E+00 2.11392E+00 1.55313E+00 4.09003E+00 2.57539E-03 3.22283E-04
 -1     23782-9.03641E-02 2.89375E+00 9.27552E-01 2.92309E+00 2.34845E-03 8.15947E-04
 -1     23783 4.26873E+00 8.27603E-01 1.68740E+00 4.39684E+00-3.18914E-04-2.67361E-03
 -1     23784 3.99476E+00 1.00966E+00 1.65321E+00 4.39650E+00-1.04123E-03-1.58675E-03
 -1     23785 9.19217E-01 1.92123E+00 9.37198E-01 3.33721E+00-6.47010E-04-6.07471E-04
 -1     23786 6.62931E-01 2.07635E+00 9.03346E-01 3.22297E+00 1.35629E-04-1.29861E-04
 -1     23787 2.14417E+00-3.11324E-01 6.05275E-01 3.50887E+00 5.80823E-04-2.65006E-05
 -1     23788 6.41067E-01 2.30769E+00 9.72764E-01 3.20937E+00 3.65868E-04 4.30854E-04
 -1     23789 5.41889E-01 2.46517E+00 9.92685E-01 3.17545E+00 6.61401E-04 3.17060E-04
 -1     23790-4.17458E-01 1.81852E+00 4.62326E-01 2.69102E+00 3.78481E-04-2.18976E-04
 -1     23791 1.39872E+00 3.15984E+00 1.50464E+00 3.67188E+00-3.70602E-04 3.49475E-05
 -1     23792 7.59532E-01 3.08976E+00 1.27062E+00 3.35898E+00 1.97304E-03 1.49071E-03
 -1     23793-6.83350E-01 2.47852E+00 5.92819E-01 2.56060E+00-2.94182E-03-1.73103E-03
 -1     23794 8.37941E-01 2.78285E+00 1.19529E+00 3.33888E+00-5.47124E-04 4.25298E-05
 -1     23795 4.24245E+00 9.42659E-02 1.43173E+00 4.05601E+00 8.01155E-04-8.91467E-04
 -1     23796 4.84836E+00 4.89231E-01 1.76212E+00 4.36966E+00-4.54545E-04-1.81708E-03
 -1     23797 4.56662E+00 6.53273E-01 1.72682E+00 4.39681E+00-1.07539E-03-7.50748E-04
 -1     23798 3.22628E+00-1.14316E-01 1.02673E+00 3.80222E+00 8.40894E-04 7.18227E-04
 -1     23799 1.46158E+00 1.82567E+00 1.08479E+00 3.58954E+00-7.80872E-04 6.58226E-05
 -1     23800 1.51776E-01 1.49076E+00 5.41895E-01 2.97798E+00-1.25833E-03-1.54007E-03
 -1     23801 1.82702E+00 1.66403E+00 1.15128E+00 3.73298E+00 3.55565E-04 2.09475E-03
 -1     23802 3.62421E+00 4.05717E-01 1.33225E+00 4.08670E+00-8.25360E-04-1.05526E-04
 -1     23803-2.30658E+00 4.76262E-01-6.03873E-01 1.99936E+00 3.03983E-03 1.66468E-03
 -1     23804-2.26803E+00 2.74658E-01-6.57264E-01 2.09836E+00 1.96858E-03 1.45993E-03
 -1     23805 2.85755E+00 4.35728E-02 9.57220E-01 3.79586E+00 5.27202E-04 5.91714E-04
 -1     23806 1.73985E-01 2.04469E-01 1.23120E-01 3.04821E+00-2.12477E-03-1.61887E-03
 -1     23807 3.53161E-01-4.18595E-02 1.02377E-01 3.11503E+00-5.68445E-03 4.03182E-03
 -1     23808-1.05957E+00 3.34468E-01-2.36757E-01 2.58301E+00 3.59462E-03 4.58050E-03
 -1     23809-1.90978E+00 1.98131E+00 2.22616E-02 1.92581E+00-4.10790E-04 7.02406E-04
 -1     23810-3.20555E+00 1.51297E+00-5.58012E-01 1.24847E+00-8.50515E-04-3.76339E-04
 -1     23811 3.76433E+00 1.19791E+00 1.63839E+00 4.37232E+00 1.41552E-03 2.22756E-03
 -1     23812 3.35192E+00 1.34257E+00 1.55228E+00 4.27746E+00 4.68505E-03-5.55325E-04
 -1     23813 3.10003E+00 7.74341E-01 1.27897E+00 4.05775E+00-1.33137E-03-4.23779E-04
 -1     23814 1.51135E+00 7.24469E-02 5.23139E-01 3.45867E+00-7.45772E-04 4.73852E-05
 -1     23815-3.47913E+00 1.28759E+00-7.23179E-01 1.13596E+00 8.33558E-05-1.34205E-03
 -1     23816-1.03350E+00 2.17855E+00 3.78180E-01 2.37500E+00-7.07312E-04 1.67192E-04
 -1     23817 2.61136E+00 1.33497E+00 1.30606E+00 4.01311E+00 1.74189E-03-2.34530E-03
 -1     23818 2.15678E+00 1.45284E+00 1.19027E+00 3.85703E+00-4.88214E-04-1.47257E-03
 -1     23819 1.02569E+00 1.17556E+00 7.26442E-01 3.36896E+00 2.48638E-03-6.80211E-04
 -1     23820 2.13104E+00 9.74743E-01 1.02413E+00 3.77824E+00 5.69245E-04-6.18111E-03
 -1     23821-4.15750E+00 6.68354E-01-1.15137E+00 9.46576E-01 1.21125E-04-6.10617E-04
 -1     23822-4.36705E+00 4.78526E-01-1.28336E+00 9.52183E-01-3.08942E-04-1.60033E-04
 -1     23823-3.69488E+00 1.07562E+00-8.64279E-01 1.05173E+00-1.51311E-03-1.79271E-03
 -1     23824-3.93347E+00 8.71964E-01-1.01004E+00 1.00047E+00 1.22222E-04-2.70742E-04
 -1     23825-2.92511E+00 1.00531E+00-6.33556E-01 1.51633E+00-1.58221E-04 3.32498E-06
 -1     23826-2.47238E+00 1.47280E+00-3.29540E-01 1.65733E+00 9.18819E-04 3.71568E-04
 -1     23827-3.32941E+00 5.60476E-01-9.13953E-01 1.46528E+00-6.69400E-04-2.88572E-04
 -1     23828 2.28992E+00 4.43336E-01 9.01929E-01 3.75505E+00-1.01846E-03 1.07780E-04
 -1     23829 2.58078E+00 2.29566E-01 9.27325E-01 3.78973E+00-5.66769E-04 7.94010E-04
 -1     23830-2.45800E+00 6.48623E-01-5.99443E-01 1.88589E+00 3.31527E-03 4.21711E-03
 -1     23831-1.31617E+00 7.57452E-01-1.85766E-01 2.39341E+00 2.49441E-03 1.78327E-04
 -1     23832 1.01159E-01 7.72641E-01 2.88071E-01 3.00777E+00 2.36077E-03 5.01873E-03
 -1     23833 2.26478E-01 5.44353E-01 2.53328E-01 3.07866E+00 2.05529E-03-1.33346E-03
 -1     23834-2.29658E+00 8.76430E-01-4.69677E-01 1.87892E+00 1.11343E-03 2.21369E-03
 -1     23835-1.32325E+00 1.88949E+00 1.87528E-01 2.21462E+00 9.42406E-04 5.99958E-04
 -1     23836-1.54775E+00 1.63733E+00 3.02881E-02 2.12626E+00 4.63862E-04 4.73508E-04
 -1     23837-1.39716E-01 2.34835E+00 7.29131E-01 2.83179E+00-2.44727E-04-6.99155E-05
 -1     23838-1.53300E+00 1.42826E+00-3.45777E-02 2.15168E+00-1.86474E-04-1.24283E-04
 -1     23839-1.75940E+00 1.18655E+00-1.89655E-01 2.09168E+00 1.08610E-04 4.54625E-04
 -1     23840-3.81230E-01 1.15679E+00 2.55883E-01 2.76411E+00-1.36878E-03-2.64798E-03
 -1     23841-2.16888E-01 9.81807E-01 2.53000E-01 2.86509E+00-4.28804E-04-9.68654E-04
 -1     23842 1.26908E+00 6.18209E-01 6.22581E-01 3.45433E+00-3.47060E-04 1.08475E-03
 -1     23843-9.26901E-01 1.26767E+00 1.11651E-01 2.50000E+00 1.61842E-04 7.21359E-04
 -1     23844 2.06289E+00 6.29828E-01 8.88280E-01 3.72059E+00-9.55325E-04-3.89693E-03
 -1     23845 4.78299E+00 3.21359E+00 2.62041E+00 4.01855E+00 2.62342E-04-7.00302E-03
 -1     23846 5.30227E+00 3.96066E+00 3.05391E+00 4.58988E+00 4.25624E-03 5.42976E-04
 -1     23847 5.15216E+00 3.81849E+00 2.95907E+00 4.46978E+00-1.47536E-03-1.36664E-03
 -1     23848 5.98890E+00 4.48382E+00 3.45817E+00 5.17137E+00-1.24384E-03-3.30118E-04
 -1     23849 5.78894E+00 4.35401E+00 3.34945E+00 5.00181E+00 6.29204E-04 1.35681E-03
 -1     23850 7.10966E+00 5.08390E+00 4.02325E+00 6.00659E+00 1.04457E-03-4.34737E-04
 -1     23851 6.81132E+00 4.86465E+00 3.85207E+00 5.74891E+00 9.28992E-04 1.10005E-03
 -1     23852 8.37173E+00 6.01980E+00 4.74669E+00 7.11012E+00 2.35644E-03 1.81123E-03
 -1     23853 8.02082E+00 5.73446E+00 4.53922E+00 6.78994E+00-1.45041E-04 4.77886E-04
 -1     23854 9.66948E+00 7.11270E+00 5.53640E+00 8.31525E+00 1.04117E-03-3.15935E-04
 -1     23855 9.31363E+00 6.80347E+00 5.31994E+00 7.98543E+00 5.05053E-04 1.42939E-03
 -1     23856 1.08489E+01 8.20614E+00 6.29049E+00 9.46177E+00 5.92246E-04 1.57657E-03
 -1     23857 1.05285E+01 7.92800E+00 6.09026E+00 9.16296E+00-3.13037E-04-4.32468E-04
 -1     23858 1.17899E+01 9.18517E+00 6.92420E+00 1.04353E+01-1.02866E-03 1.45422E-03
 -1     23859 1.15489E+01 8.95619E+00 6.76329E+00 1.01944E+01-1.53671E-03-2.62793E-03
 -1     23860 1.24381E+01 9.94916E+00 7.39083E+00 1.11495E+01-1.19467E-03 1.16591E-03
 -1     23861 1.22747E+01 9.78451E+00 7.27604E+00 1.09804E+01-1.28124E-03-2.74596E-03
 -1     23862 1.28027E+01 1.04642E+01 7.67677E+00 1.15928E+01 4.02013E-03 1.08138E-03
 -1     23863 1.27009E+01 1.03596E+01 7.60799E+00 1.14942E+01 9.41489E-04 1.16954E-03
 -1     23864 1.29171E+01 1.07521E+01 7.80851E+00 1.18045E+01-6.68309E-04-1.07404E-03
 -1     23865 1.28836E+01 1.07094E+01 7.78474E+00 1.17591E+01-3.45664E-03-5.27227E-03
 -1     23866 1.28181E+01 1.08337E+01 7.80538E+00 1.18007E+01-7.43138E-04 2.95544E-04
 -1     23867 1.28458E+01 1.08398E+01 7.81284E+00 1.18131E+01-5.88460E-04-7.15157E-04
 -1     23868 1.24845E+01 1.07237E+01 7.65918E+00 1.15893E+01-1.62490E-04 2.35717E-05
 -1     23869 1.25721E+01 1.07760E+01 7.70546E+00 1.16561E+01-5.39011E-04-8.21502E-04
 -1     23870 1.18454E+01 1.04156E+01 7.34897E+00 1.11449E+01-3.26543E-03 3.09579E-03
 -1     23871 1.20171E+01 1.05198E+01 7.44013E+00 1.12772E+01 8.63428E-04 5.16048E-03
 -1     23872 1.07173E+01 9.84857E+00 6.78250E+00 1.03376E+01-1.50086E-03-3.79765E-03
 -1     23873 1.10312E+01 1.00592E+01 6.97027E+00 1.05904E+01-1.41791E-03 1.20229E-03
 -1     23874 8.40757E+00 8.81747E+00 5.69242E+00 8.80294E+00-6.17668E-04-1.27454E-02
 -1     23875 9.06509E+00 9.21877E+00 6.03373E+00 9.31084E+00 4.53189E-03 3.64408E-03
 -1     23876 1.64550E+00 6.97041E+00 2.85712E+00 6.24273E+00 7.77359E-02 1.33516E-01
 -1     23877 4.74143E+00 7.91394E+00 4.17487E+00 7.04910E+00-4.20044E-03 1.94620E-02
 -1     23878 5.68751E-02 7.75867E+00 2.56937E+00 7.21581E+00-4.85847E-02-3.75573E-03
 -1     23879-1.29911E-01 9.43875E+00 3.07614E+00 7.31196E+00 9.35907E-03 5.21720E-03
 -1     23880-9.06899E-02 8.16582E+00 2.67742E+00 7.44905E+00-3.59961E-02 2.06821E-03
 -1     23881-1.26091E-01 1.17029E+01 3.80615E+00 6.71829E+00-1.30769E-02-3.56444E-03
 -1     23882-1.19440E-01 1.09672E+01 3.58415E+00 6.79386E+00-1.14281E-02 4.53363E-04
 -1     23883-2.41383E-01 1.10172E+01 3.54396E+00 5.93071E+00-3.09505E-02-1.62654E-04
 -1     23884-2.20840E-01 1.11425E+01 3.64072E+00 5.93488E+00-1.14807E-02 3.04652E-03
 -1     23885-2.46074E+00 4.69083E+00 6.47510E-01 2.31638E+00-1.43058E-01 1.40614E-01
 -1     23886-7.14174E+00-2.53622E-01-2.45551E+00-1.68315E+00-7.28666E-03-7.28639E-03
 -1     23887-6.55517E+00-1.69195E-01-2.19111E+00-1.58303E+00-5.99535E-03 4.53406E-03
 -1     23888-9.85836E+00-6.69656E-01-3.47915E+00-2.62029E+00-3.68556E-03-4.37086E-03
 -1     23889-9.35214E+00-6.26121E-01-3.29042E+00-2.47501E+00-2.55932E-06-2.26512E-03
 -1     23890-1.23445E+01-9.46308E-01-4.38465E+00-3.50817E+00 9.83141E-05-3.25381E-04
 -1     23891-1.18003E+01-8.84382E-01-4.18637E+00-3.31724E+00-6.20775E-04 8.76681E-04
 -1     23892-1.44060E+01-1.28341E+00-5.17772E+00-4.36591E+00 1.87759E-03 6.06020E-04
 -1     23893-1.39687E+01-1.22410E+00-5.01580E+00-4.20456E+00 6.51125E-04 1.07517E-03
 -1     23894-1.58256E+01-1.53754E+00-5.72851E+00-4.98062E+00 3.65964E-04-8.33336E-04
 -1     23895-1.55279E+01-1.49340E+00-5.61605E+00-4.86428E+00 4.60174E-05-1.47428E-03
 -1     23896-1.67722E+01-1.72748E+00-6.10594E+00-5.39785E+00-3.65169E-03-1.98199E-03
 -1     23897-1.65780E+01-1.68728E+00-6.02458E+00-5.32741E+00-2.97099E-03-1.35799E-03
 -1     23898-1.73988E+01-1.84916E+00-6.35294E+00-5.67989E+00-1.31980E-03-1.34939E-03
 -1     23899-1.72776E+01-1.82528E+00-6.29912E+00-5.63623E+00-7.69384E-04-4.39518E-03
 -1     23900-1.78636E+01-1.92099E+00-6.52938E+00-5.85715E+00-5.43929E-05 6.60802E-04
 -1     23901-1.77721E+01-1.90845E+00-6.49438E+00-5.82665E+00-3.60734E-04 1.62797E-05
 -1     23902-1.83838E+01-1.96749E+00-6.71393E+00-5.99909E+00-9.05430E-04 6.77579E-05
 -1     23903-1.82620E+01-1.95784E+00-6.67192E+00-5.96724E+00 8.54646E-04-3.17427E-04
 -1     23904-1.92501E+01-2.01538E+00-7.01630E+00-6.17593E+00-1.26454E-03 1.83796E-03
 -1     23905-1.89994E+01-1.99042E+00-6.92558E+00-6.11638E+00 1.64032E-03 1.51083E-03
 -1     23906-2.10451E+01-2.10502E+00-7.65610E+00-6.50184E+00-9.90475E-03-8.92053E-03
 -1     23907-2.04941E+01-2.03301E+00-7.42308E+00-6.35926E+00 9.53653E-03-2.07732E-03
 -1     23908-2.72085E+01-2.24838E+00-9.61374E+00-6.93573E+00 1.55917E-02 8.96923E-03
 -1     23909-2.42244E+01-1.99081E+00-8.64984E+00-6.56083E+00 9.54089E-04 3.69155E-02
 -1     23910-3.94960E+01-9.05281E+00-1.55200E+01 1.36125E+00-4.37755E-01 3.32914E-01
 -1     23911-2.79575E+01-1.93865E+00-9.83939E+00-5.52929E+00-8.77947E-02 1.82707E-01
 -1     23912-2.71044E+01-2.38258E+00-9.65831E+00-2.66992E+00 8.25591E-02 9.55980E-02
 -1     23913-2.61187E+01-7.64303E+00-1.12851E+01 2.74725E-01-1.67249E-01 8.76304E-02
 -1     23914-1.23580E+01-5.71347E+00-5.97160E+00-4.63827E-01-1.10868E-02-3.94906E-03
 -1     23915-1.48801E+01-6.97380E+00-7.17026E+00-3.18749E-01-1.91680E-02-2.12918E-02
 -1     23916-4.98232E+00-2.77728E+00-2.56070E+00-2.47161E-01-6.20219E-04 4.22209E-03
 -1     23917-6.58237E+00-3.56452E+00-3.35440E+00-3.73440E-01 3.82978E-03 1.53185E-03
 -1     23918 2.25339E-01-4.71087E-01-8.01748E-02 5.24450E-01 1.90747E-04 1.56843E-03
 -1     23919-9.37161E-01-1.03965E+00-6.51650E-01 2.97915E-01 4.27111E-04 1.30911E-03
 -1     23920 3.98574E+00 1.26263E+00 1.72946E+00 1.53265E+00 6.94888E-03 3.12145E-03
 -1     23921 3.17764E+00 8.86487E-01 1.34387E+00 1.26751E+00 4.14469E-03-1.23290E-03
 -1     23922 6.50585E+00 2.50579E+00 2.97259E+00 2.61226E+00-5.75213E-03 5.33896E-04
 -1     23923 5.99202E+00 2.24564E+00 2.72153E+00 2.34053E+00-3.80378E-03 3.36666E-03
 -1     23924 7.85871E+00 3.25539E+00 3.66968E+00 3.61792E+00-4.31956E-03-1.83709E-03
 -1     23925 7.62637E+00 3.13570E+00 3.55316E+00 3.37508E+00 6.44955E-04 2.02109E-03
 -1     23926 8.12903E+00 3.55183E+00 3.85463E+00 4.41918E+00-1.99021E-03-3.05109E-04
 -1     23927 8.16369E+00 3.55774E+00 3.86715E+00 4.24460E+00-4.11717E-04 9.41236E-04
 -1     23928 7.48328E+00 3.51308E+00 3.63303E+00 4.84608E+00-2.88645E-03-1.61138E-03
 -1     23929 7.72353E+00 3.61923E+00 3.74260E+00 4.78096E+00 1.45199E-03 3.20119E-03
 -1     23930 6.27758E+00 3.28851E+00 3.16043E+00 4.78109E+00-2.36982E-04-1.24443E-03
 -1     23931 6.60761E+00 3.43400E+00 3.31135E+00 4.84913E+00-1.96618E-04 1.40271E-03
 -1     23932 5.57665E+00 3.20173E+00 2.90085E+00 4.52370E+00-5.50685E-03-1.08358E-03
 -1     23933 5.90636E+00 3.33701E+00 3.05315E+00 4.66426E+00-4.84209E-03-1.28087E-03
 -1     23934-3.84330E+00 1.21468E+00-8.28530E-01-1.89166E-02 1.25006E-01 8.34415E-02
 -1     23935-7.65302E-01 7.54247E+00 2.22954E+00 4.83419E+00-1.20657E-01-6.78161E-02
 -1     23936 4.92219E+00 3.72556E+00 2.85264E+00 4.31889E+00-4.41364E-04 3.09628E-03
 -1     23937 4.72297E+00 3.48061E+00 2.71824E+00 4.15155E+00 4.91432E-04-4.12242E-04
 -1     23938 5.61407E+00 4.23874E+00 3.25734E+00 4.85844E+00-2.22296E-03-6.60209E-04
 -1     23939 5.43263E+00 4.11349E+00 3.15186E+00 4.72074E+00 1.56023E-03 4.08008E-03
 -1     23940 6.51382E+00 4.76763E+00 3.72077E+00 5.55947E+00-8.16883E-05 1.90431E-04
 -1     23941 6.26269E+00 4.59045E+00 3.58255E+00 5.34407E+00-1.18541E-04-1.47337E-04
 -1     23942 7.71708E+00 5.51327E+00 4.36360E+00 6.53169E+00 5.68197E-04 2.02212E-04
 -1     23943 7.39560E+00 5.26460E+00 4.17675E+00 6.23892E+00 4.04136E-04-5.53605E-04
 -1     23944 9.02690E+00 6.55795E+00 5.14226E+00 7.70724E+00 5.80445E-04 1.42337E-03
 -1     23945 8.66457E+00 6.25853E+00 4.92452E+00 7.37881E+00-1.35118E-03 1.10346E-03
 -1     23946 1.02893E+01 7.65983E+00 5.92537E+00 8.90701E+00 1.08838E-03 3.28301E-04
 -1     23947 9.94311E+00 7.36188E+00 5.71122E+00 8.58123E+00 7.73749E-05 2.71421E-03
 -1     23948 1.13488E+01 8.71392E+00 6.61829E+00 9.97839E+00 7.72208E-05 4.88224E-05
 -1     23949 1.10738E+01 8.46087E+00 6.44967E+00 9.70590E+00-8.31722E-04-1.55219E-03
 -1     23950 1.21461E+01 9.59768E+00 7.17358E+00 1.08272E+01 2.40434E-04-4.27822E-04
 -1     23951 1.19474E+01 9.39878E+00 7.04709E+00 1.06236E+01-2.63907E-03-3.06413E-03
 -1     23952 1.26478E+01 1.02373E+01 7.54853E+00 1.14052E+01 1.87433E-03-6.98946E-04
 -1     23953 1.25269E+01 1.01044E+01 7.47045E+00 1.12739E+01-1.99286E-03-3.94784E-03
 -1     23954 1.28832E+01 1.06371E+01 7.76192E+00 1.17235E+01-5.53678E-04-1.33727E-04
 -1     23955 1.28262E+01 1.05600E+01 7.71685E+00 1.16567E+01-9.85054E-05 1.55771E-03
 -1     23956 1.28965E+01 1.08190E+01 7.82516E+00 1.18261E+01 2.06272E-03 1.15834E-03
 -1     23957 1.28891E+01 1.07962E+01 7.81846E+00 1.18144E+01 6.90629E-04 2.38343E-03
 -1     23958 1.26849E+01 1.08018E+01 7.75160E+00 1.17224E+01-1.62863E-04 7.41703E-04
 -1     23959 1.27399E+01 1.08308E+01 7.77800E+00 1.17614E+01-4.83718E-05-8.69727E-05
 -1     23960 1.22098E+01 1.05949E+01 7.52756E+00 1.13991E+01 2.32153E-03 9.81963E-04
 -1     23961 1.23373E+01 1.06752E+01 7.59244E+00 1.14975E+01 1.22661E-03-8.97111E-04
 -1     23962 1.13660E+01 1.01760E+01 7.10578E+00 1.08012E+01-1.25841E-03-7.27457E-04
 -1     23963 1.15985E+01 1.03263E+01 7.23908E+00 1.09832E+01 1.46896E-03 3.26081E-03
 -1     23964 9.80526E+00 9.40435E+00 6.33291E+00 9.70045E+00 8.82162E-05 6.83141E-03
 -1     23965 1.02511E+01 9.70553E+00 6.58808E+00 1.00559E+01-2.43954E-03-2.82096E-04
 -1     23966 6.16146E+00 7.93246E+00 4.67720E+00 7.46718E+00-2.75001E-02-4.13573E-02
 -1     23967 7.41089E+00 8.65983E+00 5.30200E+00 8.31068E+00-1.05040E-02-2.54907E-02
 -1     23968 3.50237E-01 8.80994E+00 3.01872E+00 7.73892E+00-5.43304E-03-4.15225E-02
 -1     23969-1.18412E-01 9.76416E+00 3.18596E+00 7.17557E+00 2.07077E-02 9.93429E-03
 -1     23970-2.30337E-01 9.16194E+00 2.94058E+00 7.82972E+00 1.08754E-03 4.66991E-03
 -1     23971-1.34988E-01 1.07599E+01 3.50725E+00 7.05838E+00 1.18301E-02-8.24996E-03
 -1     23972-2.53319E-01 9.47326E+00 3.04500E+00 7.33942E+00 4.32303E-03 7.59301E-03
 -1     23973-1.45969E-01 1.18084E+01 3.85469E+00 6.35868E+00 4.84319E-04-1.07449E-02
 -1     23974-1.45874E-01 1.15272E+01 3.75591E+00 6.42427E+00-1.39577E-02 3.04466E-03
 -1     23975 5.08423E+00 2.97753E+00 2.64694E+00 4.15283E+00-4.71645E-03-1.20612E-03
 -1     23976-4.20645E-01 9.33755E+00 2.96368E+00 5.12136E+00 3.12059E-03 3.89560E-02
 -1     23977-8.07149E+00-4.91422E-01-2.82493E+00-2.09364E+00-3.02987E-03 5.54133E-03
 -1     23978-5.17554E+00 4.57061E-01-1.54956E+00-1.89069E-01-1.44600E-02-1.87882E-02
 -1     23979-8.55107E+00-5.25118E-01-2.98806E+00-2.21372E+00-1.84897E-02 1.32889E-03
 -1     23980-3.04260E+00 1.75308E+00-4.67459E-01 1.39022E+00-6.87451E-02 1.83622E-03
 -1     23981-5.13727E+00 7.61987E-01-1.51479E+00-5.29396E-01-6.02000E-02-5.36668E-02
 -1     23982-7.01137E+00 7.32353E-02-2.28235E+00-8.90754E-01-9.83276E-03-2.35099E-02
 -1     23983-1.11391E+01-7.90806E-01-3.93809E+00-3.04916E+00-5.52760E-04-4.59430E-03
 -1     23984-1.05932E+01-7.42394E-01-3.74201E+00-2.86724E+00-1.68728E-03 2.16565E-03
 -1     23985-1.34445E+01-1.11650E+00-4.80594E+00-3.96227E+00 1.66702E-04 3.81865E-04
 -1     23986-1.29583E+01-1.05934E+00-4.62510E+00-3.78030E+00 1.70320E-03 6.52263E-04
 -1     23987-1.51834E+01-1.41544E+00-5.48118E+00-4.69906E+00-7.70384E-04 4.61527E-04
 -1     23988-1.48194E+01-1.36900E+00-5.34018E+00-4.56332E+00 6.59392E-04-8.70794E-05
 -1     23989-1.63475E+01-1.63804E+00-5.93089E+00-5.21003E+00 3.17063E-03 4.65993E-03
 -1     23990-1.61049E+01-1.59806E+00-5.83953E+00-5.11597E+00-5.39663E-04 3.15252E-03
 -1     23991-1.71109E+01-1.78652E+00-6.23213E+00-5.55660E+00 1.42347E-03 3.01873E-04
 -1     23992-1.69493E+01-1.76899E+00-6.17946E+00-5.49658E+00 1.01173E-04-1.60268E-04
 -1     23993-1.76387E+01-1.88623E+00-6.44355E+00-5.77625E+00 1.50647E-04-9.55746E-06
 -1     23994-1.75398E+01-1.87497E+00-6.40680E+00-5.74374E+00-2.44751E-05-7.28166E-04
 -1     23995-1.81024E+01-1.94776E+00-6.61594E+00-5.92847E+00 1.11877E-03 9.86389E-04
 -1     23996-1.80016E+01-1.93477E+00-6.57798E+00-5.89927E+00-1.82997E-05-3.49839E-04
 -1     23997-1.87473E+01-1.99484E+00-6.84684E+00-6.08061E+00 1.70032E-03 3.38086E-05
 -1     23998-1.85849E+01-1.97530E+00-6.78667E+00-6.03543E+00 1.87551E-03-1.67735E-03
 -1     23999-1.99549E+01-2.04100E+00-7.25477E+00-6.30565E+00 2.17818E-03 1.69710E-02
 -1     24000-1.96015E+01-2.00742E+00-7.13391E+00-6.21954E+00-2.88473E-03-2.10218E-03
 -1     24001-2.29464E+01-2.17805E+00-8.27272E+00-6.75944E+00 4.58158E-03 2.75389E-03
 -1     24002-2.19103E+01-2.04726E+00-7.90045E+00-6.52018E+00-4.89530E-03 3.12186E-03
 -1     24003-3.54638E+00-2.22049E+00-1.90235E+00-9.75866E-02 4.65866E-03-1.71048E-03
 -1     24004-4.06502E+00-2.64501E+00-2.20929E+00 3.78789E-01 4.34296E-03-3.24695E-03
 -1     24005-2.17048E+00-1.53407E+00-1.22551E+00 9.05206E-02-1.43205E-03 3.05930E-03
 -1     24006-1.77847E+01-7.45909E+00-8.33843E+00-1.28996E-01-3.13097E-02-7.86893E-03
 -1     24007-2.12099E+01-8.95033E+00-9.97525E+00 5.15470E-01 3.17121E-02 1.23388E-02
 -1     24008-8.28900E+00-4.15352E+00-4.11013E+00-4.74448E-01 1.08713E-02-6.95585E-03
 -1     24009-1.02554E+01-5.13271E+00-5.07379E+00-4.98168E-01 9.01582E-03-2.67547E-03
 -1     24010-1.34362E+00-1.59335E+00-9.67991E-01 6.81718E-01-3.80177E-03 1.27667E-03
 -1     24011-2.39791E+01-5.62391E+00-9.75414E+00 5.79653E-01-1.70461E-01 2.52551E-02
 -1     24012 2.27180E+00 4.74357E-01 9.07978E-01 1.00781E+00 3.47060E-03 8.28018E-04
 -1     24013 1.29425E+00 1.40216E-03 4.30597E-01 7.57568E-01-2.81791E-03 4.26049E-04
 -1     24014 5.40377E+00 1.95402E+00 2.42971E+00 2.07550E+00-1.94984E-03-9.07243E-04
 -1     24015 4.73972E+00 1.62049E+00 2.09871E+00 1.79873E+00 1.66816E-03 8.24343E-04
 -1     24016 7.31712E+00 2.94193E+00 3.38455E+00 3.13145E+00-4.41516E-03-1.32563E-03
 -1     24017 6.95141E+00 2.75183E+00 3.20347E+00 2.87036E+00 1.75491E-04 4.00510E-03
 -1     24018 8.11541E+00 3.45118E+00 3.81982E+00 4.05135E+00-1.92357E-03-8.80568E-04
 -1     24019 8.02639E+00 3.40780E+00 3.77397E+00 3.84220E+00-2.20069E-03 1.04877E-04
 -1     24020 7.90565E+00 3.56621E+00 3.78404E+00 4.68659E+00-4.68884E-03-1.60764E-04
 -1     24021 8.05009E+00 3.62511E+00 3.84929E+00 4.56209E+00 2.18979E-04 1.39251E-03
 -1     24022 6.92648E+00 3.41608E+00 3.40859E+00 4.88618E+00-5.44926E-03-6.41807E-04
 -1     24023 7.23408E+00 3.55222E+00 3.55739E+00 4.88383E+00 3.81921E-04 2.16557E-03
 -1     24024 5.96009E+00 3.55667E+00 3.13960E+00 4.67209E+00-9.03928E-04 5.40612E-04
 -1     24025 5.37915E+00 3.09060E+00 2.79581E+00 4.39151E+00 4.32567E-04 2.31239E-03
 -1     24026-5.72480E-01 5.97572E+00 1.79687E+00 4.19877E+00 1.18837E-02 6.39898E-02
 -1     24027 6.48159E+00 4.25070E+00 3.54207E+00 5.24267E+00 6.03121E-04-9.56208E-04
 -1     24028 7.64717E+00 4.64577E+00 4.05652E+00 5.99660E+00 1.02896E-03 6.19621E-04
 -1     24029 8.81666E+00 5.42849E+00 4.70198E+00 6.99214E+00-3.43050E-04-5.28938E-04
 -1     24030 9.93597E+00 6.40889E+00 5.38913E+00 8.05328E+00-1.48933E-03 5.52037E-04
 -1     24031 1.08728E+01 7.43557E+00 6.04471E+00 9.06255E+00 2.15708E-03 3.24184E-03
 -1     24032 1.15489E+01 8.38812E+00 6.57878E+00 9.90358E+00 7.72253E-04 2.08065E-03
 -1     24033 1.19454E+01 9.14899E+00 6.96013E+00 1.04996E+01 1.76272E-03 1.65556E-03
 -1     24034 1.20881E+01 9.67756E+00 7.18223E+00 1.08531E+01 7.05815E-04-1.57114E-03
 -1     24035 1.20295E+01 9.98961E+00 7.26650E+00 1.09901E+01 4.84961E-04 2.68419E-03
 -1     24036 1.17716E+01 1.00967E+01 7.21740E+00 1.09270E+01-2.93057E-04 9.90382E-04
 -1     24037 1.12615E+01 1.00268E+01 7.02182E+00 1.06568E+01 1.56274E-04-4.74457E-04
 -1     24038 1.04174E+01 9.80153E+00 6.67748E+00 1.01777E+01 2.41514E-03 6.70582E-03
 -1     24039 8.93540E+00 9.43669E+00 6.06346E+00 9.36170E+00-1.34076E-04-1.93865E-03
 -1     24040 5.82135E+00 9.02147E+00 4.89616E+00 7.96829E+00 1.02471E-03 3.85431E-03
 -1     24041-2.57295E-01 9.34522E+00 3.00719E+00 6.65579E+00 2.22812E-02 4.78561E-03
 -1     24042-8.52773E+00-8.72958E-02-2.84237E+00-1.44709E+00-1.70063E-03-5.81497E-03
 -1     24043-1.11901E+01-4.58144E-01-3.84042E+00-2.57693E+00-3.10838E-04-2.78064E-03
 -1     24044-1.32081E+01-8.73412E-01-4.64417E+00-3.58539E+00 1.91971E-03 3.00018E-03
 -1     24045-1.45431E+01-1.21127E+00-5.19786E+00-4.29096E+00-1.85551E-03 9.84759E-04
 -1     24046-1.54659E+01-1.45233E+00-5.58464E+00-4.79897E+00-4.88467E-04-8.34792E-04
 -1     24047-1.61393E+01-1.62176E+00-5.86100E+00-5.13891E+00-9.83349E-05 6.60296E-04
 -1     24048-1.66966E+01-1.71737E+00-6.07660E+00-5.35375E+00 1.75332E-05-7.21369E-04
 -1     24049-1.73822E+01-1.75523E+00-6.31878E+00-5.49293E+00-1.12255E-03-1.19242E-03
 -1     24050-1.84923E+01-1.74123E+00-6.68261E+00-5.60079E+00 2.51375E-03-3.34113E-03
 -1     24051-2.07951E+01-1.62402E+00-7.41944E+00-5.57032E+00 9.98422E-03-1.23152E-02
 -1     24052-1.12280E+01-5.02054E+00-5.36953E+00 2.10306E-01-4.34701E-03 2.81866E-03
 -1     24053 9.92919E-01-6.09226E-01 1.26812E-01 1.06756E+00 2.94607E-04-6.51993E-03
 -1     24054 4.62290E+00 9.84512E-01 1.85754E+00 1.98601E+00-4.45325E-04-3.95961E-03
 -1     24055 6.97577E+00 2.16454E+00 3.01331E+00 2.94795E+00 1.62268E-04 2.17525E-03
 -1     24056 8.13872E+00 2.94724E+00 3.66071E+00 3.83758E+00 1.65525E-03-1.99200E-05
 -1     24057 8.22181E+00 3.33866E+00 3.81525E+00 4.51820E+00-6.31907E-04-2.93032E-03
 -1     24058 7.39147E+00 3.49337E+00 3.59472E+00 4.83136E+00 6.33858E-04-2.40543E-03
 -1     24059 6.02592E+00 4.07443E+00 3.33645E+00 4.94098E+00 1.19170E-03-1.44097E-03
 -1     24060 7.06301E+00 4.41735E+00 3.78777E+00 5.59515E+00 4.27518E-04 1.08018E-04
 -1     24061 8.23075E+00 5.00021E+00 4.36597E+00 6.47414E+00 1.74807E-03 1.43969E-03
 -1     24062 9.39795E+00 5.89976E+00 5.04722E+00 7.52551E+00 6.47596E-03 5.93574E-03
 -1     24063 1.04307E+01 6.91217E+00 5.72449E+00 8.57998E+00 2.48309E-04-2.07612E-03
 -1     24064 1.12518E+01 7.93167E+00 6.32735E+00 9.51086E+00 5.62091E-04 1.90746E-03
 -1     24065 1.17876E+01 8.80147E+00 6.79095E+00 1.02326E+01 7.64241E-04 1.51126E-03
 -1     24066 1.20488E+01 9.44561E+00 7.09353E+00 1.07049E+01-9.47873E-04 1.56250E-03
 -1     24067 1.20846E+01 9.85838E+00 7.24080E+00 1.09455E+01-1.67788E-03-2.56342E-03
 -1     24068 1.19306E+01 1.00683E+01 7.25737E+00 1.09852E+01 7.02818E-04-2.56295E-05
 -1     24069 1.15522E+01 1.00801E+01 7.13845E+00 1.08180E+01 4.08229E-04 7.88502E-04
 -1     24070 1.08839E+01 9.92430E+00 6.87111E+00 1.04423E+01-3.94036E-03 2.87723E-03
 -1     24071 9.78807E+00 9.64020E+00 6.40573E+00 9.81755E+00-1.54763E-03 1.27047E-03
 -1     24072 7.68553E+00 9.21593E+00 5.58045E+00 8.74794E+00-7.45429E-03 6.18752E-03
 -1     24073 3.05901E+00 8.97160E+00 3.96274E+00 7.26223E+00-1.63039E-02 3.00175E-02
 -1     24074-1.70076E+01-1.74430E+00-6.18963E+00-5.42973E+00 5.41166E-05-3.11725E-03
 -1     24075-1.78455E+01-1.75350E+00-6.46331E+00-5.54423E+00 4.68925E-03 1.71275E-03
 -1     24076-1.94053E+01-1.70476E+00-6.95774E+00-5.63513E+00 2.31673E-03-1.27556E-02
 -1     24077-2.31198E+01-1.57398E+00-8.15770E+00-5.10162E+00-6.28798E-03-5.04666E-02
 -1     24078-7.28404E+00-3.81995E+00-3.66281E+00 1.96939E-01 1.16340E-02-1.27879E-02
 -1     24079 7.69853E+00 2.60489E+00 3.39903E+00 3.41136E+00-5.51129E-04 2.85450E-05
 -1     24080 8.31638E+00 3.17342E+00 3.79168E+00 4.21795E+00 4.76373E-04-1.07295E-03
 -1     24081 7.90792E+00 3.44590E+00 3.74781E+00 4.73045E+00-5.52778E-04 1.32765E-03
 -1     24082 6.73164E+00 3.51873E+00 3.37871E+00 4.81924E+00 2.55038E-04-2.92497E-04
 -1     24083 5.69103E+00 3.79756E+00 3.13017E+00 4.68207E+00 2.42648E-03 1.35898E-03
 -1     24084-1.64186E+01-1.67584E+00-5.97098E+00-5.25864E+00 8.36815E-05-6.99256E-04
 -1     24085-3.10665E-01 8.42688E+00 2.70858E+00 5.80706E+00 1.46841E-02 1.68162E-02
 -1     24086-1.58246E+01-1.54286E+00-5.73142E+00-4.98669E+00 1.24229E-03 6.37443E-04
 -1     24087-1.50453E+01-1.33872E+00-5.40478E+00-4.56788E+00 2.57043E-03 2.45206E-04
 -1     24088-1.39378E+01-1.05027E+00-4.94409E+00-3.96743E+00-7.75974E-04-4.16935E-05
 -1     24089-9.91489E+00-2.42484E-01-3.35207E+00-1.99938E+00-7.11143E-05-1.29876E-03
 -1     24090-1.22886E+01-6.71715E-01-4.27761E+00-3.11555E+00-9.59384E-04 3.36829E-04
 -1     24091-1.63825E+01-6.25849E+00-7.45519E+00 4.73947E-01-9.28609E-02 1.78564E-02
 -1     24092 5.96021E+00 1.62033E+00 2.50211E+00 2.46572E+00 7.43448E-05-2.30760E-03
 -1     24093 2.97270E+00 2.32629E-01 1.05959E+00 1.50904E+00-3.34523E-04 1.22930E-03
 -1     24094-1.52269E+01-1.43834E+00-5.49975E+00-4.71359E+00-3.19422E-04-4.91089E-05
 -1     24095-1.50833E+01-1.40403E+00-5.44006E+00-4.66027E+00 4.39418E-04 2.19683E-04
 -1     24096 7.55232E+00 4.08976E+00 3.84089E+00 5.53467E+00-1.07095E-03-5.35446E-04
 -1     24097 7.24965E+00 4.02764E+00 3.72174E+00 5.36304E+00-4.04814E-04-5.13285E-04
 -1     24098 8.63553E+00 4.60474E+00 4.36854E+00 6.39985E+00-1.75897E-03-1.89664E-03
 -1     24099 8.34828E+00 4.42755E+00 4.21629E+00 6.14994E+00-1.24586E-03-1.28199E-03
 -1     24100 9.63890E+00 5.35557E+00 4.94362E+00 7.35080E+00 1.32236E-03-1.74075E-03
 -1     24101 9.38038E+00 5.13274E+00 4.79248E+00 7.08820E+00-1.45423E-03 1.41055E-03
 -1     24102 1.04570E+01 6.27307E+00 5.52321E+00 8.28167E+00-3.69228E-03-9.83595E-04
 -1     24103 1.02527E+01 6.01460E+00 5.36777E+00 8.02600E+00-2.77223E-03-3.21695E-03
 -1     24104 1.10144E+01 7.21247E+00 6.01942E+00 9.09746E+00-2.32058E-03-2.05432E-03
 -1     24105 1.08661E+01 6.97392E+00 5.89104E+00 8.89134E+00-8.65405E-05 7.31240E-04
 -1     24106 1.13068E+01 8.04622E+00 6.39111E+00 9.69770E+00-2.62093E-03-2.44609E-03
 -1     24107 1.12251E+01 7.85210E+00 6.29932E+00 9.55257E+00-6.16587E-04-1.47041E-04
 -1     24108 1.13503E+01 8.68278E+00 6.61560E+00 1.00589E+01-3.80306E-03-5.16948E-03
 -1     24109 1.13285E+01 8.54105E+00 6.55930E+00 9.97248E+00 2.40236E-03-7.09217E-04
 -1     24110 1.12132E+01 9.11899E+00 6.71016E+00 1.02168E+01 3.11456E-03 3.79594E-03
 -1     24111 1.12351E+01 9.02230E+00 6.68684E+00 1.01794E+01 5.11461E-03 6.70748E-03
 -1     24112 1.09091E+01 9.34293E+00 6.68439E+00 1.01884E+01-7.89156E-04 1.11881E-03
 -1     24113 1.09830E+01 9.30581E+00 6.69924E+00 1.02040E+01-4.14295E-04 2.27980E-03
 -1     24114 1.03652E+01 9.37181E+00 6.51055E+00 9.96432E+00 2.15721E-03 1.05870E-03
 -1     24115 1.05084E+01 9.38308E+00 6.56585E+00 1.00308E+01-5.08868E-04-1.19205E-03
 -1     24116 9.49071E+00 9.23927E+00 6.18357E+00 9.54903E+00-4.47801E-03-1.02693E-03
 -1     24117 9.73915E+00 9.30698E+00 6.28355E+00 9.66995E+00 3.37664E-03 2.79889E-04
 -1     24118 8.18245E+00 9.06259E+00 5.68922E+00 8.94810E+00-6.66973E-04-3.96419E-03
 -1     24119 8.57376E+00 9.14802E+00 5.84476E+00 9.13828E+00-4.65227E-03-8.49789E-03
 -1     24120 5.69726E+00 8.83235E+00 4.79650E+00 8.00338E+00 2.63729E-03-6.01643E-04
 -1     24121 6.56366E+00 8.95478E+00 5.12665E+00 8.33560E+00 3.07932E-03 1.54924E-02
 -1     24122 9.82270E-01 8.95860E+00 3.28811E+00 7.40692E+00 1.01907E-02-3.09718E-02
 -1     24123 2.65880E+00 9.04782E+00 3.86181E+00 7.53766E+00 8.09464E-03-1.87018E-03
 -1     24124-9.33459E-01 7.12837E+00 2.05280E+00 5.80921E+00 3.75640E-03-4.65720E-04
 -1     24125-8.58634E-01 7.41895E+00 2.16799E+00 6.25275E+00 3.70329E-02 9.57017E-03
 -1     24126-1.59297E+01-1.53981E+00-5.76642E+00-4.88309E+00-1.13702E-03 2.78437E-04
 -1     24127-1.57510E+01-1.51989E+00-5.69970E+00-4.85099E+00 1.08686E-03 1.56237E-04
 -1     24128 6.40733E-02 8.99895E+00 2.99072E+00 7.86347E+00 2.51018E-02-9.63994E-03
 -1     24129-7.31222E+00 7.73617E-01-2.15901E+00-1.98788E-01 4.08263E-04 2.62115E-03
 -1     24130-6.57152E+00 8.82600E-01-1.87535E+00 1.08332E-01 1.77311E-03-2.06605E-03
 -1     24131-7.02646E-01 8.21313E+00 2.47568E+00 6.88265E+00 6.56713E-03 1.06514E-02
 -1     24132-6.54667E-01 8.18519E+00 2.48910E+00 7.22531E+00-1.18083E-02-5.39825E-03
 -1     24133-1.12287E+00 6.54655E+00 1.78259E+00 6.14381E+00 2.09468E-02 8.94727E-03
 -1     24134-1.45731E+01-1.26005E+00-5.22526E+00-4.41282E+00-4.56308E-04-1.12431E-03
 -1     24135-1.43984E+01-1.19947E+00-5.14841E+00-4.31952E+00-1.39582E-04-2.99046E-03
 -1     24136-2.07633E+00 3.75143E+00 4.96760E-01 2.88510E+00 6.92803E-02 1.03239E-01
 -1     24137-1.00608E+01 1.62194E-01-3.26736E+00-1.67390E+00 1.70511E-03-6.86499E-05
 -1     24138-9.45801E+00 2.86971E-01-3.02613E+00-1.37104E+00 2.06555E-03 1.79720E-03
 -1     24139-1.20514E+01-4.03396E-01-4.11157E+00-2.86015E+00-3.68867E-03-7.90530E-03
 -1     24140-1.16649E+01-3.01511E-01-3.94856E+00-2.63963E+00-1.60525E-03-3.56566E-03
 -1     24141-1.45291E+01-4.93049E+00-6.42230E+00 5.06720E-01 2.58775E-02-2.37333E-02
 -1     24142-1.73592E+01-4.93497E+00-7.38464E+00 6.22672E-01 1.05432E-02 1.86930E-02
 -1     24143-1.32787E+01-8.07450E-01-4.65219E+00-3.62828E+00-1.26148E-03-4.44822E-03
 -1     24144-1.30038E+01-7.20854E-01-4.53344E+00-3.46723E+00 3.23592E-03 3.98259E-03
 -1     24145-8.72243E+00 5.00066E-01-2.71320E+00-9.12190E-01 2.75562E-03 2.92448E-03
 -1     24146-8.06093E+00 6.02488E-01-2.46100E+00-5.97024E-01 1.65567E-03 1.42487E-03
 -1     24147-7.76370E+00 1.05530E+00-2.21321E+00-2.01270E-02 9.20816E-04-7.64523E-04
 -1     24148-1.41994E+01-1.13370E+00-5.06267E+00-4.19874E+00-4.28454E-04-7.71231E-04
 -1     24149-1.39946E+01-1.06319E+00-4.96907E+00-4.08349E+00 4.26450E-04 1.52782E-03
 -1     24150-1.29785E+01-8.48840E-01-4.56519E+00-3.62135E+00-1.22431E-03-2.53127E-04
 -1     24151-1.27187E+01-6.20092E-01-4.39926E+00-3.27065E+00-1.76909E-03 1.80916E-03
 -1     24152-1.23965E+01-5.25398E-01-4.26345E+00-3.08239E+00-8.95542E-04 4.18458E-04
 -1     24153-1.09185E+01 3.23728E-03-3.60316E+00-2.16572E+00-1.72767E-03 6.28944E-04
 -1     24154-1.15300E+01-2.44661E-01-3.88610E+00-2.60924E+00-1.54342E-03-9.67869E-04
 -1     24155-1.49145E+01-1.36140E+00-5.37085E+00-4.58419E+00-1.77367E-04 2.75622E-04
 -1     24156-1.47587E+01-1.31592E+00-5.30562E+00-4.51114E+00-6.87692E-04 1.21495E-03
 -1     24157-1.37307E+01-1.11908E+00-4.89937E+00-4.03912E+00-4.01414E-04-2.50242E-03
 -1     24158-1.37682E+01-9.86645E-01-4.86913E+00-3.93620E+00-3.74092E-04-4.27598E-04
 -1     24159-1.35378E+01-9.08641E-01-4.76718E+00-3.79924E+00-4.80271E-04-4.91898E-03
 -1     24160-1.20621E+01-4.65449E-01-4.13460E+00-2.99692E+00-1.55362E-03-7.66260E-05
 -1     24161-1.25416E+01-6.69731E-01-4.36153E+00-3.33353E+00-8.61619E-05-8.85702E-04
 -1     24162-1.55585E+01-1.49776E+00-5.62828E+00-4.81194E+00 5.16220E-04 6.19137E-04
 -1     24163-1.54012E+01-1.47124E+00-5.56917E+00-4.76919E+00-1.35045E-04 1.18156E-04
 -1     24164-1.44505E+01-1.27798E+00-5.18992E+00-4.26416E+00 1.18701E-03-2.75624E-03
 -1     24165-1.38480E+00 5.09862E+00 1.25089E+00 4.31212E+00-3.80911E-02-8.99744E-03
 -1     24166-1.11487E+00 6.07976E+00 1.65990E+00 4.93349E+00-4.48285E-02-5.62371E-03
 -1     24167-1.53097E+00 4.85906E+00 1.09817E+00 4.53079E+00-2.26143E-03 3.57184E-03
 -1     24168-2.76033E+00 2.55493E+00-8.53506E-02 1.97343E+00 1.04634E-01 7.82630E-02
 -1     24169-1.69740E+01-1.59105E+00-6.12095E+00-4.95965E+00-2.31368E-03 9.45065E-03
 -1     24170-1.66478E+01-1.56847E+00-6.00827E+00-4.94558E+00-1.60941E-03-1.96952E-03
 -1     24171-1.87849E+01-1.56242E+00-6.71751E+00-4.86057E+00 1.76986E-04 9.66286E-03
 -1     24172-1.81919E+01-1.54160E+00-6.50804E+00-4.88860E+00 1.30884E-03 1.49879E-02
 -1     24173-2.24370E+01-1.60083E+00-7.96724E+00-3.55432E+00-3.17531E-03 6.19092E-02
 -1     24174-2.09102E+01-1.54109E+00-7.39482E+00-4.15460E+00 8.00881E-03 2.78385E-02
 -1     24175-6.24626E+00-3.33468E+00-3.17394E+00 6.28516E-01 1.14134E-02-8.72293E-03
 -1     24176-8.03689E+00-3.91367E+00-3.95038E+00 5.82617E-01 7.15203E-03-1.08879E-02
 -1     24177-2.44273E+01-3.22751E+00-9.10188E+00-9.26174E-01 6.07199E-02-8.43320E-02
 -1     24178-2.29655E+01-2.10974E+00-8.29059E+00-2.60020E+00 2.97290E-02-1.70427E-02
 -1     24179-2.08512E+01-2.31358E+00-7.67935E+00-1.77260E+00-1.12364E-02-5.08550E-02
 -1     24180-2.06774E+01-4.73884E+00-8.39144E+00 2.68510E-01 1.51740E-02-1.10028E-02
 -1     24181 6.44287E+00 1.35614E+00 2.57144E+00 2.84868E+00 1.22976E-03 7.71107E-04
 -1     24182 5.85672E+00 1.08285E+00 2.28320E+00 2.61874E+00-2.29829E-03-3.62234E-03
 -1     24183 1.69495E+00-7.07409E-01 3.26262E-01 1.52889E+00 5.11456E-03-2.92088E-04
 -1     24184 6.16472E-01-1.15231E+00-1.78019E-01 1.33257E+00 1.00112E-03 2.47491E-03
 -1     24185 8.00678E+00 2.35020E+00 3.41456E+00 3.68836E+00 1.75435E-03-1.10314E-03
 -1     24186 7.73072E+00 2.14980E+00 3.25876E+00 3.47897E+00 2.22374E-04 5.17145E-04
 -1     24187-5.44203E-01-1.52408E+00-6.81809E-01 1.15104E+00-8.28114E-04 1.29278E-03
 -1     24188-1.82822E+00-2.04551E+00-1.27861E+00 9.99003E-01-1.09963E-03 7.12159E-04
 -1     24189 2.05931E-01-1.47826E+00-4.19063E-01 1.62731E+00-6.72134E-04 1.87728E-03
 -1     24190 7.37701E+00 1.89469E+00 3.06370E+00 3.27830E+00 1.25915E-03 3.70542E-04
 -1     24191 6.95149E+00 1.65229E+00 2.84312E+00 3.05478E+00-3.23597E-03-1.47593E-04
 -1     24192 6.90324E+00 1.22705E+00 2.68521E+00 3.19782E+00 4.35588E-03-1.61445E-03
 -1     24193 7.75001E+00 1.75247E+00 3.13589E+00 3.57871E+00 4.69173E-04-8.13921E-04
 -1     24194 8.43414E+00 2.96645E+00 3.76184E+00 4.41648E+00 2.55050E-03-7.72977E-04
 -1     24195 8.44013E+00 2.86605E+00 3.73119E+00 4.25450E+00 2.01174E-03 4.80410E-04
 -1     24196 7.83624E+00 3.36269E+00 3.69413E+00 4.84672E+00-2.41368E-03-7.23591E-04
 -1     24197 8.07988E+00 3.33694E+00 3.76566E+00 4.77869E+00-1.78099E-03-1.37870E-03
 -1     24198 6.50272E+00 3.62567E+00 3.34645E+00 4.84126E+00-1.17842E-04-8.49535E-04
 -1     24199 6.88569E+00 3.62180E+00 3.46953E+00 4.88415E+00 1.72014E-03 1.08160E-03
 -1     24200 6.46283E+00 3.97091E+00 3.43871E+00 4.99999E+00 4.32916E-04 1.65070E-03
 -1     24201 6.26295E+00 3.85956E+00 3.34194E+00 4.86592E+00-7.44480E-04-1.01817E-03
 -1     24202 6.12332E+00 3.75403E+00 3.25897E+00 4.78274E+00 2.53538E-04-5.06169E-04
 -1     24203-3.89923E+00 1.87223E+00-6.65666E-01 1.47978E+00 1.65264E-03 1.07667E-02
 -1     24204 5.32223E+00 3.52047E+00 2.91569E+00 4.41281E+00-2.15182E-03-1.09041E-03
 -1     24205-5.48433E-01 8.72893E+00 2.69751E+00 7.60297E+00-3.04448E-03 5.98147E-03
 -1     24206-3.34606E-01 8.65130E+00 2.75497E+00 7.76584E+00 1.56019E-02 9.30586E-03
 -1     24207-8.52378E-01 7.62836E+00 2.23511E+00 7.17306E+00-2.69906E-03-1.56576E-03
 -1     24208 6.88749E+00 4.11683E+00 3.63304E+00 5.27872E+00-1.19801E-03-6.82020E-04
 -1     24209 6.61166E+00 4.03840E+00 3.51675E+00 5.11422E+00 1.11366E-03-2.37664E-03
 -1     24210 6.82483E+00 3.79556E+00 3.50104E+00 5.03003E+00 4.71560E-04 6.58183E-04
 -1     24211 7.35904E+00 3.80945E+00 3.68418E+00 5.21667E+00-1.25573E-03-2.09865E-03
 -1     24212 5.17666E+00 7.58235E-01 1.96210E+00 2.39608E+00 8.27632E-03 4.67339E-04
 -1     24213 4.44561E+00 4.09207E-01 1.60425E+00 2.16511E+00 4.10081E-03-5.56088E-05
 -1     24214 5.75763E+00 6.34060E-01 2.10866E+00 2.77880E+00-3.77226E-03-1.74990E-03
 -1     24215-5.69572E+00 1.13172E+00-1.50463E+00 5.56218E-01-1.97518E-03-5.63536E-04
 -1     24216-4.80471E+00 1.36158E+00-1.13131E+00 9.08230E-01-2.31228E-04 2.59897E-03
 -1     24217-4.85158E+00 1.86074E+00-9.81557E-01 1.75884E+00-2.31072E-03-5.74702E-03
 -1     24218 1.01667E+01 9.35992E+00 6.44266E+00 9.87455E+00 2.39407E-03 2.50402E-03
 -1     24219 9.15340E+00 8.70952E+00 5.89591E+00 9.10806E+00-1.23886E-03 5.45827E-04
 -1     24220 9.97891E+00 9.32555E+00 6.36920E+00 9.78110E+00 2.46513E-03 2.23110E-04
 -1     24221 8.10162E+00 4.31487E+00 4.09761E+00 5.94734E+00-6.50477E-04-1.10383E-03
 -1     24222 7.81083E+00 4.17420E+00 3.95524E+00 5.72410E+00-1.35557E-03-7.20118E-04
 -1     24223 9.15312E+00 4.96707E+00 4.66180E+00 6.87110E+00-7.88160E-03 1.92204E-03
 -1     24224 8.87731E+00 4.75528E+00 4.49792E+00 6.61207E+00-3.87995E-03-2.96333E-03
 -1     24225 1.00663E+01 5.78335E+00 5.23012E+00 7.81853E+00-3.44991E-03-5.37315E-03
 -1     24226 9.82579E+00 5.55565E+00 5.07000E+00 7.56660E+00 2.09091E-03-8.88371E-03
 -1     24227 1.07668E+01 6.74563E+00 5.77485E+00 8.71009E+00 1.03676E-03 1.86467E-03
 -1     24228 1.05919E+01 6.49500E+00 5.64021E+00 8.47965E+00-2.74746E-04 2.79449E-03
 -1     24229 1.11946E+01 7.65251E+00 6.21711E+00 9.42600E+00 1.85615E-03 1.92185E-03
 -1     24230 1.10827E+01 7.42884E+00 6.10898E+00 9.24861E+00 1.23598E-04-2.95000E-04
 -1     24231 1.13573E+01 8.39496E+00 6.51613E+00 9.90452E+00 3.35114E-03 2.47268E-03
 -1     24232 1.13096E+01 8.22185E+00 6.44641E+00 9.79089E+00 5.40266E-04-1.08585E-04
 -1     24233 1.13008E+01 8.92539E+00 6.67322E+00 1.01544E+01-6.23646E-04 1.75238E-03
 -1     24234 1.13052E+01 8.80939E+00 6.63612E+00 1.01001E+01-2.04829E-04 1.64626E-03
 -1     24235 1.10837E+01 9.25311E+00 6.71154E+00 1.02218E+01-4.68654E-04-6.97876E-04
 -1     24236 1.11267E+01 9.18791E+00 6.70461E+00 1.02107E+01 7.28422E-04 3.25391E-04
 -1     24237 1.06736E+01 9.37983E+00 6.61873E+00 1.01005E+01-6.01733E-04 7.77939E-04
 -1     24238 1.07779E+01 9.36693E+00 6.65003E+00 1.01417E+01 9.40990E-04 9.75491E-04
 -1     24239 8.68446E+00 8.69686E+00 5.73584E+00 8.91412E+00-9.37638E-05 2.01502E-04
 -1     24240 7.96027E+00 3.75592E+00 3.86611E+00 5.47087E+00-7.57170E-04-2.70936E-04
 -1     24241 8.91624E+00 9.17260E+00 5.96915E+00 9.27491E+00 1.46568E-03-1.06449E-02
 -1     24242 9.17116E+00 9.21512E+00 6.06941E+00 9.41568E+00-7.74099E-04 1.85796E-03
 -1     24243 7.18543E+00 8.93944E+00 5.32332E+00 8.54363E+00 3.42770E-03 5.85687E-03
 -1     24244 7.73551E+00 9.05302E+00 5.53620E+00 8.78381E+00 1.86962E-04 2.53219E-03
 -1     24245 3.52270E+00 8.81709E+00 4.07233E+00 7.47695E+00 8.86716E-03-2.32345E-03
 -1     24246 4.79544E+00 8.92296E+00 4.52467E+00 7.82955E+00 4.67736E-03 8.17169E-04
 -1     24247-5.89937E-03 8.60547E+00 2.83535E+00 7.64464E+00 3.06749E-02 3.09195E-03
 -1     24248-6.34524E+00 1.44903E+00-1.61530E+00 8.88777E-01 1.59622E-03-3.72720E-04
 -1     24249 9.85723E+00 8.65689E+00 6.10886E+00 9.37771E+00-4.87626E-04 1.46560E-03
 -1     24250 1.03059E+01 8.41474E+00 6.17765E+00 9.46092E+00 2.92167E-04 4.48817E-04
 -1     24251-1.33694E+01-9.96567E-01-4.74271E+00-3.85520E+00-8.79560E-04-1.15762E-03
 -1     24252-1.07069E+01-4.08754E-02-3.54706E+00-2.08021E+00 3.29391E-04 2.22241E-04
 -1     24253-9.09898E+00 6.36633E-01-2.79204E+00-9.20661E-01 1.71859E-03-8.85150E-04
 -1     24254-1.12057E+01-1.57943E-01-3.74996E+00-2.35131E+00-3.58807E-04-3.54741E-04
 -1     24255 1.06193E+01 7.97369E+00 6.13569E+00 9.38686E+00 1.70371E-03 3.82346E-03
 -1     24256-1.01502E+01 2.72003E-01-3.25888E+00-1.63510E+00 5.91374E-04-2.44957E-03
 -1     24257-1.40788E+01-1.21283E+00-5.04697E+00-4.17165E+00-1.41642E-03-7.79955E-04
 -1     24258 1.07721E+01 7.33659E+00 5.97838E+00 9.13006E+00-5.78408E-04 3.18275E-03
 -1     24259 1.07111E+01 6.52342E+00 5.68812E+00 8.64298E+00-2.75266E-04 3.64531E-03
 -1     24260 1.03855E+01 5.61639E+00 5.27750E+00 7.94096E+00-1.16728E-03 1.98532E-03
 -1     24261 9.79020E+00 4.78456E+00 4.80923E+00 7.12546E+00 2.85920E-03-8.13953E-03
 -1     24262-1.83775E+01-3.69851E+00-7.31070E+00 1.79766E-02 1.63404E-02 2.23014E-02
 -1     24263-4.66880E+00-2.99570E+00-2.52343E+00 7.45459E-01-1.46696E-03 2.44031E-03
 -1     24264-5.34508E+00-3.02659E+00-2.76384E+00 1.10572E+00 2.85261E-03-1.96687E-03
 -1     24265-3.17448E+00-2.42664E+00-1.84527E+00 8.48199E-01-2.60079E-03 1.72599E-03
 -1     24266 8.38324E+00 3.11900E+00 3.79575E+00 4.55874E+00 7.18234E-04-2.63008E-03
 -1     24267 8.54088E+00 2.89933E+00 3.77504E+00 4.60016E+00 1.81174E-03-3.36952E-04
 -1     24268 8.25973E+00 3.18437E+00 3.77716E+00 4.67901E+00 6.69143E-03 3.04871E-03
 -1     24269-1.93521E+01-1.53044E+00-6.90015E+00-4.69058E+00 3.70195E-03-4.30302E-03
 -1     24270-1.79723E+01-1.34408E+00-6.38280E+00-3.90593E+00 7.71553E-04-1.73590E-03
 -1     24271-2.03474E+01-1.55567E+00-7.21569E+00-4.53866E+00-3.19522E-04-1.71790E-02
 -1     24272-1.63746E+01-1.56420E+00-5.92023E+00-4.92298E+00-1.84386E-03-5.00836E-03
 -1     24273-1.61524E+01-1.55037E+00-5.84143E+00-4.90463E+00-2.15767E-03-9.46138E-04
 -1     24274-1.77219E+01-1.58117E+00-6.36926E+00-4.94784E+00 1.94899E-03 8.31965E-03
 -1     24275-1.73221E+01-1.57391E+00-6.23311E+00-4.94272E+00 5.65524E-04 4.20689E-04
 -1     24276-1.93865E+01-1.47858E+00-6.89703E+00-3.26189E+00 3.29230E-03 3.19860E-03
 -1     24277-1.48794E+01-1.32959E+00-5.34796E+00-4.31708E+00-1.39167E-03 1.23427E-03
 -1     24278-9.93776E+00-4.27465E+00-4.69407E+00 5.17782E-01-1.09671E-02 5.36889E-03
 -1     24279-1.20715E+01-4.82632E+00-5.58371E+00 5.42367E-01 6.59722E-03-2.79713E-03
 -1     24280 2.69499E+00-3.31512E-01 7.79693E-01 1.72972E+00-6.81801E-04 1.65657E-03
 -1     24281 2.39305E+00-7.19415E-01 5.52715E-01 1.97489E+00-9.54842E-04 9.18775E-04
 -1     24282 3.61192E+00 7.96568E-02 1.21811E+00 1.94500E+00 2.99162E-03-2.71837E-04
 -1     24283 8.94906E+00 4.13300E+00 4.31718E+00 6.27086E+00 7.20227E-04-1.69272E-04
 -1     24284-2.34833E+00-2.25703E+00-1.52026E+00 1.33028E+00-1.01633E-03 2.22107E-03
 -1     24285 8.12317E+00 8.67335E+00 5.54250E+00 8.67905E+00-1.96697E-03-1.26602E-03
 -1     24286 8.36365E+00 2.68892E+00 3.64933E+00 4.08004E+00-1.56572E-03-5.61028E-04
 -1     24287 8.22221E+00 2.56212E+00 3.56113E+00 3.88815E+00-1.33164E-03 9.11992E-04
 -1     24288 8.24942E+00 3.19172E+00 3.77569E+00 4.82177E+00 6.23449E-04-2.33475E-04
 -1     24289 7.04918E+00 3.65428E+00 3.53144E+00 4.94524E+00-1.32386E-03 1.92900E-03
 -1     24290 7.23208E+00 3.51401E+00 3.55073E+00 4.89648E+00 2.12330E-03 9.66296E-04
 -1     24291 7.55981E+00 3.48985E+00 3.64436E+00 4.88124E+00-5.09135E-04 3.27191E-04
 -1     24292 7.21771E+00 3.69813E+00 3.59862E+00 5.04954E+00-2.92078E-03-3.46936E-03
 -1     24293 9.39266E+00 4.43606E+00 4.56333E+00 6.69780E+00-7.65488E-03 1.24339E-03
 -1     24294 1.64398E+00 8.85012E+00 3.46228E+00 7.45364E+00 2.03256E-03-1.84048E-03
 -1     24295-3.15247E+00 2.76672E+00-1.21316E-01 2.80297E+00-7.04454E-03-9.85729E-03
 -1     24296 9.54156E+00 8.70333E+00 6.02299E+00 9.26547E+00 8.66045E-04 3.28477E-03
 -1     24297 1.01131E+01 8.56265E+00 6.16671E+00 9.44371E+00-5.15257E-04 1.25544E-03
 -1     24298 1.04787E+01 8.22292E+00 6.17215E+00 9.44510E+00-7.35956E-04 2.47192E-03
 -1     24299 1.07770E+01 6.94239E+00 5.84932E+00 8.91607E+00 4.54482E-04 1.78945E-03
 -1     24300 1.05856E+01 6.06581E+00 5.49515E+00 8.31721E+00 1.19565E-04 9.92955E-04
 -1     24301 8.29965E+00 2.20792E+00 3.46956E+00 3.95585E+00 8.44419E-05-1.07174E-03
 -1     24302-1.31257E+01-4.01317E+00-5.66083E+00 7.26058E-01 2.92761E-04-6.70295E-03
 -1     24303 1.07183E+01 7.67894E+00 6.07247E+00 9.28188E+00 7.79345E-05-3.60401E-04
 -1     24304-1.60446E+01-1.34944E+00-5.73500E+00-4.30868E+00 3.75175E-03-2.29464E-03
 -1     24305 1.01351E+01 5.17490E+00 5.05228E+00 7.53468E+00 1.13470E-03 7.51804E-04
 -1     24306 3.70083E+00 8.65825E+00 4.07931E+00 7.51111E+00 9.18841E-03 1.82077E-02
 -1     24307 6.59769E+00 8.63212E+00 5.02382E+00 8.16133E+00 1.97295E-04 1.05548E-03
 -1     24308 8.46996E+00 3.91170E+00 4.08615E+00 5.85707E+00-3.85277E-04 7.09585E-05
 -1     24309 5.44108E+00 8.64752E+00 4.64897E+00 7.82221E+00-1.08901E-02-8.43551E-03
 -1     24310 7.43173E+00 8.64132E+00 5.30569E+00 8.42501E+00-7.56537E-04 7.00819E-03
 -1     24311-1.68880E+01-1.34099E+00-6.02099E+00-4.18702E+00 6.56889E-03-3.44942E-03
 -1     24312 7.74069E+00 3.44927E+00 3.69338E+00 4.93917E+00-9.20628E-05 2.61988E-04
 -1     24313-1.53977E+01-1.35432E+00-5.52543E+00-4.34199E+00 6.18938E-03-3.68874E-03
 -1     24314 4.23690E+00-1.00204E-02 1.39510E+00 2.36936E+00-4.99126E-04 1.23142E-03
 -1     24315-8.81639E+00-3.71128E+00-4.14002E+00 9.03297E-01-6.80041E-03 7.12269E-03
 -1     24316 8.54957E+00 2.58074E+00 3.67257E+00 4.29870E+00 1.26083E-03 2.73439E-03
 -1     24317-7.62858E+00-3.14579E+00-3.55694E+00 1.11043E+00 3.17709E-03-7.27141E-04
 -1     24318-9.53049E+00-3.42533E+00-4.27594E+00 1.02594E+00 4.40923E-03 4.14131E-04
 -1     24319 3.89853E+00 8.20999E+00 3.99081E+00 7.24793E+00-3.50353E-03 8.18670E-03
 -1     24320 4.62485E+00 8.20333E+00 4.23054E+00 7.40903E+00-2.53042E-03-8.29701E-03
 -1     24321-1.49620E+00-2.01988E+00-1.16073E+00 1.68326E+00 7.93946E-05 1.29465E-03
 -1     24322-2.88191E+00-2.40430E+00-1.74542E+00 1.55767E+00 1.34619E-03 1.13369E-03
 -1     24323 2.63754E-01 8.35876E+00 2.84180E+00 7.22609E+00-4.68264E-03 6.27573E-03
 -1     24324 1.12700E+00 8.21727E+00 3.08256E+00 7.12543E+00 5.95412E-03 3.99389E-03
 -1     24325 2.15526E+00 8.29652E+00 3.45077E+00 7.08572E+00 6.96184E-03 1.98832E-02
 -1     24326 3.16468E+00 8.26500E+00 3.77670E+00 7.17556E+00 6.85415E-04 1.38705E-02
 -1     24327 2.36676E+00 7.76630E+00 3.34325E+00 6.75185E+00 1.81421E-03 7.40437E-03
 -1     24328 5.42373E-01 7.60997E+00 2.69014E+00 6.69162E+00-4.57328E-03-1.07889E-02
 -1     24329 9.82402E+00 4.29179E+00 4.66402E+00 6.90691E+00 7.80587E-03-2.67120E-03
 -1     24330 9.65403E+00 4.11097E+00 4.54958E+00 6.69707E+00 3.04717E-03-1.71847E-03
 -1     24331 8.52296E+00 2.12258E+00 3.51395E+00 4.21964E+00-2.92059E-03 2.81856E-04
 -1     24332 8.33546E+00 1.93416E+00 3.38864E+00 4.05092E+00-5.79506E-03-3.43538E-03
 -1     24333 1.02009E+01 5.04657E+00 5.02823E+00 7.64040E+00-2.46560E-03-3.00322E-03
 -1     24334 1.01017E+01 4.81868E+00 4.92309E+00 7.44117E+00-8.00599E-04 4.43761E-04
 -1     24335 1.03061E+01 5.90203E+00 5.34174E+00 8.23428E+00-4.79776E-03 2.34449E-03
 -1     24336 1.02665E+01 5.67674E+00 5.25517E+00 8.08663E+00-1.49444E-03 9.02845E-03
 -1     24337-1.51337E+01-1.21472E+00-5.39180E+00-3.62586E+00-3.38782E-03 5.34484E-03
 -1     24338-1.47528E+01-1.19452E+00-5.26139E+00-3.67059E+00 1.51018E-03-1.71734E-03
 -1     24339-9.14424E+00 7.58407E-01-2.76707E+00-1.00038E+00-9.07830E-04 6.41689E-03
 -1     24340-8.71651E+00 9.37001E-01-2.56694E+00-6.98843E-01 4.40553E-04 1.60018E-03
 -1     24341-1.22006E+01-7.10530E-01-4.26072E+00-3.29578E+00-4.15835E-03-1.38906E-03
 -1     24342-1.20079E+01-6.28316E-01-4.16931E+00-3.19063E+00 5.31322E-04 2.51339E-03
 -1     24343 9.57721E+00 7.52712E+00 5.64546E+00 8.76510E+00-1.33039E-03 3.49796E-04
 -1     24344 9.65987E+00 7.41464E+00 5.63329E+00 8.75734E+00-1.07538E-03-1.56321E-03
 -1     24345 9.07268E+00 7.88581E+00 5.59891E+00 8.69647E+00-6.89833E-04-1.59938E-03
 -1     24346 9.19699E+00 7.82453E+00 5.61776E+00 8.71971E+00 1.61930E-03-2.20288E-03
 -1     24347 7.33218E+00 8.04420E+00 5.07425E+00 8.08504E+00 8.99737E-04 2.98971E-04
 -1     24348 7.61111E+00 8.06662E+00 5.17431E+00 8.19128E+00 1.41537E-03 3.70260E-03
 -1     24349 8.76673E+00 3.61006E+00 4.08451E+00 5.76727E+00-6.43360E-04-3.11572E-04
 -1     24350 8.52470E+00 3.54194E+00 3.98199E+00 5.56800E+00-4.29023E-04-4.09285E-04
 -1     24351 5.91722E+00 8.05200E+00 4.61274E+00 7.64157E+00 4.67675E-03 2.49538E-03
 -1     24352 6.29677E+00 8.05623E+00 4.73919E+00 7.75428E+00 1.42477E-03 4.40947E-03
 -1     24353 5.03137E+00 8.10325E+00 4.33224E+00 7.43956E+00-9.96250E-04-2.74400E-03
 -1     24354 5.53622E+00 8.10752E+00 4.49241E+00 7.57146E+00 7.27952E-03 1.38468E-02
 -1     24355 3.58426E+00 7.67656E+00 3.71760E+00 6.84018E+00-2.82463E-03 1.23393E-03
 -1     24356-2.54383E+00 3.89534E+00 4.46986E-01 3.88208E+00 3.46171E-03 4.08998E-03
 -1     24357-5.60701E-01 7.77507E+00 2.38506E+00 7.16266E+00-1.03102E-02-1.23936E-02
 -1     24358 9.54117E+00 4.00861E+00 4.46611E+00 6.53518E+00-1.59753E-03 2.12265E-03
 -1     24359 9.33515E+00 3.86675E+00 4.35029E+00 6.32307E+00-4.50280E-03 6.53081E-03
 -1     24360 9.59464E+00 3.51656E+00 4.32671E+00 6.31734E+00-7.08407E-04-1.69152E-03
 -1     24361-1.29533E+01-9.73620E-01-4.59564E+00-3.60833E+00-2.73217E-03-2.61152E-03
 -1     24362-1.27680E+01-9.18685E-01-4.51568E+00-3.55391E+00-4.61211E-04-1.97569E-03
 -1     24363 4.83112E+00-3.20044E-02 1.58382E+00 2.74678E+00-1.41811E-03 8.60206E-04
 -1     24364 3.98988E+00-3.71393E-01 1.19411E+00 2.55739E+00-6.71517E-06 5.56709E-04
 -1     24365 9.79385E+00 7.29911E+00 5.63803E+00 8.75998E+00 1.16437E-04-2.30041E-03
 -1     24366 9.85884E+00 7.15275E+00 5.61385E+00 8.71499E+00 1.60890E-03 1.74062E-03
 -1     24367 8.94072E+00 6.64845E+00 5.14422E+00 8.09272E+00 9.36207E-07-3.13718E-04
 -1     24368 6.67691E+00 8.03434E+00 4.85509E+00 7.85942E+00 6.57959E-04 3.40058E-04
 -1     24369 7.01767E+00 8.05867E+00 4.97417E+00 7.98048E+00 8.50407E-04-1.21177E-03
 -1     24370 5.25676E+00 7.49527E+00 4.20860E+00 7.08826E+00 9.26246E-04 1.14712E-03
 -1     24371-8.27764E+00 1.13151E+00-2.35732E+00-3.19741E-01 2.45302E-03 7.62629E-04
 -1     24372-7.64662E+00 1.35939E+00-2.07461E+00 1.10109E-01 2.09644E-03 4.38194E-04
 -1     24373-7.36210E+00 1.61005E+00-1.89900E+00 3.04703E-01 5.44938E-03 4.53074E-03
 -1     24374-1.17867E+01-5.30874E-01-4.06715E+00-3.04300E+00 1.20053E-03 1.07339E-03
 -1     24375-1.15730E+01-4.41311E-01-3.96632E+00-2.91313E+00-6.04502E-04-7.50161E-04
 -1     24376-1.06418E+01-2.54409E-01-3.59565E+00-2.49477E+00 6.16734E-04 1.20376E-03
 -1     24377-1.38314E+01-1.13609E+00-4.93916E+00-3.72293E+00-6.77757E-04 3.04554E-03
 -1     24378-1.35843E+01-1.10226E+00-4.84837E+00-3.71318E+00 1.62621E-03-7.79321E-04
 -1     24379 1.00460E+01 4.63345E+00 4.84370E+00 7.28821E+00 9.98081E-04 6.47334E-04
 -1     24380 9.93415E+00 4.44138E+00 4.74441E+00 7.08304E+00 3.57535E-03 4.53614E-03
 -1     24381 9.89198E+00 4.07701E+00 4.60959E+00 6.98319E+00 8.56381E-04 6.07982E-04
 -1     24382-1.81551E+01-1.56707E+00-6.54464E+00-2.14150E+00-1.16854E-02-1.87832E-02
 -1     24383-1.73953E+01-1.37897E+00-6.20385E+00-2.64191E+00-3.76980E-03-1.83963E-02
 -1     24384 3.06326E+00-6.80273E-01 7.86626E-01 2.35812E+00-7.83914E-04 1.01919E-03
 -1     24385 2.04839E+00-1.04983E+00 3.29889E-01 2.18445E+00 2.92962E-04 6.04864E-04
 -1     24386 3.69537E+00-6.09202E-01 1.01854E+00 2.74571E+00-8.81587E-04 8.21011E-04
 -1     24387-1.86588E+01-2.62756E+00-7.01932E+00-6.47036E-01-1.02491E-02 7.64048E-04
 -1     24388-1.83944E+01-1.98811E+00-6.75316E+00-1.49162E+00-1.24716E-02-2.05845E-02
 -1     24389-1.64943E+01-2.00876E+00-6.10219E+00-1.02068E+00-1.00466E-02 2.25182E-02
 -1     24390-1.61829E+01-3.28183E+00-6.44093E+00 8.19364E-02 1.38370E-02 1.29167E-02
 -1     24391 8.58910E+00 2.89033E+00 3.78827E+00 4.82674E+00 1.14518E-03 9.82491E-04
 -1     24392 8.68677E+00 2.74472E+00 3.77176E+00 4.70599E+00 5.36167E-04 1.16486E-03
 -1     24393 1.01466E+01 6.68219E+00 5.54693E+00 8.60618E+00-5.06899E-03 2.30255E-03
 -1     24394 1.01638E+01 6.48452E+00 5.48837E+00 8.51708E+00-1.01222E-03 9.36186E-03
 -1     24395-1.44157E+01-1.18675E+00-5.14757E+00-3.71877E+00 8.80331E-04-6.35070E-04
 -1     24396-1.41077E+01-1.15675E+00-5.03480E+00-3.71887E+00 6.90063E-04 3.40081E-03
 -1     24397-1.33930E+01-1.00703E+00-4.75210E+00-3.04656E+00-4.41743E-04 2.52898E-05
 -1     24398 9.16686E+00 3.76607E+00 4.26707E+00 6.14392E+00 3.37007E-03 3.34482E-03
 -1     24399 8.95432E+00 3.67221E+00 4.16725E+00 5.93439E+00-1.20415E-04 3.61833E-04
 -1     24400 8.97612E+00 3.24991E+00 4.03606E+00 5.63348E+00-1.96210E-03 1.02322E-03
 -1     24401 9.31158E+00 3.34813E+00 4.17511E+00 5.97630E+00 9.84699E-04 1.75933E-03
 -1     24402-1.70971E+01-1.31700E+00-6.09042E+00-3.03621E+00-2.58139E-03-1.15630E-02
 -1     24403-1.63977E+01-1.24941E+00-5.84712E+00-3.24136E+00 5.48068E-03-2.53280E-02
 -1     24404-1.58988E+01-1.41093E+00-5.70420E+00-1.97974E+00 8.26220E-04 2.94068E-02
 -1     24405 8.32768E+00 3.52317E+00 3.91060E+00 5.41417E+00-4.58770E-04-2.34639E-04
 -1     24406 8.06648E+00 3.48928E+00 3.81311E+00 5.23079E+00-6.14542E-04-2.86471E-04
 -1     24407 8.58582E+00 3.21851E+00 3.89512E+00 5.30951E+00 1.93188E-04 2.06769E-04
 -1     24408-1.53133E+00 6.44152E+00 1.62061E+00 6.31118E+00-4.86338E-03-6.30222E-04
 -1     24409-1.14068E+00 7.04743E+00 1.94565E+00 6.72608E+00-6.11607E-03-3.59363E-03
 -1     24410 8.36229E+00 8.04628E+00 5.41641E+00 8.47143E+00 8.53666E-04-5.68271E-04
 -1     24411 8.54860E+00 8.02726E+00 5.47276E+00 8.53847E+00 2.35068E-03 4.51727E-03
 -1     24412-5.41738E+00 2.36293E+00-1.00795E+00 1.91050E+00-8.57485E-04-8.77200E-04
 -1     24413-4.70027E+00 2.60532E+00-6.91644E-01 2.37952E+00-7.42591E-04-3.90485E-03
 -1     24414 7.89185E+00 8.05831E+00 5.26425E+00 8.29396E+00-2.57547E-04 8.43088E-04
 -1     24415 8.12212E+00 8.06047E+00 5.34163E+00 8.38129E+00 2.54676E-03 2.42826E-03
 -1     24416 7.16242E+00 7.43007E+00 4.81808E+00 7.67259E+00 4.24851E-03-1.04104E-03
 -1     24417 6.61653E+00 7.45274E+00 4.64424E+00 7.48107E+00 2.60330E-03 1.92838E-03
 -1     24418 9.56715E-01-1.35471E+00-1.30962E-01 2.00078E+00-3.28555E-04 1.10099E-03
 -1     24419-2.28702E-01-1.73765E+00-6.49119E-01 1.85158E+00 5.62657E-04 1.02906E-03
 -1     24420-7.20919E-01-1.82913E+00-8.41677E-01 2.06133E+00-2.18991E-04 1.53786E-03
 -1     24421 1.65877E+00-1.23156E+00 1.41274E-01 2.39029E+00-5.04341E-04 1.12677E-03
 -1     24422-4.34821E+00-2.64350E+00-2.30805E+00 1.39557E+00 1.14081E-03-5.81857E-05
 -1     24423-5.95527E+00-2.98642E+00-2.95197E+00 1.29162E+00 1.78805E-03-4.63009E-04
 -1     24424-6.63411E+00-2.77011E+00-3.10330E+00 1.41033E+00-6.20577E-04-2.22042E-03
 -1     24425-3.47303E+00-2.35914E+00-1.92510E+00 1.74434E+00 8.09854E-05 9.70487E-04
 -1     24426-6.71761E+00 1.84088E+00-1.60961E+00 8.93614E-01 3.40409E-04 1.20906E-03
 -1     24427-6.00669E+00 2.10230E+00-1.28791E+00 1.40046E+00 9.07355E-04-9.35051E-04
 -1     24428-4.58898E+00 3.10655E+00-4.88678E-01 2.79142E+00-9.28099E-04-1.66385E-03
 -1     24429-6.00459E+00 2.32213E+00-1.21545E+00 1.47128E+00-3.02779E-04-1.88227E-03
 -1     24430-1.33568E+01-1.06397E+00-4.76061E+00-3.68775E+00-5.75627E-04 1.37613E-03
 -1     24431-1.31497E+01-1.02193E+00-4.67687E+00-3.65517E+00 9.32859E-04-2.87422E-03
 -1     24432-1.22739E+01-8.56727E-01-4.33408E+00-3.10499E+00 7.03127E-04-8.95000E-04
 -1     24433-1.25814E+01-8.57657E-01-4.43687E+00-3.47963E+00-7.57795E-04-1.45060E-03
 -1     24434-1.23998E+01-7.90194E-01-4.35344E+00-3.40170E+00-1.13052E-03-3.92141E-03
 -1     24435-1.10589E+01-4.46890E-01-3.79654E+00-2.74376E+00-1.87633E-03-1.53377E-03
 -1     24436-1.14561E+01-6.12428E-01-3.98364E+00-2.92354E+00 7.54993E-04-7.84976E-04
 -1     24437 9.98839E+00 7.01262E+00 5.61159E+00 8.70345E+00 1.05431E-03 1.53942E-03
 -1     24438 1.00358E+01 6.84085E+00 5.57312E+00 8.64320E+00 3.40335E-03 2.94968E-03
 -1     24439 9.21997E+00 6.37143E+00 5.14454E+00 8.09569E+00-9.58029E-04 5.03397E-04
 -1     24440-1.15853E+01-3.43962E+00-4.96075E+00 7.80864E-01 6.98902E-03-6.68213E-03
 -1     24441-1.37528E+01-3.36389E+00-5.65574E+00 5.99763E-01 7.18840E-03-4.83541E-04
 -1     24442-1.44009E+01-2.74406E+00-5.64576E+00 1.70314E-01-9.29969E-03 4.84990E-03
 -1     24443-1.03061E+01-2.95523E+00-4.38109E+00 9.53321E-01 1.30760E-04 3.95133E-03
 -1     24444-3.19335E+00 3.32827E+00 4.56425E-02 3.38655E+00-2.43191E-03 1.24586E-04
 -1     24445-2.17229E+00 4.83445E+00 8.75734E-01 4.89724E+00 1.62895E-03 3.72112E-03
 -1     24446-9.44801E+00 6.08230E-01-2.91791E+00-1.27158E+00-3.92745E-03 2.76580E-03
 -1     24447-8.11924E+00 1.20734E+00-2.28357E+00-3.66091E-01-2.69731E-03 1.36628E-03
 -1     24448-9.79431E+00 4.73088E-01-3.07447E+00-1.52417E+00-6.83219E-04 6.97165E-04
 -1     24449 9.47611E+00 6.04928E+00 5.12180E+00 8.04637E+00-2.40860E-03 4.94372E-04
 -1     24450 8.64967E+00 2.36046E+00 3.63216E+00 4.39806E+00 2.11653E-03 3.74726E-03
 -1     24451 8.72456E+00 2.15271E+00 3.58816E+00 4.49536E+00-1.30009E-03 2.12660E-03
 -1     24452 8.69563E+00 2.52737E+00 3.70408E+00 4.55130E+00 1.72838E-04 2.25913E-03
 -1     24453 8.19733E+00 3.25449E+00 3.77950E+00 5.02634E+00 1.77789E-03 6.93310E-04
 -1     24454 7.88245E+00 3.49605E+00 3.75545E+00 5.10194E+00 2.50767E-03 1.50777E-03
 -1     24455 1.02890E+01 5.46265E+00 5.19986E+00 7.95564E+00 2.23242E-03 3.82005E-03
 -1     24456 1.02254E+01 5.24761E+00 5.10574E+00 7.78094E+00-1.04654E-03-3.03762E-03
 -1     24457 1.02583E+01 6.30738E+00 5.47033E+00 8.44669E+00 4.43200E-03 7.35289E-03
 -1     24458 1.02520E+01 6.10102E+00 5.40100E+00 8.32341E+00 3.73547E-03 1.33317E-03
 -1     24459 5.97757E+00 7.46012E+00 4.43410E+00 7.27874E+00 6.62445E-04 4.80682E-04
 -1     24460 9.34337E+00 7.74706E+00 5.63942E+00 8.75607E+00 5.94554E-04-1.86268E-04
 -1     24461 9.43569E+00 7.64159E+00 5.63555E+00 8.75074E+00-2.20669E-04 1.38976E-04
 -1     24462-1.10988E+00 6.81283E+00 1.88322E+00 6.38132E+00-1.66378E-03-3.82832E-03
 -1     24463-1.54961E+01-1.22879E+00-5.51923E+00-3.52742E+00 3.00652E-03 1.22121E-03
 -1     24464-1.41425E+01-1.06993E+00-5.01937E+00-2.88347E+00 5.03402E-04 8.17071E-04
 -1     24465-1.60059E+01-1.25523E+00-5.69700E+00-3.42121E+00-2.03014E-03-8.58880E-05
 -1     24466 9.84636E+00 5.30005E+00 4.99749E+00 7.78738E+00-2.15220E-03-7.41876E-04
 -1     24467-1.18442E+01-7.42037E-01-4.15304E+00-3.04245E+00-1.41724E-03-2.26589E-03
 -1     24468 4.44621E+00 7.56827E+00 3.95871E+00 6.92488E+00 6.34295E-03 8.51268E-03
 -1     24469 5.59926E+00 2.58800E-01 1.93397E+00 2.95796E+00-1.27310E-03 2.24473E-04
 -1     24470 5.39737E+00 9.22715E-03 1.78420E+00 3.12549E+00-1.97892E-03 4.55701E-04
 -1     24471 6.26030E+00 5.77837E-01 2.25593E+00 3.14799E+00 5.44653E-03 6.32973E-04
 -1     24472 9.95553E+00 4.46925E+00 4.76004E+00 7.29133E+00-1.75465E-04-2.62108E-03
 -1     24473 8.75968E+00 7.99883E+00 5.52725E+00 8.61347E+00-2.17752E-03 2.48815E-03
 -1     24474 8.90506E+00 7.95358E+00 5.55944E+00 8.65859E+00 8.06708E-04 5.48815E-03
 -1     24475-1.27872E+01-9.33962E-01-4.52833E+00-3.11745E+00-9.56519E-04 2.40324E-03
 -1     24476-1.13443E+01-3.13511E-01-3.84447E+00-2.74221E+00-5.22910E-03-4.07422E-03
 -1     24477-1.11175E+01-2.03027E-01-3.73321E+00-2.58165E+00-1.55763E-03 1.44315E-03
 -1     24478-1.01950E+01-6.18020E-03-3.36461E+00-2.17581E+00-3.63055E-03-4.00702E-03
 -1     24479 9.77898E+00 3.76528E+00 4.47122E+00 6.66210E+00 1.66604E-03 8.74033E-04
 -1     24480-4.04100E+00 2.91715E+00-3.70768E-01 2.88952E+00-3.01488E-03-3.86934E-03
 -1     24481-1.49930E+01-1.19937E+00-5.34651E+00-2.53255E+00 2.23859E-03-6.47586E-03
 -1     24482 7.54517E+00 3.61077E+00 3.68264E+00 5.11222E+00 2.67444E-03 3.47893E-04
 -1     24483-3.43272E+00 3.73350E+00 1.00420E-01 3.86450E+00-1.57456E-03-4.87418E-03
 -1     24484 9.67730E+00 5.69645E+00 5.07114E+00 7.94123E+00 2.84473E-03 6.11068E-03
 -1     24485-1.83436E+00 5.62229E+00 1.24892E+00 5.60249E+00-1.01545E-03-4.09884E-04
 -1     24486 8.07903E+00 1.67772E+00 3.21599E+00 3.89012E+00 2.70299E-03-4.48952E-03
 -1     24487 7.74928E+00 1.43044E+00 3.02654E+00 3.71242E+00 1.37841E-03-3.00565E-03
 -1     24488 8.36805E+00 1.70109E+00 3.31964E+00 4.17666E+00 2.76444E-03-4.88234E-03
 -1     24489-1.08664E+01-7.18114E-02-3.61181E+00-2.38121E+00-2.82407E-03-3.04530E-03
 -1     24490-1.06038E+01 5.13864E-02-3.48335E+00-2.19297E+00-2.03151E-03-1.50383E-03
 -1     24491-9.71305E+00 2.70083E-01-3.11400E+00-1.79792E+00 4.75619E-04 1.88456E-03
 -1     24492 8.43069E+00 3.11625E+00 3.81073E+00 4.94714E+00 1.31274E-03 6.90676E-04
 -1     24493-2.20585E+00 5.15610E+00 9.70776E-01 5.20478E+00 4.64874E-03 5.69919E-04
 -1     24494 7.63234E+00 7.37655E+00 4.95226E+00 7.83669E+00-1.40342E-03 1.11791E-03
 -1     24495 8.65798E+00 6.89862E+00 5.13373E+00 8.07926E+00-6.79067E-05-1.47500E-04
 -1     24496 8.02051E+00 7.27429E+00 5.04670E+00 7.95319E+00 2.94945E-03 5.52837E-03
 -1     24497 9.92770E+00 4.88912E+00 4.88751E+00 7.56446E+00 2.61749E-03 6.60972E-03
 -1     24498 8.80453E+00 2.59220E+00 3.76016E+00 4.79118E+00 4.17603E-03 3.01324E-03
 -1     24499 8.35313E+00 7.10122E+00 5.10003E+00 8.03050E+00 6.91066E-04-5.14313E-04
 -1     24500 6.86066E+00 8.69946E-01 2.55066E+00 3.36386E+00-4.74712E-06-2.81251E-03
 -1     24501 6.76751E+00 5.97417E-01 2.43070E+00 3.51970E+00-8.85166E-04-1.27017E-04
 -1     24502 7.35132E+00 1.14581E+00 2.80686E+00 3.54908E+00 8.06826E-03 1.40656E-03
 -1     24503 8.59387E+00 3.03182E+00 3.83630E+00 5.05274E+00 2.44177E-04 3.41310E-04
 -1     24504 7.30189E+00 6.50096E+00 4.55447E+00 7.34369E+00 4.41410E-04-1.13936E-03
 -1     24505 7.46107E+00 6.39591E+00 4.57274E+00 7.37168E+00-2.23999E-04-1.25640E-03
 -1     24506-2.82532E+00 4.68629E+00 6.14754E-01 4.64673E+00 1.68870E-03 5.42605E-04
 -1     24507-2.17466E+00 5.52510E+00 1.10726E+00 5.37284E+00 2.35650E-03 2.12607E-03
 -1     24508-3.14750E+00 4.33073E+00 3.88698E-01 4.13486E+00-2.73592E-03-8.16288E-04
 -1     24509-9.19526E+00 5.69630E-01-2.84740E+00-1.36330E+00-2.73921E-04-1.63553E-03
 -1     24510-1.03338E+01 1.98034E-01-3.34547E+00-1.96309E+00-3.51952E-04-1.60562E-03
 -1     24511 9.45947E+00 4.36498E+00 4.56358E+00 7.21626E+00-1.03862E-05-4.24666E-04
 -1     24512 9.50155E+00 4.14377E+00 4.50360E+00 7.09239E+00 2.36955E-04-9.11257E-04
 -1     24513 8.89302E+00 2.70885E+00 3.83036E+00 5.06445E+00-1.88260E-03-2.00276E-03
 -1     24514 8.92811E+00 2.49619E+00 3.76751E+00 4.92952E+00 5.09083E-03 4.63963E-03
 -1     24515-1.07401E+01-5.21401E-01-3.71655E+00-2.46119E+00-3.03263E-04-8.88242E-04
 -1     24516-1.05346E+01-4.46251E-01-3.62352E+00-2.42187E+00-5.65334E-04-9.80554E-04
 -1     24517 9.63167E+00 3.30304E+00 4.26823E+00 6.41616E+00-1.60421E-03-1.12617E-03
 -1     24518 9.54783E+00 3.17371E+00 4.19753E+00 6.24346E+00-2.27437E-03-2.60531E-03
 -1     24519 4.59558E+00 6.84981E+00 3.77627E+00 6.50502E+00 5.52771E-04 3.38147E-04
 -1     24520 4.95129E+00 6.84192E+00 3.89097E+00 6.60187E+00 3.47727E-04-2.26338E-04
 -1     24521-1.33064E+00 6.37715E+00 1.66477E+00 5.83939E+00-3.89675E-03 3.47340E-03
 -1     24522 7.99231E+00 6.04787E+00 4.63326E+00 7.47271E+00 4.43283E-05-4.95924E-04
 -1     24523 8.13594E+00 5.89529E+00 4.63046E+00 7.47875E+00-1.64834E-04-8.78935E-04
 -1     24524 9.52714E+00 3.11385E+00 4.16933E+00 6.11932E+00-2.55184E-03-1.86325E-03
 -1     24525 9.43450E+00 3.02442E+00 4.11079E+00 5.94827E+00-3.14018E-03-2.78877E-03
 -1     24526 9.39295E+00 2.66578E+00 3.97925E+00 5.87618E+00-8.93990E-04-1.22120E-03
 -1     24527 8.69560E+00 5.46727E+00 4.67228E+00 7.52858E+00-9.69776E-04 1.69609E-04
 -1     24528 8.82240E+00 5.28986E+00 4.65781E+00 7.49561E+00-1.14528E-03-2.41692E-03
 -1     24529-1.30694E+01-1.00129E+00-4.64545E+00-2.16324E+00-1.20286E-03 4.69472E-03
 -1     24530-1.26639E+01-9.38567E-01-4.48947E+00-2.29993E+00 3.42157E-04 4.74043E-04
 -1     24531 2.97967E+00 6.96401E+00 3.28415E+00 6.22008E+00 1.43737E-03-5.43888E-03
 -1     24532 3.40949E+00 6.93085E+00 3.41217E+00 6.27307E+00 1.51782E-03 7.48514E-04
 -1     24533-1.46950E+01-2.14888E+00-5.54628E+00-2.75546E-01 5.16061E-03 1.58440E-03
 -1     24534-1.46429E+01-1.77185E+00-5.41728E+00-7.86555E-01-4.53521E-03 1.73158E-02
 -1     24535-1.26915E+01-2.48316E+00-5.00943E+00 3.54840E-01 1.31376E-02-1.27783E-02
 -1     24536 7.64712E+00 6.28906E+00 4.59867E+00 7.41264E+00 6.42681E-05-5.04082E-04
 -1     24537 7.79245E+00 6.16421E+00 4.60549E+00 7.43151E+00-4.29634E-04-9.26859E-04
 -1     24538 7.01786E+00 5.46115E+00 4.11804E+00 6.82372E+00 1.37944E-04-5.22785E-04
 -1     24539 6.62212E+00 5.70813E+00 4.06865E+00 6.73647E+00 3.83640E-05-9.93708E-04
 -1     24540 3.82328E+00 6.89102E+00 3.53577E+00 6.33563E+00 3.09369E-04 5.72745E-04
 -1     24541 4.22495E+00 6.87865E+00 3.66372E+00 6.42093E+00 5.16959E-04 2.79053E-04
 -1     24542 2.39072E+00 6.32285E+00 2.87520E+00 5.62343E+00 5.13608E-04 4.22993E-04
 -1     24543-6.54803E+00 2.04742E+00-1.48770E+00 7.83211E-01 4.19672E-03 1.20868E-03
 -1     24544-6.11572E+00 2.29014E+00-1.26547E+00 1.17939E+00 1.22774E-03-4.20741E-03
 -1     24545-9.51997E+00 5.53972E-02-3.12296E+00-1.94596E+00-3.30637E-04 1.09442E-05
 -1     24546-9.29493E+00 1.91406E-01-3.00378E+00-1.79766E+00 1.61443E-04-2.45795E-04
 -1     24547-1.17408E+01-7.86514E-01-4.13394E+00-2.48543E+00-4.50700E-04-2.57980E-04
 -1     24548-1.14445E+01-7.17775E-01-4.01381E+00-2.50726E+00-4.86757E-04-5.49511E-04
 -1     24549-1.00578E+01 3.33184E-01-3.20839E+00-1.75773E+00 1.46164E-03-3.12379E-04
 -1     24550 8.88316E+00 2.23273E+00 3.66630E+00 4.76462E+00 1.68059E-03 3.75958E-03
 -1     24551 8.77931E+00 2.01478E+00 3.56164E+00 4.61363E+00-2.34919E-03-2.43478E-03
 -1     24552 9.01871E+00 2.40584E+00 3.77178E+00 5.04747E+00 8.30276E-04 2.57761E-03
 -1     24553 8.78871E+00 2.99868E+00 3.89056E+00 5.21016E+00-1.15416E-03-1.38871E-03
 -1     24554-1.11906E+01-6.57793E-01-3.91017E+00-2.50510E+00-1.75462E-04-4.08532E-04
 -1     24555-1.09482E+01-5.89847E-01-3.80787E+00-2.48879E+00 1.45578E-04-7.82578E-04
 -1     24556-1.01178E+01-4.81059E-01-3.49788E+00-1.89468E+00-3.99742E-04-1.61365E-04
 -1     24557-1.23790E+01-8.98094E-01-4.38148E+00-2.38663E+00-3.14534E-04-7.58535E-04
 -1     24558-1.20218E+01-8.45662E-01-4.24577E+00-2.44754E+00-4.38996E-04-8.38211E-04
 -1     24559-1.12900E+01-7.86609E-01-3.98746E+00-1.70939E+00 9.54731E-04-1.73944E-03
 -1     24560 4.32924E+00-4.78959E-01 1.27081E+00 3.08434E+00-2.98838E-04-2.66920E-04
 -1     24561 3.39666E+00-7.82938E-01 8.62614E-01 2.90748E+00 5.07501E-04 2.00275E-04
 -1     24562 9.00393E+00 5.12646E+00 4.66359E+00 7.48434E+00 3.28869E-06-1.34150E-03
 -1     24563 9.10308E+00 4.91867E+00 4.62662E+00 7.42068E+00-1.33625E-03-1.80444E-03
 -1     24564 8.27356E+00 4.56963E+00 4.23826E+00 6.98286E+00 6.88459E-04-7.66693E-04
 -1     24565 9.57978E+00 3.96285E+00 4.46915E+00 6.99099E+00 5.27022E-04-7.68578E-04
 -1     24566 9.58897E+00 3.76294E+00 4.40646E+00 6.83823E+00 6.55993E-05-4.66785E-04
 -1     24567 9.15692E+00 3.46138E+00 4.16450E+00 6.64644E+00 4.25629E-04-7.15240E-04
 -1     24568 6.46621E+00 6.74783E+00 4.36157E+00 7.08917E+00 3.69958E-04-2.02955E-03
 -1     24569 6.70610E+00 6.71986E+00 4.42862E+00 7.16836E+00 1.78742E-03-2.35789E-04
 -1     24570-1.45477E+01-1.45771E+00-5.26799E+00-1.19392E+00-8.47517E-03 2.72538E-02
 -1     24571-1.41979E+01-1.32718E+00-5.10954E+00-1.57098E+00 6.88922E-03 3.87386E-03
 -1     24572-1.30449E+01-1.71058E+00-4.86934E+00-4.31657E-01-5.78400E-03 6.86524E-04
 -1     24573 6.92971E+00 6.66904E+00 4.48738E+00 7.24495E+00 8.23183E-04 7.94098E-04
 -1     24574 7.10913E+00 6.58494E+00 4.51901E+00 7.29169E+00 7.40708E-04-6.25243E-04
 -1     24575 6.23852E+00 5.92144E+00 4.01281E+00 6.64494E+00-3.16666E-04-6.91145E-04
 -1     24576 5.80067E+00 6.07375E+00 3.91807E+00 6.51122E+00-2.34087E-04 6.85630E-04
 -1     24577 8.35349E+00 5.77504E+00 4.66247E+00 7.51882E+00-1.84804E-05-2.64024E-04
 -1     24578 8.48867E+00 5.61074E+00 4.65247E+00 7.50830E+00-1.13808E-03-6.93127E-04
 -1     24579 7.43837E+00 5.19316E+00 4.16870E+00 6.90921E+00 1.80704E-04-1.96018E-04
 -1     24580-8.04326E+00 9.87228E-01-2.32917E+00-7.83912E-01-3.50740E-04-1.26503E-03
 -1     24581-7.77841E+00 1.15967E+00-2.18480E+00-5.48011E-01-1.03261E-04-5.31427E-04
 -1     24582 8.92702E+00 2.95738E+00 3.92497E+00 5.33568E+00-1.63573E-03-5.46796E-04
 -1     24583-8.65509E+00 8.81743E-01-2.56552E+00-8.83557E-01 6.56148E-04-6.33383E-04
 -1     24584-7.49489E+00 1.36570E+00-2.02356E+00-2.65166E-01 1.12479E-03-7.32446E-04
 -1     24585-7.22916E+00 1.54881E+00-1.87496E+00-1.30025E-02 7.01336E-04-1.09579E-03
 -1     24586-6.40045E+00 1.77528E+00-1.52689E+00 3.08022E-01 6.24846E-04 5.48451E-04
 -1     24587-3.69256E+00 3.98832E+00 9.63394E-02 3.56939E+00-2.37457E-03-5.02926E-05
 -1     24588 9.34140E+00 4.54730E+00 4.58457E+00 7.29165E+00-1.14145E-03-2.24558E-03
 -1     24589 8.93410E+00 3.84507E+00 4.21755E+00 6.82579E+00 3.37147E-04-4.55356E-04
 -1     24590 9.26037E+00 4.74722E+00 4.62100E+00 7.38560E+00-1.69209E-03-5.76435E-05
 -1     24591 1.24172E+00 7.33183E+00 2.83317E+00 6.32467E+00-5.18732E-03 8.18354E-04
 -1     24592 1.96494E+00 7.31610E+00 3.05673E+00 6.37480E+00 1.03372E-04 9.71937E-04
 -1     24593 9.09730E+00 2.96399E+00 3.98146E+00 5.50541E+00-3.43080E-03 1.03990E-03
 -1     24594 7.86953E+00 4.89676E+00 4.21290E+00 6.96994E+00-6.31167E-04-3.83697E-04
 -1     24595-1.58734E+00 5.78176E+00 1.38329E+00 5.23648E+00-8.51972E-04 2.57763E-04
 -1     24596-4.89819E-01 6.92416E+00 2.12022E+00 6.17898E+00-4.10275E-03-8.44962E-04
 -1     24597 7.74581E+00 1.17347E+00 2.94256E+00 3.87398E+00-4.80352E-03-4.54902E-04
 -1     24598 7.24543E+00 7.01678E-01 2.62235E+00 3.87000E+00-9.66447E-04 5.60298E-04
 -1     24599 6.65658E+00 4.07580E-01 2.33141E+00 3.69281E+00 2.52582E-03 7.55638E-04
 -1     24600 1.05210E-01-1.58077E+00-4.87063E-01 2.35744E+00 4.64274E-04 5.40233E-04
 -1     24601-1.16620E+00-1.85341E+00-9.96969E-01 2.20167E+00 1.05602E-03 1.07662E-03
 -1     24602 3.50875E-01 7.07535E+00 2.45355E+00 6.16849E+00-2.10609E-03-8.42865E-03
 -1     24603-9.75220E+00-6.91772E-02-3.24096E+00-2.09260E+00-1.52995E-04-3.33157E-04
 -1     24604-8.43347E+00 3.31836E-01-2.67329E+00-1.40750E+00-3.76041E-05-8.14925E-05
 -1     24605-9.95414E+00-1.75977E-01-3.34316E+00-2.20011E+00-2.80690E-04-7.67175E-04
 -1     24606-6.77442E+00 1.87956E+00-1.61633E+00 5.04436E-01 1.26692E-04-1.31006E-03
 -1     24607-5.56670E+00 2.52331E+00-1.00523E+00 1.35465E+00 4.98766E-04 1.31958E-03
 -1     24608-7.07036E+00 1.69617E+00-1.77454E+00 2.19824E-01 4.81758E-04 2.28093E-03
 -1     24609-1.06739E+01-6.48850E-01-3.73633E+00-1.85084E+00-1.30536E-04-6.90035E-04
 -1     24610-9.05101E+00 3.32808E-01-2.87648E+00-1.62408E+00-4.10616E-04-8.30351E-04
 -1     24611-8.81941E+00 4.76346E-01-2.75306E+00-1.44702E+00-6.23756E-04-8.05330E-04
 -1     24612-7.94956E+00 6.35016E-01-2.41373E+00-1.07895E+00 7.15360E-05 4.02264E-05
 -1     24613 3.21219E+00 6.27211E+00 3.12919E+00 5.75664E+00 1.66057E-04 4.80897E-04
 -1     24614-5.53430E+00-2.36638E+00-2.60749E+00 1.58608E+00 1.78789E-03-2.65790E-03
 -1     24615-7.16846E+00-2.48942E+00-3.18938E+00 1.41264E+00 6.15436E-04-6.60335E-03
 -1     24616-2.52295E+00-2.03426E+00-1.50430E+00 1.99715E+00 1.33579E-03 2.66405E-04
 -1     24617-3.97514E+00-2.24926E+00-2.05452E+00 1.83305E+00 1.52590E-03 6.66607E-04
 -1     24618-4.55074E+00-2.04757E+00-2.17785E+00 1.83332E+00 1.47535E-03-1.76738E-05
 -1     24619-1.67567E+00-1.76244E+00-1.13490E+00 2.29066E+00 5.06445E-04 9.62150E-04
 -1     24620-1.38831E+01-1.16543E+00-4.96713E+00-1.78897E+00 7.06901E-03-1.11230E-02
 -1     24621-1.33917E+01-1.07474E+00-4.78296E+00-2.00868E+00-6.63407E-03 9.88755E-03
 -1     24622 8.61599E+00 1.75766E+00 3.42283E+00 4.44181E+00 2.44097E-03-1.43493E-03
 -1     24623 8.37492E+00 1.52683E+00 3.26085E+00 4.29691E+00 1.75177E-03-3.54120E-03
 -1     24624 8.81300E+00 1.91506E+00 3.54277E+00 4.71953E+00-2.13502E-03-2.27404E-03
 -1     24625-8.56341E+00 6.32451E-01-2.61485E+00-1.23713E+00 2.71653E-03-8.79660E-04
 -1     24626-8.29556E+00 7.96567E-01-2.47510E+00-1.02531E+00 2.00051E-03-4.17489E-04
 -1     24627-7.44276E+00 9.71389E-01-2.13544E+00-6.82548E-01-9.95779E-04-4.08401E-05
 -1     24628-5.77142E+00 2.52107E+00-1.07282E+00 1.55495E+00-3.83332E-04-2.31740E-03
 -1     24629-4.87597E+00 3.03884E+00-6.06404E-01 2.34008E+00 6.86290E-04-2.70606E-03
 -1     24630-4.99604E+00 2.95998E+00-6.72991E-01 2.02695E+00 1.72736E-03-2.87620E-03
 -1     24631 9.35214E+00 3.01605E+00 4.07779E+00 5.82140E+00-2.51600E-03-9.96125E-04
 -1     24632 9.21780E+00 2.95464E+00 4.01670E+00 5.64447E+00 1.90761E-03-2.74605E-04
 -1     24633 9.14563E+00 2.62664E+00 3.88452E+00 5.33856E+00 6.07484E-04-1.06738E-03
 -1     24634 9.31963E+00 2.60915E+00 3.93489E+00 5.61406E+00-4.75249E-03-6.08192E-04
 -1     24635 2.38122E+00-1.05023E+00 4.39548E-01 2.71408E+00 1.53081E-04 1.04896E-04
 -1     24636 1.28286E+00-1.35040E+00-2.22619E-02 2.54998E+00 7.42618E-04 8.22673E-04
 -1     24637 8.51854E-01-1.35333E+00-1.65425E-01 2.68193E+00 6.13165E-05 8.79095E-04
 -1     24638 3.04560E+00-8.54986E-01 7.23364E-01 3.05644E+00 3.53181E-05-4.67176E-04
 -1     24639-9.64041E+00-3.12254E-01-3.28449E+00-1.87159E+00-2.19589E-04-4.39331E-04
 -1     24640 5.28943E+00 6.81907E+00 3.99629E+00 6.69335E+00 1.58986E-03-3.28844E-03
 -1     24641 5.59849E+00 6.81064E+00 4.09555E+00 6.79182E+00 2.85534E-03-4.06096E-04
 -1     24642 3.96014E+00 6.24067E+00 3.36568E+00 5.93408E+00 3.15400E-05-2.12706E-04
 -1     24643 5.18464E+00-1.91710E-01 1.64780E+00 3.28652E+00 1.85695E-04 2.77726E-04
 -1     24644 4.91697E+00-3.03469E-01 1.52294E+00 3.43864E+00-1.42886E-04-2.02674E-04
 -1     24645 5.94825E+00 1.05679E-01 1.99834E+00 3.47361E+00 7.82518E-04 2.50893E-04
 -1     24646 8.63332E+00 4.20995E+00 4.23839E+00 6.93701E+00-6.24485E-04-6.43181E-04
 -1     24647 9.63773E+00 3.59840E+00 4.36769E+00 6.71155E+00 3.42793E-04 2.82989E-04
 -1     24648 9.61008E+00 3.43113E+00 4.30363E+00 6.54929E+00-1.97617E-04 3.96293E-04
 -1     24649 5.92170E+00 6.80003E+00 4.19842E+00 6.90255E+00 1.95256E-03-4.50992E-03
 -1     24650 6.19243E+00 6.78050E+00 4.28136E+00 6.99229E+00 4.75259E-03-9.66147E-04
 -1     24651 5.27854E+00 6.16931E+00 3.77773E+00 6.34417E+00-1.84125E-04 8.35613E-05
 -1     24652 4.65259E+00 6.21057E+00 3.58487E+00 6.13574E+00-1.64822E-04-2.54837E-04
 -1     24653 2.18409E+00 7.16046E+00 3.07938E+00 6.24385E+00 1.99921E-03 5.42610E-04
 -1     24654 2.65152E+00 7.07892E+00 3.21882E+00 6.25059E+00-3.12193E-03-8.60565E-03
 -1     24655-1.03536E+01-3.69290E-01-3.53790E+00-2.37076E+00-1.01183E-04-7.81286E-05
 -1     24656-1.01408E+01-2.77964E-01-3.43917E+00-2.29331E+00 1.85096E-03 8.72558E-05
 -1     24657-9.23606E+00-1.29412E-01-3.09061E+00-1.79398E+00-4.89338E-04 1.87382E-04
 -1     24658-1.26296E+01-1.24719E+00-4.56299E+00-1.04044E+00 1.18604E-02-1.94248E-02
 -1     24659 6.47521E+00 2.76380E-01 2.22795E+00 3.83688E+00-1.07020E-04 1.29367E-03
 -1     24660-8.88379E+00-2.55166E+00-3.78835E+00 1.07395E+00 3.28212E-03-6.75243E-03
 -1     24661-1.07205E+01-2.51564E+00-4.37561E+00 7.81495E-01 9.84123E-04 1.19543E-02
 -1     24662-1.11972E+01-2.12664E+00-4.40994E+00 4.73309E-01-1.33238E-03 6.85338E-03
 -1     24663-7.74771E+00-2.19194E+00-3.28300E+00 1.26519E+00 1.29845E-03-1.97153E-02
 -1     24664 9.39037E+00 2.83119E+00 4.03447E+00 6.14299E+00-7.76357E-04 1.94064E-03
 -1     24665 1.61276E+00 6.44536E+00 2.66179E+00 5.60559E+00-4.41458E-03-3.34823E-03
 -1     24666-6.94906E+00 1.34953E+00-1.84730E+00-2.28606E-01 9.52236E-04 1.65284E-03
 -1     24667-1.19429E+01-9.85536E-01-4.27836E+00-1.44288E+00-4.29245E-03-1.68353E-03
 -1     24668 9.30144E+00 3.10011E+00 4.09216E+00 6.41133E+00 1.68845E-03-2.59935E-06
 -1     24669 1.03848E+00 6.67829E+00 2.54676E+00 5.77905E+00 2.17521E-03-1.35465E-04
 -1     24670-9.61028E+00-5.20022E-01-3.34263E+00-1.24465E+00-1.47939E-04-2.45873E-03
 -1     24671-9.29128E+00-4.11533E-01-3.20222E+00-1.28139E+00-4.07846E-04-4.01800E-04
 -1     24672 1.05619E-01 5.77746E+00 1.94771E+00 4.88730E+00-2.47580E-03-3.33676E-03
 -1     24673 4.66019E-01 5.70071E+00 2.03654E+00 4.84571E+00-9.01259E-05-1.75968E-03
 -1     24674-2.76723E-02 6.57437E+00 2.16469E+00 5.75312E+00 8.10888E-03-5.80243E-03
 -1     24675 8.86506E+00 2.68575E+00 3.80670E+00 6.14111E+00-2.38974E-04-2.06566E-03
 -1     24676 8.94108E+00 2.53130E+00 3.78491E+00 6.01041E+00 2.59643E-03 5.15082E-04
 -1     24677-2.61948E+00 4.87087E+00 7.40758E-01 4.42137E+00-1.43433E-03 6.92118E-04
 -1     24678-1.78337E+00 5.46291E+00 1.21532E+00 4.80391E+00-4.56984E-04-3.64687E-04
 -1     24679-1.13168E+01-1.31240E+00-4.16076E+00-3.65649E-01-6.15821E-03-3.42649E-03
 -1     24680-1.10211E+01-1.12610E+00-4.00716E+00-5.92138E-01 6.65421E-03-1.49376E-02
 -1     24681 6.95092E+00 4.38180E+00 3.74043E+00 6.44566E+00 1.75822E-03 1.23093E-03
 -1     24682 7.17282E+00 4.22335E+00 3.76074E+00 6.47151E+00 1.48409E-03 3.20994E-04
 -1     24683 5.50921E+00-8.67399E-02 1.78938E+00 3.75665E+00 9.53973E-04-5.06045E-04
 -1     24684 4.65967E+00-3.64506E-01 1.41735E+00 3.56683E+00 6.20445E-04 5.59614E-04
 -1     24685 8.16209E+00 1.28973E+00 3.11369E+00 4.24474E+00-5.03307E-03 3.34123E-03
 -1     24686 7.80304E+00 9.94378E-01 2.90351E+00 4.09764E+00-4.15418E-03 1.53834E-03
 -1     24687 7.72603E+00 9.21238E-01 2.85431E+00 4.26646E+00-1.51191E-03-3.52221E-04
 -1     24688 8.47473E+00 1.43508E+00 3.26936E+00 4.52170E+00-4.59081E-04 6.12422E-04
 -1     24689-5.85184E+00 1.73929E+00-1.35667E+00 3.15417E-01 4.97171E-04 6.06591E-04
 -1     24690-5.58095E+00 1.95635E+00-1.19592E+00 5.64411E-01-2.63881E-04 5.71755E-04
 -1     24691 9.14261E+00 2.25577E+00 3.76303E+00 5.63823E+00-1.00213E-03-3.27457E-03
 -1     24692 9.13566E+00 2.22804E+00 3.75022E+00 5.49749E+00 3.43906E-04-1.26534E-03
 -1     24693 8.31450E+00 3.38326E+00 3.86025E+00 6.47441E+00 1.03315E-03 1.07826E-03
 -1     24694 8.45723E+00 3.19901E+00 3.84738E+00 6.40147E+00 7.26832E-04 1.20179E-03
 -1     24695-8.52689E+00-1.00199E-01-2.84723E+00-1.27186E+00-2.66269E-04 3.69262E-04
 -1     24696-8.30576E+00 7.32452E-03-2.73866E+00-1.25039E+00 8.93452E-05 1.92282E-04
 -1     24697 1.84142E+00 5.68613E+00 2.48387E+00 5.02951E+00-1.28919E-04-3.48942E-04
 -1     24698 2.23606E+00 5.66719E+00 2.60764E+00 5.10355E+00-8.51840E-05-1.40725E-04
 -1     24699 9.11086E+00 2.35578E+00 3.78423E+00 5.18554E+00 3.74242E-03 4.70218E-04
 -1     24700-1.07831E+01-9.60315E-01-3.88261E+00-7.82072E-01 1.70464E-03-4.29198E-03
 -1     24701-1.04611E+01-8.49147E-01-3.73785E+00-9.41348E-01-6.24424E-03-2.29208E-03
 -1     24702-9.55273E+00-1.05135E+00-3.49599E+00-1.15223E-01 7.11820E-03-2.55790E-03
 -1     24703 7.45065E+00 4.06566E+00 3.80026E+00 6.51986E+00 3.76451E-04 1.04862E-04
 -1     24704 7.65350E+00 3.88333E+00 3.80712E+00 6.51303E+00-2.81801E-04-1.36021E-03
 -1     24705 6.58569E+00 3.57860E+00 3.35452E+00 6.01748E+00-2.73662E-04 4.95886E-04
 -1     24706-9.01942E+00-3.10248E-01-3.07919E+00-1.28591E+00-2.04658E-04 2.22683E-04
 -1     24707-8.74986E+00-2.06248E-01-2.95598E+00-1.29002E+00-3.15534E-04 2.84391E-04
 -1     24708-7.94595E+00-1.80498E-01-2.68210E+00-6.87396E-01-4.31671E-04-2.89184E-04
 -1     24709-1.16646E+01-1.79405E+00-4.44963E+00 1.49661E-01-9.87837E-04-4.24769E-04
 -1     24710-1.16572E+01-1.53134E+00-4.34345E+00-2.03816E-01-7.62748E-03 2.22474E-03
 -1     24711-1.00797E+01-1.45909E+00-3.80918E+00 2.06652E-01-2.02289E-03 8.28878E-03
 -1     24712-9.91491E+00-1.94139E+00-3.91684E+00 6.49270E-01 2.90187E-04 7.57089E-03
 -1     24713 9.76388E-01 5.71688E+00 2.20932E+00 4.90754E+00 1.14375E-05-8.78015E-04
 -1     24714 1.41021E+00 5.69371E+00 2.34457E+00 4.95732E+00-2.68003E-04-4.25061E-04
 -1     24715-5.31297E-01 5.04667E+00 1.49100E+00 4.17253E+00-4.57934E-05-1.16319E-03
 -1     24716 9.03317E+00 2.41433E+00 3.77966E+00 5.88817E+00-1.52172E-04 3.30257E-03
 -1     24717 9.07263E+00 2.31576E+00 3.76287E+00 5.75057E+00-1.13757E-03-2.49037E-03
 -1     24718 8.80881E+00 1.85167E+00 3.52082E+00 5.37945E+00-1.46956E-03-3.77559E-03
 -1     24719 8.62010E+00 1.99788E+00 3.50337E+00 5.61931E+00-6.01027E-04-1.62754E-04
 -1     24720-1.02024E+01-7.41785E-01-3.61617E+00-1.07103E+00-1.21869E-03-3.34482E-03
 -1     24721-9.87323E+00-6.23647E-01-3.46417E+00-1.16912E+00 4.29007E-04-8.55336E-03
 -1     24722-8.52699E+00-4.46441E-01-2.95923E+00-6.17972E-01-4.69758E-04-3.04577E-03
 -1     24723-9.06889E+00-7.23542E-01-3.23140E+00-4.26974E-01 1.62443E-03 6.34403E-04
 -1     24724 8.63263E+00 3.03166E+00 3.84932E+00 6.34324E+00 1.06684E-03 1.20705E-03
 -1     24725 8.73223E+00 2.84834E+00 3.81816E+00 6.23675E+00 1.36552E-04-3.16200E-03
 -1     24726 8.06290E+00 2.58568E+00 3.51678E+00 5.99537E+00 1.28926E-03 4.64990E-03
 -1     24727 7.90423E+00 3.72539E+00 3.83813E+00 6.52854E+00 1.50393E-04-8.49144E-04
 -1     24728 8.08229E+00 3.53824E+00 3.83519E+00 6.49009E+00-1.88053E-04-3.82472E-04
 -1     24729 7.62481E+00 2.92165E+00 3.47812E+00 6.07819E+00 4.04661E-04-1.44581E-03
 -1     24730 7.12222E+00 3.25339E+00 3.42398E+00 6.07859E+00 1.17976E-04-1.21485E-03
 -1     24731-8.79389E-01 5.97762E+00 1.68346E+00 5.16888E+00 1.95401E-03 1.08222E-04
 -1     24732-1.15675E-01 6.20276E+00 2.00942E+00 5.34332E+00 1.60313E-03 3.90017E-03
 -1     24733-1.89586E+00 5.12341E+00 1.06510E+00 4.37456E+00-5.25977E-04 1.06161E-03
 -1     24734 8.37812E+00 2.26683E+00 3.50302E+00 5.83910E+00-2.40323E-04-5.83143E-03
 -1     24735 3.73512E+00-6.16851E-01 1.02900E+00 3.35649E+00 2.61527E-04-6.55524E-04
 -1     24736 2.72689E+00-8.71296E-01 6.12450E-01 3.17199E+00-2.40802E-04 7.11964E-04
 -1     24737 4.35639E+00-3.47303E-01 1.32265E+00 3.67997E+00-1.16057E-04 3.72093E-04
 -1     24738 1.19846E-01 6.07358E+00 2.04620E+00 5.19796E+00-2.86007E-03 8.54376E-03
 -1     24739-7.43090E+00 7.76978E-02-2.42701E+00-6.78013E-01 7.83217E-05 5.51377E-04
 -1     24740-1.02523E+00 5.29956E+00 1.41367E+00 4.44295E+00-1.63733E-03 3.85285E-03
 -1     24741 8.14156E+00 1.14920E+00 3.06728E+00 4.62318E+00 1.42079E-03-7.69833E-04
 -1     24742 7.59056E+00 8.19203E-01 2.77521E+00 4.40987E+00-9.03416E-04 7.64154E-05
 -1     24743-4.68221E+00 2.95835E+00-5.68668E-01 1.82397E+00-3.05282E-03-4.50496E-04
 -1     24744-4.47234E+00 3.15977E+00-4.34410E-01 2.11239E+00-2.51049E-03 1.00280E-03
 -1     24745-6.10631E+00 1.52769E+00-1.51079E+00 7.13966E-02-1.14014E-04 6.01517E-04
 -1     24746-4.77990E+00 2.08480E+00-8.89195E-01 8.40772E-01 1.11966E-04 6.62598E-04
 -1     24747-6.36386E+00 1.32111E+00-1.66384E+00-1.46895E-01-5.68994E-04-4.06167E-05
 -1     24748 1.64916E+00-1.08015E+00 1.87750E-01 2.95990E+00-6.81115E-05-3.42836E-04
 -1     24749 4.88562E-01-1.29606E+00-2.66744E-01 2.77275E+00 4.32857E-04 8.16354E-04
 -1     24750 2.36000E+00-8.04371E-01 5.13543E-01 3.26404E+00-5.54815E-04-3.43402E-04
 -1     24751-8.86946E+00 7.59620E-02-2.90205E+00-1.65150E+00 7.59085E-04 4.99407E-06
 -1     24752 5.13243E+00 5.38685E+00 3.47144E+00 5.97565E+00-2.65405E-04-1.13101E-04
 -1     24753 5.33077E+00 5.28210E+00 3.50205E+00 6.02758E+00-6.14958E-05-1.11880E-03
 -1     24754 5.53074E+00 5.16627E+00 3.52929E+00 6.07993E+00 2.84529E-04-9.27606E-04
 -1     24755 5.72070E+00 5.03469E+00 3.54899E+00 6.12446E+00 2.74528E-05-8.81661E-04
 -1     24756 4.44191E+00 4.64310E+00 2.99784E+00 5.42152E+00 2.97629E-04-6.43496E-04
 -1     24757 5.94914E+00 4.91036E+00 3.58346E+00 6.18815E+00 2.46478E-04-5.79969E-04
 -1     24758 6.15245E+00 4.76710E+00 3.60350E+00 6.23533E+00-2.75480E-05-6.59963E-04
 -1     24759 4.87218E+00 4.38347E+00 3.05416E+00 5.54332E+00 2.86499E-04-4.38782E-04
 -1     24760-5.95178E+00 2.16196E+00-1.24932E+00 8.32976E-01 5.86934E-04-1.59887E-03
 -1     24761 9.13896E+00 2.29108E+00 3.77353E+00 5.28572E+00 1.02947E-03 2.25871E-03
 -1     24762 8.98840E+00 2.03835E+00 3.64245E+00 4.98997E+00 5.81618E-03 2.32013E-03
 -1     24763 8.81433E+00 1.80301E+00 3.50456E+00 4.82419E+00 2.43556E-03-1.38414E-03
 -1     24764 9.18798E+00 2.26910E+00 3.78083E+00 5.42259E+00-1.43168E-03 1.44351E-03
 -1     24765-5.30420E+00 2.19428E+00-1.02633E+00 8.49151E-01 6.02263E-05 4.87496E-04
 -1     24766-5.01883E+00 2.43150E+00-8.54079E-01 1.13543E+00 1.65522E-04 6.30376E-04
 -1     24767-4.23153E+00 2.57361E+00-5.46719E-01 1.37756E+00 1.35267E-05 7.61462E-04
 -1     24768-7.39785E-01-1.45795E+00-7.25599E-01 2.53697E+00 4.78720E-04-5.32484E-04
 -1     24769-2.06104E+00-1.61344E+00-1.21304E+00 2.32722E+00 8.47766E-04 7.29587E-04
 -1     24770 8.45301E-02-1.16924E+00-3.58236E-01 2.81664E+00-2.12481E-04 3.29337E-04
 -1     24771-7.39852E+00 6.09200E-01-2.24035E+00-8.89818E-01 1.46589E-04-1.32592E-04
 -1     24772-7.15556E+00 7.68541E-01-2.10759E+00-7.40781E-01 7.35108E-05-3.73448E-05
 -1     24773 6.97628E+00 4.97565E-01 2.46591E+00 4.17003E+00-1.58332E-03 7.74378E-05
 -1     24774 6.27576E+00 2.07036E-01 2.13895E+00 3.97448E+00 9.63823E-04 1.89530E-04
 -1     24775-3.47922E+00-1.71734E+00-1.71517E+00 2.03875E+00 1.71335E-03-9.05917E-04
 -1     24776-4.94228E+00-1.78651E+00-2.22116E+00 1.77903E+00 2.95974E-03-1.75068E-04
 -1     24777-2.51519E+00-1.42408E+00-1.30018E+00 2.29093E+00-5.73411E-04-6.63829E-04
 -1     24778 6.43690E+00 4.65237E+00 3.65958E+00 6.32146E+00 4.68011E-04-4.27823E-04
 -1     24779 6.65551E+00 4.50243E+00 3.68234E+00 6.36449E+00 1.48650E-04-3.15812E-04
 -1     24780 2.57483E+00 5.63153E+00 2.70763E+00 5.16446E+00-1.02121E-04-3.32722E-04
 -1     24781 2.93933E+00 5.61776E+00 2.82384E+00 5.25885E+00-8.26072E-05-3.99388E-04
 -1     24782 1.22789E+00 5.05468E+00 2.07311E+00 4.43745E+00-2.31352E-04-2.37382E-04
 -1     24783 4.36112E-01 5.08317E+00 1.82189E+00 4.30529E+00-2.94692E-04-6.94439E-04
 -1     24784-3.90356E+00 3.76703E+00-4.67833E-02 3.16729E+00 1.40291E-03 2.59551E-03
 -1     24785 7.42555E+00 7.90839E-01 2.70887E+00 4.54211E+00-2.19258E-03 1.72105E-03
 -1     24786 4.04640E+00 5.60577E+00 3.18522E+00 5.62285E+00-7.64515E-04-8.33716E-04
 -1     24787 4.34595E+00 5.57546E+00 3.27376E+00 5.72021E+00-8.23557E-04-3.27801E-04
 -1     24788-8.14213E+00 1.12951E-01-2.64980E+00-1.21748E+00-2.74544E-04-2.60887E-05
 -1     24789-7.95015E+00 2.26789E-01-2.54877E+00-1.16389E+00 8.06785E-04 6.62466E-04
 -1     24790-7.02954E+00 3.28232E-01-2.21138E+00-6.32958E-01 9.13057E-05-1.76160E-03
 -1     24791 5.38851E+00 4.12116E+00 3.13821E+00 5.70122E+00 4.31393E-04-3.06895E-04
 -1     24792-6.63099E+00-1.85055E+00-2.79920E+00 1.40136E+00 6.25638E-03-7.03974E-03
 -1     24793-8.22586E+00-1.84651E+00-3.33363E+00 1.03914E+00 1.13353E-02 2.22397E-03
 -1     24794-8.73001E+00-1.57979E+00-3.40720E+00 7.63095E-01 1.79613E-03 9.45401E-03
 -1     24795-5.51629E+00-1.52997E+00-2.32292E+00 1.60182E+00-1.30835E-03-7.38648E-04
 -1     24796 4.64802E+00 5.53824E+00 3.36124E+00 5.82833E+00-4.77897E-04-4.25165E-04
 -1     24797 4.89597E+00 5.46870E+00 3.42042E+00 5.90363E+00 4.01274E-04 1.22859E-05
 -1     24798 3.46030E+00 4.99184E+00 2.78901E+00 5.11673E+00-2.72676E-04-7.33166E-05
 -1     24799 6.04503E+00 1.91848E-01 2.05772E+00 4.09958E+00 2.07691E-04-3.49171E-04
 -1     24800 5.97908E+00 3.84997E+00 3.24325E+00 5.86947E+00 1.71488E-03-1.83149E-05
 -1     24801 8.94692E+00 1.88511E+00 3.57434E+00 5.17595E+00 3.81092E-04 1.57367E-04
 -1     24802 7.79165E+00 1.89915E+00 3.19991E+00 5.57176E+00-9.11900E-04 3.11426E-03
 -1     24803 7.93712E+00 1.75590E+00 3.19856E+00 5.47042E+00 1.19993E-03 6.11841E-04
 -1     24804-4.44802E+00 2.95766E+00-4.92712E-01 1.79029E+00 2.37456E-03 2.32248E-03
 -1     24805-3.38796E+00 3.55714E+00 5.45881E-02 2.52420E+00-6.03797E-04-1.46089E-03
 -1     24806-4.61288E+00 2.76825E+00-6.08873E-01 1.54614E+00 1.69366E-03 1.23480E-03
 -1     24807-6.29095E+00 2.70934E-01-1.98655E+00-7.98252E-02 3.75935E-04 7.55569E-04
 -1     24808-6.05407E+00 4.22494E-01-1.85870E+00-6.13282E-02-2.12290E-04 6.34775E-04
 -1     24809 8.55273E+00 1.49158E+00 3.31440E+00 4.88216E+00 8.09003E-04 1.54953E-03
 -1     24810 8.46574E+00 1.46274E+00 3.27540E+00 5.00334E+00 3.34029E-03-6.20538E-04
 -1     24811-3.32515E+00 3.87309E+00 1.79129E-01 2.93768E+00 1.51504E-03 3.05856E-03
 -1     24812-4.17543E+00 3.44010E+00-2.45471E-01 2.49196E+00-3.99792E-03-1.88544E-03
 -1     24813 7.85636E+00 1.12688E+00 2.96035E+00 4.88193E+00-1.61735E-05 4.02604E-03
 -1     24814 7.25382E+00 8.10550E-01 2.66110E+00 4.66057E+00-1.85611E-03-4.32473E-03
 -1     24815 4.22152E+00 3.62007E+00 2.58784E+00 5.07778E+00-5.32171E-04-4.22794E-04
 -1     24816 4.51100E+00 3.47733E+00 2.63580E+00 5.17247E+00-7.52103E-04-1.42768E-03
 -1     24817 4.00925E+00 4.86260E+00 2.92790E+00 5.29739E+00-4.09722E-04-6.55164E-04
 -1     24818-7.67450E-01 4.57251E+00 1.25616E+00 3.67880E+00-4.71225E-04-4.50980E-04
 -1     24819-3.28876E-01 4.57045E+00 1.39979E+00 3.74917E+00-1.82065E-04-5.70041E-04
 -1     24820-7.81523E+00 3.35494E-01-2.46879E+00-1.11042E+00 1.15172E-05 6.13848E-05
 -1     24821-7.61126E+00 4.64535E-01-2.35849E+00-1.01777E+00 1.65405E-04-5.21675E-04
 -1     24822-6.35542E+00 8.74429E-01-1.80823E+00-3.60733E-01 1.94187E-03 7.71619E-04
 -1     24823-6.71775E+00 5.78526E-01-2.02573E+00-5.45215E-01 4.18556E-04-2.63511E-04
 -1     24824 6.59945E+00 4.93621E-01 2.34227E+00 4.41512E+00 2.29359E-04-4.49439E-03
 -1     24825 5.81814E+00 2.14638E-01 1.99037E+00 4.21085E+00 1.39786E-04 1.46885E-04
 -1     24826 7.05160E+00 8.71270E-01 2.62437E+00 4.76107E+00-1.56341E-04-6.18086E-03
 -1     24827-6.84541E+00 9.63417E-01-1.94099E+00-5.28842E-01-6.12769E-05-1.39785E-04
 -1     24828-6.59149E+00 1.14115E+00-1.79870E+00-3.45575E-01 2.06458E-05-7.90687E-05
 -1     24829-8.30161E+00-1.08457E+00-3.10050E+00 4.54815E-01 4.65185E-03-6.80898E-04
 -1     24830-8.10056E+00-8.88628E-01-2.97362E+00 2.87412E-01-2.28851E-03-1.33098E-03
 -1     24831 4.94516E+00 3.41063E+00 2.75707E+00 5.34026E+00-1.01848E-03-1.06486E-03
 -1     24832 5.27033E+00 3.25914E+00 2.81156E+00 5.42807E+00-3.22922E-03 3.70945E-03
 -1     24833 3.78357E+00 2.93421E+00 2.21449E+00 4.72081E+00-5.29567E-03-7.95470E-03
 -1     24834 5.62328E+00 3.10871E+00 2.88265E+00 5.52725E+00 1.87417E-05 5.08998E-03
 -1     24835 5.91011E+00 2.96185E+00 2.92886E+00 5.58677E+00-1.13775E-04-2.48976E-04
 -1     24836 4.60860E+00 2.71088E+00 2.41298E+00 5.01922E+00-2.75550E-03 1.85894E-03
 -1     24837-5.82610E+00 1.24064E+00-1.51327E+00-2.05552E-02 5.13850E-04 5.22244E-05
 -1     24838-3.81433E+00 3.71602E+00-3.35312E-02 2.87842E+00-1.82393E-03-1.59357E-03
 -1     24839 3.33904E+00 5.62361E+00 2.95798E+00 5.38777E+00-3.27612E-04-1.30120E-03
 -1     24840 3.68898E+00 5.61267E+00 3.06954E+00 5.49553E+00-4.65702E-04-4.70558E-04
 -1     24841 1.99363E+00 5.03498E+00 2.31942E+00 4.62491E+00-7.45552E-05-3.62719E-04
 -1     24842 2.77827E+00 5.03800E+00 2.57927E+00 4.88023E+00-2.97580E-04-3.98103E-04
 -1     24843-2.92369E+00 4.39359E+00 4.85731E-01 3.65416E+00-2.24177E-04 1.39742E-04
 -1     24844-2.01970E+00 4.86414E+00 9.40731E-01 4.03351E+00 2.01043E-04 1.05980E-03
 -1     24845-2.07210E+00 4.28193E+00 7.29897E-01 3.30951E+00 8.57607E-07-1.88544E-03
 -1     24846-1.57085E+00 4.32037E+00 9.08393E-01 3.37145E+00 8.36192E-05-1.11225E-03
 -1     24847 8.35988E+00 1.48280E+00 3.24406E+00 5.13135E+00 1.46703E-03 2.49392E-03
 -1     24848-5.27480E+00 1.65472E+00-1.19467E+00 3.94211E-01 9.42162E-04 7.01189E-04
 -1     24849-4.87974E+00 1.50797E+00-1.11321E+00 4.50661E-01 6.16219E-04-3.16644E-04
 -1     24850-4.56139E+00 1.73171E+00-9.33751E-01 6.64295E-01 1.04133E-03 2.40143E-04
 -1     24851-3.99256E+00 2.07094E+00-6.33746E-01 1.03928E+00 8.43632E-04 6.35636E-04
 -1     24852-3.75519E+00 2.29168E+00-4.82795E-01 1.24017E+00-1.18383E-03-3.29806E-04
 -1     24853-3.06189E+00 2.33875E+00-2.38650E-01 1.50154E+00 2.72260E-04-5.15282E-04
 -1     24854 4.99597E+00-4.09076E-02 1.63467E+00 3.98109E+00 4.61487E-04 1.06687E-03
 -1     24855 4.08392E+00-2.88569E-01 1.25202E+00 3.77952E+00 2.55035E-04 1.51211E-03
 -1     24856 5.54356E+00 3.00682E-01 1.92569E+00 4.30104E+00 1.49564E-03 4.05328E-03
 -1     24857-2.96431E-01 4.40461E+00 1.35557E+00 3.61944E+00-8.49955E-05-1.15100E-04
 -1     24858 5.79570E-02 4.37803E+00 1.46381E+00 3.67800E+00 8.25832E-05-4.55862E-05
 -1     24859-1.50065E+00 3.88931E+00 7.88408E-01 2.98753E+00-3.29142E-04-7.07007E-05
 -1     24860-6.55701E+00 1.09872E-01-2.12789E+00-1.11529E-01 4.48014E-05 4.95934E-04
 -1     24861-5.21265E+00 4.08512E-01-1.58553E+00 4.90641E-01 4.32008E-04 7.99733E-04
 -1     24862-6.84825E+00-4.12464E-02-2.27371E+00-1.03601E-01-1.10657E-04 8.38090E-04
 -1     24863-5.18495E+00 1.28970E+00-1.28550E+00 2.47040E-01-2.44246E-03-7.47431E-04
 -1     24864-3.94781E+00 1.74831E+00-7.27124E-01 9.20326E-01 2.52058E-04 1.34504E-04
 -1     24865-5.40932E+00 1.11227E+00-1.41591E+00 1.19526E-01 1.64914E-03 7.69569E-05
 -1     24866-3.87398E+00 2.37835E+00-4.93447E-01 1.27390E+00-2.09016E-04 2.59056E-04
 -1     24867-3.60532E+00 2.62058E+00-3.24772E-01 1.52249E+00 1.77695E-05 4.55614E-04
 -1     24868-2.59928E+00 2.80134E+00 6.67629E-02 1.91406E+00-3.83506E-05 1.93486E-04
 -1     24869-7.95346E+00-6.87792E-01-2.84854E+00 1.39567E-01-3.02897E-03-5.92495E-03
 -1     24870-7.70286E+00-5.30456E-01-2.71305E+00 1.89632E-02-1.69181E-03-1.73966E-03
 -1     24871-6.78197E+00-7.41458E-01-2.48272E+00 7.10032E-01-2.58316E-04-4.24517E-03
 -1     24872 3.11854E+00-5.01184E-01 8.63372E-01 3.54010E+00-8.22359E-04 7.66500E-05
 -1     24873 2.07130E+00-6.87439E-01 4.56481E-01 3.33294E+00-7.53611E-04-1.87979E-04
 -1     24874 3.81319E+00-1.66653E-01 1.20178E+00 3.85316E+00-1.20109E-03-2.50103E-03
 -1     24875 7.53208E+00 1.28214E+00 2.91143E+00 5.10514E+00 3.59393E-03-8.79677E-05
 -1     24876 8.10443E+00 1.62832E+00 3.21115E+00 5.36872E+00 2.59774E-03 2.32829E-04
 -1     24877-7.44933E+00-3.62208E-01-2.58072E+00-5.07280E-02-5.21082E-03-5.12165E-03
 -1     24878-7.16267E+00-2.10708E-01-2.43351E+00-1.17643E-01-2.63991E-03-1.82587E-03
 -1     24879-5.80436E+00 3.66103E-02-1.90271E+00 4.50088E-01 3.63103E-03 4.04041E-03
 -1     24880-6.38530E+00-3.41241E-01-2.21970E+00 5.00758E-01 9.44770E-04 5.72479E-05
 -1     24881 6.84562E+00 2.51934E+00 3.08479E+00 5.72134E+00-1.52089E-04-1.07056E-03
 -1     24882 7.10767E+00 2.35883E+00 3.11954E+00 5.71058E+00 2.76773E-03-7.90570E-04
 -1     24883-8.43570E+00-1.36115E+00-3.23325E+00 6.34696E-01 2.67590E-03 1.64508E-02
 -1     24884 2.88083E+00 4.39228E+00 2.40016E+00 4.66024E+00-2.63824E-04-2.89208E-04
 -1     24885 3.11566E+00 4.29279E+00 2.44486E+00 4.73112E+00-5.85891E-05-7.66327E-04
 -1     24886 3.30239E+00 4.17361E+00 2.46641E+00 4.78221E+00 4.30440E-04-9.05595E-04
 -1     24887 3.50149E+00 4.03696E+00 2.48728E+00 4.83774E+00 4.96669E-04-6.70608E-04
 -1     24888 2.18383E+00 3.70889E+00 1.94434E+00 4.14854E+00 5.15309E-04-4.12504E-05
 -1     24889-2.34034E+00 3.80343E+00 4.83557E-01 2.80703E+00-3.30545E-04-1.86543E-04
 -1     24890-2.09025E+00 3.31760E+00 4.05144E-01 2.40121E+00 2.66359E-04 2.10434E-04
 -1     24891-2.98427E+00 3.02244E+00 1.28289E-02 1.97969E+00 1.35915E-04 3.61790E-04
 -1     24892-7.04478E+00-1.23355E+00-2.73019E+00 9.99228E-01-5.74329E-03-1.05469E-02
 -1     24893 3.68122E+00 3.88212E+00 2.49549E+00 4.88566E+00 2.80640E-04-6.24026E-04
 -1     24894 3.90711E+00 3.73589E+00 2.52202E+00 4.95696E+00 7.43176E-05-6.07331E-04
 -1     24895 2.54253E+00 3.42046E+00 1.96741E+00 4.25443E+00 2.34052E-04-4.20522E-04
 -1     24896-1.43340E+00-1.11002E+00-8.39211E-01 2.54419E+00 1.42623E-04-1.81957E-03
 -1     24897-2.78271E+00-1.17924E+00-1.30762E+00 2.23948E+00-2.33082E-04 3.71007E-03
 -1     24898 7.60380E+00 2.06794E+00 3.20515E+00 5.64211E+00 1.01611E-03 6.74423E-03
 -1     24899 7.15850E+00 1.55345E+00 2.87948E+00 5.28432E+00-1.76879E-03 5.60592E-04
 -1     24900 7.40438E+00 2.22397E+00 3.17869E+00 5.70883E+00 3.19008E-03 3.40978E-03
 -1     24901-3.68340E+00 3.93826E+00 8.36615E-02 3.22352E+00 1.59870E-03 2.94891E-03
 -1     24902 9.79524E-01-8.46450E-01 4.34919E-02 3.08088E+00-4.05646E-04-7.70707E-04
 -1     24903-1.99527E-01-9.84859E-01-3.91162E-01 2.84129E+00-9.91462E-05 6.61776E-05
 -1     24904-5.05368E-01-7.81932E-01-4.24903E-01 2.81364E+00-5.45563E-04-1.79229E-03
 -1     24905 1.76675E+00-5.13634E-01 4.13082E-01 3.36984E+00-1.22034E-03-7.02633E-04
 -1     24906 6.66188E+00 1.83835E+00 2.80654E+00 5.36414E+00-5.74393E-04 7.97766E-04
 -1     24907-2.70158E+00 3.29800E+00 1.97094E-01 2.26576E+00-4.01222E-04-1.88035E-05
 -1     24908 8.64807E+00 1.56787E+00 3.37189E+00 4.78819E+00-6.42988E-04 6.20500E-04
 -1     24909-3.54141E+00 3.18737E+00-1.16596E-01 2.07520E+00 2.30165E-04 5.55325E-04
 -1     24910 1.47339E+00 4.48297E+00 1.96570E+00 4.15081E+00-1.86234E-04-4.70773E-04
 -1     24911 1.85081E+00 4.47441E+00 2.08712E+00 4.27835E+00-2.20307E-05-2.67196E-04
 -1     24912 8.23002E+00 1.53847E+00 3.22591E+00 5.25008E+00 1.24577E-05 2.36055E-03
 -1     24913-5.88939E+00 5.62343E-01-1.75768E+00-3.81473E-02 2.06099E-03-6.96822E-04
 -1     24914-5.71375E+00 7.14342E-01-1.64908E+00-4.07374E-03-2.00911E-04-3.75656E-04
 -1     24915-4.76661E+00 7.65059E-01-1.32055E+00 5.52325E-01 6.08309E-04 1.10853E-03
 -1     24916 6.24386E+00 2.80251E+00 2.98567E+00 5.65007E+00-4.53886E-05-3.83956E-04
 -1     24917 6.50370E+00 2.63503E+00 3.01414E+00 5.66394E+00-1.31015E-03-1.75113E-03
 -1     24918 5.31213E+00 2.38479E+00 2.54127E+00 5.19460E+00-1.13272E-03-1.21936E-03
 -1     24919 3.03510E+00 3.13905E+00 2.03742E+00 4.43263E+00-8.61720E-04-6.05094E-04
 -1     24920-4.13833E+00-1.25011E+00-1.77564E+00 1.87677E+00 5.62414E-04 1.47659E-04
 -1     24921-5.69735E+00-1.24641E+00-2.28495E+00 1.45930E+00-1.66721E-03 6.08247E-05
 -1     24922-5.59713E+00-9.61181E-01-2.15893E+00 1.31504E+00 1.80822E-03-8.50285E-03
 -1     24923-3.00799E+00-9.46418E-01-1.30770E+00 2.13811E+00 1.68935E-03 7.17065E-03
 -1     24924-2.32926E+00 4.30345E+00 6.53259E-01 3.34984E+00 1.13183E-03 1.26273E-03
 -1     24925-2.03587E+00 4.61231E+00 8.50741E-01 3.72375E+00 3.42275E-04 7.03113E-04
 -1     24926 6.00879E+00 2.09247E+00 2.66937E+00 5.30156E+00-2.92066E-03-2.66676E-03
 -1     24927 6.85904E+00 9.63132E-01 2.58383E+00 4.86843E+00 4.27221E-03-6.53122E-04
 -1     24928 1.56650E+00 2.61325E+00 1.37959E+00 3.68858E+00-2.62727E-04 2.67061E-04
 -1     24929 1.88320E+00 2.48456E+00 1.44211E+00 3.81745E+00-7.12034E-05 1.69023E-04
 -1     24930 2.59274E+00 4.44929E+00 2.32392E+00 4.55749E+00-5.79911E-05-1.73759E-04
 -1     24931 1.71516E+00 3.90316E+00 1.85407E+00 3.99650E+00-1.49787E-04-3.19067E-04
 -1     24932 2.27644E+00 4.49210E+00 2.23363E+00 4.44777E+00-3.15919E-04-4.76745E-04
 -1     24933-1.49775E+00 3.40081E+00 6.28223E-01 2.60684E+00 1.98307E-04 1.54957E-04
 -1     24934-8.65539E-01 3.82158E+00 9.75499E-01 3.06400E+00-1.66807E-04-1.66956E-04
 -1     24935 6.42767E-01 4.45896E+00 1.68359E+00 3.88186E+00-1.99553E-05-3.84913E-04
 -1     24936-1.38289E+00 3.29657E+00 6.31531E-01 2.57426E+00 3.58875E-04 2.89987E-04
 -1     24937 6.64471E+00 1.09791E+00 2.55326E+00 4.94830E+00 1.07568E-03 5.87901E-04
 -1     24938 6.14693E+00 6.68102E-01 2.23949E+00 4.60711E+00 3.25978E-03 5.43652E-03
 -1     24939 5.33070E+00 4.15155E-01 1.89125E+00 4.38761E+00 3.26079E-03 5.17690E-03
 -1     24940 6.44713E+00 1.23869E+00 2.53719E+00 5.02292E+00-1.84997E-03 3.19003E-04
 -1     24941 3.57083E+00 2.32822E+00 1.94045E+00 4.54590E+00 5.55718E-04-2.40077E-03
 -1     24942 3.96770E+00 2.19075E+00 2.03441E+00 4.66918E+00-4.67012E-03-3.58386E-04
 -1     24943-4.07394E+00 5.81404E-01-1.15260E+00 1.05940E+00 8.55390E-04-8.83673E-05
 -1     24944-3.79421E+00 7.92901E-01-9.90404E-01 1.09843E+00 5.25955E-05 8.23801E-05
 -1     24945-2.74499E+00 3.44043E+00 2.29994E-01 2.39403E+00-3.46258E-04-3.11967E-06
 -1     24946 1.06299E+00 4.46683E+00 1.82478E+00 4.00935E+00 1.71074E-04-1.85008E-04
 -1     24947 1.45093E-01 3.92086E+00 1.34172E+00 3.41030E+00-1.86160E-04-3.38569E-04
 -1     24948 2.57408E+00 2.47383E+00 1.66673E+00 4.13683E+00-8.22793E-04-5.57006E-03
 -1     24949 3.00728E+00 2.37705E+00 1.77145E+00 4.32067E+00-3.43972E-03-8.59294E-03
 -1     24950 2.38925E+00 1.90553E+00 1.41646E+00 3.98028E+00-5.22883E-04-2.95344E-03
 -1     24951 1.12249E+00 1.98149E+00 1.02448E+00 3.42387E+00 1.08984E-03 1.46634E-04
 -1     24952-5.63277E+00 8.43332E-01-1.58099E+00 1.52213E-02 9.30199E-04 6.13999E-04
 -1     24953-5.48514E+00 9.83818E-01-1.48507E+00 7.07384E-02 8.45581E-05-5.26060E-04
 -1     24954-4.33775E+00 1.37305E+00-9.77705E-01 6.70093E-01 5.75034E-04-5.91976E-04
 -1     24955-4.50691E+00 1.08508E+00-1.12911E+00 6.00810E-01-1.73461E-03-7.87388E-04
 -1     24956 9.96398E-01 3.95333E+00 1.63338E+00 3.72344E+00-1.61571E-04-2.70059E-04
 -1     24957-2.32737E-01 3.47471E+00 1.07014E+00 3.05258E+00-1.58383E-04 1.06401E-04
 -1     24958 2.01428E-01 3.48381E+00 1.21662E+00 3.22531E+00 1.98237E-04-1.36743E-04
 -1     24959 6.09524E-01 3.49403E+00 1.35386E+00 3.39556E+00-1.49008E-04-4.38515E-04
 -1     24960 8.98296E-01 3.42685E+00 1.42715E+00 3.49655E+00 3.30704E-05-3.40355E-04
 -1     24961-6.04136E-01 3.02024E+00 7.97264E-01 2.72870E+00-1.44501E-05-4.56772E-04
 -1     24962-2.32580E+00 2.49216E+00 5.28257E-02 1.84201E+00-9.54942E-05-1.52700E-03
 -1     24963-1.74398E+00 2.86613E+00 3.69603E-01 2.21899E+00-1.72158E-03-1.23322E-03
 -1     24964-5.64082E+00-7.25162E-01-2.09986E+00 1.17749E+00 4.92550E-04-8.34526E-04
 -1     24965-5.52013E+00-5.09498E-01-1.99281E+00 1.05050E+00 1.52068E-03-4.76316E-03
 -1     24966-4.39498E+00-7.55770E-01-1.70146E+00 1.63515E+00-1.33542E-03-1.47934E-03
 -1     24967 4.48811E+00 2.01400E-01 1.54559E+00 4.14896E+00 1.50846E-03-5.32046E-05
 -1     24968 3.56682E+00-2.96915E-03 1.17650E+00 3.91398E+00-4.99929E-03-9.25109E-03
 -1     24969 5.11407E+00 5.89340E-01 1.87959E+00 4.45825E+00 1.86968E-03 6.16487E-03
 -1     24970 1.48724E+00 2.84549E+00 1.42959E+00 3.66752E+00 2.06089E-04-6.04832E-04
 -1     24971 3.22449E-01 2.21355E+00 8.37187E-01 3.05266E+00-5.24549E-04 8.74075E-05
 -1     24972 1.31890E+00 3.00952E+00 1.42793E+00 3.61007E+00 4.06627E-04-5.74113E-04
 -1     24973 1.04208E+00 3.31057E+00 1.43608E+00 3.53656E+00 2.38695E-04-6.51063E-04
 -1     24974 1.22577E+00 3.17752E+00 1.45319E+00 3.59208E+00 1.00464E-03 1.29623E-04
 -1     24975-6.11431E-02 2.89889E+00 9.37469E-01 2.93753E+00-9.07198E-04-3.59458E-04
 -1     24976-4.44434E+00 3.35307E-01-1.35695E+00 9.73742E-01 4.06146E-04-3.96122E-04
 -1     24977-3.07283E+00 6.71503E-01-7.91902E-01 1.55929E+00 2.89530E-03-1.10375E-03
 -1     24978-4.76105E+00 1.30485E-01-1.52232E+00 9.56996E-01 6.37630E-03 6.86407E-03
 -1     24979 2.64298E+00-1.66272E-01 8.18186E-01 3.66257E+00-1.93311E-04-2.68241E-03
 -1     24980 1.59191E+00-2.91562E-01 4.28677E-01 3.41048E+00 1.36556E-04 2.87091E-04
 -1     24981 3.36347E+00 2.26719E-01 1.18854E+00 3.96446E+00-3.04892E-03-6.63852E-03
 -1     24982 5.94951E+00 1.53830E+00 2.46993E+00 5.07879E+00-1.99402E-04 7.54771E-05
 -1     24983 6.27543E+00 1.41787E+00 2.54348E+00 5.08560E+00-2.80263E-03 9.90826E-04
 -1     24984-2.92675E+00 2.15989E+00-2.53119E-01 1.47457E+00-6.36806E-04-6.64832E-04
 -1     24985-1.62656E+00 2.66386E+00 3.40771E-01 2.18580E+00 5.63226E-04-1.13508E-03
 -1     24986-1.21239E+00 2.66876E+00 4.82412E-01 2.35957E+00-1.45495E-03-3.72375E-04
 -1     24987-3.24148E+00 1.91406E+00-4.38800E-01 1.27026E+00-5.60868E-04 1.16709E-05
 -1     24988-9.60619E-01 3.31048E+00 7.75191E-01 2.71696E+00 8.67266E-04-9.38636E-05
 -1     24989-3.55575E+00 1.01554E+00-8.38660E-01 1.16318E+00 5.47076E-04 8.49578E-04
 -1     24990-3.39209E+00 1.19665E+00-7.24098E-01 1.19250E+00 3.82622E-04 1.02564E-03
 -1     24991-2.45070E+00 1.18325E+00-4.18299E-01 1.72402E+00 1.05992E-03 8.42508E-04
 -1     24992 4.35526E+00 2.04177E+00 2.11565E+00 4.78012E+00-2.97605E-03-1.22058E-03
 -1     24993 4.69246E+00 1.86406E+00 2.16780E+00 4.84636E+00-6.61854E-04-5.89782E-03
 -1     24994 3.34672E+00 1.68246E+00 1.66048E+00 4.32645E+00-2.23854E-04 2.26405E-03
 -1     24995 4.98085E+00 1.63222E+00 2.18162E+00 4.87674E+00 4.23606E-04-3.31046E-04
 -1     24996 5.33760E+00 1.50451E+00 2.25695E+00 4.91561E+00 4.44841E-04 1.98501E-03
 -1     24997 4.03071E+00 1.29120E+00 1.75615E+00 4.47011E+00 5.68956E-04-7.03325E-03
 -1     24998 4.63531E-01-4.42067E-01 6.68219E-03 3.09449E+00-3.75573E-04-2.38869E-03
 -1     24999-6.89719E-01-5.34902E-01-4.03836E-01 2.79288E+00 6.96724E-04-3.89179E-03
 -1     25000 1.36297E+00-6.84551E-02 4.26706E-01 3.39829E+00 1.34441E-03 3.28201E-04
 -1     25001 5.75090E+00 9.58602E-01 2.21249E+00 4.75574E+00-1.29821E-03 3.17786E-03
 -1     25002-1.89068E+00-6.66391E-01-8.46524E-01 2.42717E+00 2.56908E-03-4.41550E-03
 -1     25003-3.16002E+00-7.04392E-01-1.27252E+00 2.04733E+00-3.42764E-03-5.39344E-04
 -1     25004-3.21990E+00-4.71343E-01-1.21976E+00 1.94263E+00-2.75678E-03-9.07585E-04
 -1     25005-8.80535E-01-3.09205E-01-3.87281E-01 2.72274E+00-8.99393E-04-1.21723E-03
 -1     25006 4.94593E+00 1.10409E+00 1.99879E+00 4.65903E+00-1.35481E-03 9.57574E-04
 -1     25007 4.91867E+00 7.48926E-01 1.87160E+00 4.51099E+00 1.90413E-03 4.86190E-03
 -1     25008 4.25983E+00 7.11299E-01 1.64186E+00 4.34919E+00-2.34086E-04 3.69042E-03
 -1     25009-5.36077E+00-2.87807E-01-1.85945E+00 9.80055E-01 2.02190E-03-2.67959E-03
 -1     25010-5.09328E+00-9.15083E-02-1.70941E+00 9.15208E-01 2.50802E-03 2.50369E-03
 -1     25011-3.79717E+00 1.64846E-01-1.20204E+00 1.42151E+00-1.97069E-03-3.14043E-04
 -1     25012-4.29528E+00-3.04415E-01-1.52502E+00 1.44493E+00 5.15704E-04 3.93552E-04
 -1     25013 3.39334E+00 5.59323E-01 1.30617E+00 4.09619E+00 7.65809E-04 3.48660E-03
 -1     25014-2.10023E+00 7.67115E-01-4.42710E-01 2.02551E+00-2.25505E-03-6.75870E-03
 -1     25015-1.72678E+00 1.05606E+00-2.21547E-01 2.12036E+00-4.11100E-04-2.56511E-03
 -1     25016-3.20170E+00 1.81241E+00-4.58632E-01 1.26375E+00-8.44782E-04-5.64628E-04
 -1     25017-2.19669E+00 2.20227E+00 3.11937E-03 1.81080E+00-5.35384E-04-2.10622E-04
 -1     25018-3.28071E+00 1.65907E+00-5.37285E-01 1.21550E+00-1.43530E-03-1.03762E-03
 -1     25019-9.60156E-01 1.94427E+00 3.24529E-01 2.41514E+00-1.30512E-03-6.34986E-04
 -1     25020-8.91504E-01 1.72197E+00 2.74029E-01 2.44842E+00-4.06786E-04-3.19874E-04
 -1     25021 1.69444E-01 2.60557E+00 9.15904E-01 3.00287E+00 7.26869E-04-3.44832E-04
 -1     25022 2.40691E+00 1.43524E+00 1.26718E+00 3.94792E+00-3.00210E-03-9.25153E-04
 -1     25023 2.81826E+00 1.28318E+00 1.35526E+00 4.07449E+00-3.29437E-03 2.43847E-03
 -1     25024 2.94922E+00 1.05184E+00 1.32127E+00 4.08169E+00-2.96300E-03 1.25342E-03
 -1     25025 3.22820E+00 8.18194E-01 1.33442E+00 4.11475E+00 4.67854E-04 7.01299E-04
 -1     25026 2.28230E+00 3.24798E-01 8.60402E-01 3.71857E+00 1.41851E-03 8.58753E-04
 -1     25027 1.99559E+00 8.13188E-01 9.26234E-01 3.71745E+00-1.07358E-03 6.35283E-04
 -1     25028 1.22734E+00 1.98579E-01 4.70073E-01 3.40354E+00 1.69412E-03 1.38644E-03
 -1     25029-2.05069E-01 1.54915E+00 4.44542E-01 2.82629E+00 2.32763E-05 7.26164E-04
 -1     25030 5.33109E-01 1.54231E+00 6.85583E-01 3.16636E+00 2.38555E-03 2.71569E-03
 -1     25031 1.22203E+00 1.52920E+00 9.09578E-01 3.47758E+00 4.40330E-03 1.85972E-05
 -1     25032 1.80918E+00 1.46216E+00 1.08037E+00 3.71358E+00 5.29154E-04-2.88915E-03
 -1     25033 1.27952E+00 1.09409E+00 7.85052E-01 3.46924E+00-1.32790E-03-3.19463E-03
 -1     25034-5.10572E-02 1.13821E+00 3.59398E-01 2.90588E+00 1.46163E-03 3.38515E-03
 -1     25035-3.34969E+00 1.36611E+00-6.53316E-01 1.19473E+00-1.57324E-03 2.40208E-04
 -1     25036-3.26174E+00 1.52438E+00-5.73258E-01 1.21692E+00-2.06910E-04-1.67720E-04
 -1     25037-2.14695E+00 1.94276E+00-6.83516E-02 1.80075E+00-8.46396E-04-1.88163E-04
 -1     25038-2.17215E+00 1.61275E+00-1.83245E-01 1.79629E+00-3.28894E-03-1.67703E-03
 -1     25039 1.01462E+00 4.61769E-01 4.86382E-01 3.35177E+00-1.62440E-04 1.59165E-03
 -1     25040 6.65292E-02 5.23772E-02 4.03325E-02 3.01960E+00 1.41429E-03-1.73047E-03
 -1     25041-1.06112E+00-4.42047E-02-3.64570E-01 2.64969E+00 1.93144E-03-4.82580E-04
 -1     25042 8.93286E-01 6.91993E-01 5.20564E-01 3.32548E+00-7.79416E-04 3.28176E-03
 -1     25043-9.26161E-01 2.12840E+00 3.98403E-01 2.41826E+00-7.35702E-04-4.61936E-04
 -1     25044-1.01437E+00 2.28955E+00 4.20904E-01 2.38919E+00 1.73976E-03 8.43231E-04
 -1     25045-1.17489E+00 2.55328E+00 4.57477E-01 2.35125E+00-1.24068E-03-4.08081E-04
 -1     25046-1.02744E+00 2.43782E+00 4.65178E-01 2.39471E+00 6.59061E-04 1.05310E-03
 -1     25047-2.52432E+00 4.60018E-01-6.78359E-01 1.90379E+00-1.40343E-03 7.78415E-04
 -1     25048-1.21510E+00 8.04404E-01-1.36630E-01 2.44391E+00 1.77163E-03-1.17332E-03
 -1     25049-4.89367E-01 7.89752E-01 9.97845E-02 2.76341E+00-5.34885E-04-1.28981E-03
 -1     25050-2.86700E+00 2.06918E-01-8.79518E-01 1.85056E+00-2.08128E-03-1.01939E-04
 -1     25051-2.22843E+00-2.38404E-01-8.16112E-01 2.24054E+00-4.61694E-03 2.44226E-03
 -1     25052-3.39254E+00-2.78061E-01-1.21781E+00 1.82196E+00-4.01773E-03-4.01251E-03
 -1     25053-3.26085E+00-4.35626E-02-1.09614E+00 1.76603E+00-2.23649E-03-2.37581E-03
 -1     25054-1.24110E+00 1.41345E-01-3.63293E-01 2.54797E+00-3.33620E-03 7.46190E-04
 -1     25055-1.12839E+00 1.45657E+00 1.08843E-01 2.37119E+00 1.11159E-03 6.16819E-04
 -1     25056 2.55213E-01 7.11601E-01 3.19661E-01 3.08200E+00-2.02696E-04-2.45312E-03
 -1     25057-2.02463E+00 2.14762E-01-5.95128E-01 2.22046E+00-3.77032E-03-6.72419E-04
 -1     25058-8.63330E-01 4.20370E-01-1.39759E-01 2.64150E+00 7.84075E-04-3.69237E-04
 -1     25059 1.05862E+00 2.27498E+00 1.10016E+00 3.41203E+00-1.29043E-04 6.13071E-04
 -1     25060 2.21028E+00 2.91101E+00 1.68992E+00 4.01961E+00-2.80315E-04-3.23718E-04
 -1     25061 9.78842E-01 2.50919E+00 1.15082E+00 3.38497E+00 6.77959E-04 7.16175E-04
 -1     25062-1.68913E+01-1.75803E+00-6.15401E+00-5.46110E+00 9.98381E-04 1.38502E-03
 -1     25063-1.59479E+01-1.57934E+00-5.78357E+00-5.05050E+00-4.14612E-03-3.53075E-03
 -1     25064-1.55964E+01-1.51486E+00-5.64672E+00-4.88299E+00-3.96675E-04-1.14050E-03
 -1     25065-1.67101E+01-1.72742E+00-6.08345E+00-5.37488E+00 1.28423E-04-8.58738E-04
 -1     25066-1.70688E+01-1.79173E+00-6.22438E+00-5.53518E+00 5.30909E-04 1.79307E-03
 -1     25067-1.57679E+01-1.55128E+00-5.71647E+00-4.96406E+00 7.26641E-04-5.44994E-03
 -1     25068 9.23889E+00 3.27542E+00 4.12972E+00 6.54068E+00-3.50074E-04 1.26029E-05
 -1     25069 9.57123E+00 3.96424E+00 4.46668E+00 6.98983E+00-9.09239E-05 3.68371E-04
 -1     25070 9.15331E+00 3.46293E+00 4.16352E+00 6.64713E+00 1.33040E-04-2.97829E-04
 -1     25071 8.75870E+00 2.42783E+00 3.69368E+00 5.96203E+00-2.39017E-03 9.60186E-04
 -1     25072 8.76360E+00 2.42868E+00 3.69372E+00 5.95787E+00 1.72009E-03-6.46231E-04
 -1     25073 9.31463E+00 3.12272E+00 4.10444E+00 6.42447E+00 5.37169E-04-5.81515E-04
 -1     25074 8.87060E+00 2.30833E+00 3.68867E+00 5.84097E+00 1.58359E-05-5.71480E-05
 -1     25075 7.13153E+00 3.55534E+00 3.52553E+00 4.90010E+00 3.16324E-03 1.91511E-03
 -1     25076 7.30633E+00 3.57659E+00 3.59109E+00 4.95912E+00 8.37482E-04 5.23665E-04
 -1     25077 7.44824E+00 3.50804E+00 3.61541E+00 4.88470E+00 1.45304E-03 9.79630E-04
 -1     25078 7.03180E+00 4.44686E+00 3.78799E+00 6.49676E+00 1.63284E-04-9.38931E-05
 -1     25079 6.04977E+00 3.93038E+00 3.29329E+00 5.92533E+00 1.14354E-03 7.50840E-04
 -1     25080 6.34788E+00 3.79234E+00 3.34626E+00 6.00738E+00 2.08125E-03 1.84060E-03
 -1     25081-1.29683E+01-7.78714E-01-4.53644E+00-3.53784E+00-7.68553E-04 1.65944E-04
 -1     25082-1.17602E+01-4.33555E-01-4.02238E+00-2.94125E+00 3.47411E-03 2.26343E-04
 -1     25083-1.31858E+01-8.60718E-01-4.63490E+00-3.68001E+00 1.66134E-03-2.16862E-03
 -1     25084 8.79926E+00 2.59564E+00 3.76013E+00 4.77945E+00 7.04759E-05-2.00700E-03
 -1     25085 8.69510E+00 2.53346E+00 3.70525E+00 4.53881E+00-8.07535E-04-1.61889E-03
 -1     25086 8.80849E+00 2.36747E+00 3.68808E+00 4.63875E+00-2.37809E-04-1.83378E-03
 -1     25087 8.46234E+00 2.10275E+00 3.48513E+00 4.16721E+00-6.28859E-04-1.43939E-03
 -1     25088 8.26623E+00 1.83474E+00 3.33328E+00 3.99079E+00 3.08987E-03 1.14046E-03
 -1     25089 8.73933E+00 2.14763E+00 3.59296E+00 4.48923E+00 1.75443E-03 7.09146E-04
 -1     25090 8.27899E+00 1.85699E+00 3.34542E+00 3.99685E+00-2.78228E-03 1.77253E-04
 -1     25091 8.60655E+00 1.89937E+00 3.46695E+00 4.33295E+00 4.73812E-04 1.80363E-03
 -1     25092-1.09751E-01 1.18825E+01 3.88018E+00 6.66625E+00 2.87828E-03-7.99183E-03
 -1     25093-4.84871E-02 1.12765E+01 3.70327E+00 6.76582E+00-1.82264E-02 1.91520E-04
 -1     25094-1.02579E-01 1.14585E+01 3.76173E+00 6.69925E+00-1.06122E-02-1.03723E-02
 -1     25095-1.30651E+01-9.34513E-01-4.61852E+00-3.71425E+00 1.18463E-04-7.37325E-04
 -1     25096-1.42317E+01-1.20842E+00-5.09471E+00-4.27077E+00-1.88109E-03 1.49156E-03
 -1     25097-1.28612E+01-8.57979E-01-4.52615E+00-3.61275E+00-5.57441E-04-1.10109E-04
 -1     25098 3.06936E+00 1.49385E+00 1.50707E+00 4.19732E+00-3.86963E-04 2.19811E-03
 -1     25099 2.65895E+00 1.63575E+00 1.41733E+00 4.06210E+00 7.99184E-04-1.91857E-03
 -1     25100 2.12092E+00 1.25497E+00 1.11425E+00 3.81196E+00 1.83244E-03-9.85277E-05
 -1     25101-1.26683E+00-1.88136E+00-1.03897E+00 2.17967E+00 5.52494E-04 1.35187E-04
 -1     25102-2.65516E+00-2.06522E+00-1.55778E+00 1.97446E+00 3.45415E-04-7.74020E-04
 -1     25103-1.77135E+00-1.78279E+00-1.17288E+00 2.26344E+00-3.56503E-04 3.28526E-04
 -1     25104-3.15014E+00-1.95826E+00-1.68578E+00 2.05752E+00-1.05747E-03 1.73060E-04
 -1     25105-1.21758E+01-7.02051E-01-4.24983E+00-3.28284E+00 3.30390E-04 4.52944E-04
 -1     25106-1.23724E+01-7.85057E-01-4.34207E+00-3.38533E+00-8.39346E-05 3.85333E-04
 -1     25107-1.10138E+01-4.36021E-01-3.77830E+00-2.72276E+00 2.12903E-04 3.01221E-05
 -1     25108-1.12052E+01-5.21697E-01-3.86988E+00-2.82336E+00-3.25569E-04-5.67959E-04
 -1     25109 6.93478E+00 3.67843E+00 3.50245E+00 4.94832E+00-1.92637E-03 1.15935E-03
 -1     25110 6.74503E+00 3.50547E+00 3.38280E+00 4.81963E+00 1.43599E-03 1.54983E-03
 -1     25111 6.53551E+00 3.63899E+00 3.35862E+00 4.84294E+00-1.45359E-03-2.79475E-03
 -1     25112 6.80757E+00 3.58681E+00 3.42764E+00 4.87589E+00 2.12143E-03-6.08613E-04
 -1     25113 4.61329E+00 8.60311E+00 4.37303E+00 7.37726E+00-7.53704E-03-2.79715E-02
 -1     25114 7.07904E+00 8.35197E+00 5.09805E+00 7.88212E+00-1.87773E-02-2.15490E-02
 -1     25115 4.35639E+00 8.31879E+00 4.17987E+00 7.09708E+00-1.51517E-02-1.67419E-02
 -1     25116 3.51716E+00 8.68285E+00 4.02519E+00 7.19272E+00 4.39346E-03 4.70016E-04
 -1     25117 5.94972E+00 8.71952E+00 4.84174E+00 7.84277E+00-6.67083E-03-8.05941E-03
 -1     25118 5.84108E+00 8.51355E+00 4.72023E+00 7.59440E+00-6.87313E-04-9.37762E-04
 -1     25119-3.01557E+01-7.27287E+00-1.24104E+01 8.25535E-01 2.46936E-01-2.26650E-01
 -1     25120-2.69522E+01-6.85851E+00-1.12934E+01 7.28111E-01 6.21528E-02-1.25852E-01
 -1     25121-3.19490E+01-3.30161E+00-1.15333E+01-9.74926E-01-6.94924E-02 9.18832E-02
 -1     25122-3.24610E+01-1.94456E+00-1.16989E+01-1.09143E+00 4.03772E-02-1.60471E-01
 -1     25123-2.85854E+01-7.47210E+00-1.17594E+01 9.05549E-01 8.71461E-02-3.38733E-03
 -1     25124-2.92242E+01-3.69427E+00-1.08778E+01-9.12213E-01-2.37766E-02-1.65502E-02
 -1     25125 9.11732E+00 2.26779E+00 3.75753E+00 5.18897E+00-1.92721E-03 7.74797E-04
 -1     25126 9.06785E+00 2.30148E+00 3.75118E+00 5.05122E+00-2.17554E-03-1.43569E-03
 -1     25127 8.93194E+00 2.05586E+00 3.62544E+00 4.89030E+00-1.68227E-03-7.16934E-05
 -1     25128-6.96564E-01 7.52638E+00 2.30970E+00 4.94694E+00-5.34053E-02-6.64832E-02
 -1     25129-1.98339E+00 2.94886E+00 2.20401E-01 2.29315E+00-7.72834E-02 8.96715E-02
 -1     25130-6.97946E-01 7.84887E+00 2.33609E+00 4.74031E+00 2.90955E-02 1.79591E-02
 -1     25131-2.03484E+00 1.97467E+00 1.60895E-02 1.90799E+00 5.25027E-02 2.18117E-03
 -1     25132-1.87931E+00 2.78668E+00 2.18643E-01 2.09648E+00 8.52766E-02 2.64097E-02
 -1     25133 8.53750E+00 1.77835E+00 3.40626E+00 5.44777E+00-4.94093E-03 1.91026E-03
 -1     25134 8.02781E+00 1.41250E+00 3.11756E+00 5.19767E+00 4.50670E-04 3.41303E-03
 -1     25135 8.14672E+00 1.34252E+00 3.13120E+00 5.07741E+00-1.05219E-03 5.43727E-03
 -1     25136 9.94057E+00 4.66390E+00 4.81947E+00 7.43434E+00-1.02275E-03 3.58316E-04
 -1     25137 9.50931E+00 4.15177E+00 4.50831E+00 7.09866E+00-4.53149E-04-2.67145E-04
 -1     25138 7.11127E+00 5.35125E-01 2.52329E+00 4.01532E+00 7.48726E-04-3.84097E-04
 -1     25139 7.20481E+00 6.66507E-01 2.59734E+00 3.84159E+00 1.88863E-04 6.20715E-04
 -1     25140 7.58779E+00 8.36943E-01 2.77982E+00 4.15715E+00-1.80347E-04-6.39511E-04
 -1     25141 7.66651E+00 9.34235E-01 2.83794E+00 3.99735E+00 1.18227E-03 8.17814E-04
 -1     25142 1.31755E+01 1.11132E+01 8.01519E+00 1.21063E+01 6.19447E-04-2.63427E-03
 -1     25143 1.31464E+01 1.10934E+01 8.00118E+00 1.20825E+01-6.89367E-04 2.25245E-03
 -1     25144 1.31647E+01 1.11022E+01 8.00693E+00 1.20944E+01-9.31073E-04-8.62992E-04
 -1     25145-6.95279E+00 1.35486E+00-1.84755E+00-2.27269E-01 3.57378E-04 5.75338E-04
 -1     25146-5.85984E+00 1.73673E+00-1.36077E+00 3.11445E-01-2.19921E-04 2.20375E-04
 -1     25147-7.21683E+00 1.15541E+00-2.00027E+00-4.71377E-01 1.13056E-03 1.35092E-03
 -1     25148-1.06690E+00 6.82890E-01-1.27736E-01 2.52925E+00-5.05593E-03 1.43465E-03
 -1     25149-1.80378E+00 6.98610E-01-3.65205E-01 2.19234E+00-2.42212E-03-3.13634E-04
 -1     25150-1.75672E-01 8.48428E-01 2.21258E-01 2.89226E+00-1.53308E-04-2.66239E-04
 -1     25151 1.52519E+00 1.28308E+00 9.27991E-01 3.57937E+00 3.65723E-03-8.25080E-04
 -1     25152 8.21779E-01 1.31192E+00 7.03842E-01 3.27663E+00 1.56316E-03 2.16244E-03
 -1     25153 1.12003E-01 8.46167E+00 2.80309E+00 6.93906E+00-1.40779E-02 2.42622E-02
 -1     25154-2.85592E-01 7.92516E+00 2.49906E+00 7.22325E+00 1.43561E-02 1.18601E-02
 -1     25155-1.65999E-01 8.49175E+00 2.76284E+00 7.58289E+00 4.59653E-02-2.96594E-03
 -1     25156-2.00234E-01 9.00394E+00 2.93308E+00 7.84090E+00 2.42301E-02 8.44444E-03
 -1     25157 5.46090E-02 8.61079E+00 2.84883E+00 7.49571E+00-1.52168E-02-1.64803E-02
 -1     25158-1.12788E-01 8.96839E+00 2.92369E+00 7.91368E+00 5.11795E-02-3.28781E-02
 -1     25159 1.26674E+00 3.10990E+00 1.44409E+00 3.59791E+00-7.98594E-05-1.72992E-05
 -1     25160 1.25547E-01 2.71933E+00 9.38847E-01 2.98919E+00 2.24190E-04 3.52301E-04
 -1     25161 2.09976E-01 2.54779E+00 9.09897E-01 3.01315E+00-5.21982E-04 1.34180E-04
 -1     25162 9.90081E+00 9.53763E+00 6.41325E+00 9.86895E+00-4.32500E-04 1.85517E-03
 -1     25163 1.03125E+01 9.75924E+00 6.62310E+00 1.01451E+01-6.25311E-04-1.44224E-03
 -1     25164 1.24951E+01 1.07314E+01 7.66537E+00 1.15443E+01-9.32320E-05 3.00893E-03
 -1     25165 1.13385E+01 1.01737E+01 7.09898E+00 1.07844E+01-4.90531E-04-1.05787E-03
 -1     25166 1.17985E+01 1.04042E+01 7.32862E+00 1.10619E+01 1.46830E-03 5.62257E-03
 -1     25167-6.18853E+00 3.78194E-01-1.91750E+00-1.14552E-01 9.69664E-05 3.34793E-05
 -1     25168-5.95138E+00 5.40924E-01-1.78561E+00-6.74835E-02-3.30362E-04 1.74912E-05
 -1     25169-5.06059E+00 5.64487E-01-1.48371E+00 4.75564E-01-4.56105E-05-1.08021E-04
 -1     25170-4.82791E+00 7.45141E-01-1.34736E+00 5.22151E-01-6.03776E-04-1.45825E-04
 -1     25171 2.06555E+00 6.38920E+00 2.79005E+00 5.61882E+00 8.77788E-04 4.88626E-04
 -1     25172 3.51503E+00 6.96254E+00 3.45792E+00 6.32103E+00 1.01670E-03 1.21772E-03
 -1     25173 3.03714E+00 6.97696E+00 3.30536E+00 6.23113E+00-1.11081E-03 6.26487E-04
 -1     25174 3.14410E+00 7.01284E+00 3.35200E+00 6.27684E+00 7.08549E-04-1.08965E-04
 -1     25175 4.48548E+00 7.55542E+00 3.97498E+00 6.93840E+00 5.37144E-04 1.69793E-03
 -1     25176 9.47045E-01 4.40313E+00 1.76556E+00 3.93511E+00 5.40746E-05 1.02906E-04
 -1     25177-1.91316E-01 3.74143E+00 1.17162E+00 3.20516E+00-2.16273E-04-3.36653E-04
 -1     25178 1.36081E+00 4.41848E+00 1.90711E+00 4.07755E+00-6.95778E-05 1.16664E-05
 -1     25179 2.23786E-01 3.75128E+00 1.31174E+00 3.34707E+00 3.18138E-04-2.91876E-04
 -1     25180 1.75699E-01 3.46059E+00 1.19998E+00 3.20357E+00-4.81022E-05 1.12189E-04
 -1     25181 5.81181E-01 3.46308E+00 1.33466E+00 3.37240E+00-1.06462E-05 4.75885E-04
 -1     25182-4.87912E-01 3.05448E+00 8.46894E-01 2.79045E+00 3.71224E-04 8.01369E-04
 -1     25183-1.68965E+00 2.61565E+00 3.05402E-01 2.14346E+00 7.77001E-04-4.20003E-04
 -1     25184-1.26664E+00 2.63136E+00 4.50685E-01 2.32254E+00-5.95048E-04 2.07210E-05
 -1     25185-6.57601E+00 1.14848E+00-1.79117E+00-3.32369E-01-2.52627E-04 2.83237E-04
 -1     25186-6.34312E+00 1.33642E+00-1.65222E+00-1.34674E-01-9.53052E-05 4.74355E-04
 -1     25187-7.67725E+00 8.08264E-01-2.26677E+00-8.80799E-01-3.23054E-04 4.56147E-04
 -1     25188 7.57969E+00 4.47191E+00 3.97726E+00 5.82807E+00-1.46682E-03 3.11950E-04
 -1     25189 7.22170E+00 4.92871E+00 4.01077E+00 5.98618E+00 1.64924E-03 1.16394E-04
 -1     25190 7.88478E+00 4.53366E+00 4.09820E+00 6.00230E+00-1.31540E-03-5.69965E-05
 -1     25191 7.71933E+00 4.59981E+00 4.06485E+00 5.96921E+00-1.95289E-03-9.52290E-04
 -1     25192 7.04609E+00 4.99503E+00 3.97508E+00 5.95105E+00 8.46062E-04 1.91230E-03
 -1     25193 7.36184E+00 5.09107E+00 4.11092E+00 6.12368E+00 7.11994E-04-6.01912E-04
 -1     25194 9.08075E+00 2.60233E+00 3.85563E+00 5.21556E+00 5.63096E-03-9.19775E-04
 -1     25195 9.19812E+00 2.55846E+00 3.87760E+00 5.35594E+00 5.52871E-04 5.60759E-03
 -1     25196 9.15985E+00 2.91405E+00 3.98302E+00 5.53956E+00-3.84946E-04-9.50576E-04
 -1     25197-5.21003E+00 1.06308E+00-1.36887E+00 2.12087E-01 1.32867E-03 4.53432E-04
 -1     25198-4.99087E+00 1.23474E+00-1.24047E+00 3.35201E-01 3.95505E-04-1.11526E-04
 -1     25199-6.20685E+00 9.24482E-01-1.74319E+00-2.84153E-01 1.38744E-04-1.38700E-04
 -1     25200-6.42340E+00 7.66384E-01-1.86684E+00-4.08812E-01 2.10265E-04-1.75553E-04
 -1     25201-5.06633E+00 1.10524E+00-1.30683E+00 2.85690E-01-2.26007E-03-3.64294E-04
 -1     25202 1.06405E+01 9.49172E+00 6.64649E+00 1.01425E+01 1.50545E-03 7.53495E-04
 -1     25203 1.11542E+01 9.71241E+00 6.88742E+00 1.04774E+01-1.66103E-03 4.73025E-03
 -1     25204 9.87436E+00 8.90543E+00 6.19993E+00 9.50762E+00-9.52620E-04 4.83549E-04
 -1     25205 9.67668E+00 8.89745E+00 6.12861E+00 9.42289E+00-3.86492E-04 1.06087E-04
 -1     25206 1.09861E+01 9.70791E+00 6.82899E+00 1.03940E+01 2.36202E-04 3.35752E-03
 -1     25207 1.02372E+01 9.14016E+00 6.39234E+00 9.76222E+00-4.78613E-04-3.66068E-04
 -1     25208 8.62092E+00 6.66335E+00 5.04308E+00 7.59128E+00 2.22161E-03 1.91523E-03
 -1     25209 8.38834E+00 6.48597E+00 4.90563E+00 7.37762E+00 2.81867E-03-1.66468E-03
 -1     25210 8.85546E+00 6.25041E+00 4.98549E+00 7.46363E+00 2.96059E-03 2.37150E-03
 -1     25211 8.93095E+00 6.81506E+00 5.19680E+00 7.80474E+00 3.24201E-03 1.84191E-03
 -1     25212 8.67737E+00 6.63020E+00 5.05372E+00 7.59214E+00-1.68211E-03-7.98534E-05
 -1     25213 7.76493E+00 3.45638E+00 3.70428E+00 4.78099E+00 2.31542E-03 1.51067E-03
 -1     25214 7.97198E+00 3.43091E+00 3.76238E+00 4.70129E+00-5.02749E-04-1.03151E-03
 -1     25215 7.82330E+00 3.50425E+00 3.73958E+00 4.73803E+00-7.54839E-04-1.85929E-03
 -1     25216 7.75995E+00 3.54485E+00 3.72954E+00 4.75864E+00 1.48529E-03-1.13374E-04
 -1     25217 7.95757E+00 3.51510E+00 3.78629E+00 4.67172E+00 3.03103E-04-1.46165E-03
 -1     25218 1.03280E+01 5.41048E+00 5.19476E+00 7.86515E+00-7.85510E-04 1.30030E-03
 -1     25219 1.04850E+01 6.00306E+00 5.44054E+00 8.17942E+00-1.04335E-03 2.40566E-03
 -1     25220 1.06148E+01 6.22758E+00 5.55722E+00 8.37658E+00 9.24252E-04 4.24586E-04
 -1     25221 1.13141E+01 7.87848E+00 6.33362E+00 9.58151E+00 4.59666E-05-4.04185E-03
 -1     25222 1.08801E+01 6.94860E+00 5.88365E+00 8.93566E+00 1.43747E-03-1.74452E-03
 -1     25223 1.09103E+01 7.16650E+00 5.96818E+00 9.07621E+00 1.70251E-03-2.48815E-03
 -1     25224-2.98942E+00 3.03150E+00 1.39106E-02 1.98822E+00 2.02800E-04 2.00758E-04
 -1     25225-3.65843E+00 2.60956E+00-3.46072E-01 1.50272E+00 7.25149E-05 1.42599E-04
 -1     25226-1.46598E+00 3.74821E+00 7.53130E-01 2.86889E+00-5.09250E-04-1.23880E-04
 -1     25227-2.14155E+00 3.30671E+00 3.84530E-01 2.38184E+00 1.30620E-04 3.76565E-05
 -1     25228 9.91967E+00 4.89720E+00 4.88979E+00 7.57193E+00-1.82840E-03 8.91705E-04
 -1     25229 7.93398E+00 3.34742E+00 3.72279E+00 4.80203E+00-4.63663E-04 7.20520E-04
 -1     25230-3.39895E-01 8.82131E+00 2.80560E+00 7.89246E+00-7.45150E-03 9.94149E-03
 -1     25231-2.40159E-01 9.03405E+00 2.90824E+00 7.97564E+00 1.43964E-02-1.96954E-02
 -1     25232 2.09166E-01 9.04929E+00 3.05412E+00 7.85547E+00-2.11853E-02-1.04882E-02
 -1     25233 6.62698E+00 3.42892E+00 3.31878E+00 4.85092E+00-2.72037E-03-2.25284E-03
 -1     25234 6.80915E+00 3.47092E+00 3.39670E+00 4.86617E+00 4.71690E-04-2.44688E-03
 -1     25235 7.18993E+00 3.48487E+00 3.52461E+00 4.89417E+00 2.51262E-03-6.11730E-04
 -1     25236 7.00706E+00 3.43012E+00 3.44227E+00 4.89334E+00 5.51748E-03 1.88451E-03
 -1     25237 6.83187E+00 3.49326E+00 3.40936E+00 4.82598E+00-3.62184E-03-3.66069E-03
 -1     25238-1.26480E+01-7.68123E-01-4.42699E+00-3.47696E+00 1.03597E-03-1.83125E-03
 -1     25239-1.40415E+01-1.14602E+00-5.01196E+00-4.17196E+00 7.87156E-04-4.59977E-04
 -1     25240 6.58205E+00 4.79823E-01 2.33080E+00 4.40594E+00 9.52759E-04-2.39886E-03
 -1     25241 6.03565E+00 1.75642E-01 2.04987E+00 4.08948E+00 5.09976E-04 6.50645E-04
 -1     25242 6.79680E+00 4.47686E-01 2.39067E+00 4.30349E+00-8.41324E-04-5.83795E-04
 -1     25243 6.38886E+00 3.52382E+00 3.27070E+00 4.77543E+00-1.66405E-03-7.96801E-04
 -1     25244 6.62704E+00 3.43341E+00 3.32008E+00 4.84889E+00 6.68324E-04 2.20781E-03
 -1     25245 9.28235E+00 4.74729E+00 4.62977E+00 7.38620E+00-2.84445E-04-1.60406E-03
 -1     25246 9.14081E+00 4.95154E+00 4.65012E+00 7.44386E+00-1.52461E-03-1.10599E-03
 -1     25247 9.73760E+00 5.49784E+00 5.02769E+00 7.87477E+00-1.21597E-03-1.79988E-03
 -1     25248 9.69821E+00 5.68679E+00 5.08197E+00 7.58216E+00-5.23581E-04 5.41897E-03
 -1     25249 9.55139E+00 5.34829E+00 4.91426E+00 7.30687E+00 2.97841E-03 6.78480E-03
 -1     25250 9.70133E+00 6.28365E+00 5.27549E+00 7.89621E+00 5.03126E-06 3.90684E-04
 -1     25251 9.97385E+00 5.84267E+00 5.21797E+00 7.77966E+00 2.28744E-03 4.07803E-03
 -1     25252 9.77928E+00 4.92674E+00 4.85216E+00 7.19782E+00-3.67251E-04 3.74507E-03
 -1     25253 9.77568E+00 5.47671E+00 5.02981E+00 7.49334E+00-3.34291E-03 3.07674E-03
 -1     25254 9.41082E+00 2.72073E+00 4.00375E+00 5.91366E+00 1.56808E-03 1.83619E-03
 -1     25255 9.38993E+00 2.66139E+00 3.97695E+00 5.77747E+00 1.82870E-03 2.90556E-03
 -1     25256 9.55383E+00 3.14072E+00 4.18917E+00 6.14355E+00-5.18266E-04-1.68378E-03
 -1     25257 9.42172E+00 2.75867E+00 4.01954E+00 6.03995E+00 1.36181E-04 5.70398E-04
 -1     25258 9.57353E+00 3.21690E+00 4.22038E+00 6.27655E+00-1.85934E-03-1.45145E-03
 -1     25259-1.76074E+01-1.85385E+00-6.42252E+00-5.71004E+00-1.21983E-03 3.71174E-04
 -1     25260-1.75704E+01-1.84776E+00-6.40917E+00-5.69947E+00 1.13677E-04-9.31459E-04
 -1     25261-1.80263E+01-1.95109E+00-6.59173E+00-5.92512E+00 1.24654E-03-6.79034E-04
 -1     25262-1.64933E+01-1.66592E+00-5.99345E+00-5.22832E+00-2.73681E-03-2.37644E-03
 -1     25263-1.79881E+01-1.94777E+00-6.57852E+00-5.91481E+00 1.18717E-04 1.23324E-04
 -1     25264 1.27432E+01 1.08878E+01 7.79866E+00 1.17909E+01 2.74998E-04 2.54016E-03
 -1     25265 1.07182E+01 9.68758E+00 6.73476E+00 1.02705E+01 1.33787E-03-3.72357E-03
 -1     25266 1.16148E+01 1.02279E+01 7.20794E+00 1.09517E+01 3.74722E-04 2.28901E-03
 -1     25267 1.26628E+01 1.08457E+01 7.75930E+00 1.17294E+01-1.36139E-03 1.11946E-03
 -1     25268 1.15057E+01 1.01764E+01 7.15528E+00 1.08785E+01-1.32408E-03-3.49630E-03
 -1     25269 1.03720E+01 5.62037E+00 5.27777E+00 8.01978E+00 2.70617E-03-6.22861E-04
 -1     25270-2.45431E+01-5.57687E+00-9.92604E+00 3.42447E-01-8.71712E-03-2.59562E-02
 -1     25271-2.13066E+01-7.56446E+00-9.54220E+00 8.94958E-01-2.40037E-02 3.29289E-02
 -1     25272 1.27357E+01 1.09170E+01 7.80284E+00 1.17830E+01 8.19786E-04 7.13855E-04
 -1     25273 1.26907E+01 1.08847E+01 7.78193E+00 1.17516E+01 2.96540E-03 1.43701E-03
 -1     25274 1.06419E+01 9.68472E+00 6.70944E+00 1.02410E+01-4.06979E-04 1.15580E-03
 -1     25275 1.15813E+01 1.02111E+01 7.19074E+00 1.09237E+01 3.27320E-03 4.91550E-04
 -1     25276 8.09019E+00 2.43346E+00 3.47035E+00 3.74663E+00-3.04258E-03-1.73822E-03
 -1     25277 8.25057E+00 2.14163E+00 3.43059E+00 3.90807E+00-6.38698E-03-4.19017E-04
 -1     25278 8.31351E+00 2.66002E+00 3.62100E+00 3.99502E+00-4.17736E-03-5.50962E-03
 -1     25279 8.00728E+00 2.87831E+00 3.59144E+00 3.67356E+00 6.85643E-03-8.09750E-04
 -1     25280 7.85554E+00 2.23870E+00 3.33572E+00 3.56887E+00-3.99016E-03 1.18961E-02
 -1     25281 8.15600E+00 2.54000E+00 3.53138E+00 3.81932E+00-1.66015E-03-2.21500E-03
 -1     25282 8.87579E+00 8.21174E+00 5.63917E+00 8.75760E+00-2.14703E-03-1.71231E-03
 -1     25283 8.66166E+00 8.22270E+00 5.57106E+00 8.67702E+00 7.19826E-05-1.22453E-03
 -1     25284-1.03275E+01-9.89415E-01-3.73609E+00-3.17096E+00-4.79431E-03-3.61600E-03
 -1     25285-9.57877E+00-7.35654E-01-3.40670E+00-2.66604E+00-2.01962E-03 2.22698E-04
 -1     25286-1.08772E+01-1.05929E+00-3.93314E+00-3.38420E+00 5.38515E-04-2.77608E-03
 -1     25287-1.07065E+01-1.00770E+00-3.86317E+00-3.27934E+00-1.59266E-03 3.40455E-03
 -1     25288-9.41004E+00-6.98791E-01-3.33391E+00-2.55529E+00-3.13894E-03 6.99154E-04
 -1     25289-9.98969E+00-7.62044E-01-3.54197E+00-2.77951E+00-6.58287E-04-2.15410E-03
 -1     25290-4.50191E+00 3.02689E+00-4.86939E-01 2.81418E+00-2.71633E-03 7.83108E-04
 -1     25291-5.98894E+00 1.95686E+00-1.33052E+00 1.38621E+00 8.57121E-04 4.44582E-04
 -1     25292-5.08422E+00 2.73697E+00-7.74745E-01 2.28096E+00-2.25027E-04 2.41346E-03
 -1     25293 7.27464E+00 8.26563E-01 2.67342E+00 3.68815E+00-1.36741E-04-9.04266E-04
 -1     25294 1.29153E+01 1.09607E+01 7.88067E+00 1.19003E+01 2.08157E-03-4.24980E-04
 -1     25295 1.32906E+01 1.11760E+01 8.07354E+00 1.21880E+01-7.77215E-04 9.07780E-04
 -1     25296 1.23702E+01 1.05417E+01 7.56062E+00 1.14352E+01 1.24223E-03-1.06066E-03
 -1     25297 1.21132E+01 1.03382E+01 7.40958E+00 1.12318E+01-1.59473E-03-2.20060E-03
 -1     25298 1.15944E+01 9.93302E+00 7.10074E+00 1.07764E+01-7.06202E-04 9.78276E-04
 -1     25299 6.61159E+00 3.78446E-01 2.30669E+00 3.65760E+00 1.95541E-04 8.67921E-04
 -1     25300 6.86263E+00 9.90431E-01 2.59118E+00 3.29372E+00 1.50573E-03-1.58287E-03
 -1     25301 6.71843E+00 7.32137E-01 2.45756E+00 3.41479E+00 2.54216E-04 1.43490E-03
 -1     25302 6.26788E+00 6.87694E-01 2.29573E+00 3.07449E+00 7.54601E-04-1.79941E-03
 -1     25303 1.44004E+00 8.50177E+00 3.27999E+00 7.27231E+00 9.60925E-04 1.83774E-04
 -1     25304 2.32139E-02 7.89348E+00 2.61230E+00 6.97609E+00-4.80013E-03-3.97605E-03
 -1     25305 5.00013E-01 8.62427E+00 3.00975E+00 7.35463E+00-3.48836E-04 4.43977E-03
 -1     25306 7.94787E+00 3.78130E+00 3.87018E+00 4.59892E+00 1.12997E-04 2.59497E-04
 -1     25307 7.94845E+00 3.66852E+00 3.83483E+00 4.61339E+00-2.30458E-04 1.55798E-05
 -1     25308 7.84014E+00 3.74738E+00 3.82532E+00 4.70270E+00 2.76414E-04 7.82305E-04
 -1     25309 7.98377E+00 3.79046E+00 3.88572E+00 4.54966E+00-2.76929E-03 4.98111E-04
 -1     25310 7.89052E+00 3.75654E+00 3.84380E+00 4.66558E+00 2.49406E-04 1.64193E-03
 -1     25311 1.28594E+01 1.09305E+01 7.84994E+00 1.18599E+01-4.33664E-04 3.32219E-04
 -1     25312 1.20421E+01 1.03161E+01 7.38070E+00 1.11940E+01-2.69890E-03-1.03550E-03
 -1     25313 1.18867E+01 1.03008E+01 7.32604E+00 1.11138E+01-1.11526E-03 1.61442E-03
 -1     25314 8.11308E+00 3.51578E+00 3.83841E+00 4.52667E+00 4.66911E-05-1.91095E-03
 -1     25315 8.07238E+00 3.53971E+00 3.83155E+00 4.56252E+00 6.68754E-04 5.17934E-04
 -1     25316 8.13517E+00 3.38774E+00 3.80242E+00 4.59194E+00 3.70148E-03-2.52837E-04
 -1     25317 8.28841E+00 3.19484E+00 3.78883E+00 4.59602E+00-1.21597E-03-9.58566E-05
 -1     25318 8.22952E+00 3.31709E+00 3.81101E+00 4.55758E+00 7.69611E-04 3.80334E-03
 -1     25319-1.48203E-02 2.02090E+00 6.62228E-01 2.88188E+00-5.74016E-04-5.15041E-04
 -1     25320-8.28857E-02 2.24767E+00 7.14356E-01 2.85144E+00 3.50079E-04-4.64568E-04
 -1     25321 8.52907E+00 7.02344E+00 5.13233E+00 8.08367E+00-1.97287E-04 4.61655E-04
 -1     25322 8.70045E+00 6.93603E+00 5.15989E+00 8.11922E+00 4.34323E-04 3.14977E-04
 -1     25323 7.73048E+00 6.34598E+00 4.64529E+00 7.46975E+00-2.16379E-06-8.73609E-05
 -1     25324-1.78437E+00 1.93201E+00 4.82714E-02 1.97653E+00 6.85566E-06 5.56773E-05
 -1     25325-2.99086E+00 1.60530E+00-4.57542E-01 1.35524E+00-1.94469E-04 1.30081E-04
 -1     25326-1.87538E+00 2.08132E+00 6.80603E-02 1.94480E+00 1.39645E-03-4.54215E-05
 -1     25327-7.76173E-01 7.21522E+00 2.12531E+00 6.71966E+00 1.80192E-03 4.44662E-03
 -1     25328-8.79991E-01 7.47571E+00 2.17631E+00 7.05450E+00 8.22768E-04 5.29833E-03
 -1     25329-1.49833E+00 6.44057E+00 1.63102E+00 6.25445E+00 3.55171E-03-6.83107E-04
 -1     25330-7.15965E+00-4.89315E-01-2.58297E+00-2.11562E+00-5.49768E-02-5.40843E-02
 -1     25331-6.43279E+00-2.48915E-01-2.18741E+00-1.35682E+00-4.46726E-02-2.42943E-02
 -1     25332-8.79407E+00-1.06003E+00-3.26024E+00-2.92747E+00 1.34241E-02-5.91272E-03
 -1     25333-7.12001E+00-5.72321E-01-2.59225E+00-2.17395E+00-9.58169E-02-1.29406E-02
 -1     25334-8.59073E+00-8.97920E-01-3.14827E+00-2.80179E+00 4.27943E-02 9.72911E-03
 -1     25335-3.03943E+00 1.43070E+00-5.31539E-01 1.34812E+00-1.96246E-04-3.72382E-04
 -1     25336 8.23148E+00 5.96828E+00 4.68595E+00 7.54251E+00-4.98044E-04-5.29205E-04
 -1     25337 7.30338E+00 5.39253E+00 4.18965E+00 6.93093E+00 2.32633E-05 5.26540E-04
 -1     25338 7.49861E+00 5.24878E+00 4.20659E+00 6.95817E+00 3.29956E-04 8.97183E-04
 -1     25339 8.41953E+00 5.82835E+00 4.70180E+00 7.56643E+00-2.07266E-04-4.86064E-05
 -1     25340-7.47037E+00 6.75159E-02-2.44295E+00-6.95138E-01-1.02534E-04-3.06185E-04
 -1     25341-8.56703E+00-1.12948E-01-2.86434E+00-1.28915E+00-9.63931E-05-1.97304E-04
 -1     25342-7.23940E+00 1.96755E-01-2.32407E+00-6.73577E-01 1.56266E-04-3.52322E-04
 -1     25343-2.98323E+00 1.99312E+00-3.27612E-01 1.40053E+00 9.15039E-04-2.43140E-04
 -1     25344-1.95020E+00 2.26200E+00 1.02498E-01 1.93239E+00 3.82729E-04-5.65948E-04
 -1     25345-3.74289E+00 1.57268E+00-7.15827E-01 9.77795E-01 8.45441E-05 5.86098E-04
 -1     25346-3.11433E+00 1.81698E+00-4.28076E-01 1.31722E+00 2.32978E-04-5.03730E-04
 -1     25347-2.71472E+00 1.82917E+00-2.91703E-01 1.50794E+00-5.19346E-04 1.22962E-05
 -1     25348-3.63693E+00 1.09747E+00-8.37888E-01 1.08137E+00 2.57071E-04-1.88677E-04
 -1     25349-3.80223E+00 9.18600E-01-9.51555E-01 1.05424E+00-3.06378E-04 1.23341E-04
 -1     25350-2.44322E+00 1.34042E+00-3.63963E-01 1.68648E+00-1.98744E-04 3.16434E-04
 -1     25351 6.37844E-01 9.99545E-01 5.40340E-01 3.21883E+00-3.74398E-03 2.09672E-04
 -1     25352 1.86469E+00 1.20457E+00 1.01161E+00 3.71132E+00-2.13081E-03-4.83956E-04
 -1     25353 7.45214E-01 7.64941E-01 4.99182E-01 3.27793E+00-4.78070E-04-1.09747E-03
 -1     25354-1.01592E+01 1.22213E-02-3.34847E+00-2.15932E+00-6.73297E-04-1.08731E-03
 -1     25355-1.17589E+01-4.24843E-01-4.01968E+00-2.93390E+00-3.41593E-03-5.45106E-04
 -1     25356-1.19662E+01-5.36407E-01-4.12598E+00-3.08864E+00 1.41023E-03-2.97652E-04
 -1     25357-8.80184E+00 4.78649E-01-2.74639E+00-1.43219E+00 1.96538E-04-1.19355E-03
 -1     25358-1.05876E+01-7.63847E-02-3.52046E+00-2.35692E+00 1.24194E-03 9.02367E-04
 -1     25359-6.77088E+00 9.90051E-01-1.90777E+00-4.91065E-01 2.61981E-05 1.47866E-04
 -1     25360-5.44115E+00 1.48900E+00-1.30421E+00 2.34466E-01-4.52283E-05 1.46856E-04
 -1     25361-5.64534E+00 1.30700E+00-1.43178E+00 7.37759E-02 5.58906E-05 1.18192E-04
 -1     25362 8.47784E+00 4.41758E+00 4.25549E+00 6.99610E+00 3.17538E-04 3.15683E-04
 -1     25363 7.70446E+00 3.94701E+00 3.84500E+00 6.54960E+00-2.32707E-04-3.91982E-04
 -1     25364 7.49911E+00 4.12335E+00 3.83530E+00 6.55465E+00 3.73410E-05 3.18306E-04
 -1     25365 8.29028E+00 4.60167E+00 4.25406E+00 7.00523E+00 1.00657E-03 8.20592E-04
 -1     25366 5.34040E+00 5.97744E-01 1.96046E+00 4.50651E+00-3.51089E-04 2.42288E-03
 -1     25367 5.14103E+00 7.89404E-01 1.95796E+00 4.57427E+00 4.94126E-03 1.07202E-03
 -1     25368 4.45859E+00 4.00476E-01 1.60358E+00 4.25980E+00 2.16412E-04 1.44644E-03
 -1     25369-2.00619E+01-2.18580E+00-7.34420E+00-6.61877E+00-1.05412E-03 4.29356E-03
 -1     25370-2.03068E+01-2.19858E+00-7.43646E+00-6.70382E+00-4.80351E-03 1.81006E-02
 -1     25371-2.01718E+01-2.18601E+00-7.38415E+00-6.65759E+00 5.89073E-03 1.82511E-03
 -1     25372 8.18396E+00 8.27168E+00 5.42147E+00 8.28098E+00 9.15689E-03-1.82006E-03
 -1     25373 7.75506E+00 7.97752E+00 5.20733E+00 8.02031E+00 1.52246E-02 4.04399E-03
 -1     25374 6.60291E+00 8.34936E+00 4.94633E+00 7.67862E+00 3.02370E-02 3.59875E-02
 -1     25375 8.69133E+00 8.58397E+00 5.70479E+00 8.71639E+00 1.17873E-02-3.04698E-04
 -1     25376 8.46399E+00 8.41580E+00 5.57314E+00 8.50234E+00 5.72650E-03-6.17871E-03
 -1     25377-4.78631E-01 8.70429E+00 2.71022E+00 7.41703E+00-7.12943E-03-2.87071E-03
 -1     25378-5.01260E-01 8.51504E+00 2.64811E+00 7.63956E+00-9.30470E-03-3.63657E-04
 -1     25379-2.48978E-01 9.22384E+00 2.97106E+00 7.77705E+00 4.86708E-02 1.69894E-02
 -1     25380-1.74130E-01 9.66231E+00 3.12143E+00 7.56815E+00-3.32584E-03-3.26002E-03
 -1     25381-3.04063E-01 9.10824E+00 2.90075E+00 7.81711E+00 2.15652E-02 1.79000E-02
 -1     25382 6.56615E+00 4.74451E+00 3.73252E+00 6.40338E+00 1.01268E-04-1.44299E-04
 -1     25383 6.78799E+00 4.59788E+00 3.75742E+00 6.44740E+00-3.78362E-04-3.03675E-04
 -1     25384 7.71011E+00 5.10135E+00 4.22780E+00 6.99611E+00-9.64405E-05 9.14154E-04
 -1     25385 1.05822E+01 8.36571E+00 6.25406E+00 9.41348E+00-1.07456E-03-6.18338E-05
 -1     25386 1.08113E+01 8.54036E+00 6.38626E+00 9.60910E+00 7.33501E-04 7.21085E-04
 -1     25387 1.04738E+01 8.27030E+00 6.18699E+00 9.31209E+00 1.44729E-03 5.61070E-04
 -1     25388-3.39514E+01-1.34124E+01-1.57233E+01 2.43822E+00-1.71823E-01 2.22822E-01
 -1     25389-4.68123E+01-8.42262E+00-1.84556E+01-2.73835E-01-4.30014E-01 7.78518E-01
 -1     25390-6.60599E+00 9.35376E-02-2.14905E+00-1.20069E-01 2.56649E-04 4.46004E-05
 -1     25391-5.54268E+00 2.04603E-01-1.76153E+00 4.50900E-01-3.80046E-04-6.67172E-04
 -1     25392-6.90697E+00-6.79974E-02-2.30160E+00-1.16109E-01-7.69163E-04-2.59949E-05
 -1     25393-7.98851E+00-1.92739E-01-2.69969E+00-6.96780E-01-2.95783E-04-2.67405E-04
 -1     25394 7.20196E+00 8.89220E+00 5.31184E+00 8.49968E+00 2.67695E-03-4.53463E-03
 -1     25395 6.59745E+00 8.90225E+00 5.11942E+00 8.32509E+00 2.06276E-03-4.15777E-03
 -1     25396 8.43414E+00 9.25735E+00 5.84471E+00 9.09108E+00-4.66577E-03-4.75009E-03
 -1     25397-1.30546E+01-9.80053E-01-4.63141E+00-3.07481E+00-5.30899E-04 4.81499E-04
 -1     25398-1.17285E+01-7.83948E-01-4.12903E+00-2.47205E+00-9.34247E-05 6.80773E-04
 -1     25399-1.27889E+01-9.40478E-01-4.53037E+00-3.10807E+00-3.41244E-04-2.27523E-04
 -1     25400-8.57861E+00-5.53209E-01-3.01310E+00-4.53756E-01 4.55795E-04 5.25977E-03
 -1     25401-8.85884E+00-6.90034E-01-3.15018E+00-3.66525E-01 1.81542E-03 6.87955E-03
 -1     25402-9.96724E+00-7.22643E-01-3.52747E+00-9.87511E-01 1.24227E-03 8.88877E-04
 -1     25403 6.99420E+00 3.90741E+00 3.60009E+00 5.16762E+00-1.55445E-03 1.55346E-03
 -1     25404 6.90122E+00 4.10258E+00 3.63047E+00 5.27355E+00 4.27553E-04 1.16816E-03
 -1     25405 7.09766E+00 3.71372E+00 3.56764E+00 5.04527E+00-1.49640E-03-2.92637E-03
 -1     25406 7.39673E+00 3.73976E+00 3.67751E+00 5.18280E+00-4.37171E-04 6.88775E-04
 -1     25407 7.22615E+00 4.13940E+00 3.75011E+00 5.43677E+00-2.29986E-04 6.53803E-04
 -1     25408 7.31351E+00 3.90949E+00 3.70310E+00 5.29309E+00-3.15502E-04 3.70795E-05
 -1     25409 7.42030E+00 1.10807E+00 2.81556E+00 4.96094E+00 3.22672E-03-2.54062E-03
 -1     25410 7.58078E+00 1.02885E+00 2.84130E+00 4.85047E+00-1.42282E-03 4.78532E-04
 -1     25411 9.82978E+00 9.10439E+00 6.24568E+00 9.56992E+00-2.42652E-03-1.64884E-03
 -1     25412 8.18866E+00 8.21580E+00 5.41333E+00 8.48783E+00 1.08441E-04-3.06759E-04
 -1     25413 8.43506E+00 8.23824E+00 5.50150E+00 8.59377E+00-9.83611E-05-2.01234E-03
 -1     25414 9.45665E+00 8.87388E+00 6.05066E+00 9.31711E+00 4.55317E-05-2.10160E-04
 -1     25415 3.00619E+00-8.70104E-01 7.04890E-01 3.03978E+00 1.89369E-04 1.44108E-04
 -1     25416 3.68845E+00-6.29817E-01 1.00931E+00 3.34400E+00-7.97016E-05-9.62001E-04
 -1     25417 4.00680E+00-6.16598E-01 1.11877E+00 3.22912E+00-5.31155E-04-4.94938E-04
 -1     25418 9.26085E+00 8.14424E+00 5.74516E+00 8.89287E+00-1.53668E-03-1.86726E-03
 -1     25419 1.01821E+01 8.86800E+00 6.28605E+00 9.62382E+00-2.93418E-03-4.03034E-03
 -1     25420 1.11102E+01 9.51900E+00 6.80678E+00 1.03384E+01-3.77863E-04-8.17353E-04
 -1     25421 9.98484E+00 8.50675E+00 6.10087E+00 9.38679E+00 3.98544E-04-1.02756E-03
 -1     25422 1.08909E+01 9.24462E+00 6.64542E+00 1.01220E+01-2.48102E-03 7.31165E-04
 -1     25423 3.35722E+00-7.99470E-01 8.44036E-01 2.89261E+00 7.86627E-05 4.37925E-04
 -1     25424 2.31620E+00-1.06746E+00 4.12099E-01 2.69713E+00-1.57566E-04-6.34077E-04
 -1     25425 1.95588E+00-1.14947E+00 2.66120E-01 2.85134E+00-2.72329E-04-6.47930E-04
 -1     25426-1.54491E+01-1.47107E+00-5.58320E+00-4.82919E+00 6.46309E-04 2.89608E-03
 -1     25427 2.64524E+00-8.96774E-01 5.76988E-01 3.14970E+00 4.60656E-04 3.97389E-04
 -1     25428-3.13601E+00 3.58227E-01-9.14629E-01 1.64457E+00-2.19084E-03-3.89217E-04
 -1     25429-3.48296E+00 9.68708E-02-1.11696E+00 1.59515E+00 1.09286E-03-4.99397E-05
 -1     25430-4.43860E+00 7.50467E-02-1.43867E+00 1.14039E+00 6.73413E-04 2.74991E-03
 -1     25431-1.03750E+01-5.62460E-01-3.60936E+00-1.87392E+00-8.76612E-05 1.65668E-04
 -1     25432-1.06687E+01-6.47322E-01-3.73440E+00-1.83584E+00 3.02459E-04-4.79700E-04
 -1     25433-9.29039E+00-4.16051E-01-3.20307E+00-1.26806E+00 1.46426E-04-2.20993E-04
 -1     25434-7.70380E+00-6.14941E-02-2.56255E+00-7.00445E-01-2.26695E-05-4.03521E-04
 -1     25435-9.06037E+00-3.24324E-01-3.09686E+00-1.29704E+00-1.74860E-04 1.78424E-04
 -1     25436 8.02913E+00 3.75455E+00 3.88886E+00 4.49513E+00 2.00833E-04 3.84470E-04
 -1     25437 8.15628E+00 3.47836E+00 3.83923E+00 4.47623E+00-1.99206E-04 3.40282E-04
 -1     25438 8.02586E+00 3.59830E+00 3.83789E+00 4.56585E+00-1.52280E-03-8.92989E-04
 -1     25439 8.05207E+00 3.75451E+00 3.89585E+00 4.43003E+00-1.40300E-03 5.58282E-04
 -1     25440 8.07963E+00 3.63243E+00 3.86428E+00 4.51423E+00-2.02370E-03 8.33905E-04
 -1     25441 7.73454E+00 8.93408E+00 5.50363E+00 8.70648E+00 2.89693E-03 5.22564E-03
 -1     25442 6.68281E+00 8.43414E+00 4.99046E+00 8.08698E+00-6.93567E-04 3.54803E-03
 -1     25443 6.14993E+00 8.41200E+00 4.80602E+00 7.93455E+00 1.35873E-03-4.80996E-03
 -1     25444 7.69805E+00 3.68060E+00 3.75520E+00 4.78706E+00-6.66571E-04-8.99694E-04
 -1     25445 7.67628E+00 3.54662E+00 3.70391E+00 4.79459E+00-1.60064E-03-3.19722E-04
 -1     25446 7.89570E+00 3.62399E+00 3.80200E+00 4.68786E+00 1.00727E-03 4.40057E-04
 -1     25447-1.02888E+01-4.93786E+00-5.02460E+00-1.53386E-01 1.06759E-02 6.37476E-03
 -1     25448-1.10837E+01-5.27448E+00-5.40346E+00-6.60377E-01 6.23431E-03 2.62874E-03
 -1     25449-8.94099E+00-4.55727E+00-4.45544E+00-7.03424E-01-2.92815E-04 1.17722E-02
 -1     25450-9.76964E+00-4.92597E+00-4.84501E+00-7.10267E-01-1.43939E-02 1.36092E-02
 -1     25451-1.19488E+01-5.67613E+00-5.81099E+00-6.39010E-01 1.42486E-02-1.16360E-02
 -1     25452-2.82764E+00-5.08465E-01-1.10240E+00 2.09533E+00-4.28692E-04 3.38084E-03
 -1     25453-3.02729E+00-3.20243E-01-1.10721E+00 1.96894E+00 1.15484E-04 1.97972E-03
 -1     25454-4.05130E+00-5.58551E-01-1.52444E+00 1.67838E+00 1.34189E-03 4.18495E-03
 -1     25455 7.67253E+00 3.82093E+00 3.79286E+00 5.37386E+00 1.93344E-04 7.07184E-04
 -1     25456 7.51502E+00 4.21680E+00 3.87191E+00 5.62574E+00-4.35010E-05-1.23378E-03
 -1     25457 7.92702E+00 3.88558E+00 3.89844E+00 5.56304E+00 1.78299E-03 8.28660E-04
 -1     25458-1.33511E+01-8.59492E-01-4.69011E+00-3.64130E+00-2.08397E-03-6.15919E-04
 -1     25459-1.18780E+01-3.43540E-01-4.03405E+00-2.74838E+00 8.59575E-04 1.51445E-03
 -1     25460-1.21503E+01-4.44396E-01-4.15658E+00-2.94251E+00 5.22787E-05 2.86560E-04
 -1     25461 6.88944E+00 5.64146E+00 4.13520E+00 6.83656E+00-1.34546E-04 3.91860E-04
 -1     25462 6.12696E+00 5.01980E+00 3.67838E+00 6.29834E+00-4.38975E-06-6.84669E-05
 -1     25463 7.10464E+00 5.52944E+00 4.16914E+00 6.88864E+00 2.34566E-04 6.75842E-04
 -1     25464 7.69324E+00 3.67867E+00 3.75299E+00 4.79194E+00 4.91169E-04-6.81945E-04
 -1     25465 7.66927E+00 3.61949E+00 3.72705E+00 4.79033E+00 7.06878E-04-2.98216E-05
 -1     25466 7.52495E+00 3.65756E+00 3.69052E+00 4.86009E+00 1.23886E-04 1.19996E-03
 -1     25467 7.53537E+00 3.65438E+00 3.69195E+00 4.85557E+00-8.28674E-05 1.46937E-03
 -1     25468 5.68439E+00 7.48533E+00 4.34602E+00 7.20558E+00-2.48226E-04 5.68367E-04
 -1     25469 4.37270E+00 6.93815E+00 3.73266E+00 6.49775E+00 2.56086E-04-1.90997E-05
 -1     25470 4.63016E+00 6.86415E+00 3.79325E+00 6.52108E+00 3.45257E-04 4.18499E-04
 -1     25471 4.74948E-03-1.60611E+00-5.28358E-01 2.33815E+00 2.73213E-04-6.64477E-04
 -1     25472-4.27194E-01-1.60936E+00-6.72055E-01 2.47163E+00-6.14011E-04-4.79620E-04
 -1     25473-1.52587E+01-5.93838E+00-6.97532E+00 1.22745E-01 3.63813E-02-2.21079E-03
 -1     25474-1.73044E+01-6.49439E+00-7.83165E+00 2.78738E-01 1.13355E-02 2.89300E-03
 -1     25475-1.51953E+01-7.28953E+00-7.42741E+00-7.41937E-01 4.97169E-02 1.48188E-02
 -1     25476-1.59892E+01-5.84704E+00-7.18506E+00 3.21331E-01-2.23758E-02 6.13797E-03
 -1     25477-1.73777E+01-8.58328E+00-8.56466E+00-4.08424E-01 5.47032E-02-2.24116E-02
 -1     25478 7.43415E+00 3.08666E+00 3.47493E+00 3.19816E+00 7.33671E-03-2.60881E-03
 -1     25479 7.71890E+00 3.20891E+00 3.60927E+00 3.44236E+00 1.63013E-02-5.63335E-03
 -1     25480 7.47788E+00 2.52058E+00 3.30001E+00 3.29034E+00-4.57203E-03-2.10627E-03
 -1     25481 7.79186E+00 2.70763E+00 3.46492E+00 3.52033E+00-2.59646E-03-6.52116E-04
 -1     25482 6.85118E+00 2.75364E+00 3.17493E+00 2.79241E+00-4.77180E-03 9.27207E-03
 -1     25483 7.42261E+00 2.02683E+00 3.12047E+00 3.27954E+00 4.92430E-03-2.73458E-03
 -1     25484 7.37159E+00 2.46104E+00 3.24668E+00 3.21175E+00-1.84532E-03 2.35003E-03
 -1     25485 6.63590E+00 2.18506E+00 2.91750E+00 2.75431E+00-2.22527E-03-2.08304E-03
 -1     25486 6.67164E+00 1.74519E+00 2.77583E+00 2.83711E+00 9.85881E-03-2.81627E-03
 -1     25487 7.23930E+00 1.55740E+00 2.89560E+00 3.24957E+00-1.28144E-03-8.84892E-04
 -1     25488 9.28699E+00 2.94548E+00 4.03599E+00 5.69539E+00-2.43938E-04 1.83671E-03
 -1     25489 9.25048E+00 2.53853E+00 3.89152E+00 5.48024E+00 1.19005E-03 1.23027E-03
 -1     25490 1.51242E+00-1.11563E+00 1.31035E-01 2.92778E+00 8.25954E-05-7.31825E-04
 -1     25491 1.15856E+00-1.04448E+00 3.76569E-02 3.01682E+00-4.87664E-04-2.22305E-04
 -1     25492 3.48535E-01-1.33508E+00-3.25581E-01 2.73882E+00 5.61209E-04 2.99930E-04
 -1     25493 1.76591E+00 6.93790E+00 2.87377E+00 6.03344E+00-2.43108E-03 1.93107E-03
 -1     25494 1.25171E+00 7.01469E+00 2.72869E+00 6.09500E+00-1.73678E-03 1.02541E-03
 -1     25495 4.87462E-01 6.36368E+00 2.26130E+00 5.46318E+00-1.28557E-03-2.12942E-03
 -1     25496 1.14564E+01 9.01877E+00 6.75754E+00 1.01740E+01-3.27818E-04 1.04142E-03
 -1     25497 1.10494E+01 7.52343E+00 6.13147E+00 9.23224E+00 4.69086E-03 6.89177E-03
 -1     25498 1.10887E+01 8.08737E+00 6.32835E+00 9.53765E+00 6.86567E-04-4.18288E-03
 -1     25499 1.13722E+01 8.94369E+00 6.70615E+00 1.00884E+01-5.96784E-04-2.03879E-04
 -1     25500 1.10160E+01 8.01220E+00 6.27720E+00 9.45462E+00 2.06953E-03-1.19760E-04
 -1     25501 5.98338E+00 3.04862E+00 2.98046E+00 5.63796E+00-1.67677E-03-2.06218E-04
 -1     25502 5.03516E+00 2.62345E+00 2.52730E+00 5.16344E+00-1.28194E-03-1.15891E-03
 -1     25503 5.69605E+00 3.20332E+00 2.93672E+00 5.57607E+00-2.22906E-04-1.09075E-03
 -1     25504 4.40206E+00 2.14134E+00 2.15949E+00 4.81744E+00 9.13835E-04 2.52875E-04
 -1     25505 3.72035E+00 2.00124E+00 1.88881E+00 4.52752E+00-6.92194E-04-2.26045E-03
 -1     25506 3.13258E+00 1.60089E+00 1.56159E+00 4.23212E+00 1.19107E-03 8.02411E-04
 -1     25507 3.75774E+00 2.05805E+00 1.91809E+00 4.55987E+00-2.90825E-04 2.41601E-03
 -1     25508 1.09799E+01 7.77615E+00 6.19044E+00 9.42886E+00-3.72941E-04-1.40559E-03
 -1     25509 1.03048E+01 7.10332E+00 5.74496E+00 8.85364E+00 2.63082E-03 2.95855E-03
 -1     25510 1.03616E+01 6.91481E+00 5.69989E+00 8.80008E+00-1.42333E-03 9.75154E-04
 -1     25511 2.66035E+00 1.70573E+00 1.43902E+00 4.07156E+00-1.47821E-03 2.50025E-03
 -1     25512 1.04283E+01 5.89079E+00 5.38598E+00 8.23723E+00-5.50758E-06-5.28752E-04
 -1     25513 1.04271E+01 5.88965E+00 5.38689E+00 8.23530E+00 2.09067E-03 1.14876E-03
 -1     25514 1.09094E+01 6.93669E+00 5.88579E+00 8.88257E+00 5.04942E-04 3.19486E-04
 -1     25515 1.03728E+01 5.62786E+00 5.28104E+00 8.02338E+00-3.11004E-03 1.25002E-03
 -1     25516 9.39037E+00 2.84395E+00 4.03745E+00 6.15309E+00-7.86709E-04 1.16778E-03
 -1     25517 9.62183E+00 3.44366E+00 4.31148E+00 6.55624E+00-7.15994E-04-4.86935E-04
 -1     25518 9.36649E+00 2.96010E+00 4.06778E+00 6.29021E+00-2.31819E-04 7.57061E-04
 -1     25519-4.88271E-01 2.38660E-01-8.25628E-02 2.81292E+00 4.30122E-04 8.20043E-04
 -1     25520-1.45000E+00 3.28798E-01-3.69477E-01 2.40998E+00-2.85731E-03-6.12507E-04
 -1     25521-1.87728E+00 2.16691E-01-5.48511E-01 2.25905E+00 1.99445E-03 4.95588E-04
 -1     25522 1.14066E+00 8.80101E-01 6.66231E-01 3.42646E+00 2.01618E-03 9.26715E-04
 -1     25523 5.79203E+00 1.71676E+00 2.47841E+00 5.09754E+00-8.37660E-04-2.81799E-03
 -1     25524 6.15561E+00 1.59317E+00 2.55436E+00 5.14409E+00 6.04117E-04-6.75254E-03
 -1     25525 5.16039E+00 1.14999E+00 2.08254E+00 4.72604E+00 2.36430E-03-4.11496E-04
 -1     25526 4.70444E+00 9.12561E-01 1.85352E+00 4.52559E+00-3.18414E-03-4.02324E-04
 -1     25527 5.30774E+00 1.33885E+00 2.19367E+00 4.83506E+00-9.42276E-04 8.78206E-04
 -1     25528 3.82750E+00 8.22336E-01 1.53411E+00 4.29234E+00-9.88528E-04 7.26135E-04
 -1     25529 4.48725E+00 1.25053E+00 1.89368E+00 4.60957E+00 5.24553E-04 1.90325E-03
 -1     25530 9.64989E+00 3.34016E+00 4.28668E+00 6.44804E+00-7.43345E-04-1.69456E-04
 -1     25531 8.35293E+00 1.38546E+00 3.21338E+00 4.41458E+00 5.42756E-05-3.96878E-04
 -1     25532 8.63167E+00 1.57692E+00 3.36869E+00 4.68616E+00 2.52539E-04 3.67329E-04
 -1     25533 8.13287E+00 1.13182E+00 3.05741E+00 4.37644E+00-2.33603E-03-4.50163E-04
 -1     25534 8.43456E+00 1.33730E+00 3.22491E+00 4.66678E+00-2.16240E-03 2.39780E-03
 -1     25535-2.13895E+00-9.32825E-01-1.01378E+00 2.38523E+00-1.07278E-03 2.22418E-04
 -1     25536-1.13514E+00-6.28917E-01-5.81852E-01 2.66172E+00 2.85542E-04 1.95923E-03
 -1     25537-2.70529E+00-7.51579E-01-1.14264E+00 2.18552E+00 2.19858E-03 3.57375E-04
 -1     25538-3.16822E+00-7.95957E-01-1.30823E+00 2.05956E+00-9.79963E-04-7.10663E-04
 -1     25539-2.10517E+00-4.94428E-01-8.56255E-01 2.34039E+00 2.26284E-03 9.91213E-04
 -1     25540 8.08911E+00 1.41789E+00 3.13903E+00 4.05961E+00 2.14493E-03-1.55769E-03
 -1     25541 8.01941E+00 1.58723E+00 3.16868E+00 3.83997E+00 3.31975E-03-3.12951E-03
 -1     25542 8.28323E+00 1.64434E+00 3.27748E+00 4.11056E+00 3.28229E-03-2.94821E-03
 -1     25543 1.25120E+01 1.04040E+01 7.56137E+00 1.14321E+01 4.15519E-04-2.34650E-03
 -1     25544 1.29563E+01 1.07983E+01 7.83928E+00 1.18371E+01-8.24736E-04 1.23524E-03
 -1     25545 1.25028E+01 1.03356E+01 7.53642E+00 1.13931E+01 1.33932E-03 3.38033E-04
 -1     25546 1.19239E+01 9.92638E+00 7.21080E+00 1.09211E+01 2.63937E-03 2.47612E-03
 -1     25547 1.23840E+01 1.03731E+01 7.50873E+00 1.13541E+01 2.05969E-03 6.17159E-04
 -1     25548 1.23863E+01 1.03159E+01 7.49096E+00 1.13268E+01 2.68844E-03 1.29210E-03
 -1     25549 8.14528E+00 3.24252E+00 3.76015E+00 4.74640E+00 1.99702E-03 2.91156E-03
 -1     25550 7.97544E+00 3.41379E+00 3.75911E+00 4.70441E+00-3.19091E-04 1.93506E-03
 -1     25551 7.92606E+00 3.36242E+00 3.72443E+00 4.83286E+00-3.08391E-03-2.59788E-03
 -1     25552 4.67145E+00 3.59375E+00 2.72205E+00 4.09435E+00-8.43879E-03-5.56907E-03
 -1     25553 4.63907E+00 3.62133E+00 2.72605E+00 4.09553E+00-5.40244E-03-3.50536E-03
 -1     25554 4.95108E+00 3.25296E+00 2.71077E+00 4.21657E+00 1.20564E-03 8.14373E-04
 -1     25555 4.96456E+00 2.75928E+00 2.56047E+00 4.05692E+00-8.54746E-04 3.47482E-03
 -1     25556 4.93903E+00 3.26458E+00 2.71712E+00 4.20151E+00-3.18991E-03-2.92651E-04
 -1     25557 6.30060E+00 2.89737E+00 3.03536E+00 5.70289E+00-4.58711E-04 1.64776E-04
 -1     25558 5.37282E+00 2.48120E+00 2.59198E+00 5.23976E+00 5.34980E-04-3.36115E-04
 -1     25559 7.99570E+00 1.05909E+00 2.98802E+00 4.51030E+00 5.02262E-04-9.73752E-04
 -1     25560 8.33656E+00 1.30189E+00 3.18054E+00 4.78988E+00 2.21908E-03 5.48855E-04
 -1     25561 1.10525E+01 8.78029E+00 6.54533E+00 9.95676E+00 1.19324E-03 1.90872E-03
 -1     25562 1.10995E+01 8.65621E+00 6.51905E+00 9.92442E+00-8.80713E-04 1.29929E-03
 -1     25563 1.02357E+01 7.96184E+00 6.00580E+00 9.24897E+00 2.96589E-04 1.05814E-03
 -1     25564 7.41639E+00 3.57392E+00 3.62645E+00 4.86025E+00 1.69539E-03 1.13793E-03
 -1     25565 7.47450E+00 3.48799E+00 3.61887E+00 4.82580E+00-6.93517E-04 9.92235E-04
 -1     25566 7.61207E+00 3.57398E+00 3.69199E+00 4.81266E+00-7.60938E-04 1.40599E-03
 -1     25567 7.36434E+00 3.51838E+00 3.59082E+00 4.85300E+00-1.52862E-04 7.20780E-04
 -1     25568 7.57710E+00 3.51837E+00 3.66162E+00 4.81678E+00 1.64616E-03 1.51474E-03
 -1     25569 9.67821E+00 3.67249E+00 4.40568E+00 6.49950E+00-8.15242E-04-1.86483E-03
 -1     25570-3.16107E+00 2.22220E+00-3.09605E-01 1.40748E+00 4.35450E-04-7.05414E-04
 -1     25571-3.01472E+00 2.41938E+00-1.96475E-01 1.56022E+00 5.12877E-04 5.84518E-05
 -1     25572-4.31644E+00 1.87330E+00-8.06193E-01 8.20131E-01-2.16751E-04-4.11445E-04
 -1     25573-1.68765E+01-1.75224E+00-6.14813E+00-5.44001E+00 2.40340E-04-8.43850E-04
 -1     25574-1.67792E+01-1.72651E+00-6.10615E+00-5.40649E+00-4.62806E-04-5.54923E-04
 -1     25575-1.78943E+01-1.92804E+00-6.54108E+00-5.88305E+00 3.41701E-03 3.73747E-03
 -1     25576 7.33423E+00 3.56837E+00 3.59689E+00 4.90297E+00 8.24158E-04-1.42547E-03
 -1     25577-1.89752E-01 9.42200E+00 3.11756E+00 5.38567E+00 3.22299E-02-6.42615E-02
 -1     25578-1.27706E-01 7.90281E+00 2.58337E+00 4.79689E+00-1.28568E-01-4.26372E-02
 -1     25579-7.66910E-01 4.45731E+00 1.22665E+00 2.85248E+00 2.30193E-01 3.88140E-02
 -1     25580-6.36745E-01 8.56533E+00 2.60053E+00 5.22810E+00-9.78646E-02-4.36689E-02
 -1     25581 7.40809E+00 3.59447E+00 3.63178E+00 4.88342E+00 2.84046E-03 4.80844E-04
 -1     25582 7.30157E+00 3.55156E+00 3.58026E+00 4.88355E+00 1.92994E-03-9.19179E-05
 -1     25583 1.21051E+01 1.03548E+01 7.41155E+00 1.12146E+01-1.11453E-05 1.67932E-03
 -1     25584 1.21841E+01 1.03437E+01 7.43364E+00 1.12540E+01-6.09790E-04 1.41103E-03
 -1     25585 1.32495E+01 1.10146E+01 8.00572E+00 1.20826E+01-7.18705E-04 1.88705E-03
 -1     25586 1.32128E+01 1.09693E+01 7.97870E+00 1.20471E+01-2.38987E-03-1.09113E-03
 -1     25587 1.31747E+01 1.09394E+01 7.95986E+00 1.20104E+01-3.46467E-04-1.60320E-03
 -1     25588 4.26992E+00 8.05978E+00 4.06907E+00 7.23862E+00 4.15955E-03-8.39584E-03
 -1     25589 7.27314E+00 8.91269E+00 5.33887E+00 8.52824E+00-3.32613E-03 3.84917E-03
 -1     25590 5.42433E+00 8.34141E+00 4.54503E+00 7.72590E+00 4.82196E-04 6.56349E-05
 -1     25591 3.27455E+00 7.53579E+00 3.56637E+00 6.66861E+00 5.99919E-03 1.78413E-05
 -1     25592 6.18270E+00 8.42162E+00 4.81733E+00 7.94976E+00-1.33963E-03 6.00634E-03
 -1     25593-1.00774E+01 7.72675E-02-3.30157E+00-1.76009E+00 3.15049E-04 2.28888E-03
 -1     25594-1.11749E+01-5.24142E-01-3.85934E+00-2.67519E+00-1.80870E-03-2.40743E-03
 -1     25595-1.17813E+01-6.38679E-01-4.09858E+00-2.95521E+00-1.99257E-03-1.49229E-03
 -1     25596-7.74171E+00-6.80269E-01-2.77630E+00 2.11778E-01-1.34095E-03 3.25423E-03
 -1     25597-7.49205E+00-5.12199E-01-2.64337E+00 1.17499E-01-6.37419E-04 2.02022E-03
 -1     25598 6.75399E+00 3.50205E+00 3.38456E+00 4.81931E+00-1.63821E-03-2.15044E-03
 -1     25599 7.16862E+00 3.50589E+00 3.52176E+00 4.85183E+00 7.30592E-04 9.27263E-04
 -1     25600-2.25114E-02 2.84622E+00 9.31867E-01 2.94367E+00 3.27588E-05 9.00186E-04
 -1     25601 1.07645E+00 3.24092E+00 1.42478E+00 3.53912E+00 9.04024E-05 1.94942E-04
 -1     25602 1.25396E+01 1.07451E+01 7.68570E+00 1.15845E+01-1.16835E-03-2.80772E-03
 -1     25603 1.19267E+01 1.04742E+01 7.39220E+00 1.11659E+01 6.48504E-03-9.72639E-03
 -1     25604 1.23116E+01 1.06127E+01 7.56352E+00 1.14022E+01-1.05410E-02-9.01585E-03
 -1     25605 1.03447E+01 9.76579E+00 6.63713E+00 1.01625E+01 1.26701E-03-8.07992E-04
 -1     25606 9.95392E+00 9.57594E+00 6.44740E+00 9.92638E+00 1.76115E-03-2.53943E-03
 -1     25607 9.70123E+00 9.48440E+00 6.33627E+00 9.76189E+00 4.45849E-03 7.31353E-03
 -1     25608 1.16403E+01 9.18345E+00 6.87084E+00 1.03525E+01-4.18333E-03 7.05270E-04
 -1     25609-2.38227E+01-1.02958E+01-1.12712E+01 4.02266E-01 5.24800E-02 8.05741E-02
 -1     25610 9.62459E-01 3.92955E+00 1.61422E+00 3.70071E+00-5.82988E-04-3.44911E-06
 -1     25611 1.38906E+00 3.93874E+00 1.75818E+00 3.87130E+00-4.12411E-04-5.79824E-04
 -1     25612 7.62983E+00 3.69768E+00 3.73842E+00 4.81598E+00 1.92612E-03-1.43580E-03
 -1     25613 1.14036E+01 8.18327E+00 6.46667E+00 9.79351E+00 5.51898E-03 3.44862E-04
 -1     25614 1.16175E+01 8.63812E+00 6.68452E+00 1.00973E+01 2.44894E-03 2.60482E-03
 -1     25615 1.09903E+01 7.61331E+00 6.14046E+00 9.34820E+00 3.86322E-03 1.47097E-03
 -1     25616 1.19502E+01 9.11053E+00 6.94691E+00 1.04727E+01 1.31469E-03-1.07075E-03
 -1     25617 1.15221E+01 8.50861E+00 6.61136E+00 1.00191E+01 1.54736E-03 2.83215E-03
 -1     25618-5.64213E-01 3.30001E+00 9.02666E-01 2.84787E+00 1.27869E-04 3.54305E-05
 -1     25619 5.76719E+00 6.06377E+00 3.90412E+00 6.49586E+00-1.16746E-03-1.67939E-04
 -1     25620 5.99838E+00 5.99005E+00 3.95618E+00 6.56779E+00 1.18868E-04 2.10021E-04
 -1     25621 6.67714E+00 6.70109E+00 4.41472E+00 7.14576E+00 2.77390E-04 7.39714E-04
 -1     25622 6.90207E+00 6.64780E+00 4.47160E+00 7.22231E+00 2.81808E-04 7.33425E-04
 -1     25623 1.92731E+00 3.23312E+00 1.70291E+00 3.93396E+00 9.26042E-05-2.19970E-04
 -1     25624 2.89606E+00 3.59323E+00 2.14137E+00 4.45275E+00 6.55310E-04 5.00110E-04
 -1     25625 2.10193E+00 3.06954E+00 1.70661E+00 3.99069E+00-7.96054E-04-3.35780E-04
 -1     25626 3.07241E+00 3.42814E+00 2.14519E+00 4.50360E+00-2.18863E-04 2.24404E-04
 -1     25627 9.11515E-01-1.36838E+00-1.50385E-01 1.99070E+00 7.88237E-05 2.32179E-05
 -1     25628 2.01952E+00-1.05950E+00 3.17029E-01 2.17157E+00 1.87360E-04 6.98372E-04
 -1     25629 4.99037E-01-1.57264E+00-3.54283E-01 2.20687E+00-4.62987E-04-7.63712E-04
 -1     25630 1.62982E+00-1.23577E+00 1.29981E-01 2.37374E+00-7.17596E-04 7.05317E-04
 -1     25631-1.17168E+01-9.54566E-01-4.17574E+00-1.39230E+00-6.74115E-04 1.17533E-03
 -1     25632-1.05997E+01-9.42187E-01-3.80777E+00-6.90044E-01 2.50344E-03-5.67138E-03
 -1     25633-1.21445E+01-1.05653E+00-4.34788E+00-1.20107E+00 8.82090E-04-1.61132E-03
 -1     25634-6.44727E+00-4.62762E-01-2.28272E+00 6.24344E-01-1.01252E-03 1.17585E-03
 -1     25635 1.01914E+01 9.57081E+00 6.51999E+00 9.99913E+00 4.07403E-04 1.31415E-03
 -1     25636 9.90929E+00 9.38471E+00 6.36513E+00 9.71148E+00-3.54795E-03 2.01929E-03
 -1     25637 9.74507E+00 9.29103E+00 6.29019E+00 9.58309E+00-3.25681E-03 1.11964E-04
 -1     25638 9.32954E+00 9.03365E+00 6.06138E+00 9.23511E+00-6.76137E-04-3.40603E-03
 -1     25639-8.54484E+00-5.61111E-01-3.00275E+00-4.12831E-01-1.38922E-04-3.46210E-03
 -1     25640-8.20716E+00-3.13482E-01-2.81183E+00-6.45770E-01 3.52721E-05-4.55446E-04
 -1     25641-9.58076E+00-5.30107E-01-3.33692E+00-1.20762E+00 7.17467E-04-4.20887E-04
 -1     25642 5.36332E+00 5.30298E+00 3.51998E+00 6.04898E+00-1.39401E-04 2.92540E-04
 -1     25643 6.45751E+00 5.84023E+00 4.05825E+00 6.71277E+00-3.26899E-04-2.56796E-05
 -1     25644 4.57041E+00 4.71883E+00 3.06570E+00 5.50098E+00 1.02072E-04 1.17129E-04
 -1     25645 5.65390E+00 5.23616E+00 3.59380E+00 6.15627E+00 1.85808E-04 1.26252E-06
 -1     25646 1.90577E+00-7.41101E-01 3.84388E-01 3.28366E+00 2.41527E-04 4.93383E-04
 -1     25647 7.03225E-01-9.09214E-01-6.79447E-02 3.01143E+00-1.40158E-04-5.78351E-04
 -1     25648 1.60427E+00-5.70169E-01 3.41266E-01 3.31666E+00-1.67002E-04 4.03053E-05
 -1     25649 4.23758E-01-7.24929E-01-9.93927E-02 3.03796E+00-6.54070E-04 3.25359E-05
 -1     25650 4.20812E+00 4.74936E+00 2.95597E+00 5.35025E+00-1.60977E-04-3.64500E-04
 -1     25651 1.33828E+01 1.12213E+01 8.11937E+00 1.22567E+01 7.60383E-04-5.84497E-04
 -1     25652 1.33658E+01 1.11679E+01 8.09413E+00 1.22199E+01 2.19398E-04 2.37507E-03
 -1     25653 9.57608E+00 5.28969E+00 4.90464E+00 7.27799E+00-9.39606E-04 2.05626E-03
 -1     25654 9.60275E+00 4.73872E+00 4.73192E+00 6.98462E+00-3.11916E-05 1.59869E-03
 -1     25655 5.75970E+00 7.66466E-01 2.15600E+00 2.70687E+00 5.95910E-03-1.95559E-03
 -1     25656 6.39441E+00 1.05325E+00 2.45935E+00 2.92032E+00 3.36846E-03-3.30701E-03
 -1     25657 2.67621E+00-4.11692E-01 7.47287E-01 3.56953E+00-1.75280E-03-1.05593E-03
 -1     25658-1.50371E+01-1.97740E+00-5.60822E+00-5.23798E-01 1.06872E-02-1.07115E-02
 -1     25659-1.68909E+01-2.18174E+00-6.27863E+00-6.85550E-01 1.77533E-02-9.66472E-03
 -1     25660-1.47598E+01-2.54002E+00-5.70740E+00-4.54724E-02 5.56709E-03-1.86947E-02
 -1     25661 3.34056E+00-6.25500E-01 8.95962E-01 3.45074E+00-1.01969E-03-1.13509E-04
 -1     25662 2.28692E+00-8.31966E-01 4.80041E-01 3.23942E+00 3.25259E-04-9.75940E-05
 -1     25663-5.85766E+00 1.60826E-02-1.92773E+00 4.37989E-01-1.79052E-04 1.21644E-04
 -1     25664-7.13669E+00-2.20161E-01-2.42793E+00-8.07556E-02-1.03191E-05 8.73207E-05
 -1     25665-1.42661E+00 6.30343E+00 1.61035E+00 5.96930E+00-1.13449E-03-1.92707E-03
 -1     25666-1.63965E+00 5.92482E+00 1.41461E+00 5.44728E+00 4.79564E-05 3.26264E-04
 -1     25667-2.26000E+00 5.39198E+00 1.03367E+00 5.29792E+00 6.61704E-04 2.73412E-03
 -1     25668-2.57618E+00 4.99775E+00 7.98975E-01 4.77835E+00 2.34583E-03 2.36112E-03
 -1     25669-9.47000E+00-4.78794E-01-3.28148E+00-2.22950E+00 4.96011E-03 1.16367E-03
 -1     25670-9.11609E+00-1.42482E-01-3.05524E+00-1.74942E+00-1.58740E-03 8.46937E-04
 -1     25671-9.52522E+00-4.22481E-01-3.28114E+00-2.17576E+00-1.83092E-03-3.96504E-03
 -1     25672-7.91591E+00 2.73506E-01-2.52152E+00-9.52240E-01 7.14533E-04-3.59684E-04
 -1     25673-7.61054E+00 5.39547E-01-2.33655E+00-5.41067E-01-3.69376E-03-8.11329E-04
 -1     25674-7.67280E+00 5.73006E-01-2.34199E+00-4.86054E-01-4.63427E-04-4.84726E-04
 -1     25675-6.22048E+00-1.15034E+00-2.10515E+00-1.29780E+00-9.80618E-02-3.79728E-01
 -1     25676-2.29200E+00 4.59636E+00 8.80960E-01 2.23811E+00 1.15368E-01-3.55576E-02
 -1     25677-2.12429E+00 5.02738E+00 9.84051E-01 2.60075E+00 6.45409E-02-1.36278E-01
 -1     25678-2.80520E+00 2.23611E+00-1.87893E-01 1.54963E+00-3.26654E-04-2.16156E-04
 -1     25679-4.05787E+00 1.69923E+00-7.78538E-01 8.49866E-01 6.02409E-04 3.40950E-04
 -1     25680-4.52149E+00 1.68334E+00-9.36404E-01 6.61706E-01-1.03044E-03-3.03250E-04
 -1     25681-3.45032E+00 2.10462E+00-4.44335E-01 1.24810E+00 1.47700E-04 2.36456E-04
 -1     25682-2.99007E+00 2.11468E+00-2.88417E-01 1.43225E+00 1.54995E-03 4.06614E-04
 -1     25683-4.70182E+00 1.57224E+00-1.03293E+00 5.43019E-01 5.15069E-04 2.90183E-04
 -1     25684-1.76855E+01-1.86004E+00-6.45097E+00-5.73348E+00-5.35265E-04-1.34146E-03
 -1     25685 3.04128E+00-5.17773E-01 8.32539E-01 3.52344E+00-9.86893E-04-1.48813E-03
 -1     25686 7.90233E-01-1.36677E+00-1.90371E-01 2.65965E+00-2.47455E-04 2.99982E-04
 -1     25687 1.33791E+01 1.12120E+01 8.11512E+00 1.22444E+01-4.16051E-03-1.13022E-03
 -1     25688 1.28057E+01 1.07246E+01 7.76303E+00 1.17254E+01 1.25154E-03-6.88685E-05
 -1     25689 1.33986E+01 1.12325E+01 8.12854E+00 1.22728E+01-1.29657E-03-1.96975E-03
 -1     25690 1.28002E+01 1.07418E+01 7.76902E+00 1.17438E+01-6.71495E-04-2.38419E-04
 -1     25691-1.81312E+01-1.97505E+00-6.63537E+00-5.98383E+00 1.65814E-04-1.13697E-03
 -1     25692-1.79361E+01-1.93285E+00-6.55653E+00-5.89404E+00-3.53184E-04 3.59299E-04
 -1     25693-3.28229E+00 1.33653E+00-6.42008E-01 1.23162E+00-3.32840E-05-9.27923E-05
 -1     25694-4.29538E+00 1.13964E+00-1.04106E+00 7.04724E-01 6.52731E-05-4.82087E-04
 -1     25695-4.22612E+00 1.17356E+00-1.00772E+00 7.37465E-01 5.16508E-04 1.68579E-03
 -1     25696-4.65769E+00 9.11515E-01-1.23622E+00 5.52389E-01 1.86798E-04-2.60335E-04
 -1     25697-1.18362E+01-7.40339E-01-4.15010E+00-3.03744E+00-3.70439E-05-2.61463E-04
 -1     25698-1.20372E+01-8.04501E-01-4.23778E+00-3.07801E+00 4.19656E-05 4.03970E-05
 -1     25699-1.33243E+01-1.05637E+00-4.74570E+00-3.77875E+00 7.57699E-04 6.99499E-04
 -1     25700-1.31372E+01-1.00792E+00-4.66743E+00-3.73394E+00-9.82188E-04-4.71368E-04
 -1     25701-1.33326E+01-1.05690E+00-4.74818E+00-3.78264E+00-2.67456E-04-8.45708E-05
 -1     25702-7.82069E+00 1.38457E+00-2.12265E+00-1.78280E-01 2.70147E-04-2.38843E-04
 -1     25703-6.77476E+00 1.84237E+00-1.62794E+00 4.33295E-01 2.23753E-03-1.12026E-03
 -1     25704-6.49193E+00 2.02672E+00-1.47294E+00 7.24379E-01 1.56930E-03-4.63814E-04
 -1     25705-1.92806E+01-2.09106E+00-7.04952E+00-6.38075E+00-4.68515E-03 9.03704E-03
 -1     25706-1.77090E+01-1.76998E+00-6.42948E+00-5.51448E+00-4.79850E-06 1.11793E-03
 -1     25707-1.72962E+01-1.68493E+00-6.26469E+00-5.26364E+00 2.22221E-03-1.38293E-03
 -1     25708-1.75376E+01-1.80418E+00-6.38149E+00-5.57383E+00-1.82133E-03-2.02984E-04
 -1     25709-1.79572E+01-1.88955E+00-6.55060E+00-5.80681E+00 4.19008E-04-1.34004E-04
 -1     25710-1.58764E+01-1.46025E+00-5.72174E+00-4.68703E+00-2.16760E-04-1.92497E-04
 -1     25711-1.74541E+01-1.77072E+00-6.34371E+00-5.48595E+00-6.13336E-04 4.61395E-05
 -1     25712-1.53886E+01-1.35173E+00-5.52438E+00-4.33900E+00-6.58025E-04 4.95899E-04
 -1     25713-1.56076E+01-1.45098E+00-5.62849E+00-4.66981E+00 1.48907E-03 2.83260E-03
 -1     25714-1.68031E+01-1.66557E+00-6.09450E+00-5.19335E+00-9.76646E-05 4.68446E-03
 -1     25715-1.73296E+01-1.78818E+00-6.30660E+00-5.52523E+00 2.50850E-03-3.51662E-03
 -1     25716-1.90804E+01-2.07034E+00-6.97754E+00-6.30907E+00-9.89274E-04-8.77478E-03
 -1     25717 6.49232E+00 1.46983E+00 2.62992E+00 5.15735E+00-2.30745E-03-4.73344E-03
 -1     25718 5.95870E+00 1.00250E+00 2.29400E+00 4.82556E+00-1.97194E-03-2.02645E-03
 -1     25719 6.70231E+00 1.31474E+00 2.64575E+00 5.10021E+00-5.32112E-03 3.44930E-03
 -1     25720 4.95023E+00-5.95806E-02 1.61380E+00 3.96864E+00 4.08113E-04-5.41925E-04
 -1     25721 5.22042E+00-1.19356E-01 1.68334E+00 3.87199E+00-7.92268E-04 2.24728E-04
 -1     25722 5.51555E+00 2.85597E-01 1.91411E+00 4.29081E+00 8.34864E-04-2.04652E-04
 -1     25723 5.77864E+00 1.99689E-01 1.97255E+00 4.19535E+00 7.30204E-04 1.19115E-03
 -1     25724 1.26582E+01 1.08515E+01 7.75567E+00 1.17264E+01-2.41497E-03-4.23169E-04
 -1     25725 1.27136E+01 1.08737E+01 7.78557E+00 1.17639E+01 2.31709E-03 2.97863E-03
 -1     25726 1.21049E+01 1.05468E+01 7.47535E+00 1.13020E+01-4.54817E-04 2.57444E-03
 -1     25727 4.28485E+00 6.42427E-01 1.62635E+00 4.32847E+00 2.68052E-03 7.46553E-05
 -1     25728 3.39063E+00-7.48726E-02 1.09413E+00 3.84932E+00 3.73672E-04 1.44476E-03
 -1     25729 4.98504E+00 7.30814E-01 1.88667E+00 4.51207E+00-2.70307E-03 9.89491E-04
 -1     25730 3.18915E+00 1.46842E-01 1.10067E+00 3.89965E+00 2.11862E-03 1.87831E-03
 -1     25731 9.95469E+00 5.54179E+00 5.11506E+00 7.96029E+00 1.01007E-03-2.57612E-05
 -1     25732 1.04133E+01 6.31013E+00 5.51926E+00 8.47016E+00 4.12488E-03 1.54557E-03
 -1     25733 1.04290E+01 6.33702E+00 5.53459E+00 8.48509E+00-4.54801E-03-2.04515E-03
 -1     25734 1.33867E+01 1.12080E+01 8.11777E+00 1.22466E+01 2.73254E-03 4.25479E-04
 -1     25735 1.29054E+01 1.07332E+01 7.80214E+00 1.17804E+01-4.17897E-04-1.10517E-04
 -1     25736 1.25101E+01 1.03891E+01 7.55706E+00 1.14265E+01-2.02974E-03-3.90892E-04
 -1     25737 1.30744E+01 1.09079E+01 7.91565E+00 1.19467E+01-9.89799E-04-1.02761E-03
 -1     25738 1.34542E+01 1.12602E+01 8.15724E+00 1.23023E+01-2.59834E-04-6.27523E-05
 -1     25739 1.25969E+01 1.04305E+01 7.60045E+00 1.14853E+01-2.56870E-03-7.69405E-04
 -1     25740-1.57008E+01-1.52737E+00-5.68584E+00-4.88867E+00 6.82344E-05 2.97665E-03
 -1     25741-1.66231E+01-1.67977E+00-6.03914E+00-5.27555E+00 3.74093E-03 3.17023E-03
 -1     25742-1.51978E+01-1.41983E+00-5.48380E+00-4.61828E+00 2.65296E-03-1.94794E-03
 -1     25743-1.44536E+01-1.29361E+00-5.19653E+00-4.35047E+00-1.89032E-03 7.60860E-04
 -1     25744-1.59123E+01-1.58169E+00-5.77175E+00-5.01332E+00-1.41275E-03 6.07975E-03
 -1     25745-1.53948E+01-1.46729E+00-5.56337E+00-4.74903E+00-6.14621E-05-5.31218E-04
 -1     25746-1.33570E+01-1.07370E+00-4.76089E+00-3.85477E+00-3.62790E-04-1.69557E-03
 -1     25747-1.14381E+01-3.27195E-01-3.88200E+00-2.56741E+00 8.87623E-04 4.81990E-04
 -1     25748-1.19078E+01-4.60793E-01-4.08279E+00-2.84491E+00 2.16963E-04 1.43653E-03
 -1     25749-1.33178E+01-9.86505E-01-4.71971E+00-3.74778E+00-7.21105E-04-1.11930E-03
 -1     25750-1.28286E+01-8.53936E-01-4.51445E+00-3.47345E+00-5.15951E-04 9.51128E-04
 -1     25751-1.13955E+01-2.42191E-01-3.84027E+00-2.47616E+00 2.12952E-04-3.68741E-04
 -1     25752 8.39751E+00 3.19338E+00 3.82495E+00 5.07909E+00-5.42880E-04-4.27140E-04
 -1     25753 8.42392E+00 3.08466E+00 3.79783E+00 4.86700E+00-7.66469E-05 6.03471E-04
 -1     25754 8.58458E+00 2.98484E+00 3.81760E+00 4.96976E+00 6.09271E-04 7.48712E-04
 -1     25755-1.93040E+01-2.01210E+00-7.03504E+00-6.20063E+00 3.29182E-03 2.95872E-03
 -1     25756-1.94690E+01-2.04688E+00-7.09277E+00-6.24887E+00 2.92134E-03 6.64126E-03
 -1     25757-1.88418E+01-1.78155E+00-6.80408E+00-5.71050E+00 6.68803E-03 8.64766E-03
 -1     25758-1.98383E+01-2.03039E+00-7.21820E+00-6.31421E+00 3.71794E-03-3.87015E-05
 -1     25759-2.00007E+01-2.04235E+00-7.27451E+00-6.37061E+00 2.44480E-04 6.06016E-03
 -1     25760 1.04382E+01 9.73984E+00 6.65139E+00 1.01336E+01 2.19095E-03 9.58390E-03
 -1     25761 1.00022E+01 9.42180E+00 6.40140E+00 9.77957E+00 7.31520E-03-2.62933E-04
 -1     25762 1.01913E+01 9.58007E+00 6.52030E+00 9.92566E+00 1.54490E-03 5.41584E-03
 -1     25763-1.72847E+01-1.63334E+00-6.24237E+00-5.10399E+00 2.92152E-03 2.40555E-03
 -1     25764-1.76301E+01-1.61467E+00-6.34684E+00-5.09153E+00 1.60746E-03-1.52922E-03
 -1     25765-1.70404E+01-1.57523E+00-6.14488E+00-4.97922E+00 5.34929E-03 3.53005E-04
 -1     25766-1.85357E+01-1.81460E+00-6.71592E+00-5.74579E+00 1.24367E-04-2.23416E-03
 -1     25767-1.73777E+01-1.56402E+00-6.24928E+00-4.95967E+00 1.65024E-03 1.30340E-03
 -1     25768 8.94078E+00 2.36872E+00 3.73125E+00 4.90323E+00-1.13720E-03-4.28406E-03
 -1     25769-8.72977E+00-6.94546E-01-3.11199E+00-2.67431E-01-9.52078E-04-6.57229E-03
 -1     25770-7.39974E+00-6.84480E-01-2.66785E+00 3.80519E-01 2.93206E-03 4.32434E-04
 -1     25771-8.89895E+00-8.36037E-01-3.21367E+00-8.49719E-02-2.26736E-03-3.50547E-03
 -1     25772-1.89525E+01-1.96848E+00-6.90271E+00-6.12492E+00-2.54808E-04 1.24582E-03
 -1     25773-1.77018E+01-1.76202E+00-6.42345E+00-5.50189E+00-1.52825E-03 1.20417E-05
 -1     25774-1.70294E+01-1.57384E+00-6.14017E+00-4.96320E+00-2.47810E-03-2.21789E-03
 -1     25775-1.57085E+01-1.36495E+00-5.63423E+00-4.32836E+00 1.14522E-03-7.96103E-04
 -1     25776-7.49092E+00-9.50293E-01-2.79076E+00 5.86717E-01 1.76065E-04 1.91582E-03
 -1     25777-1.85388E+01-1.86957E+00-6.73646E+00-5.87923E+00 3.85800E-03-4.45703E-03
 -1     25778-1.87623E+01-1.92399E+00-6.82866E+00-6.00466E+00-3.34361E-04-4.88827E-03
 -1     25779-6.80182E+00-4.39175E-01-2.38639E+00-1.67312E+00 1.38237E-02-4.56621E-02
 -1     25780-6.50893E+00-5.22934E-01-2.30023E+00-1.79793E+00 4.02244E-02 1.48667E-02
 -1     25781-5.45156E+00-7.26609E-01-1.97867E+00-1.48231E+00-3.29575E-01-3.33550E-02
 -1     25782-4.31842E+00 6.32625E-02-1.40395E+00 1.21232E+00 5.09802E-04-3.11479E-03
 -1     25783-3.12442E+00 1.30840E-01-9.90437E-01 1.75531E+00 4.87121E-04 5.27153E-04
 -1     25784-3.16237E+00 3.25379E-01-9.37996E-01 1.65085E+00 2.77846E-03 9.50443E-04
 -1     25785 1.00133E+01 7.05211E+00 5.63169E+00 8.73186E+00 2.46765E-04-1.93516E-04
 -1     25786 9.23982E+00 6.40585E+00 5.16334E+00 8.12108E+00 4.44627E-04-8.52189E-04
 -1     25787 9.35672E+00 6.23547E+00 5.14540E+00 8.10138E+00-1.06485E-03-1.90998E-03
 -1     25788 1.00505E+01 8.89276E+00 6.24973E+00 9.57922E+00 3.00316E-04-2.20474E-03
 -1     25789 9.09934E+00 8.19800E+00 5.70715E+00 8.84834E+00-1.52837E-03 1.11358E-03
 -1     25790 1.25129E+01 1.02722E+01 7.51756E+00 1.13623E+01 1.30360E-03-1.33704E-03
 -1     25791 1.24479E+01 1.01404E+01 7.45299E+00 1.12648E+01-1.34108E-03-4.15693E-04
 -1     25792 1.28684E+01 1.06287E+01 7.75262E+00 1.17057E+01 1.25154E-03 8.70384E-04
 -1     25793 1.33207E+01 1.11257E+01 8.06629E+00 1.21774E+01 1.89835E-03-9.93771E-04
 -1     25794-1.79799E+01-1.58448E+00-6.45525E+00-5.00103E+00-3.71769E-03-9.75269E-03
 -1     25795-1.73577E+01-1.56080E+00-6.24456E+00-4.93927E+00-5.21298E-04-3.58585E-03
 -1     25796-1.91937E+01-1.78428E+00-6.91817E+00-5.72089E+00-4.72967E-03-3.38426E-03
 -1     25797-1.85532E+01-1.74480E+00-6.70173E+00-5.61962E+00 1.65839E-03 1.23385E-04
 -1     25798 9.68024E+00 5.73235E+00 5.08593E+00 7.96597E+00-2.40565E-04-1.27372E-03
 -1     25799 9.58583E+00 5.91229E+00 5.11440E+00 8.03670E+00-2.00775E-03-8.23943E-04
 -1     25800 1.03833E+01 6.95029E+00 5.71884E+00 8.82054E+00 1.66915E-03-2.20055E-03
 -1     25801 1.04369E+01 6.75483E+00 5.67448E+00 8.73602E+00 1.07678E-03 7.77855E-04
 -1     25802 4.11992E+00 2.56672E+00 2.20419E+00 3.48244E+00-2.22906E-03 3.84559E-03
 -1     25803 4.89964E+00 2.84034E+00 2.55210E+00 3.94299E+00 9.74249E-03-2.25822E-03
 -1     25804 4.14033E+00 2.52118E+00 2.20368E+00 3.46812E+00 2.19378E-02 7.75291E-03
 -1     25805 1.01290E+01 5.19973E+00 5.05828E+00 7.54916E+00 1.66155E-03 9.15701E-04
 -1     25806 1.00570E+01 4.65775E+00 4.85574E+00 7.30405E+00-3.37441E-04-4.89637E-04
 -1     25807 9.98095E+00 5.00147E+00 4.94419E+00 7.34728E+00 1.05620E-03 6.58093E-04
 -1     25808 9.96915E+00 4.47922E+00 4.76813E+00 7.10079E+00-1.98979E-04-1.40705E-03
 -1     25809 6.30521E+00 3.31384E+00 3.17451E+00 4.78796E+00-1.56067E-03-2.27751E-04
 -1     25810 6.51261E+00 3.38218E+00 3.26499E+00 4.82807E+00 2.55378E-05 1.21988E-04
 -1     25811 5.48365E+00 7.29015E+00 4.25524E+00 6.73955E+00 6.65951E-03-7.26343E-03
 -1     25812 6.05078E+00 7.53211E+00 4.47772E+00 6.97838E+00-1.69992E-02-4.17847E-03
 -1     25813 4.97480E+00 8.03949E+00 4.29405E+00 6.98918E+00 1.19610E-02-9.20225E-03
 -1     25814 7.42213E+00 7.38706E+00 4.90796E+00 7.46322E+00 2.17704E-03-1.16171E-03
 -1     25815 7.65685E+00 7.54902E+00 4.99950E+00 7.68856E+00-1.11139E-02 3.56555E-04
 -1     25816 1.76935E+00 8.56010E-01 8.66471E-01 3.65201E+00-8.22470E-04-1.27249E-06
 -1     25817 2.60350E+00 1.21633E+00 1.25915E+00 3.99348E+00-4.42477E-04-1.52205E-03
 -1     25818 5.28951E+00 3.03209E+00 2.74201E+00 4.32161E+00-5.92580E-03-2.54488E-03
 -1     25819 5.08232E+00 2.92176E+00 2.63450E+00 4.14686E+00 5.02568E-03-3.61193E-04
 -1     25820 5.37348E+00 3.04331E+00 2.77725E+00 4.38572E+00-9.86712E-04 1.89733E-03
 -1     25821-1.91852E+01-2.00565E+00-6.99686E+00-6.17007E+00 2.11366E-03-2.91660E-03
 -1     25822-1.94785E+01-2.13245E+00-7.13338E+00-6.42241E+00 3.25530E-03-2.70632E-03
 -1     25823-1.94011E+01-2.05625E+00-7.08031E+00-6.29355E+00-8.78766E-04-3.70566E-04
 -1     25824-2.76570E+00 2.89363E+00 4.22144E-02 1.92807E+00 7.22435E-05 9.02282E-05
 -1     25825 7.61016E+00 5.90745E+00 4.46215E+00 6.70795E+00 3.54639E-03 2.56660E-03
 -1     25826 7.73104E+00 6.01442E+00 4.53563E+00 6.82180E+00-2.83858E-03-7.09003E-04
 -1     25827 7.49581E+00 5.60554E+00 4.32252E+00 6.49147E+00 9.75982E-04 1.22313E-03
 -1     25828 7.39354E+00 5.50515E+00 4.25625E+00 6.39003E+00-5.20873E-04 1.99011E-03
 -1     25829 7.74516E+00 5.37615E+00 4.33139E+00 6.47532E+00 3.17557E-03 2.64533E-03
 -1     25830-2.14982E+00 6.09008E-01-5.09490E-01 2.04166E+00 9.13697E-04 2.98474E-03
 -1     25831-1.96892E+00 4.39047E-01-5.05644E-01 2.16568E+00 3.44067E-03 2.08126E-03
 -1     25832-1.04624E+00 8.09553E-01-7.71133E-02 2.52051E+00-4.24974E-04-4.08931E-04
 -1     25833 8.14154E+00 3.37047E+00 3.79898E+00 5.14736E+00 7.51359E-04 9.62870E-04
 -1     25834 7.95928E+00 3.40057E+00 3.74897E+00 5.02344E+00 4.62459E-04 1.33837E-03
 -1     25835 8.20103E+00 3.23157E+00 3.77294E+00 4.94869E+00-1.11923E-03-2.62287E-04
 -1     25836 6.77913E+00 4.34023E+00 3.66893E+00 5.40606E+00-1.58489E-03 2.64304E-04
 -1     25837 7.21576E+00 4.15085E+00 3.75082E+00 5.44835E+00-7.69121E-04-4.79600E-04
 -1     25838-9.33058E+00-1.00806E+00-3.40736E+00-3.88197E-02 6.43658E-03 5.33854E-03
 -1     25839-9.11194E+00-8.32378E-01-3.28106E+00-2.17027E-01 8.53852E-04 4.07445E-03
 -1     25840-3.45042E+00-5.50379E-01-1.31823E+00 1.89499E+00-1.26816E-03-4.24725E-03
 -1     25841-2.28376E+00-2.60925E-01-8.37903E-01 2.23649E+00 2.65255E-03-1.00370E-03
 -1     25842 7.44853E+00 4.74997E+00 4.02552E+00 5.96951E+00 1.75324E-03 2.73286E-03
 -1     25843 7.15310E+00 4.68325E+00 3.90568E+00 5.79147E+00 8.50443E-04-1.20279E-04
 -1     25844 7.77954E+00 4.29099E+00 3.98338E+00 5.79777E+00-1.28835E-03-2.58128E-04
 -1     25845 1.25485E+01 1.01171E+01 7.48312E+00 1.12888E+01-3.45628E-03-3.11094E-03
 -1     25846 1.24034E+01 9.98000E+00 7.38531E+00 1.11374E+01-4.11913E-03 1.17079E-03
 -1     25847 1.25049E+01 1.00778E+01 7.44925E+00 1.12410E+01-1.94112E-03 2.90772E-03
 -1     25848 4.40969E+00 1.33431E+00 1.89631E+00 1.71540E+00 1.08135E-03 3.21807E-04
 -1     25849 4.26724E+00 1.01098E+00 1.74188E+00 1.77207E+00-2.41392E-03-2.87228E-03
 -1     25850 3.99363E+00 9.21864E-01 1.62063E+00 1.68501E+00-7.74899E-04-9.03655E-04
 -1     25851 4.56978E+00 6.90943E-01 1.73569E+00 2.09642E+00 1.35048E-03 1.36180E-03
 -1     25852 4.83485E+00 8.02028E-01 1.86100E+00 2.17698E+00-6.21032E-04 2.02704E-03
 -1     25853 4.42280E+00 3.95762E-01 1.59051E+00 2.15294E+00 1.76521E-03 1.47836E-03
 -1     25854-2.47072E+00-2.00211E+00-1.47735E+00 3.92820E-01-6.23871E-04 2.82231E-03
 -1     25855-1.70398E+00-1.93869E+00-1.20386E+00 8.98463E-01 1.57522E-03 2.31465E-03
 -1     25856-3.04419E+00-2.33344E+00-1.77616E+00 7.47106E-01 5.65996E-03-1.04875E-03
 -1     25857-6.78490E+00-2.95512E-01-2.35058E+00-1.52757E+00-7.66617E-03-1.17016E-03
 -1     25858-8.10963E+00-6.78210E-01-2.89614E+00-2.32933E+00-1.39295E-02 9.83426E-04
 -1     25859-6.90378E+00-3.79150E-01-2.38924E+00-1.63678E+00 3.57985E-03 9.90854E-03
 -1     25860-6.54834E+00-3.28475E-01-2.28056E+00-1.50084E+00-1.43911E-02-1.99369E-02
 -1     25861-7.80602E+00-5.54855E-01-2.76096E+00-2.19626E+00 6.43870E-03-6.59274E-03
 -1     25862-7.98652E+00-7.01171E-01-2.86540E+00-2.31480E+00 2.87350E-03-1.53710E-02
 -1     25863 9.26820E+00 7.14549E+00 5.41887E+00 8.14406E+00-6.69661E-04 3.35945E-03
 -1     25864 9.50773E+00 7.34410E+00 5.56073E+00 8.36978E+00 2.89058E-03 5.21098E-03
 -1     25865 9.16688E+00 7.04176E+00 5.34845E+00 8.03364E+00 2.65092E-03 6.12803E-03
 -1     25866 7.79864E+00 3.59555E+00 3.75990E+00 5.21071E+00-1.48058E-03-3.86254E-04
 -1     25867 7.43071E+00 3.65197E+00 3.65777E+00 5.11048E+00-2.58268E-04-5.39190E-04
 -1     25868 7.53578E+00 3.55579E+00 3.66086E+00 5.04260E+00-1.66724E-03-1.91115E-05
 -1     25869 7.63383E+00 3.47784E+00 3.66696E+00 4.94581E+00 2.51708E-03 1.37314E-04
 -1     25870 1.30099E+01 1.10278E+01 7.93382E+00 1.19868E+01 1.26231E-03 5.35138E-04
 -1     25871 1.11567E+01 9.81550E+00 6.91811E+00 1.05270E+01 1.88124E-04-3.70506E-03
 -1     25872 1.29762E+01 1.10159E+01 7.91720E+00 1.19629E+01-1.20729E-03 2.40585E-03
 -1     25873 1.18306E+01 1.02812E+01 7.29684E+00 1.10795E+01-9.48378E-05-2.13969E-04
 -1     25874 1.04183E+01 6.08076E+00 5.44438E+00 8.36033E+00-1.61675E-03 8.28950E-04
 -1     25875 1.08236E+01 6.73597E+00 5.79580E+00 8.78444E+00-3.55814E-03 3.99788E-04
 -1     25876-3.20195E+00-2.44820E+00-1.86636E+00 8.34881E-01-2.04282E-03-1.08852E-03
 -1     25877-1.84724E+00-2.03649E+00-1.28252E+00 9.88948E-01 2.06504E-03-2.35795E-04
 -1     25878-2.49015E+00-2.00627E+00-1.48176E+00 4.08184E-01-1.81706E-03-1.46495E-03
 -1     25879 1.15478E+01 9.10039E+00 6.81164E+00 1.02633E+01-1.30647E-03-1.09601E-03
 -1     25880 1.12506E+01 8.34575E+00 6.46569E+00 9.72792E+00 2.90775E-03 1.22532E-03
 -1     25881 1.11686E+01 8.83382E+00 6.60155E+00 9.94499E+00 7.26108E-04-2.35993E-03
 -1     25882 1.13532E+01 9.00756E+00 6.71717E+00 1.01238E+01 3.42550E-05 2.72071E-03
 -1     25883 8.20108E+00 3.94981E+00 4.00979E+00 5.73609E+00 4.73167E-04 7.15360E-04
 -1     25884 8.06471E+00 4.43174E+00 4.12431E+00 6.01798E+00-2.49568E-04-1.75768E-03
 -1     25885 2.50097E+00 3.63209E+00 2.02392E+00 4.27717E+00 1.90738E-04 2.20394E-04
 -1     25886 3.43263E+00 4.22406E+00 2.52695E+00 4.85492E+00 1.91339E-04-2.54991E-04
 -1     25887 3.63980E+00 4.09238E+00 2.55166E+00 4.91298E+00-3.16172E-04-3.54661E-04
 -1     25888-3.88205E+00-2.19859E+00-2.00623E+00-2.86125E-01 3.29217E-04 2.64419E-04
 -1     25889-2.77757E+00-1.52173E+00-1.41536E+00-3.53778E-01-2.43979E-04 4.29191E-03
 -1     25890-3.72826E+00-2.23917E+00-1.96360E+00-1.28705E-01 3.36635E-03-1.24469E-03
 -1     25891-4.64926E+00-2.56461E+00-2.38503E+00-3.90965E-01 2.30397E-03-7.92703E-03
 -1     25892-3.51569E+00-1.87475E+00-1.78014E+00-4.62538E-01-1.06848E-02 1.90214E-03
 -1     25893 8.88691E+00 4.81087E+00 4.51978E+00 6.63896E+00-9.67403E-04-1.34579E-03
 -1     25894 8.54354E+00 5.28810E+00 4.56440E+00 6.76259E+00 1.32107E-03-3.83915E-04
 -1     25895 8.62561E+00 4.67329E+00 4.38838E+00 6.44683E+00-3.22354E-04-2.06063E-03
 -1     25896-6.81867E+00 4.67472E-01-2.09590E+00-5.75165E-01 2.55865E-04-5.02415E-04
 -1     25897-8.13206E+00 1.10944E-01-2.64684E+00-1.21067E+00-3.61090E-04-3.05119E-04
 -1     25898-7.88821E+00 2.32750E-01-2.52612E+00-1.13566E+00-3.61256E-04-2.67006E-04
 -1     25899-5.28884E+00-2.89131E+00-2.69871E+00-4.47908E-01-1.24549E-03-3.54855E-03
 -1     25900-7.89738E-01-8.45318E-01-5.39220E-01 2.73736E+00 1.13526E-05-6.59024E-05
 -1     25901 5.47453E+00-9.78956E-02 1.77410E+00 3.74257E+00 4.54270E-04-6.56089E-04
 -1     25902 5.72612E+00-4.75944E-02 1.87391E+00 3.61850E+00-6.21200E-04-2.34234E-04
 -1     25903 6.27063E+00 1.89951E-01 2.13228E+00 3.96557E+00 3.87794E-04 1.12964E-03
 -1     25904-4.80566E+00 2.08165E+00-8.98858E-01 8.31954E-01 6.26540E-05-1.67682E-04
 -1     25905-6.13982E+00 1.51942E+00-1.52453E+00 5.95340E-02 3.63591E-04 2.56836E-04
 -1     25906-1.52795E+01-1.41892E+00-5.51103E+00-4.73925E+00 3.43027E-03 9.79279E-04
 -1     25907-1.38545E+01-1.07690E+00-4.92802E+00-4.05373E+00 1.20501E-03-1.56350E-04
 -1     25908-4.82180E+00-3.04468E+00-2.59628E+00 6.90952E-01-4.50846E-03 7.19764E-03
 -1     25909-6.43925E+00-3.47467E+00-3.27664E+00 6.02195E-01 5.04469E-03-6.20044E-03
 -1     25910-5.73294E+00-3.33293E+00-2.99647E+00 2.13193E-01-1.11417E-02 1.34686E-02
 -1     25911 1.31241E+01 1.08961E+01 7.92726E+00 1.19517E+01-6.54156E-03-4.25276E-03
 -1     25912 1.26313E+01 1.02611E+01 7.55413E+00 1.13990E+01 6.43401E-04 1.04418E-03
 -1     25913 1.29384E+01 1.06464E+01 7.78256E+00 1.17298E+01-4.67923E-03 1.22885E-03
 -1     25914 1.29980E+01 1.06999E+01 7.81831E+00 1.18033E+01 1.55850E-03 3.65991E-03
 -1     25915-5.29063E+00 2.16495E+00-1.03198E+00 1.83439E+00 5.33994E-04-1.31383E-03
 -1     25916-1.96499E+01-2.12853E+00-7.18386E+00-6.47773E+00-1.33235E-03 6.13205E-04
 -1     25917-1.95174E+01-2.13057E+00-7.14353E+00-6.43102E+00-3.54870E-03 2.28474E-03
 -1     25918-1.86418E+01-1.89157E+00-6.77622E+00-5.91003E+00-1.45487E-03 3.75984E-03
 -1     25919-1.91407E+01-1.99642E+00-6.97685E+00-6.15858E+00 1.72888E-03 4.47419E-03
 -1     25920 8.11306E+00 3.58108E+00 3.85884E+00 6.51516E+00-7.61326E-04-3.35945E-04
 -1     25921 8.30849E+00 3.39662E+00 3.86279E+00 6.47873E+00-8.49236E-04-6.72649E-05
 -1     25922 7.61398E+00 2.93371E+00 3.48109E+00 6.08231E+00-4.32952E-04-8.36841E-04
 -1     25923 7.39391E+00 3.11866E+00 3.46914E+00 6.11281E+00 6.46667E-05 5.57246E-05
 -1     25924-2.93056E+01-1.13259E+01-1.34356E+01 1.08659E+00-1.57554E-01 2.46923E-02
 -1     25925-5.00857E+01-1.37785E+01-2.08815E+01 1.70593E+00-1.95435E-02 2.05681E-01
 -1     25926-2.76779E+01-1.11207E+01-1.26381E+01 1.06209E+00 4.72444E-02-1.09735E-01
 -1     25927 9.38564E-01 5.11462E+00 1.99756E+00 4.41413E+00-1.20675E-04 8.77093E-05
 -1     25928 2.29592E+00 5.69626E+00 2.63726E+00 5.13937E+00-1.17296E-04-4.17130E-05
 -1     25929 1.29258E+00 5.08494E+00 2.10462E+00 4.47218E+00-2.64186E-04 6.97259E-05
 -1     25930-8.94891E+00-4.49817E+00-4.44353E+00-2.81626E-01 3.37749E-03 1.76604E-03
 -1     25931-6.97763E+00-3.81546E+00-3.55778E+00-3.20831E-02-5.08123E-03 2.54331E-03
 -1     25932-7.75714E+00-4.05496E+00-3.90020E+00-1.05328E-01-1.76899E-03-4.62503E-03
 -1     25933-1.03431E+01-4.57261E+00-4.92324E+00 3.26847E-01 3.74887E-03 1.62762E-03
 -1     25934-9.48239E+00-4.26824E+00-4.53329E+00 3.64669E-01 6.17129E-03 2.26562E-03
 -1     25935-8.28400E+00-3.90582E+00-4.02029E+00 5.28724E-01 8.21790E-03 2.05034E-05
 -1     25936-6.45302E+00-3.50541E+00-3.28791E+00-1.37658E-01 1.06660E-02 3.26470E-03
 -1     25937-5.39005E+00-3.15549E+00-2.81262E+00 5.94830E-02 1.46557E-02-1.53032E-02
 -1     25938-6.48016E+00-3.53989E+00-3.30347E+00 5.91151E-01-3.69127E-03 5.65652E-03
 -1     25939-7.63467E+00-3.92917E+00-3.82015E+00 4.20682E-01-5.77480E-03 1.38451E-02
 -1     25940-5.89974E+00-3.26763E+00-3.03301E+00 4.90612E-01-1.06907E-03 9.52678E-03
 -1     25941-5.65927E+00 2.32942E+00-1.09854E+00 1.03774E+00 7.21591E-07-1.28469E-03
 -1     25942-6.16082E+00 1.98959E+00-1.37653E+00 5.73436E-01-3.10812E-04-3.47244E-04
 -1     25943-5.71620E+00 2.30513E+00-1.12582E+00 1.01468E+00-3.24586E-04 6.84516E-04
 -1     25944-7.29266E+00 1.52294E+00-1.90405E+00-3.48577E-02-4.89698E-05-2.16797E-04
 -1     25945-4.10948E+00-2.28437E+00-2.10998E+00 1.81067E+00 3.23918E-05-3.34295E-04
 -1     25946-4.67861E+00-2.07420E+00-2.22861E+00 1.80397E+00-5.40109E-04-3.05430E-04
 -1     25947-1.68649E+01-1.74703E+00-6.14236E+00-5.44678E+00-6.01345E-04 9.06397E-04
 -1     25948-1.69155E+01-1.75822E+00-6.16175E+00-5.46100E+00-4.38119E-04-4.54047E-04
 -1     25949-1.79395E+01-1.94718E+00-6.56232E+00-5.91294E+00 9.62678E-04-6.18639E-04
 -1     25950-1.60199E+01-1.59242E+00-5.81161E+00-5.07908E+00 3.62319E-04 3.31370E-03
 -1     25951-1.79828E+01-1.94959E+00-6.57812E+00-5.92520E+00-4.55222E-04-9.16491E-04
 -1     25952 8.06437E+00 3.76244E+00 3.90367E+00 4.31644E+00 1.55959E-03 6.00552E-04
 -1     25953 8.06968E+00 3.75306E+00 3.90277E+00 4.37572E+00-1.39684E-03-3.63113E-03
 -1     25954-4.38360E+00 1.83938E+00-8.39747E-01 7.83273E-01 5.14391E-04 3.94918E-04
 -1     25955-1.67274E+01-1.70944E+00-6.08346E+00-5.39107E+00-5.26306E-04-1.32274E-03
 -1     25956-1.37992E+01-1.64464E+00-5.09438E+00-6.48876E-01-1.56739E-02 1.35403E-02
 -1     25957-1.34189E+01-1.42026E+00-4.90160E+00-1.05297E+00-4.17516E-03 2.39602E-03
 -1     25958-1.68209E+01-1.77121E+00-6.11730E+00-1.30475E+00-4.06275E-03 8.18923E-03
 -1     25959-1.42711E+01-1.86546E+00-5.32236E+00-3.94128E-01-3.24928E-03 8.60255E-03
 -1     25960-1.63877E+01-1.50064E+00-5.89357E+00-1.76352E+00-6.51125E-03 1.56458E-02
 -1     25961-1.40810E+01-5.09141E+00-6.34100E+00 4.34826E-01 1.79008E-02-5.14064E-04
 -1     25962-1.31792E+01-4.08234E+00-5.69737E+00 7.67031E-01 7.57229E-03-8.10544E-03
 -1     25963-1.16857E+01-5.01013E+00-5.50506E+00 4.62949E-01 1.75341E-02-2.98600E-03
 -1     25964-1.29460E+01-5.68983E+00-6.15567E+00 1.31384E-01 7.11406E-04 3.28256E-03
 -1     25965-1.21194E+01-4.88022E+00-5.60941E+00 5.69825E-01 1.23315E-02-5.41582E-03
 -1     25966-1.65774E+01-1.68991E+00-6.02906E+00-5.32735E+00 2.24986E-03-4.26750E-04
 -1     25967-1.66561E+01-1.69953E+00-6.05851E+00-5.36401E+00 2.51393E-03 6.09461E-04
 -1     25968 4.90765E+00 7.52929E+00 4.10418E+00 7.01937E+00 6.59012E-04 7.78509E-04
 -1     25969 3.97361E+00 6.95513E+00 3.60697E+00 6.41539E+00 3.39193E-04 9.00445E-04
 -1     25970-3.99576E+00-7.82243E-01-1.57803E+00 1.79365E+00 2.32168E-03 5.20558E-03
 -1     25971 1.08881E+00 5.75600E+00 2.25912E+00 4.95608E+00-5.85316E-04 7.33824E-04
 -1     25972-4.46500E-01 5.02221E+00 1.50995E+00 4.14772E+00-6.47649E-04-5.50338E-04
 -1     25973 5.37944E-01 5.66693E+00 2.04731E+00 4.81661E+00 3.77822E-04-2.85768E-04
 -1     25974 1.26140E+01 1.07922E+01 7.71979E+00 1.16697E+01 6.05173E-03-9.09718E-04
 -1     25975-1.43986E+01-1.18277E+00-5.14197E+00-3.69215E+00-1.23911E-03-7.69067E-05
 -1     25976-1.40978E+01-1.15730E+00-5.03447E+00-3.71865E+00-8.29394E-04-5.62477E-04
 -1     25977-9.66725E-01 4.99141E+00 1.32810E+00 4.09561E+00-9.47427E-04-4.18603E-04
 -1     25978 1.21873E+00-1.36988E+00-4.99166E-02 2.53080E+00 5.32150E-04 2.57959E-04
 -1     25979-4.14688E+00 2.04581E+00-6.93526E-01 9.82270E-01 3.56214E-04 1.82880E-05
 -1     25980-2.87687E+00 2.45484E+00-1.39243E-01 1.62280E+00-4.61706E-04-5.69023E-04
 -1     25981 3.31072E+00 5.60119E+00 2.94088E+00 5.36170E+00-1.31225E-04-1.11764E-04
 -1     25982 2.28319E+00 4.97274E+00 2.39446E+00 4.67911E+00 6.18603E-05-4.27037E-04
 -1     25983 3.62121E+00 5.57168E+00 3.03363E+00 5.45049E+00 2.63465E-04 8.24254E-05
 -1     25984-1.99179E+00 4.26048E+00 7.48459E-01 3.28335E+00-2.54564E-04-1.64058E-04
 -1     25985 5.60139E+00 1.15295E+00 2.22968E+00 4.83197E+00-1.73839E-03 4.98299E-03
 -1     25986 6.14404E+00 1.63312E+00 2.56457E+00 5.16365E+00-2.14825E-03 5.61569E-03
 -1     25987-3.77666E+00-2.70513E+00-2.13900E+00 1.19120E+00 2.95708E-04-1.37172E-03
 -1     25988-2.37092E+00-2.25552E+00-1.52707E+00 1.30891E+00-5.81322E-04 1.22048E-03
 -1     25989-1.67732E+01-1.71791E+00-6.10468E+00-5.41073E+00 4.83143E-05-1.12452E-04
 -1     25990-1.05788E+01-3.70465E-01-3.61362E+00-2.37714E+00 1.81600E-03 1.79577E-03
 -1     25991-1.27515E+01-1.30311E+00-4.63757E+00-4.05916E+00 3.34461E-03-2.06673E-03
 -1     25992-9.81166E+00-1.10025E-01-3.27869E+00-1.90875E+00-6.49044E-04 1.59123E-03
 -1     25993-1.01613E+01-3.15344E-01-3.45545E+00-2.22480E+00 1.76933E-03 1.88997E-03
 -1     25994-1.23548E+01-1.26899E+00-4.49358E+00-3.93091E+00 1.56826E-03-2.57751E-03
 -1     25995-4.41430E+00-2.66970E+00-2.33802E+00 1.38382E+00 1.52519E-03-9.18095E-04
 -1     25996-2.93832E+00-2.42391E+00-1.76976E+00 1.54375E+00 1.23261E-03 1.10370E-05
 -1     25997 3.62381E+00 6.25969E+00 3.26155E+00 5.85119E+00-6.23719E-05 3.80104E-04
 -1     25998 2.60790E+00 5.64182E+00 2.72259E+00 5.18035E+00-3.37882E-04 2.49842E-04
 -1     25999-2.31224E-01 4.43501E+00 1.38733E+00 3.65602E+00-3.37307E-05 2.94714E-04
 -1     26000 1.54465E+00 5.00657E+00 2.16190E+00 4.47958E+00 2.55665E-05-2.74697E-04
 -1     26001 3.13103E-02 4.36417E+00 1.45054E+00 3.66049E+00-7.93754E-05 2.21185E-04
 -1     26002-2.41922E+00 2.47439E+00 1.87462E-02 1.80178E+00-1.82753E-04-6.12613E-04
 -1     26003-1.29465E+00 3.13779E+00 6.08381E-01 2.51034E+00 3.42478E-04 4.24291E-04
 -1     26004-1.23564E+00 2.89277E+00 5.46912E-01 2.43042E+00 2.66242E-04 7.77606E-04
 -1     26005-1.31310E+01-1.36565E+00-4.78542E+00-4.22475E+00-2.39235E-03-2.83478E-03
 -1     26006-1.34792E+01-1.39653E+00-4.91085E+00-4.33399E+00-1.76066E-03-2.16221E-03
 -1     26007-1.36640E+01-1.41255E+00-4.97620E+00-4.39901E+00-1.01129E-03-1.38942E-03
 -1     26008 7.16501E+00 1.85096E+00 2.97793E+00 3.14882E+00-4.10557E-03-5.68537E-03
 -1     26009 7.45989E+00 2.03659E+00 3.13056E+00 3.30675E+00-1.95579E-03 4.44932E-03
 -1     26010 7.67601E+00 1.65442E+00 3.08080E+00 3.52741E+00 3.59086E-03 4.51914E-03
 -1     26011 6.91078E+00 1.35552E+00 2.73008E+00 3.11663E+00-2.16596E-03-9.71093E-04
 -1     26012 6.70563E+00 1.71265E+00 2.77860E+00 2.86669E+00-1.61510E-02 3.96500E-03
 -1     26013-6.87659E+00-1.93681E+00-2.90916E+00 1.38670E+00 4.22232E-04-2.93570E-03
 -1     26014-9.43510E+00-1.70737E+00-3.67439E+00 6.84851E-01 1.57003E-03-3.77101E-03
 -1     26015-8.70955E+00-1.99588E+00-3.52871E+00 9.78734E-01 4.15732E-04 1.94054E-04
 -1     26016-6.19012E+00-2.18308E+00-2.76326E+00 1.57074E+00-2.67279E-03 1.05479E-03
 -1     26017-8.87471E+00-2.05838E+00-3.60454E+00 9.68284E-01-1.49744E-03-2.00452E-03
 -1     26018-2.02192E+01-1.52451E+00-7.16594E+00-4.55238E+00 5.00946E-03-6.49050E-03
 -1     26019-1.89489E+01-1.38724E+00-6.71986E+00-4.28968E+00 5.19861E-03-2.12992E-02
 -1     26020-2.03084E+01-1.43831E+00-7.18976E+00-5.17281E+00-9.43666E-03-2.66989E-02
 -1     26021-2.08356E+01-1.51367E+00-7.38898E+00-4.17152E+00 8.20674E-03 1.14597E-02
 -1     26022-1.95816E+01-1.40563E+00-6.93438E+00-3.93074E+00 1.27333E-02-1.76655E-02
 -1     26023 5.59963E+00 2.21739E+00 2.58076E+00 2.13569E+00 4.50998E-03 1.51990E-03
 -1     26024 5.88539E+00 1.36487E+00 2.39327E+00 2.49002E+00 1.44407E-03-7.75109E-03
 -1     26025 6.10849E+00 1.94221E+00 2.65790E+00 2.48921E+00-5.50319E-03 4.03933E-03
 -1     26026 4.98085E+00 1.89015E+00 2.26776E+00 1.85379E+00 9.27263E-03 4.84240E-03
 -1     26027 5.53163E+00 1.66353E+00 2.37446E+00 2.22327E+00-2.42848E-03 1.21407E-03
 -1     26028-1.95403E+01-1.60974E+00-6.98700E+00-5.22585E+00-8.47426E-03 1.67348E-03
 -1     26029-1.82512E+01-1.42092E+00-6.49873E+00-4.43917E+00-7.12362E-03 2.69026E-03
 -1     26030 1.27563E+01 1.08659E+01 7.79645E+00 1.17774E+01-1.65502E-03 7.22862E-04
 -1     26031 1.07914E+01 9.68116E+00 6.75409E+00 1.02904E+01 1.96880E-03 3.11657E-03
 -1     26032 1.27781E+01 1.08768E+01 7.80978E+00 1.18050E+01 6.37863E-04-1.39158E-03
 -1     26033 1.09529E+01 7.94803E+00 6.23815E+00 9.50124E+00 2.47999E-03 6.54668E-04
 -1     26034 1.03421E+01 7.15129E+00 5.77341E+00 8.88581E+00-9.77327E-04-2.70852E-03
 -1     26035-8.29875E+00-1.18979E+00-3.13105E+00 4.91829E-01 3.32474E-04-6.16752E-03
 -1     26036-1.01535E+01-1.24610E+00-3.76213E+00-4.69774E-03-2.58411E-03-1.74810E-03
 -1     26037-8.06600E+00-1.14974E+00-3.03814E+00 5.19893E-01 2.00672E-04 4.60261E-03
 -1     26038-7.36180E+00-1.59349E+00-2.95525E+00 1.15282E+00-1.15706E-03 1.20921E-03
 -1     26039-9.20574E+00-1.64055E+00-3.57944E+00 6.90956E-01-1.55471E-03 9.34279E-03
 -1     26040 3.99078E+00 6.24977E+00 3.37970E+00 5.94791E+00-2.94788E-04-6.71876E-05
 -1     26041-1.21644E+01-1.55544E+00-4.52302E+00-2.97424E-01-1.37568E-02-3.60168E-03
 -1     26042-1.22236E+01-1.88960E+00-4.65849E+00 9.46780E-02 2.33938E-03-1.16018E-02
 -1     26043-1.08547E+01-1.68486E+00-4.13875E+00 2.74446E-01-7.60240E-03-4.23352E-03
 -1     26044 6.88296E+00 2.76150E+00 3.18580E+00 2.81641E+00 3.30997E-03-1.06691E-02
 -1     26045 1.00487E+01 6.67041E+00 5.51718E+00 8.25449E+00 2.37348E-03-2.50764E-05
 -1     26046 9.83976E+00 5.70114E+00 5.13106E+00 7.64514E+00-2.62888E-03-1.34759E-03
 -1     26047 1.00785E+01 5.80938E+00 5.24327E+00 7.82868E+00 1.23390E-03-1.10414E-03
 -1     26048 1.31882E+01 1.11144E+01 8.01783E+00 1.21077E+01-7.84812E-04-2.15514E-03
 -1     26049 1.27815E+01 1.07463E+01 7.76679E+00 1.17421E+01 2.70604E-03-5.56841E-04
 -1     26050 1.21368E+01 1.02497E+01 7.38924E+00 1.11819E+01 3.05896E-03 3.94579E-04
 -1     26051 1.27970E+01 1.07488E+01 7.76959E+00 1.17428E+01 7.65206E-04-9.78257E-04
 -1     26052-1.68862E-01 7.24358E+00 2.33422E+00 6.39073E+00-6.84858E-04-2.75735E-03
 -1     26053 8.93960E-01 7.94036E+00 2.91541E+00 6.89545E+00-1.29318E-03-4.17586E-03
 -1     26054-1.84043E-01 1.22483E+01 3.98632E+00 6.06271E+00-5.74284E-02-1.35068E-02
 -1     26055-1.55456E-01 1.05252E+01 3.41756E+00 5.66391E+00-1.61020E-02 3.96074E-02
 -1     26056-3.51016E-01 8.13258E+00 2.57195E+00 5.16864E+00 3.49161E-02-8.71418E-03
 -1     26057-4.71271E-02 9.88075E+00 3.23305E+00 5.71520E+00-3.24297E-02-1.28176E-02
 -1     26058 7.71726E-02 1.26214E+01 4.19485E+00 6.10180E+00 7.59246E-03 2.85505E-02
 -1     26059-3.97233E-01 7.54967E+00 2.31515E+00 4.92232E+00 2.38048E-02 6.56174E-02
 -1     26060 9.86064E+00 7.74570E+00 5.80880E+00 8.73715E+00 5.68333E-04-5.22537E-04
 -1     26061 1.00904E+01 7.93461E+00 5.95015E+00 8.95444E+00 1.81131E-03-3.72727E-03
 -1     26062 1.02166E+01 8.03470E+00 6.02300E+00 9.06449E+00-1.07129E-03-9.82914E-04
 -1     26063-1.51011E-01 1.11942E+01 3.65505E+00 6.87267E+00-1.31017E-02 2.46719E-03
 -1     26064-9.87616E-02 1.09965E+01 3.59505E+00 6.94752E+00-1.83525E-02-9.31871E-03
 -1     26065-1.28503E-01 9.88906E+00 3.22293E+00 7.26975E+00-3.56556E-03-6.76382E-03
 -1     26066 4.81019E+00 8.82755E+00 4.50142E+00 7.72319E+00-1.66840E-03 1.19638E-03
 -1     26067 7.08476E+00 8.93566E+00 5.29218E+00 8.32125E+00 6.33515E-03-9.34864E-03
 -1     26068 1.22717E+01 1.00019E+01 7.35084E+00 1.11185E+01 1.01149E-03 7.42911E-04
 -1     26069 1.18597E+01 9.61148E+00 7.08602E+00 1.07312E+01 9.83226E-04 1.63982E-03
 -1     26070 1.20693E+01 9.93470E+00 7.26132E+00 1.09903E+01-3.46446E-04-1.58474E-04
 -1     26071 1.25020E+01 1.03267E+01 7.53347E+00 1.13849E+01-1.42144E-04-2.23705E-04
 -1     26072 1.18548E+01 9.60210E+00 7.08091E+00 1.07174E+01 9.45676E-04-2.59285E-04
 -1     26073 1.92455E+00 7.00236E+00 2.94423E+00 5.92544E+00-4.28954E-02-4.22329E-02
 -1     26074 1.78456E+00 6.95908E+00 2.87512E+00 6.19234E+00-4.03210E-02-5.10386E-02
 -1     26075 4.80440E+00 7.65556E+00 4.10415E+00 6.83052E+00-2.06003E-02-1.59737E-02
 -1     26076 6.89173E+00 3.46371E+00 3.41734E+00 6.09626E+00-2.64812E-04 1.50902E-03
 -1     26077 7.25273E+00 4.28373E+00 3.80667E+00 6.52077E+00-8.47220E-04-7.73620E-04
 -1     26078-7.43250E+00-6.45959E-01-2.66181E+00-2.20666E+00-5.79872E-03-7.90118E-03
 -1     26079-8.99102E+00-1.10114E+00-3.35097E+00-2.98651E+00-1.77608E-02-1.11440E-02
 -1     26080-4.66476E+00 6.05980E-01-1.33362E+00-2.16800E-01 1.84535E-02 1.31580E-02
 -1     26081-6.08122E+00 9.24921E-04-1.99911E+00-1.07380E+00 1.42707E-03 2.65264E-02
 -1     26082 6.17050E+00 4.27671E+00 3.44698E+00 5.13431E+00 4.15617E-04 7.95387E-04
 -1     26083 6.64261E+00 3.86984E+00 3.47108E+00 4.99026E+00-6.91624E-04 2.00563E-03
 -1     26084 6.77931E+00 3.96120E+00 3.54615E+00 5.12091E+00 3.84057E-05-5.67192E-04
 -1     26085 6.66301E+00 4.14031E+00 3.56488E+00 5.21395E+00-1.05869E-04 7.37300E-04
 -1     26086 6.52994E+00 4.03161E+00 3.48504E+00 5.07605E+00 2.54778E-03-1.04446E-03
 -1     26087 9.75031E+00 6.75729E+00 5.44696E+00 8.15222E+00 1.49964E-04 2.56989E-03
 -1     26088 9.88496E+00 6.74075E+00 5.48641E+00 8.21338E+00 4.66499E-03 1.65708E-03
 -1     26089 1.02378E+01 7.09369E+00 5.71893E+00 8.58493E+00-2.32258E-04 1.54582E-03
 -1     26090 1.00875E+01 7.09946E+00 5.67313E+00 8.50954E+00 2.42155E-03-3.47052E-03
 -1     26091 9.91857E+00 7.17426E+00 5.64045E+00 8.46785E+00 1.45131E-03-6.30188E-05
 -1     26092 8.38718E+00 7.12689E+00 5.11979E+00 8.05549E+00 4.51405E-04-2.13210E-04
 -1     26093 7.32574E+00 6.51995E+00 4.56924E+00 7.36011E+00 6.72312E-04 1.53570E-04
 -1     26094 8.19011E+00 7.18501E+00 5.07379E+00 7.98943E+00-7.98608E-06-3.80660E-04
 -1     26095-1.53318E+00 5.52171E+00 1.31566E+00 5.41824E+00 3.54413E-03-4.89210E-03
 -1     26096-1.69637E+00 4.77692E+00 1.01405E+00 4.47676E+00-3.13159E-03 7.55122E-03
 -1     26097-2.63186E+00 3.84824E+00 4.03611E-01 3.86589E+00 5.18309E-03 5.43785E-04
 -1     26098-3.11603E+00 2.77070E+00-1.13943E-01 2.79682E+00-1.73833E-03-4.17447E-04
 -1     26099 1.08882E+01 6.95516E+00 5.88825E+00 8.93969E+00-1.38149E-03 2.07369E-03
 -1     26100 1.08258E+01 6.73483E+00 5.79700E+00 8.78525E+00 3.16542E-03 6.88964E-04
 -1     26101 1.04254E+01 6.09468E+00 5.44987E+00 8.36491E+00 7.85294E-04-2.19033E-03
 -1     26102 2.30765E-01 7.46744E+00 2.56817E+00 7.16748E+00-6.19502E-03 6.55933E-03
 -1     26103 1.85311E-01 7.79504E+00 2.63843E+00 7.16063E+00-4.07556E-02-1.67299E-02
 -1     26104 1.91215E+00 7.01500E+00 2.93566E+00 6.11592E+00-6.60125E-03 2.87194E-02
 -1     26105-2.03481E-01 9.24264E+00 2.97833E+00 7.77683E+00-1.45717E-02-3.65855E-03
 -1     26106-2.44733E-01 9.04378E+00 2.90255E+00 8.06151E+00-2.17200E-02 2.30278E-02
 -1     26107-3.15289E-01 9.07793E+00 2.89686E+00 7.85495E+00-2.69895E-02-1.00255E-02
 -1     26108-4.69083E-01 8.87915E+00 2.77455E+00 7.64178E+00 6.67881E-03 2.81294E-03
 -1     26109-3.59765E-01 8.72317E+00 2.75806E+00 7.81645E+00 9.04760E-03-5.00923E-03
 -1     26110 1.28025E+01 1.07383E+01 7.76954E+00 1.17402E+01 1.07661E-03 4.28203E-04
 -1     26111 1.34003E+01 1.12282E+01 8.12861E+00 1.22717E+01 5.24913E-04 1.56330E-03
 -1     26112 1.23924E+01 1.03715E+01 7.51200E+00 1.13565E+01-2.41686E-03-2.02647E-03
 -1     26113 1.34077E+01 1.12421E+01 8.13383E+00 1.22734E+01 7.28753E-04-4.77320E-04
 -1     26114 1.24741E+01 1.06435E+01 7.63299E+00 1.15263E+01 1.94915E-03 1.46040E-03
 -1     26115 1.25157E+01 1.06992E+01 7.66492E+00 1.15455E+01 6.02197E-03 5.51602E-03
 -1     26116 1.07317E+01 1.00181E+01 6.84575E+00 1.04436E+01 1.18713E-03 2.01453E-04
 -1     26117 1.06748E+01 9.96258E+00 6.81402E+00 1.03929E+01 3.76783E-03 3.81546E-03
 -1     26118 1.03183E+01 9.83810E+00 6.65339E+00 1.01772E+01-1.87854E-03-3.61653E-04
 -1     26119-2.25356E+00 2.16964E+00-2.72489E-02 1.77558E+00-5.45011E-06 3.23865E-04
 -1     26120-2.29059E+00 2.27881E+00-3.39145E-03 1.78065E+00 4.19663E-05 6.83923E-05
 -1     26121-3.30476E+00 1.87646E+00-4.71147E-01 1.23093E+00-9.08507E-04 5.03138E-05
 -1     26122 1.15305E+01 8.50954E+00 6.61302E+00 1.00152E+01-2.47518E-03-3.09326E-04
 -1     26123 1.15776E+01 8.67195E+00 6.68292E+00 1.01275E+01-8.36033E-05-3.42195E-03
 -1     26124-7.53292E+00-6.80292E-01-2.70955E+00-2.24446E+00 3.32758E-02 4.23346E-02
 -1     26125-9.12185E+00-1.04779E+00-3.34144E+00-3.04510E+00-1.12245E-03-7.55300E-03
 -1     26126 1.05986E+01 8.30143E+00 6.23456E+00 9.38691E+00-1.80300E-03 3.45704E-04
 -1     26127 1.04838E+01 8.20381E+00 6.16503E+00 9.27826E+00 1.73911E-03-1.08351E-03
 -1     26128 1.08022E+01 8.48122E+00 6.36112E+00 9.58454E+00-2.87634E-04 1.99956E-03
 -1     26129-1.97496E+01-2.00891E+00-7.18816E+00-6.27066E+00-3.16104E-03-5.99811E-03
 -1     26130-1.95154E+01-1.94586E+00-7.08579E+00-6.09126E+00-1.11856E-03-4.51907E-03
 -1     26131-2.00952E+01-2.04071E+00-7.30934E+00-6.34155E+00 2.28879E-03-1.60588E-02
 -1     26132-2.06469E+01-2.22062E+00-7.53603E+00-6.79199E+00 1.09307E-02 3.16546E-03
 -1     26133-6.80692E+00 1.83382E+00-1.64105E+00 4.09741E-01-1.40463E-03-2.61406E-04
 -1     26134-8.41991E+00 1.03833E+00-2.43594E+00-6.60912E-01-3.12104E-04 9.50491E-04
 -1     26135-1.98006E+01-1.87492E+00-7.16116E+00-5.95566E+00 2.84999E-03-2.51476E-03
 -1     26136-2.02842E+01-1.94708E+00-7.33258E+00-6.00854E+00-1.09209E-02 8.30375E-03
 -1     26137-1.89850E+01-1.61751E+00-6.79962E+00-5.25453E+00-2.11256E-03 2.18891E-03
 -1     26138-3.66585E-01 3.86036E+00 1.15294E+00 3.21687E+00-1.60586E-04-1.43600E-04
 -1     26139-1.29554E+01-9.91989E-01-4.60184E+00-2.08727E+00 6.37210E-04 1.64947E-03
 -1     26140-1.14994E+01-8.72633E-01-4.08278E+00-1.53232E+00-9.81169E-06-6.92311E-04
 -1     26141-1.41000E+01-1.06923E+00-5.00530E+00-2.84400E+00 2.18221E-05 9.54277E-04
 -1     26142-1.26283E+01-9.40105E-01-4.47780E+00-2.26196E+00-1.78388E-04 2.77972E-04
 -1     26143-1.76961E+01-1.43914E+00-6.31713E+00-4.53111E+00 8.85447E-04-1.34549E-03
 -1     26144 1.09871E+01 7.22701E+00 6.01362E+00 9.07049E+00-4.79492E-03-2.88336E-03
 -1     26145 1.11921E+01 7.68843E+00 6.22805E+00 9.38312E+00-5.51325E-03-3.22406E-03
 -1     26146 1.07251E+01 6.47515E+00 5.67826E+00 8.57240E+00 2.56750E-03-2.46422E-03
 -1     26147 1.09946E+01 7.41110E+00 6.07283E+00 9.14864E+00-2.22811E-03-1.05102E-02
 -1     26148-1.53294E+00 1.26776E+00-8.76235E-02 2.18925E+00 2.31369E-04 3.12570E-04
 -1     26149-5.92364E-01 1.36570E+00 2.54967E-01 2.64837E+00-3.47473E-04 9.06811E-04
 -1     26150 1.03967E-02 1.79562E+00 5.95953E-01 2.90297E+00-4.55997E-04-3.70541E-04
 -1     26151-1.56082E+01-1.51747E+00-5.65181E+00-4.89121E+00-8.44171E-05 2.04367E-03
 -1     26152-1.42776E+01-1.25328E+00-5.12531E+00-4.29251E+00 9.91525E-04 1.34252E-04
 -1     26153-1.54620E+01-1.48681E+00-5.59288E+00-4.83797E+00 3.49263E-03 2.16080E-03
 -1     26154 2.35180E+00 4.76776E-01 9.30544E-01 1.05128E+00-9.50122E-05-5.41993E-04
 -1     26155 1.81228E+00-3.49681E-02 5.86301E-01 1.05522E+00-2.52670E-03-1.74844E-03
 -1     26156 2.57928E+00 2.76943E-01 9.41114E-01 1.27044E+00-3.80974E-04 2.34654E-04
 -1     26157 2.78897E+00 9.64972E-01 1.23742E+00 1.01503E+00 8.86248E-04 4.53147E-03
 -1     26158 2.05103E+00 6.70693E-01 8.98638E-01 7.88105E-01-2.68636E-03 4.08305E-04
 -1     26159 9.76935E+00 4.89900E+00 4.84098E+00 7.18251E+00 2.85402E-03-1.24695E-03
 -1     26160-2.06828E+00-2.14515E+00-1.39043E+00 1.88752E+00-5.99554E-04-7.41084E-04
 -1     26161 1.16362E+01 9.11510E+00 6.84727E+00 1.03258E+01 1.73770E-03 1.49774E-03
 -1     26162 1.15160E+01 8.59845E+00 6.63702E+00 9.99065E+00 4.64092E-03 7.53319E-04
 -1     26163 1.19039E+01 9.54399E+00 7.07743E+00 1.06630E+01 2.19440E-03-1.33943E-03
 -1     26164 1.14794E+01 8.97684E+00 6.74769E+00 1.01697E+01 2.27613E-03 2.82879E-04
 -1     26165 1.17348E+01 9.40140E+00 6.97434E+00 1.05097E+01-6.41558E-04-2.05495E-03
 -1     26166 6.80870E+00 7.27319E+00 4.64442E+00 7.15402E+00 6.51501E-03 4.55627E-02
 -1     26167 4.83542E+00 6.87055E+00 3.84116E+00 6.26895E+00 1.52560E-02-6.06699E-02
 -1     26168 7.24456E+00 7.64782E+00 4.91846E+00 7.40187E+00 1.93731E-03-3.35815E-02
 -1     26169 6.03245E+00 4.68557E+00 3.53781E+00 5.31197E+00 4.29433E-04-4.21216E-04
 -1     26170 6.17745E+00 4.80336E+00 3.62288E+00 5.44897E+00 7.36822E-04-1.36203E-04
 -1     26171 5.95752E+00 4.63830E+00 3.49606E+00 5.24525E+00-6.28083E-04-3.24903E-04
 -1     26172 1.27769E+01 1.09202E+01 7.82075E+00 1.18211E+01-1.75520E-04-1.64988E-03
 -1     26173 1.20932E+01 1.04563E+01 7.43909E+00 1.12572E+01-5.53135E-04-6.83813E-05
 -1     26174 1.09293E+01 9.73076E+00 6.81862E+00 1.03811E+01 6.66732E-04-4.37336E-03
 -1     26175-6.51459E+00-1.26211E+00-2.56626E+00 1.20446E+00-1.62723E-03 4.54380E-03
 -1     26176-4.80902E+00-8.23627E-01-1.85658E+00 1.54852E+00-2.81649E-03 3.23441E-03
 -1     26177-5.35521E+00-1.02535E+00-2.10641E+00 1.48375E+00-3.44448E-03-1.58653E-03
 -1     26178-6.25701E+00-7.14175E-01-2.30078E+00 8.88519E-01 1.28277E-04 1.24884E-03
 -1     26179 7.98280E+00 7.58264E+00 5.13689E+00 8.09925E+00-4.03934E-04 5.51230E-04
 -1     26180 9.07051E+00 8.17644E+00 5.69203E+00 8.82906E+00 1.15898E-03-3.86810E-04
 -1     26181 7.80197E+00 7.31000E+00 4.98696E+00 7.88922E+00 8.56778E-04 1.42919E-04
 -1     26182 4.60705E+00 7.53789E+00 4.01861E+00 6.70770E+00 4.94746E-02 2.33392E-02
 -1     26183 3.72801E+00 8.33512E+00 3.98259E+00 6.93656E+00 1.25972E-02 1.38283E-02
 -1     26184 9.31275E+00 9.45538E+00 6.19326E+00 9.56052E+00-3.71054E-03-5.31174E-03
 -1     26185 7.74815E+00 8.93725E+00 5.50534E+00 8.70804E+00-2.80156E-03-2.55088E-03
 -1     26186 8.15359E+00 8.97016E+00 5.65178E+00 8.84909E+00-2.53852E-03-2.20950E-03
 -1     26187 6.74059E+00 8.06497E+00 4.88589E+00 7.88929E+00-6.52216E-04 4.50084E-05
 -1     26188 7.07444E+00 8.07647E+00 4.99974E+00 8.00673E+00-3.72757E-04 2.91397E-04
 -1     26189 9.31696E+00 9.45747E+00 6.19834E+00 9.55738E+00 5.14279E-03 7.74084E-03
 -1     26190 1.05703E+01 9.90481E+00 6.76265E+00 1.03170E+01-9.58951E-04-8.03079E-05
 -1     26191 1.21859E+01 1.05053E+01 7.49002E+00 1.13021E+01-1.00604E-02-2.35137E-03
 -1     26192 1.08778E+01 1.00132E+01 6.89373E+00 1.04972E+01 1.46615E-03-1.88117E-03
 -1     26193 1.00753E+01 9.74075E+00 6.54571E+00 1.00332E+01 5.99408E-03 4.51430E-03
 -1     26194-1.35065E+01-1.34787E+00-4.90459E+00-4.27356E+00-1.13106E-03-2.99104E-03
 -1     26195-1.36977E+01-1.37054E+00-4.97260E+00-4.33824E+00-1.97745E-03-1.35591E-03
 -1     26196-1.28095E+01-1.16214E+00-4.61248E+00-3.88225E+00-2.60594E-03-8.45526E-04
 -1     26197-3.49950E+00 1.49874E+00-6.57973E-01 8.65085E-01 2.65535E-02 2.95895E-02
 -1     26198-9.75280E-01 4.70854E+00 1.21152E+00 3.41037E+00 4.52374E-03 1.92676E-02
 -1     26199-3.06042E+00 2.00147E+00-3.50346E-01 1.39291E+00-1.18983E-02-5.54333E-02
 -1     26200-4.38958E+00 7.03513E-01-1.19413E+00-1.59960E-01 3.70664E-02 1.35932E-02
 -1     26201-1.77904E+00 2.54866E+00 2.91689E-01 1.96147E+00 2.01680E-02-5.74391E-02
 -1     26202-1.14771E+00 3.47883E+00 7.59713E-01 2.50206E+00-1.00219E-01-4.86184E-02
 -1     26203 1.27730E+01 1.09279E+01 7.82048E+00 1.18209E+01 1.56485E-03-2.39746E-03
 -1     26204 1.26087E+01 1.08194E+01 7.73166E+00 1.16935E+01 1.92206E-04-6.34933E-03
 -1     26205-7.36778E+00-5.25242E-01-2.60644E+00 1.94944E-01 9.18688E-04 4.98027E-04
 -1     26206-5.99001E+00-1.48588E-01-2.02571E+00 5.16088E-01-7.05205E-04-1.78860E-04
 -1     26207 1.26366E+01 1.03024E+01 7.56947E+00 1.14134E+01 2.79457E-03-1.04686E-03
 -1     26208 1.26911E+01 1.03531E+01 7.60497E+00 1.14728E+01-7.38761E-04 2.52375E-04
 -1     26209 1.25190E+01 1.02010E+01 7.49676E+00 1.13055E+01 1.04835E-04-1.97436E-03
 -1     26210-2.22053E+00 3.94511E-01-5.99903E-01 2.07497E+00-1.98936E-03 2.41453E-05
 -1     26211-2.63020E+00 1.36971E-01-8.21096E-01 1.98230E+00 3.79300E-05-2.02412E-04
 -1     26212 1.06793E-01 8.97474E+00 2.99102E+00 7.85366E+00 1.63670E-02 5.42465E-03
 -1     26213-8.61224E+00-1.58239E-01-2.89831E+00-1.59141E+00 2.02939E-03 1.58061E-03
 -1     26214-8.94078E+00-4.07881E-01-3.08337E+00-2.02627E+00 4.11548E-03 9.79401E-04
 -1     26215-9.62032E+00-5.03939E-01-3.34287E+00-2.33956E+00-1.08565E-03-4.82121E-04
 -1     26216-9.08103E+00-4.30627E-01-3.14040E+00-2.13298E+00 7.72088E-04 4.49458E-03
 -1     26217-2.34561E+01-2.17460E+00-8.43625E+00-6.82970E+00-1.55880E-02-1.04183E-03
 -1     26218-2.37324E+01-2.15500E+00-8.58253E+00-6.91864E+00 1.52056E-02 1.90791E-02
 -1     26219-2.29373E+01-1.70756E+00-8.13402E+00-5.86026E+00-2.95452E-03 3.12563E-02
 -1     26220-2.20085E+01-2.01631E+00-7.93524E+00-6.56841E+00 6.59231E-03 2.94502E-02
 -1     26221-2.24033E+01-1.98891E+00-8.04154E+00-6.70317E+00 1.94207E-02 5.47760E-03
 -1     26222-8.42842E+00 3.16437E-01-2.67762E+00-9.83485E-01 3.06964E-03 2.76542E-03
 -1     26223-8.48882E+00 3.72518E-01-2.67868E+00-9.42498E-01 8.59499E-04-1.64998E-03
 -1     26224-9.18505E+00 5.28011E-02-3.01153E+00-1.50298E+00 3.15298E-03 2.56888E-03
 -1     26225-9.89450E+00-4.58076E-01-3.41668E+00-2.32613E+00-1.91828E-05 7.72699E-04
 -1     26226-9.94332E+00-4.07941E-01-3.41457E+00-2.27491E+00-1.77008E-03-3.72848E-03
 -1     26227 1.09961E+01 7.79622E+00 6.20063E+00 9.44536E+00 7.24588E-04 2.08725E-03
 -1     26228-2.10913E+01-1.51055E+00-7.46941E+00-4.15825E+00-1.02507E-02-3.06999E-02
 -1     26229-2.30984E+01-1.59761E+00-8.16121E+00-5.09627E+00-7.47070E-03-1.77209E-02
 -1     26230-2.26890E+01-1.65443E+00-8.03799E+00-3.42535E+00 1.31558E-02-6.00009E-02
 -1     26231-2.29080E+01-1.65571E+00-8.12521E+00-4.22797E+00-6.68090E-03 7.85450E-03
 -1     26232-2.49732E+01-1.70631E+00-8.80070E+00-5.35228E+00-2.94841E-03-2.23288E-02
 -1     26233-6.02128E+00-3.01394E+00-2.98197E+00 1.27713E+00 2.44739E-03 9.06694E-06
 -1     26234-7.71112E+00-3.18737E+00-3.59720E+00 1.09823E+00 2.18571E-03-1.30669E-03
 -1     26235-7.00694E+00-3.41079E+00-3.43785E+00 9.78054E-01 1.30507E-03-8.17236E-05
 -1     26236-2.20162E+01-1.76339E+00-7.85099E+00-5.35293E+00-1.16532E-02 1.58445E-02
 -1     26237 1.25888E+01 1.01748E+01 7.51077E+00 1.13405E+01 1.61436E-03 1.92215E-03
 -1     26238 1.25386E+01 1.01266E+01 7.47840E+00 1.12879E+01-8.35975E-04-1.46324E-03
 -1     26239 1.26678E+01 1.02613E+01 7.56468E+00 1.14268E+01 1.46973E-03-1.40292E-03
 -1     26240 9.87683E+00 8.91282E+00 6.20111E+00 9.50908E+00-8.33147E-04 1.03652E-03
 -1     26241 1.08490E+01 9.59633E+00 6.74649E+00 1.02799E+01-2.08337E-03-1.64299E-03
 -1     26242 1.10189E+01 9.60672E+00 6.80545E+00 1.03599E+01 1.39692E-03-2.81727E-03
 -1     26243 8.50216E+00 9.07297E+00 5.79205E+00 8.91902E+00-1.37238E-03 1.96670E-03
 -1     26244 7.74346E+00 9.11921E+00 5.56121E+00 8.73100E+00 1.05038E-03-3.13308E-03
 -1     26245 7.66203E+00 8.93835E+00 5.47842E+00 8.56111E+00 1.29612E-02-2.30939E-03
 -1     26246 7.85537E+00 8.69779E+00 5.45926E+00 8.43698E+00-4.82857E-03-1.09708E-02
 -1     26247 7.94807E+00 9.01938E+00 5.59359E+00 8.65015E+00-6.71310E-03-5.20304E-04
 -1     26248-1.47626E+00-8.84069E-01-7.75578E-01-1.53064E-01-1.27743E-02 6.67683E-03
 -1     26249-2.17000E+00-1.20324E+00-1.11382E+00-2.60803E-01 8.83059E-05-2.07589E-03
 -1     26250-1.82738E-01-4.67019E-01-2.14020E-01 2.50123E-01-4.95223E-03 2.93546E-03
 -1     26251-1.22121E+00-1.05889E+00-7.49442E-01 1.55463E-01-1.05104E-03 1.41308E-03
 -1     26252-8.13147E-01-7.53899E-01-5.17968E-01 1.18639E-01-3.84731E-03 9.32719E-04
 -1     26253-2.16147E+01-2.24602E+00-7.86807E+00-6.94438E+00 2.72272E-03 9.92305E-03
 -1     26254-2.12927E+01-2.22660E+00-7.75991E+00-6.89287E+00-7.04513E-03-7.93879E-03
 -1     26255-2.11464E+01-1.84915E+00-7.57823E+00-6.04630E+00 4.39271E-03 1.66936E-02
 -1     26256-2.17807E+01-2.04625E+00-7.85864E+00-6.52367E+00 1.23423E-02 6.75910E-03
 -1     26257 9.21850E+00 7.84030E+00 5.62929E+00 8.73142E+00-5.97457E-05-8.35998E-04
 -1     26258 1.02097E+01 8.50255E+00 6.17504E+00 9.46659E+00 2.33430E-04-4.58952E-04
 -1     26259 9.37255E+00 7.76691E+00 5.65624E+00 8.77703E+00 5.24361E-04-9.12356E-05
 -1     26260 4.76561E+00 4.58565E+00 3.08592E+00 5.55387E+00-6.20833E-06 5.22633E-04
 -1     26261 1.28948E+01 1.09537E+01 7.87079E+00 1.18917E+01-7.23656E-04-2.37569E-03
 -1     26262 1.24726E+01 1.04386E+01 7.56195E+00 1.14321E+01-3.06094E-04-7.94303E-04
 -1     26263 1.18775E+01 9.96680E+00 7.20933E+00 1.09151E+01 1.42520E-03 1.47217E-03
 -1     26264 1.33800E+01 1.12066E+01 8.11419E+00 1.22479E+01-2.29399E-04 2.21579E-04
 -1     26265 1.34548E+01 1.12602E+01 8.15792E+00 1.23111E+01-3.89223E-04 6.00867E-04
 -1     26266 1.19308E+01 9.91665E+00 7.20961E+00 1.09154E+01-1.99389E-03-1.10478E-03
 -1     26267 7.30806E+00 4.38032E+00 3.85763E+00 5.64729E+00-5.40673E-05 2.47458E-05
 -1     26268 6.83555E+00 4.58315E+00 3.76852E+00 5.60394E+00 8.23084E-04 7.50189E-04
 -1     26269-1.43742E-01 9.90113E+00 3.22326E+00 7.30543E+00-1.62537E-02-9.80539E-03
 -1     26270-1.63149E+01-1.70377E+00-5.94306E+00-5.28188E+00 2.81775E-03 1.61045E-03
 -1     26271-1.65029E+01-1.72378E+00-6.01516E+00-5.34346E+00-2.52203E-04 9.88711E-04
 -1     26272-1.65989E+01-1.74463E+00-6.05360E+00-5.38160E+00 6.56160E-04 6.77785E-03
 -1     26273-1.03157E+01-7.64807E-01-3.65456E+00-2.85026E+00 7.00712E-04-1.42181E-03
 -1     26274-1.02966E+01-7.19339E-01-3.63242E+00-2.74788E+00 2.54962E-03-2.61614E-03
 -1     26275-1.11049E+01-9.97505E-01-3.99232E+00-3.35553E+00 1.32123E-04-3.49628E-03
 -1     26276-9.69039E+00 2.75884E-01-3.10654E+00-1.79574E+00-7.74665E-04-2.75764E-03
 -1     26277-1.15216E+01-3.09340E-01-3.90550E+00-2.75059E+00-8.99544E-04-2.15821E-03
 -1     26278-8.54879E+00 6.38170E-01-2.61048E+00-1.22751E+00-1.81932E-03-1.50035E-03
 -1     26279-1.03549E+01 6.06438E-02-3.39979E+00-2.17051E+00-3.66593E-04 1.33128E-03
 -1     26280 1.26258E+01 1.08460E+01 7.74575E+00 1.17094E+01 1.90425E-03 3.27949E-04
 -1     26281 1.02910E+01 8.01397E+00 6.04042E+00 9.29098E+00-7.62406E-04-1.18801E-03
 -1     26282 8.83688E+00 6.80852E+00 5.16298E+00 8.12779E+00-3.57249E-04 2.99043E-04
 -1     26283 1.04007E+01 7.89226E+00 6.03641E+00 9.28375E+00 2.45072E-04-1.67756E-03
 -1     26284 8.98597E+00 6.69333E+00 5.17421E+00 8.13251E+00-2.76082E-04-1.60304E-05
 -1     26285 1.11038E+01 8.80041E+00 6.57092E+00 9.89843E+00 1.33503E-03 1.22344E-02
 -1     26286 1.09114E+01 8.63206E+00 6.45054E+00 9.71755E+00-9.78950E-04 7.10508E-05
 -1     26287 1.10587E+01 8.11416E+00 6.32643E+00 9.50735E+00 2.16762E-03 5.25208E-03
 -1     26288 1.13871E+01 8.89362E+00 6.69302E+00 1.00785E+01 1.33238E-03-3.84911E-03
 -1     26289 1.12116E+01 8.73307E+00 6.58108E+00 9.90418E+00-7.82451E-04-6.93535E-05
 -1     26290 4.21166E+00 8.04396E+00 4.04626E+00 7.21077E+00-2.85779E-03 7.31930E-03
 -1     26291 3.54358E+00 8.04745E+00 3.82587E+00 7.08900E+00 2.55161E-03 2.30607E-03
 -1     26292 2.61203E+00 7.56654E+00 3.36179E+00 6.60401E+00-4.16421E-03-3.21110E-03
 -1     26293 9.11601E+00 6.55139E+00 5.17025E+00 8.13548E+00-3.03176E-04 1.00233E-04
 -1     26294 8.08324E+00 6.11626E+00 4.68585E+00 7.53637E+00-1.55968E-04-1.21018E-04
 -1     26295 1.98945E+00 5.74588E+00 2.55275E+00 5.10636E+00-4.88881E-04 4.24924E-05
 -1     26296 8.26489E-01 5.25118E+00 2.00545E+00 4.50375E+00-2.57757E-04 1.29561E-04
 -1     26297 2.96496E+00 6.35374E+00 3.07518E+00 5.75523E+00-7.21102E-05 2.81357E-04
 -1     26298 1.79368E+00 5.85877E+00 2.52509E+00 5.15478E+00-4.86602E-05 1.63059E-04
 -1     26299 7.88095E+00 6.22620E+00 4.65555E+00 7.49032E+00-5.32398E-04-5.98141E-04
 -1     26300-1.12274E+01-7.79540E-01-3.96209E+00-1.67390E+00-1.98032E-03 4.74338E-04
 -1     26301 1.07188E+01 6.48031E+00 5.67764E+00 8.57512E+00-2.35444E-03 2.04433E-03
 -1     26302 1.08850E+01 7.16596E+00 5.95755E+00 8.96241E+00-1.03891E-03 4.07996E-03
 -1     26303 1.06227E+01 6.23624E+00 5.56410E+00 8.38360E+00-6.76528E-04-7.79362E-04
 -1     26304 8.63276E+00 4.23059E+00 4.24509E+00 6.95123E+00 1.34805E-03 2.17591E-03
 -1     26305-1.86511E+01-3.63644E+00-7.35657E+00-4.43717E-02-3.77898E-03-9.63671E-03
 -1     26306-1.66400E+01-3.04089E+00-6.50539E+00-1.29903E-01 1.37297E-02-2.05766E-02
 -1     26307-1.91217E+01-2.36992E+00-7.08229E+00-8.94938E-01 2.90920E-02-4.95433E-02
 -1     26308-3.01628E+00 5.43096E-01-8.16439E-01 1.63197E+00 7.23806E-04 3.88605E-04
 -1     26309 1.08582E+01 7.71726E+00 6.13084E+00 9.21146E+00-1.89686E-03-4.65459E-03
 -1     26310 1.10583E+01 8.74728E+00 6.53742E+00 9.84607E+00 3.24541E-03-2.15966E-04
 -1     26311 1.06278E+01 7.45038E+00 5.96572E+00 8.94955E+00 8.33481E-05-1.92879E-03
 -1     26312 1.08260E+01 7.98544E+00 6.20771E+00 9.32552E+00-1.18053E-03-5.20145E-03
 -1     26313 9.16099E+00 5.49863E+00 4.83433E+00 7.16066E+00-5.59820E-03-7.71064E-04
 -1     26314 9.20778E+00 6.00047E+00 5.01776E+00 7.48210E+00 1.99297E-04-3.87065E-04
 -1     26315 9.39395E+00 5.57729E+00 4.94220E+00 7.34564E+00-6.44371E-03-2.95403E-03
 -1     26316-1.84567E+01-1.81867E+00-6.68964E+00-5.72607E+00 1.32629E-03-3.02650E-03
 -1     26317-1.28373E-01 1.00323E+01 3.26648E+00 7.39387E+00-1.91593E-03 1.43991E-02
 -1     26318-5.64992E-01 8.78076E+00 2.71034E+00 7.23596E+00 2.28090E-03 2.13758E-03
 -1     26319-5.06913E-01 8.61867E+00 2.67846E+00 7.44938E+00-7.30170E-03 4.72221E-03
 -1     26320-1.54026E-01 9.73876E+00 3.16939E+00 7.53051E+00 1.76130E-02 2.25858E-04
 -1     26321-9.67063E-02 1.02599E+01 3.34529E+00 7.31888E+00 2.86067E-02-1.14634E-02
 -1     26322-4.44128E+00 7.52023E-01-1.23555E+00-7.01673E-02-6.15328E-02 1.53403E-02
 -1     26323-7.21087E+00-5.74260E-01-2.53051E+00-2.07745E+00-4.64314E-02 2.60486E-02
 -1     26324-5.78298E+00 1.08279E-01-1.87489E+00-9.43733E-01-1.29092E-02-1.46487E-02
 -1     26325-8.62049E+00-9.65520E-01-3.15798E+00-2.84437E+00 7.62958E-03-3.51493E-02
 -1     26326 6.25119E+00 4.78715E+00 3.64358E+00 5.47091E+00-7.94220E-04-1.31923E-03
 -1     26327 6.01910E+00 4.61873E+00 3.51204E+00 5.26424E+00-1.42992E-03-1.24755E-03
 -1     26328 6.10936E+00 4.68910E+00 3.56348E+00 5.34850E+00-1.76459E-03 9.75062E-04
 -1     26329-1.83730E+00-1.45202E-01-6.53904E-01 2.38219E+00-2.75285E-04-3.26727E-04
 -1     26330-1.61049E+01-1.40033E+00-5.77891E+00-4.31170E+00-1.43167E-04 1.58202E-03
 -1     26331-1.50935E+01-1.19647E+00-5.37585E+00-3.60737E+00 1.33177E-03 6.98962E-05
 -1     26332-1.64150E+01-1.36215E+00-5.86646E+00-4.25917E+00-4.80789E-04 7.74548E-04
 -1     26333-1.82203E+01-1.76623E+00-6.59595E+00-5.59126E+00-6.04272E-04-2.41251E-05
 -1     26334 1.28880E+01 1.05616E+01 7.73910E+00 1.16855E+01-2.02821E-03-1.08533E-03
 -1     26335 1.27820E+01 1.04638E+01 7.67267E+00 1.15752E+01-2.20358E-03-2.46201E-03
 -1     26336 1.28271E+01 1.04998E+01 7.69408E+00 1.16160E+01-2.25438E-04 1.92274E-03
 -1     26337 1.22657E+01 9.85658E+00 7.30226E+00 1.10033E+01-3.76727E-04 1.78298E-03
 -1     26338 1.14683E+01 8.19122E+00 6.48939E+00 9.80972E+00 5.02821E-03 7.51433E-03
 -1     26339 1.17286E+01 8.79309E+00 6.77395E+00 1.02367E+01-2.52565E-04-3.55080E-03
 -1     26340 1.22071E+01 9.79797E+00 7.26399E+00 1.09397E+01-1.49705E-04-1.34702E-04
 -1     26341 1.16829E+01 8.73452E+00 6.73783E+00 1.01767E+01 1.56473E-03 1.81976E-03
 -1     26342 1.10491E+01 7.35246E+00 6.07555E+00 9.16313E+00 6.02444E-03 1.76861E-03
 -1     26343 1.12458E+01 7.79918E+00 6.28461E+00 9.46835E+00 2.61293E-03 1.29251E-03
 -1     26344 1.06583E+01 7.85802E+00 6.11094E+00 9.18423E+00 2.81534E-03 9.86948E-04
 -1     26345 1.06980E+01 8.37443E+00 6.29669E+00 9.47891E+00 1.30557E-03 1.35699E-03
 -1     26346 1.08005E+01 7.33462E+00 5.98229E+00 8.97648E+00-1.82205E-03-1.77807E-03
 -1     26347 1.07122E+01 7.19987E+00 5.90761E+00 8.85501E+00 2.37509E-03-2.53802E-03
 -1     26348 1.08339E+01 7.83479E+00 6.15878E+00 9.26640E+00-9.46714E-04-1.34826E-03
 -1     26349 1.29257E+01 1.05995E+01 7.76134E+00 1.17105E+01 2.42044E-03-7.34220E-04
 -1     26350 7.85685E+00 2.76627E+00 3.50564E+00 6.06426E+00-6.64078E-05 1.59453E-04
 -1     26351 1.09903E+01 9.18317E+00 6.65631E+00 1.01453E+01-7.48013E-05 3.91446E-04
 -1     26352 9.98805E+00 8.51181E+00 6.10291E+00 9.38982E+00-1.46922E-03 1.44036E-03
 -1     26353-2.09829E+01-1.87539E+00-7.53074E+00-2.50636E+00 1.91510E-03 4.88346E-03
 -1     26354-1.89225E+01-1.82483E+00-6.84670E+00-1.82756E+00-6.43780E-03-3.43905E-03
 -1     26355-2.78550E+00 6.22212E-01-7.12749E-01 1.72019E+00 6.90283E-05 1.17093E-03
 -1     26356 8.04788E+00 3.73960E+00 3.88965E+00 4.42620E+00 4.62659E-03 1.17963E-03
 -1     26357 8.06488E+00 3.75851E+00 3.89970E+00 4.36985E+00-8.23583E-04 1.32035E-03
 -1     26358 8.07484E+00 3.75959E+00 3.90387E+00 4.24509E+00 2.85980E-03 1.07556E-03
 -1     26359 7.89162E+00 3.30070E+00 3.69980E+00 3.65788E+00 3.47053E-03-4.47391E-03
 -1     26360-8.61101E-01 6.77555E+00 1.86478E+00 4.41629E+00 1.80286E-02 4.81975E-02
 -1     26361-9.21305E-01 5.51298E+00 1.50659E+00 3.54918E+00-6.73113E-02-4.48267E-04
 -1     26362 1.69673E-01 1.22672E+01 4.04554E+00 6.19307E+00-2.53792E-03 4.46033E-02
 -1     26363-6.63318E-01 6.44555E+00 1.90157E+00 4.31920E+00-3.05660E-02-6.00762E-03
 -1     26364 7.92431E+00 2.32731E+00 3.38020E+00 3.61640E+00 1.88096E-04-5.46080E-04
 -1     26365 8.00650E+00 1.90242E+00 3.26965E+00 3.71933E+00-4.69174E-03 3.81958E-03
 -1     26366-6.87460E-02 1.05602E+01 3.45949E+00 6.95503E+00-2.72193E-02-1.49366E-02
 -1     26367 2.12266E-02 1.34503E+01 4.44461E+00 6.24065E+00-1.24850E-02 9.96527E-04
 -1     26368-2.11653E-01 1.07906E+01 3.48073E+00 6.24556E+00-2.01996E-02 1.33889E-02
 -1     26369-9.43191E-02 1.22075E+01 3.99854E+00 6.39704E+00-1.48175E-02-7.72650E-03
 -1     26370 3.86269E-02 1.36272E+01 4.50550E+00 6.32403E+00-3.85608E-03-1.05409E-02
 -1     26371-1.45255E-01 1.23234E+01 4.01932E+00 6.33297E+00 4.69208E-03-2.88627E-03
 -1     26372 8.21724E+00 2.41516E+00 3.50868E+00 5.92374E+00-1.08449E-04-8.64179E-05
 -1     26373 7.15513E+00 1.81778E+00 2.96201E+00 5.44013E+00 3.30571E-03-3.10642E-03
 -1     26374 7.18803E+00 1.82843E+00 2.97514E+00 5.44915E+00-4.16396E-03 5.18504E-03
 -1     26375 8.27009E+00 2.01135E+00 3.39278E+00 5.67032E+00 1.10968E-03-3.90095E-03
 -1     26376 8.25025E+00 2.00701E+00 3.38435E+00 5.66684E+00-1.70180E-03 6.24674E-03
 -1     26377 7.25662E+00 1.45008E+00 2.87082E+00 5.21457E+00-8.39586E-05-2.11507E-03
 -1     26378-7.86107E+00-3.99448E+00-3.91188E+00-6.56744E-01 1.00214E-03 4.88532E-04
 -1     26379-6.85578E+00-3.52397E+00-3.42741E+00-5.77774E-01 8.96927E-03-4.97758E-03
 -1     26380 1.12061E+01 7.66025E+00 6.22571E+00 9.40701E+00-1.16459E-03-5.48732E-04
 -1     26381 7.56791E+00 3.49796E+00 3.64918E+00 4.81660E+00 1.26604E-03 2.79422E-04
 -1     26382 7.21222E+00 3.54087E+00 3.54708E+00 4.89390E+00-6.54025E-04-2.79449E-04
 -1     26383 7.53569E+00 3.48971E+00 3.63863E+00 4.87245E+00 1.37619E-03 9.09294E-04
 -1     26384 7.45525E+00 3.50799E+00 3.61693E+00 4.88068E+00-1.27625E-03-9.20402E-04
 -1     26385 6.71196E+00 5.15099E+00 3.91478E+00 5.88288E+00 1.15871E-03-1.06099E-03
 -1     26386 6.76815E+00 4.87068E+00 3.84155E+00 5.74028E+00 1.50305E-03-4.53906E-04
 -1     26387 6.55590E+00 5.15561E+00 3.86676E+00 5.81414E+00 1.01819E-03-6.04776E-04
 -1     26388 6.84362E+00 5.31406E+00 4.01260E+00 6.02441E+00-7.03263E-04 3.02904E-04
 -1     26389 6.89261E+00 5.01081E+00 3.92959E+00 5.88416E+00 1.43926E-03 2.26023E-03
 -1     26390-3.98739E-02 1.04486E+01 3.43926E+00 6.90221E+00 1.71715E-02 9.09113E-03
 -1     26391-2.22102E-01 9.61952E+00 3.09665E+00 7.36473E+00 2.57100E-02 1.24461E-02
 -1     26392-1.18426E-01 9.88546E+00 3.23134E+00 6.88523E+00-3.63893E-02-1.75835E-02
 -1     26393-8.72025E-02 9.64067E+00 3.15391E+00 7.41801E+00 4.77691E-03 2.44099E-03
 -1     26394-3.50213E-02 1.00886E+01 3.31701E+00 6.93555E+00 3.34028E-02-4.88968E-03
 -1     26395-6.34104E-02 9.58034E+00 3.15033E+00 6.91309E+00 8.01614E-03 8.83263E-03
 -1     26396-1.97868E+01-1.36345E+00-6.95387E+00-3.88131E+00-1.51147E-03 6.58600E-03
 -1     26397-2.05345E+01-1.61418E+00-7.28212E+00-5.15357E+00 5.19619E-03 3.36234E-02
 -1     26398-1.89838E+01-1.38830E+00-6.71480E+00-4.25356E+00-6.06837E-03 5.40826E-03
 -1     26399 9.46214E+00 4.36456E+00 4.56309E+00 7.21624E+00-1.12636E-04-1.38237E-03
 -1     26400 9.05867E+00 3.64919E+00 4.19360E+00 6.74945E+00-3.57346E-05-3.03310E-04
 -1     26401 1.25907E+01 1.02666E+01 7.54607E+00 1.13957E+01-1.47902E-04 3.23195E-04
 -1     26402 1.25643E+01 1.02419E+01 7.52670E+00 1.13588E+01 2.98730E-03 1.86899E-03
 -1     26403 1.26280E+01 1.03223E+01 7.57352E+00 1.14545E+01-1.05528E-03 6.23410E-04
 -1     26404 9.26522E+00 8.14856E+00 5.74811E+00 8.89479E+00 1.22016E-03 1.20176E-03
 -1     26405 1.04575E+01 7.35885E+00 5.88039E+00 8.83221E+00 2.20005E-03 2.15383E-03
 -1     26406 1.05002E+01 7.76944E+00 6.03166E+00 9.07444E+00-5.06020E-06 1.46388E-03
 -1     26407 1.07139E+01 7.59348E+00 6.04286E+00 9.07148E+00-1.51482E-03 4.00053E-03
 -1     26408 1.07181E+01 6.92304E+00 5.82261E+00 8.73750E+00-1.64538E-03 9.43487E-04
 -1     26409 1.05719E+01 7.11762E+00 5.83465E+00 8.75121E+00-2.25976E-03 1.79982E-03
 -1     26410 3.96464E+00-3.79866E-01 1.18311E+00 2.54348E+00 2.75325E-04 5.57996E-04
 -1     26411 3.03320E+00-6.87748E-01 7.74034E-01 2.34960E+00-5.40310E-04 1.66446E-04
 -1     26412 2.71186E+00-9.55705E-01 5.79526E-01 2.55066E+00-7.07892E-04-6.73239E-04
 -1     26413 3.66735E+00-6.14952E-01 1.00735E+00 2.72950E+00-6.82673E-04 4.99243E-04
 -1     26414 6.77760E+00 4.35893E+00 3.67547E+00 5.41761E+00 1.70691E-03-6.40667E-04
 -1     26415 7.03066E+00 4.47431E+00 3.79638E+00 5.61000E+00-3.85501E-04 2.84598E-04
 -1     26416 4.58105E+00-3.32825E-01 1.40191E+00 2.91964E+00-7.07569E-04-9.24846E-04
 -1     26417 4.28800E+00-4.89733E-01 1.25337E+00 3.07022E+00-7.39367E-04-3.66111E-04
 -1     26418 3.58375E+00 8.07398E+00 3.84593E+00 7.09913E+00-1.51001E-03-7.53159E-03
 -1     26419 2.69881E+00 8.12282E+00 3.56954E+00 7.01675E+00 3.15448E-03 3.59376E-03
 -1     26420 2.09848E+00 7.64428E+00 3.21673E+00 6.61664E+00-6.42104E-03-2.51063E-03
 -1     26421 1.26360E+01 1.03441E+01 7.58606E+00 1.14703E+01 2.41572E-03-2.00248E-03
 -1     26422 1.02696E+01 8.02841E+00 6.03659E+00 9.07724E+00-1.29469E-03 1.93049E-03
 -1     26423 1.04277E+01 7.62127E+00 5.95791E+00 8.95055E+00-1.73020E-03 3.86848E-03
 -1     26424 9.91541E+00 7.47855E+00 5.73863E+00 8.63538E+00 2.06060E-03 1.60843E-03
 -1     26425 1.02443E+01 7.18076E+00 5.74891E+00 8.62847E+00-7.05393E-04-1.45641E-04
 -1     26426 5.91865E+00 4.55945E+00 3.45541E+00 5.17350E+00-3.44719E-04-1.41350E-03
 -1     26427 5.79567E+00 4.39869E+00 3.36198E+00 5.03515E+00-6.16593E-04-2.50538E-03
 -1     26428 5.89868E+00 4.46017E+00 3.41910E+00 5.12205E+00-2.11077E-03-6.09898E-04
 -1     26429-1.97018E+01-1.74016E+00-7.07188E+00-5.74011E+00 2.28566E-03 1.00810E-02
 -1     26430-2.01000E+01-1.89320E+00-7.25808E+00-6.09630E+00-4.82226E-03 5.44886E-03
 -1     26431-2.04391E+01-1.88334E+00-7.36157E+00-6.01781E+00 1.92502E-03-1.45173E-03
 -1     26432-2.01946E+01-2.07357E+00-7.34361E+00-6.41094E+00-2.77416E-03 3.87475E-03
 -1     26433-2.08137E+01-2.15625E+00-7.57652E+00-6.68943E+00-1.44092E-03-1.63680E-02
 -1     26434 4.64224E+00 8.79587E-03 1.53485E+00 4.05306E+00 3.47938E-04 7.02256E-04
 -1     26435 1.09011E+01 9.81150E+00 6.83512E+00 1.03608E+01 4.91117E-04-8.39902E-03
 -1     26436 1.07651E+01 9.71319E+00 6.76486E+00 1.02450E+01-1.40306E-03-2.85643E-03
 -1     26437 1.04640E+01 9.47284E+00 6.58005E+00 9.97325E+00 4.79181E-03-5.33317E-03
 -1     26438-7.61220E-01-1.83486E+00-8.56860E-01 2.04162E+00-7.44815E-04 3.56332E-04
 -1     26439 9.94483E+00 4.26901E+00 4.69057E+00 7.15210E+00-9.33598E-05 3.36163E-04
 -1     26440 9.95954E+00 4.47696E+00 4.76404E+00 7.29999E+00 8.47118E-04-7.15829E-04
 -1     26441 9.60397E+00 3.77608E+00 4.41542E+00 6.84812E+00 3.39456E-04 4.58601E-04
 -1     26442 8.96792E+00 3.29952E+00 4.04811E+00 5.66453E+00-2.14826E-04 1.10807E-03
 -1     26443 9.00115E+00 2.87721E+00 3.91984E+00 5.34181E+00-2.36281E-03 3.08042E-05
 -1     26444 9.14911E+00 3.32769E+00 4.11736E+00 5.83088E+00 3.32564E-04 8.28299E-04
 -1     26445 9.14745E+00 2.85131E+00 3.96092E+00 5.50015E+00-2.11670E-04-1.07114E-03
 -1     26446-9.09832E+00-9.88521E-01-3.32926E+00-2.90981E+00-8.76386E-03 1.51576E-02
 -1     26447-9.28077E+00-9.72866E-01-3.39217E+00-2.89534E+00-2.96775E-03-1.70113E-02
 -1     26448-9.13961E+00-9.43917E-01-3.32923E+00-2.88733E+00 1.56555E-02 7.30017E-03
 -1     26449-9.33368E+00-9.53689E-01-3.39570E+00-2.89726E+00 7.51599E-03 7.82607E-03
 -1     26450 8.89448E+00 2.14213E+00 3.64102E+00 4.76715E+00-1.33613E-03-5.44587E-04
 -1     26451 8.93627E+00 2.07282E+00 3.63268E+00 4.88258E+00 2.12164E-03-5.81803E-05
 -1     26452 8.61548E+00 1.74295E+00 3.41813E+00 4.44250E+00 2.57399E-03-2.22177E-04
 -1     26453 8.63975E+00 1.62793E+00 3.38835E+00 4.56332E+00-1.24788E-04 7.95833E-04
 -1     26454 4.02962E+00 4.05411E+00 2.66762E+00 5.08343E+00 5.86709E-05-1.69600E-04
 -1     26455-1.25489E+01-1.26637E+00-4.56037E+00-3.98989E+00 5.36261E-03-1.86851E-03
 -1     26456-1.22736E+01-1.23864E+00-4.45504E+00-3.89877E+00 5.07905E-03-9.26884E-06
 -1     26457-3.55282E-01 6.44585E+00 2.00875E+00 5.63028E+00-6.84355E-04 1.14725E-03
 -1     26458 3.36083E-01 7.12248E+00 2.45996E+00 6.21140E+00 1.96330E-03-2.40372E-04
 -1     26459 7.77671E-01 6.91217E+00 2.53887E+00 6.03520E+00-5.84475E-04-3.15624E-03
 -1     26460 2.00050E+00 7.66124E+00 3.18946E+00 6.64105E+00-1.83950E-04-1.76571E-04
 -1     26461-1.99863E+01-1.74691E+00-7.17903E+00-5.64098E+00-1.31982E-02 2.00879E-05
 -1     26462-2.09664E+01-1.95568E+00-7.56040E+00-6.10079E+00-8.45776E-03 2.00867E-02
 -1     26463-1.38006E+01-1.65319E+00-5.10021E+00-6.39593E-01 9.88893E-03-3.80355E-03
 -1     26464-1.68080E+01-1.78592E+00-6.14124E+00-1.30339E+00 4.39700E-03 9.03842E-03
 -1     26465-1.34149E+01-1.42631E+00-4.89868E+00-1.02368E+00 7.06875E-03 1.82238E-03
 -1     26466-1.63502E+01-1.50200E+00-5.89407E+00-1.73628E+00 9.09086E-03-3.28633E-03
 -1     26467 3.34077E+00 1.26164E+00 1.51688E+00 4.23758E+00 5.89534E-04 1.22132E-03
 -1     26468 4.05263E+00 1.83234E+00 1.94075E+00 4.61563E+00-1.05196E-03 1.12049E-03
 -1     26469 5.05611E+00 3.49217E+00 2.82118E+00 5.40456E+00 1.27917E-04-1.13914E-03
 -1     26470 5.79773E+00 4.08224E+00 3.26036E+00 5.87067E+00 3.55227E-04 3.40640E-04
 -1     26471-8.81032E+00-9.21089E-01-3.23433E+00-2.81513E+00 7.92769E-03-1.75546E-02
 -1     26472-6.33947E+00-1.56149E-01-2.21616E+00-1.30124E+00 8.25721E-02-2.41774E-02
 -1     26473-4.31003E+00 1.30344E+00-1.03476E+00 1.49425E-01-3.81357E-02-3.75984E-02
 -1     26474-3.97895E+00 1.09545E+00-9.67485E-01 2.68344E-01 1.23929E-02 9.42294E-02
 -1     26475-2.63763E+00 2.07792E+00-1.26335E-01 1.62813E+00 5.12112E-02 3.90081E-02
 -1     26476-9.56766E+00-9.58142E-01-3.47178E+00-2.96572E+00 5.28630E-03 2.05830E-02
 -1     26477-5.59152E-01 7.10843E+00 2.16198E+00 6.37830E+00-3.27503E-03 4.78236E-03
 -1     26478-3.24198E+00 4.37716E+00 3.74391E-01 3.98816E+00-2.16100E-03 2.36478E-03
 -1     26479-2.29722E+00 5.17629E+00 9.49785E-01 4.71392E+00-3.96036E-04-5.64093E-04
 -1     26480-1.59735E+01-1.65686E+00-5.81965E+00-5.15322E+00 2.39203E-03 9.27895E-04
 -1     26481-1.61987E+01-1.68754E+00-5.90528E+00-5.24043E+00-4.33626E-04-3.06357E-06
 -1     26482-1.52184E+01-1.44554E+00-5.49896E+00-4.71971E+00 5.47932E-04-3.45611E-05
 -1     26483-1.55954E+01-1.59729E+00-5.67304E+00-5.00071E+00-1.64771E-03-3.20448E-03
 -1     26484-1.58330E+01-1.63397E+00-5.76243E+00-5.09087E+00-1.64117E-03-4.82838E-04
 -1     26485 1.87002E+00 7.00681E+00 2.92858E+00 6.09252E+00 3.48004E-03 3.82405E-04
 -1     26486 2.24674E+00 6.89660E+00 3.01508E+00 6.05053E+00 2.34645E-03 4.34077E-04
 -1     26487 8.57060E+00 2.89774E+00 3.78472E+00 4.77490E+00-1.51647E-03-4.84232E-04
 -1     26488 8.43465E+00 3.03863E+00 3.78616E+00 4.69940E+00 4.74444E-04-3.62905E-04
 -1     26489 5.48450E+00 6.09458E+00 3.82109E+00 6.39729E+00-6.67898E-04-9.70706E-04
 -1     26490-5.03765E+00 2.43679E+00-8.58510E-01 1.14331E+00 4.47770E-04 2.79190E-04
 -1     26491-6.41595E+00 1.77343E+00-1.53217E+00 3.04097E-01 5.11761E-04 4.19427E-04
 -1     26492 1.18971E+01 9.01585E+00 6.89868E+00 1.03977E+01 1.35657E-03 3.53685E-04
 -1     26493 1.22832E+01 9.82852E+00 7.29385E+00 1.10033E+01 1.57499E-03 4.35164E-04
 -1     26494 1.20953E+01 9.36761E+00 7.08078E+00 1.06915E+01 8.61728E-04 3.63116E-03
 -1     26495 1.21151E+01 9.40997E+00 7.10204E+00 1.07089E+01 5.28280E-03 1.21167E-03
 -1     26496-7.91363E-01 6.49296E+00 1.88167E+00 5.80255E+00 2.75334E-03 2.57858E-03
 -1     26497-1.90071E+01-2.07662E+00-6.95475E+00-6.27684E+00 3.70011E-04-1.07506E-03
 -1     26498-1.89593E+01-2.06948E+00-6.93819E+00-6.26120E+00-1.06581E-03-3.35126E-03
 -1     26499-1.88771E+01-2.06366E+00-6.90843E+00-6.24364E+00-7.05889E-04-9.48063E-05
 -1     26500-2.57778E+01-1.60782E+00-9.25835E+00-6.34812E+00 6.48426E-02-2.89447E-02
 -1     26501-2.38196E+01-2.21778E+00-8.56450E+00-3.07330E+00-2.64041E-02-2.55947E-02
 -1     26502-2.51112E+01-2.58447E+00-9.24453E+00-3.23822E+00-8.32279E-02 1.15550E-02
 -1     26503-2.90007E+01-1.80275E+00-1.01957E+01-8.03573E+00-5.57598E-02 9.12660E-02
 -1     26504-2.75832E+01-1.78020E+00-9.51712E+00-7.35616E+00-6.86837E-02 2.80289E-01
 -1     26505-2.74738E+01-2.53379E+00-9.70747E+00-3.73510E+00-6.62607E-02 1.91019E-01
 -1     26506-1.78322E+01-1.88881E+00-6.50586E+00-5.76480E+00 1.54045E-03-3.76441E-03
 -1     26507-1.77866E+01-1.88413E+00-6.49182E+00-5.75692E+00-1.31986E-03 1.43593E-03
 -1     26508 2.77762E+00 7.60523E+00 3.42311E+00 6.66616E+00 3.90718E-03 2.85456E-03
 -1     26509-9.81198E-02 1.24402E+01 4.06891E+00 6.14683E+00-1.64296E-02 1.16732E-02
 -1     26510 1.46515E-01 1.25728E+01 4.16960E+00 6.09686E+00 8.33701E-02 9.42526E-03
 -1     26511 2.60176E+00 7.03000E+00 3.17881E+00 6.20218E+00 1.46676E-03 1.82049E-03
 -1     26512 3.32512E+00 7.53470E+00 3.57997E+00 6.67415E+00-1.04971E-03-5.95198E-04
 -1     26513 1.51945E+00 6.38320E+00 2.60759E+00 5.54741E+00 1.20688E-03 6.04550E-04
 -1     26514 3.97632E+00 4.84813E+00 2.91200E+00 5.28098E+00-3.31828E-04-4.45335E-04
 -1     26515 4.86874E+00 5.45326E+00 3.40624E+00 5.88403E+00 1.53574E-04 2.26831E-04
 -1     26516 5.10024E+00 5.36712E+00 3.45432E+00 5.95287E+00-3.82241E-04 3.00402E-04
 -1     26517-1.85754E+01-1.61716E+00-6.66676E+00-5.26356E+00-1.69224E-03-4.77694E-03
 -1     26518-1.76822E+01-1.42177E+00-6.30430E+00-4.50040E+00-2.09460E-03-5.62584E-03
 -1     26519-1.41773E+01-1.33415E+00-5.11838E+00-4.37479E+00-1.50593E-03-1.20393E-04
 -1     26520-1.51027E+01-1.59306E+00-5.51040E+00-4.89273E+00-1.35822E-03 6.56441E-04
 -1     26521-1.37802E+01-1.18985E+00-4.94029E+00-4.10627E+00-2.11411E-03 1.63079E-04
 -1     26522-1.41353E+01-1.25311E+00-5.07664E+00-4.25720E+00 5.27811E-04 1.98969E-04
 -1     26523-1.37300E+01-1.10433E+00-4.89553E+00-3.99603E+00 6.56521E-05 1.68212E-03
 -1     26524-1.80853E+01-1.95570E+00-6.61256E+00-5.95027E+00-5.60759E-04-7.00280E-04
 -1     26525-1.68480E+01-1.74068E+00-6.13398E+00-5.42895E+00 6.58284E-04 2.43677E-04
 -1     26526-1.72754E+01-1.82253E+00-6.30196E+00-5.60991E+00-1.77566E-04-3.28809E-04
 -1     26527-1.82377E+01-1.99183E+00-6.67557E+00-6.02580E+00-1.05917E-04-1.06424E-03
 -1     26528-1.60358E+01-1.59850E+00-5.81958E+00-5.08479E+00 1.10547E-03 4.24607E-03
 -1     26529 6.20570E+00 8.40623E+00 4.83113E+00 7.96326E+00-2.62536E-03-5.07237E-04
 -1     26530 4.06788E+00 7.60364E+00 3.85252E+00 6.87761E+00-1.63428E-03 1.42076E-03
 -1     26531-2.24586E+01-2.40964E+00-8.18821E+00-1.38131E+00-5.70304E-03-1.40431E-02
 -1     26532-2.47979E+01-3.23565E+00-9.25605E+00-1.15396E+00 6.43314E-02-5.21270E-02
 -1     26533 7.93068E+00 3.76620E+00 3.85998E+00 6.55132E+00 6.10189E-04-5.02471E-04
 -1     26534 6.15874E+00 4.16467E+00 3.40780E+00 5.04035E+00-4.46774E-04-7.93441E-04
 -1     26535 6.74481E+00 3.86594E+00 3.50455E+00 5.02818E+00-9.05076E-04-4.51079E-04
 -1     26536 5.63057E+00 4.27679E+00 3.26973E+00 4.90419E+00 2.50719E-03 1.26159E-03
 -1     26537 5.72820E+00 4.28472E+00 3.30456E+00 4.94901E+00-4.69561E-03-1.97638E-03
 -1     26538 6.22595E+00 3.99249E+00 3.37123E+00 4.92667E+00 6.18813E-04 3.60165E-04
 -1     26539-2.44760E+01-1.99463E+00-8.78775E+00-6.61656E+00 8.43451E-03 1.86360E-02
 -1     26540-2.33294E+01-2.30923E+00-8.47483E+00-7.59230E+00-1.26288E-02 2.08541E-02
 -1     26541-2.48692E+01-1.90926E+00-8.73550E+00-6.19089E+00-7.61696E-02-7.89989E-02
 -1     26542-2.49680E+01-1.71367E+00-8.81880E+00-5.46681E+00-1.94281E-02 3.43832E-03
 -1     26543-2.38483E+01-2.02567E+00-8.54806E+00-6.48485E+00-6.64282E-03-6.03603E-02
 -1     26544 4.04840E+00 7.59719E+00 3.84284E+00 6.86112E+00 3.19130E-04 3.91752E-04
 -1     26545 6.39688E+00 3.52292E+00 3.27410E+00 4.77681E+00 1.75463E-03 4.65210E-04
 -1     26546 5.95100E+00 4.57605E+00 3.47434E+00 5.20285E+00 3.74759E-04 1.01908E-03
 -1     26547 8.99505E+00 1.94589E+00 3.61027E+00 5.24158E+00 4.92756E-04 1.70761E-03
 -1     26548 9.19848E+00 2.29992E+00 3.79434E+00 5.56167E+00-4.79077E-04-3.26455E-04
 -1     26549 8.93707E+00 1.88844E+00 3.57237E+00 5.32858E+00 2.18659E-03-5.47017E-04
 -1     26550-1.20062E+01-1.15666E+00-4.34666E+00-3.73225E+00 1.78938E-03-6.70116E-04
 -1     26551-1.17253E+01-1.12294E+00-4.23823E+00-3.64077E+00 6.26379E-04 2.22168E-03
 -1     26552-1.14571E+01-1.09439E+00-4.14225E+00-3.55192E+00-4.92215E-04 1.43258E-03
 -1     26553 1.21216E+01 9.74917E+00 7.21804E+00 1.08841E+01-1.30219E-03 8.13845E-03
 -1     26554 1.22129E+01 9.76735E+00 7.25428E+00 1.09342E+01 3.21768E-04-3.48117E-03
 -1     26555 1.18497E+01 9.04090E+00 6.89221E+00 1.03845E+01 1.50599E-03 2.35174E-03
 -1     26556 1.13901E+01 8.07142E+00 6.42287E+00 9.69701E+00-9.22251E-05-5.74213E-03
 -1     26557 1.14288E+01 8.11098E+00 6.44755E+00 9.74999E+00-1.92229E-03-7.58080E-03
 -1     26558 7.14079E+00 3.28807E+00 3.44163E+00 6.10021E+00 4.47561E-04 6.84339E-04
 -1     26559-2.57784E+01-2.21781E+00-9.52139E+00-7.68564E+00 2.82927E-02-1.03619E-01
 -1     26560-2.78345E+01-3.43062E+00-1.02317E+01-8.30185E+00 2.54385E-01-2.78166E-01
 -1     26561-2.60621E+01-2.10392E+00-9.38500E+00-7.10393E+00-9.02046E-02-1.89287E-01
 -1     26562-2.43767E+01-2.51834E+00-8.93322E+00-7.79277E+00-2.32775E-02 2.77403E-02
 -1     26563-2.62737E+01-2.86864E+00-9.41697E+00-7.89441E+00-9.76422E-03-6.42985E-02
 -1     26564 5.64526E+00 3.43617E+00 3.00228E+00 4.56302E+00 1.69683E-03-1.83775E-03
 -1     26565 5.47468E+00 3.70382E+00 3.02517E+00 4.54717E+00-6.57112E-05 1.46762E-03
 -1     26566 5.57288E+00 3.53028E+00 2.99931E+00 4.54673E+00 2.68271E-03-5.15876E-04
 -1     26567 6.06196E+00 3.41747E+00 3.13325E+00 4.69722E+00-8.77911E-04 1.89738E-03
 -1     26568 5.97469E+00 3.56367E+00 3.14764E+00 4.68147E+00 9.73534E-04 1.41882E-03
 -1     26569 5.88232E+00 3.61869E+00 3.13898E+00 4.66378E+00 4.93187E-03 3.79419E-03
 -1     26570-3.00771E+01-9.09018E-01-1.02946E+01-7.59936E+00-2.26155E-01 3.07327E-01
 -1     26571-3.61411E+01-1.87110E+00-1.20730E+01-5.76362E+00-7.48300E-02 2.57572E-01
 -1     26572-1.68001E+01-6.90687E+00-7.81579E+00 2.22887E-01-7.40915E-02 2.23777E-02
 -1     26573-1.49136E+01-5.40286E+00-6.71232E+00 3.06518E-01-1.88210E-03-3.74968E-03
 -1     26574-1.91486E+01-7.22827E+00-8.71932E+00 5.12963E-01-2.41268E-02-3.94786E-02
 -1     26575-1.65600E+01-7.33241E+00-7.85858E+00-2.15976E-02 4.69775E-03-7.45449E-03
 -1     26576-1.72267E+01-5.70871E+00-7.57654E+00 5.38223E-01 2.95858E-02-2.83810E-02
 -1     26577-2.14570E+00 4.91137E+00 9.12346E-01 4.16441E+00-5.01000E-04-1.03752E-03
 -1     26578-2.23855E+00 4.68078E+00 8.05507E-01 3.82826E+00 2.50530E-04-4.80563E-04
 -1     26579-1.23675E+00 5.38756E+00 1.36972E+00 4.55059E+00 5.49389E-04 1.55425E-03
 -1     26580-1.68618E+00 2.88350E+00 3.94864E-01 2.25153E+00 1.10261E-03 9.38164E-04
 -1     26581-1.53892E+01-1.44456E+00-5.55534E+00-4.64551E+00 2.08463E-04 1.12395E-03
 -1     26582-1.66662E+01-1.66880E+00-6.05080E+00-5.22957E+00 1.41689E-03-8.25076E-04
 -1     26583-1.64770E+01-1.65343E+00-5.98247E+00-5.19723E+00-2.08354E-03-9.48992E-04
 -1     26584 5.99487E+00 3.15893E+00 3.02593E+00 4.69250E+00 5.98486E-03-1.11956E-03
 -1     26585-1.93634E+01-2.11764E+00-7.08638E+00-6.39911E+00 4.14782E-04-3.89107E-03
 -1     26586-1.93550E+01-2.10645E+00-7.08832E+00-6.38647E+00-8.09137E-04 5.84932E-04
 -1     26587 6.19548E-01 4.44440E+00 1.67112E+00 3.86498E+00-2.97845E-05 8.01546E-05
 -1     26588-9.55077E-01 3.78029E+00 9.32324E-01 3.01265E+00-1.03337E-04 3.10059E-05
 -1     26589 8.00038E+00 2.43146E+00 3.43816E+00 3.66723E+00 1.58449E-03-3.34982E-03
 -1     26590 8.23983E+00 2.12988E+00 3.42376E+00 3.89527E+00 1.01601E-02 1.11263E-03
 -1     26591 8.22907E+00 2.66688E+00 3.59781E+00 3.91124E+00 3.60705E-03 9.29467E-03
 -1     26592 8.08900E+00 2.98036E+00 3.65725E+00 3.79231E+00-7.40547E-03 8.46219E-04
 -1     26593 8.29578E+00 2.65765E+00 3.61527E+00 3.98747E+00 3.36620E-03 2.74258E-03
 -1     26594 5.02723E+00 2.90415E-01 1.75483E+00 2.56812E+00-1.03928E-03-8.28830E-04
 -1     26595 4.85212E+00 8.17729E-01 1.86935E+00 2.19198E+00 4.09959E-03-4.03957E-03
 -1     26596 8.78889E+00 4.03892E+00 4.23319E+00 6.90663E+00 1.98952E-03 3.06279E-03
 -1     26597-3.47901E-02 8.37728E+00 2.73438E+00 7.55520E+00-1.02470E-02 1.40814E-02
 -1     26598-1.39720E-01 9.43857E+00 3.06853E+00 7.45594E+00-3.13334E-02-4.56548E-04
 -1     26599 4.55478E+00 7.58203E+00 4.00434E+00 6.97379E+00-7.16991E-04-1.93346E-03
 -1     26600 6.60804E+00 8.40949E+00 4.95736E+00 8.05016E+00-1.27015E-06-2.01421E-03
 -1     26601 6.54434E+00 2.65654E+00 3.03717E+00 2.60498E+00-5.90764E-03 1.83360E-03
 -1     26602 6.29934E+00 2.05177E+00 2.75755E+00 2.57729E+00 3.81745E-03-6.89000E-03
 -1     26603-6.38258E+00 6.91385E-01-1.87792E+00-3.80410E-01-3.81090E-04 5.61437E-04
 -1     26604-7.74780E+00 3.48153E-01-2.44179E+00-1.08186E+00 7.17104E-05-2.30861E-04
 -1     26605-5.35813E+00 9.15779E-01-1.46606E+00 1.50380E-01-1.16124E-04 1.57983E-03
 -1     26606 5.56393E+00 1.31323E+00 2.27129E+00 2.33816E+00-1.35932E-03-6.82679E-04
 -1     26607 5.73937E+00 7.80045E-01 2.15059E+00 2.69706E+00-4.04807E-03 4.11398E-04
 -1     26608-1.66602E+01-1.69920E+00-6.06022E+00-5.36447E+00-1.13302E-03 1.72932E-03
 -1     26609-1.68241E+01-1.73858E+00-6.12603E+00-5.42928E+00-7.16586E-04-2.32482E-04
 -1     26610 4.77356E+00 1.43101E+00 2.04452E+00 1.88059E+00 1.45795E-03 2.36751E-03
 -1     26611 5.01400E+00 1.49065E+00 2.14870E+00 1.97017E+00 7.18144E-03 1.14034E-03
 -1     26612 5.18450E+00 8.79427E-01 2.00053E+00 2.33030E+00-1.81142E-03 1.95139E-03
 -1     26613-1.75667E+01-7.98315E+00-8.42717E+00-3.93643E-01 3.90208E-02-2.50338E-02
 -1     26614-2.12208E+01-9.74848E+00-1.02346E+01 1.55175E-01 9.25048E-02-3.76762E-02
 -1     26615-1.87480E+01-8.61555E+00-9.01388E+00-2.30161E-01-3.62340E-02-2.26130E-02
 -1     26616 8.95947E+00 2.37835E+00 3.74068E+00 4.91851E+00 1.64421E-03 2.95016E-03
 -1     26617 9.06222E+00 2.29378E+00 3.74835E+00 5.04402E+00 2.38955E-03 9.41178E-04
 -1     26618 8.88089E+00 2.14921E+00 3.64022E+00 4.76536E+00 9.41323E-04 1.08144E-03
 -1     26619 5.08738E+00 3.83280E+00 2.94822E+00 4.41797E+00-1.71976E-02 4.44422E-03
 -1     26620 5.34839E+00 3.59001E+00 2.95194E+00 4.46034E+00-1.27227E-02-1.53142E-03
 -1     26621 4.90182E+00 3.64054E+00 2.81606E+00 4.27452E+00-4.62437E-03 5.86061E-03
 -1     26622 5.24848E+00 3.34522E+00 2.83573E+00 4.39802E+00 1.92614E-03-2.24848E-03
 -1     26623 5.68659E+00 3.35581E+00 2.98361E+00 4.57859E+00 5.97540E-03-4.11768E-03
 -1     26624 5.52523E+00 3.11039E+00 2.84434E+00 4.46931E+00 1.31942E-02-5.84116E-03
 -1     26625-2.70182E-01-1.74864E+00-6.66285E-01 1.83760E+00 6.35033E-04 2.66840E-04
 -1     26626-1.55830E+00-2.04126E+00-1.18780E+00 1.67148E+00 5.35969E-04-4.54702E-04
 -1     26627 5.41174E+00 2.10945E+00 2.48306E+00 2.03336E+00-1.03064E-03-3.97165E-03
 -1     26628 4.74523E+00 1.78869E+00 2.15610E+00 1.74830E+00-7.17288E-04-1.08572E-03
 -1     26629 5.18468E+00 2.00939E+00 2.37523E+00 1.93949E+00 2.06980E-03 1.61725E-04
 -1     26630 8.03572E+00 1.40786E+00 3.11679E+00 5.19850E+00-1.13475E-03-3.22365E-03
 -1     26631 8.18353E+00 1.35767E+00 3.14550E+00 5.07471E+00 2.14592E-03-7.30912E-03
 -1     26632 7.57303E+00 1.01505E+00 2.83330E+00 4.84528E+00-8.54655E-04-1.13798E-03
 -1     26633-1.03230E+01 2.03934E-01-3.33926E+00-1.75747E+00 3.80535E-04 7.96495E-04
 -1     26634-9.87049E+00 3.67542E-01-3.13591E+00-1.45845E+00 4.69288E-04-1.10764E-04
 -1     26635-2.74103E+01-2.06076E+00-9.69786E+00-4.31343E+00-1.01926E-02-7.21855E-02
 -1     26636-2.72470E+01-2.29417E+00-9.77509E+00-3.30846E+00-6.24310E-03-6.27024E-03
 -1     26637-2.51811E+01-2.93390E+00-9.28326E+00-8.18493E-01-2.73790E-02-9.19932E-02
 -1     26638-2.32657E+01-2.17317E+00-8.42471E+00-2.40453E+00 2.34272E-02-1.58493E-02
 -1     26639 2.32146E+00 3.76819E+00 2.00989E+00 4.22436E+00 1.76135E-04-7.65144E-05
 -1     26640 3.09229E+00 4.28074E+00 2.43309E+00 4.71501E+00 3.58943E-05 3.08576E-04
 -1     26641 8.47133E+00 1.54179E+00 3.30639E+00 5.11741E+00-1.71368E-03-5.91434E-04
 -1     26642 8.03138E+00 1.12211E+00 3.02059E+00 4.75460E+00 1.64376E-03 8.94130E-05
 -1     26643-1.89287E+01-2.24931E+00-6.99758E+00-9.17702E-01-1.04900E-02 5.31632E-02
 -1     26644-2.06509E+01-4.66975E+00-8.38375E+00 2.65655E-01-3.07691E-02 2.30235E-02
 -1     26645 1.23347E+01 9.91715E+00 7.34021E+00 1.10717E+01-1.62015E-03-1.22328E-03
 -1     26646-7.55066E+00 1.34293E+00-2.04853E+00-2.88064E-01 1.61233E-04-2.82648E-04
 -1     26647-7.79901E+00 1.15774E+00-2.19171E+00-5.49756E-01 6.39344E-05-4.69595E-04
 -1     26648-8.93039E+00 7.33540E-01-2.70496E+00-1.14004E+00-6.61990E-04-4.41341E-04
 -1     26649 7.39448E+00 1.09791E+00 2.80269E+00 4.95109E+00-3.49893E-03 3.79670E-03
 -1     26650 1.08846E+01 9.23994E+00 6.64244E+00 1.01171E+01 1.51520E-03-6.08885E-04
 -1     26651 6.69063E+00 4.62288E+00 3.73313E+00 5.56075E+00-1.62177E-03-1.02472E-03
 -1     26652 6.69677E+00 4.57668E+00 3.72144E+00 5.53347E+00 6.45449E-04 1.11004E-04
 -1     26653 6.95264E+00 4.76802E+00 3.86784E+00 5.75709E+00-2.90878E-03-1.92153E-04
 -1     26654-8.63104E+00 9.75610E-01-2.52644E+00-6.18384E-01-7.17689E-04-6.67510E-06
 -1     26655-7.68397E+00 1.44520E+00-2.05981E+00 1.18998E-03 7.14647E-04 3.43987E-03
 -1     26656-7.26268E+00 1.65643E+00-1.85073E+00 3.86023E-01 1.76380E-04 1.88551E-04
 -1     26657 8.94583E+00 3.71571E+00 4.17821E+00 5.96363E+00-1.45463E-03-7.92857E-04
 -1     26658 6.97772E+00 2.86209E+00 3.24445E+00 2.88667E+00 1.31720E-03 2.95689E-03
 -1     26659 1.28465E+01 1.05306E+01 7.71683E+00 1.16407E+01-2.58322E-03-3.06638E-03
 -1     26660 1.17320E+01 8.93494E+00 6.82061E+00 1.03299E+01-3.69211E-04-4.00824E-03
 -1     26661 1.22488E+01 9.65180E+00 7.23024E+00 1.09309E+01 3.10466E-04 2.47850E-03
 -1     26662 1.20144E+01 9.54075E+00 7.11276E+00 1.07459E+01-5.55973E-03-1.33897E-03
 -1     26663 1.14314E+01 8.68593E+00 6.63667E+00 1.00679E+01 9.87845E-04 1.87864E-03
 -1     26664 8.95141E+00 2.61843E+00 3.81837E+00 5.06598E+00-1.51944E-03-9.66656E-05
 -1     26665 9.08513E+00 2.56032E+00 3.84424E+00 5.20129E+00-4.40443E-03-1.07902E-03
 -1     26666-2.85312E+01-3.29190E+00-1.05075E+01-4.78933E-01 2.48275E-03-1.14860E-01
 -1     26667-2.93866E+01-1.82167E+00-1.04425E+01-5.63460E+00 1.16398E-01-3.39260E-01
 -1     26668-3.24878E+01-2.90432E+00-1.16009E+01-4.76840E+00-1.23368E-01 2.02752E-02
 -1     26669 8.02996E+00 6.29313E+00 4.72749E+00 7.10722E+00 4.01586E-03 2.59112E-03
 -1     26670 7.90486E+00 6.19620E+00 4.64925E+00 6.98672E+00 9.58479E-04-1.00156E-03
 -1     26671 8.25219E+00 6.49311E+00 4.86482E+00 7.32938E+00-1.89771E-05 2.34772E-03
 -1     26672-8.56766E+00 2.26275E-01-2.75266E+00-1.50149E+00-3.56666E-05 2.24182E-04
 -1     26673-9.91129E+00-1.63850E-01-3.32466E+00-2.17821E+00 2.22057E-04-3.74091E-04
 -1     26674-8.79952E+00 9.69529E-02-2.87177E+00-1.61801E+00 4.07634E-04 3.40114E-04
 -1     26675-1.21761E+01-1.58224E+00-4.53433E+00-2.70924E-01 1.16291E-02 8.99481E-03
 -1     26676-1.09481E+01-1.72710E+00-4.18161E+00 2.83662E-01 5.35763E-03 7.24474E-03
 -1     26677-1.22951E+01-1.90236E+00-4.68576E+00 8.56734E-02-5.15278E-03 1.41124E-02
 -1     26678 8.73422E+00 2.85284E+00 3.82337E+00 6.23860E+00 1.25774E-04-6.03060E-04
 -1     26679 8.42046E+00 1.87965E+00 3.39775E+00 5.56479E+00 3.68871E-04-1.41405E-03
 -1     26680 7.70557E+00 8.26620E+00 5.27128E+00 8.33575E+00-1.28129E-03 5.58988E-04
 -1     26681 9.01635E+00 8.86896E+00 5.90168E+00 9.13275E+00 1.81004E-03 1.66542E-03
 -1     26682 7.95101E+00 8.24224E+00 5.34368E+00 8.40470E+00-7.18744E-04 2.03705E-03
 -1     26683 6.03299E+00 7.47111E+00 4.45682E+00 7.30438E+00-4.98340E-04-8.46849E-05
 -1     26684 4.21312E+00-2.74222E-02 1.38148E+00 2.35913E+00 5.50128E-04 9.21228E-04
 -1     26685 1.11999E+01 7.66194E+00 6.22612E+00 9.40490E+00 3.13994E-04 1.79940E-03
 -1     26686 1.13181E+01 7.88634E+00 6.33785E+00 9.58259E+00-1.32224E-03 4.96256E-03
 -1     26687 1.31677E+01 1.10992E+01 8.00879E+00 1.20926E+01-6.42676E-04 1.29480E-03
 -1     26688 1.14643E+01 9.85992E+00 7.03481E+00 1.06856E+01 3.78898E-03-1.66243E-03
 -1     26689 1.20652E+01 1.03247E+01 7.38846E+00 1.12095E+01 2.39431E-03 7.30116E-04
 -1     26690 8.86077E+00 2.29626E+00 3.68298E+00 5.83153E+00-4.89978E-04 1.98704E-03
 -1     26691-4.15387E+00 2.86237E-01-1.27699E+00 1.15102E+00-2.04462E-03 1.04853E-03
 -1     26692-1.20042E+01-8.38679E-01-4.23844E+00-2.43033E+00 3.58007E-04-8.61959E-04
 -1     26693-1.33827E+01-1.01069E+00-4.74984E+00-3.02914E+00 1.23834E-04-4.36207E-04
 -1     26694 3.35628E+00 1.25344E+00 1.52087E+00 1.20170E+00-1.09474E-03-8.76779E-04
 -1     26695 3.02093E+00 8.98121E-01 1.29482E+00 1.17105E+00-9.39019E-04-3.25697E-03
 -1     26696 3.29703E+00 1.41527E+00 1.55494E+00 1.11093E+00-1.57031E-03-1.49461E-03
 -1     26697 3.88304E+00 1.49046E+00 1.77236E+00 1.38762E+00 1.73881E-04 2.99163E-03
 -1     26698 3.63298E+00 1.00412E+00 1.53027E+00 1.44967E+00-1.44523E-04 1.55697E-03
 -1     26699 3.56312E+00 1.14966E+00 1.55612E+00 1.34766E+00 1.92797E-03 2.75790E-03
 -1     26700-1.85904E+01-1.89818E+00-6.75646E+00-5.88597E+00-2.09991E-03 4.14598E-03
 -1     26701-1.41962E+01-1.19971E+00-5.08090E+00-4.25874E+00 1.86444E-03-6.39177E-04
 -1     26702 6.37289E+00 1.05833E+00 2.45131E+00 2.90221E+00-3.61994E-03 2.50283E-03
 -1     26703 6.81198E+00 9.86023E-01 2.57321E+00 3.25184E+00-2.55332E-03 4.06366E-03
 -1     26704 6.88831E+00 1.35948E+00 2.72272E+00 3.09899E+00 7.35243E-04 1.10941E-03
 -1     26705 1.40898E+00 3.51053E-01 5.81716E-01 6.25201E-01-4.21419E-04-2.26812E-03
 -1     26706 1.69816E+00 4.97456E-01 7.24605E-01 6.92922E-01 7.77460E-05 1.01166E-03
 -1     26707 1.72277E+00 2.50856E-01 6.52020E-01 8.48930E-01 2.46048E-03 1.03022E-03
 -1     26708 1.58164E+00 4.95851E-01 6.85294E-01 6.32875E-01 3.03282E-03-4.95484E-04
 -1     26709 1.85862E+00 6.25494E-01 8.21278E-01 6.99487E-01 1.69187E-03 2.63120E-03
 -1     26710 9.18713E+00 2.52640E+00 3.86534E+00 5.33436E+00 8.72782E-04-5.46153E-03
 -1     26711 9.70159E+00 4.23935E+00 4.60151E+00 6.75936E+00 3.63522E-03-5.21336E-04
 -1     26712 9.59763E+00 4.70456E+00 4.72073E+00 6.96498E+00 2.63454E-04-9.25232E-04
 -1     26713-5.01222E+00-2.62061E+00-2.51881E+00 1.56780E+00-9.20792E-04-1.03315E-03
 -1     26714-6.68522E+00-2.79378E+00-3.12777E+00 1.38837E+00-6.22763E-04-5.38321E-04
 -1     26715-4.21640E+00 2.50204E-01-1.31029E+00 1.14221E+00 1.60794E-03-7.14232E-05
 -1     26716 7.82319E+00 3.29056E+00 3.66434E+00 3.58049E+00 1.27567E-03-2.90136E-04
 -1     26717 7.61594E+00 3.17703E+00 3.56563E+00 3.37404E+00 1.26144E-03-2.22009E-04
 -1     26718 3.21852E+00 4.88520E-01 1.22306E+00 1.47861E+00 2.38860E-03 1.20522E-03
 -1     26719 2.85495E+00 5.55535E-01 1.12603E+00 1.25210E+00-2.62085E-03-2.39519E-03
 -1     26720 3.45237E+00 6.52449E-01 1.35526E+00 1.50394E+00 3.72424E-03 6.69708E-04
 -1     26721 3.39482E+00 8.35211E-01 1.39404E+00 1.40849E+00 3.35994E-03 1.80069E-04
 -1     26722 2.78030E+00 6.88812E-01 1.14629E+00 1.15446E+00-1.61259E-03-1.35516E-03
 -1     26723-2.44077E+01-2.14038E+00-8.87301E+00-7.03463E+00 6.36174E-02 1.37000E-01
 -1     26724 8.14937E+00 6.39208E+00 4.79736E+00 7.22073E+00 8.20683E-04 1.01143E-03
 -1     26725 7.78397E+00 6.09700E+00 4.58068E+00 6.89166E+00 4.84613E-03-2.05766E-03
 -1     26726-1.32951E+01-6.17292E+00-6.43427E+00-2.12081E-01-1.27250E-02 1.12662E-02
 -1     26727-1.38131E+01-6.22526E+00-6.59758E+00-4.04853E-03-1.62571E-02-1.19038E-02
 -1     26728-3.33531E+00 3.46516E+00 4.26431E-02 2.39037E+00-1.46542E-03-6.54824E-04
 -1     26729-3.03796E+00 3.82445E+00 2.59622E-01 2.80626E+00 1.38429E-04-3.86152E-04
 -1     26730-2.28604E+00 3.88267E+00 5.26777E-01 2.88061E+00-3.37752E-04-5.27203E-04
 -1     26731-4.17144E+00 3.12208E+00-3.46127E-01 2.00148E+00-5.98019E-04 1.69254E-04
 -1     26732 1.18040E+01 1.02664E+01 7.28526E+00 1.10591E+01-2.59423E-04 3.04795E-03
 -1     26733 1.32898E+01 1.11846E+01 8.07545E+00 1.21940E+01-4.79256E-04 3.59712E-05
 -1     26734 1.32957E+01 1.11825E+01 8.07599E+00 1.21980E+01-4.56342E-04 1.19465E-03
 -1     26735-1.66978E+01-3.02184E+00-6.50158E+00-1.51102E-01-2.76358E-02 2.33654E-02
 -1     26736-1.69396E+01-2.16821E+00-6.31432E+00-7.53786E-01-2.07685E-02 2.23771E-02
 -1     26737 4.67627E+00 3.12988E+00 2.59053E+00 3.89873E+00 8.67165E-04 1.19874E-03
 -1     26738 4.16756E+00 2.67135E+00 2.25635E+00 3.50694E+00 1.09251E-02-4.60637E-03
 -1     26739 4.19528E+00 2.59544E+00 2.23903E+00 3.50586E+00 7.48261E-03-3.74799E-03
 -1     26740 4.71954E+00 2.71846E+00 2.45870E+00 3.83196E+00 4.36808E-03-1.98906E-03
 -1     26741 4.73946E+00 2.77632E+00 2.48434E+00 3.85275E+00 4.05008E-03 3.96091E-03
 -1     26742 8.74848E+00 1.64452E+00 3.42964E+00 5.04676E+00 1.04491E-03-1.37484E-03
 -1     26743 6.71553E+00 5.15359E+00 3.91681E+00 5.88553E+00-7.45504E-04-8.20939E-06
 -1     26744 6.84286E+00 5.31180E+00 4.01222E+00 6.02437E+00-1.85354E-03 1.03763E-03
 -1     26745 7.33663E+00 3.55759E+00 3.59559E+00 4.95073E+00-8.10409E-04-1.19522E-03
 -1     26746 7.14217E+00 3.55223E+00 3.52768E+00 4.89836E+00-2.79269E-03-2.08682E-03
 -1     26747 6.96094E+00 3.66984E+00 3.50815E+00 4.95029E+00 3.05716E-03-1.02543E-04
 -1     26748 8.70501E+00 1.82691E+00 3.47576E+00 5.39519E+00 5.09533E-03 2.46164E-04
 -1     26749 8.38920E+00 3.11351E+00 3.79577E+00 4.51606E+00-1.71276E-04-1.26428E-03
 -1     26750 8.42967E+00 2.96410E+00 3.75974E+00 4.36934E+00 9.36675E-04 1.80466E-04
 -1     26751 8.30664E+00 3.25463E+00 3.81437E+00 4.34385E+00-4.99745E-04 1.13935E-03
 -1     26752 6.42721E+00 2.61093E-01 2.20736E+00 3.80816E+00 3.41598E-04 1.23456E-03
 -1     26753 6.96343E+00 4.84133E-01 2.45765E+00 4.16468E+00-1.05472E-03 6.61474E-05
 -1     26754 4.86829E+00 3.67558E+00 2.81098E+00 4.23914E+00 9.85473E-03 1.62670E-03
 -1     26755 4.73066E+00 3.27382E+00 2.64638E+00 4.05438E+00-2.74057E-03 1.75229E-03
 -1     26756 4.97056E+00 2.88764E+00 2.59641E+00 4.07867E+00-1.52897E-02-7.58495E-03
 -1     26757 5.05488E+00 3.34608E+00 2.76571E+00 4.26785E+00-5.36574E-03-4.58905E-03
 -1     26758 8.65958E-01-2.43604E-01 2.05502E-01 6.83966E-01-1.56851E-03 1.64371E-03
 -1     26759 1.44898E+00-5.98414E-01 2.80416E-01 1.31160E+00 8.90628E-04 9.32330E-05
 -1     26760 6.92144E-01-9.54157E-01-8.72030E-02 1.18620E+00 4.02740E-04 1.07300E-03
 -1     26761 1.07677E+00-4.04746E-01 2.23185E-01 9.03713E-01 5.17005E-03 1.15033E-03
 -1     26762 1.79082E+00-6.37773E-02 5.69537E-01 1.04381E+00-6.00852E-04 6.10558E-05
 -1     26763 7.53794E+00 7.86908E-01 2.74748E+00 4.38009E+00-4.72747E-04-6.06190E-04
 -1     26764 7.41590E+00 7.85330E-01 2.70662E+00 4.53531E+00-4.51631E-04 1.55783E-03
 -1     26765 8.80918E-01 2.66839E+00 1.17127E+00 3.35170E+00 3.58098E-05 1.57846E-04
 -1     26766-9.05676E+00 7.94660E-01-2.72632E+00-9.23205E-01 4.38563E-04 8.78081E-04
 -1     26767-2.28287E+01-2.17771E+00-8.24391E+00-6.78212E+00-1.66230E-03 2.47417E-02
 -1     26768-1.06313E+01 1.20278E-01-3.46864E+00-1.97172E+00-3.29796E-04 7.23911E-04
 -1     26769-1.17987E+01-3.24012E-01-4.00042E+00-2.69929E+00-1.26812E-03-1.26303E-03
 -1     26770-1.17509E+01-3.38874E-01-3.98978E+00-2.68588E+00-5.63144E-05-3.48892E-05
 -1     26771-1.29444E+01-7.59635E-01-4.52135E+00-3.41451E+00 3.71372E-04 1.06287E-04
 -1     26772-1.80894E+01-1.54488E+00-6.46153E+00-2.41289E+00-6.15141E-03 4.41875E-03
 -1     26773-2.18371E+01-2.23644E+00-7.93125E+00-6.91330E+00-5.88491E-03-1.90963E-02
 -1     26774-2.20430E+01-2.21986E+00-8.01671E+00-7.01575E+00-1.56562E-02-5.00959E-04
 -1     26775-2.14886E+01-2.01641E+00-7.75260E+00-6.52518E+00-4.69418E-03-3.23358E-02
 -1     26776-2.11167E+01-2.20742E+00-7.69376E+00-6.76359E+00-5.84845E-04-1.10504E-02
 -1     26777-2.13542E+01-2.20947E+00-7.77886E+00-6.85054E+00 1.83029E-03-1.15310E-02
 -1     26778-2.23733E+00 4.39219E+00 7.11168E-01 3.46175E+00-8.49291E-04-6.91912E-04
 -1     26779-3.22246E+00 3.96344E+00 2.44750E-01 3.04815E+00-2.41426E-04-1.09049E-03
 -1     26780-3.10991E+00 3.84193E+00 2.42657E-01 2.83194E+00-6.67352E-04 8.11295E-04
 -1     26781-4.30640E+00 3.20832E+00-3.62562E-01 2.14230E+00 8.83054E-04-7.44919E-04
 -1     26782-4.09636E+00 3.41175E+00-2.25909E-01 2.40009E+00-7.53984E-05 8.73293E-04
 -1     26783 2.36982E+00-7.28608E-01 5.41909E-01 1.96425E+00-3.60762E-05 8.22982E-04
 -1     26784 1.34744E+00-1.14196E+00 6.78159E-02 1.78564E+00-1.55925E-03-1.36731E-03
 -1     26785-4.60392E+00 2.77481E+00-6.03038E-01 1.58258E+00-6.57154E-05 6.13165E-04
 -1     26786-3.18218E+00 4.27696E+00 3.61356E-01 3.57193E+00-8.01491E-05-4.31381E-04
 -1     26787-3.30669E+00 4.04254E+00 2.42854E-01 3.22995E+00 4.37625E-04-8.71460E-04
 -1     26788-2.29707E+01-2.37390E+00-8.39802E+00-7.29896E+00 1.85628E-02 3.34999E-03
 -1     26789-2.25488E+01-2.18460E+00-8.20697E+00-7.25093E+00-3.64805E-03 1.79877E-02
 -1     26790-4.40601E-01 9.99387E+00 3.19622E+00 5.56117E+00-4.59073E-02-4.93804E-02
 -1     26791-8.17072E-01 7.91829E+00 2.34456E+00 7.31000E+00 1.19284E-02 6.73663E-03
 -1     26792-1.44353E+01-1.18423E+00-5.15500E+00-4.29165E+00 1.70797E-03 2.35423E-03
 -1     26793-1.29616E+01-7.81999E-01-4.53622E+00-3.53526E+00 1.85938E-06-1.24952E-03
 -1     26794-1.42116E+01-1.11927E+00-5.05939E+00-4.15943E+00 2.81867E-03 2.83857E-04
 -1     26795-1.89187E+01-1.85987E+00-6.85926E+00-1.79449E+00 2.39663E-02 5.68749E-03
 -1     26796 5.68128E+00 3.00753E+00 2.87014E+00 4.55541E+00 5.50109E-03 1.84197E-03
 -1     26797 3.35414E+00-3.89038E-01 9.78485E-01 2.16089E+00-2.71533E-04-6.73892E-04
 -1     26798-5.27834E+00 2.69085E+00-8.53730E-01 1.56811E+00-1.67728E-03-6.51359E-04
 -1     26799-4.94327E+00 2.94331E+00-6.58727E-01 1.93607E+00 9.85286E-05 6.44687E-04
 -1     26800-4.39647E+00 3.12298E+00-4.19432E-01 2.03596E+00-1.86919E-03-4.25256E-04
 -1     26801 1.13913E+01 8.43167E+00 6.54214E+00 9.94003E+00-5.72795E-04 4.32398E-04
 -1     26802 1.19639E+01 9.17444E+00 6.97559E+00 1.05268E+01-1.77021E-03-1.61914E-03
 -1     26803 1.15934E+01 8.69602E+00 6.69258E+00 1.01474E+01-2.86736E-03 5.74946E-03
 -1     26804 1.24512E+01 1.00154E+01 7.41769E+00 1.11833E+01 7.35357E-04-1.02639E-04
 -1     26805 1.20826E+01 9.41528E+00 7.09687E+00 1.07167E+01 3.09265E-03-4.61569E-04
 -1     26806 1.21457E+01 9.50687E+00 7.14681E+00 1.08117E+01 1.95418E-04 2.57956E-03
 -1     26807-1.48881E+01-2.57801E+00-5.76749E+00-5.27388E-02-1.68636E-02 1.11408E-02
 -1     26808-1.80136E+01-1.95789E+00-6.59010E+00-5.94225E+00-2.80169E-04-9.66373E-04
 -1     26809-1.58518E+01-1.55554E+00-5.74542E+00-5.01157E+00 4.10099E-03 3.52971E-03
 -1     26810-1.80759E+01-1.96412E+00-6.61469E+00-5.95800E+00-1.51182E-03-1.24597E-03
 -1     26811 7.95084E+00 3.62469E+00 3.81932E+00 3.82347E+00 1.58978E-03-2.66824E-04
 -1     26812 7.98717E+00 3.64768E+00 3.83939E+00 3.89924E+00 1.80652E-03-5.66606E-04
 -1     26813 8.14161E+00 3.21891E+00 3.74620E+00 3.92325E+00 1.98565E-04-2.89347E-03
 -1     26814 7.96164E+00 3.36572E+00 3.73547E+00 3.74194E+00 1.00755E-03 3.13750E-03
 -1     26815 7.99336E+00 3.38385E+00 3.75235E+00 3.81448E+00 1.90620E-03 1.43567E-03
 -1     26816-9.02147E+00 3.43502E-01-2.86390E+00-1.60544E+00-2.84619E-04-3.53586E-04
 -1     26817-7.87431E+00 6.64623E-01-2.37924E+00-1.04053E+00 2.63857E-04 4.17784E-04
 -1     26818-1.52769E+01-1.41918E+00-5.51034E+00-4.73813E+00-2.93423E-03-2.25368E-03
 -1     26819-1.40185E+01-1.14026E+00-5.00290E+00-4.16034E+00-2.29817E-04 6.75605E-04
 -1     26820-1.54414E+01-1.46370E+00-5.57834E+00-4.82367E+00-9.89515E-05-2.41630E-03
 -1     26821-4.23547E+00 1.63615E+00-8.56846E-01 7.57732E-01-1.24848E-03-2.00622E-04
 -1     26822-5.95519E+00 1.09819E+00-1.60281E+00-1.35438E-01 9.31943E-05 3.02494E-04
 -1     26823 1.20302E+01 9.29368E+00 7.03645E+00 1.06112E+01-2.89103E-03-4.33768E-03
 -1     26824-1.69495E+01-1.76006E+00-6.17425E+00-5.47687E+00 9.67206E-04-9.06490E-04
 -1     26825-2.52845E+01-2.18254E+00-9.12748E+00-7.31941E+00 1.06515E-02-4.99672E-02
 -1     26826-2.65016E+01-1.92462E+00-9.38455E+00-6.19004E+00 1.13457E-02-9.33800E-02
 -1     26827-2.41817E+01-2.14140E+00-8.62651E+00-7.10929E+00-3.41943E-02 1.25150E-03
 -1     26828-2.63227E+01-2.26067E+00-9.40511E+00-7.60290E+00 3.33723E-03-7.74080E-02
 -1     26829-2.47140E+01-2.20992E+00-8.83344E+00-7.32239E+00-1.71381E-03 3.43391E-02
 -1     26830 3.67740E+00 4.89345E+00 2.82838E+00 5.16962E+00 3.42980E-05-2.19389E-04
 -1     26831 2.51057E+00 4.39959E+00 2.28037E+00 4.50397E+00 3.22708E-04 1.46927E-04
 -1     26832 2.79459E+00 4.33771E+00 2.35370E+00 4.60399E+00-1.94222E-04 1.72036E-04
 -1     26833-3.10156E+01-1.89553E+00-1.09404E+01-7.14978E+00 6.12542E-02-2.39869E-01
 -1     26834-3.07317E+01-2.02426E+00-1.09083E+01-7.20443E+00-1.07965E-02-1.35477E-01
 -1     26835-3.11128E+01-1.57485E+00-1.08435E+01-4.71496E+00 1.30105E-01-2.82965E-01
 -1     26836-2.78712E+01-2.37186E+00-9.97506E+00-8.04878E+00-7.58670E-02-8.12865E-02
 -1     26837-3.01606E+01-3.42648E+00-1.08324E+01-8.15805E+00 8.52937E-02-6.68833E-02
 -1     26838-2.36823E+00 2.96304E+00 1.86061E-01 1.68529E+00-2.68107E-01-9.82910E-02
 -1     26839-3.68525E-01 8.44529E+00 2.67673E+00 4.97842E+00 5.40531E-02 1.87830E-02
 -1     26840 2.11795E+00 8.31805E+00 3.44319E+00 7.11152E+00-1.39707E-03 2.95718E-04
 -1     26841 1.52638E+00 7.81873E+00 3.08394E+00 6.74012E+00-3.40596E-04 2.20364E-03
 -1     26842-6.71461E+00-6.57912E-01-2.36966E+00-1.92719E+00 3.00965E-02-1.21721E-02
 -1     26843-2.94333E+00 1.72280E+00-4.42338E-01 1.12148E+00-1.79301E-02-3.23390E-02
 -1     26844-2.07501E+00 9.54721E-01-3.69681E-01 1.97413E+00-9.26203E-05 5.15211E-05
 -1     26845-1.12261E+00 1.04991E+00-2.39572E-02 2.43612E+00-2.44052E-04 3.53765E-04
 -1     26846 4.60746E+00 3.58322E+00 2.70018E+00 4.03446E+00 8.83264E-03-8.32378E-03
 -1     26847 4.91896E+00 2.86932E+00 2.56013E+00 3.97143E+00-4.97587E-03 2.60560E-03
 -1     26848 4.21902E+00 2.60355E+00 2.25535E+00 3.52724E+00-2.09836E-02-1.10489E-02
 -1     26849-1.30566E+01-1.00399E+00-4.64070E+00-3.72107E+00 1.27415E-03 1.05295E-03
 -1     26850-1.46302E+01-1.52160E+00-5.33098E+00-4.72093E+00 5.26116E-04-2.09374E-03
 -1     26851-1.41819E+01-1.41805E+00-5.14776E+00-4.48666E+00-1.14739E-03-8.54439E-04
 -1     26852-1.26030E+01-8.86203E-01-4.45373E+00-3.47594E+00 1.18055E-03-7.76099E-04
 -1     26853-1.36226E+01-1.24497E+00-4.90657E+00-4.14167E+00-3.97424E-04-1.15033E-03
 -1     26854-9.46834E+00 7.12489E-02-3.10104E+00-1.91937E+00-3.46391E-04-1.75417E-04
 -1     26855-9.26621E+00 1.96378E-01-2.99308E+00-1.78178E+00-4.26499E-04-1.34921E-04
 -1     26856-8.11788E+00 5.07536E-01-2.51140E+00-1.21651E+00-2.20363E-04 5.22291E-04
 -1     26857 2.16775E+00 4.43021E+00 2.17738E+00 4.37844E+00 1.03248E-04 4.65223E-05
 -1     26858 1.74070E+00 4.41264E+00 2.03057E+00 4.20838E+00 3.73536E-04 2.56738E-04
 -1     26859-6.40852E+00 2.07538E+00-1.42963E+00 8.05477E-01 3.51435E-04-1.30144E-03
 -1     26860-6.07936E+00 2.27693E+00-1.25400E+00 1.10769E+00-1.75723E-03-9.59109E-04
 -1     26861 7.75049E+00 4.92154E+00 4.18175E+00 6.19722E+00 2.30114E-03 1.19344E-03
 -1     26862 4.25924E+00 3.91293E+00 2.69687E+00 5.15397E+00-5.81154E-04-3.06352E-04
 -1     26863 5.04853E+00 4.49263E+00 3.14849E+00 5.65420E+00 5.10803E-04 7.24263E-04
 -1     26864 5.27549E+00 4.35367E+00 3.17762E+00 5.71985E+00 2.25808E-05 5.56679E-04
 -1     26865 3.30198E+00 3.28654E+00 2.17407E+00 4.58189E+00 4.90796E-04 7.17131E-04
 -1     26866 3.61650E+00 3.16046E+00 2.23649E+00 4.70489E+00-1.22578E-03 5.83422E-04
 -1     26867 4.49034E+00 3.77569E+00 2.72776E+00 5.22683E+00-6.08124E-05-1.27711E-04
 -1     26868 9.36741E+00 5.25193E+00 4.82664E+00 7.14269E+00-3.21196E-03 1.85080E-03
 -1     26869 9.37258E+00 4.55530E+00 4.59638E+00 6.74734E+00-1.48454E-03 2.51742E-03
 -1     26870-1.84956E+01-1.55444E+00-6.60811E+00-3.02271E+00 7.77756E-03 2.36370E-03
 -1     26871-1.74070E+01-1.33842E+00-6.18784E+00-3.54149E+00 2.88984E-04 1.61918E-02
 -1     26872-1.73951E+01-1.32895E+00-6.18083E+00-3.56622E+00 4.36507E-03-1.28784E-02
 -1     26873-1.54322E+01-1.21414E+00-5.49323E+00-2.30980E+00-1.58467E-03-1.41220E-03
 -1     26874 8.38009E+00 4.94746E+00 4.39773E+00 6.49648E+00-4.50135E-04 1.37032E-03
 -1     26875 8.33916E+00 4.50602E+00 4.23919E+00 6.20541E+00-1.21360E-03 1.58108E-04
 -1     26876 7.95328E+00 5.27871E+00 4.36652E+00 6.50986E+00 1.69541E-03 3.42176E-03
 -1     26877 8.17743E+00 4.61664E+00 4.22275E+00 6.19602E+00-4.05386E-03-1.99807E-03
 -1     26878 7.46456E+00 3.06956E+00 3.47814E+00 3.23854E+00-3.90773E-03-6.47086E-03
 -1     26879 7.65924E+00 3.16691E+00 3.57189E+00 3.39628E+00-1.51043E-02 1.23951E-03
 -1     26880 7.35782E+00 3.02581E+00 3.41985E+00 3.15450E+00-5.00710E-03-1.06533E-03
 -1     26881 9.64601E+00 3.60973E+00 4.37446E+00 6.72094E+00-3.41059E-04-1.44866E-04
 -1     26882 9.87951E+00 8.99394E+00 6.22543E+00 9.42305E+00-4.94327E-03-4.68649E-03
 -1     26883 9.01070E+00 9.05800E+00 5.95414E+00 9.09339E+00 5.26819E-03 1.54669E-03
 -1     26884 9.33097E+00 8.69279E+00 5.94094E+00 9.01621E+00 7.87288E-03-7.98478E-03
 -1     26885 1.01022E+01 9.15442E+00 6.35434E+00 9.64301E+00-7.10845E-03-4.35605E-03
 -1     26886 9.59804E+00 8.88079E+00 6.08653E+00 9.26795E+00 2.29054E-03-2.03322E-03
 -1     26887 6.61274E+00 3.63578E+00 3.38212E+00 6.04965E+00 1.27429E-03 2.29050E-03
 -1     26888 7.96795E+00 1.37046E+00 3.08344E+00 3.95512E+00-3.55180E-03 8.98391E-04
 -1     26889-5.32765E+00-4.36405E-01-1.95487E+00-9.03098E-01 7.36877E-02 2.11147E-02
 -1     26890-1.75613E+00 3.25356E+00 5.45421E-01 2.28053E+00-1.82503E-04 6.45584E-03
 -1     26891 6.99681E+00 5.42813E+00 4.09902E+00 6.16301E+00-7.53769E-04 2.33881E-03
 -1     26892 7.09843E+00 5.51246E+00 4.16501E+00 6.26427E+00-2.01524E-03 1.26101E-03
 -1     26893 1.04317E+01 9.40946E+00 6.54087E+00 9.91325E+00 6.85773E-03-2.72325E-04
 -1     26894-1.46766E+01-1.46706E+00-5.32695E+00-4.64291E+00-1.83603E-03-1.03243E-03
 -1     26895 1.09103E+01 7.43443E+00 6.05214E+00 9.10346E+00 1.06700E-03 5.06222E-03
 -1     26896-1.87040E+01-2.04133E+00-6.84664E+00-6.18421E+00-8.21979E-04-3.94704E-03
 -1     26897-1.81790E+01-1.96795E+00-6.64968E+00-5.97996E+00 5.27321E-04 3.02261E-04
 -1     26898-1.76849E+01-1.87286E+00-6.45368E+00-5.74918E+00-1.20616E-04-1.00447E-03
 -1     26899-1.87787E+01-2.04916E+00-6.87161E+00-6.20531E+00 5.55546E-04 5.79821E-04
 -1     26900-1.82564E+01-1.97797E+00-6.67705E+00-6.00250E+00-5.17289E-04 2.16948E-03
 -1     26901-5.69257E-01-1.54905E+00-6.99309E-01 1.15011E+00 8.56230E-04 9.26941E-04
 -1     26902-1.20288E+00-1.46115E+00-8.77719E-01 5.81316E-01-5.49039E-03 1.01705E-04
 -1     26903 1.00326E+01 8.88268E+00 6.24342E+00 9.56628E+00-8.28792E-04 2.02321E-03
 -1     26904-1.65571E+00 2.53187E+00 2.88540E-01 2.12566E+00 4.55230E-04 1.08531E-03
 -1     26905-2.28714E+00-1.65991E+00-1.30253E+00 2.28208E+00 7.49445E-04 4.52675E-04
 -1     26906-3.76930E+00-1.76465E+00-1.82630E+00 1.98656E+00 1.00272E-03-1.46566E-03
 -1     26907-4.19232E+00-1.53468E+00-1.88988E+00 1.93364E+00-4.51335E-04-7.76106E-04
 -1     26908-2.73381E+00-1.46171E+00-1.38438E+00 2.23955E+00-1.23574E-04 4.44308E-05
 -1     26909-1.00204E+01-4.37087E+00-4.74775E+00 5.55172E-01 1.24168E-02-8.86450E-04
 -1     26910-7.40773E+00-3.90657E+00-3.73577E+00 1.43595E-01 1.80289E-03-5.24263E-03
 -1     26911-9.43871E+00-4.66462E+00-4.65337E+00-1.05141E-01-2.67860E-03-4.11817E-03
 -1     26912-5.14584E+00-5.45261E-01-1.87661E+00 1.23097E+00 1.30050E-03-3.70394E-03
 -1     26913-5.25222E+00-7.63282E-01-1.98489E+00 1.35316E+00-1.29637E-03-3.17451E-03
 -1     26914-7.91616E+00-8.91667E-01-2.90651E+00 3.64600E-01-1.13796E-03 2.97362E-03
 -1     26915-1.54485E+01-1.57135E+00-5.61754E+00-4.94191E+00 1.21615E-03 4.72180E-03
 -1     26916-1.44260E+01-1.24002E+00-5.17155E+00-4.32000E+00 4.05037E-04 1.52737E-03
 -1     26917-1.40605E+01-1.06904E+00-4.99133E+00-4.03681E+00-1.06765E-04-4.55459E-03
 -1     26918-1.44822E+01-1.23819E+00-5.18818E+00-4.32702E+00 2.14347E-04 7.20340E-04
 -1     26919-1.48341E+01-1.41676E+00-5.36442E+00-4.62286E+00 3.79148E-04 2.66709E-03
 -1     26920-1.35030E+01-9.10779E-01-4.75758E+00-3.71464E+00-9.02274E-04-3.23649E-03
 -1     26921-1.30231E+01-7.83088E-01-4.55650E+00-3.46098E+00-3.22554E-04-8.74075E-04
 -1     26922-1.28543E+01-7.87344E-01-4.50177E+00-3.42255E+00-1.00172E-03 4.49405E-06
 -1     26923-2.88821E+00 2.36415E+00-1.72672E-01 1.98401E+00-2.08321E-02 7.55569E-03
 -1     26924-5.19713E+00 4.90741E-01-1.55333E+00-1.25554E-01-4.21369E-03 5.33421E-03
 -1     26925-3.93022E+00 1.80993E+00-6.99394E-01 1.42254E+00 3.80954E-03 7.05110E-03
 -1     26926-2.18487E+00 3.51961E+00 4.40215E-01 3.42853E+00-5.41071E-03-1.10921E-02
 -1     26927-1.96312E+01-4.91819E+00-8.04918E+00 5.94146E-01 1.89410E-02 2.97212E-02
 -1     26928-2.14526E+01-6.19894E+00-9.14364E+00 7.99024E-01-4.59386E-02 8.41539E-03
 -1     26929-1.76145E+01-4.96132E+00-7.45866E+00 6.42492E-01 1.65623E-02-1.79958E-02
 -1     26930-1.73772E+01-5.62071E+00-7.58125E+00 5.85786E-01 4.68952E-02 2.60470E-03
 -1     26931-2.15105E+01-7.37102E+00-9.49717E+00 6.62033E-01 3.61053E-03-9.52363E-03
 -1     26932 2.66082E+00 4.97149E+00 2.51861E+00 4.80762E+00-3.43912E-04-2.16000E-04
 -1     26933-1.34654E+01-1.13854E+00-4.81860E+00-3.97945E+00-1.12810E-03-9.41476E-04
 -1     26934-1.30188E+01-1.02953E+00-4.63514E+00-3.73902E+00-1.20087E-03-1.71670E-03
 -1     26935-1.24519E+01-7.89894E-01-4.36946E+00-3.31891E+00-3.81683E-06-1.57810E-04
 -1     26936-8.33500E+00 3.64926E-01-2.63009E+00-1.35771E+00 1.13026E-05 2.10470E-04
 -1     26937-1.07162E+01 1.14053E-01-3.49877E+00-2.06698E+00 6.96147E-04 5.86098E-04
 -1     26938-1.09674E+01-1.41720E-02-3.62350E+00-2.28556E+00 3.93650E-04 9.81426E-05
 -1     26939-1.61184E+01-1.64369E+00-5.86255E+00-5.16398E+00-3.82534E-03-3.28491E-03
 -1     26940-1.59068E+01-1.61012E+00-5.78184E+00-5.08016E+00-5.42553E-04-2.18344E-03
 -1     26941-1.50102E+01-1.33587E+00-5.39535E+00-4.57068E+00-2.63753E-03 1.96095E-03
 -1     26942-1.41152E+01-1.07600E+00-5.01455E+00-4.05632E+00-1.43474E-03-4.78607E-04
 -1     26943-1.47958E+01-1.29488E+00-5.30982E+00-4.47588E+00 1.95171E-03 1.15191E-03
 -1     26944-5.77920E+00-3.06820E-01-2.01125E+00 8.26263E-01-4.76893E-04-1.10582E-03
 -1     26945-3.28079E+00-1.70706E-01-1.13414E+00 1.81376E+00 1.00892E-03 5.36642E-04
 -1     26946-3.93013E+00-3.44332E-01-1.41085E+00 1.61395E+00 3.02858E-03 7.20176E-04
 -1     26947-9.80713E-01 2.08208E+00 3.63338E-01 2.39272E+00 4.60545E-04 1.85194E-04
 -1     26948-1.02041E+01-8.57319E-01-3.64981E+00-7.77502E-01 9.15753E-04 4.37260E-04
 -1     26949-1.03054E+01-8.54170E-01-3.68191E+00-8.56221E-01-6.87409E-04-6.71560E-04
 -1     26950-9.93313E+00-7.31263E-01-3.51613E+00-9.40002E-01 2.44180E-04-1.89316E-03
 -1     26951 4.61351E+00 6.18935E+00 3.56487E+00 6.11246E+00-5.82672E-04-2.38511E-04
 -1     26952 4.90077E+00 6.14997E+00 3.64675E+00 6.19894E+00-1.40483E-04-7.43910E-04
 -1     26953-6.17853E+00 1.92598E-01-1.97536E+00-6.09118E-01-5.42451E-04-2.59380E-03
 -1     26954-1.29523E+01-9.35955E-01-4.58421E+00-3.59436E+00 2.66342E-03-5.76906E-04
 -1     26955-1.45097E+01-1.43998E+00-5.26373E+00-4.59155E+00 1.07436E-03-1.22910E-03
 -1     26956-1.39543E+01-1.27133E+00-5.02422E+00-4.25175E+00 8.13220E-04-1.13443E-03
 -1     26957-5.05558E+00 8.13293E-01-1.38892E+00-1.70139E-01 3.21048E-03 3.61296E-02
 -1     26958-8.81815E+00 8.90618E-01-2.61663E+00-7.39195E-01 3.50276E-04 1.74375E-03
 -1     26959-1.16206E+01-6.72530E-01-4.05672E+00-2.98310E+00-1.05988E-04-3.43814E-04
 -1     26960-1.31090E+01-1.00159E+00-4.65619E+00-3.72011E+00 6.63748E-04 7.20303E-04
 -1     26961-1.48854E+00 4.12478E+00 8.69930E-01 3.19277E+00-3.23405E-04-1.26935E-04
 -1     26962-2.74923E+00 3.44992E+00 2.31274E-01 2.40346E+00-3.16590E-04-6.84390E-04
 -1     26963-3.54830E+00 3.19956E+00-1.15158E-01 2.08535E+00-1.32200E-04 3.59066E-04
 -1     26964 3.60836E+00 1.01831E+00 1.52668E+00 4.27094E+00-9.17621E-04 6.74182E-04
 -1     26965 8.93944E+00 9.37396E+00 6.04207E+00 9.36314E+00-2.19948E-03-3.98404E-03
 -1     26966 8.45449E+00 9.26200E+00 5.84701E+00 9.11624E+00 1.84246E-03-7.66256E-04
 -1     26967-1.56188E+01-1.46050E+00-5.63514E+00-4.67472E+00-1.72382E-03-1.00289E-03
 -1     26968-1.45899E+01-1.26419E+00-5.23143E+00-4.07533E+00-1.06145E-03-4.31738E-04
 -1     26969-1.43358E+01-1.24245E+00-5.14114E+00-4.07307E+00-1.52607E-04-1.43467E-03
 -1     26970 7.83875E+00 5.73394E+00 4.47983E+00 6.71214E+00 1.64690E-03 3.28317E-04
 -1     26971 8.23578E+00 4.91086E+00 4.33732E+00 6.39999E+00-6.29164E-04-2.31381E-03
 -1     26972 7.44788E+00 5.83609E+00 4.38735E+00 6.60774E+00 5.38091E-04 1.30379E-03
 -1     26973 8.03808E+00 5.07853E+00 4.32973E+00 6.42196E+00-1.44219E-03-2.57945E-04
 -1     26974 3.02776E+00 4.96256E+00 2.63680E+00 4.93753E+00 6.60031E-06-4.00513E-04
 -1     26975-1.41042E+01-1.20775E+00-5.05342E+00-4.04640E+00 6.57230E-04-1.19149E-03
 -1     26976-1.44403E+01-1.28773E+00-5.19038E+00-4.34401E+00 1.47076E-03-1.35469E-04
 -1     26977 1.83127E+00 8.89680E+00 3.54024E+00 7.44198E+00-1.16358E-03-7.57676E-03
 -1     26978 8.21330E-01 9.02894E+00 3.25068E+00 7.55715E+00-6.65200E-04 9.13086E-04
 -1     26979 5.83218E-01 6.52718E+00 2.33618E+00 6.69005E+00 1.08142E-02-1.93133E-02
 -1     26980-2.87423E-01 7.31440E+00 2.34888E+00 7.20225E+00 2.48892E-02 1.00265E-01
 -1     26981-1.77368E+01-1.87193E+00-6.46947E+00-5.74501E+00 3.98549E-04 1.70283E-04
 -1     26982-1.78180E+01-1.86659E+00-6.49703E+00-5.74498E+00-5.32075E-04 1.90437E-03
 -1     26983 9.90129E+00 4.10872E+00 4.62347E+00 7.00077E+00 5.26538E-04-6.30518E-05
 -1     26984 1.01073E+01 4.83040E+00 4.92930E+00 7.45105E+00-9.11068E-04-6.32656E-04
 -1     26985 6.72506E+00 3.45021E+00 3.35989E+00 4.86194E+00 3.44346E-03 3.03471E-03
 -1     26986 8.26121E+00 3.34568E+00 3.83042E+00 4.43310E+00 5.18967E-04 3.61747E-04
 -1     26987 8.20597E+00 3.42581E+00 3.83862E+00 4.33890E+00-9.16105E-04 2.70435E-04
 -1     26988 8.10181E+00 3.62678E+00 3.87024E+00 4.46276E+00-1.87962E-03-1.37634E-03
 -1     26989 8.13163E+00 3.57709E+00 3.86689E+00 4.31726E+00 1.45939E-03-1.11093E-03
 -1     26990 7.17485E+00 3.70277E+00 3.58907E+00 5.06062E+00 5.53639E-04 2.65333E-03
 -1     26991 6.97860E+00 4.07111E+00 3.64633E+00 5.28617E+00-2.21511E-03-2.60699E-03
 -1     26992 7.65287E+00 2.07147E+00 3.21009E+00 3.42783E+00-1.63957E-03 8.14715E-03
 -1     26993 8.13779E+00 3.38082E+00 3.80174E+00 4.59480E+00-1.20246E-03-1.62166E-03
 -1     26994 7.94991E+00 3.58432E+00 3.80646E+00 4.64493E+00-5.20798E-03-2.27119E-03
 -1     26995 7.79653E+00 3.60834E+00 3.76220E+00 4.75630E+00 1.02568E-03 1.58796E-03
 -1     26996 8.03111E+00 3.42033E+00 3.77947E+00 4.66516E+00 8.22233E-04-3.62914E-04
 -1     26997 7.64799E+00 3.46431E+00 3.66725E+00 4.91631E+00-1.53582E-03 1.29100E-04
 -1     26998 8.02972E+00 3.31339E+00 3.74332E+00 4.87509E+00-2.78072E-04-8.92837E-04
 -1     26999 6.26374E+00 4.86749E+00 3.67202E+00 5.52270E+00 1.30412E-03 2.12621E-03
 -1     27000-5.18220E-01 6.70309E+00 2.02975E+00 4.54815E+00 3.37639E-02-1.25232E-03
 -1     27001-2.41166E+00 2.70500E+00 9.07509E-02 2.07693E+00-5.49060E-03-1.58811E-02
 -1     27002 6.83869E+00 4.56437E+00 3.76423E+00 5.59327E+00 9.51270E-04-8.67254E-04
 -1     27003 1.24585E-02 1.25464E+01 4.15334E+00 6.22347E+00 4.87742E-02 1.52555E-02
 -1     27004 6.41822E+00 3.35434E+00 3.22342E+00 4.81203E+00 9.83222E-04 7.15470E-04
 -1     27005 5.01350E+00 8.32889E+00 4.39225E+00 7.33417E+00-1.72319E-02 2.26886E-03
 -1     27006 5.85045E+00 8.76891E+00 4.82016E+00 7.82625E+00 5.25518E-03-2.88713E-05
 -1     27007 3.30866E+00 8.75957E+00 3.97787E+00 7.23040E+00-5.06635E-03-5.74388E-03
 -1     27008 6.25832E+00 4.29073E+00 3.48226E+00 5.17553E+00-2.44053E-03-9.46522E-04
 -1     27009 6.14169E+00 4.17598E+00 3.40312E+00 5.03998E+00 1.26672E-03-1.23014E-03
 -1     27010-4.61160E+00 3.21362E+00-4.61140E-01 2.69196E+00-6.97471E-05-1.33802E-03
 -1     27011-5.78475E+00 2.38168E+00-1.12307E+00 1.66985E+00-1.19425E-03 6.02428E-05
 -1     27012 1.20875E+01 9.64007E+00 7.16945E+00 1.08074E+01-2.73747E-04-3.28891E-05
 -1     27013 1.03806E+01 8.11814E+00 6.10428E+00 9.18174E+00-1.83951E-03 3.17235E-03
 -1     27014 2.50159E+00 6.35888E+00 2.92388E+00 5.66967E+00-3.88776E-05 1.31421E-04
 -1     27015-9.86511E+00-5.26230E-01-3.43040E+00-2.42233E+00 3.07860E-03 3.63055E-03
 -1     27016-9.33839E+00-2.28082E-01-3.15904E+00-1.89369E+00 6.31017E-04-3.28991E-03
 -1     27017-1.02586E+01-5.48146E-01-3.56819E+00-2.53740E+00 3.96119E-03 1.14828E-03
 -1     27018-1.05493E+01-8.34342E-01-3.75738E+00-2.98018E+00 4.08458E-04 3.53156E-03
 -1     27019-9.99970E+00-5.21029E-01-3.47375E+00-2.44616E+00 4.95890E-05-1.07041E-03
 -1     27020 6.41958E+00 5.04303E+00 3.78311E+00 5.68928E+00 7.18809E-05 1.49742E-03
 -1     27021 6.69938E+00 5.19596E+00 3.92553E+00 5.90048E+00 2.78782E-03 1.54994E-03
 -1     27022 1.05013E+01 6.67517E+00 5.66731E+00 8.49691E+00-1.78044E-03-1.61071E-03
 -1     27023 1.05008E+01 6.01201E+00 5.44887E+00 8.19074E+00-6.40006E-04-2.49714E-03
 -1     27024 1.02717E+01 6.02854E+00 5.37863E+00 8.04528E+00-1.96663E-03 1.38468E-03
 -1     27025 1.03249E+01 6.45777E+00 5.53804E+00 8.29602E+00 3.31540E-04 4.15247E-03
 -1     27026 8.43616E+00 4.03861E+00 4.11667E+00 5.93117E+00 1.18522E-03 1.16579E-03
 -1     27027-9.43500E+00 4.88073E-01-2.95227E+00-1.17685E+00 4.74439E-04-7.86381E-04
 -1     27028-8.58243E+00 9.69238E-01-2.51244E+00-5.46338E-01-3.75165E-04-2.64245E-04
 -1     27029 9.80233E+00 4.41667E+00 4.69057E+00 6.96535E+00 4.08831E-04-6.48759E-04
 -1     27030 1.02679E+01 5.39898E+00 5.17008E+00 7.75413E+00 6.64306E-05 1.15649E-03
 -1     27031 7.91461E+00 9.20711E+00 5.65601E+00 8.82228E+00 6.99945E-03-6.38895E-03
 -1     27032 8.67927E+00 9.31341E+00 5.92882E+00 9.15118E+00-1.13667E-03 7.05781E-03
 -1     27033 9.00855E+00 9.25253E+00 6.01890E+00 9.26878E+00-8.79625E-04 8.01683E-03
 -1     27034 8.20582E+00 9.10879E+00 5.71937E+00 8.90904E+00 7.96001E-03-4.69483E-03
 -1     27035 9.13628E+00 9.29942E+00 6.07801E+00 9.33627E+00 1.26012E-02 1.89891E-03
 -1     27036 1.06911E+01 6.91817E+00 5.81373E+00 8.73173E+00 2.42768E-03 2.00420E-03
 -1     27037 9.51098E+00 4.06923E+00 4.48123E+00 6.57351E+00-3.50376E-04 2.14635E-03
 -1     27038 1.04527E+01 6.53610E+00 5.60687E+00 8.40786E+00 1.91914E-03 2.91292E-03
 -1     27039 1.03384E+01 5.42232E+00 5.20104E+00 7.87504E+00 7.76175E-04-8.53803E-04
 -1     27040-5.48156E+00 2.50561E+00-9.81471E-01 1.28687E+00-5.91311E-04-3.39461E-04
 -1     27041-1.36993E+01-1.27087E+00-4.93994E+00-4.20829E+00-1.56112E-03-4.19967E-04
 -1     27042-1.47960E+01-1.54271E+00-5.39163E+00-4.77482E+00-1.73537E-03 1.63523E-03
 -1     27043-1.43090E+01-1.48192E+00-5.21234E+00-4.61029E+00 4.28945E-04 2.45805E-04
 -1     27044-1.03553E+01 1.90503E-01-3.35417E+00-1.97781E+00-1.65139E-04 7.07999E-04
 -1     27045-1.06107E+01 4.88726E-02-3.48508E+00-2.19823E+00-1.03824E-03 1.75180E-05
 -1     27046-9.20600E+00 5.68831E-01-2.85019E+00-1.37133E+00-1.61840E-04-7.98478E-04
 -1     27047 8.41686E+00 1.87765E+00 3.39348E+00 5.56618E+00-1.07561E-03 1.89042E-03
 -1     27048 8.71259E+00 4.11082E+00 4.23176E+00 6.11464E+00 1.06258E-03 1.37063E-03
 -1     27049 8.93814E+00 4.23004E+00 4.34557E+00 6.32282E+00 1.59596E-03 1.30032E-03
 -1     27050 6.18999E+00 3.20823E+00 3.10230E+00 4.77151E+00 4.00284E-03-5.13139E-04
 -1     27051 5.99923E+00 3.14692E+00 3.01493E+00 4.68707E+00 3.09174E-03 2.18597E-03
 -1     27052 6.17681E+00 3.43746E+00 3.16991E+00 4.73010E+00 4.73150E-03-6.60646E-04
 -1     27053 6.21452E+00 3.29441E+00 3.13533E+00 4.75405E+00-3.17066E-03 3.03551E-03
 -1     27054 6.09264E+00 3.17393E+00 3.06021E+00 4.73185E+00 1.85821E-04 5.45042E-04
 -1     27055 6.29727E+00 3.30712E+00 3.16888E+00 4.78486E+00-2.06895E-03-2.49157E-04
 -1     27056-1.04601E+01-1.51572E+00-3.95206E+00 1.85831E-01 3.94978E-03-1.95714E-03
 -1     27057-9.24721E+00-1.03224E+00-3.39209E+00 2.31660E-02-5.96350E-03 7.95534E-04
 -1     27058-6.58461E+00 2.03500E+00-1.50161E+00 7.94601E-01 8.74310E-07-6.24889E-04
 -1     27059-6.25448E+00 2.21157E+00-1.33381E+00 1.11036E+00-7.06766E-05 6.54623E-05
 -1     27060-5.41604E+00 2.62328E+00-9.21978E-01 1.49987E+00 1.09755E-03 2.25834E-03
 -1     27061-1.07328E+01-5.22083E-01-3.71404E+00-2.45648E+00-2.03140E-04-2.27718E-04
 -1     27062-1.05041E+01-4.39754E-01-3.61166E+00-2.40754E+00-4.04948E-04-3.74649E-04
 -1     27063-1.03979E-01 1.01585E+01 3.31428E+00 7.09443E+00 5.41171E-03-7.51031E-03
 -1     27064-6.08681E-01 8.59830E+00 2.63407E+00 7.07845E+00 2.83433E-03-8.23070E-03
 -1     27065-6.92447E-01 8.23862E+00 2.48658E+00 6.84210E+00-2.10707E-03-3.94916E-03
 -1     27066-6.01023E-01 8.36833E+00 2.56884E+00 7.26368E+00 2.91216E-03 4.81382E-04
 -1     27067-8.38013E+00-2.94922E+00-3.73861E+00 1.22220E+00-5.02442E-04 6.10508E-04
 -1     27068 8.07502E+00 2.93578E+00 3.63367E+00 3.76895E+00 2.02259E-03 2.34945E-04
 -1     27069 7.78601E+00 3.25906E+00 3.64552E+00 3.54372E+00-1.78497E-03 1.16067E-03
 -1     27070 8.21912E+00 3.02233E+00 3.70809E+00 3.94934E+00-1.85145E-03-1.75756E-03
 -1     27071 8.56245E+00 9.30493E+00 5.89083E+00 9.13481E+00 1.77639E-03 6.14427E-03
 -1     27072 6.49128E+00 8.94177E+00 5.08790E+00 8.31058E+00-3.24495E-03-7.64791E-04
 -1     27073 8.64723E+00 9.32981E+00 5.93287E+00 9.19064E+00 6.33699E-03 1.62545E-03
 -1     27074 6.66074E+00 8.97260E+00 5.16572E+00 8.38347E+00-1.05594E-02-2.16939E-02
 -1     27075-1.38589E+01-3.41737E+00-5.70209E+00 5.77246E-01 9.91727E-04 2.70419E-03
 -1     27076-1.23097E+01-2.96038E+00-5.03909E+00 6.93621E-01-2.72000E-03-8.85482E-04
 -1     27077 6.65604E+00 8.90489E+00 5.13375E+00 8.32718E+00-2.85565E-03 2.22836E-03
 -1     27078 1.02348E+01 9.72617E+00 6.58987E+00 1.00775E+01 2.73875E-03 8.57162E-04
 -1     27079 8.56370E+00 9.30856E+00 5.90553E+00 9.13763E+00 3.42369E-03-4.00141E-03
 -1     27080 7.84468E+00 1.52026E+00 3.09133E+00 5.30345E+00-4.46259E-03 3.89073E-03
 -1     27081 6.66518E+00 1.30350E+00 2.63033E+00 5.08796E+00 4.28159E-03-2.42719E-03
 -1     27082-2.53819E+00 2.85468E+00 1.39474E-01 1.91372E+00 2.18021E-02-2.39638E-02
 -1     27083 5.87227E+00 9.79889E-01 2.25869E+00 4.79718E+00 1.26068E-03 1.54367E-03
 -1     27084 6.41814E+00 1.45309E+00 2.59906E+00 5.13346E+00 1.08941E-03 5.31421E-03
 -1     27085-1.04007E+01-9.71410E-01-3.75335E+00-3.18841E+00 3.30052E-03 1.76043E-03
 -1     27086-8.76514E+00-3.46369E-01-3.00666E+00-1.92484E+00 5.73750E-04-3.30585E-03
 -1     27087-1.02293E+01-1.00746E+00-3.70491E+00-3.21236E+00-3.40652E-03 2.78145E-03
 -1     27088-9.60913E+00-7.51270E-01-3.41764E+00-2.66260E+00-3.31347E-03-1.42293E-03
 -1     27089-8.50019E+00-3.53562E-01-2.92402E+00-1.92863E+00-5.68794E-03-7.88217E-03
 -1     27090-4.89608E+00 1.33796E+00-1.17442E+00 8.80684E-01 1.90936E-03 1.30558E-03
 -1     27091-7.02353E+00 9.15365E-02-2.28832E+00-9.04332E-01 6.45061E-05 4.11263E-03
 -1     27092-4.11079E+00 2.09724E+00-6.64336E-01 2.10852E+00-1.09612E-03-9.42703E-03
 -1     27093-5.92475E+00 9.93416E-01-1.62781E+00 3.81453E-01 3.20454E-03 8.25871E-04
 -1     27094 6.12985E+00 8.41920E-01 2.30081E+00 4.73713E+00 9.20125E-04-3.90328E-03
 -1     27095 7.85054E+00 2.25946E+00 3.33124E+00 3.56109E+00 7.92956E-04-1.97294E-04
 -1     27096 7.79974E+00 2.17716E+00 3.29363E+00 3.51861E+00 7.47297E-03-1.46969E-02
 -1     27097 7.99575E+00 1.89409E+00 3.26405E+00 3.71078E+00 4.99283E-03-3.76935E-03
 -1     27098 8.09154E+00 2.47634E+00 3.49137E+00 3.76239E+00 4.27680E-03 2.39833E-03
 -1     27099 9.68978E+00 8.90939E+00 6.13832E+00 9.43522E+00-5.40497E-04 8.42318E-05
 -1     27100 8.70322E+00 8.25175E+00 5.59555E+00 8.70433E+00-3.89667E-04 3.57831E-03
 -1     27101 8.46677E+00 8.26280E+00 5.52074E+00 8.61493E+00-8.21511E-04 3.00533E-03
 -1     27102-1.81070E+01-1.96317E+00-6.62385E+00-5.96152E+00-7.72816E-04 6.84674E-04
 -1     27103 1.10875E+01 9.13808E+00 6.67418E+00 1.01621E+01-1.06158E-03-5.09372E-04
 -1     27104 1.12362E+01 9.13883E+00 6.72412E+00 1.02308E+01-9.09247E-05-7.31408E-04
 -1     27105-1.52017E+01-7.41394E+00-7.44611E+00-7.45658E-01 3.44446E-02-3.68595E-03
 -1     27106-1.27399E+01-6.18832E+00-6.24038E+00-8.49415E-01 1.60384E-02 1.97299E-03
 -1     27107-1.39706E+01-6.73507E+00-6.82655E+00-8.39192E-01-1.30143E-02-1.68325E-02
 -1     27108 2.73431E+00 1.13076E+00 1.27684E+00 9.23460E-01-2.27844E-03-2.89297E-03
 -1     27109 3.33681E+00 1.22456E+00 1.50461E+00 1.20180E+00-6.73670E-04 2.03060E-03
 -1     27110-5.51925E+00 2.49536E+00-9.98312E-01 1.27973E+00 9.33492E-04 8.50324E-04
 -1     27111-4.39744E+00 3.02027E+00-4.55021E-01 1.88363E+00 5.66151E-04 2.03632E-04
 -1     27112-2.02703E+01-8.00221E+00-9.32753E+00 5.86195E-01-1.23692E-02 2.19213E-02
 -1     27113-2.32006E+01-6.94980E+00-9.95914E+00 8.80152E-01-2.66901E-02-1.31281E-02
 -1     27114-2.32785E+01-9.58604E+00-1.08194E+01 8.40430E-01-4.04597E-02-5.48769E-02
 -1     27115-1.97514E+01-9.15478E+00-9.54001E+00-8.99162E-03-2.06036E-02-1.36883E-02
 -1     27116-2.12443E+01-9.34079E+00-1.01165E+01 4.62584E-01 2.44174E-02 5.16865E-02
 -1     27117-2.70720E+00 3.30638E+00 1.97763E-01 2.27452E+00-8.06204E-05 1.95161E-04
 -1     27118-9.17066E+00-7.03249E-01-3.25882E+00-2.57683E+00-3.19559E-03-2.38970E-03
 -1     27119-8.31526E+00-2.92754E-01-2.83976E+00-1.80550E+00-2.59253E-03 1.17252E-03
 -1     27120-1.03304E+00 7.08936E+00 1.97808E+00 4.28119E+00 1.47677E-02-3.99363E-02
 -1     27121-2.32084E+00 1.90958E+00-6.93283E-02 2.02621E+00 9.36245E-02-4.91352E-03
 -1     27122 1.29131E+00 1.17190E+01 4.09952E+00 6.11499E+00 3.06004E-01 5.07560E-03
 -1     27123 9.83017E-02 1.04394E+01 3.70855E+00 5.05112E+00 1.71093E-01-1.33628E-01
 -1     27124-9.18692E-01 6.95938E+00 1.99262E+00 5.80699E+00-3.52153E-03 3.14224E-03
 -1     27125-1.05751E+00 6.06012E+00 1.64598E+00 4.96502E+00 4.71471E-03-7.65553E-03
 -1     27126-1.37155E+00-1.07270E+00-8.08124E-01 1.16190E-01 4.90513E-03-3.60608E-03
 -1     27127-2.98681E-01-7.22592E-01-3.39227E-01 4.21322E-01-6.80283E-04 1.26096E-04
 -1     27128-7.34841E-01-5.77772E-01-4.32898E-01 3.73640E-02 2.28543E-03-2.51452E-03
 -1     27129-1.68964E+00-1.39269E+00-1.01417E+00 2.17245E-01-1.14771E-03-1.01021E-03
 -1     27130-5.86416E-01-1.02570E+00-5.32160E-01 5.02466E-01-7.66413E-04-2.91060E-03
 -1     27131-5.84431E+00-3.15932E+00-2.96688E+00-3.48555E-01 4.91636E-03-6.05246E-03
 -1     27132 1.09856E+01 9.18126E+00 6.65448E+00 1.01390E+01-9.68543E-04 3.43250E-04
 -1     27133 1.03183E+01 8.43347E+00 6.18833E+00 9.47769E+00 9.89821E-04-3.70635E-04
 -1     27134 1.96601E+00 5.01923E+00 2.30514E+00 4.60854E+00-1.86839E-04-1.71367E-04
 -1     27135-2.79821E+00-1.84430E+00-1.53213E+00 5.86629E-03 2.79449E-03 9.40150E-04
 -1     27136-2.63217E+00-1.86969E+00-1.48055E+00 1.50520E-01 1.67086E-03-7.25990E-04
 -1     27137-3.72586E+00-2.47524E+00-2.04484E+00 2.18421E-01 7.01204E-03-3.32867E-03
 -1     27138-2.31510E-02 1.08558E+01 3.58077E+00 6.76734E+00 2.51068E-03 1.04927E-02
 -1     27139-6.03842E-02 1.03460E+01 3.39591E+00 6.97627E+00-2.89964E-02-2.49034E-03
 -1     27140 2.66001E+00 9.01985E+00 3.85598E+00 7.51242E+00 9.83588E-03 6.01465E-03
 -1     27141 4.55330E-02 1.10697E+01 3.69596E+00 5.67630E+00-3.13312E-02 1.82535E-02
 -1     27142-1.04174E+01-5.65967E-03-3.43977E+00-1.93913E+00 7.10660E-04 1.43255E-03
 -1     27143-8.78495E+00 6.89294E-01-2.67137E+00-7.57023E-01 3.11230E-04-8.61376E-04
 -1     27144 8.56511E+00 1.80177E+00 3.42140E+00 5.46237E+00 4.71926E-03-1.68935E-03
 -1     27145-1.44419E+01-1.17879E+00-5.15359E+00-4.28725E+00-2.00412E-04-1.23340E-03
 -1     27146-1.42306E+01-1.11231E+00-5.06268E+00-4.16565E+00-3.38724E-03-2.68531E-03
 -1     27147-1.46881E+01-1.39997E+00-5.31088E+00-4.57427E+00-7.06130E-04-2.59830E-04
 -1     27148-1.51740E+01-1.54628E+00-5.51685E+00-4.85575E+00-8.00117E-04-2.13033E-03
 -1     27149-1.43489E+01-1.22486E+00-5.13970E+00-4.28239E+00 4.07572E-04-1.21443E-03
 -1     27150-1.38810E+01-1.14069E+00-4.95775E+00-4.06569E+00 7.22912E-04-1.44548E-03
 -1     27151-1.43545E+01-1.28828E+00-5.16226E+00-4.34673E+00-7.43033E-04-7.08716E-04
 -1     27152-1.46694E+01-1.27360E+00-5.26355E+00-4.42464E+00-2.27647E-03-6.62253E-04
 -1     27153-1.58678E+01-1.51358E+00-5.73715E+00-4.97933E+00 2.45164E-03-2.54607E-03
 -1     27154-1.57436E+01-1.49148E+00-5.68733E+00-4.92427E+00 1.84879E-03 9.98699E-04
 -1     27155-1.56679E+01-1.46878E+00-5.65890E+00-4.88591E+00-2.11274E-03-3.56722E-03
 -1     27156 9.82415E-03 9.67157E+00 3.18222E+00 7.05150E+00-2.08857E-02-3.28321E-03
 -1     27157-6.86940E-02 9.16211E+00 2.98542E+00 7.46065E+00-3.00052E-02 1.23654E-02
 -1     27158-5.87173E-02 1.17273E+01 3.84886E+00 6.72475E+00 4.99919E-03 3.09004E-04
 -1     27159-1.00309E+00 7.23649E+00 2.05648E+00 6.91736E+00 2.14794E-03-6.78462E-03
 -1     27160-1.00127E+00 6.53136E+00 1.82974E+00 5.08524E+00-3.35742E-03 6.88002E-04
 -1     27161-3.13099E-01 9.22810E+00 2.94202E+00 6.34273E+00-1.91337E-02-1.06894E-02
 -1     27162-8.80639E-02 1.00153E+01 3.25635E+00 6.16403E+00 4.92195E-03 1.21102E-02
 -1     27163-9.99609E-01 6.33345E+00 1.73969E+00 4.79419E+00 1.01308E-02 4.15180E-03
 -1     27164-2.96223E-01 9.25910E+00 2.95487E+00 6.05170E+00-2.07188E-02-1.17717E-02
 -1     27165-8.86935E-01 7.43362E+00 2.16537E+00 6.26810E+00-5.68501E-03-1.41223E-03
 -1     27166-7.84002E-01 7.57371E+00 2.23476E+00 6.23725E+00 9.83200E-03 6.27307E-03
 -1     27167-2.10170E-01 9.38214E+00 3.03135E+00 6.60120E+00-1.40687E-02 6.12064E-03
 -1     27168-1.09410E+01-5.90671E-01-3.80541E+00-2.48394E+00-9.42606E-05-1.17464E-04
 -1     27169-1.22678E+01-8.57053E-01-4.33120E+00-3.10122E+00-4.06195E-04 5.31513E-05
 -1     27170-1.85889E+01-1.75601E+00-6.71374E+00-5.61438E+00-2.98481E-03-2.90912E-03
 -1     27171-1.55864E+01-3.87441E+00-6.42184E+00 6.49534E-01 2.29730E-03-5.54660E-03
 -1     27172 1.32860E+00-2.44009E-01 3.59434E-01 9.43235E-01-3.44865E-03-3.14075E-03
 -1     27173 9.58850E-01-7.92748E-01 5.39013E-02 1.20992E+00-1.39683E-03 2.46645E-03
 -1     27174 2.35552E-01-7.25130E-01-1.64066E-01 7.27385E-01 2.35770E-04 2.17851E-04
 -1     27175 1.27725E+01 1.07352E+01 7.76293E+00 1.17318E+01-1.61955E-03 2.25065E-03
 -1     27176 1.22437E+01 1.03162E+01 7.44586E+00 1.12694E+01-3.52686E-03 1.02126E-03
 -1     27177 1.23593E+01 1.03998E+01 7.50861E+00 1.13583E+01-1.33148E-03-1.51290E-03
 -1     27178 1.22965E+01 1.04113E+01 7.49143E+00 1.13371E+01-8.76516E-04-7.95886E-04
 -1     27179 1.18095E+01 9.98960E+00 7.19303E+00 1.08971E+01-3.90671E-04 2.18228E-04
 -1     27180-6.21005E-01 8.36287E+00 2.56130E+00 6.98971E+00-5.08955E-03-5.10148E-03
 -1     27181-1.29880E+00 6.34360E+00 1.66585E+00 6.08739E+00-2.60558E-03 5.67966E-04
 -1     27182-1.22725E+00 6.91341E+00 1.87795E+00 6.66023E+00-5.91881E-03-1.06509E-03
 -1     27183-1.53246E+00 6.26386E+00 1.56158E+00 6.18790E+00-2.49539E-03-3.38345E-03
 -1     27184-1.88287E+00 5.74951E+00 1.27645E+00 5.76856E+00 3.86657E-03 2.39629E-03
 -1     27185 4.26232E+00 6.18975E+00 3.44918E+00 6.00026E+00 2.50924E-05-1.00131E-03
 -1     27186 5.30179E+00 6.82485E+00 4.00159E+00 6.69417E+00 2.09718E-04 5.80383E-04
 -1     27187 5.58186E+00 6.79961E+00 4.08581E+00 6.77480E+00 4.41319E-04 5.60190E-04
 -1     27188-1.45041E+01-1.11801E+00-5.15535E+00-2.70299E+00 1.33747E-03 1.85268E-03
 -1     27189-7.44897E+00 1.38505E+00-2.00108E+00 2.87461E-01 2.83207E-04-1.59187E-04
 -1     27190-8.14831E+00 8.58807E-01-2.40600E+00-3.60234E-01 6.14543E-05-1.47797E-04
 -1     27191-7.40761E+00 1.09553E+00-2.08295E+00 1.20138E-01-1.94780E-03-5.55834E-04
 -1     27192-6.74819E+00 1.61666E+00-1.69330E+00 7.79034E-01 8.07609E-05-2.04400E-03
 -1     27193 4.28710E+00 5.53634E+00 3.24177E+00 5.67944E+00 2.78234E-04 2.25367E-04
 -1     27194 4.59145E+00 5.49915E+00 3.32998E+00 5.78705E+00 1.96585E-05 8.87904E-05
 -1     27195-2.53096E+01-6.18237E+00-1.04538E+01 7.96178E-01 1.43314E-01-4.71074E-02
 -1     27196-2.61041E+01-5.32114E+00-1.03814E+01 4.40130E-01 1.97128E-02-2.22471E-02
 -1     27197-2.50913E+01-8.62275E+00-1.11613E+01 6.26966E-01 1.06318E-01-2.64160E-02
 -1     27198-4.76795E-01 2.88187E+00 7.93192E-01 2.73973E+00 7.54819E-04 2.94993E-04
 -1     27199 4.06467E+00 4.58823E-01 1.49393E+00 1.93224E+00 3.96719E-04 9.01184E-04
 -1     27200 3.23253E+00 1.22229E-01 1.10645E+00 1.72097E+00-1.98209E-04-1.25289E-03
 -1     27201 3.48464E+00 6.81799E-01 1.37377E+00 1.51499E+00-2.90056E-03-2.11154E-03
 -1     27202 6.13837E+00 3.74759E+00 3.26322E+00 4.78731E+00-1.35553E-03-5.12138E-04
 -1     27203-2.25903E-01-3.14464E-01-1.77257E-01 1.54922E-01-1.86633E-03 3.41192E-04
 -1     27204-1.39235E+00-8.93048E-01-7.53517E-01-8.45745E-02 3.34052E-03 1.67417E-03
 -1     27205-1.18981E+00 4.49116E+00 1.08965E+00 3.57044E+00-7.08666E-05-1.57917E-04
 -1     27206 3.82464E-01 5.25575E+00 1.86070E+00 4.43585E+00-5.62986E-04 2.90229E-05
 -1     27207 1.05004E+01 9.86388E+00 6.71488E+00 1.02529E+01-2.64687E-03-1.01712E-03
 -1     27208 1.01468E+01 9.75421E+00 6.56702E+00 1.00452E+01-8.27643E-04-1.62198E-03
 -1     27209 9.69350E+00 9.60877E+00 6.36581E+00 9.78097E+00-5.89037E-04-5.37512E-03
 -1     27210 4.80479E+00-3.84533E-02 1.57282E+00 2.73792E+00-4.41523E-04-1.21958E-04
 -1     27211 5.56320E+00 2.50841E-01 1.91860E+00 2.93930E+00 1.11486E-03 7.33881E-04
 -1     27212-1.85119E+01-5.11094E+00-7.80194E+00 7.17856E-01 1.97328E-02 1.89771E-02
 -1     27213-2.02055E+01-9.13242E+00-9.64953E+00 1.77741E-01 2.17849E-02 3.08111E-02
 -1     27214-1.26548E+00 5.07984E+00 1.25496E+00 4.25884E+00 9.64552E-03 1.02297E-02
 -1     27215-1.35694E+00 4.39017E+00 1.01638E+00 3.65688E+00-1.34669E-02-1.06338E-02
 -1     27216-3.54960E+00-2.31252E+00-1.93906E+00 1.21197E-01-3.48821E-03 1.57329E-03
 -1     27217-4.36977E+00-2.87368E+00-2.38898E+00 6.11741E-01 6.72052E-03-2.19032E-03
 -1     27218 5.83730E+00 1.20165E+00 2.32143E+00 2.55227E+00-1.90201E-03 2.29606E-04
 -1     27219 5.90201E+00 6.78850E+00 4.18780E+00 6.88478E+00 1.60740E-04 8.98976E-04
 -1     27220 1.10063E+01 9.59411E+00 6.79921E+00 1.03530E+01-5.59931E-04 2.30860E-03
 -1     27221-2.70303E+00 2.23449E+00-1.54620E-01 1.59147E+00-1.08755E-03 6.13419E-04
 -1     27222 5.25593E+00 3.34556E+00 2.84289E+00 4.38550E+00-7.39819E-03 3.40615E-03
 -1     27223-1.11887E+00 2.52297E+00 4.62978E-01 2.36762E+00-2.61091E-04 1.70301E-04
 -1     27224-1.07790E+00 2.46802E+00 4.57299E-01 2.37739E+00-4.12608E-04-9.99976E-04
 -1     27225-1.83745E+00 2.02238E+00 6.19586E-02 1.95769E+00-9.68117E-04-4.28808E-04
 -1     27226 6.36374E+00 4.63412E+00 3.62846E+00 5.42101E+00 1.42504E-04 1.10553E-03
 -1     27227 6.42339E+00 4.93672E+00 3.74923E+00 5.61879E+00 3.45684E-03 1.13462E-03
 -1     27228 6.54962E+00 4.36564E+00 3.60113E+00 5.33170E+00-8.28991E-04-8.33658E-05
 -1     27229 6.58796E+00 4.62484E+00 3.70211E+00 5.52207E+00 2.69437E-03 1.63910E-03
 -1     27230-4.04478E+00-2.54379E+00-2.17732E+00 1.89809E-01-8.02142E-03 1.56638E-03
 -1     27231-4.84257E+00-3.06241E+00-2.60591E+00 6.73125E-01 6.66092E-03-5.29982E-03
 -1     27232-5.62850E-01 8.18033E+00 2.51274E+00 7.42790E+00-9.16841E-03 1.08445E-03
 -1     27233-4.10938E+00 3.57127E+00-1.77584E-01 2.77900E+00-2.22723E-04 7.10468E-04
 -1     27234-4.38912E+00 3.27790E+00-3.66174E-01 2.29594E+00-2.82870E-04-1.97736E-04
 -1     27235-1.47058E+00 3.25572E+00 5.89068E-01 2.52359E+00 1.46793E-04 2.56020E-04
 -1     27236 1.00874E+01 9.49599E+00 6.46320E+00 9.91478E+00-1.57637E-03-1.43608E-03
 -1     27237 9.02786E+00 8.86983E+00 5.90775E+00 9.14288E+00-3.94614E-03-2.67584E-03
 -1     27238 8.42402E+00 8.67647E+00 5.64315E+00 8.80943E+00 2.76427E-04 2.18981E-04
 -1     27239 1.00608E+01 9.48323E+00 6.45010E+00 9.90199E+00 3.99329E-04 3.02146E-03
 -1     27240 1.18805E+01 9.96275E+00 7.20783E+00 1.09159E+01-1.67966E-03-2.09909E-03
 -1     27241 1.34036E+01 1.12157E+01 8.12652E+00 1.22642E+01-1.25512E-03-1.50688E-04
 -1     27242 1.23743E+01 1.01021E+01 7.41839E+00 1.12160E+01 1.51493E-03 2.29195E-03
 -1     27243 1.34311E+01 1.12392E+01 8.14229E+00 1.22816E+01-4.54421E-03-1.11826E-03
 -1     27244 1.26573E+01 1.03783E+01 7.60167E+00 1.14880E+01 1.53543E-03-1.78369E-03
 -1     27245 5.15530E+00-2.03690E-01 1.63392E+00 3.27234E+00 2.61493E-05 3.49709E-04
 -1     27246 4.88854E+00-3.18595E-01 1.50805E+00 3.42163E+00 2.07928E-04 8.16100E-05
 -1     27247 4.61648E+00-3.78844E-01 1.39855E+00 3.55249E+00 4.54093E-04 8.17006E-04
 -1     27248 4.31625E+00-3.67672E-01 1.30311E+00 3.66658E+00 1.22145E-04-3.83699E-05
 -1     27249-7.80271E+00-2.63488E-01-2.66247E+00-1.63465E+00 2.54220E-03-5.27035E-03
 -1     27250-8.70282E+00-6.94087E-01-3.09913E+00-2.42047E+00 4.28468E-03 5.32802E-03
 -1     27251-2.04054E+00-1.39099E+00-1.13101E+00-3.74146E-03 7.01206E-04 1.63880E-04
 -1     27252 5.97612E+00 3.56386E+00 3.14760E+00 4.67915E+00-1.69092E-03-7.16878E-04
 -1     27253-1.62461E+01-7.78738E+00-7.91272E+00-6.44599E-01-4.07720E-02-4.23409E-03
 -1     27254-2.15999E+01-1.68915E+00-7.65207E+00-4.82389E+00 1.17906E-02 5.59363E-02
 -1     27255-2.08934E+01-1.74906E+00-7.44953E+00-5.74229E+00-9.67258E-03-1.33024E-02
 -1     27256-2.12118E+01-1.86347E+00-7.62285E+00-6.18958E+00-6.05726E-03-2.47275E-02
 -1     27257-4.22515E+00-2.68964E+00-2.28249E+00 3.11270E-01-7.53243E-03 4.41358E-03
 -1     27258-1.18514E+01-2.32824E+00-4.67505E+00 4.86930E-01 9.32379E-03-2.58342E-03
 -1     27259-4.44890E+01-6.80136E+00-1.67668E+01-1.74440E-01 3.87563E-01-4.06118E-01
 -1     27260-4.18392E+01-9.46305E+00-1.68636E+01 9.89861E-01 1.24656E-01 1.31062E-01
 -1     27261 6.70556E+00 5.76776E+00 4.11621E+00 6.79585E+00 2.64054E-04 5.19403E-06
 -1     27262-3.01264E+01-3.18195E+00-1.09667E+01-6.07522E+00 6.16336E-02 3.87652E-01
 -1     27263-4.79825E+01-8.69993E+00-1.91188E+01 6.33219E-01 3.70489E-01-1.62898E-01
 -1     27264-1.18432E+01-7.00344E-01-4.13905E+00-3.10897E+00-2.89431E-04-3.27033E-04
 -1     27265-1.29578E+01-9.49787E-01-4.59020E+00-3.66159E+00-2.99494E-04-1.28632E-03
 -1     27266-1.74615E+01-1.87116E+00-6.37978E+00-5.72327E+00 8.56492E-04 3.74402E-05
 -1     27267-1.75501E+01-1.89378E+00-6.41638E+00-5.75913E+00-5.60122E-06 4.12943E-03
 -1     27268-1.73511E+01-1.85757E+00-6.33899E+00-5.68929E+00 9.96419E-04 2.13346E-03
 -1     27269-3.71796E+00-2.13181E+00-1.93178E+00-2.74273E-01-1.15656E-02 6.48521E-03
 -1     27270-1.42562E+01-1.24873E+00-5.11667E+00-4.28197E+00-9.84425E-04 1.42169E-04
 -1     27271-1.29140E+01-9.40142E-01-4.57163E+00-3.64040E+00 3.12002E-04 1.49666E-03
 -1     27272 7.99915E+00 3.60462E+00 3.82899E+00 5.33288E+00-1.78031E-03-8.74088E-04
 -1     27273 8.35152E+00 3.36182E+00 3.86546E+00 5.27087E+00 1.67788E-04 7.46789E-04
 -1     27274-1.78952E+01-1.85672E+00-6.51974E+00-5.73907E+00-2.65883E-03-5.99506E-04
 -1     27275-1.77018E+01-1.85491E+00-6.45537E+00-5.71008E+00-2.36530E-03 8.45783E-04
 -1     27276-1.88923E+01-2.06553E+00-6.91230E+00-6.23566E+00-9.22947E-04 2.89104E-03
 -1     27277 4.91466E+00 3.69555E+00 2.84156E+00 4.30797E+00 2.45857E-03-2.85230E-03
 -1     27278 4.72387E+00 3.46887E+00 2.69786E+00 4.14026E+00-7.89186E-03 2.29289E-03
 -1     27279 7.89034E+00 2.75343E+00 3.51106E+00 3.55739E+00-5.66716E-04-8.11822E-05
 -1     27280 1.23733E+01 1.06499E+01 7.59452E+00 1.14868E+01 2.59395E-03-1.61849E-03
 -1     27281 3.23065E+00 7.52901E+00 3.55117E+00 6.65159E+00-3.19263E-03 4.20463E-03
 -1     27282 1.17543E+01 1.03451E+01 7.29185E+00 1.10497E+01-1.18917E-03-3.89341E-03
 -1     27283 1.00682E+01 9.49035E+00 6.45437E+00 9.91100E+00 7.00178E-04 1.79202E-03
 -1     27284 1.06532E+01 9.70139E+00 6.71511E+00 1.02477E+01-2.39470E-04-4.67432E-03
 -1     27285 8.74670E+00 2.78190E+00 3.80443E+00 4.88056E+00-2.85794E-04-6.56690E-04
 -1     27286 9.87044E+00 3.93493E+00 4.55577E+00 6.84959E+00 5.53481E-04 3.85399E-04
 -1     27287 5.79253E+00 2.30791E+00 2.67491E+00 2.22490E+00 2.24885E-03-2.95899E-03
 -1     27288-1.76465E+01-1.85359E+00-6.43553E+00-5.72189E+00 1.06992E-03-1.44171E-03
 -1     27289 3.21384E+00 1.05814E-01 1.09604E+00 1.71328E+00 1.61513E-03 1.61104E-03
 -1     27290 9.45765E+00 7.09308E+00 5.46369E+00 8.20190E+00 9.67741E-04-8.91785E-04
 -1     27291 9.57802E+00 7.18052E+00 5.53017E+00 8.30310E+00 5.70535E-04-6.80387E-04
 -1     27292 9.25871E+00 6.68812E+00 5.26204E+00 7.88624E+00-4.10936E-03-3.39075E-03
 -1     27293 9.37834E+00 6.77617E+00 5.33004E+00 7.99281E+00-4.73173E-03-6.35326E-03
 -1     27294 1.18396E+01 8.92109E+00 6.84772E+00 1.03230E+01 3.75231E-03-5.41774E-04
 -1     27295-2.65654E+00-1.78213E+00-1.46246E+00 2.61825E-02-1.28172E-04 2.99816E-03
 -1     27296-1.60314E+01-1.55490E+00-5.80382E+00-5.04371E+00-4.26555E-04-2.67261E-03
 -1     27297-1.43055E+01-1.18991E+00-5.11080E+00-4.25804E+00-4.09217E-04 1.94607E-03
 -1     27298-1.60340E+01-1.55727E+00-5.80334E+00-5.04523E+00 1.46397E-03 5.31847E-04
 -1     27299 4.74062E+00 1.27955E+00 1.98838E+00 1.91513E+00-2.03382E-05 1.75736E-03
 -1     27300 5.33368E+00 1.41866E+00 2.22844E+00 2.16378E+00 1.80024E-04 2.41048E-03
 -1     27301 4.13805E+00 1.60588E+00 1.89539E+00 1.48267E+00 1.51064E-03 1.01581E-03
 -1     27302-6.71243E+00 1.87268E+00-1.59679E+00 8.75964E-01 1.74923E-04 1.67294E-03
 -1     27303-7.20111E+00 1.66356E+00-1.82745E+00 4.69225E-01-2.03242E-04 3.59508E-04
 -1     27304-7.97558E+00 1.18026E+00-2.24255E+00-1.18570E-01 2.76488E-05-7.47893E-04
 -1     27305 8.72812E+00 6.22243E+00 4.93532E+00 7.39367E+00-3.23171E-03-1.09049E-03
 -1     27306 9.33281E+00 5.59642E+00 4.92040E+00 7.29306E+00 5.27437E-03 1.39744E-03
 -1     27307 8.81214E+00 6.77792E+00 5.14609E+00 7.73122E+00-1.28806E-03-9.92878E-05
 -1     27308 1.22276E+01 9.86550E+00 7.28970E+00 1.10258E+01-4.55660E-04 2.43008E-03
 -1     27309 1.20824E+01 9.63077E+00 7.16363E+00 1.08300E+01 4.42796E-03 1.06799E-04
 -1     27310 7.11400E+00 6.58784E+00 4.52148E+00 7.29233E+00 2.38652E-04 3.67309E-04
 -1     27311 6.26647E+00 5.94435E+00 4.02966E+00 6.66335E+00-7.87979E-05 2.99037E-04
 -1     27312 3.30343E-01-1.96254E-01 4.24221E-02 3.69964E-01-1.24561E-03-3.47026E-03
 -1     27313 3.61649E+00 1.33996E+00 1.63697E+00 1.29933E+00-1.78033E-03-1.54682E-03
 -1     27314 3.89950E+00 1.10829E+00 1.65258E+00 1.54064E+00-2.74002E-03-3.10172E-03
 -1     27315 3.88594E+00 1.46446E+00 1.76651E+00 1.39277E+00-2.21883E-03-2.76461E-03
 -1     27316 3.06424E+00 1.11697E+00 1.37931E+00 1.10656E+00 6.49248E-04 1.51692E-03
 -1     27317 9.71721E+00 6.36263E+00 5.30740E+00 8.30814E+00 6.75956E-04-7.79090E-04
 -1     27318 8.74613E+00 5.49491E+00 4.69940E+00 7.55440E+00-5.43736E-04-1.17975E-03
 -1     27319 8.89020E+00 5.33135E+00 4.69322E+00 7.52547E+00-1.07182E-03-1.72679E-03
 -1     27320-8.47543E+00-6.57296E-01-3.01661E+00-2.31721E+00 6.37976E-03-7.19303E-03
 -1     27321 3.52233E+00 1.45355E+00 1.64069E+00 4.34233E+00 8.22347E-05 8.03350E-04
 -1     27322 5.15188E+00 1.82064E+00 2.30126E+00 4.98659E+00-7.68415E-04-3.34749E-04
 -1     27323-1.39481E+01-1.05711E+00-4.95037E+00-3.98873E+00-3.80234E-04 2.14597E-03
 -1     27324-1.53038E+01-1.55491E+00-5.56360E+00-4.89583E+00-6.02380E-04-4.11126E-03
 -1     27325-1.59390E+01-1.53522E+00-5.76758E+00-5.00769E+00-3.20601E-04 2.89482E-03
 -1     27326-1.15369E+01-3.10625E-01-3.90914E+00-2.75843E+00 1.41207E-04 1.93678E-03
 -1     27327-1.27466E+01-6.85943E-01-4.43231E+00-3.37384E+00-3.85910E-05-4.03159E-04
 -1     27328 5.79855E+00 4.33957E+00 3.34340E+00 4.99741E+00-9.09395E-04 1.82152E-03
 -1     27329 5.93264E+00 4.42911E+00 3.41968E+00 5.10826E+00 8.05942E-04 1.52162E-03
 -1     27330 5.77992E+00 1.18870E+00 2.29961E+00 4.88184E+00 7.45049E-04-5.58616E-03
 -1     27331 1.68833E+00 4.47780E-01 7.04906E-01 3.57602E+00-5.21585E-04 1.48704E-07
 -1     27332 2.72689E+00 5.87181E-01 1.09362E+00 3.90766E+00 3.07135E-04 1.44571E-03
 -1     27333 2.50297E+00 7.76686E-01 1.08240E+00 3.88200E+00 5.92604E-05 5.58475E-04
 -1     27334 2.22746E+00 1.01854E+00 1.07057E+00 3.83055E+00 1.66765E-03 1.59058E-03
 -1     27335 7.65854E+00 1.66021E+00 3.07877E+00 3.51463E+00-3.66114E-03-4.00477E-03
 -1     27336 7.64439E+00 2.06863E+00 3.20661E+00 3.42464E+00 1.71299E-03-7.53436E-03
 -1     27337 1.03163E+01 9.50556E+00 6.54244E+00 1.00039E+01-1.09900E-03 1.51593E-03
 -1     27338 9.24466E+00 8.87112E+00 5.97990E+00 9.23051E+00-5.91593E-04-7.97578E-04
 -1     27339-1.80971E+01-1.97002E+00-6.62264E+00-5.97774E+00-5.96030E-04 1.07605E-03
 -1     27340-1.80388E+01-1.95908E+00-6.59906E+00-5.95112E+00-7.72756E-04 7.07118E-04
 -1     27341-2.91655E+00 8.72682E-01-6.74478E-01 1.55887E+00-1.39965E-04-1.12126E-04
 -1     27342 7.94996E+00 8.23197E+00 5.34000E+00 8.40550E+00-1.40578E-03-1.18611E-03
 -1     27343-1.98415E+01-1.65945E+00-7.08486E+00-3.19234E+00-1.33176E-02-2.04626E-02
 -1     27344-2.04042E+01-1.94416E+00-7.37860E+00-6.01949E+00-3.32149E-03-1.30457E-02
 -1     27345-2.00139E+01-1.73353E+00-7.17664E+00-5.61072E+00 1.39396E-02-1.44503E-02
 -1     27346-5.33899E+00 3.71891E-01-1.63917E+00 4.37338E-01-7.04995E-05 6.78497E-05
 -1     27347-4.30369E+00 5.04913E-01-1.25377E+00 9.64573E-01 2.96529E-04 4.34382E-04
 -1     27348-4.03297E+00 7.09090E-01-1.09709E+00 1.00066E+00 2.23084E-04 1.11206E-04
 -1     27349-1.54906E+01-1.22511E+00-5.51591E+00-3.51245E+00 9.52233E-04-3.17065E-04
 -1     27350-4.14136E+00 1.31521E+00-9.33603E-01 7.63679E-01 5.31934E-04 2.89331E-04
 -1     27351 1.33953E+01 1.12212E+01 8.12340E+00 1.22621E+01-5.76097E-04 4.00195E-04
 -1     27352 1.27772E+01 1.04458E+01 7.66482E+00 1.15644E+01 6.29338E-04 5.79844E-03
 -1     27353 1.23453E+01 9.80364E+00 7.30589E+00 1.10274E+01 4.08963E-04 1.63455E-03
 -1     27354 1.27115E+01 1.03780E+01 7.61921E+00 1.14934E+01-1.48239E-03-4.37822E-04
 -1     27355-3.95760E+00 2.84471E+00-3.67242E-01 1.67672E+00 4.52567E-04 2.89656E-04
 -1     27356-4.25381E+00 2.57433E+00-5.54248E-01 1.37306E+00 2.59584E-04 1.21103E-04
 -1     27357-5.31926E+00 2.18998E+00-1.03249E+00 8.43567E-01 2.29848E-04 1.55472E-05
 -1     27358 1.06712E+01 7.84858E+00 6.11154E+00 9.36726E+00-3.30750E-04 5.30968E-04
 -1     27359 1.09786E+01 7.97778E+00 6.25519E+00 9.52530E+00-5.61595E-04 2.98245E-04
 -1     27360 1.11571E+01 8.53875E+00 6.50025E+00 9.89144E+00-1.31717E-04 3.09445E-03
 -1     27361 1.11812E+01 8.56927E+00 6.51816E+00 9.92057E+00 2.39674E-04-3.18775E-03
 -1     27362 1.34746E+01 1.12774E+01 8.16894E+00 1.23269E+01-2.95860E-04-1.00293E-03
 -1     27363-1.08048E+01-4.07439E+00-4.91008E+00 8.56517E-01 3.00490E-03-4.48574E-03
 -1     27364-1.16699E+01-3.45619E+00-4.99221E+00 7.75496E-01-7.10290E-04-3.16715E-03
 -1     27365 3.50332E-01-4.72853E-01-3.91032E-02 5.62239E-01-2.08258E-03 2.98545E-04
 -1     27366 6.21199E-02-2.74951E-01-7.05375E-02 2.71259E-01 2.58821E-04 5.07724E-04
 -1     27367 9.32121E-01 1.36286E-01 3.51417E-01 4.79829E-01-4.55982E-04 1.41369E-04
 -1     27368 7.18296E-01-4.81435E-03 2.35430E-01 4.62766E-01-1.40476E-03 6.21009E-04
 -1     27369 9.27792E+00 2.89787E+00 4.01895E+00 5.66692E+00 5.85235E-04-3.99487E-03
 -1     27370 9.24844E+00 2.51759E+00 3.88236E+00 5.46005E+00-1.70385E-04-1.90687E-03
 -1     27371 9.47890E+00 3.06789E+00 4.14063E+00 5.98285E+00-1.58211E-03-1.58712E-03
 -1     27372-9.79881E+00-5.88023E-02-3.25125E+00-1.78730E+00 9.83931E-04-1.46278E-03
 -1     27373-1.12848E+01-8.12665E-01-3.99191E+00-3.09480E+00-3.69685E-03-3.40881E-04
 -1     27374-1.22871E+01-1.16759E+00-4.44011E+00-3.79419E+00-2.07950E-03-7.64574E-04
 -1     27375-1.16887E+01-1.07162E+00-4.21242E+00-3.54320E+00-2.12458E-04-3.51151E-03
 -1     27376-1.26740E+01-1.21094E+00-4.58183E+00-3.92887E+00 4.41312E-04-3.48034E-03
 -1     27377 6.16069E+00 1.98275E+00 2.68718E+00 2.49571E+00 4.52141E-03-2.72170E-03
 -1     27378-6.92248E+00 6.70164E-01-2.06224E+00-1.81795E-01 2.29790E-03 7.65148E-04
 -1     27379-5.88673E+00 1.49804E+00-1.44821E+00 1.03367E+00-1.92645E-03-1.81787E-03
 -1     27380-1.03735E+01-2.99474E+00-4.41221E+00 9.59199E-01 1.47039E-03-3.68396E-03
 -1     27381-1.00121E+01-2.37393E+00-4.08322E+00 8.06151E-01-7.63339E-03 1.42961E-03
 -1     27382-1.19334E+01-2.34758E+00-4.70900E+00 4.65004E-01-1.50134E-02 6.03333E-03
 -1     27383-9.60382E+00-3.46825E+00-4.31505E+00 1.02403E+00 6.04520E-04-1.98321E-03
 -1     27384 7.49518E+00 6.42013E+00 4.59208E+00 7.39226E+00-3.77425E-04-2.39247E-04
 -1     27385-1.01107E+01-9.27142E-01-3.64298E+00-3.08469E+00 2.51352E-04 6.99856E-04
 -1     27386-3.50497E-01 4.88238E+00 1.40832E+00 3.17044E+00-5.09351E-02-5.52019E-02
 -1     27387-3.03289E+01-7.70319E+00-1.27547E+01 2.68431E-01-7.94467E-02 8.76077E-02
 -1     27388 8.54623E+00 3.36221E+00 3.92971E+00 5.42287E+00 1.58850E-03 1.66873E-04
 -1     27389 8.26656E+00 3.65660E+00 3.93475E+00 5.52135E+00-1.07569E-04-7.20854E-04
 -1     27390 7.89964E+00 3.76527E+00 3.84982E+00 4.63713E+00 3.61201E-03 1.11868E-03
 -1     27391 7.78546E+00 3.71253E+00 3.79534E+00 4.74146E+00 4.24532E-04-2.05808E-03
 -1     27392-1.42950E+01-1.13367E+00-5.09121E+00-4.16841E+00-2.02395E-03-6.94771E-04
 -1     27393-1.54496E+01-1.58125E+00-5.61982E+00-4.95801E+00 3.82345E-05-1.11279E-03
 -1     27394 3.99490E+00-3.17063E-01 1.21391E+00 3.74654E+00 6.87966E-05 1.48825E-03
 -1     27395 3.71795E+00-2.03109E-01 1.16003E+00 3.82157E+00 4.84867E-04 5.05190E-04
 -1     27396 7.88880E+00 3.57544E+00 3.78767E+00 3.72134E+00-3.54610E-03-1.51812E-03
 -1     27397 8.14289E+00 3.18602E+00 3.74049E+00 3.91691E+00 2.97032E-03 8.86643E-04
 -1     27398 7.81664E+00 3.32700E+00 3.68024E+00 3.58009E+00-1.27145E-02 3.97907E-03
 -1     27399 8.08250E+00 3.23286E+00 3.73149E+00 3.85137E+00-7.53273E-03 6.23273E-04
 -1     27400 1.31968E+00 2.12506E+00 1.13663E+00 3.52441E+00 1.08135E-03 4.75869E-04
 -1     27401 8.74206E+00 3.14684E+00 3.92343E+00 5.34345E+00 4.11829E-04-1.01758E-03
 -1     27402 8.77755E+00 3.33819E+00 3.99810E+00 5.55205E+00 6.49798E-04-2.09309E-04
 -1     27403-1.18126E+01-1.14902E+00-4.27543E+00-3.67232E+00-1.14556E-03-2.05797E-03
 -1     27404-1.12336E+01-1.07376E+00-4.05882E+00-3.47972E+00 2.98405E-03-2.48451E-04
 -1     27405-1.07878E+01-7.73485E-01-3.81544E+00-2.96038E+00-5.36956E-04-1.52300E-03
 -1     27406 3.34656E+00 4.92978E+00 2.73123E+00 5.04826E+00-3.69741E-04-1.25299E-04
 -1     27407-1.56036E+01-5.42264E+00-6.94004E+00 5.81223E-01 4.30140E-02-5.14219E-05
 -1     27408-1.47780E+01-6.66745E+00-7.11557E+00-4.72481E-01-4.15572E-02-1.15922E-02
 -1     27409-1.67267E+01-7.55144E+00-8.01460E+00-2.92217E-01-9.33582E-02 2.55141E-02
 -1     27410 8.54119E+00 3.15495E+00 3.85989E+00 5.18239E+00-7.96735E-04 1.02236E-05
 -1     27411 1.18178E+01 9.98994E+00 7.19580E+00 1.08991E+01-6.64570E-05-6.67499E-04
 -1     27412 1.11261E+01 9.59804E+00 6.83798E+00 1.04043E+01 1.12896E-03-1.72214E-03
 -1     27413 9.76492E+00 3.80798E+00 4.47936E+00 6.68470E+00-6.71325E-04 4.46092E-04
 -1     27414-5.80670E+00-1.56404E+00-2.43255E+00 1.53943E+00 8.62012E-05 8.54389E-04
 -1     27415-4.11933E+00-1.06817E+00-1.71199E+00 1.84255E+00 6.16908E-04-1.75806E-03
 -1     27416 6.43894E+00 6.73137E+00 4.34605E+00 7.06529E+00 3.62665E-06 8.66529E-04
 -1     27417 5.20274E+00 6.13190E+00 3.74034E+00 6.29997E+00-5.75844E-04-5.82590E-04
 -1     27418-1.21172E+01-4.35387E-01-4.14232E+00-2.92199E+00-7.96892E-04-2.22438E-04
 -1     27419-1.33201E+01-8.51546E-01-4.67648E+00-3.61994E+00 2.01043E-03 3.53019E-04
 -1     27420 9.21585E+00 2.30675E+00 3.80259E+00 5.46575E+00-1.78567E-03-5.32960E-04
 -1     27421-1.36605E+01-9.40900E-01-4.81805E+00-3.80975E+00-1.33888E-04-4.46628E-04
 -1     27422-1.24430E+01-5.50852E-01-4.28847E+00-3.13851E+00 1.98119E-03 1.41075E-04
 -1     27423-1.39455E+01-1.02427E+00-4.93957E+00-3.96610E+00 2.53823E-03-1.11580E-03
 -1     27424 9.80055E+00 4.39335E+00 4.68144E+00 6.94795E+00 8.63328E-04 9.52017E-04
 -1     27425 1.01766E+01 8.86603E+00 6.28539E+00 9.61883E+00 3.69420E-03 4.05909E-03
 -1     27426-1.94703E+01-2.03220E+00-7.09315E+00-6.25800E+00-2.62892E-03-4.60811E-03
 -1     27427 1.67755E-02-2.94566E-01-9.31142E-02 2.59924E-01 5.43697E-04 6.31022E-04
 -1     27428-2.13906E-01-5.74995E-01-2.60512E-01 3.49531E-01 2.59776E-03-1.87605E-03
 -1     27429-7.90265E-01-5.86580E-01-4.53293E-01 3.17470E-02-8.37624E-04-8.82341E-04
 -1     27430-1.98432E+01-1.90194E+00-7.17989E+00-6.03325E+00 2.54459E-03-2.54637E-03
 -1     27431-2.09702E+01-2.19441E+00-7.62775E+00-6.76472E+00 9.45123E-04 3.29729E-03
 -1     27432-2.49983E+01-7.50359E+00-1.07661E+01 5.77387E-02 6.09313E-02-1.83119E-02
 -1     27433-3.46479E+01-5.00686E+00-1.28806E+01 3.75334E-01-4.86342E-02-4.59846E-02
 -1     27434-3.41145E+01-5.10829E+00-1.30279E+01 3.00233E-01-5.88754E-02-2.17590E-02
 -1     27435-2.65259E+01-1.89380E+00-9.24155E+00-5.72577E+00-1.95903E-01-2.06681E-01
 -1     27436-5.15113E+00-2.81950E+00-2.63084E+00-3.12937E-01-6.16266E-03 1.12738E-02
 -1     27437-1.34796E+01-6.41969E+00-6.59154E+00-4.99156E-01 1.64732E-02 4.29788E-03
 -1     27438-1.42393E+01-5.28579E+00-6.41957E+00 4.81909E-01 1.88962E-02-9.23719E-03
 -1     27439-1.41165E+01-6.49200E+00-6.80186E+00-2.20916E-01 2.77965E-02 2.38034E-02
 -1     27440 1.13286E+01 8.29342E+00 6.48075E+00 9.74903E+00-3.81254E-03-1.15158E-03
 -1     27441 1.17158E+01 9.23867E+00 6.91823E+00 1.04213E+01-1.79092E-04-4.22489E-04
 -1     27442 1.15551E+01 8.58868E+00 6.64846E+00 1.00302E+01 1.05009E-03-1.21600E-03
 -1     27443 8.25668E+00 3.17696E+00 3.77282E+00 4.79187E+00 1.61517E-03 6.69467E-04
 -1     27444 8.43292E+00 6.50539E+00 4.93016E+00 7.40585E+00-2.92129E-03-2.10501E-03
 -1     27445 8.26075E+00 6.38725E+00 4.83573E+00 7.26243E+00 2.65591E-03-1.39155E-03
 -1     27446 7.62186E+00 1.33799E+00 2.95922E+00 3.64586E+00-7.14463E-03-4.72773E-04
 -1     27447 7.67248E+00 1.33614E+00 2.97400E+00 3.68572E+00 5.66985E-03-5.61040E-04
 -1     27448-2.04837E+01-2.22491E+00-7.49669E+00-6.75278E+00 3.04371E-03 1.84839E-03
 -1     27449-2.03955E+01-2.10116E+00-7.41697E+00-6.49473E+00 5.25461E-03-8.73430E-04
 -1     27450-2.08185E+01-2.18251E+00-7.58675E+00-6.73607E+00 3.57603E-03 1.19821E-03
 -1     27451 1.09173E+01 7.18078E+00 5.97456E+00 9.08384E+00-1.23139E-03 1.93017E-03
 -1     27452 1.19261E+01 9.11788E+00 6.95096E+00 1.04754E+01-3.56375E-03-1.23999E-03
 -1     27453 1.15808E+01 8.55849E+00 6.64415E+00 1.00372E+01-5.58567E-03-3.31404E-03
 -1     27454 1.11249E+01 7.64495E+00 6.18910E+00 9.39229E+00 1.62062E-03 2.36888E-03
 -1     27455-1.75476E+01-1.88758E+00-6.41388E+00-5.75639E+00-1.07552E-03 1.35335E-03
 -1     27456-1.74745E+01-1.87058E+00-6.38158E+00-5.72747E+00-1.27862E-03-2.51478E-04
 -1     27457-1.76237E+01-1.89342E+00-6.43860E+00-5.78261E+00 4.08570E-04-3.14574E-04
 -1     27458 1.22455E+01 9.86318E+00 7.29347E+00 1.10007E+01-3.35885E-04 2.41631E-03
 -1     27459 1.21088E+01 9.73060E+00 7.20791E+00 1.08656E+01 6.30808E-04-1.90200E-03
 -1     27460 1.20223E+01 9.66211E+00 7.15759E+00 1.07902E+01 2.90846E-03-1.84669E-04
 -1     27461-6.66519E+00 1.29333E+00-1.77248E+00 6.00327E-01-3.26259E-04-6.57812E-04
 -1     27462-1.90873E+01-2.08331E+00-6.98714E+00-6.29440E+00-9.57909E-04-4.82643E-04
 -1     27463-3.89383E+00 2.25285E+00-5.41544E-01 1.17855E+00 6.28678E-05 1.56853E-04
 -1     27464-2.62258E+00 2.67254E+00 1.64765E-02 1.81854E+00-4.31278E-04-1.36080E-04
 -1     27465-1.66623E+01-1.66895E+00-6.05018E+00-5.23356E+00-4.63659E-04 1.16424E-03
 -1     27466-1.53985E+01-1.44553E+00-5.55879E+00-4.65267E+00 5.74921E-04-5.59149E-04
 -1     27467-1.64887E+01-1.65382E+00-5.98636E+00-5.19671E+00 2.42653E-03 1.63041E-05
 -1     27468 6.93202E+00 1.97053E+00 2.93535E+00 5.49708E+00 7.57715E-04-1.46630E-03
 -1     27469-1.68778E+01-1.67846E+00-6.12398E+00-5.25970E+00-3.19799E-03-7.92428E-04
 -1     27470 1.27006E+01 1.02965E+01 7.59105E+00 1.14590E+01 2.65136E-03 1.28900E-04
 -1     27471 8.73860E+00 2.92547E+00 3.84913E+00 5.08008E+00 1.09309E-03 4.95606E-04
 -1     27472-1.80423E+01-1.95565E+00-6.60009E+00-5.94555E+00-1.34333E-03-5.91220E-04
 -1     27473 1.25006E+00-4.02250E-01 2.79771E-01 3.30332E+00-5.71528E-05-8.03790E-06
 -1     27474 1.02355E+00-1.73493E-01 2.80488E-01 3.28849E+00 2.74684E-04 9.42935E-06
 -1     27475 2.12846E+00-2.93179E-02 6.92806E-01 3.60639E+00 8.80987E-05-1.07315E-04
 -1     27476-1.40809E+01-1.20171E+00-5.04295E+00-4.20391E+00-5.45752E-04 1.71760E-03
 -1     27477 8.01082E+00 7.27210E+00 5.04314E+00 7.95626E+00-2.69488E-04 4.52814E-04
 -1     27478 1.11250E+01 9.59461E+00 6.83779E+00 1.03997E+01 4.38557E-04 1.80559E-03
 -1     27479-1.64543E+01-1.66588E+00-5.97974E+00-5.26413E+00-1.57492E-04 1.20146E-03
 -1     27480-1.60865E+01-1.59216E+00-5.83426E+00-5.10802E+00-5.42415E-04-3.25079E-04
 -1     27481-1.66087E+01-1.70207E+00-6.04209E+00-5.34403E+00 2.18676E-04 2.68760E-04
 -1     27482 1.04001E+01 9.51086E+00 6.56991E+00 1.00493E+01 1.05254E-03 1.19786E-03
 -1     27483 9.25253E+00 8.87474E+00 5.98045E+00 9.23620E+00-1.01932E-04 1.19458E-03
 -1     27484 9.49267E+00 8.91490E+00 6.07561E+00 9.34885E+00 2.03163E-04 1.26400E-03
 -1     27485-1.79910E+01-1.95142E+00-6.58042E+00-5.93558E+00 1.38560E-03 2.38099E-03
 -1     27486-1.72636E+01-1.82808E+00-6.29971E+00-5.62544E+00 6.70309E-04 2.20856E-03
 -1     27487-1.80036E+01-1.96162E+00-6.58840E+00-5.94303E+00-1.83642E-04 3.90248E-04
 -1     27488-1.80433E+01-1.96442E+00-6.60276E+00-5.95395E+00-3.45627E-04-1.24577E-03
 -1     27489-1.47826E+01-1.34897E+00-5.32370E+00-4.53511E+00-6.50754E-05 8.62540E-05
 -1     27490 7.99742E+00 1.57999E+00 3.15981E+00 3.81422E+00-5.63201E-03 2.46894E-03
 -1     27491 8.26969E+00 1.62115E+00 3.26500E+00 4.11430E+00-3.77814E-03 3.19769E-03
 -1     27492 8.42466E+00 2.86947E+00 3.72734E+00 4.23113E+00 1.37267E-03 1.02579E-03
 -1     27493 8.57903E+00 2.73689E+00 3.73424E+00 4.43990E+00-2.59736E-04-7.86851E-04
 -1     27494 8.53538E+00 2.58222E+00 3.66906E+00 4.27935E+00 1.26394E-03 1.63760E-03
 -1     27495-2.50660E-01 9.51585E+00 3.05178E+00 7.62806E+00-1.28863E-02-6.09045E-03
 -1     27496-1.38514E+01-1.37457E+00-5.02445E+00-4.37511E+00-3.57424E-04-1.37550E-03
 -1     27497-4.70802E+00 6.78933E-01-1.33534E+00-1.89610E-01-1.05404E-02-6.54783E-03
 -1     27498-6.10982E+00 4.91262E-02-1.99954E+00-9.59171E-01 3.10466E-03-2.38847E-02
 -1     27499-9.72471E+00-8.84002E-01-3.50630E+00-3.01947E+00 6.06427E-03-1.00711E-02
 -1     27500-8.59413E+00-7.50696E-01-3.08456E+00-2.47435E+00-7.56366E-03-2.82056E-03
 -1     27501-9.50467E+00-1.03749E+00-3.47229E+00-3.00862E+00-8.25870E-03 6.77847E-03
 -1     27502-6.42032E+00 2.31239E-01-2.04250E+00-1.32947E-01 6.90412E-05 5.20221E-05
 -1     27503 8.95273E+00 2.79459E+00 3.87558E+00 5.21523E+00 2.12317E-03-5.01705E-04
 -1     27504 8.99832E+00 2.97486E+00 3.95008E+00 5.42843E+00 2.46668E-03-9.91567E-04
 -1     27505-2.74685E+01-7.68058E+00-1.15929E+01 8.24294E-01 3.09029E-01-1.67072E-01
 -1     27506-2.47258E+01-1.20938E+01-1.21333E+01 5.37353E-01-1.79596E-01 8.10629E-02
 -1     27507-3.04286E+01-1.03348E+01-1.32678E+01 1.55196E+00 6.07711E-02-1.50909E-01
 -1     27508 8.46206E+00 3.20344E+00 3.84917E+00 6.40422E+00 7.58802E-04 7.18882E-04
 -1     27509 8.92801E+00 3.84269E+00 4.21411E+00 6.82505E+00 7.05695E-04 6.10089E-05
 -1     27510 6.86388E+00 5.25962E+00 4.00012E+00 6.01268E+00-1.58799E-03-2.41959E-03
 -1     27511 6.57470E+00 5.03468E+00 3.83025E+00 5.75143E+00-1.59418E-03-3.90126E-04
 -1     27512 3.41192E-01 8.76150E+00 3.00701E+00 7.72636E+00-1.06453E-02-1.57423E-02
 -1     27513 3.35544E-01 8.95889E+00 3.06608E+00 7.78997E+00 1.74643E-03-4.67621E-03
 -1     27514 1.19390E+00 8.93618E+00 3.34021E+00 7.43409E+00 1.15845E-02-9.50541E-03
 -1     27515 9.78947E+00 6.43168E+00 5.35249E+00 8.00627E+00 8.88741E-04-3.69213E-03
 -1     27516 9.59995E+00 6.04837E+00 5.16127E+00 7.70739E+00-3.29393E-03 1.96643E-03
 -1     27517 4.83283E+00 3.21107E+00 2.65254E+00 4.06007E+00 6.86840E-04-4.63029E-03
 -1     27518 4.55639E+00 3.56220E+00 2.67901E+00 3.99009E+00-3.57613E-03 5.76383E-03
 -1     27519 8.56472E+00 5.66863E+00 4.69668E+00 7.55911E+00-1.83308E-03-9.14083E-04
 -1     27520 9.90699E+00 7.19868E+00 5.64470E+00 8.75359E+00-5.08560E-04-2.57603E-04
 -1     27521 1.03518E+01 7.84801E+00 6.00639E+00 9.24364E+00-3.42637E-04 1.58988E-03
 -1     27522 5.59872E-01-5.59129E-02 1.67616E-01 3.84799E-01 2.29954E-03 5.25876E-03
 -1     27523 1.62745E+00 7.15672E+00 2.89840E+00 6.21480E+00-2.76423E-03 4.04432E-03
 -1     27524-2.51768E+01-1.14271E+01-1.21317E+01 9.02889E-01-2.27384E-02 4.49544E-02
 -1     27525-2.88672E+01-7.56646E+00-1.21057E+01 4.90455E-01-1.69260E-01 2.20980E-01
 -1     27526-9.26388E+00 6.96148E-01-2.82706E+00-1.07534E+00 2.39243E-04-1.65323E-04
 -1     27527-5.66060E-02 9.96165E+00 3.27269E+00 7.03908E+00 5.98877E-03-8.11951E-03
 -1     27528-2.37452E+01-2.31774E+00-8.60738E+00-7.71177E+00-4.14735E-02 4.51213E-03
 -1     27529-7.79624E+00-4.08430E+00-3.91917E+00-4.82666E-01-1.40839E-04 7.66748E-03
 -1     27530-6.76210E+00-3.62669E+00-3.42983E+00-4.26853E-01-8.04136E-03 1.39549E-02
 -1     27531-9.78127E+00-4.87067E+00-4.83675E+00-7.78834E-01 7.52169E-03-5.84704E-03
 -1     27532-8.64111E+00-4.32387E+00-4.28078E+00-7.33439E-01 1.51081E-03-4.30143E-03
 -1     27533-9.70294E+00-5.73535E-02-3.22095E+00-2.06613E+00-8.11014E-05-2.64654E-04
 -1     27534-1.08032E+01-3.40624E-01-3.67748E+00-2.61114E+00 5.12115E-05 2.65925E-05
 -1     27535 1.19844E+01 9.61866E+00 7.12975E+00 1.07489E+01-1.28992E-03 2.42912E-04
 -1     27536 9.70988E+00 4.28239E+00 4.61834E+00 6.78681E+00-3.61622E-03 1.14739E-03
 -1     27537 1.03292E+01 8.12145E+00 6.08881E+00 9.16611E+00-7.10976E-04-3.48616E-03
 -1     27538 9.97893E+00 7.83463E+00 5.87832E+00 8.84307E+00-3.08655E-03-3.06903E-04
 -1     27539 9.93475E+00 9.55109E+00 6.42962E+00 9.88657E+00 3.28566E-04-1.09397E-03
 -1     27540 7.80283E+00 8.64005E+00 5.42617E+00 8.55989E+00-1.51354E-04 8.64890E-04
 -1     27541 8.14726E+00 8.67539E+00 5.55135E+00 8.70202E+00 9.87817E-04 1.07415E-03
 -1     27542-1.44467E+00 5.77045E+00 1.42688E+00 5.10052E+00-4.52677E-04 2.16112E-04
 -1     27543-2.44893E+00 4.92182E+00 8.16102E-01 4.29273E+00 4.81889E-04-1.72987E-03
 -1     27544-1.03767E+01-1.18840E-01-3.46355E+00-2.32950E+00 2.49531E-04-9.04389E-04
 -1     27545-1.60986E+01-1.60424E+00-5.84370E+00-5.11279E+00 5.32123E-04-4.21307E-03
 -1     27546 6.30842E+00 7.43909E+00 4.53667E+00 7.37542E+00 1.25109E-03 2.15399E-04
 -1     27547 4.97831E+00 6.84848E+00 3.90321E+00 6.61573E+00 2.10245E-04-2.19403E-04
 -1     27548 7.19978E-01 6.26128E+00 2.30462E+00 5.35553E+00 1.04312E-03-3.01958E-03
 -1     27549-1.09406E+01-1.26205E-03-3.61108E+00-2.26835E+00-1.80018E-04-4.67599E-04
 -1     27550-1.06654E+01 1.35340E-01-3.47492E+00-2.04287E+00-1.42934E-04-4.17927E-04
 -1     27551 8.49342E+00 3.64410E+00 4.00542E+00 5.64854E+00-1.05387E-03-9.34146E-04
 -1     27552 4.61549E+00 8.62298E+00 4.36865E+00 7.63303E+00-4.06884E-03-3.53968E-03
 -1     27553 6.57959E+00 8.96850E+00 5.13050E+00 8.32906E+00 6.63867E-03 5.30826E-03
 -1     27554 7.49586E+00 7.62961E+00 4.99055E+00 7.92435E+00-5.54364E-04 1.50883E-03
 -1     27555 6.16342E+00 6.76145E+00 4.26520E+00 6.96699E+00 4.70685E-04 1.14107E-03
 -1     27556 7.34734E+00 7.35637E+00 4.85224E+00 7.72481E+00 4.57246E-04 2.04064E-04
 -1     27557 6.24306E+00 6.95627E-01 2.28913E+00 3.05738E+00-4.62141E-04 2.71099E-03
 -1     27558-2.35268E+01-1.83841E+00-8.32361E+00-5.89758E+00-3.40482E-02-4.98209E-02
 -1     27559-2.33223E+01-2.16999E+00-8.38795E+00-7.06381E+00-4.18142E-02 1.88659E-02
 -1     27560-1.96293E+01-1.61527E+00-7.00219E+00-5.23092E+00 1.16105E-02-3.07069E-03
 -1     27561-1.82566E+01-1.41001E+00-6.48392E+00-4.41369E+00 5.77482E-03-1.27082E-02
 -1     27562-1.14442E+01-7.20161E-01-4.01416E+00-2.49835E+00 5.79788E-04-3.74903E-04
 -1     27563-1.25085E+01-9.00838E-01-4.42507E+00-3.11678E+00 4.66521E-04-5.97527E-04
 -1     27564 8.73874E+00 3.72648E+00 4.11352E+00 5.84968E+00-6.83591E-04-9.79098E-04
 -1     27565 9.04210E+00 6.97345E+00 5.28608E+00 7.95464E+00-4.37012E-03-4.48318E-03
 -1     27566 9.24976E+00 6.13858E+00 5.07553E+00 7.57111E+00-4.38251E-03-9.42076E-03
 -1     27567 8.91872E+00 6.89056E+00 5.21377E+00 7.84648E+00-1.57357E-03 2.45326E-03
 -1     27568 9.56919E+00 3.71835E+00 4.38458E+00 6.41106E+00 1.51825E-03 6.27883E-04
 -1     27569 9.50345E+00 4.10180E+00 4.48828E+00 6.59330E+00 5.41948E-04-3.12006E-03
 -1     27570-2.30397E-01 8.37614E+00 2.68716E+00 7.48861E+00-1.35930E-03-1.11596E-02
 -1     27571 1.26269E+01 1.08438E+01 7.74441E+00 1.17132E+01 1.46143E-03 2.31440E-03
 -1     27572 1.25547E+01 1.07931E+01 7.70495E+00 1.16535E+01 1.28999E-03 4.53802E-03
 -1     27573-8.10037E-02 1.20201E+01 3.92466E+00 6.44298E+00-1.99270E-02-2.56132E-03
 -1     27574-9.28942E-02 1.23589E+01 4.03594E+00 6.39488E+00-1.26503E-02 4.64681E-03
 -1     27575 1.05769E+00 1.76583E-01 4.09787E-01 5.27712E-01-1.75517E-03 8.54833E-04
 -1     27576-1.51018E+01-1.97871E+00-5.64469E+00-5.33054E-01-1.86090E-02 1.93467E-02
 -1     27577-1.38443E+01-1.07610E+00-4.92405E+00-4.04891E+00-4.81218E-04 6.65777E-04
 -1     27578-1.46451E+01-1.24981E+00-5.24619E+00-4.40167E+00 1.44487E-03-2.34226E-03
 -1     27579 3.35943E+00 6.33224E+00 3.19817E+00 5.83370E+00-2.30600E-04 1.78976E-04
 -1     27580-1.01000E+01-2.68754E-01-3.42168E+00-2.27167E+00-2.77517E-04-3.31389E-04
 -1     27581 1.10612E+01 8.80048E+00 6.55502E+00 9.97723E+00-1.24584E-03-1.31726E-03
 -1     27582 1.11289E+01 8.68489E+00 6.53887E+00 9.95459E+00 5.36132E-04-4.78328E-04
 -1     27583 1.18740E+01 9.52342E+00 7.06113E+00 1.06910E+01-1.17810E-04 2.33355E-03
 -1     27584 6.84562E+00 7.39758E+00 4.70027E+00 7.55292E+00 6.98002E-04 3.30011E-04
 -1     27585 1.24782E+01 1.04346E+01 7.56215E+00 1.14345E+01 4.65497E-04 1.15052E-03
 -1     27586-1.17966E+01-3.35610E-01-4.00364E+00-2.81773E+00-7.97259E-04 4.21491E-04
 -1     27587-4.39311E+00-1.54612E-01-1.50222E+00 1.33194E+00-4.88466E-04-1.10346E-03
 -1     27588-2.73786E+00 2.76619E+00 9.36263E-03 1.85132E+00 8.87559E-05-5.60367E-05
 -1     27589-1.58291E+00 3.36193E+00 5.87056E-01 2.55705E+00 2.23495E-04 2.70085E-04
 -1     27590-8.05767E+00 9.84071E-01-2.33403E+00-7.89573E-01 5.81057E-05-6.34460E-04
 -1     27591-9.45283E+00 4.18498E-01-2.98133E+00-1.59561E+00-9.85265E-04-1.06011E-03
 -1     27592 9.31271E+00 3.40111E+00 4.19570E+00 6.00200E+00 3.43988E-07 7.06072E-04
 -1     27593 9.46811E+00 3.47766E+00 4.27215E+00 6.18781E+00-1.28852E-03-3.68833E-04
 -1     27594-2.64512E-02 1.26557E+00 4.08795E-01 2.91402E+00 5.37873E-04-1.27447E-03
 -1     27595-6.69256E+00 1.55484E+00-1.69543E+00 2.28543E-02 4.31477E-04 8.72375E-04
 -1     27596 6.32758E+00 4.97056E+00 3.72974E+00 5.60599E+00-1.48550E-03 3.05834E-04
 -1     27597 4.78039E+00 3.64125E+00 2.77908E+00 5.32076E+00-7.38935E-04-6.42953E-04
 -1     27598-3.01400E+00 1.73778E+00-4.21919E-01 1.35268E+00-1.69334E-04-1.28942E-03
 -1     27599-4.06146E+00 1.46243E+00-8.57787E-01 8.11185E-01 1.44753E-04-1.19533E-03
 -1     27600-8.68678E+00 8.73412E-01-2.57848E+00-9.01458E-01 1.17132E-04 4.96293E-04
 -1     27601 7.87329E+00 1.53142E+00 3.10552E+00 5.31136E+00 3.99891E-03-2.81410E-03
 -1     27602-1.61281E+01-1.59657E+00-5.84748E+00-5.11468E+00 2.22375E-03 2.51706E-03
 -1     27603-1.59350E+01-1.54630E+00-5.76805E+00-5.01630E+00 4.66099E-04 1.47636E-03
 -1     27604-1.51141E+01-1.35315E+00-5.43180E+00-4.62087E+00-2.15298E-03-3.57464E-03
 -1     27605 1.82272E-02 5.72197E+00 1.89364E+00 4.83346E+00 9.89751E-04-1.12156E-04
 -1     27606-9.49710E+00 5.82307E-01-2.94137E+00-1.29097E+00 1.68761E-04-1.04416E-03
 -1     27607-3.82636E-01 4.73722E+00 1.43690E+00 3.87891E+00-2.26245E-05 3.12223E-05
 -1     27608 5.93908E+00 1.76133E+00 2.54082E+00 2.41311E+00 6.69355E-04-3.74978E-03
 -1     27609 6.44367E+00 1.52634E+00 2.63045E+00 2.76327E+00 1.93821E-03-4.05649E-03
 -1     27610 6.40862E+00 2.54964E+00 2.95163E+00 2.53386E+00 8.08461E-03 2.12463E-03
 -1     27611 6.73160E+00 2.70420E+00 3.10870E+00 2.72749E+00-1.60761E-04 3.01604E-03
 -1     27612 5.85119E+00 2.31399E+00 2.69131E+00 2.25179E+00-3.57290E-04-1.25307E-04
 -1     27613 6.44852E+00 2.06523E+00 2.80711E+00 2.63566E+00 7.12449E-03 1.27107E-03
 -1     27614 6.20989E+00 2.48580E+00 2.86772E+00 2.44085E+00-2.88328E-03 1.01897E-03
 -1     27615 4.74140E+00 1.96425E+00 2.21311E+00 4.89348E+00-3.25710E-04-6.56927E-05
 -1     27616 8.84382E+00 1.84339E+00 3.52710E+00 4.86920E+00-5.15463E-05 3.71464E-04
 -1     27617 9.03222E+00 2.00425E+00 3.64209E+00 5.14219E+00 1.16200E-04 1.35931E-03
 -1     27618 8.81067E+00 1.73761E+00 3.48070E+00 4.95397E+00-1.55363E-03 6.68453E-04
 -1     27619-1.23308E+01-8.89715E-01-4.36308E+00-2.34749E+00-1.17952E-03-2.26992E-05
 -1     27620-1.37053E+01-1.03405E+00-4.86400E+00-2.95475E+00-1.76378E-04 3.87959E-04
 -1     27621 6.63649E+00 2.12719E+00 2.89273E+00 5.50119E+00 4.75438E-04-2.35555E-03
 -1     27622 8.91768E+00 8.24001E+00 5.66229E+00 8.78295E+00 3.41035E-04 1.86421E-03
 -1     27623 8.10123E+00 4.77696E+00 4.24980E+00 7.02185E+00 1.90733E-03 2.34524E-03
 -1     27624 9.03566E+00 5.15613E+00 4.68360E+00 7.50641E+00-8.37316E-04-1.78605E-03
 -1     27625 3.87346E-02-5.24456E-01-1.60446E-01 2.97182E+00-8.16027E-04-8.16951E-05
 -1     27626-1.50216E-01-2.83566E-01-1.43456E-01 2.95064E+00-1.53000E-03 6.80397E-04
 -1     27627 7.94613E+00 3.60859E+00 3.81171E+00 3.80676E+00-1.15164E-03-8.03886E-04
 -1     27628 8.04937E+00 3.65453E+00 3.86112E+00 4.03148E+00 1.64919E-03 3.28320E-04
 -1     27629 8.02386E+00 3.64104E+00 3.84940E+00 3.95850E+00 8.40352E-04 2.29239E-03
 -1     27630 1.68659E+00 3.68421E+00 1.77241E+00 3.91517E+00 2.29038E-04-3.93168E-04
 -1     27631 1.04982E+01 9.54377E+00 6.61613E+00 1.00954E+01 2.00866E-04 1.19001E-03
 -1     27632-7.30045E+00 6.40290E-01-2.19787E+00-8.40874E-01-3.84154E-05-3.30618E-05
 -1     27633-7.08380E+00 7.92601E-01-2.07613E+00-7.01591E-01-1.83876E-04 2.58373E-04
 -1     27634 7.87884E+00 3.37874E+00 3.70807E+00 3.66611E+00-4.89243E-03-1.93319E-03
 -1     27635-9.41416E+00-2.16490E-01-3.17811E+00-1.83646E+00 3.21257E-04 2.08857E-04
 -1     27636 9.09101E+00 2.22090E+00 3.73358E+00 5.14625E+00 3.67421E-03 4.84215E-04
 -1     27637 1.07035E+01 9.57801E+00 6.69297E+00 1.02102E+01-4.54037E-05-2.07717E-03
 -1     27638-7.51597E+00 4.93905E-01-2.31731E+00-9.68003E-01 1.07000E-04-1.26810E-04
 -1     27639 6.10727E+00 2.58799E-01 2.10081E+00 3.30176E+00-1.50508E-03-9.15543E-04
 -1     27640 2.81119E+00 2.22245E+00 1.66404E+00 4.20862E+00 4.28766E-06 9.91859E-04
 -1     27641 2.06673E+00 1.71081E+00 1.24753E+00 3.83364E+00 2.08531E-03 1.47953E-03
 -1     27642 3.27014E+00 2.10905E+00 1.77402E+00 4.38568E+00 7.01676E-04-3.45894E-03
 -1     27643 1.08969E+01 8.55932E+00 6.42146E+00 9.67391E+00-2.44545E-03-3.17444E-03
 -1     27644 5.26114E+00 5.68927E-01 1.92393E+00 4.47596E+00 8.35066E-04-1.72070E-03
 -1     27645 2.89587E+00 3.23312E-01 1.06234E+00 3.89558E+00 8.86499E-04 1.33324E-03
 -1     27646-1.30536E+00 1.74475E+00 1.44932E-01 2.24028E+00-1.84865E-06 3.42084E-04
 -1     27647 8.63711E+00 1.74078E+00 3.42536E+00 5.33257E+00-3.07429E-03 9.17205E-04
 -1     27648-9.18358E+00-1.14180E-01-3.06823E+00-1.76423E+00-3.16969E-04 4.03076E-04
 -1     27649-8.99253E+00-1.07414E-02-2.97107E+00-1.70621E+00 6.16700E-04 1.39153E-03
 -1     27650-1.03216E+01-3.63262E-01-3.52611E+00-2.35736E+00-3.73560E-04-5.14656E-04
 -1     27651-4.86786E-01-1.05184E+00-5.07720E-01 2.77030E+00 3.16850E-04 4.08446E-04
 -1     27652 5.83815E-01 3.27377E+00 1.27291E+00 3.31433E+00 1.06536E-03 9.08498E-04
 -1     27653 1.68010E+00 3.87851E+00 1.83443E+00 3.97437E+00-5.50042E-04-5.57724E-04
 -1     27654-5.20878E+00 1.68696E+00-1.16215E+00 4.31941E-01-2.81408E-05 1.53722E-04
 -1     27655-5.06837E+00 1.85306E+00-1.06106E+00 5.86602E-01-7.19691E-05 3.34620E-04
 -1     27656-3.05519E+00 1.55747E+00-4.93541E-01 1.32584E+00 1.74500E-03 5.34412E-04
 -1     27657-4.02426E+00 1.34737E+00-8.82300E-01 8.21809E-01-1.90875E-04 5.35424E-06
 -1     27658-1.16755E+01-9.67414E-01-4.16818E+00-1.35768E+00 5.01891E-04 5.95307E-04
 -1     27659-1.49528E+01-1.18982E+00-5.32824E+00-2.49179E+00 3.84113E-03-2.91496E-03
 -1     27660-8.29620E+00 5.86997E-03-2.73592E+00-1.24387E+00-8.87737E-06 1.15629E-04
 -1     27661 7.56847E+00 5.96336E+00 4.46399E+00 6.72370E+00-9.34564E-04 4.23116E-03
 -1     27662 7.88415E+00 5.79731E+00 4.51404E+00 6.77662E+00 1.26047E-03-5.17744E-03
 -1     27663 7.66820E+00 6.06080E+00 4.52870E+00 6.82578E+00 4.70789E-04-4.57841E-05
 -1     27664 1.13670E+01 1.02004E+01 7.11807E+00 1.08003E+01-6.00438E-03 5.39667E-03
 -1     27665 1.25864E+01 1.07536E+01 7.70066E+00 1.16323E+01-4.67688E-03-1.25671E-03
 -1     27666 1.20674E+01 1.05440E+01 7.46212E+00 1.12860E+01-2.97237E-03-6.68501E-03
 -1     27667 1.25491E+01 1.07699E+01 7.69663E+00 1.16290E+01-1.00351E-03-4.81598E-03
 -1     27668 9.47733E+00 7.67216E+00 5.65923E+00 8.77682E+00-4.25164E-04 2.32971E-04
 -1     27669 1.04072E+01 8.33617E+00 6.18532E+00 9.47966E+00-8.41139E-04 2.20953E-04
 -1     27670 1.26093E+01 1.02964E+01 7.55909E+00 1.14235E+01 7.21570E-04 5.34953E-04
 -1     27671 8.92355E+00 2.20574E+00 3.67255E+00 5.70129E+00-3.68768E-03 5.89769E-04
 -1     27672-8.32233E+00 8.04925E-01-2.48130E+00-1.02680E+00-1.86483E-04-1.22669E-03
 -1     27673 7.45569E+00 3.48991E+00 3.61330E+00 4.83131E+00-6.51303E-04-2.21553E-03
 -1     27674 7.15086E+00 3.50392E+00 3.51411E+00 4.85443E+00-8.83898E-04-1.13454E-03
 -1     27675 7.20318E+00 3.54078E+00 3.54403E+00 4.89342E+00 1.85395E-03 1.33247E-03
 -1     27676-1.24788E+01-1.18295E+00-4.50768E+00-3.85626E+00 1.18640E-03 3.41046E-03
 -1     27677-1.18893E+01-1.08734E+00-4.28277E+00-3.60630E+00 6.13541E-04 1.05805E-03
 -1     27678 7.23289E+00 3.48629E+00 3.54016E+00 4.85312E+00-8.24363E-04 1.26349E-03
 -1     27679 7.55503E+00 3.50200E+00 3.64580E+00 4.81571E+00 7.60506E-04 5.76152E-04
 -1     27680-2.04779E+01-2.09589E+00-7.44558E+00-6.47596E+00 7.47123E-04 1.65114E-02
 -1     27681 5.75182E-01 3.13741E-01 2.93322E-01 3.19443E+00 1.52987E-04-7.04310E-05
 -1     27682-1.12812E+00-1.74596E-01-4.27894E-01 2.63526E+00 1.01570E-03 5.34585E-04
 -1     27683 7.66629E-01 3.75679E-02 2.65303E-01 3.24986E+00-2.08469E-04-6.26416E-05
 -1     27684-1.64736E+00-4.06284E-01-6.77532E-01 2.47720E+00-1.82911E-03-2.82720E-04
 -1     27685 3.88438E+00 3.00769E+00 2.27461E+00 4.78750E+00 3.02915E-04 1.13389E-03
 -1     27686 3.38418E+00 2.20060E+00 1.84277E+00 4.45043E+00-7.80760E-04 3.17701E-03
 -1     27687 4.32556E+00 2.92642E+00 2.39316E+00 4.96208E+00-3.47990E-04-8.86079E-05
 -1     27688 6.20386E+00 2.48775E+00 2.86601E+00 2.41827E+00-1.25802E-04 1.53350E-03
 -1     27689-5.18271E-02-1.20095E+00-4.13449E-01 2.77918E+00-1.84630E-04 1.38392E-04
 -1     27690 7.11341E+00 1.86895E+00 2.96775E+00 3.10824E+00 4.08048E-03 6.22454E-03
 -1     27691 1.13487E+01 8.08197E+00 6.41549E+00 9.71757E+00-5.06496E-03-2.44962E-03
 -1     27692 1.09816E+01 7.60236E+00 6.13443E+00 9.33710E+00-5.25228E-03-1.19315E-03
 -1     27693-1.09253E+01-7.06942E-01-3.83861E+00-1.76184E+00 9.12879E-05-3.37787E-04
 -1     27694-7.42538E+00 9.75519E-01-2.12858E+00-6.67959E-01 7.26996E-05 4.83629E-05
 -1     27695-1.05263E+01-2.02197E+00-4.14192E+00 5.93328E-01-4.88766E-03 3.12798E-03
 -1     27696-1.24269E+01-5.52521E-01-4.28385E+00-3.12960E+00-1.27765E-03-1.48927E-03
 -1     27697-1.36355E+01-9.26160E-01-4.80565E+00-3.79505E+00 9.50962E-04 1.22748E-04
 -1     27698-1.19324E+01-6.86628E-01-4.16722E+00-3.05301E+00-4.71684E-04 4.00894E-05
 -1     27699-1.13557E+01-5.75814E-01-3.93944E+00-2.80487E+00-1.09545E-03 4.51891E-03
 -1     27700-1.24725E+01-9.23225E-01-4.42379E+00-3.48163E+00-1.94765E-04-1.41320E-03
 -1     27701-1.20548E+01-7.99090E-01-4.23975E+00-3.23651E+00 1.47523E-03 5.72455E-03
 -1     27702 2.90487E+00 5.59439E+00 2.80464E+00 5.23263E+00 3.01759E-04 2.55236E-04
 -1     27703-7.29932E+00-2.54171E+00-3.24743E+00 1.38546E+00-3.71543E-04 2.19622E-03
 -1     27704-5.66071E+00-2.39941E+00-2.65980E+00 1.56697E+00-4.77172E-04-1.93333E-04
 -1     27705 6.36271E+00 8.07743E+00 4.76489E+00 7.78482E+00-2.49580E-04-9.02066E-04
 -1     27706-1.40991E+01-1.20752E+00-5.05075E+00-4.04261E+00-4.70745E-04 1.47342E-03
 -1     27707-1.51847E+01-1.41827E+00-5.47915E+00-4.61065E+00-2.70958E-03 2.29551E-03
 -1     27708 1.26517E+00 1.67511E+00 9.70556E-01 3.48929E+00-3.30338E-04-1.49040E-03
 -1     27709 2.02070E+00 2.11252E+00 1.36384E+00 3.84950E+00 7.95327E-04 9.52642E-05
 -1     27710 2.27164E+00 1.86814E+00 1.36604E+00 3.92901E+00-5.99085E-05-3.92043E-05
 -1     27711 1.53328E+00 1.41866E+00 9.73990E-01 3.58876E+00-2.94198E-03-2.88903E-04
 -1     27712-1.35658E-01 9.34666E+00 3.03500E+00 7.56625E+00-2.27066E-02 1.36851E-02
 -1     27713-7.02847E+00-6.05701E-01-2.47636E+00-1.77125E+00 4.53592E-02 6.79833E-02
 -1     27714-1.68088E+01-1.29710E+00-5.96764E+00-3.68932E+00 4.54554E-03-7.03650E-03
 -1     27715-5.90883E-02 1.16756E+01 3.89504E+00 6.02941E+00-3.40766E-03-1.54577E-02
 -1     27716 1.04131E+01 9.82208E+00 6.67334E+00 1.02137E+01-4.02543E-04 2.26750E-03
 -1     27717-1.01397E-02 1.36417E+01 4.50991E+00 6.28059E+00 3.49306E-03 1.28621E-02
 -1     27718-2.22626E-01 9.42086E+00 3.04092E+00 5.54105E+00-2.90359E-02 1.68144E-02
 -1     27719-7.22558E-02 1.13067E+01 3.72449E+00 5.77892E+00 1.15709E-02-1.91529E-02
 -1     27720 6.65911E+00 2.16678E+00 2.91426E+00 5.52556E+00-1.00748E-03 2.38441E-03
 -1     27721 6.53596E+00 2.67702E+00 3.04009E+00 5.68696E+00 4.44149E-04 1.20766E-04
 -1     27722-6.61936E+00-6.76870E-01-2.36890E+00-1.80297E+00-6.10047E-02 4.70930E-02
 -1     27723-6.51750E+00-3.90306E-01-2.23733E+00-1.40417E+00-1.69347E-02-2.94139E-02
 -1     27724-2.11188E+00 1.74704E+00-1.45169E-01 1.46699E+00 4.02980E-02-1.06818E-01
 -1     27725 1.33505E+01 1.11519E+01 8.08477E+00 1.21964E+01-1.89040E-03 1.89446E-03
 -1     27726 9.36434E+00 4.60175E+00 4.60802E+00 6.77619E+00 3.30444E-03-8.14792E-04
 -1     27727 9.37323E+00 5.29013E+00 4.84095E+00 7.16386E+00 1.99312E-03-2.29584E-03
 -1     27728 1.18697E+01 9.50501E+00 7.05372E+00 1.06777E+01 3.60788E-04-3.59457E-03
 -1     27729 6.29314E+00 4.35010E+00 3.51441E+00 5.22827E+00-4.21777E-04 1.27419E-03
 -1     27730 6.76359E+00 4.18637E+00 3.61632E+00 5.27959E+00-2.95829E-04 2.56225E-05
 -1     27731 6.28835E+00 4.35157E+00 3.50998E+00 5.22406E+00 1.66304E-03-7.42103E-04
 -1     27732 6.27640E+00 4.17999E+00 3.44917E+00 5.09256E+00-1.41050E-03-1.64248E-03
 -1     27733 6.72661E+00 4.01359E+00 3.54437E+00 5.13688E+00-3.72790E-03-1.94236E-03
 -1     27734 3.98360E+00 5.56531E+00 3.15110E+00 5.57734E+00-1.60503E-04 4.29701E-05
 -1     27735 7.11368E+00 4.75543E+00 3.91695E+00 5.82226E+00-1.20307E-03 1.13316E-03
 -1     27736-1.84758E+01-1.55873E+00-6.60317E+00-4.95406E+00-1.28019E-03-3.86009E-03
 -1     27737-1.92805E+01-1.64216E+00-6.89711E+00-5.34930E+00-8.59844E-04-1.14025E-02
 -1     27738 6.12146E+00 4.75502E+00 3.58868E+00 5.40092E+00-4.32224E-04 1.04126E-03
 -1     27739 6.48471E+00 4.97558E+00 3.78220E+00 5.67302E+00 2.07219E-03-2.96848E-04
 -1     27740 6.41910E+00 4.67164E+00 3.66027E+00 5.46887E+00-5.70920E-05-2.96004E-04
 -1     27741 5.00225E+00 2.82798E+00 2.59032E+00 4.08345E+00 1.53815E-02 1.28080E-02
 -1     27742-1.37734E+01-1.17051E+00-4.93256E+00-1.71989E+00-9.00708E-04-1.39599E-03
 -1     27743-1.05022E+01-9.64110E-01-3.78641E+00-6.27650E-01-2.14942E-03 4.19758E-03
 -1     27744-1.18085E+01-1.39560E+00-4.35556E+00-4.86020E-01 3.99683E-04 8.35585E-03
 -1     27745 4.68960E+00 3.61719E+00 2.73847E+00 4.10971E+00-1.37786E-02-4.05208E-03
 -1     27746 4.55097E+00 3.50414E+00 2.66700E+00 3.99828E+00-1.10063E-02-6.49370E-03
 -1     27747-1.33218E+01-1.18721E+00-4.78730E+00-4.01600E+00 5.24849E-04-2.25129E-03
 -1     27748-1.23402E+01-8.33185E-01-4.34637E+00-3.32223E+00-2.12502E-03-1.88485E-03
 -1     27749-1.38664E+01-1.29355E+00-5.00304E+00-4.26664E+00-1.32451E-03-1.18017E-03
 -1     27750-1.29714E+01-1.14332E+00-4.65650E+00-3.89074E+00 9.68459E-04-1.31759E-03
 -1     27751-1.35247E+01-1.25465E+00-4.87683E+00-4.14313E+00 6.14376E-04 2.15429E-04
 -1     27752 5.82725E+00 4.41749E+00 3.38227E+00 5.06185E+00 1.40250E-03-1.49166E-03
 -1     27753 5.69839E+00 4.33003E+00 3.30847E+00 4.95311E+00 1.14867E-03-3.04662E-03
 -1     27754-1.26216E+00 5.10300E+00 1.26698E+00 4.23299E+00 6.90502E-04-1.04008E-03
 -1     27755-2.72388E+01-5.35530E+00-1.06965E+01 3.11050E-01 2.93209E-02-3.95550E-02
 -1     27756 1.14189E+01 8.29799E+00 6.50402E+00 9.78474E+00 5.35481E-04-9.13779E-04
 -1     27757-7.81543E+00 1.37017E+00-2.12624E+00-7.40139E-02-1.10401E-03-2.04960E-03
 -1     27758-6.59146E+00 1.98224E+00-1.52126E+00 6.54779E-01-9.04166E-06 7.34994E-04
 -1     27759 9.20064E+00 9.41130E+00 6.14586E+00 9.46687E+00-2.10884E-03-8.43715E-03
 -1     27760 9.19711E+00 9.47969E+00 6.15999E+00 9.49547E+00 2.38733E-03 1.80080E-03
 -1     27761 8.47419E+00 9.30459E+00 5.87048E+00 9.08860E+00-5.34326E-03-3.66870E-03
 -1     27762 9.15280E+00 9.44533E+00 6.13901E+00 9.45722E+00-1.33882E-03 2.24823E-03
 -1     27763 6.33462E+00 4.88188E+00 3.70149E+00 6.34568E+00-5.10874E-04-3.66804E-04
 -1     27764 9.14977E+00 8.84309E+00 5.94875E+00 9.10641E+00 4.12575E-04-3.88892E-03
 -1     27765 9.75317E+00 8.98207E+00 6.18148E+00 9.39485E+00 6.16984E-04-2.84880E-03
 -1     27766 9.04513E+00 8.47482E+00 5.77460E+00 8.79910E+00-4.69456E-03-4.45788E-03
 -1     27767-1.81537E+01-1.96552E+00-6.63924E+00-5.97105E+00 2.02901E-04-1.09899E-03
 -1     27768 6.59679E+00 8.73212E+00 5.05336E+00 8.08480E+00 6.22064E-03-5.48531E-03
 -1     27769 5.00680E+00 3.82761E+00 2.92028E+00 4.37922E+00 6.54034E-03-6.70412E-03
 -1     27770 5.23253E+00 3.56449E+00 2.90414E+00 4.39540E+00 6.83859E-03 5.23779E-03
 -1     27771 5.07546E+00 3.89807E+00 2.96132E+00 4.46808E+00-3.55663E-03 1.69422E-03
 -1     27772 4.77339E+00 3.47029E+00 2.72063E+00 4.17015E+00 1.28906E-02-3.08264E-03
 -1     27773 5.13123E+00 2.96353E+00 2.66259E+00 4.17631E+00-2.07012E-03-8.21895E-04
 -1     27774 4.93419E+00 3.25836E+00 2.69792E+00 4.12917E+00 8.26529E-03 1.03892E-02
 -1     27775-8.25567E+00-3.86638E+00-4.00202E+00 5.19276E-01 2.50650E-03-2.90140E-03
 -1     27776 2.52053E+00 2.78173E+00 1.74987E+00 4.14529E+00-1.41668E-03 5.46117E-05
 -1     27777 2.77362E+00 2.62578E+00 1.78171E+00 4.24111E+00 6.31888E-05 1.27409E-04
 -1     27778 7.23954E+00 5.69450E+00 4.26607E+00 6.41944E+00 7.82886E-04 1.05290E-03
 -1     27779 7.41795E+00 5.40538E+00 4.23131E+00 6.33619E+00-2.40108E-03 3.50412E-04
 -1     27780 7.34782E+00 5.79132E+00 4.33838E+00 6.52100E+00-2.32553E-03 9.49021E-04
 -1     27781-1.86496E-02 1.33563E+01 4.39754E+00 6.45048E+00 5.44842E-03 7.81075E-03
 -1     27782-5.25784E-02 1.10557E+01 3.63634E+00 6.23345E+00 9.49280E-03 5.82806E-03
 -1     27783-1.43561E-02 1.24529E+01 4.11016E+00 6.22147E+00 1.21563E-02-1.61658E-02
 -1     27784-1.55059E-01 1.33065E+01 4.35712E+00 6.38387E+00-1.68499E-04-1.16246E-02
 -1     27785 1.18618E+01 9.38513E+00 7.01388E+00 1.05701E+01-2.68468E-03-2.94702E-03
 -1     27786 1.17916E+01 9.32476E+00 6.96592E+00 1.05034E+01-1.53890E-03 3.28186E-03
 -1     27787-2.82472E+01-2.28891E+00-1.04042E+01-4.18807E+00 7.77162E-03-2.63138E-01
 -1     27788 1.16281E+01 8.64070E+00 6.68841E+00 1.00754E+01-1.49874E-03-4.58393E-03
 -1     27789 1.16379E+01 8.77512E+00 6.73567E+00 1.01373E+01-1.93122E-03-3.86390E-03
 -1     27790 1.14305E+01 8.12632E+00 6.45087E+00 9.74648E+00-5.86914E-04 7.74670E-03
 -1     27791 6.12837E+00 1.30394E+00 2.44951E+00 2.68506E+00 2.05423E-03-4.74877E-04
 -1     27792 6.15029E+00 1.47058E+00 2.51439E+00 2.60630E+00 9.84881E-04 8.93831E-03
 -1     27793 5.48485E+00 9.94505E-01 2.14061E+00 2.45377E+00 9.58726E-03-1.16462E-03
 -1     27794 2.46781E+00 8.22347E-01 1.08504E+00 9.18696E-01 5.86669E-04 2.85713E-04
 -1     27795 2.40937E+00 9.81202E-01 1.11841E+00 8.17482E-01 2.73338E-03 1.43935E-04
 -1     27796-1.04296E+01-8.77781E-02-3.47140E+00-2.02741E+00-1.00536E-03 7.71987E-04
 -1     27797 1.23901E+01 9.92597E+00 7.36351E+00 1.11138E+01 2.15827E-03 8.08562E-04
 -1     27798 1.28889E+01 1.05950E+01 7.74525E+00 1.16983E+01 3.58913E-03 3.15042E-03
 -1     27799 5.83902E+00 1.80636E+00 2.52485E+00 5.14969E+00-5.00194E-05 2.28615E-03
 -1     27800 5.70775E+00 2.30236E+00 2.64322E+00 5.30100E+00-2.84271E-04-6.69276E-04
 -1     27801 8.18277E+00 8.97499E+00 5.66669E+00 8.86696E+00 2.84524E-03 4.81669E-03
 -1     27802 1.22514E+01 9.68446E+00 7.23675E+00 1.09264E+01 2.58057E-03 2.48962E-03
 -1     27803 7.53134E+00 2.52486E+00 3.31536E+00 3.27917E+00-3.62300E-03-6.12918E-03
 -1     27804 7.82388E+00 2.70025E+00 3.47111E+00 3.50530E+00 3.24010E-03-9.72458E-04
 -1     27805 9.03929E+00 6.92540E+00 5.26831E+00 7.92076E+00 2.86232E-04 2.39218E-05
 -1     27806 9.61237E+00 5.46056E+00 4.97098E+00 7.40142E+00 1.55414E-03-3.10887E-03
 -1     27807 7.30287E+00 2.49614E+00 3.22931E+00 3.12628E+00 8.23229E-04 8.10534E-04
 -1     27808 7.09643E+00 2.93287E+00 3.30765E+00 2.97274E+00 2.01216E-03 4.44445E-03
 -1     27809-9.63215E+00-3.11074E-01-3.28131E+00-1.86558E+00-1.66485E-04 3.23088E-05
 -1     27810 6.36813E+00 3.94991E+00 3.40316E+00 4.95666E+00-1.37247E-03 3.16634E-04
 -1     27811 9.40584E+00 7.23160E+00 5.48708E+00 8.25410E+00 1.59216E-03 1.29177E-04
 -1     27812 9.40957E+00 6.17144E+00 5.14505E+00 7.68795E+00-8.94358E-04 2.31262E-04
 -1     27813 9.55532E+00 5.74192E+00 5.05346E+00 7.54859E+00-1.38909E-03-5.79640E-03
 -1     27814 2.05369E+00 8.31920E+00 3.43617E+00 6.67970E+00-8.99065E-03 6.37379E-03
 -1     27815 4.00137E+00 8.59968E+00 4.15694E+00 7.09770E+00 2.65680E-02-3.41473E-03
 -1     27816 8.04414E+00 6.19713E+00 4.69811E+00 7.06032E+00-1.49084E-03-9.84252E-04
 -1     27817 8.27429E+00 5.94082E+00 4.69070E+00 7.03326E+00-5.43111E-04-1.20157E-03
 -1     27818 7.93963E+00 6.20494E+00 4.67160E+00 7.03105E+00-5.48932E-04 4.28083E-03
 -1     27819 8.67348E+00 6.69838E+00 5.07304E+00 7.61685E+00-4.47646E-03-2.84926E-03
 -1     27820-1.31552E+01-1.16595E+00-4.72612E+00-3.95702E+00-5.91485E-04-3.29552E-03
 -1     27821 9.33446E+00 3.98268E+00 4.39741E+00 6.38332E+00 6.52164E-04 7.19840E-04
 -1     27822 9.32826E+00 4.04478E+00 4.41497E+00 6.41662E+00-4.80510E-04 1.35050E-04
 -1     27823 9.15286E+00 3.80471E+00 4.27589E+00 6.17285E+00-9.51522E-04-6.81817E-04
 -1     27824-1.43265E+01-1.23681E+00-5.13596E+00-4.06561E+00 5.83219E-04 2.07346E-03
 -1     27825 6.86013E+00 7.34615E+00 4.66907E+00 7.20765E+00 2.81590E-03 2.65069E-02
 -1     27826 7.57878E+00 7.76543E+00 5.05938E+00 7.70142E+00-1.20013E-02-5.33647E-03
 -1     27827-1.13321E+01-1.02561E+00-4.07831E+00-3.42442E+00 9.48822E-04 1.67612E-04
 -1     27828-1.09208E+01-1.03596E+00-3.94869E+00-3.34473E+00-8.13188E-04 6.88873E-03
 -1     27829 5.34774E+00 3.50866E+00 2.92159E+00 4.50050E+00 7.38735E-04-1.31101E-03
 -1     27830 5.19612E+00 3.96710E+00 3.02611E+00 4.54278E+00-1.27857E-03 1.46625E-03
 -1     27831 1.32757E+01 1.11738E+01 8.06768E+00 1.21833E+01 4.56144E-05 3.28162E-03
 -1     27832 1.28357E+01 1.09182E+01 7.83614E+00 1.18501E+01-4.23419E-05-1.24990E-03
 -1     27833 2.96672E+00-6.39117E-02 9.57255E-01 1.70266E+00 5.80240E-03 2.35511E-03
 -1     27834 8.31016E+00 8.03514E+00 5.38581E+00 8.20807E+00 1.18772E-02 1.38583E-02
 -1     27835 8.36152E+00 8.07294E+00 5.42268E+00 8.26082E+00-6.70986E-03 8.82042E-03
 -1     27836 1.06356E+01 9.58700E+00 6.67169E+00 1.01166E+01 2.89371E-03 2.43664E-03
 -1     27837 5.27950E+00 4.02846E+00 3.07084E+00 4.61553E+00-4.69752E-04-1.26949E-03
 -1     27838 5.13987E+00 3.89742E+00 2.98295E+00 4.49684E+00 1.29752E-04-1.50837E-03
 -1     27839 1.89469E-02 1.29305E+01 4.27752E+00 6.46973E+00 7.90097E-03-2.58816E-03
 -1     27840 7.56822E+00 3.52624E+00 3.66072E+00 4.82598E+00-2.94340E-03-2.47369E-03
 -1     27841-9.90605E+00-9.30832E-01-3.58003E+00-3.11839E+00-2.98908E-03 6.28934E-04
 -1     27842-6.88361E+00-3.69764E+00-3.48749E+00 9.93171E-03 1.25431E-02 1.74778E-03
 -1     27843-8.63062E+00-4.35425E+00-4.27578E+00-4.84915E-02 2.23119E-03 1.40219E-02
 -1     27844 8.02854E+00 3.80006E+00 3.90417E+00 4.44157E+00-6.05569E-04-2.64482E-04
 -1     27845 2.79263E+00 8.76834E+00 3.81511E+00 7.40429E+00-4.23413E-03 2.39882E-03
 -1     27846 3.69631E+00 8.92936E+00 4.16607E+00 7.51601E+00 1.68903E-04 6.98547E-03
 -1     27847 2.28392E+00 4.82030E-02 7.70636E-01 1.24223E+00-3.30147E-03-2.36732E-03
 -1     27848 2.30870E+00 7.35951E-02 7.85272E-01 1.25674E+00-1.84430E-03-1.28885E-03
 -1     27849 2.00934E+00-2.26404E-01 5.88358E-01 1.27269E+00-2.15177E-03-8.05128E-04
 -1     27850 2.68022E+00-3.40285E-01 7.72237E-01 1.72434E+00 3.54482E-03 1.52577E-03
 -1     27851-4.99747E+01-1.26411E+01-2.08783E+01 1.86316E+00 2.11415E-01-3.74946E-01
 -1     27852-1.83346E+01-8.76779E+00-8.95228E+00-5.16923E-01 4.06885E-03-3.01992E-02
 -1     27853-1.86448E+01-7.85407E+00-8.76402E+00 1.80125E-01 3.05001E-02 2.89573E-02
 -1     27854 1.46907E+00-5.89850E-01 2.89454E-01 1.31241E+00 1.81328E-03 2.68217E-04
 -1     27855 1.68606E+00-7.09481E-01 3.22801E-01 1.51774E+00 8.86660E-04-1.14860E-03
 -1     27856-2.11054E+01-9.46931E+00-1.00529E+01-4.89263E-02-1.38315E-02 4.91599E-02
 -1     27857-2.24327E+01-1.03084E+01-1.07678E+01 4.29943E-01-4.35836E-03-8.19428E-02
 -1     27858-2.14547E+01-8.61149E+00-9.91277E+00 6.04297E-01-1.37564E-03 1.25475E-02
 -1     27859 1.83307E+00 1.80981E-01 6.64717E-01 3.57136E+00-2.02231E-04-1.32188E-03
 -1     27860-1.68360E+01-1.31384E+00-5.98715E+00-3.72773E+00-5.30433E-03 1.40904E-03
 -1     27861-6.21437E+00-3.32370E+00-3.14903E+00-5.38912E-01-4.89187E-03 2.78525E-03
 -1     27862 7.40876E+00 3.58162E+00 3.62658E+00 4.86617E+00-1.39730E-03-7.92249E-04
 -1     27863-2.80042E+00 2.19760E+00-2.90039E-01 1.22771E+00 5.92819E-02 2.09302E-01
 -1     27864-5.37896E+00-3.03028E+00-2.77513E+00 1.08466E+00-6.74878E-04-3.06276E-03
 -1     27865 7.10277E+00 3.45306E+00 3.48308E+00 4.90426E+00-4.09566E-03 1.09372E-03
 -1     27866 7.29148E+00 3.55044E+00 3.57668E+00 4.88779E+00-2.75858E-03 4.88074E-04
 -1     27867 6.99877E+00 3.42484E+00 3.43812E+00 4.89557E+00-7.21773E-03-1.34788E-03
 -1     27868 3.72832E+00 8.67925E+00 4.09409E+00 7.50233E+00-3.33288E-03-4.93817E-03
 -1     27869 7.90332E+00 4.94523E+00 4.24036E+00 7.00732E+00 1.01062E-03 2.05010E-03
 -1     27870 4.83119E+00 8.92026E+00 4.53875E+00 7.81820E+00 2.56672E-03-1.96488E-03
 -1     27871 5.67922E+00 8.85876E+00 4.79570E+00 8.00325E+00 3.09080E-04-4.54045E-04
 -1     27872-1.52666E+01-1.60578E+00-5.56831E+00-4.94484E+00-6.00582E-04 5.46508E-04
 -1     27873-1.42886E+01-1.26489E+00-5.13346E+00-4.31552E+00-7.55831E-04 2.10939E-03
 -1     27874 8.91678E+00 2.60446E+00 3.80095E+00 5.00261E+00 1.95975E-03-2.76231E-04
 -1     27875-1.55840E+01-1.59542E+00-5.66862E+00-4.99744E+00 3.30387E-04 1.08317E-04
 -1     27876-1.49744E+01-1.43979E+00-5.41654E+00-4.67819E+00-9.38458E-04 9.32677E-04
 -1     27877 2.19834E+00 7.73465E-01 9.79978E-01 8.03528E-01-5.32158E-03-2.87398E-03
 -1     27878 2.88142E+00 5.01078E-01 1.11493E+00 1.29877E+00 2.08724E-03 3.58886E-03
 -1     27879 2.43235E+00 7.00780E-01 1.03622E+00 9.64582E-01-1.32089E-03-4.78565E-04
 -1     27880-1.53978E+01-1.63205E+00-5.61922E+00-4.99838E+00 8.83478E-04 4.35514E-04
 -1     27881 6.52314E+00 4.24022E+00 3.54933E+00 5.23659E+00-1.49270E-03-3.08777E-03
 -1     27882 6.28579E+00 4.28954E+00 3.48901E+00 5.17901E+00 3.68684E-04 1.66973E-03
 -1     27883-1.58410E+01-1.62430E+00-5.76403E+00-5.08652E+00 5.13248E-04 2.07914E-03
 -1     27884-1.34114E+01-9.51471E-01-4.74107E+00-3.74555E+00 6.99583E-04-6.68113E-04
 -1     27885-1.38858E+01-1.10380E+00-4.94503E+00-4.02079E+00 9.43676E-04-1.14227E-03
 -1     27886 5.51270E+00 4.21351E+00 3.20961E+00 5.78293E+00 4.84367E-04 7.92481E-04
 -1     27887-1.59456E+01-1.63726E+00-5.80347E+00-5.12433E+00 6.77905E-04 6.73071E-05
 -1     27888-8.81180E+00-3.70417E+00-4.13100E+00 8.68356E-01-3.90884E-05 2.63403E-03
 -1     27889-5.52758E+00 7.74825E-01-1.56871E+00 1.05705E-01-4.44697E-06 6.84946E-04
 -1     27890-1.23058E+01-9.10789E-01-4.36639E+00-3.44069E+00-1.66691E-03-1.69591E-03
 -1     27891-1.18861E+01-7.83375E-01-4.17865E+00-3.19172E+00 1.33741E-04 6.43231E-03
 -1     27892-1.22484E+01-9.46197E-01-4.36007E+00-3.49650E+00-1.76390E-03-2.43744E-05
 -1     27893-1.18522E+01-8.33841E-01-4.18398E+00-3.25046E+00 9.59256E-04 5.44558E-03
 -1     27894 5.13488E+00 3.97432E+00 3.00516E+00 4.51876E+00-3.68672E-04-1.43378E-03
 -1     27895-1.28022E+01-1.12237E+00-4.59348E+00-3.83190E+00 7.44731E-04-3.24692E-03
 -1     27896 1.01448E+01 6.04884E+00 5.34562E+00 7.99041E+00 7.68069E-04 2.01818E-03
 -1     27897 1.00892E+01 9.66182E+00 6.51837E+00 9.97145E+00 1.65639E-03 6.14666E-03
 -1     27898 1.00027E+01 9.61626E+00 6.47202E+00 9.90161E+00-1.52997E-03 3.87279E-03
 -1     27899 8.03105E+00 3.65572E+00 3.85682E+00 3.97518E+00-4.69378E-04-3.71301E-03
 -1     27900 8.04359E+00 3.40803E+00 3.78192E+00 3.88892E+00 4.27760E-03-4.87720E-04
 -1     27901 9.90149E+00 9.57129E+00 6.42536E+00 9.88303E+00-3.10017E-03-1.57792E-03
 -1     27902 1.11090E+01 1.01090E+01 7.00049E+00 1.06410E+01-3.27532E-03 4.56300E-04
 -1     27903-7.57458E+00 1.47551E+00-2.01276E+00 1.59390E-01-1.59240E-03-6.39286E-04
 -1     27904-1.49671E+01-1.50044E+00-5.43296E+00-4.75048E+00-8.77426E-04-7.93505E-04
 -1     27905 7.41081E+00 2.54587E+00 3.28605E+00 3.20556E+00 6.84659E-03 7.54187E-04
 -1     27906 7.17981E+00 2.33030E+00 3.13392E+00 3.04894E+00-4.80970E-03-5.16505E-03
 -1     27907 7.60232E+00 2.58676E+00 3.36164E+00 3.33461E+00 3.03764E-03 2.64858E-03
 -1     27908 7.53915E+00 3.13839E+00 3.52510E+00 3.29456E+00-1.67299E-03 4.65814E-03
 -1     27909 7.12551E+00 2.90809E+00 3.30597E+00 2.99793E+00-6.68008E-04-3.86081E-03
 -1     27910 1.31488E+00 8.80821E+00 3.33740E+00 7.13284E+00-1.22640E-02-9.52857E-04
 -1     27911 9.41226E+00 6.26726E+00 5.17266E+00 7.73780E+00 8.24486E-03 6.73583E-03
 -1     27912 9.36256E+00 6.59256E+00 5.26650E+00 7.89581E+00 7.12447E-03 6.52150E-03
 -1     27913 9.62618E+00 6.47766E+00 5.31292E+00 7.95771E+00 3.77575E-03 9.53340E-04
 -1     27914 3.91409E-02 1.09836E+01 3.59245E+00 6.14083E+00-5.68498E-03-5.52319E-04
 -1     27915-2.59153E-01 9.61361E+00 3.11062E+00 5.74816E+00-9.98626E-03 6.94655E-03
 -1     27916-2.41319E-01 8.79315E+00 2.80155E+00 5.61989E+00 1.16172E-02-4.48165E-03
 -1     27917-5.35595E-01 6.68253E+00 2.05378E+00 4.63717E+00-4.79547E-02-1.69071E-02
 -1     27918-1.68479E+01-1.74895E+00-6.13758E+00-5.42603E+00 3.37689E-04 4.94886E-04
 -1     27919 7.75491E+00 8.48639E+00 5.35298E+00 8.21175E+00 3.54144E-03 9.12068E-03
 -1     27920 5.64398E+00 8.97210E+00 4.82109E+00 8.10084E+00 4.71466E-03-3.82390E-03
 -1     27921 7.62877E+00 9.13515E+00 5.53540E+00 8.70876E+00 1.64341E-03 4.48368E-03
 -1     27922 1.14150E+01 1.01570E+01 7.11969E+00 1.08033E+01 3.14039E-03 4.56275E-03
 -1     27923 1.00495E+01 6.67845E+00 5.52063E+00 8.26645E+00-5.70958E-03 1.22913E-03
 -1     27924 1.01259E+01 7.66457E+00 5.87021E+00 8.83259E+00-2.57937E-04 4.16411E-03
 -1     27925 9.80218E+00 7.38358E+00 5.67280E+00 8.52302E+00-3.13903E-03-4.40070E-03
 -1     27926 9.88922E+00 5.11360E+00 4.95093E+00 7.70911E+00-1.63860E-03-4.01734E-04
 -1     27927 1.21764E+01 9.55008E+00 7.17476E+00 1.08545E+01 1.42798E-03 1.63371E-03
 -1     27928 1.03363E+00-8.96593E-02 3.10558E-01 6.90619E-01-1.50179E-03 5.72909E-04
 -1     27929 1.94609E+00 5.58981E-02 6.62749E-01 1.06067E+00 6.25631E-04 4.09085E-03
 -1     27930 9.18884E+00 2.33192E+00 3.80193E+00 5.70189E+00 4.58359E-04-8.65008E-04
 -1     27931 1.16760E+01 1.01794E+01 7.21048E+00 1.09326E+01-1.40776E-03-3.61237E-03
 -1     27932 1.27215E+01 1.08756E+01 7.78586E+00 1.17747E+01-1.77516E-03-2.39504E-03
 -1     27933 9.73052E+00 7.53724E+00 5.69887E+00 8.58232E+00 2.04351E-03 4.98183E-03
 -1     27934 6.55985E+00 4.44333E+00 3.63134E+00 5.37995E+00 3.61832E-03 5.88412E-04
 -1     27935 6.55118E+00 4.47921E+00 3.63997E+00 5.40520E+00-1.12017E-03 1.18144E-03
 -1     27936 4.51227E+00 3.50219E+00 2.65110E+00 3.93690E+00 1.56588E-02 1.74508E-03
 -1     27937 8.09902E+00 3.63523E+00 3.86884E+00 4.43652E+00-2.43789E-03 3.23691E-04
 -1     27938 8.01543E+00 3.80604E+00 3.90024E+00 4.49873E+00 1.65526E-03-1.96043E-03
 -1     27939 6.31184E+00 4.51066E+00 3.56997E+00 5.31946E+00 2.22847E-03 4.93283E-04
 -1     27940-8.09570E-01 7.56965E+00 2.22186E+00 5.91951E+00 1.40831E-02 4.44128E-03
 -1     27941-2.35884E-01 9.42180E+00 3.03173E+00 6.36508E+00 1.61190E-02 1.12935E-02
 -1     27942-1.79132E+01-1.76745E+00-6.49566E+00-5.55457E+00-6.06976E-04 2.67533E-03
 -1     27943-1.86456E+01-1.97886E+00-6.80604E+00-6.07021E+00 5.24481E-04-6.79427E-04
 -1     27944-1.83086E+01-1.90165E+00-6.66834E+00-5.85009E+00-3.07849E-03 2.77909E-03
 -1     27945 9.62016E+00 7.43909E+00 5.63099E+00 8.47186E+00 6.87221E-04-1.79807E-03
 -1     27946-1.92707E+01-2.03980E+00-7.03455E+00-6.25890E+00-1.63743E-03-7.24197E-04
 -1     27947-1.95229E+01-2.06499E+00-7.12354E+00-6.32359E+00-2.31988E-03 1.74350E-04
 -1     27948 9.96381E-01 1.33988E-01 3.72283E-01 5.37079E-01-7.98044E-04 4.31821E-04
 -1     27949-1.96554E+01-2.07172E+00-7.17742E+00-6.37299E+00-5.78210E-03 4.44079E-03
 -1     27950-1.94476E+01-2.01283E+00-7.08078E+00-6.20913E+00-1.28669E-03-4.85906E-04
 -1     27951-1.88109E+01-1.79708E+00-6.80318E+00-5.74826E+00-4.65766E-03-9.65136E-03
 -1     27952 1.26712E+01 1.04105E+01 7.61767E+00 1.15104E+01 6.83281E-04 2.77385E-04
 -1     27953-2.32642E+00 4.89348E+00 8.47198E-01 5.02253E+00 6.17510E-03-5.20153E-04
 -1     27954 1.30367E+01 1.10539E+01 7.95090E+00 1.20098E+01 8.59626E-04-1.13383E-03
 -1     27955 8.21875E+00 8.23891E+00 5.43055E+00 8.50505E+00-1.16903E-03 3.02943E-03
 -1     27956 1.13204E+01 9.82853E+00 6.97553E+00 1.06056E+01 2.06847E-03-3.41190E-03
 -1     27957 8.91268E+00 9.36354E+00 6.03373E+00 9.34044E+00-3.75236E-04 4.02253E-03
 -1     27958 1.23895E+01 1.06000E+01 7.58632E+00 1.14548E+01 2.29066E-03-3.66611E-03
 -1     27959 8.51088E+00 6.13616E+00 4.83407E+00 7.25048E+00-9.11001E-04-1.56561E-03
 -1     27960 8.34542E+00 6.02091E+00 4.74217E+00 7.11376E+00 1.96660E-03-1.34921E-03
 -1     27961 1.15223E+01 1.02634E+01 7.18888E+00 1.08946E+01 3.67088E-03 2.32009E-03
 -1     27962 1.19082E+01 1.03864E+01 7.35710E+00 1.11240E+01 9.06149E-04 2.17214E-03
 -1     27963-5.60660E+00 1.95463E+00-1.20531E+00 5.60831E-01-1.64422E-04 1.52380E-04
 -1     27964-9.87095E+00-4.00541E-01-3.38959E+00-1.89365E+00 1.97720E-05-2.38321E-04
 -1     27965 5.36205E+00 3.50496E+00 2.92500E+00 4.43644E+00 3.44328E-03 2.16489E-03
 -1     27966 5.53757E+00 3.27497E+00 2.90862E+00 4.49809E+00 1.60248E-03 4.03438E-03
 -1     27967 5.74238E+00 3.43814E+00 3.03027E+00 4.60296E+00 8.02562E-04 6.74361E-04
 -1     27968 5.41532E+00 3.07701E+00 2.80212E+00 4.41297E+00 6.25685E-03-1.96093E-03
 -1     27969 5.77764E+00 3.02167E+00 2.90565E+00 4.59757E+00-6.41985E-03-2.18687E-03
 -1     27970-1.12031E+01-6.60675E-01-3.91506E+00-2.50683E+00-1.67624E-05-2.90577E-04
 -1     27971 6.45706E+00 1.52163E+00 2.63387E+00 2.77154E+00-2.97883E-03 3.11278E-03
 -1     27972 6.45590E+00 4.70207E+00 3.68262E+00 5.51523E+00-7.88374E-04-9.28710E-05
 -1     27973 7.18018E+00 5.35834E+00 4.13789E+00 6.19865E+00 2.62027E-03 1.58142E-03
 -1     27974 7.02585E+00 5.25421E+00 4.05306E+00 6.06283E+00 3.03655E-03 1.80608E-04
 -1     27975-1.09000E+01-1.28888E-01-3.63932E+00-2.20834E+00 2.69261E-04 2.30341E-04
 -1     27976-1.22992E+01-7.35752E-01-4.30176E+00-3.21763E+00-1.30359E-03 2.04844E-04
 -1     27977 1.00620E+01 9.50364E+00 6.46411E+00 9.85690E+00-8.79475E-03 6.56708E-04
 -1     27978-1.27322E+01-6.82852E-01-4.42715E+00-3.36405E+00 1.32501E-03 3.53890E-04
 -1     27979 7.24545E+00 4.90036E+00 4.00726E+00 5.97067E+00-1.93069E-03 2.13189E-04
 -1     27980-1.29227E+01-1.32925E+00-4.70266E+00-4.15206E+00-2.14968E-03-3.14639E-03
 -1     27981-1.23988E+01-1.15503E+00-4.47508E+00-3.78054E+00 1.07316E-02 2.09428E-03
 -1     27982-4.53119E+00 2.32297E+00-7.28715E-01 1.09085E+00-2.60896E-04 1.70889E-04
 -1     27983 9.17098E+00 4.33239E+00 4.45613E+00 6.51451E+00 3.08257E-04 1.00925E-03
 -1     27984-3.52561E+00-2.36749E+00-1.94469E+00 1.72317E+00-1.10047E-03-1.99555E-04
 -1     27985 1.30051E+01 1.10288E+01 7.92915E+00 1.19834E+01-5.07522E-04-4.31455E-04
 -1     27986 1.30575E+01 1.10637E+01 7.95740E+00 1.20226E+01 3.58066E-04-1.14726E-03
 -1     27987 5.41650E+00 3.26991E+00 2.87103E+00 4.44844E+00-3.11590E-03 5.64204E-04
 -1     27988 5.59063E+00 2.97681E+00 2.82834E+00 4.49806E+00-7.15070E-03-5.01606E-03
 -1     27989 5.39796E+00 3.24567E+00 2.84900E+00 4.42715E+00-3.28968E-03 1.31625E-03
 -1     27990 1.32874E+01 1.10921E+01 8.04543E+00 1.21450E+01 2.19610E-03 2.02276E-03
 -1     27991 6.01045E+00 4.47592E+00 3.46003E+00 5.17209E+00 3.19967E-03-7.20359E-04
 -1     27992-1.11095E+01-5.24205E+00-5.40342E+00-2.17574E-01 2.49896E-03 8.03731E-03
 -1     27993-1.15485E+01-5.23308E+00-5.53932E+00-5.71318E-02-1.43152E-02 5.38977E-03
 -1     27994-1.07529E-01 1.06164E+01 3.46538E+00 5.64835E+00 8.94138E-03-6.52003E-04
 -1     27995-1.18750E+01-5.69835E+00-5.79467E+00-4.23672E-01-8.33999E-03 6.67578E-03
 -1     27996-1.18629E+01-5.76581E+00-5.81033E+00-8.68864E-01-1.96621E-02 1.97993E-03
 -1     27997 4.30674E-02 8.18175E+00 2.68587E+00 7.48707E+00-1.31650E-02 3.90222E-02
 -1     27998 1.88202E-01-1.47406E+00-4.24820E-01 1.60883E+00-1.88375E-03 1.21300E-03
 -1     27999-1.02688E+00-1.90875E+00-9.68760E-01 1.45487E+00 1.84871E-05-7.40956E-04
 -1     28000-3.24492E+00-1.23277E+00-1.47804E+00 2.12579E+00-1.13644E-03-2.49658E-04
 -1     28001-1.01305E+01-4.84214E-01-3.50281E+00-1.89593E+00-1.27443E-04-8.81792E-05
 -1     28002 7.99771E+00 3.61856E+00 3.83205E+00 4.60681E+00 2.35540E-03 3.43345E-04
 -1     28003-6.52061E-01 8.90894E+00 2.73484E+00 5.22150E+00 8.30052E-02 5.65615E-02
 -1     28004-1.90765E-01 9.75642E+00 3.15580E+00 6.71105E+00 2.04306E-02 6.49268E-03
 -1     28005-1.18821E+01-1.36100E+00-4.37274E+00-5.51109E-01 3.09832E-03-1.71883E-02
 -1     28006 5.54236E+00 3.70649E+00 3.04993E+00 4.57589E+00-1.70782E-04-1.53461E-03
 -1     28007 5.73794E+00 3.53971E+00 3.06069E+00 4.61529E+00 5.36572E-04-1.48599E-03
 -1     28008-3.84258E+00-1.03689E+00-1.60976E+00 1.90541E+00 5.17896E-04-1.79800E-03
 -1     28009 5.31507E+00 7.51257E+00 4.23267E+00 7.11730E+00 2.59990E-04-6.78526E-04
 -1     28010-5.32498E+00 9.21822E-01-1.45322E+00 1.69910E-01-6.50998E-04-5.14732E-04
 -1     28011 7.32388E+00 3.01345E+00 3.41534E+00 3.11662E+00 2.21860E-03 1.16782E-03
 -1     28012-1.88072E+01-2.05692E+00-6.88552E+00-6.21500E+00 4.81591E-04 1.68002E-03
 -1     28013-1.72769E+01-1.85055E+00-6.31231E+00-5.65764E+00-1.70869E-03 4.47449E-04
 -1     28014-1.51557E+01-1.39526E+00-5.46112E+00-4.64563E+00-1.43477E-03-1.77231E-03
 -1     28015-1.60210E+01-1.62447E+00-5.82200E+00-5.12171E+00 2.14425E-03 6.85816E-04
 -1     28016-1.63224E+01-1.67019E+00-5.93418E+00-5.23369E+00 2.77176E-04 6.37735E-04
 -1     28017-1.64912E+01-1.68719E+00-6.00097E+00-5.29095E+00 2.70673E-03 1.36013E-03
 -1     28018-1.65722E+01-1.70533E+00-6.02909E+00-5.32484E+00 2.95988E-03 2.71177E-03
 -1     28019-1.31967E+01-8.65734E-01-4.64130E+00-3.68672E+00-9.26347E-04 1.32555E-03
 -1     28020 5.90564E+00 3.13870E+00 2.97995E+00 4.65346E+00-5.59310E-03 2.86204E-03
 -1     28021-9.26427E+00-1.02097E+00-3.39119E+00-2.99758E+00-2.71228E-03 7.87363E-04
 -1     28022-9.54780E+00-9.29114E-01-3.45452E+00-2.98810E+00-6.54726E-03-9.17126E-03
 -1     28023-1.70577E+01-1.80010E+00-6.22276E+00-5.55323E+00 6.96966E-04-1.97255E-03
 -1     28024-1.63388E+01-1.64351E+00-5.93283E+00-5.20609E+00 1.20754E-03 9.58389E-05
 -1     28025-1.69737E+01-1.78621E+00-6.19035E+00-5.52001E+00 1.33564E-03-5.28572E-04
 -1     28026 1.14981E+01 8.80577E+00 6.70349E+00 1.01761E+01-3.37645E-03-3.38610E-03
 -1     28027-1.70491E+01-7.11055E+00-7.96845E+00 2.24776E-01 1.08498E-02 5.91217E-03
 -1     28028 5.95924E+00 3.63393E+00 3.16555E+00 4.69204E+00-3.76948E-03-5.32318E-03
 -1     28029-6.98848E+00 3.40424E-01-2.19418E+00-6.14608E-01-4.56893E-04 2.67314E-05
 -1     28030-4.13066E+00 1.04461E+00-1.01893E+00 3.66764E-01 5.41421E-03 8.97559E-03
 -1     28031-2.39443E+00 2.66514E+00 9.17553E-02 2.08558E+00 8.04394E-03-2.34982E-03
 -1     28032-1.05792E+01-5.27293E+00-5.23603E+00-7.75453E-01 5.76358E-03 7.03039E-04
 -1     28033-1.33808E+01-8.71826E-01-4.70160E+00-3.69058E+00 1.03210E-03 2.11512E-03
 -1     28034-1.58115E+01-1.49637E+00-5.71277E+00-4.95271E+00-2.87449E-03-6.45143E-04
 -1     28035-1.55992E+01-1.46273E+00-5.63301E+00-4.85760E+00-8.96698E-04-1.00201E-03
 -1     28036-1.58047E+00 5.40191E+00 1.26135E+00 4.66481E+00 8.07506E-04 2.10753E-03
 -1     28037 2.41453E+00 6.54019E+00 2.95153E+00 6.04612E+00-2.51015E-02-6.39711E-02
 -1     28038 7.21742E-01 8.19407E+00 2.93767E+00 7.06976E+00 2.72317E-03 1.06630E-02
 -1     28039 5.88094E-01 6.65692E+00 2.38693E+00 6.60236E+00-1.91352E-02 5.15179E-02
 -1     28040 2.47369E+00 6.45747E+00 2.96302E+00 6.04984E+00-3.35783E-02-2.59336E-02
 -1     28041 5.79862E+00 3.40666E+00 3.03728E+00 4.63485E+00-5.77477E-03 9.86355E-04
 -1     28042 1.05988E+01 9.53819E+00 6.64448E+00 1.00669E+01 3.30728E-04-6.50080E-05
 -1     28043-1.68222E+01-1.77908E+00-6.13920E+00-5.46764E+00-3.18314E-03 5.51357E-04
 -1     28044 7.75911E+00 3.45291E+00 3.69974E+00 4.78311E+00-2.32789E-03-1.97196E-03
 -1     28045 6.69522E+00 2.73049E+00 3.10484E+00 2.70013E+00-9.28841E-04-2.54320E-03
 -1     28046 4.55917E-01 8.68002E+00 3.01200E+00 7.38947E+00 6.69797E-02 2.10267E-02
 -1     28047 5.43752E-01 8.97812E+00 3.14874E+00 7.75088E+00 3.14594E-04 2.96770E-02
 -1     28048 1.23396E+00 8.92976E+00 3.36195E+00 7.39795E+00-5.81123E-04 2.03364E-02
 -1     28049 1.54309E+00 8.77961E+00 3.40916E+00 7.18587E+00 1.22124E-02-1.32554E-02
 -1     28050-1.47277E+01-1.25961E+00-5.27409E+00-4.39382E+00-1.73154E-03 1.63233E-03
 -1     28051-1.50041E+01-1.32973E+00-5.38806E+00-4.54191E+00-2.09304E-03 4.14617E-03
 -1     28052-6.32189E-02 8.60005E+00 2.81731E+00 7.64089E+00-8.86625E-03 3.61874E-03
 -1     28053-1.02235E+01-2.04227E-01-3.44185E+00-2.09210E+00-4.32606E-03 4.08342E-03
 -1     28054-1.92665E+01-2.09684E+00-7.05059E+00-6.36233E+00-1.38937E-03 5.97958E-05
 -1     28055-1.94318E+01-2.11576E+00-7.11285E+00-6.41259E+00-1.69978E-03 8.00370E-04
 -1     28056-1.26218E+01-1.10759E+00-4.53391E+00-3.78152E+00-4.67880E-04-2.82191E-03
 -1     28057 4.64040E+00 3.64810E+00 2.74379E+00 4.08589E+00 1.43606E-02 1.34416E-02
 -1     28058 1.03891E+01 7.19099E+00 5.79948E+00 8.69649E+00-7.99830E-04-6.35055E-03
 -1     28059 4.18364E+00 2.60309E+00 2.22985E+00 3.51101E+00-1.11942E-02-1.17702E-03
 -1     28060 4.53814E+00 3.46751E+00 2.64003E+00 3.98201E+00-1.01498E-02-1.23291E-03
 -1     28061 2.62738E-02 1.26460E+01 4.19303E+00 6.46278E+00-4.04972E-03 4.16692E-03
 -1     28062-4.25478E-02 1.31737E+01 4.32953E+00 6.43642E+00 6.66871E-03-1.19820E-02
 -1     28063-2.08581E-01 1.07329E+01 3.47687E+00 6.70504E+00 9.34581E-03 1.76342E-02
 -1     28064-1.60116E-01 1.20186E+01 3.92403E+00 6.58027E+00 3.06226E-03 8.96900E-03
 -1     28065-4.30618E-01 6.09082E+00 1.86835E+00 5.22331E+00 1.25960E-03 1.85059E-03
 -1     28066 6.80396E-01 6.54301E+00 2.38481E+00 5.65112E+00-2.24132E-03-7.68258E-04
 -1     28067-1.80156E+01-1.86648E+00-6.55935E+00-5.77394E+00-1.89680E-03 5.25527E-03
 -1     28068-1.87313E+01-1.99858E+00-6.84183E+00-6.11140E+00-1.60815E-03 1.23769E-03
 -1     28069-1.50947E+00-1.23196E+00-9.07716E-01 2.07897E-01-3.46035E-04 6.42629E-04
 -1     28070-2.52128E+00-1.64176E+00-1.37476E+00-7.04708E-02-1.16916E-03-1.82906E-03
 -1     28071-1.82464E+00-1.09649E+00-9.62910E-01-1.73970E-01 7.75963E-04 4.69016E-04
 -1     28072-8.76675E+00-2.11637E-01-2.96292E+00-1.29109E+00 1.61791E-04-1.14451E-04
 -1     28073 2.21326E+00 6.04582E-01 9.30701E-01 9.02059E-01-5.68611E-05 1.55819E-03
 -1     28074-9.78214E+00 4.15150E-02-3.21617E+00-1.65819E+00 5.95195E-04 3.36520E-03
 -1     28075 8.19675E+00 2.99976E+00 3.69771E+00 3.93798E+00 3.80475E-03 3.07964E-03
 -1     28076 8.14211E+00 3.05302E+00 3.69259E+00 3.86709E+00-1.73723E-03 1.46619E-03
 -1     28077 8.18419E+00 3.24219E+00 3.76984E+00 3.99862E+00 1.17697E-03 7.01761E-03
 -1     28078 8.06943E+00 3.76587E+00 3.90573E+00 4.27297E+00-2.57733E-03-1.82740E-03
 -1     28079 8.06161E+00 3.74797E+00 3.89770E+00 4.14245E+00 2.07914E-03-2.35316E-03
 -1     28080 8.13907E+00 3.60658E+00 3.87417E+00 4.27820E+00 2.95930E-03 2.24451E-03
 -1     28081 5.66738E+00 2.21279E+00 2.60001E+00 2.16297E+00-3.94402E-03 6.42040E-03
 -1     28082-2.17545E+01-1.60936E+00-7.69629E+00-5.53350E+00-2.08144E-03-4.35277E-04
 -1     28083 1.17957E+01 1.03236E+01 7.30231E+00 1.10489E+01-1.39390E-05 2.24963E-03
 -1     28084 1.16670E+01 1.02206E+01 7.22801E+00 1.09354E+01 4.36234E-03 9.92949E-04
 -1     28085 2.08871E+00 2.62142E-01 7.74605E-01 1.02967E+00-1.11725E-03-1.35743E-03
 -1     28086-3.16347E-01 7.52717E+00 2.39442E+00 7.31915E+00 1.99251E-02-4.53985E-02
 -1     28087 8.21063E+00 3.42253E+00 3.83990E+00 4.23550E+00 3.10601E-04-2.12506E-03
 -1     28088 8.21753E+00 3.44046E+00 3.84538E+00 4.33194E+00 1.60152E-03 1.57583E-04
 -1     28089-1.30367E+01-1.25086E+00-4.71382E+00-4.03973E+00 2.21424E-03 1.89286E-03
 -1     28090-1.28579E+01-1.22070E+00-4.64384E+00-3.97838E+00 2.00566E-03 2.52817E-04
 -1     28091-1.18290E+01-8.08728E-01-4.16911E+00-3.20217E+00-2.05171E-04-3.88880E-03
 -1     28092 6.15032E+00 3.74613E+00 3.26678E+00 4.78936E+00 7.98396E-04-7.35672E-04
 -1     28093 6.56643E+00 3.63688E+00 3.36725E+00 4.84507E+00 2.95761E-04 1.56564E-03
 -1     28094 6.82347E+00 3.48700E+00 3.40471E+00 4.82402E+00 2.62432E-03 3.82145E-03
 -1     28095 8.22213E+00 3.35412E+00 3.81975E+00 4.14663E+00 7.08747E-05-8.24786E-04
 -1     28096 8.42820E+00 2.97707E+00 3.76442E+00 4.34756E+00-9.62928E-04 4.89789E-04
 -1     28097 8.34488E+00 3.02013E+00 3.75178E+00 4.18890E+00 1.00823E-03 6.60866E-04
 -1     28098 8.13790E+00 3.50280E+00 3.84196E+00 4.07698E+00 1.62375E-05 3.67088E-05
 -1     28099 8.34590E+00 3.10105E+00 3.77680E+00 4.27113E+00 1.49710E-03 1.09202E-03
 -1     28100-9.57372E-01-1.49891E+00-8.10549E-01 2.49421E+00 3.30035E-04-8.36978E-04
 -1     28101-1.33656E+00-1.35362E+00-8.87752E-01 2.53135E+00-8.22563E-04-6.24211E-05
 -1     28102 3.58798E-02 8.13226E+00 2.72809E+00 7.01569E+00 2.56146E-02-2.80047E-03
 -1     28103 9.37971E+00 4.55794E+00 4.59955E+00 7.29880E+00-1.37916E-03-1.74133E-03
 -1     28104-1.10972E-01 1.08497E+01 3.54188E+00 6.48899E+00 7.37707E-04-4.49582E-03
 -1     28105-2.32511E-01 1.01886E+01 3.29247E+00 6.45141E+00-1.25122E-02-3.46339E-04
 -1     28106 8.13020E+00 3.56280E+00 3.85849E+00 4.13418E+00-5.28599E-04-2.74274E-04
 -1     28107 8.04371E+00 3.73576E+00 3.88651E+00 4.07459E+00 9.46383E-04 1.48354E-03
 -1     28108 8.21438E+00 3.36000E+00 3.81784E+00 4.15809E+00 1.32499E-04 5.01824E-04
 -1     28109 8.13416E+00 3.58247E+00 3.86732E+00 4.26258E+00-5.64280E-06 1.82736E-03
 -1     28110 8.06893E+00 3.69605E+00 3.88164E+00 4.12071E+00 2.69154E-04-1.28572E-03
 -1     28111-7.53455E-02 1.10338E+01 3.62080E+00 6.84339E+00 1.28167E-02-5.95633E-04
 -1     28112-6.38262E-02 1.20691E+01 3.94814E+00 6.70960E+00 3.07365E-02 1.96806E-02
 -1     28113 4.68389E+00 8.81742E+00 4.45559E+00 7.54548E+00-3.75228E-03-5.67219E-04
 -1     28114 8.55993E+00 6.60070E+00 5.00140E+00 7.51701E+00 3.34811E-03 1.84749E-03
 -1     28115 2.30285E+00-2.57672E-01 6.74980E-01 3.56349E+00-7.89773E-04-1.88805E-03
 -1     28116-6.12161E+00 3.03992E-02-2.00941E+00-9.50725E-01-3.57458E-03 9.05572E-03
 -1     28117 8.30148E+00 3.18249E+00 3.78983E+00 4.63331E+00 7.82553E-04-1.16265E-03
 -1     28118 8.25185E+00 3.33035E+00 3.82250E+00 4.47214E+00 7.97186E-04-3.42835E-04
 -1     28119-1.51471E+01-1.36746E+00-5.44949E+00-4.64109E+00-3.04454E-04-8.40768E-03
 -1     28120-1.57832E+01-1.52379E+00-5.71019E+00-4.96510E+00-2.81049E-03-5.38563E-04
 -1     28121-5.24698E+00-1.84747E+00-2.34121E+00 1.72531E+00 1.57603E-03-9.17145E-04
 -1     28122-9.93417E+00-2.35901E+00-4.05629E+00 8.15512E-01 6.76144E-03 1.29066E-03
 -1     28123 1.22831E+00 3.28807E-01 5.13239E-01 5.36327E-01-1.07262E-02-8.18378E-05
 -1     28124-1.34889E+01-8.74480E-01-4.74365E+00-3.72791E+00-1.42535E-03 8.53395E-04
 -1     28125-1.66398E+01-1.70760E+00-6.05355E+00-5.34873E+00 7.79508E-04 2.09021E-03
 -1     28126 1.09204E+00-1.19410E-01 3.19793E-01 7.08923E-01-2.34158E-03 4.37761E-04
 -1     28127 9.38784E-01-8.04887E-01 4.38315E-02 1.20890E+00 2.00707E-03-5.59604E-04
 -1     28128-4.82529E+00-5.68872E-01-1.77892E+00 1.37790E+00-4.08872E-03 4.22236E-04
 -1     28129 6.24017E+00 3.84450E+00 3.32752E+00 4.86568E+00-3.73748E-03-2.31640E-03
 -1     28130 5.45730E+00 3.77382E+00 3.05150E+00 4.55315E+00 3.69593E-03 1.58225E-03
 -1     28131 5.74307E+00 3.40500E+00 3.01263E+00 4.60389E+00-9.20693E-04-1.13207E-03
 -1     28132-1.83025E+01-1.99576E+00-6.69951E+00-6.04364E+00-2.25128E-04 8.68175E-04
 -1     28133-1.82102E+01-1.98417E+00-6.66346E+00-6.01387E+00 7.80435E-05 2.01603E-04
 -1     28134 1.11792E+01 7.93060E+00 6.30318E+00 9.48640E+00-2.17829E-03 2.94484E-03
 -1     28135 1.08797E+01 7.16020E+00 5.95294E+00 8.96599E+00 8.20199E-04-4.21561E-03
 -1     28136 1.27789E+01 1.09135E+01 7.81728E+00 1.18073E+01 2.02388E-03 2.95673E-03
 -1     28137 1.19512E+01 1.04792E+01 7.40518E+00 1.12043E+01 3.26088E-03 5.16228E-03
 -1     28138 1.24933E+01 1.07605E+01 7.67608E+00 1.16139E+01 2.21481E-03 3.02704E-03
 -1     28139 1.17455E-01 1.35710E+01 4.49152E+00 6.39656E+00 1.91595E-02-2.47652E-02
 -1     28140 2.69346E-02 1.35257E+01 4.46832E+00 6.30492E+00-1.01592E-02 4.52795E-02
 -1     28141 5.94589E+00 4.06884E+00 3.30477E+00 4.89430E+00 1.98481E-03 8.05598E-04
 -1     28142 8.18284E+00 3.48595E+00 3.85106E+00 4.39361E+00 4.88451E-03-8.45441E-04
 -1     28143 8.36653E+00 3.12517E+00 3.79291E+00 4.47908E+00 2.19257E-04 1.02516E-03
 -1     28144 5.84890E+00 3.96081E+00 3.23594E+00 4.79392E+00 1.84513E-03-1.95468E-04
 -1     28145 8.18269E+00 3.23523E+00 3.76947E+00 4.01643E+00-1.04578E-04-3.64111E-03
 -1     28146-3.57640E+00-3.33567E-01-1.28932E+00 1.75746E+00-3.05584E-03-4.20114E-03
 -1     28147 4.14952E+00 1.58652E+00 1.89565E+00 1.48790E+00-2.04868E-03-3.38376E-03
 -1     28148 4.50227E+00 1.67243E+00 2.03689E+00 1.65193E+00 2.59029E-03-5.88136E-04
 -1     28149 1.13394E+01 1.01676E+01 7.09603E+00 1.07821E+01-2.68212E-03 8.95798E-04
 -1     28150 1.14064E+01 1.02184E+01 7.13785E+00 1.08401E+01 1.60660E-03-1.79738E-03
 -1     28151-1.23351E-01 8.65802E+00 2.83387E+00 7.84895E+00-4.76569E-03 3.60069E-02
 -1     28152 1.13773E+01 8.58981E+00 6.59092E+00 1.00154E+01-4.75919E-04-1.37929E-04
 -1     28153 1.18689E+01 9.41638E+00 7.02528E+00 1.06357E+01 2.34763E-03 6.31411E-04
 -1     28154 6.16322E+00 8.57535E-01 2.31666E+00 4.75275E+00-2.77428E-03 4.31942E-03
 -1     28155 6.90095E+00 1.97278E+00 2.92888E+00 5.49241E+00-2.88234E-03 1.89917E-03
 -1     28156-1.79280E+01-1.94738E+00-6.56029E+00-5.91581E+00-4.93564E-04 2.10435E-04
 -1     28157-1.46799E+01-6.56772E+00-7.00441E+00-1.56123E-01-4.10257E-02 1.81656E-02
 -1     28158 1.02100E+01 9.58319E+00 6.53181E+00 1.00092E+01-5.46380E-04-8.37732E-04
 -1     28159 1.19058E+01 1.04439E+01 7.37399E+00 1.11479E+01 1.22031E-04 9.41655E-04
 -1     28160 1.26234E+01 1.08445E+01 7.74570E+00 1.17069E+01-6.10481E-04-3.37957E-03
 -1     28161-2.83240E+01-2.73700E+00-1.04240E+01-5.90836E+00 7.29513E-02-8.11478E-02
 -1     28162-2.87418E+01-1.84666E+00-1.01367E+01-4.39131E+00 2.62631E-02 3.31335E-03
 -1     28163-1.62306E+01-1.65358E+00-5.90221E+00-5.19929E+00 1.28778E-03 4.26394E-04
 -1     28164-1.85381E+01-1.97882E+00-6.76893E+00-6.04044E+00-8.70763E-04 2.86221E-03
 -1     28165-1.92053E+01-2.08902E+00-7.02749E+00-6.33543E+00 4.52306E-04-1.37817E-03
 -1     28166-1.89479E+01-2.06309E+00-6.93305E+00-6.25748E+00-9.01902E-04 1.23138E-02
 -1     28167-3.31197E+00 4.15734E+00 2.78950E-01 4.05271E+00 7.05580E-04-1.83269E-03
 -1     28168-2.94531E+00 4.42758E+00 4.89863E-01 4.48051E+00 6.47558E-04-2.10670E-03
 -1     28169-3.77792E+00 3.41919E+00-1.18769E-01 3.44650E+00 6.77750E-04 9.13796E-04
 -1     28170 8.25707E+00 3.15763E+00 3.76560E+00 4.08819E+00 5.41368E-04-4.29672E-04
 -1     28171 8.38047E+00 2.82525E+00 3.69823E+00 4.14086E+00 9.28715E-04-1.63899E-04
 -1     28172-1.43587E+01-6.89941E+00-7.01914E+00-7.36792E-01-3.43464E-02-1.57861E-02
 -1     28173-3.17257E+00 3.80214E+00 2.07732E-01 3.96929E+00 7.52553E-05-1.56313E-03
 -1     28174-4.50509E+00 2.54459E+00-6.46971E-01 2.44107E+00 1.42371E-03-3.09516E-04
 -1     28175-3.40892E+00 3.18298E+00-7.57489E-02 3.24107E+00-1.30449E-03-4.88749E-04
 -1     28176-2.21222E+00 4.74256E+00 8.35580E-01 4.88474E+00 3.57548E-03 3.96927E-03
 -1     28177-6.66688E+00-4.01044E-01-2.32524E+00-1.46240E+00 2.41405E-01 1.12964E-01
 -1     28178 1.18744E+01 9.30416E+00 6.98809E+00 1.05724E+01 4.79696E-03 5.72500E-03
 -1     28179-5.08757E+00 4.98711E-01-1.51978E+00-5.92845E-01-2.80821E-02-6.06784E-03
 -1     28180 1.15822E+01 8.93283E+00 6.77205E+00 1.02761E+01 3.02838E-03 1.29381E-03
 -1     28181 1.27054E+01 1.08745E+01 7.78056E+00 1.17625E+01 1.37645E-04-3.12470E-03
 -1     28182-9.98528E+00-9.72601E-01-3.61649E+00-3.09932E+00 4.05757E-03-4.47306E-03
 -1     28183-1.41030E+01-1.20287E+00-5.05150E+00-4.21847E+00 3.51094E-04-2.28142E-03
 -1     28184 1.15158E+01 1.01151E+01 7.13625E+00 1.07962E+01 5.95777E-03-1.79938E-04
 -1     28185 8.64859E+00 2.34820E+00 3.62900E+00 4.38138E+00 9.94964E-04 1.26738E-03
 -1     28186 1.12041E+01 1.00044E+01 7.00316E+00 1.06123E+01-5.96886E-03-7.52295E-03
 -1     28187 1.04094E+01 9.83146E+00 6.68242E+00 1.02080E+01 8.15357E-03 2.61408E-03
 -1     28188 1.04426E+01 9.81184E+00 6.68455E+00 1.01819E+01-6.43941E-03-4.63112E-03
 -1     28189-1.05596E+01-1.47107E+00-3.97150E+00 1.10276E-01-4.42699E-03 3.08145E-03
 -1     28190 8.05420E+00 3.67881E+00 3.87160E+00 4.04328E+00-2.94838E-04-1.40221E-03
 -1     28191-1.09642E+01-2.08680E-01-3.68523E+00-2.30363E+00 1.42644E-03 1.59945E-03
 -1     28192 2.23679E+00 3.34586E-01 8.52270E-01 1.04866E+00-2.10857E-03-8.84001E-04
 -1     28193 2.61892E+00-7.43438E-02 8.37330E-01 1.52493E+00 1.37975E-03 1.62145E-03
 -1     28194 7.24003E-01 1.78108E+00 8.26574E-01 3.23862E+00-5.50974E-04-7.04895E-04
 -1     28195 5.37065E+00 4.09074E+00 3.12592E+00 4.69973E+00 2.97605E-03 3.00919E-03
 -1     28196 5.77412E+00 3.98978E+00 3.22026E+00 4.78931E+00-2.33752E-03-2.08987E-04
 -1     28197 5.52333E+00 4.21517E+00 3.21212E+00 4.81252E+00-5.69684E-04-1.76451E-03
 -1     28198 8.21249E+00 3.42269E+00 3.83835E+00 4.26634E+00 1.01178E-03 3.18340E-04
 -1     28199 8.28353E+00 3.25315E+00 3.80807E+00 4.33151E+00 1.01087E-03-1.44227E-05
 -1     28200-5.03516E+00 2.97092E+00-6.81288E-01 2.14041E+00-1.09810E-03 3.00768E-05
 -1     28201-6.15781E+00 2.26139E+00-1.28580E+00 1.27818E+00 3.07655E-04-8.32480E-04
 -1     28202-5.12537E+00 2.89182E+00-7.37177E-01 1.95339E+00-6.47454E-04 1.44902E-03
 -1     28203 8.45394E+00 2.41532E+00 3.58683E+00 4.12994E+00-1.65831E-04 1.84404E-03
 -1     28204 5.26085E+00 2.01636E+00 2.39913E+00 1.97965E+00-1.06512E-02-2.69984E-03
 -1     28205-1.40177E+01-1.31277E+00-5.05835E+00-4.32131E+00-1.21112E-03-1.23736E-04
 -1     28206-2.69102E+00 1.09167E+00-5.27570E-01 1.61532E+00-5.05961E-04 6.18048E-05
 -1     28207 8.14435E+00 3.57273E+00 3.86650E+00 4.19734E+00-1.82054E-03 2.39490E-03
 -1     28208 8.29698E+00 3.18261E+00 3.78904E+00 4.17419E+00 3.87971E-04 1.69286E-03
 -1     28209-1.80710E+01-1.53877E+00-6.46736E+00-2.40351E+00 1.57026E-02-3.74276E-03
 -1     28210 1.19182E+01 1.04548E+01 7.38011E+00 1.11565E+01-2.55179E-03-6.17450E-03
 -1     28211 1.12256E+01 1.01099E+01 7.04420E+00 1.06889E+01-3.95501E-03 1.29161E-03
 -1     28212-1.37815E+01-6.07134E+00-6.56816E+00 1.88278E-02-5.64887E-03 7.23282E-03
 -1     28213-1.54249E+01-5.26297E+00-6.84296E+00 4.84730E-01-3.22624E-03 7.72614E-03
 -1     28214 9.62304E+00 7.57126E+00 5.67392E+00 8.80083E+00 7.49576E-04 7.98426E-04
 -1     28215-3.45543E+00 4.12749E+00 2.22156E-01 3.57553E+00-1.57264E-04 2.64785E-03
 -1     28216-4.38430E+00 3.41228E+00-3.20529E-01 2.76023E+00 1.97140E-04 1.32984E-03
 -1     28217 5.30214E+00 4.09308E+00 3.09950E+00 4.67040E+00-1.91271E-03-8.44506E-04
 -1     28218 5.21381E+00 4.02469E+00 3.04752E+00 4.58644E+00-4.25524E-04 1.76650E-03
 -1     28219 8.04819E+00 5.85677E+00 4.58826E+00 6.87681E+00-2.65402E-04 5.66247E-03
 -1     28220 4.95632E+00 3.71071E+00 2.85853E+00 4.33694E+00-2.28037E-03 2.58832E-03
 -1     28221 1.10340E+01 9.88812E+00 6.90080E+00 1.04687E+01-3.31685E-04 2.02167E-03
 -1     28222 5.22929E+00 2.97039E+00 2.70536E+00 4.28131E+00 1.85426E-02 2.15343E-03
 -1     28223 1.18617E+01 9.40596E+00 7.01897E+00 1.06226E+01-2.53185E-03-2.35238E-03
 -1     28224-7.88010E+00-1.33338E-02-2.60482E+00-1.26053E+00 1.04383E-03-5.77472E-04
 -1     28225 1.04407E+01 6.77631E+00 5.68250E+00 8.75113E+00-2.24769E-04-3.39623E-04
 -1     28226 1.26839E+01 1.08775E+01 7.77481E+00 1.17543E+01-2.01862E-03-3.24921E-03
 -1     28227 1.25603E+01 1.07929E+01 7.70726E+00 1.16541E+01-2.29458E-03-1.85066E-03
 -1     28228 8.95418E+00 2.24853E+00 3.69552E+00 5.73207E+00 3.12916E-03-8.16880E-04
 -1     28229 8.03785E+00 2.58009E+00 3.50393E+00 5.99016E+00 1.88856E-03-1.61564E-03
 -1     28230 1.24157E+01 1.05835E+01 7.58866E+00 1.14720E+01-6.21158E-04 1.42260E-03
 -1     28231 6.33617E+00 5.34683E-01 2.26738E+00 4.50769E+00-6.96835E-04-4.69944E-04
 -1     28232 1.19342E+01 9.17344E+00 6.96388E+00 1.04959E+01 4.33202E-03 1.95527E-03
 -1     28233 1.17561E+01 8.84821E+00 6.80122E+00 1.02534E+01-7.94752E-04-2.43262E-04
 -1     28234-2.55908E-01 8.91822E+00 2.87973E+00 5.86326E+00 2.35824E-02 1.02971E-02
 -1     28235-3.93500E-02 1.14103E+01 3.74254E+00 6.76212E+00 1.23681E-02-1.25135E-02
 -1     28236-5.26042E+00 2.78222E+00-8.17993E-01 2.06026E+00-5.14415E-04-2.12479E-03
 -1     28237-4.81519E+00 1.29514E+00-1.16215E+00 4.28252E-01 3.17204E-04-7.73773E-05
 -1     28238-1.46712E+01-1.26036E+00-5.25564E+00-4.38741E+00-7.79601E-04-1.25648E-03
 -1     28239 5.11981E+00 3.36731E+00 2.80015E+00 4.27982E+00 7.27367E-03-4.33386E-03
 -1     28240-1.33366E+01-9.25614E-01-4.70632E+00-3.69190E+00 7.92174E-06-6.80783E-04
 -1     28241-4.97713E+00 1.80808E+00-1.04684E+00 1.63063E+00-2.01463E-04-1.42222E-03
 -1     28242-1.55576E+01-1.50034E+00-5.62997E+00-4.83604E+00 1.22123E-03-2.07219E-03
 -1     28243-1.48233E+01-1.26735E+00-5.30865E+00-4.46488E+00-1.84384E-03-1.85983E-04
 -1     28244-1.29707E+00 1.52702E+00 7.55558E-02 2.26204E+00 4.18838E-04 2.94050E-04
 -1     28245-1.63994E+01-1.67998E+00-5.97001E+00-5.26141E+00 3.53234E-04-2.55030E-03
 -1     28246-1.53100E+01-1.39731E+00-5.51485E+00-4.68712E+00-2.00349E-03-1.52796E-03
 -1     28247 7.17590E+00 3.46976E+00 3.51735E+00 4.89843E+00-2.38982E-03-1.54239E-03
 -1     28248-1.52002E+01-1.38380E+00-5.47022E+00-4.65250E+00 1.43504E-03 3.06409E-03
 -1     28249-1.49171E+01-1.31394E+00-5.35618E+00-4.51155E+00 4.75992E-04 1.33742E-03
 -1     28250-1.49551E+01-1.57778E+00-5.45561E+00-4.84824E+00-7.76085E-04-5.72711E-04
 -1     28251-1.47908E+01-1.55060E+00-5.39290E+00-4.79481E+00-1.09155E-03-5.52892E-04
 -1     28252-7.16431E+00-2.25308E-01-2.43259E+00-1.53806E+00 1.18579E-03 1.30849E-02
 -1     28253-7.05204E+00-1.33148E-01-2.37647E+00-1.39294E+00 6.32548E-03-6.25512E-03
 -1     28254-1.46985E+01-6.68859E+00-7.01304E+00-7.53973E-02 7.27285E-02-5.48783E-03
 -1     28255-1.29377E+01-5.78046E+00-6.16028E+00 8.66626E-02 1.40375E-02 5.24555E-03
 -1     28256-1.36030E+01-6.62175E+00-6.66621E+00-8.60344E-01-1.08071E-02 1.53995E-02
 -1     28257-1.61113E+01-7.88834E+00-7.90589E+00-7.51404E-01-2.43924E-02-1.86279E-02
 -1     28258 5.67793E+00 3.88246E+00 3.15543E+00 4.70511E+00-8.38161E-04 1.00131E-03
 -1     28259 7.13973E+00 2.35296E+00 3.13004E+00 3.01837E+00 5.94655E-03 5.60510E-03
 -1     28260 4.62389E+00 1.79722E+00 2.12063E+00 1.68299E+00-6.12485E-03-1.56625E-03
 -1     28261-1.46576E+01-1.25486E+00-5.25319E+00-4.41097E+00 4.81440E-04 2.57164E-03
 -1     28262-1.28110E+01-8.44202E-01-4.50630E+00-3.58579E+00 7.03345E-04 2.08830E-04
 -1     28263-1.68554E+01-1.75273E+00-6.14065E+00-5.44648E+00-2.72010E-04-1.66242E-03
 -1     28264-1.66806E+01-1.71947E+00-6.07226E+00-5.37489E+00 1.45552E-03 6.39008E-04
 -1     28265-1.72544E+01-1.82358E+00-6.29679E+00-5.61733E+00-6.06313E-04-1.14531E-03
 -1     28266-1.44217E+01-1.17279E+00-5.14726E+00-4.26059E+00 1.30425E-03 1.58448E-03
 -1     28267 5.91611E+00 1.04167E-01 1.98659E+00 3.45843E+00-8.12558E-04-7.63679E-04
 -1     28268 7.83381E+00 6.12402E+00 4.60373E+00 6.92578E+00 2.38554E-04 2.53077E-03
 -1     28269-2.43759E+01-8.09323E+00-1.06514E+01 1.02279E+00-5.73386E-03 3.75298E-03
 -1     28270-1.05664E+01-1.03322E+00-3.82722E+00-3.29617E+00-3.91646E-03-3.16009E-03
 -1     28271-8.48949E+00-3.47685E-01-2.91890E+00-1.90352E+00 1.61671E-03 4.66645E-03
 -1     28272-1.45431E+01-1.19027E+00-5.19271E+00-4.28821E+00-1.59127E-03-6.31334E-03
 -1     28273-1.56133E+01-1.51315E+00-5.65110E+00-4.90301E+00-4.96606E-04 3.40335E-03
 -1     28274-1.54518E+01-1.48484E+00-5.58905E+00-4.83120E+00-3.11172E-03-1.47411E-03
 -1     28275 6.92450E+00 7.61457E+00 4.79792E+00 7.70602E+00-1.16412E-03 7.10169E-05
 -1     28276-1.68557E+01-1.74030E+00-6.13665E+00-5.41850E+00 1.48439E-03-2.13600E-03
 -1     28277-1.55960E+01-1.50445E+00-5.64360E+00-4.89426E+00 1.28874E-03-3.16203E-03
 -1     28278-1.77277E+01-7.17792E+00-8.25059E+00 1.54349E-01 8.64546E-02-3.27579E-02
 -1     28279 5.08080E+00 2.04863E+00 2.34990E+00 1.87190E+00-6.46803E-03-1.55337E-03
 -1     28280 5.30442E+00 1.63488E+00 2.28529E+00 2.08411E+00-7.68883E-03 1.43326E-04
 -1     28281 5.01079E+00 1.36702E+00 2.10320E+00 2.01588E+00-4.89041E-03-5.17522E-03
 -1     28282 5.62382E+00 1.54103E+00 2.36451E+00 2.28719E+00 6.12330E-03-3.86365E-04
 -1     28283-2.86564E+01-2.51999E+00-1.02865E+01-3.51303E+00 1.39079E-01 1.37720E-01
 -1     28284 5.36028E+00-6.40785E-03 1.76679E+00 3.10318E+00-2.95658E-04 5.59215E-04
 -1     28285 8.61196E+00 3.02267E+00 3.83991E+00 6.33383E+00-1.75554E-04-2.58147E-04
 -1     28286 8.51921E+00 2.91492E+00 3.77312E+00 4.56759E+00 3.76323E-04 1.82908E-04
 -1     28287 8.66166E+00 2.74227E+00 3.76331E+00 4.65488E+00-8.44558E-04 3.91731E-05
 -1     28288-1.82366E+01-1.88847E+00-6.64362E+00-5.83439E+00 2.99293E-03-7.23723E-03
 -1     28289-1.71839E+01-1.77260E+00-6.25414E+00-5.48385E+00-2.28079E-03 7.06775E-04
 -1     28290-4.08797E+00 3.51472E+00-1.89569E-01 3.22599E+00-2.41368E-03-2.88335E-03
 -1     28291 1.12210E+01 1.01085E+01 7.03983E+00 1.06895E+01 1.17539E-03 3.50338E-04
 -1     28292-2.02563E-01 1.05405E+01 3.40600E+00 6.75616E+00-2.18346E-02-1.11460E-02
 -1     28293-2.04247E-01 9.89403E+00 3.19322E+00 7.13344E+00 1.20174E-04-2.31498E-03
 -1     28294-1.87853E+00-1.15777E+00-1.00245E+00 2.43515E+00-3.77787E-04-1.13252E-03
 -1     28295-2.84447E-01 9.54661E+00 3.05955E+00 6.95180E+00-1.56869E-03-4.30888E-03
 -1     28296 7.86765E+00 2.82953E+00 3.52356E+00 3.55004E+00-6.51319E-03 1.06906E-03
 -1     28297 6.04485E-01-1.14644E+00-1.79175E-01 1.32793E+00 4.78441E-04-3.89217E-04
 -1     28298 3.66944E-01 8.64278E+00 2.96993E+00 7.41772E+00-4.41742E-02 1.38359E-02
 -1     28299-1.93533E+01-2.11255E+00-7.08923E+00-6.38665E+00-5.89639E-04-3.50959E-03
 -1     28300 1.89535E+00 8.32584E+00 3.35379E+00 6.73697E+00 3.25979E-02-3.04079E-02
 -1     28301-1.07387E+00-1.20360E+00-7.54786E-01 4.10995E-01 1.46634E-03 4.30815E-04
 -1     28302-4.44546E-01-1.34260E+00-5.91841E-01 9.92746E-01-2.98403E-03 4.54907E-03
 -1     28303-1.54530E-02-8.97076E-01-2.99792E-01 7.07729E-01-1.63267E-04-2.89729E-03
 -1     28304-1.26183E+01-7.59392E-01-4.41436E+00-3.46345E+00-4.31605E-04 1.41339E-03
 -1     28305-2.71993E-01 9.60441E+00 3.07818E+00 6.99938E+00 2.09842E-03 4.14176E-03
 -1     28306-1.26459E-01 9.93474E+00 3.23584E+00 6.65858E+00 5.04861E-03-1.28881E-04
 -1     28307-1.50688E+00 3.90355E+00 7.90982E-01 2.99548E+00-3.47608E-04-1.67175E-04
 -1     28308 7.20225E+00 5.57893E+00 4.21940E+00 6.34457E+00 2.14368E-04 1.73106E-03
 -1     28309 8.21550E+00 3.43029E+00 3.84472E+00 4.36938E+00-1.87989E-03 4.13798E-03
 -1     28310-1.84761E+01-1.87478E+00-6.71465E+00-5.86306E+00 1.80384E-03-5.44898E-03
 -1     28311-1.78603E+01-1.94316E+00-6.53575E+00-5.89123E+00 9.30447E-04 2.26765E-03
 -1     28312-1.47220E+01-1.18879E+00-5.25078E+00-3.65288E+00 3.69986E-04 4.47222E-04
 -1     28313-1.23087E+00-1.36834E+00-8.56644E-01 5.08310E-01 3.55382E-03 3.55866E-04
 -1     28314-1.03837E+01-1.99763E+00-4.08716E+00 6.11115E-01 5.20076E-06 5.14828E-03
 -1     28315 1.16399E+01 1.01982E+01 7.20347E+00 1.09254E+01-1.99780E-03-9.63269E-05
 -1     28316 1.28095E+01 1.09364E+01 7.83435E+00 1.18423E+01 7.90565E-05-2.33066E-03
 -1     28317 1.17692E+01 8.89889E+00 6.81953E+00 1.03155E+01 1.39058E-04-3.94998E-03
 -1     28318 1.21601E+01 9.55556E+00 7.16525E+00 1.08224E+01-3.83432E-03 1.93062E-03
 -1     28319-1.12101E+01-6.06897E-01-3.89781E+00-2.81515E+00-2.02015E-03-1.08678E-03
 -1     28320-9.15615E+00 2.66855E-01-2.93404E+00-1.25878E+00-1.39460E-04 7.65445E-04
 -1     28321-2.66670E+01-1.87820E+00-9.43701E+00-5.54793E+00 1.30262E-01 4.91161E-02
 -1     28322 5.38406E+00 3.35109E+00 2.88277E+00 5.48701E+00-3.52745E-05-1.66432E-03
 -1     28323 3.98625E+00 9.09403E-01 1.61574E+00 1.67443E+00 2.02649E-03 4.68914E-03
 -1     28324 9.09125E+00 5.04961E+00 4.66541E+00 6.89601E+00-1.36863E-03-1.92613E-03
 -1     28325 5.62559E+00 3.33554E+00 2.95634E+00 4.54542E+00-3.84140E-03-1.27152E-04
 -1     28326-1.06089E+01-2.43882E-01-3.58153E+00-2.48085E+00-9.55095E-04-2.44035E-04
 -1     28327 5.89996E+00 3.08317E+00 2.96318E+00 4.64931E+00 9.15692E-03 5.48211E-04
 -1     28328-1.36634E+01-1.35506E+00-4.95857E+00-4.31227E+00-8.08257E-04 1.18942E-04
 -1     28329-1.30040E+01-1.12441E+00-4.66423E+00-3.86318E+00-1.01969E-03-5.72915E-04
 -1     28330 6.74908E+00 2.09928E+00 2.91550E+00 2.80650E+00 4.19272E-05-1.82575E-03
 -1     28331 5.37907E+00 4.15594E+00 3.14668E+00 4.72087E+00 2.45120E-03-4.67036E-04
 -1     28332 1.26541E+01 1.08092E+01 7.74022E+00 1.16922E+01-1.53996E-03-1.49283E-03
 -1     28333 1.14886E+01 1.01671E+01 7.14431E+00 1.08340E+01-3.84625E-04-9.35584E-04
 -1     28334 8.41998E+00 4.99998E+00 4.42760E+00 6.55957E+00-5.24844E-04-1.13362E-03
 -1     28335 8.35326E+00 5.59392E+00 4.60201E+00 6.85641E+00 1.84973E-03 1.30210E-03
 -1     28336 8.25467E+00 5.49918E+00 4.54014E+00 6.76181E+00 1.55476E-03 3.11215E-03
 -1     28337 8.61335E+00 5.84165E+00 4.77069E+00 7.13509E+00-1.84530E-03-1.52982E-03
 -1     28338 9.02817E+00 6.04587E+00 4.97503E+00 7.41498E+00 8.93444E-04-5.63791E-03
 -1     28339 1.02493E+01 9.26767E+00 6.44505E+00 9.76642E+00 5.93770E-04-6.73288E-04
 -1     28340-6.22595E+00 5.91035E-02-1.95915E+00-1.52368E+00 8.49298E-02-7.89888E-02
 -1     28341 8.93166E+00 5.41500E+00 4.73143E+00 7.02849E+00 3.60694E-03 2.59294E-03
 -1     28342-3.90104E+00 2.37442E+00-5.03786E-01 1.26283E+00-6.78469E-05-1.69782E-04
 -1     28343 1.18602E+01 1.02972E+01 7.30932E+00 1.10735E+01-5.41497E-04-8.00238E-05
 -1     28344 8.08033E+00 3.76296E+00 3.90815E+00 4.25241E+00 2.75495E-04 1.03699E-03
 -1     28345-1.20003E+01-5.40177E-01-4.13822E+00-3.10546E+00 7.57125E-04 9.18870E-04
 -1     28346 1.03037E+01 9.50478E+00 6.53610E+00 1.00049E+01 2.78253E-03 3.79705E-04
 -1     28347 4.35761E+00 2.52836E+00 2.27291E+00 4.90855E+00 1.14878E-03-6.57593E-04
 -1     28348 1.18256E+01 1.03601E+01 7.32233E+00 1.10887E+01-2.01025E-03-1.39983E-03
 -1     28349 8.54663E+00 5.66484E+00 4.68919E+00 7.00018E+00 3.19106E-03 1.49171E-03
 -1     28350 7.59643E+00 5.32987E+00 4.26699E+00 6.37865E+00-1.55240E-03 3.92869E-04
 -1     28351 7.72587E+00 5.01258E+00 4.20342E+00 6.24070E+00-6.60169E-04 1.79205E-03
 -1     28352 7.78606E+00 5.31852E+00 4.32098E+00 6.45041E+00-4.45001E-03-2.40275E-03
 -1     28353-1.69887E+01-1.77519E+00-6.19205E+00-5.49791E+00-1.27923E-03-5.50195E-04
 -1     28354-1.37399E+01-1.01584E+00-4.86931E+00-3.89697E+00-1.01906E-04 7.49692E-04
 -1     28355-2.66195E-01 4.60186E+00 1.43090E+00 3.78483E+00-1.70124E-04 2.54396E-04
 -1     28356-2.32179E+01-4.56574E+00-9.16097E+00 5.86076E-02-2.46455E-02-1.39203E-02
 -1     28357 1.33992E+01 1.12397E+01 8.13046E+00 1.22729E+01-1.11656E-03 9.91564E-04
 -1     28358-1.91769E+01-8.23686E+00-9.03625E+00 1.83381E-01 3.85851E-02 1.48439E-02
 -1     28359-2.05656E+01-7.04495E+00-9.13971E+00 8.35095E-01 3.51858E-02-7.87900E-03
 -1     28360-1.98315E+01-1.88752E+00-7.16743E+00-5.95272E+00-1.00354E-02-7.39664E-03
 -1     28361-1.58114E+01-1.54070E+00-5.72569E+00-4.97167E+00-6.02045E-04 2.29911E-03
 -1     28362-1.61899E-01 9.02156E+00 2.91876E+00 7.71571E+00-2.60560E-03-2.11061E-02
 -1     28363-2.22795E+01-4.98654E+00-9.04077E+00 2.96120E-01 1.13626E-02-4.35326E-02
 -1     28364 6.05931E+00 4.07369E+00 3.34529E+00 4.93675E+00-1.21766E-03 2.28160E-04
 -1     28365 6.33811E+00 3.85385E+00 3.36215E+00 4.90196E+00 3.51435E-03 1.92542E-03
 -1     28366 5.80308E+00 3.99519E+00 3.23180E+00 4.80129E+00 1.57587E-04-7.39124E-04
 -1     28367 5.62343E+00 3.87840E+00 3.13515E+00 4.68159E+00 1.66695E-03-9.91104E-04
 -1     28368 9.66455E+00 9.58518E+00 6.35320E+00 9.74008E+00-4.89241E-03-3.22189E-03
 -1     28369 1.20171E+01 9.32104E+00 7.04243E+00 1.06393E+01-7.29362E-04-4.68749E-04
 -1     28370 1.22447E+01 9.67453E+00 7.23087E+00 1.09157E+01 1.87210E-03-1.32070E-03
 -1     28371 9.07003E+00 5.10420E+00 4.67711E+00 6.91881E+00 1.82567E-04 1.00638E-03
 -1     28372-9.27192E+00-7.15392E-04-3.06111E+00-1.61666E+00 2.63614E-03 2.66774E-03
 -1     28373-2.20322E-01 9.68350E+00 3.12990E+00 7.30794E+00 3.09232E-03-7.87666E-04
 -1     28374 8.21961E+00 3.35355E+00 3.81851E+00 4.17353E+00-5.29542E-03 2.12007E-03
 -1     28375 7.66117E+00 3.26354E+00 3.59926E+00 3.41800E+00-2.59980E-03 3.45219E-03
 -1     28376-4.20736E+00-2.38594E+00-2.17616E+00-1.97910E-01-4.23407E-03 3.86189E-03
 -1     28377-3.39483E+00-2.05655E+00-1.79586E+00-1.98435E-01 7.27058E-03-4.33440E-03
 -1     28378-1.10768E+01-1.07888E+00-4.01397E+00-3.44975E+00 1.40502E-03-3.76969E-03
 -1     28379 6.50175E+00 3.94562E+00 3.44461E+00 5.00182E+00 1.03971E-03-1.15742E-03
 -1     28380 5.85128E+00 5.11100E+00 3.61759E+00 6.20325E+00-4.22531E-04-1.46074E-04
 -1     28381-2.22397E+00 1.57758E+00-2.13431E-01 1.77160E+00-1.21249E-04 8.96794E-04
 -1     28382-2.24651E+01-9.81569E+00-1.06777E+01 5.64694E-01-3.36354E-02 3.72226E-02
 -1     28383-1.88186E+01-8.23833E+00-8.95863E+00-1.14884E-01-2.69266E-03 8.49192E-03
 -1     28384-1.67381E+01-1.75840E+00-6.10050E+00-5.43508E+00-2.99499E-03-1.45327E-03
 -1     28385-1.54164E+01-1.42091E+00-5.55554E+00-4.75251E+00-9.56449E-04-1.51356E-03
 -1     28386-8.68468E-01 4.49354E+00 1.21888E+00 3.50335E+00 3.57781E-02-5.16393E-02
 -1     28387 8.51289E+00 8.12169E+00 5.49447E+00 8.30075E+00-2.93373E-02 3.85082E-03
 -1     28388 8.97713E+00 8.43647E+00 5.75227E+00 8.75009E+00-5.13896E-03-3.09117E-03
 -1     28389 8.28163E+00 3.26999E+00 3.81312E+00 4.50761E+00 1.85577E-03 2.94679E-03
 -1     28390 5.31931E+00 3.48924E+00 2.90539E+00 4.40771E+00-3.00506E-03-3.02358E-04
 -1     28391-3.33010E-01 8.38319E+00 2.67897E+00 5.53486E+00-1.19739E-03 3.23675E-04
 -1     28392 8.13013E+00 3.31862E+00 3.77722E+00 4.70300E+00-1.23355E-04-1.80398E-04
 -1     28393 8.12536E+00 3.50075E+00 3.83621E+00 4.50590E+00-4.46888E-03 2.36571E-03
 -1     28394-1.56485E+01-1.48282E+00-5.65218E+00-4.87286E+00 1.27228E-03 5.33630E-04
 -1     28395-1.05562E+01-5.18570E-01-3.65493E+00-2.53721E+00-2.02743E-03-3.46754E-03
 -1     28396-2.07425E+01-1.66353E+00-7.39158E+00-5.60121E+00 9.51963E-03 1.62496E-02
 -1     28397 7.54458E+00 5.06463E+00 4.16071E+00 6.19579E+00-4.34147E-03-7.17499E-04
 -1     28398 8.84099E+00 5.89681E+00 4.86441E+00 7.25491E+00 3.71905E-03 2.49062E-03
 -1     28399 8.33309E+00 5.63636E+00 4.60963E+00 6.88053E+00 1.09286E-03-2.79259E-03
 -1     28400 8.09822E+00 5.49838E+00 4.48856E+00 6.69749E+00-9.18913E-03-5.72725E-03
 -1     28401 7.01276E+00 8.91035E+00 5.25520E+00 8.27370E+00 1.65159E-03-3.09059E-03
 -1     28402 1.09434E+01 7.85657E+00 6.20509E+00 9.31168E+00 1.52290E-03 3.55723E-03
 -1     28403-1.08243E+01-5.06534E+00-5.23241E+00 3.58203E-02 2.72728E-02-1.27112E-02
 -1     28404 2.20161E+00 6.97636E-01 9.55722E-01 8.42683E-01 4.62187E-04 5.08673E-04
 -1     28405 4.39715E+00 1.70910E+00 2.01158E+00 1.58040E+00-3.96781E-03 3.05480E-03
 -1     28406 1.24399E+01 1.00505E+01 7.42032E+00 1.12081E+01-1.50301E-03-2.38119E-03
 -1     28407 6.20976E+00 1.84356E+00 2.65633E+00 2.53417E+00-5.07823E-03 3.62069E-03
 -1     28408 5.07761E+00 3.34785E+00 2.78818E+00 4.24842E+00-2.33066E-03 5.50501E-04
 -1     28409 9.13065E+00 6.02803E+00 5.00370E+00 7.46496E+00 4.62377E-03 7.57995E-03
 -1     28410 1.12431E+01 8.06165E+00 6.36746E+00 9.57841E+00 2.83781E-03-1.24307E-03
 -1     28411-2.30629E+01-1.15397E+01-1.13402E+01 6.00525E-01 3.62838E-02 9.53131E-02
 -1     28412-3.25332E+01-1.21333E+00-1.09193E+01-4.98876E+00-2.90576E-01 2.51867E-01
 -1     28413-1.12201E+01-7.51598E-01-3.95436E+00-2.98225E+00 9.10520E-03 6.09934E-03
 -1     28414 3.56975E+00 8.42833E+00 3.95717E+00 7.02320E+00-1.43648E-02 2.42279E-02
 -1     28415-1.69647E+01-1.76965E+00-6.18188E+00-5.49429E+00 1.79298E-04 1.24815E-03
 -1     28416 1.17267E+01 8.80661E+00 6.77460E+00 1.02046E+01 1.09039E-03 1.00420E-03
 -1     28417 1.15751E+01 8.57902E+00 6.64913E+00 1.00225E+01 1.58457E-04 3.96519E-03
 -1     28418 1.21784E+01 9.53662E+00 7.16340E+00 1.08108E+01 1.61462E-03 7.92878E-04
 -1     28419 1.22186E+01 1.04209E+01 7.47121E+00 1.12997E+01 1.79060E-04-5.38780E-04
 -1     28420 1.28665E+01 1.08118E+01 7.81298E+00 1.18002E+01-1.62943E-03-2.85074E-04
 -1     28421-1.46203E+01-1.24990E+00-5.23630E+00-4.35917E+00 4.37486E-04-1.12617E-04
 -1     28422 1.21966E+01 9.69002E+00 7.22199E+00 1.09040E+01-1.11203E-03 1.51133E-03
 -1     28423-8.46163E-02 1.10925E+01 3.62400E+00 6.87066E+00 1.58027E-02 8.05591E-03
 -1     28424-1.67569E+01-1.73467E+00-6.10200E+00-5.40811E+00 9.71019E-04 2.00259E-03
 -1     28425-7.55220E+00-2.20451E-01-2.56707E+00-1.56673E+00 3.76021E-03 5.13326E-03
 -1     28426 7.99023E+00 2.89248E+00 3.58655E+00 3.66913E+00-4.00408E-03 5.46705E-03
 -1     28427-1.75381E+01-1.84572E+00-6.39688E+00-5.67375E+00-8.35726E-05-2.84013E-03
 -1     28428 1.11712E+01 1.01216E+01 7.03198E+00 1.06659E+01 7.80504E-03-6.68593E-03
 -1     28429 9.32268E+00 5.81723E+00 4.99922E+00 7.44194E+00-1.65213E-03-4.34229E-03
 -1     28430-2.12013E+01-1.83794E+00-7.60417E+00-5.99361E+00-5.57658E-04 1.42587E-02
 -1     28431 1.18014E+01 1.01956E+01 7.25648E+00 1.10001E+01 2.32235E-03-2.38546E-03
 -1     28432 8.21459E+00 3.40751E+00 3.83548E+00 4.38287E+00 1.64268E-03-1.02917E-03
 -1     28433 4.77112E+00 2.77580E+00 2.49681E+00 3.86625E+00-2.72778E-03-3.49434E-03
 -1     28434 4.68291E+00 3.17686E+00 2.59519E+00 3.88430E+00-2.14550E-03 1.56922E-03
 -1     28435-1.33907E+01-1.00984E+00-4.75279E+00-3.79864E+00 1.08133E-03-3.85192E-04
 -1     28436 1.10601E+01 7.95901E+00 6.27830E+00 9.44135E+00-1.69800E-03-3.80956E-04
 -1     28437-5.21422E+00-3.08023E+00-2.74139E+00 9.92495E-02 4.05595E-03 5.54978E-03
 -1     28438 1.22777E+01 9.80134E+00 7.28531E+00 1.09998E+01 1.97598E-03-1.06505E-03
 -1     28439 4.81257E+00 2.78884E+00 2.50642E+00 3.88229E+00-3.70095E-03 2.50875E-04
 -1     28440 1.13599E+01 8.17892E+00 6.44571E+00 9.69098E+00 1.54169E-03-4.86477E-04
 -1     28441-8.23686E-03-8.75314E-01-2.96219E-01 6.91123E-01-3.44521E-03 8.02838E-03
 -1     28442-2.03984E+01-1.88519E+00-7.35608E+00-6.06506E+00-1.78150E-03-1.32234E-03
 -1     28443 6.53675E+00 4.38144E+00 3.60329E+00 5.33783E+00-1.23907E-03-1.42730E-03
 -1     28444-6.99036E+00-1.37611E-01-2.35027E+00-1.39352E+00-4.02874E-03-3.76544E-03
 -1     28445-1.14741E+01-9.77892E-01-4.10993E+00-3.35190E+00 6.71315E-03-2.01434E-04
 -1     28446-1.08336E+01-6.76584E-01-3.80225E+00-2.81298E+00 5.36501E-03 1.12111E-03
 -1     28447-1.42408E+01-1.17484E+00-5.08715E+00-4.19298E+00 7.44366E-04-1.18868E-03
 -1     28448-3.28122E-01 8.34263E+00 2.61073E+00 5.21854E+00-2.94951E-02-1.23412E-02
 -1     28449-2.20170E+01-1.84214E+00-7.85696E+00-6.13320E+00-3.19943E-02 2.20002E-02
 -1     28450-1.69949E+01-1.76169E+00-6.18952E+00-5.47027E+00-8.08440E-04 6.78147E-04
 -1     28451 1.17861E+01 8.81824E+00 6.79645E+00 1.02521E+01-3.35979E-03 2.45669E-03
 -1     28452-1.67527E+01-1.73418E+00-6.10105E+00-5.40900E+00-9.58365E-04-7.08466E-04
 -1     28453-1.61384E+01-1.59936E+00-5.85322E+00-5.12222E+00 1.35848E-04-1.91802E-04
 -1     28454 6.70279E+00 2.11073E+00 2.90632E+00 2.77651E+00-8.41203E-04 3.23556E-03
 -1     28455-6.41974E+00 9.58832E-02-2.02994E+00-1.48864E+00-8.52919E-02 4.54214E-02
 -1     28456-1.43255E+01-1.17559E+00-5.11526E+00-4.21618E+00 2.24823E-04-8.38204E-04
 -1     28457 1.19718E+01 1.03082E+01 7.35026E+00 1.11377E+01-1.36402E-03 1.57078E-03
 -1     28458 1.14201E+01 1.01623E+01 7.12201E+00 1.08087E+01-2.16159E-03-1.51889E-04
 -1     28459-2.31964E+01-8.42699E+00-1.04527E+01 8.19673E-01 1.35504E-01-4.05669E-02
 -3
    1PSTEP                         3           1           1          
  100CL  101 1.000000000        8053                     0    1           1
 -4  TOSTRAIN    6    1
 -5  EXX         1    4    1    1
 -5  EYY         1    4    2    2
 -5  EZZ         1    4    3    3
 -5  EXY         1    4    1    2
 -5  EYZ         1    4    2    3
 -5  EZX         1    4    3    1
 -1     20407-4.79336E-03 4.81362E-02 3.42858E-05 1.03736E-01 1.42310E-04 3.12245E-04
 -1     20408 3.57646E-03 4.43097E-02 1.36067E-05 1.01201E-01-4.24808E-04-8.11548E-04
 -1     20409 3.44056E-02 1.30412E-03 1.68885E-04 5.86411E-02 5.93976E-04 1.95238E-04
 -1     20410 3.49363E-02 1.10716E-03 1.66659E-04 5.92645E-02-6.20332E-04-3.37492E-04
 -1     20411-6.74514E-02 8.14486E-02-1.92909E-04 4.46310E-02-2.37594E-03 3.44512E-03
 -1     20412-7.10089E-02 7.86551E-02 1.38480E-03 3.63939E-02-2.56767E-03-9.43865E-05
 -1     20413-6.43944E-01 1.53068E-01 2.07336E-03 4.42213E-02 3.68554E-03-1.56087E-02
 -1     20414-5.81779E-01 1.36042E-01 8.03034E-05 2.39711E-02-9.28225E-03 2.01792E-02
 -1     20415 6.88981E-02 3.56677E-02-1.53810E-04 1.45659E-01-6.39924E-04 7.44140E-04
 -1     20416 7.62988E-02 4.56998E-02-1.05220E-04 1.77663E-01 4.30635E-05-9.64516E-05
 -1     20417 8.44554E-02 5.05860E-02-1.86523E-04 1.97134E-01 3.98219E-05 1.17514E-05
 -1     20418 9.02423E-02 5.39968E-02-6.31395E-05 2.10482E-01 4.64655E-05 1.10172E-04
 -1     20419 9.49291E-02 5.59282E-02 5.17335E-05 2.20433E-01-1.20631E-04-6.74854E-05
 -1     20420 9.77392E-02 5.78627E-02-1.38464E-04 2.27717E-01 1.23652E-04 6.77764E-06
 -1     20421 9.99715E-02 5.91572E-02-4.19825E-05 2.32886E-01-2.27833E-05 1.45641E-05
 -1     20422 1.01520E-01 5.99984E-02 1.85361E-05 2.36228E-01 9.72747E-06-2.93536E-05
 -1     20423 1.02555E-01 6.06713E-02-3.17876E-05 2.39009E-01 7.49167E-06-1.21138E-06
 -1     20424 1.03124E-01 6.09896E-02 3.68792E-05 2.40337E-01-1.61765E-05 1.30652E-05
 -1     20425 1.03252E-01 6.11606E-02 6.68605E-06 2.40776E-01-1.12505E-06 1.90098E-05
 -1     20426 1.03008E-01 6.10341E-02-8.92687E-06 2.40251E-01 1.49195E-05 2.04585E-05
 -1     20427 1.02319E-01 6.06670E-02-4.97758E-06 2.38680E-01 3.20338E-05 1.15615E-05
 -1     20428 1.01175E-01 5.99320E-02 4.01219E-05 2.35984E-01 6.96654E-06 1.26571E-05
 -1     20429 9.95126E-02 5.89395E-02-3.76798E-05 2.32003E-01 4.43337E-05 3.02573E-05
 -1     20430 9.74168E-02 5.75664E-02-8.09530E-06 2.26771E-01 1.00585E-05 3.63130E-05
 -1     20431 9.46367E-02 5.58321E-02-2.26685E-05 2.20232E-01-3.12208E-05 2.06740E-05
 -1     20432 9.11048E-02 5.38204E-02 1.78366E-05 2.12195E-01 5.39611E-05 6.69017E-05
 -1     20433 8.72461E-02 5.13120E-02-1.34166E-05 2.02825E-01-2.23098E-05 1.96758E-05
 -1     20434 8.26291E-02 4.86123E-02 2.34078E-06 1.92182E-01 4.44767E-05 5.98848E-05
 -1     20435 7.76397E-02 4.55757E-02-5.06279E-06 1.80359E-01 5.01369E-05 3.72474E-05
 -1     20436 7.24903E-02 4.22518E-02 2.64447E-05 1.68052E-01-3.67027E-05-7.31092E-05
 -1     20437 6.71244E-02 3.89047E-02-9.97050E-06 1.55283E-01-2.46328E-06 4.67772E-05
 -1     20438 6.12532E-02 3.58697E-02 1.43118E-05 1.42343E-01 1.32146E-05 3.78411E-05
 -1     20439 5.58981E-02 3.27421E-02 1.10671E-06 1.29932E-01 8.73609E-06 8.70940E-05
 -1     20440 5.09360E-02 2.98605E-02-3.01213E-05 1.18393E-01 2.17149E-05 2.01101E-06
 -1     20441 4.65035E-02 2.73041E-02-2.30437E-05 1.08228E-01 2.52894E-05 2.40543E-05
 -1     20442 4.29573E-02 2.50063E-02 1.96828E-05 9.97922E-02-9.84653E-06-4.97745E-05
 -1     20443 3.99160E-02 2.36454E-02-1.06231E-05 9.31838E-02-2.03432E-05 1.34839E-05
 -1     20444 3.74293E-02 2.26241E-02 6.16928E-05 8.79839E-02 5.81525E-06 7.20725E-07
 -1     20445 3.54744E-02 2.16729E-02 9.63027E-06 8.35309E-02-3.65736E-06-2.32564E-05
 -1     20446 3.25885E-02 2.12414E-02-3.36051E-05 7.79616E-02-2.77381E-04 1.61731E-04
 -1     20447 6.34010E-02 3.85061E-02 4.63621E-04 1.44500E-01 4.38179E-05-1.13950E-03
 -1     20448 7.64854E-02 4.54159E-02 6.59522E-05 1.77147E-01 1.50095E-04-1.96293E-04
 -1     20449 8.47524E-02 5.03207E-02-6.46892E-05 1.97073E-01 1.23864E-05 4.06541E-05
 -1     20450 9.05319E-02 5.37609E-02-5.13058E-05 2.10887E-01 5.14315E-05 1.37967E-05
 -1     20451 9.46342E-02 5.61335E-02 4.79406E-05 2.20728E-01 8.46429E-07-3.09384E-05
 -1     20452 9.76142E-02 5.79187E-02-2.51296E-06 2.27701E-01-9.89604E-05-1.31719E-05
 -1     20453 9.98959E-02 5.91329E-02-3.03505E-06 2.32828E-01 1.01572E-05 3.43726E-05
 -1     20454 1.01527E-01 6.00031E-02 4.73440E-06 2.36481E-01-1.21283E-06-1.59447E-05
 -1     20455 1.02581E-01 6.06163E-02 1.21312E-05 2.38919E-01 3.32959E-06-5.92591E-07
 -1     20456 1.03171E-01 6.09840E-02-8.11935E-06 2.40334E-01 2.05505E-06-9.09789E-06
 -1     20457 1.03304E-01 6.11592E-02-2.89056E-05 2.40705E-01 9.35309E-06-1.02311E-05
 -1     20458 1.03042E-01 6.10172E-02-1.12111E-05 2.40284E-01 4.44919E-06-9.07252E-06
 -1     20459 1.02279E-01 6.07221E-02-8.92944E-06 2.38545E-01-8.09435E-05-3.64002E-05
 -1     20460 1.01344E-01 5.98250E-02-9.37484E-06 2.35796E-01 4.07676E-05 3.46289E-05
 -1     20461 9.96986E-02 5.88861E-02-5.96120E-05 2.32097E-01 5.39569E-05 2.07197E-05
 -1     20462 9.76054E-02 5.73715E-02 5.38718E-05 2.26951E-01-1.22300E-05-1.23078E-05
 -1     20463 9.47800E-02 5.57611E-02-1.13836E-05 2.20324E-01 2.68778E-05-1.48610E-05
 -1     20464 9.14215E-02 5.35883E-02 5.21927E-05 2.12343E-01-3.37834E-05-2.98709E-06
 -1     20465 8.74242E-02 5.12454E-02-1.45219E-05 2.02950E-01 2.80654E-05-1.22211E-05
 -1     20466 8.28284E-02 4.84744E-02 4.89512E-05 1.92291E-01-1.87244E-05-2.00717E-05
 -1     20467 7.77518E-02 4.55789E-02 3.05259E-05 1.80616E-01 1.73716E-05-3.96025E-05
 -1     20468 7.23755E-02 4.23927E-02 2.13996E-05 1.68036E-01-1.78586E-05-1.46294E-05
 -1     20469 6.69170E-02 3.90455E-02 1.41786E-06 1.55194E-01-5.05955E-05-1.04439E-05
 -1     20470 6.13798E-02 3.58402E-02-1.58973E-05 1.42391E-01-1.95047E-05-3.22318E-05
 -1     20471 5.60490E-02 3.25901E-02-3.12654E-05 1.29947E-01-5.27810E-05-3.06936E-05
 -1     20472 5.10992E-02 2.96687E-02-7.77868E-06 1.18347E-01 4.80433E-05-1.46195E-05
 -1     20473 4.66621E-02 2.71075E-02-3.09587E-05 1.08195E-01-4.35266E-06 2.02670E-05
 -1     20474 4.29451E-02 2.49773E-02 4.02776E-05 9.97585E-02 1.06629E-05 2.77020E-05
 -1     20475 3.98050E-02 2.36610E-02 4.60693E-05 9.31368E-02-2.37337E-06-4.89109E-05
 -1     20476 3.73324E-02 2.27263E-02 7.41379E-06 8.80128E-02-7.19290E-06-5.90397E-06
 -1     20477 3.54500E-02 2.16624E-02 5.05172E-06 8.34914E-02-4.44560E-05 4.39794E-05
 -1     20478 3.28797E-02 2.08264E-02 1.79403E-05 7.79072E-02 2.93601E-04-1.50154E-04
 -1     20479-7.54023E-02 1.93819E-01-4.50108E-03 1.52010E-01 2.83467E-03 3.76039E-03
 -1     20480-9.40545E-02 1.95031E-01-3.45195E-04 1.24321E-01 1.14569E-03 3.29258E-04
 -1     20481-9.31633E-02 1.91271E-01-1.75344E-04 1.22683E-01 2.03268E-04-3.26835E-04
 -1     20482-8.76749E-02 1.79541E-01-8.00232E-05 1.20752E-01 4.85264E-04 1.75135E-04
 -1     20483-7.74668E-02 1.58210E-01-1.69958E-04 1.21331E-01-1.35885E-04 7.41902E-05
 -1     20484-6.30321E-02 1.28344E-01 9.31001E-05 1.22254E-01 1.87029E-04-4.79578E-05
 -1     20485-4.49872E-02 8.45395E-02 5.60654E-04 1.29460E-01 7.81749E-04-1.25864E-03
 -1     20486-7.54486E-02 1.75568E-01 4.84104E-04 1.37124E-01-5.06701E-03-1.12202E-03
 -1     20487-9.38158E-02 1.96199E-01-7.93268E-04 1.27762E-01 1.26069E-03 9.14340E-05
 -1     20488-9.37509E-02 1.91817E-01-2.30671E-04 1.21845E-01-1.82662E-04 1.84847E-04
 -1     20489-8.77967E-02 1.79743E-01-2.50223E-04 1.21944E-01-1.57467E-04-9.38445E-05
 -1     20490-7.75288E-02 1.58830E-01-4.62149E-05 1.22328E-01 1.35565E-04 6.35388E-05
 -1     20491-6.27468E-02 1.27597E-01 2.76891E-04 1.25102E-01 1.26601E-03-2.56131E-04
 -1     20492-4.76463E-02 8.90085E-02-2.53610E-04 1.31242E-01 4.18089E-04-4.62960E-04
 -1     20493-2.86594E-01 1.25955E-01 2.48136E-03-2.12746E-01 9.77647E-04 6.06564E-04
 -1     20494-2.81077E-01 1.14602E-01-6.26669E-04-1.50573E-01 2.72489E-04 2.89486E-04
 -1     20495-2.63016E-01 1.06483E-01-1.91583E-04-1.39024E-01-7.80283E-05 8.81765E-05
 -1     20496-2.51291E-01 1.01409E-01 9.31838E-05-1.32804E-01 2.99353E-05-9.02207E-05
 -1     20497-2.43941E-01 9.85806E-02-1.92218E-05-1.28789E-01 7.27231E-05-1.08216E-05
 -1     20498-2.38712E-01 9.63369E-02-4.25218E-05-1.25928E-01 6.81109E-06-8.32967E-06
 -1     20499-2.35218E-01 9.48648E-02 3.25864E-05-1.24019E-01 2.26289E-05-1.30920E-05
 -1     20500-2.32533E-01 9.37327E-02 1.95688E-05-1.22857E-01-4.74131E-06 7.45431E-05
 -1     20501-2.30397E-01 9.28307E-02 1.24715E-05-1.21670E-01 3.15626E-05 3.04267E-05
 -1     20502-2.28600E-01 9.21893E-02-4.38710E-06-1.20528E-01-6.91571E-08-1.52407E-05
 -1     20503-2.26472E-01 9.13105E-02 1.06954E-05-1.19334E-01-1.56410E-05-1.87207E-05
 -1     20504-2.23717E-01 9.01964E-02-9.14961E-06-1.17900E-01 6.57239E-06 2.55602E-06
 -1     20505-2.20230E-01 8.88000E-02-7.09443E-07-1.16004E-01-1.08173E-05-2.55910E-05
 -1     20506-2.15675E-01 8.69564E-02-2.03422E-05-1.13583E-01 6.08985E-06-7.40364E-06
 -1     20507-2.09840E-01 8.45741E-02 2.37833E-05-1.10480E-01-4.62520E-05-1.94636E-05
 -1     20508-2.02445E-01 8.15976E-02-4.45287E-05-1.06643E-01-2.02459E-05 1.40520E-05
 -1     20509-1.93428E-01 7.79701E-02-7.74917E-06-1.01881E-01-7.55107E-06 7.24967E-06
 -1     20510-1.82747E-01 7.36832E-02-2.45149E-06-9.61904E-02-6.60610E-07-1.22801E-05
 -1     20511-1.70502E-01 6.87484E-02-4.68947E-05-8.97676E-02-4.95554E-06-1.04590E-05
 -1     20512-1.57381E-01 6.34618E-02-1.43232E-05-8.29427E-02 3.29308E-05-4.60722E-05
 -1     20513-1.44262E-01 5.80765E-02-2.40322E-05-7.63542E-02 1.98121E-05-5.96271E-05
 -1     20514-1.32283E-01 5.28738E-02 3.35674E-05-7.09020E-02-4.69845E-06-1.04001E-04
 -1     20515-1.23085E-01 4.86391E-02 7.09384E-05-6.69841E-02-1.67013E-05-3.15870E-05
 -1     20516-1.15420E-01 4.15271E-02-4.61013E-04-6.94688E-02 1.20996E-04-3.39625E-04
 -1     20517-9.85794E-02 5.28616E-03 3.98981E-03-8.56114E-02-6.62277E-03-2.25580E-03
 -1     20518-3.24181E-01 1.39152E-01 1.06942E-03-1.97098E-01-1.61617E-03-1.15272E-03
 -1     20519-2.82054E-01 1.14947E-01 2.29923E-04-1.53209E-01-8.67189E-04-9.76080E-05
 -1     20520-2.62685E-01 1.06146E-01-1.10430E-04-1.39779E-01-1.52099E-04-2.02962E-04
 -1     20521-2.51353E-01 1.01480E-01-1.46416E-05-1.32715E-01 1.04061E-04 1.12930E-04
 -1     20522-2.43857E-01 9.85098E-02-8.57476E-05-1.28632E-01 5.48954E-05-1.02210E-05
 -1     20523-2.38693E-01 9.63320E-02-9.10925E-05-1.26039E-01 2.59784E-05-2.82116E-05
 -1     20524-2.35369E-01 9.49509E-02 4.68222E-05-1.23993E-01 1.33667E-05 1.49421E-05
 -1     20525-2.32764E-01 9.38872E-02 2.62497E-05-1.22691E-01 1.74456E-05 4.03911E-05
 -1     20526-2.30619E-01 9.29896E-02-1.05284E-05-1.21606E-01 2.22960E-06-8.37946E-06
 -1     20527-2.28621E-01 9.21738E-02 9.33466E-06-1.20539E-01-1.12623E-05-1.57721E-06
 -1     20528-2.26277E-01 9.10932E-02 6.64144E-06-1.19482E-01-3.52612E-05-6.49647E-05
 -1     20529-2.23675E-01 9.00710E-02 6.64451E-05-1.18025E-01-3.36877E-05-6.32247E-05
 -1     20530-2.19818E-01 8.84325E-02-2.67131E-05-1.15925E-01-7.27065E-05-6.52859E-06
 -1     20531-2.15558E-01 8.67586E-02 3.41959E-05-1.13667E-01-6.71292E-07 2.31475E-07
 -1     20532-2.09839E-01 8.45242E-02 5.44121E-05-1.10539E-01-1.58945E-05-2.61894E-05
 -1     20533-2.02504E-01 8.16718E-02-1.89369E-05-1.06492E-01 4.22807E-05 3.96694E-05
 -1     20534-1.93470E-01 7.79337E-02 3.21551E-05-1.01775E-01 2.14936E-05-1.60210E-05
 -1     20535-1.82723E-01 7.35971E-02 2.06745E-05-9.62315E-02 4.74083E-06-6.47707E-06
 -1     20536-1.70525E-01 6.87422E-02-2.43426E-07-8.96976E-02 3.59298E-05 2.30919E-05
 -1     20537-1.57360E-01 6.34029E-02-7.95234E-06-8.29978E-02 2.38036E-05 4.16856E-05
 -1     20538-1.44072E-01 5.79726E-02-4.90560E-05-7.63841E-02-3.80991E-05 1.25036E-04
 -1     20539-1.32905E-01 5.32802E-02 4.29609E-05-7.09837E-02-1.22797E-05 2.23465E-04
 -1     20540-1.23727E-01 4.87172E-02 1.46540E-05-6.81140E-02-5.42139E-05 1.33600E-04
 -1     20541-1.15865E-01 4.26590E-02 5.08856E-04-6.87739E-02 3.21030E-05-7.12105E-05
 -1     20542-9.59546E-02 2.24809E-02-4.23494E-04-6.60556E-02 2.95858E-03 2.35577E-03
 -1     20543 4.94092E-02 1.58558E-04-1.28721E-04 7.69521E-02 2.45031E-04-4.35277E-05
 -1     20544 5.44136E-02 2.87064E-06-5.29090E-06 8.59280E-02 1.00864E-04-2.12269E-05
 -1     20545 5.99544E-02-2.43060E-05 2.96585E-05 9.11753E-02 9.37531E-05 4.92008E-07
 -1     20546 6.56609E-02 3.70529E-05-3.74088E-05 9.37201E-02 4.91275E-05 3.65545E-06
 -1     20547 7.08579E-02-1.00697E-04-4.93998E-06 9.34044E-02 2.85501E-05-2.24492E-05
 -1     20548 7.47657E-02-1.16322E-04 3.86648E-06 9.05648E-02 3.35863E-05-2.47672E-05
 -1     20549 7.69742E-02-1.99288E-04-5.00104E-07 8.50811E-02 6.15308E-05-4.10590E-05
 -1     20550 7.72222E-02-2.74158E-04-4.49702E-06 7.78437E-02 5.80203E-05-5.35685E-05
 -1     20551 7.50353E-02-3.23698E-04-3.85603E-05 6.89324E-02 1.56033E-06-1.00185E-04
 -1     20552 7.05116E-02-5.49524E-04 7.50134E-05 5.89058E-02 8.61678E-07-1.09781E-05
 -1     20553 6.28965E-02-2.33398E-04-6.14841E-05 4.81903E-02-3.48172E-06-1.46820E-04
 -1     20554 5.31128E-02-4.32947E-04 2.23766E-05 3.70823E-02-6.52005E-06-2.64115E-05
 -1     20555 4.01239E-02-3.83440E-04 1.42330E-06 2.57667E-02 3.45487E-05-4.08450E-05
 -1     20556 2.44025E-02-3.45175E-04-8.53729E-06 1.46300E-02 1.30762E-06-1.00693E-04
 -1     20557 5.53374E-03-2.98575E-04-1.42394E-05 3.94679E-03-2.55493E-05-8.57822E-05
 -1     20558-1.66336E-02-2.62792E-04-2.59300E-06-5.78264E-03-7.86206E-05-5.14214E-05
 -1     20559-4.24086E-02-3.14392E-04-8.80216E-05-1.39460E-02-9.53462E-05-1.34932E-04
 -1     20560-7.27399E-02-4.82781E-04 1.30839E-05-2.01699E-02-1.05053E-04-7.96120E-05
 -1     20561-1.09037E-01-7.50638E-04 3.03466E-05-2.31815E-02-3.14882E-04-8.11964E-05
 -1     20562-1.54932E-01-2.15033E-03 1.03171E-04-2.05496E-02-1.23780E-03-3.54177E-04
 -1     20563-2.13790E-01-9.54024E-03-1.02029E-04-4.29308E-03-6.51996E-03 2.94479E-03
 -1     20564 4.91307E-02 4.63872E-04-2.18659E-04 7.66457E-02-2.22133E-04 4.07305E-05
 -1     20565 5.43501E-02 8.97921E-05 3.37470E-05 8.58795E-02-7.01604E-05-2.54552E-05
 -1     20566 5.99529E-02 9.95535E-06 1.87385E-05 9.11386E-02-5.42929E-05-2.03715E-05
 -1     20567 6.57130E-02-7.43034E-06-2.48986E-05 9.37182E-02-6.57659E-05 3.89140E-06
 -1     20568 7.08292E-02-1.38386E-04 1.50063E-05 9.32975E-02-3.63592E-05 9.51834E-06
 -1     20569 7.48172E-02-2.00912E-04-1.85464E-05 9.02713E-02-3.03997E-05 3.38548E-05
 -1     20570 7.70815E-02-2.37609E-04-2.96607E-05 8.50300E-02-2.33388E-05 6.27888E-05
 -1     20571 7.73383E-02-3.69195E-04-5.50496E-06 7.78476E-02-3.13030E-05 4.20434E-05
 -1     20572 7.51760E-02-4.40171E-04-2.12925E-06 6.89463E-02-3.56760E-05 3.65221E-05
 -1     20573 7.04406E-02-3.94074E-04 9.64495E-06 5.88633E-02-2.24523E-05 3.33873E-05
 -1     20574 6.31178E-02-4.40974E-04 8.09697E-06 4.81116E-02 4.12792E-06 8.13282E-05
 -1     20575 5.30028E-02-3.93538E-04 1.35884E-05 3.69857E-02-9.64464E-06 9.18830E-05
 -1     20576 4.00586E-02-2.72050E-04-6.97124E-05 2.56720E-02 1.73871E-05 1.52734E-04
 -1     20577 2.45144E-02-3.87262E-04 1.43152E-05 1.44998E-02 5.64527E-07 3.65215E-05
 -1     20578 5.59372E-03-3.95653E-04 3.20123E-05 3.81508E-03-2.41470E-05 1.01682E-04
 -1     20579-1.65067E-02-4.12086E-04-2.96799E-05-5.81294E-03 4.39959E-05 9.28186E-05
 -1     20580-4.21353E-02-6.45724E-04 3.09578E-06-1.40570E-02 1.33691E-04 3.06805E-05
 -1     20581-7.22703E-02-8.28302E-04-7.18076E-05-2.00693E-02 2.15320E-05 1.18259E-04
 -1     20582-1.08960E-01-7.44788E-04-1.45210E-04-2.30396E-02 2.72582E-04 1.82089E-04
 -1     20583-1.56311E-01-1.05160E-03 1.62428E-04-1.98000E-02 6.37626E-04-2.43908E-05
 -1     20584-2.24761E-01-7.92130E-04-7.79803E-04-4.88023E-04 2.77316E-03 6.20245E-04
 -1     20585-3.91464E-02 1.03190E-01-4.54841E-04 1.33168E-01-3.94236E-04-2.32424E-04
 -1     20586 3.17593E-02 7.13446E-02 1.80151E-04 1.59743E-01 2.29786E-04-1.89369E-04
 -1     20587 5.95708E-02 6.23389E-02-3.18916E-05 1.82169E-01 9.77254E-06 3.53926E-05
 -1     20588 7.39337E-02 5.86620E-02 4.37231E-05 1.96403E-01 9.17080E-06-7.25796E-05
 -1     20589 8.21809E-02 5.63032E-02 3.26022E-07 2.04051E-01-3.38259E-05-4.33038E-05
 -1     20590 8.76216E-02 5.39846E-02-1.51829E-05 2.08186E-01 4.33988E-08-2.19292E-05
 -1     20591 9.13280E-02 5.08959E-02-1.50638E-06 2.08939E-01 2.75205E-05-2.35698E-05
 -1     20592 9.37958E-02 4.62544E-02-1.86706E-06 2.05421E-01 1.18710E-05-4.42117E-05
 -1     20593 9.48921E-02 3.99739E-02-2.22890E-05 1.97447E-01-9.82038E-06-3.36481E-05
 -1     20594 9.40307E-02 3.24363E-02-1.76052E-05 1.84760E-01-1.03343E-05-6.07200E-05
 -1     20595 9.06426E-02 2.46583E-02 1.31485E-05 1.67904E-01-1.51664E-05-4.04555E-05
 -1     20596 8.43227E-02 1.81537E-02-7.21603E-05 1.48432E-01 5.64885E-06-1.23182E-06
 -1     20597 7.49901E-02 1.43654E-02 5.64587E-05 1.28907E-01-8.86695E-05-4.12549E-05
 -1     20598 6.37389E-02 1.35077E-02-3.42957E-05 1.10924E-01-7.55625E-05-1.32212E-05
 -1     20599 5.37390E-02 1.38415E-02 8.62515E-07 9.68572E-02-6.31932E-06 1.52943E-05
 -1     20600 4.79800E-02 1.13207E-02-1.27358E-05 8.65663E-02-4.52793E-06-5.03818E-06
 -1     20601 6.84016E-02 7.66240E-05-1.17745E-05 9.21521E-02-3.09995E-05-8.17619E-06
 -1     20602 8.16169E-02-7.29612E-03-8.19461E-06 8.79202E-02-1.03591E-05-1.10408E-06
 -1     20603 8.58105E-02-1.26487E-02 4.25133E-06 7.63812E-02 4.90398E-05 6.40468E-05
 -1     20604 7.89499E-02-1.59071E-02-1.30642E-05 6.02969E-02 2.50457E-05 4.56501E-06
 -1     20605 5.95966E-02-1.68900E-02 2.93870E-05 4.18575E-02-2.88978E-05 2.48432E-05
 -1     20606 2.69415E-02-1.55177E-02 6.05173E-05 2.38976E-02 4.61465E-05 2.84573E-05
 -1     20607-2.01123E-02-1.09614E-02 1.07836E-04 9.42448E-03 1.03929E-04-2.91556E-05
 -1     20608-8.80940E-02 1.77176E-04 2.17188E-04 2.21920E-03 1.34894E-04 6.96370E-05
 -1     20609-2.06433E-01 3.93179E-02-5.98131E-04 1.39101E-02 7.64093E-04-4.10140E-04
 -1     20610-3.41964E-01 1.33960E-01-2.94346E-03-2.00973E-03 1.30476E-03-2.21658E-03
 -1     20611-2.65780E-01 1.14552E-01 2.57940E-04-1.05164E-01-2.48676E-04 7.47582E-04
 -1     20612-2.29629E-01 9.61758E-02 1.57249E-05-1.06773E-01-7.73094E-05-7.05418E-05
 -1     20613-2.12738E-01 8.76793E-02 3.17850E-05-1.04637E-01-3.90688E-05 5.91262E-05
 -1     20614-2.03468E-01 8.35492E-02 7.74892E-06-1.02368E-01-6.87648E-06-2.47391E-05
 -1     20615-1.96595E-01 8.09767E-02-2.72294E-06-9.86825E-02-6.60244E-06-3.22957E-07
 -1     20616-1.89623E-01 7.89895E-02-7.91655E-06-9.29387E-02 2.13108E-05 1.40708E-05
 -1     20617-1.80604E-01 7.67057E-02 1.24079E-05-8.44005E-02 3.56024E-06 6.08587E-06
 -1     20618-1.67690E-01 7.31308E-02 3.18470E-07-7.27814E-02 2.51542E-05-2.95054E-05
 -1     20619-1.49319E-01 6.72878E-02-3.05822E-05-5.80704E-02 5.31045E-05-6.16831E-06
 -1     20620-1.20752E-01 5.70232E-02-4.82701E-05-3.79001E-02 7.87152E-05 2.71246E-05
 -1     20621-8.03293E-02 4.19370E-02-1.60534E-05-1.19941E-02 1.46847E-04 2.02655E-04
 -1     20622-3.77265E-02 5.15437E-02 3.71116E-05 5.45459E-02-1.43305E-04-5.70861E-04
 -1     20623-5.86532E-02 1.12074E-01 1.29309E-04 1.19168E-01-5.26370E-04-1.83544E-04
 -1     20624-6.17485E-02 1.20928E-01-2.82117E-04 1.45757E-01-4.63195E-04 1.39151E-04
 -1     20625 6.73540E-03 8.20018E-02-9.61726E-05 1.43277E-01 1.30570E-04 4.64979E-05
 -1     20626 4.81162E-02 6.57728E-02 1.02503E-04 1.72310E-01-9.83864E-05-1.03271E-04
 -1     20627 6.79159E-02 6.00691E-02-2.79277E-05 1.90166E-01 4.46611E-05 5.04543E-05
 -1     20628 7.84609E-02 5.74751E-02-1.95281E-05 2.00629E-01 3.57290E-06 2.76124E-05
 -1     20629 8.51040E-02 5.52581E-02-2.09265E-05 2.06533E-01 1.48996E-05-3.29024E-05
 -1     20630 8.95870E-02 5.25927E-02 1.86504E-05 2.08921E-01-2.40470E-06-3.45811E-05
 -1     20631 9.26876E-02 4.87664E-02-1.79974E-05 2.07612E-01-2.00568E-05-3.39479E-05
 -1     20632 9.44769E-02 4.33029E-02 1.10806E-05 2.02065E-01-3.40761E-05-2.77655E-05
 -1     20633 9.45862E-02 3.63484E-02 6.06055E-06 1.91669E-01-2.60960E-05-1.17759E-05
 -1     20634 9.26080E-02 2.84680E-02 8.50369E-06 1.76731E-01-4.01473E-05-1.86997E-05
 -1     20635 8.77835E-02 2.12150E-02-1.68211E-05 1.58373E-01-8.67333E-05-4.89196E-05
 -1     20636 8.00181E-02 1.57852E-02 7.96807E-05 1.38462E-01-1.74093E-05-1.08050E-04
 -1     20637 6.93405E-02 1.38450E-02-3.72880E-05 1.19677E-01-8.15129E-05-5.74087E-05
 -1     20638 5.86139E-02 1.35003E-02-1.60625E-05 1.03432E-01-2.91225E-05-2.03662E-05
 -1     20639 4.99060E-02 1.36915E-02 2.18498E-05 9.14050E-02-1.06966E-05 6.04414E-06
 -1     20640 4.34689E-02 1.10939E-02 1.15939E-04 8.09673E-02-7.50289E-07-1.94131E-05
 -1     20641 5.92198E-02 4.76811E-03-1.67494E-06 9.07244E-02 1.64272E-05 6.86704E-06
 -1     20642 7.61031E-02-4.09529E-03 7.66850E-06 9.10615E-02 2.90202E-05 3.37850E-05
 -1     20643 8.50460E-02-1.02869E-02 7.72563E-06 8.29353E-02-7.95520E-05 1.32727E-05
 -1     20644 8.38511E-02-1.44734E-02 8.57787E-06 6.88215E-02 2.87648E-05 7.16014E-05
 -1     20645 7.08430E-02-1.66377E-02 7.31747E-07 5.11370E-02-1.48005E-05-2.46546E-05
 -1     20646 4.49091E-02-1.62193E-02-2.13913E-05 3.27999E-02 5.79881E-05 5.59646E-05
 -1     20647 5.17017E-03-1.31463E-02-6.28477E-05 1.59691E-02-1.31080E-05 9.78257E-05
 -1     20648-5.08592E-02-6.29403E-03 6.31520E-05 4.30539E-03 1.07238E-04 5.42300E-05
 -1     20649-1.34551E-01 9.68928E-03 8.40675E-04 3.95103E-03 8.35819E-04 1.73881E-04
 -1     20650-2.19943E-01 9.12974E-02 4.85278E-05-1.05828E-01-4.01626E-06 5.59628E-05
 -1     20651-3.09668E-01 1.34956E-01 2.36394E-03-9.40877E-02-1.96287E-03-2.53172E-03
 -1     20652-2.44290E-01 1.03775E-01-4.13044E-05-1.07483E-01 1.33381E-04 1.03249E-04
 -1     20653-2.07631E-01 8.53897E-02-5.98377E-05-1.03670E-01-3.72763E-06 3.02232E-05
 -1     20654-1.99851E-01 8.20746E-02 1.12404E-05-1.00706E-01 1.35037E-05 9.04458E-06
 -1     20655-1.93256E-01 7.99659E-02 1.15024E-05-9.61360E-02 7.97433E-06-4.06392E-06
 -1     20656-1.85470E-01 7.79318E-02 1.23889E-05-8.90818E-02 1.68350E-05 2.99436E-05
 -1     20657-1.74588E-01 7.50934E-02 4.43536E-07-7.89141E-02 2.07383E-05 1.35734E-05
 -1     20658-1.59591E-01 7.06777E-02 1.35588E-06-6.60122E-02 2.09628E-05-6.56038E-06
 -1     20659-1.36521E-01 6.28044E-02 7.51415E-05-4.86252E-02 4.74451E-05 1.73198E-04
 -1     20660-1.02012E-01 4.96581E-02-3.63776E-05-2.60793E-02 3.53697E-05 7.64472E-05
 -1     20661-5.70459E-02 3.60888E-02 3.41426E-05 7.07885E-03 4.09431E-05 3.18435E-04
 -1     20662-5.02790E-02 9.27469E-02 2.30570E-04 9.67329E-02-4.81150E-04-3.54160E-04
 -1     20663-6.32853E-02 1.22328E-01 3.22661E-05 1.34039E-01-5.07749E-04-1.68559E-04
 -1     20664-5.88088E-02 1.15488E-01 3.97318E-06 1.51918E-01-3.02180E-04-1.15519E-05
 -1     20665 3.54603E-02 6.55591E-02 1.72869E-05 1.57597E-01-9.23925E-06-4.52129E-06
 -1     20666 5.29229E-02 5.75956E-02 9.42268E-07 1.67499E-01-4.96030E-05-4.92327E-05
 -1     20667-4.60525E-02 1.11098E-01-1.75027E-05 1.44689E-01-2.20929E-04 8.31683E-05
 -1     20668 6.42229E-02 5.20184E-02 5.60522E-05 1.74220E-01 4.79985E-06-2.65347E-05
 -1     20669 4.53139E-02 6.09996E-02 4.36222E-05 1.62800E-01 3.04322E-06 4.72025E-05
 -1     20670 7.30067E-02 4.69396E-02 4.09367E-05 1.78802E-01 5.47735E-05-1.16220E-05
 -1     20671 8.03333E-02 4.10487E-02 7.40281E-06 1.80403E-01-2.33081E-05-5.85279E-05
 -1     20672 8.69009E-02 3.30679E-02 5.25768E-05 1.78293E-01-2.81127E-05-4.64881E-05
 -1     20673 9.24960E-02 2.35039E-02 7.23667E-05 1.72061E-01 7.01762E-06-6.32018E-05
 -1     20674 9.62031E-02 1.33150E-02 6.36055E-05 1.61410E-01 1.63666E-05-2.99227E-05
 -1     20675 9.72189E-02 4.14472E-03 8.57001E-06 1.47488E-01 9.84744E-06 2.83827E-05
 -1     20676 9.31349E-02-9.30182E-04 1.76590E-05 1.32056E-01-2.72725E-06 2.16751E-05
 -1     20677 8.51060E-02-1.77790E-03-1.82663E-06 1.17347E-01-6.89260E-06-1.47684E-05
 -1     20678 7.26669E-02 2.12090E-03 6.54592E-07 1.03824E-01 1.15223E-05 9.61950E-06
 -1     20679 7.30665E-02-2.12647E-03 1.93540E-05 9.37827E-02-2.73324E-05-2.26043E-06
 -1     20680 8.82113E-02-1.42332E-02 2.86343E-06 8.84558E-02 1.40580E-05 3.74360E-06
 -1     20681 6.22877E-02 5.31365E-03-2.18306E-05 9.36501E-02 1.31180E-05-1.75398E-05
 -1     20682 7.49920E-02-2.81730E-02-1.67360E-05 5.63160E-02-4.90227E-05 1.49986E-05
 -1     20683 9.26688E-02-2.27271E-02 7.95708E-05 7.82781E-02 1.44556E-04 1.05194E-04
 -1     20684-2.51943E-01 1.09095E-01 2.85511E-04-5.08692E-02 5.81312E-04-1.38664E-04
 -1     20685 8.42573E-02-2.73443E-02 7.97270E-05 6.38051E-02-5.17392E-05 3.66916E-05
 -1     20686 9.21674E-02-1.92798E-02 1.08776E-05 8.38087E-02 6.06314E-07-2.98061E-05
 -1     20687 4.51530E-02-2.62308E-02-2.20260E-05 4.09976E-02 1.04446E-05 3.87052E-05
 -1     20688-1.09757E-03-1.80877E-02-1.14729E-05 2.75269E-02 5.34413E-05-1.73471E-05
 -1     20689-6.74876E-02-1.81975E-04-5.84327E-05 1.84974E-02-8.52568E-05 1.75199E-04
 -1     20690-1.75700E-01 4.81501E-02 3.56274E-04 1.47184E-02 1.34517E-04 1.74323E-04
 -1     20691-2.13294E-01 9.21591E-02-5.86797E-06-7.73036E-02-3.27922E-05-6.19586E-06
 -1     20692-2.57533E-01 1.00084E-01-3.55317E-04-5.99673E-03-7.93446E-04 3.06305E-04
 -1     20693-1.69102E-01 7.21204E-02-1.10573E-05-7.77707E-02-8.07769E-07 7.72044E-06
 -1     20694-1.83921E-01 7.76492E-02-7.02911E-06-8.22872E-02 1.27919E-05 4.13900E-05
 -1     20695-1.61383E-01 7.07077E-02-1.79504E-05-7.07894E-02-2.83153E-06 1.72196E-05
 -1     20696-1.91260E-01 8.11200E-02-3.45128E-06-8.19467E-02-2.05439E-05-2.51350E-05
 -1     20697-1.65201E-01 7.12724E-02-2.31281E-06-7.46697E-02 1.85986E-05 1.52542E-05
 -1     20698-1.53091E-01 6.99645E-02-2.98088E-05-6.03494E-02 8.42051E-07 2.84066E-05
 -1     20699-1.42859E-01 6.91118E-02 4.50815E-06-4.62825E-02 6.22514E-06 1.09820E-05
 -1     20700-1.29590E-01 6.65824E-02-9.03378E-06-2.99546E-02 1.03259E-05 2.77476E-05
 -1     20701-1.03924E-01 5.92613E-02-4.60058E-06-4.06332E-03-8.28112E-06 4.27875E-05
 -1     20702-6.68203E-02 5.23306E-02-3.77305E-05 3.72164E-02 6.18221E-05-2.35058E-05
 -1     20703-4.95587E-02 5.82876E-02-6.03746E-05 6.47232E-02-6.61124E-05-1.28506E-05
 -1     20704-5.41137E-02 7.86681E-02 2.88159E-05 1.03152E-01-1.79752E-05-3.22038E-05
 -1     20705 2.21087E-02 7.19391E-02-4.62553E-05 1.51072E-01 7.43188E-05 7.67549E-05
 -1     20706-5.92922E-02 1.10915E-01 1.97285E-04 1.46411E-01-2.72129E-04 2.15854E-04
 -1     20707 9.01535E-02-2.54832E-02-5.38617E-05 7.12274E-02 4.41219E-06 3.59172E-05
 -1     20708 5.89431E-02 5.47191E-02 1.20143E-05 1.71113E-01-4.16489E-06-7.06769E-06
 -1     20709 6.88098E-02 4.95498E-02 3.36322E-06 1.76748E-01-9.42657E-06-1.16583E-05
 -1     20710-1.73374E-01 7.34008E-02-1.07209E-05-8.00895E-02 1.18098E-06 2.44393E-05
 -1     20711 4.59642E-03 8.10143E-02 4.81491E-05 1.44782E-01-7.06372E-05-1.56248E-04
 -1     20712 9.46590E-02 1.84465E-02-3.32157E-06 1.67142E-01-2.29252E-05-3.57736E-05
 -1     20713 8.37771E-02 3.72733E-02-7.10191E-06 1.79971E-01-4.20177E-06-2.75123E-05
 -1     20714 7.68126E-02 4.41752E-02-1.60456E-05 1.80020E-01-1.84818E-05-3.48486E-05
 -1     20715 8.98497E-02 2.85048E-02 2.30386E-06 1.75632E-01 3.52520E-06-2.88675E-05
 -1     20716 9.70071E-02 8.58788E-03-4.40503E-06 1.54785E-01-1.99919E-05-3.85435E-05
 -1     20717 9.57570E-02 1.23473E-03-4.17233E-05 1.39877E-01 2.83834E-06 4.10193E-05
 -1     20718 8.93588E-02-1.77200E-03-9.86969E-06 1.24234E-01 5.68230E-05-5.37526E-05
 -1     20719 7.87624E-02 3.06164E-04-9.90542E-06 1.10500E-01-1.18523E-05-1.30596E-05
 -1     20720 6.22396E-02-2.81848E-02 8.91714E-06 4.85831E-02-3.16857E-05 1.16906E-06
 -1     20721 6.72435E-02 3.85835E-03-2.13227E-05 9.83691E-02-2.74643E-05-7.06180E-06
 -1     20722 8.18296E-02-8.51195E-03-1.71751E-06 9.20627E-02-2.87579E-05 6.98630E-06
 -1     20723 2.41143E-02-2.30912E-02-1.76309E-05 3.39366E-02-2.58577E-05-2.30505E-05
 -1     20724-2.29942E-01 1.00231E-01 1.12079E-04-6.97784E-02-3.87775E-05-4.35237E-05
 -1     20725-3.12381E-02-1.09460E-02 4.21638E-05 2.25075E-02 6.17673E-05-7.10072E-05
 -1     20726-1.12077E-01 1.49328E-02 1.16869E-04 1.71900E-02 2.95667E-04-1.47975E-04
 -1     20727-2.00407E-01 8.57078E-02-2.03870E-05-8.04670E-02-5.99545E-05-3.74308E-05
 -1     20728-1.78094E-01 7.51310E-02-2.81097E-05-8.14679E-02-5.67753E-06 1.25874E-05
 -1     20729-1.48265E-01 6.96535E-02-2.45023E-05-5.36929E-02 3.40169E-05-7.50550E-06
 -1     20730-1.57475E-01 7.03083E-02-2.33346E-05-6.60967E-02 4.86321E-05-1.15288E-05
 -1     20731-1.36918E-01 6.82655E-02-2.35902E-05-3.84014E-02 3.49201E-05 3.80488E-05
 -1     20732-1.19402E-01 6.38651E-02 2.17123E-05-1.93662E-02 1.17480E-05-1.14655E-05
 -1     20733-8.69423E-02 5.53419E-02-2.11169E-05 1.41324E-02-4.96799E-05-1.71461E-05
 -1     20734-5.89245E-02 1.01332E-01-7.19241E-06 1.35556E-01-1.41379E-04-7.53606E-05
 -1     20735-1.95270E-02 9.49245E-02 4.30139E-05 1.39849E-01-2.37545E-05 1.12214E-04
 -1     20736 5.91816E-02 4.01284E-02-1.39978E-06 1.51812E-01-1.48955E-05 9.66411E-06
 -1     20737 1.00020E-01-1.35345E-02 8.42396E-05 1.24018E-01-1.28606E-04-1.45280E-05
 -1     20738 7.52865E-02 2.64772E-02-4.75602E-06 1.55212E-01-2.24027E-05-3.18628E-05
 -1     20739 9.98790E-02-7.95851E-03-8.18785E-06 1.35994E-01 2.25583E-05-1.06596E-06
 -1     20740 9.38306E-02 3.19756E-03-1.09411E-04 1.46484E-01-2.62492E-05-1.36072E-04
 -1     20741 9.53085E-02-1.43823E-02-6.85506E-06 1.11442E-01-5.43731E-05-4.29803E-05
 -1     20742 8.50376E-02 1.54416E-02-5.25206E-05 1.53024E-01-3.36496E-05-1.26059E-04
 -1     20743 1.01030E-01-1.16016E-02 3.21088E-06 1.30411E-01-1.96650E-05-6.04941E-05
 -1     20744 9.84946E-02-1.46026E-02-8.26791E-05 1.17956E-01 1.24686E-06-7.62729E-05
 -1     20745 8.71483E-02-1.26025E-02-3.02706E-06 9.49074E-02-2.59565E-05-4.47023E-06
 -1     20746 7.57832E-02-3.48773E-02 8.11134E-06 6.24092E-02 3.90785E-05-1.35242E-05
 -1     20747-1.39082E-01 3.98835E-02-1.55883E-08 1.30887E-02-1.61850E-04-6.88006E-07
 -1     20748 9.73549E-02-2.92942E-03 6.49139E-06 1.41315E-01-4.88670E-05 1.09960E-06
 -1     20749-4.80371E-02-1.87698E-03 1.34990E-05 2.95289E-02 1.95761E-05-2.24450E-06
 -1     20750 7.85102E-02-5.03682E-03-1.10108E-06 9.74985E-02-2.65712E-05 2.86725E-05
 -1     20751 4.02493E-02-2.91177E-02-4.82930E-06 4.82369E-02 7.36637E-06-3.54415E-06
 -1     20752-8.90138E-02 1.50866E-02-2.40870E-05 2.32491E-02-1.85490E-05 2.00384E-05
 -1     20753 8.68202E-02-3.47739E-02 4.70115E-05 6.92682E-02-5.58672E-05-1.74297E-06
 -1     20754-1.14082E-01 6.59804E-02 1.86950E-06-1.29775E-02-3.50358E-05-2.03216E-05
 -1     20755-1.97199E-01 8.20268E-02-1.03787E-04-2.94936E-02 1.52956E-04-3.51903E-04
 -1     20756-1.27335E-01 6.39654E-02 2.50330E-05-3.79553E-02 2.43193E-05-1.72930E-05
 -1     20757 8.01521E-02 2.10618E-02 3.06469E-05 1.54486E-01-2.83699E-05-7.11267E-05
 -1     20758-1.96493E-01 7.37371E-02-5.60561E-05-9.86750E-03 9.91699E-05-5.93273E-05
 -1     20759-1.53573E-01 6.69750E-02-4.62981E-06-5.91028E-02 7.89305E-06 4.98539E-06
 -1     20760-1.43310E-01 6.41063E-02 3.34845E-06-5.64423E-02 1.46585E-05 1.21067E-06
 -1     20761-1.31009E-01 6.34461E-02-6.62719E-06-4.39864E-02 1.07934E-06-1.94833E-06
 -1     20762-1.34779E-01 6.32435E-02-2.22745E-06-4.90708E-02-7.05761E-06-1.32496E-05
 -1     20763-5.95493E-02 8.24756E-02 7.91767E-08 1.06952E-01 3.61674E-05-3.87456E-05
 -1     20764 6.01526E-02-3.29178E-02-9.51872E-07 5.52164E-02 8.88946E-06-9.59977E-06
 -1     20765-1.38857E-01 6.34260E-02-1.77154E-06-5.32676E-02 3.87765E-06 6.91025E-06
 -1     20766-1.18576E-01 6.53342E-02 9.84016E-06-2.18991E-02-2.95423E-06 1.75265E-05
 -1     20767-1.48096E-01 6.51875E-02-1.66851E-06-5.84388E-02-3.55794E-06 1.30051E-05
 -1     20768 2.99848E-03 7.16572E-02-4.87632E-05 1.29820E-01-3.01608E-05-4.41587E-05
 -1     20769 8.95317E-02 9.14287E-03 5.17443E-05 1.49876E-01-1.28900E-04-1.12308E-04
 -1     20770-4.81117E-02 1.02584E-01-1.60205E-05 1.35785E-01 4.59259E-07 5.21188E-06
 -1     20771-1.77085E-01 7.65402E-02-4.27558E-05-5.05927E-02 4.55605E-05-3.57531E-05
 -1     20772 7.01809E-02 3.14536E-02-1.57645E-06 1.55082E-01 6.09237E-06 2.06788E-05
 -1     20773 8.38145E-02-7.71839E-03 2.29700E-06 1.02140E-01 6.98705E-06-5.40040E-07
 -1     20774-1.27325E-02 8.02310E-02-3.37313E-05 1.27333E-01 3.55536E-05-9.89107E-05
 -1     20775-1.59861E-01 6.93452E-02-3.26428E-06-5.81244E-02 1.80247E-05 3.58830E-06
 -1     20776-3.04514E-02 9.08933E-02 4.29320E-06 1.28839E-01-2.63697E-05-5.94652E-06
 -1     20777-1.34841E-02-1.42091E-02 9.60840E-06 3.56096E-02 1.38862E-05-2.66416E-05
 -1     20778-1.67501E-01 7.25551E-02-3.33502E-07-5.54057E-02-6.33358E-06 3.65264E-06
 -1     20779 1.57862E-02-2.30499E-02-1.21724E-08 4.16845E-02 1.17334E-05-2.22797E-05
 -1     20780 5.33906E-02 4.39494E-02-1.92679E-05 1.49412E-01 2.60542E-05-3.15159E-05
 -1     20781 9.76381E-02-2.99064E-02-2.82655E-05 8.22260E-02 5.34594E-05 9.63911E-05
 -1     20782 4.72730E-02 4.74885E-02 2.03780E-06 1.46308E-01-9.56794E-06-1.28962E-05
 -1     20783 1.60067E-02 6.49589E-02-1.66632E-05 1.33916E-01-3.30618E-05-2.43760E-05
 -1     20784-5.82334E-02 9.51404E-02 3.68284E-05 1.25892E-01 7.19524E-05 9.46995E-05
 -1     20785-6.68199E-02 6.58354E-02 2.85730E-06 6.72246E-02 8.06915E-05 6.25408E-05
 -1     20786 6.48244E-02 3.60286E-02 9.76530E-07 1.54016E-01-5.80765E-06 2.94812E-06
 -1     20787 9.36388E-02-1.94691E-02 9.48333E-06 9.16734E-02-3.68161E-05-3.05241E-06
 -1     20788-1.88743E-01 8.12536E-02-9.00903E-05-4.36783E-02-9.36874E-05 1.47969E-04
 -1     20789-1.10008E-01 6.64409E-02 1.11544E-05-4.31497E-03-8.26261E-06-1.27942E-05
 -1     20790 4.07032E-02 5.11914E-02-9.46767E-06 1.43167E-01 1.01856E-05-8.09307E-06
 -1     20791 8.99565E-02-1.11372E-02 9.69503E-06 1.07052E-01 1.15857E-05 4.14361E-07
 -1     20792 3.37327E-02 5.51328E-02-1.88624E-05 1.40166E-01 2.30748E-05 1.34467E-05
 -1     20793 9.75633E-02-2.53567E-02-5.35251E-06 8.79174E-02-3.71869E-05-7.94737E-05
 -1     20794-1.23041E-01 6.45716E-02 3.03129E-06-3.04369E-02-1.01845E-05-5.58531E-07
 -1     20795-9.46103E-02 6.50794E-02-3.94771E-07 2.03488E-02-1.88427E-05 1.57598E-05
 -1     20796-1.04907E-01 6.60581E-02-3.49047E-06 4.63643E-03-3.17607E-05-2.38851E-07
 -1     20797 9.37158E-02-3.25543E-02-1.00686E-04 7.56089E-02-1.13744E-05 7.16419E-05
 -1     20798-8.03733E-02 6.48101E-02-5.61622E-06 4.36613E-02 6.72212E-06 4.41664E-05
 -1     20799-5.27799E-02 9.02712E-02 3.00214E-05 1.14221E-01 2.61656E-05 3.36038E-05
 -1     20800 9.75682E-02-2.17433E-02 5.49200E-05 9.92830E-02 3.22851E-05-2.26815E-05
 -1     20801 8.04656E-02 3.24331E-03-2.14632E-06 1.33308E-01-5.80908E-06-1.90341E-06
 -1     20802-1.54917E-01 5.67896E-02-9.83983E-05-1.11290E-03-1.73992E-04 1.05931E-05
 -1     20803 5.30610E-02 2.88033E-02 3.34473E-06 1.30936E-01 2.66749E-07 1.01473E-05
 -1     20804 8.69258E-02-3.80725E-02-4.22221E-08 7.56867E-02 6.64687E-06-1.59957E-05
 -1     20805 2.61118E-02 5.94604E-02 5.21946E-06 1.37337E-01-3.06230E-06 1.75452E-05
 -1     20806 1.01247E-01-2.40093E-02-5.72180E-05 1.04924E-01-8.80069E-06 5.59660E-05
 -1     20807-8.90487E-02 6.62488E-02 9.97601E-06 2.01272E-02-1.46150E-05-6.55524E-06
 -1     20808-1.02557E-01 5.84125E-02 9.94461E-07-1.64352E-02-3.24013E-06 3.38412E-06
 -1     20809-9.14465E-02 6.39844E-02 4.43732E-06 1.04820E-02-3.85925E-05-1.25238E-05
 -1     20810-1.05732E-01 5.72059E-02-7.99136E-07-2.24050E-02-2.91862E-06 7.53604E-06
 -1     20811 4.58420E-02 3.39038E-02 2.16335E-06 1.27882E-01 8.74052E-08 1.92550E-05
 -1     20812-1.39835E-01 6.04208E-02-4.62779E-05-2.76152E-02 4.79629E-05 3.37989E-05
 -1     20813-9.51427E-02 6.18511E-02 7.31035E-06 3.66779E-04 3.85765E-06 4.89585E-06
 -1     20814-1.47333E-01 6.20183E-02-1.45096E-05-2.15657E-02-2.14030E-05 8.54978E-05
 -1     20815 1.03188E-01-2.48885E-02 6.32548E-06 1.10312E-01 6.90401E-05 3.94341E-05
 -1     20816-2.66193E-02 7.49994E-02 1.59473E-05 1.05077E-01 3.83782E-05 3.05801E-05
 -1     20817-9.92220E-02 6.00769E-02-6.36105E-06-8.96497E-03 5.72278E-06 1.07229E-05
 -1     20818-1.28463E-01 5.78516E-02-1.03262E-06-3.53501E-02 6.69326E-06 8.69572E-06
 -1     20819-3.98799E-02 8.28931E-02-2.50479E-05 1.07811E-01 3.75397E-05 5.77091E-05
 -1     20820-2.92936E-02-4.76760E-03 4.47299E-06 3.86435E-02-1.71496E-05-1.25621E-06
 -1     20821-1.34062E-01 5.92796E-02 1.32024E-05-3.27416E-02-9.20515E-06 7.35120E-05
 -1     20822 9.15340E-02-1.55593E-02 1.81030E-05 9.90641E-02 8.47440E-06 1.40502E-05
 -1     20823 7.21750E-03 5.68767E-02 9.02917E-06 1.11451E-01-1.10563E-05 8.81387E-06
 -1     20824 5.45007E-02-3.29771E-02-3.07352E-06 6.10742E-02 7.15766E-06-5.34488E-06
 -1     20825 3.85550E-02 3.86153E-02-3.12733E-07 1.24413E-01 1.36671E-06 1.02313E-05
 -1     20826-1.23284E-01 5.68295E-02 4.16743E-06-3.60215E-02 5.07274E-06-3.21641E-06
 -1     20827 8.70026E-02-3.93894E-03-1.42893E-06 1.31241E-01 3.77212E-05 4.31337E-05
 -1     20828-8.59940E-02 6.84772E-02-2.63872E-06 3.54889E-02-1.26631E-05 9.64017E-06
 -1     20829 7.38451E-02 9.95147E-03 2.27346E-06 1.33853E-01 2.66796E-05 3.34367E-05
 -1     20830 9.69909E-02-1.61903E-02-1.66934E-05 1.24297E-01-6.01534E-06-4.56714E-06
 -1     20831 1.02759E-01-2.36360E-02 1.81287E-05 1.15333E-01-2.38444E-06 2.32936E-05
 -1     20832 9.98005E-02-3.36276E-02-2.20294E-05 8.69182E-02 1.70735E-06 6.97572E-05
 -1     20833 1.52021E-02 5.19999E-02-2.62406E-06 1.13526E-01-1.00659E-07 3.93376E-06
 -1     20834 5.99196E-02 2.31224E-02-1.15489E-06 1.32842E-01-1.93796E-06 9.50576E-06
 -1     20835 1.00751E-01-2.09437E-02-8.27136E-07 1.19708E-01-6.97869E-06 1.18455E-06
 -1     20836-1.09414E-01 5.63422E-02-1.74829E-06-2.76061E-02-8.00037E-06 1.42607E-07
 -1     20837 7.29249E-02-3.65334E-02-3.44731E-06 6.84722E-02 9.81242E-06-1.28219E-06
 -1     20838 3.14363E-02-2.67501E-02-2.15698E-06 5.38188E-02 7.74751E-06-1.48674E-05
 -1     20839 9.23921E-02-1.03192E-02-1.29994E-05 1.28227E-01 1.07448E-05-1.63545E-05
 -1     20840-5.83859E-04 6.21152E-02 6.58024E-06 1.10776E-01-7.00329E-06 9.46240E-07
 -1     20841-6.48522E-02 7.87036E-02 5.53724E-06 8.97447E-02 1.90752E-05-2.26942E-05
 -1     20842-1.08082E-01 3.12498E-02-1.97116E-04 1.70324E-02-2.34667E-05-1.66638E-05
 -1     20843-6.64012E-02 1.12749E-02-1.99250E-05 2.94089E-02-6.41354E-05 1.12256E-04
 -1     20844-1.55735E-01 6.27846E-02 1.32504E-04-1.43853E-02 1.22655E-04-5.63539E-05
 -1     20845-1.13635E-01 5.59470E-02 2.40449E-06-3.18833E-02 6.60697E-06 4.43781E-06
 -1     20846-8.74601E-02 6.79266E-02-4.20023E-06 2.86953E-02-1.49637E-06 4.53691E-05
 -1     20847 6.67171E-02 1.68534E-02-9.55441E-07 1.33797E-01-3.83154E-06 8.23226E-06
 -1     20848-1.25621E-02 6.81547E-02 1.94131E-07 1.07600E-01 1.65099E-07 1.35035E-05
 -1     20849-1.18357E-01 5.61942E-02 1.79166E-06-3.47823E-02 2.01700E-06 1.92332E-06
 -1     20850-7.51101E-02 7.16871E-02 1.39335E-05 5.92999E-02-1.10805E-05 1.27799E-05
 -1     20851 9.52671E-02-3.67393E-02-1.23963E-05 8.11454E-02 1.03629E-05-2.14319E-05
 -1     20852 3.55564E-03-1.75221E-02 4.72660E-06 4.65435E-02 2.09329E-08-1.71859E-05
 -1     20853 3.11064E-02 4.30642E-02 4.62384E-06 1.20743E-01 6.18069E-06-1.91702E-06
 -1     20854-5.97998E-02 7.96627E-02 6.70853E-06 8.72542E-02 1.73228E-06-5.94151E-06
 -1     20855 4.92710E-02 1.59502E-02-1.84876E-06 1.13030E-01 1.94326E-06 8.74665E-06
 -1     20856 2.32621E-02 4.74700E-02 9.49456E-07 1.16914E-01 3.51537E-06 4.31425E-06
 -1     20857 6.44049E-03 4.40715E-02 1.91062E-06 9.24747E-02 5.05649E-06 5.82434E-06
 -1     20858-1.13167E-01 4.32762E-02 3.51744E-06 3.99606E-03-3.50586E-05-7.85954E-05
 -1     20859 7.46570E-02-6.35327E-03-9.93306E-06 1.16529E-01 1.53106E-05 7.08096E-06
 -1     20860 1.00869E-01-2.89679E-02 1.16359E-05 9.31619E-02-4.61721E-05-1.01356E-05
 -1     20861-1.23440E-01 4.42839E-02-4.19590E-05 6.94203E-03 7.96893E-05-7.56433E-05
 -1     20862-7.79527E-02 5.30330E-02 2.38961E-06 5.14847E-03-2.66624E-06 6.25832E-07
 -1     20863 3.30682E-02 2.86021E-02 5.54128E-06 1.06960E-01 6.71600E-07 2.10571E-05
 -1     20864-6.84228E-02 6.12517E-02-5.45177E-07 3.20130E-02 7.31700E-06-1.00931E-05
 -1     20865-1.02037E-01 4.71815E-02 1.00184E-05-1.16192E-02 1.57085E-05-2.01418E-05
 -1     20866-1.05028E-01 4.62219E-02-4.42310E-05-6.91371E-03 1.50319E-05-2.60527E-06
 -1     20867 9.50416E-02-2.64045E-02-9.61930E-05 1.09074E-01 6.57936E-06 3.21773E-05
 -1     20868 4.14574E-02 2.25788E-02 1.58193E-06 1.10705E-01-8.23373E-08 1.50994E-05
 -1     20869 1.02554E-01-3.07886E-02 2.25980E-05 9.85185E-02-3.54041E-05 1.40988E-05
 -1     20870 1.00425E-01-3.51113E-02-6.73361E-06 9.17478E-02-4.96241E-05 1.08689E-05
 -1     20871-1.94972E-02 5.91996E-02 2.23580E-06 8.45370E-02-1.54713E-06 9.18326E-06
 -1     20872 6.62427E-02 1.33494E-03 1.20114E-06 1.16458E-01 1.70117E-07 2.39844E-05
 -1     20873-3.15066E-03 4.88756E-02 3.38922E-07 8.74965E-02-7.61565E-07 4.06125E-06
 -1     20874 6.68893E-02-3.43035E-02 4.20916E-06 7.33206E-02 5.80110E-06-8.45731E-06
 -1     20875 1.54014E-02 3.90911E-02-4.21892E-07 9.71593E-02 4.87710E-07 3.58986E-06
 -1     20876 8.37138E-02-3.70729E-02 6.39926E-06 8.16032E-02 1.23894E-05 5.18391E-06
 -1     20877-4.71331E-02 7.99407E-03 9.01384E-08 3.56956E-02 1.38934E-06-2.37807E-05
 -1     20878-1.19424E-02 5.40147E-02 2.63180E-07 8.47895E-02-1.57347E-06 5.00570E-06
 -1     20879-8.07970E-02 5.09782E-02-2.11360E-06-8.09847E-04-9.22710E-07-5.91175E-07
 -1     20880 8.92684E-02-2.07890E-02 6.00607E-06 1.12476E-01 3.75181E-05-2.69623E-05
 -1     20881-7.64413E-02 5.54961E-02-1.84556E-06 1.09511E-02 2.23874E-06-1.02431E-05
 -1     20882 8.24513E-02-1.38705E-02-1.27828E-05 1.15254E-01-5.02529E-05-1.98331E-05
 -1     20883-8.49778E-02 4.96295E-02 5.08273E-06-6.36851E-03-3.53216E-05-2.64564E-05
 -1     20884 5.76189E-02 8.82184E-03-5.66802E-06 1.15058E-01 6.38572E-06 6.42473E-06
 -1     20885-9.81242E-02 4.76089E-02 5.51307E-06-1.35133E-02-1.62207E-06-9.52115E-06
 -1     20886-7.01642E-02 7.22840E-02 1.24871E-06 5.96278E-02-3.88387E-07-2.00143E-05
 -1     20887-6.65827E-02 6.51300E-02-1.45844E-05 4.30137E-02 9.27276E-06-4.23959E-06
 -1     20888-6.71076E-02 6.92403E-02 1.30746E-06 5.29094E-02-1.28811E-05-3.46074E-05
 -1     20889 1.02210E-01-3.14330E-02 1.93350E-05 1.02421E-01 4.56996E-05 4.30533E-05
 -1     20890-1.07738E-01 4.45140E-02 7.70139E-05-6.77797E-04-9.18801E-06-2.81350E-05
 -1     20891 9.55502E-02-3.61288E-02-8.38441E-05 9.02811E-02 1.71279E-05-1.40128E-04
 -1     20892 2.35428E-02 3.40639E-02-3.00962E-06 1.01342E-01 3.32931E-06 1.03038E-05
 -1     20893-7.25468E-02 5.81550E-02-4.37763E-06 2.06405E-02-1.03747E-06-9.24169E-06
 -1     20894-8.93299E-02 4.85981E-02-1.11738E-05-1.06163E-02 5.93944E-06-2.33752E-05
 -1     20895-5.12215E-02 7.53218E-02-1.76392E-05 8.25197E-02 8.99334E-06-4.97930E-05
 -1     20896-1.10889E-02-8.03384E-03 6.03262E-06 4.71870E-02-2.27899E-06 5.11885E-06
 -1     20897 4.56914E-02-2.88137E-02-1.13885E-06 6.51421E-02 1.24677E-05-8.81214E-06
 -1     20898-4.22979E-02 6.87383E-02-6.53253E-06 7.72725E-02-8.63374E-06 1.36207E-05
 -1     20899-9.38181E-02 4.79583E-02 7.45953E-06-1.31402E-02 2.75113E-06-1.71543E-05
 -1     20900 7.69905E-02-3.29463E-02 1.68487E-05 8.54917E-02-1.69439E-05 6.31644E-06
 -1     20901 2.87228E-02 1.77486E-02-8.20520E-07 9.21575E-02-2.11675E-06 1.14960E-05
 -1     20902 9.92889E-02-3.02579E-02 7.33952E-05 1.05047E-01 3.65463E-05-7.57796E-06
 -1     20903 1.97912E-02-2.01932E-02 2.77624E-06 5.66530E-02 5.24784E-06-3.65956E-06
 -1     20904-7.36917E-02 3.46773E-02 3.70888E-05 1.12395E-02-4.76357E-06 3.00590E-06
 -1     20905-8.61309E-02 2.64115E-02 3.35721E-06 2.17102E-02 1.86849E-05-1.29493E-04
 -1     20906-6.92225E-02 2.38120E-02-2.92936E-05 2.40500E-02-8.69921E-05 3.18076E-05
 -1     20907 9.07941E-02-3.35035E-02 4.90199E-05 9.50034E-02-2.44659E-05-2.32091E-05
 -1     20908-4.46803E-02 6.25657E-02-1.25783E-05 6.20575E-02 8.63462E-06-8.04436E-06
 -1     20909-7.26342E-02 3.04109E-02 5.28265E-05 1.69534E-02 1.46905E-05 6.08374E-05
 -1     20910-2.41996E-02 6.42044E-02-6.87719E-06 8.80340E-02 5.23396E-07 1.62350E-05
 -1     20911 2.10298E-02 2.43057E-02 4.72899E-06 8.92567E-02-3.04563E-06 1.10578E-05
 -1     20912 5.83224E-02-5.62501E-03-1.08129E-05 1.01655E-01 2.33557E-05-1.23500E-07
 -1     20913-5.29077E-02 4.75465E-02 6.25521E-06 2.75065E-02-1.73920E-05 5.36949E-06
 -1     20914-2.37711E-02 4.61573E-02-2.84207E-06 5.96584E-02 1.14460E-05 1.28951E-05
 -1     20915 3.76972E-02 1.03722E-02-8.78142E-06 9.54447E-02 1.36176E-07 1.06392E-05
 -1     20916-4.23108E-02 5.70744E-02-3.57621E-06 5.46763E-02-2.42281E-08-4.80912E-06
 -1     20917 8.41866E-02-2.82142E-02 3.75593E-05 9.86910E-02-3.05818E-05-1.29700E-06
 -1     20918-5.69531E-02 4.48826E-02-4.08499E-07 2.01182E-02 1.39645E-05 2.29707E-06
 -1     20919 1.04512E-02 3.03758E-02 5.79321E-06 8.26556E-02-1.59990E-06 7.60362E-06
 -1     20920 6.79637E-02-1.37512E-02-7.08593E-05 1.02369E-01-1.08962E-06 2.32039E-05
 -1     20921-2.68892E-02 3.77949E-03-4.56402E-05 4.32169E-02-3.77465E-05-2.09197E-05
 -1     20922-6.13774E-02 4.27101E-02 1.70095E-05 1.41268E-02-5.64415E-06-6.91590E-08
 -1     20923-7.16769E-03 4.12282E-02-6.12621E-07 7.31253E-02-9.79814E-06-1.50683E-06
 -1     20924-5.16337E-02 5.08344E-02 5.66705E-07 3.33773E-02-1.11599E-06 1.56399E-06
 -1     20925 5.82667E-02-2.89732E-02 1.17119E-06 7.64551E-02 1.66847E-05-2.51350E-05
 -1     20926-7.24384E-02 3.73826E-02 5.86942E-06 8.32942E-03-3.94137E-06-2.35552E-05
 -1     20927-3.81286E-02 1.37961E-02-8.04387E-07 3.71520E-02 7.85016E-06-2.28071E-05
 -1     20928 7.64634E-02-2.15284E-02 4.92970E-05 1.01046E-01 1.98741E-05-9.95118E-06
 -1     20929-3.00739E-02 4.21675E-02-7.22333E-06 4.77633E-02 2.01886E-06 1.12802E-05
 -1     20930 4.80273E-02 2.37073E-03-2.86522E-06 9.89747E-02-2.11356E-05-2.36635E-05
 -1     20931-2.97150E-02 5.14545E-02-1.47976E-06 6.01690E-02 4.15916E-06 2.74601E-06
 -1     20932 5.59986E-03 2.19347E-02-2.96164E-06 7.09845E-02 2.42243E-06 1.03971E-05
 -1     20933-5.39533E-02 5.43985E-02-1.96284E-06 3.62523E-02 3.79793E-06-4.28808E-06
 -1     20934-4.64129E-03 3.62810E-02 6.13407E-06 7.09102E-02 2.16490E-05 6.58969E-06
 -1     20935 1.40747E-02 1.48531E-02-7.96410E-06 7.50113E-02 2.44482E-05-3.16100E-07
 -1     20936-4.34999E-02 2.10070E-02-3.30974E-05 3.21757E-02-3.52451E-05-1.45057E-05
 -1     20937 6.73692E-03-1.09846E-02 5.66164E-06 5.63048E-02 6.79116E-06 1.84883E-05
 -1     20938 3.49617E-02-2.17440E-02 6.15120E-06 6.68522E-02 5.64434E-06 3.65903E-06
 -1     20939 5.02079E-02-1.08935E-02 1.02455E-05 8.95295E-02 1.35161E-05 1.68872E-05
 -1     20940-3.40862E-02 3.87177E-02 3.02049E-06 4.01886E-02-1.38819E-05-6.53591E-06
 -1     20941 3.80458E-02-2.12562E-03 4.76026E-05 8.58442E-02 5.16280E-05 3.04452E-06
 -1     20942 9.09553E-04 2.73892E-02 6.49097E-06 6.97934E-02-4.62812E-06 8.19134E-06
 -1     20943-5.12739E-03-1.08399E-03-1.43817E-05 5.36213E-02-1.38741E-05 7.40805E-05
 -1     20944 6.86976E-02-2.66413E-02-5.90043E-05 8.82368E-02 7.51952E-07-5.64320E-05
 -1     20945-6.56086E-02 4.08465E-02 2.80506E-06 9.91963E-03-5.88213E-06-2.59728E-05
 -1     20946-6.93323E-02 3.91673E-02 3.32334E-06 8.00292E-03-2.74356E-06-1.12493E-05
 -1     20947-4.65804E-02 2.63674E-02-1.18409E-05 2.81047E-02 1.85706E-05 1.80472E-05
 -1     20948 2.53894E-02 6.39260E-03-2.44061E-05 8.03554E-02 7.51791E-06 9.89104E-06
 -1     20949 5.95173E-02-1.90395E-02 4.23289E-05 8.94460E-02-6.36022E-06-7.79118E-06
 -1     20950-1.25224E-02 7.27481E-03-9.16941E-06 5.06127E-02 4.22283E-05 1.56606E-05
 -1     20951 2.37293E-02-1.30648E-02 5.79856E-06 6.64503E-02 2.77934E-08 7.53469E-06
 -1     20952 3.87976E-02-1.34864E-02 1.91429E-05 7.76117E-02-3.11787E-05-1.02369E-05
 -1     20953-1.49605E-02 2.27649E-02-8.32381E-06 5.16427E-02-1.09556E-05-3.10473E-06
 -1     20954-1.82155E-02 2.87219E-02 4.19672E-06 5.08344E-02 1.00301E-05-2.04901E-06
 -1     20955-1.45496E-02 3.27923E-02 1.24989E-06 5.69447E-02-1.92194E-05 1.33172E-06
 -1     20956 4.85179E-02-2.16590E-02 2.18668E-05 7.76431E-02-4.28727E-06 2.28471E-05
 -1     20957 3.07109E-04 1.31522E-02 7.69349E-06 6.14737E-02-2.65429E-05-4.93553E-05
 -1     20958-1.82071E-02 1.45772E-02 8.23423E-06 4.75940E-02 6.37217E-05 7.37726E-05
 -1     20959 1.40784E-02-4.14855E-03-1.72895E-06 6.49813E-02-4.48820E-05-1.07290E-05
 -1     20960-3.92652E-02 3.58387E-02 4.84342E-06 3.32244E-02 2.41450E-05 1.78025E-05
 -1     20961 3.05791E-02-5.72674E-03-2.29667E-06 7.66892E-02 9.08396E-06-5.54498E-05
 -1     20962 1.12418E-02 3.74694E-03-1.41651E-06 6.65289E-02 1.33211E-05-1.85832E-05
 -1     20963-4.50014E-02 2.97834E-02-4.61181E-06 2.77987E-02-4.20030E-06 2.42491E-06
 -1     20964-4.19693E-02 3.26326E-02 4.15362E-06 2.99328E-02-9.98777E-06-8.19612E-06
 -1     20965-2.44839E-02 2.11881E-02-2.31956E-05 4.35070E-02 2.37872E-05 3.46988E-05
 -1     20966 4.79874E-02 1.12498E-02-6.01909E-06 8.65220E-02 3.37960E-08-1.60803E-05
 -1     20967 5.29998E-02 1.42546E-02 2.93796E-06 9.65379E-02 1.63454E-05-2.71383E-05
 -1     20968 6.56439E-02 1.10953E-02-2.62250E-06 1.09769E-01 7.72866E-06-4.68103E-07
 -1     20969 7.60657E-02 1.28660E-02-8.09235E-06 1.27944E-01 2.40818E-05-1.59480E-05
 -1     20970 8.46558E-02 1.75807E-02-7.27996E-05 1.48151E-01 9.97521E-05 3.67877E-05
 -1     20971 9.07110E-02 2.44683E-02 4.29034E-05 1.67692E-01 8.10933E-06 7.06889E-05
 -1     20972 9.40523E-02 3.23277E-02-1.80658E-05 1.84658E-01 3.15556E-06 3.16038E-05
 -1     20973 9.48247E-02 3.98093E-02-2.05129E-05 1.97170E-01 8.63932E-06 2.89953E-05
 -1     20974 9.36623E-02 4.60418E-02 7.96286E-06 2.04988E-01 4.70262E-06 4.09833E-06
 -1     20975 9.12562E-02 5.07165E-02 8.43501E-06 2.08531E-01-2.63403E-05-1.19877E-05
 -1     20976 8.76831E-02 5.40087E-02-5.60870E-06 2.08343E-01-7.03395E-06 1.44938E-05
 -1     20977 8.22329E-02 5.64008E-02-3.79186E-05 2.04168E-01-4.13482E-06 1.01408E-05
 -1     20978 7.37705E-02 5.85703E-02 6.46357E-05 1.96104E-01-5.82712E-05 1.12950E-04
 -1     20979 5.98536E-02 6.23429E-02-1.58183E-05 1.82544E-01-3.34925E-05-3.63990E-05
 -1     20980 3.00345E-02 7.23822E-02 4.36202E-05 1.58648E-01 5.73050E-05-3.46717E-06
 -1     20981-4.11245E-02 1.05371E-01-1.09299E-04 1.34585E-01-2.23724E-04 8.88296E-04
 -1     20982-5.93362E-02 1.15670E-01 1.04610E-04 1.52236E-01-1.00244E-04 1.26383E-04
 -1     20983-6.32829E-02 1.22649E-01 7.32053E-05 1.33450E-01 3.02571E-04 1.56490E-04
 -1     20984-5.29203E-02 9.74289E-02 5.30748E-04 9.93822E-02-1.60605E-04 1.72749E-04
 -1     20985-5.68584E-02 3.68467E-02-2.67781E-04 6.71382E-03-1.03805E-05 2.33544E-04
 -1     20986-9.81214E-02 4.84840E-02 9.51884E-06-2.20796E-02-1.89918E-05-1.30265E-04
 -1     20987-1.32217E-01 6.20323E-02 2.69863E-05-4.34278E-02-2.01297E-05 7.50997E-07
 -1     20988-1.57869E-01 7.03621E-02 6.96144E-06-6.40119E-02 1.41540E-06 2.19949E-06
 -1     20989-1.74363E-01 7.50326E-02 3.72928E-05-7.86244E-02-1.41782E-05 1.25428E-05
 -1     20990-1.85524E-01 7.79629E-02 2.49921E-05-8.91209E-02 8.38270E-07 5.27319E-06
 -1     20991-1.93545E-01 8.00596E-02 9.16100E-06-9.63264E-02 7.02681E-07 1.09004E-05
 -1     20992-2.00076E-01 8.21603E-02-5.03095E-06-1.00893E-01-1.09827E-05-8.27274E-06
 -1     20993-2.07730E-01 8.53872E-02-3.21760E-05-1.03865E-01-2.97196E-05-8.51303E-06
 -1     20994-2.20021E-01 9.13022E-02 5.62121E-05-1.05979E-01 4.99275E-05 1.06269E-05
 -1     20995-2.43860E-01 1.03607E-01-1.03948E-04-1.07441E-01 6.26690E-05-8.16959E-05
 -1     20996-3.08138E-01 1.35876E-01 6.88698E-05-8.57541E-02 6.27809E-04 2.07295E-04
 -1     20997-3.45071E-01 1.33793E-01 1.22558E-03-3.36006E-03-1.18459E-03 1.92030E-03
 -1     20998-1.35229E-01 1.18905E-02 9.79665E-05 4.99248E-03-4.66135E-04-2.03394E-04
 -1     20999-5.02847E-02-6.62747E-03-5.74904E-05 5.03314E-03 2.92512E-05 4.70969E-05
 -1     21000 5.65583E-03-1.36989E-02-1.39365E-05 1.64142E-02-4.64060E-05-1.44811E-05
 -1     21001 4.53291E-02-1.66269E-02 2.80425E-05 3.31323E-02 2.26869E-05-3.72010E-05
 -1     21002 7.12300E-02-1.69368E-02-1.53286E-05 5.14187E-02-8.38919E-05 2.55182E-05
 -1     21003 8.40819E-02-1.47329E-02-5.19486E-06 6.89657E-02-3.58473E-05-1.61654E-05
 -1     21004 8.54289E-02-1.07688E-02 1.25575E-05 8.33273E-02 2.36998E-05-1.99922E-05
 -1     21005 7.61010E-02-4.18193E-03 2.82779E-05 9.12639E-02-3.82160E-05-3.13746E-05
 -1     21006 5.90043E-02 4.86620E-03-2.97890E-07 9.06606E-02-1.27831E-05-3.48880E-06
 -1     21007-3.71035E-02 5.14230E-02 7.07431E-06 5.43216E-02-2.95684E-04-9.96789E-04
 -1     21008 4.34627E-02 1.11690E-02-1.39968E-05 8.09878E-02 3.02634E-05-3.01221E-05
 -1     21009 4.95608E-02 1.38683E-02 4.06776E-05 9.12498E-02 2.62179E-05 2.65473E-05
 -1     21010 5.89317E-02 1.29231E-02-2.12119E-06 1.02919E-01-1.64922E-05-1.25869E-05
 -1     21011 7.10001E-02 1.14650E-02-4.03823E-06 1.18326E-01 2.34892E-05 1.03024E-05
 -1     21012 8.05282E-02 1.49338E-02 4.07902E-05 1.37833E-01 4.83432E-05 1.15773E-04
 -1     21013 8.81420E-02 2.06754E-02-6.69269E-06 1.58029E-01-1.34350E-05-6.33843E-06
 -1     21014 9.26629E-02 2.84222E-02-2.45928E-05 1.76646E-01 1.86970E-05 4.62249E-05
 -1     21015 9.46135E-02 3.62624E-02-2.80358E-05 1.91486E-01-1.78644E-05 1.95698E-05
 -1     21016 9.43933E-02 4.31512E-02-3.00920E-05 2.01617E-01 7.36734E-06 9.21386E-06
 -1     21017 9.26072E-02 4.85447E-02-2.25665E-06 2.07219E-01 9.81786E-06-1.51134E-05
 -1     21018 8.96291E-02 5.25148E-02 1.73169E-05 2.08903E-01 2.31483E-05 3.53650E-05
 -1     21019 8.52506E-02 5.52554E-02 3.42893E-06 2.06730E-01-1.96977E-05 1.41752E-05
 -1     21020 7.84702E-02 5.75027E-02-2.73015E-05 2.00606E-01 1.65112E-05 2.25081E-05
 -1     21021 6.79139E-02 6.01758E-02-5.31138E-05 1.90193E-01-6.43399E-05-5.34953E-05
 -1     21022 4.85167E-02 6.57388E-02 5.64590E-05 1.72619E-01-3.02772E-05 1.75611E-04
 -1     21023 1.86685E-03 8.48237E-02-5.48865E-05 1.42904E-01-1.76664E-04-6.84767E-05
 -1     21024-6.23029E-02 1.20698E-01-2.32877E-05 1.45605E-01-1.60160E-05 1.43028E-06
 -1     21025-6.02127E-02 1.15761E-01 1.91289E-04 1.19460E-01 1.92845E-04 1.41692E-04
 -1     21026-7.80511E-02 4.02334E-02 1.08268E-04-1.14134E-02-1.68866E-04-5.36252E-05
 -1     21027-1.16314E-01 5.61067E-02 5.51473E-06-3.23924E-02-4.23870E-05-7.78438E-05
 -1     21028-1.46114E-01 6.67089E-02-6.71460E-06-5.42083E-02-5.47947E-06 1.71050E-06
 -1     21029-1.66955E-01 7.30202E-02 7.18518E-06-7.19791E-02 6.66731E-06 3.73967E-06
 -1     21030-1.80438E-01 7.66590E-02 3.08436E-05-8.42551E-02 7.38805E-06 2.75162E-05
 -1     21031-1.89809E-01 7.90948E-02-3.49875E-05-9.31236E-02 3.19262E-05-1.45232E-05
 -1     21032-1.96922E-01 8.10876E-02 2.34089E-06-9.89042E-02 2.06855E-05 3.84244E-06
 -1     21033-2.03599E-01 8.35681E-02 4.84789E-06-1.02496E-01 1.05473E-05-2.91737E-05
 -1     21034-2.12960E-01 8.78537E-02-4.30206E-05-1.04909E-01 2.19929E-05-1.01849E-04
 -1     21035-2.29884E-01 9.63431E-02-6.30152E-06-1.06916E-01-7.11548E-06-1.01060E-04
 -1     21036-2.67797E-01 1.16324E-01 6.38828E-05-1.04772E-01-9.92129E-05-2.55421E-04
 -1     21037-2.00517E-02-1.07214E-02 3.76569E-05 9.64530E-03-4.29409E-05-3.81292E-06
 -1     21038-2.06045E-01 4.04990E-02-3.01027E-04 1.68098E-02-1.49878E-03 2.16328E-04
 -1     21039-8.78840E-02 4.61787E-04 2.01642E-05 2.87442E-03 9.44548E-05-1.58376E-04
 -1     21040 2.72391E-02-1.53809E-02 2.45788E-05 2.43367E-02-1.02880E-05-3.30497E-05
 -1     21041 5.98218E-02-1.69691E-02 5.60890E-05 4.22405E-02 6.36091E-05-8.48649E-05
 -1     21042 7.91656E-02-1.60747E-02-1.37576E-05 6.05020E-02-2.84606E-05-4.44686E-06
 -1     21043 8.62289E-02-1.30396E-02 3.01184E-05 7.67794E-02-9.98817E-06-1.35168E-05
 -1     21044 8.19721E-02-7.80628E-03-6.38771E-06 8.82013E-02 1.27314E-05 1.90499E-05
 -1     21045 6.81686E-02 2.22785E-04-2.11108E-05 9.21580E-02 1.92361E-05-2.88762E-06
 -1     21046-1.69619E-01 7.22691E-02-5.88650E-07-7.81741E-02-6.47930E-06-1.92510E-05
 -1     21047 7.48615E-02-1.12834E-03-5.03888E-06 1.00475E-01-1.10803E-05-8.47423E-06
 -1     21048 8.59076E-02-3.55934E-03 2.14586E-06 1.15194E-01-6.74391E-06-1.79615E-06
 -1     21049 9.35060E-02-1.74827E-03 1.24544E-05 1.31346E-01-2.30378E-05-3.45442E-05
 -1     21050 9.69168E-02 4.13979E-03-1.09505E-05 1.47069E-01-2.56595E-05 1.48112E-05
 -1     21051 9.62420E-02 1.31905E-02 7.82884E-05 1.61331E-01-2.05910E-05 3.49329E-05
 -1     21052 9.24599E-02 2.32313E-02 9.02989E-05 1.71662E-01-3.50277E-05 2.62292E-05
 -1     21053 8.66483E-02 3.26973E-02 3.23939E-05 1.77424E-01 2.25303E-05 1.96391E-05
 -1     21054 8.00941E-02 4.06803E-02 1.21886E-05 1.79655E-01 2.44124E-05 6.51086E-05
 -1     21055 7.31196E-02 4.69680E-02 3.91811E-05 1.78985E-01-4.42090E-05 1.61623E-05
 -1     21056 6.44772E-02 5.21537E-02 5.73680E-06 1.74657E-01 7.97731E-06 9.53336E-07
 -1     21057 5.26357E-02 5.75804E-02-2.89222E-06 1.67084E-01 2.29772E-05 3.16538E-05
 -1     21058 3.55982E-02 6.55114E-02 5.03735E-06 1.57649E-01 1.40565E-05 2.38980E-05
 -1     21059 5.52648E-03 8.05173E-02 4.67619E-06 1.44885E-01 3.74463E-07 5.42042E-05
 -1     21060-4.76012E-02 1.10523E-01-6.86869E-05 1.44453E-01 3.92311E-04-3.08390E-05
 -1     21061-5.26687E-02 8.00344E-02-8.19483E-05 1.03428E-01 3.05627E-04 1.59784E-04
 -1     21062-1.78335E-01 7.52153E-02-1.33290E-05-8.16899E-02 4.04890E-06-6.04336E-07
 -1     21063-8.10707E-02 5.60437E-02 6.99006E-06 2.53229E-02-2.37430E-05-5.27712E-05
 -1     21064-5.78022E-02 9.61078E-02 4.83837E-06 1.28550E-01-2.57235E-05-4.68171E-05
 -1     21065-1.61910E-01 7.08616E-02-1.81529E-05-7.12137E-02-2.47407E-06-2.54101E-05
 -1     21066-1.12693E-01 6.37904E-02-1.97619E-06-9.28134E-03 3.91744E-05 2.28440E-06
 -1     21067-1.35021E-01 6.77803E-02 2.80823E-06-3.64836E-02-3.52228E-05-1.48093E-05
 -1     21068-1.72557E-01 4.68801E-02-2.91911E-04 1.24885E-02 3.43568E-04-1.02415E-04
 -1     21069-1.47839E-01 6.95233E-02-3.40748E-05-5.33696E-02-1.52433E-05-1.25465E-05
 -1     21070-9.72550E-02 6.04590E-02 8.80307E-06 8.98607E-03 1.65641E-05-1.26016E-05
 -1     21071-1.57686E-01 7.03532E-02-3.11589E-05-6.63055E-02-3.17081E-05-2.94720E-06
 -1     21072-1.42268E-01 6.90146E-02 1.60823E-05-4.55974E-02-4.15641E-05 7.97080E-06
 -1     21073-1.65879E-01 7.14826E-02-1.39131E-05-7.52030E-02-3.63664E-05-3.28753E-05
 -1     21074-1.53025E-01 6.99217E-02-2.60102E-05-6.03052E-02-1.99931E-05-2.11274E-05
 -1     21075-1.73652E-01 7.34594E-02-6.38717E-06-8.03254E-02-3.22047E-06-2.58574E-05
 -1     21076-4.61419E-02 5.55556E-02 3.18218E-05 6.69279E-02-8.24385E-07 2.99130E-05
 -1     21077-1.91439E-01 8.10529E-02 5.60056E-06-8.26907E-02 4.66690E-05 1.59224E-05
 -1     21078-2.13239E-01 9.20930E-02-7.10244E-05-7.79266E-02 3.70498E-05 3.57196E-05
 -1     21079-2.46282E-01 1.06227E-01-4.70408E-04-5.25470E-02-1.38099E-04 3.13378E-04
 -1     21080-6.74312E-02 5.72545E-04-8.35443E-05 1.89764E-02 8.79684E-05-8.05079E-05
 -1     21081-2.49009E-01 9.44382E-02 3.81958E-05-1.54125E-02 9.29296E-04-1.32331E-03
 -1     21082 7.56192E-02-2.85122E-02-4.81550E-05 5.69805E-02 2.74386E-05-5.41282E-05
 -1     21083 2.45916E-02-2.32480E-02 7.52724E-06 3.39972E-02 2.32092E-05 2.24953E-05
 -1     21084 9.04109E-02-2.55564E-02-3.29687E-05 7.15135E-02-2.86361E-05-2.68015E-05
 -1     21085-7.26609E-04-1.78734E-02-3.26306E-06 2.78780E-02-1.20253E-05 2.15602E-05
 -1     21086 8.47884E-02-2.76381E-02 7.39483E-05 6.43897E-02 4.37903E-05-1.04018E-05
 -1     21087 9.23015E-02-1.91961E-02-3.25477E-06 8.47624E-02 1.89443E-05 1.18047E-05
 -1     21088 8.14175E-02-8.13629E-03-1.31294E-06 9.32690E-02-3.27536E-06-1.45133E-05
 -1     21089 6.14494E-02 5.82721E-03-4.03007E-06 9.34963E-02-2.06878E-05 6.27184E-06
 -1     21090-5.94100E-02 1.08069E-01 5.39162E-05 1.43314E-01 2.74028E-04 1.78673E-05
 -1     21091 6.47984E-02 5.49671E-03-1.38666E-05 9.77271E-02 6.48689E-06-4.11826E-05
 -1     21092 6.26672E-02-2.82574E-02 2.84033E-05 4.89216E-02 9.57018E-05-1.94690E-05
 -1     21093-6.29602E-02 5.24939E-02 6.05369E-05 4.33485E-02-3.09005E-05-8.34287E-05
 -1     21094 5.91232E-02 5.46905E-02 4.51444E-06 1.71258E-01 1.62067E-05 3.34498E-05
 -1     21095 8.07883E-02-2.86236E-03 3.03244E-06 1.07586E-01-7.52961E-06-3.86389E-06
 -1     21096 9.00269E-02-3.09890E-03-4.18229E-06 1.23249E-01-4.84690E-05 4.24480E-05
 -1     21097 9.58138E-02 7.59618E-04-4.77797E-06 1.39315E-01 5.97681E-05-6.43575E-05
 -1     21098 9.70208E-02 8.49195E-03-5.54606E-05 1.54564E-01-5.49814E-06 1.63577E-05
 -1     21099 9.46502E-02 1.82621E-02-1.29896E-06 1.66934E-01 2.83379E-05 3.15554E-05
 -1     21100 8.97256E-02 2.81632E-02 2.14779E-05 1.75065E-01 1.02855E-05 2.19273E-05
 -1     21101 8.34476E-02 3.69513E-02-3.81523E-05 1.79045E-01-8.86527E-06 4.10480E-05
 -1     21102 7.66258E-02 4.41098E-02 3.74831E-06 1.79660E-01 2.71033E-05 9.53282E-07
 -1     21103 6.91123E-02 4.96537E-02 1.57072E-05 1.77265E-01 5.96667E-06 4.96479E-05
 -1     21104 4.46396E-02 6.12000E-02 1.01810E-05 1.62146E-01-2.37951E-05-3.03008E-05
 -1     21105 2.34562E-02 7.15850E-02-1.70162E-05 1.52009E-01-7.50612E-05-9.42349E-05
 -1     21106-2.03631E-02 9.44182E-02-1.31293E-05 1.40620E-01 9.63807E-05 1.13076E-04
 -1     21107-1.26138E-01 6.64513E-02 8.49527E-06-2.53187E-02 8.92355E-06-2.28103E-05
 -1     21108-3.08291E-02-1.06848E-02 1.55001E-05 2.29197E-02-1.22207E-05 3.71549E-05
 -1     21109 8.86035E-02-1.45149E-02 4.29811E-06 8.98591E-02 5.03280E-05 9.49524E-06
 -1     21110-2.29586E-01 9.99437E-02-8.49516E-05-7.01333E-02 3.82347E-05-3.40471E-04
 -1     21111-1.84057E-01 7.76194E-02 4.23698E-05-8.22980E-02-1.63646E-05-1.21322E-05
 -1     21112-2.00786E-01 8.56544E-02 4.58601E-05-8.13533E-02 4.41431E-05 4.89052E-05
 -1     21113-1.11803E-01 1.64316E-02-6.53679E-05 1.60305E-02-7.28045E-05 4.45819E-06
 -1     21114 4.54855E-02-2.62037E-02 6.49635E-07 4.11503E-02 5.90800E-06 1.20253E-05
 -1     21115 9.29916E-02-2.28255E-02 2.75195E-05 7.86149E-02-6.53094E-05-5.02131E-06
 -1     21116 7.21812E-02-1.35567E-03 1.36888E-06 9.41908E-02 1.28193E-05 5.35907E-06
 -1     21117-8.76521E-02 1.51281E-02-4.12831E-05 2.33882E-02 3.83389E-05-1.01731E-05
 -1     21118-8.94595E-03 7.93421E-02-1.50895E-04 1.29622E-01 1.50604E-05 6.34567E-05
 -1     21119-1.22358E-02-1.44444E-02-7.54593E-06 3.61929E-02 2.70328E-06 1.60963E-05
 -1     21120-5.13379E-02 9.81956E-02 6.10197E-06 1.29177E-01-1.82197E-04-1.00546E-04
 -1     21121-2.86070E-02 8.91484E-02 5.64438E-05 1.27243E-01-6.37035E-05 1.76906E-05
 -1     21122 1.00664E-01-1.46302E-02 3.10845E-05 1.23137E-01 2.72876E-05-5.48308E-05
 -1     21123 9.76041E-02-2.96693E-02-1.92534E-06 8.22999E-02-2.58877E-05-6.19296E-06
 -1     21124 9.97675E-02-8.13172E-03-5.64425E-06 1.35691E-01-1.32209E-05-1.20807E-05
 -1     21125 9.39940E-02 2.77309E-03-2.67098E-05 1.46157E-01-5.42577E-05 4.18481E-05
 -1     21126-1.68762E-01 7.31364E-02 6.11151E-06-5.68608E-02-5.10296E-06 2.49896E-05
 -1     21127-1.07845E-01 6.65825E-02-1.84590E-05-1.49840E-03 5.42234E-05 8.61725E-05
 -1     21128-1.35968E-01 6.35293E-02 9.00850E-06-5.01399E-02-2.09453E-05 5.19541E-06
 -1     21129 6.94823E-02 3.09976E-02 2.39496E-06 1.53669E-01-1.00113E-05-7.62917E-06
 -1     21130 5.92073E-02 4.00596E-02 8.24973E-06 1.51751E-01 2.65205E-05-1.90669E-05
 -1     21131 3.35861E-02 5.51737E-02 9.38518E-06 1.40093E-01 2.14226E-05-3.84540E-06
 -1     21132 9.17466E-02-1.40478E-02 8.61508E-06 1.03929E-01-9.77926E-06-1.12474E-06
 -1     21133 1.45518E-02 6.52117E-02 9.20177E-06 1.32776E-01 5.29517E-05 5.15086E-05
 -1     21134 3.54738E-03 7.15765E-02-3.01608E-05 1.30318E-01 3.97726E-05 4.63318E-05
 -1     21135 9.91266E-02-1.57976E-02-4.76646E-05 1.16986E-01-5.89731E-05 3.64950E-06
 -1     21136-1.44001E-01 6.43601E-02 1.27115E-05-5.69396E-02-3.07063E-05-3.29671E-05
 -1     21137 6.07874E-02-3.30535E-02 2.31678E-07 5.57028E-02-2.19234E-05 3.71112E-06
 -1     21138 7.46607E-02 2.59419E-02-4.68664E-06 1.53828E-01 3.93343E-06-2.55837E-06
 -1     21139 2.48296E-02 5.97372E-02-4.18598E-06 1.36334E-01 1.64637E-05 7.16345E-06
 -1     21140-9.94305E-02 6.66731E-02-2.59708E-06 1.32656E-02 2.69475E-05-5.59121E-06
 -1     21141-1.31601E-01 6.35449E-02-2.34542E-06-4.45193E-02 9.53913E-06-2.19167E-05
 -1     21142-1.53613E-01 6.69365E-02-1.22569E-05-5.93513E-02 1.26791E-06-3.80659E-06
 -1     21143 1.01087E-01-1.21563E-02 1.60005E-07 1.29803E-01 1.60780E-05 2.88291E-05
 -1     21144-1.97104E-01 8.20839E-02-2.44527E-06-2.96970E-02-2.11802E-04 4.75425E-04
 -1     21145 4.09164E-02-2.92582E-02 2.99182E-06 4.86831E-02-1.25440E-05 1.06523E-05
 -1     21146-1.95334E-01 7.29049E-02 1.88843E-04-8.45575E-03-2.61312E-05 2.27301E-04
 -1     21147 9.41792E-02-1.94547E-02-2.61417E-06 9.38232E-02 1.95560E-05 3.76305E-06
 -1     21148 8.50906E-02 1.46743E-02-4.24001E-05 1.52121E-01-4.28912E-05 4.37173E-05
 -1     21149-1.60369E-01 6.94894E-02 1.06812E-05-5.88814E-02-2.55796E-05 9.63641E-06
 -1     21150 9.60517E-02-1.57277E-02 4.32730E-06 1.10200E-01 2.93695E-05 3.90865E-05
 -1     21151-1.88988E-01 8.12356E-02-3.51788E-05-4.44067E-02 7.93040E-05-8.88302E-05
 -1     21152 8.66325E-02-1.14476E-02 3.85101E-07 9.80510E-02 5.36481E-06 9.07059E-06
 -1     21153-6.06843E-02 8.73549E-02 9.34616E-06 1.12308E-01 3.36776E-05 3.62743E-06
 -1     21154 4.77662E-02 4.77142E-02 3.22049E-05 1.47312E-01 4.86126E-05 3.93658E-05
 -1     21155-7.19155E-02 6.84166E-02-1.14773E-06 6.37269E-02-5.25957E-05-6.34850E-05
 -1     21156 4.10503E-02 5.13685E-02 1.48435E-05 1.43910E-01 2.96097E-05 1.77555E-05
 -1     21157 1.67361E-02-2.32569E-02 6.97516E-07 4.22080E-02-3.89898E-06 1.60384E-05
 -1     21158-4.67514E-02-1.96241E-03-5.16335E-06 3.01344E-02-1.65919E-06-1.72314E-05
 -1     21159-8.26314E-02 6.81221E-02-3.50644E-06 4.31551E-02 2.21898E-06-3.11131E-05
 -1     21160-1.48285E-01 6.52839E-02-8.25417E-06-5.85792E-02 5.62868E-06-2.52149E-05
 -1     21161-1.39898E-01 6.37761E-02-1.31563E-05-5.40607E-02-6.33653E-06-3.90356E-05
 -1     21162 8.00312E-02 2.03288E-02 2.26815E-06 1.53409E-01-5.16647E-06 6.08906E-06
 -1     21163-1.37280E-01 3.91948E-02-1.10544E-05 1.35078E-02 7.37426E-05-1.00732E-04
 -1     21164-6.08926E-02 7.05453E-02-1.18643E-05 8.40962E-02 1.41066E-06-1.07383E-05
 -1     21165-1.13246E-01 6.59432E-02-1.18922E-05-1.21308E-02-7.31109E-06 9.11652E-06
 -1     21166 9.73850E-02-2.52077E-02-2.87647E-05 8.83288E-02 6.03307E-05 9.40977E-05
 -1     21167 9.73800E-02-3.08907E-03 6.15018E-06 1.41177E-01 3.05207E-05 2.83276E-06
 -1     21168 8.97814E-02 8.63464E-03 8.15531E-06 1.49469E-01 4.75248E-05 3.10695E-05
 -1     21169 6.43205E-02 3.57865E-02-1.31039E-06 1.53083E-01-1.30779E-06-5.32840E-06
 -1     21170-1.78183E-01 7.69991E-02 1.33308E-05-5.21867E-02-1.40684E-05 9.33762E-05
 -1     21171 7.65718E-02-3.51286E-02 2.75022E-06 6.30908E-02-1.48672E-05-1.97629E-06
 -1     21172 5.37540E-02 4.42180E-02-3.74314E-05 1.50247E-01 1.25218E-05 7.27679E-05
 -1     21173-1.27607E-01 6.41503E-02 4.83554E-05-3.79979E-02-5.90604E-05-3.66055E-05
 -1     21174 9.42261E-02-3.26245E-02-9.39102E-05 7.64526E-02 1.18668E-05-9.32709E-05
 -1     21175-1.22769E-01 6.45811E-02-2.17757E-05-3.02012E-02-1.99978E-05-5.14892E-05
 -1     21176 8.81558E-02-3.52603E-02 9.09839E-06 7.06784E-02 3.42824E-05 1.09281E-05
 -1     21177 4.53265E-02 3.37935E-02-4.80835E-06 1.27142E-01 2.82776E-07-2.63547E-05
 -1     21178-6.30790E-02 8.08140E-02-1.53377E-05 9.22451E-02-9.79370E-06 2.83357E-05
 -1     21179-1.17978E-01 6.52573E-02-9.05870E-06-2.13679E-02 7.99498E-06-2.27521E-05
 -1     21180 9.24671E-02-1.04304E-02 1.23959E-05 1.28216E-01 4.54499E-06-4.23928E-07
 -1     21181 9.83704E-02-2.28256E-02 1.58602E-05 9.88312E-02-3.73782E-05 1.25402E-05
 -1     21182-1.18590E-01 5.62665E-02-1.16366E-06-3.50429E-02-6.97413E-06-4.28731E-06
 -1     21183 1.02713E-01-2.44230E-02 1.60375E-05 1.14157E-01-2.74573E-05-2.35608E-05
 -1     21184 6.56352E-03 5.70237E-02-1.07577E-05 1.10856E-01 3.15998E-06 6.76098E-07
 -1     21185 5.84648E-02 2.24984E-02 2.06203E-06 1.30443E-01 1.25608E-06-8.23460E-06
 -1     21186 1.03057E-01-2.56055E-02-8.57330E-06 1.09148E-01-5.01949E-05-7.66882E-06
 -1     21187 7.30671E-02 9.63254E-03-7.04020E-06 1.32767E-01-2.78398E-06-4.27668E-06
 -1     21188-1.42208E-01 6.16404E-02-5.56761E-05-3.04744E-02-4.64797E-05 2.52860E-06
 -1     21189-1.48843E-02 6.85802E-02 1.07303E-05 1.05847E-01 1.50946E-05-1.97962E-05
 -1     21190-1.53121E-01 5.62962E-02-1.06930E-04-8.25009E-04 1.40748E-04-9.01992E-05
 -1     21191 5.16591E-02 2.83682E-02-3.68178E-06 1.28762E-01-2.57236E-06-1.23068E-05
 -1     21192-3.60130E-03 6.24568E-02-4.04207E-06 1.07878E-01 2.49535E-06 1.92221E-06
 -1     21193-8.49619E-02 6.80319E-02-3.40173E-05 3.12949E-02-4.51082E-06-2.16973E-05
 -1     21194-1.07272E-01 5.74636E-02 3.86232E-06-2.38645E-02-2.43424E-06 4.04539E-06
 -1     21195-1.28608E-01 5.79482E-02-2.45046E-06-3.58800E-02-7.71631E-06-1.72601E-06
 -1     21196 1.00776E-01-2.90736E-02 3.21039E-05 9.28698E-02 4.68853E-05 3.42460E-05
 -1     21197-1.22974E-01 5.67477E-02-3.37970E-06-3.59689E-02-4.71883E-06-3.68423E-06
 -1     21198-1.35281E-01 5.97379E-02-7.13768E-06-3.42267E-02 8.40092E-06-4.64646E-05
 -1     21199 5.53946E-02-3.30967E-02 3.08299E-06 6.16234E-02 2.70768E-06-2.48744E-06
 -1     21200 8.01619E-02 2.75833E-03 3.13542E-06 1.32444E-01 2.93364E-06-2.10528E-05
 -1     21201 9.71379E-02-1.63447E-02-9.68798E-06 1.24255E-01 1.39362E-05-1.77176E-05
 -1     21202 3.23326E-02 4.31542E-02-7.27942E-06 1.22211E-01-9.32710E-06-9.23638E-06
 -1     21203-1.55850E-01 6.30840E-02 2.42852E-04-1.52649E-02-1.20276E-04-1.21901E-06
 -1     21204 3.91428E-02 3.86428E-02-5.12488E-07 1.25156E-01 5.61862E-06 4.17327E-06
 -1     21205 6.57203E-02 1.62347E-02 6.34259E-06 1.31964E-01-5.38813E-06-2.50460E-06
 -1     21206-9.46648E-02 6.16755E-02-3.29970E-06 4.96284E-04 3.12876E-06 1.13949E-05
 -1     21207-9.03242E-02 6.38156E-02-3.62631E-06 1.13177E-02 2.03989E-05-1.20975E-05
 -1     21208 8.67184E-02-3.95815E-03-7.50367E-07 1.31034E-01-1.31985E-05 8.18953E-06
 -1     21209-3.24470E-02 8.18707E-02-2.08348E-05 1.12523E-01 1.14850E-05 2.56746E-05
 -1     21210-4.97462E-02 8.56723E-02-6.79108E-06 1.06517E-01 2.43290E-05-4.63563E-05
 -1     21211 8.76226E-02-3.76935E-02-6.06856E-06 7.68263E-02-7.87839E-06-9.20950E-07
 -1     21212 5.74464E-03-1.81181E-02-3.68801E-06 4.74050E-02 4.63782E-06 7.27588E-06
 -1     21213-1.11515E-01 5.68155E-02 6.86955E-07-2.95040E-02 4.53965E-06-3.33484E-06
 -1     21214-8.81640E-02 6.60137E-02 7.92622E-06 2.04402E-02 4.72277E-06 1.69446E-05
 -1     21215-1.02956E-01 5.84064E-02 4.16065E-07-1.70352E-02-5.72218E-06-3.99695E-07
 -1     21216-6.39154E-02 1.07609E-02-5.28736E-07 3.03828E-02 1.86366E-05-1.26509E-04
 -1     21217-2.64319E-02-5.59475E-03-6.15549E-06 3.96069E-02 1.90197E-05 7.25126E-06
 -1     21218-1.49939E-01 6.36586E-02-6.91357E-05-2.42131E-02 1.33188E-04-3.09807E-04
 -1     21219 9.97979E-02-3.32605E-02-3.89923E-06 8.65848E-02 4.65413E-05-3.68560E-05
 -1     21220-9.86728E-02 5.97049E-02 2.42906E-06-8.84369E-03 1.83563E-05 1.26418E-05
 -1     21221-7.92541E-02 7.01272E-02-2.77245E-06 4.58351E-02-1.01655E-06-7.56404E-07
 -1     21222 1.01432E-01-2.47642E-02-2.51357E-05 1.04145E-01 4.80572E-06-4.76992E-05
 -1     21223 3.28421E-02-2.70943E-02 2.70368E-06 5.45277E-02 3.98508E-07 4.16389E-06
 -1     21224 1.58387E-02 5.20770E-02 3.23161E-06 1.14321E-01 1.16149E-05-2.71370E-05
 -1     21225 7.35926E-02-3.66043E-02 4.78737E-06 6.90165E-02 1.73316E-06 1.30691E-05
 -1     21226 1.00696E-01-2.12116E-02 8.93367E-06 1.19313E-01 2.33180E-05 4.70862E-05
 -1     21227 2.45819E-02 4.75347E-02-1.19227E-06 1.18481E-01 1.35017E-05-1.53193E-05
 -1     21228-2.49981E-02 7.53954E-02 2.73443E-05 1.07279E-01-1.97905E-05-3.25138E-05
 -1     21229-1.14977E-01 5.62893E-02-1.47816E-06-3.30732E-02 1.12873E-05 8.52405E-06
 -1     21230-1.05449E-01 3.06255E-02-1.29166E-04 1.76292E-02 7.44586E-06 9.61921E-05
 -1     21231-1.02878E-01 4.77557E-02 5.82471E-06-1.29403E-02-1.33893E-05-1.58470E-05
 -1     21232-4.47980E-02 7.04847E-02 2.47510E-05 7.84784E-02-7.12894E-06-1.97710E-05
 -1     21233 9.51199E-02-2.64740E-02-5.03573E-05 1.09043E-01 1.42812E-05-4.62552E-05
 -1     21234-6.45127E-02 7.64868E-02-3.78369E-06 7.61473E-02 3.73357E-06 9.29914E-06
 -1     21235-1.16304E-01 4.54739E-02 3.17615E-05 1.18988E-03 1.00920E-04 4.83201E-05
 -1     21236 5.68730E-02 7.75448E-03-2.18521E-06 1.13075E-01 2.29921E-05 3.73122E-05
 -1     21237 6.77487E-02-3.44389E-02-5.74980E-06 7.38284E-02 7.07612E-06 1.15180E-05
 -1     21238 9.77129E-02-3.66874E-02 5.99076E-07 8.52110E-02-6.05404E-05 4.06302E-05
 -1     21239-7.19107E-02 5.77875E-02 4.36647E-06 2.07986E-02-1.65251E-06 8.35700E-06
 -1     21240 1.01754E-01-3.26265E-02 6.28678E-06 9.99862E-02 2.40592E-05-5.65662E-05
 -1     21241 8.29173E-02-1.43058E-02-1.66487E-05 1.15124E-01 4.72470E-05 2.35342E-05
 -1     21242-9.28648E-02 4.77505E-02-5.73170E-06-1.25469E-02 2.04739E-06-1.92328E-06
 -1     21243-2.07318E-02 5.92240E-02-1.36031E-06 8.31794E-02-5.12290E-06-7.99977E-06
 -1     21244-1.13267E-01 4.75717E-02-1.10591E-05-5.56793E-03-1.90247E-05-1.63896E-05
 -1     21245 6.58796E-02 3.36407E-04 7.24325E-06 1.15128E-01-1.12084E-05 5.19853E-06
 -1     21246-9.71853E-02 4.74430E-02-5.75250E-06-1.31268E-02 1.42295E-06 4.13498E-06
 -1     21247-1.21744E-01 4.40686E-02 7.45117E-06 6.69823E-03-3.25216E-05 1.01411E-04
 -1     21248-3.19433E-02 6.47497E-02 1.23820E-05 8.05292E-02-9.86402E-06-1.80959E-05
 -1     21249 9.91337E-02-3.05655E-02 3.42432E-05 1.04474E-01-4.68925E-05 6.60898E-06
 -1     21250-1.08378E-01 4.78356E-02 1.39459E-05-1.03312E-02-2.63128E-06-2.08320E-05
 -1     21251 8.97194E-02-2.08587E-02 3.74105E-06 1.12710E-01-1.58090E-05 2.42475E-05
 -1     21252 7.44771E-02-7.00120E-03-1.57009E-05 1.15692E-01-5.91142E-06-3.01724E-05
 -1     21253-4.79075E-02 7.75191E-02 2.37992E-05 9.04093E-02 4.59063E-07 8.89409E-05
 -1     21254 4.74142E-02-2.92081E-02-8.27317E-07 6.59814E-02-1.64843E-05 6.36512E-06
 -1     21255 9.51545E-02-3.63049E-02-2.29364E-05 9.04517E-02 2.60047E-05 6.18287E-05
 -1     21256-6.84483E-02 6.82205E-02-2.08249E-06 4.87462E-02-3.18509E-05 1.96645E-05
 -1     21257-7.57735E-02 5.52588E-02 9.39877E-07 1.13373E-02-9.53225E-07 9.38894E-06
 -1     21258 2.28034E-02-2.10041E-02-2.89076E-06 5.79817E-02-3.55491E-06-3.12937E-06
 -1     21259 2.40818E-02 3.40657E-02 1.26542E-06 1.01942E-01-3.44750E-06-1.56088E-05
 -1     21260 3.07842E-02 2.83366E-02-5.32877E-06 1.04014E-01 4.85299E-06-1.06221E-05
 -1     21261 3.82969E-02 2.20310E-02-6.79554E-07 1.06572E-01 2.85956E-06-6.13362E-06
 -1     21262 1.02363E-01-3.15758E-02 1.17665E-05 9.67995E-02 2.87874E-05 3.45283E-05
 -1     21263-6.80122E-02 6.08345E-02 3.73510E-06 3.16685E-02 2.72327E-06 1.11965E-05
 -1     21264-6.06377E-03-9.72954E-03-4.86478E-06 4.90161E-02-4.93087E-06-1.12058E-05
 -1     21265-8.45453E-02 5.16627E-02-2.03386E-07-4.35158E-03-1.93575E-07 1.23600E-06
 -1     21266 8.38112E-02-3.68749E-02-1.44314E-05 8.19216E-02-3.29465E-05-4.27265E-05
 -1     21267-4.03750E-02 5.42685E-03 7.50995E-06 3.78102E-02-5.65487E-06-1.23597E-05
 -1     21268 4.72332E-02 1.51550E-02-2.10125E-06 1.09981E-01 7.95065E-06-1.09043E-05
 -1     21269-1.14649E-02 5.40599E-02-1.46650E-06 8.53982E-02-6.39207E-07-4.96234E-06
 -1     21270 8.48355E-03 4.42647E-02-2.67806E-06 9.51011E-02-4.53016E-06-5.95800E-06
 -1     21271-9.01372E-02 4.87900E-02 2.06218E-06-1.13050E-02-5.62797E-06-7.06488E-06
 -1     21272-8.10612E-02 2.53304E-02-1.60524E-06 2.22510E-02 5.79856E-06 6.50548E-05
 -1     21273 1.69202E-02 3.93591E-02-3.12337E-07 9.92580E-02-1.94160E-06-4.98266E-06
 -1     21274 8.48502E-02-2.83184E-02 3.67134E-05 9.90523E-02 2.73277E-05 2.33019E-05
 -1     21275-6.21373E-02 6.48628E-02 3.32153E-07 4.74081E-02 8.40956E-06-1.19020E-07
 -1     21276-6.65399E-02 3.86315E-02-2.36246E-06 1.00613E-02 4.30463E-07 1.23400E-05
 -1     21277-6.46227E-02 7.20843E-02-8.74631E-06 6.30618E-02-2.52272E-06-5.88281E-06
 -1     21278 9.07242E-02-3.33802E-02 3.16091E-05 9.50326E-02 3.00940E-05 1.36227E-05
 -1     21279 2.36693E-02 1.73063E-02 6.21243E-06 8.63762E-02-4.33863E-05-3.79266E-05
 -1     21280-4.49734E-02 6.12057E-02 5.27016E-06 5.92669E-02-1.01173E-05-2.77944E-06
 -1     21281-8.80969E-02 5.02943E-02 4.70191E-06-9.21493E-03 2.50416E-05-1.71811E-07
 -1     21282 7.77303E-02-3.30442E-02 1.40605E-05 8.59064E-02 4.54556E-05-2.34511E-05
 -1     21283-7.91976E-02 5.30709E-02-1.60325E-06 3.73834E-03 1.39018E-05 7.46763E-06
 -1     21284-8.18134E-02 3.11842E-02-5.00492E-05 1.61500E-02-2.39804E-05-1.58800E-04
 -1     21285 3.58477E-02 9.70236E-03-7.99248E-05 9.30296E-02-6.97511E-05-8.14808E-05
 -1     21286 4.73468E-02 1.30484E-03 3.17683E-05 9.73575E-02-3.59883E-05-5.34537E-06
 -1     21287-1.03019E-03 4.90823E-02 8.95416E-08 9.02695E-02-8.46274E-07-1.00363E-05
 -1     21288-5.86818E-02 4.80706E-02-3.64947E-06 2.14392E-02 2.58584E-05-1.05215E-06
 -1     21289-4.85509E-02 4.99526E-02 4.16648E-07 3.57169E-02-1.34385E-05-8.15252E-06
 -1     21290 5.99245E-02-2.91558E-02-2.28044E-05 7.75238E-02 2.05061E-05 3.62745E-05
 -1     21291-4.20054E-02 5.66913E-02 1.18238E-06 5.43315E-02-5.03318E-06 7.92646E-07
 -1     21292-7.11636E-02 3.73234E-02-7.17136E-06 8.83153E-03 3.31566E-06 1.48809E-05
 -1     21293-6.36961E-02 4.60305E-02 2.65219E-06 1.36873E-02-2.08769E-05-6.47710E-06
 -1     21294-5.27285E-02 5.39464E-02 1.86738E-06 3.70058E-02 2.35687E-06 3.90490E-06
 -1     21295-8.11069E-02 3.49671E-02 6.97174E-05 1.10033E-02-1.98711E-06-7.96471E-05
 -1     21296 3.86353E-02-2.26601E-02-4.57230E-06 6.87064E-02-4.01852E-05-4.16221E-05
 -1     21297-7.68143E-02 3.64746E-02 1.71583E-06 8.36400E-03 1.43190E-05 3.13484E-05
 -1     21298 6.85103E-02-1.47882E-02-6.10900E-05 1.01722E-01 8.97857E-06-3.72606E-05
 -1     21299 1.40649E-03 3.62987E-02 1.15412E-06 7.78261E-02-9.99197E-07-8.27841E-06
 -1     21300 7.70938E-03 3.06955E-02-7.11748E-06 7.98229E-02 1.37600E-05-5.00506E-06
 -1     21301 1.41973E-02 2.44028E-02-3.43474E-06 8.18327E-02-3.59672E-06-1.13904E-05
 -1     21302-1.60419E-02-6.73281E-04-1.67832E-05 4.76088E-02 3.46356E-05 6.86414E-06
 -1     21303 7.79157E-02-2.19691E-02 1.02956E-04 1.01830E-01-3.77640E-05 1.44926E-05
 -1     21304 1.30420E-02-1.28546E-02-6.04847E-06 5.91393E-02-1.50319E-05-1.98866E-05
 -1     21305-1.75333E-02 4.65493E-02-2.16457E-06 6.74745E-02-8.87497E-08-5.19374E-06
 -1     21306-6.43336E-02 4.07686E-02 8.18280E-06 1.10921E-02 1.46995E-05 1.69920E-05
 -1     21307 5.81105E-02-7.34737E-03-1.34780E-06 9.98547E-02-2.65858E-05-3.40568E-05
 -1     21308-4.88451E-02 1.45172E-02 3.83222E-05 3.33877E-02 1.72343E-05 2.48088E-05
 -1     21309-7.25576E-03 2.27355E-02 7.02790E-06 5.86591E-02-2.67906E-06 2.77984E-06
 -1     21310-6.73843E-03 4.15092E-02 1.58707E-06 7.39563E-02-5.18124E-08-8.02168E-06
 -1     21311-2.79869E-02 5.13972E-02 5.28067E-07 6.20789E-02-3.67740E-06-3.84604E-06
 -1     21312 7.06123E-02-2.71019E-02-7.81135E-05 8.91740E-02 1.77571E-05 6.55888E-05
 -1     21313 2.60646E-02 4.80836E-03-2.37941E-05 7.98812E-02-5.69548E-06-1.60569E-05
 -1     21314-4.01589E-02 2.89215E-02 5.61371E-06 3.14421E-02 1.60959E-05-5.48369E-06
 -1     21315 1.08848E-02 1.35356E-02 3.57839E-06 7.12259E-02 4.10872E-05-2.04386E-05
 -1     21316-6.39186E-02 4.33974E-02-1.57505E-05 1.18727E-02-7.69098E-07-7.08632E-06
 -1     21317-3.18496E-02 4.47440E-02-1.27718E-05 4.85766E-02-5.61515E-07-1.97443E-05
 -1     21318-2.14743E-02 3.96970E-02 1.17106E-05 5.50543E-02-1.25082E-05 5.26627E-06
 -1     21319-5.30618E-02 2.11775E-02-8.72126E-05 2.87568E-02-8.70109E-06-1.89958E-05
 -1     21320 5.18673E-02-2.19263E-02 5.68893E-06 8.00388E-02 3.10380E-05 2.26373E-05
 -1     21321-1.19834E-02 2.94964E-02-2.43238E-06 5.75660E-02 2.15330E-06-6.89664E-06
 -1     21322-1.62594E-02 3.48045E-02 1.63002E-06 5.66435E-02 2.25503E-05 5.79824E-06
 -1     21323-4.63469E-02 2.68436E-02 1.68288E-05 2.80213E-02 7.16695E-06-1.31450E-05
 -1     21324 3.08822E-02-1.45862E-02 1.31397E-05 7.05091E-02 2.74874E-05-6.29942E-06
 -1     21325 6.37843E-02-2.05031E-02 3.10822E-05 9.14639E-02-2.11352E-05 2.40462E-05
 -1     21326-4.29370E-02 4.35026E-02 6.85146E-06 3.45656E-02-1.45266E-05-8.13154E-06
 -1     21327-3.70534E-02 3.21461E-02-3.74692E-06 3.41699E-02-1.00009E-05 6.20648E-06
 -1     21328 3.81340E-02-4.10188E-03 4.80844E-05 8.43687E-02-3.16024E-05 3.85555E-06
 -1     21329 4.83052E-02-1.35614E-02-5.44620E-06 8.55092E-02 1.58331E-05 3.61542E-05
 -1     21330 4.80334E-03-4.32798E-03 1.12513E-05 5.85712E-02-9.43255E-06-3.05259E-05
 -1     21331-2.32510E-02 7.34421E-03 3.99468E-05 4.46689E-02-4.40683E-05-3.03549E-06
 -1     21332-5.20604E-02 2.49764E-02-4.68565E-05 2.62778E-02 1.68334E-05-9.79035E-06
 -1     21333-1.70127E-02 1.94026E-02-1.32138E-05 4.90992E-02 1.13615E-05-1.61760E-06
 -1     21334-4.05641E-02 4.01476E-02-7.49168E-06 3.42813E-02-1.20599E-05-5.34687E-06
 -1     21335 1.72949E-02 1.61904E-03 3.00880E-06 7.03404E-02-4.47050E-05 1.01155E-05
 -1     21336 2.34347E-02-5.89652E-03-5.69539E-06 7.08783E-02 4.24771E-06 3.10988E-05
 -1     21337 1.41549E-03 9.98047E-03 1.62992E-05 6.11939E-02 2.23424E-05-2.76966E-05
 -1     21338-3.83408E-02 3.62458E-02 1.77866E-05 3.42389E-02-2.43146E-05-8.64407E-06
 -1     21339-3.30518E-03 4.86669E-03 4.89869E-06 5.61982E-02-1.06688E-05-1.00990E-05
 -1     21340-2.37934E-02 1.63692E-02 6.48893E-05 4.40448E-02-2.59529E-05 1.27780E-06
 -1     21341-3.02736E-02 1.45355E-02-5.67846E-05 4.04798E-02-9.72140E-05-9.62590E-06
 -1     21342-2.69610E-03 4.32876E-02-4.94006E-05 1.04342E-01-5.68328E-04-5.29974E-04
 -1     21343 5.24871E-03 4.04802E-02-3.44277E-04 9.62161E-02-9.83220E-04-6.41448E-04
 -1     21344 3.33794E-02 3.08755E-03-1.21415E-04 5.90251E-02-1.74934E-04 1.03102E-04
 -1     21345 3.33323E-02 3.22838E-03-6.70323E-05 5.86655E-02 2.07804E-04-1.59490E-04
 -1     21346-6.58784E-02 6.90846E-02-1.41482E-05 2.97814E-02-1.91120E-03 1.00072E-03
 -1     21347-5.22683E-02 7.20206E-02-2.62496E-03 4.71458E-02-1.60299E-04 7.19851E-04
 -1     21348-6.02455E-01 1.20492E-01 2.50473E-04 3.69003E-02 2.36957E-03 5.18695E-03
 -1     21349-6.91274E-01 1.90261E-01 5.73283E-03 2.31508E-02 5.67811E-03-5.10664E-03
 -1     21350 6.25164E-02 3.48958E-02-5.44152E-05 1.37205E-01 1.34844E-04 1.85691E-04
 -1     21351 6.31505E-02 3.24271E-02-1.14563E-04 1.33566E-01 3.71030E-04-1.52399E-05
 -1     21352 8.24756E-02 4.86044E-02 1.72351E-04 1.91809E-01 5.75467E-05 1.05019E-06
 -1     21353 9.28638E-02 5.48839E-02 1.16414E-04 2.16264E-01 3.89377E-05-2.90783E-05
 -1     21354 9.84735E-02 5.85540E-02-1.14072E-05 2.29974E-01 1.15834E-05-5.99010E-05
 -1     21355 1.02110E-01 6.05476E-02 2.16884E-05 2.38170E-01-2.51291E-06 1.79894E-05
 -1     21356 1.03163E-01 6.12425E-02 1.77475E-05 2.40833E-01 2.38716E-05-4.97795E-05
 -1     21357 1.02709E-01 6.09132E-02 1.47332E-05 2.39690E-01 1.97775E-05 8.00756E-06
 -1     21358 1.00851E-01 5.95261E-02 3.16518E-05 2.34822E-01 2.31873E-05 1.50940E-05
 -1     21359 9.67503E-02 5.68543E-02-8.31750E-06 2.24755E-01 3.48758E-05-2.08406E-05
 -1     21360 9.02005E-02 5.27814E-02-1.40750E-05 2.09169E-01 1.32303E-05-4.59943E-06
 -1     21361 8.13655E-02 4.73621E-02 7.29580E-06 1.88366E-01 6.21235E-06 3.40789E-05
 -1     21362 7.03606E-02 4.15588E-02-3.54534E-05 1.63939E-01 2.31695E-05 3.27855E-05
 -1     21363 5.91956E-02 3.49396E-02 5.35885E-05 1.38056E-01 6.98562E-05 4.98553E-05
 -1     21364 4.85410E-02 2.87054E-02-1.09989E-06 1.13176E-01-6.98510E-06 1.06140E-05
 -1     21365 4.12084E-02 2.45047E-02-3.59172E-05 9.62320E-02-9.95275E-06-3.88660E-05
 -1     21366 3.60745E-02 2.27823E-02-5.50160E-05 8.55168E-02-8.26585E-06-9.16479E-06
 -1     21367 3.19079E-02 2.08947E-02-1.00502E-05 7.67364E-02-6.98042E-05-4.77843E-05
 -1     21368 3.39530E-02 2.18769E-02 8.73121E-06 8.05652E-02 1.46106E-04 1.64912E-05
 -1     21369 4.17234E-02 2.46481E-02 2.11112E-05 9.72959E-02-1.53973E-05 9.60383E-06
 -1     21370 4.85486E-02 2.85941E-02 9.09153E-06 1.13069E-01 4.22617E-06-3.51105E-05
 -1     21371 5.74183E-02 3.40094E-02-8.40403E-05 1.33806E-01 1.85759E-05-2.18875E-05
 -1     21372 6.91676E-02 3.96439E-02 1.55865E-05 1.59410E-01-9.22061E-06-4.54301E-05
 -1     21373 7.92635E-02 4.68124E-02-3.57832E-05 1.84671E-01-1.65982E-05 1.72143E-05
 -1     21374 8.85695E-02 5.23453E-02-3.60802E-06 2.06455E-01-3.10258E-05 1.44966E-05
 -1     21375 9.56152E-02 5.65772E-02-1.71038E-05 2.22956E-01-3.19915E-05 1.21702E-05
 -1     21376 1.00080E-01 5.94253E-02 2.38875E-05 2.33231E-01-2.72313E-05-1.64781E-05
 -1     21377 1.02791E-01 6.09018E-02-2.01251E-06 2.39520E-01-1.75036E-05 8.17694E-06
 -1     21378 1.03375E-01 6.09656E-02 6.63421E-06 2.40506E-01 9.35774E-06 8.74836E-06
 -1     21379 1.01944E-01 6.02480E-02-1.64507E-05 2.37298E-01-5.22894E-07 1.01290E-05
 -1     21380 9.90281E-02 5.89409E-02-2.42494E-06 2.31322E-01-1.83332E-06 3.47680E-05
 -1     21381 9.30092E-02 5.50285E-02-1.57125E-04 2.16832E-01-3.67249E-05 2.34727E-05
 -1     21382 8.03116E-02 4.74871E-02-8.71158E-05 1.87032E-01-1.24295E-04-3.43668E-05
 -1     21383 8.80310E-02 5.33981E-02 4.68454E-05 2.07016E-01-1.10624E-05-1.24274E-04
 -1     21384 9.63266E-02 5.64151E-02 8.28243E-05 2.23541E-01 3.92372E-05 4.15236E-05
 -1     21385 7.26956E-02 4.26032E-02 9.86763E-05 1.68838E-01 8.89112E-05-7.37386E-05
 -1     21386 1.00690E-01 5.97506E-02 2.08256E-05 2.34834E-01 2.17415E-05-2.66914E-06
 -1     21387 1.02890E-01 6.09406E-02 5.67390E-05 2.39928E-01 5.67535E-06-6.73687E-06
 -1     21388 1.03225E-01 6.10410E-02 1.82660E-05 2.40611E-01 1.36491E-05 3.18604E-05
 -1     21389 1.01949E-01 6.04839E-02 1.61619E-05 2.37976E-01 1.24162E-05-3.87712E-05
 -1     21390 9.87773E-02 5.85992E-02 5.02873E-05 2.30440E-01-7.74753E-06 2.46826E-05
 -1     21391 9.35698E-02 5.51536E-02-2.35833E-06 2.17631E-01 2.41947E-05 4.48986E-05
 -1     21392 8.58414E-02 5.03472E-02-4.99902E-07 1.99371E-01 6.88581E-05 5.03860E-05
 -1     21393 7.59352E-02 4.46695E-02-9.35167E-07 1.76688E-01-1.54953E-05 3.40065E-06
 -1     21394 6.54126E-02 3.76059E-02-1.15502E-05 1.50804E-01 6.31411E-06 4.51011E-05
 -1     21395 5.43797E-02 3.12338E-02 6.33069E-06 1.25614E-01 3.19766E-05 4.43185E-05
 -1     21396 4.42393E-02 2.60067E-02 6.89099E-07 1.03143E-01-2.31522E-05 3.97613E-05
 -1     21397 3.88936E-02 2.31702E-02 4.37697E-06 9.13760E-02 1.79247E-06 2.81785E-05
 -1     21398 3.45273E-02 2.13435E-02-8.19993E-05 8.08353E-02-3.06845E-04 1.08914E-05
 -1     21399 4.51174E-02 2.65203E-02 5.25983E-06 1.05090E-01 9.35131E-06 1.73740E-05
 -1     21400 5.24470E-02 3.09538E-02 7.70807E-05 1.22330E-01-1.26930E-06 1.94407E-05
 -1     21401 6.26820E-02 3.72372E-02 3.40235E-05 1.46505E-01-5.87606E-06-2.05228E-05
 -1     21402 7.40655E-02 4.35859E-02-2.19720E-06 1.72391E-01 8.48253E-06-3.54529E-06
 -1     21403 8.43005E-02 4.94453E-02 1.89784E-05 1.95837E-01-8.75084E-06-5.44049E-05
 -1     21404 9.24200E-02 5.44148E-02 3.70939E-05 2.14946E-01-7.88141E-06-5.98566E-05
 -1     21405 9.81583E-02 5.80663E-02 8.11101E-06 2.28724E-01-3.26895E-06 6.22020E-06
 -1     21406 1.01826E-01 6.01696E-02-2.83556E-05 2.37302E-01-2.84261E-05 1.15900E-05
 -1     21407 1.03328E-01 6.10778E-02-1.26797E-05 2.40813E-01-2.60814E-05-1.17853E-05
 -1     21408 1.02860E-01 6.07123E-02-8.42104E-06 2.39279E-01 1.57388E-05-1.83041E-05
 -1     21409 1.00853E-01 5.96261E-02-3.86470E-05 2.35011E-01-2.88258E-06 1.53509E-05
 -1     21410 9.64744E-02 5.75299E-02-2.19004E-07 2.24614E-01-7.96743E-06 5.19929E-06
 -1     21411 8.65738E-02 5.22577E-02 7.80955E-05 2.02868E-01-4.68931E-05 7.71530E-05
 -1     21412 7.18270E-02 4.23064E-02 5.29485E-05 1.66897E-01-5.52152E-05 1.82968E-05
 -1     21413-8.55955E-02 1.86345E-01 1.00723E-03 1.32463E-01 2.08985E-03-6.70360E-04
 -1     21414-8.28494E-02 1.81619E-01-2.91731E-04 1.33275E-01-1.55061E-03-9.15888E-04
 -1     21415-9.58958E-02 1.96297E-01 2.88886E-04 1.21154E-01-1.24636E-04-8.35419E-05
 -1     21416-8.25743E-02 1.68128E-01 1.94608E-04 1.20068E-01-1.21246E-04 4.75011E-06
 -1     21417-5.68223E-02 1.15098E-01-2.17233E-05 1.23677E-01-2.88299E-06 3.17440E-05
 -1     21418-4.24513E-02 7.26301E-02 6.60740E-04 1.31329E-01-3.26996E-04 8.03981E-04
 -1     21419-4.76770E-02 9.71330E-02-6.49512E-04 1.25498E-01-4.00291E-04-2.09761E-05
 -1     21420-6.85576E-02 1.39267E-01 1.31594E-05 1.21674E-01-2.52704E-04 1.27824E-04
 -1     21421-9.54978E-02 1.94209E-01 2.49166E-04 1.21342E-01 1.31213E-04 5.97466E-05
 -1     21422-9.19812E-02 1.87186E-01 9.34452E-06 1.19570E-01-2.59476E-04-2.81555E-04
 -1     21423-7.16252E-02 1.45637E-01-1.37064E-04 1.20194E-01-1.37139E-04-2.27494E-04
 -1     21424-1.00200E-01 2.02346E-01 3.10366E-04 1.25278E-01-3.83773E-04-1.65880E-03
 -1     21425-9.52632E-02 1.96924E-01-2.90033E-04 1.23530E-01-1.06160E-03 3.50658E-04
 -1     21426-3.67672E-01 1.71409E-01 1.17211E-03-1.86536E-01-1.74660E-03 1.08527E-03
 -1     21427-3.29581E-01 1.33058E-01 5.30192E-03-2.17147E-01-6.57932E-04 6.94476E-04
 -1     21428-2.69197E-01 1.09029E-01 8.67102E-05-1.41778E-01 9.30632E-05 3.57822E-04
 -1     21429-2.47159E-01 1.00033E-01-1.17346E-04-1.30894E-01-1.21445E-04 1.53714E-04
 -1     21430-2.37108E-01 9.57006E-02 4.51923E-05-1.25556E-01-2.80544E-05 1.62558E-05
 -1     21431-2.31150E-01 9.32231E-02-2.29212E-05-1.21935E-01 1.41933E-05-2.76859E-05
 -1     21432-2.27217E-01 9.15594E-02 3.15612E-06-1.19825E-01-1.81533E-06-9.77352E-06
 -1     21433-2.21876E-01 8.92544E-02 9.83216E-06-1.17130E-01 3.26247E-05-6.64738E-05
 -1     21434-2.13952E-01 8.62677E-02-3.03224E-05-1.12576E-01 1.03440E-05 1.61954E-05
 -1     21435-1.99859E-01 8.06526E-02 3.30634E-06-1.04990E-01 1.85566E-05 1.81757E-05
 -1     21436-1.78936E-01 7.21939E-02-5.38991E-06-9.42556E-02-1.22213E-05-2.49817E-05
 -1     21437-1.52643E-01 6.13387E-02-5.24623E-06-8.06872E-02-3.29821E-05-5.87527E-05
 -1     21438-1.27404E-01 5.13022E-02-7.10171E-05-6.74282E-02 3.25248E-05-1.27311E-05
 -1     21439-1.12521E-01 3.78926E-02-9.82635E-04-7.37332E-02-9.06291E-04-4.79398E-04
 -1     21440-1.25069E-01 4.06247E-02 1.60917E-03-8.73123E-02-2.85669E-04-4.86945E-04
 -1     21441-1.20173E-01 3.92724E-02 2.30515E-04-7.98866E-02 3.15541E-03 1.07756E-03
 -1     21442-1.17299E-01 4.27140E-02 3.51243E-05-7.10781E-02 8.09796E-04 2.41819E-04
 -1     21443-1.50830E-01 6.08131E-02 7.48561E-05-7.94567E-02 1.37746E-06 5.04482E-06
 -1     21444-1.75013E-01 7.05934E-02 1.07944E-05-9.21476E-02-8.70044E-06-2.73495E-05
 -1     21445-1.96922E-01 7.94835E-02-1.71805E-05-1.03348E-01-9.71281E-06-3.00641E-05
 -1     21446-2.11849E-01 8.52697E-02-3.59784E-05-1.11673E-01-2.98317E-05 1.75906E-05
 -1     21447-2.21981E-01 8.93575E-02-1.93384E-05-1.17115E-01-3.38639E-06 4.23441E-05
 -1     21448-2.27801E-01 9.17837E-02 6.40530E-06-1.20320E-01 1.03047E-05 3.90426E-05
 -1     21449-2.31911E-01 9.35617E-02-4.70048E-06-1.22403E-01-1.34332E-05-5.49893E-06
 -1     21450-2.37014E-01 9.56963E-02-9.05081E-05-1.24797E-01 1.29414E-05-5.35571E-06
 -1     21451-2.46916E-01 9.97499E-02 2.37567E-05-1.31050E-01-2.30959E-05 7.82881E-05
 -1     21452-2.75080E-01 1.12810E-01-3.69754E-04-1.47451E-01 2.88155E-04 2.71535E-04
 -1     21453-2.54988E-01 1.03069E-01 7.88411E-05-1.34219E-01 1.24174E-05-2.70547E-05
 -1     21454-2.41308E-01 9.72738E-02-5.45502E-05-1.27345E-01 2.63443E-05-1.87801E-05
 -1     21455-2.89693E-01 1.19496E-01 6.68117E-05-1.67736E-01-4.45576E-04 3.75052E-04
 -1     21456-2.33377E-01 9.40913E-02-3.50429E-05-1.23112E-01-3.37232E-06 2.51856E-05
 -1     21457-2.29199E-01 9.23608E-02-1.97528E-06-1.20960E-01-1.23217E-06-1.04671E-05
 -1     21458-2.24801E-01 9.06465E-02-2.20455E-05-1.18611E-01 7.98858E-06-3.58267E-05
 -1     21459-2.18708E-01 8.81179E-02 1.05457E-05-1.15443E-01 1.74142E-05-2.19869E-05
 -1     21460-2.07806E-01 8.38455E-02 2.57361E-06-1.09397E-01 1.37990E-05 4.08088E-05
 -1     21461-1.90365E-01 7.69077E-02-2.04554E-05-9.96598E-02 3.92312E-06 2.68305E-05
 -1     21462-1.66492E-01 6.71875E-02 1.29484E-05-8.75735E-02 3.47573E-05-1.52678E-06
 -1     21463-1.39254E-01 5.59993E-02 5.51833E-05-7.36992E-02-1.94178E-05-2.03685E-05
 -1     21464-1.21603E-01 4.89065E-02-4.06243E-04-6.46867E-02 1.00285E-04-4.85935E-05
 -1     21465-2.05163E-01 8.26453E-02 5.55417E-05-1.08152E-01-1.03547E-05-2.80872E-05
 -1     21466-1.62225E-01 6.52631E-02-8.37480E-06-8.56758E-02-2.39069E-05-7.11135E-05
 -1     21467-1.86569E-01 7.51990E-02-6.88879E-06-9.80621E-02-3.56427E-05-1.64779E-06
 -1     21468-2.17535E-01 8.76741E-02 2.40108E-06-1.14722E-01-8.07523E-06 1.52379E-05
 -1     21469-2.25461E-01 9.08428E-02 1.80981E-05-1.18902E-01 1.77495E-05 3.24605E-05
 -1     21470-2.29661E-01 9.24699E-02 6.56234E-06-1.21335E-01 9.00609E-06-1.41590E-06
 -1     21471-2.34198E-01 9.44422E-02 1.28830E-06-1.23438E-01-1.34807E-05-7.40977E-05
 -1     21472-2.40496E-01 9.70012E-02 1.38998E-05-1.26775E-01-5.75779E-05 1.81317E-05
 -1     21473-2.57473E-01 1.03875E-01-1.52524E-05-1.35709E-01 7.25869E-05-8.85487E-05
 -1     21474-2.91410E-01 1.18039E-01-2.02141E-03-1.55920E-01 9.67920E-04 2.51578E-03
 -1     21475 4.72461E-02 9.56833E-05 7.01811E-05 7.38561E-02-1.75037E-04-4.63966E-05
 -1     21476 4.62468E-02-1.26304E-05 1.45995E-05 7.25401E-02 6.40928E-05 2.86153E-05
 -1     21477 5.68134E-02-1.63251E-04-2.58782E-05 8.75256E-02 9.48464E-05-4.65278E-05
 -1     21478 6.77814E-02-1.09361E-04 5.61182E-07 9.42692E-02-2.01055E-05 4.24030E-05
 -1     21479 7.65495E-02-2.72811E-04 4.83870E-06 8.74155E-02-1.78363E-05 3.57692E-05
 -1     21480 7.57952E-02-1.13468E-04 2.36830E-07 7.20162E-02 2.24601E-05 5.68333E-05
 -1     21481 6.63309E-02-9.80407E-04 9.14310E-05 5.17423E-02 4.19521E-05-5.81077E-05
 -1     21482 4.48654E-02-4.81799E-04-3.86567E-06 2.99208E-02-5.43408E-05 4.47673E-05
 -1     21483 1.25981E-02-2.08873E-04 1.65095E-06 7.68829E-03 1.82515E-05-2.73783E-05
 -1     21484-2.47543E-02-6.71747E-04-9.53900E-06-9.15882E-03-6.29512E-05 5.11801E-05
 -1     21485-9.28638E-02-7.20022E-04 5.55625E-06-2.29838E-02 2.48080E-05 7.43833E-05
 -1     21486-1.77237E-01-2.45430E-03 3.54490E-04-1.26032E-02-2.13591E-04-1.80254E-04
 -1     21487-2.46879E-01-2.94012E-03-1.46570E-03 1.21862E-02-3.62649E-03 2.20094E-03
 -1     21488-1.87882E-01-1.18505E-02-4.21296E-04-4.45158E-03 6.39673E-04-2.14583E-04
 -1     21489-1.39310E-01-1.34979E-05-2.77439E-04-1.92827E-02 3.21674E-04 6.33021E-05
 -1     21490-2.79549E-02-3.36898E-04 1.26024E-05-9.79116E-03 2.82907E-05 8.04440E-05
 -1     21491 1.79718E-02-2.16676E-04-1.00538E-06 1.05463E-02 3.16757E-05 5.01939E-05
 -1     21492 4.85711E-02 3.79676E-08-9.27402E-11 3.32209E-02-2.04847E-10 3.97560E-05
 -1     21493 6.83500E-02-3.06533E-04-6.09950E-05 5.54189E-02 4.42238E-05-4.91142E-05
 -1     21494 7.67692E-02-3.15356E-04 5.77077E-06 7.50387E-02 1.15575E-06 2.63794E-05
 -1     21495 7.56633E-02-9.54583E-06 1.79026E-06 8.90388E-02-4.93650E-07 3.73792E-05
 -1     21496 6.93056E-02-2.16329E-04 3.39022E-05 9.40999E-02 6.45320E-06-5.34002E-05
 -1     21497 5.82058E-02 2.48815E-04-6.38080E-05 8.96439E-02-9.82549E-05 6.28589E-05
 -1     21498 6.20756E-02-1.09180E-04-4.86215E-08 9.25381E-02-2.40802E-06-4.88627E-05
 -1     21499 7.31319E-02-2.49993E-04-8.69676E-06 9.23021E-02-1.03588E-05 9.73042E-07
 -1     21500 5.15669E-02-5.40438E-04 1.25546E-04 8.07785E-02 1.88097E-04 1.74051E-04
 -1     21501 7.71929E-02-4.92347E-05 1.48299E-06 8.05581E-02 9.36183E-06 3.65113E-05
 -1     21502 7.21265E-02-2.21344E-04 1.84501E-07 6.25340E-02-7.48934E-06-4.64733E-05
 -1     21503 5.64972E-02-1.57921E-04-3.42051E-05 4.06938E-02 8.47776E-05 5.40847E-05
 -1     21504 2.97702E-02-7.84056E-05-2.25552E-06 1.82461E-02 1.84384E-05-5.91597E-07
 -1     21505-5.18366E-03-7.34322E-05-3.00808E-06-1.06555E-03-1.68056E-05 9.65049E-06
 -1     21506-5.43760E-02-2.99442E-04 1.58598E-05-1.68191E-02 1.31673E-05-1.79616E-04
 -1     21507-1.32379E-01-1.00118E-08-4.93198E-10-2.28942E-02 1.35493E-09-3.53542E-04
 -1     21508-3.77701E-03-5.36085E-04-1.23816E-05-1.11599E-03-2.67421E-05 2.13142E-05
 -1     21509 3.51947E-02-2.40444E-04-1.50502E-06 2.19772E-02-1.73999E-05-1.37098E-05
 -1     21510 6.00121E-02-2.70598E-04 2.32204E-05 4.42632E-02-9.29946E-05-1.47754E-05
 -1     21511 7.40365E-02-7.07647E-04 6.10595E-05 6.53426E-02-6.38546E-05-2.66174E-05
 -1     21512 7.72938E-02-2.46216E-04 1.35763E-05 8.29237E-02-4.00199E-05-3.42868E-05
 -1     21513 7.28843E-02-2.82467E-07-4.13181E-06 9.24656E-02-6.24820E-06 1.23868E-05
 -1     21514 6.38050E-02-1.21700E-08 2.23798E-11 9.31913E-02-1.56619E-12-2.23943E-05
 -1     21515 5.26813E-02 2.62616E-04-6.82220E-06 8.34514E-02-1.99309E-04-5.55875E-05
 -1     21516-6.04026E-02 1.17916E-01-7.80212E-05 1.55251E-01 5.58570E-05 8.64808E-05
 -1     21517-3.86018E-02 7.05841E-02 1.11915E-04 7.89908E-02 1.48779E-04-3.28819E-04
 -1     21518-1.78074E-01 7.47860E-02 2.91919E-06-8.50535E-02-1.67756E-06 1.15907E-05
 -1     21519 9.22318E-02 8.69073E-04-2.84489E-07 1.33385E-01-3.69194E-06 2.06787E-05
 -1     21520 8.79571E-02 5.20061E-02-1.72775E-06 2.05736E-01 5.08381E-06 8.40646E-06
 -1     21521 7.05104E-02 5.31190E-02-4.18007E-06 1.83639E-01-2.73809E-05-1.18658E-06
 -1     21522-1.95482E-01 8.10207E-02 1.28262E-05-9.52528E-02-3.72095E-06-4.91179E-06
 -1     21523-1.81264E-01 7.61231E-02-2.38733E-08-8.72555E-02 2.87432E-06 6.26416E-06
 -1     21524-1.67121E-01 7.27668E-02-3.13343E-06-7.39275E-02 5.83808E-06-1.32757E-05
 -1     21525-1.61184E-01 7.20837E-02-9.26045E-06-6.55688E-02-1.04601E-05-1.65611E-05
 -1     21526 7.43877E-02-2.53633E-02-2.31721E-06 5.39529E-02-3.16293E-05 2.46092E-07
 -1     21527 9.00728E-02-2.71599E-02 1.88899E-05 6.95735E-02-7.58990E-06-1.71950E-05
 -1     21528 5.95445E-02 4.62743E-03 5.67256E-06 9.07744E-02 4.44810E-06 8.14927E-07
 -1     21529 6.52519E-02 5.50738E-02-5.23481E-09 1.79472E-01-1.81788E-05-1.37308E-06
 -1     21530 9.53221E-02 1.70341E-02-1.02270E-05 1.63947E-01 7.21620E-06-1.81080E-05
 -1     21531 9.52716E-02 2.20353E-02 9.39570E-06 1.72447E-01 8.10465E-06 5.02973E-06
 -1     21532 9.21057E-02 3.21135E-02 7.84181E-06 1.83018E-01 9.90514E-06 1.16422E-05
 -1     21533 9.05038E-02 4.44889E-02 1.18958E-05 1.98431E-01 2.16947E-05 1.15327E-05
 -1     21534 7.51592E-02 5.08126E-02-3.76397E-06 1.86657E-01-2.32099E-06-5.54073E-06
 -1     21535-2.35177E-01 1.01786E-01 7.20999E-05-9.18894E-02-6.60964E-05-2.06836E-04
 -1     21536 6.91829E-02 5.16638E-04 5.54580E-06 9.42870E-02 6.87313E-06 8.29245E-06
 -1     21537 4.97405E-02 6.45434E-02 3.77933E-05 1.72662E-01 2.97835E-05 4.42748E-05
 -1     21538-2.08691E-01 8.43555E-02 1.71547E-04-1.88373E-02-9.04886E-06 4.85463E-05
 -1     21539-1.54170E-02 7.96955E-02-1.01105E-05 1.23761E-01-1.64826E-05-2.33021E-05
 -1     21540 1.01082E-01-2.61813E-02-7.05150E-06 9.87270E-02 1.09975E-05-1.91628E-05
 -1     21541-1.34169E-01 4.92890E-02 4.70363E-05 4.56194E-03-3.27571E-05 6.75924E-05
 -1     21542-8.29255E-02 6.65559E-02 1.15468E-05 2.85561E-02 4.48996E-06-2.43584E-06
 -1     21543-1.08355E-01 4.54716E-02 2.49118E-05-2.67506E-03-6.29702E-06 4.36023E-05
 -1     21544 9.61453E-02-3.15090E-02 1.88553E-06 1.02560E-01-1.13070E-05 6.29070E-06
 -1     21545 6.87629E-02-2.21488E-02-2.08166E-06 9.40677E-02-1.14240E-05 4.13307E-06
 -1     21546-4.28701E-02 1.53387E-02 1.93022E-05 3.49208E-02 1.13880E-05 1.01916E-05
 -1     21547-4.39170E-02 4.32157E-02-3.21345E-06 3.30549E-02 5.76483E-06 6.36983E-06
 -1     21548-5.79454E-02 4.20186E-02-1.88501E-06 1.71115E-02 4.00598E-06 8.60357E-06
 -1     21549 2.11958E-02 3.48614E-03-6.40246E-06 7.45704E-02 4.63734E-06 1.88769E-05
 -1     21550-3.77132E-02 2.13552E-02-3.33515E-06 3.45936E-02-3.60091E-06 1.11239E-05
 -1     21551-6.38008E-02 1.25374E-01 6.66007E-05 1.32097E-01-2.93546E-05 2.69986E-07
 -1     21552-3.92641E-02 3.81597E-02-3.79603E-05 3.29295E-02 3.03284E-03 1.35905E-04
 -1     21553 9.29024E-02 5.65493E-02-7.47778E-06 2.19282E-01 7.91622E-06 2.11257E-05
 -1     21554 7.07822E-02 2.41141E-02-8.20717E-06 1.37960E-01 3.74008E-05-2.96583E-05
 -1     21555 7.02975E-02-9.72261E-04 5.64786E-06 9.22130E-02 1.40121E-05 2.14044E-05
 -1     21556-2.03884E-01 8.34915E-02-5.27985E-06-1.03502E-01 2.23818E-05-2.71323E-05
 -1     21557 8.46872E-02 5.80684E-02 2.19878E-05 2.09921E-01 4.97959E-05 6.31539E-05
 -1     21558-2.42315E-01 9.87897E-02-2.29620E-05-1.24305E-01 6.66404E-05 1.07179E-04
 -1     21559 3.71943E-02 6.53454E-02 5.44271E-05 1.54802E-01 8.28775E-05-1.37241E-04
 -1     21560 8.68728E-02 3.44760E-02 1.96631E-05 1.76997E-01 1.70125E-05 9.09378E-05
 -1     21561 8.29790E-02-8.38006E-03 3.88874E-06 8.65152E-02-7.89853E-06-3.05610E-05
 -1     21562-7.70867E-02-2.70234E-03 3.13748E-06-4.21482E-03 2.46366E-05 2.68137E-04
 -1     21563 3.47968E-02-1.00125E-02-9.92847E-06 2.41709E-02-1.24254E-05-8.52897E-06
 -1     21564 9.70671E-02 5.34326E-02-1.42259E-05 2.20507E-01-4.26070E-05-1.23184E-05
 -1     21565 9.49285E-02 4.21258E-02 4.90278E-06 2.00427E-01 1.44631E-05 8.61512E-06
 -1     21566 5.31255E-02 6.39193E-02-5.72408E-05 1.75123E-01 1.48662E-04-3.17566E-05
 -1     21567-4.00012E-02 2.76905E-02 3.53564E-04 1.78778E-02-1.17466E-03 7.49466E-05
 -1     21568 4.38008E-02 1.04548E-02-5.96296E-05 8.07328E-02-3.97192E-05-7.34682E-06
 -1     21569 5.91322E-02 2.05418E-02 1.62395E-05 1.15743E-01-3.01161E-05 3.12347E-05
 -1     21570 7.93525E-02 2.65096E-02 1.70030E-05 1.54145E-01 8.92847E-05 7.64247E-05
 -1     21571 9.25119E-02 3.56653E-02-2.78007E-06 1.87071E-01-5.47822E-08 9.15700E-06
 -1     21572-2.34938E-02-3.41476E-03 7.70443E-05-3.90837E-03-5.15470E-05 4.90861E-05
 -1     21573-2.21865E-01 9.22285E-02-1.71186E-05-1.06812E-01 5.18431E-05 3.13457E-05
 -1     21574-4.64765E-01 1.54293E-01 3.52207E-03 2.00268E-02-2.47148E-03 7.45768E-04
 -1     21575-2.06222E-01 8.43079E-02-1.54842E-05-1.05390E-01 9.54348E-06-1.66486E-06
 -1     21576-1.54918E-01 6.46058E-02-1.70437E-05-7.49295E-02 2.30694E-05 3.96238E-05
 -1     21577-3.66831E-02 1.03138E-01 1.30683E-04 1.32303E-01-1.48641E-04-2.24260E-04
 -1     21578 8.63990E-02 3.17831E-02-2.27929E-05 1.72143E-01-1.54954E-05-2.66227E-05
 -1     21579 9.32425E-02 4.09523E-02-1.62660E-05 1.96189E-01 4.10197E-05 4.94654E-05
 -1     21580 5.19071E-02 1.83937E-02 3.33559E-06 1.01951E-01 2.48019E-05 5.35386E-06
 -1     21581 9.58328E-02 4.70221E-02-3.63288E-05 2.09099E-01 5.63340E-05 4.82797E-05
 -1     21582-2.64979E-01 1.15222E-01-4.58398E-05-1.06078E-01 5.73281E-06 9.86018E-05
 -1     21583 9.49329E-02 5.69467E-02-3.52104E-05 2.22669E-01-2.82656E-05 6.45573E-06
 -1     21584-1.88851E-01 7.85223E-02 8.42222E-06-9.25921E-02 1.52689E-05 5.57709E-05
 -1     21585 9.52991E-02 4.76862E-02-2.41698E-05 2.09448E-01-9.39656E-05-2.37305E-05
 -1     21586 8.11295E-02-5.32417E-03-2.91503E-05 8.31401E-02-5.14039E-06 7.80352E-05
 -1     21587-5.84731E-02 1.16623E-01 1.59619E-04 1.41176E-01-4.98070E-05 1.68151E-04
 -1     21588 5.09598E-02 1.50075E-02-1.41663E-05 9.48612E-02 1.94301E-05-1.29979E-05
 -1     21589-9.27097E-02 3.91119E-02-9.53713E-05-4.16823E-02 2.16624E-05-4.59797E-04
 -1     21590-2.22606E-01 9.05931E-02 3.42499E-05-1.14571E-01-2.31424E-05-7.21369E-06
 -1     21591-1.91635E-01 1.89222E-02 2.13037E-05 6.32165E-03 1.73453E-04-5.85982E-04
 -1     21592 5.83647E-02-1.36324E-02-9.81643E-06 4.04696E-02 6.68803E-05-4.33051E-05
 -1     21593 8.53846E-02-1.35533E-02 6.94013E-06 7.32997E-02 5.20096E-05-3.33138E-05
 -1     21594 3.98354E-02 1.11468E-02 7.51776E-05 7.46049E-02 7.19013E-05 2.99861E-05
 -1     21595 8.13073E-02-1.47619E-02-6.86636E-05 6.42921E-02-6.28329E-05-1.59429E-04
 -1     21596-2.19635E-01 8.93418E-02 1.67211E-05-1.13061E-01-3.79520E-05 9.31760E-06
 -1     21597-2.00953E-01 8.25358E-02 2.75605E-05-1.01528E-01 1.68369E-05 4.84880E-05
 -1     21598 8.36379E-02 5.84593E-02 1.65919E-05 2.08726E-01 5.31030E-05-9.18098E-05
 -1     21599 8.42998E-02 1.55229E-02-3.05888E-05 1.44418E-01-8.10546E-05-2.60378E-05
 -1     21600-2.51857E-01 1.04665E-01-2.86305E-05-1.21321E-01 8.04634E-07-3.55736E-04
 -1     21601 9.72478E-02 5.67320E-02 1.01055E-05 2.25713E-01-1.00946E-05-1.57989E-06
 -1     21602-1.20540E-01 5.22866E-02 5.58739E-05-5.05850E-02 2.67022E-05 3.18673E-05
 -1     21603 5.76800E-02 1.83929E-02 1.29297E-05 1.10324E-01 2.76227E-05 1.26290E-06
 -1     21604-2.96723E-01 1.24406E-01 3.53998E-04-1.40648E-01-1.24405E-03-4.89096E-04
 -1     21605-2.08312E-01 8.49731E-02-5.90546E-07-1.06946E-01-2.76614E-06 2.72484E-05
 -1     21606 6.38063E-02-1.42031E-02-3.10268E-05 4.48929E-02 6.84277E-06 8.39653E-05
 -1     21607 8.72961E-02 5.83982E-02-3.35780E-05 2.13776E-01-1.28263E-05-6.68190E-05
 -1     21608-7.49393E-02 1.51856E-01-4.16729E-05 1.18318E-01-4.28738E-04 3.59249E-04
 -1     21609 7.00430E-02-8.40570E-04-5.56922E-06 9.22765E-02-4.26444E-05 5.50669E-06
 -1     21610-1.69949E-01 7.33005E-02-2.62833E-05-7.61180E-02-1.19919E-06-4.46480E-08
 -1     21611 8.62076E-02 5.73136E-02-1.16508E-05 2.10985E-01-2.34383E-05-2.98260E-05
 -1     21612 2.18130E-02-7.25629E-03 1.13651E-05 1.62959E-02-3.93150E-05 4.31063E-05
 -1     21613-5.80230E-02 1.10969E-01 9.41974E-05 1.45510E-01 6.15177E-04 4.86718E-04
 -1     21614 7.61942E-02 5.89440E-02-3.07401E-05 1.99315E-01 2.05424E-05-7.77454E-06
 -1     21615-1.84824E-01 7.76415E-02-3.78364E-06-8.82731E-02-9.31025E-06 1.51006E-05
 -1     21616-7.56466E-03-4.93537E-03 2.35690E-05 2.40058E-03 1.01114E-05-3.80955E-05
 -1     21617 7.64086E-02 2.39206E-02 2.83360E-05 1.45807E-01 8.74667E-05 9.68416E-05
 -1     21618 8.74771E-02 5.63428E-02 1.94336E-06 2.11420E-01 1.52400E-05-9.72296E-06
 -1     21619 8.09750E-02-5.22248E-03 4.91949E-07 8.34054E-02 2.21390E-05-2.75366E-05
 -1     21620-1.22636E-01 5.00252E-03-1.25771E-04-6.89838E-04 3.50258E-04 5.53486E-05
 -1     21621 5.02437E-02 6.45682E-02-2.37379E-05 1.72373E-01-1.05165E-04 4.58013E-05
 -1     21622-2.36500E-01 9.90586E-02 1.00597E-04-1.10604E-01-4.89968E-05 1.18976E-04
 -1     21623 3.91534E-02 1.09355E-02 1.42778E-04 7.31675E-02 1.97899E-04 9.71181E-06
 -1     21624-1.71189E-02 8.59170E-02 6.31183E-05 1.24432E-01 6.67752E-05-5.32143E-04
 -1     21625 6.53590E-02 2.34765E-02 1.57265E-05 1.29245E-01 1.26396E-05 9.07947E-05
 -1     21626 8.91872E-02 3.55212E-02 3.65466E-06 1.82103E-01 9.96989E-06-2.14144E-05
 -1     21627-4.35552E-02-6.50886E-03-3.20399E-05-6.76681E-04 1.01973E-04-4.58652E-05
 -1     21628 9.58933E-02 4.93586E-02-5.30912E-05 2.12607E-01 7.96840E-05 4.66589E-05
 -1     21629-2.29435E-01 9.34647E-02-1.59901E-05-1.17741E-01-6.58467E-05 4.91872E-05
 -1     21630 8.83650E-02 5.85130E-02 2.64956E-05 2.15610E-01 9.67650E-05-1.74046E-05
 -1     21631-6.29604E-02 1.24135E-01 3.00416E-05 1.43912E-01-4.65360E-04-1.16781E-04
 -1     21632 9.86473E-02 5.70117E-02 3.92199E-05 2.28074E-01-5.35051E-05 6.56509E-06
 -1     21633 2.45762E-02 6.52373E-02-3.14646E-05 1.36655E-01 1.99551E-04 4.87101E-04
 -1     21634-1.60470E-01 6.81342E-02-1.60099E-05-7.41566E-02 1.39584E-06-1.24452E-05
 -1     21635 9.24362E-02 3.34016E-02-2.99267E-05 1.83655E-01-2.24516E-05-4.26070E-05
 -1     21636 5.52950E-03-8.80602E-03-1.59214E-05 1.02394E-02-3.97124E-05 5.10918E-05
 -1     21637-2.51388E-01 1.04011E-01 7.24369E-05-1.22888E-01 8.63032E-06 6.64922E-05
 -1     21638 5.35556E-02 1.38612E-02-1.98493E-05 9.64914E-02-2.95514E-05-2.57228E-05
 -1     21639 5.25171E-02 1.67595E-02-1.13637E-06 1.00143E-01-6.51095E-06 8.16994E-06
 -1     21640-9.77198E-02 4.21257E-02-4.84660E-05-4.14525E-02 1.42341E-04 1.80270E-05
 -1     21641-1.46206E-01 6.15355E-02-1.50923E-05-6.86978E-02 1.79361E-04 1.28463E-06
 -1     21642-1.80163E-01 7.54783E-02 2.45532E-05-8.65996E-02-2.49885E-06-4.69721E-05
 -1     21643-5.99204E-02 1.23011E-01-4.92814E-04 1.06408E-01 1.85247E-04 6.40089E-04
 -1     21644-3.32718E-01 1.47058E-01-2.42793E-03-1.33756E-01-3.35717E-04-4.32583E-03
 -1     21645-2.70960E-01 1.13924E-01-1.33557E-04-1.27853E-01-5.17397E-04 6.66381E-05
 -1     21646 9.70344E-02 5.68683E-02-3.84054E-07 2.25581E-01-1.20485E-05-2.47581E-05
 -1     21647-2.06960E-01 8.46333E-02 4.64281E-06-1.05292E-01-2.96981E-06 4.57157E-05
 -1     21648 7.83016E-02-5.45575E-03-5.88854E-06 9.05307E-02-1.11048E-06 2.54882E-06
 -1     21649 9.48280E-02 4.05014E-02-2.87450E-05 1.97933E-01-3.20391E-05-3.00527E-05
 -1     21650-1.24126E-01 5.33537E-02 8.03630E-06-5.47003E-02-1.02331E-05-1.77518E-06
 -1     21651 4.51016E-02-1.02941E-02-2.01243E-05 3.08606E-02 3.80339E-05 8.61221E-05
 -1     21652-1.79591E-02-9.04524E-03-2.42259E-05 5.76928E-03-4.38447E-05-1.07021E-05
 -1     21653-2.08223E-01 8.49678E-02-5.30222E-06-1.06855E-01-1.23879E-05 3.48578E-06
 -1     21654 7.69666E-02-2.93260E-03 2.06275E-05 8.96962E-02 2.31798E-05-3.58990E-05
 -1     21655-2.01246E-01 8.26477E-02 1.93339E-05-1.01739E-01-1.52965E-06-9.01796E-06
 -1     21656-2.27830E-01 3.91646E-02-7.30748E-04 1.72562E-02 7.25324E-04 3.20815E-04
 -1     21657-1.45418E-01 6.47896E-02-4.14239E-05-5.80708E-02-3.13392E-05-4.05639E-05
 -1     21658 8.34808E-02 3.16248E-02 1.62032E-05 1.67869E-01-9.37277E-06-5.92730E-06
 -1     21659 7.39086E-02 2.47277E-02-3.46511E-05 1.43105E-01-6.81053E-05-1.04967E-04
 -1     21660-6.41541E-02 1.26901E-01-1.00981E-04 1.21949E-01 2.46106E-05 9.71928E-05
 -1     21661 8.20388E-02-7.48011E-03-2.08617E-05 7.55733E-02-7.07405E-06 6.95318E-05
 -1     21662 7.34486E-02-1.39471E-02-3.32414E-05 5.44372E-02 5.12677E-05 1.29521E-04
 -1     21663 4.46854E-02 1.03070E-02-2.63779E-05 8.19102E-02 1.39621E-04 4.47572E-05
 -1     21664-1.83187E-01 7.67405E-02 7.34061E-06-8.82206E-02 4.79564E-06-1.86582E-06
 -1     21665 4.48330E-02 1.43877E-02-9.11648E-06 8.60907E-02 6.95198E-05 2.01307E-05
 -1     21666-2.27027E-01 9.38011E-02 1.77632E-05-1.11599E-01-4.67912E-05-7.55930E-05
 -1     21667 9.03506E-02 5.70996E-02-4.67115E-05 2.16466E-01-8.14366E-06 6.34004E-06
 -1     21668 8.80953E-02 5.80159E-02-3.39477E-06 2.14295E-01-4.92157E-05 3.19418E-05
 -1     21669 8.21941E-02-1.41066E-02 3.37773E-05 6.61021E-02 9.28131E-05 8.09355E-05
 -1     21670 8.48392E-02 5.80689E-02-1.99568E-06 2.10110E-01-7.05742E-05-7.86957E-05
 -1     21671 7.44819E-02-1.47583E-02-6.22621E-05 5.53871E-02-2.74355E-05-1.04328E-04
 -1     21672 3.78186E-02 5.92622E-02-1.76450E-04 1.44968E-01-3.53102E-06 1.01109E-05
 -1     21673 6.45412E-02 1.66045E-02 1.90761E-05 1.17193E-01 3.83863E-05 4.30871E-05
 -1     21674 9.45936E-02 4.34054E-02-9.54607E-06 2.02412E-01-6.97456E-06 1.46035E-05
 -1     21675-6.28580E-02 1.25818E-01-9.17237E-05 1.12850E-01 3.18949E-04 2.25450E-05
 -1     21676-1.33636E-01 5.76233E-02-6.96928E-06-5.86588E-02 4.01971E-05 3.00543E-05
 -1     21677 6.61871E-02 2.46422E-02-2.25515E-05 1.32211E-01 4.25437E-05 3.73302E-06
 -1     21678 3.99817E-02 1.03795E-02 1.78888E-05 7.40460E-02-1.53417E-04-4.13660E-05
 -1     21679-3.04740E-01 1.34211E-01-1.72997E-04-1.15115E-01-8.71775E-06 1.51724E-03
 -1     21680-3.84843E-02 3.81252E-02 2.75210E-04 3.79677E-02-1.28951E-03-8.69267E-05
 -1     21681 5.24532E-02 5.90528E-02-1.24808E-04 1.65604E-01 1.03066E-04-6.33633E-05
 -1     21682-1.38238E-01 3.17645E-03 1.98034E-04-7.55348E-03-4.75796E-04 1.38255E-04
 -1     21683-2.27441E-01 9.27484E-02-2.99743E-05-1.16780E-01 1.36217E-05-9.35487E-05
 -1     21684 9.37930E-02 4.15810E-02-1.12842E-05 1.98009E-01 1.32003E-05-8.23125E-06
 -1     21685 8.43628E-02 2.28141E-02 1.37714E-05 1.55760E-01-1.28426E-06 1.09969E-05
 -1     21686 9.51133E-03-7.81870E-03-2.84639E-05 1.11009E-02-2.61628E-06 3.29031E-05
 -1     21687 5.36295E-02 2.05221E-02 2.71870E-05 1.07844E-01-6.32740E-06-1.38224E-06
 -1     21688 7.28517E-02-1.29411E-03 6.46292E-06 9.22133E-02 1.74989E-05 1.80349E-05
 -1     21689-6.37677E-02 1.27452E-01-8.81152E-05 1.41640E-01 5.04980E-04-1.47256E-07
 -1     21690 6.62061E-02 5.99884E-02-1.49902E-06 1.87035E-01-3.62887E-05-9.61637E-05
 -1     21691 7.94110E-02-3.55968E-03-9.26186E-06 8.55715E-02-6.00521E-06-1.08045E-05
 -1     21692-2.49406E-01 3.19107E-02-7.74837E-04 2.03563E-02 2.44434E-03 1.43127E-04
 -1     21693 5.26435E-02 5.44071E-03 3.10942E-06 8.71185E-02-1.46614E-05-3.54838E-06
 -1     21694-1.09737E-01 4.77040E-02-5.59737E-05-4.68346E-02 3.22869E-05-1.28573E-04
 -1     21695-1.94203E-01 8.04354E-02 1.93590E-05-9.62203E-02-1.24872E-05-2.84200E-05
 -1     21696 8.11073E-02-5.39305E-03-1.29307E-06 7.93596E-02 3.84730E-05-1.69445E-05
 -1     21697-2.10177E-01 8.56550E-02-4.22952E-07-1.08039E-01-1.33356E-05-9.29430E-06
 -1     21698-5.32526E-02-6.82219E-03 1.59504E-05 3.02661E-03-6.73083E-05 5.12276E-05
 -1     21699-6.38513E-02 3.42329E-02-5.14493E-06-1.04847E-02-1.23782E-03 5.98171E-04
 -1     21700 9.73468E-02 5.55985E-02-1.33270E-05 2.24112E-01 3.72696E-05 2.39472E-05
 -1     21701 3.11391E-02-5.17146E-03 7.74010E-06 2.04305E-02 8.03273E-06-6.04272E-05
 -1     21702-1.56504E-01 6.63352E-02-2.48994E-05-7.26312E-02-4.31443E-05-8.59515E-06
 -1     21703-2.57241E-01 2.41294E-02 7.96977E-04 1.44008E-02 9.26445E-04-3.87446E-04
 -1     21704-3.43572E-01 1.52921E-01-1.58261E-04-1.22389E-01 2.18736E-03-2.70502E-03
 -1     21705-9.40927E-02-1.19220E-04-3.81952E-05-6.87883E-03-2.39642E-05-5.18474E-05
 -1     21706 1.93611E-02-8.44409E-03-6.20914E-06 1.58313E-02-2.50511E-05-1.64405E-05
 -1     21707 6.21105E-02 2.40582E-02-7.79843E-06 1.25479E-01-7.13760E-05-2.69117E-05
 -1     21708-1.45516E-01 6.28858E-02 2.98414E-05-6.36258E-02-2.16570E-05-2.69623E-05
 -1     21709 4.65295E-02 1.35633E-02 2.40011E-05 8.72177E-02-1.02045E-04-4.78081E-05
 -1     21710-1.55941E-01 4.23710E-03-2.03884E-05-7.77991E-03 1.00338E-03-3.52535E-04
 -1     21711-1.00196E-01 4.15014E-02 1.62642E-04-4.67294E-02-1.54649E-04 1.32139E-04
 -1     21712-6.62084E-02 1.32671E-01-1.33350E-04 1.36785E-01 3.62439E-04-4.83348E-05
 -1     21713-1.57861E-01 6.87496E-02 1.33020E-05-6.80003E-02-3.21470E-05-8.62498E-06
 -1     21714 8.51769E-02-1.05014E-02 1.20756E-05 8.16859E-02 1.36331E-05 1.04157E-05
 -1     21715 5.06163E-02-1.12600E-02-3.93219E-06 3.43732E-02-1.05273E-04-6.45689E-05
 -1     21716-1.68766E-01 7.15395E-02 2.09323E-06-7.84131E-02 1.19854E-05-2.91374E-05
 -1     21717 8.32893E-02-1.20085E-02-9.70980E-05 7.05775E-02-1.88953E-04 1.05654E-04
 -1     21718-4.36124E-01 1.93896E-01-4.92724E-03-2.61781E-02 1.14462E-03-2.19315E-03
 -1     21719-1.31561E-01 5.79544E-02 1.02983E-05-5.39291E-02-2.35426E-06-6.53677E-05
 -1     21720-4.92242E-02 6.94098E-02 2.40467E-03 5.21434E-02 6.27976E-03-5.69125E-03
 -1     21721 6.28627E-02 5.84424E-02-4.09219E-05 1.79599E-01 7.71437E-05-3.66210E-06
 -1     21722-7.47513E-02 1.50156E-01 8.95721E-05 1.24527E-01-8.57487E-06 1.64515E-05
 -1     21723-1.78092E-01 7.36999E-02-6.51484E-06-8.79753E-02-3.08314E-05 2.65612E-05
 -1     21724 8.17836E-02-7.07563E-03-1.48764E-05 7.60425E-02 2.30934E-05-8.14519E-05
 -1     21725 5.51105E-02 4.39470E-03 1.95110E-06 8.86289E-02 1.11613E-04 2.81597E-05
 -1     21726 5.93804E-02 1.23268E-02-3.51637E-06 1.02507E-01 1.02269E-05-7.86090E-06
 -1     21727-3.61674E-01 1.51082E-01-1.05087E-03-2.04074E-02 1.73327E-03-1.94884E-03
 -1     21728-1.14626E-01 4.92397E-02-1.69741E-05-5.10205E-02-1.44751E-04-4.90617E-05
 -1     21729-1.70666E-01 7.10380E-02-8.03816E-06-8.31847E-02 8.43859E-07-5.63538E-06
 -1     21730-1.14444E-01 5.43850E-02-3.83491E-05-3.43085E-02 4.53397E-06 1.58158E-05
 -1     21731-6.97465E-02 3.59504E-02-1.47157E-05-1.47335E-02 2.22437E-04 1.76412E-04
 -1     21732 4.74194E-03 7.09788E-02 2.21313E-05 1.30865E-01-2.62786E-05-3.97801E-06
 -1     21733-5.54613E-02 4.86908E-02-1.37089E-06 2.59777E-02 1.57739E-07-9.30522E-06
 -1     21734-1.06029E-01 6.65146E-02-1.24120E-05 1.56130E-03-1.25032E-05-4.27324E-06
 -1     21735-2.69694E-01 6.95539E-02 7.58658E-04 1.67862E-02-3.51681E-04-3.14969E-04
 -1     21736-1.52492E-01 1.35213E-02-2.15799E-04 1.59925E-03-6.41551E-04 5.20521E-04
 -1     21737 3.08407E-02-1.18764E-02 2.31057E-05 2.34511E-02-4.06152E-05-3.59875E-05
 -1     21738-5.16592E-03 4.57515E-02 1.66664E-04 1.04723E-01 6.39208E-04-4.66130E-04
 -1     21739 2.10828E-03 4.13362E-02-3.93249E-04 9.75167E-02 1.92793E-04 1.65695E-03
 -1     21740 3.04110E-03 3.98107E-02 2.26583E-04 9.66051E-02-2.48240E-03-2.10510E-03
 -1     21741 3.37987E-02 2.65735E-03-5.93899E-10 5.91672E-02 1.07857E-04 1.68494E-04
 -1     21742 3.33871E-02 2.74256E-03 5.66422E-10 5.83349E-02-9.88272E-07-8.70268E-05
 -1     21743 3.38952E-02 2.81295E-03-4.12392E-10 5.90934E-02-1.10378E-04-1.45954E-04
 -1     21744 3.92802E-02 4.17526E-02 5.68193E-04 1.19349E-01 3.17717E-04 8.13939E-05
 -1     21745 7.04540E-02 4.34202E-02-2.92726E-04 1.64056E-01-2.43707E-04 6.54243E-04
 -1     21746 8.09131E-02 4.87846E-02-2.40431E-04 1.88310E-01 7.23793E-06 3.47218E-04
 -1     21747 8.79760E-02 5.27327E-02-1.97594E-04 2.04449E-01-2.30791E-04 1.02652E-05
 -1     21748 9.27698E-02 5.51526E-02 1.01040E-04 2.15806E-01 1.27632E-04-1.16230E-04
 -1     21749 9.65428E-02 5.71153E-02-6.80011E-05 2.24502E-01 7.00120E-07 2.17697E-04
 -1     21750 9.89849E-02 5.86338E-02-1.02877E-04 2.30450E-01-5.02520E-05-2.08839E-05
 -1     21751 1.00876E-01 5.96167E-02 2.41768E-06 2.34770E-01-5.77918E-05-6.06967E-05
 -1     21752 1.02024E-01 6.05352E-02-2.49529E-05 2.37828E-01 9.97388E-05 2.02680E-04
 -1     21753 1.02961E-01 6.08638E-02 3.39024E-05 2.39763E-01-5.15464E-05-5.94313E-05
 -1     21754 1.03259E-01 6.11417E-02 2.47260E-05 2.40676E-01-6.81151E-06 2.33164E-05
 -1     21755 1.03225E-01 6.11576E-02-1.65927E-05 2.40623E-01-1.39614E-05 4.27613E-05
 -1     21756 1.02768E-01 6.08674E-02-1.20911E-05 2.39595E-01 2.56540E-05 1.19712E-05
 -1     21757 1.01865E-01 6.03885E-02 1.66451E-05 2.37458E-01 2.33648E-05 7.13104E-05
 -1     21758 1.00515E-01 5.95551E-02-4.38186E-05 2.34173E-01 1.75322E-05 6.00736E-05
 -1     21759 9.86566E-02 5.83524E-02 6.41910E-06 2.29552E-01 2.12007E-05 1.79202E-05
 -1     21760 9.61719E-02 5.67824E-02 1.31849E-05 2.23729E-01 1.27453E-05 2.78376E-05
 -1     21761 9.30557E-02 5.49958E-02-5.25871E-05 2.16423E-01 1.20891E-05 1.30578E-04
 -1     21762 8.93136E-02 5.26368E-02 2.48311E-05 2.07701E-01 1.50950E-05 2.68134E-05
 -1     21763 8.51007E-02 5.01040E-02-4.80234E-05 1.97679E-01 6.92382E-06 1.12460E-04
 -1     21764 8.02518E-02 4.71885E-02-1.64681E-05 1.86495E-01 4.49275E-06 3.25026E-05
 -1     21765 7.51190E-02 4.39806E-02 9.65515E-06 1.74274E-01 5.20454E-05 1.97829E-05
 -1     21766 6.97733E-02 4.05963E-02 1.24591E-05 1.61677E-01-3.12282E-05 2.68400E-05
 -1     21767 6.40057E-02 3.74485E-02-2.61059E-05 1.48716E-01-1.48999E-05 6.07083E-05
 -1     21768 5.84587E-02 3.42427E-02 6.23664E-05 1.36062E-01-4.35573E-05 2.53708E-05
 -1     21769 5.33061E-02 3.12525E-02-3.06322E-05 1.23980E-01 7.09626E-05 3.46976E-05
 -1     21770 4.85504E-02 2.85662E-02-2.75112E-06 1.13157E-01 4.60147E-05 2.08076E-05
 -1     21771 4.45834E-02 2.60009E-02 6.78991E-06 1.03727E-01-3.89291E-05-7.35173E-05
 -1     21772 4.12448E-02 2.41913E-02-1.25345E-05 9.63482E-02-2.12119E-05 8.95097E-06
 -1     21773 3.87271E-02 2.30055E-02 7.31798E-05 9.04879E-02 1.55164E-05-6.44709E-05
 -1     21774 3.64572E-02 2.21908E-02 7.86236E-05 8.57890E-02 9.44735E-06 5.98358E-06
 -1     21775 3.47170E-02 2.06875E-02 1.81510E-05 8.08600E-02 2.19324E-05 8.25073E-05
 -1     21776 3.25835E-02 1.40394E-02 1.47881E-04 6.82582E-02 2.00740E-04 4.40317E-05
 -1     21777 3.77783E-02 4.12760E-02 8.79019E-04 1.21044E-01 4.54791E-04-2.85495E-03
 -1     21778 7.23184E-02 4.20855E-02-1.77927E-04 1.63416E-01 6.99602E-04 6.42219E-04
 -1     21779 8.06682E-02 4.89086E-02-8.03048E-05 1.87817E-01-3.81128E-05-3.14045E-04
 -1     21780 8.81144E-02 5.23107E-02-8.97517E-05 2.04663E-01 4.32715E-05-5.18425E-05
 -1     21781 9.28179E-02 5.51857E-02-3.42010E-05 2.16139E-01 2.86095E-05-1.28712E-04
 -1     21782 9.63263E-02 5.72222E-02-6.62476E-05 2.24468E-01 8.78728E-06-9.51536E-05
 -1     21783 9.88490E-02 5.87122E-02-1.92818E-05 2.30421E-01-6.67652E-05-9.12538E-06
 -1     21784 1.00874E-01 5.96674E-02-4.32929E-06 2.34807E-01 4.96867E-05-3.01460E-06
 -1     21785 1.02162E-01 6.03869E-02 2.20256E-05 2.37821E-01 4.30115E-05 2.07396E-05
 -1     21786 1.02962E-01 6.08853E-02-9.53755E-06 2.39750E-01 3.13036E-05 1.37741E-05
 -1     21787 1.03325E-01 6.11057E-02-2.42823E-05 2.40657E-01 3.27677E-05 1.15576E-05
 -1     21788 1.03195E-01 6.11820E-02-1.42818E-05 2.40606E-01-9.31724E-06-7.74986E-05
 -1     21789 1.02808E-01 6.09549E-02-5.42313E-05 2.39625E-01-1.28226E-05-7.73556E-05
 -1     21790 1.01914E-01 6.03283E-02 1.54526E-05 2.37269E-01-6.69194E-05 4.72093E-05
 -1     21791 1.00585E-01 5.95593E-02-5.76716E-05 2.34175E-01-2.35786E-05-1.20512E-04
 -1     21792 9.87993E-02 5.81600E-02-8.67072E-06 2.29631E-01 1.29441E-04 1.67543E-05
 -1     21793 9.62176E-02 5.67027E-02-2.31575E-06 2.23764E-01 6.04776E-05 3.49905E-05
 -1     21794 9.31771E-02 5.47464E-02 2.38824E-05 2.16402E-01 6.24447E-05 9.84512E-06
 -1     21795 8.94161E-02 5.25510E-02 8.10786E-07 2.07753E-01 5.17105E-05 3.50472E-05
 -1     21796 8.51832E-02 4.99135E-02 2.50748E-05 1.97623E-01 5.12229E-05 4.66069E-06
 -1     21797 8.02660E-02 4.71097E-02 3.00556E-05 1.86537E-01 2.90192E-05 5.78680E-06
 -1     21798 7.51028E-02 4.39867E-02 4.16831E-05 1.74343E-01 2.50338E-05 1.09108E-05
 -1     21799 6.96442E-02 4.07137E-02 3.84020E-05 1.61593E-01 1.33831E-08 2.32984E-05
 -1     21800 6.40510E-02 3.73922E-02-1.53687E-05 1.48723E-01-6.85429E-05-2.08336E-05
 -1     21801 5.85263E-02 3.42523E-02-8.73214E-06 1.36029E-01-7.62253E-05-7.04267E-05
 -1     21802 5.34442E-02 3.10466E-02-3.71469E-06 1.24024E-01 2.89650E-05 6.81112E-06
 -1     21803 4.87290E-02 2.83634E-02-1.97480E-05 1.13160E-01 1.55364E-05 3.53064E-05
 -1     21804 4.46587E-02 2.59566E-02 2.37638E-06 1.03812E-01 7.04704E-05 9.78965E-05
 -1     21805 4.12750E-02 2.41597E-02 5.72616E-05 9.62756E-02 1.82620E-05 7.34793E-05
 -1     21806 3.84938E-02 2.31362E-02 3.69205E-05 9.05269E-02-8.56761E-05-1.01508E-04
 -1     21807 3.64883E-02 2.21708E-02 2.92799E-05 8.58278E-02 1.59193E-05-1.70958E-05
 -1     21808 3.48273E-02 2.06008E-02 9.67723E-05 8.07978E-02 4.69450E-05-1.78528E-05
 -1     21809 3.27473E-02 1.38342E-02 1.87359E-04 6.82902E-02-2.48958E-04-1.14957E-04
 -1     21810-6.83363E-02 8.17664E-02-7.32953E-04 4.44624E-02-6.18010E-03 4.05988E-03
 -1     21811-5.56378E-02 6.42901E-02 5.01083E-04 4.75258E-02 7.51525E-03-4.70903E-03
 -1     21812-5.10067E-02 5.93697E-02 2.31861E-04 4.21429E-02-5.50406E-03 2.77697E-03
 -1     21813-5.87772E-02 1.56492E-01-7.27697E-03 1.21185E-01 3.30199E-03 5.22675E-03
 -1     21814-9.32090E-02 1.99075E-01-1.20030E-03 1.29556E-01-1.96540E-04 2.53077E-03
 -1     21815-9.42939E-02 1.95635E-01-2.35054E-04 1.23367E-01-4.64149E-07 1.62633E-04
 -1     21816-9.02818E-02 1.87721E-01-3.88754E-04 1.21384E-01 2.61272E-04 2.69984E-06
 -1     21817-8.27778E-02 1.70446E-01-2.30446E-04 1.20675E-01 6.18071E-04 2.81951E-04
 -1     21818-7.03772E-02 1.45334E-01-1.50746E-04 1.21634E-01-1.77655E-05 1.59231E-04
 -1     21819-5.33554E-02 1.07392E-01 7.58272E-04 1.23503E-01-2.38147E-04 2.72841E-05
 -1     21820-2.74179E-02 6.00553E-02-3.59081E-04 1.20356E-01 1.72676E-03-2.84865E-06
 -1     21821-7.13011E-02 1.52122E-01 1.11868E-03 1.05341E-01-1.22413E-02-9.83841E-03
 -1     21822-9.16688E-02 1.97334E-01-2.87297E-04 1.31518E-01 1.89340E-03 5.16789E-04
 -1     21823-9.44303E-02 1.97626E-01-1.07334E-03 1.23699E-01-6.62079E-05-1.06166E-03
 -1     21824-9.07337E-02 1.87122E-01-5.32327E-05 1.22039E-01 2.78186E-04-8.26837E-05
 -1     21825-8.27285E-02 1.70673E-01-2.66345E-04 1.22047E-01-3.28958E-05-1.03621E-04
 -1     21826-7.04387E-02 1.44059E-01 1.25581E-04 1.23148E-01 1.34396E-03 1.20266E-04
 -1     21827-5.31192E-02 1.07132E-01 1.23904E-04 1.27618E-01 1.32054E-03-3.62177E-04
 -1     21828-2.93198E-02 6.20943E-02-2.50735E-04 1.22031E-01 7.15981E-04 1.43316E-03
 -1     21829-6.51211E-01 1.38969E-01-6.95770E-09 3.83507E-02 6.02678E-04 1.37764E-03
 -1     21830-6.31925E-01 1.51423E-01 1.37383E-08 3.00640E-02-3.76224E-03 1.56964E-03
 -1     21831-7.00098E-01 1.64061E-01 2.89580E-08 3.35292E-02 5.30309E-03 4.31870E-03
 -1     21832-4.90749E-01 2.24489E-01-8.31371E-04-1.59155E-01-1.11704E-02 7.58015E-03
 -1     21833-3.04705E-01 1.23925E-01 1.08597E-03-1.55363E-01-1.99302E-04-1.48722E-03
 -1     21834-2.71416E-01 1.10219E-01-3.61341E-04-1.43214E-01 2.14882E-04-1.19250E-04
 -1     21835-2.56344E-01 1.03816E-01 2.81836E-05-1.35473E-01 2.83689E-04-2.47781E-05
 -1     21836-2.47141E-01 9.99452E-02-1.30587E-05-1.30626E-01 1.14732E-04 1.52073E-04
 -1     21837-2.41189E-01 9.74428E-02-1.33813E-05-1.27077E-01 1.26902E-05-1.54837E-04
 -1     21838-2.36848E-01 9.55987E-02-2.49913E-05-1.24940E-01 5.44379E-05 5.93619E-05
 -1     21839-2.33924E-01 9.43059E-02 5.06367E-05-1.23394E-01 2.92705E-07 1.61965E-05
 -1     21840-2.31438E-01 9.33199E-02 8.20326E-06-1.22283E-01 5.00623E-05 8.20009E-05
 -1     21841-2.29550E-01 9.25676E-02-1.94333E-06-1.21091E-01 1.81024E-06 3.29535E-05
 -1     21842-2.27588E-01 9.17392E-02 1.10894E-05-1.19954E-01-8.41892E-06 3.21239E-06
 -1     21843-2.25161E-01 9.07639E-02-2.66245E-05-1.18659E-01-9.22779E-06 2.33162E-05
 -1     21844-2.22113E-01 8.94708E-02 3.44174E-05-1.17000E-01-1.44435E-05-7.99614E-06
 -1     21845-2.18138E-01 8.78894E-02-9.49926E-06-1.14866E-01-5.30152E-05-9.78691E-06
 -1     21846-2.12974E-01 8.58076E-02 2.07562E-05-1.12119E-01 1.01716E-05-2.49803E-05
 -1     21847-2.06324E-01 8.31304E-02-6.81940E-05-1.08646E-01-2.71252E-05 3.43089E-05
 -1     21848-1.98159E-01 7.97779E-02-3.52924E-06-1.04354E-01-2.39969E-05 5.18648E-05
 -1     21849-1.88268E-01 7.58263E-02 1.52313E-05-9.91140E-02-1.13860E-05 4.79116E-05
 -1     21850-1.76816E-01 7.12051E-02-6.49352E-06-9.30519E-02-5.69233E-05 3.79444E-05
 -1     21851-1.64064E-01 6.60678E-02 5.76238E-06-8.63906E-02 1.77684E-05-6.66270E-06
 -1     21852-1.50750E-01 6.06943E-02-2.07275E-05-7.96209E-02 2.46796E-05-4.39752E-05
 -1     21853-1.38165E-01 5.54245E-02-1.30080E-05-7.35473E-02-3.48908E-05-7.76427E-05
 -1     21854-1.27917E-01 5.08055E-02 1.34723E-04-6.90246E-02-1.09648E-04-5.51076E-05
 -1     21855-1.21229E-01 4.65676E-02 2.01634E-05-6.76669E-02-3.99931E-04 3.53923E-05
 -1     21856-1.14211E-01 3.70477E-02-9.01745E-04-7.42474E-02-7.06658E-05 2.03968E-03
 -1     21857-8.99008E-02 1.89124E-02 8.33349E-03-3.82864E-02-2.38771E-03-3.71253E-04
 -1     21858-4.97550E-01 2.17897E-01-4.89030E-03-1.56856E-01-5.85345E-03 2.26024E-02
 -1     21859-2.95197E-01 1.20976E-01-3.72767E-04-1.59691E-01-1.96779E-03-4.35578E-03
 -1     21860-2.71317E-01 1.10485E-01 1.72234E-04-1.44470E-01-6.64753E-06 3.19815E-04
 -1     21861-2.56050E-01 1.03726E-01-1.35904E-04-1.35566E-01-3.23350E-04 2.26626E-05
 -1     21862-2.47079E-01 1.00086E-01-2.42782E-04-1.30486E-01 1.11812E-04-5.42375E-05
 -1     21863-2.41019E-01 9.73810E-02-1.42984E-05-1.27304E-01-5.54787E-05-1.77727E-05
 -1     21864-2.36908E-01 9.56830E-02-8.11983E-05-1.24886E-01 3.02734E-05-8.45576E-05
 -1     21865-2.33893E-01 9.43642E-02 7.64543E-05-1.23297E-01-1.31518E-05 3.57952E-05
 -1     21866-2.31625E-01 9.34292E-02 1.07949E-05-1.22103E-01 8.47866E-06 1.84774E-05
 -1     21867-2.29602E-01 9.25866E-02-1.18019E-05-1.21052E-01-1.03894E-05-1.27539E-06
 -1     21868-2.27602E-01 9.16607E-02 1.06321E-05-1.20028E-01 4.60290E-06-2.36049E-05
 -1     21869-2.25063E-01 9.05648E-02 3.25743E-05-1.18836E-01-7.38768E-05-1.19626E-04
 -1     21870-2.21978E-01 8.92667E-02 2.49479E-05-1.16980E-01 4.94714E-05 8.25572E-05
 -1     21871-2.18018E-01 8.76334E-02-7.66806E-06-1.14907E-01-1.47340E-04 2.17763E-06
 -1     21872-2.12902E-01 8.56780E-02 6.48890E-05-1.12267E-01 3.36920E-05-1.43059E-04
 -1     21873-2.06411E-01 8.31298E-02 2.41901E-05-1.08593E-01 3.81923E-05 3.74584E-05
 -1     21874-1.98258E-01 7.98315E-02 1.78046E-05-1.04249E-01 7.91184E-05 5.57432E-05
 -1     21875-1.88313E-01 7.57652E-02 6.31458E-05-9.91441E-02 6.19441E-05-5.66836E-05
 -1     21876-1.76797E-01 7.11568E-02 1.38081E-05-9.29811E-02 3.52076E-05 1.94276E-05
 -1     21877-1.64023E-01 6.60429E-02-1.09850E-05-8.64378E-02 4.65096E-05-8.49281E-06
 -1     21878-1.50712E-01 6.06774E-02-1.36529E-05-7.95916E-02-8.39826E-06 1.10954E-04
 -1     21879-1.38174E-01 5.56055E-02 2.59380E-06-7.35957E-02 3.69762E-05 9.41820E-05
 -1     21880-1.27742E-01 5.08362E-02-8.94543E-05-6.91615E-02-5.88693E-05 1.33334E-04
 -1     21881-1.21199E-01 4.60435E-02 6.48243E-04-6.82116E-02-7.89224E-05-8.36392E-04
 -1     21882-1.16651E-01 3.70409E-02 1.90046E-03-7.13384E-02 2.47632E-03 3.43721E-04
 -1     21883-9.24532E-02 4.21009E-02-1.41470E-03-3.23067E-02 1.10602E-02 6.76339E-03
 -1     21884 4.25580E-02-6.67955E-08 6.08040E-05 6.82013E-02 5.93656E-04 2.36619E-04
 -1     21885 5.17572E-02-4.40340E-08-1.07883E-04 8.16335E-02 4.60041E-05-4.52318E-05
 -1     21886 5.73136E-02-2.90478E-08-1.12912E-05 8.86761E-02 1.70649E-04-6.83904E-06
 -1     21887 6.27865E-02-1.94979E-08 1.80336E-05 9.25842E-02-1.13861E-05 5.90520E-06
 -1     21888 6.82277E-02 1.99144E-09-3.44576E-05 9.37330E-02 5.50499E-05-4.91564E-05
 -1     21889 7.28152E-02 9.65996E-09-1.88890E-05 9.21513E-02 7.32953E-05-8.91117E-06
 -1     21890 7.58776E-02 1.99400E-08 6.50722E-06 8.78952E-02 1.79338E-05-2.40430E-06
 -1     21891 7.71180E-02 2.96749E-08-2.54314E-05 8.15604E-02 1.16086E-04-4.21921E-05
 -1     21892 7.60885E-02 3.92949E-08-8.34597E-06 7.34022E-02 3.22576E-05-8.22443E-05
 -1     21893 7.28262E-02 5.58247E-08-3.89433E-05 6.40469E-02 1.10347E-04-2.73403E-05
 -1     21894 6.67150E-02 6.12374E-08-3.67795E-05 5.34168E-02-1.18683E-04-6.79893E-05
 -1     21895 5.81278E-02 6.33050E-08-3.85650E-05 4.28177E-02 1.65112E-04-4.09965E-05
 -1     21896 4.65279E-02 6.25838E-08 1.63361E-05 3.13841E-02 1.13292E-05-3.55412E-05
 -1     21897 3.23187E-02 5.29605E-08-1.56886E-05 2.02209E-02 4.36308E-05-4.17038E-05
 -1     21898 1.49926E-02 4.21108E-08-4.74933E-06 9.22270E-03-4.21253E-05-7.05373E-05
 -1     21899-5.54051E-03 4.37266E-08 9.46222E-06-9.13756E-04 2.16026E-05-7.79418E-05
 -1     21900-2.95384E-02 2.57312E-08-3.44888E-05-9.82594E-03-5.87563E-05-5.68830E-05
 -1     21901-5.74893E-02 2.83043E-08-4.71194E-05-1.70454E-02-4.10833E-05-8.32187E-05
 -1     21902-9.12569E-02 9.09671E-09 2.71448E-05-2.15529E-02-9.24922E-05-7.46622E-05
 -1     21903-1.32543E-01-2.05007E-08-8.95363E-05-2.20538E-02-1.08964E-03 2.47337E-05
 -1     21904-1.88916E-01-1.31240E-07-1.68638E-04-1.12686E-02-2.43570E-03 4.89469E-04
 -1     21905-3.36878E-01-4.72097E-07 7.27475E-04 3.88316E-02-5.62019E-03-3.11593E-03
 -1     21906 4.24810E-02-6.90580E-08 5.37883E-05 6.80001E-02-7.09008E-04-2.86789E-04
 -1     21907 5.16262E-02-4.54193E-08-8.33040E-05 8.15902E-02-9.15414E-05 8.68964E-05
 -1     21908 5.71839E-02-2.72503E-08 3.26848E-05 8.86950E-02-1.25682E-04 5.56649E-06
 -1     21909 6.28145E-02-1.99191E-08 9.00282E-06 9.25973E-02 3.05750E-06 4.83730E-06
 -1     21910 6.82180E-02 1.98832E-09-2.58209E-08 9.36889E-02-4.23825E-05 4.12142E-05
 -1     21911 7.28298E-02 2.10905E-08 8.07806E-06 9.19144E-02 1.10460E-05 4.62265E-05
 -1     21912 7.59563E-02 3.44597E-08-3.16210E-05 8.77556E-02 3.41828E-06 5.84211E-05
 -1     21913 7.72160E-02 3.01919E-08-5.22610E-05 8.16356E-02-8.15637E-05 7.10627E-05
 -1     21914 7.61234E-02 3.85228E-08-3.76762E-05 7.34867E-02-4.88048E-05 6.68174E-05
 -1     21915 7.27334E-02 6.07992E-08 2.90887E-05 6.38772E-02 7.87391E-05 1.88327E-05
 -1     21916 6.67747E-02 6.47160E-08-3.61779E-06 5.34321E-02 1.72315E-04 4.78014E-05
 -1     21917 5.81355E-02 6.39817E-08-9.68771E-06 4.24457E-02 1.76100E-04 1.23858E-05
 -1     21918 4.66578E-02 5.60372E-08-5.28036E-05 3.12475E-02 8.54843E-05 8.15411E-05
 -1     21919 3.23782E-02 5.47902E-08-2.80909E-05 2.02222E-02-1.00024E-04 3.85594E-05
 -1     21920 1.51018E-02 4.60211E-08-2.01541E-05 9.08278E-03 1.02141E-04 4.38511E-05
 -1     21921-5.44510E-03 3.37177E-08-3.60249E-05-1.11506E-03 7.16913E-05 5.74413E-05
 -1     21922-2.92779E-02 4.17729E-08-5.89593E-05-9.93054E-03 6.80017E-05 8.47991E-05
 -1     21923-5.73914E-02 3.02658E-08-1.38245E-05-1.71159E-02 5.93794E-05 3.27645E-05
 -1     21924-9.07106E-02 5.45342E-09-4.10588E-05-2.16085E-02 1.79199E-04 4.71915E-05
 -1     21925-1.32945E-01-2.09703E-08-3.30537E-05-2.14401E-02 3.57544E-04 9.58938E-05
 -1     21926-1.90700E-01-1.01972E-07-1.76591E-05-1.04405E-02 1.77103E-03-1.79483E-04
 -1     21927-3.16896E-01-3.44564E-07 2.97516E-03 3.67508E-02 5.62257E-03-5.30362E-03
 -1     21928 4.26478E-02 3.76816E-02 1.92116E-04 1.19802E-01-5.85366E-05 2.59087E-04
 -1     21929 4.02787E-02 3.80078E-02-6.82092E-04 1.15988E-01 3.14825E-04 1.12806E-03
 -1     21930 3.37109E-02 4.04116E-02 2.01180E-04 1.15816E-01-2.27270E-04 1.20326E-03
 -1     21931 3.81435E-02 3.72020E-02-3.89999E-05 1.14609E-01-1.30267E-03-3.08547E-03
 -1     21932 3.87710E-02 3.73099E-02-4.63398E-04 1.13580E-01 2.23461E-04-4.65513E-04
 -1     21933 6.50938E-02 3.33197E-02-1.23140E-03 1.35174E-01 6.72671E-04 1.05038E-04
 -1     21934 6.18312E-02 3.61802E-02 7.01052E-04 1.42180E-01-5.86178E-04-8.19019E-04
 -1     21935 8.33700E-02 4.98636E-02-1.70448E-05 1.94652E-01 1.14324E-04-1.28800E-05
 -1     21936 7.90394E-02 4.72850E-02 1.27238E-04 1.84909E-01 6.25992E-06 8.33404E-05
 -1     21937 9.37170E-02 5.54988E-02 1.57982E-04 2.18753E-01 1.69139E-05 2.41531E-05
 -1     21938 9.17155E-02 5.42300E-02 1.42845E-04 2.13715E-01 1.32974E-04 8.05390E-05
 -1     21939 9.92524E-02 5.88826E-02-3.16375E-05 2.31543E-01-2.76244E-05 1.05303E-05
 -1     21940 9.80409E-02 5.82131E-02-4.69442E-05 2.28846E-01-5.72352E-05-2.01541E-06
 -1     21941 1.02294E-01 6.05832E-02 4.43613E-05 2.38611E-01-1.78162E-05 2.92585E-06
 -1     21942 1.01855E-01 6.02938E-02 2.63709E-05 2.37502E-01 1.80132E-05-6.22500E-06
 -1     21943 1.03236E-01 6.11738E-02-3.12716E-06 2.40809E-01 1.19284E-05-4.44007E-07
 -1     21944 1.03167E-01 6.11479E-02-1.07345E-05 2.40673E-01 1.33854E-05-2.01373E-05
 -1     21945 1.02545E-01 6.08066E-02 1.48889E-05 2.39319E-01-2.63071E-05 8.31500E-06
 -1     21946 1.02852E-01 6.09649E-02 7.50730E-06 2.40007E-01 9.95945E-06 3.17305E-06
 -1     21947 1.00209E-01 5.93560E-02-1.13812E-05 2.33678E-01 2.54067E-05 3.14719E-05
 -1     21948 1.01036E-01 5.97133E-02 1.53330E-05 2.35311E-01 4.63432E-05 3.40168E-05
 -1     21949 9.56288E-02 5.64583E-02 7.90978E-06 2.22700E-01-4.44505E-05-7.59829E-05
 -1     21950 9.70583E-02 5.72594E-02 3.21225E-05 2.26027E-01-3.92634E-05-9.89749E-05
 -1     21951 8.86442E-02 5.22174E-02-1.50700E-05 2.06224E-01-5.86414E-05-8.28817E-05
 -1     21952 9.06540E-02 5.33776E-02 1.27172E-05 2.10934E-01-5.29186E-05-1.17632E-04
 -1     21953 7.93895E-02 4.67124E-02-2.42064E-06 1.84627E-01-5.75977E-06-5.13912E-05
 -1     21954 8.18719E-02 4.81379E-02-1.06672E-05 1.90452E-01-4.13121E-05-1.01138E-04
 -1     21955 6.84396E-02 4.04131E-02-1.55225E-05 1.59556E-01 6.77851E-09 7.86929E-05
 -1     21956 7.12726E-02 4.20857E-02 1.07461E-05 1.65997E-01 4.70216E-05-1.33805E-05
 -1     21957 5.73731E-02 3.39418E-02 1.79783E-05 1.34020E-01 9.46583E-06 8.27113E-05
 -1     21958 6.01264E-02 3.54791E-02 8.63977E-06 1.40065E-01 8.80489E-05 1.80746E-05
 -1     21959 4.74300E-02 2.79709E-02-1.52538E-05 1.10616E-01-3.77748E-05 5.42510E-05
 -1     21960 4.97411E-02 2.93443E-02-1.63162E-05 1.15692E-01 7.31752E-05-2.27274E-05
 -1     21961 4.04647E-02 2.40397E-02-2.60801E-06 9.46023E-02 7.53717E-06-5.29473E-05
 -1     21962 4.20928E-02 2.46973E-02-2.34318E-06 9.79215E-02 6.59279E-07-3.00634E-05
 -1     21963 3.60421E-02 2.18975E-02 4.02234E-06 8.48113E-02 1.58864E-04 6.88832E-05
 -1     21964 3.68467E-02 2.26548E-02 1.95688E-06 8.69723E-02 1.30396E-04 4.22082E-05
 -1     21965 3.06807E-02 1.59172E-02 5.22014E-05 6.81198E-02 2.44342E-04 2.04293E-05
 -1     21966 3.09922E-02 1.42327E-02-1.59039E-04 6.67418E-02-8.45234E-05-5.84896E-06
 -1     21967 3.09020E-02 1.44404E-02-8.95062E-05 6.65098E-02-5.00080E-05-1.31256E-04
 -1     21968 3.02812E-02 1.63662E-02 1.06190E-05 6.82552E-02-2.52629E-04 8.38050E-05
 -1     21969 3.51891E-02 2.12429E-02 5.34840E-05 8.22861E-02-3.19097E-05-6.26540E-05
 -1     21970 3.39477E-02 2.02072E-02-2.68701E-05 7.97012E-02-1.28096E-04 1.85824E-04
 -1     21971 3.68965E-02 2.26034E-02-1.25521E-05 8.69558E-02-1.45325E-04-2.17657E-05
 -1     21972 3.60117E-02 2.20187E-02 8.85294E-06 8.48813E-02-2.29537E-04-6.49022E-05
 -1     21973 4.23171E-02 2.48462E-02 1.53374E-06 9.84854E-02-1.38561E-05 2.26313E-05
 -1     21974 4.06976E-02 2.41190E-02 1.10126E-05 9.51632E-02-1.74063E-05 6.34067E-05
 -1     21975 4.96382E-02 2.92718E-02-1.92763E-05 1.15572E-01-4.62121E-05-2.05423E-05
 -1     21976 4.74254E-02 2.80752E-02-7.45069E-06 1.10685E-01 2.06981E-05-2.29362E-05
 -1     21977 5.93000E-02 3.49593E-02-2.51580E-05 1.38012E-01-5.25176E-05-2.53331E-05
 -1     21978 5.65442E-02 3.34979E-02-1.33462E-05 1.31893E-01 4.75846E-05-2.13100E-05
 -1     21979 7.05544E-02 4.10854E-02 6.10080E-05 1.63668E-01 4.22597E-05 1.30425E-05
 -1     21980 6.80425E-02 3.94245E-02 2.74414E-05 1.57475E-01 1.23710E-04 7.17515E-05
 -1     21981 8.08255E-02 4.78926E-02-1.94554E-05 1.88499E-01-2.00762E-05 4.07172E-05
 -1     21982 7.84408E-02 4.62126E-02-3.24230E-05 1.82676E-01 3.39882E-05-4.36153E-05
 -1     21983 8.97472E-02 5.32439E-02-2.06705E-06 2.09414E-01-7.87923E-06 4.26278E-05
 -1     21984 8.79159E-02 5.18278E-02-1.97771E-05 2.04762E-01 4.34061E-06-6.30115E-05
 -1     21985 9.64247E-02 5.72147E-02-1.73218E-05 2.25006E-01-1.75819E-05 3.74252E-05
 -1     21986 9.51426E-02 5.61870E-02-2.92041E-05 2.21716E-01 2.14699E-06-6.22150E-05
 -1     21987 1.00609E-01 5.97923E-02 4.03826E-05 2.34871E-01-9.65401E-05 2.53814E-05
 -1     21988 9.96935E-02 5.92551E-02-7.55539E-06 2.32694E-01-6.31059E-05 3.22092E-05
 -1     21989 1.02868E-01 6.10228E-02-6.09662E-06 2.40005E-01-6.49824E-05 3.23788E-05
 -1     21990 1.02547E-01 6.07923E-02-4.51694E-06 2.39240E-01-5.26326E-05-1.70615E-05
 -1     21991 1.03198E-01 6.09781E-02 3.80493E-05 2.40532E-01 1.54517E-05 7.83007E-05
 -1     21992 1.03280E-01 6.11439E-02 1.48577E-05 2.40842E-01 2.94019E-06 3.50627E-05
 -1     21993 1.01718E-01 6.01502E-02 4.22104E-05 2.36823E-01-6.69296E-05-5.30745E-05
 -1     21994 1.02079E-01 6.06449E-02 2.43638E-05 2.38381E-01-1.25657E-05-3.75067E-05
 -1     21995 9.83906E-02 5.83977E-02-8.93641E-05 2.29652E-01 2.37824E-05-1.15445E-05
 -1     21996 9.94572E-02 5.90657E-02-5.79482E-06 2.32183E-01 2.07899E-05 2.70949E-05
 -1     21997 9.14544E-02 5.47091E-02-4.60335E-05 2.13968E-01 9.36684E-05-2.13337E-06
 -1     21998 9.40366E-02 5.52923E-02 8.32416E-06 2.18686E-01-4.38465E-05-1.24099E-04
 -1     21999 7.82749E-02 4.65215E-02-7.01272E-05 1.82788E-01 4.35429E-06-1.06194E-04
 -1     22000 8.25098E-02 4.90380E-02-1.02228E-04 1.92588E-01-4.38579E-05-4.75867E-05
 -1     22001 6.80460E-02 3.34905E-02 2.18414E-04 1.42183E-01 4.19882E-04-2.32495E-04
 -1     22002 3.24760E-02 2.11436E-02-6.90329E-06 7.82549E-02-1.68125E-04-4.71384E-05
 -1     22003 3.21587E-02 2.16937E-02-3.63511E-05 7.79868E-02 1.50377E-04 1.15880E-04
 -1     22004 8.65628E-02 5.20559E-02-4.53823E-05 2.02708E-01 1.16430E-04-1.82414E-05
 -1     22005 8.51249E-02 5.15688E-02 4.41692E-05 2.00062E-01 9.86129E-05-1.01500E-04
 -1     22006 8.96019E-02 5.32780E-02-6.17086E-05 2.09238E-01 1.71491E-04 1.52793E-04
 -1     22007 9.53607E-02 5.63162E-02 8.74256E-05 2.22249E-01-2.27911E-05-7.56040E-05
 -1     22008 9.48087E-02 5.57123E-02 3.74216E-05 2.19939E-01 3.73371E-05 1.77408E-05
 -1     22009 9.67834E-02 5.73609E-02 4.10569E-06 2.25954E-01-8.11101E-05-8.27562E-06
 -1     22010 7.47878E-02 4.32436E-02 2.00505E-04 1.73260E-01 1.57483E-04 5.97434E-05
 -1     22011 6.87589E-02 4.02471E-02 8.00030E-05 1.58984E-01-9.10185E-05 7.15552E-05
 -1     22012 9.05406E-02 5.41519E-02 2.93572E-05 2.11648E-01-1.14684E-04-1.17805E-04
 -1     22013 9.71280E-02 5.78135E-02 9.65723E-06 2.26968E-01-2.85075E-05-5.47439E-05
 -1     22014 6.73460E-02 3.87268E-02-1.41751E-04 1.54308E-01-2.29357E-04-6.42666E-04
 -1     22015 1.00985E-01 5.99277E-02 4.77859E-05 2.35697E-01-9.78019E-06 1.02045E-05
 -1     22016 1.00368E-01 5.94297E-02 2.23751E-05 2.33979E-01 5.92833E-05 1.46638E-05
 -1     22017 1.02983E-01 6.09719E-02 5.09344E-05 2.40203E-01-5.24455E-06-1.44551E-05
 -1     22018 1.02757E-01 6.08048E-02 3.18727E-05 2.39598E-01 3.05426E-05-3.87108E-06
 -1     22019 1.03120E-01 6.10932E-02 1.54221E-06 2.40550E-01 1.25108E-06 2.36341E-05
 -1     22020 1.03205E-01 6.11493E-02 1.24454E-05 2.40672E-01 1.86117E-05 1.83689E-05
 -1     22021 1.01721E-01 6.01687E-02 1.87353E-05 2.36986E-01 2.46310E-05 4.30213E-05
 -1     22022 1.02063E-01 6.05870E-02 1.47149E-05 2.38305E-01-1.05687E-05-1.83237E-05
 -1     22023 9.81202E-02 5.79965E-02 1.04692E-04 2.28780E-01-2.21315E-05 2.19967E-05
 -1     22024 9.93158E-02 5.87098E-02 4.43521E-05 2.31427E-01 8.99295E-05 1.17089E-05
 -1     22025 9.23603E-02 5.44191E-02 6.38581E-05 2.15048E-01-4.89390E-05 4.00408E-05
 -1     22026 9.41651E-02 5.55267E-02 1.04988E-05 2.19128E-01 8.71742E-05-2.33661E-05
 -1     22027 8.41172E-02 4.95425E-02 6.13074E-05 1.95853E-01-5.43140E-05 3.11720E-05
 -1     22028 8.65781E-02 5.08810E-02 1.71428E-05 2.01239E-01 7.85591E-05-2.92667E-05
 -1     22029 7.38902E-02 4.36895E-02 7.11168E-07 1.72348E-01-2.98313E-05 8.17155E-05
 -1     22030 7.67706E-02 4.51891E-02 2.25774E-06 1.78693E-01 2.13902E-05-3.73442E-05
 -1     22031 6.31210E-02 3.70249E-02-4.89804E-05 1.46629E-01-6.23669E-05-5.03090E-05
 -1     22032 6.58216E-02 3.85784E-02-5.88058E-06 1.52935E-01-9.84522E-05-9.09467E-05
 -1     22033 5.27768E-02 3.04646E-02-4.17804E-05 1.22011E-01-7.29033E-05-4.92770E-06
 -1     22034 5.51514E-02 3.19946E-02-6.42733E-05 1.27622E-01-9.13030E-05-1.17199E-04
 -1     22035 4.35454E-02 2.54791E-02 1.15592E-06 1.01333E-01-4.21914E-05 2.70669E-05
 -1     22036 4.53620E-02 2.66946E-02-2.55482E-05 1.05540E-01-1.37878E-05-2.56510E-05
 -1     22037 3.74803E-02 2.31605E-02 1.18073E-05 8.84186E-02-5.94174E-06 3.06287E-05
 -1     22038 3.80977E-02 2.29246E-02 8.68076E-06 8.95824E-02 4.57188E-06 6.41064E-05
 -1     22039 3.92296E-02 2.34704E-02 7.59948E-06 9.20381E-02 4.53054E-06 6.70809E-05
 -1     22040 3.83050E-02 2.27269E-02-2.83581E-06 8.94290E-02-9.56736E-06-7.89995E-06
 -1     22041 1.01575E-01 6.00160E-02 2.90442E-06 2.36413E-01 1.22743E-05 1.51279E-05
 -1     22042 3.41274E-02 2.01802E-02-7.68960E-06 7.95718E-02-6.72980E-05-2.02919E-04
 -1     22043 3.51841E-02 2.11650E-02 5.05270E-05 8.22803E-02-1.01401E-04 6.24900E-05
 -1     22044 3.29007E-02 2.06628E-02 2.25868E-05 7.90922E-02 2.22081E-04 1.27054E-04
 -1     22045 4.01247E-02 2.38919E-02-8.08138E-07 9.42031E-02-1.90975E-05-3.84757E-05
 -1     22046 3.93621E-02 2.33894E-02-1.28081E-05 9.22076E-02 1.50583E-05-4.39597E-05
 -1     22047 4.57778E-02 2.69319E-02-8.74751E-06 1.06545E-01-9.00420E-06 5.11510E-05
 -1     22048 4.39388E-02 2.57987E-02-3.13951E-06 1.02235E-01-1.21251E-05-5.33681E-07
 -1     22049 5.40751E-02 3.18937E-02 2.64849E-05 1.25998E-01-6.06113E-05 3.54920E-05
 -1     22050 5.16054E-02 3.04881E-02 1.22812E-05 1.20392E-01 7.45557E-06-1.75224E-05
 -1     22051 6.47609E-02 3.81953E-02-4.44265E-06 1.50755E-01-4.10343E-05 1.69407E-05
 -1     22052 6.18629E-02 3.67067E-02-1.43704E-06 1.44490E-01 4.68660E-05-4.13178E-05
 -1     22053 7.57726E-02 4.47214E-02-1.51344E-05 1.76419E-01-4.19617E-05 2.47435E-05
 -1     22054 7.32594E-02 4.29714E-02-7.65252E-06 1.70265E-01-2.04902E-05-8.86826E-05
 -1     22055 8.56887E-02 5.04739E-02 4.67261E-05 1.99426E-01-5.75184E-05-1.87969E-05
 -1     22056 8.32776E-02 4.92445E-02 3.29848E-05 1.94063E-01 7.36163E-05 2.06590E-05
 -1     22057 9.34998E-02 5.51699E-02 5.78283E-05 2.17720E-01-7.19547E-05-3.12073E-05
 -1     22058 9.15978E-02 5.43138E-02 6.09985E-05 2.13648E-01 7.21732E-05 3.22242E-05
 -1     22059 9.88643E-02 5.85697E-02 4.31698E-05 2.30514E-01 2.22835E-05 4.39464E-05
 -1     22060 9.77383E-02 5.78687E-02 4.51371E-05 2.27809E-01 7.52858E-05 6.90480E-05
 -1     22061 1.01997E-01 6.04585E-02 2.58741E-05 2.38034E-01-6.01129E-06 3.77972E-06
 -1     22062 1.01500E-01 6.00706E-02 3.71498E-05 2.36707E-01 1.06653E-05-3.52711E-05
 -1     22063 1.03213E-01 6.11612E-02 2.02971E-05 2.40824E-01-8.38649E-06 5.90080E-06
 -1     22064 1.03124E-01 6.10969E-02 9.04435E-06 2.40580E-01 1.58634E-05-1.91795E-05
 -1     22065 1.02745E-01 6.07725E-02-4.41703E-05 2.39361E-01-1.89519E-05 4.29049E-05
 -1     22066 1.03048E-01 6.08513E-02-2.13389E-06 2.39997E-01-2.09293E-05 9.11589E-06
 -1     22067 1.00376E-01 5.94379E-02-1.79549E-05 2.33999E-01-1.69227E-05 8.37141E-06
 -1     22068 1.01185E-01 5.97214E-02 2.79209E-05 2.35799E-01-7.76582E-06-6.52514E-05
 -1     22069 9.61421E-02 5.65531E-02 4.56494E-05 2.23058E-01-2.70219E-04-1.64716E-04
 -1     22070 9.71945E-02 5.75501E-02-9.02731E-05 2.26524E-01-1.08561E-04-1.40730E-04
 -1     22071 8.56999E-02 5.14221E-02-1.14096E-04 2.00493E-01 8.95647E-06 5.12807E-06
 -1     22072 8.82920E-02 5.33610E-02 3.38452E-06 2.06845E-01 5.92962E-05 1.86856E-04
 -1     22073 6.79881E-02 4.01538E-02-1.22766E-05 1.58432E-01-2.50099E-04 1.77233E-05
 -1     22074 7.40370E-02 4.38547E-02 1.02908E-05 1.72673E-01 1.67125E-05-2.58321E-04
 -1     22075 9.79438E-02 5.78307E-02-3.12538E-05 2.27639E-01-7.49137E-06 5.02092E-05
 -1     22076 9.98341E-02 5.90979E-02 5.21547E-05 2.32655E-01 1.81088E-05-2.49855E-05
 -1     22077 1.02536E-01 6.08140E-02 5.07882E-05 2.39237E-01 7.35997E-07-1.45489E-05
 -1     22078 1.03273E-01 6.11538E-02 1.42719E-05 2.40741E-01 1.20644E-05 9.55647E-06
 -1     22079 1.02384E-01 6.06905E-02 1.91772E-05 2.38865E-01 2.37585E-05 4.20305E-06
 -1     22080 9.99291E-02 5.91275E-02 6.90702E-05 2.32911E-01 9.60777E-05-2.16352E-05
 -1     22081 9.52630E-02 5.61903E-02 2.25966E-05 2.21609E-01 1.02277E-04 1.50245E-05
 -1     22082 8.81041E-02 5.17775E-02 1.53223E-05 2.04654E-01 1.01574E-04 2.07031E-05
 -1     22083 7.86761E-02 4.60794E-02 2.54348E-05 1.82695E-01 2.61217E-06 4.98937E-05
 -1     22084 6.74613E-02 3.97146E-02-3.94785E-05 1.57118E-01-1.35852E-04-3.08542E-05
 -1     22085 5.63744E-02 3.32841E-02 4.26054E-05 1.31473E-01 5.16647E-06-2.06614E-05
 -1     22086 4.60694E-02 2.74776E-02 7.83925E-06 1.07903E-01-2.16306E-07 3.24307E-06
 -1     22087 3.55219E-02 2.18557E-02-9.98058E-05 8.29397E-02-2.86832E-04 6.71883E-06
 -1     22088 4.33165E-02 2.55735E-02-1.01582E-05 1.00963E-01 6.12518E-06 1.94634E-05
 -1     22089 5.04583E-02 2.97075E-02 3.43588E-05 1.17638E-01-4.04667E-06 1.02845E-05
 -1     22090 6.00417E-02 3.55965E-02-3.69136E-05 1.40279E-01-4.93041E-06 6.72669E-06
 -1     22091 7.14878E-02 4.16172E-02-3.54469E-05 1.65737E-01-1.43012E-05-4.94964E-05
 -1     22092 8.15569E-02 4.84728E-02-5.63667E-06 1.90411E-01 2.94232E-05 8.12029E-05
 -1     22093 9.02546E-02 5.37420E-02 2.08046E-05 2.10888E-01 3.87744E-05 6.35134E-05
 -1     22094 9.67294E-02 5.76171E-02 1.97575E-05 2.26058E-01 3.31053E-05 5.18444E-05
 -1     22095 1.01250E-01 5.97332E-02-4.62577E-05 2.35555E-01-1.27303E-05-1.95127E-05
 -1     22096 1.03222E-01 6.08804E-02-1.11934E-05 2.40329E-01-5.24245E-05-1.32827E-05
 -1     22097 1.03337E-01 6.09132E-02-7.00341E-05 2.39998E-01 1.17538E-04-2.27483E-05
 -1     22098 1.01479E-01 5.98533E-02-5.87728E-05 2.36303E-01-1.53787E-05-6.99172E-06
 -1     22099 9.75094E-02 5.82327E-02 6.14909E-05 2.28213E-01-5.78723E-05 9.27069E-05
 -1     22100 8.94161E-02 5.43065E-02-2.29701E-05 2.10292E-01-5.53561E-05 7.01828E-06
 -1     22101 7.61296E-02 4.52408E-02-3.46343E-05 1.77211E-01-1.08669E-04 3.03435E-05
 -1     22102 9.20555E-02 5.41070E-02-5.50847E-05 2.13395E-01-1.99280E-06 1.02853E-04
 -1     22103 8.36970E-02 4.89190E-02-3.56541E-05 1.93853E-01 3.91784E-05 1.41616E-04
 -1     22104 7.29293E-02 4.31998E-02-1.46468E-05 1.70222E-01 6.64033E-07 2.18913E-05
 -1     22105 6.22638E-02 3.64046E-02 2.33843E-05 1.44560E-01 6.44599E-05 6.54647E-05
 -1     22106 5.14637E-02 3.00102E-02-2.69683E-05 1.19409E-01 2.94434E-05 5.48979E-05
 -1     22107 4.26829E-02 2.51210E-02-1.75363E-05 9.95352E-02-4.15316E-05 6.52734E-06
 -1     22108 9.41590E-02 5.53386E-02 3.22667E-05 2.19084E-01-2.10657E-05-4.91981E-05
 -1     22109 9.91370E-02 5.89567E-02-1.68069E-05 2.31094E-01-4.95831E-06 2.64765E-05
 -1     22110 1.02203E-01 6.07376E-02-3.25339E-05 2.38449E-01 9.11925E-06 7.53763E-05
 -1     22111 1.03330E-01 6.11973E-02-6.97162E-06 2.40834E-01 1.62641E-05 6.60292E-05
 -1     22112 1.02468E-01 6.07156E-02-5.46908E-06 2.38501E-01 9.51359E-06-6.36948E-05
 -1     22113 9.99540E-02 5.93666E-02-3.73659E-06 2.33257E-01 2.24792E-05 4.39260E-05
 -1     22114 9.56170E-02 5.59742E-02-1.95656E-04 2.21314E-01 2.78363E-05-2.34575E-05
 -1     22115 8.39767E-02 4.95851E-02-2.23471E-06 1.95601E-01-7.65845E-05 3.34713E-05
 -1     22116 6.55761E-02 3.99325E-02 5.18010E-04 1.54855E-01 4.84124E-06-2.57655E-04
 -1     22117 7.83233E-02 4.54146E-02 1.44020E-04 1.80642E-01-1.62871E-04-1.39949E-05
 -1     22118 1.02962E-01 6.10351E-02 1.34610E-05 2.40202E-01-3.60636E-06-2.75490E-05
 -1     22119 1.03014E-01 6.11762E-02 4.53751E-05 2.40528E-01-2.14457E-05-5.79891E-05
 -1     22120 1.01374E-01 6.02595E-02 2.68312E-05 2.36686E-01 1.42629E-05 9.43334E-06
 -1     22121 8.65021E-02 5.07868E-02 3.12875E-05 2.01220E-01-6.30474E-06-3.41047E-05
 -1     22122 7.66179E-02 4.51991E-02-9.36917E-06 1.78554E-01-2.72683E-05 1.62914E-05
 -1     22123 4.67251E-02 2.75570E-02 8.20167E-06 1.08966E-01 2.91919E-05 1.43166E-05
 -1     22124 6.57944E-02 3.87370E-02 7.10939E-05 1.53172E-01 4.32861E-05 9.70728E-05
 -1     22125 5.49249E-02 3.25250E-02 9.22700E-07 1.27990E-01 2.54217E-05-3.24899E-05
 -1     22126 6.57812E-02 4.05270E-02-3.32748E-05 1.55309E-01-5.21037E-05-4.14623E-05
 -1     22127 1.02784E-01 6.08599E-02 2.06190E-05 2.39714E-01 5.12295E-05 1.47823E-06
 -1     22128 1.03159E-01 6.08299E-02 1.31362E-05 2.40197E-01 3.77889E-05 1.16142E-05
 -1     22129 9.29256E-02 5.51153E-02-1.18641E-04 2.16574E-01 2.73787E-05 8.89064E-06
 -1     22130 9.02244E-02 5.44859E-02-4.63071E-06 2.11957E-01-6.06877E-05-2.51341E-06
 -1     22131 9.49128E-02 5.55553E-02-6.15642E-05 2.20137E-01 3.42841E-05 1.01660E-04
 -1     22132 8.72457E-02 5.13030E-02-1.72361E-06 2.03054E-01 1.86787E-05 5.01131E-05
 -1     22133 8.52880E-02 4.98083E-02-7.91951E-05 1.97636E-01 5.95481E-05-7.33662E-05
 -1     22134 1.03352E-01 6.09971E-02-1.86745E-05 2.40689E-01-2.47784E-05 2.99825E-05
 -1     22135 1.03277E-01 6.12074E-02-7.00602E-06 2.40845E-01-1.73942E-05-3.00101E-05
 -1     22136 1.02095E-01 6.04739E-02-7.30621E-05 2.37785E-01 4.54055E-05-1.60503E-05
 -1     22137 1.01354E-01 6.00849E-02-4.32897E-05 2.36128E-01 2.89597E-05 2.23710E-05
 -1     22138 1.02199E-01 6.08659E-02 2.36078E-06 2.38760E-01-1.75353E-05-3.06099E-05
 -1     22139 1.03141E-01 6.12659E-02-6.44350E-06 2.40733E-01-2.28700E-05-7.11115E-05
 -1     22140 1.03185E-01 6.10458E-02-2.77994E-05 2.40196E-01-2.56017E-05-3.15335E-05
 -1     22141 9.93939E-02 5.91519E-02-6.66873E-06 2.31891E-01 5.58613E-06-6.41047E-05
 -1     22142 9.85865E-02 5.84200E-02-1.13584E-04 2.29574E-01-7.31557E-05-5.73915E-05
 -1     22143 4.46602E-02 2.62041E-02 2.10139E-05 1.04139E-01-8.49874E-07 3.87333E-05
 -1     22144 4.29153E-02 2.52401E-02 1.03916E-05 1.00064E-01-3.03359E-05 1.89369E-05
 -1     22145 9.46784E-02 5.57872E-02-4.26518E-06 2.20479E-01-7.73088E-06 3.76557E-05
 -1     22146 9.61342E-02 5.68323E-02 5.71845E-06 2.24075E-01 1.13718E-05 2.82793E-05
 -1     22147 1.00083E-01 5.93098E-02-7.70029E-06 2.33236E-01-1.40048E-05 7.17487E-06
 -1     22148 9.88522E-02 5.87609E-02 5.24684E-05 2.30690E-01-7.08962E-06-1.87169E-05
 -1     22149 8.92989E-02 5.27372E-02 1.59950E-05 2.08051E-01 1.34283E-05 5.32012E-05
 -1     22150 8.28554E-02 4.83772E-02-2.38524E-06 1.92023E-01-5.37354E-05 4.21597E-05
 -1     22151 7.75481E-02 4.57371E-02-7.89594E-06 1.80660E-01-3.88259E-05 3.22980E-05
 -1     22152 8.01546E-02 4.73048E-02 3.55791E-05 1.86670E-01 7.86863E-05 8.26238E-05
 -1     22153 7.21058E-02 4.26832E-02-2.01316E-05 1.68122E-01-3.46226E-05 2.99170E-05
 -1     22154 6.95066E-02 4.06951E-02-5.25334E-05 1.61462E-01-7.32540E-05-9.44942E-05
 -1     22155 6.73399E-02 3.85689E-02-8.96923E-06 1.55097E-01-4.57067E-05 8.98001E-05
 -1     22156 6.08736E-02 3.61312E-02 5.20028E-05 1.42360E-01 2.82933E-05 4.89923E-05
 -1     22157 6.40703E-02 3.75458E-02 3.36033E-05 1.48801E-01 5.49988E-05 9.73320E-05
 -1     22158 5.55307E-02 3.28467E-02 5.04580E-06 1.29571E-01 6.29916E-05 6.27610E-05
 -1     22159 5.32271E-02 3.14242E-02 5.33114E-05 1.23918E-01 1.27300E-04 9.02149E-05
 -1     22160 5.04709E-02 2.97999E-02 2.89422E-05 1.17718E-01-1.01071E-05 3.68986E-05
 -1     22161 4.66409E-02 2.76364E-02 1.10910E-05 1.08950E-01 6.19405E-06 5.80008E-06
 -1     22162 4.14852E-02 2.45546E-02-8.91604E-06 9.67798E-02-1.48957E-05-3.05399E-05
 -1     22163 9.32022E-02 5.47064E-02-8.24462E-05 2.16286E-01 2.31866E-05-4.94486E-05
 -1     22164 3.99604E-02 2.38298E-02-2.82213E-05 9.36513E-02 2.63238E-06 6.12170E-05
 -1     22165 9.75281E-02 5.75025E-02-5.85902E-05 2.26718E-01-6.52595E-05-4.27334E-05
 -1     22166 3.31977E-02 2.09458E-02-1.00291E-04 7.91128E-02-2.31441E-04-8.47622E-05
 -1     22167 3.41788E-02 2.16376E-02-4.50430E-05 8.05713E-02 1.35861E-04 4.73859E-06
 -1     22168 8.68775E-02 5.30483E-02 2.03997E-04 2.05067E-01-6.47853E-05-9.33041E-05
 -1     22169 8.47537E-02 5.07261E-02 1.36482E-04 1.97667E-01 9.08069E-05 8.25043E-05
 -1     22170 9.73093E-02 5.78556E-02 9.84994E-05 2.27568E-01 1.10500E-04 8.45460E-05
 -1     22171 3.55733E-02 2.19199E-02-4.67176E-05 8.31180E-02 3.38052E-04-4.91539E-05
 -1     22172 1.02917E-01 6.09094E-02 1.09987E-06 2.39657E-01 1.53832E-05-6.42318E-05
 -1     22173 1.02524E-01 6.07073E-02 2.96249E-06 2.38810E-01 3.87375E-05-1.48916E-05
 -1     22174 7.23317E-02 4.26412E-02-7.30420E-05 1.67784E-01 1.86611E-05 1.82870E-05
 -1     22175 9.13493E-02 5.36571E-02-4.08348E-05 2.11979E-01-5.47681E-05-1.56554E-07
 -1     22176 1.00611E-01 5.93820E-02 2.31373E-05 2.34154E-01 1.61730E-04 7.15047E-06
 -1     22177 1.01463E-01 5.98173E-02-4.55515E-05 2.36030E-01-3.91054E-05 4.03544E-05
 -1     22178 1.01891E-01 6.03965E-02-5.17518E-05 2.37666E-01-2.77857E-05-1.88541E-05
 -1     22179 8.13830E-02 4.79859E-02 5.50837E-05 1.89364E-01-2.48436E-05 4.50189E-05
 -1     22180 7.62547E-02 4.55660E-02-3.31076E-05 1.78286E-01-1.04486E-04-1.00204E-04
 -1     22181 9.68622E-02 5.66124E-02 3.97201E-05 2.24431E-01 2.78399E-04 1.14207E-04
 -1     22182 4.85603E-02 2.86287E-02 1.31297E-05 1.13086E-01-1.65474E-05-3.16023E-05
 -1     22183 1.00905E-01 5.96153E-02-5.12571E-05 2.35016E-01-2.53637E-05 4.01440E-06
 -1     22184 7.48694E-02 4.41813E-02 2.05331E-05 1.74530E-01 4.05146E-05-6.62533E-05
 -1     22185 5.83479E-02 3.44142E-02-2.89236E-05 1.35883E-01 3.99375E-05-2.25884E-06
 -1     22186-7.42451E-02 1.53536E-01-5.57544E-04 1.16050E-01-5.50129E-03 2.96872E-03
 -1     22187-7.02725E-02 1.51044E-01-1.40847E-03 1.01367E-01 3.85046E-03 2.65072E-03
 -1     22188-7.37813E-02 1.36431E-01 1.70534E-03 8.73376E-02 1.72058E-03 8.94297E-04
 -1     22189-7.43905E-02 1.47128E-01 1.39131E-05 9.41399E-02-7.49063E-03-3.86679E-03
 -1     22190-7.05292E-02 1.46184E-01-1.27662E-03 9.01835E-02-1.06635E-03-2.25422E-04
 -1     22191-8.37712E-02 1.84831E-01 5.46051E-04 1.30825E-01 1.88500E-03-1.60172E-03
 -1     22192-8.40409E-02 1.82835E-01 2.67095E-05 1.32833E-01-1.16697E-03 3.87723E-03
 -1     22193-9.62787E-02 1.95348E-01-1.98127E-04 1.20322E-01 7.96753E-04 5.74217E-04
 -1     22194-9.50364E-02 1.95717E-01-1.98248E-04 1.22074E-01 1.50903E-03-3.02855E-04
 -1     22195-8.01780E-02 1.63423E-01 1.11144E-04 1.20624E-01 4.54284E-05 3.71581E-04
 -1     22196-8.54507E-02 1.74762E-01 2.69660E-05 1.20586E-01 1.40960E-04-3.40172E-04
 -1     22197-5.04937E-02 9.98018E-02-1.73946E-04 1.24658E-01 1.44456E-03 2.16695E-04
 -1     22198-5.95040E-02 1.21609E-01 1.17829E-04 1.24055E-01 8.98950E-04-6.50602E-04
 -1     22199-2.57660E-02 5.10693E-02 5.62291E-04 1.21072E-01-3.35673E-04 2.44711E-03
 -1     22200-4.32865E-02 8.14878E-02-3.12599E-04 1.29539E-01 5.55098E-04-1.11934E-03
 -1     22201-4.75023E-02 9.22606E-02 6.24640E-04 1.23719E-01-1.16211E-04 1.70426E-04
 -1     22202-2.34838E-02 4.80062E-02 3.34234E-04 1.19013E-01-2.37779E-04-5.25990E-04
 -1     22203-2.21659E-02 5.20203E-02-1.05039E-05 1.19628E-01-7.14713E-04-2.64138E-03
 -1     22204-2.78359E-02 5.68836E-02 3.92777E-04 1.18939E-01-8.64020E-04 8.54158E-04
 -1     22205-2.81198E-02 6.48474E-02-9.42478E-04 1.19109E-01-7.90505E-06 1.96236E-04
 -1     22206-4.45002E-02 8.33198E-02 7.16276E-04 1.27312E-01-5.21219E-04 1.42642E-03
 -1     22207-4.55959E-02 9.10623E-02-5.93418E-04 1.25392E-01-1.96788E-04-8.68807E-04
 -1     22208-5.57522E-02 1.14250E-01-5.00713E-04 1.20551E-01 3.15536E-04 2.48653E-04
 -1     22209-7.36771E-02 1.49929E-01 1.22628E-04 1.20695E-01-2.69186E-04 2.16117E-04
 -1     22210-6.59326E-02 1.33657E-01 2.79770E-04 1.20792E-01-1.04473E-04-5.71165E-04
 -1     22211-8.58321E-02 1.74448E-01 6.80539E-05 1.19274E-01 8.78652E-05 4.03372E-04
 -1     22212-8.09014E-02 1.64528E-01-5.42390E-05 1.20307E-01-2.53694E-04-1.70610E-04
 -1     22213-9.59217E-02 1.96460E-01-1.68549E-04 1.20859E-01-4.82874E-04 5.24526E-04
 -1     22214-9.55676E-02 1.92290E-01-5.56383E-05 1.20440E-01-2.79528E-04-8.43216E-04
 -1     22215-8.63992E-02 1.94979E-01-1.28178E-04 1.40457E-01-2.20859E-03-1.88309E-03
 -1     22216-9.37923E-02 1.90591E-01-2.19125E-05 1.19982E-01 9.83353E-05-3.98681E-04
 -1     22217-9.49780E-02 1.92297E-01-9.71753E-05 1.20123E-01 1.17857E-04-5.34156E-04
 -1     22218-8.99863E-02 1.83005E-01-3.40948E-05 1.20304E-01-1.40597E-04 1.93611E-04
 -1     22219-7.46003E-02 1.52489E-01-1.00253E-04 1.20457E-01 4.61338E-04-6.63737E-05
 -1     22220-7.67558E-02 1.57331E-01-1.38417E-05 1.19359E-01-3.87331E-04-4.92548E-05
 -1     22221-6.78090E-02 1.37004E-01 1.14951E-04 1.21745E-01 1.13999E-03 2.45869E-05
 -1     22222-9.94538E-02 2.00030E-01-4.29928E-04 1.25869E-01 2.33226E-03 4.99529E-04
 -1     22223-9.61227E-02 1.97061E-01 2.95658E-04 1.23693E-01 1.17258E-03-1.06938E-03
 -1     22224-8.73055E-02 1.78687E-01 9.55218E-05 1.19920E-01-5.70659E-05-9.66042E-05
 -1     22225-6.47589E-02 1.30288E-01-1.98746E-04 1.21469E-01-2.98395E-05 3.76393E-05
 -1     22226-9.35311E-02 1.96512E-01-9.61374E-04 1.20382E-01-9.14468E-04-5.81973E-04
 -1     22227-9.06759E-02 1.84514E-01 3.31402E-05 1.20018E-01-2.21284E-04-1.95932E-04
 -1     22228-5.78156E-02 1.19595E-01-2.31144E-04 1.22478E-01-2.20076E-04-4.36703E-04
 -1     22229-9.28780E-02 1.88136E-01 1.41057E-04 1.19109E-01-2.80932E-04-3.35022E-04
 -1     22230-9.84871E-02 2.00455E-01-5.87187E-04 1.22442E-01-6.26013E-04 1.30730E-03
 -1     22231-9.58638E-02 1.95854E-01 2.91251E-06 1.20651E-01-2.65087E-04-5.38735E-04
 -1     22232-9.52101E-02 1.96532E-01-4.44200E-05 1.22516E-01-1.47779E-03 1.32855E-03
 -1     22233-9.77088E-02 1.97378E-01 9.07963E-04 1.24759E-01-9.31734E-05-6.12210E-04
 -1     22234-9.50677E-02 1.96870E-01 3.60239E-04 1.22039E-01-6.72725E-04-6.83406E-04
 -1     22235-9.59313E-02 1.97242E-01 7.81888E-04 1.19498E-01 5.19420E-04-2.41704E-04
 -1     22236-9.83041E-02 2.00843E-01 8.58602E-05 1.27004E-01-2.71595E-04-8.35166E-04
 -1     22237-5.16245E-02 1.05673E-01 3.29075E-04 1.24213E-01-1.18637E-04-1.57971E-03
 -1     22238-9.55383E-02 1.96094E-01 3.97489E-05 1.23167E-01-6.34950E-04 6.65566E-04
 -1     22239-9.28764E-02 1.90531E-01 8.71764E-05 1.19077E-01-2.96814E-05 2.97843E-04
 -1     22240-7.59302E-02 1.54813E-01 4.61231E-05 1.20651E-01-3.58880E-06 4.91185E-05
 -1     22241-7.03688E-02 1.43119E-01-2.41660E-04 1.21218E-01-1.01150E-04-1.53009E-04
 -1     22242-9.73256E-02 1.96231E-01 5.27388E-04 1.21713E-01-3.22383E-04-4.83032E-04
 -1     22243-6.25710E-02 1.27273E-01-1.57687E-04 1.22883E-01-4.85942E-05 6.73597E-04
 -1     22244-4.64924E-01 1.93777E-01 5.47597E-04-1.93408E-01 3.09987E-03-1.02025E-03
 -1     22245-5.46282E-01 2.47734E-01-6.98056E-04-1.48487E-01-1.24421E-03-1.27552E-02
 -1     22246-5.32413E-01 2.31936E-01-1.86698E-03-1.34495E-01 5.16333E-03 3.14717E-03
 -1     22247-5.06146E-01 2.25838E-01-2.33809E-03-1.92832E-01-5.26951E-04 7.92652E-03
 -1     22248-5.56685E-01 2.32242E-01 9.33724E-03-1.52258E-01-2.66648E-03 3.53977E-03
 -1     22249-3.11060E-01 1.40520E-01-4.96144E-03-2.06143E-01-8.88166E-03-2.28104E-03
 -1     22250-3.24112E-01 1.29585E-01 4.69988E-03-2.09614E-01 3.35397E-03-6.98990E-03
 -1     22251-2.65680E-01 1.07607E-01-1.73666E-04-1.40570E-01-1.02146E-04-5.43244E-04
 -1     22252-2.74927E-01 1.11843E-01 3.77172E-05-1.46036E-01-2.80930E-04-4.79332E-04
 -1     22253-2.45109E-01 9.89813E-02-1.45054E-04-1.29201E-01-8.12489E-05 1.43881E-04
 -1     22254-2.49219E-01 1.00454E-01-7.86588E-05-1.31062E-01-4.95126E-05 3.00379E-04
 -1     22255-2.36169E-01 9.52907E-02 7.12162E-05-1.24378E-01-1.96558E-05 2.02685E-04
 -1     22256-2.37824E-01 9.59123E-02-1.86740E-05-1.25328E-01 2.89301E-06 1.72976E-04
 -1     22257-2.30869E-01 9.31262E-02-4.06056E-05-1.21710E-01 2.28047E-05-1.98808E-05
 -1     22258-2.31998E-01 9.35878E-02-1.93400E-05-1.22217E-01-8.79856E-06 3.59943E-05
 -1     22259-2.26759E-01 9.13476E-02 1.24779E-05-1.19605E-01-1.44838E-05-6.00129E-05
 -1     22260-2.28014E-01 9.19361E-02 1.01207E-05-1.20164E-01-3.46894E-05-4.18227E-05
 -1     22261-2.20826E-01 8.88937E-02-5.92459E-06-1.16444E-01-3.13883E-05-8.50831E-05
 -1     22262-2.22996E-01 8.97415E-02 2.11462E-05-1.17570E-01-4.99086E-06-6.06506E-05
 -1     22263-2.11987E-01 8.54646E-02 2.07201E-05-1.11719E-01-1.49822E-05-3.83087E-05
 -1     22264-2.14779E-01 8.65855E-02-2.75457E-05-1.13155E-01-1.45678E-06-4.73820E-06
 -1     22265-1.96773E-01 7.94095E-02-3.79854E-05-1.03441E-01-2.37995E-06 2.65853E-06
 -1     22266-2.01222E-01 8.12094E-02-3.88239E-05-1.05760E-01 2.49406E-07 4.13385E-05
 -1     22267-1.74766E-01 7.05196E-02-1.23902E-05-9.19468E-02 3.34293E-06-9.19047E-06
 -1     22268-1.80876E-01 7.29616E-02 1.68769E-05-9.52689E-02-1.93584E-05-1.04071E-05
 -1     22269-1.48481E-01 5.98796E-02-5.45176E-05-7.83252E-02 1.63465E-05 2.82746E-07
 -1     22270-1.55136E-01 6.25516E-02-5.78452E-05-8.18088E-02 4.26041E-05 7.36883E-05
 -1     22271-1.26367E-01 5.07655E-02 9.78444E-06-6.74348E-02 8.54959E-05-1.50842E-04
 -1     22272-1.30091E-01 5.25742E-02 1.24063E-05-6.86285E-02-8.55207E-05 1.70518E-05
 -1     22273-1.11271E-01 3.98928E-02-1.24713E-03-6.75773E-02-3.92298E-04-1.88914E-03
 -1     22274-1.18563E-01 4.56181E-02 4.22339E-05-6.77380E-02-5.51338E-04 2.16803E-04
 -1     22275-9.97379E-02 4.87056E-02 1.67274E-03-3.47721E-02 4.88275E-03 4.78848E-03
 -1     22276-1.14964E-01 3.58380E-02 1.34455E-04-7.79927E-02-3.97379E-03-1.51207E-03
 -1     22277-1.09356E-01 3.98958E-02 3.35995E-04-7.40314E-02 1.43266E-04-1.94510E-04
 -1     22278-9.02961E-02 4.83701E-02-5.48945E-04-2.51620E-02-1.36915E-03-7.77952E-04
 -1     22279-9.16370E-02 4.27361E-02 8.66980E-04-3.37435E-02-4.56957E-03-5.13637E-03
 -1     22280-9.07201E-02 4.11186E-02-2.22120E-03-3.47970E-02 6.36292E-04 2.12204E-03
 -1     22281-9.91279E-02 4.50401E-02-1.44983E-03-3.97582E-02-1.43537E-03 9.60022E-04
 -1     22282-1.19867E-01 3.90890E-02-2.79772E-04-8.12742E-02 5.29476E-03 1.91771E-03
 -1     22283-1.21200E-01 3.97867E-02 9.75368E-04-8.05717E-02-3.78089E-04 7.88609E-04
 -1     22284-1.18275E-01 4.61130E-02 3.92554E-04-6.88297E-02 2.54357E-03 8.42911E-04
 -1     22285-1.24325E-01 4.95159E-02 4.30984E-04-6.69348E-02 1.22802E-04-3.36464E-04
 -1     22286-1.17581E-01 4.38928E-02 1.79586E-04-6.84160E-02-7.46591E-04-4.84064E-04
 -1     22287-1.29900E-01 5.22442E-02-1.05030E-05-6.89866E-02 1.97097E-04 6.76189E-05
 -1     22288-1.25712E-01 5.05630E-02 3.48219E-05-6.61879E-02-7.52356E-05 3.13321E-04
 -1     22289-1.54163E-01 6.22111E-02 2.77704E-05-8.11726E-02 5.12726E-05 1.52789E-05
 -1     22290-1.47581E-01 5.95119E-02 3.47180E-06-7.77201E-02 9.63731E-07 6.01987E-05
 -1     22291-1.78918E-01 7.21793E-02-1.43961E-05-9.41870E-02 2.76826E-06-1.91231E-05
 -1     22292-1.72826E-01 6.97583E-02-2.17068E-05-9.09568E-02 5.14534E-06-3.55545E-05
 -1     22293-1.99704E-01 8.06043E-02-5.26156E-05-1.05034E-01-1.14412E-05 1.72635E-05
 -1     22294-1.95320E-01 7.88066E-02-1.09591E-05-1.02737E-01-1.86836E-05 8.34121E-06
 -1     22295-2.13995E-01 8.63281E-02-3.29310E-05-1.12682E-01-3.68153E-05 3.66362E-05
 -1     22296-2.10995E-01 8.50744E-02-7.46301E-06-1.11073E-01-9.63705E-05 2.24038E-05
 -1     22297-2.22943E-01 8.99096E-02-1.06992E-05-1.17413E-01-4.94960E-06 9.10124E-06
 -1     22298-2.21249E-01 8.92069E-02-3.23614E-06-1.16567E-01-7.42157E-05-1.52864E-05
 -1     22299-2.28233E-01 9.20603E-02-6.91154E-06-1.20293E-01 3.18793E-05-3.17314E-05
 -1     22300-2.27283E-01 9.16662E-02 4.15759E-06-1.19755E-01-2.42981E-05-5.84233E-06
 -1     22301-2.32254E-01 9.36945E-02 1.57814E-05-1.22641E-01 2.33931E-05 4.15377E-05
 -1     22302-2.31171E-01 9.31668E-02-3.60962E-06-1.21969E-01-1.16590E-06 3.38878E-05
 -1     22303-2.37823E-01 9.59838E-02-7.82810E-05-1.25291E-01 1.48539E-05 1.72909E-05
 -1     22304-2.36131E-01 9.52723E-02-7.54158E-06-1.24297E-01-5.82598E-06 3.78425E-05
 -1     22305-2.48835E-01 1.00420E-01 2.96756E-05-1.31555E-01-1.41674E-05-2.67103E-04
 -1     22306-2.45369E-01 9.90912E-02-3.02251E-05-1.29672E-01 3.43139E-05-1.71291E-04
 -1     22307-2.77170E-01 1.12037E-01-7.74665E-04-1.46025E-01 7.83287E-04-2.32295E-04
 -1     22308-2.67240E-01 1.08332E-01-5.03956E-04-1.41708E-01 3.11768E-04 2.22036E-04
 -1     22309-2.98857E-01 1.35576E-01 2.09805E-03-2.27907E-01 2.17597E-03 3.62319E-03
 -1     22310-2.58158E-01 1.04253E-01 2.41418E-04-1.36013E-01-5.20883E-05-1.94444E-04
 -1     22311-2.61834E-01 1.06196E-01 4.93307E-05-1.36984E-01 2.46583E-05-2.31847E-05
 -1     22312-2.53206E-01 1.02054E-01 2.25648E-04-1.33375E-01 9.85376E-05-1.40723E-04
 -1     22313-2.42582E-01 9.77461E-02-7.41485E-06-1.27718E-01-1.41504E-05 1.09141E-06
 -1     22314-2.43687E-01 9.85395E-02-9.24587E-05-1.28616E-01-7.93063E-05 6.18790E-05
 -1     22315-2.40182E-01 9.68786E-02-3.12268E-05-1.26634E-01 1.13698E-04 7.72184E-06
 -1     22316-2.83648E-01 1.14109E-01 8.62280E-04-1.58277E-01-9.84929E-04 1.22209E-03
 -1     22317-2.99776E-01 1.21223E-01 1.71974E-03-1.65035E-01-1.47050E-03 2.70740E-03
 -1     22318-2.51007E-01 1.01763E-01-4.67965E-05-1.32620E-01-6.04888E-05-6.17329E-05
 -1     22319-2.39247E-01 9.63098E-02 5.85921E-05-1.26403E-01-4.69807E-05 3.98149E-05
 -1     22320-3.16827E-01 1.31802E-01-2.66986E-04-1.77821E-01 6.85620E-04 6.78248E-04
 -1     22321-2.33086E-01 9.40192E-02 1.69975E-05-1.22842E-01 4.22820E-05 2.34175E-05
 -1     22322-2.34413E-01 9.45608E-02 4.23706E-05-1.23445E-01 1.03647E-05 3.48666E-05
 -1     22323-2.28937E-01 9.23287E-02-4.40282E-07-1.20661E-01 8.61111E-06 2.53497E-05
 -1     22324-2.30006E-01 9.27408E-02 4.73317E-06-1.21225E-01-2.35375E-06 3.78926E-06
 -1     22325-2.24308E-01 9.03944E-02 9.31793E-06-1.18308E-01-5.46231E-06-6.56304E-05
 -1     22326-2.25563E-01 9.09117E-02-3.92521E-07-1.19099E-01-5.24839E-05-6.79196E-05
 -1     22327-2.17216E-01 8.74477E-02 7.16157E-07-1.14497E-01-8.54513E-06 2.29515E-07
 -1     22328-2.19408E-01 8.83575E-02-4.42493E-06-1.15856E-01-9.88395E-05 2.20156E-05
 -1     22329-2.05285E-01 8.28678E-02-9.06346E-06-1.07956E-01 2.13177E-05 3.46502E-05
 -1     22330-2.08897E-01 8.42369E-02 3.18633E-05-1.10017E-01-1.72391E-05 1.06791E-05
 -1     22331-1.86719E-01 7.53357E-02 1.84828E-06-9.82221E-02 2.68278E-06-2.82985E-05
 -1     22332-1.91967E-01 7.74705E-02 5.50056E-06-1.00767E-01-1.57224E-05-6.71996E-05
 -1     22333-1.61943E-01 6.53437E-02 1.83767E-05-8.52741E-02 1.30752E-05 1.48535E-05
 -1     22334-1.68529E-01 6.79958E-02 1.08244E-05-8.87033E-02 1.82485E-05 1.10124E-05
 -1     22335-1.32954E-01 5.35788E-02-5.17195E-05-7.03275E-02-2.48003E-06-7.64351E-05
 -1     22336-1.36075E-01 5.48634E-02-1.38060E-05-7.18926E-02 4.41525E-05-8.85145E-05
 -1     22337-1.41611E-01 5.70912E-02-3.37045E-05-7.49300E-02-8.45509E-05 7.23487E-05
 -1     22338-1.36188E-01 5.48654E-02 4.16601E-05-7.19175E-02-6.02792E-05 2.55302E-05
 -1     22339-1.20843E-01 4.81318E-02-5.20111E-05-6.46657E-02 6.38143E-05-1.05423E-03
 -1     22340-1.23736E-01 5.02517E-02-3.02636E-05-6.55878E-02-3.67154E-04-3.01430E-04
 -1     22341-2.03965E-01 8.22798E-02-6.02911E-06-1.07387E-01 2.06646E-05-3.02807E-05
 -1     22342-2.01165E-01 8.10698E-02 3.49619E-05-1.05753E-01 4.92830E-05-1.15719E-05
 -1     22343-2.07585E-01 8.36869E-02 2.34777E-05-1.09348E-01 2.61822E-05-6.66127E-06
 -1     22344-1.24864E-01 5.09314E-02-2.61932E-04-6.55173E-02-1.13839E-04-1.65091E-04
 -1     22345-1.15965E-01 4.76125E-02 4.18560E-04-6.67214E-02 1.60191E-03-8.89405E-04
 -1     22346-1.59887E-01 6.45388E-02 4.72288E-06-8.41258E-02-1.03615E-05-1.00899E-04
 -1     22347-1.56415E-01 6.31155E-02 5.49845E-05-8.24106E-02-2.12508E-05-9.09513E-05
 -1     22348-1.66678E-01 6.72548E-02-2.13788E-05-8.77590E-02-6.58735E-05-6.53402E-05
 -1     22349-1.45073E-01 5.84484E-02 5.64952E-05-7.64061E-02 4.85769E-06-5.73712E-05
 -1     22350-1.41849E-01 5.71637E-02 4.17063E-05-7.48103E-02 4.90508E-05-9.71127E-06
 -1     22351-1.68954E-01 6.80183E-02 1.66148E-05-8.90606E-02-4.17593E-06-5.89533E-05
 -1     22352-1.90058E-01 7.66626E-02-1.20360E-05-1.00014E-01-2.61880E-05-1.58616E-05
 -1     22353-1.84759E-01 7.45276E-02-5.05024E-06-9.72215E-02-3.07511E-05-1.22118E-05
 -1     22354-2.08585E-01 8.39874E-02-7.69346E-06-1.10113E-01-1.16459E-05-2.68334E-05
 -1     22355-2.19000E-01 8.83529E-02-3.25360E-05-1.15338E-01 1.87388E-05-3.16694E-05
 -1     22356-2.16650E-01 8.73957E-02-5.32185E-05-1.14107E-01-7.41224E-06-1.59305E-05
 -1     22357-2.26021E-01 9.11634E-02 1.90897E-06-1.19013E-01 1.13600E-05-2.94382E-05
 -1     22358-2.24735E-01 9.06590E-02-1.71462E-05-1.18374E-01-1.15272E-05-1.32040E-05
 -1     22359-2.30073E-01 9.26729E-02 2.66151E-05-1.21462E-01 1.55210E-05-1.51420E-05
 -1     22360-2.29320E-01 9.24456E-02 2.54586E-05-1.20861E-01-5.08301E-05-8.10833E-06
 -1     22361-2.34780E-01 9.47007E-02 3.49637E-05-1.23670E-01 1.36661E-05-2.06512E-05
 -1     22362-2.33376E-01 9.40466E-02 1.83145E-05-1.23076E-01-1.09861E-05 4.76490E-05
 -1     22363-2.42247E-01 9.77856E-02 6.52552E-05-1.27630E-01 5.06533E-07 4.15362E-05
 -1     22364-2.39541E-01 9.66672E-02-1.06700E-05-1.26152E-01-3.78232E-05 2.68508E-05
 -1     22365-2.60360E-01 1.04838E-01 1.78750E-04-1.36873E-01-7.72600E-06 4.01543E-05
 -1     22366-2.54589E-01 1.02726E-01 2.95225E-04-1.33932E-01-4.25478E-05-1.73586E-04
 -1     22367-3.05038E-01 1.21180E-01-1.04421E-03-1.61515E-01 1.41674E-03-3.55643E-03
 -1     22368-2.84945E-01 1.15504E-01-7.84787E-04-1.52112E-01-2.29281E-04 1.03295E-03
 -1     22369-2.34885E-01 9.48645E-02-1.00669E-04-1.23739E-01 1.24460E-05 9.40530E-05
 -1     22370-2.30291E-01 9.28620E-02-2.64833E-05-1.21443E-01 1.88898E-05 1.50733E-05
 -1     22371-2.25971E-01 9.10780E-02-2.13284E-05-1.19268E-01-2.29978E-06-1.22004E-05
 -1     22372-2.20294E-01 8.87149E-02-4.48818E-06-1.16385E-01 1.09572E-05-1.86724E-05
 -1     22373-2.10951E-01 8.50419E-02-1.75861E-05-1.11164E-01 1.58141E-05-7.63341E-06
 -1     22374-1.95217E-01 7.88505E-02-7.68709E-06-1.02317E-01 2.59730E-05 2.44961E-05
 -1     22375-1.72741E-01 6.96575E-02-1.48983E-06-9.09881E-02 8.48244E-06-1.55602E-05
 -1     22376-1.80918E-01 7.29183E-02 1.90635E-05-9.52351E-02-4.02423E-06 4.28288E-06
 -1     22377-2.14916E-01 8.65011E-02-2.63103E-06-1.13186E-01-2.19653E-05-3.12295E-05
 -1     22378-2.23915E-01 9.01470E-02 2.30823E-05-1.18025E-01 4.51437E-05 4.54244E-05
 -1     22379-2.28856E-01 9.21491E-02 8.12225E-06-1.20790E-01 1.55839E-05 7.85435E-05
 -1     22380-2.32965E-01 9.39798E-02-3.12687E-05-1.22969E-01-9.90574E-06-4.04742E-05
 -1     22381-2.38710E-01 9.63938E-02-6.06066E-05-1.25708E-01-2.61648E-05-6.29404E-05
 -1     22382-2.51684E-01 1.01947E-01-1.45354E-04-1.33525E-01 4.83241E-05 3.06315E-04
 -1     22383-2.82202E-01 1.14168E-01-5.37433E-04-1.50853E-01-2.61153E-04 7.11844E-04
 -1     22384-2.16451E-01 8.71609E-02 1.23291E-05-1.13974E-01 9.42400E-06 3.52647E-05
 -1     22385-2.04009E-01 8.24125E-02-1.40969E-05-1.07160E-01 1.36416E-05 3.48991E-05
 -1     22386-1.84839E-01 7.46304E-02-4.31733E-06-9.72158E-02-1.71168E-06-1.35820E-05
 -1     22387-1.59820E-01 6.44655E-02-2.86748E-05-8.41050E-02 4.61492E-05 7.88301E-05
 -1     22388-3.29456E-01 1.33548E-01 1.50429E-03-1.65558E-01-4.57528E-04 5.27520E-03
 -1     22389-2.73393E-01 1.10623E-01-2.53966E-04-1.51465E-01 1.17274E-03 7.01466E-05
 -1     22390-2.23544E-01 8.99701E-02 1.12200E-05-1.17879E-01 3.24005E-05-4.41456E-05
 -1     22391-2.28203E-01 9.19996E-02-5.19984E-06-1.20317E-01-9.73144E-06 3.42656E-05
 -1     22392-2.32296E-01 9.36289E-02-1.35136E-06-1.22558E-01 7.10560E-06-2.68383E-05
 -1     22393-1.22485E-01 4.88469E-02-3.88852E-04-6.57629E-02 6.59595E-04 9.60904E-04
 -1     22394-2.65296E-01 1.07955E-01-2.02601E-04-1.39259E-01 3.05647E-04-4.53896E-04
 -1     22395-2.43341E-01 9.82639E-02 5.16272E-05-1.28325E-01-1.71187E-05 2.80130E-05
 -1     22396-2.35571E-01 9.50817E-02-1.79030E-05-1.24087E-01-1.58411E-05-1.68400E-05
 -1     22397-2.30906E-01 9.29955E-02 4.40613E-05-1.21809E-01 1.98916E-06-4.76350E-06
 -1     22398-1.91928E-01 7.74479E-02-8.06182E-06-1.00870E-01-2.29991E-05 5.31118E-05
 -1     22399-2.26695E-01 9.13595E-02-4.30813E-06-1.19644E-01-1.21330E-05 6.79616E-05
 -1     22400-2.19832E-01 8.84787E-02 1.32463E-05-1.16069E-01-2.50143E-06 3.73173E-05
 -1     22401-3.27372E-01 1.41009E-01-6.22110E-04-1.76283E-01-4.15322E-03-2.04245E-03
 -1     22402-2.21835E-01 8.92677E-02-3.47158E-05-1.17138E-01 1.44885E-05-9.78595E-06
 -1     22403-2.23535E-01 9.00246E-02-2.51172E-05-1.17842E-01-2.49920E-06 8.00308E-06
 -1     22404-2.47313E-01 9.98970E-02 2.09724E-04-1.31260E-01-6.18550E-06-8.62919E-06
 -1     22405-2.50247E-01 1.01272E-01-1.60340E-04-1.33161E-01-1.47669E-04 2.56120E-04
 -1     22406-2.43823E-01 9.84026E-02 1.26935E-05-1.28556E-01 8.05410E-05-8.62927E-05
 -1     22407-2.25124E-01 9.06996E-02 1.38733E-05-1.18838E-01 2.06351E-05 8.27574E-06
 -1     22408-2.26307E-01 9.11792E-02 4.13900E-06-1.19415E-01-2.71129E-08 4.58217E-05
 -1     22409-2.31555E-01 9.33843E-02 1.56540E-05-1.22197E-01 2.64349E-05 3.88883E-07
 -1     22410-2.32600E-01 9.38022E-02-3.28008E-05-1.22815E-01-4.50041E-05 2.29917E-06
 -1     22411-2.20357E-01 8.86880E-02 5.94734E-06-1.16431E-01 2.64445E-05 1.83633E-06
 -1     22412-2.27502E-01 9.17050E-02-8.79423E-06-1.20103E-01 1.14708E-05 1.90943E-05
 -1     22413-2.28487E-01 9.19875E-02 8.38482E-06-1.20659E-01-5.25115E-05 3.33147E-06
 -1     22414-2.10001E-01 8.47226E-02-1.93228E-05-1.10614E-01 5.54585E-05 4.43778E-05
 -1     22415-2.12954E-01 8.58037E-02-2.32859E-06-1.12033E-01 5.78824E-05 5.04349E-05
 -1     22416-2.02554E-01 8.16370E-02 5.31956E-05-1.06544E-01-2.69570E-05-4.67772E-05
 -1     22417-1.98433E-01 8.00076E-02 6.24571E-05-1.04115E-01 1.74428E-05-5.41995E-05
 -1     22418-1.93675E-01 7.82324E-02-4.69849E-06-1.01429E-01-2.95648E-05-7.98154E-06
 -1     22419-1.82834E-01 7.37298E-02-9.25469E-06-9.62690E-02 4.15020E-06-2.92622E-05
 -1     22420-1.76902E-01 7.13542E-02-8.72807E-08-9.31809E-02-8.56304E-06-6.36212E-06
 -1     22421-1.70803E-01 6.88777E-02 1.16078E-05-8.99072E-02 6.96031E-06-1.78920E-05
 -1     22422-1.57379E-01 6.32066E-02 1.26441E-05-8.31253E-02-3.68854E-05-4.53325E-05
 -1     22423-1.64579E-01 6.63249E-02-1.00475E-05-8.66834E-02 9.24000E-05 5.21810E-05
 -1     22424-2.89197E-01 1.17231E-01 9.69255E-05-1.56041E-01 8.43987E-04-1.43719E-03
 -1     22425-1.45951E-01 5.87970E-02 2.14012E-05-7.71069E-02-2.30222E-07-9.15319E-05
 -1     22426-2.73926E-01 1.10502E-01 8.78377E-04-1.43834E-01 2.48082E-04 1.06190E-03
 -1     22427-2.63406E-01 1.07161E-01-1.33871E-04-1.37858E-01 2.48575E-04 3.02163E-04
 -1     22428-1.13414E-01 4.48550E-02-4.94936E-04-7.27240E-02-1.90530E-03-4.21275E-04
 -1     22429-2.15827E-01 8.69376E-02 4.74163E-05-1.13600E-01-2.68089E-06 7.22534E-05
 -1     22430-1.51720E-01 6.11461E-02 5.23569E-05-8.00277E-02-5.82883E-05-9.86908E-05
 -1     22431-1.24902E-01 4.99868E-02-1.72159E-04-6.78745E-02 3.25575E-04 3.13171E-04
 -1     22432-2.29412E-01 9.24502E-02-2.88110E-05-1.21210E-01 5.98585E-05-6.51174E-05
 -1     22433-2.30499E-01 9.28419E-02 6.34512E-06-1.21631E-01 7.80619E-06 1.72954E-05
 -1     22434-1.22826E-01 4.86203E-02-3.50739E-04-6.67804E-02 5.71412E-04 1.04628E-03
 -1     22435-2.18123E-01 8.78593E-02 4.40064E-05-1.15117E-01-2.24022E-05 2.87922E-05
 -1     22436-2.33742E-01 9.42584E-02-5.64484E-05-1.23283E-01-7.57499E-06-5.63257E-05
 -1     22437-2.38768E-01 9.60801E-02 1.08208E-04-1.26080E-01-4.54618E-05-1.53904E-04
 -1     22438-2.37046E-01 9.56557E-02 1.78016E-05-1.24796E-01 2.93478E-05-1.79922E-04
 -1     22439-2.55326E-01 1.03408E-01-5.41283E-04-1.35122E-01 1.64696E-04 1.07223E-04
 -1     22440-2.35468E-01 9.50856E-02-2.53128E-05-1.23962E-01-1.84662E-05-1.72436E-04
 -1     22441-2.78369E-01 1.12026E-01 5.30973E-04-1.52501E-01 1.10276E-03-1.07450E-03
 -1     22442-2.40842E-01 9.71485E-02-6.99987E-05-1.27159E-01-5.20612E-05-6.21744E-06
 -1     22443-1.14267E-01 4.14145E-02-5.64685E-04-7.13004E-02 1.19587E-03-6.96658E-04
 -1     22444-2.06509E-01 8.33082E-02 7.63592E-06-1.08718E-01-4.86387E-05 2.25053E-05
 -1     22445-1.88711E-01 7.61476E-02-1.45255E-05-9.88525E-02 2.16005E-06 3.01944E-05
 -1     22446 4.38657E-02-2.93721E-08-5.47434E-11 6.99072E-02-1.30494E-10 8.31238E-05
 -1     22447 4.21778E-02-3.13501E-08 2.47472E-11 6.74145E-02-7.26138E-10-7.45857E-05
 -1     22448 4.22880E-02 8.80752E-05-6.22935E-05 6.76423E-02-1.09916E-04 3.04862E-05
 -1     22449 4.13347E-02-3.47318E-08 6.81573E-11 6.67668E-02 1.15346E-09-1.85516E-04
 -1     22450 4.15463E-02-9.54633E-05-3.27028E-05 6.69864E-02 1.36408E-04-8.05722E-05
 -1     22451 4.70941E-02-2.71407E-08-1.28984E-10 7.31220E-02-6.80215E-10-2.06918E-05
 -1     22452 4.80516E-02-2.92111E-08-9.17246E-11 7.47789E-02 4.63187E-10 1.55277E-04
 -1     22453 5.83339E-02-1.18531E-08-1.92097E-10 8.98337E-02-2.05921E-10-5.36792E-05
 -1     22454 5.56038E-02 6.51382E-05-1.43580E-05 8.71586E-02-2.84606E-07-9.20350E-05
 -1     22455 6.92326E-02 2.88005E-09 1.48127E-10 9.38128E-02 4.37283E-10 2.72875E-05
 -1     22456 6.66986E-02-4.45851E-05-2.81571E-06 9.40600E-02-1.29775E-05 1.15070E-05
 -1     22457 7.66907E-02 1.00030E-05 4.05520E-06 8.62375E-02-6.84606E-06 5.39455E-05
 -1     22458 7.56809E-02-2.56578E-04 1.37221E-05 8.88758E-02-8.62505E-05-3.58679E-05
 -1     22459 7.54171E-02-1.86502E-04 1.36183E-05 7.05956E-02 2.07548E-05 6.05341E-05
 -1     22460 7.63799E-02 1.96049E-08-1.55340E-11 7.49487E-02-7.81528E-11 2.88503E-05
 -1     22461 6.43360E-02 4.18301E-08 5.49771E-10 4.98535E-02-2.37293E-10 5.04254E-05
 -1     22462 6.82665E-02-3.93633E-04 3.70023E-05 5.54168E-02-1.34147E-04 7.65337E-06
 -1     22463 4.21718E-02 3.16383E-08 2.26294E-11 2.76515E-02 4.51302E-10 9.82701E-05
 -1     22464 4.89147E-02-3.20644E-04 4.35482E-05 3.33897E-02-1.01064E-04 2.79441E-05
 -1     22465 8.90050E-03-1.56245E-04 3.97185E-05 5.75955E-03-8.93148E-06 2.85865E-06
 -1     22466 1.85345E-02-1.88929E-04 6.94544E-06 1.09546E-02-7.05737E-05 1.34641E-06
 -1     22467-3.32899E-02-7.16872E-04 3.58266E-05-1.17162E-02 2.44749E-04-9.69924E-05
 -1     22468-2.09052E-02-1.37202E-04 9.09942E-06-7.53733E-03-1.66094E-05 4.63098E-05
 -1     22469-1.01046E-01-6.40500E-04-3.01431E-05-2.32159E-02 1.50983E-04 8.30601E-05
 -1     22470-8.26756E-02-4.95791E-04 2.67742E-05-2.14442E-02-9.25225E-05 1.02494E-04
 -1     22471-1.99532E-01-1.60043E-03-2.69464E-05-1.04274E-02 6.34946E-04-6.46419E-05
 -1     22472-1.66704E-01-1.89526E-04 1.02031E-04-1.82624E-02 7.05097E-05 2.47389E-05
 -1     22473-3.53990E-01 1.26417E-02-1.36047E-03 4.82793E-02-4.65270E-03 2.32045E-04
 -1     22474-2.43237E-01-1.02395E-07-5.07062E-09 1.45814E-03 6.06479E-09-4.30992E-04
 -1     22475-2.15538E-01-6.70273E-08-3.37392E-09-6.80957E-03 3.30888E-09-1.65944E-03
 -1     22476-3.72009E-01-8.74344E-05 4.89876E-04 6.70870E-02 1.43050E-03-1.04300E-03
 -1     22477-3.64189E-01-5.17376E-07-8.00339E-09 6.11743E-02 1.88010E-09 2.28052E-03
 -1     22478-3.16291E-01-2.28198E-07-5.26117E-09 2.56289E-02 4.58725E-09-6.71577E-04
 -1     22479-3.02769E-01 1.02774E-05-1.32381E-03 2.91101E-02 4.58477E-03 1.75698E-04
 -1     22480-2.15472E-01-3.38679E-04-2.31964E-04 5.42404E-04 2.85758E-04-2.95988E-03
 -1     22481-1.93746E-01-1.42218E-02 4.95692E-04-1.09802E-02-1.71051E-03 2.73238E-03
 -1     22482-1.77745E-01-2.96535E-04 7.88408E-05-1.59414E-02 8.07342E-05-6.03545E-04
 -1     22483-1.24186E-01-6.88602E-04 3.26923E-05-2.23032E-02 2.38981E-04 8.30928E-05
 -1     22484-1.48230E-01-1.25370E-08-2.44054E-10-2.18366E-02-2.05467E-10 5.33013E-04
 -1     22485-8.34993E-02 8.68927E-09 4.51822E-11-2.13460E-02-2.95069E-10 3.88116E-05
 -1     22486-1.01263E-01-4.88774E-04 3.65671E-06-2.30954E-02-7.19498E-05 1.11404E-04
 -1     22487-2.25660E-02 9.17439E-09-1.56414E-10-7.87271E-03 1.94146E-10-2.84704E-05
 -1     22488-3.52033E-02-1.18920E-04-3.72085E-07-1.20519E-02-4.26964E-05 1.11947E-05
 -1     22489 2.10031E-02-8.37044E-05 4.96544E-06 1.24267E-02 1.17257E-05 1.53043E-05
 -1     22490 1.17852E-02-1.24066E-04-1.09583E-07 7.10136E-03-4.70428E-05 2.42006E-05
 -1     22491 5.06789E-02 3.78938E-08-3.14489E-11 3.49795E-02-1.16443E-11 4.02766E-05
 -1     22492 4.43251E-02 3.82684E-08-6.80680E-11 2.96375E-02 2.31842E-11 1.70085E-05
 -1     22493 6.93355E-02-3.09999E-04 2.72544E-05 5.70583E-02 2.76821E-05 1.85978E-05
 -1     22494 6.53934E-02 3.88428E-08 3.02183E-10 5.15805E-02 1.80431E-10-8.48469E-05
 -1     22495 7.67977E-02-1.32706E-04 8.67436E-06 7.64038E-02 1.55217E-05 2.58340E-05
 -1     22496 7.57156E-02 2.10396E-08 5.76299E-12 7.20801E-02-7.51032E-12-4.27068E-05
 -1     22497 7.51425E-02 1.95451E-05-1.05788E-06 8.98024E-02-3.10542E-06 3.84152E-05
 -1     22498 7.62799E-02 9.30372E-09-5.31429E-11 8.70919E-02-1.31890E-10-1.39833E-05
 -1     22499 6.74855E-02-1.10479E-04 6.15688E-06 9.40194E-02 4.07575E-05 1.47158E-05
 -1     22500 7.00383E-02 4.45954E-05 1.42920E-05 9.37734E-02 2.60861E-05-6.20651E-05
 -1     22501 5.63636E-02-1.48081E-08-8.48036E-11 8.80531E-02-3.06193E-11 8.74138E-05
 -1     22502 5.90170E-02 2.40661E-06 6.89339E-06 9.06217E-02 9.74589E-06 2.99564E-05
 -1     22503 4.84664E-02 3.12557E-05-8.73502E-06 7.58698E-02-2.11766E-05-1.86521E-04
 -1     22504 6.09246E-02-1.12083E-04-9.57480E-06 9.18875E-02-3.51666E-05-7.19547E-05
 -1     22505 5.92794E-02-1.13445E-08-4.14049E-11 9.05521E-02-4.05026E-10-7.62012E-05
 -1     22506 6.40476E-02-1.19962E-08-1.56804E-10 9.31630E-02-1.19715E-10-3.72661E-06
 -1     22507 7.19415E-02-2.29309E-04 3.84987E-06 9.28437E-02-5.70188E-05-5.10060E-05
 -1     22508 7.05491E-02 3.88839E-09-1.37722E-11 9.35328E-02 2.63744E-10 1.05159E-05
 -1     22509 7.38753E-02 1.66335E-08 5.05513E-11 9.12612E-02 5.08776E-11 1.87638E-05
 -1     22510 5.29953E-02-2.85485E-08 1.47913E-10 8.35615E-02-3.94246E-10 3.69468E-05
 -1     22511 5.04318E-02-7.37224E-05-6.06296E-05 7.92711E-02-7.19435E-05 1.48704E-04
 -1     22512 6.50714E-02-1.05721E-08-9.81467E-11 9.34780E-02-3.19429E-10 2.93389E-06
 -1     22513 7.49715E-02 8.60280E-07-1.98645E-05 9.00891E-02-4.08423E-06 5.98272E-05
 -1     22514 4.94405E-02 1.40598E-05 3.97154E-05 7.73090E-02 4.19130E-05 1.89059E-04
 -1     22515 7.72571E-02-1.64771E-04 1.23839E-05 7.92954E-02 1.86023E-05 3.78025E-05
 -1     22516 7.70075E-02 1.42684E-08-6.21089E-11 8.28914E-02-1.20891E-10 3.98829E-05
 -1     22517 7.11054E-02 4.00456E-08-1.75171E-10 6.08017E-02 5.54610E-10-4.13193E-05
 -1     22518 7.36171E-02-2.01846E-04-1.01209E-05 6.56381E-02-8.69144E-05-5.56240E-05
 -1     22519 5.45357E-02 3.94404E-08 1.76192E-10 3.88532E-02 2.94876E-10 9.92548E-06
 -1     22520 5.98668E-02-2.95079E-04 1.68827E-05 4.44447E-02-1.07458E-04 2.50229E-05
 -1     22521 2.70625E-02-1.00947E-04-3.32904E-07 1.64871E-02 2.09518E-05 6.91818E-07
 -1     22522 3.48979E-02 3.13758E-08-1.12544E-10 2.20806E-02 1.98269E-10 3.16326E-05
 -1     22523-1.10721E-02 1.37026E-08-1.09865E-10-3.45346E-03 2.63326E-11 1.36275E-05
 -1     22524 1.52960E-04-1.34353E-04 1.51686E-05 1.30742E-03-3.92661E-05 2.10447E-05
 -1     22525-7.35019E-02-7.02019E-06 2.83932E-06-1.96676E-02 1.37492E-04-8.88803E-05
 -1     22526-6.38247E-02 1.87201E-08-3.85353E-10-1.82097E-02-1.54976E-10-1.20848E-05
 -1     22527-4.83756E-02 2.10286E-08-2.34436E-10-1.58292E-02-1.04396E-10-6.58487E-05
 -1     22528-6.32288E-02-3.77482E-04-9.13419E-06-1.86769E-02-1.01233E-04-3.70398E-05
 -1     22529-1.44963E-01-1.16339E-08-3.92399E-10-2.12120E-02 1.60494E-10-4.17286E-04
 -1     22530-1.20566E-01-7.07827E-09-1.14129E-09-2.36282E-02 3.68784E-10 1.10520E-04
 -1     22531-1.11685E-01-6.47109E-09-6.91558E-10-2.40667E-02 2.11780E-09-1.29757E-04
 -1     22532-1.69262E-01-1.76654E-08 5.71286E-10-1.67101E-02-5.32594E-10-2.14895E-04
 -1     22533-4.10284E-02 2.00083E-08 1.93626E-11-1.34998E-02 3.64628E-10 1.54569E-06
 -1     22534-4.86100E-02 1.89131E-08-9.79943E-11-1.54074E-02-3.80429E-11-1.23097E-04
 -1     22535 4.70902E-04 2.43451E-08 6.26026E-11 1.46254E-03 1.25610E-10-4.55376E-05
 -1     22536-1.02807E-02-1.92601E-04 1.28019E-05-3.46213E-03-4.46862E-05 5.96104E-05
 -1     22537 3.76301E-02-2.29629E-04 6.88311E-07 2.39127E-02 4.55814E-05 8.22322E-06
 -1     22538 2.97090E-02-1.38658E-04 1.77278E-05 1.83309E-02-4.37567E-05-2.19299E-05
 -1     22539 6.12306E-02 3.93862E-08 2.27003E-10 4.63986E-02 2.45313E-10-7.63185E-05
 -1     22540 5.66054E-02-2.78397E-04 2.37863E-05 4.07590E-02-9.65741E-05-1.62954E-05
 -1     22541 7.43812E-02-2.55324E-04 1.69075E-05 6.73539E-02 2.96486E-05-6.69006E-05
 -1     22542 7.22212E-02-4.00839E-04 1.01739E-04 6.22214E-02-9.72463E-05-1.93037E-05
 -1     22543 7.70284E-02-9.09673E-05-9.88649E-07 8.40976E-02 1.95010E-05-1.07625E-05
 -1     22544 7.72002E-02-1.07521E-04 7.69805E-06 8.04854E-02-3.85257E-05-5.82517E-05
 -1     22545 7.17594E-02 3.50688E-09 6.93129E-12 9.29720E-02-1.00857E-10 4.47669E-05
 -1     22546 7.38267E-02-6.49067E-05 6.63866E-06 9.15957E-02-2.02557E-05-2.86359E-05
 -1     22547 6.16609E-02-1.46698E-08 2.50632E-10 9.22580E-02 4.28698E-10 4.21509E-05
 -1     22548 6.49149E-02-1.06788E-08-7.16184E-11 9.35026E-02 7.31054E-11-4.08191E-05
 -1     22549 5.09150E-02-2.94539E-08 6.98280E-11 8.04900E-02-7.74754E-11-6.24830E-05
 -1     22550 5.36254E-02 1.20294E-04-4.07028E-06 8.49514E-02 1.29352E-05-5.92986E-05
 -1     22551 7.68266E-02 1.41725E-08-2.73613E-11 8.40592E-02-4.11935E-11 4.27986E-05
 -1     22552 7.41669E-02 3.96850E-08 2.39960E-10 6.74107E-02-6.02786E-11 1.51080E-05
 -1     22553 6.14673E-02-9.59888E-09 2.13352E-05 4.59279E-02 3.84613E-04-1.57898E-05
 -1     22554 3.72805E-02 3.20829E-08-6.44952E-11 2.40338E-02 4.36143E-10 4.25481E-05
 -1     22555 3.74547E-03 2.16705E-08 1.04858E-10 3.26840E-03 6.04796E-11-3.34362E-06
 -1     22556 2.65364E-02-1.46035E-07-2.03081E-05 1.62353E-02 6.80181E-06 2.38345E-05
 -1     22557 7.13557E-02 7.96613E-08-1.29736E-04 6.01586E-02 1.66660E-05-2.66248E-05
 -1     22558 7.71025E-02-3.23838E-08-2.69579E-05 7.90942E-02 7.60139E-06 1.32924E-05
 -1     22559 7.42840E-02 7.78632E-09-2.31276E-11 9.07638E-02-5.51713E-11 1.31983E-05
 -1     22560 6.69014E-02-8.37010E-09-3.56323E-10 9.39701E-02-1.73241E-10-1.84828E-05
 -1     22561 5.53588E-02-1.42166E-05 2.97304E-05 8.68111E-02-1.46057E-04-7.73446E-06
 -1     22562 2.13111E-02 2.73542E-08 7.32688E-11 1.30354E-02-2.80766E-11 2.21861E-06
 -1     22563-1.51964E-02 1.38151E-08-8.32611E-11-5.08085E-03-1.82876E-12-1.07985E-05
 -1     22564-1.54920E-02-4.34967E-06-3.85989E-05-5.91902E-03-1.60693E-05 6.80174E-05
 -1     22565 7.10708E-02 3.24832E-09 5.82768E-11 9.33492E-02-4.91930E-11-1.51818E-05
 -1     22566 6.06356E-02-1.63457E-08 3.85363E-10 9.16472E-02 2.35009E-10 2.58239E-05
 -1     22567 4.98064E-02-1.68429E-04 9.13899E-05 7.87395E-02-3.22929E-04-1.25989E-04
 -1     22568 5.46662E-02 1.86622E-05 4.27357E-05 8.44194E-02 1.27563E-04-3.45146E-05
 -1     22569 5.08276E-02 4.01844E-08-4.14882E-05 3.55261E-02 3.02142E-05 4.17633E-05
 -1     22570 6.91548E-02 4.06260E-08-3.71458E-10 5.76780E-02 1.45187E-11-6.86401E-05
 -1     22571 7.66069E-02 1.95752E-08 5.91085E-11 7.63576E-02-7.18995E-11 3.33173E-05
 -1     22572 7.65055E-02 9.57225E-09 1.53681E-11 8.61525E-02 3.22004E-11 1.35919E-05
 -1     22573-1.54504E-01-1.40041E-08-3.36314E-11-1.96187E-02 1.38268E-09-3.80858E-04
 -1     22574 7.52659E-02 1.50040E-07 2.24451E-05 7.04013E-02-9.16153E-05 1.40728E-05
 -1     22575 7.03896E-03 2.50861E-08 5.20901E-11 4.61788E-03 1.05318E-10-2.83323E-07
 -1     22576 6.39443E-02 3.92424E-08 1.68806E-10 4.97818E-02 1.54997E-10-1.04982E-04
 -1     22577 4.20634E-02 3.82027E-08-7.22672E-11 2.78296E-02-2.44110E-10 1.85538E-05
 -1     22578 5.44593E-02 3.76187E-08-1.27698E-10 3.84978E-02-2.67234E-10 4.15988E-05
 -1     22579 4.95381E-02-3.43959E-04 7.99309E-05 7.74312E-02 1.40490E-04 2.31269E-04
 -1     22580 4.65739E-02 3.80156E-08-8.24090E-11 3.15727E-02-4.27352E-10 4.09153E-05
 -1     22581 5.25572E-02 3.78029E-08-1.74837E-10 3.68495E-02-4.15957E-10 7.07015E-05
 -1     22582 6.59527E-02-9.47835E-09-2.46586E-10 9.38482E-02-3.11217E-10 1.74668E-05
 -1     22583 6.86211E-02-2.41330E-04 2.63457E-06 9.42293E-02-3.53309E-05 5.29687E-06
 -1     22584 7.13196E-02-2.90881E-05 5.00292E-06 9.33678E-02 1.43372E-05-2.31683E-05
 -1     22585 7.60453E-02-7.32769E-05 9.49585E-06 8.83128E-02-2.39353E-06 5.65758E-05
 -1     22586 7.68909E-02-3.48013E-05 9.99487E-06 8.52418E-02-8.98027E-06 6.35335E-06
 -1     22587 5.83267E-02-7.67636E-05-8.63320E-06 4.22673E-02 2.61589E-05 3.07595E-05
 -1     22588 6.30648E-02-4.07811E-04 4.40773E-05 4.77050E-02-1.35727E-04 1.56504E-05
 -1     22589 7.61986E-02-1.61165E-04 3.67568E-06 7.34072E-02 2.75045E-05 4.51273E-05
 -1     22590 7.70768E-02-7.96374E-05 8.08706E-06 7.78838E-02-2.73045E-05 2.26003E-06
 -1     22591 3.24750E-02-1.49927E-04 2.12463E-06 2.00458E-02 2.64271E-05-1.39423E-05
 -1     22592 3.99518E-02-7.84711E-05 9.07245E-06 2.60157E-02-2.60918E-05 2.92549E-05
 -1     22593 6.73589E-02-4.93100E-04-3.16560E-06 5.37624E-02 1.02654E-04-5.53771E-05
 -1     22594 7.01237E-02 4.00809E-08-4.84189E-10 5.91718E-02-6.36646E-10-1.18630E-04
 -1     22595-4.79344E-03-1.17447E-04 7.86922E-07-8.35231E-04-7.85820E-06 1.93149E-06
 -1     22596 4.15176E-03 5.63636E-05 8.68074E-06 3.36721E-03 3.43999E-05-2.95060E-05
 -1     22597-1.42625E-02-7.23425E-05-1.23984E-05-5.31814E-03 5.09747E-05-2.43428E-05
 -1     22598-2.64064E-02-4.75552E-04 2.49597E-06-9.44166E-03-1.80183E-05 6.55338E-05
 -1     22599-3.88574E-02-1.16480E-04-9.22141E-06-1.36915E-02-1.55816E-04 3.25692E-05
 -1     22600 7.47769E-02 3.93124E-08 1.06897E-10 6.88481E-02-4.50242E-10 5.56300E-05
 -1     22601-1.36272E-01-1.08706E-08-2.06904E-10-2.12525E-02 2.74237E-09-4.26349E-04
 -1     22602-1.15905E-01-5.53908E-05-5.87082E-05-2.18650E-02-9.01084E-05 2.36666E-05
 -1     22603-1.88589E-01-1.08815E-03 1.60439E-04-1.17657E-02-2.52424E-05-5.43812E-04
 -1     22604 5.21756E-02-5.83403E-08-3.29421E-10 8.18639E-02 9.21026E-10-7.01835E-05
 -1     22605 7.28744E-02 3.11271E-06 2.30974E-09 9.24133E-02-7.89921E-06 2.34805E-05
 -1     22606 7.29983E-02-4.39084E-04 3.81210E-05 6.39886E-02 4.01432E-05-2.23212E-05
 -1     22607 7.71358E-02-1.03178E-04 7.76056E-06 8.16514E-02 1.01026E-05 5.07644E-06
 -1     22608 1.53353E-02-2.01783E-04 2.92672E-07 9.11164E-03 3.29899E-05 1.50347E-05
 -1     22609 7.42332E-02 7.81995E-09-1.19809E-10 9.07233E-02 1.59305E-11 2.80377E-05
 -1     22610-1.59390E-01 4.86227E-04-1.83578E-04-1.54438E-02-1.09127E-04-2.56273E-04
 -1     22611 6.29237E-02-1.34659E-08 1.72767E-10 9.28211E-02-2.60388E-10-3.69272E-05
 -1     22612 5.99931E-02 3.48278E-05-1.22397E-05 9.11852E-02-6.57980E-06 2.20855E-05
 -1     22613 5.49865E-02-2.29663E-05-4.76148E-05 8.55574E-02 3.81726E-05 1.87797E-04
 -1     22614 2.37873E-02 2.72475E-08-3.85543E-11 1.45189E-02 2.39513E-11 5.99636E-06
 -1     22615 5.74134E-02 6.84571E-05-2.63660E-05 8.86448E-02-2.33844E-05-4.06870E-05
 -1     22616 1.65176E-02 6.76749E-02-2.93460E-04 1.33538E-01-3.42373E-04 5.87528E-04
 -1     22617-2.23955E-02 7.70487E-02-4.22431E-05 1.17767E-01-1.05916E-03 7.21458E-04
 -1     22618 5.83172E-02 6.01288E-02 9.18945E-05 1.77369E-01-2.92985E-07-4.84180E-05
 -1     22619 5.26314E-02 5.89282E-02 9.24284E-05 1.67852E-01 3.90548E-05-2.09456E-04
 -1     22620 7.73448E-02 5.88196E-02-4.50978E-05 2.01023E-01 2.53754E-05 1.34658E-05
 -1     22621 7.43629E-02 5.83012E-02 3.24354E-05 1.96160E-01 3.71942E-05-3.08491E-05
 -1     22622 8.70786E-02 5.86805E-02-1.46414E-05 2.14435E-01-3.13515E-05-5.16889E-05
 -1     22623 8.55876E-02 5.83702E-02 1.19825E-05 2.11885E-01 8.08616E-05 2.44194E-05
 -1     22624 9.24391E-02 5.83109E-02-5.56012E-05 2.21396E-01-2.89113E-05-4.23806E-05
 -1     22625 9.16949E-02 5.81902E-02-3.88499E-05 2.20041E-01-4.40342E-05-7.40088E-05
 -1     22626 9.55118E-02 5.74136E-02 8.09403E-06 2.24365E-01 2.14507E-05-1.00303E-05
 -1     22627 9.52137E-02 5.75173E-02-1.55466E-05 2.24121E-01-1.02807E-05-1.92046E-05
 -1     22628 9.69449E-02 5.55563E-02 1.88908E-05 2.23656E-01 1.71073E-05-3.49836E-05
 -1     22629 9.70731E-02 5.59670E-02-1.97566E-05 2.24433E-01 8.40883E-06-2.31812E-05
 -1     22630 9.67942E-02 5.23755E-02-2.72701E-05 2.18597E-01 2.53023E-05-2.91395E-06
 -1     22631 9.74014E-02 5.31088E-02-8.17473E-07 2.20537E-01-3.10401E-05-1.97914E-05
 -1     22632 9.48904E-02 4.76421E-02 3.43176E-05 2.08737E-01-7.64805E-06-8.76025E-06
 -1     22633 9.59734E-02 4.88113E-02-3.04294E-05 2.11998E-01-2.41802E-05-4.70592E-06
 -1     22634 9.08238E-02 4.16257E-02 4.20834E-05 1.93707E-01-1.10140E-05-1.93277E-05
 -1     22635 9.24857E-02 4.30886E-02-2.23177E-05 1.98337E-01-2.16180E-05-2.31784E-05
 -1     22636 8.43836E-02 3.49321E-02 3.25324E-05 1.74143E-01 2.25338E-07-9.83656E-06
 -1     22637 8.66399E-02 3.65171E-02-1.59828E-05 1.79901E-01-2.42460E-05-2.29018E-05
 -1     22638 7.58990E-02 2.84915E-02-3.40781E-05 1.51923E-01 2.42229E-05 3.48461E-05
 -1     22639 7.83774E-02 3.01034E-02-7.99491E-06 1.58122E-01 3.99349E-05-6.96556E-06
 -1     22640 6.56512E-02 2.34805E-02 4.43881E-05 1.29512E-01-7.80470E-05-2.39600E-05
 -1     22641 6.83627E-02 2.48466E-02 6.24491E-05 1.35599E-01-1.11609E-04-3.76583E-05
 -1     22642 5.52187E-02 2.04735E-02-1.90628E-05 1.09768E-01-4.61234E-05-3.60366E-05
 -1     22643 5.76210E-02 2.14408E-02-5.70740E-05 1.14747E-01-5.30548E-05-3.25213E-05
 -1     22644 4.67858E-02 1.89311E-02-5.94775E-05 9.51689E-02-5.28317E-05-2.37310E-05
 -1     22645 4.85226E-02 1.93326E-02 2.37954E-05 9.84289E-02 1.83074E-05-2.50330E-05
 -1     22646 4.16730E-02 1.63647E-02-2.50946E-05 8.49741E-02-4.45135E-05 8.40519E-06
 -1     22647 4.26848E-02 1.71551E-02 2.91178E-07 8.72183E-02-4.34214E-05-2.72291E-05
 -1     22648 4.08227E-02 1.10149E-02-2.19656E-04 7.63881E-02 1.01956E-04 1.26640E-04
 -1     22649 5.42610E-02 5.42870E-03 4.29259E-05 8.86515E-02 1.20580E-04 8.28411E-07
 -1     22650 5.09221E-02 5.78209E-03 3.88280E-05 8.59712E-02 1.19909E-04-5.66869E-05
 -1     22651 6.99260E-02-8.55229E-05-8.48015E-05 9.28174E-02-8.62792E-06-4.25175E-05
 -1     22652 6.68824E-02 5.25988E-05-6.58213E-05 9.28583E-02 9.33480E-05 6.37193E-06
 -1     22653 7.95389E-02-3.96376E-03-1.13188E-05 8.65321E-02 1.87631E-05 1.95957E-05
 -1     22654 7.80939E-02-3.85625E-03 3.56558E-05 8.89769E-02 9.88210E-06 2.31831E-05
 -1     22655 8.05860E-02-6.78666E-03-3.31813E-05 7.27967E-02-7.77799E-06-4.99800E-05
 -1     22656 8.14779E-02-6.69864E-03 5.70395E-05 7.69000E-02 5.09617E-05 2.43334E-05
 -1     22657 7.10515E-02-8.37781E-03-5.88467E-05 5.44276E-02 6.63348E-06-8.81445E-05
 -1     22658 7.45968E-02-8.37259E-03 8.24503E-05 5.93686E-02 1.03165E-04 2.51353E-05
 -1     22659 4.99107E-02-8.89202E-03 1.88059E-05 3.39616E-02-1.74575E-05-2.63407E-05
 -1     22660 5.64342E-02-9.03486E-03 4.61305E-05 3.92249E-02 2.16247E-05-2.11498E-05
 -1     22661 1.62964E-02-8.25219E-03 6.84508E-05 1.42033E-02 1.96548E-04 1.50433E-05
 -1     22662 2.58908E-02-8.29174E-03 4.69047E-05 1.91065E-02 1.02565E-04-1.24295E-05
 -1     22663-3.12850E-02-5.95549E-03 4.92858E-05-1.96381E-03-7.52285E-05-2.43071E-05
 -1     22664-1.81887E-02-6.00839E-03 9.99888E-05 1.73092E-03-1.96539E-04-6.36416E-06
 -1     22665-9.87950E-02-7.07576E-04 2.02504E-04-9.71243E-03-1.60714E-04-5.10763E-06
 -1     22666-7.97826E-02-1.02964E-03 1.48005E-04-9.12854E-03 3.55235E-05-3.07578E-06
 -1     22667-2.13236E-01 1.75273E-02 1.72877E-04 9.69657E-03-1.66380E-03 3.86754E-04
 -1     22668-1.79474E-01 1.65212E-02-5.12093E-04-2.75670E-03-1.00619E-04-1.53112E-04
 -1     22669-4.77846E-01 1.59033E-01-1.54468E-03 1.35979E-02-4.13345E-04-1.17410E-02
 -1     22670-2.82151E-01 5.99493E-02-1.33805E-03 9.00394E-03-3.43810E-03 2.33096E-03
 -1     22671-2.68907E-01 7.73540E-02-7.99862E-05 1.45511E-02 1.26801E-03-8.18983E-05
 -1     22672-3.27262E-01 1.46683E-01-4.83982E-03-1.12295E-01-8.08526E-04 8.63620E-03
 -1     22673-2.65389E-01 1.11075E-01-1.86502E-04-1.23447E-01-3.90229E-04 4.27782E-04
 -1     22674-2.77455E-01 1.15328E-01 4.35774E-04-1.27232E-01 2.25244E-04 1.68576E-04
 -1     22675-2.36816E-01 9.73710E-02-6.48338E-05-1.18117E-01 1.95936E-05-8.00046E-05
 -1     22676-2.41318E-01 9.90664E-02 7.92112E-05-1.19813E-01-4.02632E-05-3.02292E-05
 -1     22677-2.24027E-01 9.12819E-02 3.73217E-05-1.14544E-01-1.69879E-05 3.91713E-06
 -1     22678-2.26034E-01 9.20828E-02 2.32245E-05-1.15392E-01-1.93273E-05-1.47821E-05
 -1     22679-2.16926E-01 8.81931E-02 2.49929E-05-1.12045E-01 2.02287E-05-2.70985E-05
 -1     22680-2.18174E-01 8.86830E-02-6.95005E-06-1.12639E-01-6.70578E-06 5.52204E-05
 -1     22681-2.11438E-01 8.61018E-02 8.64822E-06-1.09012E-01-8.19995E-06-1.29867E-05
 -1     22682-2.12560E-01 8.65326E-02-8.36386E-06-1.09647E-01 1.87510E-05-2.68390E-06
 -1     22683-2.04824E-01 8.38555E-02 1.81618E-05-1.04398E-01-3.36206E-06-2.17959E-05
 -1     22684-2.06547E-01 8.44819E-02 3.74460E-06-1.05470E-01 6.44027E-06 2.04495E-05
 -1     22685-1.95114E-01 8.06132E-02 4.09202E-05-9.73051E-02-1.72255E-05-3.85116E-05
 -1     22686-1.97865E-01 8.16634E-02-2.08340E-05-9.90393E-02 2.23672E-05 9.26951E-07
 -1     22687-1.80391E-01 7.55973E-02-5.82042E-05-8.71059E-02 6.79399E-06-2.74607E-05
 -1     22688-1.84859E-01 7.72403E-02-5.53861E-06-8.97530E-02 1.36036E-05 6.09266E-06
 -1     22689-1.59752E-01 6.80050E-02-7.31088E-05-7.37422E-02 4.38640E-06-2.27466E-05
 -1     22690-1.65812E-01 7.03577E-02-1.22063E-05-7.71604E-02 3.34343E-05 2.37297E-05
 -1     22691-1.32272E-01 5.74298E-02-1.30079E-05-5.71248E-02 5.28448E-05-4.20636E-05
 -1     22692-1.39086E-01 6.02082E-02-5.01924E-05-6.06411E-02 4.86218E-05 4.19095E-05
 -1     22693-1.00411E-01 4.46585E-02 1.44482E-04-4.00692E-02 4.87767E-05 4.68146E-05
 -1     22694-1.06167E-01 4.69438E-02-7.09923E-06-4.27106E-02 2.80657E-06 1.01153E-04
 -1     22695-5.29692E-02 4.19943E-02-2.99560E-03 5.67008E-04-2.82636E-03-1.13165E-03
 -1     22696-7.03862E-02 4.17453E-02-6.88457E-04-1.06013E-02 7.35536E-04-1.07071E-03
 -1     22697-6.39068E-02 7.85909E-02 6.86636E-04 4.26937E-02 1.70333E-03 3.33432E-03
 -1     22698-6.37198E-02 1.18116E-01 1.14920E-03 9.56260E-02 2.63703E-04-1.23735E-03
 -1     22699-5.92640E-02 1.01609E-01 1.99368E-04 9.20143E-02 1.43450E-03 1.23472E-03
 -1     22700-7.33156E-02 1.44784E-01 3.60801E-04 1.22231E-01 2.27239E-04-1.58248E-05
 -1     22701-7.54132E-02 1.49851E-01 4.86505E-05 1.20531E-01 1.29113E-04-2.66522E-04
 -1     22702-6.22563E-02 1.24581E-01-3.36793E-05 1.35442E-01-5.08060E-05 1.10086E-04
 -1     22703-6.90804E-02 1.37761E-01-1.16309E-04 1.33835E-01-3.21385E-04 1.95754E-04
 -1     22704-4.70543E-02 9.58549E-02-1.14414E-04 1.36218E-01 1.39319E-04-8.69409E-04
 -1     22705 4.07848E-02 6.25960E-02 2.22452E-04 1.58274E-01-1.15278E-05-3.19880E-04
 -1     22706 3.13491E-02 6.09821E-02-2.42993E-05 1.43786E-01-5.79673E-04 6.57745E-04
 -1     22707 6.92721E-02 5.95206E-02-7.93680E-05 1.90918E-01-7.60408E-05 1.29906E-04
 -1     22708 6.55121E-02 5.81603E-02 1.09401E-04 1.84059E-01-6.82032E-05-8.47900E-05
 -1     22709 8.28744E-02 5.87184E-02 2.89382E-06 2.08703E-01 5.84065E-05-4.09861E-05
 -1     22710 8.09705E-02 5.81989E-02-9.80862E-05 2.05094E-01-1.24911E-04-4.96336E-05
 -1     22711 9.00859E-02 5.85760E-02-2.92306E-05 2.18358E-01 5.43446E-05 3.07771E-06
 -1     22712 8.90157E-02 5.83399E-02-1.89885E-05 2.16638E-01-1.18696E-05 2.25363E-05
 -1     22713 9.42088E-02 5.79789E-02 2.61740E-05 2.23358E-01 1.66284E-06-1.49153E-05
 -1     22714 9.36934E-02 5.79574E-02-5.27063E-05 2.22633E-01-2.33155E-05 8.33876E-07
 -1     22715 9.63556E-02 5.66189E-02 5.18632E-05 2.24472E-01 1.38387E-05 2.51880E-06
 -1     22716 9.63423E-02 5.68863E-02-8.68338E-06 2.24733E-01 2.04777E-05 1.74788E-05
 -1     22717 9.70347E-02 5.41105E-02 5.86132E-05 2.21689E-01-1.60353E-06-1.07566E-05
 -1     22718 9.74255E-02 5.47251E-02-1.18881E-05 2.23033E-01 1.36744E-05 3.78295E-06
 -1     22719 9.60406E-02 5.02089E-02 1.50519E-05 2.14327E-01 2.81384E-05-3.83966E-06
 -1     22720 9.69036E-02 5.11334E-02-2.07318E-05 2.16915E-01-1.83241E-05 3.34247E-05
 -1     22721 9.29626E-02 4.47910E-02 6.77377E-05 2.01843E-01 3.27391E-05-1.28517E-05
 -1     22722 9.45190E-02 4.60821E-02-6.08883E-06 2.05812E-01-2.91125E-05 4.44595E-05
 -1     22723 8.77633E-02 3.82834E-02 5.74991E-05 1.84398E-01 2.29917E-05-3.01937E-06
 -1     22724 8.98700E-02 3.98463E-02-9.58216E-07 1.89644E-01-1.71172E-05 4.90111E-05
 -1     22725 8.03413E-02 3.15813E-02 2.22770E-06 1.63281E-01-3.13778E-05 1.07561E-05
 -1     22726 8.27414E-02 3.32245E-02-1.69133E-07 1.69255E-01 2.69007E-05 3.82361E-05
 -1     22727 7.06757E-02 2.58468E-02 1.58070E-05 1.40455E-01 9.58361E-06 1.56060E-05
 -1     22728 7.34778E-02 2.72666E-02 3.69302E-05 1.46770E-01-1.66201E-05-2.75845E-05
 -1     22729 6.02639E-02 2.18334E-02-4.04888E-06 1.19138E-01-2.21333E-05-4.75593E-05
 -1     22730 6.28854E-02 2.30759E-02-7.82677E-05 1.24760E-01-2.67896E-05-2.51091E-05
 -1     22731 5.07715E-02 1.94351E-02-1.66894E-05 1.01804E-01-2.50002E-05-4.86921E-05
 -1     22732 5.27966E-02 2.02189E-02-3.51998E-05 1.05921E-01-1.69934E-06 2.24802E-05
 -1     22733 4.35441E-02 1.81977E-02-2.11802E-05 8.98091E-02-4.51176E-05-3.14045E-05
 -1     22734 4.50049E-02 1.86739E-02 4.46306E-05 9.23951E-02 3.79624E-06 3.87258E-05
 -1     22735 4.61352E-02 6.01408E-03-1.03148E-04 7.89440E-02 1.02465E-04 2.30080E-05
 -1     22736 3.81787E-02 1.46957E-02 1.78212E-04 7.88242E-02-4.34334E-05 7.98854E-06
 -1     22737 3.93759E-02 1.64953E-02 2.41238E-05 8.20322E-02-5.41219E-05-4.73259E-05
 -1     22738 5.93704E-02 2.45008E-03 8.02600E-05 9.08758E-02 7.41374E-06 3.00264E-05
 -1     22739 5.37210E-02 7.83072E-03-2.73409E-05 8.88428E-02 2.03451E-05-7.88701E-06
 -1     22740 4.91102E-02 5.56291E-03 3.32116E-06 8.34909E-02 3.29388E-05-7.73359E-05
 -1     22741 6.38769E-02 2.43973E-03-4.74571E-05 9.15881E-02-1.55884E-06-3.11858E-06
 -1     22742 6.26849E-02 2.28755E-03-4.58678E-05 9.21560E-02-1.36578E-05-2.63863E-05
 -1     22743 7.55973E-02-2.23426E-03-5.96778E-05 9.07690E-02 7.22715E-05-2.94146E-06
 -1     22744 7.32922E-02-2.16152E-03 2.24055E-05 9.20565E-02 5.24655E-05 3.28469E-05
 -1     22745 8.12800E-02-5.46001E-03-1.34256E-05 8.04181E-02 5.33262E-06-2.09199E-05
 -1     22746 8.09464E-02-5.42493E-03 7.43034E-05 8.37985E-02-4.28712E-05-2.11202E-05
 -1     22747 7.72979E-02-7.78028E-03 6.20585E-05 6.40024E-02-2.97043E-05-4.79564E-07
 -1     22748 7.94875E-02-7.67172E-03-1.92379E-05 6.86611E-02-4.00577E-06-1.92834E-06
 -1     22749 6.19598E-02-8.74681E-03 6.74674E-06 4.42784E-02-1.34224E-05 7.00376E-07
 -1     22750 6.69696E-02-8.79369E-03-6.18168E-05 4.94527E-02-2.65136E-05-7.32720E-05
 -1     22751 3.47207E-02-8.51517E-03-3.01638E-05 2.39219E-02 8.38887E-05-3.77122E-05
 -1     22752 4.26450E-02-8.73918E-03 3.50817E-05 2.90199E-02 3.43061E-06 1.11874E-05
 -1     22753-5.63650E-03-7.19201E-03 1.67796E-05 5.42027E-03-1.44132E-04 7.00845E-05
 -1     22754 5.70070E-03-7.29319E-03-6.07035E-05 9.82622E-03-3.01305E-06 7.76778E-06
 -1     22755-6.18386E-02-3.79860E-03 4.28481E-05-7.53156E-03-7.07895E-05-1.63350E-05
 -1     22756-4.61432E-02-4.03737E-03-7.62245E-05-4.94165E-03 2.11920E-05-1.99747E-05
 -1     22757-1.45267E-01 3.07965E-03 1.08230E-03-6.72972E-03 1.39082E-04-9.27782E-05
 -1     22758-1.21568E-01 4.39564E-03 3.28812E-04-9.38785E-03 2.25960E-04-4.07290E-05
 -1     22759-2.32313E-01 9.50474E-02 2.55494E-05-1.17276E-01 2.63528E-05 5.96761E-05
 -1     22760-2.24300E-01 9.36854E-02 1.51908E-05-1.06247E-01 2.54966E-05-7.93044E-05
 -1     22761-2.29422E-01 9.37588E-02 4.09123E-05-1.16103E-01 9.30756E-08 8.53387E-05
 -1     22762-2.96553E-01 1.25928E-01 1.01683E-03-1.25771E-01-6.09520E-04 4.11161E-04
 -1     22763-3.33946E-01 1.35219E-01 6.89861E-03-1.26539E-01-7.45693E-04-7.02595E-04
 -1     22764-2.47993E-01 1.02563E-01-2.41782E-05-1.20743E-01 9.90700E-05-2.04110E-05
 -1     22765-2.55043E-01 1.05337E-01 2.63326E-04-1.23319E-01 4.11928E-05 1.37721E-04
 -1     22766-2.16115E-01 8.94343E-02 6.64147E-05-1.05133E-01-4.46376E-05 4.32387E-05
 -1     22767-3.28822E-01 1.40075E-01-2.55915E-03-5.74512E-02 3.16257E-03-7.99662E-03
 -1     22768-2.20054E-01 8.95369E-02-2.56200E-05-1.13340E-01-1.16762E-05-1.15141E-05
 -1     22769-2.21576E-01 9.01408E-02-1.99451E-05-1.13908E-01 6.11766E-06-2.29135E-05
 -1     22770-2.14174E-01 8.71153E-02 8.83736E-06-1.10625E-01-5.22074E-06-1.79311E-05
 -1     22771-2.15235E-01 8.74671E-02 2.62533E-05-1.11207E-01 6.71101E-06 2.88375E-05
 -1     22772-2.08360E-01 8.50530E-02-1.82829E-05-1.06942E-01 1.79952E-07-2.45415E-06
 -1     22773-2.09759E-01 8.55794E-02 3.47258E-06-1.07778E-01 1.58545E-05-3.02051E-05
 -1     22774-2.00459E-01 8.24190E-02 2.90284E-06-1.01229E-01-3.21466E-06-1.46362E-05
 -1     22775-2.02644E-01 8.32756E-02-4.98093E-05-1.02593E-01 1.29625E-05-9.91612E-06
 -1     22776-1.88358E-01 7.83723E-02-4.87940E-05-9.25700E-02 2.80023E-05 1.60188E-06
 -1     22777-1.91931E-01 7.97128E-02-5.71169E-06-9.47097E-02 8.23555E-06-4.25601E-05
 -1     22778-1.70993E-01 7.21768E-02-2.39593E-05-8.08562E-02-1.47503E-05-1.24547E-05
 -1     22779-1.76279E-01 7.41610E-02 2.55887E-05-8.39388E-02-5.83170E-06-5.66434E-06
 -1     22780-1.46806E-01 6.30478E-02 1.98400E-05-6.57025E-02 6.22257E-05 4.19632E-05
 -1     22781-1.53284E-01 6.56481E-02 1.47671E-05-6.92522E-02 4.38675E-05 1.00940E-04
 -1     22782-1.16582E-01 5.09595E-02 3.01314E-05-4.85868E-02-4.31993E-05-9.20675E-05
 -1     22783-1.23002E-01 5.37954E-02-7.57853E-05-5.16328E-02 1.89401E-07 2.66441E-06
 -1     22784-8.21752E-02 3.88670E-02-2.57170E-04-3.00143E-02-1.55642E-04-4.30608E-04
 -1     22785-8.82157E-02 4.08813E-02-3.60180E-04-3.17614E-02 8.91764E-05 5.91689E-05
 -1     22786 5.42671E-02 6.41345E-02-2.02359E-05 1.77539E-01-8.65333E-05 1.00180E-04
 -1     22787-7.12765E-02 1.40310E-01-2.21447E-04 1.11456E-01 8.07088E-04-7.17951E-05
 -1     22788-4.51887E-02 7.92407E-02 3.47455E-04 7.85574E-02-1.96336E-03-1.07953E-03
 -1     22789 2.03731E-02 7.66428E-02 6.04458E-05 1.52029E-01 2.52351E-04-1.45049E-04
 -1     22790-5.48664E-02 1.05197E-01 2.39192E-04 1.08790E-01-6.20376E-04-2.03062E-04
 -1     22791-7.20559E-02 1.40500E-01 8.51566E-04 1.12811E-01-2.68685E-04-4.14959E-04
 -1     22792-7.00812E-02 1.39730E-01 1.34602E-04 1.29617E-01-2.90381E-04 1.30239E-04
 -1     22793-7.46767E-02 1.48499E-01-1.61765E-04 1.27721E-01-2.68172E-05 8.39964E-05
 -1     22794-5.12396E-02 1.09601E-01-1.40425E-04 1.47004E-01-6.14182E-04 1.18472E-04
 -1     22795-5.08008E-02 1.02677E-01 3.84284E-04 1.40521E-01 7.01815E-04-5.18596E-04
 -1     22796-5.99732E-02 1.20232E-01-1.75254E-04 1.37704E-01-2.74946E-06-1.71739E-04
 -1     22797 8.04789E-02 5.69693E-02 7.25869E-06 2.02476E-01-1.92719E-05 2.30861E-05
 -1     22798 7.11691E-02 5.94754E-02 9.50861E-05 1.93506E-01-1.00937E-05-1.97909E-04
 -1     22799-1.33960E-02 9.19103E-02-2.51948E-04 1.36410E-01 8.76526E-04-2.80431E-04
 -1     22800 4.06723E-02 6.85878E-02 1.21177E-04 1.66189E-01 2.06352E-04-8.22289E-05
 -1     22801 6.40082E-02 6.13865E-02-3.63346E-05 1.86373E-01 5.61579E-05 3.86451E-05
 -1     22802 7.64369E-02 5.81123E-02-6.45627E-06 1.98580E-01 3.75173E-05-2.53131E-05
 -1     22803 8.37810E-02 5.58929E-02-6.17741E-05 2.05369E-01 1.78162E-05-2.23127E-05
 -1     22804 8.86797E-02 5.33991E-02-4.30752E-05 2.08664E-01-1.54992E-05-4.88640E-05
 -1     22805 9.21343E-02 4.98873E-02-1.46086E-05 2.08371E-01 7.39556E-06-2.57520E-05
 -1     22806 9.42897E-02 4.48371E-02 6.79940E-06 2.03847E-01-3.62093E-05-7.37081E-05
 -1     22807 9.49034E-02 3.82670E-02-2.33415E-05 1.94656E-01-7.21783E-06-1.25434E-05
 -1     22808 9.34701E-02 3.05162E-02-1.58787E-05 1.80814E-01-1.20328E-05-3.40460E-05
 -1     22809 8.93508E-02 2.28902E-02 4.32673E-05 1.63177E-01-3.41447E-05-9.97769E-05
 -1     22810 8.22716E-02 1.68423E-02 1.25981E-05 1.43423E-01 1.14948E-05-1.19006E-05
 -1     22811 7.20492E-02 1.39660E-02 2.11748E-05 1.24127E-01-1.23925E-04-1.07299E-04
 -1     22812 6.10985E-02 1.34109E-02-1.18707E-05 1.07086E-01-7.34449E-05-1.89598E-05
 -1     22813 5.16580E-02 1.37343E-02 1.15659E-04 9.41187E-02 2.32771E-06 5.73565E-05
 -1     22814 7.23208E-02-1.97531E-03 3.10361E-05 9.17324E-02-2.16978E-05 5.17572E-05
 -1     22815 8.33149E-02-8.47128E-03 8.01790E-06 8.55178E-02-1.34872E-04 3.83662E-05
 -1     22816 8.48919E-02-1.33369E-02-1.05316E-07 7.26184E-02 3.41448E-05 3.56997E-05
 -1     22817 7.49767E-02-1.59849E-02 2.30471E-06 5.57427E-02-5.25407E-06 1.60605E-06
 -1     22818 5.22658E-02-1.63015E-02 5.75036E-05 3.72512E-02-3.78512E-05 4.41634E-05
 -1     22819 1.61957E-02-1.40005E-02 3.68469E-05 1.99334E-02-3.51118E-05 1.13985E-04
 -1     22820-3.55015E-02-8.22890E-03 1.51174E-04 6.72410E-03 9.45669E-06 1.69934E-04
 -1     22821-1.11481E-01 5.50390E-03 2.71935E-04 3.16895E-03 2.80161E-04 3.51518E-08
 -1     22822-2.53877E-01 1.09269E-01-2.22424E-04-1.06351E-01-9.21790E-06 2.52837E-04
 -1     22823-2.10058E-01 8.65420E-02-9.08387E-06-1.04179E-01-3.19920E-05 5.50248E-05
 -1     22824-2.01621E-01 8.28044E-02 9.43765E-06-1.01565E-01 1.37163E-05-2.11288E-05
 -1     22825-1.95004E-01 8.04571E-02 9.23895E-06-9.74297E-02 2.04302E-05 3.33836E-05
 -1     22826-1.87658E-01 7.84385E-02 2.01916E-06-9.10773E-02 6.28103E-05 5.73392E-05
 -1     22827-1.77797E-01 7.58839E-02 2.96522E-05-8.17136E-02 5.87609E-05 8.89495E-05
 -1     22828-1.63842E-01 7.18932E-02 1.49186E-05-6.94508E-02 1.60805E-05-7.28123E-05
 -1     22829-1.43147E-01 6.50463E-02 3.72707E-05-5.33750E-02 4.97854E-05 4.63787E-05
 -1     22830-1.11619E-01 5.31940E-02-1.72702E-05-3.20864E-02 3.23928E-05 6.20239E-05
 -1     22831-7.03767E-02 3.88344E-02-2.54327E-05-3.66471E-03 4.54960E-05 3.72777E-04
 -1     22832-6.07783E-02 1.18993E-01-8.43582E-05 1.26758E-01-5.81269E-04-1.09163E-04
 -1     22833-5.98746E-02 1.18037E-01-2.26259E-04 1.48913E-01-4.11372E-04 7.55360E-05
 -1     22834 8.64136E-02 5.46853E-02 2.07240E-05 2.07417E-01 8.42474E-06-1.94408E-05
 -1     22835 9.05164E-02 5.18206E-02 1.07879E-05 2.08996E-01-1.60749E-05-7.31715E-05
 -1     22836 9.33304E-02 4.76051E-02-2.51245E-05 2.06620E-01-1.41347E-05-5.46504E-05
 -1     22837 9.47707E-02 4.17107E-02-2.29038E-05 1.99832E-01-2.24524E-05-3.53183E-06
 -1     22838 9.44094E-02 3.44483E-02-8.57325E-06 1.88325E-01-2.50372E-05-6.72515E-05
 -1     22839 9.17233E-02 2.66043E-02-2.82580E-06 1.72402E-01-3.77609E-05-6.14539E-05
 -1     22840 8.61291E-02 1.96842E-02-5.44013E-05 1.53436E-01-2.66777E-05 8.20727E-06
 -1     22841 7.74298E-02 1.50649E-02 3.49679E-05 1.33660E-01-6.48448E-05-5.41361E-05
 -1     22842 6.65315E-02 1.35095E-02-2.64136E-05 1.15228E-01-8.95516E-05-4.01706E-05
 -1     22843 5.59927E-02 1.36292E-02-8.80620E-06 1.00013E-01-6.03909E-06 2.15349E-05
 -1     22844 4.88826E-02 1.25631E-02-6.54866E-05 8.90793E-02-3.42080E-05-3.68239E-05
 -1     22845 7.87860E-02-5.43117E-03-5.16590E-06 8.95639E-02-9.18177E-07 2.54627E-05
 -1     22846 6.52686E-02-1.64764E-02 8.61299E-07 4.64735E-02-6.21440E-06-2.16751E-05
 -1     22847 3.59447E-02-1.54298E-02 9.65449E-05 2.82843E-02-5.07913E-07 6.96697E-05
 -1     22848-7.51957E-03-1.16193E-02 5.97542E-05 1.26570E-02 3.36504E-04-1.31143E-04
 -1     22849-6.93768E-02-2.86970E-03 1.49761E-04 3.12531E-03 1.07610E-04 8.76240E-05
 -1     22850-1.70037E-01 2.37338E-02 8.08414E-05 7.80297E-03 1.95424E-03-3.64499E-04
 -1     22851-2.36238E-01 1.00005E-01-8.23632E-05-1.07086E-01 4.26033E-05 8.34017E-05
 -1     22852-1.91513E-01 7.94769E-02 6.39234E-08-9.45611E-02-3.36024E-06-8.69964E-06
 -1     22853-1.83162E-01 7.73028E-02 1.41415E-05-8.68035E-02-1.25367E-05 6.28534E-07
 -1     22854-1.71358E-01 7.41006E-02 2.06280E-05-7.59314E-02 1.38519E-05-2.68217E-05
 -1     22855-1.54646E-01 6.89339E-02-1.36776E-05-6.20592E-02 5.74409E-05-1.55688E-05
 -1     22856-1.28980E-01 6.00412E-02-8.65021E-05-4.33236E-02 1.43517E-04 7.36259E-05
 -1     22857-9.19132E-02 4.56217E-02-1.47443E-05-1.95865E-02-3.92484E-05 1.00507E-04
 -1     22858-5.02970E-02 4.13441E-02 5.55554E-04 2.61578E-02 1.00221E-03 3.55049E-04
 -1     22859-6.27024E-02 1.22773E-01 2.00059E-04 1.40326E-01-3.80823E-04-1.56160E-04
 -1     22860 8.14471E-02-1.49441E-02 1.15481E-06 6.45808E-02-5.85384E-07 1.99844E-05
 -1     22861 8.54115E-02-1.11422E-02 3.63107E-05 7.96947E-02-1.51027E-04 2.82838E-05
 -1     22862-2.84413E-01 1.23972E-01 1.21448E-03-9.93525E-02-9.68606E-04-1.75615E-03
 -1     22863-1.98256E-01 8.15429E-02-4.80592E-07-9.97085E-02 1.69041E-05 2.48208E-05
 -1     22864-2.05479E-01 8.44663E-02-1.91789E-05-1.03022E-01-1.05945E-05 1.70329E-05
 -1     22865 5.17498E-02 6.26861E-02-1.17456E-05 1.73609E-01 1.34044E-04 2.12602E-04
 -1     22866 4.70875E-02 6.41432E-02-7.30234E-06 1.69808E-01 3.68222E-05 6.47817E-05
 -1     22867-4.95234E-02 5.94813E-02 6.86048E-05 5.36596E-02-2.32365E-04-3.98202E-04
 -1     22868 6.57727E-02 5.74112E-02-1.32098E-05 1.83954E-01-7.56111E-05-5.01461E-05
 -1     22869 6.32183E-02 5.81585E-02-1.03778E-05 1.81859E-01-3.70185E-06-1.33663E-05
 -1     22870-1.97779E-02 9.68478E-02-8.32016E-05 1.43275E-01 2.08020E-06-1.77739E-04
 -1     22871-4.11571E-02 1.07713E-01-3.68022E-04 1.39782E-01 1.26286E-04-7.87596E-04
 -1     22872 7.47136E-02 5.34807E-02 5.44209E-05 1.90274E-01-1.68803E-05-3.62977E-05
 -1     22873 7.29705E-02 5.41937E-02 6.61562E-05 1.89046E-01 2.70951E-05 3.57570E-05
 -1     22874 5.95946E-02 5.96407E-02 5.91113E-05 1.79399E-01-1.18411E-04 1.17962E-06
 -1     22875 5.63656E-02 6.07270E-02-3.29564E-06 1.76594E-01-4.07954E-05 1.84160E-04
 -1     22876 4.06668E-02 6.33978E-02 2.27504E-05 1.60464E-01 3.71569E-05-1.67771E-04
 -1     22877 4.94760E-02 5.93357E-02 5.85844E-06 1.65399E-01 5.82856E-06-1.98194E-05
 -1     22878 8.13691E-02 4.95800E-02 5.93845E-05 1.93793E-01 8.65327E-06-4.77152E-05
 -1     22879 8.01898E-02 5.05043E-02 1.55492E-05 1.93408E-01 2.22092E-05-1.31961E-05
 -1     22880 8.66151E-02 4.46930E-02 1.30741E-06 1.93936E-01-3.99950E-05-6.69183E-05
 -1     22881 8.58022E-02 4.59381E-02 4.76840E-07 1.94596E-01-1.69302E-05-4.93134E-05
 -1     22882 9.07577E-02 3.79786E-02 8.01168E-05 1.90086E-01-5.89122E-05-2.20238E-05
 -1     22883 9.01913E-02 3.96588E-02 7.60225E-05 1.91731E-01 3.40000E-05 7.48978E-05
 -1     22884 9.36815E-02 2.97238E-02 4.26258E-05 1.81792E-01-1.22107E-05-1.61944E-05
 -1     22885 9.35195E-02 3.17001E-02 5.52157E-05 1.84571E-01 3.78843E-05 7.16453E-06
 -1     22886 9.45257E-02 2.07334E-02 4.86909E-05 1.69027E-01-1.32355E-05-5.34812E-06
 -1     22887 9.49541E-02 2.28217E-02 6.59793E-05 1.72934E-01 6.36028E-05 4.12249E-05
 -1     22888 9.26066E-02 1.26086E-02 2.94325E-05 1.52892E-01 2.49008E-06-3.44567E-05
 -1     22889 9.37413E-02 1.43307E-02 4.40119E-05 1.57556E-01 4.45005E-05 1.08219E-04
 -1     22890 8.67433E-02 7.32512E-03 7.16495E-05 1.35284E-01 1.58510E-05-2.47884E-05
 -1     22891 8.87740E-02 8.55175E-03-2.30931E-05 1.40274E-01-1.11446E-05 3.53995E-05
 -1     22892 7.73012E-02 6.18751E-03-2.69022E-05 1.18651E-01 1.33875E-04-2.10494E-05
 -1     22893 7.99015E-02 6.05806E-03 5.04631E-05 1.22903E-01 4.81855E-05 3.46749E-05
 -1     22894 6.55995E-02 7.87886E-03 1.94398E-05 1.03710E-01-5.39856E-05-4.28195E-05
 -1     22895 6.84094E-02 7.72006E-03-1.74119E-05 1.07576E-01-3.71336E-05 1.76712E-05
 -1     22896 5.47349E-02 9.25290E-03-3.21780E-05 9.09729E-02-1.54501E-05-1.33211E-06
 -1     22897 7.47377E-02-3.19259E-03-2.25496E-05 9.24737E-02 4.19810E-05 1.44935E-05
 -1     22898 7.05595E-02-1.05285E-03 7.95843E-05 9.28470E-02-6.66758E-05 2.90820E-06
 -1     22899 4.56858E-02 1.14476E-02-9.26271E-06 8.38699E-02 4.05947E-05 4.12917E-05
 -1     22900 8.67364E-02-1.23838E-02-7.22018E-06 8.58038E-02 8.33335E-05-2.35826E-05
 -1     22901 8.48602E-02-1.07927E-02 7.31744E-06 8.80573E-02 2.74986E-05-7.05344E-05
 -1     22902 6.54600E-02 2.60577E-03 4.90525E-05 9.28543E-02-5.55877E-05-3.16477E-05
 -1     22903 6.05452E-02 5.07644E-03 6.24945E-05 9.21015E-02-2.38142E-06 1.43026E-05
 -1     22904 5.61086E-02 9.49882E-03 1.16970E-05 9.26028E-02 1.12560E-05 9.28614E-06
 -1     22905 6.77204E-02 1.59088E-03 1.70715E-05 9.38491E-02-1.17858E-05-2.89415E-05
 -1     22906 6.73144E-02-2.27277E-02-3.36797E-05 4.92500E-02 2.93005E-05 2.63423E-05
 -1     22907 7.30473E-02-2.27480E-02-9.95510E-06 5.36232E-02-1.25756E-05-3.64776E-05
 -1     22908 8.82924E-02-1.88541E-02 1.11579E-04 7.35788E-02 6.38427E-05 1.45297E-05
 -1     22909 8.92508E-02-1.79434E-02 2.54061E-05 7.71114E-02 7.33234E-05 4.37842E-05
 -1     22910-2.58905E-01 1.12497E-01 6.43181E-04-7.98386E-02 7.57034E-04 6.11143E-04
 -1     22911-2.82428E-01 1.21369E-01 1.39309E-03-7.14174E-02 9.42790E-04-1.57212E-03
 -1     22912 7.76368E-02-2.23011E-02 6.07886E-05 5.76032E-02 6.57011E-05 1.76143E-05
 -1     22913 8.16649E-02-2.19261E-02 4.29127E-05 6.19010E-02-2.84674E-05 8.12650E-06
 -1     22914 7.95566E-02-2.73274E-02 3.23264E-05 6.01136E-02-6.73331E-05 4.17170E-05
 -1     22915 8.90714E-02-1.61578E-02 3.54488E-05 8.01732E-02 5.52872E-05-6.25216E-05
 -1     22916 8.85878E-02-1.49089E-02 1.29296E-05 8.31968E-02-2.36007E-05-8.00178E-05
 -1     22917 8.99974E-02-1.61001E-02 3.07701E-06 8.63043E-02-4.42025E-05-1.62539E-05
 -1     22918 9.22765E-02-2.04201E-02-3.97636E-06 8.11219E-02-3.19887E-05 2.66551E-05
 -1     22919 3.60710E-02-2.08122E-02 3.34065E-06 3.26397E-02-3.13533E-07 8.35010E-06
 -1     22920 4.51744E-02-2.16829E-02-3.74222E-05 3.67302E-02-1.48168E-04 2.69474E-05
 -1     22921-1.06483E-02-1.49399E-02 7.31788E-05 1.86198E-02 1.28602E-04-8.06966E-05
 -1     22922 2.17499E-03-1.58245E-02-9.61303E-05 2.15878E-02 8.30495E-05-1.08295E-04
 -1     22923-7.79697E-02-3.20550E-05 4.41831E-05 1.04311E-02-3.22786E-04 1.65496E-04
 -1     22924-5.89867E-02-3.77038E-03 3.87104E-05 1.15865E-02 1.29295E-07 3.18360E-05
 -1     22925-1.91549E-01 4.78084E-02-3.89716E-04 1.20826E-02-1.87088E-03 9.70231E-04
 -1     22926-1.54907E-01 2.74866E-02 5.46585E-04 1.00592E-02-1.47282E-03 9.88212E-04
 -1     22927-2.21852E-01 9.43731E-02 2.00306E-05-9.24232E-02-5.60817E-05 1.96833E-04
 -1     22928-2.29444E-01 9.81145E-02-9.12490E-05-9.21054E-02 8.98923E-05-5.59730E-05
 -1     22929-2.91041E-01 1.18153E-01-2.43540E-03-8.64813E-03-1.50629E-03 1.77682E-03
 -1     22930-2.38436E-01 7.29946E-02-3.36976E-04 4.39141E-03 9.37845E-04-1.83365E-03
 -1     22931-2.13399E-01 6.82555E-02 7.39430E-05 3.17773E-04 1.31759E-03-2.83930E-04
 -1     22932-2.86061E-01 1.17649E-01 1.03301E-03-4.78639E-02-1.97742E-03 2.51383E-03
 -1     22933-1.82805E-01 7.65768E-02-7.20284E-06-8.82175E-02-1.47731E-05-6.84875E-06
 -1     22934-1.84448E-01 7.70387E-02-2.93066E-06-8.92685E-02 7.78537E-06-1.22868E-05
 -1     22935-1.95676E-01 8.15077E-02-5.75027E-05-9.30463E-02 3.00598E-05 1.31897E-05
 -1     22936-1.98617E-01 8.26562E-02-7.53340E-06-9.34345E-02 6.74629E-06-1.75793E-05
 -1     22937-1.75387E-01 7.48843E-02-2.19334E-05-8.17833E-02 2.17761E-06 2.63784E-05
 -1     22938-1.77217E-01 7.52425E-02-3.76426E-06-8.35091E-02-7.12702E-07 2.31397E-05
 -1     22939-2.02080E-01 8.44445E-02 1.01484E-05-9.35178E-02-4.47537E-05-6.98320E-06
 -1     22940-2.05815E-01 8.62363E-02 3.42867E-06-9.38655E-02-2.16829E-05-8.83089E-05
 -1     22941-1.87368E-01 7.93958E-02-7.30971E-06-8.21264E-02-8.37441E-06 1.68508E-05
 -1     22942-1.79186E-01 7.56530E-02 8.87021E-06-8.53589E-02-3.39473E-06-1.69214E-05
 -1     22943-1.80835E-01 7.60364E-02-4.34080E-07-8.67368E-02-5.98110E-06-2.19734E-05
 -1     22944-1.63342E-01 7.09511E-02-5.31594E-06-7.27865E-02 8.66886E-06 1.24646E-05
 -1     22945-1.66695E-01 7.33815E-02-2.96807E-05-7.22570E-02-6.31991E-06 5.42429E-05
 -1     22946-1.69101E-01 7.38043E-02 3.16992E-06-7.47674E-02-4.30977E-06 3.28084E-05
 -1     22947-1.55176E-01 7.11700E-02 8.55621E-06-5.93201E-02 2.31170E-05 1.64164E-05
 -1     22948-1.58486E-01 7.19612E-02-2.52643E-06-6.26332E-02 1.31867E-07 1.96700E-05
 -1     22949-1.39300E-01 6.69502E-02-3.28833E-05-4.38462E-02-2.57767E-05-4.45728E-06
 -1     22950-1.44291E-01 6.84760E-02-1.01670E-05-4.80473E-02-3.70337E-05 6.94209E-05
 -1     22951-1.12018E-01 5.81928E-02-6.34446E-05-2.06961E-02-1.54837E-04-4.05039E-05
 -1     22952-1.20324E-01 6.09223E-02 6.41835E-05-2.66504E-02-1.04233E-04-3.56182E-06
 -1     22953-7.26329E-02 4.73916E-02-2.82784E-05 1.32833E-02 7.55567E-05 9.77208E-05
 -1     22954-8.32629E-02 5.02129E-02-4.72764E-06 5.21697E-03 8.58632E-05 7.59535E-05
 -1     22955-5.20464E-02 4.92720E-02-3.69735E-05 3.79594E-02-6.82812E-05-1.46291E-06
 -1     22956-6.26133E-02 4.81287E-02-7.87937E-05 2.63908E-02 2.57196E-05 8.32171E-05
 -1     22957-5.91423E-02 5.44602E-02-8.89705E-05 4.97778E-02-3.02091E-05-8.41630E-05
 -1     22958-5.06072E-02 7.24626E-02 8.59544E-06 7.88570E-02-1.90175E-04 1.25747E-04
 -1     22959-5.78943E-02 9.91097E-02-9.17647E-05 1.20002E-01-2.86403E-04-2.31909E-04
 -1     22960-5.62805E-02 9.29526E-02 8.84554E-05 1.10287E-01-1.13317E-04-1.34727E-04
 -1     22961 4.08329E-02 6.70042E-02-7.23425E-05 1.66189E-01 1.90908E-05-1.13037E-04
 -1     22962 3.43523E-02 6.91461E-02-6.06867E-05 1.61703E-01-1.19944E-04-1.67500E-04
 -1     22963 2.91524E-02 6.87471E-02-4.77527E-05 1.54534E-01-8.28177E-06-3.43450E-05
 -1     22964-5.82565E-02 1.13647E-01 1.25907E-04 1.49064E-01-2.38034E-04 3.64907E-06
 -1     22965-6.11665E-02 1.15838E-01-1.68251E-04 1.46042E-01-3.53912E-04 1.86284E-04
 -1     22966-5.27406E-02 8.35358E-02 4.32636E-05 9.34182E-02-3.60821E-05-9.55989E-06
 -1     22967-5.41928E-02 1.13596E-01 3.99222E-05 1.48543E-01-4.00650E-04 1.11253E-03
 -1     22968 8.46832E-02-2.09722E-02-5.35477E-05 6.58196E-02-9.00005E-06 8.77317E-06
 -1     22969 8.69586E-02-2.01002E-02-8.09265E-05 6.98505E-02-3.02471E-05 6.09730E-05
 -1     22970 9.15852E-02-2.38533E-02 3.63276E-05 7.48989E-02-7.01265E-05 4.13137E-05
 -1     22971 8.72917E-02-2.61368E-02 2.33502E-05 6.75401E-02-3.38262E-06 2.27203E-05
 -1     22972 7.06161E-02 5.53677E-02 3.38431E-05 1.87452E-01 1.36026E-05 5.46961E-05
 -1     22973 6.85420E-02 5.61536E-02-1.45705E-05 1.85796E-01-4.77969E-05-2.75369E-05
 -1     22974 5.60914E-02 5.62357E-02 4.56225E-06 1.69491E-01-2.18368E-06 3.23393E-06
 -1     22975 6.16349E-02 5.34852E-02 1.81224E-05 1.72748E-01 1.56760E-05-6.90283E-05
 -1     22976 7.82657E-02 5.16066E-02 3.41123E-05 1.92363E-01-1.62629E-05 2.84290E-06
 -1     22977 7.68081E-02 5.24421E-02-9.59929E-06 1.91538E-01-2.88243E-05-3.56746E-05
 -1     22978 6.66274E-02 5.08346E-02 2.03620E-05 1.75569E-01 3.33502E-05-3.01628E-05
 -1     22979 7.09905E-02 4.83332E-02-6.50959E-06 1.77847E-01 1.50258E-05-1.54941E-05
 -1     22980-1.86578E-01 7.77585E-02-4.32565E-06-9.04198E-02 6.80515E-06-1.35385E-05
 -1     22981-1.88455E-01 7.84275E-02-2.17944E-06-9.12367E-02 5.76459E-07-1.73270E-05
 -1     22982-1.71220E-01 7.27356E-02-1.22158E-05-7.89519E-02 1.88662E-05 8.94404E-06
 -1     22983 2.63899E-02 7.32397E-02 1.91936E-04 1.58104E-01-2.39880E-04-2.62393E-04
 -1     22984 1.70672E-02 7.62135E-02 2.01159E-04 1.52104E-01-4.27458E-05-1.74595E-04
 -1     22985 1.41331E-02 7.63156E-02-3.20298E-05 1.48292E-01 2.28363E-04 2.00232E-04
 -1     22986 9.45472E-02 2.73779E-02-1.83904E-05 1.79289E-01-5.52144E-05-2.72888E-05
 -1     22987 9.36909E-02 2.10095E-02 2.54643E-05 1.69704E-01-2.69239E-06-5.85982E-05
 -1     22988 9.44953E-02 2.52315E-02-5.14817E-06 1.75881E-01 2.24719E-05 1.94022E-06
 -1     22989-5.20199E-02 7.08341E-02-8.28524E-06 8.48685E-02-1.59274E-05 1.84997E-05
 -1     22990 8.81208E-02 4.30185E-02-2.01524E-05 1.93631E-01-1.25500E-05-3.30826E-05
 -1     22991 8.21545E-02 3.92476E-02 1.43579E-05 1.80331E-01 4.96551E-05-2.09904E-05
 -1     22992 8.89243E-02 4.15424E-02-5.93644E-06 1.92621E-01 9.30486E-06-2.49108E-05
 -1     22993 8.41531E-02 4.72977E-02-5.29078E-06 1.94367E-01 2.91280E-05-2.27474E-05
 -1     22994 8.31477E-02 4.83461E-02-5.36488E-06 1.94379E-01 3.06932E-05-1.56730E-05
 -1     22995 8.53803E-02 3.53252E-02 1.79350E-05 1.79269E-01-3.55522E-05-7.51880E-05
 -1     22996 7.50574E-02 4.55921E-02 3.48062E-05 1.79535E-01 3.40768E-05-3.93923E-05
 -1     22997 9.24594E-02 3.40499E-02-1.83161E-05 1.86459E-01 9.72609E-07-2.80076E-05
 -1     22998 9.20558E-02 3.59161E-02-3.64074E-06 1.88747E-01 3.76966E-05 2.71581E-05
 -1     22999 9.54439E-02 1.60315E-02 1.16135E-05 1.64376E-01 1.05321E-07-6.72546E-05
 -1     23000 9.39897E-02 1.64386E-02-1.01300E-06 1.61268E-01 1.85062E-05-2.53154E-06
 -1     23001 9.47688E-02 1.84634E-02-1.12918E-05 1.65643E-01-4.82540E-05-3.58440E-05
 -1     23002 9.02331E-02 9.65693E-03-1.02423E-04 1.44232E-01-1.32286E-05-2.37208E-06
 -1     23003 9.17619E-02 1.11509E-02-1.00281E-04 1.49074E-01 1.35875E-05 1.12374E-04
 -1     23004 8.22811E-02 6.21911E-03 8.80315E-06 1.26503E-01 4.16084E-05 1.60684E-05
 -1     23005 8.48185E-02 6.79515E-03 5.13446E-05 1.31278E-01 1.01214E-04-6.70271E-05
 -1     23006 7.13730E-02 7.03483E-03-2.95163E-05 1.10871E-01 3.60079E-05-2.46091E-05
 -1     23007 7.41831E-02 6.89350E-03-2.47013E-05 1.15119E-01-3.30733E-05-1.94512E-05
 -1     23008 6.09691E-02-2.28661E-02 6.25799E-05 4.51348E-02-5.53515E-05-3.62355E-05
 -1     23009 6.85863E-02-2.75939E-02 8.63931E-06 5.23733E-02 2.81159E-05 1.42258E-05
 -1     23010 5.36139E-02-2.24700E-02-1.01009E-06 4.08306E-02-8.25521E-08-5.87674E-05
 -1     23011 6.04986E-02 8.96409E-03 1.40050E-05 9.77484E-02 2.37986E-05 6.47182E-05
 -1     23012 6.30145E-02 8.57701E-03-7.54467E-06 1.00864E-01 7.16169E-06-6.47281E-05
 -1     23013 5.82331E-02 9.59102E-03-1.27059E-04 9.52948E-02 1.23479E-05-4.70536E-05
 -1     23014 7.89034E-02-6.37113E-03 6.26637E-06 9.15214E-02 1.93538E-05 1.07899E-05
 -1     23015 7.73670E-02-5.13023E-03 4.15269E-05 9.29672E-02-1.68378E-05 1.74059E-05
 -1     23016 8.18357E-02-8.01188E-03-9.82996E-06 9.00299E-02-2.68808E-05 1.43183E-05
 -1     23017 2.56815E-02-1.96005E-02 6.02868E-06 2.88380E-02-9.26448E-05-5.57633E-06
 -1     23018 3.44949E-02-2.38840E-02-1.37488E-05 3.72690E-02-7.89689E-06 1.97437E-05
 -1     23019 1.44969E-02-1.80882E-02-7.02669E-05 2.50574E-02-1.53298E-04-1.21285E-05
 -1     23020-2.48857E-01 1.07150E-01-4.11766E-05-8.64679E-02 1.68346E-04 8.29200E-04
 -1     23021-2.38577E-01 1.03694E-01 6.00584E-05-6.14845E-02-1.82781E-04-5.49679E-04
 -1     23022-2.37382E-01 1.02280E-01-6.39222E-05-8.91030E-02 8.82849E-05-1.09183E-04
 -1     23023 8.85678E-02 3.08639E-02 2.54473E-05 1.77081E-01 1.17987E-06-4.37829E-05
 -1     23024 5.36308E-02-2.65617E-02-1.93334E-05 4.48065E-02-5.47147E-05 1.06669E-05
 -1     23025-2.51885E-01 1.03106E-01 1.06214E-04-2.86977E-02 3.36170E-04-9.02971E-04
 -1     23026-2.57003E-02-1.12877E-02 1.31815E-04 1.58714E-02-4.79479E-05 1.01657E-05
 -1     23027-1.61690E-02-1.39106E-02 1.39591E-05 2.48285E-02 7.80107E-05-6.18118E-05
 -1     23028-4.12312E-02-8.65585E-03 5.59005E-05 1.35802E-02-1.49300E-04 3.36746E-05
 -1     23029 6.97897E-02 3.00583E-03-2.25678E-05 1.00851E-01 3.37676E-05-3.91554E-05
 -1     23030 1.16092E-02-2.00459E-02-2.91089E-05 3.05201E-02 1.64755E-05-3.94036E-07
 -1     23031-4.93547E-02-4.88753E-03 6.48662E-07 2.03873E-02 5.88065E-06 9.09683E-05
 -1     23032-1.23169E-01 1.26718E-02 3.98801E-04 1.02727E-02-5.98369E-05 2.02707E-04
 -1     23033-1.00087E-01 7.40877E-03 2.98045E-04 9.69193E-03 2.76561E-04-2.87837E-04
 -1     23034-2.20545E-01 9.56048E-02 1.96509E-05-7.34573E-02 1.19855E-05-1.83026E-04
 -1     23035-2.10353E-01 8.85310E-02 7.22004E-05-9.34601E-02-5.90263E-05 4.51727E-05
 -1     23036-2.15434E-01 9.09617E-02 5.18695E-06-9.34413E-02-8.50934E-05-3.54578E-05
 -1     23037-1.92933E-01 8.02551E-02-3.84210E-05-9.25504E-02 1.19607E-05 2.68999E-05
 -1     23038-1.80790E-01 7.63008E-02-7.80026E-07-8.18398E-02 1.21602E-05 1.05302E-05
 -1     23039-1.90771E-01 7.93488E-02-8.86758E-06-9.19989E-02-1.81165E-05-4.63609E-06
 -1     23040-1.67188E-01 7.16715E-02-1.13031E-05-7.62726E-02-6.44400E-06 1.17827E-05
 -1     23041-1.95273E-01 8.32547E-02 2.04734E-05-8.11800E-02-2.97033E-06-2.39252E-06
 -1     23042-1.64242E-01 7.30295E-02-1.99436E-05-6.91200E-02 8.30057E-06-2.09684E-05
 -1     23043-1.50822E-01 6.97476E-02-2.28485E-05-5.70658E-02 1.25008E-05-1.07771E-05
 -1     23044-1.61315E-01 7.24292E-02-3.32492E-05-6.61439E-02-2.31158E-05-6.65959E-05
 -1     23045-1.71374E-01 7.41759E-02 1.14266E-05-7.74525E-02 4.66808E-06-1.11721E-05
 -1     23046-1.73420E-01 7.45335E-02-3.05337E-05-7.95832E-02 3.43732E-05-6.58982E-06
 -1     23047-1.45707E-01 6.93421E-02-2.62146E-05-5.00543E-02 3.89249E-05 3.35593E-05
 -1     23048-1.59512E-01 7.04782E-02-3.08047E-05-6.85028E-02 2.24373E-05-8.36643E-06
 -1     23049-1.48274E-01 6.95430E-02-1.23647E-05-5.20151E-02 3.89769E-05 7.42107E-05
 -1     23050-1.52063E-01 7.05813E-02-1.74787E-05-5.55952E-02 7.00062E-05 8.27232E-05
 -1     23051-1.27977E-01 6.33884E-02 9.83590E-05-3.37926E-02-1.45304E-05 2.17088E-05
 -1     23052-1.34135E-01 6.55108E-02 1.01649E-05-3.87007E-02 4.25346E-05-3.74978E-06
 -1     23053-1.24892E-01 6.52332E-02 3.77255E-06-2.47898E-02 1.41218E-05 1.90858E-06
 -1     23054-1.12542E-01 6.18400E-02 4.99294E-05-1.20773E-02 3.92234E-05-3.68878E-05
 -1     23055-9.38726E-02 5.25249E-02-7.97275E-05-5.52500E-03-8.72621E-05-8.48059E-05
 -1     23056-1.03293E-01 5.58745E-02-3.53675E-05-1.20520E-02-1.03175E-04-1.06668E-04
 -1     23057-9.68297E-02 5.77024E-02 9.91851E-07 4.72442E-03 4.96635E-05 7.04467E-05
 -1     23058-7.78490E-02 5.37273E-02-3.43020E-05 2.51724E-02 3.21034E-05 2.38125E-05
 -1     23059-1.75693E-01 7.42504E-02-1.38469E-05-8.08005E-02-3.38024E-05 5.19572E-05
 -1     23060-5.97884E-02 1.11674E-01-2.83295E-04 1.41183E-01-1.42923E-04-3.59865E-04
 -1     23061-6.13461E-02 1.09971E-01 1.23814E-04 1.34223E-01 2.85399E-04 9.91075E-05
 -1     23062-5.30658E-02 1.10752E-01-5.18538E-05 1.46775E-01-3.57962E-04 1.37104E-04
 -1     23063 5.61232E-03 8.31853E-02 1.13605E-04 1.48776E-01 2.61504E-04-8.48848E-05
 -1     23064-7.37842E-03 8.90847E-02-1.33640E-05 1.42235E-01-4.50738E-05 2.49685E-04
 -1     23065 7.55353E-02 1.11896E-03-3.88276E-06 1.07116E-01-5.22352E-06-7.82769E-06
 -1     23066 8.50309E-02-1.11039E-02-1.15798E-05 9.03764E-02-5.12451E-05-6.95788E-06
 -1     23067 9.66836E-02 1.09723E-02 1.57605E-05 1.58167E-01-8.87764E-06-3.69051E-05
 -1     23068-3.19574E-02 1.02296E-01-2.78288E-06 1.42139E-01 4.18508E-07 1.50028E-04
 -1     23069-5.65588E-02 9.17110E-02 8.63730E-06 1.19394E-01-2.90275E-04-1.36051E-04
 -1     23070-1.40143E-01 6.86850E-02-2.15267E-05-4.24545E-02 2.41762E-05-5.95309E-05
 -1     23071-6.05985E-03 8.78295E-02 2.76786E-05 1.42467E-01 1.91615E-05-1.83674E-05
 -1     23072-2.06415E-01 8.90478E-02-8.19839E-05-7.88563E-02-1.50703E-04 1.56537E-04
 -1     23073-8.94701E-02 7.76583E-03 2.85415E-05 1.73948E-02 3.14454E-04-1.87733E-04
 -1     23074 8.14903E-02-6.33780E-04-5.05800E-06 1.13638E-01-1.51894E-05-3.18372E-05
 -1     23075 9.12518E-02-1.36756E-03-8.91113E-06 1.28167E-01 9.01244E-05-7.03738E-05
 -1     23076 9.64573E-02 2.63505E-03-1.21928E-05 1.43658E-01 4.57052E-05-5.72473E-06
 -1     23077 8.71187E-02-1.67484E-03 5.48377E-06 1.20663E-01 8.67867E-06-1.15804E-06
 -1     23078 7.85845E-02 4.27781E-02-1.25660E-05 1.80243E-01-6.46247E-05-9.52573E-05
 -1     23079 9.43802E-02 1.57498E-04-1.51132E-05 1.35992E-01-6.62119E-05 3.15991E-05
 -1     23080 9.11832E-02 2.61798E-02 2.50799E-05 1.73998E-01-2.05534E-05-7.63018E-05
 -1     23081 9.70495E-02 6.60286E-03-2.67669E-05 1.51276E-01-4.13479E-05-8.40952E-05
 -1     23082 6.46530E-02 4.52640E-03-6.22077E-05 9.58897E-02-1.50734E-05-8.20044E-06
 -1     23083-1.43488E-01 3.13440E-02 2.32886E-04 1.53832E-02 3.64941E-04-2.62247E-04
 -1     23084-1.55385E-01 7.01259E-02-2.15523E-05-6.32534E-02 1.20659E-06 9.60929E-06
 -1     23085-1.33552E-01 6.74267E-02-8.52984E-06-3.42808E-02 1.55917E-05 2.72342E-05
 -1     23086-5.95264E-02 1.07016E-01 3.37974E-05 1.41091E-01-6.95632E-04-2.72368E-04
 -1     23087 6.80977E-02 4.20213E-02-5.73640E-08 1.65879E-01-1.16267E-05 3.50534E-05
 -1     23088 6.59819E-02 4.35337E-02 2.34238E-05 1.65179E-01 2.63108E-05 3.34588E-05
 -1     23089 9.66886E-02-7.29083E-03 1.02135E-04 1.28090E-01-1.36436E-04-8.65232E-06
 -1     23090 9.77762E-02-6.15713E-03 8.47017E-05 1.32010E-01-1.97691E-04-4.01273E-05
 -1     23091 8.10276E-02 2.96904E-02 7.67355E-06 1.66714E-01-4.97460E-05-8.36878E-05
 -1     23092 7.93935E-02 3.19346E-02-1.50594E-05 1.67543E-01-3.62278E-06 5.86244E-07
 -1     23093 9.82378E-02-1.63985E-03-1.61226E-05 1.41740E-01 2.06024E-05-3.69034E-05
 -1     23094 9.82571E-02 3.88949E-04-2.71683E-05 1.45386E-01 4.78332E-05 1.75974E-05
 -1     23095 9.50241E-02 8.16423E-03-9.05098E-05 1.53811E-01-5.39759E-05-2.17748E-04
 -1     23096 9.41177E-02 1.08185E-02-1.05445E-04 1.56652E-01 2.55885E-05-9.74378E-05
 -1     23097-5.91851E-02 6.49351E-02-2.10945E-05 7.06053E-02 1.67226E-04 2.20473E-05
 -1     23098 7.02966E-02 7.66640E-04-4.05672E-05 9.60001E-02-1.32864E-05 2.64245E-05
 -1     23099 8.98754E-02-7.59279E-03-1.24787E-06 1.14230E-01-8.80129E-06-1.00033E-05
 -1     23100 9.22657E-02-8.17531E-03-9.46155E-06 1.17852E-01-7.14790E-05-7.94457E-05
 -1     23101 8.87968E-02 1.93242E-02-4.70821E-05 1.62436E-01-6.26522E-05-2.19386E-04
 -1     23102 8.73542E-02 2.19593E-02-6.06064E-05 1.64214E-01 2.71438E-05-9.84415E-05
 -1     23103 9.84739E-02-5.18216E-03-2.25457E-06 1.35119E-01-4.23159E-05-8.46025E-05
 -1     23104 9.86495E-02-3.49448E-03 6.70628E-06 1.39009E-01 9.79519E-06-1.13948E-05
 -1     23105 1.00319E-01-9.69628E-03-5.97981E-07 1.33174E-01 6.34566E-06-1.65315E-05
 -1     23106 1.00506E-01-1.26184E-02 3.58421E-05 1.27268E-01-1.00925E-04-1.13242E-04
 -1     23107 9.39544E-02-8.11400E-03-1.00260E-04 1.21055E-01 3.87907E-07-2.25757E-04
 -1     23108 9.58127E-02-7.79796E-03-7.86232E-05 1.24895E-01-3.21436E-05-1.09941E-04
 -1     23109 9.69506E-02-1.44639E-02-4.45846E-05 1.14688E-01-7.44294E-05-8.75484E-05
 -1     23110 8.77454E-02-1.34216E-02-2.08276E-06 9.18597E-02-3.86358E-06 2.74758E-06
 -1     23111 8.43443E-02-1.06210E-02-6.86192E-06 9.33212E-02-2.59291E-05-8.87870E-06
 -1     23112 6.88747E-02-3.15133E-02 8.14635E-06 5.55841E-02 1.45769E-05-1.54687E-05
 -1     23113 7.53391E-02-3.15926E-02 1.82959E-05 5.91692E-02-7.44081E-05-2.52525E-05
 -1     23114-1.55646E-01 4.42080E-02 6.74979E-05 1.13193E-02-1.18750E-04 2.05766E-04
 -1     23115-1.27260E-01 2.90610E-02 6.13736E-05 1.47455E-02 6.81365E-05-1.72079E-06
 -1     23116 9.71562E-02 2.87140E-03 3.37634E-05 1.47982E-01 1.65422E-05 9.07837E-05
 -1     23117 9.66824E-02 5.17025E-03 3.37211E-05 1.51229E-01-5.38293E-05-7.24251E-05
 -1     23118 9.56343E-02 2.63096E-04-4.27144E-05 1.43984E-01-1.12129E-04-1.73059E-04
 -1     23119 9.87336E-02-5.38790E-03 6.54035E-06 1.38742E-01 1.58580E-05 4.87782E-05
 -1     23120-5.80885E-02-7.93788E-04 3.22993E-05 2.39603E-02 4.98113E-05 9.94466E-06
 -1     23121-3.97822E-02-6.19288E-03 1.56122E-05 2.58993E-02 3.27785E-05-1.42356E-05
 -1     23122 8.01856E-02-6.71351E-03 7.67452E-07 9.47964E-02-6.63781E-05-1.02334E-05
 -1     23123 7.56791E-02-3.62866E-03 7.07363E-06 9.55184E-02-8.38122E-05-4.87798E-06
 -1     23124 7.28435E-02-4.32386E-04-5.28476E-05 9.79312E-02 4.16744E-05 8.26965E-05
 -1     23125 8.28064E-02-8.71623E-03-6.04178E-06 9.62235E-02-2.60423E-05-5.64848E-06
 -1     23126 3.20461E-02-2.59992E-02-1.45051E-05 4.11029E-02 1.30384E-05-5.34411E-06
 -1     23127 4.26544E-02-2.76529E-02-5.80578E-06 4.43925E-02 1.37217E-05 6.07791E-06
 -1     23128-1.00864E-01 1.58962E-02 4.82739E-05 1.96270E-02 3.30222E-05-2.77491E-05
 -1     23129-7.84014E-02 7.95198E-03 4.41097E-05 2.02992E-02 4.66513E-05-1.33630E-05
 -1     23130-6.84873E-02 6.41200E-03 1.55745E-05 2.62224E-02 1.17035E-05 1.84997E-05
 -1     23131-1.14298E-01 2.73459E-02-3.33854E-05 1.80420E-02-4.33002E-05-7.09840E-05
 -1     23132 8.08689E-02-3.14909E-02 2.58596E-05 6.28259E-02 1.73099E-06 5.67010E-05
 -1     23133 8.55120E-02-3.11582E-02 6.73109E-05 6.64383E-02-1.39276E-04 1.38605E-05
 -1     23134 8.12386E-02-3.43190E-02 4.16053E-05 6.58093E-02 3.30754E-05-8.98473E-06
 -1     23135-1.25398E-01 6.71829E-02-1.91213E-05-2.56052E-02-9.88158E-06-6.15016E-05
 -1     23136-1.28341E-01 6.75111E-02-6.28453E-06-2.96470E-02-5.61646E-05-6.59566E-07
 -1     23137-2.13089E-01 9.15335E-02 2.14262E-05-4.97691E-02 9.62931E-05 6.52830E-05
 -1     23138-2.21477E-01 9.36433E-02-3.57995E-04-3.95289E-02 2.20474E-04 1.87517E-04
 -1     23139 7.56914E-02-1.65781E-03 3.74511E-06 1.00517E-01 5.98054E-05 5.98092E-05
 -1     23140-1.40192E-01 6.70877E-02-1.16129E-06-4.90697E-02 1.45877E-05-2.45441E-05
 -1     23141-1.42291E-01 6.70616E-02 7.09519E-06-5.19909E-02 9.23244E-05 5.44421E-05
 -1     23142 8.50582E-02 2.46518E-02 5.84655E-05 1.65108E-01-9.12230E-05-9.90881E-05
 -1     23143 8.34195E-02 2.71804E-02 2.02010E-05 1.66426E-01-4.91475E-05-8.26363E-05
 -1     23144 7.77914E-02 2.38649E-02-2.88468E-07 1.54971E-01-1.65376E-05-5.08100E-05
 -1     23145 8.26947E-02 1.83602E-02-1.36963E-05 1.53886E-01 1.92260E-05-3.49705E-05
 -1     23146-2.21151E-01 8.44891E-02-7.57110E-05-1.31911E-02 2.41850E-04-1.07774E-04
 -1     23147-1.86786E-01 6.00241E-02 4.29434E-05 1.18691E-03-1.93114E-04 3.21547E-04
 -1     23148-1.67362E-01 5.58543E-02 2.84093E-05 2.60347E-03 7.24920E-05-2.19710E-04
 -1     23149-2.21370E-01 8.97113E-02-2.95465E-04-2.85456E-02 1.53218E-04 4.69807E-04
 -1     23150-1.65854E-01 7.11218E-02-3.59114E-05-7.03148E-02-2.84534E-05 2.51281E-05
 -1     23151-1.68805E-01 7.22233E-02-1.47735E-05-7.06074E-02 9.65032E-06-4.28367E-06
 -1     23152-1.56188E-01 6.81535E-02 8.66255E-06-6.70942E-02 7.14855E-06 2.64085E-06
 -1     23153-1.58335E-01 6.86864E-02 7.50404E-06-6.81958E-02 4.58230E-05 2.27370E-05
 -1     23154-1.44146E-01 6.68791E-02-1.41901E-05-5.50004E-02 2.60864E-05-6.65651E-06
 -1     23155-1.46096E-01 6.69878E-02-2.44137E-05-5.73869E-02-1.63379E-05-1.78450E-05
 -1     23156-1.29341E-01 6.36714E-02 2.13578E-05-4.10769E-02 7.87568E-05 8.52155E-05
 -1     23157-1.48107E-01 6.70780E-02-3.36406E-06-5.98853E-02-3.43561E-05-3.80358E-05
 -1     23158-1.49952E-01 6.72297E-02 1.76425E-07-6.18666E-02 1.60668E-05 6.20878E-06
 -1     23159-1.32946E-01 6.32646E-02-4.76991E-06-4.65953E-02-1.89716E-05-1.81753E-05
 -1     23160-5.86553E-02 9.18479E-02-3.88309E-05 1.21264E-01-1.72066E-04-1.64224E-04
 -1     23161-5.72567E-02 8.03393E-02 1.74801E-05 1.04238E-01 4.64248E-05 5.43540E-05
 -1     23162 5.25444E-02-2.95903E-02-3.00616E-06 4.81769E-02 2.05273E-05-1.18971E-05
 -1     23163 6.10704E-02-3.04629E-02-1.76398E-06 5.16771E-02-1.21088E-05-7.83525E-06
 -1     23164 6.79567E-02-3.35779E-02-1.40221E-06 5.87900E-02 1.83978E-05-5.74011E-07
 -1     23165 5.02080E-02-3.07349E-02-3.14542E-06 5.16995E-02 7.70953E-06 1.43948E-07
 -1     23166-1.52042E-01 6.74264E-02-6.96717E-06-6.39458E-02 1.02699E-05 1.97581E-05
 -1     23167-1.53964E-01 6.77398E-02-2.29039E-05-6.54892E-02 1.77845E-05 2.65554E-05
 -1     23168-1.41084E-01 6.36987E-02-7.44160E-07-5.49231E-02-1.24236E-06 2.74965E-06
 -1     23169-1.36901E-01 6.33125E-02-1.25527E-06-5.12576E-02 4.92457E-06 1.46882E-06
 -1     23170-1.30715E-01 6.73304E-02 5.14345E-06-3.39900E-02-2.46226E-05 9.70488E-07
 -1     23171-1.33203E-01 6.74251E-02-7.68077E-06-3.77134E-02 4.68252E-05 4.72554E-05
 -1     23172-1.16585E-01 6.55670E-02 8.22779E-06-1.75476E-02-3.21318E-05 1.53756E-05
 -1     23173-1.60760E-01 6.93798E-02-9.66563E-06-6.92744E-02-2.13046E-05 4.18922E-05
 -1     23174-1.63150E-01 7.01232E-02-3.19236E-05-6.99051E-02 2.01569E-06-2.04518E-05
 -1     23175-1.50756E-01 6.60264E-02-1.16264E-05-5.88030E-02-7.81723E-06 1.08520E-05
 -1     23176-1.45698E-01 6.46459E-02 2.91882E-06-5.74853E-02 2.33907E-05 1.62788E-05
 -1     23177 1.93350E-02 6.86228E-02-1.58375E-04 1.43559E-01-1.34843E-04-2.88701E-04
 -1     23178 1.23689E-02 7.17808E-02-6.41013E-05 1.40625E-01 2.52562E-06 6.33351E-05
 -1     23179 9.21714E-02 1.37581E-02 6.38013E-05 1.58545E-01-9.96496E-05-8.32208E-05
 -1     23180 9.09443E-02 1.63463E-02 6.27309E-05 1.60947E-01-1.12340E-04-1.69642E-04
 -1     23181 9.17889E-02 6.30837E-03-3.83217E-05 1.48402E-01-1.73439E-05-2.30311E-05
 -1     23182-4.66533E-02 1.06478E-01-4.53055E-05 1.39907E-01 2.28768E-06-1.01344E-04
 -1     23183-5.48891E-02 1.06768E-01 3.05013E-05 1.40630E-01 3.60973E-04 4.61510E-04
 -1     23184-1.88885E-01 8.13476E-02-4.27900E-05-6.59075E-02-2.82078E-05 6.87131E-06
 -1     23185-1.95162E-01 8.40389E-02-1.35645E-05-6.38521E-02 1.97613E-05-1.18672E-04
 -1     23186 7.69987E-02 3.42478E-02 5.50172E-06 1.67488E-01-1.86877E-06 6.81920E-05
 -1     23187 7.52206E-02 3.61346E-02 8.62813E-06 1.67644E-01 3.30812E-05 1.79268E-05
 -1     23188 7.28289E-02 2.90936E-02-3.35917E-06 1.55205E-01-1.77598E-05 1.44064E-05
 -1     23189 7.81467E-02-2.58977E-03 3.30215E-06 1.02976E-01 1.09292E-05 5.27299E-06
 -1     23190 8.12515E-02-3.68521E-03-2.54385E-06 1.06287E-01 8.86675E-06-2.00734E-06
 -1     23191 8.11082E-02-6.50349E-03 4.12948E-06 9.97094E-02-7.53283E-06 4.51454E-06
 -1     23192 4.86600E-03 7.60484E-02 1.82594E-05 1.39051E-01 5.59057E-05 1.28041E-04
 -1     23193-4.02973E-03 8.04674E-02-3.09824E-05 1.36362E-01 1.10590E-04-1.29383E-04
 -1     23194-4.70948E-03 7.57017E-02 4.14355E-05 1.28588E-01 6.66368E-05-1.34263E-05
 -1     23195-1.71934E-01 7.36122E-02-2.40022E-05-7.02442E-02 1.71847E-05-1.45870E-05
 -1     23196-1.75711E-01 7.51400E-02 4.58495E-07-6.98304E-02 9.70880E-06-1.13319E-05
 -1     23197-1.56597E-01 6.80932E-02 4.33425E-07-5.86122E-02 5.49739E-06 2.09483E-05
 -1     23198-1.24435E-02 8.60654E-02-3.61072E-06 1.36612E-01-3.56458E-05-8.55506E-05
 -1     23199-2.48341E-02 9.23376E-02 3.38091E-05 1.35429E-01-1.90578E-04 7.92353E-05
 -1     23200-2.15627E-02 8.53376E-02 1.45287E-05 1.27788E-01-3.95789E-05-9.89062E-05
 -1     23201-2.25922E-02-1.24828E-02 2.24059E-05 2.91355E-02 4.66026E-05-5.16290E-05
 -1     23202-7.35463E-03-1.60299E-02 7.49858E-06 3.14146E-02 3.65075E-05-2.29213E-05
 -1     23203-3.07847E-02-7.91425E-03 9.86012E-06 3.25479E-02 1.04408E-05-1.25130E-05
 -1     23204-1.79368E-01 7.69386E-02-3.34498E-07-6.87192E-02 6.11602E-06-2.47431E-05
 -1     23205-1.84228E-01 7.90507E-02-9.78247E-06-6.78695E-02 1.57003E-05-7.17259E-06
 -1     23206-1.63548E-01 7.08525E-02 3.65483E-07-5.68272E-02 1.46380E-07 2.46182E-06
 -1     23207 7.15776E-03-2.06040E-02 6.48806E-06 3.47301E-02 4.34725E-05-2.68005E-05
 -1     23208 1.99393E-02-2.29957E-02-1.09278E-05 3.74982E-02-1.99156E-06-1.09138E-05
 -1     23209 2.80336E-02-2.58361E-02-5.09406E-06 4.49377E-02 9.68959E-06-1.04378E-06
 -1     23210 1.16806E-03-1.84427E-02 5.52289E-06 3.86008E-02 1.30162E-05-1.71333E-05
 -1     23211-3.36702E-02 9.87823E-02 4.34972E-05 1.38820E-01-8.55508E-05 5.49320E-05
 -1     23212 9.93989E-02-1.42143E-02 1.07863E-05 1.20996E-01-7.13144E-05-6.80962E-06
 -1     23213 6.32370E-02 4.53168E-02-6.36199E-05 1.64039E-01 2.41021E-05-7.70598E-05
 -1     23214 6.09939E-02 4.67875E-02-5.37470E-05 1.63032E-01 7.01757E-05-1.15635E-05
 -1     23215 5.63423E-02 4.21845E-02-1.54055E-05 1.50755E-01-3.29371E-05-7.67550E-05
 -1     23216 9.38243E-02-2.76709E-02-3.03850E-05 7.68032E-02 1.49024E-04 9.81551E-05
 -1     23217 9.48411E-02-2.63292E-02 4.33338E-05 7.99342E-02 1.83568E-04 1.38519E-04
 -1     23218 5.80560E-02 4.84364E-02 2.35337E-05 1.61486E-01-4.42408E-05-4.12400E-05
 -1     23219 5.56454E-02 4.98001E-02 1.04738E-05 1.60225E-01 7.03636E-06-2.99026E-05
 -1     23220 5.04812E-02 4.57988E-02-6.40838E-06 1.47989E-01 2.55963E-05-8.01818E-06
 -1     23221-1.72236E-01 7.46162E-02-3.03921E-05-5.32735E-02 1.51048E-05 7.16806E-07
 -1     23222 2.55263E-02 6.52237E-02 6.04400E-05 1.45735E-01-9.92912E-05-3.07598E-06
 -1     23223 9.54900E-03 6.84098E-02-7.57360E-05 1.31933E-01-7.31525E-05-1.20502E-04
 -1     23224 3.07070E-02 6.29297E-02 1.11571E-05 1.48310E-01-1.14994E-05-6.97010E-05
 -1     23225-5.32659E-02 9.91912E-02-7.27049E-06 1.31736E-01 1.48451E-04 2.03927E-04
 -1     23226-5.76219E-02 1.02653E-01 2.25858E-04 1.35816E-01 1.67879E-04-9.33859E-05
 -1     23227-6.05702E-02 7.13836E-02-2.06717E-06 8.45381E-02 1.40175E-04 8.37008E-05
 -1     23228-6.65324E-02 5.95852E-02-7.86062E-06 5.29052E-02 3.91197E-05 5.57027E-05
 -1     23229 8.73928E-02 1.23803E-02-7.43170E-06 1.51461E-01-1.18785E-04-1.87449E-04
 -1     23230 7.26865E-02 3.83170E-02 3.48844E-06 1.67156E-01-1.10650E-05-2.08667E-05
 -1     23231 7.07115E-02 4.01744E-02-1.66042E-06 1.66962E-01-1.54562E-05 5.10903E-06
 -1     23232 9.07552E-02-1.67225E-02 1.67752E-06 9.01103E-02-2.04170E-05-1.25791E-05
 -1     23233 9.03692E-02-1.57452E-02-6.06415E-07 9.33773E-02-2.98663E-05 2.45498E-07
 -1     23234 9.28659E-02-1.93264E-02 1.04698E-05 8.80517E-02-3.12557E-06-1.59440E-05
 -1     23235-2.09269E-01 9.03452E-02-7.14163E-05-5.67363E-02 6.42134E-05 5.42542E-05
 -1     23236-1.93360E-01 8.15231E-02 6.07204E-05-3.69979E-02 3.00797E-06-4.42449E-04
 -1     23237-2.00661E-01 8.68419E-02-3.77731E-04-6.06348E-02-1.67357E-04 5.76173E-04
 -1     23238-1.23180E-01 6.72160E-02-1.56648E-05-2.14866E-02 3.38148E-05 3.89551E-05
 -1     23239-1.12339E-01 6.61988E-02-4.24251E-06-8.76595E-03 3.73566E-07-1.52653E-05
 -1     23240-1.19860E-01 6.66371E-02-4.08382E-06-1.70872E-02 2.32643E-05 1.63881E-05
 -1     23241 5.24359E-02 5.15756E-02-1.74440E-06 1.58598E-01 9.32247E-07-6.81981E-05
 -1     23242 4.96992E-02 5.29879E-02-1.34086E-05 1.57110E-01 2.53323E-05 1.87203E-05
 -1     23243 4.41493E-02 4.94622E-02-7.66896E-06 1.44849E-01 1.55826E-06-1.50930E-05
 -1     23244 8.41476E-02-5.24654E-03-3.30803E-06 1.08694E-01 5.28067E-07-1.89571E-06
 -1     23245 8.71201E-02-6.08872E-03-4.78784E-06 1.12102E-01 9.07198E-06 2.60930E-06
 -1     23246 4.63786E-02 5.48184E-02-1.58252E-05 1.55567E-01-1.47102E-05-6.65442E-05
 -1     23247 4.31585E-02 5.63894E-02-2.32773E-05 1.53890E-01 2.05501E-05-1.62528E-05
 -1     23248 3.73788E-02 5.32420E-02-1.79792E-05 1.41792E-01 1.11958E-05-1.47006E-06
 -1     23249 9.52215E-02-2.42590E-02 3.35120E-05 8.30145E-02-1.37620E-06 8.20101E-06
 -1     23250 9.47394E-02-2.22612E-02 5.90369E-06 8.57347E-02 1.13184E-05-1.46222E-05
 -1     23251 9.55138E-02-2.20845E-02 2.59304E-06 8.98186E-02-7.56002E-05-5.96230E-05
 -1     23252 9.78466E-02-2.74517E-02-2.36559E-05 8.52505E-02-3.51081E-05-3.43578E-06
 -1     23253-1.97636E-01 7.81558E-02-1.18585E-04-2.00651E-02 2.27274E-04-2.36592E-04
 -1     23254-3.93536E-02 9.63644E-02 3.38705E-06 1.32007E-01-5.85071E-05-8.36139E-05
 -1     23255-1.37961E-01 6.72188E-02-4.73158E-05-4.53464E-02-1.43365E-05 1.40403E-05
 -1     23256-1.25316E-01 6.41850E-02 8.28560E-06-3.42708E-02-1.51435E-05-2.53184E-05
 -1     23257-1.35569E-01 6.71463E-02-9.64296E-06-4.19325E-02 1.38390E-05 3.25475E-06
 -1     23258-5.96353E-02 9.85315E-02 4.47918E-05 1.29856E-01-6.93852E-05 4.15046E-05
 -1     23259-5.92423E-02 8.95374E-02 8.53005E-07 1.16823E-01-2.54650E-05-6.76642E-05
 -1     23260-9.97459E-02 6.27994E-02-1.00126E-05 8.33608E-03-1.23262E-05-1.97555E-05
 -1     23261-1.06669E-01 6.42952E-02-4.31225E-06 5.31942E-04-1.46432E-05 3.64190E-06
 -1     23262-1.12121E-01 6.50738E-02-7.86489E-06-7.09977E-03-2.30371E-05-1.31975E-06
 -1     23263-1.17026E-01 6.62615E-02-1.06885E-05-1.27104E-02-1.11113E-06 7.59456E-06
 -1     23264-1.07788E-01 6.61766E-02 3.32059E-05 3.17835E-05-2.34875E-05-5.38573E-05
 -1     23265-1.00037E-01 6.55885E-02-1.53387E-06 1.23378E-02-2.17055E-05 2.30281E-05
 -1     23266 6.21123E-02 3.81800E-02-7.29260E-06 1.53084E-01-9.93847E-06-7.94726E-06
 -1     23267-1.82529E-01 7.86914E-02-1.59514E-04-4.70405E-02-1.28639E-04 2.91248E-04
 -1     23268 6.75800E-02 3.38696E-02-5.48822E-07 1.54696E-01 1.71373E-05-2.19400E-07
 -1     23269 8.91183E-02-3.01884E-02-2.08453E-05 6.98177E-02-6.08482E-05 5.37016E-05
 -1     23270 9.20242E-02-2.92180E-02-5.64904E-05 7.33258E-02-7.58606E-05 7.26801E-05
 -1     23271 9.56282E-02-3.08094E-02-7.45797E-05 7.89006E-02-1.79567E-05 1.37543E-04
 -1     23272 9.03209E-02-3.34111E-02-1.63388E-06 7.24599E-02 1.24124E-04 1.15565E-06
 -1     23273-7.64037E-02 6.00931E-02 3.72462E-05 4.05771E-02 7.88045E-05 6.62337E-05
 -1     23274 9.26796E-02-1.27477E-02 6.36401E-06 1.09276E-01 1.03055E-05-1.07187E-05
 -1     23275 8.68575E-02-9.46703E-03 3.03163E-07 1.04554E-01 1.29151E-05-6.27962E-06
 -1     23276-9.21836E-02 6.21417E-02-4.69467E-06 1.96544E-02-1.41042E-05 1.34159E-05
 -1     23277-8.78014E-02 6.48910E-02-7.39730E-06 3.17680E-02-4.49766E-06 4.29432E-05
 -1     23278-8.38584E-02 6.04917E-02-7.51808E-06 2.93118E-02 1.02892E-05-1.78644E-05
 -1     23279-1.21038E-01 6.49563E-02 8.98999E-06-2.63052E-02 7.64232E-06 7.32703E-06
 -1     23280-4.93639E-02 9.58829E-02 4.08001E-05 1.25102E-01 1.47578E-05-7.27949E-06
 -1     23281-5.64911E-02 9.29534E-02-1.14978E-05 1.19622E-01 7.12675E-05 7.41118E-05
 -1     23282 9.38108E-02-1.64888E-02 6.48400E-05 1.03095E-01 3.21095E-05 4.51416E-05
 -1     23283 9.64312E-02-1.81212E-02 2.60690E-05 1.05429E-01 3.05471E-05-7.04710E-05
 -1     23284 8.52129E-02 5.84359E-03 7.99339E-06 1.41565E-01-3.66425E-05-4.49278E-05
 -1     23285 8.27979E-02 9.28294E-03-1.12449E-06 1.43114E-01-4.48774E-05-4.92620E-05
 -1     23286-1.75143E-01 6.51895E-02 5.71114E-05-5.81952E-03-3.72725E-05-4.96903E-05
 -1     23287-1.47756E-01 4.83003E-02-6.26462E-05 6.47182E-03-3.30064E-04 5.23500E-05
 -1     23288-1.76233E-01 6.95151E-02-5.03019E-05-1.50344E-02 2.28588E-05-3.04410E-04
 -1     23289 6.16235E-02 3.00523E-02-4.94472E-07 1.43042E-01-2.99727E-06-5.88606E-06
 -1     23290 5.88352E-02 3.24738E-02 2.33513E-06 1.42416E-01 4.11453E-06 7.18513E-06
 -1     23291-7.39018E-02 6.50944E-02 1.78892E-06 5.52521E-02 6.82311E-05 7.17144E-05
 -1     23292 8.13642E-02-3.66319E-02 6.91697E-06 6.91004E-02 6.47025E-05-5.56758E-05
 -1     23293 8.68535E-02-3.66107E-02 1.87007E-05 7.22183E-02-8.22578E-05-5.85836E-05
 -1     23294 8.55816E-02-1.02907E-02 1.45092E-06 9.85169E-02-4.48173E-06 2.64699E-06
 -1     23295 3.95977E-02 5.84392E-02 5.87425E-06 1.52326E-01 1.11654E-05-2.22060E-05
 -1     23296 3.55354E-02 6.03493E-02 7.68883E-06 1.50238E-01-5.96488E-06 1.42798E-05
 -1     23297 3.01425E-02 5.72949E-02-1.62328E-05 1.38851E-01 9.28842E-05 7.05419E-05
 -1     23298 9.83324E-02-1.90919E-02-2.99997E-05 1.08299E-01-8.60750E-05-2.39218E-05
 -1     23299 9.98446E-02-1.92294E-02-1.02620E-04 1.11619E-01 6.61702E-05 1.35804E-05
 -1     23300 9.94740E-02-2.30071E-02-1.14901E-06 1.02045E-01-5.51416E-06-3.28108E-07
 -1     23301-9.95468E-02 6.65093E-02 9.54878E-06 8.06210E-03-1.84786E-06 3.79827E-05
 -1     23302-1.01519E-01 6.61116E-02 6.94708E-06 3.51933E-03-5.47337E-05-3.89287E-05
 -1     23303-1.14946E-01 6.13048E-02 2.33431E-05-2.70852E-02-4.46330E-05-2.66940E-05
 -1     23304-1.16761E-01 6.09325E-02 2.07662E-06-3.01797E-02-2.97895E-06 1.06446E-05
 -1     23305-1.02781E-01 6.51629E-02 3.88041E-06-1.15793E-03-2.97984E-05 2.76952E-06
 -1     23306-1.04904E-01 6.45516E-02 1.10975E-05-5.73891E-03-7.15950E-06 1.15720E-05
 -1     23307-9.03939E-02 6.50956E-02-1.84740E-06 1.52044E-02-1.74095E-05-2.53598E-06
 -1     23308-1.18441E-01 6.04888E-02-1.21864E-06-3.31415E-02-2.81048E-07 3.06282E-06
 -1     23309-1.20218E-01 6.01681E-02-7.01617E-06-3.57043E-02-1.29676E-05-3.92748E-06
 -1     23310-1.04256E-01 5.77913E-02 1.27495E-06-1.95207E-02-8.53081E-08 1.02421E-05
 -1     23311 5.53629E-02 3.48623E-02 5.91425E-08 1.40905E-01-3.11463E-06 5.24863E-07
 -1     23312 5.24053E-02 3.70592E-02 1.83243E-06 1.39874E-01-2.26821E-07 1.81615E-05
 -1     23313 4.95169E-02 3.14537E-02 1.23025E-06 1.29499E-01 2.36465E-06 1.43707E-05
 -1     23314-4.16637E-02 9.09778E-02 1.49141E-05 1.21597E-01 8.43962E-05 2.12351E-06
 -1     23315-1.53644E-01 6.66398E-02 9.29620E-06-4.16088E-02 5.50098E-06-3.21671E-05
 -1     23316-1.58400E-01 6.84535E-02-2.15100E-05-3.90039E-02 3.29667E-05-9.40329E-05
 -1     23317-1.06887E-01 6.37599E-02 1.25211E-05-1.07086E-02-7.76956E-06-1.04785E-05
 -1     23318-1.09013E-01 6.31908E-02 7.87465E-06-1.50361E-02-2.09065E-06-9.38438E-06
 -1     23319-9.33969E-02 6.28600E-02 1.29149E-05 5.36979E-03-8.40527E-06 1.16046E-05
 -1     23320-1.62075E-01 6.94495E-02-7.42755E-05-3.61470E-02 1.12198E-04-4.28964E-05
 -1     23321-1.67989E-01 7.13814E-02 7.34691E-05-3.23221E-02-1.04929E-04 9.14726E-05
 -1     23322-1.43521E-01 6.10925E-02-1.90730E-04-2.47733E-02 1.87751E-04 2.90389E-05
 -1     23323 1.01183E-01-1.97943E-02-5.08950E-05 1.14204E-01 9.80149E-05 4.03934E-05
 -1     23324 1.01647E-01-1.95173E-02 5.47950E-05 1.17056E-01 2.89694E-05 7.67593E-05
 -1     23325 1.02095E-01-2.45055E-02-2.64013E-05 1.07389E-01 7.58917E-05-2.89975E-05
 -1     23326 2.11965E-02 6.22820E-02-5.88754E-06 1.35781E-01-6.96891E-06-1.44073E-05
 -1     23327-1.17828E-02 7.33951E-02 5.44611E-05 1.17480E-01 2.53828E-05 8.81168E-05
 -1     23328-1.96557E-02 7.75977E-02-1.51333E-05 1.16411E-01 3.61995E-05-6.14225E-05
 -1     23329-1.11159E-01 6.24983E-02 9.65702E-06-1.96294E-02 3.15030E-07-6.81116E-06
 -1     23330-1.13194E-01 6.19906E-02 8.44124E-06-2.33795E-02-1.26083E-05-1.92207E-05
 -1     23331-1.01016E-01 5.92302E-02-8.10714E-06-1.27866E-02 1.95090E-05 1.55058E-05
 -1     23332-9.72793E-02 6.09235E-02 1.29421E-06-4.40059E-03 1.25937E-05 1.21447E-05
 -1     23333-1.41009E-01 6.25035E-02 5.76877E-07-4.72354E-02 1.03378E-05 1.06406E-05
 -1     23334-1.44228E-01 6.35172E-02-6.76391E-06-4.66593E-02 1.37820E-05 1.04820E-05
 -1     23335-2.64703E-02 8.18875E-02-7.12234E-05 1.17641E-01 1.25645E-04 6.17608E-05
 -1     23336-3.49466E-02 8.67507E-02-3.78865E-06 1.18421E-01 8.31243E-05 8.25835E-05
 -1     23337-3.33632E-02 7.87633E-02-5.26255E-05 1.06292E-01 7.47072E-05 1.90364E-05
 -1     23338-3.86780E-02-3.24530E-03 7.70928E-06 3.40559E-02 1.25104E-06 6.65351E-07
 -1     23339-2.14829E-02-9.41415E-03 7.22954E-06 3.71011E-02 8.85873E-06-2.07814E-05
 -1     23340-1.46928E-01 6.43364E-02 4.50503E-06-4.53921E-02 1.23585E-05 2.73660E-06
 -1     23341-1.50858E-01 6.57244E-02 1.43057E-05-4.38607E-02-1.54074E-05-9.03377E-06
 -1     23342-1.31141E-01 5.84157E-02 6.60865E-06-3.40705E-02-6.15836E-06 4.79220E-06
 -1     23343 8.92305E-02-1.41404E-02 1.92721E-06 9.68305E-02-1.72605E-07 9.69647E-07
 -1     23344 8.76316E-02-1.15529E-02 4.22278E-06 1.00517E-01 1.56599E-05 1.24156E-05
 -1     23345 9.06925E-02-1.33610E-02 2.62245E-05 1.03007E-01 2.74538E-05 3.45296E-05
 -1     23346 9.27993E-02-1.77808E-02 2.14563E-05 9.53673E-02 4.54324E-06 2.97036E-05
 -1     23347 2.04832E-02 5.59794E-02 7.77619E-07 1.25731E-01-8.30669E-06 1.38343E-05
 -1     23348 1.64914E-02 5.82224E-02 6.08441E-06 1.24501E-01-1.22832E-05 7.37469E-06
 -1     23349 4.73273E-02-3.11356E-02-1.36690E-06 5.47615E-02 1.95985E-05-6.54178E-06
 -1     23350 5.73108E-02-3.30106E-02-1.56791E-06 5.80420E-02 1.06091E-05-5.30404E-06
 -1     23351 4.89189E-02 3.92097E-02 1.29188E-06 1.38180E-01 9.57551E-06 2.02991E-05
 -1     23352 4.58943E-02 4.13170E-02 6.92435E-06 1.36879E-01 1.12925E-05 2.28831E-05
 -1     23353 4.22461E-02 3.63416E-02-1.27706E-06 1.26221E-01 2.71785E-06 7.85187E-06
 -1     23354-1.38458E-01 6.18013E-02 3.86768E-06-4.74723E-02 1.66895E-05-1.99581E-06
 -1     23355-1.25835E-01 5.72871E-02 2.11667E-06-3.57674E-02-5.35417E-07 1.61307E-06
 -1     23356-1.35720E-01 6.11268E-02 3.33159E-06-4.72274E-02 2.80567E-06 1.68091E-06
 -1     23357 8.83139E-02 2.30247E-03 3.00500E-05 1.40447E-01 3.64138E-07 4.54322E-05
 -1     23358 8.38059E-02-1.47131E-04 4.75740E-06 1.32586E-01-8.30261E-06 1.78641E-05
 -1     23359 9.08506E-02-6.09248E-04-5.83683E-05 1.38934E-01-2.55301E-06 3.34530E-05
 -1     23360-6.32513E-02 7.42655E-02-1.03611E-05 8.69165E-02 6.26976E-05 5.58865E-05
 -1     23361-9.02691E-02 6.68947E-02 4.17643E-06 2.79982E-02-1.53241E-05 2.48848E-05
 -1     23362-9.52198E-02 6.71515E-02-1.01223E-05 1.99962E-02-2.38939E-06 2.17784E-05
 -1     23363 7.98396E-02 1.23979E-02-3.88641E-05 1.43456E-01-3.28124E-05 2.44277E-05
 -1     23364 7.69996E-02 1.52490E-02 3.11546E-05 1.43943E-01 2.22583E-05 4.23388E-05
 -1     23365 7.70681E-02 6.70599E-03-5.69151E-06 1.33565E-01 2.65206E-05-1.58256E-06
 -1     23366 9.84220E-02-1.20640E-02-7.78681E-07 1.30089E-01 4.00926E-06 1.26770E-05
 -1     23367 9.70235E-02-9.49769E-03-7.12290E-06 1.32964E-01 1.70085E-06 1.12829E-05
 -1     23368 1.01373E-01-1.86312E-02 9.79941E-06 1.19598E-01-3.27528E-05-3.44298E-05
 -1     23369 1.01800E-01-1.76723E-02 8.88513E-06 1.22774E-01-2.13274E-05-7.52751E-06
 -1     23370 1.03044E-01-2.41474E-02 6.72302E-06 1.13050E-01 9.59147E-07 1.62670E-05
 -1     23371 9.67254E-02-3.31081E-02-1.26159E-04 8.14308E-02 7.84388E-05 6.24071E-05
 -1     23372 9.87378E-02-3.19355E-02-2.73488E-05 8.45458E-02-8.82957E-06 8.30047E-05
 -1     23373 2.43089E-02 5.36191E-02-3.07550E-06 1.26855E-01-1.17818E-05-1.98130E-06
 -1     23374 1.13000E-02 5.44479E-02 6.50236E-07 1.12526E-01-3.64509E-06 8.61362E-06
 -1     23375 2.80252E-02 5.15375E-02-1.33595E-06 1.28356E-01 4.55511E-06 1.47119E-05
 -1     23376 6.49037E-02 2.73806E-02-2.53566E-06 1.43933E-01-1.44976E-06-3.51051E-06
 -1     23377 5.65416E-02 2.60490E-02 2.63838E-06 1.31955E-01 2.73123E-06 1.21168E-05
 -1     23378 6.76712E-02 2.46286E-02-2.73482E-06 1.44005E-01-1.42889E-05-1.37813E-05
 -1     23379 1.00756E-01-1.61746E-02 2.61415E-06 1.24846E-01-5.01368E-06-1.39483E-05
 -1     23380 1.00136E-01-1.43918E-02-3.08386E-06 1.27874E-01 2.03607E-06 5.62926E-06
 -1     23381 1.01813E-01-2.22950E-02 1.47633E-05 1.17490E-01 4.62764E-06 5.91850E-06
 -1     23382-1.22089E-01 5.98620E-02-3.38939E-06-3.83038E-02-5.93301E-06-4.06993E-06
 -1     23383-1.24099E-01 5.98062E-02 3.20198E-07-4.04120E-02-4.42900E-06-2.88775E-06
 -1     23384-1.07623E-01 5.67450E-02-2.18330E-06-2.50570E-02-5.71992E-06 1.80923E-06
 -1     23385 7.42842E-02-3.57271E-02-6.03742E-07 6.52856E-02 3.03141E-05 4.84056E-07
 -1     23386 7.98022E-02-3.68271E-02-9.03171E-06 7.21393E-02 1.95764E-05 1.46952E-05
 -1     23387 6.64952E-02-3.48134E-02 1.08796E-06 6.19627E-02 3.02916E-05-1.54490E-06
 -1     23388 3.58458E-02-2.79848E-02-4.04456E-06 5.09483E-02 1.09622E-05-1.21877E-05
 -1     23389 4.30203E-02-2.97154E-02-5.23824E-06 5.74301E-02 9.22698E-06-4.81260E-06
 -1     23390 2.35627E-02-2.49609E-02 7.44088E-07 4.78307E-02 1.75798E-05-1.75143E-05
 -1     23391 9.49683E-02-6.71675E-03-1.88184E-05 1.34874E-01-1.07097E-05-1.66246E-05
 -1     23392 9.31137E-02-3.55388E-03-2.30060E-05 1.37402E-01-9.84629E-06-2.65277E-05
 -1     23393 8.95588E-02-7.06203E-03-1.11825E-05 1.29649E-01 4.42738E-05-6.29188E-07
 -1     23394 9.47741E-02-1.32397E-02-1.08272E-05 1.26337E-01 3.96159E-06-1.77185E-05
 -1     23395 1.27657E-02 6.07974E-02 5.90739E-06 1.24053E-01-1.47007E-05-6.12264E-06
 -1     23396 7.62872E-03 6.34795E-02-5.28411E-06 1.22414E-01-6.84944E-06-8.93984E-06
 -1     23397 3.43385E-03 5.94918E-02 1.07230E-05 1.11140E-01-7.97233E-06-8.95069E-07
 -1     23398-5.92063E-02 8.50006E-02-2.01373E-05 1.02586E-01-6.22023E-05-1.22728E-04
 -1     23399-6.07758E-02 8.67662E-02-3.78241E-05 1.07615E-01-3.48088E-05-1.49372E-05
 -1     23400-1.22936E-01 3.58959E-02-2.08989E-04 1.44656E-02-9.57626E-05-3.33411E-04
 -1     23401-9.89351E-02 2.34478E-02-2.21944E-04 2.02350E-02 2.40012E-05 2.09017E-04
 -1     23402-1.31481E-01 4.38235E-02-2.22113E-04 8.57627E-03-3.12141E-05-6.55372E-05
 -1     23403-7.75227E-02 1.34875E-02-7.46276E-05 2.63165E-02-4.35876E-05 1.25978E-04
 -1     23404-5.76186E-02 5.15883E-03-4.06122E-06 2.92804E-02-2.34330E-06 3.20237E-05
 -1     23405-4.79624E-02 3.29596E-03 3.86676E-06 3.38484E-02-1.98638E-05 3.19755E-05
 -1     23406-8.70899E-02 2.09468E-02-1.53541E-04 2.32493E-02-5.50001E-05 2.01002E-04
 -1     23407-1.72201E-01 7.18666E-02 9.66510E-05-2.90227E-02-9.84501E-05 1.69041E-05
 -1     23408-1.76234E-01 7.24392E-02 9.57053E-05-2.21778E-02 1.16595E-04-5.10370E-04
 -1     23409-1.26265E-01 5.98411E-02 4.65447E-06-4.25405E-02 3.51028E-06-1.01073E-06
 -1     23410-1.28512E-01 5.99769E-02-1.97681E-06-4.41479E-02-1.24054E-05-5.17124E-06
 -1     23411-1.11548E-01 5.61182E-02 1.05925E-06-2.98006E-02-5.30159E-06 2.30337E-06
 -1     23412 9.45596E-02-1.85052E-02 5.72989E-05 9.92900E-02-5.05344E-05 3.16849E-05
 -1     23413-9.85407E-02 6.71435E-02 3.95692E-06 1.22343E-02-3.52978E-05-7.20933E-06
 -1     23414-8.84389E-02 6.70427E-02-1.15575E-06 2.42947E-02-3.71663E-05-2.82821E-06
 -1     23415-9.62467E-02 6.71424E-02 4.87747E-06 1.68465E-02-8.92530E-06-5.67686E-06
 -1     23416 7.35509E-02 1.87071E-02 9.06755E-06 1.44015E-01-7.99168E-06-4.17220E-05
 -1     23417 7.09546E-02 2.16649E-02 4.30029E-08 1.44449E-01-4.70571E-06-1.30303E-05
 -1     23418 7.03519E-02 1.36226E-02 2.62931E-06 1.34100E-01-8.70318E-07 7.95906E-06
 -1     23419-6.27554E-02 8.05295E-02-1.02795E-05 9.79487E-02-2.15238E-05-4.62660E-05
 -1     23420-1.51548E-01 6.21840E-02 2.34059E-04-1.80594E-02-1.77900E-04 1.30089E-04
 -1     23421 9.90029E-02-1.85797E-02-2.10512E-05 1.22096E-01-9.19323E-06 5.03066E-06
 -1     23422-4.66670E-02 8.64269E-02 6.00777E-05 1.10575E-01 3.34953E-05-4.84067E-06
 -1     23423-1.36982E-01 5.98744E-02-1.56982E-05-3.03844E-02-3.20065E-05 6.27633E-05
 -1     23424 1.87607E-03 6.65184E-02-3.09815E-05 1.20746E-01-2.43812E-06-2.96233E-05
 -1     23425-4.88456E-03 6.97879E-02 1.00669E-05 1.18791E-01-5.12861E-05 3.10415E-05
 -1     23426-1.96225E-02 7.15057E-02 2.47893E-05 1.06278E-01-3.47370E-06 4.27848E-05
 -1     23427-6.49721E-03 6.51265E-02-4.85098E-07 1.09147E-01 1.29295E-06-7.35061E-06
 -1     23428-1.30839E-01 6.02727E-02-1.63146E-06-4.55779E-02 7.99919E-06-5.63507E-06
 -1     23429-1.33247E-01 6.06154E-02 2.20650E-06-4.65759E-02-1.46910E-06 6.99686E-07
 -1     23430-1.16077E-01 5.60735E-02 2.55003E-06-3.33864E-02-1.70588E-06 2.27396E-07
 -1     23431-8.45627E-02 6.81068E-02 6.92433E-06 3.98793E-02-4.63988E-06-1.87211E-06
 -1     23432-8.03963E-02 6.99964E-02 1.89982E-06 4.72538E-02 1.48725E-05 1.42621E-05
 -1     23433-7.77892E-02 6.84935E-02-7.58782E-06 5.16001E-02-1.40542E-05-5.99812E-06
 -1     23434 6.33533E-02 2.00950E-02-2.10600E-06 1.33382E-01-8.40898E-07 9.16699E-06
 -1     23435-1.56160E-01 6.02086E-02-5.73040E-05-7.89016E-03 8.25639E-05-3.83723E-05
 -1     23436-6.61242E-02 7.28411E-02 9.39207E-06 7.91610E-02 6.03621E-06 1.85778E-06
 -1     23437 9.11388E-02-3.60336E-02 1.58141E-05 7.53158E-02 7.40407E-05-2.27997E-05
 -1     23438 9.43972E-02-3.46998E-02-7.02012E-05 7.83363E-02 1.09222E-04-6.60816E-05
 -1     23439 9.75585E-02-3.49714E-02-3.22139E-05 8.40624E-02 4.20026E-05 1.59022E-05
 -1     23440 9.10770E-02-3.70829E-02-4.58820E-07 7.84200E-02 3.11677E-06-1.84405E-05
 -1     23441-7.22322E-02 7.14785E-02 3.00556E-05 6.69686E-02 4.15913E-05-1.67009E-05
 -1     23442-5.01254E-03-1.58706E-02 9.33931E-06 4.10982E-02 9.65083E-06-2.00378E-05
 -1     23443 9.64895E-03-2.02862E-02 2.29238E-06 4.40633E-02 1.22988E-05-2.46846E-05
 -1     23444 1.75128E-02-2.20368E-02 1.36721E-06 5.01757E-02 5.88256E-06-9.37913E-06
 -1     23445-1.28596E-02-1.11323E-02 5.52388E-06 4.25736E-02-6.44398E-06-7.78635E-06
 -1     23446 4.23054E-02 4.33946E-02 1.82982E-05 1.35041E-01 1.96228E-05 2.13280E-05
 -1     23447 3.90755E-02 4.53387E-02-7.47846E-07 1.33544E-01 2.80146E-06-9.34403E-06
 -1     23448 3.48895E-02 4.09077E-02 2.59413E-06 1.22656E-01 1.07970E-06-7.33968E-07
 -1     23449-4.99924E-02 8.15313E-02 5.73775E-06 9.79373E-02-1.12828E-05 3.38989E-06
 -1     23450-5.56341E-02 8.48686E-02 1.31695E-05 1.00938E-01-9.70609E-06-1.62150E-05
 -1     23451 5.80132E-02 1.62937E-02-4.18772E-06 1.23407E-01-1.41781E-08 5.14717E-06
 -1     23452 5.45453E-02 1.95610E-02-2.27746E-06 1.22873E-01 3.30894E-06 8.54337E-06
 -1     23453 2.72561E-02 4.53175E-02 4.96129E-06 1.18891E-01 2.57862E-06 7.72937E-06
 -1     23454 3.53429E-02 4.74027E-02-3.86609E-07 1.31618E-01 1.41538E-05 1.68211E-05
 -1     23455 9.54997E-02-2.07346E-02 3.82146E-05 9.52731E-02-1.37072E-05 6.55108E-05
 -1     23456 1.88087E-02 4.35040E-02 3.31918E-06 1.06574E-01 7.91377E-07 5.22251E-06
 -1     23457 1.47601E-02 4.57937E-02 2.21324E-06 1.04656E-01-3.41976E-06-3.56312E-07
 -1     23458-1.30329E-01 5.29135E-02 2.30244E-05-8.46840E-03-1.94651E-05 1.05206E-04
 -1     23459-1.34262E-01 5.29054E-02 2.36779E-05-4.97077E-03 1.27605E-04 7.55538E-06
 -1     23460 8.06033E-02-4.91389E-03-7.94228E-07 1.24021E-01 4.16753E-05 2.50133E-05
 -1     23461 7.73862E-02-1.43356E-03-3.03530E-06 1.24957E-01 1.65773E-05 1.05327E-05
 -1     23462-6.29396E-02 7.91941E-02 3.21864E-05 8.82117E-02-4.56949E-07 4.08232E-05
 -1     23463 3.18516E-02 4.93969E-02 8.00192E-07 1.30051E-01-7.54997E-06-5.83285E-06
 -1     23464 6.37585E-02-3.45636E-02-3.88731E-06 6.47427E-02 9.63226E-06 9.60289E-06
 -1     23465 9.94167E-02-2.53040E-02 3.32781E-05 9.62871E-02-1.66195E-05-6.33963E-05
 -1     23466 1.01152E-01-2.67080E-02-2.27912E-05 9.90588E-02-5.96647E-05 4.99455E-06
 -1     23467 9.94076E-02-2.95530E-02-1.32766E-05 8.78444E-02 4.03520E-05 9.97909E-05
 -1     23468 9.90138E-02-2.72760E-02-2.21815E-05 9.03015E-02-9.16444E-08-7.73754E-05
 -1     23469 1.00273E-01-3.10206E-02 2.74882E-05 9.00355E-02 3.60494E-05 7.47136E-05
 -1     23470-1.39618E-01 5.35114E-02 4.52724E-05-3.35320E-03 1.76414E-04-5.70689E-05
 -1     23471-1.38979E-01 5.07316E-02-1.44535E-04 2.82771E-03 3.02746E-05 1.78859E-06
 -1     23472-1.16212E-01 3.79500E-02-1.19537E-04 1.21780E-02-2.12553E-05-5.55140E-05
 -1     23473-1.18397E-01 4.36756E-02-6.35529E-05 5.43741E-03 6.77636E-05-1.36770E-04
 -1     23474-9.02756E-02 5.58262E-02 1.72951E-06-5.63852E-03-1.41599E-06 4.56352E-06
 -1     23475-9.17600E-02 5.50052E-02 2.92160E-06-8.60724E-03-7.43194E-06-5.21717E-07
 -1     23476-8.69075E-02 6.81374E-02-1.77349E-06 3.20685E-02 3.01378E-07 1.38879E-05
 -1     23477 9.75149E-02-2.36373E-02-5.39516E-07 9.36640E-02-7.84534E-05-1.00718E-04
 -1     23478 4.30896E-02 2.85870E-02 5.05443E-06 1.18931E-01 4.28595E-06 1.99515E-05
 -1     23479 3.93877E-02 3.12625E-02 5.05528E-06 1.17366E-01 9.89988E-06 3.15564E-05
 -1     23480-8.00259E-02 6.27919E-02 7.56328E-06 2.12731E-02-5.69739E-05-5.40375E-05
 -1     23481-8.16677E-02 6.14682E-02 2.93509E-06 1.62098E-02-5.41088E-06-6.04433E-06
 -1     23482-1.15228E-01 5.26780E-02-1.49115E-06-2.34675E-02 1.16322E-05 8.52815E-06
 -1     23483-1.18038E-01 5.30500E-02 2.02982E-05-2.21757E-02 2.40279E-05 6.19456E-05
 -1     23484-1.19499E-01 5.28478E-02-2.22267E-05-1.97426E-02 1.79942E-05 2.04733E-04
 -1     23485-1.22375E-01 5.32057E-02-8.64048E-05-1.72303E-02 2.30546E-05 1.11653E-04
 -1     23486-1.03596E-01 4.66334E-02 2.53322E-05-9.34302E-03-7.45680E-06-3.12464E-05
 -1     23487 9.79930E-02-2.36636E-02-4.66637E-05 1.14423E-01-9.78898E-06 5.65266E-05
 -1     23488 9.59310E-02-2.12669E-02-8.73608E-05 1.16757E-01 1.67037E-05-3.05312E-05
 -1     23489 5.07138E-02 2.27319E-02 2.11981E-07 1.21755E-01-3.13158E-06 9.08626E-06
 -1     23490 4.71956E-02 2.57159E-02 4.23480E-06 1.20765E-01 6.19334E-06 1.38352E-05
 -1     23491 4.53780E-02 1.93428E-02-1.01763E-06 1.11913E-01 2.53287E-06 1.51049E-05
 -1     23492 1.93149E-02 4.97596E-02 4.80243E-07 1.15273E-01-5.81718E-07 9.72594E-06
 -1     23493 1.01694E-01-2.99675E-02 3.69743E-05 9.57307E-02-9.93658E-05 6.40674E-06
 -1     23494 1.01970E-01-2.72835E-02 2.54731E-06 1.01645E-01 3.11839E-05 3.85228E-05
 -1     23495 1.02609E-01-2.77626E-02 1.71504E-05 1.04433E-01 5.20148E-05-1.87926E-06
 -1     23496 1.01130E-01-3.21615E-02 1.39114E-05 9.26606E-02-5.90361E-05 3.78068E-05
 -1     23497 9.99607E-02-3.43307E-02 2.23719E-06 8.91535E-02-4.21652E-05 2.23460E-05
 -1     23498 1.01377E-01-3.26400E-02 1.97290E-06 9.49908E-02-3.04533E-05 1.97293E-05
 -1     23499 9.78862E-02-3.61316E-02-1.26251E-05 8.66566E-02-2.81780E-05-6.27775E-06
 -1     23500-1.20830E-01 5.64881E-02 1.54382E-06-3.54854E-02-4.85900E-06 7.85882E-07
 -1     23501-6.12526E-03 5.80282E-02 7.21003E-06 9.79517E-02-9.17149E-06 5.27458E-06
 -1     23502-1.01110E-02 6.06520E-02 6.07282E-06 9.76913E-02-6.07985E-06 5.01192E-06
 -1     23503 7.33191E-02 2.25135E-03 6.35886E-07 1.24849E-01 3.77380E-06 1.38771E-05
 -1     23504 6.96969E-02 5.89447E-03 9.87458E-06 1.25160E-01 3.54078E-05 4.65334E-05
 -1     23505 7.04925E-02-2.42459E-03 9.76488E-07 1.16578E-01 1.62284E-05 2.00181E-05
 -1     23506 1.00868E-02 4.81130E-02 1.27343E-06 1.02158E-01-7.45318E-07 7.64147E-06
 -1     23507 5.94394E-03 5.04486E-02-1.40224E-06 1.00493E-01-4.91004E-06 1.12799E-08
 -1     23508 1.69364E-03 4.64949E-02 2.28887E-06 9.00141E-02-1.27960E-06 4.85488E-06
 -1     23509 6.06881E-02-3.36993E-02 4.48344E-07 6.72714E-02 1.91641E-05 4.82614E-06
 -1     23510 6.99089E-02-3.54738E-02 9.85407E-07 7.08067E-02 8.17023E-06-3.31094E-06
 -1     23511 2.31854E-02 4.11098E-02 2.72033E-06 1.08899E-01-4.70755E-06-3.75212E-06
 -1     23512 1.09666E-02 4.16290E-02-5.41099E-07 9.48767E-02 9.09450E-07 5.55377E-06
 -1     23513 2.70263E-02 3.87566E-02-1.73657E-06 1.10755E-01 7.97416E-06 5.90419E-06
 -1     23514 7.82977E-02-3.68487E-02 6.58142E-07 7.51016E-02 1.58896E-05 1.28111E-05
 -1     23515 8.51810E-02-3.75224E-02 3.01052E-06 7.85514E-02 7.34500E-06-5.15560E-06
 -1     23516 7.52519E-02-3.54502E-02 5.19257E-06 7.74432E-02 1.51620E-06-1.36194E-06
 -1     23517-5.64081E-02 9.59556E-03 1.90058E-05 3.21949E-02-2.39663E-05 5.44518E-05
 -1     23518-3.82906E-02 1.60995E-03 7.84690E-06 3.71377E-02-6.50858E-06-1.00014E-07
 -1     23519 1.63598E-03 5.29861E-02 1.82073E-07 9.91095E-02-2.94135E-06 7.41568E-06
 -1     23520-2.43836E-03 5.54537E-02 2.26161E-06 9.81529E-02-7.84599E-06 1.31661E-06
 -1     23521-1.56749E-02 5.65741E-02 1.25730E-06 8.46615E-02-1.57000E-06 7.58596E-06
 -1     23522-7.49953E-03 5.14428E-02 6.41722E-07 8.61674E-02-1.76691E-06 4.93874E-06
 -1     23523-9.32639E-02 5.41885E-02 6.96648E-07-1.15669E-02-6.42517E-06 3.43367E-07
 -1     23524-9.50697E-02 5.35710E-02-1.20979E-06-1.41967E-02-1.25493E-05-7.35932E-06
 -1     23525-7.94170E-02 5.19349E-02 6.87606E-06 2.11305E-03-8.48054E-06 3.81385E-06
 -1     23526 9.30964E-02-1.84341E-02-4.14152E-05 1.18389E-01 3.10733E-06 1.81713E-05
 -1     23527 9.06700E-02-1.54754E-02-1.25438E-05 1.20415E-01-6.86597E-07-1.82541E-05
 -1     23528 9.22194E-02-2.35425E-02-1.70433E-04 1.10809E-01 3.48940E-05 1.25686E-04
 -1     23529-8.94591E-02 5.68935E-02-3.30548E-06-2.76929E-03 1.00712E-05 1.39228E-06
 -1     23530-7.72401E-02 5.42096E-02 1.98478E-06 7.99527E-03 1.93227E-06-3.35614E-06
 -1     23531-8.77847E-02 5.78627E-02-6.06490E-06 1.03375E-03-5.79447E-08-5.16533E-06
 -1     23532 8.42506E-02-8.52073E-03-2.75274E-06 1.23284E-01 3.40016E-05 3.68368E-05
 -1     23533 7.86289E-02-1.00965E-02-1.97434E-05 1.15929E-01-9.53925E-06 7.40888E-06
 -1     23534 8.73235E-02-1.20654E-02 1.28190E-06 1.21705E-01-9.18678E-06-1.54284E-05
 -1     23535-9.71809E-02 5.30674E-02-1.32275E-06-1.69659E-02-1.65541E-05-1.16589E-05
 -1     23536-9.92489E-02 5.26692E-02 2.66787E-06-1.91314E-02 1.45909E-06-1.31907E-05
 -1     23537-8.29425E-02 5.03181E-02 1.47276E-06-3.63065E-03-3.44545E-05-2.98290E-05
 -1     23538-6.97740E-02 7.51010E-02 2.29554E-05 7.44308E-02 5.39072E-05 1.74781E-06
 -1     23539 6.55625E-02 9.52340E-03 8.87176E-07 1.24549E-01 3.68387E-05 2.04747E-05
 -1     23540 6.20769E-02 1.29074E-02-7.54106E-06 1.24380E-01 1.75501E-05 1.18035E-05
 -1     23541 5.34481E-02 1.24820E-02-2.65657E-06 1.14095E-01 1.36271E-05 9.57424E-06
 -1     23542 6.19974E-02 5.11731E-03 7.32266E-07 1.15816E-01-4.22009E-06 1.12141E-05
 -1     23543-1.13247E-01 5.26124E-02 4.07041E-06-2.43968E-02 3.55642E-06 1.23473E-06
 -1     23544-1.00131E-01 4.73800E-02-1.88476E-08-1.26274E-02-5.79998E-06-7.00047E-06
 -1     23545-1.10688E-01 5.23401E-02 5.88990E-06-2.47710E-02 1.74869E-06-6.34483E-06
 -1     23546-7.82726E-02 7.05239E-02 6.97736E-06 4.77575E-02-1.14713E-05 2.17472E-05
 -1     23547-7.86022E-02 6.99939E-02 2.19989E-07 4.40720E-02 2.02495E-05 5.01077E-05
 -1     23548-7.89000E-02 6.44682E-02-1.41276E-05 2.67735E-02-5.94217E-05-8.52336E-05
 -1     23549-6.75326E-02 6.31298E-02 1.18076E-06 3.74366E-02 5.65349E-05-2.35979E-05
 -1     23550-7.78289E-02 6.57986E-02-2.30415E-06 3.17073E-02-3.38001E-05-3.74513E-05
 -1     23551 3.72888E-02 2.56628E-02 4.03566E-06 1.08886E-01 4.78707E-06 1.93038E-05
 -1     23552-7.73451E-02 6.87559E-02-5.63367E-06 4.09679E-02 1.44523E-05 3.43530E-05
 -1     23553-7.78879E-02 6.76222E-02 5.49809E-06 3.65499E-02 1.69042E-06 4.22393E-06
 -1     23554-6.69750E-02 6.71378E-02-6.78219E-06 4.78209E-02-1.36813E-05 7.06505E-06
 -1     23555-6.88203E-02 7.07332E-02 7.63341E-06 5.61440E-02-1.09882E-05-5.90931E-05
 -1     23556 1.02538E-01-3.12705E-02 7.96548E-06 1.00376E-01 5.70816E-06 7.21911E-07
 -1     23557 1.02467E-01-2.77924E-02 2.15331E-06 1.06337E-01 5.12640E-05 3.38019E-05
 -1     23558 1.02292E-01-2.74716E-02 3.27428E-05 1.08936E-01 4.17771E-05 4.27630E-05
 -1     23559 1.01285E-01-3.34185E-02 1.19490E-05 9.71161E-02-3.78862E-05 7.14005E-05
 -1     23560-1.23977E-01 5.27527E-02-2.57820E-05-1.39692E-02 6.71827E-05 1.00296E-04
 -1     23561-1.27310E-01 5.31037E-02-8.79337E-05-1.10514E-02 2.73870E-05 2.10129E-05
 -1     23562 9.12909E-02-3.71551E-02-6.03790E-06 8.31211E-02-5.79186E-06-6.03150E-05
 -1     23563 9.53157E-02-3.64666E-02-1.04930E-05 8.55324E-02 1.85132E-05-4.00355E-05
 -1     23564 9.81908E-02-3.55933E-02-4.65493E-05 9.09894E-02-9.60379E-05-7.83280E-05
 -1     23565 8.96906E-02-3.64317E-02-3.21966E-05 8.60724E-02 6.90049E-05-7.13979E-05
 -1     23566 3.47309E-02 3.38768E-02-1.95547E-06 1.14617E-01 1.37456E-05 2.53764E-05
 -1     23567 3.09790E-02 3.63555E-02-2.94919E-06 1.12807E-01 1.86966E-06 1.30916E-05
 -1     23568 2.83394E-02 3.14293E-02-4.45108E-06 1.04224E-01 1.98069E-06 6.14732E-06
 -1     23569-8.38087E-02 6.00798E-02 6.41836E-07 1.05244E-02 1.77067E-06-7.81027E-06
 -1     23570-8.57964E-02 5.90009E-02-3.49930E-06 5.83362E-03 7.63060E-07-4.12990E-06
 -1     23571-7.05012E-02 5.96569E-02-5.66258E-06 2.62723E-02 1.19229E-05-5.57709E-06
 -1     23572-1.06530E-01 4.54257E-02 1.63912E-05-3.95287E-03-3.15313E-05-3.28477E-05
 -1     23573-1.10600E-01 4.37604E-02 8.40905E-05 1.61917E-03-4.31838E-05-3.54455E-07
 -1     23574-1.01422E-01 5.23609E-02-1.11248E-05-2.11912E-02 5.98474E-05-3.67104E-06
 -1     23575-1.03803E-01 5.22966E-02 1.71176E-06-2.26604E-02-7.73323E-06-5.91277E-06
 -1     23576-8.71909E-02 4.90426E-02-1.02555E-05-8.57215E-03 6.33683E-06-3.53124E-05
 -1     23577-3.90220E-02 7.53434E-02-4.49031E-06 9.38819E-02 6.56277E-05-8.36412E-05
 -1     23578-4.52791E-02 7.91289E-02-4.06024E-05 9.53224E-02-6.74613E-06-8.17498E-05
 -1     23579-2.01137E-02-6.35463E-03 6.68610E-06 4.28023E-02-2.02706E-05 9.20709E-06
 -1     23580-3.87114E-03-1.27194E-02 5.15318E-06 4.68451E-02-1.54387E-06-1.44318E-05
 -1     23581-2.90233E-02-2.35634E-04 3.73913E-06 4.14849E-02-5.28234E-06 2.36267E-06
 -1     23582-5.57704E-02 7.74538E-02-3.99927E-08 8.45923E-02 1.50314E-06-4.23916E-06
 -1     23583 5.00944E-02-3.09367E-02-1.78914E-06 6.30316E-02 1.96694E-05-1.63528E-05
 -1     23584 5.63467E-02-3.14988E-02 1.84559E-06 6.92210E-02 1.57048E-05-9.14451E-06
 -1     23585 3.85432E-02-2.78146E-02 1.09721E-07 5.95119E-02 1.67965E-05-9.95211E-06
 -1     23586-3.43615E-02 7.18094E-02-5.16101E-06 9.11638E-02 1.66152E-06 1.71769E-05
 -1     23587-4.68818E-02 7.20148E-02-6.89547E-06 7.97018E-02-4.15515E-06-2.43079E-05
 -1     23588-2.75037E-02 6.85735E-02-8.67449E-06 9.24184E-02-8.58852E-06 1.41226E-05
 -1     23589-1.06080E-01 5.21916E-02 4.01916E-06-2.39498E-02 5.99893E-06-6.47700E-06
 -1     23590-1.08516E-01 5.23118E-02 6.33753E-06-2.45429E-02 1.58465E-06-7.82579E-06
 -1     23591-9.59997E-02 4.77372E-02 9.70678E-06-1.34133E-02-6.81041E-06-1.40411E-05
 -1     23592-9.16273E-02 4.82666E-02 7.96403E-06-1.19523E-02-1.56824E-05-1.13868E-05
 -1     23593 7.19209E-02-3.36300E-02 8.21812E-06 7.95040E-02 6.44749E-06-1.56864E-05
 -1     23594 8.03883E-02-3.51360E-02 3.86103E-05 8.34584E-02 1.22625E-05 4.53779E-05
 -1     23595 3.90137E-02 1.67438E-02 2.74558E-07 1.02587E-01-8.53434E-06 2.52512E-06
 -1     23596 3.50744E-02 2.01727E-02 8.07045E-07 1.01365E-01-9.83746E-07 5.33409E-06
 -1     23597 1.00960E-01-2.68660E-02 9.01033E-05 1.10106E-01 1.24487E-06 5.19498E-05
 -1     23598 9.99174E-02-2.56426E-02 3.81303E-05 1.12378E-01 2.42254E-05-3.31537E-05
 -1     23599-6.77217E-02 7.57811E-02 3.15545E-05 7.35621E-02 2.95993E-06 6.24086E-05
 -1     23600 1.17003E-02-1.88586E-02 4.56563E-06 5.15880E-02 3.08596E-07-3.71088E-06
 -1     23601 2.55633E-02-2.34600E-02-7.76146E-07 5.51946E-02 7.27584E-06-1.41290E-05
 -1     23602 3.28197E-02-2.44913E-02 8.88625E-08 6.08967E-02 1.11538E-05-2.24894E-07
 -1     23603 4.36370E-03-1.41279E-02 4.63704E-06 5.19565E-02 4.86562E-06 4.53207E-06
 -1     23604-8.78257E-02 4.11141E-02-9.84619E-06-1.31494E-04 6.41929E-05 1.15949E-05
 -1     23605-8.92357E-02 4.04137E-02-9.06041E-05 2.18718E-03 1.48423E-04 8.58114E-05
 -1     23606-9.67861E-02 2.89103E-02-1.00863E-04 1.90195E-02-9.45658E-05 6.02322E-05
 -1     23607-7.63066E-02 1.85858E-02-2.12639E-05 2.57697E-02-1.02930E-04 1.19517E-04
 -1     23608-6.66981E-02 1.68982E-02-7.98123E-06 2.88744E-02 1.08239E-05 3.33067E-05
 -1     23609-1.04595E-01 3.52184E-02-2.32846E-05 1.43430E-02 8.23603E-05-1.52050E-04
 -1     23610-6.45621E-02 7.59477E-02-1.53786E-05 7.34396E-02-9.41773E-06-2.22194E-05
 -1     23611-7.29584E-02 7.21351E-02 8.28565E-06 5.94007E-02-3.84483E-06 2.18578E-05
 -1     23612-8.85957E-02 3.43006E-02-6.84166E-05 1.20397E-02-1.40554E-04-1.12994E-04
 -1     23613-9.10478E-02 3.33510E-02-6.13404E-05 1.41807E-02-1.18581E-04-1.75652E-04
 -1     23614 9.72948E-02-2.84314E-02-1.13991E-05 1.07071E-01 1.44710E-05-6.96233E-06
 -1     23615 9.52499E-02-3.19566E-02 6.12079E-05 9.99727E-02-1.59177E-06-4.77280E-05
 -1     23616 9.29276E-02-3.01023E-02-2.35867E-05 1.01996E-01-3.71622E-05-2.12315E-05
 -1     23617-5.56054E-02 6.39295E-02-1.85411E-05 5.25206E-02 2.51475E-05 6.88825E-06
 -1     23618-5.64707E-02 6.18083E-02-8.67222E-06 4.70753E-02 1.40240E-05-7.67832E-06
 -1     23619-8.88894E-02 3.84711E-02 1.20357E-04 5.14388E-03 3.35913E-05-4.79298E-05
 -1     23620-8.99908E-02 3.73109E-02 1.80979E-04 8.14846E-03 7.61132E-05 5.56945E-05
 -1     23621-7.34323E-02 3.25406E-02 5.21620E-05 1.39460E-02-1.32156E-05 9.77817E-06
 -1     23622-1.23544E-02 6.31586E-02 2.57752E-06 9.93759E-02-1.69243E-06 9.79572E-06
 -1     23623-1.83602E-02 6.61821E-02-4.47004E-06 9.78464E-02-9.16127E-06 1.97032E-05
 -1     23624-2.18147E-02 6.16556E-02-1.42363E-06 8.62655E-02 2.18333E-06 1.59262E-05
 -1     23625 3.12526E-02 2.33515E-02 2.81516E-06 9.99757E-02-2.75862E-06 1.12875E-05
 -1     23626 2.69976E-02 2.64809E-02 6.82489E-06 9.80626E-02 3.83008E-06 1.38371E-05
 -1     23627 2.48567E-02 2.10816E-02 2.23755E-06 9.07272E-02 6.66010E-07 1.33791E-05
 -1     23628 1.00781E-01-3.07904E-02 7.90815E-05 1.03800E-01 3.68134E-05 3.54270E-05
 -1     23629-6.07726E-02 7.38849E-02-9.78748E-06 7.12487E-02-1.09660E-05-2.67972E-05
 -1     23630-5.88471E-02 7.20922E-02-9.02056E-06 6.76853E-02-1.87626E-05-3.23373E-05
 -1     23631 6.65044E-02-6.05602E-03-1.26211E-05 1.09048E-01 2.46063E-05 7.22081E-07
 -1     23632 6.22261E-02-2.04781E-03-1.38353E-05 1.09100E-01 5.94058E-06 1.14018E-05
 -1     23633-6.53954E-02 5.03669E-02-1.45861E-06 1.63706E-02 8.55094E-06-3.43851E-06
 -1     23634-6.68009E-02 4.91795E-02 3.95754E-06 1.33679E-02-3.46696E-05-3.77673E-06
 -1     23635-8.60875E-03 4.50169E-02 4.80712E-06 7.60614E-02 1.10205E-05 6.60595E-06
 -1     23636-1.34954E-02 4.75034E-02 4.28441E-07 7.35723E-02 2.73052E-06 2.71582E-06
 -1     23637 4.34448E-02 1.31687E-02 4.00979E-06 1.04197E-01-5.50768E-06-1.06218E-05
 -1     23638 3.31856E-02 1.41205E-02 6.76144E-06 9.38539E-02-1.46799E-06 7.80909E-06
 -1     23639 4.77232E-02 9.46236E-03 8.83716E-06 1.05281E-01-1.34053E-05-2.73822E-05
 -1     23640-3.32752E-02 6.64965E-02-1.47815E-05 8.25386E-02-1.55995E-05 3.46590E-05
 -1     23641-7.45493E-02 5.67957E-02-4.68322E-06 1.57330E-02 9.14433E-06-7.41231E-06
 -1     23642-2.71393E-02 5.55877E-02-1.45592E-06 6.97007E-02-4.20933E-06 4.31474E-06
 -1     23643-3.09446E-02 5.81115E-02-1.22436E-06 6.96176E-02 6.82371E-06 1.92591E-06
 -1     23644 8.59941E-02-1.73947E-02 3.12928E-05 1.13884E-01-1.22560E-05-8.74331E-05
 -1     23645 9.74323E-02-3.33927E-02-5.47680E-05 9.76985E-02 6.37601E-06-6.42530E-05
 -1     23646 9.33243E-02-3.49597E-02-6.69554E-05 9.26947E-02 5.20063E-05-1.36368E-04
 -1     23647 8.96395E-02-2.73190E-02-2.32216E-05 1.03755E-01-1.55080E-05-1.16666E-05
 -1     23648 8.66876E-02-2.45781E-02 2.52896E-05 1.05589E-01 3.47130E-05-2.17354E-05
 -1     23649 8.75140E-02-3.08986E-02 4.93839E-05 9.68033E-02-6.80972E-05 1.61091E-05
 -1     23650 1.95040E-02 3.66306E-02-5.25684E-07 9.92765E-02-3.95685E-06 3.42039E-06
 -1     23651-4.34834E-02 5.97282E-02-4.28639E-06 5.82892E-02 1.00167E-05-3.35407E-06
 -1     23652-3.20645E-02 6.08893E-02-3.06750E-06 7.32731E-02-1.64136E-06 9.75322E-06
 -1     23653-6.88444E-02 4.80454E-02-1.10873E-05 9.71284E-03 5.04079E-05 3.30239E-06
 -1     23654-7.08648E-02 4.71003E-02 1.10649E-05 6.88910E-03-2.07091E-05-1.26728E-05
 -1     23655-5.49729E-02 4.61699E-02 2.14111E-06 2.37415E-02-4.63269E-05-2.43867E-06
 -1     23656-7.13074E-02 2.71361E-02 4.38922E-06 2.05368E-02-3.22484E-05 8.15250E-05
 -1     23657-5.48038E-02 6.91630E-02 1.13663E-06 6.52155E-02-4.80191E-05-2.12548E-06
 -1     23658-3.44660E-02 6.33174E-02-9.98962E-06 7.50620E-02 2.22169E-05 6.92186E-06
 -1     23659 8.38253E-02-3.31296E-02 1.61814E-04 9.02190E-02 3.26404E-05 1.42130E-04
 -1     23660 8.72110E-02-3.53123E-02 1.44181E-05 8.84011E-02 5.15570E-05 5.82497E-05
 -1     23661 2.17889E-02 2.93902E-02 4.03557E-06 9.48062E-02 1.35893E-06 1.03776E-05
 -1     23662 1.69461E-02 3.22194E-02 8.29293E-07 9.19194E-02 1.49542E-05 1.73410E-05
 -1     23663 1.57639E-02 2.73963E-02 6.09863E-06 8.60114E-02 8.41115E-07 1.04542E-05
 -1     23664-9.96433E-02 3.49100E-02 3.76173E-05 1.30279E-02 2.08288E-05-3.33019E-04
 -1     23665-5.53304E-02 5.92437E-02-5.90683E-06 4.33851E-02 2.32930E-06-1.21227E-05
 -1     23666 7.12583E-02-1.00202E-02-6.57784E-05 1.09461E-01 1.84237E-05-9.20660E-06
 -1     23667 6.32145E-02-9.69003E-03-5.05643E-05 1.01987E-01 8.10549E-05 3.22697E-05
 -1     23668 7.52579E-02-1.38829E-02-6.79526E-05 1.08857E-01-5.00090E-05-1.86721E-06
 -1     23669-5.73903E-02 5.75181E-02-5.09604E-06 3.76834E-02 3.95902E-06-7.12994E-06
 -1     23670-3.68799E-02 6.05429E-03-3.41095E-05 3.93347E-02-1.83543E-05-1.33210E-04
 -1     23671-1.91956E-02-2.05052E-03 2.97427E-06 4.52232E-02 2.92805E-06 7.63913E-06
 -1     23672-7.31489E-02 4.62431E-02 1.56223E-05 3.90946E-03 6.44592E-07-9.19449E-06
 -1     23673-7.53108E-02 4.55693E-02-8.86835E-06 1.77180E-03-3.08079E-05-4.33496E-05
 -1     23674-5.91894E-02 4.37286E-02 1.24521E-05 1.70411E-02-1.70324E-05 3.93724E-06
 -1     23675-4.66423E-04 4.27116E-02-2.22421E-07 8.27467E-02 4.81997E-06 1.01359E-05
 -1     23676-1.54282E-02 4.37739E-02-3.84519E-06 6.64317E-02-8.94901E-06-4.79265E-06
 -1     23677 4.06564E-03 4.01825E-02-5.07674E-07 8.51181E-02-7.65139E-06 4.19281E-06
 -1     23678-5.43337E-02 6.68453E-02 1.03346E-05 6.02152E-02 2.60153E-05 8.56990E-05
 -1     23679-6.47128E-02 5.18346E-02 1.18114E-06 1.92831E-02-4.89625E-06 1.46624E-06
 -1     23680-5.22695E-02 4.91013E-02 4.34139E-06 3.04027E-02-7.92319E-06 2.67156E-06
 -1     23681-6.40169E-02 5.32462E-02-1.36553E-06 2.22011E-02 1.13498E-06-5.17125E-06
 -1     23682 6.25797E-02-3.16692E-02 6.62092E-06 7.47946E-02 1.54469E-05-2.06611E-05
 -1     23683 6.75369E-02-3.08212E-02-3.08828E-05 8.10207E-02-1.76722E-06-8.52481E-05
 -1     23684 5.20307E-02-2.89084E-02 5.27540E-06 7.08020E-02 2.24291E-05 7.94883E-06
 -1     23685-8.71275E-02 4.21872E-02-2.41811E-07-1.57189E-03 9.61227E-06-9.20335E-06
 -1     23686-7.32470E-02 3.60318E-02 4.48799E-05 9.72619E-03-3.96258E-05-6.99437E-05
 -1     23687-8.52685E-02 4.26329E-02 2.91061E-06-2.58832E-03-4.12035E-06-1.33087E-05
 -1     23688-7.76874E-02 2.54028E-02-1.18204E-05 2.28014E-02 7.12754E-05-1.33283E-04
 -1     23689-5.52892E-02 2.21720E-02-6.66187E-05 2.72824E-02-4.62744E-06 1.06515E-04
 -1     23690-5.33540E-02 1.86780E-02 4.17941E-05 3.03888E-02-2.01120E-05-4.18076E-05
 -1     23691-4.34055E-02 6.55654E-02-9.26763E-06 6.96242E-02 3.76322E-05 1.52033E-05
 -1     23692 9.90464E-02-3.38422E-02-4.90818E-05 9.62870E-02-3.82619E-05 2.47621E-05
 -1     23693 8.28843E-02-2.11982E-02 1.62359E-04 1.06735E-01 1.20600E-05-1.05209E-04
 -1     23694 7.93949E-02-1.77049E-02-7.87474E-06 1.08122E-01-7.48001E-05-6.36149E-05
 -1     23695 8.03412E-02-2.48821E-02 3.72435E-05 9.98562E-02 2.81770E-05-1.66315E-05
 -1     23696-4.14557E-02 4.49322E-02 2.24848E-06 3.76637E-02-4.74001E-06 3.20281E-05
 -1     23697-4.34264E-02 4.34017E-02-7.33076E-06 3.39522E-02 8.87280E-06 7.70174E-06
 -1     23698-5.83860E-02 1.61037E-02 1.60063E-05 2.98860E-02-3.12984E-05 4.03668E-05
 -1     23699 5.71054E-02 1.84470E-03-6.97973E-06 1.07755E-01-1.10833E-05 9.93501E-06
 -1     23700 5.27250E-02 5.70624E-03-1.13981E-05 1.06999E-01-1.66726E-06 1.01003E-05
 -1     23701 4.29330E-02 6.43723E-03-1.21911E-05 9.72355E-02-7.07756E-06-1.77323E-05
 -1     23702 5.31823E-02-1.51711E-03-1.62631E-05 1.00427E-01-2.05455E-05 1.08472E-06
 -1     23703 8.05794E-02-3.06613E-02 4.53186E-05 9.20794E-02-5.77871E-05 5.03307E-05
 -1     23704-1.64402E-02 5.01583E-02 4.87060E-07 7.37960E-02 1.37404E-06 4.73267E-06
 -1     23705-2.08729E-02 5.27480E-02-5.08165E-07 7.24746E-02 4.85143E-06 4.17863E-06
 -1     23706-3.60103E-02 5.42951E-02-5.12697E-07 5.74044E-02 2.60512E-06-1.18802E-06
 -1     23707-2.67475E-02 4.88301E-02-1.06384E-07 5.99297E-02 3.24353E-06 3.47573E-06
 -1     23708 1.71731E-02 1.97676E-02 6.25663E-07 8.15875E-02 4.96146E-06 9.11188E-06
 -1     23709 1.33483E-02 2.30995E-02 4.65341E-06 8.00540E-02 2.42396E-06 2.83048E-06
 -1     23710-4.81239E-02 5.56754E-02-3.14028E-06 4.54276E-02 4.58775E-06-4.07468E-06
 -1     23711-6.32427E-02 5.63487E-02-3.89923E-06 2.84762E-02-1.98479E-06-1.22106E-05
 -1     23712-6.51607E-02 5.48808E-02-2.82479E-06 2.36118E-02 4.88778E-06-8.68907E-06
 -1     23713-4.18283E-02 5.29353E-02-1.94530E-06 4.82074E-02 3.53209E-06 2.53219E-06
 -1     23714-4.79422E-02 1.35193E-02-2.60669E-05 3.38602E-02-7.83058E-05-6.16018E-05
 -1     23715 9.53332E-03 3.50494E-02-3.02596E-06 8.61259E-02 1.06111E-05 1.45214E-05
 -1     23716 5.35866E-03 3.76796E-02-2.63655E-06 8.39678E-02-7.89507E-06-8.48109E-07
 -1     23717-5.92385E-03 3.87213E-02 4.93306E-06 7.19937E-02-2.52746E-06-8.30381E-06
 -1     23718 2.94361E-03 3.34423E-02-5.33161E-06 7.68644E-02-3.54361E-07-1.01275E-05
 -1     23719-3.27969E-02 8.83622E-03-6.86654E-05 4.02587E-02-4.17035E-05 3.63690E-07
 -1     23720 2.14450E-02 1.63200E-02-1.85109E-05 8.35464E-02 2.47873E-05 1.35843E-05
 -1     23721 9.80622E-03 1.84111E-02-1.12735E-05 7.29947E-02 2.00633E-05 9.75990E-06
 -1     23722 2.58495E-02 1.25332E-02-2.26802E-05 8.52109E-02 2.83860E-05 2.33224E-05
 -1     23723-5.85658E-02 2.79129E-02 9.51407E-05 2.18882E-02-5.99992E-05 2.34793E-05
 -1     23724-5.78583E-02 2.56645E-02-8.73943E-05 2.45036E-02-7.83421E-05 3.79393E-05
 -1     23725-4.09914E-02 1.73748E-02-4.90220E-05 3.46349E-02 7.32236E-09-4.01470E-05
 -1     23726 7.22285E-02-1.76383E-02-1.07809E-05 1.01783E-01-1.77405E-06-1.45640E-05
 -1     23727-2.05378E-03-9.46901E-03 4.64368E-06 5.16751E-02-9.15305E-07 2.34584E-05
 -1     23728 1.31477E-02-1.55520E-02 4.61603E-06 5.64652E-02 5.99236E-06-1.69094E-06
 -1     23729-1.00665E-02-3.72956E-03-2.51446E-06 4.98477E-02 2.46545E-07 2.55566E-05
 -1     23730 2.74268E-02-2.09726E-02 3.88902E-06 6.17347E-02 5.86863E-06 9.46500E-07
 -1     23731 4.03102E-02-2.53210E-02 1.99559E-06 6.59610E-02 1.43813E-05-8.62344E-06
 -1     23732 4.66860E-02-2.53616E-02 1.78787E-05 7.16819E-02 9.76509E-06 3.70473E-06
 -1     23733 2.09041E-02-1.64248E-02 5.95421E-06 6.16273E-02 8.83884E-06 1.08301E-05
 -1     23734 5.91583E-02-1.23899E-02-4.50218E-05 9.58188E-02 9.31232E-06-1.17178E-05
 -1     23735 5.43588E-02-8.34983E-03-1.79961E-06 9.55054E-02 1.46723E-05-8.87102E-06
 -1     23736-1.85635E-02 4.16276E-02-4.71791E-06 6.04813E-02-1.27002E-05-2.14883E-05
 -1     23737-2.69856E-02 4.41565E-02-3.73913E-06 5.36452E-02 5.80690E-06-6.52271E-07
 -1     23738-4.55122E-02 4.19066E-02 1.44825E-06 3.02077E-02-8.73421E-07-6.75504E-06
 -1     23739-4.76383E-02 4.05797E-02-9.92607E-06 2.71568E-02 7.98738E-06 1.44143E-05
 -1     23740-3.21357E-02 4.03908E-02 1.43881E-05 4.39090E-02 1.53860E-05 1.01486E-06
 -1     23741 4.81987E-02-3.93913E-03-8.04423E-06 9.37239E-02 5.67156E-06 1.39006E-05
 -1     23742 4.29763E-02 1.33766E-04 2.31633E-05 9.23122E-02 1.20925E-05-2.05708E-05
 -1     23743 4.40988E-02-6.48870E-03 2.78215E-05 8.77441E-02 2.48461E-05 4.26882E-05
 -1     23744 1.09618E-02 2.58078E-02 4.85004E-06 7.95215E-02-1.85688E-06 1.24085E-05
 -1     23745 5.60842E-03 2.89178E-02 1.01951E-05 7.61743E-02 4.44190E-06 9.90770E-06
 -1     23746 3.21205E-03 2.46761E-02 2.60113E-06 7.03952E-02 5.81999E-06 1.29583E-05
 -1     23747-2.16080E-02 6.28472E-03-2.37098E-05 4.55690E-02 2.26396E-05-2.34588E-05
 -1     23748-1.56815E-02 1.30338E-03-4.63157E-05 4.83040E-02-1.98702E-05 6.13766E-05
 -1     23749 7.28546E-02-2.97904E-02-1.16060E-04 8.68770E-02-1.87398E-05-1.04521E-04
 -1     23750 7.64687E-02-2.74263E-02-1.69064E-05 9.33749E-02-4.33849E-06-1.80452E-05
 -1     23751 7.26244E-02-2.41968E-02-4.85369E-06 9.45833E-02 2.67135E-05-1.21913E-05
 -1     23752 6.34898E-02-2.77708E-02-5.90078E-05 8.23850E-02-8.90453E-06-1.04059E-04
 -1     23753-5.28123E-02 5.25856E-02-3.53992E-07 3.48012E-02 6.82540E-06-1.48364E-06
 -1     23754 5.74433E-04-5.99346E-03 5.90526E-07 5.49317E-02 9.91441E-06 3.12130E-05
 -1     23755-7.74533E-02 4.48578E-02-1.47438E-06-3.07399E-04 5.44982E-07-2.53924E-05
 -1     23756-7.96566E-02 4.43197E-02 7.91132E-06-1.54115E-03 1.63623E-05-8.86029E-06
 -1     23757-6.35575E-02 4.17498E-02 9.71861E-06 1.19569E-02 2.96823E-05-5.39267E-06
 -1     23758-8.15651E-02 4.37052E-02 4.97809E-06-2.51836E-03 1.95365E-06-1.18227E-05
 -1     23759-8.36637E-02 4.32915E-02 3.53615E-06-2.71867E-03-5.61358E-06-1.05476E-05
 -1     23760-7.09812E-02 3.82033E-02 6.27120E-06 8.03303E-03-1.08195E-05-2.16364E-05
 -1     23761-6.75170E-02 3.99746E-02 3.44841E-06 8.90651E-03 4.26961E-06-1.00898E-05
 -1     23762-6.00031E-02 3.04054E-02 8.91937E-05 1.96860E-02-6.90732E-05-5.70154E-05
 -1     23763-4.51791E-02 2.37288E-02-5.89452E-06 3.00929E-02 2.69019E-06 1.46442E-05
 -1     23764-5.95095E-02 3.19673E-02-4.42566E-06 1.82854E-02 1.71727E-05 1.48584E-05
 -1     23765-3.82848E-02 4.67300E-02-1.04819E-05 4.35611E-02 2.63271E-05 3.10782E-05
 -1     23766-3.76536E-02 4.85705E-02-5.04341E-06 4.65618E-02-3.84363E-06 2.05340E-05
 -1     23767 3.66893E-02 4.29329E-03 7.45271E-06 8.97132E-02 2.13056E-05-4.09106E-05
 -1     23768 3.15450E-02 8.43109E-03-7.30932E-05 8.78939E-02-1.15417E-05 2.58895E-05
 -1     23769 3.17571E-02 2.18819E-03 4.23559E-05 8.31620E-02 2.01753E-05-3.09852E-05
 -1     23770 6.81637E-02-2.03986E-02 4.58132E-05 9.52784E-02 1.30118E-05 4.69057E-06
 -1     23771 6.37831E-02-1.64708E-02-1.42651E-05 9.58303E-02-2.23576E-05-1.11165E-05
 -1     23772 5.47855E-02-1.49150E-02 1.15723E-05 8.94272E-02 1.59552E-05-4.88777E-05
 -1     23773 6.41256E-02-2.28852E-02-8.33786E-06 8.89091E-02 8.20177E-06-2.17230E-05
 -1     23774-4.06608E-02 5.11042E-02-1.47348E-06 4.67813E-02 9.24309E-06 2.24354E-06
 -1     23775-1.73311E-02 3.93065E-02 1.31706E-05 5.93869E-02-2.43850E-05-2.54395E-05
 -1     23776-2.51434E-02 1.05492E-02-5.34153E-05 4.37934E-02 1.43013E-05 4.61521E-05
 -1     23777-9.21402E-03 3.13970E-03-7.63211E-05 5.20555E-02-3.31393E-05 2.90780E-05
 -1     23778-2.80975E-02 1.42030E-02-9.80444E-06 4.15854E-02-5.65394E-06-1.88502E-05
 -1     23779 9.25742E-03-7.11377E-03 5.64068E-06 6.00522E-02 8.82299E-06 4.09705E-05
 -1     23780 1.53849E-02-1.20275E-02 6.13121E-06 6.12920E-02 8.60743E-06 2.84854E-05
 -1     23781 1.97410E-02 1.06576E-02 2.49710E-06 7.77106E-02 4.89324E-05 6.12337E-06
 -1     23782-1.93056E-02 3.73925E-02 3.47822E-05 5.55388E-02 4.46206E-05 1.55030E-05
 -1     23783 4.91254E-02-1.62560E-02 8.02222E-05 8.35400E-02-6.05936E-06-5.07985E-05
 -1     23784 4.45145E-02-1.22024E-02 2.50079E-05 8.35334E-02-1.97834E-05-3.01482E-05
 -1     23785-3.43794E-04 1.86945E-02-2.14929E-06 6.34071E-02-1.22932E-05-1.15420E-05
 -1     23786-4.57668E-03 2.22782E-02-8.80812E-06 6.12365E-02 2.57695E-06-2.46736E-06
 -1     23787 2.92452E-02-1.74092E-02 6.22349E-06 6.66685E-02 1.10356E-05-5.03512E-07
 -1     23788-6.30691E-03 2.53590E-02-4.66751E-06 6.09780E-02 6.95148E-06 8.18623E-06
 -1     23789-8.56002E-03 2.79822E-02 5.09388E-06 6.03336E-02 1.25666E-05 6.02415E-06
 -1     23790-1.67162E-02 2.57674E-02-3.54177E-07 5.11294E-02 7.19114E-06-4.16055E-06
 -1     23791-2.00801E-03 3.14533E-02 4.54980E-06 6.97658E-02-7.04143E-06 6.64003E-07
 -1     23792-9.70564E-03 3.45687E-02 5.09347E-06 6.38207E-02 3.74878E-05 2.83234E-05
 -1     23793-2.42413E-02 3.58342E-02 5.90452E-06 4.86513E-02-5.58946E-05-3.28896E-05
 -1     23794-6.78348E-03 3.01697E-02 6.15166E-06 6.34388E-02-1.03954E-05 8.08066E-07
 -1     23795 5.34125E-02-2.54031E-02 8.74823E-06 7.70642E-02 1.52219E-05-1.69379E-05
 -1     23796 5.86488E-02-2.41747E-02 1.01487E-05 8.30236E-02-8.63636E-06-3.45244E-05
 -1     23797 5.40170E-02-2.03366E-02 6.08151E-05 8.35394E-02-2.04324E-05-1.42642E-05
 -1     23798 4.17883E-02-2.16830E-02-3.15172E-06 7.22422E-02 1.59770E-05 1.36463E-05
 -1     23799 7.15903E-03 1.40767E-02-9.28118E-08 6.82012E-02-1.48366E-05 1.25063E-06
 -1     23800-7.41428E-03 1.80264E-02-2.02450E-06 5.65815E-02-2.39083E-05-2.92613E-05
 -1     23801 1.28282E-02 9.73133E-03-1.10423E-05 7.09266E-02 6.75574E-06 3.98002E-05
 -1     23802 4.35811E-02-1.75702E-02 3.39871E-05 7.76474E-02-1.56818E-05-2.00500E-06
 -1     23803-3.23495E-02 2.05244E-02 1.88139E-06 3.79879E-02 5.77567E-05 3.16289E-05
 -1     23804-3.05967E-02 1.77144E-02 7.82759E-06 3.98688E-02 3.74030E-05 2.77387E-05
 -1     23805 3.61041E-02-1.73615E-02-2.16030E-06 7.21213E-02 1.00168E-05 1.12426E-05
 -1     23806 9.41158E-04 1.52034E-03-2.52764E-05 5.79160E-02-4.03707E-05-3.07586E-05
 -1     23807 4.75986E-03-2.74553E-03-5.03186E-06 5.91857E-02-1.08005E-04 7.66045E-05
 -1     23808-1.55974E-02 1.08894E-02 3.61058E-05 4.90772E-02 6.82977E-05 8.70296E-05
 -1     23809-3.67280E-02 3.72028E-02-1.92031E-05 3.65903E-02-7.80501E-06 1.33457E-05
 -1     23810-5.02955E-02 3.93563E-02 7.73247E-06 2.37209E-02-1.61598E-05-7.15044E-06
 -1     23811 4.04050E-02-8.35696E-03 1.21838E-05 8.30740E-02 2.68948E-05 4.23237E-05
 -1     23812 3.42375E-02-3.94018E-03 4.41636E-05 8.12718E-02 8.90159E-05-1.05512E-05
 -1     23813 3.46062E-02-9.58183E-03 6.11574E-06 7.70972E-02-2.52960E-05-8.05180E-06
 -1     23814 1.87829E-02-8.55619E-03 6.96484E-06 6.57147E-02-1.41697E-05 9.00319E-07
 -1     23815-5.23627E-02 3.82050E-02 4.41564E-07 2.15832E-02 1.58376E-06-2.54990E-05
 -1     23816-2.68174E-02 3.42114E-02 4.50760E-06 4.51251E-02-1.34389E-05 3.17664E-06
 -1     23817 2.48546E-02 6.03132E-04 5.38508E-05 7.62490E-02 3.30959E-05-4.45607E-05
 -1     23818 1.83508E-02 4.97593E-03-1.29114E-05 7.32835E-02-9.27606E-06-2.79788E-05
 -1     23819 5.68612E-03 8.53361E-03 4.52514E-07 6.40103E-02 4.72412E-05-1.29240E-05
 -1     23820 2.10201E-02-9.49462E-04-1.11039E-05 7.17866E-02 1.08157E-05-1.17441E-04
 -1     23821-5.71159E-02 3.45754E-02 7.69769E-07 1.79850E-02 2.30137E-06-1.16017E-05
 -1     23822-5.85922E-02 3.34737E-02-2.07021E-06 1.80915E-02-5.86989E-06-3.04063E-06
 -1     23823-5.37803E-02 3.68592E-02 1.08493E-06 1.99829E-02-2.87491E-05-3.40614E-05
 -1     23824-5.55416E-02 3.57617E-02 3.73748E-06 1.90089E-02 2.32221E-06-5.14409E-06
 -1     23825-4.35398E-02 3.11381E-02-3.12883E-07 2.88103E-02-3.00620E-06 6.31747E-08
 -1     23826-4.07093E-02 3.42491E-02 4.56653E-06 3.14893E-02 1.74576E-05 7.05978E-06
 -1     23827-4.58966E-02 2.80112E-02-2.93261E-06 2.78403E-02-1.27186E-05-5.48287E-06
 -1     23828 2.63712E-02-8.71392E-03-6.48984E-07 7.13459E-02-1.93508E-05 2.04782E-06
 -1     23829 3.14143E-02-1.32587E-02-1.25962E-06 7.20048E-02-1.07686E-05 1.50862E-05
 -1     23830-3.53461E-02 2.36797E-02-3.35513E-05 3.58319E-02 6.29900E-05 8.01251E-05
 -1     23831-2.14976E-02 1.79013E-02-1.98293E-05 4.54748E-02 4.73937E-05 3.38821E-06
 -1     23832-3.55538E-03 9.20280E-03-4.04514E-06 5.71477E-02 4.48546E-05 9.53559E-05
 -1     23833-5.25103E-04 5.51454E-03-1.49507E-05 5.84944E-02 3.90506E-05-2.53358E-05
 -1     23834-3.47259E-02 2.55614E-02-1.46735E-05 3.56995E-02 2.11552E-05 4.20600E-05
 -1     23835-2.86952E-02 3.23468E-02 9.55161E-06 4.20778E-02 1.79057E-05 1.13992E-05
 -1     23836-2.99723E-02 3.05442E-02 1.03592E-05 4.03989E-02 8.81337E-06 8.99665E-06
 -1     23837-1.65041E-02 3.07691E-02 4.04695E-06 5.38040E-02-4.64981E-06-1.32839E-06
 -1     23838-2.84703E-02 2.77937E-02-1.55073E-07 4.08820E-02-3.54300E-06-2.36137E-06
 -1     23839-2.98339E-02 2.61391E-02-8.77821E-06 3.97418E-02 2.06358E-06 8.63787E-06
 -1     23840-1.21059E-02 1.71166E-02-7.61365E-07 5.25181E-02-2.60068E-05-5.03116E-05
 -1     23841-8.91963E-03 1.38556E-02 8.23319E-06 5.44368E-02-8.14727E-06-1.84044E-05
 -1     23842 1.22803E-02-8.62859E-05-3.21523E-06 6.56323E-02-6.59413E-06 2.06102E-05
 -1     23843-1.97440E-02 2.19529E-02-1.14800E-05 4.74999E-02 3.07499E-06 1.37058E-05
 -1     23844 2.23130E-02-4.91511E-03-4.52453E-06 7.06911E-02-1.81512E-05-7.40417E-05
 -1     23845 4.08253E-02 1.10067E-02-2.63753E-04 7.63524E-02 4.98450E-06-1.33057E-04
 -1     23846 4.26781E-02 1.71874E-02-4.08625E-05 8.72077E-02 8.08686E-05 1.03165E-05
 -1     23847 4.16509E-02 1.63112E-02-1.78172E-05 8.49259E-02-2.80318E-05-2.59661E-05
 -1     23848 4.81149E-02 1.95184E-02 3.09943E-05 9.82560E-02-2.36329E-05-6.27223E-06
 -1     23849 4.63828E-02 1.91192E-02 3.25048E-05 9.50344E-02 1.19549E-05 2.57794E-05
 -1     23850 5.86329E-02 2.01433E-02-8.88288E-06 1.14125E-01 1.98469E-05-8.26001E-06
 -1     23851 5.62115E-02 1.92247E-02-1.42704E-05 1.09229E-01 1.76508E-05 2.09010E-05
 -1     23852 6.88398E-02 2.41532E-02-3.59310E-05 1.35092E-01 4.47723E-05 3.44134E-05
 -1     23853 6.61501E-02 2.27093E-02-3.63610E-07 1.29009E-01-2.75578E-06 9.07983E-06
 -1     23854 7.85040E-02 2.99251E-02-2.46011E-05 1.57990E-01 1.97823E-05-6.00276E-06
 -1     23855 7.58987E-02 2.82055E-02 1.85773E-05 1.51723E-01 9.59600E-06 2.71584E-05
 -1     23856 8.66436E-02 3.64303E-02 3.31024E-05 1.79774E-01 1.12527E-05 2.99548E-05
 -1     23857 8.43209E-02 3.49117E-02-5.46047E-06 1.74096E-01-5.94771E-06-8.21689E-06
 -1     23858 9.24833E-02 4.29930E-02 3.45555E-05 1.98271E-01-1.95445E-05 2.76302E-05
 -1     23859 9.08782E-02 4.16167E-02-4.84626E-05 1.93694E-01-2.91976E-05-4.99307E-05
 -1     23860 9.59416E-02 4.86516E-02 4.32568E-05 2.11841E-01-2.26988E-05 2.21523E-05
 -1     23861 9.49238E-02 4.76111E-02-4.97225E-05 2.08628E-01-2.43435E-05-5.21732E-05
 -1     23862 9.73745E-02 5.29426E-02-1.89548E-05 2.20263E-01 7.63826E-05 2.05463E-05
 -1     23863 9.67379E-02 5.22517E-02-2.82606E-05 2.18390E-01 1.78883E-05 2.22213E-05
 -1     23864 9.70294E-02 5.58956E-02-3.32325E-05 2.24285E-01-1.26979E-05-2.04067E-05
 -1     23865 9.68653E-02 5.55542E-02-1.34921E-05 2.23424E-01-6.56761E-05-1.00173E-04
 -1     23866 9.52454E-02 5.75418E-02 4.50185E-06 2.24214E-01-1.41196E-05 5.61534E-06
 -1     23867 9.55784E-02 5.74628E-02-4.87082E-05 2.24448E-01-1.11807E-05-1.35880E-05
 -1     23868 9.16879E-02 5.82323E-02 6.94376E-06 2.20197E-01-3.08731E-06 4.47862E-07
 -1     23869 9.24747E-02 5.83492E-02 8.02504E-06 2.21465E-01-1.02412E-05-1.56085E-05
 -1     23870 8.54730E-02 5.83069E-02 4.02448E-05 2.11753E-01-6.20433E-05 5.88201E-05
 -1     23871 8.70047E-02 5.85559E-02 4.21427E-05 2.14268E-01 1.64051E-05 9.80492E-05
 -1     23872 7.47005E-02 5.81949E-02-6.04910E-05 1.96414E-01-2.85164E-05-7.21554E-05
 -1     23873 7.73074E-02 5.88381E-02 1.49189E-04 2.01218E-01-2.69403E-05 2.28434E-05
 -1     23874 5.17044E-02 5.94925E-02 1.16426E-04 1.67256E-01-1.17357E-05-2.42163E-04
 -1     23875 5.75967E-02 6.05165E-02 8.08156E-07 1.76906E-01 8.61059E-05 6.92375E-05
 -1     23876-2.28226E-02 7.83505E-02 1.98210E-04 1.18612E-01 1.47698E-03 2.53680E-03
 -1     23877 1.07446E-02 7.10223E-02-2.00655E-05 1.33933E-01-7.98083E-05 3.69777E-04
 -1     23878-4.78769E-02 9.84573E-02-1.39366E-04 1.37100E-01-9.23109E-04-7.13589E-05
 -1     23879-6.08546E-02 1.20950E-01 6.02892E-05 1.38927E-01 1.77822E-04 9.91268E-05
 -1     23880-5.24137E-02 1.04460E-01 1.80418E-04 1.41532E-01-6.83927E-04 3.92960E-05
 -1     23881-7.49154E-02 1.49835E-01-2.02853E-04 1.27648E-01-2.48461E-04-6.77244E-05
 -1     23882-7.03056E-02 1.40341E-01 6.25532E-05 1.29083E-01-2.17133E-04 8.61389E-06
 -1     23883-7.20940E-02 1.41820E-01-1.72439E-04 1.12684E-01-5.88060E-04-3.09043E-06
 -1     23884-7.28470E-02 1.43056E-01 5.22697E-04 1.12763E-01-2.18133E-04 5.78838E-05
 -1     23885-6.03199E-02 7.55599E-02-1.26313E-03 4.40112E-02-2.71811E-03 2.67167E-03
 -1     23886-8.92533E-02 4.16210E-02-2.14793E-04-3.19799E-02-1.38447E-04-1.38441E-04
 -1     23887-8.25182E-02 3.88154E-02 3.98975E-04-3.00776E-02-1.13912E-04 8.61471E-05
 -1     23888-1.21275E-01 5.33103E-02-7.00129E-05-4.97855E-02-7.00256E-05-8.30464E-05
 -1     23889-1.15138E-01 5.06560E-02 3.44121E-05-4.70251E-02-4.86270E-08-4.30374E-05
 -1     23890-1.51218E-01 6.53473E-02 1.87200E-05-6.66553E-02 1.86797E-06-6.18224E-06
 -1     23891-1.44671E-01 6.27319E-02-5.84858E-06-6.30276E-02-1.17947E-05 1.66569E-05
 -1     23892-1.75340E-01 7.39888E-02-3.13489E-06-8.29522E-02 3.56743E-05 1.15144E-05
 -1     23893-1.70136E-01 7.20110E-02-3.12503E-05-7.98867E-02 1.23714E-05 2.04282E-05
 -1     23894-1.91826E-01 7.96473E-02 1.89146E-05-9.46317E-02 6.95332E-06-1.58334E-05
 -1     23895-1.88311E-01 7.83444E-02 1.40780E-05-9.24214E-02 8.74330E-07-2.80113E-05
 -1     23896-2.02674E-01 8.31759E-02-1.48821E-05-1.02559E-01-6.93821E-05-3.76579E-05
 -1     23897-2.00473E-01 8.24512E-02 4.24379E-05-1.01221E-01-5.64489E-05-2.58018E-05
 -1     23898-2.09888E-01 8.55561E-02-1.56386E-05-1.07918E-01-2.50761E-05-2.56384E-05
 -1     23899-2.08522E-01 8.50720E-02 6.89581E-05-1.07088E-01-1.46183E-05-8.35085E-05
 -1     23900-2.15357E-01 8.75527E-02-6.67816E-06-1.11286E-01-1.03347E-06 1.25552E-05
 -1     23901-2.14274E-01 8.71356E-02 2.97893E-06-1.10706E-01-6.85396E-06 3.09315E-07
 -1     23902-2.21699E-01 9.02108E-02 2.83632E-05-1.13983E-01-1.72032E-05 1.28740E-06
 -1     23903-2.20203E-01 8.95766E-02 9.15591E-06-1.13378E-01 1.62383E-05-6.03111E-06
 -1     23904-2.32423E-01 9.50361E-02 1.86298E-05-1.17343E-01-2.40262E-05 3.49212E-05
 -1     23905-2.29387E-01 9.37830E-02 1.50045E-05-1.16211E-01 3.11660E-05 2.87058E-05
 -1     23906-2.54628E-01 1.05234E-01-2.36506E-04-1.23535E-01-1.88190E-04-1.69490E-04
 -1     23907-2.48194E-01 1.02566E-01 1.55156E-04-1.20826E-01 1.81194E-04-3.94691E-05
 -1     23908-3.32772E-01 1.41471E-01 1.52920E-03-1.31779E-01 2.96242E-04 1.70415E-04
 -1     23909-2.95900E-01 1.26538E-01 1.70097E-05-1.24656E-01 1.81277E-05 7.01394E-04
 -1     23910-4.48386E-01 1.30035E-01 7.15948E-03 2.58638E-02-8.31735E-03 6.32537E-03
 -1     23911-3.43868E-01 1.50491E-01 3.76541E-04-1.05056E-01-1.66810E-03 3.47143E-03
 -1     23912-3.30441E-01 1.39273E-01 1.03406E-03-5.07285E-02 1.56862E-03 1.81636E-03
 -1     23913-2.83892E-01 6.71461E-02-2.05262E-03 5.21977E-03-3.17772E-03 1.66498E-03
 -1     23914-1.21457E-01 4.79012E-03-1.14370E-04-8.81271E-03-2.10650E-04-7.50322E-05
 -1     23915-1.45894E-01 4.32598E-03 5.93233E-04-6.05623E-03-3.64192E-04-4.04544E-04
 -1     23916-4.60112E-02-4.11541E-03-5.10583E-07-4.69606E-03-1.17842E-05 8.02198E-05
 -1     23917-6.14161E-02-4.07690E-03-8.46288E-05-7.09536E-03 7.27659E-05 2.91052E-05
 -1     23918 5.81794E-03-7.41416E-03 1.31704E-05 9.96456E-03 3.62420E-06 2.98001E-05
 -1     23919-5.41474E-03-7.36206E-03 9.98347E-06 5.66038E-03 8.11511E-06 2.48730E-05
 -1     23920 4.28335E-02-8.90549E-03-3.57066E-05 2.91203E-02 1.32029E-04 5.93075E-05
 -1     23921 3.48804E-02-8.65158E-03 3.86437E-05 2.40827E-02 7.87492E-05-2.34250E-05
 -1     23922 6.71141E-02-8.88709E-03-1.78669E-05 4.96329E-02-1.09290E-04 1.01440E-05
 -1     23923 6.21836E-02-8.99765E-03 4.44041E-05 4.44700E-02-7.22717E-05 6.39665E-05
 -1     23924 7.96205E-02-7.84253E-03 2.89882E-05 6.87404E-02-8.20715E-05-3.49048E-05
 -1     23925 7.74150E-02-7.90783E-03 2.39944E-05 6.41265E-02 1.22542E-05 3.84007E-05
 -1     23926 8.12129E-02-5.75400E-03-8.13997E-07 8.39644E-02-3.78141E-05-5.79707E-06
 -1     23927 8.16211E-02-5.89197E-03-1.32091E-05 8.06474E-02-7.82263E-06 1.78835E-05
 -1     23928 7.32152E-02-2.21866E-03 6.04973E-05 9.20755E-02-5.48425E-05-3.06163E-05
 -1     23929 7.56304E-02-2.35138E-03-7.29967E-06 9.08382E-02 2.75877E-05 6.08225E-05
 -1     23930 5.92776E-02 2.48525E-03 5.16405E-05 9.08408E-02-4.50267E-06-2.36442E-05
 -1     23931 6.25949E-02 2.29626E-03-3.39325E-05 9.21334E-02-3.73573E-06 2.66514E-05
 -1     23932 5.08972E-02 5.77372E-03 5.68184E-05 8.59503E-02-1.04630E-04-2.05880E-05
 -1     23933 5.42515E-02 5.43393E-03 4.04970E-05 8.86210E-02-9.19998E-05-2.43365E-05
 -1     23934-5.67247E-02 3.93769E-02 5.55956E-04-3.59415E-04 2.37511E-03 1.58539E-03
 -1     23935-5.70009E-02 1.00847E-01-9.89591E-05 9.18495E-02-2.29249E-03-1.28851E-03
 -1     23936 3.93056E-02 1.65695E-02-1.60600E-05 8.20588E-02-8.38592E-06 5.88294E-05
 -1     23937 3.82479E-02 1.46430E-02 1.57959E-04 7.88794E-02 9.33720E-06-7.83260E-06
 -1     23938 4.48623E-02 1.87311E-02 8.44615E-05 9.23104E-02-4.22362E-05-1.25440E-05
 -1     23939 4.33580E-02 1.82944E-02 2.34547E-05 8.96941E-02 2.96443E-05 7.75216E-05
 -1     23940 5.30378E-02 1.98602E-02-3.01301E-05 1.05630E-01-1.55208E-06 3.61819E-06
 -1     23941 5.09372E-02 1.91646E-02 1.44376E-05 1.01537E-01-2.25228E-06-2.79941E-06
 -1     23942 6.36817E-02 2.18091E-02-3.45173E-05 1.24102E-01 1.07957E-05 3.84203E-06
 -1     23943 6.11422E-02 2.06532E-02-1.59044E-05 1.18539E-01 7.67859E-06-1.05185E-05
 -1     23944 7.37975E-02 2.68876E-02-1.05800E-05 1.46438E-01 1.10285E-05 2.70440E-05
 -1     23945 7.10595E-02 2.53447E-02-1.44104E-06 1.40197E-01-2.56724E-05 2.09658E-05
 -1     23946 8.29457E-02 3.29856E-02 3.07099E-05 1.69233E-01 2.06793E-05 6.23771E-06
 -1     23947 8.04142E-02 3.13707E-02 8.17988E-06 1.63043E-01 1.47012E-06 5.15700E-05
 -1     23948 8.98459E-02 3.97824E-02-3.45637E-05 1.89589E-01 1.46719E-06 9.27626E-07
 -1     23949 8.79052E-02 3.82587E-02 4.59814E-05 1.84412E-01-1.58027E-05-2.94915E-05
 -1     23950 9.44508E-02 4.60313E-02-2.65181E-05 2.05716E-01 4.56825E-06-8.12862E-06
 -1     23951 9.31471E-02 4.47227E-02 4.05381E-05 2.01849E-01-5.01423E-05-5.82185E-05
 -1     23952 9.68356E-02 5.10355E-02-5.06942E-05 2.16700E-01 3.56122E-05-1.32800E-05
 -1     23953 9.61022E-02 5.00755E-02 3.05287E-05 2.14204E-01-3.78644E-05-7.50089E-05
 -1     23954 9.73069E-02 5.46323E-02 3.03442E-06 2.22747E-01-1.05199E-05-2.54082E-06
 -1     23955 9.70685E-02 5.40117E-02-8.37319E-06 2.21478E-01-1.87160E-06 2.95964E-05
 -1     23956 9.63414E-02 5.68698E-02-1.36391E-05 2.24695E-01 3.91917E-05 2.20084E-05
 -1     23957 9.63749E-02 5.66103E-02 3.30227E-05 2.24473E-01 1.31219E-05 4.52852E-05
 -1     23958 9.37468E-02 5.79682E-02 1.39998E-05 2.22725E-01-3.09440E-06 1.40923E-05
 -1     23959 9.42716E-02 5.79978E-02-4.48246E-06 2.23467E-01-9.19064E-07-1.65248E-06
 -1     23960 8.89911E-02 5.83087E-02 2.84825E-05 2.16584E-01 4.41091E-05 1.86573E-05
 -1     23961 9.01283E-02 5.85486E-02-2.42049E-05 2.18452E-01 2.33056E-05-1.70451E-05
 -1     23962 8.09000E-02 5.82907E-02-4.42136E-05 2.05222E-01-2.39098E-05-1.38217E-05
 -1     23963 8.28840E-02 5.87127E-02 5.60712E-05 2.08681E-01 2.79102E-05 6.19555E-05
 -1     23964 6.58853E-02 5.82679E-02-8.94821E-05 1.84309E-01 1.67611E-06 1.29797E-04
 -1     23965 6.96320E-02 5.92656E-02 3.40305E-05 1.91062E-01-4.63514E-05-5.35982E-06
 -1     23966 2.85753E-02 6.22243E-02 3.74448E-04 1.41876E-01-5.22502E-04-7.85790E-04
 -1     23967 4.00498E-02 6.37797E-02-1.91177E-05 1.57903E-01-1.99576E-04-4.84324E-04
 -1     23968-5.07603E-02 1.09974E-01-5.90801E-05 1.47039E-01-1.03228E-04-7.88928E-04
 -1     23969-6.27422E-02 1.25027E-01 4.09285E-05 1.36336E-01 3.93446E-04 1.88752E-04
 -1     23970-6.03453E-02 1.18108E-01-9.79190E-05 1.48765E-01 2.06632E-05 8.87283E-05
 -1     23971-6.91878E-02 1.37815E-01 1.46197E-05 1.34109E-01 2.24771E-04-1.56749E-04
 -1     23972-6.26335E-02 1.22171E-01 3.46301E-05 1.39449E-01 8.21375E-05 1.44267E-04
 -1     23973-7.59258E-02 1.51208E-01 8.68089E-05 1.20815E-01 9.20205E-06-2.04154E-04
 -1     23974-7.41331E-02 1.47656E-01 7.97929E-07 1.22061E-01-2.65197E-04 5.78486E-05
 -1     23975 4.61165E-02 6.08916E-03-1.91953E-04 7.89037E-02-8.96126E-05-2.29162E-05
 -1     23976-6.40007E-02 1.21405E-01 3.01462E-04 9.73059E-02 5.92913E-05 7.40163E-04
 -1     23977-9.96727E-02 4.43485E-02 1.18275E-05-3.97792E-02-5.75676E-05 1.05285E-04
 -1     23978-6.87860E-02 3.82335E-02 1.07705E-04-3.59231E-03-2.74740E-04-3.56975E-04
 -1     23979-1.05596E-01 4.68971E-02 1.01251E-04-4.20607E-02-3.51304E-04 2.52489E-05
 -1     23980-4.95265E-02 4.15914E-02-5.98785E-04 2.64142E-02-1.30616E-03 3.48881E-05
 -1     23981-6.98406E-02 4.22452E-02-1.01359E-03-1.00585E-02-1.14380E-03-1.01967E-03
 -1     23982-8.97480E-02 4.48595E-02 1.03308E-04-1.69243E-02-1.86822E-04-4.46688E-04
 -1     23983-1.36837E-01 5.97810E-02-1.73704E-05-5.79340E-02-1.05024E-05-8.72918E-05
 -1     23984-1.30190E-01 5.69744E-02-1.82101E-05-5.44776E-02-3.20584E-05 4.11474E-05
 -1     23985-1.64144E-01 7.00877E-02-1.16299E-05-7.52831E-02 3.16734E-06 7.25544E-06
 -1     23986-1.58321E-01 6.77598E-02 1.04560E-05-7.18256E-02 3.23609E-05 1.23930E-05
 -1     23987-1.84393E-01 7.71981E-02-5.10314E-05-8.92822E-02-1.46373E-05 8.76901E-06
 -1     23988-1.80077E-01 7.54809E-02 2.85810E-05-8.67031E-02 1.25285E-05-1.65451E-06
 -1     23989-1.97854E-01 8.16261E-02 6.19547E-05-9.89905E-02 6.02419E-05 8.85386E-05
 -1     23990-1.95007E-01 8.06227E-02 3.47793E-05-9.72033E-02-1.02536E-05 5.98979E-05
 -1     23991-2.06639E-01 8.45239E-02 5.73349E-05-1.05575E-01 2.70459E-05 5.73559E-06
 -1     23992-2.04662E-01 8.37644E-02-3.43909E-05-1.04435E-01 1.92229E-06-3.04509E-06
 -1     23993-2.12713E-01 8.65845E-02-4.50208E-06-1.09749E-01 2.86229E-06-1.81592E-07
 -1     23994-2.11526E-01 8.61060E-02 1.17384E-06-1.09131E-01-4.65028E-07-1.38351E-05
 -1     23995-2.18235E-01 8.87044E-02 8.89706E-06-1.12641E-01 2.12566E-05 1.87414E-05
 -1     23996-2.17034E-01 8.82355E-02 1.46024E-05-1.12086E-01-3.47694E-07-6.64694E-06
 -1     23997-2.26136E-01 9.21603E-02-2.77791E-05-1.15532E-01 3.23061E-05 6.42363E-07
 -1     23998-2.24192E-01 9.13903E-02-2.56813E-05-1.14673E-01 3.56346E-05-3.18696E-05
 -1     23999-2.41247E-01 9.91169E-02 5.52680E-05-1.19807E-01 4.13854E-05 3.22449E-04
 -1     24000-2.36927E-01 9.73609E-02-4.23343E-05-1.18171E-01-5.48099E-05-3.99414E-05
 -1     24001-2.78538E-01 1.16061E-01 2.62088E-04-1.28429E-01 8.70501E-05 5.23240E-05
 -1     24002-2.66109E-01 1.11290E-01 7.94216E-05-1.23883E-01-9.30107E-05 5.93153E-05
 -1     24003-3.12264E-02-6.03439E-03 1.02763E-05-1.85415E-03 8.85146E-05-3.24991E-05
 -1     24004-3.51872E-02-8.20697E-03 7.17466E-05 7.19698E-03 8.25163E-05-6.16921E-05
 -1     24005-1.79974E-02-5.90558E-03-4.30571E-05 1.71989E-03-2.72089E-05 5.81267E-05
 -1     24006-1.79593E-01 1.65934E-02-1.14084E-04-2.45092E-03-5.94884E-04-1.49510E-04
 -1     24007-2.13778E-01 1.91540E-02-3.19417E-04 9.79392E-03 6.02531E-04 2.34437E-04
 -1     24008-7.94570E-02-8.82903E-04-5.86386E-05-9.01451E-03 2.06555E-04-1.32161E-04
 -1     24009-9.83899E-02-1.05803E-03 6.13723E-05-9.46520E-03 1.71301E-04-5.08340E-05
 -1     24010-7.11968E-03-1.18646E-02 1.72991E-05 1.29526E-02-7.22336E-05 2.42567E-05
 -1     24011-2.70061E-01 7.86863E-02 2.12052E-04 1.10134E-02-3.23876E-03 4.79847E-04
 -1     24012 2.59376E-02-8.21388E-03 2.49246E-05 1.91483E-02 6.59413E-05 1.57323E-05
 -1     24013 1.64527E-02-8.11138E-03 4.33136E-05 1.43938E-02-5.35402E-05 8.09493E-06
 -1     24014 5.65305E-02-9.01468E-03 2.34269E-05 3.94344E-02-3.70470E-05-1.72376E-05
 -1     24015 5.01769E-02-9.08840E-03-2.29923E-06 3.41758E-02 3.16950E-05 1.56625E-05
 -1     24016 7.47054E-02-8.42318E-03-1.32936E-05 5.94976E-02-8.38881E-05-2.51869E-05
 -1     24017 7.12309E-02-8.56111E-03 1.99695E-05 5.45369E-02 3.33433E-06 7.60968E-05
 -1     24018 8.16569E-02-6.96355E-03 4.06410E-05 7.69756E-02-3.65479E-05-1.67308E-05
 -1     24019 8.08059E-02-6.94745E-03 9.78375E-06 7.30019E-02-4.18131E-05 1.99267E-06
 -1     24020 7.82867E-02-4.16263E-03-2.39199E-05 8.90452E-02-8.90880E-05-3.05452E-06
 -1     24021 7.97648E-02-4.30980E-03-5.03247E-05 8.66796E-02 4.16060E-06 2.64577E-05
 -1     24022 6.67762E-02 7.87205E-05-6.36751E-05 9.28375E-02-1.03536E-04-1.21943E-05
 -1     24023 6.98273E-02-1.28012E-04-2.98970E-05 9.27928E-02 7.25649E-06 4.11458E-05
 -1     24024 5.35761E-02 7.91095E-03-1.32896E-05 8.87697E-02-1.71746E-05 1.02716E-05
 -1     24025 4.90948E-02 5.61225E-03 1.13485E-05 8.34386E-02 8.21877E-06 4.39353E-05
 -1     24026-4.48205E-02 7.95952E-02 1.97186E-04 7.97767E-02 2.25790E-04 1.21581E-03
 -1     24027 5.58568E-02 1.34699E-02 5.88016E-06 9.96106E-02 1.14593E-05-1.81680E-05
 -1     24028 6.82202E-02 1.11936E-02-2.14022E-06 1.13935E-01 1.95502E-05 1.17728E-05
 -1     24029 7.81943E-02 1.38192E-02 1.53892E-05 1.32851E-01-6.51795E-06-1.00498E-05
 -1     24030 8.63232E-02 1.93086E-02-6.68086E-05 1.53012E-01-2.82973E-05 1.04887E-05
 -1     24031 9.17760E-02 2.64685E-02 4.19588E-05 1.72188E-01 4.09845E-05 6.15949E-05
 -1     24032 9.44255E-02 3.43714E-02-6.02373E-06 1.88168E-01 1.46728E-05 3.95323E-05
 -1     24033 9.47056E-02 4.15738E-02-1.45745E-05 1.99492E-01 3.34917E-05 3.14556E-05
 -1     24034 9.32049E-02 4.74051E-02-6.15912E-06 2.06208E-01 1.34105E-05-2.98516E-05
 -1     24035 9.05000E-02 5.17419E-02 2.61495E-06 2.08811E-01 9.21427E-06 5.09995E-05
 -1     24036 8.65423E-02 5.47194E-02 1.20245E-05 2.07614E-01-5.56808E-06 1.88173E-05
 -1     24037 8.05061E-02 5.70472E-02-4.72312E-05 2.02479E-01 2.96921E-06-9.01469E-06
 -1     24038 7.11338E-02 5.94315E-02 7.46279E-05 1.93376E-01 4.58877E-05 1.27411E-04
 -1     24039 5.45764E-02 6.41009E-02 9.55244E-06 1.77872E-01-2.54745E-06-3.68343E-05
 -1     24040 1.75505E-02 7.83527E-02-2.81007E-05 1.51398E-01 1.94696E-05 7.32319E-05
 -1     24041-6.19084E-02 1.20539E-01 1.16734E-04 1.26460E-01 4.23343E-04 9.09266E-05
 -1     24042-1.08013E-01 5.23548E-02 8.41287E-06-2.74948E-02-3.23120E-05-1.10484E-04
 -1     24043-1.39593E-01 6.43130E-02 4.98644E-05-4.89617E-02-5.90593E-06-5.28322E-05
 -1     24044-1.62675E-01 7.16833E-02 3.88809E-05-6.81224E-02 3.64746E-05 5.70034E-05
 -1     24045-1.77545E-01 7.57608E-02 1.56284E-05-8.15282E-02-3.52548E-05 1.87104E-05
 -1     24046-1.87767E-01 7.84906E-02-2.34189E-05-9.11805E-02-9.28088E-06-1.58610E-05
 -1     24047-1.95286E-01 8.05477E-02 2.21027E-06-9.76392E-02-1.86836E-06 1.25456E-05
 -1     24048-2.01780E-01 8.28257E-02 2.46149E-07-1.01721E-01 3.33131E-07-1.37060E-05
 -1     24049-2.10255E-01 8.66588E-02-4.88319E-05-1.04366E-01-2.13284E-05-2.26559E-05
 -1     24050-2.24464E-01 9.38071E-02-7.91631E-05-1.06415E-01 4.77612E-05-6.34814E-05
 -1     24051-2.54439E-01 1.09811E-01-3.01908E-04-1.05836E-01 1.89700E-04-2.33989E-04
 -1     24052-1.11418E-01 6.52334E-03-1.07379E-04 3.99581E-03-8.25932E-05 5.35546E-05
 -1     24053 1.64588E-02-1.39820E-02 2.76390E-06 2.02836E-02 5.59753E-06-1.23879E-04
 -1     24054 5.26431E-02-1.64862E-02 1.01419E-04 3.77343E-02-8.46118E-06-7.52325E-05
 -1     24055 7.52439E-02-1.61694E-02-4.26868E-05 5.60110E-02 3.08310E-06 4.13298E-05
 -1     24056 8.51158E-02-1.35225E-02 3.34053E-05 7.29139E-02 3.14497E-05-3.78480E-07
 -1     24057 8.37289E-02-9.05101E-03 4.15167E-06 8.58458E-02-1.20062E-05-5.56760E-05
 -1     24058 7.21771E-02-1.88678E-03 3.89789E-05 9.17958E-02 1.20433E-05-4.57031E-05
 -1     24059 5.11476E-02 1.40692E-02 4.76984E-05 9.38786E-02 2.26423E-05-2.73784E-05
 -1     24060 6.22189E-02 1.19513E-02-1.07129E-05 1.06308E-01 8.12285E-06 2.05234E-06
 -1     24061 7.34273E-02 1.20470E-02-3.43616E-06 1.23009E-01 3.32133E-05 2.73542E-05
 -1     24062 8.26492E-02 1.61836E-02-1.46325E-05 1.42985E-01 1.23043E-04 1.12779E-04
 -1     24063 8.94375E-02 2.25850E-02 1.90612E-05 1.63020E-01 4.71788E-06-3.94462E-05
 -1     24064 9.35191E-02 3.04364E-02-4.56681E-05 1.80706E-01 1.06797E-05 3.62418E-05
 -1     24065 9.48874E-02 3.81506E-02-4.92833E-05 1.94419E-01 1.45206E-05 2.87138E-05
 -1     24066 9.41551E-02 4.46950E-02 5.43183E-06 2.03393E-01-1.80096E-05 2.96874E-05
 -1     24067 9.20273E-02 4.97284E-02-5.72596E-06 2.07965E-01-3.18798E-05-4.87050E-05
 -1     24068 8.87593E-02 5.33754E-02-3.25907E-05 2.08719E-01 1.33535E-05-4.86960E-07
 -1     24069 8.38575E-02 5.58892E-02-3.05222E-06 2.05543E-01 7.75635E-06 1.49815E-05
 -1     24070 7.63056E-02 5.80737E-02 6.29611E-05 1.98403E-01-7.48668E-05 5.46674E-05
 -1     24071 6.41844E-02 6.13750E-02-8.00417E-05 1.86533E-01-2.94049E-05 2.41389E-05
 -1     24072 4.00389E-02 6.91165E-02 4.24592E-05 1.66211E-01-1.41631E-04 1.17563E-04
 -1     24073-1.72760E-02 9.50632E-02-1.05201E-04 1.37982E-01-3.09774E-04 5.70333E-04
 -1     24074-2.05563E-01 8.44398E-02-2.15189E-05-1.03165E-01 1.02822E-06-5.92277E-05
 -1     24075-2.16199E-01 8.95485E-02 6.21783E-05-1.05340E-01 8.90957E-05 3.25422E-05
 -1     24076-2.36381E-01 9.99291E-02 1.22345E-04-1.07068E-01 4.40178E-05-2.42356E-04
 -1     24077-2.84404E-01 1.24965E-01-1.25244E-04-9.69308E-02-1.19472E-04-9.58866E-04
 -1     24078-6.87819E-02-2.96414E-03 2.15862E-05 3.74184E-03 2.21046E-04-2.42970E-04
 -1     24079 8.16748E-02-1.51044E-02-1.56564E-05 6.48159E-02-1.04715E-05 5.42355E-07
 -1     24080 8.59699E-02-1.17462E-02 6.07841E-07 8.01410E-02 9.05108E-06-2.03861E-05
 -1     24081 7.90571E-02-5.72126E-03 1.49451E-05 8.98785E-02-1.05028E-05 2.52254E-05
 -1     24082 6.36497E-02 2.60453E-03-5.59187E-05 9.15655E-02 4.84571E-06-5.55745E-06
 -1     24083 4.86411E-02 1.26653E-02-1.52985E-05 8.89594E-02 4.61031E-05 2.58205E-05
 -1     24084-1.98502E-01 8.16104E-02 2.80453E-06-9.99142E-02 1.58995E-06-1.32859E-05
 -1     24085-5.69338E-02 1.09079E-01 4.31924E-04 1.10334E-01 2.78998E-04 3.19507E-04
 -1     24086-1.91772E-01 7.95801E-02-2.46238E-06-9.47471E-02 2.36036E-05 1.21114E-05
 -1     24087-1.83141E-01 7.72827E-02 2.75989E-05-8.67897E-02 4.88382E-05 4.65891E-06
 -1     24088-1.70852E-01 7.40108E-02 2.82760E-05-7.53812E-02-1.47435E-05-7.92176E-07
 -1     24089-1.24696E-01 5.90802E-02-1.91300E-06-3.79883E-02-1.35117E-06-2.46764E-05
 -1     24090-1.52219E-01 6.85021E-02-9.96358E-06-5.91955E-02-1.82283E-05 6.39974E-06
 -1     24091-1.69386E-01 2.29708E-02 2.33631E-04 9.00498E-03-1.76436E-03 3.39271E-04
 -1     24092 6.57115E-02-1.67462E-02 7.57379E-06 4.68487E-02 1.41255E-06-4.38444E-05
 -1     24093 3.63753E-02-1.56861E-02 2.61711E-05 2.86717E-02-6.35593E-06 2.33566E-05
 -1     24094-1.84820E-01 7.71639E-02-2.93641E-06-8.95581E-02-6.06901E-06-9.33070E-07
 -1     24095-1.83211E-01 7.66955E-02 1.10012E-05-8.85452E-02 8.34894E-06 4.17397E-06
 -1     24096 7.05029E-02 4.71433E-03-1.42257E-05 1.05159E-01-2.03480E-05-1.01735E-05
 -1     24097 6.70336E-02 5.81542E-03 3.34677E-06 1.01898E-01-7.69146E-06-9.75242E-06
 -1     24098 8.10621E-02 4.47718E-03-1.07657E-05 1.21597E-01-3.34205E-05-3.60362E-05
 -1     24099 7.85116E-02 4.01780E-03 3.79164E-06 1.16849E-01-2.36714E-05-2.43578E-05
 -1     24100 8.91453E-02 7.76193E-03-6.51110E-05 1.39665E-01 2.51248E-05-3.30742E-05
 -1     24101 8.72152E-02 6.50990E-03 4.50246E-05 1.34676E-01-2.76303E-05 2.68004E-05
 -1     24102 9.37746E-02 1.42800E-02 3.27305E-05 1.57352E-01-7.01534E-05-1.86883E-05
 -1     24103 9.28077E-02 1.22834E-02-6.31802E-06 1.52494E-01-5.26724E-05-6.11220E-05
 -1     24104 9.49690E-02 2.27332E-02 6.52761E-05 1.72852E-01-4.40911E-05-3.90321E-05
 -1     24105 9.45805E-02 2.06295E-02 5.49364E-05 1.68936E-01-1.64427E-06 1.38936E-05
 -1     24106 9.34637E-02 3.15131E-02 6.60033E-05 1.84256E-01-4.97977E-05-4.64758E-05
 -1     24107 9.36447E-02 2.95577E-02 5.49684E-05 1.81499E-01-1.17151E-05-2.79378E-06
 -1     24108 9.00267E-02 3.93431E-02 6.67894E-05 1.91119E-01-7.22582E-05-9.82202E-05
 -1     24109 9.06490E-02 3.76867E-02 3.32706E-05 1.89477E-01 4.56448E-05-1.34751E-05
 -1     24110 8.55660E-02 4.57753E-02 7.50708E-06 1.94119E-01 5.91766E-05 7.21228E-05
 -1     24111 8.64447E-02 4.44006E-02 2.69152E-05 1.93409E-01 9.71776E-05 1.27442E-04
 -1     24112 8.02874E-02 5.05295E-02 1.73128E-05 1.93580E-01-1.49940E-05 2.12574E-05
 -1     24113 8.14471E-02 4.95811E-02 5.64350E-05 1.93876E-01-7.87160E-06 4.33162E-05
 -1     24114 7.32009E-02 5.43257E-02-3.82085E-05 1.89322E-01 4.09869E-05 2.01154E-05
 -1     24115 7.49328E-02 5.35509E-02 2.35562E-05 1.90586E-01-9.66849E-06-2.26490E-05
 -1     24116 6.28739E-02 5.80966E-02 3.81841E-05 1.81432E-01-8.50823E-05-1.95117E-05
 -1     24117 6.56325E-02 5.74213E-02-2.39401E-05 1.83729E-01 6.41561E-05 5.31789E-06
 -1     24118 4.73478E-02 6.40706E-02-2.34124E-05 1.70014E-01-1.26725E-05-7.53196E-05
 -1     24119 5.18020E-02 6.27129E-02-4.89150E-05 1.73627E-01-8.83932E-05-1.61460E-04
 -1     24120 1.71391E-02 7.67058E-02 2.47514E-05 1.52064E-01 5.01084E-05-1.14312E-05
 -1     24121 2.73827E-02 7.28140E-02 7.94982E-05 1.58376E-01 5.85071E-05 2.94356E-04
 -1     24122-4.37020E-02 1.07848E-01 1.08857E-04 1.40732E-01 1.93624E-04-5.88464E-04
 -1     24123-2.28767E-02 9.85145E-02-1.96225E-05 1.43216E-01 1.53798E-04-3.55333E-05
 -1     24124-5.66178E-02 9.65569E-02 1.21195E-04 1.10375E-01 7.13716E-05-8.84868E-06
 -1     24125-5.74618E-02 9.98123E-02 4.40789E-05 1.18802E-01 7.03625E-04 1.81833E-04
 -1     24126-1.93124E-01 8.02845E-02-2.09891E-05-9.27786E-02-2.16033E-05 5.29030E-06
 -1     24127-1.90979E-01 7.94119E-02-4.48404E-06-9.21687E-02 2.06503E-05 2.96851E-06
 -1     24128-5.56074E-02 1.14155E-01-1.05799E-06 1.49406E-01 4.76934E-04-1.83159E-04
 -1     24129-9.79292E-02 5.57018E-02-1.81141E-05-3.77697E-03 7.75700E-06 4.98019E-05
 -1     24130-8.91988E-02 5.24295E-02 2.84623E-05 2.05831E-03 3.36891E-05-3.92550E-05
 -1     24131-6.04279E-02 1.08972E-01-3.96928E-05 1.30770E-01 1.24775E-04 2.02377E-04
 -1     24132-5.96741E-02 1.08283E-01 5.75756E-05 1.37281E-01-2.24357E-04-1.02567E-04
 -1     24133-5.53069E-02 9.04120E-02-1.03218E-04 1.16732E-01 3.97988E-04 1.69998E-04
 -1     24134-1.77614E-01 7.53345E-02-4.49590E-06-8.38436E-02-8.66984E-06-2.13619E-05
 -1     24135-1.75765E-01 7.50138E-02-1.61191E-05-8.20709E-02-2.65205E-06-5.68187E-05
 -1     24136-4.96890E-02 6.10384E-02-8.00337E-04 5.48168E-02 1.31632E-03 1.96155E-03
 -1     24137-1.29087E-01 6.51498E-02-1.17078E-05-3.18041E-02 3.23970E-05-1.30435E-06
 -1     24138-1.22201E-01 6.29534E-02 4.42986E-06-2.60498E-02 3.92454E-05 3.41467E-05
 -1     24139-1.50878E-01 7.04339E-02-2.14035E-05-5.43428E-02-7.00847E-05-1.50201E-04
 -1     24140-1.46605E-01 6.92988E-02 4.85627E-06-5.01529E-02-3.04998E-05-6.77475E-05
 -1     24141-1.54039E-01 2.83354E-02-8.92572E-06 9.62769E-03 4.91673E-04-4.50932E-04
 -1     24142-1.89911E-01 4.61500E-02-3.93674E-04 1.18308E-02 2.00321E-04 3.55167E-04
 -1     24143-1.63957E-01 7.29963E-02-5.37146E-05-6.89373E-02-2.39682E-05-8.45162E-05
 -1     24144-1.60999E-01 7.23778E-02-6.14489E-05-6.58774E-02 6.14825E-05 7.56691E-05
 -1     24145-1.14173E-01 6.10546E-02 2.52923E-06-1.73316E-02 5.23568E-05 5.55651E-05
 -1     24146-1.06395E-01 5.82104E-02 4.09146E-06-1.13435E-02 3.14576E-05 2.70726E-05
 -1     24147-1.05451E-01 6.21098E-02 7.97786E-06-3.82413E-04 1.74955E-05-1.45259E-05
 -1     24148-1.73637E-01 7.46112E-02-3.91824E-05-7.97760E-02-8.14063E-06-1.46534E-05
 -1     24149-1.71485E-01 7.42117E-02 3.15180E-08-7.75862E-02 8.10254E-06 2.90285E-05
 -1     24150-1.59883E-01 7.05795E-02-3.11088E-05-6.88057E-02-2.32620E-05-4.80941E-06
 -1     24151-1.58033E-01 7.18404E-02 3.62879E-05-6.21424E-02-3.36127E-05 3.43741E-05
 -1     24152-1.54516E-01 7.10340E-02 1.09015E-05-5.85655E-02-1.70153E-05 7.95070E-06
 -1     24153-1.39007E-01 6.85053E-02-1.62226E-05-4.11487E-02-3.28258E-05 1.19499E-05
 -1     24154-1.45240E-01 6.91806E-02-6.69939E-06-4.95755E-02-2.93249E-05-1.83895E-05
 -1     24155-1.81327E-01 7.61824E-02 2.97616E-06-8.70997E-02-3.36997E-06 5.23681E-06
 -1     24156-1.79623E-01 7.57903E-02-1.39599E-05-8.57116E-02-1.30661E-05 2.30840E-05
 -1     24157-1.67779E-01 7.18404E-02 1.48571E-05-7.67434E-02-7.62687E-06-4.75460E-05
 -1     24158-1.69083E-01 7.37668E-02-5.09077E-07-7.47878E-02-7.10775E-06-8.12437E-06
 -1     24159-1.66640E-01 7.33144E-02 2.09789E-06-7.21855E-02-9.12514E-06-9.34605E-05
 -1     24160-1.50629E-01 6.97064E-02-7.39175E-06-5.69414E-02-2.95189E-05-1.45589E-06
 -1     24161-1.55447E-01 7.01188E-02-2.54699E-05-6.33370E-02-1.63708E-06-1.68283E-05
 -1     24162-1.88670E-01 7.84839E-02 4.05309E-06-9.14269E-02 9.80818E-06 1.17636E-05
 -1     24163-1.86826E-01 7.78425E-02-1.80996E-05-9.06145E-02-2.56585E-06 2.24496E-06
 -1     24164-1.75944E-01 7.43335E-02 6.59406E-06-8.10190E-02 2.25532E-05-5.23686E-05
 -1     24165-4.97162E-02 7.34687E-02 3.61840E-04 8.19304E-02-7.23730E-04-1.70951E-04
 -1     24166-5.24137E-02 8.42842E-02 3.06981E-04 9.37364E-02-8.51742E-04-1.06850E-04
 -1     24167-4.99550E-02 7.14555E-02-1.42675E-06 8.60849E-02-4.29672E-05 6.78650E-05
 -1     24168-5.10756E-02 4.99144E-02-2.50979E-04 3.74951E-02 1.98804E-03 1.48700E-03
 -1     24169-2.06130E-01 8.61472E-02 7.89925E-05-9.42334E-02-4.39599E-05 1.79562E-04
 -1     24170-2.02106E-01 8.44003E-02 4.41433E-05-9.39660E-02-3.05788E-05-3.74208E-05
 -1     24171-2.29322E-01 9.79054E-02-4.13017E-05-9.23509E-02 3.36274E-06 1.83594E-04
 -1     24172-2.21935E-01 9.44195E-02 5.71461E-05-9.28835E-02 2.48679E-05 2.84770E-04
 -1     24173-2.75422E-01 1.20466E-01-4.96405E-04-6.75321E-02-6.03309E-05 1.17627E-03
 -1     24174-2.56591E-01 1.11423E-01 2.01727E-04-7.89375E-02 1.52167E-04 5.28932E-04
 -1     24175-5.85488E-02-3.22872E-03-1.74738E-04 1.19418E-02 2.16855E-04-1.65736E-04
 -1     24176-7.77393E-02 6.01799E-04-9.56614E-05 1.10697E-02 1.35889E-04-2.06870E-04
 -1     24177-2.90837E-01 1.11959E-01 3.45931E-04-1.75973E-02 1.15368E-03-1.60231E-03
 -1     24178-2.79049E-01 1.17211E-01-2.24988E-04-4.94037E-02 5.64851E-04-3.23811E-04
 -1     24179-2.50764E-01 1.01450E-01-4.99679E-04-3.36795E-02-2.13492E-04-9.66245E-04
 -1     24180-2.33491E-01 6.93410E-02-5.83732E-05 5.10169E-03 2.88306E-04-2.09053E-04
 -1     24181 7.35253E-02-2.31226E-02-3.19405E-05 5.41250E-02 2.33655E-05 1.46510E-05
 -1     24182 6.77989E-02-2.29046E-02-9.79688E-05 4.97561E-02-4.36675E-05-6.88245E-05
 -1     24183 2.60105E-02-1.96344E-02 5.31223E-06 2.90489E-02 9.71766E-05-5.54967E-06
 -1     24184 1.50783E-02-1.85286E-02-1.70419E-05 2.53188E-02 1.90213E-05 4.70233E-05
 -1     24185 8.72058E-02-2.02691E-02-4.63649E-05 7.00788E-02 3.33327E-05-2.09596E-05
 -1     24186 8.49414E-02-2.10961E-02-2.58829E-05 6.61004E-02 4.22511E-06 9.82575E-06
 -1     24187 2.62487E-03-1.59928E-02 1.03446E-05 2.18698E-02-1.57342E-05 2.45628E-05
 -1     24188-1.04465E-02-1.45751E-02-4.07897E-06 1.89811E-02-2.08930E-05 1.35310E-05
 -1     24189 1.18864E-02-2.01133E-02 1.15139E-05 3.09189E-02-1.27705E-05 3.56683E-05
 -1     24190 8.20105E-02-2.21535E-02 5.77383E-05 6.22878E-02 2.39238E-05 7.04030E-06
 -1     24191 7.81143E-02-2.25705E-02 5.53836E-05 5.80409E-02-6.14834E-05-2.80428E-06
 -1     24192 8.01743E-02-2.76733E-02 3.15453E-05 6.07587E-02 8.27617E-05-3.06745E-05
 -1     24193 8.76693E-02-2.62840E-02 1.02226E-06 6.79954E-02 8.91428E-06-1.54645E-05
 -1     24194 8.87687E-02-1.51175E-02-5.11339E-06 8.39131E-02 4.84596E-05-1.46866E-05
 -1     24195 8.94721E-02-1.64356E-02 2.10599E-06 8.08355E-02 3.82231E-05 9.12778E-06
 -1     24196 7.86784E-02-6.31907E-03-2.16780E-05 9.20876E-02-4.58600E-05-1.37482E-05
 -1     24197 8.19431E-02-8.17262E-03-2.70402E-05 9.07951E-02-3.38388E-05-2.61952E-05
 -1     24198 6.00274E-02 5.36353E-03 5.83075E-05 9.19840E-02-2.23899E-06-1.61412E-05
 -1     24199 6.49364E-02 2.92254E-03 2.94413E-05 9.27989E-02 3.26826E-05 2.05504E-05
 -1     24200 5.73951E-02 1.00486E-02-6.32130E-05 9.49998E-02 8.22541E-06 3.13633E-05
 -1     24201 5.55208E-02 9.85640E-03 2.15898E-05 9.24525E-02-1.41451E-05-1.93452E-05
 -1     24202 5.44148E-02 9.39817E-03-7.91205E-06 9.08720E-02 4.81721E-06-9.61722E-06
 -1     24203-6.13914E-02 4.82664E-02 4.63203E-05 2.81159E-02 3.14001E-05 2.04567E-04
 -1     24204 4.56900E-02 1.14565E-02-3.43189E-05 8.38435E-02-4.08846E-05-2.07179E-05
 -1     24205-6.17023E-02 1.14568E-01-2.93087E-05 1.44456E-01-5.78451E-05 1.13648E-04
 -1     24206-5.85525E-02 1.12180E-01 1.49447E-04 1.47551E-01 2.96436E-04 1.76811E-04
 -1     24207-5.86761E-02 1.02458E-01-1.37579E-05 1.36288E-01-5.12821E-05-2.97494E-05
 -1     24208 6.18576E-02 9.21512E-03 2.30689E-05 1.00296E-01-2.27622E-05-1.29584E-05
 -1     24209 5.88352E-02 9.94317E-03 3.18335E-05 9.71701E-02 2.11595E-05-4.51562E-05
 -1     24210 6.30993E-02 5.54317E-03-5.26360E-05 9.55706E-02 8.95964E-06 1.25055E-05
 -1     24211 6.98021E-02 2.35975E-03-2.02989E-05 9.91167E-02-2.38588E-05-3.98744E-05
 -1     24212 6.11279E-02-2.28222E-02 5.11258E-05 4.55256E-02 1.57250E-04 8.87943E-06
 -1     24213 5.40168E-02-2.26750E-02 3.08582E-05 4.11371E-02 7.79154E-05-1.05657E-06
 -1     24214 6.93219E-02-2.80259E-02-8.59721E-06 5.27972E-02-7.16730E-05-3.32481E-05
 -1     24215-7.96094E-02 5.01119E-02 2.13311E-05 1.05681E-02-3.75285E-05-1.07072E-05
 -1     24216-6.97243E-02 4.74352E-02 7.03832E-05 1.72564E-02-4.39333E-06 4.93804E-05
 -1     24217-7.34530E-02 5.40810E-02 7.74427E-05 3.34179E-02-4.39037E-05-1.09193E-04
 -1     24218 7.07402E-02 5.54121E-02-1.59706E-05 1.87616E-01 4.54873E-05 4.75765E-05
 -1     24219 6.19087E-02 5.34750E-02 1.63661E-05 1.73053E-01-2.35383E-05 1.03707E-05
 -1     24220 6.85663E-02 5.61525E-02-1.81899E-05 1.85841E-01 4.68374E-05 4.23909E-06
 -1     24221 7.60786E-02 4.13037E-03 2.32972E-06 1.13000E-01-1.23591E-05-2.09728E-05
 -1     24222 7.32587E-02 4.16289E-03 2.57736E-06 1.08758E-01-2.57559E-05-1.36822E-05
 -1     24223 8.53657E-02 5.83073E-03 3.04273E-05 1.30551E-01-1.49750E-04 3.65188E-05
 -1     24224 8.31965E-02 4.87797E-03-1.19141E-05 1.25629E-01-7.37191E-05-5.63033E-05
 -1     24225 9.18833E-02 1.05077E-02-3.68543E-06 1.48552E-01-6.55483E-05-1.02090E-04
 -1     24226 9.02760E-02 9.14346E-03-8.39359E-05 1.43765E-01 3.97273E-05-1.68791E-04
 -1     24227 9.47867E-02 1.83840E-02-6.09256E-05 1.65492E-01 1.96984E-05 3.54288E-05
 -1     24228 9.41040E-02 1.62629E-02 2.18446E-05 1.61113E-01-5.22018E-06 5.30953E-05
 -1     24229 9.45378E-02 2.72377E-02-3.48597E-05 1.79094E-01 3.52669E-05 3.65152E-05
 -1     24230 9.45026E-02 2.50800E-02 2.67341E-06 1.75724E-01 2.34837E-06-5.60500E-06
 -1     24231 9.19518E-02 3.56676E-02-3.01569E-05 1.88186E-01 6.36716E-05 4.69808E-05
 -1     24232 9.24152E-02 3.37481E-02 1.48104E-05 1.86027E-01 1.02651E-05-2.06311E-06
 -1     24233 8.79033E-02 4.27710E-02-2.02045E-05 1.92933E-01-1.18493E-05 3.32952E-05
 -1     24234 8.86880E-02 4.12680E-02-2.41070E-05 1.91902E-01-3.89175E-06 3.12790E-05
 -1     24235 8.30762E-02 4.82956E-02 5.73187E-06 1.94215E-01-8.90442E-06-1.32596E-05
 -1     24236 8.40303E-02 4.71941E-02 1.14842E-05 1.94003E-01 1.38400E-05 6.18243E-06
 -1     24237 7.70577E-02 5.24768E-02 1.57951E-05 1.91909E-01-1.14329E-05 1.47808E-05
 -1     24238 7.84609E-02 5.16533E-02 3.21552E-05 1.92692E-01 1.78788E-05 1.85343E-05
 -1     24239 5.60238E-02 5.62595E-02 5.65065E-08 1.69368E-01-1.78151E-06 3.82854E-06
 -1     24240 7.77857E-02-2.09696E-03-3.24923E-06 1.03946E-01-1.43862E-05-5.14778E-06
 -1     24241 5.59922E-02 6.08632E-02-2.31758E-06 1.76223E-01 2.78478E-05-2.02253E-04
 -1     24242 5.89609E-02 5.97962E-02 2.77037E-05 1.78898E-01-1.47079E-05 3.53012E-05
 -1     24243 3.54103E-02 6.87365E-02 3.01624E-05 1.62329E-01 6.51263E-05 1.11281E-04
 -1     24244 4.17295E-02 6.67623E-02-5.73798E-05 1.66892E-01 3.55227E-06 4.81117E-05
 -1     24245-1.04401E-02 9.01532E-02 2.86834E-06 1.42062E-01 1.68476E-04-4.41455E-05
 -1     24246 5.11026E-03 8.35332E-02-3.42586E-05 1.48761E-01 8.88698E-05 1.55262E-05
 -1     24247-5.40196E-02 1.09596E-01-3.57608E-05 1.45248E-01 5.82823E-04 5.87471E-05
 -1     24248-8.98625E-02 5.82286E-02 6.49061E-06 1.68868E-02 3.03282E-05-7.08168E-06
 -1     24249 7.12076E-02 4.84012E-02-1.14529E-05 1.78176E-01-9.26489E-06 2.78463E-05
 -1     24250 7.84350E-02 4.25022E-02-2.46055E-06 1.79758E-01 5.55117E-06 8.52752E-06
 -1     24251-1.63935E-01 7.11491E-02-2.76170E-05-7.32488E-02-1.67116E-05-2.19947E-05
 -1     24252-1.36041E-01 6.66132E-02-4.32656E-06-3.95240E-02 6.25842E-06 4.22258E-06
 -1     24253-1.19824E-01 6.51524E-02 7.64359E-06-1.74926E-02 3.26532E-05-1.68179E-05
 -1     24254-1.41659E-01 6.82490E-02 6.78079E-07-4.46749E-02-6.81733E-06-6.74008E-06
 -1     24255 8.51883E-02 3.49221E-02 1.95974E-07 1.78350E-01 3.23705E-05 7.26457E-05
 -1     24256-1.30922E-01 6.70999E-02 1.30620E-05-3.10670E-02 1.12361E-05-4.65418E-05
 -1     24257-1.71616E-01 7.28383E-02-1.03072E-05-7.92614E-02-2.69119E-05-1.48191E-05
 -1     24258 9.11162E-02 2.58420E-02 3.59900E-05 1.73471E-01-1.09898E-05 6.04722E-05
 -1     24259 9.54466E-02 1.58813E-02 1.04966E-05 1.64217E-01-5.23005E-06 6.92608E-05
 -1     24260 9.70074E-02 6.39426E-03-4.45746E-05 1.50878E-01-2.21783E-05 3.77210E-05
 -1     24261 9.46322E-02-4.74998E-04-6.37076E-06 1.35384E-01 5.43248E-05-1.54651E-04
 -1     24262-2.10635E-01 6.82655E-02-3.66094E-04 3.41555E-04 3.10467E-04 4.23727E-04
 -1     24263-4.06784E-02-8.88943E-03 8.35918E-05 1.41637E-02-2.78722E-05 4.63660E-05
 -1     24264-4.90605E-02-5.00928E-03-1.69573E-05 2.10088E-02 5.41996E-05-3.73705E-05
 -1     24265-2.52107E-02-1.10018E-02 4.43224E-05 1.61158E-02-4.94151E-05 3.27938E-05
 -1     24266 8.71624E-02-1.28581E-02 1.94119E-07 8.66161E-02 1.36464E-05-4.99715E-05
 -1     24267 9.05477E-02-1.66417E-02-3.27489E-06 8.74031E-02 3.44231E-05-6.40209E-06
 -1     24268 8.51775E-02-1.12544E-02 8.66762E-06 8.89011E-02 1.27137E-04 5.79254E-05
 -1     24269-2.36714E-01 1.01897E-01-1.27320E-04-8.91209E-02 7.03371E-05-8.17573E-05
 -1     24270-2.20321E-01 9.56159E-02-1.19853E-04-7.42127E-02 1.46595E-05-3.29821E-05
 -1     24271-2.49327E-01 1.07717E-01 1.76138E-04-8.62345E-02-6.07091E-06-3.26401E-04
 -1     24272-1.98639E-01 8.27585E-02-6.17072E-06-9.35367E-02-3.50334E-05-9.51588E-05
 -1     24273-1.95901E-01 8.15370E-02 6.86043E-06-9.31880E-02-4.09957E-05-1.79766E-05
 -1     24274-2.15689E-01 9.09844E-02 1.08190E-05-9.40090E-02 3.70308E-05 1.58073E-04
 -1     24275-2.10655E-01 8.85618E-02 3.69930E-05-9.39117E-02 1.07450E-05 7.99309E-06
 -1     24276-2.37464E-01 1.02785E-01-1.65167E-04-6.19760E-02 6.25536E-05 6.07733E-05
 -1     24277-1.81084E-01 7.63636E-02 1.45204E-05-8.20246E-02-2.64416E-05 2.34512E-05
 -1     24278-9.96869E-02 7.91220E-03-5.67982E-05 9.83787E-03-2.08375E-04 1.02009E-04
 -1     24279-1.23374E-01 1.42843E-02-1.06251E-04 1.03050E-02 1.25347E-04-5.31454E-05
 -1     24280 3.63870E-02-2.11165E-02-3.63074E-06 3.28648E-02-1.29542E-05 3.14749E-05
 -1     24281 3.49724E-02-2.41646E-02 5.91496E-06 3.75229E-02-1.81420E-05 1.74567E-05
 -1     24282 4.54808E-02-2.16322E-02-1.60964E-06 3.69549E-02 5.68408E-05-5.16490E-06
 -1     24283 8.80072E-02-3.49809E-03 1.48626E-06 1.19146E-01 1.36843E-05-3.21616E-06
 -1     24284-1.57403E-02-1.40057E-02-6.95764E-06 2.52753E-02-1.93102E-05 4.22004E-05
 -1     24285 4.90277E-02 5.94812E-02-5.06949E-06 1.64902E-01-3.73724E-05-2.40544E-05
 -1     24286 8.96004E-02-1.82194E-02 2.82757E-05 7.75207E-02-2.97488E-05-1.06595E-05
 -1     24287 8.85934E-02-1.89482E-02 3.27765E-05 7.38749E-02-2.53011E-05 1.73278E-05
 -1     24288 8.50026E-02-1.10938E-02 1.62771E-06 9.16136E-02 1.18455E-05-4.43602E-06
 -1     24289 6.68271E-02 2.32388E-03-1.00891E-05 9.39596E-02-2.51533E-05 3.66510E-05
 -1     24290 7.00103E-02-6.33158E-04 6.45891E-05 9.30332E-02 4.03427E-05 1.83596E-05
 -1     24291 7.43646E-02-2.96463E-03-2.89808E-05 9.27436E-02-9.67357E-06 6.21663E-06
 -1     24292 6.87112E-02 1.83911E-03-5.15214E-05 9.59412E-02-5.54949E-05-6.59178E-05
 -1     24293 9.17551E-02-2.42017E-03-2.14275E-06 1.27258E-01-1.45443E-04 2.36244E-05
 -1     24294-3.45587E-02 1.02358E-01-1.10171E-05 1.41619E-01 3.86186E-05-3.49692E-05
 -1     24295-5.75065E-02 5.49582E-02 8.54491E-05 5.32564E-02-1.33846E-04-1.87288E-04
 -1     24296 6.68839E-02 5.09575E-02 3.11585E-05 1.76044E-01 1.64549E-05 6.24106E-05
 -1     24297 7.50351E-02 4.55757E-02 5.28396E-05 1.79430E-01-9.78987E-06 2.38534E-05
 -1     24298 8.18326E-02 3.89737E-02 8.96740E-06 1.79457E-01-1.39832E-05 4.69665E-05
 -1     24299 9.36539E-02 2.07956E-02 2.73249E-05 1.69405E-01 8.63515E-06 3.39996E-05
 -1     24300 9.67211E-02 1.08452E-02 2.65507E-06 1.58027E-01 2.27174E-06 1.88661E-05
 -1     24301 9.18011E-02-2.39416E-02 2.93956E-05 7.51611E-02 1.60440E-06-2.03630E-05
 -1     24302-1.41905E-01 3.12343E-02-7.13207E-05 1.37951E-02 5.56246E-06-1.27356E-04
 -1     24303 8.82899E-02 3.05428E-02 2.00015E-05 1.76356E-01 1.48076E-06-6.84762E-06
 -1     24304-1.95810E-01 8.33973E-02 7.17353E-05-8.18650E-02 7.12833E-05-4.35981E-05
 -1     24305 9.65735E-02 2.32944E-03-3.44515E-07 1.43159E-01 2.15593E-05 1.42843E-05
 -1     24306-7.17951E-03 8.70115E-02 1.16346E-05 1.42711E-01 1.74580E-04 3.45946E-04
 -1     24307 2.98748E-02 6.85289E-02-2.89292E-05 1.55065E-01 3.74861E-06 2.00542E-05
 -1     24308 8.32952E-02-3.31163E-03 2.92209E-06 1.11284E-01-7.32026E-06 1.34821E-06
 -1     24309 1.50462E-02 7.59686E-02-3.76720E-06 1.48622E-01-2.06911E-04-1.60275E-04
 -1     24310 4.04174E-02 6.33996E-02 2.25524E-05 1.60075E-01-1.43742E-05 1.33156E-04
 -1     24311-2.06551E-01 8.88425E-02-7.73560E-05-7.95534E-02 1.24809E-04-6.55389E-05
 -1     24312 7.69088E-02-4.62814E-03 9.88965E-06 9.38441E-02-1.74919E-06 4.97778E-06
 -1     24313-1.87534E-01 7.92904E-02 3.91927E-05-8.24979E-02 1.17598E-04-7.00860E-05
 -1     24314 5.39974E-02-2.66940E-02 3.31387E-06 4.50178E-02-9.48339E-06 2.33970E-05
 -1     24315-8.89351E-02 8.06191E-03-8.42054E-05 1.71626E-02-1.29208E-04 1.35331E-04
 -1     24316 9.26568E-02-2.07509E-02-6.20750E-06 8.16753E-02 2.39557E-05 5.19535E-05
 -1     24317-7.73812E-02 7.79193E-03-1.99744E-05 2.10982E-02 6.03647E-05-1.38157E-05
 -1     24318-9.98439E-02 1.61541E-02-7.38709E-06 1.94928E-02 8.37754E-05 7.86849E-06
 -1     24319-1.82479E-03 8.00930E-02-7.14449E-05 1.37711E-01-6.65671E-05 1.55547E-04
 -1     24320 7.45237E-03 7.54437E-02-3.94002E-05 1.40772E-01-4.80780E-05-1.57643E-04
 -1     24321-6.37994E-03-1.63298E-02-6.12518E-06 3.19819E-02 1.50850E-06 2.45984E-05
 -1     24322-2.16072E-02-1.25325E-02-1.39026E-05 2.95957E-02 2.55776E-05 2.15401E-05
 -1     24323-4.90347E-02 1.04770E-01-5.18382E-05 1.37296E-01-8.89702E-05 1.19239E-04
 -1     24324-3.71706E-02 9.75445E-02-1.50276E-05 1.35383E-01 1.13128E-04 7.58839E-05
 -1     24325-2.45907E-02 9.20932E-02 2.41002E-05 1.34629E-01 1.32275E-04 3.77781E-04
 -1     24326-1.15583E-02 8.53478E-02 7.00650E-05 1.36336E-01 1.30229E-05 2.63540E-04
 -1     24327-1.85627E-02 8.40285E-02-9.38556E-06 1.28285E-01 3.44700E-05 1.40683E-04
 -1     24328-4.08095E-02 9.34749E-02-1.85966E-06 1.27141E-01-8.68922E-05-2.04989E-04
 -1     24329 9.81229E-02-6.98953E-03 8.29558E-05 1.31231E-01 1.48312E-04-5.07528E-05
 -1     24330 9.70865E-02-8.23176E-03 1.01781E-04 1.27244E-01 5.78963E-05-3.26510E-05
 -1     24331 9.51843E-02-2.64229E-02 1.32800E-05 8.01731E-02-5.54912E-05 5.35526E-06
 -1     24332 9.39848E-02-2.76399E-02-4.76407E-06 7.69675E-02-1.10106E-04-6.52723E-05
 -1     24333 9.82321E-02 2.99236E-04-4.91639E-05 1.45168E-01-4.68463E-05-5.70612E-05
 -1     24334 9.83842E-02-1.99285E-03-8.91653E-06 1.41382E-01-1.52114E-05 8.43145E-06
 -1     24335 9.42234E-02 1.05464E-02-9.90587E-05 1.56451E-01-9.11574E-05 4.45453E-05
 -1     24336 9.51287E-02 7.92250E-03-8.72633E-05 1.53646E-01-2.83943E-05 1.71541E-04
 -1     24337-1.85051E-01 7.94099E-02 4.53397E-05-6.88913E-02-6.43687E-05 1.01552E-04
 -1     24338-1.80320E-01 7.72882E-02 1.77624E-05-6.97412E-02 2.86934E-05-3.26295E-05
 -1     24339-1.21163E-01 6.69877E-02 3.65870E-06-1.90072E-02-1.72488E-05 1.21921E-04
 -1     24340-1.16838E-01 6.65791E-02 4.27673E-06-1.32780E-02 8.37051E-06 3.04035E-05
 -1     24341-1.50859E-01 6.74531E-02-5.44274E-07-6.26199E-02-7.90086E-05-2.63922E-05
 -1     24342-1.48924E-01 6.72879E-02 8.91989E-06-6.06219E-02 1.00951E-05 4.77544E-05
 -1     24343 7.47179E-02 3.57663E-02 1.47568E-05 1.66537E-01-2.52774E-05 6.64613E-06
 -1     24344 7.64865E-02 3.38270E-02-1.85104E-05 1.66390E-01-2.04321E-05-2.97011E-05
 -1     24345 6.60389E-02 4.34884E-02 3.71884E-05 1.65233E-01-1.31068E-05-3.03882E-05
 -1     24346 6.80147E-02 4.19381E-02 9.48070E-06 1.65675E-01 3.07667E-05-4.18547E-05
 -1     24347 4.29013E-02 5.64297E-02 7.02031E-07 1.53616E-01 1.70950E-05 5.68045E-06
 -1     24348 4.63086E-02 5.49633E-02 9.39839E-06 1.55634E-01 2.68921E-05 7.03493E-05
 -1     24349 8.89646E-02-9.01212E-03 2.37581E-06 1.09578E-01-1.22238E-05-5.91988E-06
 -1     24350 8.63115E-02-8.36099E-03-6.60634E-08 1.05792E-01-8.15144E-06-7.77642E-06
 -1     24351 2.48265E-02 6.53873E-02 4.14477E-05 1.45190E-01 8.88582E-05 4.74122E-05
 -1     24352 2.96326E-02 6.30623E-02 3.85319E-05 1.47331E-01 2.70707E-05 8.37799E-05
 -1     24353 1.32522E-02 7.16180E-02-3.11813E-05 1.41352E-01-1.89288E-05-5.21360E-05
 -1     24354 1.96893E-02 6.85438E-02-1.43261E-04 1.43858E-01 1.38311E-04 2.63090E-04
 -1     24355-2.51156E-03 7.52420E-02 2.18771E-05 1.29963E-01-5.36679E-05 2.34447E-05
 -1     24356-5.68113E-02 6.55328E-02 1.40956E-05 7.37596E-02 6.57724E-05 7.77096E-05
 -1     24357-5.59077E-02 1.02472E-01 6.16750E-05 1.36091E-01-1.95894E-04-2.35478E-04
 -1     24358 9.63501E-02-8.76851E-03-7.58756E-05 1.24168E-01-3.03531E-05 4.03304E-05
 -1     24359 9.46218E-02-9.27784E-03-9.04726E-05 1.20138E-01-8.55532E-05 1.24085E-04
 -1     24360 1.00091E-01-1.53926E-02 2.32613E-07 1.20029E-01-1.34597E-05-3.21388E-05
 -1     24361-1.58792E-01 6.88217E-02 3.34757E-06-6.85583E-02-5.19112E-05-4.96188E-05
 -1     24362-1.56780E-01 6.83560E-02 1.30662E-05-6.75242E-02-8.76300E-06-3.75380E-05
 -1     24363 6.17002E-02-3.06991E-02 1.65661E-06 5.21889E-02-2.69442E-05 1.63439E-05
 -1     24364 5.31197E-02-2.97444E-02 1.66413E-07 4.85903E-02-1.27588E-07 1.05775E-05
 -1     24365 7.89227E-02 3.15228E-02-3.78554E-05 1.66440E-01 2.21231E-06-4.37077E-05
 -1     24366 8.06551E-02 2.92395E-02 4.25335E-07 1.65585E-01 3.05691E-05 3.30717E-05
 -1     24367 7.21305E-02 2.85774E-02-2.88938E-06 1.53762E-01 1.77879E-08-5.96064E-06
 -1     24368 3.46199E-02 6.04112E-02 5.43556E-06 1.49329E-01 1.25012E-05 6.46110E-06
 -1     24369 3.88119E-02 5.85909E-02-1.45865E-05 1.51629E-01 1.61577E-05-2.30236E-05
 -1     24370 1.99211E-02 6.24529E-02 6.18243E-06 1.34677E-01 1.75987E-05 2.17954E-05
 -1     24371-1.12473E-01 6.63006E-02 1.29137E-05-6.07507E-03 4.66073E-05 1.44900E-05
 -1     24372-1.05866E-01 6.52485E-02 2.51975E-06 2.09208E-03 3.98324E-05 8.32569E-06
 -1     24373-1.03811E-01 6.66602E-02-1.17997E-05 5.78935E-03 1.03538E-04 8.60841E-05
 -1     24374-1.46705E-01 6.71557E-02-3.36563E-05-5.78171E-02 2.28101E-05 2.03944E-05
 -1     24375-1.44549E-01 6.69522E-02-2.28765E-05-5.53494E-02-1.14855E-05-1.42531E-05
 -1     24376-1.33875E-01 6.34849E-02 1.44551E-06-4.74006E-02 1.17180E-05 2.28714E-05
 -1     24377-1.68951E-01 7.22601E-02 1.82167E-06-7.07357E-02-1.28774E-05 5.78652E-05
 -1     24378-1.66008E-01 7.11501E-02-2.60276E-05-7.05504E-02 3.08980E-05-1.48071E-05
 -1     24379 9.88358E-02-4.00208E-03-7.20489E-06 1.38476E-01 1.89635E-05 1.22993E-05
 -1     24380 9.86119E-02-5.75066E-03 7.00853E-06 1.34578E-01 6.79317E-05 8.61867E-05
 -1     24381 1.00363E-01-1.01216E-02-2.50818E-06 1.32681E-01 1.62712E-05 1.15517E-05
 -1     24382-2.21117E-01 9.40549E-02-5.19068E-04-4.06885E-02-2.22022E-04-3.56880E-04
 -1     24383-2.12757E-01 9.15536E-02-1.19096E-04-5.01962E-02-7.16261E-05-3.49529E-04
 -1     24384 4.32595E-02-2.78676E-02 3.43368E-06 4.48042E-02-1.48944E-05 1.93646E-05
 -1     24385 3.26567E-02-2.62095E-02 5.21345E-06 4.15046E-02 5.56628E-06 1.14924E-05
 -1     24386 5.08612E-02-3.09256E-02 1.56149E-06 5.21685E-02-1.67502E-05 1.55992E-05
 -1     24387-2.21076E-01 8.35173E-02 7.38344E-05-1.22937E-02-1.94734E-04 1.45169E-05
 -1     24388-2.21569E-01 9.01513E-02-3.84671E-04-2.83408E-02-2.36960E-04-3.91105E-04
 -1     24389-1.97395E-01 7.78295E-02 5.44449E-05-1.93929E-02-1.90885E-04 4.27846E-04
 -1     24390-1.85348E-01 5.97719E-02-2.51086E-04 1.55679E-03 2.62904E-04 2.45418E-04
 -1     24391 9.12166E-02-1.70600E-02 7.99420E-07 9.17080E-02 2.17583E-05 1.86673E-05
 -1     24392 9.33762E-02-1.95228E-02-9.04335E-06 8.94137E-02 1.01872E-05 2.21323E-05
 -1     24393 8.72999E-02 2.14761E-02-9.39432E-05 1.63517E-01-9.63109E-05 4.37484E-05
 -1     24394 8.87529E-02 1.88474E-02-7.94313E-05 1.61825E-01-1.92322E-05 1.77875E-04
 -1     24395-1.76077E-01 7.52734E-02 1.78102E-05-7.06566E-02 1.67263E-05-1.20663E-05
 -1     24396-1.72350E-01 7.37182E-02 3.53164E-05-7.06585E-02 1.31112E-05 6.46153E-05
 -1     24397-1.64179E-01 7.11552E-02-1.17819E-06-5.78846E-02-8.39311E-06 4.80505E-07
 -1     24398 9.30846E-02-9.53037E-03-1.13540E-05 1.16735E-01 6.40313E-05 6.35515E-05
 -1     24399 9.09614E-02-9.39868E-03 7.13175E-06 1.12753E-01-2.28789E-06 6.87484E-06
 -1     24400 9.38821E-02-1.49159E-02 2.10404E-05 1.07036E-01-3.72798E-05 1.94412E-05
 -1     24401 9.75558E-02-1.57497E-02-3.69952E-05 1.13550E-01 1.87093E-05 3.34273E-05
 -1     24402-2.09324E-01 9.04984E-02-1.96565E-04-5.76880E-02-4.90464E-05-2.19696E-04
 -1     24403-2.00798E-01 8.70198E-02-3.36706E-04-6.15858E-02 1.04133E-04-4.81232E-04
 -1     24404-1.93583E-01 8.16867E-02 1.14551E-04-3.76151E-02 1.56982E-05 5.58730E-04
 -1     24405 8.39220E-02-7.36376E-03-2.58598E-06 1.02869E-01-8.71664E-06-4.45815E-06
 -1     24406 8.08099E-02-6.15699E-03-4.14006E-06 9.93850E-02-1.16763E-05-5.44294E-06
 -1     24407 8.91189E-02-1.28600E-02-4.42972E-06 1.00881E-01 3.67057E-06 3.92860E-06
 -1     24408-5.98834E-02 9.16008E-02 3.60926E-06 1.19913E-01-9.24043E-05-1.19742E-05
 -1     24409-5.86913E-02 9.68828E-02-5.12021E-05 1.27795E-01-1.16205E-04-6.82790E-05
 -1     24410 5.59943E-02 4.99901E-02 2.26290E-05 1.60957E-01 1.62197E-05-1.07971E-05
 -1     24411 5.84799E-02 4.85744E-02 3.90253E-05 1.62231E-01 4.46630E-05 8.58281E-05
 -1     24412-8.37790E-02 6.40470E-02 3.17551E-07 3.62996E-02-1.62922E-05-1.66668E-05
 -1     24413-7.61684E-02 6.26379E-02-4.41751E-06 4.52108E-02-1.41092E-05-7.41921E-05
 -1     24414 4.99344E-02 5.30970E-02 9.95063E-06 1.57585E-01-4.89339E-06 1.60187E-05
 -1     24415 5.28490E-02 5.16775E-02 1.96586E-05 1.59244E-01 4.83885E-05 4.61369E-05
 -1     24416 4.45790E-02 4.96643E-02 3.65511E-05 1.45779E-01 8.07217E-05-1.97797E-05
 -1     24417 3.74932E-02 5.33813E-02 1.96453E-05 1.42140E-01 4.94626E-05 3.66392E-05
 -1     24418 2.06712E-02-2.32458E-02 5.34971E-06 3.80149E-02-6.24254E-06 2.09189E-05
 -1     24419 7.98473E-03-2.06852E-02-3.19464E-06 3.51800E-02 1.06905E-05 1.95522E-05
 -1     24420 2.29212E-03-1.87640E-02-2.27772E-06 3.91653E-02-4.16083E-06 2.92192E-05
 -1     24421 2.88366E-02-2.60796E-02 4.17728E-06 4.54154E-02-9.58247E-06 2.14087E-05
 -1     24422-3.87743E-02-6.38479E-03-1.11961E-05 2.65158E-02 2.16755E-05-1.10553E-06
 -1     24423-5.70800E-02-6.71850E-04-1.73818E-05 2.45408E-02 3.39730E-05-8.79718E-06
 -1     24424-6.70840E-02 6.33188E-03 1.27798E-06 2.67962E-02-1.17910E-05-4.21880E-05
 -1     24425-2.94175E-02-8.25365E-03-6.96754E-06 3.31425E-02 1.53872E-06 1.84393E-05
 -1     24426-9.70562E-02 6.55553E-02-4.17349E-06 1.69787E-02 6.46777E-06 2.29722E-05
 -1     24427-8.96491E-02 6.44217E-02 7.64760E-06 2.66087E-02 1.72397E-05-1.77660E-05
 -1     24428-7.78983E-02 6.83169E-02 7.48740E-06 5.30369E-02-1.76339E-05-3.16131E-05
 -1     24429-9.09970E-02 6.72106E-02-3.46518E-06 2.79544E-02-5.75281E-06-3.57631E-05
 -1     24430-1.63353E-01 7.02112E-02-2.49074E-05-7.00672E-02-1.09369E-05 2.61464E-05
 -1     24431-1.60988E-01 6.94408E-02-3.07729E-06-6.94483E-02 1.77243E-05-5.46103E-05
 -1     24432-1.50871E-01 6.60559E-02-1.38717E-05-5.89948E-02 1.33594E-05-1.70050E-05
 -1     24433-1.54775E-01 6.79769E-02-2.80840E-05-6.61129E-02-1.43981E-05-2.75613E-05
 -1     24434-1.52891E-01 6.76911E-02-1.05287E-05-6.46322E-02-2.14799E-05-7.45068E-05
 -1     24435-1.37980E-01 6.36488E-02 5.42032E-06-5.21314E-02-3.56503E-05-2.91417E-05
 -1     24436-1.41992E-01 6.40386E-02-1.44292E-05-5.55472E-02 1.43449E-05-1.49145E-05
 -1     24437 8.31771E-02 2.66375E-02 1.79530E-05 1.65365E-01 2.00320E-05 2.92489E-05
 -1     24438 8.48454E-02 2.41416E-02 5.47178E-05 1.64221E-01 6.46637E-05 5.60440E-05
 -1     24439 7.74243E-02 2.33020E-02-8.87861E-06 1.53818E-01-1.82025E-05 9.56454E-06
 -1     24440-1.25902E-01 2.88653E-02-3.63626E-05 1.48364E-02 1.32791E-04-1.26960E-04
 -1     24441-1.53948E-01 4.34418E-02-1.03161E-04 1.13955E-02 1.36580E-04-9.18729E-06
 -1     24442-1.66175E-01 5.53046E-02 1.72347E-04 3.23597E-03-1.76694E-04 9.21481E-05
 -1     24443-1.12645E-01 2.70220E-02-6.92360E-05 1.81131E-02 2.48445E-06 7.50752E-05
 -1     24444-6.15248E-02 6.23858E-02 1.60058E-05 6.43445E-02-4.62062E-05 2.36713E-06
 -1     24445-5.79522E-02 7.51760E-02-3.97051E-05 9.30475E-02 3.09501E-05 7.07012E-05
 -1     24446-1.24083E-01 6.69855E-02-1.12117E-05-2.41600E-02-7.46216E-05 5.25501E-05
 -1     24447-1.10915E-01 6.62895E-02-3.77269E-05-6.95573E-03-5.12489E-05 2.59594E-05
 -1     24448-1.27655E-01 6.74255E-02 2.19256E-05-2.89592E-02-1.29812E-05 1.32461E-05
 -1     24449 8.27093E-02 1.75996E-02-2.25664E-05 1.52881E-01-4.57634E-05 9.39307E-06
 -1     24450 9.53158E-02-2.41792E-02-1.69185E-05 8.35631E-02 4.02141E-05 7.11979E-05
 -1     24451 9.75725E-02-2.72928E-02-1.90812E-05 8.54118E-02-2.47017E-05 4.04054E-05
 -1     24452 9.48464E-02-2.23505E-02 6.98032E-06 8.64747E-02 3.28391E-06 4.29235E-05
 -1     24453 8.39444E-02-9.96953E-03 5.76429E-06 9.55005E-02 3.37799E-05 1.31729E-05
 -1     24454 7.84207E-02-4.92075E-03 7.77870E-06 9.69369E-02 4.76456E-05 2.86476E-05
 -1     24455 9.67198E-02 5.01891E-03 2.59100E-05 1.51157E-01 4.24160E-05 7.25810E-05
 -1     24456 9.72686E-02 2.69042E-03-5.04211E-06 1.47838E-01-1.98843E-05-5.77148E-05
 -1     24457 9.10233E-02 1.59564E-02 5.22937E-05 1.60487E-01 8.42079E-05 1.39705E-04
 -1     24458 9.22333E-02 1.33647E-02 6.43420E-05 1.58145E-01 7.09740E-05 2.53303E-05
 -1     24459 2.93210E-02 5.74896E-02-4.81441E-06 1.38296E-01 1.25864E-05 9.13296E-06
 -1     24460 7.03691E-02 4.00391E-02-6.04107E-06 1.66365E-01 1.12965E-05-3.53909E-06
 -1     24461 7.22033E-02 3.81154E-02 6.73046E-07 1.66264E-01-4.19271E-06 2.64055E-06
 -1     24462-5.68511E-02 9.36804E-02 1.77514E-05 1.21245E-01-3.16118E-05-7.27382E-05
 -1     24463-1.89560E-01 8.15181E-02-4.49036E-07-6.70209E-02 5.71239E-05 2.32030E-05
 -1     24464-1.73329E-01 7.50499E-02 1.05277E-05-5.47859E-02 9.56465E-06 1.55244E-05
 -1     24465-1.95881E-01 8.43819E-02-1.17081E-05-6.50030E-02-3.85726E-05-1.63187E-06
 -1     24466 9.21167E-02 5.73683E-03-1.17510E-05 1.47960E-01-4.08919E-05-1.40956E-05
 -1     24467-1.46126E-01 6.48149E-02 5.87037E-06-5.78065E-02-2.69276E-05-4.30518E-05
 -1     24468 9.17582E-03 6.84950E-02-8.67406E-05 1.31573E-01 1.20516E-04 1.61741E-04
 -1     24469 6.96520E-02-3.18166E-02 1.16208E-05 5.62013E-02-2.41890E-05 4.26498E-06
 -1     24470 6.86506E-02-3.37241E-02 2.76828E-07 5.93843E-02-3.75995E-05 8.65831E-06
 -1     24471 7.60737E-02-3.18931E-02-9.34291E-06 5.98117E-02 1.03484E-04 1.20265E-05
 -1     24472 9.87124E-02-5.52700E-03-1.96573E-06 1.38535E-01-3.33383E-06-4.98004E-05
 -1     24473 6.13725E-02 4.69164E-02-4.37531E-05 1.63656E-01-4.13729E-05 4.72748E-05
 -1     24474 6.35109E-02 4.54328E-02-5.58910E-05 1.64513E-01 1.53275E-05 1.04275E-04
 -1     24475-1.56923E-01 6.82880E-02-5.08346E-06-5.92315E-02-1.81739E-05 4.56615E-05
 -1     24476-1.42459E-01 6.71254E-02 3.71257E-05-5.21020E-02-9.93529E-05-7.74101E-05
 -1     24477-1.40265E-01 6.71101E-02 3.65853E-05-4.90514E-02-2.95951E-05 2.74198E-05
 -1     24478-1.29752E-01 6.38357E-02 2.54580E-05-4.13404E-02-6.89804E-05-7.61333E-05
 -1     24479 1.00870E-01-1.33897E-02 2.31164E-05 1.26580E-01 3.16547E-05 1.66066E-05
 -1     24480-6.97329E-02 6.24718E-02 1.46524E-06 5.49010E-02-5.72827E-05-7.35175E-05
 -1     24481-1.83327E-01 7.87525E-02-4.32014E-05-4.81184E-02 4.25332E-05-1.23041E-04
 -1     24482 7.34050E-02-1.34874E-03 1.68696E-05 9.71322E-02 5.08144E-05 6.60996E-06
 -1     24483-6.71130E-02 6.90451E-02 1.66043E-05 7.34256E-02-2.99167E-05-9.26094E-05
 -1     24484 8.74856E-02 1.18495E-02-3.14244E-05 1.50883E-01 5.40498E-05 1.16103E-04
 -1     24485-5.85980E-02 8.30783E-02-1.55741E-05 1.06447E-01-1.92935E-05-7.78779E-06
 -1     24486 9.23444E-02-2.92806E-02-5.33121E-05 7.39123E-02 5.13568E-05-8.53009E-05
 -1     24487 8.96925E-02-3.03654E-02-3.95759E-05 7.05360E-02 2.61897E-05-5.71073E-05
 -1     24488 9.58743E-02-3.07977E-02-4.53616E-05 7.93566E-02 5.25244E-05-9.27645E-05
 -1     24489-1.37869E-01 6.72287E-02-3.13908E-05-4.52429E-02-5.36573E-05-5.78606E-05
 -1     24490-1.35304E-01 6.71450E-02-1.50801E-05-4.16665E-02-3.85987E-05-2.85728E-05
 -1     24491-1.25351E-01 6.43287E-02 3.12048E-05-3.41604E-02 9.03676E-06 3.58067E-05
 -1     24492 8.77827E-02-1.31917E-02 3.45832E-06 9.39957E-02 2.49420E-05 1.31228E-05
 -1     24493-6.03959E-02 7.94810E-02-4.01042E-05 9.88907E-02 8.83260E-05 1.08285E-05
 -1     24494 5.09119E-02 4.60519E-02-9.67687E-06 1.48897E-01-2.66649E-05 2.12402E-05
 -1     24495 6.69615E-02 3.35337E-02 7.05739E-07 1.53506E-01-1.29023E-06-2.80249E-06
 -1     24496 5.64941E-02 4.23159E-02-8.38809E-06 1.51111E-01 5.60396E-05 1.05039E-04
 -1     24497 9.57345E-02 1.37518E-06-2.90866E-05 1.43725E-01 4.97323E-05 1.25585E-04
 -1     24498 9.58322E-02-2.22022E-02-1.08083E-05 9.10323E-02 7.93446E-05 5.72516E-05
 -1     24499 6.18103E-02 3.80240E-02 1.27931E-06 1.52580E-01 1.31303E-05-9.77195E-06
 -1     24500 8.18838E-02-3.19399E-02-6.33906E-06 6.39134E-02-9.01952E-08-5.34377E-05
 -1     24501 8.24033E-02-3.48285E-02 3.92047E-06 6.68743E-02-1.68182E-05-2.41333E-06
 -1     24502 8.63849E-02-3.15198E-02 4.00699E-05 6.74325E-02 1.53297E-04 2.67245E-05
 -1     24503 9.03913E-02-1.52878E-02-2.47415E-06 9.60020E-02 4.63936E-06 6.48489E-06
 -1     24504 5.21943E-02 3.69766E-02-6.74619E-06 1.39530E-01 8.38679E-06-2.16478E-05
 -1     24505 5.48774E-02 3.46393E-02-9.39554E-07 1.40062E-01-4.25598E-06-2.38717E-05
 -1     24506-6.53524E-02 7.73683E-02 9.05482E-06 8.82878E-02 3.20854E-05 1.03095E-05
 -1     24507-6.23334E-02 8.39620E-02 2.30223E-05 1.02084E-01 4.47735E-05 4.03954E-05
 -1     24508-6.72129E-02 7.48733E-02-2.52610E-05 7.85624E-02-5.19824E-05-1.55095E-05
 -1     24509-1.20623E-01 6.49101E-02-1.33805E-05-2.59028E-02-5.20450E-06-3.10750E-05
 -1     24510-1.32788E-01 6.73171E-02-9.44214E-06-3.72988E-02-6.68710E-06-3.05067E-05
 -1     24511 9.30435E-02-3.75184E-03 2.16532E-05 1.37109E-01-1.97338E-07-8.06865E-06
 -1     24512 9.49703E-02-6.82765E-03 9.25721E-06 1.34755E-01 4.50215E-06-1.73139E-05
 -1     24513 9.62154E-02-2.12838E-02 2.49272E-05 9.62246E-02-3.57694E-05-3.80524E-05
 -1     24514 9.80155E-02-2.41909E-02-3.58533E-05 9.36609E-02 9.67257E-05 8.81529E-05
 -1     24515-1.33451E-01 6.07040E-02-3.83496E-06-4.67626E-02-5.76199E-06-1.68766E-05
 -1     24516-1.31309E-01 6.03706E-02 2.57103E-06-4.60155E-02-1.07413E-05-1.86305E-05
 -1     24517 1.01902E-01-1.83418E-02-3.26361E-06 1.21907E-01-3.04801E-05-2.13972E-05
 -1     24518 1.01647E-01-1.94609E-02-8.25396E-06 1.18626E-01-4.32130E-05-4.95010E-05
 -1     24519 1.55568E-02 5.83871E-02-1.01063E-05 1.23595E-01 1.05027E-05 6.42480E-06
 -1     24520 2.01348E-02 5.60567E-02-1.12599E-05 1.25436E-01 6.60681E-06-4.30043E-06
 -1     24521-5.69211E-02 8.95270E-02-8.27500E-06 1.10948E-01-7.40382E-05 6.59946E-05
 -1     24522 6.38219E-02 2.68776E-02-7.25965E-09 1.41981E-01 8.42237E-07-9.42256E-06
 -1     24523 6.66063E-02 2.40339E-02 2.26611E-06 1.42096E-01-3.13184E-06-1.66998E-05
 -1     24524 1.01767E-01-2.00854E-02-3.14240E-05 1.16267E-01-4.84849E-05-3.54017E-05
 -1     24525 1.01141E-01-2.06503E-02-9.33933E-06 1.13017E-01-5.96634E-05-5.29867E-05
 -1     24526 1.02858E-01-2.49578E-02-1.88648E-06 1.11647E-01-1.69858E-05-2.32027E-05
 -1     24527 7.64221E-02 1.50839E-02-2.10296E-05 1.43043E-01-1.84257E-05 3.22258E-06
 -1     24528 7.91382E-02 1.20199E-02 1.08937E-05 1.42417E-01-2.17602E-05-4.59215E-05
 -1     24529-1.60086E-01 6.92089E-02-3.02496E-05-4.11016E-02-2.28543E-05 8.91998E-05
 -1     24530-1.55324E-01 6.74580E-02-9.17815E-06-4.36987E-02 6.50099E-06 9.00682E-06
 -1     24531-5.74603E-03 6.99565E-02 3.90461E-05 1.18182E-01 2.73100E-05-1.03339E-04
 -1     24532-5.29456E-05 6.68529E-02-2.00906E-06 1.19188E-01 2.88385E-05 1.42218E-05
 -1     24533-1.73652E-01 6.47250E-02 1.74407E-04-5.23537E-03 9.80516E-05 3.01036E-05
 -1     24534-1.75292E-01 6.92572E-02-5.97549E-06-1.49445E-02-8.61689E-05 3.29001E-04
 -1     24535-1.45986E-01 4.79738E-02-2.54615E-05 6.74195E-03 2.49614E-04-2.42787E-04
 -1     24536 5.79168E-02 3.21135E-02-3.84685E-06 1.40840E-01 1.22109E-06-9.57755E-06
 -1     24537 6.05492E-02 2.96127E-02-2.92230E-06 1.41199E-01-8.16305E-06-1.76103E-05
 -1     24538 5.50961E-02 2.55186E-02-4.42551E-07 1.29651E-01 2.62095E-06-9.93291E-06
 -1     24539 4.85111E-02 3.11454E-02-4.69721E-06 1.27993E-01 7.28917E-07-1.88805E-05
 -1     24540 5.46345E-03 6.37505E-02 7.01173E-07 1.20377E-01 5.87801E-06 1.08821E-05
 -1     24541 1.06567E-02 6.10769E-02-6.64168E-06 1.21998E-01 9.82221E-06 5.30200E-06
 -1     24542-9.20910E-03 6.55014E-02-3.99734E-06 1.06845E-01 9.75855E-06 8.03686E-06
 -1     24543-9.61819E-02 6.71315E-02-3.56807E-05 1.48810E-02 7.97377E-05 2.29650E-05
 -1     24544-9.21979E-02 6.75132E-02-4.32219E-05 2.24084E-02 2.33271E-05-7.99407E-05
 -1     24545-1.21538E-01 6.03938E-02 4.91900E-06-3.69732E-02-6.28211E-06 2.07939E-07
 -1     24546-1.19526E-01 6.07140E-02 5.42322E-06-3.41555E-02 3.06741E-06-4.67011E-06
 -1     24547-1.44529E-01 6.36022E-02 1.08828E-06-4.72232E-02-8.56331E-06-4.90162E-06
 -1     24548-1.41186E-01 6.26208E-02-3.86140E-06-4.76379E-02-9.24838E-06-1.04407E-05
 -1     24549-1.30128E-01 6.73004E-02 1.05709E-05-3.33969E-02 2.77711E-05-5.93519E-06
 -1     24550 9.90926E-02-2.72656E-02-2.77313E-05 9.05278E-02 3.19312E-05 7.14320E-05
 -1     24551 9.91299E-02-2.93962E-02-5.88563E-06 8.76590E-02-4.46346E-05-4.62608E-05
 -1     24552 9.97156E-02-2.59289E-02 2.39822E-05 9.59019E-02 1.57752E-05 4.89746E-05
 -1     24553 9.30751E-02-1.69354E-02 1.03087E-05 9.89929E-02-2.19290E-05-2.63856E-05
 -1     24554-1.38330E-01 6.17921E-02-3.04965E-06-4.75970E-02-3.33377E-06-7.76211E-06
 -1     24555-1.35670E-01 6.11377E-02-4.68570E-06-4.72871E-02 2.76598E-06-1.48690E-05
 -1     24556-1.25782E-01 5.73159E-02-3.69044E-06-3.59990E-02-7.59510E-06-3.06593E-06
 -1     24557-1.51953E-01 6.61837E-02-5.86072E-07-4.53459E-02-5.97615E-06-1.44122E-05
 -1     24558-1.47737E-01 6.46089E-02 6.96996E-06-4.65032E-02-8.34093E-06-1.59260E-05
 -1     24559-1.38779E-01 6.07850E-02-3.11749E-05-3.24785E-02 1.81399E-05-3.30493E-05
 -1     24560 5.81133E-02-3.32425E-02 3.14327E-06 5.86024E-02-5.67791E-06-5.07149E-06
 -1     24561 4.81481E-02-3.12642E-02 1.24394E-06 5.52422E-02 9.64251E-06 3.80522E-06
 -1     24562 8.24744E-02 8.80262E-03 8.04762E-06 1.42202E-01 6.24851E-08-2.54885E-05
 -1     24563 8.50448E-02 5.54098E-03-7.99823E-06 1.40993E-01-2.53888E-05-3.42844E-05
 -1     24564 7.66708E-02 6.29608E-03 1.28478E-07 1.32674E-01 1.30807E-05-1.45672E-05
 -1     24565 9.71031E-02-9.61855E-03 1.15821E-06 1.32829E-01 1.00134E-05-1.46030E-05
 -1     24566 9.84724E-02-1.22222E-02 4.64965E-06 1.29926E-01 1.24639E-06-8.86891E-06
 -1     24567 9.48625E-02-1.33527E-02 6.61171E-06 1.26282E-01 8.08696E-06-1.35896E-05
 -1     24568 4.00015E-02 4.53524E-02 1.34366E-05 1.34694E-01 7.02920E-06-3.85614E-05
 -1     24569 4.32444E-02 4.35057E-02-2.78698E-05 1.36199E-01 3.39609E-05-4.48000E-06
 -1     24570-1.76117E-01 7.25922E-02 1.96920E-04-2.26844E-02-1.61028E-04 5.17823E-04
 -1     24571-1.72483E-01 7.20613E-02 1.96344E-04-2.98486E-02 1.30895E-04 7.36034E-05
 -1     24572-1.55336E-01 6.00161E-02-4.75558E-07-8.20148E-03-1.09896E-04 1.30439E-05
 -1     24573 4.64013E-02 4.14486E-02-2.92674E-06 1.37654E-01 1.56405E-05 1.50879E-05
 -1     24574 4.92118E-02 3.92522E-02-4.28747E-07 1.38542E-01 1.40734E-05-1.18796E-05
 -1     24575 4.22889E-02 3.62643E-02 2.78107E-07 1.26254E-01-6.01665E-06-1.31318E-05
 -1     24576 3.57624E-02 4.09509E-02-6.90632E-06 1.23713E-01-4.44765E-06 1.30270E-05
 -1     24577 7.01301E-02 2.11397E-02 7.43830E-07 1.42858E-01-3.51127E-07-5.01646E-06
 -1     24578 7.28830E-02 1.82023E-02-4.83788E-06 1.42658E-01-2.16236E-05-1.31694E-05
 -1     24579 6.21280E-02 1.94690E-02 4.21820E-06 1.31275E-01 3.43338E-06-3.72434E-06
 -1     24580-1.08577E-01 6.30019E-02-9.66567E-06-1.48943E-02-6.66406E-06-2.40356E-05
 -1     24581-1.06287E-01 6.35361E-02-8.81527E-06-1.04122E-02-1.96196E-06-1.00971E-05
 -1     24582 9.50836E-02-1.83397E-02 4.44874E-05 1.01378E-01-3.10790E-05-1.03891E-05
 -1     24583-1.15706E-01 6.54935E-02-4.49763E-06-1.67876E-02 1.24668E-05-1.20343E-05
 -1     24584-1.03969E-01 6.43828E-02-1.32663E-05-5.03815E-03 2.13709E-05-1.39165E-05
 -1     24585-1.01736E-01 6.50452E-02-6.36491E-06-2.47047E-04 1.33254E-05-2.08200E-05
 -1     24586-9.26060E-02 6.27329E-02-8.31048E-06 5.85242E-03 1.18721E-05 1.04206E-05
 -1     24587-7.20071E-02 7.39296E-02-1.80074E-05 6.78184E-02-4.51169E-05-9.55559E-07
 -1     24588 9.03983E-02-6.89532E-04 1.85294E-05 1.38541E-01-2.16876E-05-4.26660E-05
 -1     24589 8.96205E-02-7.07104E-03 6.00916E-06 1.29690E-01 6.40579E-06-8.65176E-06
 -1     24590 8.81265E-02 2.37673E-03-2.14750E-05 1.40326E-01-3.21498E-05-1.09523E-06
 -1     24591-3.01818E-02 8.55302E-02 5.56445E-05 1.20169E-01-9.85591E-05 1.55487E-05
 -1     24592-2.08299E-02 8.08421E-02-8.58648E-05 1.21121E-01 1.96406E-06 1.84668E-05
 -1     24593 9.72186E-02-1.93143E-02 1.75863E-05 1.04603E-01-6.51852E-05 1.97581E-05
 -1     24594 6.94763E-02 1.29937E-02 3.36433E-07 1.32429E-01-1.19922E-05-7.29024E-06
 -1     24595-5.64544E-02 8.35586E-02-1.24929E-05 9.94932E-02-1.61875E-05 4.89750E-06
 -1     24596-4.96352E-02 9.12305E-02-4.45194E-05 1.17401E-01-7.79522E-05-1.60543E-05
 -1     24597 9.12502E-02-3.36241E-02-1.14811E-05 7.36056E-02-9.12668E-05-8.64314E-06
 -1     24598 8.78357E-02-3.64956E-02-2.75866E-06 7.35300E-02-1.83625E-05 1.06457E-05
 -1     24599 8.21816E-02-3.65494E-02 3.44487E-06 7.01635E-02 4.79906E-05 1.43571E-05
 -1     24600 1.12514E-02-2.07823E-02-1.81385E-06 4.47913E-02 8.82120E-06 1.02644E-05
 -1     24601-3.22253E-03-1.62795E-02-7.10094E-06 4.18317E-02 2.00644E-05 2.04557E-05
 -1     24602-3.99094E-02 8.78555E-02 4.13549E-05 1.17201E-01-4.00158E-05-1.60144E-04
 -1     24603-1.23712E-01 6.02652E-02 1.39125E-06-3.97594E-02-2.90690E-06-6.32997E-06
 -1     24604-1.09440E-01 5.71010E-02 3.64841E-06-2.67425E-02-7.14478E-07-1.54836E-06
 -1     24605-1.25612E-01 6.01733E-02-3.16680E-06-4.18021E-02-5.33310E-06-1.45763E-05
 -1     24606-9.80184E-02 6.64073E-02-1.47089E-05 9.58428E-03 2.40715E-06-2.48911E-05
 -1     24607-8.66809E-02 6.70292E-02-1.30455E-05 2.57383E-02 9.47655E-06 2.50720E-05
 -1     24608-1.00636E-01 6.59284E-02-1.50917E-05 4.17666E-03 9.15340E-06 4.33377E-05
 -1     24609-1.31811E-01 5.86646E-02 2.50507E-06-3.51660E-02-2.48019E-06-1.31107E-05
 -1     24610-1.17309E-01 6.09840E-02 7.54508E-06-3.08575E-02-7.80171E-06-1.57767E-05
 -1     24611-1.15259E-01 6.13609E-02 2.18832E-06-2.74934E-02-1.18514E-05-1.53013E-05
 -1     24612-1.05180E-01 5.79272E-02 9.44041E-07-2.05000E-02 1.35918E-06 7.64302E-07
 -1     24613 1.56803E-03 5.97064E-02-8.92439E-06 1.09376E-01 3.15508E-06 9.13704E-06
 -1     24614-5.56132E-02 4.57726E-03-3.79641E-06 3.01356E-02 3.39698E-05-5.05001E-05
 -1     24615-7.56351E-02 1.32667E-02-3.25247E-05 2.68402E-02 1.16933E-05-1.25464E-04
 -1     24616-1.93603E-02-1.00752E-02-6.09286E-06 3.79459E-02 2.53800E-05 5.06169E-06
 -1     24617-3.64985E-02-3.70674E-03-6.65080E-06 3.48280E-02 2.89921E-05 1.26655E-05
 -1     24618-4.50908E-02 2.46952E-03-5.81505E-06 3.48330E-02 2.80316E-05-3.35802E-07
 -1     24619-1.02792E-02-1.19279E-02-4.67071E-06 4.35225E-02 9.62246E-06 1.82809E-05
 -1     24620-1.69419E-01 7.22161E-02-1.60742E-05-3.39905E-02 1.34311E-04-2.11337E-04
 -1     24621-1.63696E-01 7.03273E-02-1.28941E-04-3.81649E-02-1.26047E-04 1.87863E-04
 -1     24622 9.86633E-02-3.16451E-02-6.75846E-06 8.43944E-02 4.63784E-05-2.72636E-05
 -1     24623 9.70712E-02-3.30425E-02-9.61232E-05 8.16413E-02 3.32836E-05-6.72829E-05
 -1     24624 1.00170E-01-3.08906E-02 3.58139E-05 8.96710E-02-4.05654E-05-4.32067E-05
 -1     24625-1.12989E-01 6.17325E-02 3.37914E-05-2.35055E-02 5.16141E-05-1.67135E-05
 -1     24626-1.10595E-01 6.21555E-02-6.13136E-06-1.94809E-02 3.80096E-05-7.93230E-06
 -1     24627-1.00838E-01 5.90314E-02 1.59279E-06-1.29684E-02-1.89198E-05-7.75962E-07
 -1     24628-8.92763E-02 6.82810E-02-2.92836E-06 2.95441E-02-7.28331E-06-4.40305E-05
 -1     24629-8.11239E-02 6.92575E-02-2.15796E-06 4.44616E-02 1.30395E-05-5.14152E-05
 -1     24630-8.21536E-02 6.90109E-02-1.55929E-05 3.85121E-02 3.28198E-05-5.46477E-05
 -1     24631 1.00160E-01-2.02261E-02-5.30299E-05 1.10607E-01-4.78040E-05-1.89264E-05
 -1     24632 9.88180E-02-2.01821E-02-2.91135E-06 1.07245E-01 3.62446E-05-5.21749E-06
 -1     24633 9.99564E-02-2.39045E-02-4.63775E-06 1.01433E-01 1.15422E-05-2.02802E-05
 -1     24634 1.02287E-01-2.52120E-02-2.29585E-05 1.06667E-01-9.02972E-05-1.15556E-05
 -1     24635 3.68963E-02-2.83011E-02 4.60002E-06 5.15675E-02 2.90854E-06 1.99302E-06
 -1     24636 2.47977E-02-2.52342E-02 3.77156E-07 4.84496E-02 1.41097E-05 1.56308E-05
 -1     24637 1.93292E-02-2.25694E-02 9.04208E-07 5.09567E-02 1.16501E-06 1.67028E-05
 -1     24638 4.41290E-02-2.99820E-02 6.60894E-06 5.80724E-02 6.71045E-07-8.87635E-06
 -1     24639-1.20764E-01 5.64709E-02-1.55695E-06-3.55602E-02-4.17219E-06-8.34728E-06
 -1     24640 2.45766E-02 5.36398E-02 6.89959E-06 1.27174E-01 3.02074E-05-6.24803E-05
 -1     24641 2.85635E-02 5.15945E-02 7.62710E-06 1.29045E-01 5.42514E-05-7.71583E-06
 -1     24642 1.12864E-02 5.46164E-02-8.43145E-06 1.12747E-01 5.99260E-07-4.04142E-06
 -1     24643 6.72018E-02-3.49488E-02 1.93591E-06 6.24438E-02 3.52820E-06 5.27679E-06
 -1     24644 6.44935E-02-3.46948E-02 6.89093E-06 6.53341E-02-2.71483E-06-3.85081E-06
 -1     24645 7.50560E-02-3.59528E-02 7.84661E-06 6.59987E-02 1.48678E-05 4.76697E-06
 -1     24646 8.35052E-02-5.38771E-04 1.60261E-06 1.31803E-01-1.18652E-05-1.22204E-05
 -1     24647 1.00127E-01-1.46199E-02-3.35812E-06 1.27520E-01 6.51307E-06 5.37679E-06
 -1     24648 1.00823E-01-1.65770E-02 3.85579E-07 1.24437E-01-3.75471E-06 7.52957E-06
 -1     24649 3.27459E-02 4.94342E-02 3.51851E-06 1.31148E-01 3.70986E-05-8.56884E-05
 -1     24650 3.63145E-02 4.74879E-02 4.13153E-06 1.32854E-01 9.02992E-05-1.83568E-05
 -1     24651 2.85144E-02 4.54392E-02-7.88035E-07 1.20539E-01-3.49838E-06 1.58767E-06
 -1     24652 2.02871E-02 4.98887E-02 3.86966E-07 1.16579E-01-3.13161E-06-4.84190E-06
 -1     24653-1.70722E-02 7.74787E-02-6.17754E-05 1.18633E-01 3.79849E-05 1.03096E-05
 -1     24654-1.06676E-02 7.34530E-02 1.10997E-04 1.18761E-01-5.93167E-05-1.63507E-04
 -1     24655-1.29489E-01 6.02128E-02 9.26441E-06-4.50445E-02-1.92248E-06-1.48444E-06
 -1     24656-1.27344E-01 6.00488E-02-1.40961E-05-4.35729E-02 3.51683E-05 1.65786E-06
 -1     24657-1.16764E-01 5.62627E-02-9.69911E-08-3.40857E-02-9.29743E-06 3.56025E-06
 -1     24658-1.53033E-01 6.32340E-02 2.33808E-04-1.97684E-02 2.25347E-04-3.69071E-04
 -1     24659 8.06969E-02-3.70809E-02-1.09429E-06 7.29007E-02-2.03338E-06 2.45797E-05
 -1     24660-9.70227E-02 2.32878E-02-2.09279E-04 2.04050E-02 6.23604E-05-1.28296E-04
 -1     24661-1.20662E-01 3.52295E-02-1.09949E-04 1.48484E-02 1.86983E-05 2.27133E-04
 -1     24662-1.29145E-01 4.31962E-02-1.86484E-04 8.99287E-03-2.53153E-05 1.30214E-04
 -1     24663-8.48711E-02 2.06884E-02-4.16615E-05 2.40387E-02 2.46705E-05-3.74591E-04
 -1     24664 1.01781E-01-2.28429E-02 1.93570E-05 1.16717E-01-1.47508E-05 3.68721E-05
 -1     24665-1.98943E-02 7.19251E-02 3.73140E-05 1.06506E-01-8.38770E-05-6.36164E-05
 -1     24666-9.69257E-02 6.07476E-02 7.83019E-06-4.34351E-03 1.80925E-05 3.14040E-05
 -1     24667-1.45797E-01 6.23926E-02-1.70999E-04-2.74147E-02-8.15565E-05-3.19871E-05
 -1     24668 9.89712E-02-1.88540E-02-4.95937E-06 1.21815E-01 3.20806E-05-4.93876E-08
 -1     24669-2.86542E-02 7.85023E-02 3.25514E-06 1.09802E-01 4.13290E-05-2.57383E-06
 -1     24670-1.19080E-01 5.36348E-02 5.29624E-06-2.36483E-02-2.81083E-06-4.67159E-05
 -1     24671-1.15696E-01 5.30189E-02-4.19374E-06-2.43465E-02-7.74908E-06-7.63420E-06
 -1     24672-3.49098E-02 7.28551E-02 8.99517E-05 9.28587E-02-4.70401E-05-6.33985E-05
 -1     24673-2.98182E-02 6.96409E-02 2.17382E-05 9.20685E-02-1.71239E-06-3.34339E-05
 -1     24674-4.15937E-02 8.38450E-02 6.12218E-05 1.09309E-01 1.54069E-04-1.10246E-04
 -1     24675 9.60364E-02-2.13705E-02-7.23152E-05 1.16681E-01-4.54051E-06-3.92476E-05
 -1     24676 9.79533E-02-2.38325E-02-1.39928E-05 1.14198E-01 4.93321E-05 9.78656E-06
 -1     24677-6.38760E-02 7.84407E-02-3.14580E-05 8.40060E-02-2.72522E-05 1.31502E-05
 -1     24678-5.69598E-02 8.07194E-02 1.53743E-05 9.12743E-02-8.68270E-06-6.92905E-06
 -1     24679-1.35866E-01 5.42170E-02 9.80709E-05-6.94733E-03-1.17006E-04-6.51033E-05
 -1     24680-1.33245E-01 5.47604E-02 2.02774E-05-1.12506E-02 1.26430E-04-2.83814E-04
 -1     24681 6.10084E-02 1.21950E-02 9.06599E-06 1.22468E-01 3.34062E-05 2.33876E-05
 -1     24682 6.48296E-02 8.78969E-03 1.77111E-08 1.22959E-01 2.81978E-05 6.09888E-06
 -1     24683 7.06763E-02-3.56468E-02-5.53405E-07 7.13763E-02 1.81255E-05-9.61485E-06
 -1     24684 6.16033E-02-3.38560E-02-8.03455E-07 6.77698E-02 1.17885E-05 1.06327E-05
 -1     24685 9.58423E-02-3.47325E-02-7.72846E-05 8.06500E-02-9.56284E-05 6.34834E-05
 -1     24686 9.30963E-02-3.62683E-02 5.18246E-06 7.78551E-02-7.89294E-05 2.92285E-05
 -1     24687 9.25728E-02-3.67182E-02 1.02163E-05 8.10627E-02-2.87263E-05-6.69219E-06
 -1     24688 9.88895E-02-3.48639E-02-1.25577E-05 8.59122E-02-8.72254E-06 1.16360E-05
 -1     24689-8.54015E-02 5.88300E-02 6.69804E-06 5.99293E-03 9.44625E-06 1.15252E-05
 -1     24690-8.33127E-02 5.98959E-02 2.80894E-06 1.07238E-02-5.01374E-06 1.08633E-05
 -1     24691 1.02234E-01-2.86156E-02 2.23334E-05 1.07126E-01-1.90405E-05-6.22168E-05
 -1     24692 1.02326E-01-2.89186E-02 2.76180E-06 1.04452E-01 6.53422E-06-2.40414E-05
 -1     24693 8.46306E-02-9.06295E-03-1.80257E-07 1.23014E-01 1.96298E-05 2.04870E-05
 -1     24694 8.75989E-02-1.23074E-02 1.17864E-05 1.21628E-01 1.38098E-05 2.28341E-05
 -1     24695-1.07918E-01 5.21894E-02-4.18034E-06-2.41653E-02-5.05910E-06 7.01598E-06
 -1     24696-1.05777E-01 5.21712E-02-2.56304E-06-2.37574E-02 1.69756E-06 3.65336E-06
 -1     24697-1.22098E-02 6.08398E-02-3.11109E-06 9.55607E-02-2.44947E-06-6.62991E-06
 -1     24698-7.06629E-03 5.81253E-02-6.12529E-06 9.69674E-02-1.61850E-06-2.67378E-06
 -1     24699 1.01209E-01-2.71371E-02 3.48393E-06 9.85252E-02 7.11060E-05 8.93415E-06
 -1     24700-1.31214E-01 5.54196E-02-1.03986E-04-1.48594E-02 3.23882E-05-8.15477E-05
 -1     24701-1.27820E-01 5.48073E-02-7.80722E-05-1.78856E-02-1.18641E-04-4.35496E-05
 -1     24702-1.15030E-01 4.64961E-02 4.78817E-05-2.18925E-03 1.35246E-04-4.86002E-05
 -1     24703 6.93557E-02 5.04080E-03-1.75951E-06 1.23877E-01 7.15257E-06 1.99237E-06
 -1     24704 7.30807E-02 1.44754E-03-4.62522E-07 1.23748E-01-5.35422E-06-2.58440E-05
 -1     24705 6.13966E-02 4.26188E-03 4.35629E-06 1.14332E-01-5.19958E-06 9.42183E-06
 -1     24706-1.12870E-01 5.26042E-02-5.72550E-06-2.44323E-02-3.88851E-06 4.23098E-06
 -1     24707-1.10090E-01 5.22383E-02-6.67517E-06-2.45105E-02-5.99514E-06 5.40343E-06
 -1     24708-1.00018E-01 4.75251E-02-5.30809E-06-1.30605E-02-8.20175E-06-5.49450E-06
 -1     24709-1.37203E-01 5.03377E-02-1.18176E-04 2.84357E-03-1.87689E-05-8.07060E-06
 -1     24710-1.38836E-01 5.35551E-02 1.25152E-04-3.87250E-03-1.44922E-04 4.22701E-05
 -1     24711-1.19160E-01 4.46321E-02-1.96293E-05 3.92638E-03-3.84350E-05 1.57487E-04
 -1     24712-1.14024E-01 3.74727E-02-6.08572E-05 1.23361E-02 5.51355E-06 1.43847E-04
 -1     24713-2.34180E-02 6.66514E-02 7.71887E-06 9.32432E-02 2.17313E-07-1.66823E-05
 -1     24714-1.77490E-02 6.36376E-02 4.00567E-06 9.41890E-02-5.09206E-06-8.07615E-06
 -1     24715-3.84104E-02 6.75710E-02 1.32766E-05 7.92781E-02-8.70075E-07-2.21007E-05
 -1     24716 9.98450E-02-2.59128E-02 2.83073E-05 1.11875E-01-2.89126E-06 6.27489E-05
 -1     24717 1.00953E-01-2.74278E-02 6.71355E-05 1.09261E-01-2.16139E-05-4.73170E-05
 -1     24718 1.00513E-01-3.16729E-02 4.08243E-05 1.02209E-01-2.79216E-05-7.17362E-05
 -1     24719 9.72099E-02-2.86124E-02-8.05721E-06 1.06767E-01-1.14195E-05-3.09232E-06
 -1     24720-1.25204E-01 5.45477E-02-6.55700E-05-2.03497E-02-2.31551E-05-6.35515E-05
 -1     24721-1.21775E-01 5.39671E-02-2.85065E-06-2.22132E-02 8.15112E-06-1.62514E-04
 -1     24722-1.05759E-01 4.77716E-02 2.85467E-05-1.17415E-02-8.92541E-06-5.78696E-05
 -1     24723-1.10911E-01 4.76508E-02 1.44327E-06-8.11252E-03 3.08642E-05 1.20537E-05
 -1     24724 9.08843E-02-1.55340E-02 1.47785E-06 1.20521E-01 2.02699E-05 2.29339E-05
 -1     24725 9.33183E-02-1.84756E-02-4.89134E-05 1.18498E-01 2.59449E-06-6.00779E-05
 -1     24726 8.64156E-02-1.76516E-02 3.92436E-05 1.13912E-01 2.44960E-05 8.83481E-05
 -1     24727 7.72610E-02-2.13699E-03 5.02836E-06 1.24042E-01 2.85747E-06-1.61337E-05
 -1     24728 8.07009E-02-5.63612E-03 5.86874E-06 1.23312E-01-3.57300E-06-7.26696E-06
 -1     24729 7.87555E-02-1.06045E-02-3.16581E-05 1.15486E-01 7.68856E-06-2.74704E-05
 -1     24730 7.02670E-02-3.24081E-03 4.06391E-07 1.15493E-01 2.24154E-06-2.30821E-05
 -1     24731-4.86792E-02 8.16040E-02 1.48392E-05 9.82087E-02 3.71263E-05 2.05622E-06
 -1     24732-4.03671E-02 7.96832E-02 9.76078E-06 1.01523E-01 3.04595E-05 7.41033E-05
 -1     24733-5.62581E-02 7.71080E-02 1.41710E-07 8.31166E-02-9.99356E-06 2.01707E-05
 -1     24734 9.24867E-02-2.36278E-02-1.40191E-04 1.10943E-01-4.56614E-06-1.10797E-04
 -1     24735 5.14159E-02-3.12716E-02-4.79123E-07 6.37734E-02 4.96901E-06-1.24550E-05
 -1     24736 4.01758E-02-2.81897E-02 1.50159E-06 6.02679E-02-4.57523E-06 1.35273E-05
 -1     24737 5.76361E-02-3.17341E-02-5.00136E-06 6.99194E-02-2.20509E-06 7.06977E-06
 -1     24738-3.65669E-02 7.65541E-02 3.38503E-05 9.87612E-02-5.43412E-05 1.62331E-04
 -1     24739-9.50804E-02 4.75829E-02-6.42954E-06-1.28822E-02 1.48811E-06 1.04762E-05
 -1     24740-4.62942E-02 7.38768E-02 4.49252E-05 8.44161E-02-3.11092E-05 7.32042E-05
 -1     24741 9.64304E-02-3.64246E-02 1.90182E-05 8.78405E-02 2.69950E-05-1.46268E-05
 -1     24742 9.14914E-02-3.71643E-02-1.65903E-07 8.37876E-02-1.71649E-05 1.45189E-06
 -1     24743-7.81543E-02 6.70163E-02 2.92188E-06 3.46553E-02-5.80036E-05-8.55943E-06
 -1     24744-7.67387E-02 6.82714E-02-1.80498E-05 4.01354E-02-4.76994E-05 1.90532E-05
 -1     24745-8.73127E-02 5.77333E-02 2.26217E-06 1.35654E-03-2.16626E-06 1.14288E-05
 -1     24746-7.39207E-02 5.65085E-02 2.70117E-06 1.59747E-02 2.12736E-06 1.25894E-05
 -1     24747-8.92966E-02 5.67179E-02 3.76221E-06-2.79101E-03-1.08109E-05-7.71717E-07
 -1     24748 2.77665E-02-2.40904E-02-3.70851E-07 5.62382E-02-1.29412E-06-6.51388E-06
 -1     24749 1.43469E-02-1.95608E-02-3.86418E-06 5.26823E-02 8.22429E-06 1.55107E-05
 -1     24750 3.50853E-02-2.50377E-02 2.66060E-06 6.20168E-02-1.05415E-05-6.52464E-06
 -1     24751-1.13384E-01 5.65794E-02-2.87529E-06-3.13786E-02 1.44226E-05 9.48874E-08
 -1     24752 3.15599E-02 3.63939E-02 1.11214E-06 1.13537E-01-5.04270E-06-2.14892E-06
 -1     24753 3.47429E-02 3.38181E-02-2.83796E-06 1.14524E-01-1.16842E-06-2.12573E-05
 -1     24754 3.80173E-02 3.10922E-02-1.02969E-05 1.15519E-01 5.40605E-06-1.76245E-05
 -1     24755 4.12584E-02 2.82241E-02-4.17047E-06 1.16365E-01 5.21603E-07-1.67515E-05
 -1     24756 2.74343E-02 3.12569E-02-3.12651E-06 1.03009E-01 5.65495E-06-1.22264E-05
 -1     24757 4.49453E-02 2.52086E-02-2.42681E-06 1.17575E-01 4.68308E-06-1.10194E-05
 -1     24758 4.84307E-02 2.21090E-02 7.44562E-07 1.18471E-01-5.23413E-07-1.25393E-05
 -1     24759 3.45395E-02 2.52540E-02-2.91400E-06 1.05323E-01 5.44347E-06-8.33687E-06
 -1     24760-8.93280E-02 6.48333E-02 1.88751E-05 1.58265E-02 1.11517E-05-3.03785E-05
 -1     24761 1.01966E-01-2.81434E-02 2.30825E-05 1.00429E-01 1.95600E-05 4.29156E-05
 -1     24762 1.01625E-01-3.04261E-02 5.17021E-05 9.48094E-02 1.10507E-04 4.40824E-05
 -1     24763 1.00898E-01-3.23174E-02 1.19442E-05 9.16595E-02 4.62757E-05-2.62987E-05
 -1     24764 1.02736E-01-2.87230E-02-1.14038E-07 1.03029E-01-2.72018E-05 2.74268E-05
 -1     24765-8.12804E-02 6.11908E-02-8.01318E-07 1.61339E-02 1.14430E-06 9.26243E-06
 -1     24766-7.91339E-02 6.24222E-02-3.70722E-06 2.15731E-02 3.14492E-06 1.19772E-05
 -1     24767-7.00057E-02 5.92918E-02 5.65470E-06 2.61736E-02 2.57007E-07 1.44678E-05
 -1     24768-2.74469E-04-1.39197E-02-4.93676E-06 4.82024E-02 9.09568E-06-1.01172E-05
 -1     24769-1.61185E-02-7.61423E-03-6.62877E-06 4.42173E-02 1.61076E-05 1.38621E-05
 -1     24770 8.40852E-03-1.54131E-02-4.04005E-06 5.35162E-02-4.03715E-06 6.25740E-06
 -1     24771-9.80034E-02 5.41433E-02 1.76203E-06-1.69065E-02 2.78520E-06-2.51926E-06
 -1     24772-9.59095E-02 5.46483E-02 1.71415E-06-1.40748E-02 1.39670E-06-7.09551E-07
 -1     24773 8.56905E-02-3.74051E-02-6.50433E-06 7.92305E-02-3.00831E-05 1.47132E-06
 -1     24774 7.85941E-02-3.67117E-02-5.31262E-06 7.55151E-02 1.83126E-05 3.60107E-06
 -1     24775-3.35214E-02-4.55137E-05-4.39081E-06 3.87363E-02 3.25536E-05-1.72124E-05
 -1     24776-5.17107E-02 8.24887E-03-9.36428E-06 3.38015E-02 5.62351E-05-3.32629E-06
 -1     24777-2.30883E-02-2.35729E-03-3.11766E-06 4.35277E-02-1.08948E-05-1.26127E-05
 -1     24778 5.27708E-02 1.88648E-02 1.69717E-06 1.20108E-01 8.89221E-06-8.12864E-06
 -1     24779 5.64933E-02 1.55849E-02 3.13379E-06 1.20925E-01 2.82436E-06-6.00043E-06
 -1     24780-2.52996E-03 5.55474E-02-6.67336E-06 9.81248E-02-1.94030E-06-6.32171E-06
 -1     24781 2.19428E-03 5.30845E-02 4.22478E-08 9.99182E-02-1.56954E-06-7.58837E-06
 -1     24782-1.60612E-02 5.66479E-02-2.01207E-06 8.43115E-02-4.39569E-06-4.51025E-06
 -1     24783-2.63222E-02 6.19718E-02 7.47938E-06 8.18005E-02-5.59915E-06-1.31943E-05
 -1     24784-7.33034E-02 7.24378E-02-2.47146E-05 6.01785E-02 2.66553E-05 4.93148E-05
 -1     24785 8.95806E-02-3.64789E-02-3.62378E-05 8.63001E-02-4.16590E-05 3.27000E-05
 -1     24786 1.63626E-02 4.59905E-02 2.23188E-10 1.06834E-01-1.45258E-05-1.58406E-05
 -1     24787 2.03673E-02 4.37279E-02-4.42534E-06 1.08684E-01-1.56476E-05-6.22821E-06
 -1     24788-1.04357E-01 5.24898E-02-2.43087E-06-2.31322E-02-5.21633E-06-4.95685E-07
 -1     24789-1.02627E-01 5.27348E-02-9.17234E-07-2.21139E-02 1.53289E-05 1.25869E-05
 -1     24790-9.15442E-02 4.82534E-02 6.85975E-07-1.20262E-02 1.73481E-06-3.34703E-05
 -1     24791 4.27559E-02 1.86763E-02 2.65175E-07 1.08323E-01 8.19646E-06-5.83101E-06
 -1     24792-7.28081E-02 1.80202E-02-4.19925E-06 2.66258E-02 1.18871E-04-1.33755E-04
 -1     24793-9.30917E-02 2.81160E-02-1.39217E-04 1.97436E-02 2.15371E-04 4.22554E-05
 -1     24794-1.01204E-01 3.46499E-02-7.09079E-05 1.44988E-02 3.41264E-05 1.79626E-04
 -1     24795-6.06406E-02 1.50996E-02 3.34875E-05 3.04346E-02-2.48586E-05-1.40343E-05
 -1     24796 2.44455E-02 4.13598E-02-3.22972E-06 1.10738E-01-9.08004E-06-8.07814E-06
 -1     24797 2.80366E-02 3.89184E-02 1.19458E-06 1.12169E-01 7.62420E-06 2.33432E-07
 -1     24798 1.27518E-02 4.18510E-02-2.88888E-06 9.72178E-02-5.18085E-06-1.39302E-06
 -1     24799 7.57525E-02-3.54580E-02-6.44601E-06 7.78920E-02 3.94613E-06-6.63425E-06
 -1     24800 5.19760E-02 1.15229E-02-4.89361E-06 1.11520E-01 3.25826E-05-3.47983E-07
 -1     24801 1.02076E-01-3.20987E-02-3.26948E-06 9.83430E-02 7.24074E-06 2.98997E-06
 -1     24802 8.72708E-02-2.46866E-02 2.77749E-05 1.05863E-01-1.73261E-05 5.91709E-05
 -1     24803 9.00307E-02-2.74125E-02-1.93855E-06 1.03938E-01 2.27986E-05 1.16250E-05
 -1     24804-7.51636E-02 6.55443E-02-1.27341E-05 3.40155E-02 4.51166E-05 4.41271E-05
 -1     24805-6.54261E-02 6.65307E-02-1.77385E-05 4.79598E-02-1.14721E-05-2.77570E-05
 -1     24806-7.60782E-02 6.41632E-02-2.05298E-06 2.93766E-02 3.21795E-05 2.34612E-05
 -1     24807-8.17828E-02 4.28930E-02 7.37593E-07-1.51668E-03 7.14276E-06 1.43558E-05
 -1     24808-7.97160E-02 4.33387E-02-4.01157E-06-1.16524E-03-4.03351E-06 1.20607E-05
 -1     24809 9.95251E-02-3.46368E-02-3.07173E-06 9.27610E-02 1.53710E-05 2.94411E-05
 -1     24810 9.86021E-02-3.44548E-02-1.42186E-05 9.50634E-02 6.34656E-05-1.17902E-05
 -1     24811-6.66055E-02 7.01611E-02-2.41661E-05 5.58159E-02 2.87857E-05 5.81126E-05
 -1     24812-7.47094E-02 6.99856E-02-4.01335E-05 4.73472E-02-7.59605E-05-3.58233E-05
 -1     24813 9.29653E-02-3.48947E-02-5.88675E-05 9.27566E-02-3.07297E-07 7.64947E-05
 -1     24814 8.72597E-02-3.51625E-02-2.06836E-06 8.85508E-02-3.52660E-05-8.21698E-05
 -1     24815 3.10415E-02 1.96141E-02 1.61404E-06 9.64779E-02-1.01112E-05-8.03309E-06
 -1     24816 3.56238E-02 1.59841E-02-5.04919E-06 9.82769E-02-1.42900E-05-2.71259E-05
 -1     24817 2.05484E-02 3.67620E-02 2.65884E-06 1.00650E-01-7.78472E-06-1.24481E-05
 -1     24818-3.84416E-02 6.30177E-02 6.95425E-06 6.98972E-02-8.95327E-06-8.56861E-06
 -1     24819-3.28436E-02 6.02435E-02 9.71697E-07 7.12343E-02-3.45923E-06-1.08308E-05
 -1     24820-1.01589E-01 5.32745E-02-6.76883E-06-2.10979E-02 2.18827E-07 1.16631E-06
 -1     24821-9.98036E-02 5.36364E-02-1.00293E-06-1.93376E-02 3.14269E-06-9.91182E-06
 -1     24822-8.63895E-02 5.09776E-02 7.07005E-06-6.85393E-03 3.68954E-05 1.46608E-05
 -1     24823-8.91453E-02 4.94839E-02 3.10579E-06-1.03591E-02 7.95257E-06-5.00671E-06
 -1     24824 8.09086E-02-3.51021E-02 2.23138E-05 8.38873E-02 4.35782E-06-8.53934E-05
 -1     24825 7.27213E-02-3.37453E-02-6.34094E-06 8.00062E-02 2.65593E-06 2.79082E-06
 -1     24826 8.42576E-02-3.31686E-02 1.40402E-04 9.04602E-02-2.97047E-06-1.17436E-04
 -1     24827-9.31830E-02 5.51847E-02 8.89044E-07-1.00480E-02-1.16426E-06-2.65591E-06
 -1     24828-9.10642E-02 5.58559E-02-1.31800E-06-6.56592E-03 3.92271E-07-1.50231E-06
 -1     24829-9.88649E-02 3.82590E-02-4.37068E-05 8.64149E-03 8.83852E-05-1.29371E-05
 -1     24830-9.75146E-02 3.95121E-02-1.02647E-04 5.46083E-03-4.34818E-05-2.52886E-05
 -1     24831 4.15689E-02 1.24127E-02-4.81686E-06 1.01465E-01-1.93512E-05-2.02322E-05
 -1     24832 4.66714E-02 8.45880E-03-4.51393E-05 1.03133E-01-6.13552E-05 7.04795E-05
 -1     24833 2.97785E-02 1.36407E-02-3.39866E-05 8.96954E-02-1.00618E-04-1.51139E-04
 -1     24834 5.20875E-02 4.31084E-03 1.55799E-05 1.05018E-01 3.56093E-07 9.67095E-05
 -1     24835 5.66596E-02 6.42795E-04 1.58535E-05 1.06149E-01-2.16173E-06-4.73054E-06
 -1     24836 4.16817E-02 5.62514E-03-3.49415E-05 9.53651E-02-5.23545E-05 3.53199E-05
 -1     24837-8.19447E-02 5.23233E-02-1.03183E-06-3.90550E-04 9.76315E-06 9.92264E-07
 -1     24838-7.18507E-02 7.12259E-02-1.55729E-05 5.46899E-02-3.46547E-05-3.02779E-05
 -1     24839 7.24445E-03 5.06513E-02 4.42562E-06 1.02368E-01-6.22463E-06-2.47229E-05
 -1     24840 1.17692E-02 4.83195E-02-8.63828E-08 1.04415E-01-8.84833E-06-8.94060E-06
 -1     24841-6.19035E-03 5.15953E-02-2.22388E-07 8.78733E-02-1.41655E-06-6.89165E-06
 -1     24842 3.77959E-03 4.67145E-02-1.43184E-06 9.27243E-02-5.65401E-06-7.56396E-06
 -1     24843-6.47695E-02 7.42588E-02 9.50997E-06 6.94291E-02-4.25937E-06 2.65510E-06
 -1     24844-5.62186E-02 7.45743E-02 2.94759E-05 7.66366E-02 3.81981E-06 2.01361E-05
 -1     24845-5.32287E-02 6.74980E-02 9.32399E-06 6.28808E-02 1.62945E-08-3.58233E-05
 -1     24846-4.70906E-02 6.48426E-02 1.50144E-05 6.40576E-02 1.58876E-06-2.11328E-05
 -1     24847 9.71431E-02-3.35214E-02-5.75507E-05 9.74956E-02 2.78736E-05 4.73844E-05
 -1     24848-7.75231E-02 5.41378E-02-5.76616E-07 7.49000E-03 1.79011E-05 1.33226E-05
 -1     24849-7.15716E-02 4.97949E-02-7.54189E-06 8.56256E-03 1.17082E-05-6.01624E-06
 -1     24850-6.89246E-02 5.06443E-02 6.61849E-07 1.26216E-02 1.97853E-05 4.56272E-06
 -1     24851-6.38119E-02 5.13946E-02 5.54997E-06 1.97464E-02 1.60290E-05 1.20771E-05
 -1     24852-6.21732E-02 5.27174E-02 2.33471E-06 2.35632E-02-2.24928E-05-6.26631E-06
 -1     24853-5.36417E-02 4.89703E-02-2.11688E-07 2.85293E-02 5.17294E-06-9.79036E-06
 -1     24854 6.38575E-02-3.18431E-02-7.18183E-06 7.56407E-02 8.76826E-06 2.02706E-05
 -1     24855 5.37997E-02-2.92776E-02-6.33557E-06 7.18109E-02 4.84566E-06 2.87301E-05
 -1     24856 6.86979E-02-3.09167E-02-4.14919E-05 8.17198E-02 2.84171E-05 7.70123E-05
 -1     24857-3.13899E-02 5.79300E-02-1.88826E-06 6.87694E-02-1.61491E-06-2.18690E-06
 -1     24858-2.67121E-02 5.53692E-02-9.03427E-07 6.98820E-02 1.56908E-06-8.66138E-07
 -1     24859-4.34900E-02 5.89193E-02 2.12080E-06 5.67630E-02-6.25370E-06-1.34331E-06
 -1     24860-8.41581E-02 4.25127E-02-4.75977E-06-2.11905E-03 8.51226E-07 9.42275E-06
 -1     24861-6.89177E-02 3.78845E-02-2.34599E-06 9.32217E-03 8.20815E-06 1.51949E-05
 -1     24862-8.69188E-02 4.24143E-02-2.48216E-06-1.96843E-03-2.10248E-06 1.59237E-05
 -1     24863-7.40905E-02 4.89279E-02-1.04212E-06 4.69375E-03-4.64067E-05-1.42012E-05
 -1     24864-6.12115E-02 4.70148E-02-1.84068E-05 1.74862E-02 4.78910E-06 2.55557E-06
 -1     24865-7.58445E-02 4.80657E-02 3.01944E-05 2.27099E-03 3.13336E-05 1.46218E-06
 -1     24866-6.42286E-02 5.45658E-02 1.57675E-06 2.42041E-02-3.97131E-06 4.92206E-06
 -1     24867-6.23278E-02 5.59645E-02 2.74978E-06 2.89274E-02 3.37620E-07 8.65666E-06
 -1     24868-5.06537E-02 5.19581E-02 1.22414E-06 3.63672E-02-7.28661E-07 3.67623E-06
 -1     24869-9.69495E-02 4.10981E-02 4.39120E-05 2.65177E-03-5.75504E-05-1.12574E-04
 -1     24870-9.47501E-02 4.15256E-02 5.64147E-05 3.60302E-04-3.21444E-05-3.30535E-05
 -1     24871-8.16856E-02 3.30842E-02 1.57077E-07 1.34906E-02-4.90800E-06-8.06582E-05
 -1     24872 4.28431E-02-2.59316E-02-5.05658E-06 6.72620E-02-1.56248E-05 1.45635E-06
 -1     24873 3.06789E-02-2.17373E-02-2.77666E-06 6.33258E-02-1.43186E-05-3.57161E-06
 -1     24874 4.95943E-02-2.60228E-02-2.25377E-05 7.32100E-02-2.28207E-05-4.75195E-05
 -1     24875 8.78314E-02-3.09173E-02 3.90438E-05 9.69977E-02 6.82847E-05-1.67139E-06
 -1     24876 9.29629E-02-3.00831E-02-9.37426E-06 1.02006E-01 4.93570E-05 4.42376E-06
 -1     24877-9.25452E-02 4.21101E-02-4.15814E-05-9.63832E-04-9.90056E-05-9.73113E-05
 -1     24878-8.98583E-02 4.22290E-02-4.16985E-06-2.23523E-03-5.01583E-05-3.46915E-05
 -1     24879-7.41221E-02 3.68564E-02 9.21006E-06 8.55167E-03 6.89896E-05 7.67678E-05
 -1     24880-7.91456E-02 3.56916E-02 8.87182E-07 9.51440E-03 1.79506E-05 1.08771E-06
 -1     24881 7.13751E-02-1.08242E-02-8.07430E-05 1.08705E-01-2.88969E-06-2.03407E-05
 -1     24882 7.57115E-02-1.45165E-02-6.29388E-05 1.08501E-01 5.25868E-05-1.50208E-05
 -1     24883-9.88507E-02 3.55658E-02-4.11013E-06 1.20592E-02 5.08420E-05 3.12564E-04
 -1     24884 9.13326E-03 3.78507E-02 4.25747E-07 8.85446E-02-5.01266E-06-5.49496E-06
 -1     24885 1.27462E-02 3.51117E-02 1.00323E-06 8.98913E-02-1.11319E-06-1.45602E-05
 -1     24886 1.58741E-02 3.24272E-02-9.59915E-06 9.08619E-02 8.17835E-06-1.72063E-05
 -1     24887 1.92642E-02 2.94381E-02-5.83198E-06 9.19171E-02 9.43671E-06-1.27416E-05
 -1     24888 4.54669E-03 3.35227E-02-3.63362E-06 7.88223E-02 9.79088E-06-7.83758E-07
 -1     24889-5.36435E-02 6.30881E-02 1.05495E-05 5.33335E-02-6.28036E-06-3.54432E-06
 -1     24890-4.74108E-02 5.53383E-02 1.70497E-06 4.56230E-02 5.06082E-06 3.99825E-06
 -1     24891-5.69416E-02 5.71860E-02 3.30632E-06 3.76142E-02 2.58238E-06 6.87401E-06
 -1     24892-8.19534E-02 2.84598E-02 2.37390E-05 1.89853E-02-1.09122E-04-2.00391E-04
 -1     24893 2.25229E-02 2.63401E-02-5.85307E-06 9.28276E-02 5.33217E-06-1.18565E-05
 -1     24894 2.63144E-02 2.30610E-02-2.44749E-06 9.41822E-02 1.41203E-06-1.15393E-05
 -1     24895 1.09219E-02 2.76026E-02-5.42067E-06 8.08342E-02 4.44699E-06-7.98991E-06
 -1     24896-1.12879E-02-5.14370E-03 1.68323E-06 4.83395E-02 2.70984E-06-3.45718E-05
 -1     24897-2.80292E-02 2.43665E-03-2.49017E-06 4.25502E-02-4.42856E-06 7.04913E-05
 -1     24898 8.37669E-02-2.14145E-02 1.92566E-04 1.07200E-01 1.93061E-05 1.28140E-04
 -1     24899 8.13662E-02-2.51297E-02 6.47333E-05 1.00402E-01-3.36069E-05 1.06512E-05
 -1     24900 8.03072E-02-1.81207E-02 1.90839E-05 1.08468E-01 6.06115E-05 6.47859E-05
 -1     24901-7.15804E-02 7.32310E-02-6.31370E-06 6.12469E-02 3.03753E-05 5.60292E-05
 -1     24902 1.77786E-02-1.69149E-02-6.03610E-06 5.85368E-02-7.70727E-06-1.46434E-05
 -1     24903 3.63657E-03-1.12847E-02-4.49725E-06 5.39845E-02-1.88378E-06 1.25738E-06
 -1     24904-1.53018E-03-6.78489E-03-1.34678E-06 5.34591E-02-1.03657E-05-3.40535E-05
 -1     24905 2.57133E-02-1.76140E-02-6.36243E-06 6.40270E-02-2.31865E-05-1.33500E-05
 -1     24906 7.32724E-02-1.83747E-02 2.09333E-05 1.01919E-01-1.09135E-05 1.51576E-05
 -1     24907-5.50709E-02 5.89211E-02 3.96607E-06 4.30495E-02-7.62323E-06-3.57266E-07
 -1     24908 1.00256E-01-3.42673E-02 8.92684E-06 9.09757E-02-1.22168E-05 1.17895E-05
 -1     24909-6.50680E-02 6.27787E-02 3.38982E-06 3.94287E-02 4.37314E-06 1.05512E-05
 -1     24910-9.35249E-03 4.78296E-02 1.43560E-06 7.88655E-02-3.53844E-06-8.94469E-06
 -1     24911-4.49286E-03 4.53556E-02-2.85685E-06 8.12886E-02-4.18583E-07-5.07671E-06
 -1     24912 9.51112E-02-3.20284E-02 3.29265E-05 9.97515E-02 2.36697E-07 4.48504E-05
 -1     24913-7.84990E-02 4.40839E-02 3.52287E-06-7.24799E-04 3.91588E-05-1.32396E-05
 -1     24914-7.72184E-02 4.49154E-02 1.03509E-05-7.74011E-05-3.81731E-06-7.13747E-06
 -1     24915-6.54756E-02 3.96260E-02-5.77648E-07 1.04942E-02 1.15579E-05 2.10622E-05
 -1     24916 6.19109E-02-3.47477E-03 5.28516E-06 1.07351E-01-8.62383E-07-7.29517E-06
 -1     24917 6.62782E-02-7.22654E-03-2.33725E-05 1.07615E-01-2.48929E-05-3.32715E-05
 -1     24918 5.26648E-02-2.95482E-03 1.84080E-05 9.86974E-02-2.15217E-05-2.31678E-05
 -1     24919 1.89552E-02 2.09303E-02-7.29884E-07 8.42199E-02-1.63727E-05-1.14968E-05
 -1     24920-4.48547E-02 1.00214E-02 3.63531E-05 3.56587E-02 1.06859E-05 2.80552E-06
 -1     24921-6.47429E-02 1.98250E-02 9.27629E-05 2.77266E-02-3.16771E-05 1.15567E-06
 -1     24922-6.52499E-02 2.28332E-02 7.58298E-05 2.49858E-02 3.43561E-05-1.61554E-04
 -1     24923-3.23447E-02 6.82513E-03-3.92337E-05 4.06240E-02 3.20976E-05 1.36242E-04
 -1     24924-5.66425E-02 6.93789E-02 2.54107E-05 6.36469E-02 2.15048E-05 2.39919E-05
 -1     24925-5.48382E-02 7.14772E-02 7.36197E-06 7.07513E-02 6.50323E-06 1.33592E-05
 -1     24926 6.33912E-02-1.10189E-02-5.78027E-05 1.00730E-01-5.54925E-05-5.06685E-05
 -1     24927 8.12649E-02-3.07573E-02 3.58458E-05 9.25002E-02 8.11719E-05-1.24093E-05
 -1     24928 3.55520E-03 2.34434E-02 3.96389E-06 7.00829E-02-4.99182E-06 5.07416E-06
 -1     24929 8.39147E-03 1.98172E-02 1.06673E-05 7.25315E-02-1.35287E-06 3.21144E-06
 -1     24930 5.10824E-03 4.03828E-02 7.40017E-07 8.65923E-02-1.10183E-06-3.30143E-06
 -1     24931-2.63893E-03 3.89331E-02 2.72373E-07 7.59334E-02-2.84595E-06-6.06227E-06
 -1     24932 8.13578E-04 4.29111E-02 1.83171E-07 8.45076E-02-6.00246E-06-9.05815E-06
 -1     24933-4.03904E-02 5.26821E-02 3.04904E-06 4.95300E-02 3.76783E-06 2.94418E-06
 -1     24934-3.49797E-02 5.40757E-02 6.50948E-08 5.82160E-02-3.16932E-06-3.17216E-06
 -1     24935-1.97754E-02 5.27324E-02 2.50974E-07 7.37552E-02-3.79151E-07-7.31335E-06
 -1     24936-3.82738E-02 5.06360E-02 2.41116E-07 4.89110E-02 6.81862E-06 5.50976E-06
 -1     24937 7.77118E-02-2.76775E-02-2.58009E-05 9.40177E-02 2.04379E-05 1.11701E-05
 -1     24938 7.41061E-02-2.99917E-02-1.35316E-04 8.75350E-02 6.19358E-05 1.03294E-04
 -1     24939 6.52798E-02-2.81155E-02-6.97823E-05 8.33647E-02 6.19549E-05 9.83611E-05
 -1     24940 7.43013E-02-2.46591E-02 1.24213E-05 9.54356E-02-3.51495E-05 6.06106E-06
 -1     24941 3.08881E-02 7.27853E-03-8.90380E-05 8.63721E-02 1.05586E-05-4.56147E-05
 -1     24942 3.67628E-02 3.00077E-03 3.03023E-05 8.87144E-02-8.87323E-05-6.80933E-06
 -1     24943-5.55063E-02 3.29452E-02-9.60184E-07 2.01287E-02 1.62524E-05-1.67898E-06
 -1     24944-5.32719E-02 3.38832E-02 3.80073E-07 2.08702E-02 9.99315E-07 1.56522E-06
 -1     24945-5.65175E-02 6.10054E-02 7.09117E-06 4.54866E-02-6.57890E-06-5.92738E-08
 -1     24946-1.44748E-02 5.01980E-02-8.37942E-07 7.61776E-02 3.25040E-06-3.51515E-06
 -1     24947-2.27365E-02 4.90030E-02-6.72816E-07 6.47958E-02-3.53704E-06-6.43282E-06
 -1     24948 1.72527E-02 1.53481E-02 1.31765E-05 7.85997E-02-1.56331E-05-1.05831E-04
 -1     24949 2.34040E-02 1.14296E-02-7.69183E-05 8.20927E-02-6.53547E-05-1.63266E-04
 -1     24950 1.84713E-02 9.28063E-03-1.16741E-05 7.56254E-02-9.93478E-06-5.61153E-05
 -1     24951 1.86457E-03 1.81856E-02 2.29762E-06 6.50535E-02 2.07070E-05 2.78605E-06
 -1     24952-7.69906E-02 4.60553E-02-6.74804E-06 2.89204E-04 1.76738E-05 1.16660E-05
 -1     24953-7.59961E-02 4.69141E-02 5.20853E-06 1.34403E-03 1.60660E-06-9.99515E-06
 -1     24954-6.38316E-02 4.46736E-02 9.23534E-06 1.27318E-02 1.09256E-05-1.12475E-05
 -1     24955-6.41768E-02 4.20709E-02 1.34842E-06 1.14154E-02-3.29577E-05-1.49604E-05
 -1     24956-1.21031E-02 4.40787E-02-4.85684E-07 7.07454E-02-3.06986E-06-5.13111E-06
 -1     24957-2.47505E-02 4.56909E-02 4.16319E-06 5.79991E-02-3.00928E-06 2.02162E-06
 -1     24958-1.92816E-02 4.30837E-02 6.97617E-06 6.12810E-02 3.76650E-06-2.59813E-06
 -1     24959-1.41469E-02 4.06588E-02-4.45031E-06 6.45157E-02-2.83115E-06-8.33178E-06
 -1     24960-1.00503E-02 3.79921E-02-2.04780E-06 6.64345E-02 6.28338E-07-6.46675E-06
 -1     24961-2.66273E-02 4.22358E-02-7.00923E-07 5.18453E-02-2.74552E-07-8.67867E-06
 -1     24962-4.52234E-02 4.63177E-02-2.96105E-05 3.49983E-02-1.81439E-06-2.90130E-05
 -1     24963-4.01682E-02 4.74240E-02-1.01283E-05 4.21608E-02-3.27099E-05-2.34311E-05
 -1     24964-6.72651E-02 2.61323E-02 1.30625E-05 2.23723E-02 9.35844E-06-1.58560E-05
 -1     24965-6.70624E-02 2.81396E-02-4.33130E-05 1.99594E-02 2.88929E-05-9.05001E-05
 -1     24966-5.12014E-02 1.79436E-02-2.44453E-05 3.10679E-02-2.53730E-05-2.81074E-05
 -1     24967 5.58801E-02-2.55675E-02-2.78813E-05 7.88302E-02 2.86607E-05-1.01089E-06
 -1     24968 4.54222E-02-2.24038E-02 6.11388E-06 7.43656E-02-9.49864E-05-1.75771E-04
 -1     24969 6.14189E-02-2.45510E-02-3.62122E-05 8.47068E-02 3.55240E-05 1.17133E-04
 -1     24970 1.09232E-03 2.68991E-02-2.96462E-06 6.96829E-02 3.91569E-06-1.14918E-05
 -1     24971-9.77564E-03 2.61553E-02 4.38294E-06 5.80006E-02-9.96644E-06 1.66074E-06
 -1     24972-2.07801E-03 3.00438E-02-6.33553E-06 6.85914E-02 7.72592E-06-1.09082E-05
 -1     24973-7.49014E-03 3.56111E-02-4.29142E-06 6.71946E-02 4.53520E-06-1.23702E-05
 -1     24974-4.31950E-03 3.27638E-02 1.47898E-06 6.82496E-02 1.90882E-05 2.46285E-06
 -1     24975-1.89591E-02 3.72814E-02 1.44874E-05 5.58130E-02-1.72368E-05-6.82970E-06
 -1     24976-5.86743E-02 3.21390E-02-1.38205E-05 1.85011E-02 7.71678E-06-7.52631E-06
 -1     24977-4.33299E-02 2.78123E-02 7.64458E-06 2.96265E-02 5.50107E-05-2.09713E-05
 -1     24978-6.14535E-02 3.14857E-02 8.23342E-05 1.81829E-02 1.21150E-04 1.30417E-04
 -1     24979 3.46836E-02-1.86923E-02 1.24428E-05 6.95888E-02-3.67290E-06-5.09657E-05
 -1     24980 2.20951E-02-1.36908E-02-6.24597E-06 6.47992E-02 2.59457E-06 5.45472E-06
 -1     24981 4.13776E-02-1.82206E-02 5.39603E-05 7.53248E-02-5.79294E-05-1.26132E-04
 -1     24982 6.60971E-02-1.77159E-02-1.50040E-05 9.64970E-02-3.78863E-06 1.43407E-06
 -1     24983 7.09741E-02-2.13196E-02 6.70194E-05 9.66265E-02-5.32499E-05 1.88257E-05
 -1     24984-5.07999E-02 4.58465E-02-7.92720E-07 2.80168E-02-1.20993E-05-1.26318E-05
 -1     24985-3.74013E-02 4.41168E-02-2.19662E-05 4.15303E-02 1.07013E-05-2.15666E-05
 -1     24986-3.21754E-02 4.15664E-02 2.58538E-05 4.48318E-02-2.76441E-05-7.07512E-06
 -1     24987-5.32616E-02 4.46936E-02-1.07626E-05 2.41349E-02-1.06565E-05 2.21747E-07
 -1     24988-3.29841E-02 4.81667E-02-3.73857E-06 5.16223E-02 1.64781E-05-1.78341E-06
 -1     24989-5.16303E-02 3.52242E-02-5.55681E-06 2.21004E-02 1.03944E-05 1.61420E-05
 -1     24990-5.06862E-02 3.64999E-02 5.69821E-06 2.26574E-02 7.26982E-06 1.94872E-05
 -1     24991-3.86162E-02 3.04289E-02-6.12930E-07 3.27564E-02 2.01384E-05 1.60076E-05
 -1     24992 4.26186E-02-1.33758E-03 6.62413E-05 9.08224E-02-5.65450E-05-2.31910E-05
 -1     24993 4.80278E-02-5.71176E-03 5.92356E-05 9.20808E-02-1.25752E-05-1.12059E-04
 -1     24994 3.20507E-02 4.29743E-04 1.21449E-05 8.22025E-02-4.25322E-06 4.30170E-05
 -1     24995 5.31755E-02-1.04485E-02-9.85055E-06 9.26581E-02 8.04852E-06-6.28988E-06
 -1     24996 5.85188E-02-1.43098E-02-1.35350E-05 9.33965E-02 8.45198E-06 3.77152E-05
 -1     24997 4.32155E-02-8.83523E-03-1.10991E-06 8.49322E-02 1.08102E-05-1.33632E-04
 -1     24998 8.67440E-03-8.53197E-03-5.72415E-06 5.87953E-02-7.13589E-06-4.53852E-05
 -1     24999-5.42764E-03-2.48613E-03 4.12582E-06 5.30647E-02 1.32378E-05-7.39439E-05
 -1     25000 1.77821E-02-9.41498E-03-6.90784E-06 6.45675E-02 2.55438E-05 6.23582E-06
 -1     25001 6.72062E-02-2.38474E-02-2.35157E-05 9.03591E-02-2.46660E-05 6.03794E-05
 -1     25002-1.98774E-02 3.38410E-03-3.84217E-05 4.61162E-02 4.88126E-05-8.38945E-05
 -1     25003-3.58234E-02 1.08335E-02 3.91348E-05 3.88993E-02-6.51251E-05-1.02475E-05
 -1     25004-3.80262E-02 1.41964E-02-2.36328E-05 3.69099E-02-5.23789E-05-1.72441E-05
 -1     25005-9.29564E-03 1.55963E-03 7.61888E-05 5.17320E-02-1.70885E-05-2.31273E-05
 -1     25006 5.60283E-02-1.69666E-02 3.25511E-05 8.85215E-02-2.57415E-05 1.81939E-05
 -1     25007 5.79129E-02-2.13123E-02 1.83857E-05 8.57088E-02 3.61785E-05 9.23761E-05
 -1     25008 4.97613E-02-1.76609E-02 1.98542E-05 8.26347E-02-4.44763E-06 7.01180E-05
 -1     25009-6.64597E-02 2.99266E-02 6.55105E-05 1.86210E-02 3.84161E-05-5.09123E-05
 -1     25010-6.42711E-02 3.07625E-02 2.24543E-05 1.73889E-02 4.76524E-05 4.75700E-05
 -1     25011-4.93556E-02 2.59226E-02-4.81942E-05 2.70087E-02-3.74430E-05-5.96682E-06
 -1     25012-5.27367E-02 2.30898E-02-1.01742E-04 2.74537E-02 9.79838E-06 7.47749E-06
 -1     25013 3.96819E-02-1.41645E-02 2.55377E-05 7.78277E-02 1.45504E-05 6.62453E-05
 -1     25014-3.15326E-02 2.29469E-02-3.97488E-05 3.84847E-02-4.28459E-05-1.28415E-04
 -1     25015-2.86025E-02 2.42716E-02-2.97372E-06 4.02868E-02-7.81089E-06-4.87370E-05
 -1     25016-5.21206E-02 4.31474E-02-2.37739E-06 2.40112E-02-1.60509E-05-1.07279E-05
 -1     25017-4.17781E-02 4.18021E-02 1.82705E-05 3.44053E-02-1.01723E-05-4.00182E-06
 -1     25018-5.21557E-02 4.17001E-02-3.06095E-05 2.30944E-02-2.72708E-05-1.97148E-05
 -1     25019-2.44123E-02 3.07718E-02-3.25402E-06 4.58877E-02-2.47973E-05-1.20647E-05
 -1     25020-2.21455E-02 2.75106E-02-3.62775E-07 4.65200E-02-7.72893E-06-6.07760E-06
 -1     25021-1.41806E-02 3.21058E-02 2.12812E-06 5.70545E-02 1.38105E-05-6.55181E-06
 -1     25022 2.16444E-02 3.18277E-03-1.03928E-05 7.50105E-02-5.70399E-05-1.75779E-05
 -1     25023 2.78225E-02-1.34403E-03 2.55466E-05 7.74153E-02-6.25930E-05 4.63308E-05
 -1     25024 3.09442E-02-5.10601E-03 1.30901E-05 7.75520E-02-5.62970E-05 2.38149E-05
 -1     25025 3.59691E-02-9.82100E-03-1.27525E-05 7.81802E-02 8.88923E-06 1.33247E-05
 -1     25026 2.70169E-02-1.01756E-02 8.52328E-07 7.06528E-02 2.69518E-05 1.63163E-05
 -1     25027 2.03082E-02-2.15732E-03-9.44780E-06 7.06315E-02-2.03979E-05 1.20704E-05
 -1     25028 1.43813E-02-5.16527E-03-6.87315E-06 6.46673E-02 3.21883E-05 2.63424E-05
 -1     25029-1.23284E-02 2.10018E-02 1.42053E-05 5.36996E-02 4.42249E-07 1.37971E-05
 -1     25030-2.88707E-03 1.62877E-02 9.95105E-06 6.01608E-02 4.53255E-05 5.15981E-05
 -1     25031 5.96046E-03 1.17967E-02 2.39008E-05 6.60740E-02 8.36627E-05 3.53347E-07
 -1     25032 1.38593E-02 7.26580E-03 1.17811E-05 7.05579E-02 1.00539E-05-5.48939E-05
 -1     25033 9.42000E-03 5.89687E-03 2.51827E-05 6.59155E-02-2.52301E-05-6.06980E-05
 -1     25034-7.78953E-03 1.48065E-02 9.10636E-06 5.52117E-02 2.77710E-05 6.43178E-05
 -1     25035-5.12131E-02 3.83871E-02 1.81169E-05 2.27000E-02-2.98915E-05 4.56396E-06
 -1     25036-5.10801E-02 3.98561E-02 1.01810E-06 2.31216E-02-3.93128E-06-3.18667E-06
 -1     25037-3.95073E-02 3.81973E-02-1.38410E-05 3.42143E-02-1.60815E-05-3.57510E-06
 -1     25038-3.77699E-02 3.41433E-02 1.93953E-05 3.41295E-02-6.24899E-05-3.18636E-05
 -1     25039 1.00247E-02-4.79441E-04-1.18041E-05 6.36837E-02-3.08635E-06 3.02414E-05
 -1     25040 5.13357E-04 2.44470E-04 1.56201E-05 5.73724E-02 2.68715E-05-3.28789E-05
 -1     25041-1.32318E-02 6.08963E-03 2.69066E-06 5.03440E-02 3.66973E-05-9.16901E-06
 -1     25042 7.04488E-03 3.22033E-03-3.68309E-05 6.31841E-02-1.48089E-05 6.23534E-05
 -1     25043-2.51429E-02 3.28937E-02 2.37731E-05 4.59469E-02-1.39783E-05-8.77678E-06
 -1     25044-2.72689E-02 3.55057E-02 1.35497E-06 4.53945E-02 3.30555E-05 1.60214E-05
 -1     25045-3.09777E-02 3.98575E-02 3.72729E-05 4.46737E-02-2.35730E-05-7.75354E-06
 -1     25046-2.83633E-02 3.74766E-02-3.49701E-06 4.54995E-02 1.25222E-05 2.00088E-05
 -1     25047-3.50324E-02 2.16700E-02 4.08592E-05 3.61720E-02-2.66651E-05 1.47899E-05
 -1     25048-2.05067E-02 1.78639E-02-1.57185E-05 4.64344E-02 3.36610E-05-2.22930E-05
 -1     25049-1.11845E-02 1.31188E-02 9.39468E-06 5.25048E-02-1.01628E-05-2.45064E-05
 -1     25050-3.77863E-02 2.06181E-02-2.41637E-05 3.51607E-02-3.95444E-05-1.93685E-06
 -1     25051-2.68634E-02 1.09471E-02-2.93910E-05 4.25702E-02-8.77219E-05 4.64029E-05
 -1     25052-4.14129E-02 1.77622E-02-9.29705E-05 3.46173E-02-7.63368E-05-7.62378E-05
 -1     25053-4.12106E-02 1.99177E-02-8.11784E-05 3.35546E-02-4.24933E-05-4.51405E-05
 -1     25054-1.66837E-02 9.58281E-03-5.33135E-06 4.84115E-02-6.33878E-05 1.41776E-05
 -1     25055-2.34997E-02 2.56146E-02 7.75480E-06 4.50527E-02 2.11202E-05 1.17196E-05
 -1     25056-1.21577E-03 7.45561E-03 8.75009E-06 5.85581E-02-3.85123E-06-4.66093E-05
 -1     25057-2.71302E-02 1.54183E-02 3.04244E-05 4.21887E-02-7.16362E-05-1.27760E-05
 -1     25058-1.36562E-02 1.07341E-02 9.16854E-05 5.01885E-02 1.48974E-05-7.01550E-06
 -1     25059-7.88284E-04 2.23226E-02 1.02076E-06 6.48287E-02-2.45182E-06 1.16483E-05
 -1     25060 9.88538E-03 2.31992E-02-1.57526E-06 7.63726E-02-5.32598E-06-6.15064E-06
 -1     25061-3.27086E-03 2.58057E-02-3.24676E-06 6.43145E-02 1.28812E-05 1.36073E-05
 -1     25062-2.04004E-01 8.35273E-02 3.80163E-06-1.03761E-01 1.89692E-05 2.63154E-05
 -1     25063-1.93116E-01 7.98862E-02 5.84683E-06-9.59596E-02-7.87763E-05-6.70843E-05
 -1     25064-1.89043E-01 7.85051E-02-2.77739E-07-9.27769E-02-7.53683E-06-2.16695E-05
 -1     25065-2.01892E-01 8.27777E-02 1.30501E-05-1.02123E-01 2.44003E-06-1.63160E-05
 -1     25066-2.06050E-01 8.42146E-02-5.70703E-06-1.05168E-01 1.00873E-05 3.40684E-05
 -1     25067-1.90994E-01 7.91223E-02-1.62357E-05-9.43171E-02 1.38062E-05-1.03549E-04
 -1     25068 9.70742E-02-1.62318E-02 1.43316E-08 1.24273E-01-6.65141E-06 2.39456E-07
 -1     25069 9.69860E-02-9.54675E-03-2.73588E-07 1.32807E-01-1.72755E-06 6.99905E-06
 -1     25070 9.48083E-02-1.33089E-02 2.24611E-06 1.26296E-01 2.52777E-06-5.65876E-06
 -1     25071 9.62657E-02-2.40208E-02 3.04320E-05 1.13279E-01-4.54133E-05 1.82435E-05
 -1     25072 9.63315E-02-2.40319E-02 3.79214E-06 1.13199E-01 3.26817E-05-1.22784E-05
 -1     25073 9.89952E-02-1.86511E-02 1.67072E-06 1.22065E-01 1.02062E-05-1.10488E-05
 -1     25074 9.84513E-02-2.62318E-02-5.43842E-06 1.10978E-01 3.00882E-07-1.08581E-06
 -1     25075 6.84977E-02 5.50222E-04-1.62166E-05 9.31018E-02 6.01016E-05 3.63872E-05
 -1     25076 7.05857E-02-2.79445E-04-3.91856E-06 9.42233E-02 1.59122E-05 9.94963E-06
 -1     25077 7.28215E-02-2.04240E-03-2.29872E-06 9.28092E-02 2.76077E-05 1.86130E-05
 -1     25078 6.16328E-02 1.25190E-02 4.61211E-07 1.23438E-01 3.10240E-06-1.78397E-06
 -1     25079 5.23709E-02 1.21024E-02-2.32152E-06 1.12581E-01 2.17272E-05 1.42660E-05
 -1     25080 5.70307E-02 8.47539E-03-2.38370E-07 1.14140E-01 3.95437E-05 3.49714E-05
 -1     25081-1.60204E-01 7.13977E-02 8.78822E-07-6.72190E-02-1.46025E-05 3.15293E-06
 -1     25082-1.46996E-01 6.82098E-02 2.20991E-05-5.58838E-02 6.60080E-05 4.30052E-06
 -1     25083-1.62461E-01 7.17161E-02 6.67306E-06-6.99203E-02 3.15654E-05-4.12038E-05
 -1     25084 9.57408E-02-2.21280E-02-2.68499E-06 9.08096E-02 1.33904E-06-3.81330E-05
 -1     25085 9.48046E-02-2.22665E-02-2.47388E-06 8.62373E-02-1.53432E-05-3.07589E-05
 -1     25086 9.72881E-02-2.50915E-02 1.44449E-07 8.81363E-02-4.51837E-06-3.48418E-05
 -1     25087 9.45477E-02-2.62845E-02-1.93460E-05 7.91769E-02-1.19483E-05-2.73484E-05
 -1     25088 9.37255E-02-2.84728E-02-6.62806E-07 7.58250E-02 5.87076E-05 2.16687E-05
 -1     25089 9.77848E-02-2.74576E-02 3.83332E-06 8.52954E-02 3.33342E-05 1.34738E-05
 -1     25090 9.37457E-02-2.82724E-02 7.82590E-06 7.59402E-02-5.28634E-05 3.36780E-06
 -1     25091 9.76524E-02-2.97841E-02-1.02956E-07 8.23260E-02 9.00242E-06 3.42689E-05
 -1     25092-7.58776E-02 1.51975E-01-6.88606E-05 1.26659E-01 5.46874E-05-1.51845E-04
 -1     25093-7.13117E-02 1.43864E-01-2.84172E-05 1.28551E-01-3.46302E-04 3.63887E-06
 -1     25094-7.32181E-02 1.46443E-01 2.03864E-04 1.27286E-01-2.01633E-04-1.97074E-04
 -1     25095-1.60465E-01 7.00152E-02 1.91126E-05-7.05707E-02 2.25079E-06-1.40092E-05
 -1     25096-1.73595E-01 7.38470E-02 7.49103E-06-8.11446E-02-3.57408E-05 2.83396E-05
 -1     25097-1.58350E-01 6.97123E-02 1.70468E-05-6.86422E-02-1.05914E-05-2.09207E-06
 -1     25098 2.97009E-02-2.33963E-04 1.72680E-05 7.97490E-02-7.35230E-06 4.17641E-05
 -1     25099 2.35919E-02 4.15103E-03 1.20658E-06 7.71800E-02 1.51845E-05-3.64527E-05
 -1     25100 1.91297E-02 2.67665E-03 2.86694E-06 7.24273E-02 3.48164E-05-1.87203E-06
 -1     25101-4.33030E-03-1.60064E-02-9.96237E-07 4.14138E-02 1.04974E-05 2.56856E-06
 -1     25102-2.08509E-02-9.64212E-03-8.47228E-07 3.75148E-02 6.56289E-06-1.47064E-05
 -1     25103-1.13711E-02-1.15885E-02-2.05253E-07 4.30053E-02-6.77356E-06 6.24199E-06
 -1     25104-2.78229E-02-5.17728E-03-1.11137E-07 3.90928E-02-2.00919E-05 3.28813E-06
 -1     25105-1.50596E-01 6.74060E-02-1.84892E-06-6.23740E-02 6.27742E-06 8.60593E-06
 -1     25106-1.52577E-01 6.75816E-02-1.68802E-06-6.43212E-02-1.59476E-06 7.32134E-06
 -1     25107-1.37473E-01 6.35054E-02 2.00874E-06-5.17324E-02 4.04515E-06 5.72321E-07
 -1     25108-1.39372E-01 6.36156E-02 2.56147E-08-5.36439E-02-6.18581E-06-1.07912E-05
 -1     25109 6.52156E-02 3.34487E-03 1.33845E-06 9.40181E-02-3.66010E-05 2.20276E-05
 -1     25110 6.38843E-02 2.33262E-03 1.94932E-06 9.15730E-02 2.72837E-05 2.94467E-05
 -1     25111 6.03757E-02 5.34188E-03 1.47389E-05 9.20159E-02-2.76182E-05-5.31002E-05
 -1     25112 6.41829E-02 2.98841E-03-3.58248E-05 9.26420E-02 4.03072E-05-1.15637E-05
 -1     25113 4.73085E-03 8.05375E-02 1.66068E-04 1.40168E-01-1.43204E-04-5.31459E-04
 -1     25114 3.77220E-02 6.19075E-02 8.30330E-05 1.49760E-01-3.56769E-04-4.09430E-04
 -1     25115 3.31189E-03 7.85975E-02-4.20024E-05 1.34844E-01-2.87883E-04-3.18096E-04
 -1     25116-9.66423E-03 8.84839E-02-1.15900E-05 1.36662E-01 8.34758E-05 8.93030E-06
 -1     25117 2.10644E-02 7.36905E-02 1.26788E-05 1.49013E-01-1.26746E-04-1.53129E-04
 -1     25118 2.10562E-02 7.18331E-02-2.39915E-04 1.44294E-01-1.30590E-05-1.78175E-05
 -1     25119-3.38004E-01 9.67708E-02-8.42174E-04 1.56852E-02 4.69178E-03-4.30636E-03
 -1     25120-2.99458E-01 8.23217E-02-1.94064E-03 1.38341E-02 1.18090E-03-2.39118E-03
 -1     25121-3.86479E-01 1.57822E-01 1.42011E-03-1.85236E-02-1.32036E-03 1.74578E-03
 -1     25122-3.99410E-01 1.80403E-01-4.92885E-03-2.07371E-02 7.67166E-04-3.04894E-03
 -1     25123-3.17701E-01 8.34526E-02 1.99446E-03 1.72054E-02 1.65578E-03-6.43592E-05
 -1     25124-3.48792E-01 1.36277E-01-2.09414E-04-1.73321E-02-4.51756E-04-3.14454E-04
 -1     25125 1.01842E-01-2.82987E-02 6.29005E-06 9.85904E-02-3.66171E-05 1.47212E-05
 -1     25126 1.01007E-01-2.75543E-02-9.99934E-06 9.59731E-02-4.13352E-05-2.72782E-05
 -1     25127 1.00816E-01-2.98297E-02-7.59187E-06 9.29158E-02-3.19631E-05-1.36217E-06
 -1     25128-5.63210E-02 9.99149E-02 7.97994E-04 9.39919E-02-1.01470E-03-1.26318E-03
 -1     25129-4.32749E-02 5.04378E-02-1.40293E-03 4.35698E-02-1.46838E-03 1.70376E-03
 -1     25130-5.79855E-02 1.04404E-01-3.38775E-04 9.00659E-02 5.52814E-04 3.41222E-04
 -1     25131-3.84542E-02 3.77265E-02 5.13518E-04 3.62518E-02 9.97550E-04 4.14423E-05
 -1     25132-4.10153E-02 4.76386E-02-1.15410E-03 3.98332E-02 1.62026E-03 5.01785E-04
 -1     25133 9.75225E-02-3.09012E-02 2.89584E-05 1.03508E-01-9.38777E-05 3.62949E-05
 -1     25134 9.33270E-02-3.23640E-02 3.23118E-05 9.87557E-02 8.56272E-06 6.48475E-05
 -1     25135 9.52913E-02-3.39885E-02-3.47525E-06 9.64708E-02-1.99916E-05 1.03308E-04
 -1     25136 9.73009E-02-2.95595E-03-5.77184E-08 1.41252E-01-1.94323E-05 6.80800E-06
 -1     25137 9.50212E-02-6.77214E-03 2.24606E-06 1.34874E-01-8.60983E-06-5.07576E-06
 -1     25138 8.71714E-02-3.77755E-02-2.46450E-07 7.62910E-02 1.42258E-05-7.29785E-06
 -1     25139 8.75392E-02-3.66886E-02-2.79240E-06 7.29903E-02 3.58840E-06 1.17936E-05
 -1     25140 9.13466E-02-3.69196E-02-4.88129E-06 7.89858E-02-3.42659E-06-1.21507E-05
 -1     25141 9.17384E-02-3.61748E-02-4.28606E-06 7.59496E-02 2.24631E-05 1.55385E-05
 -1     25142 9.80452E-02 5.88608E-02-1.22759E-06 2.30019E-01 1.17695E-05-5.00511E-05
 -1     25143 9.77888E-02 5.87816E-02 2.89947E-05 2.29568E-01-1.30980E-05 4.27966E-05
 -1     25144 9.79811E-02 5.87934E-02-1.61762E-05 2.29794E-01-1.76904E-05-1.63969E-05
 -1     25145-9.70029E-02 6.08424E-02-3.26501E-06-4.31811E-03 6.79018E-06 1.09314E-05
 -1     25146-8.54844E-02 5.88504E-02-1.98456E-06 5.91746E-03-4.17849E-06 4.18712E-06
 -1     25147-9.91146E-02 5.99579E-02 1.76561E-08-8.95617E-03 2.14807E-05 2.56675E-05
 -1     25148-1.78586E-02 1.53874E-02-1.44655E-05 4.80557E-02-9.60627E-05 2.72584E-05
 -1     25149-2.73401E-02 2.02054E-02-7.12548E-06 4.16545E-02-4.60202E-05-5.95905E-06
 -1     25150-7.55240E-03 1.19055E-02-1.07381E-05 5.49530E-02-2.91286E-06-5.05854E-06
 -1     25151 1.13649E-02 6.76464E-03 1.80358E-05 6.80080E-02 6.94874E-05-1.56765E-05
 -1     25152 2.23681E-03 1.15495E-02-3.99149E-06 6.22559E-02 2.97001E-05 4.10864E-05
 -1     25153-5.15053E-02 1.07138E-01-3.74591E-04 1.31842E-01-2.67481E-04 4.60982E-04
 -1     25154-5.32226E-02 1.02782E-01-3.14284E-04 1.37242E-01 2.72766E-04 2.25341E-04
 -1     25155-5.54288E-02 1.09068E-01 2.19222E-04 1.44075E-01 8.73340E-04-5.63528E-05
 -1     25156-5.91350E-02 1.15744E-01 3.97929E-04 1.48977E-01 4.60372E-04 1.60444E-04
 -1     25157-5.32438E-02 1.09324E-01-1.53605E-04 1.42419E-01-2.89119E-04-3.13126E-04
 -1     25158-5.76739E-02 1.14868E-01 1.91387E-05 1.50360E-01 9.72411E-04-6.24685E-04
 -1     25159-3.37252E-03 3.16475E-02-2.90798E-06 6.83602E-02-1.51733E-06-3.28685E-07
 -1     25160-1.54522E-02 3.38297E-02 5.37582E-07 5.67946E-02 4.25961E-06 6.69371E-06
 -1     25161-1.33009E-02 3.11176E-02-2.35631E-06 5.72498E-02-9.91766E-06 2.54943E-06
 -1     25162 6.62430E-02 5.93427E-02-2.04306E-05 1.87510E-01-8.21750E-06 3.52482E-05
 -1     25163 7.00906E-02 5.95784E-02-8.28706E-06 1.92757E-01-1.18809E-05-2.74025E-05
 -1     25164 9.17733E-02 5.82633E-02 9.23336E-06 2.19341E-01-1.77141E-06 5.71697E-05
 -1     25165 8.05504E-02 5.84190E-02-7.33556E-07 2.04904E-01-9.32010E-06-2.00996E-05
 -1     25166 8.49519E-02 5.84603E-02 2.51033E-05 2.10176E-01 2.78977E-05 1.06829E-04
 -1     25167-8.11508E-02 4.36169E-02-1.23264E-06-2.17649E-03 1.84236E-06 6.36107E-07
 -1     25168-7.91519E-02 4.42018E-02-2.23613E-06-1.28219E-03-6.27687E-06 3.32332E-07
 -1     25169-6.79606E-02 3.89158E-02 3.57661E-08 9.03571E-03-8.66599E-07-2.05239E-06
 -1     25170-6.61312E-02 3.97569E-02-6.29006E-07 9.92088E-03-1.14718E-05-2.77067E-06
 -1     25171-1.37658E-02 6.83836E-02-2.14796E-07 1.06758E-01 1.66780E-05 9.28390E-06
 -1     25172 1.08975E-03 6.65924E-02 4.53990E-06 1.20100E-01 1.93174E-05 2.31368E-05
 -1     25173-5.08604E-03 6.97705E-02 1.01375E-05 1.18391E-01-2.11053E-05 1.19033E-05
 -1     25174-3.94710E-03 6.95589E-02 3.07384E-06 1.19260E-01 1.34624E-05-2.07034E-06
 -1     25175 9.72066E-03 6.80495E-02 2.12638E-05 1.31830E-01 1.02057E-05 3.22607E-05
 -1     25176-1.55518E-02 5.01139E-02 1.32372E-08 7.47670E-02 1.02742E-06 1.95522E-06
 -1     25177-2.58946E-02 4.88276E-02 1.19491E-06 6.08980E-02-4.10919E-06-6.39640E-06
 -1     25178-1.03805E-02 4.77152E-02-7.55328E-07 7.74735E-02-1.32198E-06 2.21662E-07
 -1     25179-2.06716E-02 4.63508E-02-4.47238E-07 6.35943E-02 6.04463E-06-5.54563E-06
 -1     25180-1.94613E-02 4.29516E-02 1.29768E-07 6.08678E-02-9.13942E-07 2.13158E-06
 -1     25181-1.43153E-02 4.04407E-02 7.45911E-07 6.40757E-02-2.02278E-07 9.04182E-06
 -1     25182-2.53624E-02 4.19431E-02-1.06785E-06 5.30185E-02 7.05326E-06 1.52260E-05
 -1     25183-3.79086E-02 4.38922E-02-2.56013E-06 4.07257E-02 1.47630E-05-7.98006E-06
 -1     25184-3.26245E-02 4.14375E-02 4.70219E-06 4.41283E-02-1.13059E-05 3.93698E-07
 -1     25185-9.09132E-02 5.58521E-02-1.26094E-06-6.31501E-03-4.79992E-06 5.38150E-06
 -1     25186-8.91272E-02 5.67840E-02-1.65884E-07-2.55880E-03-1.81080E-06 9.01274E-06
 -1     25187-1.02799E-01 5.84256E-02-4.15472E-08-1.67352E-02-6.13802E-06 8.66680E-06
 -1     25188 6.84495E-02 9.40158E-03 3.34783E-06 1.10733E-01-2.78695E-05 5.92705E-06
 -1     25189 6.10240E-02 1.74570E-02 1.61416E-05 1.13737E-01 3.13356E-05 2.21148E-06
 -1     25190 7.19467E-02 8.27532E-03 1.62334E-06 1.14044E-01-2.49926E-05-1.08293E-06
 -1     25191 6.94285E-02 1.01575E-02-6.69832E-06 1.13415E-01-3.71049E-05-1.80935E-05
 -1     25192 5.83708E-02 1.94006E-02 2.15274E-05 1.13070E-01 1.60752E-05 3.63336E-05
 -1     25193 6.17883E-02 1.86437E-02 2.08671E-05 1.16350E-01 1.35279E-05-1.14363E-05
 -1     25194 9.92803E-02-2.38097E-02 3.12819E-06 9.90957E-02 1.06988E-04-1.74757E-05
 -1     25195 1.01060E-01-2.50932E-02-2.96020E-05 1.01763E-01 1.05046E-05 1.06544E-04
 -1     25196 9.83403E-02-2.03299E-02-1.96037E-05 1.05252E-01-7.31398E-06-1.80609E-05
 -1     25197-7.29875E-02 4.62017E-02-5.33716E-06 4.02965E-03 2.52447E-05 8.61520E-06
 -1     25198-7.12711E-02 4.70155E-02-1.35735E-05 6.36881E-03 7.51460E-06-2.11899E-06
 -1     25199-8.48096E-02 5.06856E-02-1.21768E-07-5.39891E-03 2.63614E-06-2.63530E-06
 -1     25200-8.65750E-02 5.00309E-02-3.53395E-07-7.76742E-03 3.99504E-06-3.33550E-06
 -1     25201-7.14258E-02 4.58340E-02 4.77821E-06 5.42812E-03-4.29413E-05-6.92159E-06
 -1     25202 7.59264E-02 5.41003E-02 4.10599E-05 1.92708E-01 2.86036E-05 1.43164E-05
 -1     25203 8.10894E-02 5.36954E-02 2.05146E-05 1.99071E-01-3.15596E-05 8.98748E-05
 -1     25204 6.98513E-02 5.14417E-02 3.71087E-05 1.80645E-01-1.80998E-05 9.18742E-06
 -1     25205 6.74011E-02 5.25958E-02-1.21546E-05 1.79035E-01-7.34335E-06 2.01565E-06
 -1     25206 7.89849E-02 5.46989E-02-5.07878E-07 1.97487E-01 4.48784E-06 6.37928E-05
 -1     25207 7.30214E-02 5.21772E-02-3.13265E-05 1.85482E-01-9.09365E-06-6.95530E-06
 -1     25208 6.79686E-02 3.07746E-02-1.04285E-05 1.44234E-01 4.22106E-05 3.63895E-05
 -1     25209 6.61302E-02 2.99851E-02-4.12797E-05 1.40175E-01 5.35547E-05-3.16289E-05
 -1     25210 7.35373E-02 2.40413E-02 7.93228E-06 1.41809E-01 5.62512E-05 4.50585E-05
 -1     25211 7.09577E-02 3.07557E-02 8.78254E-06 1.48290E-01 6.15982E-05 3.49962E-05
 -1     25212 6.88811E-02 2.99848E-02 3.18016E-05 1.44251E-01-3.19602E-05-1.51721E-06
 -1     25213 7.71702E-02-4.69222E-03 1.77703E-05 9.08388E-02 4.39930E-05 2.87028E-05
 -1     25214 7.99742E-02-6.30617E-03-8.14868E-06 8.93246E-02-9.55223E-06-1.95987E-05
 -1     25215 7.76120E-02-4.44997E-03 2.12027E-05 9.00225E-02-1.43419E-05-3.53265E-05
 -1     25216 7.65629E-02-3.52397E-03-1.49428E-05 9.04141E-02 2.82206E-05-2.15410E-06
 -1     25217 7.92587E-02-5.14820E-03 4.39994E-06 8.87627E-02 5.75896E-06-2.77713E-05
 -1     25218 9.75472E-02 4.11367E-03 1.50317E-05 1.49438E-01-1.49247E-05 2.47057E-05
 -1     25219 9.58373E-02 1.06805E-02-7.41228E-06 1.55409E-01-1.98236E-05 4.57075E-05
 -1     25220 9.60837E-02 1.27256E-02-1.10842E-05 1.59155E-01 1.75608E-05 8.06713E-06
 -1     25221 9.46300E-02 2.93533E-02 1.02957E-06 1.82049E-01 8.73366E-07-7.67952E-05
 -1     25222 9.49348E-02 2.02367E-02 2.59408E-06 1.69777E-01 2.73120E-05-3.31458E-05
 -1     25223 9.39405E-02 2.28087E-02 4.06705E-05 1.72448E-01 3.23477E-05-4.72748E-05
 -1     25224-5.70630E-02 5.73345E-02 3.68048E-07 3.77762E-02 3.85321E-06 3.81440E-06
 -1     25225-6.29340E-02 5.61578E-02 7.78219E-07 2.85516E-02 1.37778E-06 2.70938E-06
 -1     25226-4.21632E-02 5.69064E-02-5.14994E-08 5.45089E-02-9.67574E-06-2.35372E-06
 -1     25227-4.79951E-02 5.55218E-02 3.55796E-07 4.52550E-02 2.48179E-06 7.15473E-07
 -1     25228 9.55709E-02 1.43900E-04 3.22073E-06 1.43867E-01-3.47395E-05 1.69424E-05
 -1     25229 8.00115E-02-7.13297E-03-1.07524E-06 9.12386E-02-8.80959E-06 1.36899E-05
 -1     25230-5.96682E-02 1.14395E-01 9.61361E-05 1.49957E-01-1.41579E-04 1.88888E-04
 -1     25231-5.97302E-02 1.16480E-01 8.93383E-05 1.51537E-01 2.73531E-04-3.74213E-04
 -1     25232-5.40708E-02 1.13891E-01-1.67231E-05 1.49254E-01-4.02520E-04-1.99276E-04
 -1     25233 6.28606E-02 2.09735E-03 4.73707E-06 9.21674E-02-5.16871E-05-4.28039E-05
 -1     25234 6.48976E-02 1.47132E-03 6.11241E-05 9.24573E-02 8.96211E-06-4.64908E-05
 -1     25235 6.96686E-02-7.27566E-04 2.75305E-05 9.29893E-02 4.77398E-05-1.16229E-05
 -1     25236 6.77024E-02-2.59380E-04-2.85532E-05 9.29734E-02 1.04832E-04 3.58057E-05
 -1     25237 6.50572E-02 1.62370E-03 2.94821E-05 9.16936E-02-6.88149E-05-6.95532E-05
 -1     25238-1.56194E-01 6.95230E-02 4.61765E-06-6.60622E-02 1.96833E-05-3.47937E-05
 -1     25239-1.71562E-01 7.34517E-02-1.15525E-06-7.92672E-02 1.49560E-05-8.73956E-06
 -1     25240 8.07791E-02-3.51631E-02 5.45188E-06 8.37129E-02 1.81024E-05-4.55784E-05
 -1     25241 7.57319E-02-3.56083E-02 2.10226E-06 7.77001E-02 9.68954E-06 1.23623E-05
 -1     25242 8.37163E-02-3.69168E-02-1.01330E-07 8.17663E-02-1.59851E-05-1.10921E-05
 -1     25243 5.92381E-02 4.80235E-03-6.95868E-06 9.07331E-02-3.16169E-05-1.51392E-05
 -1     25244 6.28340E-02 2.15515E-03 1.95108E-06 9.21288E-02 1.26982E-05 4.19483E-05
 -1     25245 8.83988E-02 2.23279E-03-2.03510E-07 1.40338E-01-5.40446E-06-3.04772E-05
 -1     25246 8.53180E-02 5.72191E-03-5.01069E-06 1.41433E-01-2.89676E-05-2.10138E-05
 -1     25247 8.94882E-02 8.93282E-03-8.82880E-08 1.49621E-01-2.31035E-05-3.41977E-05
 -1     25248 8.77789E-02 1.15618E-02 7.02351E-05 1.44061E-01-9.94804E-06 1.02960E-04
 -1     25249 8.80678E-02 8.20895E-03-3.75863E-05 1.38831E-01 5.65898E-05 1.28911E-04
 -1     25250 8.40974E-02 1.91614E-02 6.35247E-06 1.50028E-01 9.55940E-08 7.42299E-06
 -1     25251 9.03405E-02 1.18481E-02-2.11161E-05 1.47814E-01 4.34613E-05 7.74826E-05
 -1     25252 9.36034E-02 1.40519E-03-1.17476E-05 1.36759E-01-6.97778E-06 7.11563E-05
 -1     25253 9.01219E-02 8.44140E-03-4.96947E-05 1.42373E-01-6.35153E-05 5.84581E-05
 -1     25254 1.02739E-01-2.43726E-02 4.83618E-06 1.12359E-01 2.97935E-05 3.48875E-05
 -1     25255 1.02847E-01-2.49955E-02 2.87754E-07 1.09772E-01 3.47453E-05 5.52056E-05
 -1     25256 1.01928E-01-1.99209E-02-4.82347E-07 1.16727E-01-9.84706E-06-3.19918E-05
 -1     25257 1.02642E-01-2.39563E-02 1.41495E-07 1.14759E-01 2.58743E-06 1.08376E-05
 -1     25258 1.01703E-01-1.90727E-02-6.57691E-06 1.19255E-01-3.53274E-05-2.75775E-05
 -1     25259-2.12517E-01 8.68003E-02-4.38272E-06-1.08491E-01-2.31768E-05 7.05230E-06
 -1     25260-2.12080E-01 8.66498E-02-1.70525E-05-1.08290E-01 2.15986E-06-1.76977E-05
 -1     25261-2.17245E-01 8.81836E-02 1.14873E-05-1.12577E-01 2.36843E-05-1.29016E-05
 -1     25262-1.99510E-01 8.22101E-02-1.30893E-05-9.93381E-02-5.19994E-05-4.51524E-05
 -1     25263-2.16778E-01 8.79889E-02 4.71361E-06-1.12381E-01 2.25563E-06 2.34316E-06
 -1     25264 9.39522E-02 5.87003E-02 6.00359E-06 2.24027E-01 5.22497E-06 4.82630E-05
 -1     25265 7.56980E-02 5.61156E-02 1.20315E-05 1.95139E-01 2.54196E-05-7.07478E-05
 -1     25266 8.37280E-02 5.73773E-02-2.18738E-06 2.08082E-01 7.11971E-06 4.34912E-05
 -1     25267 9.31871E-02 5.86635E-02 2.14704E-05 2.22859E-01-2.58663E-05 2.12698E-05
 -1     25268 8.26608E-02 5.74043E-02 2.37141E-06 2.06692E-01-2.51574E-05-6.64298E-05
 -1     25269 9.67948E-02 6.51334E-03 4.05572E-06 1.52376E-01 5.14172E-05-1.18344E-05
 -1     25270-2.77530E-01 8.28278E-02 1.93477E-04 6.50650E-03-1.65625E-04-4.93167E-04
 -1     25271-2.23734E-01 3.73662E-02-2.10836E-04 1.70042E-02-4.56070E-04 6.25650E-04
 -1     25272 9.36877E-02 5.91323E-02-3.62551E-05 2.23877E-01 1.55759E-05 1.35632E-05
 -1     25273 9.32963E-02 5.89819E-02 2.90649E-05 2.23281E-01 5.63427E-05 2.73031E-05
 -1     25274 7.47409E-02 5.65538E-02 2.34852E-05 1.94579E-01-7.73261E-06 2.19601E-05
 -1     25275 8.34097E-02 5.73764E-02-1.08359E-05 2.07551E-01 6.21908E-05 9.33945E-06
 -1     25276 8.77419E-02-1.97360E-02-3.49985E-05 7.11860E-02-5.78091E-05-3.30261E-05
 -1     25277 9.15962E-02-2.44736E-02 1.66691E-05 7.42534E-02-1.21353E-04-7.96132E-06
 -1     25278 8.91539E-02-1.82624E-02-3.75713E-06 7.59054E-02-7.93698E-05-1.04683E-04
 -1     25279 8.38895E-02-1.35609E-02-1.15460E-05 6.97975E-02 1.30272E-04-1.53852E-05
 -1     25280 8.59426E-02-2.07774E-02 6.59831E-05 6.78085E-02-7.58131E-05 2.26026E-04
 -1     25281 8.78921E-02-1.88119E-02 2.43253E-05 7.25670E-02-3.15429E-05-4.20851E-05
 -1     25282 6.14999E-02 4.88828E-02 4.07930E-06 1.66394E-01-4.07937E-05-3.25338E-05
 -1     25283 5.87102E-02 5.03700E-02-1.10312E-05 1.64863E-01 1.36767E-06-2.32661E-05
 -1     25284-1.25258E-01 5.21650E-02-2.17053E-05-6.02482E-02-9.10920E-05-6.87040E-05
 -1     25285-1.17311E-01 5.07079E-02-4.19443E-05-5.06548E-02-3.83729E-05 4.23127E-06
 -1     25286-1.31853E-01 5.46875E-02 8.44394E-05-6.42997E-02 1.02318E-05-5.27455E-05
 -1     25287-1.29987E-01 5.42898E-02 3.58519E-05-6.23075E-02-3.02606E-05 6.46865E-05
 -1     25288-1.15418E-01 5.00959E-02 2.86139E-05-4.85506E-02-5.96398E-05 1.32839E-05
 -1     25289-1.22419E-01 5.29057E-02 8.71563E-05-5.28106E-02-1.25075E-05-4.09279E-05
 -1     25290-7.62871E-02 6.67602E-02-2.60660E-06 5.34694E-02-5.16103E-05 1.48790E-05
 -1     25291-8.85090E-02 6.24611E-02 9.36731E-07 2.63379E-02 1.62853E-05 8.44706E-06
 -1     25292-8.18823E-02 6.67205E-02-2.17776E-06 4.33382E-02-4.27552E-06 4.58557E-05
 -1     25293 8.74235E-02-3.50900E-02 3.90275E-07 7.00749E-02-2.59808E-06-1.71811E-05
 -1     25294 9.56808E-02 5.85437E-02 2.24793E-05 2.26105E-01 3.95498E-05-8.07462E-06
 -1     25295 9.91185E-02 5.89399E-02-6.25835E-06 2.31572E-01-1.47671E-05 1.72478E-05
 -1     25296 9.13777E-02 5.66360E-02-4.32156E-06 2.17269E-01 2.36023E-05-2.01526E-05
 -1     25297 8.93779E-02 5.56530E-02 8.48325E-06 2.13404E-01-3.02999E-05-4.18114E-05
 -1     25298 8.53324E-02 5.37661E-02-4.73539E-05 2.04752E-01-1.34178E-05 1.85872E-05
 -1     25299 8.17928E-02-3.66369E-02-3.42055E-07 6.94943E-02 3.71528E-06 1.64905E-05
 -1     25300 8.11528E-02-3.04189E-02-4.72383E-06 6.25806E-02 2.86088E-05-3.00746E-05
 -1     25301 8.09405E-02-3.27992E-02-1.60630E-05 6.48811E-02 4.83010E-06 2.72630E-05
 -1     25302 7.54764E-02-3.05471E-02 5.62528E-06 5.84152E-02 1.43374E-05-3.41889E-05
 -1     25303-3.49707E-02 9.92023E-02-1.14584E-05 1.38174E-01 1.82576E-05 3.49170E-06
 -1     25304-4.91956E-02 1.00339E-01-2.99435E-06 1.32546E-01-9.12024E-05-7.55450E-05
 -1     25305-4.77031E-02 1.06658E-01-1.80536E-05 1.39738E-01-6.62789E-06 8.43556E-05
 -1     25306 7.74698E-02-1.69510E-03-6.41133E-06 8.73794E-02 2.14695E-06 4.93045E-06
 -1     25307 7.81763E-02-3.14229E-03 1.75326E-05 8.76545E-02-4.37871E-06 2.96016E-07
 -1     25308 7.63021E-02-1.46031E-03 2.06218E-05 8.93512E-02 5.25187E-06 1.48638E-05
 -1     25309 7.78661E-02-1.80671E-03 3.15615E-06 8.64435E-02-5.26164E-05 9.46411E-06
 -1     25310 7.68916E-02-1.65411E-03 3.89590E-06 8.86461E-02 4.73870E-06 3.11966E-05
 -1     25311 9.51691E-02 5.85201E-02-1.01215E-05 2.25338E-01-8.23961E-06 6.31216E-06
 -1     25312 8.86029E-02 5.58081E-02 3.53335E-05 2.12686E-01-5.12791E-05-1.96745E-05
 -1     25313 8.67123E-02 5.65805E-02 5.90532E-05 2.11162E-01-2.11900E-05 3.06741E-05
 -1     25314 8.12314E-02-6.11730E-03 1.26374E-05 8.60068E-02 8.87132E-07-3.63081E-05
 -1     25315 8.05695E-02-5.55125E-03-6.28702E-06 8.66878E-02 1.27063E-05 9.84074E-06
 -1     25316 8.23203E-02-7.88093E-03-2.06313E-06 8.72469E-02 7.03282E-05-4.80391E-06
 -1     25317 8.54828E-02-1.12950E-02-9.14186E-06 8.73244E-02-2.31034E-05-1.82128E-06
 -1     25318 8.39607E-02-9.37551E-03 8.97431E-06 8.65941E-02 1.46226E-05 7.22634E-05
 -1     25319-1.28608E-02 2.58180E-02 3.15277E-06 5.47556E-02-1.09063E-05-9.78577E-06
 -1     25320-1.51479E-02 2.91326E-02-3.33419E-07 5.41774E-02 6.65150E-06-8.82680E-06
 -1     25321 6.45381E-02 3.59311E-02 2.73209E-08 1.53590E-01-3.74846E-06 8.77145E-06
 -1     25322 6.72686E-02 3.37445E-02-2.15439E-06 1.54265E-01 8.25214E-06 5.98456E-06
 -1     25323 5.86195E-02 3.23140E-02 7.62002E-07 1.41925E-01-4.11121E-08-1.65986E-06
 -1     25324-3.48266E-02 3.57846E-02-6.43452E-06 3.75541E-02 1.30257E-07 1.05787E-06
 -1     25325-4.81374E-02 3.91896E-02-4.40405E-06 2.57496E-02-3.69491E-06 2.47154E-06
 -1     25326-3.69239E-02 3.82533E-02 1.41732E-06 3.69512E-02 2.65326E-05-8.63008E-07
 -1     25327-5.51221E-02 9.67144E-02 6.03817E-06 1.27674E-01 3.42365E-05 8.44858E-05
 -1     25328-5.80737E-02 1.00685E-01-3.90897E-06 1.34035E-01 1.56326E-05 1.00668E-04
 -1     25329-5.94564E-02 9.13826E-02 1.09100E-06 1.18835E-01 6.74825E-05-1.29790E-05
 -1     25330-8.77971E-02 3.89393E-02-8.40123E-04-4.01968E-02-1.04456E-03-1.02760E-03
 -1     25331-8.04115E-02 3.70821E-02 2.50819E-04-2.57795E-02-8.48780E-04-4.61591E-04
 -1     25332-1.05263E-01 4.16842E-02-1.19799E-04-5.56219E-02 2.55058E-04-1.12342E-04
 -1     25333-8.67957E-02 3.76104E-02-7.68324E-04-4.13050E-02-1.82052E-03-2.45871E-04
 -1     25334-1.03650E-01 4.25135E-02-2.43031E-04-5.32339E-02 8.13091E-04 1.84853E-04
 -1     25335-4.76594E-02 3.72732E-02-9.39206E-06 2.56142E-02-3.72867E-06-7.07526E-06
 -1     25336 6.73655E-02 2.43647E-02 3.88626E-07 1.43308E-01-9.46283E-06-1.00549E-05
 -1     25337 5.91608E-02 2.28547E-02 2.21640E-08 1.31688E-01 4.42003E-07 1.00043E-05
 -1     25338 6.25476E-02 1.98009E-02-6.62496E-07 1.32205E-01 6.26916E-06 1.70465E-05
 -1     25339 7.06368E-02 2.14044E-02 1.98140E-08 1.43762E-01-3.93806E-06-9.23521E-07
 -1     25340-9.55211E-02 4.76987E-02-1.74945E-07-1.32076E-02-1.94815E-06-5.81752E-06
 -1     25341-1.08350E-01 5.22772E-02 7.17917E-07-2.44939E-02-1.83147E-06-3.74877E-06
 -1     25342-9.33913E-02 4.78958E-02-1.25916E-09-1.27980E-02 2.96906E-06-6.69411E-06
 -1     25343-5.04693E-02 4.40814E-02-1.24885E-05 2.66101E-02 1.73857E-05-4.61966E-06
 -1     25344-3.90069E-02 4.10248E-02-5.61989E-06 3.67154E-02 7.27184E-06-1.07530E-05
 -1     25345-5.75093E-02 4.34865E-02 4.86472E-06 1.85781E-02 1.60634E-06 1.11359E-05
 -1     25346-5.10381E-02 4.26567E-02 7.27208E-07 2.50272E-02 4.42658E-06-9.57087E-06
 -1     25347-4.60298E-02 4.03041E-02 7.56381E-06 2.86509E-02-9.86758E-06 2.33628E-07
 -1     25348-5.31799E-02 3.67737E-02 1.91640E-06 2.05461E-02 4.88435E-06-3.58485E-06
 -1     25349-5.41622E-02 3.55335E-02 6.01614E-07 2.00306E-02-5.82118E-06 2.34347E-06
 -1     25350-3.95065E-02 3.23827E-02-5.09689E-07 3.20431E-02-3.77613E-06 6.01225E-06
 -1     25351 1.85260E-03 8.72492E-03 2.87148E-08 6.11577E-02-7.11357E-05 3.98377E-06
 -1     25352 1.61907E-02 3.64847E-03-1.77953E-05 7.05151E-02-4.04853E-05-9.19516E-06
 -1     25353 4.68647E-03 5.06129E-03 1.18768E-05 6.22806E-02-9.08333E-06-2.08520E-05
 -1     25354-1.29404E-01 6.38537E-02 5.11358E-07-4.10271E-02-1.27926E-05-2.06589E-05
 -1     25355-1.47031E-01 6.83154E-02 1.35214E-05-5.57441E-02-6.49028E-05-1.03570E-05
 -1     25356-1.48966E-01 6.82002E-02-1.75859E-06-5.86842E-02 2.67943E-05-5.65539E-06
 -1     25357-1.15050E-01 6.12795E-02 3.69341E-06-2.72117E-02 3.73422E-06-2.26774E-05
 -1     25358-1.34295E-01 6.54181E-02-1.93395E-05-4.47815E-02 2.35968E-05 1.71450E-05
 -1     25359-9.24005E-02 5.50572E-02-1.40811E-06-9.33023E-03 4.97764E-07 2.80946E-06
 -1     25360-7.86018E-02 5.30709E-02-3.09008E-08 4.45486E-03-8.59338E-07 2.79027E-06
 -1     25361-8.00595E-02 5.20349E-02-1.73015E-06 1.40174E-03 1.06192E-06 2.24565E-06
 -1     25362 8.02247E-02 3.07974E-03-2.35982E-08 1.32926E-01 6.03323E-06 5.99797E-06
 -1     25363 7.33299E-02 1.93845E-03 2.23371E-07 1.24442E-01-4.42143E-06-7.44765E-06
 -1     25364 6.96109E-02 5.47128E-03-1.62388E-06 1.24538E-01 7.09479E-07 6.04782E-06
 -1     25365 7.66841E-02 6.60053E-03-4.03503E-06 1.33099E-01 1.91248E-05 1.55913E-05
 -1     25366 6.42313E-02-2.58791E-02 1.24987E-05 8.56237E-02-6.67068E-06 4.60348E-05
 -1     25367 6.04914E-02-2.21895E-02 1.30813E-05 8.69112E-02 9.38839E-05 2.03684E-05
 -1     25368 5.42464E-02-2.28577E-02 1.31913E-06 8.09361E-02 4.11183E-06 2.74824E-05
 -1     25369-2.41671E-01 9.79744E-02-3.54002E-05-1.25757E-01-2.00283E-05 8.15777E-05
 -1     25370-2.44675E-01 9.93815E-02-1.38421E-04-1.27373E-01-9.12668E-05 3.43911E-04
 -1     25371-2.43052E-01 9.86778E-02-8.66968E-05-1.26494E-01 1.11924E-04 3.46770E-05
 -1     25372 5.23603E-02 5.40269E-02-1.26930E-04 1.57339E-01 1.73981E-04-3.45811E-05
 -1     25373 4.86294E-02 5.28562E-02 2.22491E-04 1.52386E-01 2.89268E-04 7.68357E-05
 -1     25374 3.16477E-02 6.48302E-02 1.72496E-04 1.45894E-01 5.74504E-04 6.83763E-04
 -1     25375 5.68005E-02 5.47608E-02 5.62984E-05 1.65611E-01 2.23959E-04-5.78925E-06
 -1     25376 5.49663E-02 5.40507E-02 4.00900E-05 1.61544E-01 1.08803E-04-1.17395E-04
 -1     25377-6.06488E-02 1.13827E-01-6.07307E-05 1.40924E-01-1.35459E-04-5.45435E-05
 -1     25378-5.97871E-02 1.11523E-01 5.08649E-05 1.45152E-01-1.76789E-04-6.90948E-06
 -1     25379-6.10471E-02 1.18937E-01 1.33619E-04 1.47764E-01 9.24745E-04 3.22799E-04
 -1     25380-6.27538E-02 1.24139E-01-1.38201E-04 1.43795E-01-6.31910E-05-6.19403E-05
 -1     25381-6.09576E-02 1.17876E-01-6.60553E-05 1.48525E-01 4.09739E-04 3.40100E-04
 -1     25382 5.38389E-02 1.92279E-02 1.55999E-08 1.21664E-01 1.92409E-06-2.74168E-06
 -1     25383 5.75820E-02 1.59700E-02 1.16696E-06 1.22501E-01-7.18888E-06-5.76982E-06
 -1     25384 6.61641E-02 1.65977E-02 2.99823E-07 1.32926E-01-1.83237E-06 1.73689E-05
 -1     25385 8.22529E-02 4.01391E-02 1.77126E-05 1.78856E-01-2.04166E-05-1.17484E-06
 -1     25386 8.40784E-02 4.09311E-02 3.18531E-06 1.82573E-01 1.39365E-05 1.37006E-05
 -1     25387 8.14697E-02 3.96035E-02 2.05652E-05 1.76930E-01 2.74984E-05 1.06603E-05
 -1     25388-3.47667E-01 4.25759E-02-1.33246E-03 4.63261E-02-3.26464E-03 4.23362E-03
 -1     25389-5.42035E-01 1.87368E-01-3.25900E-03-5.20287E-03-8.17026E-03 1.47918E-02
 -1     25390-8.46810E-02 4.26100E-02 8.97761E-07-2.28131E-03 4.87634E-06 8.47408E-07
 -1     25391-7.18413E-02 3.73570E-02 5.46960E-07 8.56710E-03-7.22088E-06-1.26763E-05
 -1     25392-8.75000E-02 4.24405E-02 1.93112E-06-2.20607E-03-1.46141E-05-4.93903E-07
 -1     25393-1.00486E-01 4.76338E-02 1.73942E-06-1.32388E-02-5.61988E-06-5.08070E-06
 -1     25394 3.59232E-02 6.80378E-02 1.09598E-05 1.61494E-01 5.08620E-05-8.61580E-05
 -1     25395 2.81471E-02 7.19384E-02 6.44825E-05 1.58177E-01 3.91925E-05-7.89977E-05
 -1     25396 4.92923E-02 6.49334E-02 9.30920E-05 1.72731E-01-8.86496E-05-9.02517E-05
 -1     25397-1.60040E-01 6.93761E-02 2.32195E-07-5.84214E-02-1.00871E-05 9.14849E-06
 -1     25398-1.44388E-01 6.35575E-02 9.01383E-07-4.69690E-02-1.77507E-06 1.29347E-05
 -1     25399-1.56907E-01 6.82124E-02 4.37441E-06-5.90533E-02-6.48364E-06-4.32294E-06
 -1     25400-1.05739E-01 4.67436E-02 5.77550E-06-8.62136E-03 8.66011E-06 9.99356E-05
 -1     25401-1.08451E-01 4.67563E-02 1.34826E-05-6.96398E-03 3.44930E-05 1.30712E-04
 -1     25402-1.22353E-01 5.32945E-02 2.65974E-06-1.87627E-02 2.36031E-05 1.68887E-05
 -1     25403 6.45246E-02 5.87569E-03 3.64908E-05 9.81848E-02-2.95345E-05 2.95157E-05
 -1     25404 6.21331E-02 8.95886E-03-1.12213E-05 1.00198E-01 8.12350E-06 2.21951E-05
 -1     25405 6.70687E-02 2.77392E-03-1.63658E-06 9.58601E-02-2.84316E-05-5.56011E-05
 -1     25406 7.07004E-02 1.21805E-03 3.52832E-05 9.84731E-02-8.30625E-06 1.30867E-05
 -1     25407 6.60373E-02 7.38912E-03-7.51082E-06 1.03299E-01-4.36973E-06 1.24223E-05
 -1     25408 6.85908E-02 3.91435E-03-6.96996E-06 1.00569E-01-5.99454E-06 7.04511E-07
 -1     25409 8.75071E-02-3.24252E-02 1.71091E-05 9.42579E-02 6.13078E-05-4.82718E-05
 -1     25410 9.00519E-02-3.44348E-02 1.71083E-06 9.21589E-02-2.70335E-05 9.09211E-06
 -1     25411 6.80609E-02 5.42785E-02-3.71787E-05 1.81828E-01-4.61039E-05-3.13280E-05
 -1     25412 5.27293E-02 5.32449E-02-2.04344E-06 1.61269E-01 2.06039E-06-5.82843E-06
 -1     25413 5.57279E-02 5.19881E-02-9.85908E-06 1.63282E-01-1.86886E-06-3.82344E-05
 -1     25414 6.47365E-02 5.36637E-02 2.26531E-05 1.77025E-01 8.65102E-07-3.99304E-06
 -1     25415 4.37244E-02-2.99251E-02-2.61464E-07 5.77558E-02 3.59802E-06 2.73806E-06
 -1     25416 5.09031E-02-3.11440E-02-5.45464E-07 6.35360E-02-1.51433E-06-1.82780E-05
 -1     25417 5.48727E-02-3.29719E-02-2.29641E-08 6.13532E-02-1.00920E-05-9.40382E-06
 -1     25418 6.68193E-02 4.56036E-02 2.11174E-05 1.68965E-01-2.91968E-05-3.54779E-05
 -1     25419 7.40180E-02 4.90502E-02-6.85169E-06 1.82853E-01-5.57494E-05-7.65764E-05
 -1     25420 8.17526E-02 5.15200E-02-1.21002E-05 1.96429E-01-7.17940E-06-1.55297E-05
 -1     25421 7.37761E-02 4.56923E-02-1.92853E-05 1.78349E-01 7.57234E-06-1.95236E-05
 -1     25422 8.06735E-02 4.93950E-02 1.01428E-05 1.92318E-01-4.71393E-05 1.38921E-05
 -1     25423 4.77503E-02-3.12269E-02-3.29582E-07 5.49596E-02 1.49459E-06 8.32057E-06
 -1     25424 3.61781E-02-2.81113E-02 1.97095E-07 5.12455E-02-2.99375E-06-1.20475E-05
 -1     25425 3.21055E-02-2.68961E-02 6.30100E-08 5.41754E-02-5.17425E-06-1.23107E-05
 -1     25426-1.87446E-01 7.81371E-02 6.58943E-06-9.17545E-02 1.22799E-05 5.50256E-05
 -1     25427 3.92966E-02-2.80015E-02-5.93298E-08 5.98443E-02 8.75247E-06 7.55039E-06
 -1     25428-4.21771E-02 2.42134E-02 2.91368E-05 3.12468E-02-4.16260E-05-7.39512E-06
 -1     25429-4.49476E-02 2.30692E-02 6.39317E-06 3.03078E-02 2.07644E-05-9.48854E-07
 -1     25430-5.69801E-02 2.87793E-02 1.86195E-05 2.16674E-02 1.27949E-05 5.22483E-05
 -1     25431-1.28547E-01 5.78909E-02-1.12647E-07-3.56045E-02-1.66556E-06 3.14769E-06
 -1     25432-1.31753E-01 5.86529E-02-1.62896E-06-3.48809E-02 5.74672E-06-9.11430E-06
 -1     25433-1.15658E-01 5.29541E-02 8.58186E-07-2.40931E-02 2.78210E-06-4.19886E-06
 -1     25434-9.76838E-02 4.75200E-02-3.79087E-08-1.33085E-02-4.30720E-07-7.66690E-06
 -1     25435-1.13305E-01 5.26794E-02 1.30839E-06-2.46438E-02-3.32233E-06 3.39006E-06
 -1     25436 7.86687E-02-2.54834E-03 3.42528E-06 8.54074E-02 3.81583E-06 7.30494E-06
 -1     25437 8.20211E-02-6.85936E-03-2.94387E-06 8.50484E-02-3.78492E-06 6.46537E-06
 -1     25438 7.95988E-02-4.52481E-03 2.74136E-05 8.67512E-02-2.89333E-05-1.69668E-05
 -1     25439 7.89636E-02-2.69009E-03-4.53861E-06 8.41706E-02-2.66569E-05 1.06074E-05
 -1     25440 8.00816E-02-4.41512E-03-9.97737E-06 8.57704E-02-3.84503E-05 1.58442E-05
 -1     25441 4.24299E-02 6.52212E-02 4.26937E-05 1.65423E-01 5.50416E-05 9.92872E-05
 -1     25442 3.21813E-02 6.54566E-02 2.66884E-05 1.53653E-01-1.31778E-05 6.74126E-05
 -1     25443 2.55426E-02 6.85219E-02 8.37064E-06 1.50756E-01 2.58158E-05-9.13893E-05
 -1     25444 7.49177E-02-1.41389E-03 3.46266E-06 9.09541E-02-1.26649E-05-1.70942E-05
 -1     25445 7.54801E-02-2.98346E-03 5.04515E-06 9.10972E-02-3.04122E-05-6.07472E-06
 -1     25446 7.77876E-02-3.37501E-03 7.09354E-06 8.90694E-02 1.91382E-05 8.36108E-06
 -1     25447-1.00017E-01 1.65104E-03 2.81941E-06-2.91433E-03 2.02843E-04 1.21120E-04
 -1     25448-1.08000E-01 2.37568E-03-7.49687E-05-1.25472E-02 1.18452E-04 4.99461E-05
 -1     25449-8.52400E-02-1.94922E-03-1.44505E-05-1.33650E-02-5.56348E-06 2.23671E-04
 -1     25450-9.35031E-02-1.47330E-03 6.47868E-05-1.34951E-02-2.73485E-04 2.58575E-04
 -1     25451-1.16543E-01 2.63686E-03 7.46690E-05-1.21412E-02 2.70724E-04-2.21085E-04
 -1     25452-3.28007E-02 1.12636E-02-2.12842E-05 3.98112E-02-8.14515E-06 6.42360E-05
 -1     25453-3.65176E-02 1.49163E-02-3.60848E-05 3.74098E-02 2.19419E-06 3.76147E-05
 -1     25454-4.80559E-02 1.83063E-02-4.55356E-05 3.18891E-02 2.54959E-05 7.95141E-05
 -1     25455 7.37140E-02 5.33600E-04 2.70040E-07 1.02103E-01 3.67353E-06 1.34365E-05
 -1     25456 6.92249E-02 6.55881E-03 5.79063E-06 1.06889E-01-8.26518E-07-2.34418E-05
 -1     25457 7.65471E-02-2.40268E-04 3.96620E-06 1.05698E-01 3.38768E-05 1.57445E-05
 -1     25458-1.64568E-01 7.27730E-02-8.77205E-06-6.91848E-02-3.95954E-05-1.17025E-05
 -1     25459-1.49049E-01 7.01063E-02-1.34177E-05-5.22192E-02 1.63319E-05 2.87745E-05
 -1     25460-1.51886E-01 7.05270E-02-4.53738E-06-5.59076E-02 9.93295E-07 5.44464E-06
 -1     25461 5.23307E-02 2.86190E-02-1.33453E-08 1.29895E-01-2.55637E-06 7.44534E-06
 -1     25462 4.65224E-02 2.54862E-02-7.26999E-07 1.19668E-01-8.34052E-08-1.30087E-06
 -1     25463 5.57730E-02 2.58441E-02-1.53102E-06 1.30884E-01 4.45674E-06 1.28410E-05
 -1     25464 7.48685E-02-1.40832E-03 3.64682E-06 9.10468E-02 9.33221E-06-1.29570E-05
 -1     25465 7.49273E-02-2.01848E-03 2.50951E-05 9.10163E-02 1.34307E-05-5.66610E-07
 -1     25466 7.28583E-02-6.22123E-04 4.23577E-06 9.23418E-02 2.35383E-06 2.27992E-05
 -1     25467 7.30154E-02-7.23295E-04-9.57839E-06 9.22558E-02-1.57448E-06 2.79180E-05
 -1     25468 2.54293E-02 5.96471E-02 1.28986E-07 1.36906E-01-4.71630E-06 1.07990E-05
 -1     25469 1.21619E-02 6.09055E-02 1.06496E-06 1.23457E-01 4.86563E-06-3.62894E-07
 -1     25470 1.59031E-02 5.83489E-02 1.86314E-06 1.23900E-01 6.55988E-06 7.95149E-06
 -1     25471 1.01303E-02-2.04760E-02 1.28842E-06 4.44249E-02 5.19105E-06-1.26251E-05
 -1     25472 4.65247E-03-1.78087E-02 1.10514E-07 4.69609E-02-1.16662E-05-9.11278E-06
 -1     25473-1.57103E-01 1.99836E-02 2.81646E-04 2.33216E-03 6.91244E-04-4.20050E-05
 -1     25474-1.79669E-01 2.57216E-02 3.13657E-04 5.29603E-03 2.15374E-04 5.49671E-05
 -1     25475-1.47696E-01 2.51403E-03-1.05803E-04-1.40968E-02 9.44621E-04 2.81558E-04
 -1     25476-1.66980E-01 2.57209E-02 2.98612E-04 6.10528E-03-4.25141E-04 1.16622E-04
 -1     25477-1.67413E-01-3.18464E-04 3.54623E-05-7.76007E-03 1.03936E-03-4.25821E-04
 -1     25478 7.52690E-02-7.33342E-03 4.37346E-05 6.07651E-02 1.39397E-04-4.95675E-05
 -1     25479 7.81272E-02-7.56273E-03 4.42375E-05 6.54049E-02 3.09724E-04-1.07034E-04
 -1     25480 7.93870E-02-1.48018E-02 7.42283E-06 6.25165E-02-8.68687E-05-4.00192E-05
 -1     25481 8.22131E-02-1.43872E-02 1.19209E-06 6.68862E-02-4.93328E-05-1.23902E-05
 -1     25482 6.99250E-02-7.92824E-03 7.62894E-05 5.30558E-02-9.06642E-05 1.76169E-04
 -1     25483 8.17714E-02-2.07484E-02 3.08554E-05 6.23112E-02 9.35616E-05-5.19570E-05
 -1     25484 7.84006E-02-1.48998E-02 2.73744E-05 6.10232E-02-3.50610E-05 4.46507E-05
 -1     25485 7.07437E-02-1.38223E-02 9.40700E-05 5.23319E-02-4.22802E-05-3.95777E-05
 -1     25486 7.39957E-02-1.96068E-02-2.45421E-05 5.39051E-02 1.87317E-04-5.35091E-05
 -1     25487 8.24259E-02-2.55302E-02-1.04523E-04 6.17419E-02-2.43473E-05-1.68130E-05
 -1     25488 9.97587E-02-2.07301E-02-1.04056E-05 1.08212E-01-4.63483E-06 3.48975E-05
 -1     25489 1.01837E-01-2.56904E-02 1.63713E-05 1.04125E-01 2.26110E-05 2.33752E-05
 -1     25490 2.62477E-02-2.36853E-02 1.36767E-06 5.56278E-02 1.56931E-06-1.39047E-05
 -1     25491 2.12974E-02-2.05604E-02 1.06379E-07 5.73196E-02-9.26561E-06-4.22380E-06
 -1     25492 1.28079E-02-1.91808E-02-2.86324E-07 5.20376E-02 1.06630E-05 5.69866E-06
 -1     25493-2.10278E-02 7.72400E-02 2.17079E-05 1.14635E-01-4.61905E-05 3.66902E-05
 -1     25494-2.80516E-02 8.14452E-02 1.11428E-05 1.15805E-01-3.29987E-05 1.94828E-05
 -1     25495-3.36968E-02 7.79512E-02 5.98742E-06 1.03800E-01-2.44259E-05-4.04591E-05
 -1     25496 8.92888E-02 4.29739E-02 1.04595E-05 1.93306E-01-6.22853E-06 1.97870E-05
 -1     25497 9.34750E-02 2.64823E-02 3.49196E-05 1.75413E-01 8.91263E-05 1.30944E-04
 -1     25498 9.04507E-02 3.34247E-02 3.33569E-06 1.81215E-01 1.30448E-05-7.94747E-05
 -1     25499 8.86825E-02 4.25403E-02 2.71526E-05 1.91679E-01-1.13389E-05-3.87371E-06
 -1     25500 9.00074E-02 3.29349E-02-3.02607E-05 1.79638E-01 3.93210E-05-2.27544E-06
 -1     25501 5.70540E-02 1.29363E-03-1.41245E-06 1.07121E-01-3.18587E-05-3.91814E-06
 -1     25502 4.76487E-02 1.82627E-03-6.28203E-07 9.81053E-02-2.43568E-05-2.20193E-05
 -1     25503 5.24263E-02 5.06438E-03-1.06882E-06 1.05945E-01-4.23522E-06-2.07242E-05
 -1     25504 4.26113E-02-3.42471E-04 2.36926E-06 9.15314E-02 1.73629E-05 4.80463E-06
 -1     25505 3.48091E-02 2.14601E-03 9.73126E-06 8.60230E-02-1.31517E-05-4.29486E-05
 -1     25506 2.98422E-02 7.40232E-04-6.46972E-06 8.04103E-02 2.26303E-05 1.52458E-05
 -1     25507 3.49373E-02 2.64321E-03-1.60284E-05 8.66375E-02-5.52568E-06 4.59042E-05
 -1     25508 9.10125E-02 3.01423E-02 1.36503E-05 1.79148E-01-7.08587E-06-2.67061E-05
 -1     25509 8.66416E-02 2.58126E-02 3.86735E-06 1.68219E-01 4.99855E-05 5.62124E-05
 -1     25510 8.85541E-02 2.30643E-02-1.90523E-05 1.67201E-01-2.70434E-05 1.85279E-05
 -1     25511 2.31797E-02 5.04192E-03-2.54631E-05 7.73597E-02-2.80859E-05 4.75048E-05
 -1     25512 9.58145E-02 9.60091E-03 9.46811E-06 1.56507E-01-1.04644E-07-1.00463E-05
 -1     25513 9.57984E-02 9.58592E-03 3.35428E-05 1.56471E-01 3.97226E-05 2.18264E-05
 -1     25514 9.54000E-02 1.99181E-02-4.89307E-05 1.68769E-01 9.59391E-06 6.07024E-06
 -1     25515 9.67555E-02 6.60125E-03 1.16959E-05 1.52444E-01-5.90908E-05 2.37504E-05
 -1     25516 1.01707E-01-2.26747E-02 1.77241E-06 1.16909E-01-1.49475E-05 2.21879E-05
 -1     25517 1.00895E-01-1.64904E-02-1.90173E-06 1.24569E-01-1.36039E-05-9.25177E-06
 -1     25518 1.00676E-01-2.10459E-02 1.63029E-08 1.19514E-01-4.40456E-06 1.43842E-05
 -1     25519-7.71118E-03 6.10050E-03-2.72984E-06 5.34455E-02 8.17231E-06 1.55808E-05
 -1     25520-2.05226E-02 1.32747E-02 7.43854E-06 4.57896E-02-5.42889E-05-1.16376E-05
 -1     25521-2.52540E-02 1.45315E-02-7.38807E-06 4.29220E-02 3.78946E-05 9.41618E-06
 -1     25522 9.00524E-03 4.05469E-03-8.84587E-06 6.51028E-02 3.83074E-05 1.76076E-05
 -1     25523 6.29660E-02-1.44641E-02 7.28567E-06 9.68533E-02-1.59155E-05-5.35419E-05
 -1     25524 6.83846E-02-1.83017E-02-3.91186E-05 9.77378E-02 1.14782E-05-1.28298E-04
 -1     25525 5.84808E-02-1.77168E-02 1.60120E-06 8.97948E-02 4.49218E-05-7.81842E-06
 -1     25526 5.41661E-02-1.78795E-02-1.32396E-06 8.59861E-02-6.04986E-05-7.64415E-06
 -1     25527 5.91716E-02-1.62374E-02 4.17482E-06 9.18661E-02-1.79032E-05 1.66859E-05
 -1     25528 4.35696E-02-1.35285E-02-4.81166E-06 8.15545E-02-1.87820E-05 1.37966E-05
 -1     25529 4.92809E-02-1.22168E-02 3.06037E-06 8.75818E-02 9.96651E-06 3.61618E-05
 -1     25530 1.01900E-01-1.79844E-02-5.92679E-07 1.22513E-01-1.41236E-05-3.21966E-06
 -1     25531 9.76474E-02-3.47346E-02-4.18351E-06 8.38770E-02 1.03124E-06-7.54069E-06
 -1     25532 9.99945E-02-3.40457E-02-2.02067E-06 8.90370E-02 4.79825E-06 6.97926E-06
 -1     25533 9.64345E-02-3.65853E-02 9.24198E-07 8.31524E-02-4.43845E-05-8.55311E-06
 -1     25534 9.89862E-02-3.58618E-02 2.82768E-06 8.86688E-02-4.10855E-05 4.55583E-05
 -1     25535-2.13796E-02 1.53680E-03-1.27535E-06 4.53194E-02-2.03829E-05 4.22595E-06
 -1     25536-1.05084E-02-8.90133E-04 4.10252E-06 5.05726E-02 5.42530E-06 3.72254E-05
 -1     25537-2.97171E-02 7.40341E-03-2.67772E-05 4.15250E-02 4.17730E-05 6.79012E-06
 -1     25538-3.53405E-02 9.73244E-03-7.30999E-07 3.91317E-02-1.86193E-05-1.35026E-05
 -1     25539-2.37064E-02 6.89777E-03 2.30530E-05 4.44674E-02 4.29940E-05 1.88330E-05
 -1     25540 9.40760E-02-3.26771E-02 2.46109E-05 7.71325E-02 4.07536E-05-2.95961E-05
 -1     25541 9.21423E-02-3.00691E-02-2.16243E-05 7.29595E-02 6.30753E-05-5.94606E-05
 -1     25542 9.51290E-02-3.10099E-02 1.96952E-05 7.81007E-02 6.23634E-05-5.60160E-05
 -1     25543 9.40492E-02 5.39963E-02-1.27885E-05 2.17210E-01 7.89485E-06-4.45834E-05
 -1     25544 9.72272E-02 5.62245E-02 3.99805E-06 2.24905E-01-1.56700E-05 2.34696E-05
 -1     25545 9.43581E-02 5.31811E-02-3.96641E-06 2.16469E-01 2.54471E-05 6.42262E-06
 -1     25546 8.95521E-02 5.15989E-02 2.86610E-06 2.07502E-01 5.01481E-05 4.70464E-05
 -1     25547 9.26138E-02 5.44067E-02-1.55454E-05 2.15727E-01 3.91340E-05 1.17260E-05
 -1     25548 9.30008E-02 5.36625E-02-1.08387E-05 2.15209E-01 5.10803E-05 2.45499E-05
 -1     25549 8.33486E-02-9.80389E-03 3.11118E-05 9.01815E-02 3.79434E-05 5.53196E-05
 -1     25550 8.01198E-02-6.55170E-03 9.56290E-06 8.93839E-02-6.06272E-06 3.67662E-05
 -1     25551 7.98200E-02-6.88916E-03-1.09871E-05 9.18243E-02-5.85942E-05-4.93598E-05
 -1     25552 3.69605E-02 1.64842E-02-7.80691E-05 7.77926E-02-1.60337E-04-1.05812E-04
 -1     25553 3.63490E-02 1.70120E-02 1.73772E-06 7.78150E-02-1.02646E-04-6.66018E-05
 -1     25554 4.26149E-02 1.03508E-02 4.90721E-05 8.01148E-02 2.29071E-05 1.54731E-05
 -1     25555 4.58434E-02 3.94317E-03 1.65704E-04 7.70815E-02-1.62402E-05 6.60216E-05
 -1     25556 4.23581E-02 1.05436E-02 1.41912E-04 7.98286E-02-6.06083E-05-5.56037E-06
 -1     25557 6.20400E-02-2.62134E-03 3.82765E-07 1.08355E-01-8.71551E-06 3.13075E-06
 -1     25558 5.28381E-02-2.10264E-03 2.24594E-06 9.95555E-02 1.01646E-05-6.38619E-06
 -1     25559 9.51451E-02-3.66505E-02-9.45780E-07 8.56957E-02 9.54298E-06-1.85013E-05
 -1     25560 9.79623E-02-3.56965E-02-2.06268E-06 9.10078E-02 4.21626E-05 1.04282E-05
 -1     25561 8.56436E-02 4.24715E-02 7.29077E-06 1.89178E-01 2.26715E-05 3.62658E-05
 -1     25562 8.70244E-02 4.06011E-02-4.97666E-06 1.88564E-01-1.67336E-05 2.46864E-05
 -1     25563 8.03769E-02 3.71735E-02 8.66285E-06 1.75731E-01 5.63519E-06 2.01046E-05
 -1     25564 7.20038E-02-1.00311E-03-5.05806E-06 9.23447E-02 3.22125E-05 2.16206E-05
 -1     25565 7.32748E-02-2.46885E-03 1.78555E-05 9.16902E-02-1.31768E-05 1.88525E-05
 -1     25566 7.44900E-02-2.23375E-03 8.51531E-06 9.14405E-02-1.44578E-05 2.67137E-05
 -1     25567 7.16901E-02-1.38321E-03-6.85773E-06 9.22071E-02-2.90438E-06 1.36948E-05
 -1     25568 7.43958E-02-2.72004E-03 1.54856E-06 9.15188E-02 3.12770E-05 2.87801E-05
 -1     25569 1.00177E-01-1.39313E-02-6.54510E-07 1.23491E-01-1.54896E-05-3.54317E-05
 -1     25570-5.41747E-02 4.81075E-02 3.17921E-06 2.67421E-02 8.27355E-06-1.34029E-05
 -1     25571-5.35468E-02 4.97011E-02-2.10142E-07 2.96442E-02 9.74466E-06 1.11058E-06
 -1     25572-6.66941E-02 5.09110E-02 5.85930E-07 1.55825E-02-4.11826E-06-7.81746E-06
 -1     25573-2.03848E-01 8.35127E-02-9.19598E-06-1.03360E-01 4.56645E-06-1.60331E-05
 -1     25574-2.02778E-01 8.32237E-02 1.06664E-05-1.02723E-01-8.79332E-06-1.05435E-05
 -1     25575-2.15708E-01 8.76521E-02 4.32237E-06-1.11778E-01 6.49233E-05 7.10119E-05
 -1     25576 7.09956E-02-5.55729E-04-1.38574E-05 9.31563E-02 1.56590E-05-2.70840E-05
 -1     25577-6.18258E-02 1.20797E-01 1.01315E-03 1.02328E-01 6.12369E-04-1.22097E-03
 -1     25578-5.12592E-02 1.01321E-01 2.51144E-04 9.11410E-02-2.44279E-03-8.10106E-04
 -1     25579-3.77517E-02 6.15085E-02 1.26040E-04 5.41970E-02 4.37367E-03 7.37466E-04
 -1     25580-6.17354E-02 1.13104E-01-2.27217E-04 9.93338E-02-1.85943E-03-8.29709E-04
 -1     25581 7.17632E-02-6.95457E-04 1.32900E-05 9.27850E-02 5.39688E-05 9.13603E-06
 -1     25582 7.06866E-02-5.63407E-04-1.81667E-05 9.27875E-02 3.66689E-05-1.74644E-06
 -1     25583 8.91745E-02 5.59180E-02-2.83304E-06 2.13077E-01-2.11761E-07 3.19072E-05
 -1     25584 9.02516E-02 5.52837E-02-7.92947E-06 2.13825E-01-1.15860E-05 2.68097E-05
 -1     25585 9.96121E-02 5.71476E-02-2.05332E-05 2.29569E-01-1.36554E-05 3.58539E-05
 -1     25586 9.94284E-02 5.68018E-02-2.02750E-05 2.28895E-01-4.54076E-05-2.07314E-05
 -1     25587 9.91126E-02 5.66437E-02 3.15563E-05 2.28198E-01-6.58287E-06-3.04608E-05
 -1     25588 3.81994E-03 7.58273E-02 3.92731E-06 1.37534E-01 7.90314E-05-1.59521E-04
 -1     25589 3.67161E-02 6.78676E-02-3.51027E-05 1.62037E-01-6.31965E-05 7.31343E-05
 -1     25590 1.67401E-02 7.21645E-02 3.33878E-05 1.46792E-01 9.16172E-06 1.24706E-06
 -1     25591-5.55949E-03 7.54041E-02-1.48312E-05 1.26704E-01 1.13985E-04 3.38985E-07
 -1     25592 2.59120E-02 6.84516E-02-2.98767E-05 1.51045E-01-2.54531E-05 1.14121E-04
 -1     25593-1.28763E-01 6.41763E-02-2.16052E-05-3.34417E-02 5.98593E-06 4.34888E-05
 -1     25594-1.38977E-01 6.33881E-02 1.93616E-05-5.08287E-02-3.43654E-05-4.57412E-05
 -1     25595-1.45971E-01 6.57381E-02 4.42863E-08-5.61490E-02-3.78587E-05-2.83535E-05
 -1     25596-9.43006E-02 3.98668E-02 4.22475E-05 4.02379E-03-2.54781E-05 6.18304E-05
 -1     25597-9.21530E-02 4.04641E-02-2.81496E-05 2.23249E-03-1.21110E-05 3.83842E-05
 -1     25598 6.40201E-02 2.23324E-03 9.61212E-07 9.15670E-02-3.11260E-05-4.08584E-05
 -1     25599 6.92785E-02-3.13370E-04-1.18754E-05 9.21847E-02 1.38812E-05 1.76180E-05
 -1     25600-1.81326E-02 3.63733E-02 6.14005E-07 5.59298E-02 6.22417E-07 1.71035E-05
 -1     25601-6.61751E-03 3.45073E-02 6.48800E-07 6.72433E-02 1.71765E-06 3.70390E-06
 -1     25602 9.22496E-02 5.81540E-02 2.45622E-05 2.20105E-01-2.21987E-05-5.33466E-05
 -1     25603 8.61535E-02 5.85568E-02-1.18252E-06 2.12152E-01 1.23216E-04-1.84801E-04
 -1     25604 9.01924E-02 5.79134E-02-2.17689E-05 2.16642E-01-2.00279E-04-1.71301E-04
 -1     25605 7.04535E-02 5.94540E-02 9.51814E-06 1.93088E-01 2.40732E-05-1.53518E-05
 -1     25606 6.66602E-02 5.94786E-02 3.63615E-05 1.88601E-01 3.34618E-05-4.82492E-05
 -1     25607 6.40058E-02 5.98861E-02 7.16012E-05 1.85476E-01 8.47114E-05 1.38957E-04
 -1     25608 9.06049E-02 4.39255E-02-1.40096E-05 1.96698E-01-7.94832E-05 1.34001E-05
 -1     25609-2.38652E-01 1.83603E-02-1.72929E-04 7.64305E-03 9.97120E-04 1.53091E-03
 -1     25610-1.23855E-02 4.39892E-02-2.03090E-06 7.03135E-02-1.10768E-05-6.55330E-08
 -1     25611-7.01318E-03 4.14307E-02 1.12080E-07 7.35547E-02-7.83582E-06-1.10167E-05
 -1     25612 7.39417E-02-7.69142E-04 4.86578E-06 9.15036E-02 3.65962E-05-2.72803E-05
 -1     25613 9.38448E-02 3.26582E-02 4.28815E-05 1.86077E-01 1.04861E-04 6.55238E-06
 -1     25614 9.37288E-02 3.71209E-02 2.37398E-06 1.91848E-01 4.65299E-05 4.94916E-05
 -1     25615 9.21653E-02 2.80022E-02 1.80665E-05 1.77616E-01 7.34013E-05 2.79484E-05
 -1     25616 9.50183E-02 4.10638E-02-4.49089E-05 1.98981E-01 2.49791E-05-2.03443E-05
 -1     25617 9.33214E-02 3.60653E-02 1.75544E-05 1.90362E-01 2.93998E-05 5.38109E-05
 -1     25618-2.78728E-02 4.55475E-02-2.12726E-06 5.41096E-02 2.42950E-06 6.73179E-07
 -1     25619 3.53969E-02 4.10319E-02-1.31667E-06 1.23421E-01-2.21818E-05-3.19085E-06
 -1     25620 3.88017E-02 3.86436E-02-3.96212E-08 1.24788E-01 2.25849E-06 3.99041E-06
 -1     25621 4.29846E-02 4.34397E-02-1.35885E-06 1.35769E-01 5.27041E-06 1.40546E-05
 -1     25622 4.61810E-02 4.13498E-02 1.98668E-06 1.37224E-01 5.35435E-06 1.39351E-05
 -1     25623 4.26310E-03 2.90736E-02-4.54160E-07 7.47452E-02 1.75948E-06-4.17943E-06
 -1     25624 1.43378E-02 2.75839E-02-1.37975E-06 8.46023E-02 1.24509E-05 9.50210E-06
 -1     25625 7.51140E-03 2.58961E-02 3.95171E-07 7.58230E-02-1.51250E-05-6.37982E-06
 -1     25626 1.76172E-02 2.43762E-02 1.72010E-07 8.55684E-02-4.15840E-06 4.26367E-06
 -1     25627 2.01815E-02-2.31364E-02 5.41003E-06 3.78233E-02 1.49765E-06 4.41141E-07
 -1     25628 3.23504E-02-2.61508E-02 3.19328E-06 4.12599E-02 3.55983E-06 1.32691E-05
 -1     25629 1.62131E-02-2.31486E-02 7.14813E-08 4.19306E-02-8.79675E-06-1.45105E-05
 -1     25630 2.84961E-02-2.59501E-02-7.74358E-07 4.51010E-02-1.36343E-05 1.34010E-05
 -1     25631-1.43198E-01 6.12855E-02 8.32648E-05-2.64537E-02-1.28082E-05 2.23313E-05
 -1     25632-1.29032E-01 5.44613E-02 1.51421E-05-1.31108E-02 4.75654E-05-1.07756E-04
 -1     25633-1.48015E-01 6.26567E-02 1.21025E-04-2.28203E-02 1.67597E-05-3.06151E-05
 -1     25634-7.91609E-02 3.45448E-02-3.44597E-05 1.18625E-02-1.92379E-05 2.23412E-05
 -1     25635 6.97343E-02 5.79438E-02-2.18713E-05 1.89984E-01 7.74065E-06 2.49688E-05
 -1     25636 6.73120E-02 5.73451E-02-2.70708E-05 1.84518E-01-6.74111E-05 3.83665E-05
 -1     25637 6.57610E-02 5.71343E-02 1.18190E-04 1.82079E-01-6.18794E-05 2.12732E-06
 -1     25638 6.21169E-02 5.64950E-02 2.17629E-05 1.75467E-01-1.28466E-05-6.47146E-05
 -1     25639-1.05268E-01 4.64227E-02 3.16675E-05-7.84379E-03-2.63952E-06-6.57800E-05
 -1     25640-1.02511E-01 4.74683E-02-2.89878E-07-1.22696E-02 6.70170E-07-8.65348E-06
 -1     25641-1.18638E-01 5.33247E-02-4.80321E-06-2.29447E-02 1.36319E-05-7.99686E-06
 -1     25642 3.50249E-02 3.38785E-02 1.38688E-06 1.14931E-01-2.64863E-06 5.55825E-06
 -1     25643 4.55859E-02 3.38575E-02-3.47345E-08 1.27543E-01-6.21108E-06-4.87912E-07
 -1     25644 2.85931E-02 3.14131E-02 3.52221E-06 1.04519E-01 1.93937E-06 2.22545E-06
 -1     25645 3.91431E-02 3.12060E-02 1.07915E-06 1.16969E-01 3.53035E-06 2.39879E-08
 -1     25646 2.89070E-02-2.13836E-02 6.50940E-07 6.23895E-02 4.58902E-06 9.37428E-06
 -1     25647 1.46527E-02-1.59837E-02 4.52761E-07 5.72172E-02-2.66300E-06-1.09887E-05
 -1     25648 2.39973E-02-1.73171E-02 1.67480E-07 6.30165E-02-3.17305E-06 7.65801E-07
 -1     25649 9.93977E-03-1.18853E-02-9.08144E-08 5.77213E-02-1.24273E-05 6.18182E-07
 -1     25650 2.37908E-02 3.40744E-02 4.19155E-08 1.01655E-01-3.05857E-06-6.92551E-06
 -1     25651 1.00006E-01 5.89367E-02 1.34829E-07 2.32878E-01 1.44473E-05-1.11054E-05
 -1     25652 1.00133E-01 5.83735E-02-2.83161E-05 2.32179E-01 4.16856E-06 4.51264E-05
 -1     25653 8.87422E-02 7.30078E-03-1.52539E-05 1.38282E-01-1.78525E-05 3.90690E-05
 -1     25654 9.25349E-02 1.18178E-04-1.08773E-05 1.32708E-01-5.92640E-07 3.03750E-05
 -1     25655 6.85041E-02-2.63674E-02 3.38529E-05 5.14306E-02 1.13223E-04-3.71563E-05
 -1     25656 7.47894E-02-2.66927E-02 2.31490E-05 5.54861E-02 6.40007E-05-6.28331E-05
 -1     25657 3.66495E-02-2.20207E-02-6.87847E-08 6.78211E-02-3.33031E-05-2.00627E-05
 -1     25658-1.79054E-01 6.90793E-02 9.35841E-05-9.95217E-03 2.03057E-04-2.03519E-04
 -1     25659-2.01414E-01 7.80600E-02 2.19186E-04-1.30255E-02 3.37314E-04-1.83630E-04
 -1     25660-1.71973E-01 6.02021E-02 2.17848E-05-8.63975E-04 1.05775E-04-3.55199E-04
 -1     25661 4.64473E-02-2.89079E-02-1.08985E-07 6.55641E-02-1.93740E-05-2.15668E-06
 -1     25662 3.43294E-02-2.49295E-02-1.34515E-06 6.15490E-02 6.17992E-06-1.85429E-06
 -1     25663-7.46689E-02 3.69323E-02-6.91036E-08 8.32179E-03-3.40198E-06 2.31123E-06
 -1     25664-8.94688E-02 4.19452E-02-2.50142E-06-1.53436E-03-1.96063E-07 1.65909E-06
 -1     25665-5.76879E-02 8.91828E-02 1.42480E-05 1.13417E-01-2.15554E-05-3.66143E-05
 -1     25666-5.80237E-02 8.57012E-02 7.11120E-06 1.03498E-01 9.11171E-07 6.19902E-06
 -1     25667-6.25780E-02 8.28095E-02 1.68299E-06 1.00660E-01 1.25724E-05 5.19482E-05
 -1     25668-6.41300E-02 7.97746E-02-1.99592E-06 9.07886E-02 4.45707E-05 4.48612E-05
 -1     25669-1.17559E-01 5.32742E-02 2.31905E-05-4.23605E-02 9.42420E-05 2.21098E-05
 -1     25670-1.15155E-01 5.53437E-02 1.28074E-06-3.32389E-02-3.01607E-05 1.60918E-05
 -1     25671-1.18615E-01 5.43374E-02 2.28265E-05-4.13394E-02-3.47874E-05-7.53358E-05
 -1     25672-1.02487E-01 5.31122E-02 6.82242E-06-1.80926E-02 1.35761E-05-6.83400E-06
 -1     25673-1.00250E-01 5.46012E-02-4.46128E-05-1.02803E-02-7.01814E-05-1.54152E-05
 -1     25674-1.01272E-01 5.53984E-02 1.34647E-05-9.23502E-03-8.80512E-06-9.20980E-06
 -1     25675-7.35167E-02 2.28159E-02 4.67465E-03-2.46582E-02-1.86317E-03-7.21483E-03
 -1     25676-5.85646E-02 7.23144E-02 1.72173E-03 4.25241E-02 2.19199E-03-6.75594E-04
 -1     25677-5.86866E-02 7.71951E-02 3.71887E-04 4.94143E-02 1.22628E-03-2.58928E-03
 -1     25678-4.97301E-02 4.60547E-02-1.31227E-06 2.94430E-02-6.20643E-06-4.10696E-06
 -1     25679-6.23100E-02 4.70749E-02-2.66464E-06 1.61474E-02 1.14458E-05 6.47806E-06
 -1     25680-6.81140E-02 4.97778E-02 2.63284E-06 1.25724E-02-1.95784E-05-5.76175E-06
 -1     25681-5.71173E-02 4.84266E-02-3.65774E-06 2.37140E-02 2.80630E-06 4.49267E-06
 -1     25682-5.13248E-02 4.56654E-02 6.60155E-06 2.72127E-02 2.94491E-05 7.72567E-06
 -1     25683-6.97113E-02 4.94958E-02-2.42779E-06 1.03174E-02 9.78630E-06 5.51348E-06
 -1     25684-2.13470E-01 8.72144E-02-1.32735E-05-1.08936E-01-1.01700E-05-2.54878E-05
 -1     25685 4.19629E-02-2.56590E-02-3.11095E-06 6.69453E-02-1.87510E-05-2.82744E-05
 -1     25686 1.86298E-02-2.23532E-02-1.62562E-06 5.05333E-02-4.70164E-06 5.69965E-06
 -1     25687 1.00016E-01 5.88415E-02 1.08338E-06 2.32643E-01-7.90497E-05-2.14741E-05
 -1     25688 9.57825E-02 5.62413E-02-2.79084E-05 2.22782E-01 2.37792E-05-1.30850E-06
 -1     25689 1.00135E-01 5.89787E-02 4.24663E-06 2.33184E-01-2.46348E-05-3.74252E-05
 -1     25690 9.55952E-02 5.64853E-02 1.87518E-06 2.23132E-01-1.27584E-05-4.52996E-06
 -1     25691-2.18425E-01 8.85415E-02-4.62704E-06-1.13693E-01 3.15047E-06-2.16024E-05
 -1     25692-2.16209E-01 8.78530E-02 3.20511E-06-1.11987E-01-6.71049E-06 6.82669E-06
 -1     25693-5.01640E-02 3.75935E-02 1.31813E-06 2.34009E-02-6.32396E-07-1.76305E-06
 -1     25694-6.18272E-02 4.14380E-02 4.73510E-06 1.33898E-02 1.24019E-06-9.15966E-06
 -1     25695-6.11550E-02 4.14389E-02-5.26743E-06 1.40118E-02 9.81365E-06 3.20300E-05
 -1     25696-6.50077E-02 4.08072E-02 2.63833E-07 1.04954E-02 3.54916E-06-4.94637E-06
 -1     25697-1.46034E-01 6.47878E-02 2.36184E-06-5.77114E-02-7.03834E-07-4.96779E-06
 -1     25698-1.48190E-01 6.52322E-02 1.23264E-08-5.84822E-02 7.97346E-07 7.67542E-07
 -1     25699-1.62994E-01 7.00960E-02-1.43210E-06-7.17963E-02 1.43963E-05 1.32905E-05
 -1     25700-1.60919E-01 6.95371E-02 6.41231E-06-7.09448E-02-1.86616E-05-8.95600E-06
 -1     25701-1.63099E-01 7.01394E-02 5.03535E-06-7.18701E-02-5.08166E-06-1.60684E-06
 -1     25702-1.08245E-01 6.66553E-02 1.81483E-05-3.38731E-03 5.13280E-06-4.53802E-06
 -1     25703-9.77931E-02 6.59323E-02-3.62646E-06 8.23260E-03 4.25130E-05-2.12849E-05
 -1     25704-9.53525E-02 6.65018E-02 8.18404E-06 1.37632E-02 2.98167E-05-8.81246E-06
 -1     25705-2.32346E-01 9.42556E-02 4.48246E-05-1.21234E-01-8.90179E-05 1.71704E-04
 -1     25706-2.14331E-01 8.85104E-02-2.02279E-05-1.04775E-01-9.11714E-08 2.12406E-05
 -1     25707-2.09611E-01 8.70023E-02-1.32537E-05-1.00009E-01 4.22220E-05-2.62756E-05
 -1     25708-2.11947E-01 8.69873E-02 1.82732E-05-1.05903E-01-3.46052E-05-3.85670E-06
 -1     25709-2.16742E-01 8.85431E-02-1.67985E-05-1.10329E-01 7.96115E-06-2.54608E-06
 -1     25710-1.92948E-01 8.09592E-02-9.05135E-06-8.90535E-02-4.11845E-06-3.65744E-06
 -1     25711-2.11090E-01 8.68935E-02 6.81416E-06-1.04233E-01-1.16534E-05 8.76651E-07
 -1     25712-1.87421E-01 7.92793E-02-1.17511E-06-8.24410E-02-1.25025E-05 9.42209E-06
 -1     25713-1.89591E-01 7.93848E-02 1.20157E-05-8.87265E-02 2.82922E-05 5.38194E-05
 -1     25714-2.03461E-01 8.41518E-02 2.16474E-06-9.86736E-02-1.85563E-06 8.90047E-05
 -1     25715-2.09404E-01 8.58822E-02 3.22927E-05-1.04979E-01 4.76615E-05-6.68158E-05
 -1     25716-2.29923E-01 9.32684E-02 3.17038E-05-1.19872E-01-1.87962E-05-1.66721E-04
 -1     25717 7.34200E-02-2.20072E-02 3.44468E-05 9.79896E-02-4.38416E-05-8.99354E-05
 -1     25718 6.95836E-02-2.45841E-02-4.56219E-05 9.16856E-02-3.74669E-05-3.85025E-05
 -1     25719 7.70764E-02-2.52874E-02 1.77730E-06 9.69039E-02-1.01101E-04 6.55367E-05
 -1     25720 6.33906E-02-3.17959E-02-1.64199E-06 7.54042E-02 7.75414E-06-1.02966E-05
 -1     25721 6.72043E-02-3.42514E-02-7.63224E-08 7.35678E-02-1.50531E-05 4.26984E-06
 -1     25722 6.84236E-02-3.09456E-02-3.89347E-06 8.15255E-02 1.58624E-05-3.88838E-06
 -1     25723 7.23114E-02-3.36886E-02-4.29643E-06 7.97117E-02 1.38739E-05 2.26318E-05
 -1     25724 9.31118E-02 5.87842E-02-3.58760E-05 2.22802E-01-4.58845E-05-8.04022E-06
 -1     25725 9.36572E-02 5.87000E-02 2.52627E-05 2.23514E-01 4.40247E-05 5.65940E-05
 -1     25726 8.79652E-02 5.83614E-02 4.38836E-06 2.14737E-01-8.64151E-06 4.89145E-05
 -1     25727 5.05165E-02-1.86896E-02 5.03117E-06 8.22409E-02 5.09299E-05 1.41845E-06
 -1     25728 4.36326E-02-2.22121E-02-1.01677E-06 7.31370E-02 7.09977E-06 2.74505E-05
 -1     25729 5.88753E-02-2.19550E-02 6.22237E-06 8.57294E-02-5.13583E-05 1.88003E-05
 -1     25730 3.96782E-02-1.81257E-02-2.95873E-06 7.40933E-02 4.02537E-05 3.56878E-05
 -1     25731 9.19704E-02 8.12532E-03 1.74673E-05 1.51246E-01 1.91913E-05-4.89462E-07
 -1     25732 9.29949E-02 1.50338E-02 7.37022E-06 1.60933E-01 7.83727E-05 2.93658E-05
 -1     25733 9.30201E-02 1.52718E-02 2.55927E-05 1.61217E-01-8.64122E-05-3.88578E-05
 -1     25734 1.00132E-01 5.87356E-02 2.18726E-05 2.32685E-01 5.19182E-05 8.08409E-06
 -1     25735 9.69822E-02 5.57106E-02 1.97695E-05 2.23828E-01-7.94004E-06-2.09983E-06
 -1     25736 9.41125E-02 5.38128E-02 4.89693E-06 2.17103E-01-3.85651E-05-7.42695E-06
 -1     25737 9.80372E-02 5.68738E-02 2.15953E-05 2.26988E-01-1.88062E-05-1.95246E-05
 -1     25738 1.00664E-01 5.89779E-02 2.09722E-05 2.33744E-01-4.93686E-06-1.19229E-06
 -1     25739 9.49521E-02 5.37908E-02 2.05259E-05 2.18220E-01-4.88053E-05-1.46187E-05
 -1     25740-1.90292E-01 7.90030E-02-7.93488E-06-9.28847E-02 1.29645E-06 5.65563E-05
 -1     25741-2.01084E-01 8.28397E-02 1.17130E-05-1.00236E-01 7.10777E-05 6.02343E-05
 -1     25742-1.84566E-01 7.72156E-02 1.94516E-07-8.77474E-02 5.04062E-05-3.70108E-05
 -1     25743-1.75883E-01 7.41559E-02 5.98478E-07-8.26589E-02-3.59161E-05 1.44563E-05
 -1     25744-1.92652E-01 7.96292E-02 1.80113E-05-9.52530E-02-2.68422E-05 1.15515E-04
 -1     25745-1.86781E-01 7.78414E-02 1.58678E-05-9.02315E-02-1.16778E-06-1.00931E-05
 -1     25746-1.63308E-01 7.00741E-02 1.76306E-05-7.32406E-02-6.89302E-06-3.22158E-05
 -1     25747-1.43557E-01 6.75489E-02 7.65980E-06-4.87808E-02 1.68648E-05 9.15782E-06
 -1     25748-1.48692E-01 6.88016E-02-1.62944E-05-5.40534E-02 4.12230E-06 2.72940E-05
 -1     25749-1.63353E-01 7.09409E-02 1.00162E-05-7.12079E-02-1.37010E-05-2.12668E-05
 -1     25750-1.57958E-01 6.95612E-02 1.14151E-05-6.59956E-02-9.80306E-06 1.80714E-05
 -1     25751-1.43547E-01 6.83661E-02 2.56928E-06-4.70471E-02 4.04609E-06-7.00608E-06
 -1     25752 8.68780E-02-1.20004E-02-6.65005E-07 9.65027E-02-1.03147E-05-8.11567E-06
 -1     25753 8.78957E-02-1.35503E-02 3.79476E-08 9.24729E-02-1.45629E-06 1.14660E-05
 -1     25754 9.05683E-02-1.58269E-02-4.36117E-06 9.44254E-02 1.15762E-05 1.42255E-05
 -1     25755-2.33121E-01 9.54255E-02-1.02339E-05-1.17812E-01 6.25445E-05 5.62156E-05
 -1     25756-2.35041E-01 9.59784E-02 1.06513E-04-1.18728E-01 5.55055E-05 1.26184E-04
 -1     25757-2.28694E-01 9.54514E-02 2.34055E-05-1.08500E-01 1.27073E-04 1.64306E-04
 -1     25758-2.39803E-01 9.85464E-02-2.21002E-05-1.19970E-01 7.06409E-05-7.35328E-07
 -1     25759-2.41801E-01 9.94065E-02-4.55598E-06-1.21042E-01 4.64512E-06 1.15143E-04
 -1     25760 7.18439E-02 5.85755E-02-1.05104E-04 1.92539E-01 4.16281E-05 1.82094E-04
 -1     25761 6.82930E-02 5.72661E-02-1.21546E-04 1.85812E-01 1.38989E-04-4.99573E-06
 -1     25762 6.96885E-02 5.80748E-02-6.08202E-05 1.88588E-01 2.93531E-05 1.02901E-04
 -1     25763-2.09796E-01 8.75798E-02 8.20648E-06-9.69758E-02 5.55089E-05 4.57054E-05
 -1     25764-2.14326E-01 8.99674E-02 5.62915E-05-9.67390E-02 3.05418E-05-2.90552E-05
 -1     25765-2.07040E-01 8.67988E-02-2.45089E-05-9.46052E-02 1.01636E-04 6.70709E-06
 -1     25766-2.24580E-01 9.31205E-02-4.69421E-06-1.09170E-01 2.36298E-06-4.24490E-05
 -1     25767-2.11418E-01 8.90410E-02 2.10107E-05-9.42338E-02 3.13545E-05 2.47646E-05
 -1     25768 9.89684E-02-2.59007E-02-1.26333E-05 9.31613E-02-2.16068E-05-8.13972E-05
 -1     25769-1.06766E-01 4.59034E-02-2.80886E-05-5.08119E-03-1.80895E-05-1.24874E-04
 -1     25770-8.99067E-02 3.76832E-02-8.60973E-07 7.22986E-03 5.57091E-05 8.21624E-06
 -1     25771-1.08036E-01 4.51589E-02-1.60163E-05-1.61447E-03-4.30798E-05-6.66040E-05
 -1     25772-2.28928E-01 9.37674E-02 1.71017E-05-1.16373E-01-4.84136E-06 2.36705E-05
 -1     25773-2.14293E-01 8.85614E-02-5.83213E-06-1.04536E-01-2.90367E-05 2.28793E-07
 -1     25774-2.06911E-01 8.67447E-02-1.56681E-05-9.43009E-02-4.70839E-05-4.21400E-05
 -1     25775-1.91411E-01 8.11163E-02-3.51458E-08-8.22389E-02 2.17592E-05-1.51260E-05
 -1     25776-8.93768E-02 3.48952E-02-7.36338E-05 1.11476E-02 3.34524E-06 3.64006E-05
 -1     25777-2.24269E-01 9.24469E-02-2.40620E-05-1.11705E-01 7.33019E-05-8.46836E-05
 -1     25778-2.26771E-01 9.31576E-02-3.11548E-05-1.14089E-01-6.35286E-06-9.28770E-05
 -1     25779-8.38483E-02 3.70419E-02 4.47819E-05-3.17892E-02 2.62651E-04-8.67580E-04
 -1     25780-7.96755E-02 3.40584E-02 2.89826E-04-3.41607E-02 7.64263E-04 2.82467E-04
 -1     25781-6.51260E-02 2.46481E-02 8.58928E-04-2.81638E-02-6.26193E-03-6.33744E-04
 -1     25782-5.53713E-02 2.78806E-02 3.65886E-06 2.30341E-02 9.68624E-06-5.91810E-05
 -1     25783-4.05822E-02 2.12678E-02-3.65127E-05 3.33509E-02 9.25529E-06 1.00159E-05
 -1     25784-4.22887E-02 2.39786E-02-2.55318E-05 3.13661E-02 5.27907E-05 1.80584E-05
 -1     25785 8.32521E-02 2.69895E-02 1.40832E-06 1.65905E-01 4.68854E-06-3.67681E-06
 -1     25786 7.74569E-02 2.36115E-02 3.88733E-06 1.54300E-01 8.44791E-06-1.61916E-05
 -1     25787 8.00148E-02 2.07110E-02-3.36572E-07 1.53926E-01-2.02321E-05-3.62896E-05
 -1     25788 7.21927E-02 5.01954E-02-2.21206E-05 1.82005E-01 5.70601E-06-4.18900E-05
 -1     25789 6.44377E-02 4.73122E-02-1.38446E-05 1.68118E-01-2.90389E-05 2.11580E-05
 -1     25790 9.48890E-02 5.23171E-02-2.17327E-05 2.15884E-01 2.47684E-05-2.54038E-05
 -1     25791 9.48869E-02 5.10441E-02-1.63360E-05 2.14031E-01-2.54806E-05-7.89817E-06
 -1     25792 9.71792E-02 5.46248E-02-2.00078E-05 2.22409E-01 2.37793E-05 1.65373E-05
 -1     25793 9.98191E-02 5.81137E-02-1.42919E-05 2.31370E-01 3.60686E-05-1.88816E-05
 -1     25794-2.18954E-01 9.25588E-02 1.40920E-05-9.50195E-02-7.06361E-05-1.85301E-04
 -1     25795-2.11170E-01 8.89706E-02-2.09910E-05-9.38461E-02-9.90467E-06-6.81312E-05
 -1     25796-2.33170E-01 9.76090E-02 6.50829E-05-1.08697E-01-8.98638E-05-6.43010E-05
 -1     25797-2.25227E-01 9.41335E-02-4.82759E-05-1.06773E-01 3.15094E-05 2.34432E-06
 -1     25798 8.72887E-02 1.22788E-02-3.29127E-06 1.51353E-01-4.57074E-06-2.42006E-05
 -1     25799 8.49575E-02 1.51602E-02 2.79288E-07 1.52697E-01-3.81472E-05-1.56549E-05
 -1     25800 8.86067E-02 2.33798E-02-1.76368E-05 1.67590E-01 3.17139E-05-4.18105E-05
 -1     25801 9.05028E-02 2.05441E-02 1.73504E-05 1.65984E-01 2.04589E-05 1.47792E-05
 -1     25802 3.63646E-02 6.85376E-03-3.43730E-05 6.61663E-02-4.23521E-05 7.30663E-05
 -1     25803 4.45733E-02 5.44663E-03-2.99047E-05 7.49167E-02 1.85107E-04-4.29062E-05
 -1     25804 3.68732E-02 6.10941E-03 7.69082E-05 6.58944E-02 4.16819E-04 1.47305E-04
 -1     25805 9.63404E-02 2.68484E-03-2.68909E-06 1.43434E-01 3.15694E-05 1.73983E-05
 -1     25806 9.88215E-02-3.76340E-03-1.62658E-06 1.38777E-01-6.41138E-06-9.30311E-06
 -1     25807 9.56984E-02 1.08821E-03-1.56257E-07 1.39598E-01 2.00678E-05 1.25038E-05
 -1     25808 9.88217E-02-5.48686E-03 2.43211E-06 1.34915E-01-3.78061E-06-2.67339E-05
 -1     25809 5.94864E-02 2.65054E-03 3.15664E-06 9.09712E-02-2.96527E-05-4.32728E-06
 -1     25810 6.17006E-02 2.22252E-03-4.11300E-06 9.17333E-02 4.85217E-07 2.31777E-06
 -1     25811 2.39096E-02 5.82331E-02 5.69763E-04 1.28051E-01 1.26531E-04-1.38005E-04
 -1     25812 2.98220E-02 5.79673E-02-6.62763E-05 1.32589E-01-3.22985E-04-7.93909E-05
 -1     25813 1.29248E-02 7.11539E-02-9.55291E-06 1.32794E-01 2.27258E-04-1.74843E-04
 -1     25814 4.80682E-02 4.74018E-02 2.98953E-04 1.41801E-01 4.13638E-05-2.20724E-05
 -1     25815 5.02262E-02 4.81775E-02-2.63411E-04 1.46083E-01-2.11163E-04 6.77454E-06
 -1     25816 1.71562E-02-1.97301E-04 1.45915E-06 6.93882E-02-1.56269E-05-2.41773E-08
 -1     25817 2.55227E-02-8.33422E-04-1.99121E-05 7.58761E-02-8.40707E-06-2.89190E-05
 -1     25818 4.83437E-02 5.45269E-03-5.88659E-05 8.21106E-02-1.12590E-04-4.83527E-05
 -1     25819 4.64108E-02 5.36017E-03-9.78817E-05 7.87904E-02 9.54879E-05-6.86267E-06
 -1     25820 4.93242E-02 5.05099E-03-4.12491E-06 8.33286E-02-1.87475E-05 3.60493E-05
 -1     25821-2.31633E-01 9.47774E-02-5.56164E-05-1.17231E-01 4.01595E-05-5.54154E-05
 -1     25822-2.34582E-01 9.49923E-02-2.53486E-05-1.22026E-01 6.18508E-05-5.14202E-05
 -1     25823-2.34086E-01 9.54659E-02 8.76273E-06-1.19577E-01-1.66965E-05-7.04075E-06
 -1     25824-5.33504E-02 5.41769E-02-4.06588E-08 3.66333E-02 1.37263E-06 1.71434E-06
 -1     25825 5.98314E-02 2.74797E-02 1.91033E-05 1.27451E-01 6.73815E-05 4.87654E-05
 -1     25826 6.07074E-02 2.80917E-02-5.31505E-06 1.29614E-01-5.39331E-05-1.34711E-05
 -1     25827 6.02793E-02 2.43642E-02-1.32473E-05 1.23338E-01 1.85437E-05 2.32394E-05
 -1     25828 5.96039E-02 2.37245E-02-4.45621E-06 1.21411E-01-9.89658E-06 3.78122E-05
 -1     25829 6.48810E-02 1.98698E-02 1.94295E-05 1.23031E-01 6.03357E-05 5.02613E-05
 -1     25830-3.11809E-02 2.12369E-02-1.45893E-05 3.87916E-02 1.73602E-05 5.67102E-05
 -1     25831-2.78134E-02 1.79379E-02-1.12332E-05 4.11479E-02 6.53728E-05 3.95439E-05
 -1     25832-1.83992E-02 1.68608E-02 1.41763E-05 4.78897E-02-8.07451E-06-7.76969E-06
 -1     25833 8.25089E-02-8.14141E-03 1.92097E-07 9.77999E-02 1.42758E-05 1.82945E-05
 -1     25834 7.99990E-02-6.61641E-03 3.11531E-06 9.54453E-02 8.78673E-06 2.54290E-05
 -1     25835 8.41364E-02-1.02835E-02 2.66534E-06 9.40250E-02-2.12654E-05-4.98345E-06
 -1     25836 5.90872E-02 1.27482E-02-6.62042E-06 1.02715E-01-3.01130E-05 5.02177E-06
 -1     25837 6.58315E-02 7.59832E-03-2.30851E-06 1.03519E-01-1.46133E-05-9.11239E-06
 -1     25838-1.12478E-01 4.56494E-02 6.27557E-05-7.37575E-04 1.22295E-04 1.01432E-04
 -1     25839-1.10779E-01 4.65330E-02 8.02443E-06-4.12351E-03 1.62232E-05 7.74146E-05
 -1     25840-4.04826E-02 1.46182E-02 2.90443E-05 3.60048E-02-2.40950E-05-8.06977E-05
 -1     25841-2.74450E-02 1.09889E-02 2.63383E-05 4.24934E-02 5.03984E-05-1.90704E-05
 -1     25842 6.50374E-02 1.37648E-02 2.43864E-07 1.13421E-01 3.33116E-05 5.19243E-05
 -1     25843 6.16965E-02 1.47693E-02-4.51052E-06 1.10038E-01 1.61584E-05-2.28529E-06
 -1     25844 7.21285E-02 5.84614E-03 1.45302E-06 1.10158E-01-2.44787E-05-4.90443E-06
 -1     25845 9.62916E-02 5.00948E-02 4.99526E-05 2.14487E-01-6.56694E-05-5.91079E-05
 -1     25846 9.53258E-02 4.92819E-02-1.70290E-05 2.11610E-01-7.82635E-05 2.22450E-05
 -1     25847 9.60145E-02 4.98989E-02-4.36747E-05 2.13578E-01-3.68813E-05 5.52467E-05
 -1     25848 4.77656E-02-1.06667E-02 1.12248E-05 3.25926E-02 2.05456E-05 6.11434E-06
 -1     25849 4.79828E-02-1.38862E-02 9.29895E-07 3.36693E-02-4.58644E-05-5.45733E-05
 -1     25850 4.50658E-02-1.32977E-02-2.11899E-05 3.20153E-02-1.47231E-05-1.71694E-05
 -1     25851 5.38428E-02-1.98552E-02-5.01159E-06 3.98320E-02 2.56592E-05 2.58741E-05
 -1     25852 5.65149E-02-2.01086E-02 1.19311E-05 4.13627E-02-1.17996E-05 3.85138E-05
 -1     25853 5.38189E-02-2.26947E-02 5.48806E-06 4.09058E-02 3.35390E-05 2.80888E-05
 -1     25854-1.88929E-02-9.98920E-03-1.87973E-05 7.46358E-03-1.18536E-05 5.36239E-05
 -1     25855-9.52768E-03-1.39871E-02-2.54502E-05 1.70708E-02 2.99293E-05 4.39783E-05
 -1     25856-2.41146E-02-1.06103E-02-2.20461E-05 1.41950E-02 1.07539E-04-1.99262E-05
 -1     25857-8.44528E-02 3.88457E-02-2.00584E-04-2.90239E-02-1.45657E-04-2.22331E-05
 -1     25858-9.90014E-02 4.21956E-02 5.49814E-05-4.42573E-02-2.64661E-04 1.86851E-05
 -1     25859-8.55744E-02 3.83936E-02 2.01758E-04-3.10988E-02 6.80171E-05 1.88262E-04
 -1     25860-8.12480E-02 3.69295E-02-1.60155E-04-2.85160E-02-2.73430E-04-3.78800E-04
 -1     25861-9.58828E-02 4.18892E-02-2.67259E-05-4.17290E-02 1.22335E-04-1.25262E-04
 -1     25862-9.72794E-02 4.11423E-02 2.20064E-05-4.39812E-02 5.45964E-05-2.92049E-04
 -1     25863 7.31709E-02 3.28393E-02 3.36502E-05 1.54737E-01-1.27236E-05 6.38295E-05
 -1     25864 7.49876E-02 3.38787E-02-5.31489E-06 1.59026E-01 5.49209E-05 9.90086E-05
 -1     25865 7.25445E-02 3.21671E-02-5.75956E-06 1.52639E-01 5.03675E-05 1.16433E-04
 -1     25866 7.67335E-02-3.12523E-03-2.60265E-06 9.90036E-02-2.81310E-05-7.33882E-06
 -1     25867 7.16929E-02-1.03297E-04 6.89255E-06 9.70992E-02-4.90710E-06-1.02446E-05
 -1     25868 7.36327E-02-1.98711E-03 9.08146E-06 9.58095E-02-3.16776E-05-3.63118E-07
 -1     25869 7.53721E-02-3.59176E-03 1.56056E-06 9.39703E-02 4.78244E-05 2.60897E-06
 -1     25870 9.64647E-02 5.88057E-02 1.97697E-05 2.27748E-01 2.39838E-05 1.01676E-05
 -1     25871 8.04945E-02 5.50116E-02-3.88625E-05 2.00013E-01 3.57436E-06-7.03961E-05
 -1     25872 9.61186E-02 5.88725E-02-2.84717E-06 2.27295E-01-2.29385E-05 4.57111E-05
 -1     25873 8.61409E-02 5.67020E-02-8.43869E-07 2.10511E-01-1.80192E-06-4.06541E-06
 -1     25874 9.44998E-02 1.20869E-02-4.39329E-06 1.58846E-01-3.07183E-05 1.57501E-05
 -1     25875 9.55447E-02 1.78794E-02 1.62730E-05 1.66904E-01-6.76046E-05 7.59598E-06
 -1     25876-2.54020E-02-1.10808E-02-2.59313E-05 1.58627E-02-3.88136E-05-2.06819E-05
 -1     25877-1.07424E-02-1.43381E-02-1.26733E-05 1.87900E-02 3.92358E-05-4.48011E-06
 -1     25878-1.91299E-02-9.93632E-03 2.93994E-05 7.75550E-03-3.45242E-05-2.78341E-05
 -1     25879 8.99548E-02 4.34540E-02-3.24119E-05 1.95003E-01-2.48230E-05-2.08242E-05
 -1     25880 9.08977E-02 3.57053E-02-1.58256E-05 1.84830E-01 5.52473E-05 2.32810E-05
 -1     25881 8.67848E-02 4.24239E-02 1.06783E-05 1.88955E-01 1.37961E-05-4.48386E-05
 -1     25882 8.80580E-02 4.34904E-02-2.69255E-05 1.92352E-01 6.50844E-07 5.16934E-05
 -1     25883 7.96345E-02-1.13964E-03-9.91768E-08 1.08986E-01 8.99018E-06 1.35918E-05
 -1     25884 7.48745E-02 5.84811E-03 6.82842E-06 1.14342E-01-4.74180E-06-3.33960E-05
 -1     25885 9.06407E-03 3.05554E-02 1.52069E-07 8.12662E-02 3.62402E-06 4.18749E-06
 -1     25886 1.72114E-02 3.22486E-02 3.40288E-06 9.22435E-02 3.63544E-06-4.84483E-06
 -1     25887 2.06752E-02 2.92743E-02 5.54392E-07 9.33466E-02-6.00728E-06-6.73856E-06
 -1     25888-3.56351E-02-3.64938E-03 5.44144E-06-5.43637E-03 6.25512E-06 5.02395E-06
 -1     25889-2.58333E-02-1.97227E-03 4.86294E-05-6.72178E-03-4.63560E-06 8.15463E-05
 -1     25890-3.34479E-02-5.15512E-03 8.08383E-05-2.44540E-03 6.39607E-05-2.36491E-05
 -1     25891-4.30840E-02-3.47556E-03-6.36492E-05-7.42833E-03 4.37754E-05-1.50614E-04
 -1     25892-3.29940E-02-1.81605E-03-1.84925E-05-8.78822E-03-2.03010E-04 3.61407E-05
 -1     25893 8.29685E-02 5.52372E-03-6.95686E-06 1.26140E-01-1.83807E-05-2.55701E-05
 -1     25894 7.56030E-02 1.37497E-02-5.26585E-07 1.28489E-01 2.51002E-05-7.29439E-06
 -1     25895 8.05037E-02 5.40959E-03-3.68230E-06 1.22490E-01-6.12473E-06-3.91519E-05
 -1     25896-8.97327E-02 4.87040E-02-1.97471E-08-1.09281E-02 4.86144E-06-9.54589E-06
 -1     25897-1.04217E-01 5.23997E-02 1.75117E-06-2.30027E-02-6.86071E-06-5.79726E-06
 -1     25898-1.01877E-01 5.24212E-02 2.57008E-06-2.15776E-02-6.86386E-06-5.07312E-06
 -1     25899-4.92019E-02-3.64888E-03 1.06068E-05-8.51026E-03-2.36642E-05-6.74225E-05
 -1     25900-4.75487E-03-5.81087E-03 4.97370E-06 5.20098E-02 2.15699E-07-1.25215E-06
 -1     25901 7.03055E-02-3.55707E-02-2.68839E-06 7.11089E-02 8.63113E-06-1.24657E-05
 -1     25902 7.31919E-02-3.65086E-02 1.33546E-09 6.87515E-02-1.18028E-05-4.45044E-06
 -1     25903 7.86328E-02-3.69001E-02 4.07038E-06 7.53459E-02 7.36808E-06 2.14632E-05
 -1     25904-7.42283E-02 5.66306E-02 9.45870E-07 1.58071E-02 1.19043E-06-3.18595E-06
 -1     25905-8.76877E-02 5.78380E-02 2.90609E-06 1.13115E-03 6.90823E-06 4.87988E-06
 -1     25906-1.85609E-01 7.77423E-02-7.87009E-06-9.00457E-02 6.51751E-05 1.86063E-05
 -1     25907-1.69612E-01 7.31618E-02-9.57045E-06-7.70208E-02 2.28952E-05-2.97064E-06
 -1     25908-4.22897E-02-8.52448E-03-4.90469E-06 1.31281E-02-8.56608E-05 1.36755E-04
 -1     25909-6.01618E-02-3.83457E-03-7.21330E-05 1.14417E-02 9.58491E-05-1.17808E-04
 -1     25910-5.20605E-02-6.46037E-03-6.75765E-05 4.05067E-03-2.11693E-04 2.55904E-04
 -1     25911 9.87486E-02 5.64169E-02 8.22956E-06 2.27083E-01-1.24290E-04-8.08024E-05
 -1     25912 9.64612E-02 5.14269E-02-5.02069E-06 2.16582E-01 1.22246E-05 1.98395E-05
 -1     25913 9.79550E-02 5.44068E-02-6.03834E-06 2.22867E-01-8.89054E-05 2.33482E-05
 -1     25914 9.83854E-02 5.47212E-02-2.82436E-05 2.24262E-01 2.96115E-05 6.95384E-05
 -1     25915-8.09215E-02 6.07345E-02-7.30269E-06 3.48534E-02 1.01459E-05-2.49627E-05
 -1     25916-2.36811E-01 9.60944E-02 4.31014E-05-1.23077E-01-2.53147E-05 1.16509E-05
 -1     25917-2.35099E-01 9.52504E-02 4.20926E-06-1.22189E-01-6.74252E-05 4.34101E-05
 -1     25918-2.25449E-01 9.28054E-02-2.97443E-06-1.12291E-01-2.76426E-05 7.14369E-05
 -1     25919-2.31136E-01 9.46053E-02-2.29786E-05-1.17013E-01 3.28488E-05 8.50097E-05
 -1     25920 8.08270E-02-5.28074E-03-3.20450E-06 1.23788E-01-1.44652E-05-6.38296E-06
 -1     25921 8.44697E-02-8.85575E-03 1.54849E-06 1.23096E-01-1.61355E-05-1.27803E-06
 -1     25922 7.85299E-02-1.03951E-02 5.01762E-06 1.15564E-01-8.22608E-06-1.59000E-05
 -1     25923 7.45704E-02-6.65924E-03-3.69605E-08 1.16143E-01 1.22867E-06 1.05877E-06
 -1     25924-3.01919E-01 3.96966E-02-3.89450E-04 2.06453E-02-2.99352E-03 4.69154E-04
 -1     25925-5.52112E-01 1.37724E-01 2.76631E-03 3.24126E-02-3.71326E-04 3.90793E-03
 -1     25926-2.83393E-01 3.11939E-02 2.36383E-03 2.01798E-02 8.97644E-04-2.08497E-03
 -1     25927-2.01208E-02 5.92243E-02 9.43520E-08 8.38686E-02-2.29282E-06 1.66648E-06
 -1     25928-6.48776E-03 5.81188E-02-2.31600E-06 9.76480E-02-2.22862E-06-7.92546E-07
 -1     25929-1.54282E-02 5.66266E-02 5.89236E-07 8.49715E-02-5.01954E-06 1.32479E-06
 -1     25930-8.56878E-02-1.12374E-03-8.56979E-05-5.35089E-03 6.41723E-05 3.35547E-05
 -1     25931-6.49209E-02-4.83954E-03 5.62454E-05-6.09579E-04-9.65435E-05 4.83228E-05
 -1     25932-7.33135E-02-2.97193E-03-3.15144E-05-2.00123E-03-3.36108E-05-8.78756E-05
 -1     25933-1.02993E-01 6.64687E-03-1.49516E-05 6.21009E-03 7.12285E-05 3.09249E-05
 -1     25934-9.39697E-02 5.09901E-03 6.30680E-05 6.92871E-03 1.17255E-04 4.30467E-05
 -1     25935-8.09769E-02 2.20853E-03 3.35024E-05 1.00458E-02 1.56140E-04 3.89565E-07
 -1     25936-6.01604E-02-4.15572E-03-2.31993E-05-2.61549E-03 2.02653E-04 6.20292E-05
 -1     25937-4.88653E-02-6.40878E-03 1.05895E-04 1.13018E-03 2.78458E-04-2.90760E-04
 -1     25938-6.03122E-02-4.44698E-03 4.48946E-05 1.12319E-02-7.01341E-05 1.07474E-04
 -1     25939-7.25342E-02-2.12975E-03-5.82793E-05 7.99295E-03-1.09721E-04 2.63057E-04
 -1     25940-5.45790E-02-4.56887E-03-1.11156E-04 9.32163E-03-2.03124E-05 1.81009E-04
 -1     25941-8.66494E-02 6.51357E-02 4.41464E-06 1.97171E-02 1.37102E-08-2.44091E-05
 -1     25942-9.09019E-02 6.39560E-02-3.00978E-07 1.08953E-02-5.90542E-06-6.59764E-06
 -1     25943-8.72196E-02 6.51857E-02-2.36187E-06 1.92789E-02-6.16713E-06 1.30058E-05
 -1     25944-1.02384E-01 6.51121E-02-5.61247E-07-6.62296E-04-9.30426E-07-4.11915E-06
 -1     25945-3.79907E-02-3.31350E-03-1.73644E-07 3.44028E-02 6.15445E-07-6.35160E-06
 -1     25946-4.65526E-02 2.93117E-03-2.61811E-06 3.42754E-02-1.02621E-05-5.80317E-06
 -1     25947-2.03735E-01 8.35054E-02-5.91543E-06-1.03489E-01-1.14255E-05 1.72216E-05
 -1     25948-2.04313E-01 8.36753E-02 8.22723E-06-1.03759E-01-8.32425E-06-8.62689E-06
 -1     25949-2.16163E-01 8.76919E-02 4.16125E-06-1.12346E-01 1.82909E-05-1.17541E-05
 -1     25950-1.93951E-01 8.01711E-02 6.53456E-06-9.65025E-02 6.88407E-06 6.29602E-05
 -1     25951-2.16696E-01 8.79362E-02-5.93700E-06-1.12579E-01-8.64922E-06-1.74133E-05
 -1     25952 7.90650E-02-2.67166E-03 1.18338E-05 8.20124E-02 2.96323E-05 1.14105E-05
 -1     25953 7.91893E-02-2.82637E-03 1.81370E-05 8.31386E-02-2.65399E-05-6.89915E-05
 -1     25954-6.73354E-02 5.09012E-02-2.22231E-06 1.48822E-02 9.77343E-06 7.50344E-06
 -1     25955-2.02225E-01 8.31163E-02 1.00794E-05-1.02430E-01-9.99981E-06-2.51321E-05
 -1     25956-1.65362E-01 6.55749E-02 2.99109E-05-1.23286E-02-2.97805E-04 2.57266E-04
 -1     25957-1.61896E-01 6.60788E-02-6.65258E-05-2.00064E-02-7.93280E-05 4.55244E-05
 -1     25958-2.03110E-01 8.28343E-02 2.58457E-04-2.47903E-02-7.71923E-05 1.55595E-04
 -1     25959-1.69987E-01 6.57197E-02 3.84276E-05-7.48843E-03-6.17363E-05 1.63448E-04
 -1     25960-1.99251E-01 8.36025E-02 1.36793E-04-3.35069E-02-1.23714E-04 2.97271E-04
 -1     25961-1.47261E-01 2.35407E-02-2.01538E-04 8.26169E-03 3.40116E-04-9.76722E-06
 -1     25962-1.42170E-01 3.06704E-02-1.50490E-05 1.45736E-02 1.43873E-04-1.54003E-04
 -1     25963-1.17366E-01 9.46859E-03 6.50696E-05 8.79603E-03 3.33148E-04-5.67340E-05
 -1     25964-1.29100E-01 8.76761E-03-8.32547E-05 2.49630E-03 1.35167E-05 6.23686E-05
 -1     25965-1.23683E-01 1.38611E-02 6.38955E-06 1.08267E-02 2.34299E-04-1.02901E-04
 -1     25966-2.00431E-01 8.24319E-02-1.18621E-05-1.01220E-01 4.27473E-05-8.10825E-06
 -1     25967-2.01370E-01 8.28040E-02-1.66407E-05-1.01916E-01 4.77647E-05 1.15798E-05
 -1     25968 1.52657E-02 6.50769E-02-1.26157E-07 1.33368E-01 1.25212E-05 1.47917E-05
 -1     25969 6.97315E-03 6.36219E-02 6.89728E-06 1.21892E-01 6.44466E-06 1.71085E-05
 -1     25970-4.59552E-02 1.51015E-02-1.84832E-05 3.40794E-02 4.41119E-05 9.89060E-05
 -1     25971-2.22312E-02 6.64455E-02 4.72499E-06 9.41655E-02-1.11210E-05 1.39427E-05
 -1     25972-3.71731E-02 6.67325E-02-5.42382E-07 7.88066E-02-1.23053E-05-1.04564E-05
 -1     25973-2.86822E-02 6.87685E-02-4.30467E-06 9.15156E-02 7.17862E-06-5.42958E-06
 -1     25974 9.29295E-02 5.83151E-02-6.10068E-05 2.21725E-01 1.14983E-04-1.72846E-05
 -1     25975-1.75877E-01 7.52230E-02-1.73381E-06-7.01509E-02-2.35431E-05-1.46123E-06
 -1     25976-1.72208E-01 7.36622E-02-4.00112E-06-7.06543E-02-1.57585E-05-1.06871E-05
 -1     25977-4.36024E-02 6.96022E-02-5.81775E-07 7.78166E-02-1.80011E-05-7.95346E-06
 -1     25978 2.41037E-02-2.50798E-02-5.13250E-07 4.80852E-02 1.01108E-05 4.90123E-06
 -1     25979-6.56162E-02 5.20450E-02-2.49259E-06 1.86631E-02 6.76806E-06 3.47472E-07
 -1     25980-5.20145E-02 4.92879E-02 4.10399E-07 3.08331E-02-8.77241E-06-1.08114E-05
 -1     25981 7.02618E-03 5.05453E-02-7.56602E-07 1.01872E-01-2.49327E-06-2.12351E-06
 -1     25982-2.11405E-03 4.89873E-02 1.57206E-08 8.89030E-02 1.17535E-06-8.11370E-06
 -1     25983 1.11638E-02 4.82226E-02-3.80069E-07 1.03559E-01 5.00583E-06 1.56608E-06
 -1     25984-5.20677E-02 6.67254E-02-2.96507E-06 6.23836E-02-4.83672E-06-3.11710E-06
 -1     25985 6.40732E-02-2.04472E-02 1.06689E-05 9.18075E-02-3.30294E-05 9.46769E-05
 -1     25986 6.79828E-02-1.77246E-02-2.69838E-05 9.81093E-02-4.08168E-05 1.06698E-04
 -1     25987-3.11157E-02-1.07566E-02-1.61513E-07 2.26328E-02 5.61845E-06-2.60627E-05
 -1     25988-1.60381E-02-1.38455E-02-4.87836E-06 2.48692E-02-1.10451E-05 2.31891E-05
 -1     25989-2.02740E-01 8.33115E-02-3.71473E-05-1.02804E-01 9.17971E-07-2.13659E-06
 -1     25990-1.32343E-01 6.16146E-02-5.39009E-06-4.51656E-02 3.45040E-05 3.41196E-05
 -1     25991-1.54159E-01 6.33613E-02 6.63030E-06-7.71240E-02 6.35476E-05-3.92678E-05
 -1     25992-1.24191E-01 6.01399E-02-6.48407E-05-3.62663E-02-1.23318E-05 3.02334E-05
 -1     25993-1.27385E-01 5.96883E-02 2.62183E-05-4.22712E-02 3.36173E-05 3.59095E-05
 -1     25994-1.49331E-01 6.12996E-02 3.25223E-05-7.46873E-02 2.97970E-05-4.89726E-05
 -1     25995-3.94536E-02-6.30616E-03-4.25479E-06 2.62925E-02 2.89787E-05-1.74438E-05
 -1     25996-2.22059E-02-1.24320E-02-3.15132E-06 2.93312E-02 2.34196E-05 2.09703E-07
 -1     25997 6.88281E-03 5.69646E-02-1.87308E-08 1.11173E-01-1.18507E-06 7.22198E-06
 -1     25998-2.17650E-03 5.54680E-02 2.58217E-06 9.84267E-02-6.41976E-06 4.74700E-06
 -1     25999-3.07514E-02 5.79071E-02 1.16168E-06 6.94643E-02-6.40884E-07 5.59957E-06
 -1     26000-1.17278E-02 5.40487E-02-2.20018E-08 8.51119E-02 4.85764E-07-5.21924E-06
 -1     26001-2.69649E-02 5.53595E-02 3.94601E-07 6.95493E-02-1.50813E-06 4.20251E-06
 -1     26002-4.63137E-02 4.66650E-02 7.71805E-06 3.42338E-02-3.47230E-06-1.16396E-05
 -1     26003-3.61555E-02 4.80608E-02 2.08662E-06 4.76964E-02 6.50709E-06 8.06153E-06
 -1     26004-3.38677E-02 4.45722E-02 8.54465E-07 4.61780E-02 5.05861E-06 1.47745E-05
 -1     26005-1.58588E-01 6.49538E-02-2.17269E-05-8.02703E-02-4.54546E-05-5.38609E-05
 -1     26006-1.62826E-01 6.67456E-02-2.64167E-05-8.23459E-02-3.34525E-05-4.10819E-05
 -1     26007-1.65082E-01 6.76961E-02-1.31914E-05-8.35812E-02-1.92146E-05-2.63989E-05
 -1     26008 7.95925E-02-2.13745E-02 3.80607E-05 5.98275E-02-7.80057E-05-1.08022E-04
 -1     26009 8.22104E-02-2.08323E-02-4.67969E-05 6.28283E-02-3.71600E-05 8.45371E-05
 -1     26010 8.73341E-02-2.70761E-02 2.51259E-05 6.70207E-02 6.82264E-05 8.58636E-05
 -1     26011 7.94648E-02-2.60853E-02 3.14314E-05 5.92160E-02-4.11533E-05-1.84508E-05
 -1     26012 7.46217E-02-2.02450E-02 8.11218E-06 5.44672E-02-3.06868E-04 7.53351E-05
 -1     26013-7.53917E-02 1.84641E-02-1.05319E-05 2.63472E-02 8.02240E-06-5.57782E-05
 -1     26014-1.09416E-01 3.74110E-02 3.74816E-05 1.30122E-02 2.98306E-05-7.16491E-05
 -1     26015-9.83777E-02 2.91822E-02 5.82903E-05 1.85959E-02 7.89890E-06 3.68702E-06
 -1     26016-6.51119E-02 1.10220E-02-1.47493E-06 2.98440E-02-5.07830E-05 2.00409E-05
 -1     26017-1.00085E-01 2.94253E-02 4.83482E-05 1.83974E-02-2.84513E-05-3.80859E-05
 -1     26018-2.47876E-01 1.07322E-01 1.35289E-04-8.64952E-02 9.51797E-05-1.23320E-04
 -1     26019-2.32479E-01 1.01192E-01-1.27826E-04-8.15039E-02 9.87736E-05-4.04686E-04
 -1     26020-2.49444E-01 1.09087E-01-1.90755E-04-9.82833E-02-1.79297E-04-5.07280E-04
 -1     26021-2.55682E-01 1.11435E-01-1.95756E-04-7.92589E-02 1.55928E-04 2.17735E-04
 -1     26022-2.40420E-01 1.04923E-01-1.22785E-04-7.46841E-02 2.41933E-04-3.35645E-04
 -1     26023 5.73748E-02-6.88767E-03 1.63493E-05 4.05780E-02 8.56896E-05 2.88781E-05
 -1     26024 6.63600E-02-1.95299E-02 9.84893E-06 4.73103E-02 2.74372E-05-1.47271E-04
 -1     26025 6.55779E-02-1.35814E-02 1.66794E-05 4.72951E-02-1.04561E-04 7.67472E-05
 -1     26026 5.15535E-02-7.16988E-03 4.64047E-06 3.52220E-02 1.76180E-04 9.20056E-05
 -1     26027 5.99870E-02-1.35068E-02 8.31958E-07 4.22421E-02-4.61411E-05 2.30674E-05
 -1     26028-2.38619E-01 1.02061E-01-1.07066E-04-9.92911E-02-1.61011E-04 3.17962E-05
 -1     26029-2.23396E-01 9.63793E-02-9.89243E-05-8.43443E-02-1.35349E-04 5.11150E-05
 -1     26030 9.42530E-02 5.83360E-02 1.59836E-05 2.23770E-01-3.14454E-05 1.37344E-05
 -1     26031 7.66829E-02 5.55876E-02-2.66532E-05 1.95518E-01 3.74072E-05 5.92148E-05
 -1     26032 9.44497E-02 5.83262E-02 5.23850E-05 2.24294E-01 1.21194E-05-2.64401E-05
 -1     26033 8.95926E-02 3.24997E-02 1.19371E-05 1.80523E-01 4.71198E-05 1.24387E-05
 -1     26034 8.68142E-02 2.61879E-02 8.24528E-06 1.68830E-01-1.85692E-05-5.14619E-05
 -1     26035-9.81838E-02 3.68862E-02 2.46781E-06 9.34474E-03 6.31700E-06-1.17183E-04
 -1     26036-1.21439E-01 4.78007E-02-3.80372E-06-8.92571E-05-4.90981E-05-3.32140E-05
 -1     26037-9.54856E-02 3.59232E-02 4.35483E-05 9.87796E-03 3.81278E-06 8.74496E-05
 -1     26038-8.37245E-02 2.58734E-02-1.23351E-07 2.19036E-02-2.19841E-05 2.29750E-05
 -1     26039-1.06902E-01 3.68365E-02-2.29751E-06 1.31282E-02-2.95395E-05 1.77513E-04
 -1     26040 1.16151E-02 5.45360E-02 4.47619E-06 1.13010E-01-5.60097E-06-1.27657E-06
 -1     26041-1.45122E-01 5.64487E-02 6.46584E-05-5.65105E-03-2.61379E-04-6.84320E-05
 -1     26042-1.43754E-01 5.25928E-02-1.60317E-05 1.79888E-03 4.44483E-05-2.20435E-04
 -1     26043-1.27613E-01 4.66140E-02-9.93794E-06 5.21447E-03-1.44446E-04-8.04368E-05
 -1     26044 7.02908E-02-8.01698E-03 4.46857E-05 5.35118E-02 6.28894E-05-2.02712E-04
 -1     26045 8.60974E-02 2.19095E-02-1.89978E-06 1.56835E-01 4.50962E-05-4.76451E-07
 -1     26046 8.95020E-02 1.08681E-02 3.65563E-05 1.45258E-01-4.99487E-05-2.56041E-05
 -1     26047 9.18736E-02 1.07598E-02 3.70215E-06 1.48745E-01 2.34441E-05-2.09787E-05
 -1     26048 9.82075E-02 5.88058E-02-2.86674E-05 2.30047E-01-1.49114E-05-4.09478E-05
 -1     26049 9.53170E-02 5.66485E-02 3.70638E-05 2.23101E-01 5.14148E-05-1.05800E-05
 -1     26050 9.02281E-02 5.43725E-02 2.43225E-05 2.12455E-01 5.81202E-05 7.49701E-06
 -1     26051 9.55136E-02 5.65971E-02-7.41246E-06 2.23114E-01 1.45389E-05-1.85869E-05
 -1     26052-4.75648E-02 9.32716E-02-6.19239E-06 1.21424E-01-1.30123E-05-5.23896E-05
 -1     26053-3.84064E-02 9.54752E-02 1.26659E-06 1.31013E-01-2.45704E-05-7.93414E-05
 -1     26054-7.91638E-02 1.57051E-01 7.30411E-05 1.15191E-01-1.09114E-03-2.56630E-04
 -1     26055-6.79508E-02 1.34981E-01-6.36003E-05 1.07614E-01-3.05939E-04 7.52540E-04
 -1     26056-5.54787E-02 1.05710E-01 5.77039E-05 9.82041E-02 6.63407E-04-1.65569E-04
 -1     26057-6.24954E-02 1.26134E-01-1.72111E-04 1.08589E-01-6.16165E-04-2.43535E-04
 -1     26058-7.81741E-02 1.60166E-01 6.17464E-05 1.15934E-01 1.44257E-04 5.42459E-04
 -1     26059-5.21803E-02 9.88109E-02-6.45131E-04 9.35242E-02 4.52292E-04 1.24673E-03
 -1     26060 7.69665E-02 3.67826E-02-1.84456E-05 1.66006E-01 1.07983E-05-9.92821E-06
 -1     26061 7.86916E-02 3.77319E-02 2.72013E-05 1.70134E-01 3.44150E-05-7.08182E-05
 -1     26062 7.96789E-02 3.82235E-02 1.17145E-06 1.72225E-01-2.03544E-05-1.86754E-05
 -1     26063-7.21608E-02 1.43398E-01 1.54353E-04 1.30581E-01-2.48933E-04 4.68766E-05
 -1     26064-7.01995E-02 1.40610E-01-1.70182E-05 1.32003E-01-3.48698E-04-1.77055E-04
 -1     26065-6.36494E-02 1.26684E-01 2.78007E-05 1.38125E-01-6.77457E-05-1.28512E-04
 -1     26066 5.88041E-03 8.22102E-02 1.37779E-05 1.46741E-01-3.16996E-05 2.27312E-05
 -1     26067 3.41368E-02 6.93038E-02 7.77610E-05 1.58104E-01 1.20368E-04-1.77624E-04
 -1     26068 9.35036E-02 5.03783E-02 8.08202E-06 2.11252E-01 1.92183E-05 1.41153E-05
 -1     26069 9.07074E-02 4.79914E-02 7.53187E-06 2.03893E-01 1.86813E-05 3.11565E-05
 -1     26070 9.13515E-02 5.07943E-02-2.51695E-09 2.08815E-01-6.58248E-06-3.01101E-06
 -1     26071 9.44026E-02 5.30713E-02-2.58123E-07 2.16314E-01-2.70073E-06-4.25039E-06
 -1     26072 9.07058E-02 4.79045E-02 1.91258E-06 2.03630E-01 1.79679E-05-4.92641E-06
 -1     26073-1.93975E-02 7.70808E-02-2.35224E-05 1.12583E-01-8.15012E-04-8.02425E-04
 -1     26074-2.08675E-02 7.74483E-02-1.46883E-04 1.17654E-01-7.66100E-04-9.69734E-04
 -1     26075 1.31956E-02 6.73677E-02-1.09054E-04 1.29780E-01-3.91405E-04-3.03501E-04
 -1     26076 6.60140E-02 8.81653E-04 6.14402E-07 1.15829E-01-5.03143E-06 2.86713E-05
 -1     26077 6.54700E-02 9.05894E-03-5.11142E-06 1.23895E-01-1.60972E-05-1.46988E-05
 -1     26078-9.05848E-02 3.83595E-02 5.83078E-05-4.19265E-02-1.10176E-04-1.50122E-04
 -1     26079-1.07455E-01 4.24530E-02-2.93684E-04-5.67437E-02-3.37456E-04-2.11735E-04
 -1     26080-6.32091E-02 3.69349E-02 8.25576E-05-4.11920E-03 3.50617E-04 2.50002E-04
 -1     26081-7.74546E-02 3.81062E-02 1.05523E-04-2.04023E-02 2.71143E-05 5.04001E-04
 -1     26082 5.17383E-02 1.57563E-02-8.60331E-06 9.75519E-02 7.89672E-06 1.51124E-05
 -1     26083 6.02873E-02 7.60457E-03 2.81023E-05 9.48149E-02-1.31408E-05 3.81071E-05
 -1     26084 6.14555E-02 7.91144E-03 2.54372E-05 9.72974E-02 7.29708E-07-1.07767E-05
 -1     26085 5.88614E-02 1.09300E-02-3.01151E-06 9.90650E-02-2.01152E-06 1.40087E-05
 -1     26086 5.78493E-02 1.03809E-02-3.88445E-06 9.64449E-02 4.84079E-05-1.98448E-05
 -1     26087 8.17559E-02 2.48884E-02-7.83239E-06 1.54892E-01 2.84932E-06 4.88280E-05
 -1     26088 8.35714E-02 2.38314E-02-1.09967E-06 1.56054E-01 8.86347E-05 3.14845E-05
 -1     26089 8.58523E-02 2.61137E-02-6.73261E-06 1.63114E-01-4.41290E-06 2.93705E-05
 -1     26090 8.38934E-02 2.71208E-02 2.04769E-05 1.61681E-01 4.60095E-05-6.59399E-05
 -1     26091 8.12817E-02 2.91398E-02-2.69937E-06 1.60889E-01 2.75749E-05-1.19736E-06
 -1     26092 6.20825E-02 3.81370E-02 2.05815E-06 1.53054E-01 8.57669E-06-4.05099E-06
 -1     26093 5.23759E-02 3.70658E-02 2.29129E-06 1.39842E-01 1.27739E-05 2.91783E-06
 -1     26094 5.92100E-02 4.01132E-02-1.71674E-08 1.51799E-01-1.51736E-07-7.23253E-06
 -1     26095-5.41358E-02 7.99071E-02-8.02454E-06 1.02947E-01 6.73386E-05-9.29498E-05
 -1     26096-5.15341E-02 7.14584E-02-3.61980E-05 8.50584E-02-5.95001E-05 1.43473E-04
 -1     26097-5.76425E-02 6.54794E-02 3.15169E-05 7.34520E-02 9.84787E-05 1.03319E-05
 -1     26098-5.70394E-02 5.48085E-02 2.10838E-07 5.31395E-02-3.30282E-05-7.93149E-06
 -1     26099 9.49976E-02 2.02707E-02-6.08857E-07 1.69854E-01-2.62484E-05 3.94000E-05
 -1     26100 9.55762E-02 1.78470E-02 2.82911E-05 1.66920E-01 6.01430E-05 1.30903E-05
 -1     26101 9.45106E-02 1.22260E-02-2.52296E-05 1.58933E-01 1.49206E-05-4.16163E-05
 -1     26102-4.40141E-02 9.34827E-02 3.96620E-04 1.36182E-01-1.17705E-04 1.24627E-04
 -1     26103-4.65391E-02 9.80458E-02 7.01969E-05 1.36052E-01-7.74357E-04-3.17868E-04
 -1     26104-1.95939E-02 7.73604E-02-1.47132E-04 1.16203E-01-1.25424E-04 5.45669E-04
 -1     26105-6.05200E-02 1.18956E-01-6.56513E-05 1.47760E-01-2.76862E-04-6.95125E-05
 -1     26106-5.98146E-02 1.16667E-01-1.61797E-05 1.53169E-01-4.12680E-04 4.37528E-04
 -1     26107-6.09567E-02 1.17514E-01 7.41861E-05 1.49244E-01-5.12800E-04-1.90484E-04
 -1     26108-6.16401E-02 1.15976E-01-1.09971E-05 1.45194E-01 1.26897E-04 5.34459E-05
 -1     26109-5.92653E-02 1.13310E-01-2.66679E-05 1.48513E-01 1.71904E-04-9.51754E-05
 -1     26110 9.56413E-02 5.64218E-02 1.55211E-05 2.23063E-01 2.04555E-05 8.13586E-06
 -1     26111 1.00179E-01 5.89091E-02 1.76146E-05 2.33162E-01 9.97335E-06 2.97028E-05
 -1     26112 9.27261E-02 5.43291E-02-1.02657E-06 2.15773E-01-4.59204E-05-3.85028E-05
 -1     26113 1.00195E-01 5.90486E-02-8.89891E-06 2.33195E-01 1.38463E-05-9.06908E-06
 -1     26114 9.20404E-02 5.72596E-02 5.98023E-05 2.18999E-01 3.70338E-05 2.77477E-05
 -1     26115 9.22223E-02 5.77084E-02 5.70784E-05 2.19364E-01 1.14417E-04 1.04804E-04
 -1     26116 7.38097E-02 6.02498E-02-2.40061E-05 1.98428E-01 2.25554E-05 3.82761E-06
 -1     26117 7.34080E-02 5.98750E-02 5.25123E-05 1.97466E-01 7.15888E-05 7.24937E-05
 -1     26118 6.96586E-02 6.05349E-02 2.55093E-05 1.93366E-01-3.56923E-05-6.87141E-06
 -1     26119-4.22936E-02 4.17473E-02 6.35583E-06 3.37361E-02-1.03552E-07 6.15344E-06
 -1     26120-4.34496E-02 4.33689E-02 7.08325E-06 3.38324E-02 7.97360E-07 1.29945E-06
 -1     26121-5.38358E-02 4.46072E-02 2.72677E-06 2.33877E-02-1.72616E-05 9.55962E-07
 -1     26122 9.34295E-02 3.60310E-02-2.80602E-06 1.90290E-01-4.70284E-05-5.87720E-06
 -1     26123 9.30064E-02 3.77999E-02 8.31038E-06 1.92422E-01-1.58846E-06-6.50171E-05
 -1     26124-9.16325E-02 3.85675E-02 1.15665E-05-4.26447E-02 6.32240E-04 8.04358E-04
 -1     26125-1.09620E-01 4.37870E-02 2.07716E-04-5.78570E-02-2.13266E-05-1.43507E-04
 -1     26126 8.28822E-02 3.92355E-02-3.52261E-05 1.78351E-01-3.42570E-05 6.56838E-06
 -1     26127 8.20304E-02 3.87098E-02-2.71575E-05 1.76287E-01 3.30431E-05-2.05867E-05
 -1     26128 8.43467E-02 4.02472E-02-3.45507E-05 1.82106E-01-5.46505E-06 3.79916E-05
 -1     26129-2.38779E-01 9.82935E-02-1.12292E-04-1.19142E-01-6.00597E-05-1.13964E-04
 -1     26130-2.36214E-01 9.76078E-02-5.08521E-05-1.15734E-01-2.12526E-05-8.58623E-05
 -1     26131-2.42996E-01 1.00040E-01-6.38794E-05-1.20489E-01 4.34871E-05-3.05117E-04
 -1     26132-2.48961E-01 1.01139E-01 1.46702E-04-1.29048E-01 2.07683E-04 6.01438E-05
 -1     26133-9.81506E-02 6.60236E-02 1.09917E-06 7.78508E-03-2.66880E-05-4.96672E-06
 -1     26134-1.13696E-01 6.60109E-02-2.05844E-07-1.25573E-02-5.92998E-06 1.80593E-05
 -1     26135-2.40267E-01 1.00321E-01-1.17926E-04-1.13158E-01 5.41499E-05-4.77804E-05
 -1     26136-2.46028E-01 1.02378E-01 5.34966E-05-1.14162E-01-2.07498E-04 1.57771E-04
 -1     26137-2.31533E-01 9.84486E-02-1.15888E-05-9.98360E-02-4.01387E-05 4.15892E-05
 -1     26138-2.88711E-02 5.14409E-02-7.21641E-08 6.11205E-02-3.05113E-06-2.72839E-06
 -1     26139-1.58706E-01 6.85985E-02 1.13752E-05-3.96582E-02 1.21070E-05 3.13399E-05
 -1     26140-1.40915E-01 6.09925E-02-2.61617E-07-2.91141E-02-1.86422E-07-1.31539E-05
 -1     26141-1.72791E-01 7.47932E-02 7.71707E-06-5.40360E-02 4.14620E-07 1.81313E-05
 -1     26142-1.54863E-01 6.72132E-02-3.02945E-06-4.29772E-02-3.38938E-06 5.28147E-06
 -1     26143-2.16236E-01 9.26459E-02-3.59063E-05-8.60910E-02 1.68235E-05-2.55644E-05
 -1     26144 9.45390E-02 2.30966E-02 4.21099E-05 1.72339E-01-9.11035E-05-5.47839E-05
 -1     26145 9.42802E-02 2.77113E-02-3.58235E-05 1.78279E-01-1.04752E-04-6.12572E-05
 -1     26146 9.59212E-02 1.51719E-02 3.11167E-05 1.62876E-01 4.87826E-05-4.68201E-05
 -1     26147 9.34989E-02 2.54121E-02-1.51330E-05 1.73824E-01-4.23340E-05-1.99694E-04
 -1     26148-2.74626E-02 2.57506E-02-1.63210E-06 4.15957E-02 4.39600E-06 5.93883E-06
 -1     26149-1.61026E-02 2.11006E-02-3.34532E-06 5.03191E-02-6.60199E-06 1.72294E-05
 -1     26150-1.11260E-02 2.27932E-02-4.67638E-07 5.51565E-02-8.66395E-06-7.04028E-06
 -1     26151-1.89177E-01 7.85478E-02-4.65851E-06-9.29329E-02-1.60392E-06 3.88298E-05
 -1     26152-1.73896E-01 7.35669E-02-1.54480E-06-8.15576E-02 1.88390E-05 2.55079E-06
 -1     26153-1.87510E-01 7.80185E-02 3.32739E-06-9.19215E-02 6.63599E-05 4.10552E-05
 -1     26154 2.69626E-02-8.66281E-03-4.12202E-05 1.99743E-02-1.80523E-06-1.02979E-05
 -1     26155 2.32906E-02-1.18072E-02-3.04423E-06 2.00492E-02-4.80072E-05-3.32203E-05
 -1     26156 3.11046E-02-1.26398E-02-2.05849E-05 2.41384E-02-7.23851E-06 4.45842E-06
 -1     26157 2.94597E-02-5.19623E-03-1.97098E-05 1.92856E-02 1.68387E-05 8.60979E-05
 -1     26158 2.19021E-02-4.32425E-03 6.71458E-06 1.49740E-02-5.10408E-05 7.75779E-06
 -1     26159 9.36451E-02 1.10837E-03 6.09998E-06 1.36468E-01 5.42264E-05-2.36921E-05
 -1     26160-1.28791E-02-1.43398E-02 9.66827E-08 3.58628E-02-1.13915E-05-1.40806E-05
 -1     26161 9.09796E-02 4.30796E-02-9.20213E-06 1.96190E-01 3.30164E-05 2.84571E-05
 -1     26162 9.26895E-02 3.72565E-02-1.04824E-05 1.89822E-01 8.81774E-05 1.43131E-05
 -1     26163 9.16970E-02 4.68595E-02-5.12981E-06 2.02597E-01 4.16936E-05-2.54491E-05
 -1     26164 8.98611E-02 4.23130E-02-4.08650E-05 1.93225E-01 4.32465E-05 5.37470E-06
 -1     26165 9.04397E-02 4.61056E-02-8.60608E-06 1.99685E-01-1.21896E-05-3.90440E-05
 -1     26166 4.10842E-02 4.99094E-02-3.72486E-05 1.35926E-01 1.23785E-04 8.65691E-04
 -1     26167 1.85794E-02 5.72468E-02-3.11618E-04 1.19110E-01 2.89864E-04-1.15273E-03
 -1     26168 4.42527E-02 5.19146E-02 5.67155E-05 1.40636E-01 3.68089E-05-6.38049E-04
 -1     26169 4.74105E-02 2.18197E-02 1.23784E-05 1.00927E-01 8.15923E-06-8.00310E-06
 -1     26170 4.85256E-02 2.24178E-02-1.11722E-05 1.03530E-01 1.39996E-05-2.58786E-06
 -1     26171 4.67597E-02 2.16946E-02-8.02781E-06 9.96598E-02-1.19336E-05-6.17315E-06
 -1     26172 9.41765E-02 5.89001E-02 1.01200E-05 2.24601E-01-3.33488E-06-3.13478E-05
 -1     26173 8.83967E-02 5.72946E-02-3.23162E-05 2.13886E-01-1.05096E-05-1.29924E-06
 -1     26174 7.81147E-02 5.53420E-02 1.13696E-05 1.97240E-01 1.26679E-05-8.30939E-05
 -1     26175-7.50175E-02 2.47796E-02 7.06575E-07 2.28846E-02-3.09173E-05 8.63322E-05
 -1     26176-5.60650E-02 1.96574E-02 3.13198E-05 2.94220E-02-5.35134E-05 6.14538E-05
 -1     26177-6.17390E-02 2.05284E-02-1.17320E-05 2.81912E-02-6.54450E-05-3.01440E-05
 -1     26178-7.51725E-02 3.01414E-02-4.15407E-06 1.68819E-02 2.43726E-06 2.37279E-05
 -1     26179 5.40765E-02 4.64735E-02 4.23092E-06 1.53886E-01-7.67475E-06 1.04734E-05
 -1     26180 6.41988E-02 4.72114E-02 7.71991E-06 1.67752E-01 2.20206E-05-7.34938E-06
 -1     26181 5.34854E-02 4.41378E-02 1.43370E-07 1.49895E-01 1.62788E-05 2.71545E-06
 -1     26182 1.13343E-02 6.70204E-02 1.53933E-04 1.27446E-01 9.40017E-04 4.43445E-04
 -1     26183-4.81184E-03 8.27231E-02 2.51113E-05 1.31795E-01 2.39347E-04 2.62737E-04
 -1     26184 5.92671E-02 6.19770E-02-3.13354E-06 1.81650E-01-7.05002E-05-1.00923E-04
 -1     26185 4.26013E-02 6.51943E-02-1.20188E-05 1.65453E-01-5.32296E-05-4.84667E-05
 -1     26186 4.75479E-02 6.30627E-02 1.34893E-05 1.68133E-01-4.82319E-05-4.19805E-05
 -1     26187 3.52401E-02 6.04033E-02 7.63843E-07 1.49897E-01-1.23921E-05 8.55159E-07
 -1     26188 3.94184E-02 5.84570E-02-8.83429E-07 1.52128E-01-7.08239E-06 5.53654E-06
 -1     26189 5.92934E-02 6.19631E-02 3.96850E-05 1.81590E-01 9.77130E-05 1.47076E-04
 -1     26190 7.24289E-02 5.97849E-02 8.38140E-05 1.96023E-01-1.82201E-05-1.52585E-06
 -1     26191 8.92491E-02 5.73175E-02 2.76319E-05 2.14740E-01-1.91148E-04-4.46761E-05
 -1     26192 7.56932E-02 5.92661E-02-4.64782E-06 1.99447E-01 2.78568E-05-3.57423E-05
 -1     26193 6.71538E-02 6.07973E-02 9.16307E-05 1.90631E-01 1.13887E-04 8.57717E-05
 -1     26194-1.63475E-01 6.75401E-02-3.76508E-05-8.11977E-02-2.14901E-05-5.68298E-05
 -1     26195-1.65778E-01 6.84381E-02-1.02883E-06-8.24265E-02-3.75716E-05-2.57623E-05
 -1     26196-1.55770E-01 6.55302E-02-2.63213E-05-7.37628E-02-4.95129E-05-1.60650E-05
 -1     26197-5.39564E-02 4.10101E-02 3.25134E-05 1.64366E-02 5.04517E-04 5.62201E-04
 -1     26198-4.18414E-02 6.61512E-02-2.92262E-04 6.47971E-02 8.59511E-05 3.66084E-04
 -1     26199-5.15042E-02 4.46718E-02-1.27743E-05 2.64653E-02-2.26069E-04-1.05323E-03
 -1     26200-6.03953E-02 3.63734E-02 3.18157E-04-3.03923E-03 7.04262E-04 2.58271E-04
 -1     26201-3.88050E-02 4.34212E-02 5.38742E-04 3.72679E-02 3.83192E-04-1.09134E-03
 -1     26202-3.63775E-02 5.15268E-02-1.36573E-04 4.75392E-02-1.90415E-03-9.23749E-04
 -1     26203 9.40857E-02 5.90300E-02-1.17463E-05 2.24597E-01 2.97321E-05-4.55517E-05
 -1     26204 9.26700E-02 5.86718E-02 5.57861E-06 2.22176E-01 3.65191E-06-1.20637E-04
 -1     26205-9.04903E-02 3.95178E-02-2.48767E-05 3.70394E-03 1.74551E-05 9.46252E-06
 -1     26206-7.53213E-02 3.56657E-02 4.35036E-07 9.80568E-03-1.33989E-05-3.39833E-06
 -1     26207 9.62695E-02 5.19196E-02-5.44143E-06 2.16855E-01 5.30968E-05-1.98904E-05
 -1     26208 9.66420E-02 5.22202E-02 5.33397E-06 2.17983E-01-1.40365E-05 4.79513E-06
 -1     26209 9.54104E-02 5.13692E-02-1.22941E-05 2.14804E-01 1.99187E-06-3.75128E-05
 -1     26210-3.07536E-02 1.89322E-02 3.83364E-05 3.94244E-02-3.77979E-05 4.58760E-07
 -1     26211-3.43491E-02 1.82271E-02 2.38402E-05 3.76637E-02 7.20670E-07-3.84582E-06
 -1     26212-5.48844E-02 1.13607E-01-8.41680E-05 1.49220E-01 3.10974E-04 1.03068E-04
 -1     26213-1.08623E-01 5.20035E-02-5.78567E-05-3.02367E-02 3.85583E-05 3.00316E-05
 -1     26214-1.11267E-01 5.08584E-02 2.40708E-05-3.84990E-02 7.81942E-05 1.86086E-05
 -1     26215-1.19298E-01 5.39131E-02-2.66983E-05-4.44516E-02-2.06274E-05-9.16029E-06
 -1     26216-1.12894E-01 5.14635E-02-2.22414E-05-4.05267E-02 1.46697E-05 8.53971E-05
 -1     26217-2.85065E-01 1.19284E-01 3.12615E-04-1.29764E-01-2.96172E-04-1.97947E-05
 -1     26218-2.88414E-01 1.21556E-01-5.67073E-04-1.31454E-01 2.88907E-04 3.62502E-04
 -1     26219-2.81279E-01 1.22085E-01-1.75356E-05-1.11345E-01-5.61358E-05 5.93869E-04
 -1     26220-2.67492E-01 1.12359E-01-1.00950E-04-1.24800E-01 1.25254E-04 5.59553E-04
 -1     26221-2.72761E-01 1.15113E-01 1.12638E-04-1.27360E-01 3.68993E-04 1.04074E-04
 -1     26222-1.09275E-01 5.68776E-02-9.44696E-06-1.86862E-02 5.83232E-05 5.25430E-05
 -1     26223-1.10397E-01 5.79685E-02-4.27148E-06-1.79075E-02 1.63305E-05-3.13496E-05
 -1     26224-1.17267E-01 5.82524E-02 3.02125E-05-2.85566E-02 5.99066E-05 4.88087E-05
 -1     26225-1.23083E-01 5.62088E-02-4.79290E-06-4.41964E-02-3.64473E-07 1.46813E-05
 -1     26226-1.24027E-01 5.71452E-02 1.92773E-05-4.32232E-02-3.36315E-05-7.08412E-05
 -1     26227 9.11021E-02 3.03042E-02-1.19508E-05 1.79462E-01 1.37672E-05 3.96578E-05
 -1     26228-2.58970E-01 1.13064E-01-1.54418E-04-7.90067E-02-1.94764E-04-5.83299E-04
 -1     26229-2.83971E-01 1.24544E-01-1.64614E-04-9.68291E-02-1.41943E-04-3.36697E-04
 -1     26230-2.78436E-01 1.21221E-01-6.64853E-05-6.50817E-02 2.49961E-04-1.14002E-03
 -1     26231-2.81147E-01 1.22646E-01-2.74264E-04-8.03314E-02-1.26937E-04 1.49235E-04
 -1     26232-3.07227E-01 1.34844E-01 5.06356E-05-1.01693E-01-5.60199E-05-4.24248E-04
 -1     26233-5.77518E-02-6.12352E-04-4.99211E-06 2.42656E-02 4.65004E-05 1.72272E-07
 -1     26234-7.81744E-02 7.77673E-03-9.93784E-06 2.08663E-02 4.15285E-05-2.48272E-05
 -1     26235-6.78127E-02 5.14178E-04-2.98862E-08 1.85830E-02 2.47964E-05-1.55275E-06
 -1     26236-2.69192E-01 1.15611E-01-5.32709E-05-1.01706E-01-2.21410E-04 3.01045E-04
 -1     26237 9.64650E-02 5.05993E-02-1.74074E-05 2.15469E-01 3.06729E-05 3.65208E-05
 -1     26238 9.61276E-02 5.02997E-02-1.57811E-05 2.14470E-01-1.58835E-05-2.78016E-05
 -1     26239 9.69323E-02 5.12081E-02-2.76835E-05 2.17110E-01 2.79248E-05-2.66554E-05
 -1     26240 6.98462E-02 5.15300E-02 7.48226E-06 1.80673E-01-1.58298E-05 1.96938E-05
 -1     26241 7.79404E-02 5.41405E-02-6.48019E-06 1.95318E-01-3.95840E-05-3.12169E-05
 -1     26242 8.00408E-02 5.32099E-02-1.42508E-05 1.96838E-01 2.65415E-05-5.35282E-05
 -1     26243 5.13815E-02 6.22269E-02-1.10676E-04 1.69461E-01-2.60753E-05 3.73673E-05
 -1     26244 4.14132E-02 6.75524E-02-4.95619E-05 1.65889E-01 1.99573E-05-5.95286E-05
 -1     26245 4.14928E-02 6.57429E-02 4.23332E-06 1.62661E-01 2.46262E-04-4.38784E-05
 -1     26246 4.54791E-02 6.14852E-02-4.68909E-05 1.60303E-01-9.17428E-05-2.08446E-04
 -1     26247 4.46542E-02 6.50091E-02-8.10619E-05 1.64353E-01-1.27549E-04-9.88577E-06
 -1     26248-1.32653E-02-2.01377E-03 4.75708E-05-2.90822E-03-2.42711E-04 1.26860E-04
 -1     26249-2.00767E-02-1.70831E-03-9.26903E-06-4.95526E-03 1.67781E-06-3.94418E-05
 -1     26250 6.00063E-04-4.80127E-03 5.71645E-06 4.75233E-03-9.40923E-05 5.57738E-05
 -1     26251-8.92090E-03-5.83678E-03 4.27409E-05 2.95380E-03-1.99698E-05 2.68486E-05
 -1     26252-5.62044E-03-4.49472E-03-1.20450E-05 2.25414E-03-7.30989E-05 1.77217E-05
 -1     26253-2.61101E-01 1.06904E-01 8.51680E-05-1.31943E-01 5.17316E-05 1.88538E-04
 -1     26254-2.57102E-01 1.05154E-01 2.08167E-05-1.30965E-01-1.33857E-04-1.50837E-04
 -1     26255-2.57648E-01 1.09000E-01 1.47185E-04-1.14880E-01 8.34614E-05 3.17178E-04
 -1     26256-2.64459E-01 1.10496E-01 6.09348E-05-1.23950E-01 2.34503E-04 1.28423E-04
 -1     26257 6.81934E-02 4.20076E-02-1.69221E-06 1.65897E-01-1.13517E-06-1.58840E-05
 -1     26258 7.66588E-02 4.42226E-02-7.80241E-08 1.79865E-01 4.43517E-06-8.72008E-06
 -1     26259 7.06130E-02 4.01058E-02 3.13398E-06 1.66764E-01 9.96285E-06-1.73348E-06
 -1     26260 3.19142E-02 2.84949E-02 1.17814E-07 1.05524E-01-1.17958E-07 9.93003E-06
 -1     26261 9.54681E-02 5.85862E-02 1.09990E-05 2.25941E-01-1.37495E-05-4.51382E-05
 -1     26262 9.33201E-02 5.46737E-02 1.82754E-05 2.17210E-01-5.81578E-06-1.50918E-05
 -1     26263 8.87053E-02 5.24021E-02 1.02226E-05 2.07387E-01 2.70787E-05 2.79713E-05
 -1     26264 1.00059E-01 5.87652E-02 8.55701E-06 2.32710E-01-4.35858E-06 4.21000E-06
 -1     26265 1.00669E-01 5.89712E-02 2.82805E-05 2.33911E-01-7.39524E-06 1.14165E-05
 -1     26266 8.97013E-02 5.14333E-02-4.95069E-07 2.07392E-01-3.78839E-05-2.09909E-05
 -1     26267 6.55648E-02 9.93778E-03 6.58668E-06 1.07298E-01-1.02728E-06 4.70171E-07
 -1     26268 5.82785E-02 1.54829E-02 5.02634E-06 1.06475E-01 1.56386E-05 1.42536E-05
 -1     26269-6.39256E-02 1.26927E-01 4.74538E-05 1.38803E-01-3.08820E-04-1.86302E-04
 -1     26270-1.97020E-01 8.05906E-02 4.41562E-05-1.00356E-01 5.35372E-05 3.05986E-05
 -1     26271-1.99272E-01 8.15310E-02-5.24087E-06-1.01526E-01-4.79185E-06 1.87855E-05
 -1     26272-2.00364E-01 8.18672E-02-3.30140E-06-1.02250E-01 1.24670E-05 1.28779E-04
 -1     26273-1.26533E-01 5.49340E-02 2.87514E-05-5.41548E-02 1.33135E-05-2.70143E-05
 -1     26274-1.26578E-01 5.53889E-02 4.04394E-05-5.22098E-02 4.84428E-05-4.97067E-05
 -1     26275-1.35118E-01 5.69224E-02 2.09290E-05-6.37551E-02 2.51034E-06-6.64294E-05
 -1     26276-1.25090E-01 6.42696E-02 3.47818E-06-3.41190E-02-1.47186E-05-5.23952E-05
 -1     26277-1.44724E-01 6.83084E-02-1.86709E-05-5.22611E-02-1.70913E-05-4.10061E-05
 -1     26278-1.12827E-01 6.17247E-02 3.30592E-07-2.33228E-02-3.45670E-05-2.85067E-05
 -1     26279-1.32185E-01 6.57098E-02-3.83868E-05-4.12398E-02-6.96526E-06 2.52944E-05
 -1     26280 9.27216E-02 5.89060E-02 6.66434E-07 2.22478E-01 3.61808E-05 6.23103E-06
 -1     26281 8.07585E-02 3.74942E-02-3.41394E-06 1.76529E-01-1.44857E-05-2.25721E-05
 -1     26282 6.98041E-02 3.12652E-02-7.43704E-08 1.54428E-01-6.78773E-06 5.68182E-06
 -1     26283 8.29172E-02 3.52575E-02-3.62529E-06 1.76391E-01 4.65637E-06-3.18737E-05
 -1     26284 7.24240E-02 2.88639E-02 6.19272E-07 1.54518E-01-5.24555E-06-3.04577E-07
 -1     26285 8.61615E-02 4.23962E-02 3.60226E-05 1.88070E-01 2.53657E-05 2.32453E-04
 -1     26286 8.47735E-02 4.14659E-02 1.71832E-05 1.84633E-01-1.86000E-05 1.34997E-06
 -1     26287 8.99040E-02 3.39582E-02-8.65810E-06 1.80640E-01 4.11849E-05 9.97895E-05
 -1     26288 8.91930E-02 4.18169E-02 5.46784E-06 1.91492E-01 2.53151E-05-7.31330E-05
 -1     26289 8.79700E-02 4.08785E-02-9.31824E-06 1.88179E-01-1.48666E-05-1.31772E-06
 -1     26290 3.16981E-03 7.59835E-02 2.72582E-05 1.37005E-01-5.42980E-05 1.39067E-04
 -1     26291-5.35157E-03 8.02218E-02 1.18929E-05 1.34691E-01 4.84807E-05 4.38153E-05
 -1     26292-1.42046E-02 7.99311E-02 4.08531E-05 1.25476E-01-7.91199E-05-6.10108E-05
 -1     26293 7.49697E-02 2.62417E-02 4.43905E-08 1.54574E-01-5.76033E-06 1.90444E-06
 -1     26294 6.45506E-02 2.71780E-02 3.18136E-07 1.43191E-01-2.96339E-06-2.29934E-06
 -1     26295-1.07013E-02 6.06708E-02 1.24433E-06 9.70209E-02-9.28875E-06 8.07355E-07
 -1     26296-2.24029E-02 6.16663E-02-2.59423E-06 8.55712E-02-4.89739E-06 2.46166E-06
 -1     26297-2.09409E-03 6.22927E-02 2.03863E-07 1.09349E-01-1.37009E-06 5.34579E-06
 -1     26298-1.38999E-02 6.33368E-02-3.08936E-06 9.79408E-02-9.24544E-07 3.09812E-06
 -1     26299 6.12853E-02 2.98451E-02 2.67184E-06 1.42316E-01-1.01156E-05-1.13647E-05
 -1     26300-1.38039E-01 6.04715E-02 3.05866E-06-3.18041E-02-3.76261E-05 9.01242E-06
 -1     26301 9.58090E-02 1.52786E-02 2.78499E-05 1.62927E-01-4.47344E-05 3.88423E-05
 -1     26302 9.36327E-02 2.29701E-02 1.02557E-05 1.70286E-01-1.97394E-05 7.75193E-05
 -1     26303 9.61231E-02 1.27798E-02 9.19069E-06 1.59288E-01-1.28540E-05-1.48079E-05
 -1     26304 8.33684E-02-2.72949E-04 2.71194E-06 1.32073E-01 2.56130E-05 4.13422E-05
 -1     26305-2.14620E-01 7.06584E-02-2.40717E-05-8.43062E-04-7.18006E-05-1.83097E-04
 -1     26306-1.92710E-01 6.56725E-02-1.52955E-04-2.46816E-03 2.60864E-04-3.90956E-04
 -1     26307-2.28607E-01 8.96771E-02 1.41958E-04-1.70038E-02 5.52749E-04-9.41322E-04
 -1     26308-4.18012E-02 2.58271E-02-4.08993E-06 3.10073E-02 1.37523E-05 7.38350E-06
 -1     26309 8.98338E-02 3.01553E-02 1.31698E-05 1.75018E-01-3.60404E-05-8.84373E-05
 -1     26310 8.59195E-02 4.20098E-02 2.24560E-05 1.87075E-01 6.16629E-05-4.10335E-06
 -1     26311 8.85789E-02 2.82072E-02-1.28108E-06 1.70042E-01 1.58361E-06-3.66470E-05
 -1     26312 8.77465E-02 3.37760E-02-9.25312E-07 1.77185E-01-2.24301E-05-9.88276E-05
 -1     26313 8.21587E-02 1.25740E-02-4.77498E-05 1.36052E-01-1.06366E-04-1.46502E-05
 -1     26314 7.95966E-02 1.86578E-02-1.37269E-05 1.42160E-01 3.78665E-06-7.35424E-06
 -1     26315 8.46073E-02 1.20909E-02 2.41013E-05 1.39567E-01-1.22430E-04-5.61266E-05
 -1     26316-2.23556E-01 9.25660E-02 1.75484E-05-1.08795E-01 2.51995E-05-5.75035E-05
 -1     26317-6.45283E-02 1.28525E-01-2.61314E-05 1.40483E-01-3.64027E-05 2.73583E-04
 -1     26318-6.22437E-02 1.15326E-01-1.23023E-05 1.37483E-01 4.33370E-05 4.06140E-05
 -1     26319-6.04995E-02 1.12887E-01 2.25367E-05 1.41538E-01-1.38732E-04 8.97220E-05
 -1     26320-6.30531E-02 1.24910E-01 9.17432E-05 1.43080E-01 3.34648E-04 4.29130E-06
 -1     26321-6.55202E-02 1.31255E-01-1.22351E-04 1.39059E-01 5.43527E-04-2.17805E-04
 -1     26322-6.11674E-02 3.75054E-02-2.58492E-04-1.33318E-03-1.16912E-03 2.91466E-04
 -1     26323-8.83757E-02 3.77199E-02 5.51205E-04-3.94715E-02-8.82197E-04 4.94924E-04
 -1     26324-7.42857E-02 3.76483E-02-3.19819E-05-1.79309E-02-2.45275E-04-2.78326E-04
 -1     26325-1.03710E-01 4.17339E-02 7.71270E-05-5.40430E-02 1.44962E-04-6.67837E-04
 -1     26326 4.95579E-02 2.17411E-02 1.32623E-05 1.03947E-01-1.50902E-05-2.50653E-05
 -1     26327 4.76563E-02 2.10493E-02 2.22925E-05 1.00020E-01-2.71685E-05-2.37035E-05
 -1     26328 4.83716E-02 2.13866E-02-1.45542E-07 1.01621E-01-3.35272E-05 1.85262E-05
 -1     26329-2.24800E-02 9.66995E-03 4.61115E-06 4.52615E-02-5.23042E-06-6.20781E-06
 -1     26330-1.96225E-01 8.31619E-02-3.10869E-05-8.19222E-02-2.72017E-06 3.00584E-05
 -1     26331-1.84638E-01 7.94061E-02-2.07860E-06-6.85399E-02 2.53037E-05 1.32803E-06
 -1     26332-2.00423E-01 8.55821E-02 1.62276E-07-8.09242E-02-9.13499E-06 1.47164E-05
 -1     26333-2.20868E-01 9.17590E-02-5.68375E-06-1.06234E-01-1.14812E-05-4.58376E-07
 -1     26334 9.78395E-02 5.36379E-02 1.05618E-05 2.22024E-01-3.85360E-05-2.06212E-05
 -1     26335 9.70992E-02 5.30540E-02 2.22652E-05 2.19929E-01-4.18679E-05-4.67783E-05
 -1     26336 9.74733E-02 5.32549E-02-5.45399E-05 2.20704E-01-4.28332E-06 3.65321E-05
 -1     26337 9.43321E-02 4.85596E-02 2.73517E-05 2.09062E-01-7.15781E-06 3.38767E-05
 -1     26338 9.46243E-02 3.23597E-02 2.50103E-05 1.86385E-01 9.55361E-05 1.42772E-04
 -1     26339 9.41635E-02 3.83894E-02 2.57475E-05 1.94497E-01-4.79874E-06-6.74652E-05
 -1     26340 9.39529E-02 4.81784E-02 3.28675E-05 2.07854E-01-2.84439E-06-2.55933E-06
 -1     26341 9.39572E-02 3.79383E-02 1.31458E-06 1.93358E-01 2.97300E-05 3.45754E-05
 -1     26342 9.45411E-02 2.43045E-02 4.32395E-05 1.74099E-01 1.14464E-04 3.36036E-05
 -1     26343 9.42589E-02 2.87737E-02-3.29321E-06 1.79899E-01 4.96457E-05 2.45577E-05
 -1     26344 8.64075E-02 3.32025E-02 8.03615E-06 1.74500E-01 5.34915E-05 1.87520E-05
 -1     26345 8.36646E-02 3.95169E-02 3.99667E-05 1.80099E-01 2.48058E-05 2.57827E-05
 -1     26346 9.15134E-02 2.56614E-02-3.30048E-05 1.70553E-01-3.46189E-05-3.37832E-05
 -1     26347 9.12393E-02 2.45047E-02-4.82952E-05 1.68245E-01 4.51267E-05-4.82224E-05
 -1     26348 8.87996E-02 3.18174E-02-2.67119E-05 1.76062E-01-1.79876E-05-2.56170E-05
 -1     26349 9.80944E-02 5.38969E-02-2.82357E-05 2.22500E-01 4.59883E-05-1.39502E-05
 -1     26350 8.26731E-02-1.40479E-02 1.84764E-07 1.15221E-01-1.26175E-06 3.02960E-06
 -1     26351 8.23324E-02 4.79970E-02-1.33318E-05 1.92761E-01-1.42123E-06 7.43747E-06
 -1     26352 7.37885E-02 4.57398E-02-2.92081E-05 1.78407E-01-2.79151E-05 2.73668E-05
 -1     26353-2.55412E-01 1.07630E-01 1.78482E-04-4.76208E-02 3.63870E-05 9.27856E-05
 -1     26354-2.29441E-01 9.54143E-02-1.39865E-06-3.47236E-02-1.22318E-04-6.53420E-05
 -1     26355-3.93661E-02 2.53805E-02 1.62425E-05 3.26837E-02 1.31154E-06 2.22477E-05
 -1     26356 7.90032E-02-2.85407E-03-3.05714E-06 8.40979E-02 8.79053E-05 2.24129E-05
 -1     26357 7.91096E-02-2.71147E-03-2.87836E-05 8.30271E-02-1.56481E-05 2.50867E-05
 -1     26358 7.92271E-02-2.76263E-03-2.12714E-05 8.06568E-02 5.43361E-05 2.04357E-05
 -1     26359 7.97351E-02-7.49236E-03 9.04221E-05 6.94998E-02 6.59401E-05-8.50044E-05
 -1     26360-5.30344E-02 9.20619E-02-1.24274E-03 8.39096E-02 3.42544E-04 9.15752E-04
 -1     26361-4.62537E-02 7.59977E-02-1.23824E-04 6.74345E-02-1.27891E-03-8.51707E-06
 -1     26362-7.44788E-02 1.55373E-01-8.37300E-04 1.17668E-01-4.82204E-05 8.47462E-04
 -1     26363-4.88267E-02 8.62418E-02-9.37615E-05 8.20648E-02-5.80753E-04-1.14145E-04
 -1     26364 8.62977E-02-2.00454E-02-4.05372E-05 6.87116E-02 3.57383E-06-1.03755E-05
 -1     26365 8.99960E-02-2.59816E-02-4.19505E-06 7.06672E-02-8.91431E-05 7.25720E-05
 -1     26366-6.70750E-02 1.34875E-01-3.84456E-05 1.32146E-01-5.17167E-04-2.83795E-04
 -1     26367-8.40586E-02 1.71094E-01-1.42987E-05 1.18572E-01-2.37214E-04 1.89340E-05
 -1     26368-7.03028E-02 1.38740E-01-1.47524E-04 1.18666E-01-3.83793E-04 2.54389E-04
 -1     26369-7.77474E-02 1.55988E-01 1.69014E-05 1.21544E-01-2.81532E-04-1.46804E-04
 -1     26370-8.49311E-02 1.73252E-01-6.04243E-05 1.20157E-01-7.32655E-05-2.00277E-04
 -1     26371-7.91191E-02 1.57784E-01 7.86896E-06 1.20326E-01 8.91496E-05-5.48391E-05
 -1     26372 8.94624E-02-2.07771E-02-9.99516E-08 1.12551E-01-2.06054E-06-1.64194E-06
 -1     26373 7.96829E-02-2.17268E-02 1.34763E-05 1.03362E-01 6.28084E-05-5.90220E-05
 -1     26374 8.00407E-02-2.17916E-02-4.17156E-06 1.03534E-01-7.91152E-05 9.85158E-05
 -1     26375 9.26675E-02-2.62485E-02-1.33524E-06 1.07736E-01 2.10839E-05-7.41180E-05
 -1     26376 9.24443E-02-2.61772E-02-7.84383E-06 1.07670E-01-3.23343E-05 1.18688E-04
 -1     26377 8.32960E-02-2.70282E-02-3.41114E-05 9.90769E-02-1.59521E-06-4.01862E-05
 -1     26378-7.50282E-02-1.56292E-03 6.39709E-06-1.24781E-02 1.90407E-05 9.28210E-06
 -1     26379-6.51690E-02-1.86452E-03-2.98585E-05-1.09777E-02 1.70416E-04-9.45740E-05
 -1     26380 9.46243E-02 2.72537E-02-2.50792E-06 1.78733E-01-2.21272E-05-1.04259E-05
 -1     26381 7.44193E-02-2.90966E-03-3.65646E-05 9.15154E-02 2.40548E-05 5.30903E-06
 -1     26382 6.96171E-02-1.38503E-04-2.05759E-05 9.29840E-02-1.24265E-05-5.30954E-06
 -1     26383 7.40476E-02-2.82590E-03 3.52993E-06 9.25766E-02 2.61475E-05 1.72766E-05
 -1     26384 7.29147E-02-2.08333E-03-1.34008E-05 9.27329E-02-2.42487E-05-1.74876E-05
 -1     26385 5.31466E-02 2.34880E-02 1.37383E-07 1.11775E-01 2.20156E-05-2.01589E-05
 -1     26386 5.56159E-02 1.95640E-02 1.05229E-05 1.09065E-01 2.85580E-05-8.62421E-06
 -1     26387 5.11217E-02 2.45161E-02 2.80986E-05 1.10469E-01 1.93456E-05-1.14907E-05
 -1     26388 5.37975E-02 2.47358E-02 8.00110E-06 1.14464E-01-1.33620E-05 5.75517E-06
 -1     26389 5.63183E-02 2.05640E-02 2.08759E-05 1.11799E-01 2.73458E-05 4.29443E-05
 -1     26390-6.60411E-02 1.33240E-01 6.24208E-05 1.31142E-01 3.26258E-04 1.72731E-04
 -1     26391-6.31205E-02 1.23870E-01-6.43041E-05 1.39930E-01 4.88490E-04 2.36475E-04
 -1     26392-6.35281E-02 1.26546E-01 1.17410E-04 1.30819E-01-6.91397E-04-3.34086E-04
 -1     26393-6.15630E-02 1.23267E-01 1.80097E-05 1.40942E-01 9.07613E-05 4.63788E-05
 -1     26394-6.36984E-02 1.28651E-01-9.76621E-06 1.31775E-01 6.34654E-04-9.29040E-05
 -1     26395-6.09219E-02 1.22309E-01 1.39176E-04 1.31349E-01 1.52307E-04 1.67820E-04
 -1     26396-2.43458E-01 1.06585E-01 3.67351E-04-7.37450E-02-2.87180E-05 1.25134E-04
 -1     26397-2.51410E-01 1.08076E-01 3.85005E-04-9.79178E-02 9.87276E-05 6.38845E-04
 -1     26398-2.32997E-01 1.01318E-01 1.14371E-04-8.08177E-02-1.15299E-04 1.02757E-04
 -1     26399 9.30860E-02-3.76812E-03 3.99928E-06 1.37109E-01-2.14008E-06-2.62651E-05
 -1     26400 9.24365E-02-1.03437E-02 2.01955E-08 1.28240E-01-6.78958E-07-5.76288E-06
 -1     26401 9.58927E-02 5.17352E-02 4.53854E-05 2.16519E-01-2.81014E-06 6.14070E-06
 -1     26402 9.57231E-02 5.15984E-02 9.50755E-06 2.15818E-01 5.67587E-05 3.55108E-05
 -1     26403 9.60343E-02 5.22255E-02-1.15580E-06 2.17635E-01-2.00503E-05 1.18448E-05
 -1     26404 6.68474E-02 4.56309E-02 2.22926E-05 1.69001E-01 2.31830E-05 2.28334E-05
 -1     26405 8.69798E-02 2.81047E-02 1.40632E-05 1.67812E-01 4.18009E-05 4.09228E-05
 -1     26406 8.49406E-02 3.30561E-02 3.82791E-05 1.72414E-01-9.61438E-08 2.78137E-05
 -1     26407 8.87708E-02 2.94819E-02 2.00962E-05 1.72358E-01-2.87816E-05 7.60100E-05
 -1     26408 9.30297E-02 2.09228E-02 1.45234E-05 1.66012E-01-3.12621E-05 1.79262E-05
 -1     26409 8.99659E-02 2.43353E-02-4.11134E-05 1.66273E-01-4.29355E-05 3.41965E-05
 -1     26410 5.28510E-02-2.96946E-02 1.88772E-06 4.83261E-02 5.23118E-06 1.06019E-05
 -1     26411 4.29246E-02-2.77733E-02 5.07949E-07 4.46424E-02-1.02659E-05 3.16248E-06
 -1     26412 4.05142E-02-2.91694E-02-5.90975E-08 4.84625E-02-1.34499E-05-1.27915E-05
 -1     26413 5.05409E-02-3.08229E-02 7.96101E-07 5.18606E-02-1.29708E-05 9.48561E-06
 -1     26414 5.89464E-02 1.29917E-02 5.95069E-06 1.02935E-01 3.24313E-05-1.21727E-05
 -1     26415 6.14476E-02 1.28769E-02-3.66008E-06 1.06590E-01-7.32452E-06 5.40737E-06
 -1     26416 6.04036E-02-3.29600E-02-2.51572E-08 5.54731E-02-1.34438E-05-1.75721E-05
 -1     26417 5.76571E-02-3.31198E-02-7.76318E-07 5.83342E-02-1.40480E-05-6.95612E-06
 -1     26418-4.99741E-03 8.03170E-02-1.60343E-05 1.34884E-01-2.86901E-05-1.43100E-04
 -1     26419-1.65668E-02 8.64894E-02-2.27290E-05 1.33318E-01 5.99351E-05 6.82815E-05
 -1     26420-2.12237E-02 8.41466E-02 2.31974E-05 1.25716E-01-1.22000E-04-4.77020E-05
 -1     26421 9.59869E-02 5.24397E-02 3.76276E-05 2.17935E-01 4.58987E-05-3.80471E-05
 -1     26422 8.04015E-02 3.78198E-02-2.48952E-05 1.72467E-01-2.45990E-05 3.66794E-05
 -1     26423 8.49503E-02 3.16291E-02 2.52510E-05 1.70060E-01-3.28738E-05 7.35011E-05
 -1     26424 7.93392E-02 3.30388E-02-1.96236E-05 1.64072E-01 3.91514E-05 3.05601E-05
 -1     26425 8.53933E-02 2.71857E-02-1.95918E-05 1.63941E-01-1.34025E-05-2.76718E-06
 -1     26426 4.67678E-02 2.09430E-02-3.37535E-05 9.82964E-02-6.54966E-06-2.68564E-05
 -1     26427 4.62093E-02 1.96667E-02-3.08927E-05 9.56679E-02-1.17153E-05-4.76022E-05
 -1     26428 4.71217E-02 1.97901E-02 9.69609E-06 9.73189E-02-4.01047E-05-1.15881E-05
 -1     26429-2.39911E-01 1.01359E-01 5.64545E-05-1.09062E-01 4.34275E-05 1.91538E-04
 -1     26430-2.44001E-01 1.01928E-01-4.81379E-06-1.15830E-01-9.16229E-05 1.03528E-04
 -1     26431-2.48403E-01 1.04155E-01 6.88151E-05-1.14338E-01 3.65753E-05-2.75828E-05
 -1     26432-2.44098E-01 1.00200E-01 6.96147E-05-1.21808E-01-5.27090E-05 7.36202E-05
 -1     26433-2.51456E-01 1.03036E-01 5.08851E-05-1.27099E-01-2.73774E-05-3.10992E-04
 -1     26434 5.90405E-02-2.89949E-02 1.81391E-07 7.70081E-02 6.61083E-06 1.33429E-05
 -1     26435 7.72525E-02 5.65509E-02-3.54770E-07 1.96855E-01 9.33122E-06-1.59581E-04
 -1     26436 7.61044E-02 5.61188E-02 1.00505E-04 1.94656E-01-2.66581E-05-5.42722E-05
 -1     26437 7.38084E-02 5.49756E-02 1.25025E-05 1.89492E-01 9.10443E-05-1.01330E-04
 -1     26438 1.81496E-03-1.85842E-02-2.20936E-06 3.87908E-02-1.41515E-05 6.77030E-06
 -1     26439 9.98311E-02-8.00964E-03-2.10529E-09 1.35890E-01-1.77384E-06 6.38709E-06
 -1     26440 9.87144E-02-5.45453E-03-1.17003E-07 1.38700E-01 1.60952E-05-1.36008E-05
 -1     26441 9.85825E-02-1.21474E-02-1.58572E-08 1.30114E-01 6.44966E-06 8.71343E-06
 -1     26442 9.34742E-02-1.42252E-02-2.03485E-06 1.07626E-01-4.08170E-06 2.10533E-05
 -1     26443 9.65446E-02-1.98103E-02-2.12373E-07 1.01494E-01-4.48934E-05 5.85280E-07
 -1     26444 9.56035E-02-1.50036E-02 2.89358E-07 1.10787E-01 6.31871E-06 1.57377E-05
 -1     26445 9.85630E-02-2.10636E-02 1.89978E-05 1.04503E-01-4.02173E-06-2.03516E-05
 -1     26446-1.09621E-01 4.44654E-02-8.54561E-06-5.52865E-02-1.66513E-04 2.87994E-04
 -1     26447-1.12004E-01 4.58458E-02-1.21062E-04-5.50114E-02-5.63872E-05-3.23216E-04
 -1     26448-1.10421E-01 4.52971E-02-2.38685E-05-5.48593E-02 2.97455E-04 1.38703E-04
 -1     26449-1.12834E-01 4.63858E-02-1.23277E-05-5.50479E-02 1.42804E-04 1.48695E-04
 -1     26450 9.98006E-02-2.84941E-02-1.51340E-05 9.05759E-02-2.53865E-05-1.03472E-05
 -1     26451 1.00764E-01-2.96419E-02-4.53140E-06 9.27689E-02 4.03111E-05-1.10543E-06
 -1     26452 9.87475E-02-3.18306E-02-2.20240E-06 8.44076E-02 4.89058E-05-4.22135E-06
 -1     26453 9.97768E-02-3.34478E-02 2.39015E-07 8.67031E-02-2.37096E-06 1.51208E-05
 -1     26454 2.58778E-02 2.63432E-02-1.26513E-07 9.65851E-02 1.11475E-06-3.22241E-06
 -1     26455-1.51802E-01 6.25672E-02-1.87919E-05-7.58079E-02 1.01890E-04-3.55018E-05
 -1     26456-1.48496E-01 6.11688E-02 5.70677E-05-7.40766E-02 9.65019E-05-1.76108E-07
 -1     26457-4.49328E-02 8.42886E-02-1.62847E-05 1.06975E-01-1.30027E-05 2.17978E-05
 -1     26458-4.03732E-02 8.85684E-02-1.95237E-05 1.18017E-01 3.73028E-05-4.56708E-06
 -1     26459-3.34453E-02 8.31102E-02 1.73946E-05 1.14669E-01-1.11050E-05-5.99686E-05
 -1     26460-2.25747E-02 8.49793E-02 1.54621E-05 1.26180E-01-3.49505E-06-3.35484E-06
 -1     26461-2.43439E-01 1.03109E-01-1.01068E-04-1.07179E-01-2.50765E-04 3.81671E-07
 -1     26462-2.54659E-01 1.06545E-01 5.56784E-05-1.15915E-01-1.60697E-04 3.81647E-04
 -1     26463-1.65313E-01 6.54866E-02-6.77936E-06-1.21523E-02 1.87890E-04-7.22674E-05
 -1     26464-2.02744E-01 8.26763E-02-7.46930E-05-2.47645E-02 8.35431E-05 1.71730E-04
 -1     26465-1.61823E-01 6.59594E-02-1.55779E-05-1.94499E-02 1.34306E-04 3.46253E-05
 -1     26466-1.98707E-01 8.34088E-02-4.06121E-05-3.29893E-02 1.72726E-04-6.24403E-05
 -1     26467 3.46265E-02-4.87690E-03-2.73259E-05 8.05140E-02 1.12011E-05 2.32050E-05
 -1     26468 4.01072E-02-2.07822E-03-1.83844E-05 8.76970E-02-1.99872E-05 2.12892E-05
 -1     26469 4.24672E-02 1.27523E-02 3.58105E-06 1.02687E-01 2.43043E-06-2.16436E-05
 -1     26470 4.82096E-02 1.56152E-02-3.79841E-07 1.11543E-01 6.74932E-06 6.47215E-06
 -1     26471-1.06272E-01 4.36235E-02-3.28156E-04-5.34874E-02 1.50626E-04-3.33538E-04
 -1     26472-7.93801E-02 3.81030E-02-1.03726E-03-2.47236E-02 1.56887E-03-4.59371E-04
 -1     26473-6.28385E-02 4.38175E-02-6.08417E-04 2.83907E-03-7.24579E-04-7.14371E-04
 -1     26474-5.74454E-02 3.89682E-02-2.27606E-04 5.09853E-03 2.35464E-04 1.79036E-03
 -1     26475-4.68807E-02 4.27147E-02 8.33830E-04 3.09344E-02 9.73012E-04 7.41153E-04
 -1     26476-1.15797E-01 4.77839E-02 2.46913E-05-5.63488E-02 1.00440E-04 3.91076E-04
 -1     26477-5.16912E-02 9.39928E-02 1.02777E-05 1.21188E-01-6.22256E-05 9.08649E-05
 -1     26478-6.87143E-02 7.60495E-02-3.10251E-06 7.57751E-02-4.10590E-05 4.49308E-05
 -1     26479-6.16974E-02 8.02991E-02-4.40971E-06 8.95646E-02-7.52468E-06-1.07178E-05
 -1     26480-1.92947E-01 7.90699E-02-2.30648E-05-9.79112E-02 4.54487E-05 1.76300E-05
 -1     26481-1.95616E-01 8.00969E-02-4.00741E-05-9.95681E-02-8.23889E-06-5.82078E-08
 -1     26482-1.84667E-01 7.70169E-02 1.90047E-06-8.96744E-02 1.04107E-05-6.56661E-07
 -1     26483-1.88517E-01 7.74470E-02 7.86558E-06-9.50135E-02-3.13064E-05-6.08851E-05
 -1     26484-1.91316E-01 7.84644E-02 2.36605E-05-9.67265E-02-3.11822E-05-9.17391E-06
 -1     26485-2.01237E-02 7.74752E-02-1.10013E-05 1.15758E-01 6.61208E-05 7.26569E-06
 -1     26486-1.46302E-02 7.37171E-02-3.17388E-05 1.14960E-01 4.45825E-05 8.24747E-06
 -1     26487 9.09341E-02-1.68502E-02 2.36044E-06 9.07232E-02-2.88130E-05-9.20041E-06
 -1     26488 8.83209E-02-1.42033E-02-3.38356E-07 8.92885E-02 9.01443E-06-6.89519E-06
 -1     26489 3.16047E-02 4.31963E-02-9.67318E-08 1.21548E-01-1.26901E-05-1.84434E-05
 -1     26490-7.94069E-02 6.26075E-02-3.20407E-06 2.17229E-02 8.50764E-06 5.30460E-06
 -1     26491-9.27938E-02 6.28044E-02-2.00688E-06 5.77784E-03 9.72345E-06 7.96911E-06
 -1     26492 9.49326E-02 4.01893E-02-3.69324E-05 1.97557E-01 2.57748E-05 6.72001E-06
 -1     26493 9.47545E-02 4.81156E-02-4.30279E-05 2.09062E-01 2.99248E-05 8.26813E-06
 -1     26494 9.52476E-02 4.34214E-02-2.82034E-05 2.03138E-01 1.63728E-05 6.89921E-05
 -1     26495 9.52299E-02 4.38333E-02-1.74434E-05 2.03470E-01 1.00373E-04 2.30218E-05
 -1     26496-5.07856E-02 8.76165E-02 2.07331E-06 1.10249E-01 5.23134E-05 4.89931E-05
 -1     26497-2.28954E-01 9.27256E-02 4.11323E-05-1.19260E-01 7.03020E-06-2.04262E-05
 -1     26498-2.28382E-01 9.25242E-02 1.86819E-05-1.18963E-01-2.02504E-05-6.36739E-05
 -1     26499-2.27376E-01 9.20797E-02 2.91155E-05-1.18629E-01-1.34119E-05-1.80132E-06
 -1     26500-3.17028E-01 1.42201E-01-3.15869E-03-1.20614E-01 1.23201E-03-5.49950E-04
 -1     26501-2.89450E-01 1.20986E-01 3.97766E-04-5.83926E-02-5.01677E-04-4.86299E-04
 -1     26502-3.02966E-01 1.25042E-01-1.49946E-03-6.15261E-02-1.58133E-03 2.19546E-04
 -1     26503-3.57732E-01 1.59030E-01-4.36960E-04-1.52679E-01-1.05944E-03 1.73405E-03
 -1     26504-3.40786E-01 1.49470E-01 2.46844E-03-1.39767E-01-1.30499E-03 5.32549E-03
 -1     26505-3.34775E-01 1.39086E-01 2.78643E-03-7.09669E-02-1.25895E-03 3.62937E-03
 -1     26506-2.15171E-01 8.77537E-02 2.97817E-05-1.09531E-01 2.92686E-05-7.15238E-05
 -1     26507-2.14607E-01 8.75391E-02-7.12145E-06-1.09381E-01-2.50774E-05 2.72827E-05
 -1     26508-1.23105E-02 7.94141E-02-4.60989E-05 1.26657E-01 7.42363E-05 5.42367E-05
 -1     26509-7.92306E-02 1.58998E-01-5.70237E-05 1.16790E-01-3.12162E-04 2.21791E-04
 -1     26510-7.68352E-02 1.59264E-01-3.96629E-04 1.15840E-01 1.58403E-03 1.79080E-04
 -1     26511-1.09593E-02 7.31773E-02 4.78442E-06 1.17841E-01 2.78685E-05 3.45894E-05
 -1     26512-4.89596E-03 7.50860E-02-5.39461E-05 1.26809E-01-1.99445E-05-1.13088E-05
 -1     26513-2.06787E-02 7.17325E-02-4.05884E-06 1.05401E-01 2.29308E-05 1.14865E-05
 -1     26514 2.02212E-02 3.67854E-02-9.68045E-07 1.00339E-01-6.30474E-06-8.46137E-06
 -1     26515 2.77873E-02 3.88931E-02-3.31358E-07 1.11797E-01 2.91791E-06 4.30978E-06
 -1     26516 3.12737E-02 3.63446E-02 1.23593E-06 1.13105E-01-7.26257E-06 5.70765E-06
 -1     26517-2.26310E-01 9.58964E-02-4.60879E-05-1.00008E-01-3.21525E-05-9.07619E-05
 -1     26518-2.16179E-01 9.27680E-02 1.47779E-09-8.55076E-02-3.97974E-05-1.06891E-04
 -1     26519-1.72114E-01 7.19060E-02 5.62960E-06-8.31210E-02-2.86126E-05-2.28747E-06
 -1     26520-1.82265E-01 7.44179E-02-1.15710E-05-9.29618E-02-2.58061E-05 1.24724E-05
 -1     26521-1.67961E-01 7.12561E-02-2.28874E-06-7.80191E-02-4.01680E-05 3.09849E-06
 -1     26522-1.72093E-01 7.26693E-02 2.20704E-05-8.08867E-02 1.00284E-05 3.78042E-06
 -1     26523-1.67858E-01 7.20300E-02-2.82676E-06-7.59246E-02 1.24739E-06 3.19603E-05
 -1     26524-2.17968E-01 8.84941E-02 1.37969E-05-1.13055E-01-1.06544E-05-1.33053E-05
 -1     26525-2.03562E-01 8.34767E-02 4.06123E-06-1.03150E-01 1.25074E-05 4.62986E-06
 -1     26526-2.08490E-01 8.51143E-02 5.07066E-06-1.06588E-01-3.37376E-06-6.24737E-06
 -1     26527-2.19677E-01 8.89934E-02 2.24627E-06-1.14490E-01-2.01241E-06-2.02205E-05
 -1     26528-1.94112E-01 8.01968E-02-3.58988E-06-9.66110E-02 2.10038E-05 8.06754E-05
 -1     26529 2.62481E-02 6.80582E-02 1.31376E-04 1.51302E-01-4.98819E-05-9.63750E-06
 -1     26530 4.10493E-03 7.12844E-02 1.31431E-05 1.30675E-01-3.10512E-05 2.69945E-05
 -1     26531-2.70875E-01 1.10054E-01 2.61357E-04-2.62449E-02-1.08358E-04-2.66820E-04
 -1     26532-2.95366E-01 1.14316E-01-7.13105E-05-2.19252E-02 1.22230E-03-9.90413E-04
 -1     26533 7.73434E-02-1.78169E-03 1.67920E-07 1.24475E-01 1.15936E-05-9.54694E-06
 -1     26534 5.22832E-02 1.43958E-02 1.53459E-05 9.57667E-02-8.48870E-06-1.50754E-05
 -1     26535 6.16078E-02 6.90938E-03 4.28704E-05 9.55354E-02-1.71964E-05-8.57050E-06
 -1     26536 4.48603E-02 1.91384E-02 4.25762E-06 9.31797E-02 4.76366E-05 2.39703E-05
 -1     26537 4.60534E-02 1.86273E-02 4.24920E-06 9.40312E-02-8.92165E-05-3.75511E-05
 -1     26538 5.42274E-02 1.17917E-02-1.21373E-05 9.36068E-02 1.17575E-05 6.84314E-06
 -1     26539-2.98826E-01 1.28320E-01-7.49236E-04-1.25715E-01 1.60256E-04 3.54084E-04
 -1     26540-2.82438E-01 1.16945E-01-2.01196E-04-1.44254E-01-2.39947E-04 3.96228E-04
 -1     26541-3.05091E-01 1.31147E-01 1.44824E-03-1.17627E-01-1.44722E-03-1.50098E-03
 -1     26542-3.07032E-01 1.34799E-01-1.98012E-04-1.03869E-01-3.69135E-04 6.53280E-05
 -1     26543-2.90843E-01 1.23788E-01-1.37733E-04-1.23212E-01-1.26214E-04-1.14684E-03
 -1     26544 3.90272E-03 7.13297E-02-2.90891E-06 1.30361E-01 6.06348E-06 7.44329E-06
 -1     26545 5.93409E-02 4.73563E-03 8.12355E-06 9.07594E-02 3.33379E-05 8.83899E-06
 -1     26546 4.70625E-02 2.09384E-02 5.81953E-06 9.88541E-02 7.12041E-06 1.93626E-05
 -1     26547 1.02307E-01-3.16266E-02-3.48654E-06 9.95900E-02 9.36236E-06 3.24445E-05
 -1     26548 1.02677E-01-2.83959E-02-1.96313E-06 1.05672E-01-9.10246E-06-6.20264E-06
 -1     26549 1.01929E-01-3.19953E-02-7.70764E-07 1.01243E-01 4.15451E-05-1.03933E-05
 -1     26550-1.45573E-01 6.05684E-02-4.14520E-05-7.09128E-02 3.39982E-05-1.27322E-05
 -1     26551-1.42230E-01 5.92144E-02 2.40610E-05-6.91746E-02 1.19012E-05 4.22118E-05
 -1     26552-1.38986E-01 5.79058E-02-3.64815E-06-6.74866E-02-9.35209E-06 2.72191E-05
 -1     26553 9.31770E-02 4.81015E-02 9.95011E-06 2.06799E-01-2.47417E-05 1.54631E-04
 -1     26554 9.42247E-02 4.77598E-02 1.16257E-05 2.07750E-01 6.11359E-06-6.61422E-05
 -1     26555 9.41676E-02 4.08012E-02-2.38916E-05 1.97305E-01 2.86139E-05 4.46830E-05
 -1     26556 9.43857E-02 3.13305E-02 8.07260E-06 1.84243E-01-1.75228E-06-1.09101E-04
 -1     26557 9.46355E-02 3.15969E-02-8.16327E-06 1.85250E-01-3.65236E-05-1.44035E-04
 -1     26558 7.02855E-02-2.91617E-03 1.55988E-06 1.15904E-01 8.50366E-06 1.30024E-05
 -1     26559-3.12921E-01 1.34730E-01-4.03778E-03-1.46027E-01 5.37561E-04-1.96877E-03
 -1     26560-3.33227E-01 1.30446E-01 1.22511E-03-1.57735E-01 4.83332E-03-5.28515E-03
 -1     26561-3.18154E-01 1.37052E-01-1.28878E-03-1.34975E-01-1.71389E-03-3.59645E-03
 -1     26562-2.94253E-01 1.21056E-01-8.26549E-04-1.48063E-01-4.42273E-04 5.27066E-04
 -1     26563-3.17420E-01 1.27275E-01 2.85704E-03-1.49994E-01-1.85520E-04-1.22167E-03
 -1     26564 5.02939E-02 8.32115E-03 7.72563E-05 8.66975E-02 3.22397E-05-3.49172E-05
 -1     26565 4.64874E-02 1.28409E-02-5.34293E-05 8.63962E-02-1.24851E-06 2.78847E-05
 -1     26566 4.88303E-02 1.00208E-02-6.76638E-05 8.63878E-02 5.09714E-05-9.80165E-06
 -1     26567 5.57175E-02 5.47214E-03 7.19527E-05 8.92472E-02-1.66803E-05 3.60501E-05
 -1     26568 5.37137E-02 7.90431E-03-2.45499E-07 8.89478E-02 1.84971E-05 2.69575E-05
 -1     26569 5.21755E-02 9.16667E-03 5.20229E-05 8.86119E-02 9.37055E-05 7.20897E-05
 -1     26570-3.76856E-01 1.77338E-01-9.88098E-04-1.44388E-01-4.29695E-03 5.83921E-03
 -1     26571-4.50565E-01 2.00565E-01 6.72866E-03-1.09509E-01-1.42177E-03 4.89387E-03
 -1     26572-1.70595E-01 1.73768E-02 1.07384E-04 4.23486E-03-1.40774E-03 4.25176E-04
 -1     26573-1.55937E-01 2.47670E-02-1.12736E-04 5.82385E-03-3.57599E-05-7.12438E-05
 -1     26574-1.98370E-01 2.81163E-02-2.13596E-04 9.74631E-03-4.58408E-04-7.50094E-04
 -1     26575-1.64957E-01 1.03676E-02 3.70283E-04-4.10355E-04 8.92573E-05-1.41635E-04
 -1     26576-1.83465E-01 3.53765E-02-1.12127E-04 1.02262E-02 5.62131E-04-5.39240E-04
 -1     26577-5.81076E-02 7.59769E-02-4.66073E-06 7.91237E-02-9.51900E-06-1.97129E-05
 -1     26578-5.78432E-02 7.36240E-02-6.13632E-06 7.27370E-02 4.76007E-06-9.13069E-06
 -1     26579-4.95236E-02 7.63383E-02-7.09980E-07 8.64613E-02 1.04384E-05 2.95307E-05
 -1     26580-3.95434E-02 4.72805E-02-3.60869E-06 4.27791E-02 2.09496E-05 1.78251E-05
 -1     26581-1.86846E-01 7.81020E-02-2.89046E-06-8.82647E-02 3.96080E-06 2.13551E-05
 -1     26582-2.01696E-01 8.32546E-02-3.57652E-06-9.93619E-02 2.69209E-05-1.56765E-05
 -1     26583-1.99387E-01 8.22597E-02 8.01854E-06-9.87473E-02-3.95873E-05-1.80308E-05
 -1     26584 5.64838E-02 2.60102E-03 7.39042E-05 8.91575E-02 1.13712E-04-2.12716E-05
 -1     26585-2.33230E-01 9.44398E-02 3.37691E-05-1.21583E-01 7.88085E-06-7.39304E-05
 -1     26586-2.33153E-01 9.45690E-02-8.64921E-05-1.21343E-01-1.53736E-05 1.11137E-05
 -1     26587-1.99796E-02 5.26926E-02 2.56176E-07 7.34347E-02-5.65906E-07 1.52294E-06
 -1     26588-3.58606E-02 5.41114E-02 5.03175E-08 5.72404E-02-1.96339E-06 5.89111E-07
 -1     26589 8.66201E-02-1.91895E-02-6.20478E-05 6.96773E-02 3.01053E-05-6.36467E-05
 -1     26590 9.15304E-02-2.45586E-02 2.51210E-05 7.40101E-02 1.93042E-04 2.11400E-05
 -1     26591 8.80246E-02-1.76570E-02 3.06331E-05 7.43135E-02 6.85339E-05 1.76599E-04
 -1     26592 8.42655E-02-1.27986E-02 6.23378E-05 7.20539E-02-1.40704E-04 1.60782E-05
 -1     26593 8.89388E-02-1.81857E-02 9.12244E-06 7.57620E-02 6.39578E-05 5.21090E-05
 -1     26594 6.21757E-02-2.78238E-02 4.03764E-08 4.87943E-02-1.97463E-05-1.57478E-05
 -1     26595 5.66484E-02-2.00051E-02-2.43152E-05 4.16476E-02 7.78923E-05-7.67518E-05
 -1     26596 8.65585E-02-3.69098E-03 1.86267E-07 1.31226E-01 3.78009E-05 5.81931E-05
 -1     26597-5.28806E-02 1.06949E-01-2.66278E-04 1.43549E-01-1.94694E-04 2.67546E-04
 -1     26598-6.09580E-02 1.21030E-01-1.34661E-06 1.41663E-01-5.95335E-04-8.67442E-06
 -1     26599 1.04468E-02 6.79646E-02-1.15770E-05 1.32502E-01-1.36228E-05-3.67357E-05
 -1     26600 3.13855E-02 6.56129E-02 2.25408E-05 1.52953E-01-2.41329E-08-3.82699E-05
 -1     26601 6.66488E-02-7.21936E-03 1.25386E-05 4.94946E-02-1.12245E-04 3.48384E-05
 -1     26602 6.73180E-02-1.33858E-02 2.40979E-05 4.89685E-02 7.25315E-05-1.30910E-04
 -1     26603-8.55860E-02 4.88193E-02 2.45875E-06-7.22779E-03-7.24071E-06 1.06673E-05
 -1     26604-1.00813E-01 5.30102E-02 1.36387E-06-2.05554E-02 1.36250E-06-4.38635E-06
 -1     26605-7.39505E-02 4.52537E-02-1.23760E-06 2.85721E-03-2.20636E-06 3.00168E-05
 -1     26606 6.25862E-02-1.81770E-02 2.61003E-05 4.44251E-02-2.58272E-05-1.29709E-05
 -1     26607 6.81752E-02-2.60520E-02-1.17143E-05 5.12442E-02-7.69133E-05 7.81656E-06
 -1     26608-2.01423E-01 8.28362E-02-2.30813E-05-1.01925E-01-2.15274E-05 3.28571E-05
 -1     26609-2.03269E-01 8.33567E-02-4.87293E-06-1.03156E-01-1.36151E-05-4.41716E-06
 -1     26610 5.18092E-02-1.16994E-02-4.27201E-05 3.57313E-02 2.77011E-05 4.49827E-05
 -1     26611 5.44716E-02-1.24720E-02 3.09764E-05 3.74331E-02 1.36447E-04 2.16664E-05
 -1     26612 6.04874E-02-2.13091E-02-8.04622E-06 4.42757E-02-3.44170E-05 3.70765E-05
 -1     26613-1.73589E-01 8.49734E-03 6.10482E-05-7.47921E-03 7.41395E-04-4.75642E-04
 -1     26614-2.08949E-01 9.02623E-03-2.11042E-04 2.94833E-03 1.75759E-03-7.15847E-04
 -1     26615-1.84718E-01 7.79798E-03 2.29708E-04-4.37306E-03-6.88446E-04-4.29647E-04
 -1     26616 9.91456E-02-2.58957E-02-1.14191E-05 9.34518E-02 3.12401E-05 5.60530E-05
 -1     26617 1.00976E-01-2.76244E-02 1.24715E-05 9.58363E-02 4.54014E-05 1.78824E-05
 -1     26618 9.95768E-02-2.83251E-02 4.05305E-06 9.05419E-02 1.78851E-05 2.05473E-05
 -1     26619 4.07092E-02 1.68722E-02 6.50704E-05 8.39414E-02-3.26754E-04 8.44402E-05
 -1     26620 4.55650E-02 1.21557E-02 3.24447E-05 8.47464E-02-2.41731E-04-2.90970E-05
 -1     26621 3.95878E-02 1.56235E-02-4.17772E-05 8.12159E-02-8.78630E-05 1.11352E-04
 -1     26622 4.58395E-02 9.67763E-03-2.78083E-06 8.35623E-02 3.65967E-05-4.27210E-05
 -1     26623 5.13511E-02 7.06645E-03-5.51508E-06 8.69933E-02 1.13533E-04-7.82358E-05
 -1     26624 5.08596E-02 4.97754E-03-7.74095E-05 8.49169E-02 2.50690E-04-1.10982E-04
 -1     26625 7.52489E-03-2.05658E-02-1.06104E-06 3.49144E-02 1.20656E-05 5.06997E-06
 -1     26626-7.03866E-03-1.62150E-02 7.76068E-07 3.17581E-02 1.01834E-05-8.63933E-06
 -1     26627 5.56601E-02-7.08329E-03 1.52023E-05 3.86339E-02-1.95821E-05-7.54614E-05
 -1     26628 4.91922E-02-6.98206E-03-1.41299E-06 3.32177E-02-1.36285E-05-2.06286E-05
 -1     26629 5.33965E-02-6.93395E-03 1.69414E-05 3.68502E-02 3.93262E-05 3.07277E-06
 -1     26630 9.34655E-02-3.24638E-02 5.88783E-06 9.87715E-02-2.15602E-05-6.12493E-05
 -1     26631 9.56783E-02-3.40130E-02-4.42056E-05 9.64195E-02 4.07725E-05-1.38873E-04
 -1     26632 9.00439E-02-3.45577E-02-1.09558E-05 9.20602E-02-1.62384E-05-2.16216E-05
 -1     26633-1.32690E-01 6.73210E-02 3.69000E-07-3.33920E-02 7.23016E-06 1.51334E-05
 -1     26634-1.27956E-01 6.65665E-02 8.88602E-07-2.77105E-02 8.91647E-06-2.10452E-06
 -1     26635-3.36143E-01 1.45499E-01 3.94328E-04-8.19551E-02-1.93659E-04-1.37152E-03
 -1     26636-3.32345E-01 1.41759E-01-3.78696E-04-6.28607E-02-1.18619E-04-1.19134E-04
 -1     26637-3.02134E-01 1.20562E-01-7.59907E-05-1.55514E-02-5.20201E-04-1.74787E-03
 -1     26638-2.82406E-01 1.18352E-01-4.26871E-04-4.56861E-02 4.45116E-04-3.01136E-04
 -1     26639 5.92423E-03 3.34121E-02 4.31969E-06 8.02628E-02 3.34656E-06-1.45377E-06
 -1     26640 1.25247E-02 3.51052E-02-1.71442E-07 8.95853E-02 6.81991E-07 5.86294E-06
 -1     26641 9.81633E-02-3.34980E-02 2.94569E-05 9.72308E-02-3.25599E-05-1.12372E-05
 -1     26642 9.52041E-02-3.60720E-02-8.40981E-07 9.03375E-02 3.12314E-05 1.69885E-06
 -1     26643-2.26817E-01 9.00908E-02-1.26266E-04-1.74363E-02-1.99309E-04 1.01010E-03
 -1     26644-2.33474E-01 7.01667E-02-3.99340E-04 5.04745E-03-5.84613E-04 4.37447E-04
 -1     26645 9.48537E-02 4.89205E-02-4.13883E-05 2.10362E-01-3.07828E-05-2.32422E-05
 -1     26646-1.04540E-01 6.44380E-02 3.32317E-07-5.47322E-03 3.06343E-06-5.37031E-06
 -1     26647-1.06540E-01 6.36382E-02-1.29104E-06-1.04454E-02 1.21475E-06-8.92230E-06
 -1     26648-1.18283E-01 6.53315E-02-1.87985E-08-2.16607E-02-1.25778E-05-8.38547E-06
 -1     26649 8.72469E-02-3.23879E-02 2.90146E-06 9.40707E-02-6.64796E-05 7.21374E-05
 -1     26650 8.06202E-02 4.93717E-02 1.90643E-05 1.92224E-01 2.87888E-05-1.15688E-05
 -1     26651 5.61878E-02 1.69005E-02-4.63757E-06 1.05654E-01-3.08137E-05-1.94696E-05
 -1     26652 5.65485E-02 1.62667E-02 1.71103E-05 1.05136E-01 1.22635E-05 2.10907E-06
 -1     26653 5.86115E-02 1.71037E-02 3.55646E-07 1.09385E-01-5.52669E-05-3.65091E-06
 -1     26654-1.15989E-01 6.65368E-02-2.16796E-06-1.17493E-02-1.36361E-05-1.26827E-07
 -1     26655-1.06874E-01 6.65808E-02-1.45904E-05 2.26097E-05 1.35783E-05 6.53574E-05
 -1     26656-1.02837E-01 6.66264E-02-9.51059E-06 7.33443E-03 3.35121E-06 3.58247E-06
 -1     26657 9.05833E-02-8.78883E-03-1.41700E-06 1.13309E-01-2.76379E-05-1.50643E-05
 -1     26658 7.08937E-02-7.30316E-03-3.83603E-05 5.48468E-02 2.50269E-05 5.61810E-05
 -1     26659 9.74975E-02 5.34957E-02 3.43337E-05 2.21173E-01-4.90811E-05-5.82612E-05
 -1     26660 9.33233E-02 4.01799E-02 7.62611E-06 1.96267E-01-7.01502E-06-7.61566E-05
 -1     26661 9.53960E-02 4.60531E-02 4.34832E-05 2.07687E-01 5.89886E-06 4.70915E-05
 -1     26662 9.31244E-02 4.61257E-02-6.08742E-06 2.04173E-01-1.05635E-04-2.54404E-05
 -1     26663 9.10711E-02 3.89066E-02-2.94885E-05 1.91290E-01 1.87691E-05 3.56942E-05
 -1     26664 9.75323E-02-2.27942E-02 4.68004E-06 9.62536E-02-2.88694E-05-1.83665E-06
 -1     26665 9.95947E-02-2.43767E-02 1.77403E-05 9.88245E-02-8.36843E-05-2.05014E-05
 -1     26666-3.42534E-01 1.37013E-01-8.40258E-05-9.09972E-03 4.71722E-05-2.18233E-03
 -1     26667-3.61991E-01 1.61741E-01-2.05341E-03-1.07057E-01 2.21157E-03-6.44594E-03
 -1     26668-3.95730E-01 1.66357E-01 1.12190E-03-9.05997E-02-2.34399E-03 3.85228E-04
 -1     26669 6.27593E-02 2.97596E-02 1.24408E-05 1.35037E-01 7.63014E-05 4.92314E-05
 -1     26670 6.17981E-02 2.93334E-02-5.85717E-05 1.32748E-01 1.82111E-05-1.90296E-05
 -1     26671 6.43439E-02 3.09214E-02-1.61444E-05 1.39258E-01-3.60565E-07 4.46067E-05
 -1     26672-1.10485E-01 5.65997E-02-5.09839E-08-2.85284E-02-6.77666E-07 4.25945E-06
 -1     26673-1.25144E-01 6.00574E-02 1.90892E-06-4.13861E-02 4.21908E-06-7.10772E-06
 -1     26674-1.12626E-01 5.64068E-02 1.13670E-06-3.07422E-02 7.74505E-06 6.46217E-06
 -1     26675-1.45108E-01 5.61741E-02 8.44838E-05-5.14756E-03 2.20953E-04 1.70901E-04
 -1     26676-1.28546E-01 4.66528E-02 1.71507E-05 5.38959E-03 1.01795E-04 1.37650E-04
 -1     26677-1.44586E-01 5.28763E-02-8.44568E-06 1.62780E-03-9.79028E-05 2.68135E-04
 -1     26678 9.33010E-02-1.84452E-02-5.11987E-06 1.18533E-01 2.38970E-06-1.14581E-05
 -1     26679 9.54131E-02-2.88623E-02-1.83076E-05 1.05731E-01 7.00855E-06-2.68670E-05
 -1     26680 4.62600E-02 5.69120E-02 8.48340E-06 1.58379E-01-2.43444E-05 1.06208E-05
 -1     26681 5.91720E-02 5.63716E-02-6.72331E-06 1.73522E-01 3.43909E-05 3.16430E-05
 -1     26682 4.95380E-02 5.50713E-02-1.28742E-06 1.59689E-01-1.36561E-05 3.87039E-05
 -1     26683 2.99539E-02 5.72782E-02 6.63396E-06 1.38783E-01-9.46845E-06-1.60901E-06
 -1     26684 5.38040E-02-2.67663E-02 2.83687E-06 4.48235E-02 1.04524E-05 1.75033E-05
 -1     26685 9.45262E-02 2.73051E-02 2.44443E-05 1.78693E-01 5.96588E-06 3.41886E-05
 -1     26686 9.46299E-02 2.94270E-02 5.56990E-06 1.82069E-01-2.51226E-05 9.42886E-05
 -1     26687 9.80297E-02 5.87274E-02 1.03838E-05 2.29759E-01-1.22108E-05 2.46012E-05
 -1     26688 8.41284E-02 5.36461E-02-3.08740E-05 2.03027E-01 7.19905E-05-3.15861E-05
 -1     26689 8.88545E-02 5.57857E-02-2.67060E-06 2.12980E-01 4.54920E-05 1.38722E-05
 -1     26690 9.83945E-02-2.63310E-02 1.65977E-05 1.10799E-01-9.30959E-06 3.77538E-05
 -1     26691-5.46704E-02 2.96917E-02-9.56317E-06 2.18694E-02-3.88477E-05 1.99220E-05
 -1     26692-1.47554E-01 6.45913E-02-4.18991E-06-4.61762E-02 6.80214E-06-1.63772E-05
 -1     26693-1.64025E-01 7.10436E-02-3.11360E-07-5.75536E-02 2.35284E-06-8.28792E-06
 -1     26694 3.48679E-02-5.08599E-03-4.82877E-06 2.28324E-02-2.08001E-05-1.66588E-05
 -1     26695 3.28179E-02-7.51535E-03 2.19154E-05 2.22500E-02-1.78414E-05-6.18825E-05
 -1     26696 3.30980E-02-2.65538E-03-1.75622E-06 2.11077E-02-2.98359E-05-2.83975E-05
 -1     26697 4.00901E-02-5.36884E-03-1.27415E-05 2.63648E-02 3.30373E-06 5.68409E-05
 -1     26698 3.99519E-02-9.99643E-03 3.79830E-07 2.75437E-02-2.74594E-06 2.95825E-05
 -1     26699 3.81459E-02-7.70991E-03 1.29660E-05 2.56055E-02 3.66315E-05 5.24001E-05
 -1     26700-2.24777E-01 9.23756E-02 6.83359E-05-1.11833E-01-3.98983E-05 7.87736E-05
 -1     26701-1.73194E-01 7.37390E-02-3.66056E-06-8.09161E-02 3.54243E-05-1.21444E-05
 -1     26702 7.44959E-02-2.64809E-02-1.41908E-05 5.51419E-02-6.87789E-05 4.75538E-05
 -1     26703 8.05348E-02-3.01584E-02-1.85616E-06 6.17849E-02-4.85130E-05 7.72096E-05
 -1     26704 7.91598E-02-2.58880E-02 1.36150E-05 5.88808E-02 1.39696E-05 2.10788E-05
 -1     26705 1.57310E-02-4.36967E-03 1.29294E-05 1.18788E-02-8.00696E-06-4.30943E-05
 -1     26706 1.84983E-02-4.31509E-03 7.45344E-07 1.31655E-02 1.47717E-06 1.92216E-05
 -1     26707 2.03546E-02-7.61179E-03 1.03116E-05 1.61297E-02 4.67491E-05 1.95741E-05
 -1     26708 1.70266E-02-3.60339E-03-3.97994E-06 1.20246E-02 5.76236E-05-9.41420E-06
 -1     26709 1.97312E-02-3.69816E-03 2.17429E-05 1.32902E-02 3.21455E-05 4.99929E-05
 -1     26710 1.01112E-01-2.54417E-02-1.77534E-06 1.01353E-01 1.65829E-05-1.03769E-04
 -1     26711 9.69158E-02-6.86676E-03 1.42471E-05 1.28428E-01 6.90692E-05-9.90538E-06
 -1     26712 9.26755E-02-2.92879E-04 1.43949E-05 1.32335E-01 5.00563E-06-1.75794E-05
 -1     26713-4.73744E-02-1.93384E-03 3.75934E-07 2.97882E-02-1.74951E-05-1.96298E-05
 -1     26714-6.75872E-02 6.35006E-03 4.27927E-06 2.63791E-02-1.18325E-05-1.02281E-05
 -1     26715-5.52367E-02 2.96287E-02-2.07376E-05 2.17019E-02 3.05508E-05-1.35704E-06
 -1     26716 7.89724E-02-7.14745E-03-4.57325E-05 6.80293E-02 2.42377E-05-5.51258E-06
 -1     26717 7.70124E-02-7.32697E-03 5.63851E-05 6.41068E-02 2.39674E-05-4.21817E-06
 -1     26718 3.79099E-02-1.39600E-02-3.69120E-06 2.80935E-02 4.53835E-05 2.28992E-05
 -1     26719 3.28576E-02-1.08312E-02 8.10416E-06 2.37899E-02-4.97961E-05-4.55086E-05
 -1     26720 3.98547E-02-1.33438E-02 9.51871E-06 2.85748E-02 7.07607E-05 1.27244E-05
 -1     26721 3.79881E-02-1.06445E-02-2.67715E-05 2.67612E-02 6.38388E-05 3.42132E-06
 -1     26722 3.10673E-02-8.67086E-03 2.11459E-05 2.19347E-02-3.06391E-05-2.57481E-05
 -1     26723-2.96761E-01 1.26318E-01-1.60217E-03-1.33658E-01 1.20873E-03 2.60300E-03
 -1     26724 6.36693E-02 3.02808E-02-1.88115E-05 1.37194E-01 1.55930E-05 1.92171E-05
 -1     26725 6.08620E-02 2.88095E-02-6.30193E-07 1.30942E-01 9.20764E-05-3.90955E-05
 -1     26726-1.30496E-01 4.82527E-03-1.40247E-04-4.02954E-03-2.41774E-04 2.14057E-04
 -1     26727-1.36880E-01 7.28965E-03 2.15542E-04-7.69221E-05-3.08885E-04-2.26173E-04
 -1     26728-6.41841E-02 6.50249E-02-2.96084E-06 4.54171E-02-2.78430E-05-1.24417E-05
 -1     26729-6.26528E-02 6.77328E-02 1.15725E-06 5.33189E-02 2.63015E-06-7.33688E-06
 -1     26730-5.34451E-02 6.37603E-02-1.55937E-06 5.47317E-02-6.41729E-06-1.00169E-05
 -1     26731-7.26786E-02 6.58983E-02 2.29659E-06 3.80281E-02-1.13624E-05 3.21582E-06
 -1     26732 8.58850E-02 5.66712E-02 2.86418E-05 2.10122E-01-4.92904E-06 5.79111E-05
 -1     26733 9.90565E-02 5.90582E-02-1.55813E-05 2.31686E-01-9.10586E-06 6.83452E-07
 -1     26734 9.91479E-02 5.89982E-02-2.58043E-05 2.31762E-01-8.67049E-06 2.26984E-05
 -1     26735-1.93644E-01 6.61994E-02 8.42890E-05-2.87094E-03-5.25081E-04 4.43942E-04
 -1     26736-2.02006E-01 7.86514E-02-1.24695E-04-1.43219E-02-3.94602E-04 4.25164E-04
 -1     26737 3.98362E-02 1.04548E-02 2.07180E-04 7.40758E-02 1.64761E-05 2.27760E-05
 -1     26738 3.63060E-02 7.87794E-03-7.01352E-06 6.66318E-02 2.07576E-04-8.75211E-05
 -1     26739 3.71415E-02 6.74452E-03-2.72229E-05 6.66113E-02 1.42170E-04-7.12119E-05
 -1     26740 4.30154E-02 4.99487E-03 5.93976E-05 7.28072E-02 8.29936E-05-3.77921E-05
 -1     26741 4.29062E-02 5.60669E-03 5.90822E-05 7.32023E-02 7.69516E-05 7.52573E-05
 -1     26742 1.01057E-01-3.39179E-02-7.78960E-07 9.58885E-02 1.98533E-05-2.61219E-05
 -1     26743 5.31757E-02 2.34989E-02-9.52360E-08 1.11825E-01-1.41646E-05-1.55978E-07
 -1     26744 5.37990E-02 2.47089E-02 1.69311E-05 1.14463E-01-3.52172E-05 1.97149E-05
 -1     26745 7.10868E-02-7.14884E-04 7.16561E-06 9.40638E-02-1.53978E-05-2.27091E-05
 -1     26746 6.86542E-02 4.45463E-04-2.10405E-05 9.30689E-02-5.30610E-05-3.96497E-05
 -1     26747 6.56029E-02 3.07204E-03-1.48983E-07 9.40555E-02 5.80859E-05-1.94832E-06
 -1     26748 9.93591E-02-3.13249E-02 3.18970E-06 1.02509E-01 9.68112E-05 4.67712E-06
 -1     26749 8.72735E-02-1.29647E-02-1.84303E-06 8.58052E-02-3.25425E-06-2.40213E-05
 -1     26750 8.87258E-02-1.51201E-02-2.95292E-06 8.30174E-02 1.77968E-05 3.42885E-06
 -1     26751 8.53411E-02-1.06472E-02-1.21960E-05 8.25331E-02-9.49515E-06 2.16476E-05
 -1     26752 8.01803E-02-3.69759E-02 3.14690E-06 7.23551E-02 6.49037E-06 2.34567E-05
 -1     26753 8.56092E-02-3.74975E-02-6.90624E-07 7.91290E-02-2.00397E-05 1.25680E-06
 -1     26754 3.89675E-02 1.63060E-02-1.21342E-04 8.05437E-02 1.87240E-04 3.09073E-05
 -1     26755 3.96713E-02 1.19913E-02 7.01180E-05 7.70333E-02-5.20708E-05 3.32935E-05
 -1     26756 4.51547E-02 5.57918E-03 4.57179E-05 7.74947E-02-2.90504E-04-1.44114E-04
 -1     26757 4.33998E-02 1.09326E-02-9.44034E-05 8.10892E-02-1.01949E-04-8.71920E-05
 -1     26758 1.25504E-02-8.53122E-03 1.79058E-06 1.29953E-02-2.98017E-05 3.12305E-05
 -1     26759 2.21988E-02-1.67016E-02-3.85175E-06 2.49204E-02 1.69219E-05 1.77143E-06
 -1     26760 1.47970E-02-1.64827E-02-1.05562E-05 2.25377E-02 7.65206E-06 2.03869E-05
 -1     26761 1.62383E-02-1.19104E-02 2.02685E-05 1.71705E-02 9.82309E-05 2.18562E-05
 -1     26762 2.31989E-02-1.20385E-02-5.53129E-06 1.98325E-02-1.14162E-05 1.16006E-06
 -1     26763 9.10228E-02-3.72469E-02 4.01025E-06 8.32217E-02-8.98219E-06-1.15176E-05
 -1     26764 8.94793E-02-3.65014E-02 3.12060E-06 8.61709E-02-8.58100E-06 2.95987E-05
 -1     26765-5.51671E-03 2.84452E-02 4.39774E-08 6.36823E-02 6.80385E-07 2.99908E-06
 -1     26766-1.20276E-01 6.69011E-02 2.48818E-06-1.75409E-02 8.33269E-06 1.66835E-05
 -1     26767-2.76994E-01 1.15375E-01 1.17427E-04-1.28860E-01-3.15837E-05 4.70092E-04
 -1     26768-1.36091E-01 6.81896E-02 1.19012E-07-3.74627E-02-6.26613E-06 1.37543E-05
 -1     26769-1.48166E-01 6.98529E-02 1.13733E-06-5.12865E-02-2.40944E-05-2.39976E-05
 -1     26770-1.47464E-01 6.93651E-02-2.12123E-06-5.10317E-02-1.06997E-06-6.62895E-07
 -1     26771-1.60024E-01 7.14866E-02 1.40442E-05-6.48757E-02 7.05607E-06 2.01946E-06
 -1     26772-2.20675E-01 9.36703E-02 2.53947E-04-4.58449E-02-1.16877E-04 8.39562E-05
 -1     26773-2.64025E-01 1.08387E-01 1.85774E-04-1.31353E-01-1.11813E-04-3.62829E-04
 -1     26774-2.66641E-01 1.09998E-01-1.42513E-04-1.33299E-01-2.97469E-04-9.51821E-06
 -1     26775-2.60926E-01 1.09045E-01 5.77780E-05-1.23978E-01-8.91894E-05-6.14379E-04
 -1     26776-2.54990E-01 1.04286E-01 4.56916E-05-1.28508E-01-1.11121E-05-2.09957E-04
 -1     26777-2.57972E-01 1.05778E-01-4.07039E-05-1.30160E-01 3.47755E-05-2.19089E-04
 -1     26778-5.60206E-02 6.99404E-02 9.16518E-07 6.57732E-02-1.61365E-05-1.31463E-05
 -1     26779-6.58737E-02 7.06583E-02 3.22540E-06 5.79149E-02-4.58709E-06-2.07194E-05
 -1     26780-6.36831E-02 6.84017E-02 1.55695E-05 5.38068E-02-1.26797E-05 1.54146E-05
 -1     26781-7.49357E-02 6.78439E-02-2.79832E-06 4.07037E-02 1.67780E-05-1.41535E-05
 -1     26782-7.35383E-02 6.91157E-02 1.29254E-07 4.56016E-02-1.43257E-06 1.65926E-05
 -1     26783 3.47347E-02-2.41354E-02 4.41056E-06 3.73207E-02-6.85447E-07 1.56367E-05
 -1     26784 2.43130E-02-2.29857E-02 9.20167E-08 3.39271E-02-2.96257E-05-2.59789E-05
 -1     26785-7.60086E-02 6.41872E-02 8.11566E-06 3.00690E-02-1.24859E-06 1.16501E-05
 -1     26786-6.73260E-02 7.43976E-02 1.09663E-06 6.78666E-02-1.52283E-06-8.19624E-06
 -1     26787-6.74410E-02 7.21944E-02 3.38182E-07 6.13690E-02 8.31487E-06-1.65577E-05
 -1     26788-2.77371E-01 1.13968E-01-4.90130E-04-1.38680E-01 3.52693E-04 6.36498E-05
 -1     26789-2.73137E-01 1.13783E-01-6.42141E-04-1.37768E-01-6.93129E-05 3.41765E-04
 -1     26790-6.84761E-02 1.29779E-01 6.23389E-04 1.05662E-01-8.72238E-04-9.38227E-04
 -1     26791-6.00545E-02 1.05917E-01 1.65803E-05 1.38890E-01 2.26640E-04 1.27996E-04
 -1     26792-1.76333E-01 7.54365E-02-8.02270E-06-8.15413E-02 3.24514E-05 4.47303E-05
 -1     26793-1.60095E-01 7.13185E-02-1.16654E-05-6.71700E-02 3.53282E-08-2.37408E-05
 -1     26794-1.73896E-01 7.48595E-02-2.68098E-06-7.90292E-02 5.35547E-05 5.39328E-06
 -1     26795-2.29163E-01 9.49552E-02-3.33512E-05-3.40953E-02 4.55359E-04 1.08062E-04
 -1     26796 5.34522E-02 2.65085E-03 4.04103E-05 8.65528E-02 1.04521E-04 3.49975E-05
 -1     26797 4.51374E-02-2.59829E-02 3.41683E-08 4.10569E-02-5.15913E-06-1.28040E-05
 -1     26798-8.40656E-02 6.73491E-02 2.03129E-06 2.97941E-02-3.18684E-05-1.23758E-05
 -1     26799-8.13884E-02 6.84567E-02 1.80350E-05 3.67852E-02 1.87204E-06 1.22491E-05
 -1     26800-7.55521E-02 6.73176E-02 1.17041E-05 3.86832E-02-3.55146E-05-8.07987E-06
 -1     26801 9.21423E-02 3.59090E-02 7.90170E-06 1.88860E-01-1.08831E-05 8.21557E-06
 -1     26802 9.47765E-02 4.17775E-02-7.94813E-07 2.00009E-01-3.36341E-05-3.07637E-05
 -1     26803 9.30734E-02 3.80236E-02-4.16821E-05 1.92801E-01-5.44798E-05 1.09240E-04
 -1     26804 9.56899E-02 4.94094E-02 5.30489E-05 2.12483E-01 1.39718E-05-1.95014E-06
 -1     26805 9.47652E-02 4.40866E-02 3.68394E-05 2.03617E-01 5.87603E-05-8.76981E-06
 -1     26806 9.49999E-02 4.48619E-02 2.09282E-05 2.05423E-01 3.71295E-06 4.90117E-05
 -1     26807-1.73344E-01 6.05474E-02-5.26199E-05-1.00204E-03-3.20409E-04 2.11675E-04
 -1     26808-2.17040E-01 8.80192E-02 7.26598E-06-1.12903E-01-5.32321E-06-1.83611E-05
 -1     26809-1.92035E-01 7.95933E-02-1.44410E-05-9.52197E-02 7.79188E-05 6.70645E-05
 -1     26810-2.17785E-01 8.83397E-02-2.09638E-05-1.13202E-01-2.87247E-05-2.36735E-05
 -1     26811 7.84902E-02-3.70667E-03-8.54121E-06 7.26459E-02 3.02059E-05-5.06966E-06
 -1     26812 7.88063E-02-3.64412E-03-1.55888E-06 7.40856E-02 3.43238E-05-1.07655E-05
 -1     26813 8.34733E-02-1.00580E-02-3.96740E-05 7.45418E-02 3.77274E-06-5.49759E-05
 -1     26814 8.02607E-02-7.06184E-03-3.65263E-05 7.10968E-02 1.91434E-05 5.96126E-05
 -1     26815 8.05487E-02-7.03192E-03-3.04536E-05 7.24752E-02 3.62177E-05 2.72778E-05
 -1     26816-1.16996E-01 6.09382E-02-2.36854E-06-3.05034E-02-5.40777E-06-6.71813E-06
 -1     26817-1.04407E-01 5.78328E-02-6.48466E-07-1.97700E-02 5.01329E-06 7.93790E-06
 -1     26818-1.85574E-01 7.77229E-02-9.05889E-06-9.00244E-02-5.57503E-05-4.28200E-05
 -1     26819-1.71304E-01 7.33829E-02-7.07335E-06-7.90465E-02-4.36652E-06 1.28365E-05
 -1     26820-1.87393E-01 7.81830E-02 4.93799E-06-9.16498E-02-1.88008E-06-4.59096E-05
 -1     26821-6.41805E-02 4.73802E-02 1.32434E-05 1.43969E-02-2.37211E-05-3.81182E-06
 -1     26822-8.26953E-02 5.13190E-02 3.41134E-08-2.57332E-03 1.77069E-06 5.74739E-06
 -1     26823 9.48755E-02 4.28811E-02-6.30640E-06 2.01612E-01-5.49295E-05-8.24159E-05
 -1     26824-2.04732E-01 8.38685E-02-1.23833E-06-1.04061E-01 1.83769E-05-1.72233E-05
 -1     26825-3.07889E-01 1.31049E-01-9.04991E-04-1.39069E-01 2.02378E-04-9.49376E-04
 -1     26826-3.25280E-01 1.41683E-01-5.56930E-05-1.17611E-01 2.15569E-04-1.77422E-03
 -1     26827-2.94689E-01 1.24076E-01 8.58586E-04-1.35077E-01-6.49692E-04 2.37785E-05
 -1     26828-3.21043E-01 1.36136E-01 3.91473E-04-1.44455E-01 6.34074E-05-1.47075E-03
 -1     26829-3.00996E-01 1.26582E-01 7.35111E-04-1.39125E-01-3.25623E-05 6.52444E-04
 -1     26830 1.61314E-02 3.92364E-02-6.54856E-08 9.82229E-02 6.51661E-07-4.16838E-06
 -1     26831 4.37406E-03 4.02654E-02 2.71438E-07 8.55755E-02 6.13144E-06 2.79161E-06
 -1     26832 8.37753E-03 3.76967E-02 6.13784E-07 8.74759E-02-3.69022E-06 3.26868E-06
 -1     26833-3.82568E-01 1.70713E-01-1.13829E-03-1.35846E-01 1.16383E-03-4.55751E-03
 -1     26834-3.78056E-01 1.67385E-01-1.41149E-03-1.36884E-01-2.05133E-04-2.57406E-03
 -1     26835-3.85925E-01 1.75296E-01-8.07968E-04-8.95841E-02 2.47199E-03-5.37634E-03
 -1     26836-3.39953E-01 1.44534E-01 7.35170E-05-1.52927E-01-1.44147E-03-1.54444E-03
 -1     26837-3.63645E-01 1.44303E-01 3.59003E-03-1.55003E-01 1.62058E-03-1.27078E-03
 -1     26838-4.86776E-02 5.26165E-02-1.46064E-04 3.20205E-02-5.09404E-03-1.86753E-03
 -1     26839-5.76970E-02 1.09765E-01 1.62764E-04 9.45900E-02 1.02701E-03 3.56876E-04
 -1     26840-2.51894E-02 9.26125E-02-9.85914E-06 1.35119E-01-2.65443E-05 5.61864E-06
 -1     26841-2.95930E-02 8.99618E-02 8.02580E-07 1.28062E-01-6.47132E-06 4.18692E-05
 -1     26842-8.16501E-02 3.34271E-02 9.03874E-04-3.66166E-02 5.71833E-04-2.31270E-04
 -1     26843-4.80841E-02 4.05724E-02-5.65161E-04 2.13082E-02-3.40672E-04-6.14440E-04
 -1     26844-3.24010E-02 2.51638E-02 1.87331E-07 3.75085E-02-1.75979E-06 9.78902E-07
 -1     26845-2.08740E-02 2.04040E-02 4.79578E-07 4.62862E-02-4.63698E-06 6.72153E-06
 -1     26846 3.61991E-02 1.67385E-02-3.91843E-05 7.66548E-02 1.67820E-04-1.58152E-04
 -1     26847 4.46749E-02 5.73171E-03-1.42850E-04 7.54572E-02-9.45415E-05 4.95064E-05
 -1     26848 3.73655E-02 6.67151E-03 5.57584E-05 6.70175E-02-3.98688E-04-2.09928E-04
 -1     26849-1.59913E-01 6.90875E-02-9.84928E-06-7.07004E-02 2.42088E-05 2.00061E-05
 -1     26850-1.76698E-01 7.23655E-02-1.27709E-05-8.96976E-02 9.99620E-06-3.97811E-05
 -1     26851-1.71646E-01 7.08679E-02 3.45348E-06-8.52466E-02-2.18005E-05-1.62343E-05
 -1     26852-1.54869E-01 6.77503E-02-3.27863E-05-6.60428E-02 2.24305E-05-1.47459E-05
 -1     26853-1.65608E-01 6.95665E-02-3.98996E-06-7.86918E-02-7.55105E-06-2.18563E-05
 -1     26854-1.20979E-01 6.02735E-02 8.29118E-09-3.64680E-02-6.58143E-06-3.33292E-06
 -1     26855-1.19190E-01 6.05992E-02-5.05660E-07-3.38538E-02-8.10349E-06-2.56350E-06
 -1     26856-1.06523E-01 5.73600E-02 1.32099E-07-2.31136E-02-4.18690E-06 9.92353E-06
 -1     26857-1.82229E-04 4.28045E-02 8.26885E-07 8.31903E-02 1.96170E-06 8.83924E-07
 -1     26858-5.50797E-03 4.52589E-02-5.14459E-07 7.99592E-02 7.09718E-06 4.87802E-06
 -1     26859-9.45945E-02 6.65995E-02 4.38209E-06 1.53041E-02 6.67726E-06-2.47274E-05
 -1     26860-9.16704E-02 6.70991E-02 1.14848E-05 2.10462E-02-3.33875E-05-1.82231E-05
 -1     26861 6.78058E-02 1.40557E-02-2.55524E-07 1.17747E-01 4.37216E-05 2.26753E-05
 -1     26862 2.96858E-02 2.31059E-02 8.28387E-07 9.79254E-02-1.10419E-05-5.82070E-06
 -1     26863 3.60994E-02 2.55374E-02-1.39563E-06 1.07430E-01 9.70525E-06 1.37610E-05
 -1     26864 3.98594E-02 2.23449E-02 2.65756E-08 1.08677E-01 4.29035E-07 1.05769E-05
 -1     26865 2.14283E-02 2.11349E-02-2.04048E-06 8.70560E-02 9.32512E-06 1.36255E-05
 -1     26866 2.62215E-02 1.75568E-02 1.28223E-06 8.93928E-02-2.32899E-05 1.10850E-05
 -1     26867 3.34887E-02 1.99102E-02-4.13503E-07 9.93098E-02-1.15543E-06-2.42651E-06
 -1     26868 8.63068E-02 8.11281E-03 3.23157E-05 1.35711E-01-6.10273E-05 3.51651E-05
 -1     26869 9.07504E-02-7.77938E-04 2.52071E-06 1.28200E-01-2.82062E-05 4.78309E-05
 -1     26870-2.25743E-01 9.61399E-02 1.20178E-04-5.74314E-02 1.47774E-04 4.49103E-05
 -1     26871-2.13191E-01 9.21125E-02-2.64532E-05-6.72883E-02 5.49070E-06 3.07644E-04
 -1     26872-2.13099E-01 9.21589E-02-2.68375E-05-6.77581E-02 8.29364E-05-2.44689E-04
 -1     26873-1.88840E-01 8.13037E-02 9.51727E-07-4.38862E-02-3.01087E-05-2.68319E-05
 -1     26874 7.56597E-02 1.04397E-02-5.17449E-06 1.23433E-01-8.55257E-06 2.60360E-05
 -1     26875 7.79035E-02 5.07384E-03 3.94151E-06 1.17903E-01-2.30584E-05 3.00405E-06
 -1     26876 6.81479E-02 1.73311E-02-4.79404E-07 1.23687E-01 3.22127E-05 6.50134E-05
 -1     26877 7.51490E-02 7.49399E-03 1.01052E-05 1.17724E-01-7.70234E-05-3.79632E-05
 -1     26878 7.57689E-02-7.73613E-03 2.68019E-05 6.15323E-02-7.42469E-05-1.22946E-04
 -1     26879 7.76490E-02-7.70520E-03-1.05060E-05 6.45294E-02-2.86982E-04 2.35506E-05
 -1     26880 7.47251E-02-7.58322E-03-9.64070E-05 5.99355E-02-9.51349E-05-2.02412E-05
 -1     26881 1.00160E-01-1.45290E-02 9.40260E-07 1.27698E-01-6.48013E-06-2.75246E-06
 -1     26882 6.93875E-02 5.25615E-02-4.01462E-05 1.79038E-01-9.39222E-05-8.90433E-05
 -1     26883 5.79528E-02 5.88515E-02-1.21907E-04 1.72774E-01 1.00096E-04 2.93871E-05
 -1     26884 6.43120E-02 5.21865E-02-9.85134E-05 1.71308E-01 1.49585E-04-1.51711E-04
 -1     26885 7.12041E-02 5.31967E-02-4.86974E-06 1.83217E-01-1.35061E-04-8.27650E-05
 -1     26886 6.65547E-02 5.29269E-02-1.64119E-04 1.76091E-01 4.35203E-05-3.86312E-05
 -1     26887 6.13833E-02 4.82117E-03 1.53135E-06 1.14943E-01 2.42115E-05 4.35196E-05
 -1     26888 9.28309E-02-3.25214E-02 2.52434E-05 7.51474E-02-6.74842E-05 1.70694E-05
 -1     26889-6.48362E-02 2.80975E-02-7.53298E-04-1.71589E-02 1.40007E-03 4.01179E-04
 -1     26890-4.29971E-02 5.21871E-02 7.32404E-04 4.33300E-02-3.46756E-06 1.22661E-04
 -1     26891 5.50408E-02 2.52358E-02-1.72681E-05 1.17097E-01-1.43216E-05 4.44374E-05
 -1     26892 5.57838E-02 2.56504E-02 4.87672E-05 1.19021E-01-3.82895E-05 2.39591E-05
 -1     26893 7.38303E-02 5.44072E-02-9.60148E-05 1.88352E-01 1.30297E-04-5.17418E-06
 -1     26894-1.77637E-01 7.33446E-02 6.72689E-06-8.82154E-02-3.48847E-05-1.96161E-05
 -1     26895 9.22817E-02 2.62405E-02-2.31120E-05 1.72966E-01 2.02730E-05 9.61822E-05
 -1     26896-2.25300E-01 9.12913E-02-9.71560E-06-1.17500E-01-1.56176E-05-7.49938E-05
 -1     26897-2.19074E-01 8.89360E-02-1.68635E-05-1.13619E-01 1.00191E-05 5.74295E-06
 -1     26898-2.13388E-01 8.70412E-02 5.55407E-06-1.09234E-01-2.29171E-06-1.90850E-05
 -1     26899-2.26212E-01 9.16491E-02 2.25335E-05-1.17901E-01 1.05554E-05 1.10166E-05
 -1     26900-2.20004E-01 8.92869E-02 4.29609E-06-1.14048E-01-9.82849E-06 4.12201E-05
 -1     26901 2.46716E-03-1.61489E-02-3.81742E-06 2.18521E-02 1.62684E-05 1.76119E-05
 -1     26902-6.15782E-03-1.10651E-02 2.01476E-05 1.10450E-02-1.04317E-04 1.93239E-06
 -1     26903 7.20143E-02 5.01655E-02 1.95905E-05 1.81759E-01-1.57470E-05 3.84410E-05
 -1     26904-3.69493E-02 4.26149E-02-8.47770E-06 4.03875E-02 8.64937E-06 2.06208E-05
 -1     26905-1.87077E-02-6.79022E-03-1.38730E-08 4.33596E-02 1.42395E-05 8.60083E-06
 -1     26906-3.69185E-02 1.17004E-03-1.35806E-06 3.77447E-02 1.90516E-05-2.78476E-05
 -1     26907-4.37460E-02 6.74924E-03 4.52335E-07 3.67391E-02-8.57537E-06-1.47460E-05
 -1     26908-2.56372E-02-1.46727E-03 2.08059E-06 4.25515E-02-2.34791E-06 8.44184E-07
 -1     26909-1.00161E-01 7.18042E-03 1.97548E-05 1.05483E-02 2.35919E-04-1.68426E-05
 -1     26910-6.97965E-02-3.27457E-03-2.92853E-05 2.72830E-03 3.42548E-05-9.96100E-05
 -1     26911-9.09111E-02-2.03276E-04 1.04551E-05-1.99769E-03-5.08933E-05-7.82451E-05
 -1     26912-6.20946E-02 2.53164E-02 2.08304E-05 2.33884E-02 2.47095E-05-7.03748E-05
 -1     26913-6.20760E-02 2.32138E-02 3.15935E-06 2.57100E-02-2.46310E-05-6.03157E-05
 -1     26914-9.51823E-02 3.82831E-02 9.69618E-07 6.92740E-03-2.16212E-05 5.64989E-05
 -1     26915-1.86803E-01 7.68637E-02-1.39880E-05-9.38963E-02 2.31069E-05 8.97142E-05
 -1     26916-1.75860E-01 7.46739E-02-2.52748E-05-8.20800E-02 7.69569E-06 2.90200E-05
 -1     26917-1.72294E-01 7.45439E-02 2.03037E-05-7.66995E-02-2.02854E-06-8.65372E-05
 -1     26918-1.76593E-01 7.50435E-02-6.41852E-06-8.22134E-02 4.07260E-06 1.36865E-05
 -1     26919-1.79948E-01 7.49823E-02-2.32576E-05-8.78343E-02 7.20382E-06 5.06746E-05
 -1     26920-1.66177E-01 7.30743E-02-1.50231E-05-7.05781E-02-1.71432E-05-6.14933E-05
 -1     26921-1.60872E-01 7.16884E-02-6.39570E-06-6.57586E-02-6.12852E-06-1.66074E-05
 -1     26922-1.58698E-01 7.05737E-02-4.36805E-07-6.50285E-02-1.90326E-05 8.53870E-08
 -1     26923-5.15914E-02 4.82035E-02 3.79555E-06 3.76963E-02-3.95810E-04 1.43558E-04
 -1     26924-6.92354E-02 3.88342E-02-3.12997E-06-2.38553E-03-8.00601E-05 1.01350E-04
 -1     26925-6.13815E-02 4.76815E-02 4.31429E-06 2.70283E-02 7.23813E-05 1.33971E-04
 -1     26926-4.98801E-02 5.85049E-02-3.54011E-06 6.51421E-02-1.02803E-04-2.10751E-04
 -1     26927-2.19314E-01 6.02334E-02 7.44497E-04 1.12888E-02 3.59879E-04 5.64703E-04
 -1     26928-2.34137E-01 5.56833E-02-2.65988E-04 1.51815E-02-8.72833E-04 1.59892E-04
 -1     26929-1.93084E-01 4.73260E-02-1.23519E-04 1.22074E-02 3.14684E-04-3.41920E-04
 -1     26930-1.86009E-01 3.73657E-02 1.15342E-04 1.11299E-02 8.91008E-04 4.94893E-05
 -1     26931-2.27772E-01 4.08790E-02 4.82038E-04 1.25786E-02 6.86001E-05-1.80949E-04
 -1     26932 2.70127E-03 4.66039E-02-7.09755E-07 9.13447E-02-6.53433E-06-4.10400E-06
 -1     26933-1.64280E-01 6.99314E-02 1.02223E-05-7.56095E-02-2.14339E-05-1.78880E-05
 -1     26934-1.59278E-01 6.85182E-02 1.13891E-05-7.10414E-02-2.28164E-05-3.26173E-05
 -1     26935-1.53561E-01 6.80163E-02 4.56696E-06-6.30593E-02-7.25197E-08-2.99839E-06
 -1     26936-1.08393E-01 5.69058E-02 4.71207E-07-2.57965E-02 2.14749E-07 3.99893E-06
 -1     26937-1.37132E-01 6.86428E-02-8.75768E-07-3.92726E-02 1.32268E-05 1.11359E-05
 -1     26938-1.39528E-01 6.85833E-02 5.95117E-06-4.34256E-02 7.47935E-06 1.86471E-06
 -1     26939-1.94876E-01 8.01432E-02-1.52495E-05-9.81155E-02-7.26814E-05-6.24133E-05
 -1     26940-1.92392E-01 7.92445E-02-1.81123E-05-9.65231E-02-1.03085E-05-4.14853E-05
 -1     26941-1.82698E-01 7.71137E-02-1.64623E-05-8.68429E-02-5.01131E-05 3.72580E-05
 -1     26942-1.72933E-01 7.48116E-02-2.08271E-05-7.70700E-02-2.72601E-05-9.09353E-06
 -1     26943-1.80232E-01 7.62852E-02 1.38599E-06-8.50417E-02 3.70824E-05 2.18862E-05
 -1     26944-7.16319E-02 3.23432E-02-4.08795E-05 1.56990E-02-9.06097E-06-2.10106E-05
 -1     26945-4.07170E-02 1.83746E-02 6.93794E-05 3.44615E-02 1.91694E-05 1.01962E-05
 -1     26946-4.78703E-02 2.02599E-02-4.01962E-06 3.06651E-02 5.75430E-05 1.36833E-05
 -1     26947-2.55386E-02 3.26545E-02-1.63964E-06 4.54617E-02 8.75035E-06 3.51868E-06
 -1     26948-1.24525E-01 5.30639E-02 6.56137E-06-1.47725E-02 1.73993E-05 8.30794E-06
 -1     26949-1.25835E-01 5.37376E-02 1.05739E-05-1.62682E-02-1.30608E-05-1.27596E-05
 -1     26950-1.21878E-01 5.29570E-02 4.45801E-05-1.78600E-02 4.63942E-06-3.59699E-05
 -1     26951 1.99231E-02 4.98641E-02-1.08031E-06 1.16137E-01-1.10708E-05-4.53170E-06
 -1     26952 2.38265E-02 4.75612E-02 6.56680E-09 1.17780E-01-2.66918E-06-1.41343E-05
 -1     26953-7.98602E-02 4.11912E-02-7.67803E-08-1.15732E-02-1.03066E-05-4.92822E-05
 -1     26954-1.59009E-01 6.93011E-02-1.56740E-05-6.82929E-02 5.06049E-05-1.09612E-05
 -1     26955-1.75678E-01 7.26463E-02-4.96463E-06-8.72394E-02 2.04128E-05-2.33528E-05
 -1     26956-1.69669E-01 7.13084E-02 3.69137E-06-8.07833E-02 1.54512E-05-2.15541E-05
 -1     26957-6.95090E-02 4.19997E-02 1.57677E-04-3.23264E-03 6.09991E-05 6.86463E-04
 -1     26958-1.17837E-01 6.66299E-02-7.70900E-06-1.40447E-02 6.65525E-06 3.31312E-05
 -1     26959-1.43713E-01 6.42997E-02-4.23947E-08-5.66789E-02-2.01377E-06-6.53247E-06
 -1     26960-1.60600E-01 6.94419E-02 4.51481E-06-7.06820E-02 1.26112E-05 1.36858E-05
 -1     26961-4.48113E-02 6.18417E-02-3.99201E-07 6.06627E-02-6.14469E-06-2.41176E-06
 -1     26962-5.66289E-02 6.11549E-02 6.52395E-07 4.56657E-02-6.01521E-06-1.30034E-05
 -1     26963-6.52308E-02 6.29787E-02-1.08057E-06 3.96216E-02-2.51180E-06 6.82225E-06
 -1     26964 3.95503E-02-9.66083E-03-1.73552E-06 8.11478E-02-1.74348E-05 1.28094E-05
 -1     26965 5.50308E-02 6.32865E-02-1.92686E-05 1.77900E-01-4.17901E-05-7.56967E-05
 -1     26966 4.95503E-02 6.48930E-02 8.07585E-06 1.73208E-01 3.50067E-05-1.45589E-05
 -1     26967-1.89675E-01 7.93328E-02 1.47363E-05-8.88196E-02-3.27526E-05-1.90549E-05
 -1     26968-1.77804E-01 7.53834E-02 5.81476E-06-7.74313E-02-2.01676E-05-8.20303E-06
 -1     26969-1.74703E-01 7.40704E-02-4.72067E-06-7.73884E-02-2.89954E-06-2.72588E-05
 -1     26970 6.38316E-02 2.38401E-02 1.19977E-05 1.27531E-01 3.12910E-05 6.23802E-06
 -1     26971 7.40554E-02 1.08820E-02-1.52752E-05 1.21600E-01-1.19541E-05-4.39624E-05
 -1     26972 5.82020E-02 2.75781E-02 5.20394E-05 1.25547E-01 1.02237E-05 2.47721E-05
 -1     26973 7.04765E-02 1.42451E-02 1.77769E-05 1.22017E-01-2.74016E-05-4.90096E-06
 -1     26974 7.42809E-03 4.41894E-02-5.31306E-08 9.38131E-02 1.25406E-07-7.60975E-06
 -1     26975-1.71972E-01 7.30611E-02-6.65919E-06-7.68816E-02 1.24874E-05-2.26383E-05
 -1     26976-1.75750E-01 7.41484E-02-1.82504E-06-8.25361E-02 2.79444E-05-2.57391E-06
 -1     26977-3.24707E-02 1.01774E-01-3.15778E-07 1.41398E-01-2.21081E-05-1.43959E-04
 -1     26978-4.61564E-02 1.09788E-01 1.26959E-06 1.43586E-01-1.26388E-05 1.73486E-05
 -1     26979-3.34527E-02 7.94825E-02-1.46404E-04 1.27111E-01 2.05469E-04-3.66953E-04
 -1     26980-4.96615E-02 9.47731E-02 4.28313E-04 1.36843E-01 4.72895E-04 1.90504E-03
 -1     26981-2.14059E-01 8.73735E-02 2.02733E-05-1.09155E-01 7.57243E-06 3.23538E-06
 -1     26982-2.15115E-01 8.79625E-02-1.57785E-05-1.09155E-01-1.01094E-05 3.61830E-05
 -1     26983 1.00281E-01-9.77784E-03 2.37350E-06 1.33015E-01 1.00042E-05-1.19798E-06
 -1     26984 9.83806E-02-1.88125E-03-2.24490E-06 1.41570E-01-1.73103E-05-1.20205E-05
 -1     26985 6.39676E-02 1.74532E-03 2.93145E-05 9.23768E-02 6.54258E-05 5.76595E-05
 -1     26986 8.41872E-02-9.20804E-03 2.12768E-06 8.42289E-02 9.86038E-06 6.87320E-06
 -1     26987 8.29814E-02-7.84142E-03 1.95034E-06 8.24391E-02-1.74060E-05 5.13827E-06
 -1     26988 8.03970E-02-4.62842E-03-2.86556E-06 8.47925E-02-3.57127E-05-2.61505E-05
 -1     26989 8.10731E-02-5.46318E-03 4.30620E-05 8.20279E-02 2.77284E-05-2.11076E-05
 -1     26990 6.81220E-02 2.15251E-03-7.77067E-06 9.61518E-02 1.05191E-05 5.04133E-05
 -1     26991 6.33120E-02 8.06969E-03-9.69030E-07 1.00437E-01-4.20870E-05-4.95328E-05
 -1     26992 8.44280E-02-2.16186E-02 1.50660E-05 6.51288E-02-3.11518E-05 1.54796E-04
 -1     26993 8.23935E-02-7.98888E-03 8.50073E-06 8.73012E-02-2.28467E-05-3.08115E-05
 -1     26994 7.87279E-02-4.21830E-03 2.27987E-06 8.82537E-02-9.89516E-05-4.31526E-05
 -1     26995 7.66321E-02-2.94340E-03-2.00852E-05 9.03698E-02 1.94879E-05 3.01713E-05
 -1     26996 8.07882E-02-6.81655E-03 7.03997E-06 8.86381E-02 1.56224E-05-6.89536E-06
 -1     26997 7.56367E-02-3.85307E-03 2.76761E-06 9.34100E-02-2.91805E-05 2.45289E-06
 -1     26998 8.14430E-02-8.16737E-03 1.32325E-06 9.26267E-02-5.28337E-06-1.69639E-05
 -1     26999 4.92243E-02 2.26956E-02-1.84204E-05 1.04931E-01 2.47783E-05 4.03980E-05
 -1     27000-4.85722E-02 8.86326E-02-1.60733E-04 8.64149E-02 6.41513E-04-2.37941E-05
 -1     27001-4.76323E-02 4.95843E-02-8.64473E-05 3.94616E-02-1.04321E-04-3.01741E-04
 -1     27002 5.84322E-02 1.52201E-02 1.73993E-05 1.06272E-01 1.80741E-05-1.64778E-05
 -1     27003-7.85492E-02 1.59595E-01 1.27497E-04 1.18246E-01 9.26710E-04 2.89855E-04
 -1     27004 6.06794E-02 2.46570E-03-2.17232E-05 9.14286E-02 1.86812E-05 1.35939E-05
 -1     27005 1.16504E-02 7.46428E-02-1.53453E-04 1.39349E-01-3.27406E-04 4.31083E-05
 -1     27006 1.95152E-02 7.49659E-02-6.04875E-05 1.48699E-01 9.98484E-05-5.48554E-07
 -1     27007-1.27814E-02 9.07860E-02-6.63870E-05 1.37378E-01-9.62607E-05-1.09134E-04
 -1     27008 5.27605E-02 1.53763E-02 1.53473E-05 9.83352E-02-4.63702E-05-1.79839E-05
 -1     27009 5.20084E-02 1.46599E-02-2.43981E-05 9.57596E-02 2.40678E-05-2.33726E-05
 -1     27010-7.88559E-02 6.98231E-02 2.78038E-06 5.11473E-02-1.32520E-06-2.54225E-05
 -1     27011-8.85728E-02 6.65895E-02-7.62126E-07 3.17271E-02-2.26908E-05 1.14461E-06
 -1     27012 9.34339E-02 4.69325E-02-9.28916E-06 2.05340E-01-5.20120E-06-6.24893E-07
 -1     27013 8.12457E-02 3.82590E-02-4.34165E-06 1.74453E-01-3.49507E-05 6.02747E-05
 -1     27014-8.02454E-03 6.52639E-02-1.08038E-06 1.07724E-01-7.38675E-07 2.49700E-06
 -1     27015-1.22277E-01 5.51612E-02-1.79405E-05-4.60243E-02 5.84934E-05 6.89805E-05
 -1     27016-1.17438E-01 5.56582E-02-3.01026E-05-3.59801E-02 1.19893E-05-6.25082E-05
 -1     27017-1.27145E-01 5.73525E-02-2.82141E-05-4.82106E-02 7.52625E-05 2.18174E-05
 -1     27018-1.29057E-01 5.55264E-02-1.12002E-05-5.66235E-02 7.76071E-06 6.70997E-05
 -1     27019-1.24020E-01 5.60744E-02-2.72447E-05-4.64771E-02 9.42190E-07-2.03378E-05
 -1     27020 5.00993E-02 2.39449E-02 6.38826E-06 1.08096E-01 1.36574E-06 2.84510E-05
 -1     27021 5.27041E-02 2.41391E-02 1.04838E-06 1.12109E-01 5.29687E-05 2.94489E-05
 -1     27022 9.18329E-02 1.91360E-02-1.32746E-05 1.61441E-01-3.38284E-05-3.06035E-05
 -1     27023 9.59820E-02 1.06944E-02-5.27966E-06 1.55624E-01-1.21601E-05-4.74456E-05
 -1     27024 9.29613E-02 1.23421E-02-6.18516E-06 1.52860E-01-3.73660E-05 2.63088E-05
 -1     27025 9.09465E-02 1.74716E-02-3.32900E-06 1.57624E-01 6.29926E-06 7.88969E-05
 -1     27026 8.20702E-02-1.48324E-03 1.24800E-08 1.12692E-01 2.25191E-05 2.21501E-05
 -1     27027-1.23169E-01 6.53696E-02 3.12364E-06-2.23602E-02 9.01434E-06-1.49412E-05
 -1     27028-1.15331E-01 6.61506E-02-1.22637E-06-1.03804E-02-7.12814E-06-5.02065E-06
 -1     27029 9.70991E-02-5.22836E-03-2.42455E-05 1.32342E-01 7.76780E-06-1.23264E-05
 -1     27030 9.68589E-02 4.34924E-03-5.66534E-09 1.47328E-01 1.26218E-06 2.19732E-05
 -1     27031 4.29969E-02 6.75544E-02 8.34133E-05 1.67623E-01 1.32990E-04-1.21390E-04
 -1     27032 5.21334E-02 6.41820E-02-1.25179E-04 1.73872E-01-2.15966E-05 1.34098E-04
 -1     27033 5.66996E-02 6.13354E-02-1.03636E-04 1.76107E-01-1.67129E-05 1.52320E-04
 -1     27034 4.73219E-02 6.44782E-02 7.92584E-05 1.69272E-01 1.51240E-04-8.92018E-05
 -1     27035 5.80246E-02 6.11244E-02-8.24774E-05 1.77389E-01 2.39423E-04 3.60793E-05
 -1     27036 9.27076E-02 2.10227E-02 3.83571E-05 1.65903E-01 4.61259E-05 3.80797E-05
 -1     27037 9.55618E-02-7.83141E-03-3.42696E-06 1.24897E-01-6.65715E-06 4.07807E-05
 -1     27038 9.20784E-02 1.76636E-02 8.26553E-06 1.59749E-01 3.64637E-05 5.53455E-05
 -1     27039 9.76094E-02 4.20445E-03 2.30490E-07 1.49626E-01 1.47473E-05-1.62223E-05
 -1     27040-8.54932E-02 6.62630E-02 8.46957E-06 2.44504E-02-1.12349E-05-6.44976E-06
 -1     27041-1.66425E-01 6.97157E-02 3.23499E-06-7.99576E-02-2.96613E-05-7.97937E-06
 -1     27042-1.78681E-01 7.31315E-02 1.97680E-06-9.07217E-02-3.29721E-05 3.10693E-05
 -1     27043-1.72855E-01 7.08587E-02-1.93706E-05-8.75954E-02 8.14996E-06 4.67029E-06
 -1     27044-1.33019E-01 6.73520E-02 3.18447E-06-3.75784E-02-3.13765E-06 1.34520E-05
 -1     27045-1.35382E-01 6.71496E-02 4.47399E-06-4.17664E-02-1.97265E-05 3.32841E-07
 -1     27046-1.20759E-01 6.49625E-02 1.05086E-06-2.60552E-02-3.07496E-06-1.51711E-05
 -1     27047 9.53913E-02-2.88537E-02-5.30396E-05 1.05757E-01-2.04365E-05 3.59179E-05
 -1     27048 8.51362E-02-2.29742E-03 5.94042E-07 1.16178E-01 2.01889E-05 2.60420E-05
 -1     27049 8.72597E-02-2.19400E-03 1.06038E-06 1.20134E-01 3.03233E-05 2.47061E-05
 -1     27050 5.86788E-02 2.02529E-03 1.26446E-05 9.06586E-02 7.60540E-05-9.74963E-06
 -1     27051 5.66546E-02 2.46061E-03-4.71133E-05 8.90543E-02 5.87431E-05 4.15334E-05
 -1     27052 5.70911E-02 5.04345E-03-3.99825E-05 8.98719E-02 8.98985E-05-1.25523E-05
 -1     27053 5.84673E-02 2.98510E-03-3.74379E-05 9.03269E-02-6.02426E-05 5.76746E-05
 -1     27054 5.76481E-02 2.19274E-03 3.20873E-05 8.99052E-02 3.53059E-06 1.03558E-05
 -1     27055 5.94313E-02 2.61848E-03-8.13425E-06 9.09123E-02-3.93100E-05-4.73399E-06
 -1     27056-1.23653E-01 4.62898E-02-7.10016E-07 3.53079E-03 7.50458E-05-3.71856E-05
 -1     27057-1.11245E-01 4.48390E-02 1.81582E-06 4.40155E-04-1.13307E-04 1.51151E-05
 -1     27058-9.65804E-02 6.71921E-02-3.36220E-06 1.50974E-02 1.66119E-08-1.18729E-05
 -1     27059-9.34878E-02 6.73673E-02 4.99893E-06 2.10969E-02-1.34285E-06 1.24378E-06
 -1     27060-8.53924E-02 6.73547E-02-5.24978E-06 2.84976E-02 2.08534E-05 4.29085E-05
 -1     27061-1.33356E-01 6.06483E-02 1.09448E-06-4.66732E-02-3.85965E-06-4.32665E-06
 -1     27062-1.30960E-01 6.02637E-02-2.52022E-06-4.57433E-02-7.69401E-06-7.11833E-06
 -1     27063-6.50001E-02 1.29987E-01-5.30582E-05 1.34794E-01 1.02822E-04-1.42696E-04
 -1     27064-6.16480E-02 1.13285E-01-3.57813E-05 1.34491E-01 5.38523E-05-1.56383E-04
 -1     27065-6.04538E-02 1.09237E-01-5.22686E-05 1.30000E-01-4.00343E-05-7.50340E-05
 -1     27066-6.01470E-02 1.10271E-01 8.03289E-05 1.38010E-01 5.53310E-05 9.14626E-06
 -1     27067-8.81878E-02 1.49995E-02 1.05995E-06 2.32219E-02-9.54641E-06 1.15997E-05
 -1     27068 8.43871E-02-1.32584E-02 1.52218E-06 7.16100E-02 3.84292E-05 4.46396E-06
 -1     27069 7.86785E-02-7.33352E-03 9.24657E-06 6.73307E-02-3.39144E-05 2.20526E-05
 -1     27070 8.56868E-02-1.30521E-02-2.26312E-05 7.50374E-02-3.51775E-05-3.33937E-05
 -1     27071 5.06836E-02 6.47907E-02-7.72372E-05 1.73561E-01 3.37513E-05 1.16741E-04
 -1     27072 2.65927E-02 7.31520E-02-7.15632E-05 1.57901E-01-6.16540E-05-1.45310E-05
 -1     27073 5.15792E-02 6.45482E-02 6.36905E-06 1.74622E-01 1.20403E-04 3.08836E-05
 -1     27074 2.85013E-02 7.24267E-02 9.60520E-05 1.59286E-01-2.00629E-04-4.12183E-04
 -1     27075-1.54992E-01 4.33964E-02-1.32907E-05 1.09677E-02 1.88428E-05 5.13796E-05
 -1     27076-1.38142E-01 3.94962E-02 6.25417E-07 1.31788E-02-5.16800E-05-1.68242E-05
 -1     27077 2.89042E-02 7.16322E-02-1.93961E-05 1.58216E-01-5.42574E-05 4.23388E-05
 -1     27078 6.92923E-02 5.96292E-02 3.95545E-05 1.91473E-01 5.20362E-05 1.62861E-05
 -1     27079 5.06149E-02 6.47674E-02 1.09837E-04 1.73615E-01 6.50501E-05-7.60268E-05
 -1     27080 9.03265E-02-2.98375E-02 1.28976E-05 1.00766E-01-8.47892E-05 7.39238E-05
 -1     27081 7.66717E-02-2.52003E-02 9.45093E-06 9.66713E-02 8.13502E-05-4.61167E-05
 -1     27082-5.03752E-02 5.20894E-02 5.00446E-04 3.63607E-02 4.14240E-04-4.55313E-04
 -1     27083 6.86220E-02-2.43332E-02-3.60965E-05 9.11463E-02 2.39530E-05 2.93297E-05
 -1     27084 7.25847E-02-2.17513E-02 2.22847E-05 9.75358E-02 2.06988E-05 1.00970E-04
 -1     27085-1.26308E-01 5.28491E-02-7.72119E-06-6.05797E-02 6.27099E-05 3.34482E-05
 -1     27086-1.09409E-01 5.05475E-02 1.96056E-06-3.65720E-02 1.09013E-05-6.28111E-05
 -1     27087-1.23918E-01 5.12977E-02 4.61576E-05-6.10348E-02-6.47239E-05 5.28476E-05
 -1     27088-1.17620E-01 5.06795E-02 1.84327E-05-5.05895E-02-6.29558E-05-2.70356E-05
 -1     27089-1.05980E-01 4.88061E-02-3.26483E-05-3.66439E-02-1.08071E-04-1.49761E-04
 -1     27090-7.07149E-02 4.77319E-02-3.51038E-06 1.67330E-02 3.62778E-05 2.48061E-05
 -1     27091-8.99799E-02 4.52064E-02-1.09031E-05-1.71823E-02 1.22562E-06 7.81400E-05
 -1     27092-6.54807E-02 5.24719E-02 1.94628E-06 4.00619E-02-2.08263E-05-1.79114E-04
 -1     27093-8.16486E-02 4.97966E-02-6.66762E-06 7.24760E-03 6.08863E-05 1.56916E-05
 -1     27094 7.27536E-02-2.77171E-02 1.73019E-06 9.00054E-02 1.74824E-05-7.41624E-05
 -1     27095 8.57944E-02-2.04361E-02-7.22322E-05 6.76608E-02 1.50662E-05-3.74859E-06
 -1     27096 8.56340E-02-2.11950E-02 1.79242E-05 6.68536E-02 1.41986E-04-2.79242E-04
 -1     27097 8.99081E-02-2.60235E-02 5.74449E-06 7.05048E-02 9.48637E-05-7.16177E-05
 -1     27098 8.74600E-02-1.92288E-02 5.67015E-05 7.14854E-02 8.12593E-05 4.55682E-05
 -1     27099 6.74863E-02 5.26589E-02 8.43146E-06 1.79269E-01-1.02694E-05 1.60040E-06
 -1     27100 5.90515E-02 5.04737E-02 5.81436E-06 1.65382E-01-7.40366E-06 6.79878E-05
 -1     27101 5.59743E-02 5.20989E-02-2.63273E-07 1.63684E-01-1.56087E-05 5.71013E-05
 -1     27102-2.18189E-01 8.85428E-02-1.00590E-05-1.13269E-01-1.46835E-05 1.30088E-05
 -1     27103 8.38496E-02 4.68103E-02-3.85716E-06 1.93080E-01-2.01700E-05-9.67806E-06
 -1     27104 8.57348E-02 4.58846E-02 5.12932E-06 1.94386E-01-1.72757E-06-1.38967E-05
 -1     27105-1.47113E-01 8.54883E-04 2.43646E-04-1.41675E-02 6.54447E-04-7.00331E-05
 -1     27106-1.23406E-01 1.07397E-03 8.48996E-05-1.61389E-02 3.04730E-04 3.74869E-05
 -1     27107-1.35646E-01 1.82838E-03 9.00987E-05-1.59446E-02-2.47272E-04-3.19817E-04
 -1     27108 2.77114E-02-2.75593E-03 1.95855E-05 1.75457E-02-4.32904E-05-5.49664E-05
 -1     27109 3.48026E-02-5.33018E-03-9.08546E-06 2.28342E-02-1.27997E-05 3.85815E-05
 -1     27110-8.59039E-02 6.63736E-02-6.10599E-06 2.43150E-02 1.77364E-05 1.61562E-05
 -1     27111-7.49139E-02 6.60226E-02-7.90026E-06 3.57890E-02 1.07569E-05 3.86900E-06
 -1     27112-2.07878E-01 2.52154E-02 3.42229E-05 1.11377E-02-2.35014E-04 4.16505E-04
 -1     27113-2.51723E-01 5.70414E-02-1.35970E-04 1.67229E-02-5.07112E-04-2.49434E-04
 -1     27114-2.36352E-01 2.38038E-02 3.69183E-04 1.59682E-02-7.68734E-04-1.04266E-03
 -1     27115-1.94030E-01 7.30542E-03-1.39213E-05-1.70841E-04-3.91468E-04-2.60078E-04
 -1     27116-2.11763E-01 1.44040E-02-3.34783E-04 8.78909E-03 4.63930E-04 9.82043E-04
 -1     27117-5.51938E-02 5.90642E-02 5.19523E-07 4.32159E-02-1.53179E-06 3.70806E-06
 -1     27118-1.12331E-01 4.85497E-02-6.08862E-06-4.89597E-02-6.07162E-05-4.54043E-05
 -1     27119-1.04022E-01 4.84058E-02 1.26605E-05-3.43044E-02-4.92582E-05 2.22780E-05
 -1     27120-5.75043E-02 9.68214E-02-2.92886E-04 8.13427E-02 2.80586E-04-7.58789E-04
 -1     27121-4.18303E-02 3.85477E-02 9.48382E-04 3.84979E-02 1.77887E-03-9.33569E-05
 -1     27122-5.61257E-02 1.42000E-01-2.76983E-03 1.16185E-01 5.81407E-03 9.64364E-05
 -1     27123-6.52930E-02 1.31187E-01 3.30174E-03 9.59713E-02 3.25078E-03-2.53894E-03
 -1     27124-5.53265E-02 9.43569E-02-1.14593E-05 1.10333E-01-6.69091E-05 5.97025E-05
 -1     27125-5.14360E-02 8.37989E-02-6.97338E-05 9.43353E-02 8.95796E-05-1.45455E-04
 -1     27126-1.07268E-02-5.04874E-03-2.16990E-05 2.20761E-03 9.31975E-05-6.85156E-05
 -1     27127 7.38841E-04-7.31546E-03-3.15270E-05 8.00512E-03-1.29254E-05 2.39583E-06
 -1     27128-5.73314E-03-2.74884E-03 3.78182E-06 7.09916E-04 4.34232E-05-4.77759E-05
 -1     27129-1.27911E-02-7.14903E-03 4.28460E-05 4.12765E-03-2.18065E-05-1.91939E-05
 -1     27130-1.03318E-03-9.37955E-03-2.32321E-06 9.54686E-03-1.45618E-05-5.53014E-05
 -1     27131-5.46095E-02-3.59464E-03 6.16832E-05-6.62255E-03 9.34108E-05-1.14997E-04
 -1     27132 8.22834E-02 4.80003E-02-8.49561E-06 1.92641E-01-1.84023E-05 6.52175E-06
 -1     27133 7.84728E-02 4.26612E-02 3.61150E-06 1.80076E-01 1.88066E-05-7.04206E-06
 -1     27134-6.44336E-03 5.15679E-02 1.42333E-07 8.75622E-02-3.54994E-06-3.25597E-06
 -1     27135-2.40570E-02-5.93274E-03-1.41116E-06 1.11459E-04 5.30953E-05 1.78628E-05
 -1     27136-2.18084E-02-7.32131E-03 7.22738E-05 2.85988E-03 3.17464E-05-1.37938E-05
 -1     27137-3.19176E-02-8.15590E-03 2.17497E-05 4.14999E-03 1.33229E-04-6.32447E-05
 -1     27138-6.83887E-02 1.38311E-01 8.57996E-05 1.28580E-01 4.77030E-05 1.99361E-04
 -1     27139-6.56460E-02 1.32076E-01 2.36081E-05 1.32549E-01-5.50931E-04-4.73165E-05
 -1     27140-2.27002E-02 9.81367E-02 2.32778E-05 1.42736E-01 1.86882E-04 1.14278E-04
 -1     27141-6.89590E-02 1.40500E-01 3.99108E-04 1.07850E-01-5.95292E-04 3.46817E-04
 -1     27142-1.32577E-01 6.52456E-02-2.54369E-06-3.68435E-02 1.35025E-05 2.72184E-05
 -1     27143-1.16155E-01 6.38554E-02 2.73680E-06-1.43834E-02 5.91338E-06-1.63661E-05
 -1     27144 9.77352E-02-3.07682E-02 4.70985E-06 1.03785E-01 8.96659E-05-3.20976E-05
 -1     27145-1.76460E-01 7.55389E-02 1.76848E-05-8.14577E-02-3.80783E-06-2.34347E-05
 -1     27146-1.74184E-01 7.50639E-02 6.88719E-06-7.91473E-02-6.43575E-05-5.10208E-05
 -1     27147-1.78193E-01 7.42815E-02-2.58471E-05-8.69111E-02-1.34165E-05-4.93677E-06
 -1     27148-1.83474E-01 7.54531E-02 1.21771E-05-9.22593E-02-1.52022E-05-4.04763E-05
 -1     27149-1.74980E-01 7.43768E-02-5.22118E-06-8.13654E-02 7.74387E-06-2.30741E-05
 -1     27150-1.69550E-01 7.25156E-02-8.61173E-06-7.72482E-02 1.37353E-05-2.74640E-05
 -1     27151-1.74655E-01 7.36036E-02-1.93000E-06-8.25879E-02-1.41176E-05-1.34656E-05
 -1     27152-1.78745E-01 7.57754E-02-3.36219E-05-8.40682E-02-4.32529E-05-1.25828E-05
 -1     27153-1.92501E-01 8.02293E-02-1.86047E-05-9.46073E-02 4.65811E-05-4.83754E-05
 -1     27154-1.91065E-01 7.97245E-02 3.31520E-06-9.35612E-02 3.51271E-05 1.89753E-05
 -1     27155-1.90225E-01 7.95579E-02-5.42823E-05-9.28322E-02-4.01421E-05-6.77771E-05
 -1     27156-6.04561E-02 1.23117E-01-1.80589E-04 1.33979E-01-3.96829E-04-6.23810E-05
 -1     27157-5.82483E-02 1.17137E-01-2.20061E-04 1.41752E-01-5.70099E-04 2.34942E-04
 -1     27158-7.42693E-02 1.49665E-01-2.53366E-05 1.27770E-01 9.49846E-05 5.87108E-06
 -1     27159-5.81396E-02 9.84125E-02-7.80002E-06 1.31430E-01 4.08108E-05-1.28908E-04
 -1     27160-5.37205E-02 8.93995E-02 6.87481E-05 9.66195E-02-6.37910E-05 1.30720E-05
 -1     27161-6.18463E-02 1.19437E-01 9.77451E-07 1.20512E-01-3.63541E-04-2.03099E-04
 -1     27162-6.38244E-02 1.28139E-01-2.80569E-04 1.17117E-01 9.35170E-05 2.30093E-04
 -1     27163-5.23392E-02 8.69889E-02-2.92528E-04 9.10897E-02 1.92486E-04 7.88841E-05
 -1     27164-6.18119E-02 1.19739E-01-4.10745E-05 1.14982E-01-3.93657E-04-2.23662E-04
 -1     27165-5.79229E-02 1.00168E-01 7.09249E-05 1.19094E-01-1.08015E-04-2.68324E-05
 -1     27166-5.74399E-02 1.01357E-01-8.35182E-05 1.18508E-01 1.86808E-04 1.19188E-04
 -1     27167-6.15232E-02 1.20731E-01 6.56774E-05 1.25423E-01-2.67305E-04 1.16292E-04
 -1     27168-1.35575E-01 6.10806E-02 5.04016E-07-4.71949E-02-1.79095E-06-2.23181E-06
 -1     27169-1.50795E-01 6.60089E-02 4.62838E-08-5.89232E-02-7.71771E-06 1.00988E-06
 -1     27170-2.25626E-01 9.41979E-02 1.02574E-06-1.06673E-01-5.67114E-05-5.52733E-05
 -1     27171-1.74124E-01 4.84046E-02 3.25198E-06 1.23412E-02 4.36486E-05-1.05385E-04
 -1     27172 1.84359E-02-1.14437E-02 2.16939E-05 1.79215E-02-6.55243E-05-5.96742E-05
 -1     27173 1.71810E-02-1.60994E-02-1.30295E-05 2.29886E-02-2.65398E-05 4.68625E-05
 -1     27174 7.55695E-03-1.06960E-02-3.57874E-05 1.38203E-02 4.47964E-06 4.13916E-06
 -1     27175 9.52589E-02 5.65503E-02 7.68326E-05 2.22903E-01-3.07714E-05 4.27623E-05
 -1     27176 9.11751E-02 5.45524E-02 1.51757E-05 2.14118E-01-6.70102E-05 1.94040E-05
 -1     27177 9.21361E-02 5.49058E-02-2.71806E-05 2.15807E-01-2.52981E-05-2.87452E-05
 -1     27178 9.12662E-02 5.54468E-02-3.08183E-05 2.15404E-01-1.66538E-05-1.51218E-05
 -1     27179 8.77037E-02 5.31252E-02-9.74508E-06 2.07045E-01-7.42275E-06 4.14633E-06
 -1     27180-6.03711E-02 1.10322E-01 9.26667E-05 1.32804E-01-9.67014E-05-9.69281E-05
 -1     27181-5.63131E-02 8.88925E-02 1.52046E-05 1.15660E-01-4.95060E-05 1.07914E-05
 -1     27182-5.89771E-02 9.56954E-02 2.16070E-05 1.26544E-01-1.12457E-04-2.02367E-05
 -1     27183-5.87836E-02 8.93463E-02 3.17605E-06 1.17570E-01-4.74124E-05-6.42856E-05
 -1     27184-6.00205E-02 8.49947E-02 6.57081E-06 1.09603E-01 7.34648E-05 4.55295E-05
 -1     27185 1.54497E-02 5.20707E-02-1.68553E-08 1.14005E-01 4.76756E-07-1.90249E-05
 -1     27186 2.47010E-02 5.36390E-02-2.83807E-06 1.27189E-01 3.98464E-06 1.10273E-05
 -1     27187 2.84239E-02 5.15612E-02-1.15941E-06 1.28721E-01 8.38505E-06 1.06436E-05
 -1     27188-1.77627E-01 7.67087E-02-7.08326E-07-5.13568E-02 2.54119E-05 3.52009E-05
 -1     27189-1.03510E-01 6.43366E-02 2.17981E-07 5.46175E-03 5.38094E-06-3.02456E-06
 -1     27190-1.09111E-01 6.20247E-02-6.61702E-06-6.84445E-03 1.16763E-06-2.80815E-06
 -1     27191-1.01168E-01 6.03917E-02 4.73258E-07 2.28262E-03-3.70081E-05-1.05609E-05
 -1     27192-9.60414E-02 6.28907E-02 1.52538E-06 1.48016E-02 1.53446E-06-3.88361E-05
 -1     27193 1.98619E-02 4.35973E-02 4.69919E-07 1.07909E-01 5.28645E-06 4.28198E-06
 -1     27194 2.39690E-02 4.12155E-02 1.18640E-06 1.09954E-01 3.73511E-07 1.68702E-06
 -1     27195-2.83137E-01 8.02793E-02-8.78550E-04 1.51274E-02 2.72297E-03-8.95041E-04
 -1     27196-2.98889E-01 9.59869E-02-1.58850E-04 8.36247E-03 3.74544E-04-4.22696E-04
 -1     27197-2.65179E-01 4.77230E-02-5.09767E-04 1.19124E-02 2.02004E-03-5.01904E-04
 -1     27198-2.41366E-02 3.96779E-02-6.88355E-06 5.20548E-02 1.43416E-05 5.60486E-06
 -1     27199 4.88610E-02-1.96502E-02 1.67491E-05 3.67125E-02 7.53766E-06 1.71225E-05
 -1     27200 4.03867E-02-1.87091E-02-8.81007E-06 3.26984E-02-3.76596E-06-2.38050E-05
 -1     27201 4.00900E-02-1.31639E-02-1.65156E-05 2.87848E-02-5.51106E-05-4.01192E-05
 -1     27202 5.46400E-02 9.21525E-03 1.21980E-05 9.09588E-02-2.57550E-05-9.73063E-06
 -1     27203-9.09074E-04-2.59173E-03 1.52022E-05 2.94352E-03-3.54603E-05 6.48265E-06
 -1     27204-1.21283E-02-2.64159E-03 9.48035E-06-1.60691E-03 6.34698E-05 3.18093E-05
 -1     27205-4.33068E-02 6.46317E-02 2.85654E-06 6.78384E-02-1.34647E-06-3.00042E-06
 -1     27206-2.80852E-02 6.45073E-02 1.24372E-06 8.42812E-02-1.06967E-05 5.51434E-07
 -1     27207 7.18484E-02 5.97549E-02-7.60458E-05 1.94805E-01-5.02906E-05-1.93253E-05
 -1     27208 6.80114E-02 6.05521E-02-4.46806E-06 1.90858E-01-1.57252E-05-3.08176E-05
 -1     27209 6.31699E-02 6.15600E-02-5.63422E-05 1.85839E-01-1.11917E-05-1.02127E-04
 -1     27210 6.14064E-02-3.06152E-02-9.78682E-07 5.20205E-02-8.38894E-06-2.31719E-06
 -1     27211 6.92470E-02-3.16879E-02-4.75129E-07 5.58466E-02 2.11823E-05 1.39437E-05
 -1     27212-2.03580E-01 5.10373E-02-9.17246E-05 1.36393E-02 3.74923E-04 3.60564E-04
 -1     27213-2.00107E-01 1.02822E-02 4.57010E-04 3.37708E-03 4.13913E-04 5.85411E-04
 -1     27214-4.79423E-02 7.26187E-02-5.39158E-05 8.09180E-02 1.83265E-04 1.94363E-04
 -1     27215-4.48729E-02 6.43222E-02 2.20234E-04 6.94807E-02-2.55872E-04-2.02042E-04
 -1     27216-3.06654E-02-7.16089E-03-6.51478E-05 2.30275E-03-6.62760E-05 2.98924E-05
 -1     27217-3.76157E-02-9.18990E-03 1.94956E-05 1.16231E-02 1.27690E-04-4.16160E-05
 -1     27218 6.67812E-02-2.12961E-02-2.03229E-05 4.84932E-02-3.61381E-05 4.36252E-06
 -1     27219 3.25690E-02 4.94124E-02-9.93961E-07 1.30811E-01 3.05405E-06 1.70805E-05
 -1     27220 7.99495E-02 5.31186E-02 1.55672E-05 1.96708E-01-1.06387E-05 4.38635E-05
 -1     27221-4.84198E-02 4.53931E-02-4.05892E-08 3.02379E-02-2.06634E-05 1.16550E-05
 -1     27222 4.59105E-02 9.61353E-03 6.29109E-05 8.33245E-02-1.40566E-04 6.47169E-05
 -1     27223-3.00604E-02 3.91344E-02-5.34259E-06 4.49848E-02-4.96072E-06 3.23572E-06
 -1     27224-2.91894E-02 3.81832E-02-2.05931E-05 4.51704E-02-7.83955E-06-1.89995E-05
 -1     27225-3.60755E-02 3.72613E-02 1.33188E-05 3.71961E-02-1.83942E-05-8.14735E-06
 -1     27226 5.19584E-02 1.90957E-02-1.19255E-05 1.02999E-01 2.70757E-06 2.10050E-05
 -1     27227 5.08146E-02 2.25679E-02 5.69257E-06 1.06757E-01 6.56800E-05 2.15578E-05
 -1     27228 5.60084E-02 1.45127E-02-1.29285E-05 1.01302E-01-1.57508E-05-1.58395E-06
 -1     27229 5.48581E-02 1.75588E-02 2.69312E-05 1.04919E-01 5.11931E-05 3.11430E-05
 -1     27230-3.55260E-02-7.00714E-03-4.40785E-05 3.60637E-03-1.52407E-04 2.97613E-05
 -1     27231-4.24574E-02-8.63451E-03 3.90664E-05 1.27894E-02 1.26558E-04-1.00697E-04
 -1     27232-5.84509E-02 1.07670E-01-1.47464E-05 1.41130E-01-1.74200E-04 2.06045E-05
 -1     27233-7.47043E-02 7.12281E-02-9.52591E-08 5.28010E-02-4.23175E-06 1.34989E-05
 -1     27234-7.64285E-02 6.92450E-02 7.54781E-06 4.36229E-02-5.37454E-06-3.75698E-06
 -1     27235-3.91337E-02 5.06661E-02-4.34487E-07 4.79481E-02 2.78907E-06 4.86438E-06
 -1     27236 6.88694E-02 5.76327E-02 9.84109E-06 1.88381E-01-2.99511E-05-2.72855E-05
 -1     27237 5.93037E-02 5.63012E-02 2.15760E-05 1.73715E-01-7.49767E-05-5.08410E-05
 -1     27238 5.28364E-02 5.76329E-02-1.26068E-07 1.67379E-01 5.25212E-06 4.16064E-06
 -1     27239 6.86114E-02 5.76377E-02 8.09461E-06 1.88138E-01 7.58725E-06 5.74078E-05
 -1     27240 8.87744E-02 5.23372E-02-6.37679E-06 2.07401E-01-3.19135E-05-3.98827E-05
 -1     27241 1.00296E-01 5.87252E-02 3.05282E-05 2.33021E-01-2.38473E-05-2.86308E-06
 -1     27242 9.41792E-02 5.10070E-02 1.69585E-05 2.13103E-01 2.87837E-05 4.35470E-05
 -1     27243 1.00503E-01 5.88570E-02 1.57148E-05 2.33351E-01-8.63399E-05-2.12469E-05
 -1     27244 9.60560E-02 5.27552E-02-1.29474E-06 2.18272E-01 2.91731E-05-3.38901E-05
 -1     27245 6.69047E-02-3.49162E-02-1.54011E-06 6.21744E-02 4.96837E-07 6.64446E-06
 -1     27246 6.42288E-02-3.47067E-02-4.21402E-07 6.50110E-02 3.95063E-06 1.55059E-06
 -1     27247 6.11426E-02-3.37686E-02 1.82084E-06 6.74973E-02 8.62777E-06 1.55231E-05
 -1     27248 5.72508E-02-3.17437E-02 1.13904E-06 6.96651E-02 2.32076E-06-7.29029E-07
 -1     27249-9.76734E-02 4.55717E-02-8.93213E-06-3.10583E-02 4.83019E-05-1.00137E-04
 -1     27250-1.06444E-01 4.57222E-02 2.65009E-05-4.59889E-02 8.14088E-05 1.01232E-04
 -1     27251-1.72612E-02-4.91959E-03 1.98753E-05-7.10877E-05 1.33229E-05 3.11372E-06
 -1     27252 5.37334E-02 7.90047E-03-8.48820E-06 8.89039E-02-3.21276E-05-1.36207E-05
 -1     27253-1.58073E-01 2.64329E-03 2.61920E-04-1.22474E-02-7.74668E-04-8.04477E-05
 -1     27254-2.64533E-01 1.13771E-01 4.76035E-04-9.16539E-02 2.24022E-04 1.06279E-03
 -1     27255-2.55113E-01 1.08630E-01 3.21199E-04-1.09104E-01-1.83779E-04-2.52746E-04
 -1     27256-2.58304E-01 1.09314E-01-1.14559E-04-1.17602E-01-1.15088E-04-4.69823E-04
 -1     27257-3.69193E-02-7.74453E-03-8.66975E-06 5.91413E-03-1.43116E-04 8.38580E-05
 -1     27258-1.36291E-01 4.46499E-02 6.06640E-05 9.25168E-03 1.77152E-04-4.90850E-05
 -1     27259-5.24450E-01 1.91615E-01 2.27188E-03-3.31435E-03 7.36369E-03-7.71624E-03
 -1     27260-4.73591E-01 1.41555E-01 9.44029E-04 1.88074E-02 2.36846E-03 2.49018E-03
 -1     27261 4.91978E-02 3.13797E-02 2.33117E-07 1.29121E-01 5.01703E-06 9.86866E-08
 -1     27262-3.63676E-01 1.48268E-01 3.57446E-04-1.15429E-01 1.17104E-03 7.36539E-03
 -1     27263-5.54318E-01 1.92050E-01-5.90902E-03 1.20312E-02 7.03930E-03-3.09506E-03
 -1     27264-1.46374E-01 6.53399E-02 4.49648E-06-5.90704E-02-5.49919E-06-6.21363E-06
 -1     27265-1.58994E-01 6.91578E-02-1.00748E-05-6.95702E-02-5.69038E-06-2.44400E-05
 -1     27266-2.10552E-01 8.56635E-02-1.82121E-07-1.08742E-01 1.62733E-05 7.11365E-07
 -1     27267-2.11540E-01 8.59310E-02 1.52197E-06-1.09423E-01-1.06423E-07 7.84591E-05
 -1     27268-2.09232E-01 8.51451E-02-1.83628E-06-1.08096E-01 1.89320E-05 4.05358E-05
 -1     27269-3.39568E-02-3.81999E-03-1.93915E-05-5.21119E-03-2.19746E-04 1.23219E-04
 -1     27270-1.73651E-01 7.34901E-02-7.51539E-07-8.13574E-02-1.87041E-05 2.70121E-06
 -1     27271-1.58502E-01 6.90017E-02 3.50257E-06-6.91675E-02 5.92804E-06 2.84365E-05
 -1     27272 7.92294E-02-4.26664E-03-3.58026E-06 1.01325E-01-3.38259E-05-1.66077E-05
 -1     27273 8.52359E-02-9.56833E-03 8.12524E-07 1.00147E-01 3.18796E-06 1.41890E-05
 -1     27274-2.16157E-01 8.85746E-02-2.29341E-05-1.09042E-01-5.05177E-05-1.13906E-05
 -1     27275-2.13706E-01 8.73852E-02-2.34738E-05-1.08491E-01-4.49408E-05 1.60699E-05
 -1     27276-2.27566E-01 9.21427E-02 5.40627E-05-1.18478E-01-1.75360E-05 5.49298E-05
 -1     27277 3.93916E-02 1.62286E-02 2.67918E-06 8.18514E-02 4.67128E-05-5.41938E-05
 -1     27278 3.84121E-02 1.45671E-02-8.20394E-05 7.86649E-02-1.49945E-04 4.35648E-05
 -1     27279 8.31865E-02-1.44147E-02-1.98003E-05 6.75904E-02-1.07676E-05-1.54246E-06
 -1     27280 9.07514E-02 5.80079E-02-4.47954E-05 2.18250E-01 4.92851E-05-3.07512E-05
 -1     27281-6.08301E-03 7.55859E-02 6.89437E-06 1.26380E-01-6.06600E-05 7.98880E-05
 -1     27282 8.47733E-02 5.79977E-02-1.36081E-05 2.09945E-01-2.25943E-05-7.39748E-05
 -1     27283 6.86633E-02 5.76844E-02 7.16149E-07 1.88309E-01 1.33034E-05 3.40483E-05
 -1     27284 7.47968E-02 5.67120E-02-2.72619E-05 1.94706E-01-4.54993E-06-8.88121E-05
 -1     27285 9.39030E-02-1.94282E-02-4.18877E-08 9.27306E-02-5.43010E-06-1.24771E-05
 -1     27286 1.00979E-01-1.17960E-02-7.80348E-08 1.30142E-01 1.05161E-05 7.32258E-06
 -1     27287 5.92600E-02-6.94783E-03 2.52843E-05 4.22730E-02 4.27281E-05-5.62207E-05
 -1     27288-2.13016E-01 8.70498E-02-7.04556E-06-1.08716E-01 2.03285E-05-2.73925E-05
 -1     27289 4.02461E-02-1.88064E-02 7.87974E-06 3.25523E-02 3.06876E-05 3.06097E-05
 -1     27290 7.59130E-02 3.09863E-02 2.78894E-05 1.55836E-01 1.83871E-05-1.69439E-05
 -1     27291 7.69070E-02 3.13545E-02-2.10047E-06 1.57759E-01 1.08402E-05-1.29273E-05
 -1     27292 7.59308E-02 2.70896E-02-5.92177E-06 1.49839E-01-7.80779E-05-6.44242E-05
 -1     27293 7.69042E-02 2.74629E-02-1.35909E-05 1.51863E-01-8.99029E-05-1.20712E-04
 -1     27294 9.47991E-02 3.93466E-02-4.75243E-05 1.96138E-01 7.12940E-05-1.02937E-05
 -1     27295-2.26547E-02-6.04086E-03 3.29182E-05 4.97468E-04-2.43527E-06 5.69650E-05
 -1     27296-1.94328E-01 8.07244E-02-5.16192E-06-9.58306E-02-8.10455E-06-5.07796E-05
 -1     27297-1.74661E-01 7.45355E-02 3.84565E-05-8.09028E-02-7.77512E-06 3.69754E-05
 -1     27298-1.94357E-01 8.07006E-02 2.53693E-05-9.58594E-02 2.78155E-05 1.01051E-05
 -1     27299 5.23171E-02-1.34431E-02 2.46342E-05 3.63875E-02-3.86426E-07 3.33898E-05
 -1     27300 5.90020E-02-1.53834E-02 2.39563E-06 4.11118E-02 3.42045E-06 4.57991E-05
 -1     27301 4.26090E-02-5.50219E-03-1.50644E-06 2.81707E-02 2.87022E-05 1.93005E-05
 -1     27302-9.71925E-02 6.59247E-02 4.62754E-06 1.66433E-02 3.32354E-06 3.17858E-05
 -1     27303-1.02100E-01 6.63284E-02-8.34267E-07 8.91527E-03-3.86160E-06 6.83066E-06
 -1     27304-1.08929E-01 6.50321E-02-1.36506E-06-2.25284E-03 5.25327E-07-1.42100E-05
 -1     27305 7.20866E-02 2.44785E-02 2.33921E-05 1.40480E-01-6.14026E-05-2.07192E-05
 -1     27306 8.37466E-02 1.27552E-02-8.92212E-05 1.38568E-01 1.00213E-04 2.65514E-05
 -1     27307 6.96745E-02 3.10244E-02 1.95165E-05 1.46893E-01-2.44732E-05-1.88647E-06
 -1     27308 9.38057E-02 4.89255E-02-1.46179E-05 2.09490E-01-8.65753E-06 4.61715E-05
 -1     27309 9.34322E-02 4.68512E-02-2.45914E-05 2.05771E-01 8.41312E-05 2.02918E-06
 -1     27310 4.92560E-02 3.92591E-02-1.87231E-06 1.38554E-01 4.53438E-06 6.97886E-06
 -1     27311 4.25006E-02 3.63804E-02 1.34680E-06 1.26604E-01-1.49716E-06 5.68171E-06
 -1     27312 5.44439E-03-4.56094E-03-2.61023E-05 7.02932E-03-2.36666E-05-6.59350E-05
 -1     27313 3.76300E-02-5.62395E-03 1.91512E-05 2.46872E-02-3.38262E-05-2.93895E-05
 -1     27314 4.26916E-02-1.03414E-02 1.38604E-07 2.92722E-02-5.20604E-05-5.89326E-05
 -1     27315 4.02817E-02-5.72634E-03 1.24873E-05 2.64627E-02-4.21577E-05-5.25275E-05
 -1     27316 3.20067E-02-4.99148E-03-6.95536E-06 2.10246E-02 1.23357E-05 2.88215E-05
 -1     27317 8.38014E-02 2.00645E-02 1.50809E-05 1.57855E-01 1.28432E-05-1.48027E-05
 -1     27318 7.68858E-02 1.51126E-02-1.96229E-06 1.43534E-01-1.03310E-05-2.24152E-05
 -1     27319 7.97442E-02 1.21260E-02 1.49963E-06 1.42984E-01-2.03647E-05-3.28090E-05
 -1     27320-1.03758E-01 4.47868E-02-4.01789E-05-4.40269E-02 1.21215E-04-1.36668E-04
 -1     27321 3.57318E-02-3.57488E-03-1.93025E-05 8.25042E-02 1.56246E-06 1.52636E-05
 -1     27322 5.41665E-02-9.12708E-03 4.67949E-06 9.47452E-02-1.45999E-05-6.36023E-06
 -1     27323-1.70937E-01 7.39911E-02 1.90404E-05-7.57858E-02-7.22444E-06 4.07735E-05
 -1     27324-1.85067E-01 7.61617E-02-3.36332E-06-9.30208E-02-1.14452E-05-7.81140E-05
 -1     27325-1.93272E-01 8.03991E-02-1.56968E-05-9.51462E-02-6.09141E-06 5.50016E-05
 -1     27326-1.44919E-01 6.83793E-02 7.57823E-06-5.24101E-02 2.68294E-06 3.67988E-05
 -1     27327-1.57965E-01 7.11869E-02 5.90399E-06-6.41029E-02-7.33230E-07-7.66002E-06
 -1     27328 4.66167E-02 1.88961E-02-3.11315E-05 9.49509E-02-1.72785E-05 3.46089E-05
 -1     27329 4.77505E-02 1.91835E-02 4.36372E-06 9.70569E-02 1.53129E-05 2.89109E-05
 -1     27330 6.61254E-02-2.11077E-02-5.21688E-07 9.27549E-02 1.41559E-05-1.06137E-04
 -1     27331 1.86849E-02-4.88555E-03-1.60272E-07 6.79444E-02-9.91012E-06 2.82538E-09
 -1     27332 3.10317E-02-9.62267E-03-2.88619E-07 7.42456E-02 5.83556E-06 2.74684E-05
 -1     27333 2.69925E-02-5.80698E-03 1.66390E-06 7.37580E-02 1.12595E-06 1.06110E-05
 -1     27334 2.19722E-02-9.97235E-04-8.77851E-06 7.27804E-02 3.16854E-05 3.02210E-05
 -1     27335 8.70669E-02-2.69014E-02 5.11396E-05 6.67779E-02-6.95618E-05-7.60906E-05
 -1     27336 8.43366E-02-2.16028E-02 1.87770E-05 6.50682E-02 3.25467E-05-1.43153E-04
 -1     27337 7.17207E-02 5.63169E-02 1.75558E-05 1.90073E-01-2.08810E-05 2.88026E-05
 -1     27338 6.20547E-02 5.49573E-02 2.41609E-05 1.75380E-01-1.12403E-05-1.51540E-05
 -1     27339-2.18021E-01 8.83926E-02-7.23394E-06-1.13577E-01-1.13246E-05 2.04449E-05
 -1     27340-2.17352E-01 8.81632E-02 3.40711E-06-1.13071E-01-1.46824E-05 1.34352E-05
 -1     27341-4.25994E-02 2.93960E-02-3.43903E-08 2.96186E-02-2.65933E-06-2.13040E-06
 -1     27342 4.95887E-02 5.49468E-02-4.94321E-07 1.59704E-01-2.67097E-05-2.25361E-05
 -1     27343-2.42227E-01 1.03232E-01 1.49312E-04-6.06545E-02-2.53035E-04-3.88789E-04
 -1     27344-2.47538E-01 1.03202E-01-5.21647E-05-1.14370E-01-6.31083E-05-2.47868E-04
 -1     27345-2.43908E-01 1.03419E-01 3.75700E-07-1.06604E-01 2.64852E-04-2.74555E-04
 -1     27346-7.02970E-02 3.82098E-02-3.97082E-07 8.30942E-03-1.33949E-06 1.28914E-06
 -1     27347-5.79510E-02 3.34125E-02-2.52940E-06 1.83269E-02 5.63405E-06 8.25325E-06
 -1     27348-5.57847E-02 3.43144E-02-2.95038E-06 1.90125E-02 4.23860E-06 2.11292E-06
 -1     27349-1.89515E-01 8.15290E-02 3.79255E-06-6.67365E-02 1.80924E-05-6.02423E-06
 -1     27350-6.09613E-02 4.27135E-02-1.38813E-05 1.45099E-02 1.01068E-05 5.49730E-06
 -1     27351 1.00165E-01 5.88581E-02-7.45234E-07 2.32980E-01-1.09459E-05 7.60370E-06
 -1     27352 9.71524E-02 5.28557E-02 1.80617E-05 2.19724E-01 1.19574E-05 1.10170E-04
 -1     27353 9.57028E-02 4.74105E-02-4.68215E-05 2.09521E-01 7.77031E-06 3.10564E-05
 -1     27354 9.67481E-02 5.24127E-02-4.44138E-06 2.18374E-01-2.81654E-05-8.31861E-06
 -1     27355-6.82166E-02 6.10272E-02 1.59725E-07 3.18577E-02 8.59877E-06 5.50346E-06
 -1     27356-7.02920E-02 5.94427E-02-2.82875E-07 2.60881E-02 4.93209E-06 2.30095E-06
 -1     27357-8.14461E-02 6.12294E-02 2.47222E-06 1.60278E-02 4.36712E-06 2.95396E-07
 -1     27358 8.66337E-02 3.30040E-02 1.39915E-07 1.77978E-01-6.28425E-06 1.00884E-05
 -1     27359 8.97382E-02 3.27236E-02-5.77782E-06 1.80981E-01-1.06703E-05 5.66666E-06
 -1     27360 8.84890E-02 3.87404E-02 8.83289E-06 1.87937E-01-2.50263E-06 5.87945E-05
 -1     27361 8.86054E-02 3.89781E-02 7.04153E-06 1.88491E-01 4.55381E-06-6.05672E-05
 -1     27362 1.00819E-01 5.90717E-02 1.09552E-05 2.34210E-01-5.62133E-06-1.90557E-05
 -1     27363-1.12000E-01 1.58791E-02 9.78356E-07 1.62738E-02 5.70931E-05-8.52291E-05
 -1     27364-1.26885E-01 2.91758E-02-8.58781E-06 1.47344E-02-1.34955E-05-6.01759E-05
 -1     27365 7.41825E-03-8.22226E-03 1.89789E-05 1.06825E-02-3.95690E-05 5.67236E-06
 -1     27366 2.51616E-03-3.88819E-03-4.33315E-06 5.15391E-03 4.91760E-06 9.64676E-06
 -1     27367 1.10168E-02-4.10403E-03-1.65295E-05 9.11676E-03-8.66367E-06 2.68601E-06
 -1     27368 9.17418E-03-4.56491E-03-2.70764E-07 8.79255E-03-2.66904E-05 1.17992E-05
 -1     27369 9.99339E-02-2.12871E-02 1.34212E-05 1.07672E-01 1.11195E-05-7.59026E-05
 -1     27370 1.01949E-01-2.59368E-02-6.16016E-06 1.03741E-01-3.23732E-06-3.62306E-05
 -1     27371 1.01430E-01-2.03793E-02 2.66198E-06 1.13674E-01-3.00600E-05-3.01552E-05
 -1     27372-1.24378E-01 6.06817E-02 2.51406E-05-3.39587E-02 1.86947E-05-2.77929E-05
 -1     27373-1.38562E-01 6.04094E-02 3.69269E-06-5.88012E-02-7.02402E-05-6.47673E-06
 -1     27374-1.49094E-01 6.21770E-02-8.53487E-07-7.20896E-02-3.95105E-05-1.45269E-05
 -1     27375-1.42071E-01 5.96535E-02-2.16429E-05-6.73208E-02-4.03670E-06-6.67187E-05
 -1     27376-1.53749E-01 6.40499E-02 2.95177E-06-7.46486E-02 8.38492E-06-6.61264E-05
 -1     27377 6.59945E-02-1.33864E-02-2.17003E-06 4.74186E-02 8.59067E-05-5.17123E-05
 -1     27378-9.23299E-02 5.19303E-02 1.45833E-05-3.45410E-03 4.36601E-05 1.45378E-05
 -1     27379-8.43310E-02 5.59796E-02 8.17235E-07 1.96397E-02-3.66026E-05-3.45396E-05
 -1     27380-1.13275E-01 2.69221E-02-9.81524E-06 1.82248E-02 2.79374E-05-6.99953E-05
 -1     27381-1.12589E-01 3.25359E-02 5.93916E-05 1.53169E-02-1.45034E-04 2.71625E-05
 -1     27382-1.37210E-01 4.49200E-02 5.29783E-05 8.83508E-03-2.85254E-04 1.14633E-04
 -1     27383-1.00505E-01 1.60711E-02-1.81361E-05 1.94565E-02 1.14859E-05-3.76810E-05
 -1     27384 5.51593E-02 3.47334E-02 3.42100E-07 1.40453E-01-7.17107E-06-4.54569E-06
 -1     27385-1.22894E-01 5.15940E-02-7.02706E-06-5.86090E-02 4.77570E-06 1.32973E-05
 -1     27386-3.46633E-02 6.47615E-02-1.24582E-03 6.02384E-02-9.67767E-04-1.04884E-03
 -1     27387-3.36825E-01 9.30628E-02-2.91634E-03 5.10018E-03-1.50949E-03 1.66455E-03
 -1     27388 8.77128E-02-1.07835E-02-1.06426E-06 1.03035E-01 3.01815E-05 3.17059E-06
 -1     27389 8.23058E-02-5.28323E-03 1.51734E-06 1.04906E-01-2.04381E-06-1.36962E-05
 -1     27390 7.69523E-02-1.60076E-03 5.70759E-06 8.81054E-02 6.86282E-05 2.12549E-05
 -1     27391 7.58266E-02-1.55899E-03 1.42861E-05 9.00878E-02 8.06610E-06-3.91035E-05
 -1     27392-1.74868E-01 7.51968E-02 3.65319E-06-7.91997E-02-3.84551E-05-1.32006E-05
 -1     27393-1.86761E-01 7.67381E-02 5.35489E-06-9.42022E-02 7.26456E-07-2.11429E-05
 -1     27394 5.28420E-02-2.90853E-02 3.19583E-06 7.11843E-02 1.30714E-06 2.82768E-05
 -1     27395 4.86024E-02-2.58977E-02 1.82349E-06 7.26098E-02 9.21247E-06 9.59861E-06
 -1     27396 7.79853E-02-3.96847E-03 6.38604E-05 7.07055E-02-6.73759E-05-2.88444E-05
 -1     27397 8.36735E-02-1.05072E-02 2.78914E-05 7.44212E-02 5.64360E-05 1.68462E-05
 -1     27398 7.86322E-02-6.67098E-03 4.05550E-05 6.80217E-02-2.41575E-04 7.56023E-05
 -1     27399 8.26324E-02-9.51077E-03-3.68854E-05 7.31760E-02-1.43122E-04 1.18422E-05
 -1     27400 3.47602E-03 1.87783E-02-1.88527E-06 6.69638E-02 2.05456E-05 9.04151E-06
 -1     27401 9.15553E-02-1.47538E-02 1.29404E-06 1.01526E-01 7.82474E-06-1.93339E-05
 -1     27402 9.08082E-02-1.25396E-02-1.29204E-06 1.05489E-01 1.23462E-05-3.97688E-06
 -1     27403-1.43178E-01 5.94288E-02 2.70850E-05-6.97740E-02-2.17657E-05-3.91015E-05
 -1     27404-1.36284E-01 5.67535E-02 3.74308E-05-6.61148E-02 5.66970E-05-4.72057E-06
 -1     27405-1.32478E-01 5.77940E-02-3.08941E-06-5.62472E-02-1.02022E-05-2.89371E-05
 -1     27406 1.16919E-02 4.17730E-02 4.67210E-07 9.59169E-02-7.02508E-06-2.38068E-06
 -1     27407-1.64628E-01 2.88110E-02-1.95744E-05 1.10432E-02 8.17265E-04-9.77017E-07
 -1     27408-1.46137E-01 7.96337E-03-5.50917E-04-8.97715E-03-7.89587E-04-2.20252E-04
 -1     27409-1.65570E-01 8.75984E-03-4.03781E-05-5.55212E-03-1.77381E-03 4.84769E-04
 -1     27410 8.89471E-02-1.33916E-02 2.29179E-06 9.84654E-02-1.51380E-05 1.94248E-07
 -1     27411 8.78075E-02 5.30779E-02-1.09428E-05 2.07083E-01-1.26268E-06-1.26825E-05
 -1     27412 8.14598E-02 5.24271E-02-1.39115E-05 1.97682E-01 2.14502E-05-3.27206E-05
 -1     27413 1.00430E-01-1.27519E-02 4.39394E-06 1.27009E-01-1.27552E-05 8.47574E-06
 -1     27414-6.41117E-02 1.64987E-02-2.88131E-06 2.92492E-02 1.63782E-06 1.62334E-05
 -1     27415-4.57411E-02 1.22309E-02-1.63887E-06 3.50084E-02 1.17213E-05-3.34032E-05
 -1     27416 3.97628E-02 4.53188E-02-2.14565E-06 1.34240E-01 6.89064E-08 1.64641E-05
 -1     27417 2.77843E-02 4.54384E-02-1.36177E-06 1.19699E-01-1.09410E-05-1.10692E-05
 -1     27418-1.51522E-01 7.04321E-02 3.73861E-07-5.55179E-02-1.51409E-05-4.22632E-06
 -1     27419-1.64226E-01 7.26759E-02 2.21054E-06-6.87788E-02 3.81982E-05 6.70736E-06
 -1     27420 1.02854E-01-2.84191E-02 1.92187E-06 1.03849E-01-3.39277E-05-1.01262E-05
 -1     27421-1.68001E-01 7.36718E-02 5.89217E-06-7.23852E-02-2.54387E-06-8.48593E-06
 -1     27422-1.54944E-01 7.10078E-02-6.96319E-06-5.96316E-02 3.76426E-05 2.68043E-06
 -1     27423-1.71106E-01 7.43971E-02 6.41964E-06-7.53559E-02 4.82263E-05-2.12003E-05
 -1     27424 9.72267E-02-5.51014E-03-3.64030E-05 1.32011E-01 1.64032E-05 1.80883E-05
 -1     27425 7.39515E-02 4.90511E-02 1.90874E-05 1.82758E-01 7.01899E-05 7.71228E-05
 -1     27426-2.35128E-01 9.61963E-02 3.82147E-05-1.18902E-01-4.99494E-05-8.75542E-05
 -1     27427 2.06729E-03-3.84821E-03-2.06179E-05 4.93855E-03 1.03302E-05 1.19894E-05
 -1     27428 8.83011E-04-5.97767E-03-2.48744E-06 6.64109E-03 4.93574E-05-3.56450E-05
 -1     27429-6.38725E-03-2.51723E-03 1.52350E-05 6.03192E-04-1.59149E-05-1.67645E-05
 -1     27430-2.40660E-01 1.00224E-01-5.69422E-05-1.14632E-01 4.83472E-05-4.83810E-05
 -1     27431-2.53270E-01 1.03470E-01 2.36854E-04-1.28530E-01 1.79573E-05 6.26486E-05
 -1     27432-2.70990E-01 6.14098E-02-5.78735E-04 1.09703E-03 1.15769E-03-3.47925E-04
 -1     27433-4.10643E-01 1.52536E-01 2.93497E-03 7.13134E-03-9.24050E-04-8.73707E-04
 -1     27434-4.01851E-01 1.49267E-01-1.20551E-03 5.70442E-03-1.11863E-03-4.13421E-04
 -1     27435-3.26446E-01 1.41563E-01 1.95631E-03-1.08790E-01-3.72215E-03-3.92693E-03
 -1     27436-4.78930E-02-3.59210E-03-7.70099E-06-5.94581E-03-1.17091E-04 2.14201E-04
 -1     27437-1.31227E-01 2.91134E-03-3.53840E-04-9.48397E-03 3.12991E-04 8.16597E-05
 -1     27438-1.48236E-01 2.18803E-02 3.38541E-04 9.15628E-03 3.59028E-04-1.75507E-04
 -1     27439-1.38993E-01 5.87226E-03-1.51389E-05-4.19740E-03 5.28134E-04 4.52265E-04
 -1     27440 9.21874E-02 3.45191E-02 7.83815E-05 1.85232E-01-7.24383E-05-2.18801E-05
 -1     27441 9.12006E-02 4.41348E-02 4.64131E-05 1.98005E-01-3.40275E-06-8.02730E-06
 -1     27442 9.32404E-02 3.68787E-02 1.44687E-05 1.90573E-01 1.99518E-05-2.31041E-05
 -1     27443 8.51894E-02-1.13254E-02-3.97184E-06 9.10456E-02 3.06882E-05 1.27199E-05
 -1     27444 6.65598E-02 2.99368E-02 7.43077E-06 1.40711E-01-5.55045E-05-3.99953E-05
 -1     27445 6.51024E-02 2.95058E-02 2.70134E-05 1.37986E-01 5.04623E-05-2.64394E-05
 -1     27446 8.86255E-02-3.07681E-02 3.52138E-05 6.92713E-02-1.35748E-04-8.98270E-06
 -1     27447 8.92876E-02-3.11028E-02 1.64655E-05 7.00288E-02 1.07727E-04-1.06598E-05
 -1     27448-2.46794E-01 1.00123E-01-4.07928E-05-1.28303E-01 5.78305E-05 3.51195E-05
 -1     27449-2.46493E-01 1.01099E-01 9.90851E-05-1.23400E-01 9.98376E-05-1.65952E-05
 -1     27450-2.51352E-01 1.02732E-01 5.11067E-05-1.27985E-01 6.79446E-05 2.27660E-05
 -1     27451 9.39434E-02 2.29495E-02 3.13916E-05 1.72593E-01-2.33963E-05 3.66732E-05
 -1     27452 9.46195E-02 4.12637E-02 9.21352E-05 1.99033E-01-6.77113E-05-2.35598E-05
 -1     27453 9.37704E-02 3.63465E-02-2.59585E-05 1.90707E-01-1.06128E-04-6.29667E-05
 -1     27454 9.37094E-02 2.75904E-02-7.06831E-05 1.78453E-01 3.07918E-05 4.50088E-05
 -1     27455-2.11545E-01 8.59958E-02-3.78549E-06-1.09371E-01-2.04348E-05 2.57137E-05
 -1     27456-2.10733E-01 8.57420E-02 3.30255E-05-1.08822E-01-2.42937E-05-4.77809E-06
 -1     27457-2.12487E-01 8.63877E-02 2.91772E-05-1.09870E-01 7.76283E-06-5.97690E-06
 -1     27458 9.40546E-02 4.87903E-02-3.43379E-05 2.09013E-01-6.38181E-06 4.59099E-05
 -1     27459 9.31296E-02 4.79442E-02 1.30186E-05 2.06446E-01 1.19854E-05-3.61381E-05
 -1     27460 9.24548E-02 4.76105E-02 2.46593E-05 2.05014E-01 5.52607E-05-3.50871E-06
 -1     27461-9.29582E-02 5.82537E-02 3.32376E-06 1.14062E-02-6.19891E-06-1.24984E-05
 -1     27462-2.29915E-01 9.31610E-02-1.19287E-05-1.19594E-01-1.82003E-05-9.17021E-06
 -1     27463-6.36938E-02 5.30932E-02-2.85677E-07 2.23925E-02 1.19449E-06 2.98022E-06
 -1     27464-5.01422E-02 5.04651E-02-1.64796E-07 3.45523E-02-8.19429E-06-2.58552E-06
 -1     27465-2.01643E-01 8.32310E-02-1.23903E-05-9.94376E-02-8.80952E-06 2.21205E-05
 -1     27466-1.86959E-01 7.81483E-02-3.63947E-06-8.84006E-02 1.09235E-05-1.06238E-05
 -1     27467-1.99534E-01 8.23275E-02 9.45239E-06-9.87375E-02 4.61040E-05 3.09779E-07
 -1     27468 7.59011E-02-1.83672E-02-3.55970E-05 1.04444E-01 1.43966E-05-2.78597E-05
 -1     27469-2.04329E-01 8.44590E-02-5.87061E-06-9.99344E-02-6.07618E-05-1.50561E-05
 -1     27470 9.71107E-02 5.14321E-02 2.84898E-05 2.17721E-01 5.03758E-05 2.44911E-06
 -1     27471 9.28997E-02-1.75497E-02-1.77057E-07 9.65215E-02 2.07686E-05 9.41652E-06
 -1     27472-2.17413E-01 8.82335E-02-1.08811E-05-1.12965E-01-2.55232E-05-1.12332E-05
 -1     27473 1.84355E-02-1.29585E-02-1.08400E-07 6.27631E-02-1.08590E-06-1.52720E-07
 -1     27474 1.41177E-02-8.62607E-03-4.41668E-07 6.24814E-02 5.21899E-06 1.79158E-07
 -1     27475 2.72787E-02-1.37191E-02 1.28305E-06 6.85214E-02 1.67388E-06-2.03899E-06
 -1     27476-1.71717E-01 7.29880E-02 4.36765E-06-7.98743E-02-1.03693E-05 3.26344E-05
 -1     27477 5.63827E-02 4.23471E-02-3.16205E-06 1.51169E-01-5.12028E-06 8.60346E-06
 -1     27478 8.14610E-02 5.23843E-02 4.72004E-06 1.97594E-01 8.33258E-06 3.43061E-05
 -1     27479-1.99018E-01 8.19621E-02-1.21056E-06-1.00018E-01-2.99235E-06 2.28277E-05
 -1     27480-1.94797E-01 8.05957E-02-4.28261E-06-9.70525E-02-1.03059E-05-6.17651E-06
 -1     27481-2.00759E-01 8.24668E-02 6.61703E-06-1.01537E-01 4.15484E-06 5.10643E-06
 -1     27482 7.27638E-02 5.58678E-02-1.01175E-05 1.90936E-01 1.99982E-05 2.27593E-05
 -1     27483 6.21474E-02 5.49694E-02-2.20931E-05 1.75488E-01-1.93671E-06 2.26969E-05
 -1     27484 6.49400E-02 5.39624E-02 1.58904E-05 1.77628E-01 3.86009E-06 2.40159E-05
 -1     27485-2.16792E-01 8.79590E-02 8.12234E-06-1.12776E-01 2.63264E-05 4.52388E-05
 -1     27486-2.08307E-01 8.49689E-02 8.01428E-06-1.06883E-01 1.27359E-05 4.19626E-05
 -1     27487-2.16886E-01 8.79104E-02 1.48511E-06-1.12918E-01-3.48920E-06 7.41471E-06
 -1     27488-2.17373E-01 8.81253E-02-3.08210E-06-1.13125E-01-6.56691E-06-2.36697E-05
 -1     27489-1.79723E-01 7.55157E-02-4.20664E-06-8.61672E-02-1.23643E-06 1.63883E-06
 -1     27490 9.19041E-02-3.00271E-02-1.04709E-05 7.24701E-02-1.07008E-04 4.69099E-05
 -1     27491 9.51038E-02-3.12186E-02 1.46249E-05 7.81718E-02-7.17846E-05 6.07562E-05
 -1     27492 8.92531E-02-1.62956E-02 3.90951E-06 8.03915E-02 2.60808E-05 1.94901E-05
 -1     27493 9.20509E-02-1.89498E-02-2.56810E-07 8.43582E-02-4.93499E-06-1.49502E-05
 -1     27494 9.24637E-02-2.06463E-02 3.54214E-06 8.13076E-02 2.40149E-05 3.11143E-05
 -1     27495-6.28283E-02 1.22735E-01-8.18719E-05 1.44933E-01-2.44839E-04-1.15719E-04
 -1     27496-1.67710E-01 6.93494E-02 1.63179E-06-8.31271E-02-6.79106E-06-2.61346E-05
 -1     27497-6.41630E-02 3.81892E-02-8.20538E-05-3.60260E-03-2.00268E-04-1.24409E-04
 -1     27498-7.80883E-02 3.89316E-02 6.95059E-06-1.82242E-02 5.89886E-05-4.53809E-04
 -1     27499-1.18227E-01 4.97461E-02-7.74980E-05-5.73700E-02 1.15221E-04-1.91352E-04
 -1     27500-1.04693E-01 4.43325E-02-1.09690E-05-4.70126E-02-1.43709E-04-5.35906E-05
 -1     27501-1.14521E-01 4.63557E-02 9.46825E-05-5.71637E-02-1.56915E-04 1.28791E-04
 -1     27502-8.31800E-02 4.31996E-02-1.53814E-06-2.52599E-03 1.31178E-06 9.88419E-07
 -1     27503 9.64511E-02-2.05536E-02-1.48122E-05 9.90894E-02 4.03402E-05-9.53239E-06
 -1     27504 9.59013E-02-1.85444E-02-1.52448E-05 1.03140E-01 4.68670E-05-1.88398E-05
 -1     27505-3.01547E-01 7.44242E-02 9.01929E-05 1.56616E-02 5.87155E-03-3.17437E-03
 -1     27506-2.39012E-01 9.96273E-04 2.44698E-04 1.02097E-02-3.41233E-03 1.54020E-03
 -1     27507-3.23425E-01 5.83574E-02 2.63026E-03 2.94872E-02 1.15465E-03-2.86727E-03
 -1     27508 8.76385E-02-1.22752E-02-6.34697E-06 1.21680E-01 1.44172E-05 1.36588E-05
 -1     27509 8.95610E-02-7.06018E-03-3.12275E-06 1.29676E-01 1.34082E-05 1.15917E-06
 -1     27510 5.44024E-02 2.39214E-02-9.11664E-06 1.14241E-01-3.01719E-05-4.59722E-05
 -1     27511 5.21325E-02 2.28720E-02-1.20979E-05 1.09277E-01-3.02895E-05-7.41239E-06
 -1     27512-5.06059E-02 1.09380E-01 4.45954E-05 1.46801E-01-2.02260E-04-2.99103E-04
 -1     27513-5.18957E-02 1.11948E-01-1.54643E-05 1.48009E-01 3.31821E-05-8.88480E-05
 -1     27514-4.08187E-02 1.06285E-01-3.87853E-05 1.41248E-01 2.20105E-04-1.80603E-04
 -1     27515 8.42957E-02 2.04976E-02-7.03554E-06 1.52119E-01 1.68861E-05-7.01504E-05
 -1     27516 8.42967E-02 1.68167E-02-3.82918E-05 1.46440E-01-6.25847E-05 3.73623E-05
 -1     27517 4.13978E-02 1.05843E-02-2.78814E-05 7.71413E-02 1.30500E-05-8.79756E-05
 -1     27518 3.56685E-02 1.67788E-02-1.73451E-06 7.58118E-02-6.79464E-05 1.09513E-04
 -1     27519 7.34881E-02 1.84624E-02-4.67234E-06 1.43623E-01-3.48286E-05-1.73676E-05
 -1     27520 8.09811E-02 2.95232E-02-2.49982E-06 1.66318E-01-9.66264E-06-4.89445E-06
 -1     27521 8.25691E-02 3.49973E-02 6.49641E-06 1.75629E-01-6.51010E-06 3.02077E-05
 -1     27522 7.47157E-03-4.22834E-03 1.87068E-05 7.31119E-03 4.36912E-05 9.99165E-05
 -1     27523-2.41534E-02 8.09027E-02-5.39663E-06 1.18081E-01-5.25204E-05 7.68420E-05
 -1     27524-2.48605E-01 1.26384E-02-7.49427E-04 1.71549E-02-4.32030E-04 8.54134E-04
 -1     27525-3.19649E-01 8.50660E-02-1.18029E-03 9.31865E-03-3.21593E-03 4.19861E-03
 -1     27526-1.22295E-01 6.69451E-02 4.16748E-06-2.04315E-02 4.54562E-06-3.14114E-06
 -1     27527-6.31991E-02 1.27148E-01 5.75530E-05 1.33743E-01 1.13787E-04-1.54271E-04
 -1     27528-2.87714E-01 1.19409E-01-9.42575E-05-1.46524E-01-7.87997E-04 8.57305E-05
 -1     27529-7.36442E-02-3.11738E-03 2.01315E-05-9.17065E-03-2.67595E-06 1.45682E-04
 -1     27530-6.33350E-02-3.76223E-03-2.17881E-05-8.11021E-03-1.52786E-04 2.65144E-04
 -1     27531-9.39690E-02-6.67463E-04-2.29174E-05-1.47978E-02 1.42912E-04-1.11094E-04
 -1     27532-8.28796E-02-8.52046E-04-3.34174E-05-1.39353E-02 2.87055E-05-8.17272E-05
 -1     27533-1.23159E-01 6.01076E-02-7.05366E-07-3.92565E-02-1.54093E-06-5.02842E-06
 -1     27534-1.35390E-01 6.34002E-02-1.50329E-08-4.96116E-02 9.73018E-07 5.05257E-07
 -1     27535 9.22490E-02 4.72999E-02 1.05244E-05 2.04229E-01-2.45086E-05 4.61533E-06
 -1     27536 9.67520E-02-6.37039E-03 1.27446E-05 1.28949E-01-6.87082E-05 2.18004E-05
 -1     27537 8.05682E-02 3.86217E-02 1.55351E-06 1.74156E-01-1.35085E-05-6.62370E-05
 -1     27538 7.79094E-02 3.71677E-02-2.23410E-06 1.68018E-01-5.86444E-05-5.83115E-06
 -1     27539 6.65874E-02 5.92978E-02-1.00811E-05 1.87845E-01 6.24275E-06-2.07854E-05
 -1     27540 4.51569E-02 6.10640E-02 2.10631E-07 1.62638E-01-2.87573E-06 1.64329E-05
 -1     27541 4.93205E-02 5.93549E-02-1.75175E-06 1.65338E-01 1.87685E-05 2.04088E-05
 -1     27542-5.45684E-02 8.25188E-02-8.88768E-06 9.69100E-02-8.60086E-06 4.10613E-06
 -1     27543-6.20349E-02 7.80093E-02 7.08822E-07 8.15618E-02 9.15589E-06-3.28675E-05
 -1     27544-1.31351E-01 6.35494E-02-3.30640E-08-4.42604E-02 4.74109E-06-1.71834E-05
 -1     27545-1.94869E-01 8.05247E-02-2.49216E-05-9.71431E-02 1.01103E-05-8.00484E-05
 -1     27546 3.36632E-02 5.51458E-02-1.14431E-07 1.40133E-01 2.37706E-05 4.09258E-06
 -1     27547 2.04322E-02 5.59654E-02 5.28903E-06 1.25699E-01 3.99466E-06-4.16866E-06
 -1     27548-3.00967E-02 7.51880E-02 1.14605E-05 1.01755E-01 1.98193E-05-5.73721E-05
 -1     27549-1.39264E-01 6.85826E-02-3.91526E-06-4.30986E-02-3.42034E-06-8.88439E-06
 -1     27550-1.36619E-01 6.85950E-02-4.10964E-09-3.88145E-02-2.71575E-06-7.94062E-06
 -1     27551 8.52725E-02-6.86449E-03 5.72282E-07 1.07322E-01-2.00236E-05-1.77488E-05
 -1     27552 4.68939E-03 8.08316E-02-6.54181E-07 1.45028E-01-7.73079E-05-6.72539E-05
 -1     27553 2.75273E-02 7.29168E-02-5.25577E-06 1.58252E-01 1.26135E-04 1.00857E-04
 -1     27554 4.75887E-02 5.01299E-02-1.21811E-05 1.50563E-01-1.05329E-05 2.86677E-05
 -1     27555 3.60661E-02 4.74286E-02-8.85922E-08 1.32373E-01 8.94301E-06 2.16804E-05
 -1     27556 4.74072E-02 4.75787E-02 1.47193E-07 1.46771E-01 8.68767E-06 3.87721E-06
 -1     27557 7.51155E-02-3.02856E-02-9.03243E-06 5.80901E-02-8.78069E-06 5.15089E-05
 -1     27558-2.88191E-01 1.23889E-01 6.70182E-04-1.12054E-01-6.46916E-04-9.46597E-04
 -1     27559-2.83403E-01 1.18491E-01 3.50266E-04-1.34212E-01-7.94469E-04 3.58453E-04
 -1     27560-2.39793E-01 1.02473E-01 1.21674E-04-9.93875E-02 2.20600E-04-5.83431E-05
 -1     27561-2.23594E-01 9.64909E-02 8.66778E-05-8.38602E-02 1.09722E-04-2.41456E-04
 -1     27562-1.41169E-01 6.25870E-02 1.07599E-06-4.74686E-02 1.10160E-05-7.12317E-06
 -1     27563-1.53585E-01 6.69604E-02 4.17008E-08-5.92187E-02 8.86390E-06-1.13530E-05
 -1     27564 8.78792E-02-7.35383E-03-9.94204E-08 1.11144E-01-1.29882E-05-1.86029E-05
 -1     27565 7.13780E-02 3.20735E-02 1.35203E-05 1.51138E-01-8.30323E-05-8.51804E-05
 -1     27566 7.92729E-02 2.01605E-02-3.75166E-05 1.43851E-01-8.32677E-05-1.78994E-04
 -1     27567 7.03470E-02 3.18120E-02-4.69973E-05 1.49083E-01-2.98978E-05 4.66120E-05
 -1     27568 9.85032E-02-1.26628E-02-4.38127E-06 1.21810E-01 2.88468E-05 1.19298E-05
 -1     27569 9.52675E-02-7.36387E-03-2.07595E-05 1.25273E-01 1.02970E-05-5.92812E-05
 -1     27570-5.54469E-02 1.08077E-01-1.33647E-05 1.42284E-01-2.58266E-05-2.12032E-04
 -1     27571 9.27540E-02 5.88757E-02-1.33594E-05 2.22550E-01 2.77672E-05 4.39736E-05
 -1     27572 9.21474E-02 5.86780E-02 2.39379E-06 2.21416E-01 2.45099E-05 8.62224E-05
 -1     27573-7.63252E-02 1.53595E-01-2.17589E-04 1.22417E-01-3.78613E-04-4.86650E-05
 -1     27574-7.86171E-02 1.57967E-01-1.69281E-04 1.21503E-01-2.40357E-04 8.82895E-05
 -1     27575 1.23456E-02-4.39550E-03 3.53700E-05 1.00265E-02-3.33483E-05 1.62418E-05
 -1     27576-1.79801E-01 6.95377E-02-1.15914E-04-1.01280E-02-3.53571E-04 3.67587E-04
 -1     27577-1.69490E-01 7.31067E-02-4.35932E-06-7.69292E-02-9.14314E-06 1.26498E-05
 -1     27578-1.78592E-01 7.59187E-02-1.24852E-05-8.36316E-02 2.74525E-05-4.45030E-05
 -1     27579 3.06281E-03 5.95461E-02-1.17137E-06 1.10840E-01-4.38139E-06 3.40054E-06
 -1     27580-1.26888E-01 5.99057E-02 1.54865E-07-4.31617E-02-5.27282E-06-6.29639E-06
 -1     27581 8.56275E-02 4.26731E-02 9.32651E-06 1.89567E-01-2.36709E-05-2.50279E-05
 -1     27582 8.72149E-02 4.07791E-02 4.62721E-06 1.89137E-01 1.01865E-05-9.08824E-06
 -1     27583 9.14448E-02 4.67830E-02-4.06171E-07 2.03130E-01-2.23838E-06 4.43374E-05
 -1     27584 4.07619E-02 5.12490E-02 1.74540E-07 1.43506E-01 1.32620E-05 6.27021E-06
 -1     27585 9.34178E-02 5.45899E-02 1.33356E-05 2.17255E-01 8.84444E-06 2.18600E-05
 -1     27586-1.48066E-01 6.96924E-02-1.01352E-07-5.35369E-02-1.51479E-05 8.00834E-06
 -1     27587-5.49479E-02 2.55835E-02-2.10068E-05 2.53070E-02-9.28085E-06-2.09657E-05
 -1     27588-5.21971E-02 5.23799E-02 2.17455E-07 3.51751E-02 1.68636E-06-1.06470E-06
 -1     27589-4.12297E-02 5.27223E-02-2.63508E-07 4.85839E-02 4.24640E-06 5.13161E-06
 -1     27590-1.08745E-01 6.30476E-02 3.62214E-06-1.50019E-02 1.10401E-06-1.20547E-05
 -1     27591-1.22958E-01 6.45967E-02-4.63142E-08-3.03165E-02-1.87200E-05-2.01421E-05
 -1     27592 9.72252E-02-1.50953E-02 2.03844E-06 1.14038E-01 6.53577E-09 1.34154E-05
 -1     27593 9.87239E-02-1.50947E-02 7.30582E-07 1.17568E-01-2.44818E-05-7.00783E-06
 -1     27594-8.27131E-03 1.62771E-02-1.62230E-06 5.53664E-02 1.02196E-05-2.42148E-05
 -1     27595-9.49452E-02 6.17554E-02 2.23450E-07 4.34233E-04 8.19805E-06 1.65751E-05
 -1     27596 4.93783E-02 2.35950E-02 1.92874E-05 1.06514E-01-2.82246E-05 5.81084E-06
 -1     27597 3.80240E-02 1.63803E-02-8.36493E-07 1.01094E-01-1.40398E-05-1.22161E-05
 -1     27598-4.92604E-02 4.10233E-02-1.09443E-05 2.57010E-02-3.21734E-06-2.44990E-05
 -1     27599-6.08713E-02 4.40825E-02-1.49915E-06 1.54125E-02 2.75030E-06-2.27112E-05
 -1     27600-1.16059E-01 6.55849E-02-9.81125E-07-1.71277E-02 2.22550E-06 9.42957E-06
 -1     27601 9.06158E-02-2.98798E-02 2.79946E-05 1.00916E-01 7.59793E-05-5.34678E-05
 -1     27602-1.95309E-01 8.07912E-02 2.39136E-05-9.71788E-02 4.22513E-05 4.78241E-05
 -1     27603-1.93161E-01 8.02243E-02 1.09453E-05-9.53096E-02 8.85588E-06 2.80508E-05
 -1     27604-1.83930E-01 7.75287E-02 3.43257E-05-8.77965E-02-4.09066E-05-6.79181E-05
 -1     27605-3.56418E-02 7.27293E-02-8.87043E-06 9.18358E-02 1.88053E-05-2.13096E-06
 -1     27606-1.24552E-01 6.69571E-02 7.38421E-06-2.45284E-02 3.20645E-06-1.98391E-05
 -1     27607-3.45728E-02 6.27044E-02-1.57588E-06 7.36993E-02-4.29866E-07 5.93224E-07
 -1     27608 6.45624E-02-1.48148E-02-4.53996E-06 4.58492E-02 1.27177E-05-7.12459E-05
 -1     27609 7.24561E-02-2.09732E-02 4.96662E-06 5.25020E-02 3.68260E-05-7.70733E-05
 -1     27610 6.56171E-02-7.70352E-03-6.56069E-05 4.81433E-02 1.53608E-04 4.03679E-05
 -1     27611 6.87620E-02-7.75859E-03-7.30562E-05 5.18223E-02-3.05446E-06 5.73047E-05
 -1     27612 5.99921E-02-7.21479E-03-4.57365E-05 4.27840E-02-6.78851E-06-2.38083E-06
 -1     27613 6.91521E-02-1.41304E-02-3.46766E-05 5.00776E-02 1.35365E-04 2.41502E-05
 -1     27614 6.34746E-02-7.28308E-03-2.64541E-05 4.63761E-02-5.47823E-05 1.93605E-05
 -1     27615 4.80410E-02-4.72486E-03 3.54029E-06 9.29762E-02-6.18849E-06-1.24816E-06
 -1     27616 1.01022E-01-3.19859E-02 4.55571E-06 9.25148E-02-9.79380E-07 7.05781E-06
 -1     27617 1.02413E-01-3.11182E-02 8.13663E-07 9.77016E-02 2.20780E-06 2.58270E-05
 -1     27618 1.01266E-01-3.31219E-02-3.36901E-06 9.41254E-02-2.95189E-05 1.27006E-05
 -1     27619-1.51391E-01 6.59894E-02-4.53882E-06-4.46024E-02-2.24109E-05-4.31285E-07
 -1     27620-1.67986E-01 7.27690E-02 2.49443E-08-5.61403E-02-3.35118E-06 7.37121E-06
 -1     27621 7.11417E-02-1.45351E-02 1.02022E-05 1.04523E-01 9.03332E-06-4.47554E-05
 -1     27622 6.18560E-02 4.89803E-02 3.57763E-06 1.66876E-01 6.47966E-06 3.54200E-05
 -1     27623 7.31772E-02 1.00160E-02-4.21713E-09 1.33415E-01 3.62392E-05 4.45596E-05
 -1     27624 8.26936E-02 8.98250E-03 4.34439E-06 1.42622E-01-1.59090E-05-3.39350E-05
 -1     27625 3.78217E-03-6.91844E-03-2.25639E-06 5.64645E-02-1.55045E-05-1.55221E-06
 -1     27626-1.32839E-04-2.66648E-03-4.40382E-06 5.60622E-02-2.90700E-05 1.29275E-05
 -1     27627 7.85348E-02-3.87854E-03-1.92290E-05 7.23284E-02-2.18811E-05-1.52738E-05
 -1     27628 7.95601E-02-3.94194E-03-1.66394E-05 7.65981E-02 3.13347E-05 6.23807E-06
 -1     27629 7.93145E-02-3.95916E-03-2.12157E-07 7.52116E-02 1.59667E-05 4.35554E-05
 -1     27630-1.63001E-03 3.63249E-02 7.32499E-07 7.43882E-02 4.35173E-06-7.47020E-06
 -1     27631 7.37918E-02 5.56578E-02 3.25982E-05 1.91813E-01 3.81645E-06 2.26102E-05
 -1     27632-9.69493E-02 5.39248E-02-2.96567E-07-1.59766E-02-7.29893E-07-6.28175E-07
 -1     27633-9.51462E-02 5.45054E-02-5.31555E-07-1.33302E-02-3.49364E-06 4.90908E-06
 -1     27634 7.91456E-02-6.35634E-03-9.89489E-05 6.96561E-02-9.29561E-05-3.67305E-05
 -1     27635-1.18485E-01 5.62709E-02 8.96159E-09-3.48927E-02 6.10388E-06 3.96829E-06
 -1     27636 1.01800E-01-2.87317E-02 9.37076E-06 9.77788E-02 6.98099E-05 9.20008E-06
 -1     27637 7.62016E-02 5.48166E-02 8.04397E-07 1.93993E-01-8.62670E-07-3.94663E-05
 -1     27638-9.87750E-02 5.34127E-02-4.16924E-07-1.83921E-02 2.03299E-06-2.40939E-06
 -1     27639 7.61228E-02-3.49981E-02 1.13493E-07 6.27335E-02-2.85966E-05-1.73953E-05
 -1     27640 2.18378E-02 1.06517E-02 4.20012E-05 7.99638E-02 8.14655E-08 1.88453E-05
 -1     27641 1.55782E-02 8.81583E-03 1.34801E-05 7.28391E-02 3.96209E-05 2.81111E-05
 -1     27642 2.84104E-02 6.34961E-03-1.58650E-05 8.33279E-02 1.33319E-05-6.57198E-05
 -1     27643 8.50462E-02 4.06323E-02 1.30587E-05 1.83804E-01-4.64636E-05-6.03144E-05
 -1     27644 6.34072E-02-2.57449E-02 2.62822E-08 8.50432E-02 1.58663E-05-3.26933E-05
 -1     27645 3.48372E-02-1.40414E-02 1.33959E-07 7.40160E-02 1.68435E-05 2.53315E-05
 -1     27646-2.75565E-02 3.03956E-02-9.70404E-07 4.25653E-02-3.51243E-08 6.49960E-06
 -1     27647 9.90327E-02-3.19976E-02 9.33344E-06 1.01319E-01-5.84115E-05 1.74269E-05
 -1     27648-1.16191E-01 5.61274E-02 3.68253E-07-3.35203E-02-6.02242E-06 7.65843E-06
 -1     27649-1.14408E-01 5.62464E-02 6.66765E-08-3.24180E-02 1.17173E-05 2.64391E-05
 -1     27650-1.29117E-01 6.00928E-02-1.27495E-06-4.47898E-02-7.09764E-06-9.77846E-06
 -1     27651 3.98118E-04-1.03379E-02 3.77384E-07 5.26356E-02 6.02015E-06 7.76048E-06
 -1     27652-1.30941E-02 3.80150E-02-1.33112E-06 6.29722E-02 2.02419E-05 1.72615E-05
 -1     27653-2.93102E-03 3.88389E-02 1.19124E-06 7.55130E-02-1.04508E-05-1.05968E-05
 -1     27654-7.68853E-02 5.41338E-02 7.91096E-07 8.20688E-03-5.34675E-07 2.92073E-06
 -1     27655-7.61390E-02 5.53682E-02-8.70691E-08 1.11454E-02-1.36741E-06 6.35778E-06
 -1     27656-4.86612E-02 3.89793E-02 1.00616E-05 2.51910E-02 3.31550E-05 1.01538E-05
 -1     27657-5.96818E-02 4.23790E-02 1.53217E-05 1.56144E-02-3.62663E-06 1.01731E-07
 -1     27658-1.42583E-01 6.08716E-02 5.71682E-05-2.57958E-02 9.53594E-06 1.13108E-05
 -1     27659-1.82883E-01 7.86130E-02-1.70536E-05-4.73441E-02 7.29816E-05-5.53842E-05
 -1     27660-1.05647E-01 5.20924E-02-1.59659E-06-2.36336E-02-1.68670E-07 2.19696E-06
 -1     27661 5.89634E-02 2.84664E-02-2.15606E-05 1.27750E-01-1.77567E-05 8.03920E-05
 -1     27662 6.40200E-02 2.43701E-02-1.19876E-05 1.28756E-01 2.39489E-05-9.83713E-05
 -1     27663 5.96237E-02 2.90833E-02-2.67851E-05 1.29690E-01 8.94499E-06-8.69897E-07
 -1     27664 8.07414E-02 5.85756E-02 1.21461E-05 2.05206E-01-1.14083E-04 1.02537E-04
 -1     27665 9.28074E-02 5.79833E-02-2.19266E-05 2.21014E-01-8.88607E-05-2.38775E-05
 -1     27666 8.75053E-02 5.85613E-02 4.96419E-06 2.14434E-01-5.64751E-05-1.27015E-04
 -1     27667 9.22167E-02 5.84112E-02 1.94408E-05 2.20950E-01-1.90667E-05-9.15037E-05
 -1     27668 7.25424E-02 3.82442E-02-1.41298E-06 1.66760E-01-8.07812E-06 4.42644E-06
 -1     27669 8.02163E-02 4.08661E-02-9.27257E-09 1.80114E-01-1.59816E-05 4.19811E-06
 -1     27670 9.59567E-02 5.20122E-02 3.00009E-06 2.17046E-01 1.37098E-05 1.01641E-05
 -1     27671 9.97674E-02-2.78710E-02-1.69405E-06 1.08324E-01-7.00658E-05 1.12056E-05
 -1     27672-1.10988E-01 6.24303E-02-7.95113E-06-1.95093E-02-3.54318E-06-2.33071E-05
 -1     27673 7.30232E-02-2.32656E-03 1.79336E-05 9.17949E-02-1.23748E-05-4.20951E-05
 -1     27674 6.90702E-02-2.21760E-04-2.80987E-05 9.22342E-02-1.67941E-05-2.15562E-05
 -1     27675 6.95028E-02-8.28358E-05-2.11471E-05 9.29750E-02 3.52251E-05 2.53170E-05
 -1     27676-1.51442E-01 6.31799E-02 1.01145E-05-7.32689E-02 2.25416E-05 6.47987E-05
 -1     27677-1.44531E-01 6.07064E-02-6.91579E-06-6.85197E-02 1.16573E-05 2.01030E-05
 -1     27678 7.02023E-02-9.83080E-04 4.04521E-05 9.22092E-02-1.56629E-05 2.40064E-05
 -1     27679 7.42323E-02-2.77540E-03-4.31374E-05 9.14985E-02 1.44496E-05 1.09469E-05
 -1     27680-2.47561E-01 1.01698E-01 5.40754E-05-1.23043E-01 1.41953E-05 3.13716E-04
 -1     27681 5.35502E-03 3.87638E-04-3.19865E-07 6.06942E-02 2.90676E-06-1.33819E-06
 -1     27682-1.32757E-02 4.84128E-03 2.86093E-05 5.00700E-02 1.92982E-05 1.01571E-05
 -1     27683 9.52402E-03-4.32814E-03-1.16404E-06 6.17474E-02-3.96091E-06-1.19019E-06
 -1     27684-1.84243E-02 5.15614E-03 2.42703E-06 4.70668E-02-3.47532E-05-5.37168E-06
 -1     27685 3.05888E-02 1.39317E-02 3.32519E-06 9.09625E-02 5.75538E-06 2.15439E-05
 -1     27686 2.92838E-02 6.79581E-03-2.94413E-06 8.45581E-02-1.48344E-05 6.03633E-05
 -1     27687 3.67157E-02 1.01321E-02 2.17017E-08 9.42796E-02-6.61181E-06-1.68355E-06
 -1     27688 6.33875E-02-7.21879E-03-3.16663E-05 4.59471E-02-2.39024E-06 2.91365E-05
 -1     27689 6.87036E-03-1.49630E-02-4.64382E-07 5.28044E-02-3.50797E-06 2.62945E-06
 -1     27690 7.88185E-02-2.08261E-02 5.10671E-05 5.90566E-02 7.75292E-05 1.18266E-04
 -1     27691 9.37788E-02 3.17114E-02 4.81852E-05 1.84634E-01-9.62342E-05-4.65428E-05
 -1     27692 9.21209E-02 2.79152E-02 2.46727E-05 1.77405E-01-9.97934E-05-2.26698E-05
 -1     27693-1.34647E-01 5.95021E-02 4.39922E-07-3.34750E-02 1.73447E-06-6.41796E-06
 -1     27694-1.00641E-01 5.89761E-02-1.73986E-06-1.26912E-02 1.38129E-06 9.18895E-07
 -1     27695-1.21318E-01 4.02650E-02-1.40863E-05 1.12732E-02-9.28656E-05 5.94317E-05
 -1     27696-1.54728E-01 7.08863E-02-8.99781E-06-5.94625E-02-2.42754E-05-2.82961E-05
 -1     27697-1.67771E-01 7.37059E-02-4.44354E-06-7.21060E-02 1.80683E-05 2.33222E-06
 -1     27698-1.47580E-01 6.60891E-02-4.21462E-05-5.80072E-02-8.96199E-06 7.61699E-07
 -1     27699-1.40938E-01 6.38796E-02-2.92440E-05-5.32925E-02-2.08136E-05 8.58593E-05
 -1     27700-1.52971E-01 6.64648E-02-4.58675E-05-6.61510E-02-3.70054E-06-2.68507E-05
 -1     27701-1.48458E-01 6.54018E-02 2.92820E-05-6.14938E-02 2.80295E-05 1.08767E-04
 -1     27702 1.90268E-03 5.30036E-02-1.63867E-06 9.94199E-02 5.73342E-06 4.84949E-06
 -1     27703-7.69843E-02 1.34103E-02 1.57175E-06 2.63238E-02-7.05932E-06 4.17282E-05
 -1     27704-5.70167E-02 4.94797E-03 5.10258E-07 2.97724E-02-9.06626E-06-3.67333E-06
 -1     27705 3.03535E-02 6.29332E-02-5.11178E-06 1.47912E-01-4.74201E-06-1.71393E-05
 -1     27706-1.71912E-01 7.30276E-02 6.14161E-06-7.68096E-02-8.94416E-06 2.79949E-05
 -1     27707-1.84408E-01 7.71545E-02-2.23836E-06-8.76023E-02-5.14820E-05 4.36147E-05
 -1     27708 5.60144E-03 1.33902E-02 3.78646E-06 6.62965E-02-6.27642E-06-2.83176E-05
 -1     27709 1.24785E-02 1.42232E-02-1.74967E-06 7.31404E-02 1.51112E-05 1.81002E-06
 -1     27710 1.72052E-02 9.53863E-03-1.28951E-06 7.46512E-02-1.13826E-06-7.44881E-07
 -1     27711 1.06244E-02 8.44655E-03-2.13682E-06 6.81865E-02-5.58977E-05-5.48915E-06
 -1     27712-6.03087E-02 1.19855E-01-6.61529E-05 1.43759E-01-4.31425E-04 2.60016E-04
 -1     27713-8.58770E-02 3.61556E-02 6.13055E-04-3.36538E-02 8.61825E-04 1.29168E-03
 -1     27714-2.05877E-01 8.88444E-02 1.04126E-04-7.00970E-02 8.63653E-05-1.33693E-04
 -1     27715-7.42485E-02 1.48710E-01 8.79866E-04 1.14559E-01-6.47456E-05-2.93697E-04
 -1     27716 7.09950E-02 5.97649E-02-6.11515E-05 1.94060E-01-7.64831E-06 4.30825E-05
 -1     27717-8.57168E-02 1.73669E-01 1.64118E-04 1.19331E-01 6.63681E-05 2.44381E-04
 -1     27718-6.19288E-02 1.21297E-01 7.86856E-05 1.05280E-01-5.51682E-04 3.19473E-04
 -1     27719-7.18938E-02 1.44307E-01 2.44478E-04 1.09799E-01 2.19848E-04-3.63905E-04
 -1     27720 7.11767E-02-1.41777E-02 2.45553E-05 1.04986E-01-1.91422E-05 4.53038E-05
 -1     27721 6.64187E-02-6.90104E-03-2.70088E-06 1.08052E-01 8.43883E-06 2.29455E-06
 -1     27722-8.02036E-02 3.27036E-02 5.55047E-04-3.42564E-02-1.15909E-03 8.94767E-04
 -1     27723-8.07197E-02 3.56970E-02 6.03554E-04-2.66793E-02-3.21758E-04-5.58865E-04
 -1     27724-3.77213E-02 3.55981E-02-3.53899E-04 2.78728E-02 7.65662E-04-2.02954E-03
 -1     27725 1.00034E-01 5.82609E-02-1.43435E-05 2.31731E-01-3.59176E-05 3.59947E-05
 -1     27726 9.03588E-02-1.30409E-04-1.13175E-05 1.28748E-01 6.27843E-05-1.54811E-05
 -1     27727 8.61424E-02 8.56358E-03 2.92035E-05 1.36113E-01 3.78693E-05-4.36211E-05
 -1     27728 9.15045E-02 4.65755E-02 9.32223E-07 2.02876E-01 6.85497E-06-6.82968E-05
 -1     27729 5.28264E-02 1.59087E-02 3.06534E-05 9.93371E-02-8.01376E-06 2.42095E-05
 -1     27730 5.98386E-02 1.08714E-02 4.04327E-05 1.00312E-01-5.62075E-06 4.86827E-07
 -1     27731 5.27719E-02 1.59733E-02-1.71306E-05 9.92571E-02 3.15979E-05-1.40999E-05
 -1     27732 5.36968E-02 1.38650E-02-2.05673E-05 9.67586E-02-2.67994E-05-3.12072E-05
 -1     27733 6.04641E-02 8.91662E-03 1.47138E-06 9.76007E-02-7.08301E-05-3.69049E-05
 -1     27734 1.58169E-02 4.58694E-02-5.06754E-07 1.05969E-01-3.04955E-06 8.16432E-07
 -1     27735 6.07399E-02 1.59332E-02 2.05735E-06 1.10623E-01-2.28583E-05 2.15301E-05
 -1     27736-2.25463E-01 9.59618E-02 1.17496E-04-9.41272E-02-2.43236E-05-7.33417E-05
 -1     27737-2.35180E-01 9.99496E-02 1.05464E-04-1.01637E-01-1.63370E-05-2.16647E-04
 -1     27738 4.81149E-02 2.21525E-02-7.98446E-06 1.02618E-01-8.21226E-06 1.97839E-05
 -1     27739 5.13520E-02 2.26786E-02 4.28583E-06 1.07787E-01 3.93717E-05-5.64011E-06
 -1     27740 5.24225E-02 1.92207E-02 4.60534E-06 1.03909E-01-1.08475E-06-5.62407E-06
 -1     27741 4.59173E-02 4.60621E-03 9.05823E-05 7.75856E-02 2.92248E-04 2.43351E-04
 -1     27742-1.67991E-01 7.14634E-02-1.54290E-05-3.26779E-02-1.71135E-05-2.65238E-05
 -1     27743-1.27636E-01 5.35875E-02-3.61735E-05-1.19254E-02-4.08389E-05 7.97539E-05
 -1     27744-1.41581E-01 5.62650E-02 2.56980E-05-9.23438E-03 7.59397E-06 1.58761E-04
 -1     27745 3.70318E-02 1.66562E-02-3.96319E-05 7.80845E-02-2.61793E-04-7.69895E-05
 -1     27746 3.59214E-02 1.60316E-02 1.25841E-04 7.59673E-02-2.09120E-04-1.23380E-04
 -1     27747-1.62146E-01 6.84114E-02 9.54685E-06-7.63040E-02 9.97213E-06-4.27744E-05
 -1     27748-1.51871E-01 6.67629E-02 1.22957E-05-6.31223E-02-4.03754E-05-3.58121E-05
 -1     27749-1.68408E-01 7.04767E-02-3.60052E-06-8.10662E-02-2.51657E-05-2.24233E-05
 -1     27750-1.57963E-01 6.67697E-02 1.91800E-05-7.39241E-02 1.84007E-05-2.50343E-05
 -1     27751-1.64304E-01 6.88263E-02 4.85838E-06-7.87194E-02 1.16731E-05 4.09315E-06
 -1     27752 4.64761E-02 1.96907E-02 2.15948E-05 9.61751E-02 2.66474E-05-2.83416E-05
 -1     27753 4.53955E-02 1.93967E-02-1.29478E-05 9.41090E-02 2.18247E-05-5.78857E-05
 -1     27754-4.80608E-02 7.28773E-02-7.07321E-06 8.04269E-02 1.31195E-05-1.97614E-05
 -1     27755-3.13453E-01 1.02333E-01 8.50957E-04 5.90994E-03 5.57096E-04-7.51545E-04
 -1     27756 9.33461E-02 3.40490E-02-3.63928E-05 1.85910E-01 1.01741E-05-1.73618E-05
 -1     27757-1.08085E-01 6.64418E-02 9.95661E-06-1.40626E-03-2.09763E-05-3.89423E-05
 -1     27758-9.63369E-02 6.65634E-02-3.09458E-06 1.24408E-02-1.71792E-07 1.39649E-05
 -1     27759 5.80968E-02 6.20993E-02 5.60028E-05 1.79871E-01-4.00681E-05-1.60306E-04
 -1     27760 5.76574E-02 6.30264E-02-4.78833E-05 1.80414E-01 4.53594E-05 3.42151E-05
 -1     27761 4.95202E-02 6.52979E-02 4.97374E-05 1.72683E-01-1.01522E-04-6.97052E-05
 -1     27762 5.72853E-02 6.28434E-02 2.31923E-05 1.79687E-01-2.54375E-05 4.27164E-05
 -1     27763 5.00301E-02 2.24280E-02 7.12164E-07 1.20568E-01-9.70660E-06-6.96928E-06
 -1     27764 6.09780E-02 5.51512E-02 1.58583E-04 1.73022E-01 7.83892E-06-7.38896E-05
 -1     27765 6.78457E-02 5.31948E-02-1.63974E-05 1.78502E-01 1.17227E-05-5.41271E-05
 -1     27766 6.20403E-02 5.12045E-02-9.97533E-05 1.67183E-01-8.91967E-05-8.46996E-05
 -1     27767-2.18774E-01 8.88023E-02 1.58827E-06-1.13450E-01 3.85511E-06-2.08808E-05
 -1     27768 2.92512E-02 6.98224E-02-7.40249E-05 1.53611E-01 1.18192E-04-1.04221E-04
 -1     27769 3.97141E-02 1.73097E-02 7.04154E-05 8.32052E-02 1.24266E-04-1.27378E-04
 -1     27770 4.42555E-02 1.25626E-02 1.60993E-05 8.35126E-02 1.29933E-04 9.95179E-05
 -1     27771 4.01694E-02 1.77990E-02 8.68084E-07 8.48936E-02-6.75759E-05 3.21902E-05
 -1     27772 3.90055E-02 1.42467E-02 3.06196E-06 7.92328E-02 2.44921E-04-5.85702E-05
 -1     27773 4.67801E-02 5.59385E-03-1.23954E-04 7.93499E-02-3.93323E-05-1.56160E-05
 -1     27774 4.24087E-02 1.05681E-02-8.02717E-05 7.84543E-02 1.57040E-04 1.97394E-04
 -1     27775-8.08443E-02 2.55228E-03-2.49315E-05 9.86624E-03 4.76235E-05-5.51266E-05
 -1     27776 1.46442E-02 1.96072E-02 1.75449E-06 7.87606E-02-2.69169E-05 1.03762E-06
 -1     27777 1.88450E-02 1.60360E-02-1.27101E-06 8.05811E-02 1.20059E-06 2.42077E-06
 -1     27778 5.64650E-02 2.71092E-02-3.08212E-05 1.21969E-01 1.48748E-05 2.00050E-05
 -1     27779 6.05406E-02 2.23017E-02-5.58045E-06 1.20388E-01-4.56206E-05 6.65783E-06
 -1     27780 5.72146E-02 2.76410E-02 3.51786E-05 1.23899E-01-4.41850E-05 1.80314E-05
 -1     27781-8.39630E-02 1.70161E-01-5.54052E-05 1.22559E-01 1.03520E-04 1.48404E-04
 -1     27782-7.00138E-02 1.41044E-01 7.56003E-05 1.18436E-01 1.80363E-04 1.10733E-04
 -1     27783-7.82880E-02 1.58590E-01 7.78245E-05 1.18208E-01 2.30970E-04-3.07151E-04
 -1     27784-8.54867E-02 1.70284E-01 2.44782E-04 1.21294E-01-3.20148E-06-2.20867E-04
 -1     27785 9.21450E-02 4.50878E-02 3.40756E-05 2.00831E-01-5.10089E-05-5.59934E-05
 -1     27786 9.16527E-02 4.47825E-02-3.55008E-05 1.99565E-01-2.92391E-05 6.23553E-05
 -1     27787-3.43693E-01 1.49515E-01-4.67495E-03-7.95733E-02 1.47661E-04-4.99961E-03
 -1     27788 9.38504E-02 3.70892E-02-4.31932E-06 1.91432E-01-2.84761E-05-8.70947E-05
 -1     27789 9.31334E-02 3.87407E-02-8.92726E-06 1.92608E-01-3.66932E-05-7.34142E-05
 -1     27790 9.45712E-02 3.17926E-02-4.08842E-05 1.85183E-01-1.11514E-05 1.47187E-04
 -1     27791 6.98533E-02-2.18109E-02-4.50337E-05 5.10161E-02 3.90303E-05-9.02266E-06
 -1     27792 6.90750E-02-1.98395E-02-7.15083E-06 4.95197E-02 1.87127E-05 1.69828E-04
 -1     27793 6.35751E-02-2.17414E-02 3.46412E-05 4.66217E-02 1.82158E-04-2.21277E-05
 -1     27794 2.62624E-02-5.00130E-03-1.02117E-05 1.74552E-02 1.11467E-05 5.42854E-06
 -1     27795 2.45214E-02-2.61381E-03-6.81725E-06 1.55322E-02 5.19343E-05 2.73476E-06
 -1     27796-1.32216E-01 6.42795E-02-9.34169E-06-3.85208E-02-1.91019E-05 1.46678E-05
 -1     27797 9.54946E-02 4.86751E-02-1.15875E-05 2.11163E-01 4.10072E-05 1.53627E-05
 -1     27798 9.76657E-02 5.40822E-02-6.34598E-05 2.22268E-01 6.81934E-05 5.98581E-05
 -1     27799 6.29961E-02-1.36246E-02 2.67417E-05 9.78442E-02-9.50368E-07 4.34369E-05
 -1     27800 5.82244E-02-6.47806E-03-1.57371E-06 1.00719E-01-5.40115E-06-1.27162E-05
 -1     27801 4.78716E-02 6.29239E-02 6.60892E-05 1.68472E-01 5.40595E-05 9.15170E-05
 -1     27802 9.52491E-02 4.64765E-02-2.98635E-05 2.07601E-01 4.90309E-05 4.73027E-05
 -1     27803 8.00581E-02-1.50650E-02-4.55267E-05 6.23042E-02-6.88370E-05-1.16454E-04
 -1     27804 8.26761E-02-1.46728E-02-2.63728E-05 6.66007E-02 6.15618E-05-1.84767E-05
 -1     27805 7.16481E-02 3.14841E-02-5.14749E-07 1.50494E-01 5.43840E-06 4.54514E-07
 -1     27806 8.81423E-02 9.25785E-03-4.40221E-05 1.40627E-01 2.95287E-05-5.90684E-05
 -1     27807 7.73352E-02-1.39925E-02-6.22863E-05 5.93994E-02 1.56414E-05 1.54001E-05
 -1     27808 7.19580E-02-7.14968E-03-2.88100E-05 5.64821E-02 3.82311E-05 8.44445E-05
 -1     27809-1.20667E-01 5.64338E-02-5.90319E-07-3.54461E-02-3.16321E-06 6.13867E-07
 -1     27810 5.63088E-02 1.03627E-02-2.57013E-05 9.41765E-02-2.60769E-05 6.01605E-06
 -1     27811 7.44096E-02 3.30991E-02-4.68233E-05 1.56828E-01 3.02511E-05 2.45437E-06
 -1     27812 8.10733E-02 1.95488E-02 4.73230E-05 1.46071E-01-1.69928E-05 4.39398E-06
 -1     27813 8.56120E-02 1.31575E-02 7.66980E-05 1.43423E-01-2.63928E-05-1.10132E-04
 -1     27814-2.60798E-02 9.29650E-02 1.87384E-04 1.26914E-01-1.70822E-04 1.21102E-04
 -1     27815-2.97602E-03 8.43920E-02-2.00509E-05 1.34856E-01 5.04791E-04-6.48799E-05
 -1     27816 6.35530E-02 2.84597E-02-2.15051E-05 1.34146E-01-2.83260E-05-1.87008E-05
 -1     27817 6.80842E-02 2.37481E-02-4.13030E-06 1.33632E-01-1.03191E-05-2.28298E-05
 -1     27818 6.21482E-02 2.91890E-02 5.55770E-05 1.33590E-01-1.04297E-05 8.13357E-05
 -1     27819 6.84131E-02 3.08861E-02 4.59975E-06 1.44720E-01-8.50527E-05-5.41359E-05
 -1     27820-1.60154E-01 6.76412E-02-2.04003E-06-7.51834E-02-1.12382E-05-6.26148E-05
 -1     27821 9.38433E-02-7.84051E-03 3.93130E-05 1.21283E-01 1.23911E-05 1.36770E-05
 -1     27822 9.33792E-02-7.00698E-03 2.66728E-05 1.21916E-01-9.12969E-06 2.56595E-06
 -1     27823 9.26609E-02-8.95392E-03-1.54675E-06 1.17284E-01-1.80789E-05-1.29545E-05
 -1     27824-1.74622E-01 7.40831E-02-7.50258E-07-7.72465E-02 1.10812E-05 3.93957E-05
 -1     27825 4.13587E-02 5.05931E-02-2.71518E-04 1.36945E-01 5.35020E-05 5.03631E-04
 -1     27826 4.78085E-02 5.13548E-02-6.01826E-05 1.46327E-01-2.28026E-04-1.01393E-04
 -1     27827-1.37825E-01 5.79973E-02-4.04895E-06-6.50641E-02 1.80276E-05 3.18463E-06
 -1     27828-1.32512E-01 5.52994E-02-4.24037E-05-6.35498E-02-1.54506E-05 1.30886E-04
 -1     27829 4.60823E-02 1.11397E-02-1.46090E-05 8.55095E-02 1.40360E-05-2.49091E-05
 -1     27830 4.12622E-02 1.79109E-02 3.21669E-05 8.63127E-02-2.42928E-05 2.78588E-05
 -1     27831 9.89432E-02 5.90067E-02-9.34384E-06 2.31482E-01 8.66674E-07 6.23509E-05
 -1     27832 9.49544E-02 5.85207E-02-3.78240E-05 2.25153E-01-8.04495E-07-2.37480E-05
 -1     27833 3.81702E-02-1.94118E-02-9.59803E-06 3.23506E-02 1.10246E-04 4.47471E-05
 -1     27834 5.54464E-02 5.02210E-02-1.16321E-04 1.55953E-01 2.25667E-04 2.63308E-04
 -1     27835 5.58280E-02 5.03450E-02-9.82006E-06 1.56956E-01-1.27487E-04 1.67588E-04
 -1     27836 7.52885E-02 5.53659E-02-2.50811E-05 1.92216E-01 5.49805E-05 4.62961E-05
 -1     27837 4.19533E-02 1.81835E-02-1.12159E-05 8.76951E-02-8.92529E-06-2.41203E-05
 -1     27838 4.09907E-02 1.73841E-02 9.24118E-06 8.54400E-02 2.46529E-06-2.86591E-05
 -1     27839-8.08530E-02 1.64467E-01 5.98685E-05 1.22925E-01 1.50118E-04-4.91750E-05
 -1     27840 7.42361E-02-2.56167E-03-6.39759E-06 9.16937E-02-5.59245E-05-4.70001E-05
 -1     27841-1.20250E-01 5.02796E-02-5.51037E-05-5.92493E-02-5.67925E-05 1.19497E-05
 -1     27842-6.44645E-02-3.93115E-03 6.17929E-05 1.88702E-04 2.38319E-04 3.32078E-05
 -1     27843-8.26101E-02-1.35916E-03 1.31829E-04-9.21338E-04 4.23927E-05 2.66417E-04
 -1     27844 7.83735E-02-1.96767E-03 1.04887E-05 8.43899E-02-1.15058E-05-5.02515E-06
 -1     27845-1.94273E-02 9.41113E-02-1.59053E-07 1.40681E-01-8.04484E-05 4.55776E-05
 -1     27846-8.93116E-03 9.04968E-02-5.80390E-06 1.42804E-01 3.20915E-06 1.32724E-04
 -1     27847 2.87672E-02-1.37115E-02 1.47748E-05 2.36023E-02-6.27280E-05-4.49791E-05
 -1     27848 2.89325E-02-1.35345E-02-1.26564E-05 2.38780E-02-3.50416E-05-2.44881E-05
 -1     27849 2.69985E-02-1.54806E-02-1.35106E-07 2.41810E-02-4.08837E-05-1.52974E-05
 -1     27850 3.62526E-02-2.11371E-02 8.12867E-07 3.27624E-02 6.73516E-05 2.89896E-05
 -1     27851-5.55904E-01 1.53434E-01-3.07326E-03 3.54001E-02 4.01689E-03-7.12398E-03
 -1     27852-1.78386E-01 3.38429E-03-1.21123E-04-9.82154E-03 7.73081E-05-5.73784E-04
 -1     27853-1.88012E-01 1.70120E-02-2.77008E-04 3.42237E-03 5.79502E-04 5.50189E-04
 -1     27854 2.24029E-02-1.67166E-02-9.83252E-06 2.49358E-02 3.44523E-05 5.09612E-06
 -1     27855 2.59095E-02-1.96058E-02 7.56356E-06 2.88370E-02 1.68465E-05-2.18234E-05
 -1     27856-2.09472E-01 1.16134E-02 5.24530E-04-9.29600E-04-2.62799E-04 9.34038E-04
 -1     27857-2.21108E-01 9.25441E-03 5.24861E-04 8.16892E-03-8.28088E-05-1.55691E-03
 -1     27858-2.19167E-01 2.48539E-02 1.29530E-04 1.14816E-02-2.61372E-05 2.38402E-04
 -1     27859 2.21999E-02-9.18984E-03 1.14845E-06 6.78558E-02-3.84238E-06-2.51158E-05
 -1     27860-2.06096E-01 8.88258E-02 3.29613E-05-7.08268E-02-1.00782E-04 2.67717E-05
 -1     27861-5.82624E-02-3.33966E-03-2.09136E-05-1.02393E-02-9.29456E-05 5.29198E-05
 -1     27862 7.18580E-02-8.57781E-04-3.51743E-06 9.24573E-02-2.65488E-05-1.50527E-05
 -1     27863-4.89988E-02 4.59637E-02-1.30158E-03 2.33265E-02 1.12636E-03 3.97674E-03
 -1     27864-4.94739E-02-4.84900E-03-1.21463E-06 2.06086E-02-1.28227E-05-5.81925E-05
 -1     27865 6.87692E-02-5.75297E-04-4.94648E-06 9.31809E-02-7.78175E-05 2.07807E-05
 -1     27866 7.05647E-02-5.15022E-04-1.64838E-05 9.28680E-02-5.24131E-05 9.27341E-06
 -1     27867 6.76285E-02-2.76287E-04-2.38330E-05 9.30158E-02-1.37137E-04-2.56098E-05
 -1     27868-6.95555E-03 8.71123E-02-5.77323E-06 1.42544E-01-6.33247E-05-9.38253E-05
 -1     27869 6.96010E-02 1.33974E-02 4.87083E-06 1.33139E-01 1.92018E-05 3.89520E-05
 -1     27870 5.56742E-03 8.32597E-02 1.09898E-05 1.48546E-01 4.87676E-05-3.73327E-05
 -1     27871 1.67607E-02 7.71720E-02-2.62038E-05 1.52062E-01 5.87251E-06-8.62686E-06
 -1     27872-1.84273E-01 7.52819E-02-6.14956E-06-9.39520E-02-1.14111E-05 1.03837E-05
 -1     27873-1.73960E-01 7.34915E-02-1.14196E-05-8.19949E-02-1.43608E-05 4.00784E-05
 -1     27874 9.71857E-02-2.27485E-02-1.51824E-05 9.50495E-02 3.72353E-05-5.24839E-06
 -1     27875-1.88384E-01 7.73995E-02 8.54388E-06-9.49514E-02 6.27736E-06 2.05803E-06
 -1     27876-1.81597E-01 7.55603E-02 1.91022E-06-8.88856E-02-1.78307E-05 1.77209E-05
 -1     27877 2.31386E-02-3.93398E-03-1.02276E-05 1.52670E-02-1.01110E-04-5.46057E-05
 -1     27878 3.35447E-02-1.16817E-02-1.84431E-05 2.46767E-02 3.96576E-05 6.81884E-05
 -1     27879 2.65592E-02-6.34071E-03 3.26660E-05 1.83271E-02-2.50969E-05-9.09273E-06
 -1     27880-1.85784E-01 7.57652E-02 9.05070E-06-9.49692E-02 1.67861E-05 8.27476E-06
 -1     27881 5.64655E-02 1.30901E-02-3.68375E-05 9.94953E-02-2.83614E-05-5.86677E-05
 -1     27882 5.31267E-02 1.51980E-02-1.21367E-05 9.84012E-02 7.00500E-06 3.17248E-05
 -1     27883-1.91470E-01 7.86481E-02-6.80077E-06-9.66438E-02 9.75171E-06 3.95037E-05
 -1     27884-1.64755E-01 7.19835E-02-1.88128E-05-7.11654E-02 1.32921E-05-1.26941E-05
 -1     27885-1.69853E-01 7.30054E-02 2.19695E-05-7.63950E-02 1.79298E-05-2.17031E-05
 -1     27886 4.37581E-02 1.90735E-02-4.95897E-07 1.09876E-01 9.20297E-06 1.50571E-05
 -1     27887-1.92717E-01 7.91422E-02-1.59396E-05-9.73622E-02 1.28802E-05 1.27884E-06
 -1     27888-8.89457E-02 8.09936E-03-1.03988E-05 1.64988E-02-7.42679E-07 5.00466E-05
 -1     27889-7.52229E-02 4.45229E-02-4.22875E-06 2.00840E-03-8.44924E-08 1.30140E-05
 -1     27890-1.50918E-01 6.55860E-02-7.04787E-05-6.53730E-02-3.16713E-05-3.22223E-05
 -1     27891-1.46409E-01 6.45427E-02 3.24574E-05-6.06427E-02 2.54107E-06 1.22214E-04
 -1     27892-1.49961E-01 6.47798E-02-8.38202E-05-6.64335E-02-3.35140E-05-4.63113E-07
 -1     27893-1.45661E-01 6.36870E-02 3.43103E-05-6.17587E-02 1.82259E-05 1.03466E-04
 -1     27894 4.04521E-02 1.84016E-02-1.25099E-05 8.58564E-02-7.00477E-06-2.72419E-05
 -1     27895-1.55942E-01 6.59742E-02 2.31761E-05-7.28060E-02 1.41499E-05-6.16914E-05
 -1     27896 9.12083E-02 1.33859E-02 2.47913E-05 1.51818E-01 1.45933E-05 3.83454E-05
 -1     27897 6.78539E-02 5.97330E-02 7.45904E-06 1.89458E-01 3.14714E-05 1.16787E-04
 -1     27898 6.70505E-02 5.97087E-02-3.17808E-05 1.88131E-01-2.90695E-05 7.35830E-05
 -1     27899 7.93130E-02-3.81817E-03 2.61432E-06 7.55285E-02-8.91817E-06-7.05471E-05
 -1     27900 8.10129E-02-7.06261E-03 4.11496E-05 7.38894E-02 8.12745E-05-9.26668E-06
 -1     27901 6.60371E-02 5.97632E-02-9.36101E-06 1.87778E-01-5.89031E-05-2.99805E-05
 -1     27902 7.80407E-02 5.90415E-02-2.09073E-05 2.02179E-01-6.22310E-05 8.66970E-06
 -1     27903-1.05675E-01 6.62761E-02-9.53458E-07 3.02842E-03-3.02556E-05-1.21464E-05
 -1     27904-1.81130E-01 7.47370E-02 1.91454E-05-9.02591E-02-1.66711E-05-1.50766E-05
 -1     27905 7.83753E-02-1.40585E-02 5.02453E-06 6.09057E-02 1.30085E-04 1.43295E-05
 -1     27906 7.68088E-02-1.53318E-02-6.31119E-05 5.79299E-02-9.13843E-05-9.81359E-05
 -1     27907 8.05622E-02-1.47336E-02-1.08350E-05 6.33576E-02 5.77152E-05 5.03230E-05
 -1     27908 7.62886E-02-7.32591E-03 2.16068E-05 6.25966E-02-3.17868E-05 8.85046E-05
 -1     27909 7.24982E-02-7.63282E-03-7.31516E-05 5.69606E-02-1.26921E-05-7.33554E-05
 -1     27910-3.84739E-02 1.03899E-01-4.59961E-05 1.35524E-01-2.33015E-04-1.81043E-05
 -1     27911 8.05297E-02 2.07749E-02-2.26579E-05 1.47018E-01 1.56652E-04 1.27981E-04
 -1     27912 7.78438E-02 2.52138E-02 1.87674E-05 1.50020E-01 1.35365E-04 1.23908E-04
 -1     27913 8.19327E-02 2.21107E-02-1.92028E-05 1.51197E-01 7.17392E-05 1.81135E-05
 -1     27914-6.81565E-02 1.39788E-01-6.43623E-04 1.16676E-01-1.08015E-04-1.04941E-05
 -1     27915-6.36879E-02 1.23895E-01 3.37885E-04 1.09215E-01-1.89739E-04 1.31985E-04
 -1     27916-5.81082E-02 1.13547E-01-2.93656E-04 1.06778E-01 2.20727E-04-8.51514E-05
 -1     27917-4.88369E-02 8.83076E-02 3.61349E-04 8.81062E-02-9.11139E-04-3.21235E-04
 -1     27918-2.03505E-01 8.33750E-02-8.95663E-06-1.03095E-01 6.41609E-06 9.40283E-06
 -1     27919 4.55416E-02 5.94398E-02-9.49382E-05 1.56023E-01 6.72874E-05 1.73293E-04
 -1     27920 1.56032E-02 7.88376E-02-3.17052E-05 1.53916E-01 8.95785E-05-7.26541E-05
 -1     27921 3.98213E-02 6.84425E-02 4.72244E-05 1.65466E-01 3.12247E-05 8.51898E-05
 -1     27922 8.16237E-02 5.77221E-02 1.36384E-05 2.05262E-01 5.96673E-05 8.66922E-05
 -1     27923 8.60543E-02 2.20044E-02 5.83630E-06 1.57063E-01-1.08482E-04 2.33534E-05
 -1     27924 8.08492E-02 3.40835E-02-9.31482E-06 1.67819E-01-4.90080E-06 7.91180E-05
 -1     27925 7.84797E-02 3.25262E-02 2.13904E-05 1.61937E-01-5.96417E-05-8.36132E-05
 -1     27926 9.38274E-02 3.09078E-03 9.81784E-09 1.46473E-01-3.11335E-05-7.63294E-06
 -1     27927 9.51031E-02 4.52028E-02 7.16066E-05 2.06235E-01 2.71316E-05 3.10404E-05
 -1     27928 1.37248E-02-7.61775E-03-1.36263E-05 1.31218E-02-2.85340E-05 1.08853E-05
 -1     27929 2.44134E-02-1.15003E-02 2.98833E-05 2.01527E-02 1.18870E-05 7.77262E-05
 -1     27930 1.02352E-01-2.79291E-02 1.19281E-06 1.08336E-01 8.70881E-06-1.64352E-05
 -1     27931 8.48197E-02 5.63829E-02-2.56178E-05 2.07719E-01-2.67475E-05-6.86350E-05
 -1     27932 9.37609E-02 5.86874E-02-1.67917E-05 2.23720E-01-3.37280E-05-4.55057E-05
 -1     27933 7.66087E-02 3.49362E-02 7.32755E-06 1.63064E-01 3.88267E-05 9.46548E-05
 -1     27934 5.56459E-02 1.54319E-02 4.12215E-06 1.02219E-01 6.87481E-05 1.11798E-05
 -1     27935 5.53121E-02 1.59447E-02-8.02789E-07 1.02699E-01-2.12833E-05 2.24473E-05
 -1     27936 3.54527E-02 1.62612E-02 9.03034E-05 7.48010E-02 2.97518E-04 3.31564E-05
 -1     27937 8.03241E-02-4.48812E-03-4.95177E-05 8.42939E-02-4.63198E-05 6.15013E-06
 -1     27938 7.81765E-02-1.80180E-03-1.20750E-05 8.54759E-02 3.14499E-05-3.72482E-05
 -1     27939 5.20747E-02 1.78524E-02-2.08262E-05 1.01070E-01 4.23409E-05 9.37238E-06
 -1     27940-5.77253E-02 1.01480E-01-1.28154E-04 1.12471E-01 2.67580E-04 8.43843E-05
 -1     27941-6.20793E-02 1.21417E-01 5.34159E-06 1.20937E-01 3.06261E-04 2.14577E-04
 -1     27942-2.16949E-01 8.98212E-02-1.46670E-05-1.05537E-01-1.15325E-05 5.08312E-05
 -1     27943-2.24951E-01 9.17169E-02 4.15766E-07-1.15334E-01 9.96515E-06-1.29091E-05
 -1     27944-2.21149E-01 9.05818E-02 1.46313E-05-1.11152E-01-5.84913E-05 5.28027E-05
 -1     27945 7.58147E-02 3.43745E-02 2.05115E-05 1.60965E-01 1.30572E-05-3.41633E-05
 -1     27946-2.32517E-01 9.48705E-02-2.97123E-05-1.18919E-01-3.11112E-05-1.37597E-05
 -1     27947-2.35581E-01 9.61191E-02 6.67795E-06-1.20148E-01-4.40778E-05 3.31265E-06
 -1     27948 1.18473E-02-4.53816E-03-1.05546E-05 1.02045E-02-1.51628E-05 8.20459E-06
 -1     27949-2.37188E-01 9.69016E-02-1.06749E-04-1.21087E-01-1.09860E-04 8.43751E-05
 -1     27950-2.34953E-01 9.63078E-02 1.66005E-05-1.17973E-01-2.44471E-05-9.23221E-06
 -1     27951-2.28183E-01 9.50794E-02-3.64655E-05-1.09217E-01-8.84955E-05-1.83376E-04
 -1     27952 9.60267E-02 5.30737E-02 1.04491E-05 2.18698E-01 1.29823E-05 5.27032E-06
 -1     27953-6.02977E-02 7.68803E-02 9.76251E-07 9.54281E-02 1.17327E-04-9.88290E-06
 -1     27954 9.66450E-02 5.89713E-02 1.40811E-05 2.28186E-01 1.63329E-05-2.15427E-05
 -1     27955 5.29689E-02 5.33521E-02-6.87601E-06 1.61596E-01-2.22117E-05 5.75591E-05
 -1     27956 8.25015E-02 5.41550E-02-5.18206E-05 2.01506E-01 3.93009E-05-6.48260E-05
 -1     27957 5.47370E-02 6.33031E-02 3.68206E-05 1.77468E-01-7.12949E-06 7.64281E-05
 -1     27958 9.12572E-02 5.72569E-02-2.98804E-06 2.17641E-01 4.35225E-05-6.96561E-05
 -1     27959 6.98671E-02 2.47476E-02 7.80061E-06 1.37759E-01-1.73090E-05-2.97465E-05
 -1     27960 6.84801E-02 2.43143E-02 1.83103E-05 1.35161E-01 3.73654E-05-2.56350E-05
 -1     27961 8.23291E-02 5.84099E-02-5.58942E-06 2.06998E-01 6.97468E-05 4.40816E-05
 -1     27962 8.64698E-02 5.75551E-02-2.01452E-06 2.11356E-01 1.72168E-05 4.12707E-05
 -1     27963-8.36267E-02 6.00366E-02-2.34937E-06 1.06558E-02-3.12401E-06 2.89522E-06
 -1     27964-1.23146E-01 5.67920E-02 2.91518E-08-3.59793E-02 3.75667E-07-4.52809E-06
 -1     27965 4.62880E-02 1.10033E-02-1.58135E-05 8.42923E-02 6.54223E-05 4.11330E-05
 -1     27966 4.99569E-02 6.96754E-03 6.88668E-06 8.54637E-02 3.04472E-05 7.66532E-05
 -1     27967 5.15401E-02 7.75951E-03 9.94410E-06 8.74563E-02 1.52487E-05 1.28129E-05
 -1     27968 4.96458E-02 5.21790E-03-4.98700E-06 8.38464E-02 1.18880E-04-3.72577E-05
 -1     27969 5.45946E-02 2.23124E-03 2.68317E-05 8.73538E-02-1.21977E-04-4.15504E-05
 -1     27970-1.38473E-01 6.18330E-02-2.95940E-07-4.76298E-02-3.18485E-07-5.52096E-06
 -1     27971 7.26534E-02-2.11196E-02 1.29291E-05 5.26593E-02-5.65979E-05 5.91428E-05
 -1     27972 5.26993E-02 1.93766E-02 7.00530E-06 1.04789E-01-1.49791E-05-1.76455E-06
 -1     27973 5.78060E-02 2.31911E-02 2.54054E-06 1.17774E-01 4.97851E-05 3.00469E-05
 -1     27974 5.64921E-02 2.28309E-02 9.22534E-06 1.15194E-01 5.76944E-05 3.43155E-06
 -1     27975-1.37950E-01 6.67013E-02 3.15565E-06-4.19584E-02 5.11596E-06 4.37649E-06
 -1     27976-1.51954E-01 6.77507E-02-3.43620E-06-6.11350E-02-2.47682E-05 3.89203E-06
 -1     27977 6.84663E-02 5.78575E-02 1.06452E-04 1.87281E-01-1.67100E-04 1.24774E-05
 -1     27978-1.57799E-01 7.11392E-02-2.39019E-06-6.39170E-02 2.51752E-05 6.72391E-06
 -1     27979 6.15133E-02 1.69567E-02-1.21733E-05 1.13443E-01-3.66832E-05 4.05059E-06
 -1     27980-1.56174E-01 6.41018E-02 7.08754E-06-7.88891E-02-4.08439E-05-5.97814E-05
 -1     27981-1.50584E-01 6.30480E-02-3.30333E-05-7.18302E-02 2.03901E-04 3.97913E-05
 -1     27982-7.22471E-02 5.79820E-02-5.88251E-09 2.07262E-02-4.95702E-06 3.24689E-06
 -1     27983 8.95824E-02-2.35089E-03 3.12688E-07 1.23776E-01 5.85689E-06 1.91757E-05
 -1     27984-3.00370E-02-8.03274E-03 4.53534E-07 3.27402E-02-2.09090E-05-3.79154E-06
 -1     27985 9.64139E-02 5.88638E-02-2.89084E-05 2.27684E-01-9.64291E-06-8.19765E-06
 -1     27986 9.68645E-02 5.89832E-02-3.71920E-05 2.28429E-01 6.80325E-06-2.17980E-05
 -1     27987 4.84284E-02 7.64320E-03 6.44848E-05 8.45205E-02-5.92021E-05 1.07199E-05
 -1     27988 5.24990E-02 2.83641E-03 1.54503E-05 8.54631E-02-1.35863E-04-9.53052E-05
 -1     27989 4.83817E-02 7.48826E-03-4.85810E-05 8.41159E-02-6.25039E-05 2.50087E-05
 -1     27990 9.96008E-02 5.78893E-02 2.65207E-06 2.30755E-01 4.17259E-05 3.84325E-05
 -1     27991 4.84512E-02 1.92951E-02-6.64459E-06 9.82698E-02 6.07938E-05-1.36868E-05
 -1     27992-1.08521E-01 2.96008E-03-1.05917E-04-4.13391E-03 4.74803E-05 1.52709E-04
 -1     27993-1.14195E-01 5.79871E-03-2.00108E-05-1.08551E-03-2.71989E-04 1.02406E-04
 -1     27994-6.79218E-02 1.35833E-01-3.65705E-05 1.07319E-01 1.69886E-04-1.23881E-05
 -1     27995-1.15461E-01 1.89470E-03 6.46375E-05-8.04977E-03-1.58460E-04 1.26840E-04
 -1     27996-1.14896E-01 9.47782E-04 1.01946E-04-1.65084E-02-3.73580E-04 3.76187E-05
 -1     27997-5.06178E-02 1.04017E-01-4.04543E-04 1.42254E-01-2.50135E-04 7.41422E-04
 -1     27998 1.16405E-02-1.99425E-02-6.96389E-06 3.05678E-02-3.57912E-05 2.30470E-05
 -1     27999-1.10436E-03-1.78598E-02-8.40410E-09 2.76424E-02 3.51254E-07-1.40782E-05
 -1     28000-3.35765E-02 4.65443E-03-5.75880E-06 4.03900E-02-2.15923E-05-4.74350E-06
 -1     28001-1.25925E-01 5.73539E-02 5.90744E-07-3.60227E-02-2.42142E-06-1.67540E-06
 -1     28002 7.91287E-02-4.07520E-03-1.88145E-05 8.75294E-02 4.47526E-05 6.52356E-06
 -1     28003-6.42072E-02 1.17452E-01 1.43772E-04 9.92086E-02 1.57710E-03 1.07467E-03
 -1     28004-6.35971E-02 1.25399E-01-1.24432E-05 1.27510E-01 3.88182E-04 1.23361E-04
 -1     28005-1.42713E-01 5.71870E-02-3.61616E-05-1.04711E-02 5.88680E-05-3.26577E-04
 -1     28006 4.73249E-02 1.24433E-02-3.12545E-05 8.69419E-02-3.24486E-06-2.91576E-05
 -1     28007 5.08544E-02 9.08806E-03-1.33736E-05 8.76905E-02 1.01949E-05-2.82338E-05
 -1     28008-4.24169E-02 1.08911E-02 6.67062E-06 3.62029E-02 9.84003E-06-3.41621E-05
 -1     28009 2.05592E-02 6.23116E-02-6.40291E-06 1.35229E-01 4.93982E-06-1.28920E-05
 -1     28010-7.35660E-02 4.51233E-02-2.53243E-06 3.22829E-03-1.23690E-05-9.77990E-06
 -1     28011 7.43197E-02-7.57851E-03 5.75045E-05 5.92157E-02 4.21533E-05 2.21886E-05
 -1     28012-2.26518E-01 9.17385E-02-5.00982E-06-1.18085E-01 9.15023E-06 3.19204E-05
 -1     28013-2.08330E-01 8.47697E-02-3.83664E-06-1.07495E-01-3.24651E-05 8.50153E-06
 -1     28014-1.84187E-01 7.72612E-02 9.79966E-06-8.82670E-02-2.72607E-05-3.36739E-05
 -1     28015-1.93767E-01 7.97675E-02 1.44799E-05-9.73124E-02 4.07408E-05 1.30305E-05
 -1     28016-1.97329E-01 8.10641E-02 4.84451E-05-9.94401E-02 5.26635E-06 1.21170E-05
 -1     28017-1.99345E-01 8.19320E-02-2.98811E-05-1.00528E-01 5.14278E-05 2.58425E-05
 -1     28018-2.00283E-01 8.21868E-02 3.54761E-05-1.01172E-01 5.62377E-05 5.15235E-05
 -1     28019-1.62562E-01 7.17255E-02-1.01416E-05-7.00477E-02-1.76006E-05 2.51854E-05
 -1     28020 5.55212E-02 2.94945E-03-6.69392E-05 8.84157E-02-1.06269E-04 5.43787E-05
 -1     28021-1.11547E-01 4.50761E-02 4.20733E-05-5.69541E-02-5.15334E-05 1.49599E-05
 -1     28022-1.15731E-01 4.80236E-02 4.07891E-05-5.67739E-02-1.24398E-04-1.74254E-04
 -1     28023-2.05859E-01 8.40349E-02 4.25105E-06-1.05511E-01 1.32424E-05-3.74785E-05
 -1     28024-1.97694E-01 8.15159E-02 1.87636E-05-9.89158E-02 2.29432E-05 1.82094E-06
 -1     28025-2.04877E-01 8.36846E-02 5.96977E-06-1.04880E-01 2.53771E-05-1.00429E-05
 -1     28026 9.11439E-02 3.99890E-02 4.57477E-05 1.93345E-01-6.41525E-05-6.43358E-05
 -1     28027-1.72471E-01 1.63604E-02 6.03977E-05 4.27074E-03 2.06147E-04 1.12331E-04
 -1     28028 5.30773E-02 8.89646E-03-2.82289E-06 8.91488E-02-7.16202E-05-1.01140E-04
 -1     28029-9.10963E-02 4.81529E-02-4.58767E-06-1.16775E-02-8.68096E-06 5.07897E-07
 -1     28030-5.91305E-02 3.91997E-02-7.58981E-06 6.96851E-03 1.02870E-04 1.70536E-04
 -1     28031-4.72030E-02 4.89290E-02 3.45862E-05 3.96260E-02 1.52835E-04-4.46467E-05
 -1     28032-1.01590E-01-7.69888E-04-6.87920E-05-1.47336E-02 1.09508E-04 1.33577E-05
 -1     28033-1.64880E-01 7.27911E-02 2.54504E-05-7.01210E-02 1.96098E-05 4.01873E-05
 -1     28034-1.91893E-01 8.00949E-02-1.68447E-05-9.41014E-02-5.46153E-05-1.22577E-05
 -1     28035-1.89395E-01 7.91986E-02-3.66460E-05-9.22944E-02-1.70373E-05-1.90381E-05
 -1     28036-5.39906E-02 7.86745E-02 3.92160E-06 8.86314E-02 1.53426E-05 4.00431E-05
 -1     28037-1.02534E-02 6.81342E-02-5.03582E-05 1.14876E-01-4.76928E-04-1.21545E-03
 -1     28038-4.21676E-02 9.98066E-02-6.49183E-05 1.34325E-01 5.17402E-05 2.02597E-04
 -1     28039-3.42339E-02 8.10737E-02-5.60493E-05 1.25445E-01-3.63570E-04 9.78840E-04
 -1     28040-9.07243E-03 6.66193E-02 2.24875E-04 1.14947E-01-6.37988E-04-4.92739E-04
 -1     28041 5.24589E-02 7.01156E-03-6.57301E-06 8.80622E-02-1.09721E-04 1.87407E-05
 -1     28042 7.51220E-02 5.49700E-02-1.04387E-05 1.91271E-01 6.28383E-06-1.23515E-06
 -1     28043-2.02987E-01 8.28310E-02-1.13546E-05-1.03885E-01-6.04797E-05 1.04758E-05
 -1     28044 7.71247E-02-4.69304E-03-3.17283E-06 9.08790E-02-4.42299E-05-3.74672E-05
 -1     28045 6.81367E-02-7.19325E-03-8.07323E-05 5.13025E-02-1.76480E-05-4.83209E-05
 -1     28046-4.86064E-02 1.07652E-01-4.07984E-05 1.40400E-01 1.27262E-03 3.99507E-04
 -1     28047-4.94016E-02 1.10851E-01 9.32133E-05 1.47267E-01 5.97728E-06 5.63864E-04
 -1     28048-4.03186E-02 1.05902E-01 1.13128E-04 1.40561E-01-1.10413E-05 3.86392E-04
 -1     28049-3.54173E-02 1.02077E-01 3.82138E-05 1.36532E-01 2.32035E-04-2.51852E-04
 -1     28050-1.79594E-01 7.62996E-02 2.45770E-05-8.34825E-02-3.28992E-05 3.10143E-05
 -1     28051-1.82674E-01 7.71382E-02 2.99775E-05-8.62963E-02-3.97677E-05 7.87773E-05
 -1     28052-5.47278E-02 1.09874E-01 2.15389E-06 1.45177E-01-1.68459E-04 6.87561E-05
 -1     28053-1.28861E-01 6.15046E-02-1.01224E-05-3.97499E-02-8.21951E-05 7.75851E-05
 -1     28054-2.32113E-01 9.41117E-02-9.61899E-06-1.20884E-01-2.63980E-05 1.13612E-06
 -1     28055-2.34091E-01 9.49139E-02-3.06538E-05-1.21839E-01-3.22957E-05 1.52070E-05
 -1     28056-1.53716E-01 6.50544E-02-4.57670E-05-7.18489E-02-8.88972E-06-5.36163E-05
 -1     28057 3.61583E-02 1.73045E-02 1.22607E-04 7.76319E-02 2.72852E-04 2.55390E-04
 -1     28058 8.71745E-02 2.64110E-02-2.77394E-05 1.65233E-01-1.51968E-05-1.20661E-04
 -1     28059 3.69824E-02 6.95205E-03-1.39633E-04 6.67092E-02-2.12689E-04-2.23633E-05
 -1     28060 3.60378E-02 1.56959E-02-2.61711E-05 7.56581E-02-1.92846E-04-2.34253E-05
 -1     28061-7.90087E-02 1.60766E-01 1.59722E-04 1.22793E-01-7.69448E-05 7.91714E-05
 -1     28062-8.31231E-02 1.67986E-01-5.36613E-05 1.22292E-01 1.26705E-04-2.27657E-04
 -1     28063-6.99686E-02 1.37919E-01 5.49669E-05 1.27396E-01 1.77570E-04 3.35049E-04
 -1     28064-7.74453E-02 1.53949E-01 1.53518E-04 1.25025E-01 5.81830E-05 1.70411E-04
 -1     28065-4.36735E-02 8.02338E-02 6.95410E-06 9.92429E-02 2.39325E-05 3.51611E-05
 -1     28066-3.23683E-02 7.90213E-02 1.54772E-05 1.07371E-01-4.25852E-05-1.45969E-05
 -1     28067-2.17644E-01 8.91896E-02 2.49002E-05-1.09705E-01-3.60392E-05 9.98501E-05
 -1     28068-2.25914E-01 9.20081E-02-1.38177E-05-1.16117E-01-3.05549E-05 2.35162E-05
 -1     28069-1.14769E-02-6.20407E-03-4.34814E-05 3.95004E-03-6.57467E-06 1.22099E-05
 -1     28070-2.17975E-02-5.08670E-03-1.37193E-05-1.33894E-03-2.22140E-05-3.47522E-05
 -1     28071-1.63576E-02-2.52292E-03 1.51916E-05-3.30543E-03 1.47433E-05 8.91130E-06
 -1     28072-1.10273E-01 5.22736E-02-7.37258E-07-2.45307E-02 3.07404E-06-2.17458E-06
 -1     28073 2.43803E-02-6.18467E-03 1.15964E-05 1.71391E-02-1.08036E-06 2.96055E-05
 -1     28074-1.24779E-01 6.18708E-02-2.51186E-05-3.15055E-02 1.13087E-05 6.39388E-05
 -1     28075 8.55227E-02-1.32202E-02 4.09534E-05 7.48216E-02 7.22902E-05 5.85132E-05
 -1     28076 8.45152E-02-1.21775E-02-2.58258E-05 7.34747E-02-3.30073E-05 2.78576E-05
 -1     28077 8.38603E-02-1.00378E-02-1.22946E-05 7.59739E-02 2.23625E-05 1.33335E-04
 -1     28078 7.91114E-02-2.65616E-03 1.13736E-06 8.11865E-02-4.89693E-05-3.47206E-05
 -1     28079 7.91220E-02-2.83715E-03 7.69307E-06 7.87065E-02 3.95036E-05-4.47100E-05
 -1     28080 8.10060E-02-5.11133E-03-2.70055E-05 8.12858E-02 5.62266E-05 4.26457E-05
 -1     28081 5.82736E-02-7.36358E-03-6.31826E-06 4.10965E-02-7.49365E-05 1.21988E-04
 -1     28082-2.66909E-01 1.15849E-01 1.96923E-04-1.05136E-01-3.95474E-05-8.27027E-06
 -1     28083 8.54158E-02 5.74469E-02 4.21528E-05 2.09928E-01-2.64841E-07 4.27430E-05
 -1     28084 8.44131E-02 5.69329E-02 7.27674E-05 2.07773E-01 8.28845E-05 1.88660E-05
 -1     28085 2.49511E-02-9.75358E-03-1.67875E-05 1.95638E-02-2.12278E-05-2.57911E-05
 -1     28086-5.12925E-02 9.77344E-02 2.12098E-04 1.39064E-01 3.78577E-04-8.62572E-04
 -1     28087 8.30576E-02-7.91638E-03 1.36209E-05 8.04745E-02 5.90142E-06-4.03762E-05
 -1     28088 8.30457E-02-7.71856E-03-2.50464E-05 8.23069E-02 3.04289E-05 2.99407E-06
 -1     28089-1.58120E-01 6.58116E-02 1.54837E-05-7.67548E-02 4.20706E-05 3.59643E-05
 -1     28090-1.56037E-01 6.50696E-02 2.99278E-05-7.55893E-02 3.81075E-05 4.80352E-06
 -1     28091-1.45519E-01 6.38665E-02 1.92071E-05-6.08413E-02-3.89825E-06-7.38872E-05
 -1     28092 5.48008E-02 9.12129E-03 1.36455E-05 9.09979E-02 1.51695E-05-1.39778E-05
 -1     28093 6.07868E-02 5.12518E-03 2.20832E-06 9.20562E-02 5.61946E-06 2.97472E-05
 -1     28094 6.49887E-02 1.59579E-03 3.21405E-05 9.16563E-02 4.98621E-05 7.26075E-05
 -1     28095 8.36393E-02-8.85292E-03-5.87304E-06 7.87859E-02 1.34662E-06-1.56709E-05
 -1     28096 8.86215E-02-1.49499E-02 9.70999E-06 8.26036E-02-1.82956E-05 9.30600E-06
 -1     28097 8.72879E-02-1.38824E-02 1.89272E-05 7.95892E-02 1.91564E-05 1.25565E-05
 -1     28098 8.16304E-02-6.43655E-03 7.61812E-06 7.74626E-02 3.08513E-07 6.97467E-07
 -1     28099 8.68030E-02-1.28491E-02-9.86739E-06 8.11514E-02 2.84449E-05 2.07483E-05
 -1     28100-2.78931E-03-1.30785E-02 3.43611E-07 4.73899E-02 6.27066E-06-1.59026E-05
 -1     28101-8.52725E-03-8.85144E-03 1.39276E-07 4.80956E-02-1.56287E-05-1.18600E-06
 -1     28102-5.06862E-02 1.03145E-01 4.65734E-04 1.33298E-01 4.86676E-04-5.32089E-05
 -1     28103 9.08249E-02-7.88795E-04 1.74648E-06 1.38677E-01-2.62041E-05-3.30852E-05
 -1     28104-6.94315E-02 1.38822E-01-2.71636E-05 1.23291E-01 1.40164E-05-8.54206E-05
 -1     28105-6.68750E-02 1.31125E-01 9.95436E-05 1.22577E-01-2.37732E-04-6.58044E-06
 -1     28106 8.11596E-02-5.62091E-03-2.84658E-06 7.85494E-02-1.00434E-05-5.21121E-06
 -1     28107 7.89767E-02-2.87452E-03-1.02354E-05 7.74172E-02 1.79813E-05 2.81872E-05
 -1     28108 8.35099E-02-8.72329E-03-2.44137E-05 7.90036E-02 2.51748E-06 9.53466E-06
 -1     28109 8.10819E-02-5.40023E-03 1.18601E-05 8.09890E-02-1.07213E-07 3.47198E-05
 -1     28110 7.95470E-02-3.53774E-03-1.13825E-05 7.82935E-02 5.11393E-06-2.44287E-05
 -1     28111-7.01624E-02 1.40912E-01 6.42859E-05 1.30024E-01 2.43517E-04-1.13170E-05
 -1     28112-7.64219E-02 1.54105E-01-1.94436E-04 1.27482E-01 5.83994E-04 3.73931E-04
 -1     28113 4.33996E-03 8.28770E-02 2.27971E-06 1.43364E-01-7.12932E-05-1.07772E-05
 -1     28114 6.75891E-02 3.03637E-02-2.29667E-05 1.42823E-01 6.36140E-05 3.51022E-05
 -1     28115 3.09305E-02-1.77193E-02 1.03641E-06 6.77063E-02-1.50057E-05-3.58729E-05
 -1     28116-7.81219E-02 3.87662E-02 9.80399E-06-1.80638E-02-6.79170E-05 1.72059E-04
 -1     28117 8.57230E-02-1.15378E-02 1.68540E-06 8.80328E-02 1.48685E-05-2.20903E-05
 -1     28118 8.41630E-02-9.34555E-03 5.33791E-06 8.49706E-02 1.51465E-05-6.51387E-06
 -1     28119-1.84250E-01 7.75631E-02 4.65496E-06-8.81806E-02-5.78462E-06-1.59746E-04
 -1     28120-1.91371E-01 7.95576E-02 1.59342E-05-9.43368E-02-5.33993E-05-1.02327E-05
 -1     28121-5.52102E-02 9.38039E-03-5.24372E-07 3.27809E-02 2.99446E-05-1.74257E-05
 -1     28122-1.11673E-01 3.22549E-02 6.59610E-06 1.54947E-02 1.28467E-04 2.45226E-05
 -1     28123 1.35777E-02-3.51293E-03-8.72721E-06 1.01902E-02-2.03797E-04-1.55492E-06
 -1     28124-1.66212E-01 7.34606E-02-5.35139E-05-7.08303E-02-2.70817E-05 1.62145E-05
 -1     28125-2.01124E-01 8.25888E-02 1.58594E-05-1.01626E-01 1.48107E-05 3.97140E-05
 -1     28126 1.46558E-02-8.36163E-03-1.67569E-05 1.34695E-02-4.44901E-05 8.31746E-06
 -1     28127 1.69990E-02-1.61307E-02-5.06460E-06 2.29691E-02 3.81344E-05-1.06325E-05
 -1     28128-5.78646E-02 2.30074E-02 1.64757E-05 2.61802E-02-7.76856E-05 8.02248E-06
 -1     28129 5.53343E-02 9.81667E-03-5.97350E-06 9.24480E-02-7.10121E-05-4.40115E-05
 -1     28130 4.57850E-02 1.37988E-02 7.46642E-05 8.65098E-02 7.02226E-05 3.00628E-05
 -1     28131 5.17893E-02 7.36600E-03-8.90215E-05 8.74739E-02-1.74932E-05-2.15094E-05
 -1     28132-2.20472E-01 8.93555E-02-1.57326E-05-1.14829E-01-4.27744E-06 1.64953E-05
 -1     28133-2.19378E-01 8.89161E-02 9.57062E-06-1.14264E-01 1.48283E-06 3.83046E-06
 -1     28134 9.26013E-02 3.08772E-02-4.38817E-05 1.80242E-01-4.13874E-05 5.59520E-05
 -1     28135 9.36057E-02 2.29346E-02-3.41370E-06 1.70354E-01 1.55838E-05-8.00966E-05
 -1     28136 9.42538E-02 5.88112E-02-1.76560E-05 2.24339E-01 3.84537E-05 5.61778E-05
 -1     28137 8.64188E-02 5.84510E-02 4.54136E-05 2.12881E-01 6.19568E-05 9.80833E-05
 -1     28138 9.15600E-02 5.86371E-02 3.34950E-05 2.20665E-01 4.20814E-05 5.75138E-05
 -1     28139-8.34740E-02 1.72144E-01-3.66866E-04 1.21535E-01 3.64030E-04-4.70538E-04
 -1     28140-8.44443E-02 1.72033E-01-5.79186E-05 1.19793E-01-1.93025E-04 8.60310E-04
 -1     28141 5.01800E-02 1.45160E-02-1.21324E-06 9.29918E-02 3.77114E-05 1.53064E-05
 -1     28142 8.23090E-02-6.93200E-03 5.12381E-06 8.34786E-02 9.28056E-05-1.60634E-05
 -1     28143 8.69080E-02-1.26778E-02 9.28419E-06 8.51025E-02 4.16589E-06 1.94780E-05
 -1     28144 4.96281E-02 1.37545E-02-1.80765E-05 9.10844E-02 3.50574E-05-3.71389E-06
 -1     28145 8.38735E-02-1.01283E-02 2.21739E-05 7.63121E-02-1.98699E-06-6.91811E-05
 -1     28146-4.34407E-02 1.81732E-02 1.38800E-05 3.33917E-02-5.80609E-05-7.98217E-05
 -1     28147 4.28629E-02-5.83406E-03 3.94104E-05 2.82701E-02-3.89249E-05-6.42914E-05
 -1     28148 4.68313E-02-6.93559E-03-1.08124E-05 3.13867E-02 4.92155E-05-1.11746E-05
 -1     28149 8.06057E-02 5.83410E-02-1.80211E-05 2.04860E-01-5.09603E-05 1.70202E-05
 -1     28150 8.11270E-02 5.85534E-02 2.38454E-05 2.05963E-01 3.05254E-05-3.41503E-05
 -1     28151-5.59382E-02 1.10908E-01 2.48955E-04 1.49130E-01-9.05480E-05 6.84130E-04
 -1     28152 9.09670E-02 3.80041E-02 2.52239E-05 1.90293E-01-9.04246E-06-2.62066E-06
 -1     28153 9.20455E-02 4.54469E-02 1.61656E-05 2.02079E-01 4.46049E-05 1.19968E-05
 -1     28154 7.30820E-02-2.77261E-02-2.77319E-06 9.03022E-02-5.27114E-05 8.20691E-05
 -1     28155 7.54771E-02-1.81581E-02 7.88197E-06 1.04356E-01-5.47644E-05 3.60842E-05
 -1     28156-2.16007E-01 8.76252E-02-2.00134E-05-1.12400E-01-9.37771E-06 3.99826E-06
 -1     28157-1.45730E-01 8.40128E-03 1.04275E-04-2.96634E-03-7.79489E-04 3.45146E-04
 -1     28158 6.98872E-02 5.79768E-02 5.47927E-07 1.90175E-01-1.03812E-05-1.59169E-05
 -1     28159 8.60840E-02 5.83085E-02-2.01976E-05 2.11811E-01 2.31859E-06 1.78914E-05
 -1     28160 9.26942E-02 5.88956E-02 1.88116E-05 2.22431E-01-1.15991E-05-6.42118E-05
 -1     28161-3.42584E-01 1.43569E-01-2.48337E-03-1.12259E-01 1.38607E-03-1.54181E-03
 -1     28162-3.54105E-01 1.56904E-01-6.06485E-04-8.34349E-02 4.98998E-04 6.29536E-05
 -1     28163-1.96246E-01 8.07178E-02-6.20277E-06-9.87866E-02 2.44678E-05 8.10148E-06
 -1     28164-2.23591E-01 9.10357E-02 2.36037E-05-1.14768E-01-1.65445E-05 5.43820E-05
 -1     28165-2.31383E-01 9.38257E-02-5.36891E-06-1.20373E-01 8.59382E-06-2.61852E-05
 -1     28166-2.28274E-01 9.25376E-02 8.27464E-06-1.18892E-01-1.71361E-05 2.33962E-04
 -1     28167-6.82278E-02 7.36892E-02-3.35289E-07 7.70014E-02 1.34060E-05-3.48211E-05
 -1     28168-6.52582E-02 7.48269E-02 1.01929E-05 8.51297E-02 1.23036E-05-4.00274E-05
 -1     28169-6.95294E-02 6.72156E-02-5.55556E-06 6.54836E-02 1.28772E-05 1.73621E-05
 -1     28170 8.53200E-02-1.15692E-02-1.79063E-05 7.76757E-02 1.02860E-05-8.16377E-06
 -1     28171 8.89674E-02-1.65817E-02 4.89197E-06 7.86764E-02 1.76456E-05-3.11409E-06
 -1     28172-1.39508E-01 2.21809E-03-5.67178E-05-1.39990E-02-6.52582E-04-2.99936E-04
 -1     28173-6.42262E-02 6.82934E-02-3.76547E-07 7.54165E-02 1.42985E-06-2.96995E-05
 -1     28174-7.33043E-02 6.06395E-02-8.71477E-08 4.63803E-02 2.70504E-05-5.88080E-06
 -1     28175-6.33473E-02 6.18988E-02-1.69528E-05 6.15803E-02-2.47852E-05-9.28623E-06
 -1     28176-5.79001E-02 7.42408E-02 8.08267E-06 9.28100E-02 6.79341E-05 7.54161E-05
 -1     28177-8.23886E-02 3.66622E-02 1.02509E-04-2.77856E-02 4.58670E-03 2.14632E-03
 -1     28178 9.28281E-02 4.39934E-02-1.19990E-05 2.00876E-01 9.11423E-05 1.08775E-04
 -1     28179-6.78659E-02 3.82734E-02-7.79962E-05-1.12641E-02-5.33559E-04-1.15289E-04
 -1     28180 9.14221E-02 4.10848E-02 3.00852E-05 1.95246E-01 5.75391E-05 2.45824E-05
 -1     28181 9.35598E-02 5.87737E-02-1.13682E-05 2.23488E-01 2.61525E-06-5.93693E-05
 -1     28182-1.21013E-01 5.02283E-02-5.49853E-06-5.88871E-02 7.70939E-05-8.49882E-05
 -1     28183-1.71987E-01 7.31159E-02-8.02203E-06-8.01510E-02 6.67079E-06-4.33470E-05
 -1     28184 8.31835E-02 5.65700E-02-2.76033E-05 2.05127E-01 1.13198E-04-3.41882E-06
 -1     28185 9.53731E-02-2.43344E-02 8.87091E-07 8.32463E-02 1.89043E-05 2.40801E-05
 -1     28186 7.98799E-02 5.70863E-02 6.19918E-05 2.01633E-01-1.13408E-04-1.42936E-04
 -1     28187 7.08539E-02 5.98740E-02 4.21577E-05 1.93953E-01 1.54918E-04 4.96676E-05
 -1     28188 7.14116E-02 5.94268E-02 8.20090E-06 1.93457E-01-1.22349E-04-8.79913E-05
 -1     28189-1.25193E-01 4.74883E-02-1.97645E-05 2.09524E-03-8.41128E-05 5.85475E-05
 -1     28190 7.94653E-02-3.66716E-03-4.27217E-06 7.68222E-02-5.60193E-06-2.66419E-05
 -1     28191-1.38274E-01 6.60804E-02 2.58341E-05-4.37690E-02 2.71023E-05 3.03896E-05
 -1     28192 2.63590E-02-9.78291E-03 5.30896E-05 1.99245E-02-4.00629E-05-1.67960E-05
 -1     28193 3.38162E-02-1.73558E-02-3.39976E-05 2.89736E-02 2.62152E-05 3.08075E-05
 -1     28194-1.95034E-03 1.81342E-02-1.49823E-06 6.15338E-02-1.04685E-05-1.33930E-05
 -1     28195 4.27022E-02 1.83839E-02 5.23329E-05 8.92949E-02 5.65450E-05 5.71746E-05
 -1     28196 4.84972E-02 1.45948E-02-2.60903E-05 9.09969E-02-4.44129E-05-3.97074E-06
 -1     28197 4.38903E-02 1.90353E-02-2.25769E-05 9.14378E-02-1.08240E-05-3.35257E-05
 -1     28198 8.30907E-02-7.91561E-03-1.79383E-05 8.10605E-02 1.92239E-05 6.04845E-06
 -1     28199 8.50475E-02-1.05297E-02 1.38428E-05 8.22988E-02 1.92066E-05-2.74031E-07
 -1     28200-8.27248E-02 6.93907E-02-1.28003E-06 4.06678E-02-2.08640E-05 5.71460E-07
 -1     28201-9.25680E-02 6.73969E-02 3.23427E-07 2.42855E-02 5.84545E-06-1.58171E-05
 -1     28202-8.33772E-02 6.89494E-02-1.48324E-06 3.71144E-02-1.23016E-05 2.75315E-05
 -1     28203 9.24747E-02-2.22591E-02-3.93091E-07 7.84689E-02-3.15079E-06 3.50367E-05
 -1     28204 5.43391E-02-7.30612E-03-3.36133E-05 3.76133E-02-2.02372E-04-5.12969E-05
 -1     28205-1.70217E-01 7.11759E-02 9.92936E-06-8.21050E-02-2.30112E-05-2.35098E-06
 -1     28206-4.11024E-02 3.07687E-02 3.03199E-06 3.06910E-02-9.61327E-06 1.17429E-06
 -1     28207 8.12772E-02-5.58356E-03-1.93758E-06 7.97495E-02-3.45903E-05 4.55030E-05
 -1     28208 8.56619E-02-1.15110E-02 1.10820E-05 7.93097E-02 7.37145E-06 3.21642E-05
 -1     28209-2.20413E-01 9.36982E-02 5.50197E-05-4.56667E-02 2.98350E-04-7.11124E-05
 -1     28210 8.61810E-02 5.83765E-02-4.24991E-05 2.11974E-01-4.84840E-05-1.17315E-04
 -1     28211 7.94967E-02 5.82981E-02 4.96277E-05 2.03089E-01-7.51452E-05 2.45406E-05
 -1     28212-1.37292E-01 9.20067E-03-2.38905E-04 3.57728E-04-1.07329E-04 1.37424E-04
 -1     28213-1.63285E-01 2.97919E-02-2.27964E-04 9.20986E-03-6.12986E-05 1.46797E-04
 -1     28214 7.50305E-02 3.60466E-02-2.83244E-06 1.67216E-01 1.42419E-05 1.51701E-05
 -1     28215-6.98688E-02 7.42068E-02 5.37521E-06 6.79350E-02-2.98801E-06 5.03091E-05
 -1     28216-7.72083E-02 7.09268E-02 3.40284E-06 5.24444E-02 3.74567E-06 2.52669E-05
 -1     28217 4.18370E-02 1.88648E-02-1.32045E-05 8.87376E-02-3.63416E-05-1.60456E-05
 -1     28218 4.11425E-02 1.85493E-02-1.68775E-05 8.71424E-02-8.08495E-06 3.35635E-05
 -1     28219 6.57333E-02 2.40963E-02-5.38207E-06 1.30659E-01-5.04263E-06 1.07587E-04
 -1     28220 3.98352E-02 1.61688E-02-2.27597E-05 8.24018E-02-4.33270E-05 4.91781E-05
 -1     28221 7.84815E-02 5.67089E-02-5.02366E-05 1.98905E-01-6.30201E-06 3.84118E-05
 -1     28222 4.79471E-02 5.02797E-03-7.67573E-06 8.13449E-02 3.52309E-04 4.09152E-05
 -1     28223 9.20215E-02 4.53618E-02 9.01597E-06 2.01830E-01-4.81052E-05-4.46952E-05
 -1     28224-1.00230E-01 4.92384E-02 2.57236E-07-2.39500E-02 1.98328E-05-1.09720E-05
 -1     28225 9.04180E-02 2.07953E-02 1.27657E-05 1.66271E-01-4.27061E-06-6.45284E-06
 -1     28226 9.32665E-02 5.89446E-02-6.61932E-06 2.23332E-01-3.83539E-05-6.17350E-05
 -1     28227 9.22174E-02 5.86376E-02 1.01052E-05 2.21429E-01-4.35970E-05-3.51625E-05
 -1     28228 9.98948E-02-2.75125E-02-1.95462E-05 1.08909E-01 5.94539E-05-1.55207E-05
 -1     28229 8.61446E-02-1.75529E-02 2.34863E-07 1.13813E-01 3.58826E-05-3.06971E-05
 -1     28230 9.16988E-02 5.68862E-02-1.53737E-05 2.17969E-01-1.18020E-05 2.70293E-05
 -1     28231 7.73070E-02-3.29213E-02-1.08879E-08 8.56461E-02-1.32399E-05-8.92894E-06
 -1     28232 9.44128E-02 4.19581E-02-2.34911E-05 1.99421E-01 8.23083E-05 3.71502E-05
 -1     28233 9.41681E-02 3.89187E-02 2.57651E-05 1.94814E-01-1.51003E-05-4.62197E-06
 -1     28234-5.92747E-02 1.15034E-01 3.02335E-04 1.11402E-01 4.48067E-04 1.95646E-04
 -1     28235-7.19971E-02 1.45547E-01-1.41274E-04 1.28480E-01 2.34994E-04-2.37757E-04
 -1     28236-8.44088E-02 6.84014E-02-2.67918E-06 3.91449E-02-9.77389E-06-4.03710E-05
 -1     28237-6.94153E-02 4.66809E-02-7.64584E-06 8.13678E-03 6.02687E-06-1.47017E-06
 -1     28238-1.78871E-01 7.59359E-02 2.55539E-05-8.33608E-02-1.48124E-05-2.38731E-05
 -1     28239 4.40650E-02 1.07675E-02-8.61647E-06 8.13165E-02 1.38200E-04-8.23434E-05
 -1     28240-1.63972E-01 7.18363E-02 2.97236E-06-7.01461E-02 1.50513E-07-1.29349E-05
 -1     28241-7.46906E-02 5.42284E-02-1.49952E-05 3.09820E-02-3.82780E-06-2.70222E-05
 -1     28242-1.88637E-01 7.84508E-02-1.22042E-05-9.18847E-02 2.32033E-05-3.93715E-05
 -1     28243-1.80761E-01 7.68029E-02 1.83147E-05-8.48328E-02-3.50330E-05-3.53368E-06
 -1     28244-2.60846E-02 2.75732E-02-4.66538E-06 4.29788E-02 7.95792E-06 5.58694E-06
 -1     28245-1.98213E-01 8.14561E-02-5.44353E-05-9.99668E-02 6.71146E-06-4.84557E-05
 -1     28246-1.86129E-01 7.82128E-02-2.03897E-05-8.90552E-02-3.80664E-05-2.90313E-05
 -1     28247 6.95736E-02-8.43060E-04 6.11920E-05 9.30702E-02-4.54066E-05-2.93053E-05
 -1     28248-1.84833E-01 7.76775E-02 3.54772E-05-8.83975E-02 2.72658E-05 5.82177E-05
 -1     28249-1.81656E-01 7.68033E-02 6.58440E-07-8.57195E-02 9.04384E-06 2.54109E-05
 -1     28250-1.80487E-01 7.36823E-02 3.46502E-06-9.21166E-02-1.47456E-05-1.08815E-05
 -1     28251-1.78564E-01 7.30005E-02-3.24588E-06-9.11014E-02-2.07394E-05-1.05050E-05
 -1     28252-8.98173E-02 4.20239E-02 8.54887E-05-2.92232E-02 2.25301E-05 2.48613E-04
 -1     28253-8.89123E-02 4.25466E-02-7.66190E-05-2.64659E-02 1.20184E-04-1.18847E-04
 -1     28254-1.45385E-01 6.80307E-03 6.38386E-04-1.43255E-03 1.38184E-03-1.04269E-04
 -1     28255-1.28532E-01 7.45540E-03 2.38766E-04 1.64659E-03 2.66713E-04 9.96654E-05
 -1     28256-1.31685E-01 9.58342E-04 1.13598E-04-1.63465E-02-2.05336E-04 2.92590E-04
 -1     28257-1.55703E-01 5.33553E-04 2.00022E-04-1.42767E-02-4.63456E-04-3.53930E-04
 -1     28258 4.79347E-02 1.38207E-02 7.19215E-06 8.93971E-02-1.59251E-05 1.90248E-05
 -1     28259 7.61477E-02-1.48010E-02-3.63439E-05 5.73491E-02 1.12984E-04 1.06497E-04
 -1     28260 4.75858E-02-6.12108E-03 2.37620E-05 3.19769E-02-1.16372E-04-2.97587E-05
 -1     28261-1.78714E-01 7.59388E-02-2.95381E-05-8.38085E-02 9.14736E-06 4.88612E-05
 -1     28262-1.57791E-01 6.95789E-02-1.02137E-06-6.81300E-02 1.33636E-05 3.96778E-06
 -1     28263-2.03580E-01 8.33710E-02 4.52201E-07-1.03483E-01-5.16818E-06-3.15859E-05
 -1     28264-2.01561E-01 8.26994E-02-3.65314E-06-1.02123E-01 2.76549E-05 1.21412E-05
 -1     28265-2.08210E-01 8.49759E-02-1.50272E-05-1.06729E-01-1.15200E-05-2.17608E-05
 -1     28266-1.76229E-01 7.54994E-02-1.54772E-05-8.09512E-02 2.47808E-05 3.01052E-05
 -1     28267 7.46594E-02-3.57675E-02-1.40114E-06 6.57102E-02-1.54386E-05-1.45099E-05
 -1     28268 6.13378E-02 2.88519E-02-3.35551E-05 1.31590E-01 4.53252E-06 4.80847E-05
 -1     28269-2.59860E-01 4.95112E-02 9.06203E-04 1.94330E-02-1.08943E-04 7.13067E-05
 -1     28270-1.28035E-01 5.30955E-02 9.45368E-06-6.26273E-02-7.44128E-05-6.00417E-05
 -1     28271-1.05879E-01 4.88155E-02-3.76874E-05-3.61669E-02 3.07175E-05 8.86625E-05
 -1     28272-1.77667E-01 7.60362E-02-1.02443E-05-8.14760E-02-3.02341E-05-1.19953E-04
 -1     28273-1.89272E-01 7.86299E-02 8.77010E-06-9.31572E-02-9.43551E-06 6.46636E-05
 -1     28274-1.87392E-01 7.79807E-02 6.34982E-07-9.17929E-02-5.91227E-05-2.80080E-05
 -1     28275 4.04055E-02 5.35168E-02 2.99114E-07 1.46414E-01-2.21183E-05 1.34932E-06
 -1     28276-2.03662E-01 8.35312E-02 4.11803E-07-1.02952E-01 2.82033E-05-4.05841E-05
 -1     28277-1.89103E-01 7.86376E-02-6.25669E-06-9.29909E-02 2.44861E-05-6.00787E-05
 -1     28278-1.80518E-01 1.99271E-02-4.53462E-04 2.93263E-03 1.64264E-03-6.22401E-04
 -1     28279 5.18470E-02-5.76437E-03-4.01160E-05 3.55661E-02-1.22893E-04-2.95140E-05
 -1     28280 5.72967E-02-1.24246E-02-6.68743E-05 3.95981E-02-1.46088E-04 2.72319E-06
 -1     28281 5.52232E-02-1.40085E-02-2.11878E-05 3.83018E-02-9.29179E-05-9.83292E-05
 -1     28282 6.19285E-02-1.56446E-02 1.58714E-06 4.34566E-02 1.16343E-04-7.34094E-06
 -1     28283-3.49004E-01 1.47588E-01 2.51734E-05-6.67475E-02 2.64251E-03 2.61667E-03
 -1     28284 6.82765E-02-3.36906E-02 1.48316E-07 5.89604E-02-5.61750E-06 1.06251E-05
 -1     28285 9.06758E-02-1.55206E-02 6.86648E-06 1.20343E-01-3.33552E-06-4.90479E-06
 -1     28286 9.01736E-02-1.63079E-02-1.94959E-06 8.67843E-02 7.15014E-06 3.47526E-06
 -1     28287 9.30688E-02-1.93996E-02 1.76585E-07 8.84428E-02-1.60466E-05 7.44289E-07
 -1     28288-2.20300E-01 9.03143E-02-3.34476E-05-1.10853E-01 5.68657E-05-1.37507E-04
 -1     28289-2.07644E-01 8.51706E-02 2.13884E-05-1.04193E-01-4.33350E-05 1.34287E-05
 -1     28290-7.40753E-02 7.03758E-02-5.63422E-06 6.12938E-02-4.58599E-05-5.47836E-05
 -1     28291 7.94577E-02 5.83207E-02 1.55817E-05 2.03100E-01 2.23324E-05 6.65643E-06
 -1     28292-6.86413E-02 1.35476E-01-7.86061E-05 1.28367E-01-4.14857E-04-2.11775E-04
 -1     28293-6.46148E-02 1.27252E-01-6.30011E-05 1.35535E-01 2.28330E-06-4.39846E-05
 -1     28294-1.66522E-02-2.95779E-03-6.73215E-06 4.62679E-02-7.17795E-06-2.15179E-05
 -1     28295-6.34925E-02 1.23297E-01 4.33273E-05 1.32084E-01-2.98051E-05-8.18688E-05
 -1     28296 8.24447E-02-1.32795E-02-9.30563E-05 6.74507E-02-1.23751E-04 2.03122E-05
 -1     28297 1.48848E-02-1.83827E-02-4.71737E-06 2.52308E-02 9.09037E-06-7.39512E-06
 -1     28298-4.95036E-02 1.07737E-01-4.68192E-05 1.40937E-01-8.39310E-04 2.62883E-04
 -1     28299-2.33097E-01 9.44786E-02-7.83710E-05-1.21346E-01-1.12031E-05-6.66823E-05
 -1     28300-2.79847E-02 9.41947E-02-2.74292E-04 1.28002E-01 6.19360E-04-5.77750E-04
 -1     28301-6.10857E-03-8.57350E-03-4.60234E-05 7.80891E-03 2.78604E-05 8.18549E-06
 -1     28302 2.76888E-03-1.42942E-02-2.97335E-05 1.88622E-02-5.66966E-05 8.64323E-05
 -1     28303 5.42162E-03-1.13292E-02 1.91763E-05 1.34469E-02-3.10207E-06-5.50486E-05
 -1     28304-1.55870E-01 6.94482E-02 3.75625E-06-6.58055E-02-8.20049E-06 2.68543E-05
 -1     28305-6.36749E-02 1.23977E-01-2.17149E-05 1.32988E-01 3.98700E-05 7.86934E-05
 -1     28306-6.38964E-02 1.27266E-01-1.27313E-05 1.26513E-01 9.59235E-05-2.44874E-06
 -1     28307-4.36582E-02 5.91399E-02 1.15452E-06 5.69142E-02-6.60455E-06-3.17632E-06
 -1     28308 5.66972E-02 2.58541E-02 2.29930E-05 1.20547E-01 4.07299E-06 3.28901E-05
 -1     28309 8.30678E-02-7.85122E-03 2.30643E-05 8.30182E-02-3.57180E-05 7.86215E-05
 -1     28310-2.23452E-01 9.19739E-02 1.64555E-05-1.11398E-01 3.42730E-05-1.03531E-04
 -1     28311-2.15175E-01 8.72503E-02-8.82289E-06-1.11933E-01 1.76785E-05 4.30854E-05
 -1     28312-1.79956E-01 7.71747E-02-3.17932E-06-6.94047E-02 7.02973E-06 8.49722E-06
 -1     28313-7.09467E-03-9.70651E-03 1.56206E-05 9.65789E-03 6.75226E-05 6.76145E-06
 -1     28314-1.19653E-01 3.96823E-02-1.88666E-05 1.16112E-02 9.88145E-08 9.78174E-05
 -1     28315 8.42482E-02 5.68553E-02-4.43881E-05 2.07583E-01-3.79581E-05-1.83021E-06
 -1     28316 9.45025E-02 5.89137E-02-2.60485E-05 2.25003E-01 1.50207E-06-4.42826E-05
 -1     28317 9.40305E-02 3.94944E-02-1.35155E-05 1.95994E-01 2.64210E-06-7.50496E-05
 -1     28318 9.48896E-02 4.54026E-02-1.32561E-05 2.05625E-01-7.28521E-05 3.66818E-05
 -1     28319-1.38907E-01 6.25529E-02 2.55629E-05-5.34878E-02-3.83828E-05-2.06488E-05
 -1     28320-1.18228E-01 6.08088E-02-8.25229E-06-2.39168E-02-2.64974E-06 1.45434E-05
 -1     28321-3.27614E-01 1.43373E-01-2.44058E-04-1.05411E-01 2.47498E-03 9.33206E-04
 -1     28322 4.75269E-02 8.90045E-03 2.51703E-06 1.04253E-01-6.70216E-07-3.16220E-05
 -1     28323 4.50422E-02-1.34179E-02 2.50977E-06 3.18141E-02 3.85033E-05 8.90936E-05
 -1     28324 8.40756E-02 7.28437E-03-1.52482E-05 1.31024E-01-2.60041E-05-3.65965E-05
 -1     28325 5.07039E-02 7.19286E-03-1.18843E-05 8.63630E-02-7.29867E-05-2.41590E-06
 -1     28326-1.33521E-01 6.34136E-02-1.67010E-06-4.71362E-02-1.81468E-05-4.63666E-06
 -1     28327 5.57809E-02 2.26195E-03-1.78898E-05 8.83368E-02 1.73981E-04 1.04160E-05
 -1     28328-1.65428E-01 6.84316E-02-3.52308E-05-8.19331E-02-1.53569E-05 2.25989E-06
 -1     28329-1.58482E-01 6.72301E-02-2.64698E-05-7.34005E-02-1.93742E-05-1.08854E-05
 -1     28330 7.27744E-02-1.55718E-02-6.37569E-05 5.33235E-02 7.96616E-07-3.46893E-05
 -1     28331 4.24173E-02 1.91777E-02 1.77373E-06 8.96965E-02 4.65728E-05-8.87368E-06
 -1     28332 9.33258E-02 5.82728E-02-3.83383E-05 2.22151E-01-2.92593E-05-2.83638E-05
 -1     28333 8.25125E-02 5.74034E-02-2.98724E-05 2.05845E-01-7.30788E-06-1.77761E-05
 -1     28334 7.58411E-02 1.08612E-02-1.41195E-05 1.24632E-01-9.97204E-06-2.15387E-05
 -1     28335 7.12657E-02 1.88382E-02-7.90338E-06 1.30272E-01 3.51449E-05 2.47400E-05
 -1     28336 7.05956E-02 1.82413E-02 1.96309E-05 1.28474E-01 2.95404E-05 5.91308E-05
 -1     28337 7.30182E-02 2.03559E-02 7.79048E-06 1.35567E-01-3.50607E-05-2.90666E-05
 -1     28338 7.70183E-02 2.03544E-02 8.47314E-06 1.40885E-01 1.69754E-05-1.07120E-04
 -1     28339 7.23449E-02 5.36931E-02 6.34448E-05 1.85562E-01 1.12816E-05-1.27925E-05
 -1     28340-7.99848E-02 3.94312E-02 1.08445E-03-2.89500E-02 1.61367E-03-1.50079E-03
 -1     28341 7.97620E-02 1.29454E-02-4.23697E-05 1.33541E-01 6.85319E-05 4.92658E-05
 -1     28342-6.45478E-02 5.46859E-02-4.41626E-08 2.39937E-02-1.28909E-06-3.22586E-06
 -1     28343 8.64288E-02 5.67327E-02-3.74494E-05 2.10397E-01-1.02884E-05-1.52045E-06
 -1     28344 7.92694E-02-2.76060E-03-1.84387E-06 8.07957E-02 5.23440E-06 1.97027E-05
 -1     28345-1.49377E-01 6.83647E-02 1.99002E-06-5.90038E-02 1.43854E-05 1.74585E-05
 -1     28346 7.15747E-02 5.63948E-02-1.00739E-05 1.90093E-01 5.28681E-05 7.21440E-06
 -1     28347 3.96170E-02 4.86131E-03 7.70909E-06 9.32624E-02 2.18268E-05-1.24943E-05
 -1     28348 8.55777E-02 5.77324E-02 1.48075E-05 2.10685E-01-3.81948E-05-2.65968E-05
 -1     28349 7.32829E-02 1.85288E-02-8.52671E-06 1.33003E-01 6.06300E-05 2.83425E-05
 -1     28350 6.32781E-02 2.02135E-02 1.86837E-05 1.21194E-01-2.94956E-05 7.46452E-06
 -1     28351 6.69227E-02 1.53703E-02-3.89063E-06 1.18573E-01-1.25432E-05 3.40490E-05
 -1     28352 6.57861E-02 1.89028E-02-5.04724E-05 1.22558E-01-8.45503E-05-4.56523E-05
 -1     28353-2.05136E-01 8.39208E-02 4.44391E-07-1.04460E-01-2.43054E-05-1.04537E-05
 -1     28354-1.68541E-01 7.32173E-02 1.42758E-06-7.40424E-02-1.93621E-06 1.42442E-05
 -1     28355-3.22429E-02 6.02501E-02 1.84823E-06 7.19119E-02-3.23236E-06 4.83353E-06
 -1     28356-2.66972E-01 8.74184E-02 1.08916E-04 1.11354E-03-4.68265E-04-2.64486E-04
 -1     28357 1.00101E-01 5.90705E-02-5.67345E-06 2.33184E-01-2.12146E-05 1.88397E-05
 -1     28358-1.92526E-01 1.53355E-02 1.47113E-04 3.48424E-03 7.33118E-04 2.82033E-04
 -1     28359-2.17495E-01 3.93973E-02-4.03230E-04 1.58668E-02 6.68529E-04-1.49701E-04
 -1     28360-2.40620E-01 1.00316E-01-2.13812E-06-1.13102E-01-1.90672E-04-1.40536E-04
 -1     28361-1.91622E-01 7.95221E-02 7.37488E-06-9.44618E-02-1.14389E-05 4.36832E-05
 -1     28362-5.86029E-02 1.15883E-01-7.03509E-05 1.46598E-01-4.95063E-05-4.01016E-04
 -1     28363-2.52150E-01 7.64165E-02-6.13828E-04 5.62627E-03 2.15890E-04-8.27120E-04
 -1     28364 5.15864E-02 1.38596E-02 2.00128E-05 9.37982E-02-2.31355E-05 4.33505E-06
 -1     28365 5.65262E-02 9.32522E-03-1.71441E-05 9.31373E-02 6.67726E-05 3.65829E-05
 -1     28366 4.88311E-02 1.44811E-02-2.32180E-05 9.12245E-02 2.99415E-06-1.40434E-05
 -1     28367 4.72708E-02 1.41153E-02-6.46076E-06 8.89502E-02 3.16720E-05-1.88310E-05
 -1     28368 6.29269E-02 6.14188E-02 1.13428E-05 1.85062E-01-9.29557E-05-6.12160E-05
 -1     28369 9.45313E-02 4.33054E-02 1.18959E-05 2.02146E-01-1.38579E-05-8.90624E-06
 -1     28370 9.52269E-02 4.63944E-02-3.52646E-05 2.07398E-01 3.55699E-05-2.50933E-05
 -1     28371 8.34600E-02 8.10922E-03-5.56377E-06 1.31457E-01 3.46878E-06 1.91212E-05
 -1     28372-1.18022E-01 5.81312E-02-1.62543E-05-3.07166E-02 5.00866E-05 5.06871E-05
 -1     28373-6.35535E-02 1.24619E-01 1.00793E-04 1.38851E-01 5.87541E-05-1.49656E-05
 -1     28374 8.36118E-02-8.84321E-03-9.04435E-06 7.92971E-02-1.00613E-04 4.02814E-05
 -1     28375 7.70920E-02-6.46294E-03-8.40996E-05 6.49420E-02-4.93962E-05 6.55916E-05
 -1     28376-3.85982E-02-3.99111E-03-5.24563E-06-3.76028E-03-8.04474E-05 7.33760E-05
 -1     28377-3.03362E-02-4.90882E-03 4.41464E-05-3.77027E-03 1.38141E-04-8.23536E-05
 -1     28378-1.34232E-01 5.57299E-02-3.68274E-05-6.55452E-02 2.66954E-05-7.16241E-05
 -1     28379 5.80426E-02 9.47594E-03-4.31787E-05 9.50346E-02 1.97544E-05-2.19909E-05
 -1     28380 4.24407E-02 2.83754E-02 5.38051E-07 1.17862E-01-8.02809E-06-2.77540E-06
 -1     28381-3.82020E-02 3.40274E-02-1.70900E-06 3.36605E-02-2.30373E-06 1.70391E-05
 -1     28382-2.24318E-01 1.60202E-02-3.57921E-04 1.07292E-02-6.39072E-04 7.07230E-04
 -1     28383-1.87766E-01 1.32595E-02-4.26364E-04-2.18280E-03-5.11606E-05 1.61346E-04
 -1     28384-2.02066E-01 8.25477E-02 4.76466E-05-1.03267E-01-5.69049E-05-2.76122E-05
 -1     28385-1.87345E-01 7.85689E-02 1.09585E-05-9.02978E-02-1.81725E-05-2.87576E-05
 -1     28386-3.93367E-02 6.25414E-02 3.23019E-04 6.65636E-02 6.79784E-04-9.81147E-04
 -1     28387 5.74222E-02 4.99894E-02 7.23389E-05 1.57714E-01-5.57409E-04 7.31656E-05
 -1     28388 6.13550E-02 5.10824E-02 8.26243E-05 1.66252E-01-9.76402E-05-5.87322E-05
 -1     28389 8.49172E-02-1.03040E-02 1.54802E-05 8.56446E-02 3.52597E-05 5.59890E-05
 -1     28390 4.58440E-02 1.10727E-02-2.04264E-05 8.37465E-02-5.70961E-05-5.74481E-06
 -1     28391-5.69075E-02 1.08700E-01 3.20113E-04 1.05162E-01-2.27504E-05 6.14982E-06
 -1     28392 8.26928E-02-8.72573E-03-1.23529E-05 8.93569E-02-2.34375E-06-3.42757E-06
 -1     28393 8.14880E-02-6.37950E-03-5.80959E-06 8.56121E-02-8.49088E-05 4.49485E-05
 -1     28394-1.89914E-01 7.92344E-02 1.65757E-05-9.25844E-02 2.41733E-05 1.01390E-05
 -1     28395-1.31128E-01 5.95872E-02-3.54067E-06-4.82069E-02-3.85212E-05-6.58833E-05
 -1     28396-2.53633E-01 1.08867E-01 3.43938E-05-1.06423E-01 1.80873E-04 3.08743E-04
 -1     28397 6.42888E-02 1.71698E-02-4.72531E-06 1.17720E-01-8.24880E-05-1.36325E-05
 -1     28398 7.55684E-02 1.96290E-02 1.34170E-05 1.37843E-01 7.06620E-05 4.73219E-05
 -1     28399 7.07415E-02 1.95037E-02-4.00321E-06 1.30730E-01 2.07643E-05-5.30592E-05
 -1     28400 6.86077E-02 1.92106E-02 2.39571E-05 1.27252E-01-1.74594E-04-1.08818E-04
 -1     28401 3.34018E-02 6.94560E-02 8.28818E-06 1.57200E-01 3.13802E-05-5.87211E-05
 -1     28402 9.00433E-02 3.13940E-02 1.57597E-05 1.76922E-01 2.89352E-05 6.75873E-05
 -1     28403-1.06086E-01 3.33379E-03 1.59329E-04 6.80586E-04 5.18183E-04-2.41512E-04
 -1     28404 2.36571E-02-4.91832E-03-1.46803E-05 1.60110E-02 8.78156E-06 9.66479E-06
 -1     28405 4.52761E-02-5.79690E-03-4.97631E-05 3.00275E-02-7.53884E-05 5.80412E-05
 -1     28406 9.53497E-02 4.99527E-02-2.16869E-05 2.12954E-01-2.85571E-05-4.52426E-05
 -1     28407 6.74970E-02-1.54607E-02-1.80103E-05 4.81492E-02-9.64864E-05 6.87931E-05
 -1     28408 4.36103E-02 1.07449E-02 1.11091E-04 8.07199E-02-4.42826E-05 1.04595E-05
 -1     28409 7.84311E-02 1.94814E-02 1.90576E-05 1.41834E-01 8.78517E-05 1.44019E-04
 -1     28410 9.25928E-02 3.21453E-02-4.44478E-05 1.81990E-01 5.39183E-05-2.36183E-05
 -1     28411-2.21607E-01-2.66741E-03 1.12359E-03 1.14100E-02 6.89392E-04 1.81095E-03
 -1     28412-4.07564E-01 1.87514E-01 3.10089E-03-9.47865E-02-5.52095E-03 4.78547E-03
 -1     28413-1.38102E-01 6.07997E-02-5.27130E-05-5.66627E-02 1.72999E-04 1.15887E-04
 -1     28414-7.39228E-03 8.49206E-02-3.14218E-05 1.33441E-01-2.72931E-04 4.60331E-04
 -1     28415-2.04867E-01 8.38387E-02 6.34666E-06-1.04391E-01 3.40667E-06 2.37149E-05
 -1     28416 9.40693E-02 3.85885E-02-1.96417E-05 1.93888E-01 2.07175E-05 1.90797E-05
 -1     28417 9.35682E-02 3.66434E-02-2.45658E-05 1.90428E-01 3.01068E-06 7.53385E-05
 -1     28418 9.52489E-02 4.50545E-02-3.66418E-05 2.05406E-01 3.06778E-05 1.50647E-05
 -1     28419 9.02029E-02 5.60462E-02 2.63899E-06 2.14694E-01 3.40215E-06-1.02368E-05
 -1     28420 9.60053E-02 5.69650E-02-1.23837E-05 2.24204E-01-3.09591E-05-5.41640E-06
 -1     28421-1.78284E-01 7.57540E-02 1.24993E-05-8.28242E-02 8.31223E-06-2.13972E-06
 -1     28422 9.45088E-02 4.68842E-02-8.44743E-06 2.07176E-01-2.11286E-05 2.87153E-05
 -1     28423-7.05864E-02 1.41778E-01-1.22644E-04 1.30542E-01 3.00251E-04 1.53062E-04
 -1     28424-2.02440E-01 8.29824E-02 3.15523E-06-1.02754E-01 1.84494E-05 3.80492E-05
 -1     28425-9.47473E-02 4.45558E-02-2.99810E-05-2.97678E-02 7.14441E-05 9.75320E-05
 -1     28426 8.36022E-02-1.32552E-02-6.78051E-05 6.97134E-02-7.60775E-05 1.03874E-04
 -1     28427-2.11687E-01 8.64690E-02-3.12171E-06-1.07801E-01-1.58788E-06-5.39625E-05
 -1     28428 7.87222E-02 5.87790E-02 7.63697E-05 2.02651E-01 1.48296E-04-1.27033E-04
 -1     28429 8.21893E-02 1.55858E-02 4.34934E-05 1.41397E-01-3.13905E-05-8.25036E-05
 -1     28430-2.58363E-01 1.09541E-01-1.74738E-05-1.13879E-01-1.05955E-05 2.70916E-04
 -1     28431 8.63175E-02 5.58076E-02-3.64758E-05 2.09002E-01 4.41247E-05-4.53238E-05
 -1     28432 8.32058E-02-8.12882E-03 2.65006E-06 8.32745E-02 3.12109E-05-1.95542E-05
 -1     28433 4.33022E-02 5.39120E-03 9.04325E-05 7.34588E-02-5.18279E-05-6.63924E-05
 -1     28434 3.96876E-02 1.10727E-02 2.09659E-05 7.38016E-02-4.07645E-05 2.98152E-05
 -1     28435-1.64129E-01 7.11073E-02-8.83962E-06-7.21742E-02 2.05453E-05-7.31864E-06
 -1     28436 9.08829E-02 3.19619E-02 2.84829E-05 1.79386E-01-3.22619E-05-7.23817E-06
 -1     28437-4.70441E-02-6.49825E-03-6.03201E-05 1.88574E-03 7.70630E-05 1.05446E-04
 -1     28438 9.48447E-02 4.77934E-02-1.12129E-05 2.08996E-01 3.75436E-05-2.02360E-05
 -1     28439 4.37877E-02 5.33676E-03-2.92756E-05 7.37636E-02-7.03180E-05 4.76663E-06
 -1     28440 9.33391E-02 3.29012E-02-2.97999E-05 1.84129E-01 2.92921E-05-9.24307E-06
 -1     28441 5.40527E-03-1.10692E-02-6.63946E-05 1.31313E-02-6.54590E-05 1.52539E-04
 -1     28442-2.47839E-01 1.03911E-01-3.58300E-05-1.15236E-01-3.38486E-05-2.51244E-05
 -1     28443 5.57399E-02 1.47890E-02 4.08349E-06 1.01419E-01-2.35424E-05-2.71187E-05
 -1     28444-8.81338E-02 4.20686E-02 2.79954E-05-2.64769E-02-7.65461E-05-7.15434E-05
 -1     28445-1.39931E-01 5.94978E-02-1.07967E-05-6.36862E-02 1.27550E-04-3.82724E-06
 -1     28446-1.33652E-01 5.93323E-02-5.53988E-05-5.34466E-02 1.01935E-04 2.13011E-05
 -1     28447-1.73919E-01 7.43340E-02 8.27554E-08-7.96666E-02 1.41429E-05-2.25849E-05
 -1     28448-5.63247E-02 1.08420E-01-4.86552E-04 9.91522E-02-5.60407E-04-2.34482E-04
 -1     28449-2.68804E-01 1.14518E-01 2.36358E-04-1.16531E-01-6.07892E-04 4.18005E-04
 -1     28450-2.05301E-01 8.41312E-02 2.46097E-06-1.03935E-01-1.53604E-05 1.28848E-05
 -1     28451 9.47604E-02 3.83715E-02-4.24618E-05 1.94790E-01-6.38359E-05 4.66770E-05
 -1     28452-2.02386E-01 8.29649E-02-5.48265E-06-1.02771E-01-1.82089E-05-1.34608E-05
 -1     28453-1.95415E-01 8.08267E-02 3.46074E-06-9.73222E-02 2.58111E-06-3.64423E-06
 -1     28454 7.21023E-02-1.51468E-02-3.05924E-05 5.27537E-02-1.59829E-05 6.14756E-05
 -1     28455-8.25929E-02 4.12040E-02 8.13304E-04-2.82842E-02-1.62055E-03 8.63007E-04
 -1     28456-1.74993E-01 7.48553E-02 1.43361E-06-8.01074E-02 4.27164E-06-1.59259E-05
 -1     28457 8.77789E-02 5.61703E-02-3.06305E-05 2.11617E-01-2.59164E-05 2.98448E-05
 -1     28458 8.16613E-02 5.77630E-02-2.74325E-06 2.05365E-01-4.10701E-05-2.88589E-06
 -1     28459-2.42373E-01 3.82458E-02-2.42410E-04 1.55738E-02 2.57457E-03-7.70772E-04
 -3
    1PSTEP                         4           1           1          
  100CL  101 1.000000000        8053                     0    1           1
 -4  FORC        4    1
 -5  F1          1    2    1    0
 -5  F2          1    2    2    0
 -5  F3          1    2    3    0
 -5  ALL         1    2    0    0    1ALL
 -1     20407 2.21131E-13 7.89294E-13 1.43650E-01
 -1     20408-3.45920E-14-9.58005E-13-1.23554E-01
 -1     20409 6.53109E-02 1.01079E-01 4.11422E-02
 -1     20410 9.34443E-02 1.18112E-01-3.66055E-02
 -1     20411-5.94473E-13 4.91456E-14-5.15107E-03
 -1     20412 2.74570E-13 3.41704E-13-4.97694E-02
 -1     20413 3.70529E+00-1.54967E+00 2.12521E+00
 -1     20414 5.29698E+00-2.00478E+00-2.18644E+00
 -1     20415-2.85734E-13 4.95289E-13-1.78324E-01
 -1     20416 2.85997E-14 4.96179E-13-1.71688E-01
 -1     20417 1.73673E-13 3.62060E-13-1.66297E-01
 -1     20418-1.64659E-13-2.73988E-13-1.58375E-01
 -1     20419-5.99016E-13-1.75492E-13-1.62552E-01
 -1     20420-1.49585E-13-4.28949E-13-1.47962E-01
 -1     20421-7.58307E-14-2.72154E-13-1.46096E-01
 -1     20422-1.41803E-13 7.29759E-13-1.50108E-01
 -1     20423 6.58311E-14 8.77668E-14-1.43609E-01
 -1     20424-1.76794E-14 1.80878E-13-1.32856E-01
 -1     20425-1.07950E-13 6.87176E-13-1.31072E-01
 -1     20426 6.49737E-14-1.32585E-14-1.26100E-01
 -1     20427 3.20825E-14 3.64529E-13-1.21975E-01
 -1     20428-6.75197E-14 5.16107E-13-1.17814E-01
 -1     20429-1.14685E-13-1.84185E-13-1.11339E-01
 -1     20430 2.88708E-14 7.25193E-14-1.07056E-01
 -1     20431-1.11905E-13-2.74187E-13-1.00421E-01
 -1     20432-7.87551E-14 8.20697E-15-9.40528E-02
 -1     20433 2.51050E-14 3.08709E-14-8.49294E-02
 -1     20434-5.07913E-14 6.31075E-14-7.58666E-02
 -1     20435 5.94059E-14 5.38019E-14-6.28809E-02
 -1     20436 1.20231E-14-1.23571E-13-5.40497E-02
 -1     20437-1.57409E-14 4.19218E-14-3.94514E-02
 -1     20438-3.05987E-14 3.65713E-14-2.62391E-02
 -1     20439 4.51276E-14 3.44584E-14-1.15548E-02
 -1     20440 2.33952E-14 1.54891E-14-1.59432E-03
 -1     20441 3.09440E-14 4.95121E-14 4.58073E-03
 -1     20442-1.66150E-14 2.09459E-14 1.22623E-02
 -1     20443-1.93169E-14-4.79690E-14 1.65515E-02
 -1     20444 1.25237E-14-3.71670E-14 1.19687E-02
 -1     20445 6.00509E-16 1.20587E-14 1.81596E-03
 -1     20446-1.27676E-15-1.29757E-15-1.70808E-02
 -1     20447 5.11752E-14 1.03459E-12 2.63280E-01
 -1     20448-1.36758E-13-3.44713E-13 1.49563E-01
 -1     20449-1.38511E-13 1.25561E-12 1.72136E-01
 -1     20450-2.97933E-14 5.34066E-13 1.56044E-01
 -1     20451 1.81283E-13 7.41181E-14 1.54381E-01
 -1     20452 1.28998E-13 3.60598E-13 1.48921E-01
 -1     20453 1.05615E-13 4.22808E-13 1.47768E-01
 -1     20454-8.88519E-14-4.56441E-13 1.43303E-01
 -1     20455-2.50269E-14-4.19987E-13 1.38528E-01
 -1     20456-6.56012E-14 1.11903E-13 1.34468E-01
 -1     20457-5.13855E-14 5.69838E-13 1.31951E-01
 -1     20458 1.45244E-13-4.03761E-14 1.28942E-01
 -1     20459-2.12937E-16-1.11727E-13 1.26971E-01
 -1     20460-2.36599E-13-6.33208E-14 1.22125E-01
 -1     20461-5.19146E-14-1.96709E-13 1.19275E-01
 -1     20462-1.99598E-13-4.63463E-13 1.11296E-01
 -1     20463 4.20079E-14-8.62880E-14 1.05577E-01
 -1     20464-1.53553E-14 4.32271E-14 9.61637E-02
 -1     20465-6.31290E-15 5.55803E-14 8.87976E-02
 -1     20466 1.03414E-14 2.19680E-13 7.56188E-02
 -1     20467 7.36140E-14 2.58237E-14 6.70858E-02
 -1     20468-4.30084E-15 1.39303E-13 5.49611E-02
 -1     20469 4.29724E-14 3.52403E-15 4.23118E-02
 -1     20470-1.38854E-14 1.83277E-14 2.99089E-02
 -1     20471-1.07102E-15 1.00281E-13 1.99009E-02
 -1     20472-2.59157E-14 5.93952E-14 5.89138E-03
 -1     20473 2.36269E-15-2.22574E-14-3.21853E-03
 -1     20474-6.70809E-15 3.13187E-15-1.11939E-02
 -1     20475 2.34230E-16-1.37182E-14-1.57942E-02
 -1     20476-2.59578E-15 5.19577E-15-6.27424E-03
 -1     20477 6.29191E-15-8.62815E-15-8.57465E-04
 -1     20478 1.00097E-15-7.64834E-15 2.01456E-02
 -1     20479 5.95423E-13 1.43029E-12-1.15436E+00
 -1     20480 1.22192E-13 3.53053E-13-4.59779E-01
 -1     20481-1.02096E-13 4.38842E-13-3.38018E-01
 -1     20482-1.29039E-12 6.30980E-13-2.45750E-01
 -1     20483 1.05796E-12 1.37787E-13-1.64878E-01
 -1     20484 4.57391E-14-1.94193E-13-5.93508E-02
 -1     20485-4.09541E-13-1.48824E-13 1.72327E-01
 -1     20486-1.34019E-13-1.06636E-12 1.09127E+00
 -1     20487-3.97517E-13-8.08694E-13 4.47884E-01
 -1     20488 8.91043E-13-1.82792E-13 3.31464E-01
 -1     20489 8.43210E-13 8.56497E-13 2.31045E-01
 -1     20490 5.13610E-13-2.64494E-14 1.61105E-01
 -1     20491-1.40180E-12 9.22728E-13 7.30863E-02
 -1     20492 3.02499E-13 2.04779E-13-1.48226E-01
 -1     20493 1.12913E-14-1.44121E-14-9.73173E-02
 -1     20494-6.11562E-14 1.92848E-14 2.17957E-02
 -1     20495 1.83532E-13-2.51834E-14 5.33481E-02
 -1     20496 3.72820E-14 4.41684E-14 6.12915E-02
 -1     20497-1.02798E-13-2.77548E-13 7.76798E-02
 -1     20498 9.76026E-14 9.59361E-16 8.43247E-02
 -1     20499-1.60858E-13-9.10927E-14 9.22403E-02
 -1     20500 1.53667E-13-1.29961E-13 9.60017E-02
 -1     20501-2.83413E-13 1.55710E-13 1.08763E-01
 -1     20502-5.83874E-13-4.60501E-14 1.11911E-01
 -1     20503 2.10418E-13-2.04668E-13 1.17209E-01
 -1     20504 4.57638E-14 4.13302E-13 1.23330E-01
 -1     20505-4.16547E-13-2.38567E-13 1.27832E-01
 -1     20506 4.72448E-13-2.34833E-13 1.32682E-01
 -1     20507 1.68142E-13 3.50780E-13 1.32418E-01
 -1     20508 2.23010E-13-4.51264E-13 1.35328E-01
 -1     20509-2.28422E-14-4.29868E-13 1.33227E-01
 -1     20510 3.62546E-13 1.24694E-13 1.32454E-01
 -1     20511-2.51998E-13 3.48723E-13 1.36604E-01
 -1     20512-4.88167E-13-1.04049E-12 1.46920E-01
 -1     20513 6.24112E-13-5.13170E-13 1.74348E-01
 -1     20514 1.25721E-12-1.07931E-12 2.19168E-01
 -1     20515-1.06246E-12 1.15709E-12 2.90059E-01
 -1     20516 5.35733E-14 5.28574E-13 4.38401E-01
 -1     20517-6.67678E-13 1.13218E-12 1.08823E+00
 -1     20518-1.87298E-14-2.33372E-14 2.66220E-01
 -1     20519-6.11004E-14-3.76791E-14-2.48749E-02
 -1     20520 7.45948E-15-1.86250E-14-5.09042E-02
 -1     20521-3.26711E-15-2.34938E-14-6.59272E-02
 -1     20522 3.40297E-15 1.29885E-14-7.40128E-02
 -1     20523 2.84402E-13-1.02983E-13-8.54952E-02
 -1     20524 1.50322E-13 4.03010E-15-9.07871E-02
 -1     20525 8.36485E-14-1.58123E-13-9.81343E-02
 -1     20526 2.58880E-13-5.94155E-14-1.04404E-01
 -1     20527 9.73127E-14 1.82750E-14-1.09740E-01
 -1     20528-4.30745E-13 7.73399E-14-1.13297E-01
 -1     20529-2.69218E-13-6.26773E-14-1.25728E-01
 -1     20530 7.02016E-13-1.26750E-13-1.20630E-01
 -1     20531-9.08012E-14-2.38982E-13-1.36701E-01
 -1     20532-5.81332E-13 2.35271E-13-1.39900E-01
 -1     20533-3.09590E-13 2.22992E-14-1.39915E-01
 -1     20534-3.36046E-13 6.89478E-13-1.46049E-01
 -1     20535 6.37882E-13 2.27897E-13-1.57297E-01
 -1     20536 5.35005E-13-2.20093E-13-1.70556E-01
 -1     20537-4.72550E-13-6.01643E-13-1.90217E-01
 -1     20538 3.81267E-13-1.30338E-12-2.08678E-01
 -1     20539-1.54222E-13-3.97252E-14-2.39795E-01
 -1     20540-4.24332E-13-1.49247E-12-3.01712E-01
 -1     20541-8.65898E-14 1.63105E-12-4.67496E-01
 -1     20542-3.11799E-13-6.74988E-13-1.08844E+00
 -1     20543-8.46184E-02-2.02630E-02 1.67513E-02
 -1     20544 1.59206E-02 9.06508E-03 1.84803E-02
 -1     20545 8.54576E-03 1.67286E-02 1.53547E-02
 -1     20546 1.21286E-02 1.95096E-02-3.17651E-03
 -1     20547-9.53964E-04 6.88292E-03-7.16740E-03
 -1     20548-1.94253E-03 1.69545E-03-1.00304E-02
 -1     20549-7.28013E-03 6.22239E-03-1.54990E-02
 -1     20550-4.97712E-03 6.92402E-03-1.85361E-02
 -1     20551 1.23458E-03 7.97580E-03-2.22081E-02
 -1     20552 1.09484E-02 1.10449E-02-2.53344E-02
 -1     20553 1.42968E-02 1.13018E-02-3.02776E-02
 -1     20554 2.07962E-02 1.59954E-02-2.67680E-02
 -1     20555 2.17943E-02 1.05431E-02-2.77573E-02
 -1     20556 2.30947E-02 9.34064E-03-2.26554E-02
 -1     20557 6.12873E-03 1.94003E-03-2.29139E-02
 -1     20558 2.46076E-02 8.26879E-03-1.84405E-02
 -1     20559-5.56273E-02-5.22129E-03-1.27141E-02
 -1     20560-3.54110E-02 1.54092E-03-4.47478E-03
 -1     20561-4.81891E-02-8.25479E-03 1.19583E-02
 -1     20562-1.71955E-01-9.10894E-03 4.53131E-02
 -1     20563-1.57949E+00 1.21737E-01 3.09678E-02
 -1     20564-1.59048E-02 1.56721E-02-1.19645E-02
 -1     20565-3.66603E-03 4.22206E-03-1.59283E-02
 -1     20566-1.54838E-02 9.76931E-03-1.34653E-02
 -1     20567-5.66543E-03 1.76775E-02 3.51850E-03
 -1     20568-5.24511E-03 1.29605E-02 6.23902E-03
 -1     20569-8.52768E-04 1.36346E-02 1.72268E-02
 -1     20570 1.11534E-03 3.98656E-03 2.25100E-02
 -1     20571-1.82853E-04 3.38617E-04 2.29071E-02
 -1     20572-9.79028E-03-9.32872E-03 2.35455E-02
 -1     20573-1.30312E-02-9.17242E-03 2.70536E-02
 -1     20574-1.62260E-02-1.42647E-02 2.86630E-02
 -1     20575-2.43874E-02-1.25036E-02 2.92817E-02
 -1     20576-2.92211E-02-1.00626E-02 2.85633E-02
 -1     20577-2.69580E-02-8.61541E-03 2.31052E-02
 -1     20578-2.82616E-03-1.04836E-03 2.23318E-02
 -1     20579-7.55777E-03-1.16288E-02 1.97785E-02
 -1     20580-1.27001E-02-1.10756E-02 1.70954E-02
 -1     20581-2.51749E-02-7.90230E-03 6.19717E-04
 -1     20582 4.16060E-02-3.70703E-03-1.88654E-02
 -1     20583-4.12994E-02-9.60831E-03-3.63791E-02
 -1     20584-1.71143E-01-7.58152E-02-8.41564E-02
 -1     20585-3.29087E-13-5.79268E-13 2.27371E-02
 -1     20586 1.65231E-12-2.51481E-12 3.50006E-03
 -1     20587 1.69906E-13 2.27805E-13-1.22858E-04
 -1     20588 2.20594E-13-1.58218E-12 2.48274E-03
 -1     20589-8.24788E-14 1.72457E-13 1.41358E-03
 -1     20590-7.00345E-13 7.36108E-13-1.13700E-03
 -1     20591 9.93255E-13-3.63797E-12 1.82354E-03
 -1     20592-1.27593E-13 1.86094E-13 5.26879E-04
 -1     20593-2.79463E-13 2.76041E-14-1.45746E-03
 -1     20594-1.08075E-13 7.89439E-14 1.23255E-05
 -1     20595-1.13338E-13 2.64368E-13-9.60100E-04
 -1     20596 2.61826E-14-1.34771E-13 3.82173E-03
 -1     20597 6.71287E-15-1.85837E-13-1.09175E-02
 -1     20598-4.62034E-14-7.96032E-15-5.89597E-04
 -1     20599 1.25336E-14-1.59118E-14-2.80505E-03
 -1     20600 5.69629E-15 3.29099E-15 1.48468E-03
 -1     20601-1.48453E-14-2.11908E-14 1.13739E-03
 -1     20602 2.65975E-14-3.21472E-14 1.35238E-03
 -1     20603 1.98242E-14 1.63362E-14 2.16434E-04
 -1     20604-7.16121E-15 1.93887E-15-4.06281E-03
 -1     20605-3.63383E-15-7.43781E-15 2.07926E-03
 -1     20606 3.68947E-15 3.50059E-14-1.05156E-02
 -1     20607-4.13460E-15 4.09476E-15-4.21962E-04
 -1     20608-1.11163E-14-3.54751E-16-9.15343E-03
 -1     20609 1.65475E-14 2.03036E-14-1.34389E-02
 -1     20610 2.76684E-14-1.51975E-14-1.44848E-01
 -1     20611-6.14769E-14 4.71346E-14-4.35282E-02
 -1     20612 7.71425E-14-2.17342E-13 8.04558E-03
 -1     20613 2.99833E-13 3.16017E-13 8.18194E-04
 -1     20614 4.96272E-13 1.45668E-13 1.49882E-03
 -1     20615 6.49843E-13 4.00128E-13-5.54732E-04
 -1     20616-6.11339E-13-5.10412E-13-4.11634E-03
 -1     20617-6.60207E-13 2.42590E-12-3.36618E-03
 -1     20618 1.92472E-13-1.28568E-12 1.10204E-03
 -1     20619 9.14000E-13 2.44784E-12-1.88624E-03
 -1     20620-4.65987E-13-8.05723E-14-1.42606E-03
 -1     20621 1.04557E-13-4.75944E-12 2.94506E-02
 -1     20622-1.57419E-13 1.21524E-12-6.91380E-02
 -1     20623 4.49903E-12 2.15615E-12 2.21713E-02
 -1     20624-8.43137E-13 1.01981E-12 1.50082E-02
 -1     20625 2.68708E-13-5.74098E-12 1.85277E-02
 -1     20626 3.15054E-13-2.48373E-12-6.13729E-03
 -1     20627 2.44028E-13-3.39958E-13 5.76133E-03
 -1     20628-3.03223E-13 1.70886E-13 6.36317E-04
 -1     20629 1.25880E-13 1.22536E-12 2.89838E-03
 -1     20630 1.05815E-13-8.96692E-14-6.43278E-04
 -1     20631-1.46306E-13 3.25976E-13 1.70541E-03
 -1     20632 1.51673E-13 1.86204E-13 1.88975E-03
 -1     20633-3.91990E-14-3.43633E-13 1.57355E-03
 -1     20634 1.32533E-14-1.09254E-14 1.67875E-03
 -1     20635 6.30848E-15-1.61050E-13 3.40354E-03
 -1     20636-7.39837E-14 1.35337E-14-8.89579E-03
 -1     20637 7.50227E-14-5.06232E-14-1.80317E-03
 -1     20638-4.89454E-14-5.28063E-14-1.57303E-03
 -1     20639-2.30155E-14 2.40025E-14-1.06989E-02
 -1     20640 2.32510E-15-6.61522E-15-2.26957E-03
 -1     20641-2.29646E-15-3.26724E-16-1.18591E-03
 -1     20642-4.46269E-15 3.00783E-15-3.53672E-03
 -1     20643-3.78731E-15 4.02033E-15 1.56007E-03
 -1     20644 2.13843E-15 8.67999E-15-9.45352E-04
 -1     20645 9.57313E-15 2.10994E-14-6.26557E-05
 -1     20646-1.18954E-15 4.25183E-16 3.30694E-03
 -1     20647 2.09197E-16-3.62801E-15-8.91596E-04
 -1     20648-5.49116E-15 1.40339E-15-4.34098E-03
 -1     20649-6.18375E-15-6.69495E-15-2.68040E-02
 -1     20650-2.47094E-13 3.03510E-14 1.10301E-03
 -1     20651-1.08145E-13-4.63024E-14-4.55658E-02
 -1     20652-1.06332E-13 5.38502E-14-9.97324E-04
 -1     20653-1.08468E-13-8.04968E-14 2.50746E-03
 -1     20654 5.95451E-13-2.48960E-14-3.55586E-04
 -1     20655-6.02149E-13-1.46394E-14 1.35268E-03
 -1     20656 9.20827E-13-4.88480E-13 1.97008E-03
 -1     20657 6.96144E-13 4.96371E-13 2.95784E-03
 -1     20658-1.56737E-12 4.43533E-12-4.28290E-03
 -1     20659 1.11018E-12-7.78303E-13 1.86019E-04
 -1     20660-1.69565E-12 1.60698E-13 1.05366E-02
 -1     20661-1.34318E-12-1.02701E-11-2.14158E-02
 -1     20662 1.13333E-12 5.89166E-14-1.65831E-02
 -1     20663 4.00498E-13 8.45507E-13 4.82817E-03
 -1     20664 2.48593E-13 4.18257E-13 2.56555E-02
 -1     20665-3.57295E-13 5.24393E-13-3.89296E-03
 -1     20666-6.21050E-13-1.23606E-13-4.71852E-03
 -1     20667-5.01055E-13-2.53071E-12 1.42656E-02
 -1     20668-3.80135E-13 1.07423E-12-5.83754E-04
 -1     20669 4.46169E-13 2.57452E-12-8.66578E-03
 -1     20670 1.36907E-13-1.49363E-13 6.28377E-04
 -1     20671 7.73847E-13-3.15922E-13 6.53565E-03
 -1     20672-1.86023E-13 5.35671E-13 3.78967E-03
 -1     20673 1.24108E-13-1.32319E-13-4.52740E-03
 -1     20674-1.04299E-13 2.00094E-13-5.05753E-03
 -1     20675-1.79744E-13-3.36296E-13 4.24106E-03
 -1     20676 7.28965E-14-1.38494E-13-6.11679E-04
 -1     20677 8.89629E-14-1.36540E-13-1.12569E-03
 -1     20678-1.48836E-13 2.07601E-14-1.07688E-03
 -1     20679-1.13282E-14 1.49263E-14-8.53045E-04
 -1     20680-2.46981E-14 7.39856E-16-4.56410E-04
 -1     20681-2.26763E-14 2.02558E-14-2.73975E-04
 -1     20682 3.48005E-15 1.07522E-14-2.65060E-03
 -1     20683-1.75943E-14-1.01504E-14 1.00222E-03
 -1     20684-1.10045E-13-1.52906E-13 8.49087E-02
 -1     20685-1.13411E-14 1.99649E-14-2.68885E-03
 -1     20686 6.74397E-15 9.63388E-14-2.61488E-04
 -1     20687 2.18501E-14-4.03085E-14-6.03912E-03
 -1     20688 3.54583E-15 3.69659E-16 4.39203E-03
 -1     20689-2.95882E-14 2.79310E-14 7.17943E-03
 -1     20690 9.90969E-14 8.90490E-14-7.44316E-03
 -1     20691-8.02320E-15-2.97082E-15-7.44980E-03
 -1     20692-5.44625E-14-6.69039E-14 1.14216E-01
 -1     20693-2.14818E-13-3.05844E-13 5.32759E-04
 -1     20694-4.85929E-13-3.34924E-13-7.62769E-03
 -1     20695 1.52684E-13-1.04677E-13 7.73649E-04
 -1     20696-9.57621E-13-3.11420E-13-7.74546E-04
 -1     20697-3.78057E-13-4.53012E-13-6.26656E-04
 -1     20698 4.56172E-13-3.28043E-13 1.04352E-03
 -1     20699 5.10951E-14-1.08981E-12-7.20059E-05
 -1     20700 3.30310E-12 2.42461E-12 1.75853E-03
 -1     20701 4.33474E-12-5.24400E-13 4.87722E-03
 -1     20702-3.51427E-12 3.65563E-12 6.51781E-02
 -1     20703-4.57245E-13-3.53454E-12 5.88460E-02
 -1     20704-5.11399E-13-3.90693E-12 2.56183E-03
 -1     20705 3.64319E-13-2.19157E-12 4.61051E-03
 -1     20706-5.55207E-14 9.49639E-13 6.00248E-03
 -1     20707 2.02127E-14-1.86060E-14-2.06869E-03
 -1     20708-7.72097E-14-2.64792E-13-1.71123E-03
 -1     20709 3.72227E-14 2.01019E-13-7.58044E-04
 -1     20710 1.10260E-14-1.51007E-13 1.22322E-03
 -1     20711-6.64278E-13-2.59811E-12 4.70138E-02
 -1     20712-2.77407E-14 2.20429E-13 5.12121E-04
 -1     20713-8.69951E-14 1.64055E-13 4.94122E-04
 -1     20714 3.71284E-14 1.35047E-12-6.16911E-04
 -1     20715-1.30515E-13-1.46052E-14-3.89546E-04
 -1     20716 5.15080E-14-2.37961E-13 2.32537E-04
 -1     20717-4.34896E-13-1.45138E-13 1.53570E-04
 -1     20718 8.59916E-14-5.76920E-14 1.31569E-03
 -1     20719 2.52345E-13 1.94510E-13-2.38402E-03
 -1     20720 1.56288E-14 6.16649E-14 2.60801E-03
 -1     20721 1.48209E-14 9.14534E-14 1.43641E-03
 -1     20722 1.66647E-14-1.24880E-14 4.75011E-03
 -1     20723 9.84686E-15 3.25618E-14-4.35688E-03
 -1     20724-2.11463E-13-1.39390E-14 2.55045E-02
 -1     20725 4.37098E-14-1.77354E-14 5.53105E-03
 -1     20726 1.31863E-15-1.47537E-14 1.03953E-02
 -1     20727 3.59714E-14-1.41036E-13-5.24495E-03
 -1     20728 9.64150E-14 8.77337E-14 3.00036E-04
 -1     20729 2.84519E-13-1.94752E-12-5.07391E-03
 -1     20730-7.44798E-13 3.72266E-13-3.26417E-03
 -1     20731 1.07487E-12 2.42128E-12-6.01017E-03
 -1     20732 5.79386E-13-2.92072E-12 2.27135E-05
 -1     20733 2.09453E-12 2.19736E-12 4.90810E-03
 -1     20734 3.43742E-12-3.49854E-12-8.21791E-03
 -1     20735 4.45801E-13-6.24949E-12 5.34255E-03
 -1     20736 1.57900E-12-2.64575E-13 1.99583E-03
 -1     20737-3.57262E-14 1.09335E-13-5.01660E-03
 -1     20738-3.83792E-13 6.70515E-13-2.69480E-03
 -1     20739-1.64921E-13-5.06467E-13-3.85351E-03
 -1     20740 4.43317E-14-5.20223E-13 2.70841E-04
 -1     20741-6.28683E-15 4.62308E-14 5.30884E-03
 -1     20742 1.07215E-13-3.56063E-13 2.91225E-03
 -1     20743-3.57963E-13-2.99436E-14-4.22935E-03
 -1     20744-4.72602E-14 1.55762E-13 5.39586E-03
 -1     20745 3.54380E-14-1.63350E-13-2.76761E-03
 -1     20746 2.49197E-14-1.15021E-13 4.88039E-03
 -1     20747-4.21412E-14 3.91600E-14 5.95473E-03
 -1     20748 2.09944E-13-1.48403E-13 9.94234E-03
 -1     20749-5.34612E-15-5.04642E-16 1.94632E-03
 -1     20750-1.56932E-14 1.52350E-13-4.68643E-03
 -1     20751-7.72182E-15-9.39072E-15 3.39591E-03
 -1     20752-6.01082E-15-6.45538E-14-1.30319E-02
 -1     20753-6.87440E-14 8.43312E-14 6.72651E-03
 -1     20754-8.73404E-14-1.72254E-12 5.42840E-03
 -1     20755 1.91839E-13 6.99616E-14 1.26016E-02
 -1     20756 1.54682E-12 4.45465E-13 4.54357E-03
 -1     20757-7.82535E-13-6.15592E-14 8.31822E-04
 -1     20758-6.28532E-14 9.27199E-14-1.76098E-03
 -1     20759-6.10418E-13-2.77938E-13-9.38879E-04
 -1     20760-2.30379E-13 3.60661E-13 8.79617E-05
 -1     20761-4.63121E-13-1.62016E-12-2.97861E-03
 -1     20762-6.06200E-15 2.21576E-13 3.35968E-03
 -1     20763-9.21465E-14-7.43102E-13-1.41224E-02
 -1     20764 1.25925E-14 1.76162E-14 3.32760E-03
 -1     20765 1.75189E-12 4.45564E-13-1.02407E-04
 -1     20766-3.91240E-13 1.44582E-12 1.79559E-03
 -1     20767-3.06936E-13 2.68051E-13 1.35638E-03
 -1     20768 2.91314E-13 1.19036E-12-1.16112E-02
 -1     20769 1.58991E-14-7.31633E-14 8.55121E-03
 -1     20770-1.66897E-12 1.69884E-12-4.04227E-02
 -1     20771 7.20989E-13 3.14783E-13 9.18930E-03
 -1     20772 3.73557E-13 3.20017E-13-1.90296E-03
 -1     20773-9.11147E-15 1.32155E-13-2.21386E-03
 -1     20774 6.81563E-13 3.91916E-13-6.89451E-04
 -1     20775-5.80023E-13 2.82029E-13-8.38962E-04
 -1     20776 1.33114E-12 3.32470E-12-2.96140E-03
 -1     20777-4.38543E-14 3.43837E-14 4.24839E-03
 -1     20778-3.88701E-14-2.62623E-14-2.29461E-03
 -1     20779 2.55557E-14 4.34077E-14 3.52336E-03
 -1     20780 6.92431E-14 3.56398E-13-1.73704E-03
 -1     20781 1.50500E-13-9.46603E-14 2.14740E-03
 -1     20782-9.09643E-13-4.09041E-13 2.14929E-03
 -1     20783 9.55455E-13-1.23783E-13 8.49903E-04
 -1     20784 1.15368E-13-6.62350E-12 1.98330E-02
 -1     20785-2.84127E-12 4.15629E-13 2.70530E-02
 -1     20786 6.44876E-13-2.22609E-12 1.06576E-03
 -1     20787-2.80345E-14 9.07899E-15-1.55202E-03
 -1     20788 2.45628E-14 1.98470E-14-2.04930E-02
 -1     20789-3.63555E-13-6.33580E-13 3.21587E-03
 -1     20790-1.03476E-13 2.79622E-12 6.72511E-05
 -1     20791 1.22101E-13-1.03809E-14-2.50014E-03
 -1     20792 9.55982E-13-5.11961E-13-6.20580E-03
 -1     20793 8.34871E-14 2.59813E-14 6.21804E-03
 -1     20794 1.14028E-12-3.50134E-13 2.79736E-04
 -1     20795 1.79494E-12-7.68437E-13-8.92121E-04
 -1     20796-5.19056E-13 3.60433E-12-5.39084E-03
 -1     20797-2.32353E-14 1.96160E-14-1.06351E-03
 -1     20798 7.56525E-13-1.62251E-12 1.21076E-02
 -1     20799 5.20567E-12-3.05644E-12-1.59241E-02
 -1     20800 3.90803E-14 2.77805E-15-5.13580E-04
 -1     20801 2.50951E-13-2.50743E-13 1.20600E-03
 -1     20802-1.72020E-15-1.24717E-14 1.01182E-02
 -1     20803-4.78523E-13 2.24025E-12 1.36770E-03
 -1     20804 6.98419E-14-1.59311E-14-2.54643E-03
 -1     20805 1.68689E-14 3.58069E-12 4.94127E-03
 -1     20806 1.68230E-14 2.40206E-14-1.30481E-03
 -1     20807 5.58643E-13 2.75524E-13 4.72455E-03
 -1     20808 3.39380E-13-2.98152E-12 6.73680E-03
 -1     20809 5.07858E-13-1.44294E-12 1.96571E-03
 -1     20810 1.26460E-12 6.14701E-13 1.70301E-03
 -1     20811 7.37811E-13 7.10062E-13-1.40283E-03
 -1     20812 6.69148E-13 5.64307E-13 1.18104E-02
 -1     20813-5.56392E-13-4.05700E-13 5.51083E-03
 -1     20814 6.40025E-14-3.79995E-13 8.98935E-03
 -1     20815 1.50997E-13-1.20862E-13-1.36844E-03
 -1     20816-2.04461E-12-3.95249E-13-1.43640E-02
 -1     20817-3.70729E-13 8.71945E-13 4.01120E-03
 -1     20818-1.88463E-13-1.81764E-13 5.66458E-04
 -1     20819 3.97486E-14 1.01388E-12 1.99537E-03
 -1     20820 6.15863E-15-7.09140E-14-3.53374E-04
 -1     20821-7.41913E-14 1.71677E-13 2.32652E-03
 -1     20822 7.37165E-14-2.77829E-14 1.06166E-03
 -1     20823 1.58387E-12 7.07411E-13-4.03203E-03
 -1     20824 9.69355E-14-1.16543E-13 1.19477E-03
 -1     20825 7.45018E-13 1.35427E-12 6.82762E-04
 -1     20826 5.87203E-13-4.47151E-13 8.17796E-04
 -1     20827 1.70705E-13 8.31714E-13-9.49659E-04
 -1     20828-6.22413E-13 2.97476E-12 4.63452E-04
 -1     20829-2.41186E-13 7.34315E-13-2.53838E-03
 -1     20830-1.01844E-13 1.86699E-14-4.62422E-03
 -1     20831-1.93475E-13 3.33934E-13 5.29932E-04
 -1     20832 3.80797E-14 4.44767E-13-3.01614E-03
 -1     20833 3.94926E-13 1.91634E-12-4.48389E-03
 -1     20834-3.80802E-15-7.10922E-13 3.77703E-04
 -1     20835-3.26277E-13-1.74453E-13-1.81806E-03
 -1     20836 1.91875E-13-1.59249E-12 2.11928E-03
 -1     20837-2.58022E-15-5.40482E-14 1.01821E-03
 -1     20838 1.59029E-15-3.44405E-14 1.41920E-03
 -1     20839-2.27614E-13 3.43519E-14-1.41450E-03
 -1     20840 2.15362E-12-1.33419E-12 4.77671E-04
 -1     20841-5.95209E-12 2.28704E-12 3.09799E-03
 -1     20842 1.58786E-14-4.90581E-14-1.40764E-03
 -1     20843 1.02726E-13-4.67735E-14-2.28026E-03
 -1     20844 6.68199E-14 5.49283E-14-6.49252E-03
 -1     20845-4.41096E-13 4.67991E-13 3.05262E-03
 -1     20846-1.67229E-12-4.51172E-12-1.67879E-05
 -1     20847-2.62352E-13 1.27948E-12 1.41456E-03
 -1     20848 5.31889E-13-5.06028E-14-1.24421E-02
 -1     20849 2.65858E-13 2.51209E-13-5.84443E-04
 -1     20850 2.52012E-12-1.15813E-12 1.26653E-02
 -1     20851-1.08105E-13 4.28481E-13-7.50981E-03
 -1     20852 1.05550E-14-5.88883E-14 8.25180E-04
 -1     20853 3.42288E-13-3.94278E-13-1.61615E-03
 -1     20854 3.28082E-12 1.17696E-12 2.12796E-03
 -1     20855 5.54443E-13-2.48920E-13-8.19544E-05
 -1     20856-6.06178E-13 4.89210E-13-1.16578E-03
 -1     20857-6.00403E-13 5.36537E-13-1.09317E-02
 -1     20858 2.33810E-14-6.82294E-14-8.49482E-03
 -1     20859-1.04453E-13-8.75635E-14-2.43280E-05
 -1     20860-9.96602E-14-1.46340E-14 1.25176E-03
 -1     20861 1.76426E-14-2.25194E-15 5.68507E-04
 -1     20862 4.30620E-13 1.15500E-12 3.88524E-03
 -1     20863 2.63822E-13-7.79917E-14 1.24779E-03
 -1     20864-2.21560E-12-3.19369E-13 1.62828E-02
 -1     20865-5.70913E-14-3.28470E-13 2.94213E-03
 -1     20866 1.11743E-13-2.09882E-13 2.13536E-03
 -1     20867-1.52636E-14-3.56899E-14-9.17515E-04
 -1     20868-2.32852E-13-2.38037E-13 1.23145E-03
 -1     20869 2.52383E-14 1.13466E-13 1.09674E-03
 -1     20870 2.61701E-14-4.47910E-13-1.94023E-03
 -1     20871-9.98584E-13-2.26985E-13-1.22761E-02
 -1     20872 7.85644E-14 1.24749E-13 2.19770E-03
 -1     20873-3.23612E-14 8.04286E-13-1.44811E-02
 -1     20874-1.08718E-13-2.00053E-13 9.84218E-04
 -1     20875-3.22344E-13 1.65953E-12-5.94078E-03
 -1     20876 8.09137E-14 6.58227E-14 5.47241E-03
 -1     20877 1.20692E-14-4.95410E-14 7.77516E-03
 -1     20878-1.06470E-12 2.78176E-13-1.47899E-02
 -1     20879-6.43867E-15-4.50807E-13 5.98468E-03
 -1     20880-1.80136E-14 7.52625E-14 1.31735E-03
 -1     20881 5.77633E-13 3.06164E-13 3.16667E-04
 -1     20882-1.75832E-13 4.27362E-14-2.28154E-03
 -1     20883 4.98165E-13-3.15770E-13 4.71709E-03
 -1     20884-1.38608E-13-2.47709E-13 8.67622E-04
 -1     20885-1.14065E-13 1.25157E-13 1.44082E-03
 -1     20886 5.14213E-13 5.00848E-14 2.52199E-03
 -1     20887-6.39962E-13 5.75366E-13 1.40695E-02
 -1     20888 1.13469E-12 1.84490E-12 1.39041E-02
 -1     20889 6.25852E-14-2.60442E-13-3.33388E-03
 -1     20890 6.34345E-14 2.25037E-15 9.15199E-03
 -1     20891-1.04859E-13 6.26880E-14-7.44528E-03
 -1     20892 2.60446E-14 6.15150E-13-1.13421E-02
 -1     20893-2.52351E-13 1.61441E-12 1.23157E-02
 -1     20894 2.63343E-13-5.94084E-13-3.56404E-04
 -1     20895-2.19156E-13-2.86362E-12 9.78508E-03
 -1     20896 1.48060E-13-2.12558E-13-4.63038E-03
 -1     20897 9.12935E-14-2.05953E-13-1.16663E-04
 -1     20898-9.56465E-13-1.12063E-12-7.81528E-03
 -1     20899-1.12230E-12-3.44122E-13 1.46258E-03
 -1     20900 1.25714E-13 1.60742E-13 3.34177E-04
 -1     20901 2.64429E-13 1.75334E-13-1.60021E-03
 -1     20902-7.52597E-14-3.76037E-14-7.77869E-03
 -1     20903-2.39318E-15-1.93038E-13-2.01043E-03
 -1     20904-2.79905E-13 3.96818E-13-7.34571E-03
 -1     20905 5.16886E-14-2.53245E-15 1.62397E-02
 -1     20906 8.16709E-14 2.27993E-13 6.55803E-03
 -1     20907 5.40692E-14-1.04786E-14-9.47678E-04
 -1     20908-1.82101E-12 4.00918E-13-1.02315E-03
 -1     20909 5.19279E-14-2.35203E-13-1.56169E-02
 -1     20910-2.90372E-13 2.38218E-12-9.06727E-03
 -1     20911-5.08682E-13 6.54275E-13 1.79887E-03
 -1     20912-1.56496E-13 8.39522E-13 2.60953E-03
 -1     20913 1.53437E-13 5.84453E-14 1.72174E-02
 -1     20914 7.47345E-13 1.26082E-12-4.31543E-03
 -1     20915 1.62994E-13 3.27095E-13-2.56275E-03
 -1     20916-9.59117E-13-1.18208E-13 4.68711E-03
 -1     20917 1.56240E-13-7.97935E-14-7.22386E-04
 -1     20918-2.37261E-14-5.20407E-13 1.26193E-03
 -1     20919 1.07477E-13-7.95334E-13-5.18760E-04
 -1     20920 1.15752E-14 4.54853E-15 2.03242E-03
 -1     20921 1.93211E-14-1.98482E-13-2.25049E-02
 -1     20922 2.53437E-13 1.86076E-13 2.69697E-03
 -1     20923 3.66452E-13 8.05113E-13-4.77459E-03
 -1     20924-2.80794E-13 1.20885E-12 1.20821E-02
 -1     20925 2.15523E-13 2.21342E-13 2.18422E-03
 -1     20926 7.85199E-13 6.19193E-13-7.83387E-04
 -1     20927 4.93522E-14-2.10546E-14-1.11602E-02
 -1     20928-6.17530E-14-1.08687E-13 1.06461E-03
 -1     20929 1.82902E-13 1.91683E-14 7.67502E-03
 -1     20930-2.92690E-13-6.58771E-13-1.05262E-03
 -1     20931-2.59513E-13 1.56066E-12 7.48008E-04
 -1     20932-1.74173E-13-1.71846E-12-6.21774E-03
 -1     20933 4.12966E-13 5.24477E-13 4.73061E-03
 -1     20934 2.91203E-13-3.11579E-13-2.06170E-03
 -1     20935-4.34288E-14-2.20767E-13-4.73328E-03
 -1     20936 9.01390E-14 7.61455E-14-5.32016E-03
 -1     20937-5.43790E-14 9.03163E-14-6.60542E-03
 -1     20938 5.97872E-14-1.19126E-13-2.21631E-03
 -1     20939 1.29907E-13 4.89090E-13-5.62919E-04
 -1     20940 5.76336E-15-2.96467E-14 1.06263E-02
 -1     20941-1.05922E-13 4.96488E-14-1.53533E-02
 -1     20942-3.99197E-13-3.82946E-13 1.51140E-03
 -1     20943 7.94581E-14 8.19305E-14-1.26526E-02
 -1     20944 9.13481E-14-1.60540E-14-6.37991E-05
 -1     20945 2.70536E-14-4.33606E-13-4.38039E-04
 -1     20946 2.16296E-13 9.52099E-13 3.58851E-04
 -1     20947 1.39393E-13 2.51956E-14-2.48226E-03
 -1     20948 7.58981E-14 5.00626E-14-4.99249E-03
 -1     20949 4.54517E-14-6.30059E-14 1.09633E-03
 -1     20950-1.43907E-13-4.93940E-13-2.91503E-03
 -1     20951 1.12462E-13 1.27474E-13-5.10738E-03
 -1     20952 1.59804E-13 1.31883E-13 1.44704E-03
 -1     20953-7.16437E-14 6.44035E-13 2.71117E-03
 -1     20954 1.61769E-13-2.34612E-13-6.29474E-04
 -1     20955 5.89542E-13 1.31854E-13 9.49237E-03
 -1     20956-1.28649E-13 2.40543E-13-2.08685E-03
 -1     20957 2.66602E-13-2.03442E-13-5.38296E-03
 -1     20958-5.48190E-14-6.18713E-14 6.88411E-03
 -1     20959-1.67875E-13-3.82711E-13 7.48371E-03
 -1     20960-4.91613E-15 5.54998E-13 7.10232E-03
 -1     20961 1.84793E-13-4.19678E-13 1.85611E-04
 -1     20962-1.26629E-13 2.12550E-13-5.52318E-03
 -1     20963 1.50842E-13-2.50133E-13 5.40577E-03
 -1     20964 9.65950E-14 1.13248E-12 9.37702E-03
 -1     20965-1.31864E-14 1.33131E-13 1.55749E-03
 -1     20966-9.52843E-16 3.56615E-14-3.45922E-03
 -1     20967 5.37259E-15 4.03400E-14 1.78768E-03
 -1     20968 3.57060E-14-9.22409E-14 3.30358E-03
 -1     20969-2.77332E-13 3.44669E-13 1.22260E-02
 -1     20970-2.53111E-14 1.23821E-13 7.18818E-04
 -1     20971 1.97541E-14-7.07048E-14 5.01456E-03
 -1     20972-1.45728E-14 2.05838E-13-7.18613E-04
 -1     20973 7.58803E-14-2.83036E-14-1.32367E-03
 -1     20974 1.09476E-14 3.27133E-13-5.50634E-04
 -1     20975 9.95943E-15-5.85496E-13-1.83095E-03
 -1     20976-2.17859E-13-1.93653E-13-1.40029E-03
 -1     20977-8.47702E-14-3.33022E-13-1.05871E-03
 -1     20978-4.56438E-13 3.43438E-12-5.49284E-03
 -1     20979 3.39922E-13-2.57081E-12 1.41041E-03
 -1     20980 1.88621E-12-2.04897E-12-1.19867E-02
 -1     20981-4.93982E-13 1.21589E-12-5.50002E-02
 -1     20982-7.82153E-13 2.06998E-12 8.06347E-03
 -1     20983 5.10772E-13 5.80740E-13 8.84229E-04
 -1     20984-2.38348E-12 1.13518E-13-2.40430E-02
 -1     20985-4.89155E-12 2.11044E-12 7.83543E-02
 -1     20986 7.27146E-14 2.42844E-12 6.39575E-03
 -1     20987 1.21358E-13 1.59031E-13-1.29786E-02
 -1     20988 2.96525E-13-3.90822E-12 2.38780E-03
 -1     20989 6.42374E-14 6.74479E-13 1.46686E-04
 -1     20990-2.10559E-13 6.43623E-13-1.17681E-04
 -1     20991-7.28081E-13 6.01830E-13-4.40608E-04
 -1     20992 6.87358E-14 3.87034E-13-4.33710E-04
 -1     20993-1.21891E-13-3.21504E-14-4.19178E-04
 -1     20994 2.43743E-13 2.37798E-14-3.09614E-03
 -1     20995-5.91270E-14-4.83862E-14 5.93783E-03
 -1     20996 1.52760E-14 8.24356E-14-1.12938E-01
 -1     20997 1.99875E-14-1.17981E-14 1.92473E-01
 -1     20998 3.48683E-15-2.99053E-16 2.94466E-02
 -1     20999 3.95300E-16 1.27860E-15-3.78827E-04
 -1     21000-4.66372E-15 9.17633E-15-4.10900E-03
 -1     21001 2.55647E-15-1.68160E-14 2.57740E-03
 -1     21002 4.19874E-15 2.53955E-15 2.00457E-03
 -1     21003-9.43771E-16 3.46140E-15-7.51078E-04
 -1     21004-8.04906E-15 8.43805E-15-2.76360E-04
 -1     21005-3.01069E-15-1.71617E-14 7.88463E-04
 -1     21006-1.46743E-14-1.02903E-14 9.77906E-04
 -1     21007 5.47865E-13-6.55507E-13 1.63499E-02
 -1     21008 1.92175E-16-3.64574E-15-2.45955E-03
 -1     21009-2.88963E-15-2.67742E-14 6.44474E-03
 -1     21010 5.05105E-14 2.93325E-14 2.44418E-04
 -1     21011 8.04329E-14 2.44654E-13 3.67755E-03
 -1     21012-3.22886E-14 1.58630E-13 8.53387E-04
 -1     21013 1.05832E-12-3.14888E-13 3.35905E-03
 -1     21014-1.34796E-13 2.59948E-15-2.51309E-03
 -1     21015 5.48938E-14-1.41739E-13-2.18430E-03
 -1     21016 3.17131E-13 9.20593E-14-2.42647E-03
 -1     21017-1.44112E-13 4.89183E-13 1.22382E-04
 -1     21018-2.09805E-13 1.00092E-12 7.02235E-04
 -1     21019-2.91483E-13-8.74684E-13-2.62266E-03
 -1     21020-3.82315E-13-1.52702E-12 8.31803E-04
 -1     21021 5.34695E-13 1.51998E-13-2.25030E-03
 -1     21022 5.20218E-13-3.32401E-12 5.41803E-03
 -1     21023-2.11438E-12 2.62761E-12-2.79920E-02
 -1     21024-1.63965E-13 4.00533E-13 9.51913E-03
 -1     21025-2.86570E-13-1.11903E-12 1.73959E-02
 -1     21026 2.90867E-12-1.29775E-12-3.67354E-02
 -1     21027 1.24336E-12-3.67794E-12 4.31913E-03
 -1     21028 1.35579E-12 3.42797E-12 5.62874E-04
 -1     21029 8.53606E-13 5.40566E-13-1.57327E-03
 -1     21030 6.22092E-14-5.04566E-13 2.59513E-03
 -1     21031 1.67007E-13 1.01482E-13 3.42916E-03
 -1     21032 1.62009E-13-6.39897E-14-2.34479E-04
 -1     21033 1.96793E-13-3.20254E-14-6.65783E-04
 -1     21034 4.30494E-13 1.10155E-13-3.43593E-03
 -1     21035 1.83647E-13-9.13140E-14-2.98301E-03
 -1     21036 3.45364E-14 5.13144E-14-8.50389E-04
 -1     21037 4.31922E-15 3.89947E-16-7.77265E-03
 -1     21038-6.89882E-14-3.51026E-14-2.70175E-02
 -1     21039-1.52523E-14 9.91004E-15 1.66079E-02
 -1     21040-1.23863E-16 1.42714E-14 3.48712E-03
 -1     21041-9.86781E-15 7.43383E-15-1.28738E-04
 -1     21042 3.08815E-15-1.35807E-15 1.73262E-03
 -1     21043 1.02614E-14 5.35405E-14 6.62856E-04
 -1     21044-5.60219E-16-7.94262E-15-5.38838E-03
 -1     21045 8.40200E-15 2.50856E-14-1.77943E-03
 -1     21046-2.21760E-13 4.65975E-14 4.37192E-04
 -1     21047 8.59006E-15-1.06320E-13-3.09488E-03
 -1     21048 1.27154E-14-1.17607E-13 2.40728E-03
 -1     21049 3.30415E-14-8.22230E-15 6.11282E-04
 -1     21050 4.03974E-14-1.13606E-12-2.28376E-03
 -1     21051-9.82130E-14 3.06908E-13 3.42787E-03
 -1     21052 1.51991E-13-1.09755E-13 4.53023E-03
 -1     21053-9.82686E-14-1.01170E-13 2.29372E-03
 -1     21054 1.84841E-13 3.02712E-13 3.29445E-03
 -1     21055-7.03734E-15-4.35579E-13-8.05397E-04
 -1     21056-1.29978E-13 3.85656E-13 2.28890E-04
 -1     21057-3.23202E-13 2.95778E-12 9.69677E-03
 -1     21058-5.00618E-13-7.64751E-13 3.65449E-03
 -1     21059 6.48794E-13-4.75721E-13-3.14062E-02
 -1     21060-1.35420E-12 4.58765E-13 1.81214E-02
 -1     21061 6.27657E-13-2.60623E-12 1.18725E-02
 -1     21062-8.62425E-14-3.18214E-14 3.58981E-04
 -1     21063-2.70483E-12-7.23472E-13 1.65765E-03
 -1     21064-1.41850E-12-5.06285E-12 6.56454E-03
 -1     21065-1.06936E-13-1.80680E-13 1.64007E-04
 -1     21066-7.50581E-13-1.73512E-12-3.18481E-02
 -1     21067-3.04829E-12-2.40034E-12-2.76074E-03
 -1     21068 7.02942E-15-4.90436E-14 4.46353E-03
 -1     21069 4.08747E-13 3.18703E-14-2.39617E-03
 -1     21070-8.37370E-13-6.56137E-13-1.50766E-02
 -1     21071-1.42978E-13-1.26476E-12 2.35370E-03
 -1     21072-5.01116E-13 5.71791E-13-1.19086E-03
 -1     21073 6.22790E-13 2.24555E-13-9.77601E-04
 -1     21074-6.72378E-14 3.59574E-13-1.32098E-03
 -1     21075 5.17774E-14 4.55562E-13-6.57773E-04
 -1     21076 9.12688E-13 7.91614E-13-4.82663E-02
 -1     21077 2.51973E-13-4.74097E-13 2.60105E-03
 -1     21078-5.42718E-14 7.82607E-14 2.71675E-03
 -1     21079 8.46441E-14 1.01639E-13-4.63799E-02
 -1     21080 2.04485E-14-1.61286E-14-1.14305E-02
 -1     21081 2.03776E-15 2.66107E-15-1.14934E-02
 -1     21082 1.55450E-14-3.20889E-14 2.14530E-03
 -1     21083-1.37902E-14 6.66417E-14 1.51282E-03
 -1     21084 6.33310E-15 1.51655E-14 2.92770E-03
 -1     21085 3.39272E-14 8.14596E-15-5.14062E-03
 -1     21086 4.06841E-15 2.36341E-14 4.64294E-04
 -1     21087-1.43947E-14-9.72183E-14 1.57293E-03
 -1     21088-1.77479E-14 6.17381E-14-1.74772E-03
 -1     21089-1.19880E-14 2.50993E-14-9.32934E-04
 -1     21090-4.59672E-13-4.15773E-12 4.08608E-02
 -1     21091 1.48694E-13 3.73476E-14-3.93316E-04
 -1     21092 3.02999E-14 7.82319E-14-1.43570E-03
 -1     21093 1.92885E-13 1.98562E-12-4.05229E-02
 -1     21094 3.70306E-13-4.03318E-13 1.72600E-03
 -1     21095 7.89250E-14 5.51742E-14 3.61551E-03
 -1     21096 6.43395E-14-3.15756E-14 2.54084E-03
 -1     21097 2.00531E-13-7.00752E-15-2.67636E-03
 -1     21098 1.26952E-14 4.87427E-14-1.23535E-03
 -1     21099 7.06433E-14 1.87574E-14-4.10152E-04
 -1     21100 1.37428E-13-1.74953E-13 1.12960E-03
 -1     21101 8.53811E-14 5.17604E-13 1.00574E-04
 -1     21102-2.37502E-13 2.20431E-12-1.67328E-03
 -1     21103-3.70744E-13-9.19409E-13-2.36826E-03
 -1     21104 1.39355E-13 1.45214E-12 6.43558E-03
 -1     21105 3.14562E-13-9.98355E-14-5.01712E-03
 -1     21106 6.50055E-13-2.67971E-12 6.66650E-02
 -1     21107-6.98280E-13-1.28624E-12-1.38021E-04
 -1     21108-1.86642E-14 1.93636E-14-8.66704E-03
 -1     21109-2.67082E-14 1.12504E-13 2.79715E-03
 -1     21110 1.06729E-13-6.71107E-14-3.19293E-02
 -1     21111-4.55336E-13 1.41315E-13 1.53477E-03
 -1     21112 1.48676E-13 1.63807E-13 4.11745E-03
 -1     21113 4.06048E-14-1.35525E-16-4.72494E-03
 -1     21114 3.54502E-14 2.82543E-14 2.01343E-03
 -1     21115-3.52227E-14-1.53525E-13 2.13862E-03
 -1     21116-1.70491E-14-2.14203E-14-8.05394E-04
 -1     21117 4.10448E-14 1.24872E-14 7.96140E-03
 -1     21118-4.83278E-13-3.97769E-14-5.52503E-03
 -1     21119 1.49901E-15-1.57437E-15-3.75434E-03
 -1     21120 2.73879E-12 3.06090E-12 5.78291E-02
 -1     21121-1.59089E-12 3.67822E-12 1.49148E-02
 -1     21122-1.16140E-13-2.76863E-13 6.01298E-03
 -1     21123-4.39955E-14-8.72520E-14-8.79608E-04
 -1     21124 2.62357E-14-5.19156E-13 3.28353E-03
 -1     21125-7.77197E-15 6.34681E-13-2.25149E-03
 -1     21126-1.51813E-13 6.03390E-14 7.17498E-03
 -1     21127-2.00306E-12-1.70707E-12 1.37735E-03
 -1     21128-1.12225E-12 7.72566E-13-5.96457E-04
 -1     21129 7.17473E-14 1.29387E-12 3.06733E-03
 -1     21130-3.23016E-14-1.94285E-12-8.96766E-04
 -1     21131-6.11897E-13 1.01185E-12 1.48296E-03
 -1     21132 2.78411E-14-4.53548E-14-3.94878E-04
 -1     21133-3.68444E-13-4.93401E-13-1.84066E-03
 -1     21134 9.72839E-13-2.58643E-12 9.24440E-03
 -1     21135 8.82046E-14 3.18142E-13-1.48489E-03
 -1     21136 1.01187E-13-4.82835E-13-1.02562E-05
 -1     21137 4.29807E-15-1.76204E-14-3.52947E-03
 -1     21138-4.67270E-13-2.55218E-13 5.20245E-03
 -1     21139 6.46825E-13 2.20610E-12 3.23745E-03
 -1     21140-5.56001E-13-2.40762E-12-2.22275E-03
 -1     21141-2.81908E-14-7.15921E-13 4.27026E-03
 -1     21142 2.84092E-13-7.40625E-13 2.63946E-03
 -1     21143 1.16143E-13-5.24812E-13 2.33654E-03
 -1     21144 1.42331E-14 9.11733E-14-1.32280E-02
 -1     21145 5.43500E-14 2.34902E-14-4.22417E-03
 -1     21146-2.37358E-14-1.48669E-14 1.00449E-02
 -1     21147 1.30918E-13 1.60005E-13 1.23663E-03
 -1     21148-4.76223E-13-2.10641E-13 2.28823E-04
 -1     21149-1.14226E-12-1.47641E-12-1.41305E-03
 -1     21150-8.63038E-14-2.03308E-13-1.25322E-03
 -1     21151 4.29610E-13 1.01925E-13 2.73925E-02
 -1     21152-4.90490E-14-1.00175E-14 1.46012E-03
 -1     21153 6.03273E-13 5.36669E-13 3.33932E-03
 -1     21154-9.59363E-14 1.70784E-13-2.82992E-03
 -1     21155-4.53061E-13 5.03214E-13 1.20683E-02
 -1     21156-6.48420E-13 5.09565E-13-2.66200E-03
 -1     21157 2.46567E-14 4.55101E-14-4.41583E-03
 -1     21158-1.44835E-14-9.58082E-15-1.37980E-03
 -1     21159 8.10709E-14 4.39792E-12-9.59156E-03
 -1     21160 4.08772E-13 1.96978E-14 2.26644E-04
 -1     21161-4.96452E-13-5.97028E-13 7.76548E-04
 -1     21162-1.27598E-13-2.96622E-13 6.95872E-04
 -1     21163-4.74998E-14-1.20002E-13 2.54293E-03
 -1     21164-4.72193E-12 1.20361E-12-5.92816E-03
 -1     21165 3.15574E-14-6.85568E-13-2.08548E-04
 -1     21166 1.91509E-14 3.57488E-14 3.53162E-04
 -1     21167-2.31917E-13 3.55999E-13-9.08679E-03
 -1     21168 8.47594E-14 6.75445E-13-1.21348E-02
 -1     21169-5.22679E-13-1.08646E-12 7.67198E-04
 -1     21170-1.83074E-15 1.66869E-13-4.11480E-03
 -1     21171-1.44945E-14-1.41664E-13-2.53018E-03
 -1     21172-1.67369E-13-1.49873E-12-2.95704E-04
 -1     21173-1.40325E-13 1.36829E-12-1.29169E-03
 -1     21174 1.09475E-14 2.76006E-14 2.34035E-03
 -1     21175-1.35370E-12-5.91487E-13-1.83881E-03
 -1     21176-1.22201E-13-1.53420E-13-8.95155E-03
 -1     21177-2.71581E-13 1.05891E-12 1.97374E-03
 -1     21178-5.20167E-13 2.93038E-12-6.72598E-04
 -1     21179-3.55031E-13-2.60550E-13-3.05406E-03
 -1     21180-5.33422E-13 5.36084E-14 1.21127E-03
 -1     21181 4.08680E-14-3.68740E-14-1.32118E-03
 -1     21182-4.91485E-13-1.19299E-12 1.96954E-03
 -1     21183-8.13952E-14 7.94418E-14-4.11154E-03
 -1     21184 1.10388E-13 1.92020E-13 2.57809E-03
 -1     21185 7.22571E-14-6.03962E-13 3.66930E-03
 -1     21186 8.80535E-14 1.34841E-13 2.46141E-04
 -1     21187 1.91621E-13 1.22408E-13-2.75574E-05
 -1     21188-8.55459E-14 5.07208E-13-7.37723E-03
 -1     21189 1.01919E-13 5.73985E-14 1.56283E-02
 -1     21190 5.04670E-14 3.25149E-14-1.19074E-02
 -1     21191 3.16514E-13-2.32933E-13 2.93362E-03
 -1     21192 4.60598E-13-1.02282E-12 4.41761E-03
 -1     21193-2.57449E-13 5.70475E-13 3.94726E-03
 -1     21194-6.90804E-14-7.24917E-13-6.89874E-04
 -1     21195 8.92286E-13-4.23410E-13-1.05652E-03
 -1     21196 3.36624E-15 4.72780E-14-9.47731E-04
 -1     21197-5.38965E-13 1.65919E-13-8.45412E-04
 -1     21198 1.94485E-13-5.99165E-13 6.70890E-05
 -1     21199 3.31435E-14 1.24609E-13-1.44585E-03
 -1     21200-1.55744E-14 5.79288E-14-1.14123E-03
 -1     21201-1.42550E-13 9.42489E-14 1.71947E-03
 -1     21202-1.27639E-13 1.32312E-12 3.01647E-03
 -1     21203 7.12102E-14 4.23170E-15 1.02829E-02
 -1     21204 4.17345E-13-3.76428E-12-1.83800E-04
 -1     21205 3.13914E-13-1.02400E-13 1.13700E-03
 -1     21206-1.76127E-13-4.33329E-13-3.96380E-03
 -1     21207 2.51792E-12-7.46785E-13-1.43327E-02
 -1     21208-1.81817E-13-6.16081E-14-8.99404E-04
 -1     21209 9.21457E-14-8.36945E-14-2.87136E-03
 -1     21210-7.48518E-13-1.83837E-12 1.23003E-02
 -1     21211 3.54490E-14-4.53821E-14-5.34254E-03
 -1     21212-1.76791E-14 1.57324E-13-1.45508E-03
 -1     21213 5.89956E-13 1.06177E-12 1.24638E-03
 -1     21214-5.74368E-13 2.83581E-13-7.23255E-03
 -1     21215-8.71781E-15 8.50510E-13-5.94212E-04
 -1     21216 1.55684E-13-8.03545E-14 2.14590E-03
 -1     21217-1.59651E-14 7.61827E-14 2.86158E-04
 -1     21218 1.61252E-14 1.93124E-13-1.50829E-02
 -1     21219-1.36498E-13-2.59124E-13 3.44481E-03
 -1     21220 1.80308E-12 8.56025E-13-6.10511E-03
 -1     21221-1.48935E-12-3.52087E-12-1.97146E-03
 -1     21222-2.28231E-14-6.72274E-14 1.43394E-03
 -1     21223 5.72075E-14 8.41507E-14-2.56952E-03
 -1     21224-6.45924E-13 1.18017E-12 7.80420E-03
 -1     21225 1.21601E-14 3.37622E-14-3.60923E-03
 -1     21226-1.74225E-13-3.36224E-13 1.36264E-03
 -1     21227 1.52826E-13-6.71765E-13 5.66645E-03
 -1     21228-4.20681E-13-1.79988E-12 7.80255E-03
 -1     21229 2.61761E-13-8.76909E-13-1.84787E-06
 -1     21230 1.04274E-14-2.85429E-14-5.19207E-03
 -1     21231 4.43794E-13-2.51992E-13-6.94939E-03
 -1     21232 2.32826E-12 4.95142E-13-8.54328E-03
 -1     21233-6.36251E-14-1.06170E-13 2.30628E-04
 -1     21234-2.19329E-12 5.71933E-12 1.49757E-02
 -1     21235 3.58045E-14-2.70600E-15 1.12767E-02
 -1     21236 2.59927E-13 9.84315E-13 8.00095E-03
 -1     21237-1.25476E-13-1.82929E-13-8.76673E-04
 -1     21238-5.11141E-14-4.63156E-13 1.09565E-02
 -1     21239-1.15045E-12-7.24622E-14-9.03050E-03
 -1     21240 8.59614E-14-4.61589E-13 5.63851E-03
 -1     21241 3.27191E-14-4.78912E-14 1.58390E-03
 -1     21242 5.68624E-14 2.01668E-13 1.61211E-03
 -1     21243 3.02238E-13-1.03906E-13 2.98257E-03
 -1     21244-6.37379E-14-3.64283E-14 9.51207E-04
 -1     21245-1.52217E-13-2.43170E-13-6.63616E-04
 -1     21246-9.88276E-13-1.06913E-12-3.29573E-03
 -1     21247 7.75893E-15-4.61935E-15-5.03873E-03
 -1     21248 3.32142E-13 3.90559E-12 1.32780E-02
 -1     21249 2.92079E-14-1.62147E-13 1.21694E-03
 -1     21250-7.84924E-14 1.17609E-13 3.18346E-03
 -1     21251-1.73362E-14 4.90808E-13-3.36391E-03
 -1     21252 2.41617E-13 1.42938E-12 1.85347E-04
 -1     21253-6.86643E-14 1.76207E-13 7.23951E-03
 -1     21254 1.26894E-13 1.21127E-13-1.61270E-03
 -1     21255-7.97542E-14-1.28773E-13-5.43741E-03
 -1     21256 3.73303E-13-5.93731E-13-1.10680E-02
 -1     21257 1.42434E-12 2.34932E-13-6.80326E-03
 -1     21258 2.00474E-15 1.65035E-13-7.25795E-04
 -1     21259 1.88899E-13-5.54624E-13-7.23805E-05
 -1     21260-1.22529E-13 1.31240E-12 4.95631E-03
 -1     21261-1.22907E-13 4.39233E-13 7.83765E-03
 -1     21262-3.44174E-14 1.83856E-13 7.24595E-03
 -1     21263 2.36708E-12-2.56275E-12-1.04188E-02
 -1     21264 4.45739E-14-1.05518E-13 4.71664E-03
 -1     21265 1.05997E-12-2.95096E-13-9.68166E-04
 -1     21266-1.62903E-14-2.05051E-13 1.47114E-04
 -1     21267 7.24854E-14 1.70271E-13 2.55551E-03
 -1     21268 1.68211E-13 8.32650E-13 5.73369E-03
 -1     21269-3.40873E-14 4.40554E-12 1.31557E-02
 -1     21270-1.74187E-13-4.30463E-13 1.55803E-03
 -1     21271-4.05697E-13 4.67463E-13-6.91946E-04
 -1     21272 1.46874E-13 5.55679E-14 1.00301E-03
 -1     21273-5.67879E-13 4.66386E-14-1.25473E-03
 -1     21274 8.30408E-14 4.85803E-14-9.20040E-04
 -1     21275 1.18195E-12 3.78923E-14-1.14553E-02
 -1     21276 4.60909E-13-1.30611E-12-5.32706E-03
 -1     21277 3.35260E-12 1.10162E-12-1.14208E-02
 -1     21278 2.60540E-14-5.10009E-14-6.77208E-04
 -1     21279 2.30374E-13 7.85338E-13 1.02243E-02
 -1     21280 8.72440E-13 4.49054E-12 2.56399E-03
 -1     21281 1.55216E-13-2.25193E-13 2.42129E-03
 -1     21282-3.95123E-14-1.65318E-13-5.64847E-04
 -1     21283-1.34632E-12 8.09281E-13-1.30865E-02
 -1     21284-5.20851E-15-7.34780E-14-5.87148E-03
 -1     21285-8.08705E-15 1.02476E-13 1.75442E-03
 -1     21286-2.54558E-13-1.54509E-13 2.74616E-03
 -1     21287 4.63447E-13-5.15794E-13 1.31850E-03
 -1     21288-4.15890E-13-8.54882E-13-3.02666E-03
 -1     21289 4.96191E-13-2.13311E-13-4.86753E-03
 -1     21290-1.30635E-14 4.40621E-13-1.24882E-04
 -1     21291-2.71951E-13 1.82705E-12-5.56416E-03
 -1     21292-6.61809E-13-5.31795E-13-5.14389E-03
 -1     21293 1.81781E-13-5.59795E-14 4.34551E-03
 -1     21294 6.05537E-13 2.33016E-12-3.18389E-03
 -1     21295-5.22285E-14 7.51190E-14 5.79939E-03
 -1     21296 6.68048E-14 3.91495E-13-8.97215E-04
 -1     21297 4.62289E-13 1.71622E-13 1.24467E-03
 -1     21298-1.77872E-14-1.10363E-13 6.40055E-03
 -1     21299 2.75766E-14 2.38978E-12-4.22307E-04
 -1     21300-4.16929E-13 7.83778E-13 3.50848E-03
 -1     21301-1.79908E-13-3.50696E-13 2.10347E-02
 -1     21302-1.12203E-13 2.70277E-13 4.36311E-03
 -1     21303-5.77400E-14 2.07411E-13-2.94625E-03
 -1     21304-8.70904E-14 2.33258E-13 8.08880E-04
 -1     21305-4.03269E-13-1.89337E-12 1.23441E-02
 -1     21306-7.88962E-13-1.07266E-13-2.29538E-04
 -1     21307 6.87049E-15-1.37006E-13 4.12645E-03
 -1     21308 6.42155E-14 1.11314E-13 1.08375E-02
 -1     21309-5.86014E-14-2.81775E-13 4.02611E-04
 -1     21310-6.28814E-14-8.91874E-13-1.10210E-03
 -1     21311 8.82512E-13 1.81195E-12 5.52023E-03
 -1     21312-3.38768E-14-4.09719E-14-4.07678E-04
 -1     21313 3.07508E-14 4.72133E-14-3.10907E-03
 -1     21314-4.42873E-13-6.06418E-13-2.22852E-02
 -1     21315 2.73414E-14-8.32212E-13 1.74658E-03
 -1     21316 2.55759E-14-2.32021E-13 7.81769E-04
 -1     21317 1.03594E-13-2.50880E-13 2.67674E-03
 -1     21318-4.42634E-13 1.70411E-12 6.50638E-04
 -1     21319-5.25009E-14 4.14456E-14 4.37978E-03
 -1     21320-5.90614E-15 1.43169E-13-2.36477E-03
 -1     21321 1.12116E-13 1.08088E-13 2.74010E-03
 -1     21322 1.89747E-13 4.53885E-14 2.20895E-03
 -1     21323-5.20168E-15 1.70608E-13-3.51384E-03
 -1     21324 1.84567E-13 5.04246E-14-1.31494E-02
 -1     21325-2.71216E-14-3.39923E-14 1.31984E-03
 -1     21326 1.27469E-13 7.46564E-14 8.04205E-04
 -1     21327-6.91553E-14 3.13917E-13-9.61305E-03
 -1     21328 3.12894E-14 4.52889E-14-3.58127E-03
 -1     21329 5.22815E-14-8.74076E-14 5.73799E-03
 -1     21330 1.00411E-15 9.02441E-14-4.08606E-03
 -1     21331 1.99049E-14-2.02178E-13-3.18176E-03
 -1     21332 2.99610E-13 1.93894E-13-1.29717E-02
 -1     21333-8.13436E-15 4.95654E-13-9.88890E-03
 -1     21334 1.13000E-14-3.66352E-13 7.40899E-04
 -1     21335 1.47306E-14-1.76174E-13 9.24123E-04
 -1     21336 9.09222E-15-5.96450E-13-2.12653E-03
 -1     21337-2.01829E-13-9.17006E-14 2.58459E-03
 -1     21338 7.67673E-14-9.59843E-14-1.27653E-03
 -1     21339 4.21845E-14-5.70439E-13 1.04796E-02
 -1     21340-2.81143E-14 4.71424E-14-3.74840E-03
 -1     21341 5.75592E-14 1.61631E-13-2.03438E-03
 -1     21342 6.33648E-13 1.84774E-14 8.43214E-14
 -1     21343-1.02208E-13-6.30070E-13 3.62210E-14
 -1     21344 2.12206E-01 2.52976E-01 3.79186E-03
 -1     21345 1.56729E-01 2.12849E-01-3.56562E-03
 -1     21346-1.72251E-12 6.72100E-13 7.19339E-13
 -1     21347-1.04106E-12 4.60164E-13 4.19981E-13
 -1     21348 1.21406E+01-5.28492E+00-8.13699E-02
 -1     21349 6.87561E+00-3.53886E+00 2.41419E-01
 -1     21350-6.36752E-15 4.03772E-13 2.73531E-13
 -1     21351-1.29677E-12 1.83934E-12 6.50535E-13
 -1     21352-1.12046E-12 5.43995E-13 8.02414E-14
 -1     21353 4.66908E-13-1.99585E-12-2.85549E-13
 -1     21354 4.03193E-13-2.10222E-13-4.80116E-13
 -1     21355-3.20643E-13-2.15420E-13 2.02505E-13
 -1     21356 2.67643E-13-7.56269E-13-9.90319E-14
 -1     21357 5.02017E-14-1.91727E-13-5.44842E-14
 -1     21358-3.63462E-14-2.88859E-13-1.80855E-13
 -1     21359 1.39793E-13 2.65016E-13 6.50036E-14
 -1     21360-2.30781E-13 4.10701E-15-7.81597E-14
 -1     21361-2.15559E-13 2.64055E-13-1.23235E-14
 -1     21362-1.55069E-15-4.52130E-14-5.44564E-14
 -1     21363 9.76732E-14-5.27140E-14-2.85605E-14
 -1     21364-1.31116E-14-1.01169E-13 2.51951E-14
 -1     21365-1.07340E-14-1.66205E-14 1.17129E-14
 -1     21366 6.12649E-15 5.42200E-15-1.06443E-14
 -1     21367-2.43270E-15 9.29868E-15-1.45283E-15
 -1     21368-6.89821E-15-1.89805E-14 9.82547E-15
 -1     21369 1.80381E-14-5.67451E-14 1.13798E-14
 -1     21370 1.34832E-14-1.51010E-13 2.34084E-14
 -1     21371-6.35137E-14 1.44658E-13-5.16288E-14
 -1     21372 4.74133E-14-8.92474E-14-2.22045E-14
 -1     21373 3.05157E-14 2.54646E-13 8.41549E-14
 -1     21374-4.84546E-15 2.75313E-13-1.24345E-14
 -1     21375 8.86541E-14 4.12549E-13 2.47580E-14
 -1     21376-1.60973E-13-2.35167E-13-3.10862E-15
 -1     21377 1.18420E-12-1.64077E-12 4.02289E-13
 -1     21378 4.17298E-14-1.02656E-12-2.49356E-13
 -1     21379-1.96392E-13-5.88878E-13-7.01050E-13
 -1     21380-8.46695E-14 1.35664E-13 1.49645E-13
 -1     21381 7.67855E-15-6.51836E-13-2.22933E-13
 -1     21382-2.53294E-13-1.38984E-12-1.49880E-13
 -1     21383 2.14454E-13-3.71795E-12 1.38334E-13
 -1     21384-6.22097E-13-6.37088E-13 5.61143E-14
 -1     21385-1.05015E-12 1.72884E-12-2.90268E-13
 -1     21386-3.69896E-13 2.85440E-12 7.23310E-13
 -1     21387 2.17487E-13-5.78167E-13-1.72085E-14
 -1     21388-1.76217E-13-7.10465E-13-4.35346E-14
 -1     21389-4.73036E-14-2.61718E-13 2.32481E-13
 -1     21390-3.60537E-14 4.47804E-13 2.87104E-13
 -1     21391-6.93848E-14-5.21973E-13 1.27162E-13
 -1     21392-1.56581E-13-3.88246E-13-1.13243E-13
 -1     21393 5.61895E-14 3.63208E-15 8.17679E-14
 -1     21394 8.22197E-14-1.19843E-13 2.78111E-14
 -1     21395 4.51621E-14 3.66772E-14-5.68434E-14
 -1     21396 4.86227E-15 3.61028E-14 5.10703E-15
 -1     21397 4.78508E-14 8.53447E-15-2.22045E-14
 -1     21398-3.55584E-16 1.48415E-14 4.56579E-15
 -1     21399 5.85442E-14-1.38028E-13-6.50868E-15
 -1     21400 5.69370E-15 7.00847E-14-5.62050E-15
 -1     21401 1.88735E-14-3.14590E-13-4.82947E-15
 -1     21402-1.06629E-13 2.20668E-13-7.64944E-14
 -1     21403 4.98202E-15-9.68334E-14-8.98726E-14
 -1     21404 1.43818E-13 1.29283E-13-3.04201E-14
 -1     21405 9.31229E-15 2.09737E-13 8.64864E-14
 -1     21406-2.03733E-14 2.22117E-13 1.61093E-13
 -1     21407-2.53986E-14 1.47177E-13-2.64955E-13
 -1     21408-5.23556E-14 8.20605E-13-4.17000E-13
 -1     21409-1.28594E-13-6.00369E-13 4.28546E-14
 -1     21410 5.07304E-13-3.26674E-12-5.30409E-13
 -1     21411 6.22337E-13 1.26823E-12 4.87721E-13
 -1     21412-7.77622E-13-9.48974E-13-6.64468E-14
 -1     21413 4.40446E-14 1.39086E-12-9.34280E-13
 -1     21414 8.16921E-13-1.93260E-12 3.44863E-14
 -1     21415 3.72850E-13 2.13028E-12 1.62759E-13
 -1     21416 1.53755E-13-1.23899E-13 1.58262E-13
 -1     21417-7.09366E-13 6.49673E-13 1.80085E-13
 -1     21418-9.86211E-13 1.08702E-12-4.61808E-13
 -1     21419-2.67263E-13 6.28837E-13 1.80467E-13
 -1     21420 2.43753E-13-4.98566E-14 7.45848E-13
 -1     21421 3.47689E-13 8.08571E-13 5.92207E-13
 -1     21422-1.57390E-12-1.36441E-12 5.66547E-13
 -1     21423-1.51859E-13 6.95377E-14-5.21277E-13
 -1     21424-9.82216E-13-1.59609E-12 6.13842E-13
 -1     21425 1.56382E-12 2.73291E-12-2.51077E-13
 -1     21426 1.25178E-14-2.09797E-14-8.43769E-15
 -1     21427 2.62780E-14 2.86190E-14-4.17721E-15
 -1     21428 1.71783E-13-7.62102E-14-3.61378E-14
 -1     21429 5.09467E-14-1.11003E-13 2.16493E-15
 -1     21430 1.66751E-12 3.54532E-14-1.77691E-13
 -1     21431 2.79610E-13-1.92009E-13-1.76192E-13
 -1     21432 2.18123E-13 6.55458E-13 3.39173E-14
 -1     21433-4.02209E-14-1.33404E-13 1.03251E-14
 -1     21434-7.32847E-13 1.40377E-13-1.99840E-13
 -1     21435 5.46413E-13-1.63296E-13 5.85254E-13
 -1     21436-2.40931E-13 2.54316E-12 7.66054E-14
 -1     21437-1.40586E-12-3.37888E-13 6.53255E-13
 -1     21438-5.87438E-13 3.23223E-12-3.24324E-13
 -1     21439 2.37719E-14 1.22085E-12-5.97100E-14
 -1     21440-1.93437E-12 2.67940E-12 2.12247E-13
 -1     21441 4.41936E-13 8.23802E-13-3.22346E-14
 -1     21442 2.15783E-13-1.41422E-12-2.62304E-13
 -1     21443 1.58961E-13 2.97148E-13 1.89126E-13
 -1     21444-3.96094E-13 2.72744E-13-3.74950E-13
 -1     21445-7.55589E-13-2.78510E-12-3.88967E-13
 -1     21446-1.83643E-13 1.57156E-12 7.82707E-14
 -1     21447-1.17566E-12-2.14502E-13 3.71092E-14
 -1     21448 2.65087E-13 8.98156E-13 1.04750E-13
 -1     21449-3.22757E-13-3.25069E-13-2.17604E-14
 -1     21450-1.74148E-13-1.98510E-13 1.44607E-14
 -1     21451 1.33975E-13 1.71165E-13-9.27314E-14
 -1     21452 1.71063E-13-3.42948E-14 7.78544E-14
 -1     21453 6.00453E-14 5.42283E-14-2.22045E-14
 -1     21454 2.48300E-13 8.88085E-14-1.01391E-13
 -1     21455 7.90329E-14-6.61376E-14 4.96270E-14
 -1     21456 4.38656E-13-3.44972E-13 1.34781E-13
 -1     21457-7.52248E-13-2.07109E-14-1.15685E-13
 -1     21458 2.97569E-13 3.83442E-13 4.02789E-13
 -1     21459-4.40813E-13-1.22357E-12 4.99600E-16
 -1     21460 2.73283E-13 6.65268E-13-2.66759E-13
 -1     21461-9.80772E-13 3.64640E-12-1.68712E-13
 -1     21462-3.00237E-13-8.28408E-13 2.12483E-13
 -1     21463-1.30870E-12 4.16883E-12 1.09658E-12
 -1     21464 2.34635E-12-1.50306E-12-1.72112E-13
 -1     21465-1.31647E-13 1.42451E-13 1.24178E-13
 -1     21466-9.30019E-13-1.21895E-13-1.15213E-13
 -1     21467 2.30038E-12-2.05471E-12 1.31492E-12
 -1     21468 2.55548E-13 6.53262E-13-3.15636E-13
 -1     21469 1.06026E-12 4.41249E-13 8.54872E-14
 -1     21470 4.64684E-13 4.52193E-13 3.55826E-14
 -1     21471 5.27599E-14-1.30605E-13-7.21645E-15
 -1     21472 3.33720E-13-1.84512E-13-1.80189E-13
 -1     21473 1.59810E-13 9.55498E-14 3.75533E-14
 -1     21474 1.58588E-14-3.66499E-14 1.99840E-15
 -1     21475-4.48375E-02 3.91616E-02 2.91769E-03
 -1     21476-2.86867E-02-3.93044E-03-1.49852E-03
 -1     21477 6.63733E-02 1.43616E-02 4.80242E-03
 -1     21478 8.37504E-03 2.33784E-03 1.17469E-03
 -1     21479 1.61482E-04 1.47149E-02 2.49462E-03
 -1     21480-1.15952E-02-8.56327E-04-3.25511E-04
 -1     21481 3.15262E-02-1.44639E-02 3.08945E-03
 -1     21482 1.57254E-02 5.87401E-02 5.95981E-03
 -1     21483-5.37393E-03-1.60936E-03 3.05602E-03
 -1     21484 1.14789E-02-5.04888E-02 1.36196E-02
 -1     21485 5.83255E-02 4.33864E-03 3.90026E-03
 -1     21486-7.51963E-02 4.22586E-01-6.58711E-02
 -1     21487-1.64110E+00-5.44624E-01 1.11190E-01
 -1     21488-1.40664E-01-8.29500E-01-1.44359E-01
 -1     21489-3.71073E-02 3.92446E-02 8.17165E-03
 -1     21490-2.31601E-02-1.05911E-03-2.05845E-03
 -1     21491-3.23980E-02-6.12985E-03 1.45463E-03
 -1     21492-8.87889E-03 4.13335E-04-3.48421E-04
 -1     21493-1.63026E-02 2.16109E-02-6.02877E-03
 -1     21494-8.30941E-03 2.73261E-03-1.95260E-03
 -1     21495-1.35735E-02-7.26961E-03-5.90417E-04
 -1     21496 1.40888E-02 1.18301E-02 1.44197E-03
 -1     21497-1.34625E-02 1.04132E-03-4.68187E-03
 -1     21498 5.95843E-03-3.47879E-04 4.05304E-03
 -1     21499 5.01653E-03 3.92105E-03 8.03582E-03
 -1     21500 2.06908E-02 2.19654E-03-4.05708E-03
 -1     21501-1.32219E-02-6.54506E-03-9.54860E-04
 -1     21502-4.35472E-03 1.09039E-02-1.12973E-03
 -1     21503-5.35829E-03 5.25780E-03 6.30588E-03
 -1     21504-1.30016E-02 5.83417E-03-1.14477E-03
 -1     21505-1.40478E-02 1.81968E-03 7.95003E-05
 -1     21506-1.35160E-01-2.67940E-02 8.93622E-03
 -1     21507 9.42791E-03 1.41996E-02 3.02711E-03
 -1     21508 3.21032E-02-3.78647E-02-8.65461E-04
 -1     21509-1.82912E-02 6.03041E-03-1.90655E-04
 -1     21510-1.06575E-02-1.37551E-02-7.28543E-03
 -1     21511 1.96290E-02-5.86802E-02-2.79326E-03
 -1     21512-6.27729E-03 3.44715E-03-1.40670E-03
 -1     21513-5.65560E-03-4.64373E-03-4.35796E-04
 -1     21514 1.89880E-03 7.85187E-03 9.18137E-04
 -1     21515-1.80965E-02 2.30028E-02-4.65274E-03
 -1     21516 1.07694E-12-3.10450E-12-1.39827E-12
 -1     21517-2.40054E-12 1.77041E-12 1.95136E-13
 -1     21518-2.97696E-13-1.17908E-12-1.73583E-13
 -1     21519 4.53751E-13-6.93800E-14 6.85563E-14
 -1     21520-9.42882E-14 2.40247E-12-2.54574E-13
 -1     21521 1.87295E-13 4.78030E-13 9.70470E-13
 -1     21522-8.41624E-13-1.13810E-12-1.39666E-13
 -1     21523-1.28245E-12 4.60134E-13 1.27398E-13
 -1     21524 3.05572E-13-2.86772E-12-7.59115E-13
 -1     21525-1.31613E-12 4.73787E-12 6.89115E-13
 -1     21526 3.25741E-15-2.91378E-14-6.82787E-15
 -1     21527-1.80921E-14-2.21749E-13-2.13718E-14
 -1     21528 1.49701E-16 2.94550E-14 1.85962E-14
 -1     21529 1.04021E-12 2.35270E-12-4.88276E-13
 -1     21530 1.07439E-13-3.36624E-13 4.21885E-14
 -1     21531-4.70885E-13 4.48019E-13-4.43534E-14
 -1     21532 1.75213E-13-6.29191E-13 3.72091E-13
 -1     21533-8.72960E-13 1.70738E-12-1.69531E-13
 -1     21534-3.80822E-13 1.85911E-12-1.57263E-13
 -1     21535-1.33693E-13-1.40094E-13 1.12355E-13
 -1     21536 3.08492E-14-5.76838E-14 3.04617E-15
 -1     21537-8.61537E-13 1.08539E-12-3.95517E-14
 -1     21538 2.68555E-13-6.54827E-14 9.54792E-15
 -1     21539-2.14600E-12-2.55903E-12 1.39375E-13
 -1     21540-8.07721E-14 3.96503E-13-8.33292E-14
 -1     21541-2.76859E-13 1.33947E-13 2.05669E-14
 -1     21542 1.01932E-12-5.41712E-13 1.21404E-12
 -1     21543 1.65063E-13 8.27105E-13-1.25372E-13
 -1     21544 4.25281E-13-3.67427E-14-5.10703E-14
 -1     21545 2.25654E-13-2.38455E-13 1.16712E-14
 -1     21546-1.27207E-13 3.85315E-15-9.02056E-16
 -1     21547-1.42783E-12 2.15483E-12-1.67276E-13
 -1     21548 6.51441E-13 2.16084E-13 1.12493E-13
 -1     21549 2.16146E-14 1.36668E-13 2.21212E-14
 -1     21550-2.34069E-13-8.69430E-13-1.02349E-13
 -1     21551-5.02707E-13-8.29685E-13 2.43347E-14
 -1     21552 1.39562E-12 1.56587E-12-1.41576E-12
 -1     21553-1.65760E-13-1.24711E-12 6.40165E-14
 -1     21554 8.27405E-14 4.36249E-13 9.03722E-14
 -1     21555-1.21681E-14-2.18027E-14 1.97065E-15
 -1     21556 1.37055E-12 1.27769E-13 3.20854E-13
 -1     21557 3.93942E-13-4.60399E-12 1.10356E-13
 -1     21558-4.30205E-13-3.07212E-13-5.06817E-14
 -1     21559 1.59936E-12-3.08453E-13-6.52145E-13
 -1     21560 7.04142E-14-1.80699E-13-5.67324E-14
 -1     21561 2.81533E-14 2.50615E-14 1.04361E-14
 -1     21562-9.56987E-15-1.25334E-15-1.02696E-14
 -1     21563 9.16831E-15-8.30061E-15 6.52256E-16
 -1     21564-1.12044E-13 4.90961E-13-1.34025E-13
 -1     21565-3.37031E-14-4.15977E-13-1.62537E-13
 -1     21566 6.50694E-13-4.15815E-12-1.15807E-12
 -1     21567-3.67997E-12-2.73234E-12-3.55549E-13
 -1     21568 4.74912E-15-7.75820E-15 1.01308E-15
 -1     21569 1.61017E-14 5.15340E-14 1.04028E-13
 -1     21570 3.56801E-14-4.12375E-13-3.67206E-14
 -1     21571-2.58640E-13 1.02384E-12 3.70537E-15
 -1     21572 1.29259E-15-1.95915E-16-1.94289E-16
 -1     21573 1.95976E-12 2.01981E-13 2.50605E-13
 -1     21574-4.60396E-15 1.27259E-14 2.55351E-15
 -1     21575-4.63714E-13 3.60785E-16 1.66256E-13
 -1     21576-3.57850E-13-9.55053E-14-2.54075E-13
 -1     21577-1.08363E-12 1.29408E-12-1.26760E-12
 -1     21578 1.10415E-13-1.01865E-12-2.46636E-13
 -1     21579-1.60649E-13 2.46463E-13-6.81677E-14
 -1     21580-1.19499E-14 2.88810E-14 4.83086E-14
 -1     21581-2.20558E-13-2.41176E-13 8.35443E-14
 -1     21582-1.72349E-13 1.41126E-13-1.60786E-14
 -1     21583-1.05797E-13 6.64057E-13 7.89410E-13
 -1     21584-2.66685E-13-7.43244E-13-2.91288E-13
 -1     21585-7.88500E-14-1.15806E-13-1.91569E-13
 -1     21586-5.07114E-15 3.43871E-15-4.16334E-16
 -1     21587 1.03980E-12-8.72026E-13 2.40667E-13
 -1     21588-6.92724E-15 1.29062E-13-6.20060E-14
 -1     21589 1.78969E-12-6.39918E-13 3.46355E-13
 -1     21590 5.73204E-13 4.49934E-13 1.73916E-13
 -1     21591-9.88791E-14-3.01139E-14 2.41474E-15
 -1     21592-2.07766E-14 7.19992E-15-6.56419E-15
 -1     21593-2.80358E-15-1.63822E-14 4.20323E-15
 -1     21594 1.08190E-16 3.81622E-15 2.80331E-15
 -1     21595-1.14529E-14-3.72023E-14-4.35763E-15
 -1     21596-2.02846E-13-6.98650E-14-9.01987E-14
 -1     21597-1.71079E-12 1.01839E-12-6.38517E-14
 -1     21598 3.63970E-13 1.52335E-12 2.39114E-13
 -1     21599-1.18344E-14-1.49241E-13 6.47260E-14
 -1     21600 4.57495E-15 9.80000E-14 6.45317E-14
 -1     21601-4.72592E-13 8.89521E-13 2.03171E-13
 -1     21602-1.15540E-13-2.13711E-13-2.12608E-13
 -1     21603-1.34208E-13 4.87830E-14 4.50195E-14
 -1     21604-8.67769E-14-4.10150E-14 1.47105E-14
 -1     21605 1.49169E-13 2.37912E-13 1.72445E-13
 -1     21606 6.08124E-16 8.31923E-15-2.21698E-15
 -1     21607 4.40056E-13 3.23193E-12 2.19547E-14
 -1     21608-3.61142E-12 1.85072E-12-2.52902E-13
 -1     21609 6.56746E-15-5.58177E-15 9.02056E-16
 -1     21610-1.34806E-12-1.11909E-12-3.52524E-13
 -1     21611-8.19421E-13 3.54376E-13 6.33660E-14
 -1     21612-8.98760E-16 1.40997E-17 9.88792E-16
 -1     21613 2.59398E-12-6.14303E-12-2.44249E-13
 -1     21614-1.30978E-13-5.99379E-13-7.44294E-13
 -1     21615-1.60960E-12 2.79581E-12-5.36238E-13
 -1     21616 6.52256E-16 6.41848E-16 2.00266E-16
 -1     21617 2.82476E-13-1.53084E-13 6.49619E-14
 -1     21618-3.06668E-13 1.01951E-12 1.11239E-12
 -1     21619-3.56670E-15-8.72152E-15 3.19883E-15
 -1     21620-1.13553E-14-6.54864E-15-3.33067E-16
 -1     21621-1.35937E-12-6.26033E-12-6.65301E-13
 -1     21622-2.18658E-13-1.14369E-13-1.50813E-13
 -1     21623 1.44329E-15-1.88738E-15-8.01225E-16
 -1     21624-4.47275E-13-1.29904E-12 7.94090E-13
 -1     21625-1.35274E-13 4.49434E-13 9.02056E-14
 -1     21626-7.70444E-14 1.27379E-13 2.99760E-14
 -1     21627 7.46031E-15-1.40832E-15 3.33067E-16
 -1     21628-2.80986E-13 5.32709E-13-1.14520E-13
 -1     21629-5.98926E-13-2.90524E-13-8.07132E-14
 -1     21630-1.57078E-13-1.83292E-12-1.02585E-12
 -1     21631-1.72680E-12-1.77062E-12 5.35127E-13
 -1     21632 1.35334E-13 2.98467E-13 4.78451E-13
 -1     21633-2.93390E-12 1.81207E-12-1.44629E-12
 -1     21634-1.26993E-13-4.19663E-13-6.13468E-14
 -1     21635-2.68325E-14 3.13313E-13 5.00711E-14
 -1     21636 5.29640E-16 3.93144E-15 5.15213E-16
 -1     21637-2.19819E-13 1.08131E-13-2.40086E-14
 -1     21638 3.86016E-14-1.68536E-13-3.78239E-14
 -1     21639 8.55565E-14 8.32947E-14-1.06026E-14
 -1     21640 1.90468E-12 4.26635E-12 3.11973E-13
 -1     21641 4.14742E-13-7.34553E-14-1.24900E-13
 -1     21642 9.62695E-14 1.66209E-12 3.83971E-13
 -1     21643 5.19101E-12 1.93942E-12 2.45443E-13
 -1     21644-1.62301E-14-3.62974E-14-1.70974E-14
 -1     21645-7.48520E-14 7.72041E-14-8.59313E-14
 -1     21646 2.44610E-13-4.65963E-14-1.35572E-13
 -1     21647 6.67348E-13-5.37984E-14 2.42806E-13
 -1     21648-4.95820E-15 5.24062E-14 1.69309E-15
 -1     21649-1.12761E-13 1.86301E-15 2.49301E-13
 -1     21650-2.47865E-12-3.02754E-12-3.73035E-14
 -1     21651-1.27158E-15 9.07762E-15-1.91513E-15
 -1     21652-1.10907E-14 1.59253E-15-2.41474E-15
 -1     21653 1.16023E-12-1.61756E-14-2.73032E-13
 -1     21654 1.29774E-14 5.76374E-15 4.24104E-16
 -1     21655-8.35616E-13 2.01582E-13 6.15064E-14
 -1     21656 9.28522E-15 7.17937E-15 8.31279E-15
 -1     21657 1.76048E-14-2.11724E-12-5.19793E-13
 -1     21658 4.49558E-13-1.04973E-12-2.08000E-13
 -1     21659-1.74529E-13 6.11057E-14 4.58383E-14
 -1     21660-2.69091E-12 1.29755E-12 3.72677E-13
 -1     21661 9.83260E-15 4.50584E-15 4.44089E-16
 -1     21662 3.28783E-14-1.33138E-14 4.94049E-15
 -1     21663 4.63994E-15-1.49456E-14 4.24660E-15
 -1     21664-8.43305E-14-8.34345E-13 5.70211E-13
 -1     21665-5.55078E-14 4.09069E-14-1.93179E-14
 -1     21666 1.67792E-13 5.40309E-13-3.55826E-14
 -1     21667 2.10453E-13 1.14359E-12 6.23779E-13
 -1     21668-4.68149E-13-3.87236E-12-1.00392E-13
 -1     21669 6.13713E-16-4.02526E-14-1.10537E-14
 -1     21670-8.64135E-13 1.90745E-12 5.86309E-13
 -1     21671-1.63316E-14-1.92939E-14-5.68989E-15
 -1     21672-1.50065E-12 3.44594E-12-4.18554E-13
 -1     21673 1.64175E-13-1.30118E-13-8.29337E-14
 -1     21674-7.29835E-14 9.16390E-14-3.24574E-13
 -1     21675-1.55624E-12 3.29045E-12-1.74660E-12
 -1     21676-1.33452E-12 1.67854E-12 9.87266E-14
 -1     21677-1.16654E-13-9.21849E-13 4.44228E-14
 -1     21678-4.99600E-15-3.88578E-16 6.22657E-16
 -1     21679-2.13046E-13-7.78197E-15-3.78586E-14
 -1     21680-9.26051E-13 2.76040E-12 5.10557E-13
 -1     21681-1.39418E-12 7.33987E-12-1.22458E-13
 -1     21682 3.84137E-14 1.68476E-14-5.13088E-15
 -1     21683 1.84717E-12-8.27793E-13 9.83102E-14
 -1     21684-1.30040E-13 9.07786E-13 1.70974E-13
 -1     21685-1.39168E-13-3.74034E-13-5.48450E-14
 -1     21686-2.39967E-15 8.42578E-15 3.00107E-16
 -1     21687 8.49799E-14 4.17433E-14 3.20889E-14
 -1     21688-4.22848E-15-1.59636E-14 1.27676E-15
 -1     21689-1.44747E-12 2.68364E-12 4.54123E-13
 -1     21690 1.79198E-12-5.56731E-12-1.27853E-12
 -1     21691 5.72374E-16-9.02038E-16 4.39232E-15
 -1     21692-1.69842E-14-1.26808E-15 8.32667E-17
 -1     21693-1.59782E-15-8.46616E-15 4.99600E-15
 -1     21694-5.44738E-12 2.15105E-12 3.42615E-13
 -1     21695-7.94969E-13 3.61579E-13 8.43381E-13
 -1     21696-2.22045E-16-1.94844E-14-3.88544E-16
 -1     21697 4.29797E-13 2.48773E-13-2.13440E-13
 -1     21698 3.83726E-16-7.27391E-16 3.08087E-15
 -1     21699-2.70964E-12-9.62261E-13 1.54632E-13
 -1     21700 3.05521E-13 2.04253E-13-1.76359E-13
 -1     21701-1.11022E-16-1.27676E-15-1.89695E-16
 -1     21702-6.03504E-13-2.33255E-12-3.52607E-13
 -1     21703 4.38885E-16-1.11716E-15 3.99680E-15
 -1     21704 3.46806E-14 7.27738E-14 1.28786E-14
 -1     21705-3.92438E-15 5.46947E-15-4.02456E-15
 -1     21706 5.91958E-15-6.82313E-15 9.19403E-16
 -1     21707 5.96953E-14 4.71793E-14 8.53206E-14
 -1     21708 1.27913E-12 1.48977E-12-5.95288E-13
 -1     21709-2.48368E-14 5.03660E-14-4.99074E-15
 -1     21710-1.26565E-14-2.39392E-15 1.75727E-15
 -1     21711 2.59359E-12 3.07104E-12 2.07889E-13
 -1     21712 1.63519E-12 2.41620E-12 5.87266E-13
 -1     21713 1.61314E-12-2.45983E-12 2.71699E-13
 -1     21714 3.65589E-14-9.29534E-14-4.27436E-15
 -1     21715 3.21368E-15-6.67977E-16-1.74860E-15
 -1     21716-3.01819E-12 4.85978E-13 7.05569E-13
 -1     21717 1.59183E-14 2.67684E-15 1.41276E-14
 -1     21718 1.16179E-14-4.12010E-15 9.06466E-15
 -1     21719-9.53019E-14 2.10467E-12 2.22961E-13
 -1     21720-4.08136E-12 1.02446E-12 5.32900E-13
 -1     21721 3.12442E-13-1.47505E-12-1.01984E-12
 -1     21722 1.34342E-12-4.36152E-12 3.95253E-13
 -1     21723 1.38443E-14 1.96877E-12 2.36776E-13
 -1     21724 6.27861E-15-1.23997E-14 9.99201E-16
 -1     21725 9.25704E-15 2.77169E-14 7.63278E-16
 -1     21726-1.71652E-14-5.03584E-14-3.46945E-15
 -1     21727 9.47174E-14-5.31927E-14 2.94209E-15
 -1     21728-2.22005E-13-1.13695E-14-5.38986E-13
 -1     21729 6.97315E-13-2.76623E-13 3.20532E-13
 -1     21730-4.34555E-12 7.07763E-13-7.28931E-13
 -1     21731 1.41602E-12 1.13323E-11-4.56191E-13
 -1     21732-8.73600E-13-2.08092E-12-1.02141E-13
 -1     21733 6.15014E-14 7.52945E-14-3.47402E-13
 -1     21734 1.84723E-12-1.36402E-12 4.95593E-14
 -1     21735 8.85954E-14-1.78069E-14 3.99680E-15
 -1     21736-2.03556E-14 7.78000E-15-4.32987E-15
 -1     21737 1.78812E-15 8.66342E-15-1.98718E-15
 -1     21738-1.12071E-12 3.47222E+00 3.25920E-13
 -1     21739-3.59990E-13 2.49650E+00-2.41149E-13
 -1     21740-9.03271E-15 2.49650E+00 1.37557E-13
 -1     21741-2.16073E+00-1.66716E+00-5.83476E-03
 -1     21742-1.68850E+00-1.28021E+00-1.43128E-03
 -1     21743-1.33925E+00-9.82709E-01 1.26849E-04
 -1     21744 7.13232E-15-4.60511E-13-2.14363E+00
 -1     21745-1.63497E-13-8.63151E-13-3.10530E+00
 -1     21746 2.18897E-14-3.81527E-13-3.63753E+00
 -1     21747 1.89311E-13-1.23357E-12-3.97074E+00
 -1     21748 1.55635E-13 6.50330E-13-4.18577E+00
 -1     21749 1.26275E-13-1.59733E-13-4.31832E+00
 -1     21750 2.24293E-13-6.10935E-13-4.42904E+00
 -1     21751 2.07651E-13 1.81363E-13-4.53285E+00
 -1     21752 4.70621E-14-9.39283E-13-4.60400E+00
 -1     21753 5.60210E-15-2.04268E-14-4.63771E+00
 -1     21754-6.03159E-14 2.06848E-13-4.64040E+00
 -1     21755 9.41007E-14-3.26313E-14-4.61666E+00
 -1     21756 3.66043E-14-2.75681E-13-4.57461E+00
 -1     21757-5.08503E-14 2.32498E-13-4.51907E+00
 -1     21758 4.82077E-14-5.64483E-14-4.44726E+00
 -1     21759-2.11967E-14 6.24175E-15-4.36265E+00
 -1     21760 1.11492E-13-3.54969E-13-4.25265E+00
 -1     21761-3.77837E-14-1.61834E-13-4.12354E+00
 -1     21762-3.74821E-14 6.12202E-14-3.97137E+00
 -1     21763-8.97331E-14-8.35005E-14-3.79765E+00
 -1     21764 2.32028E-14 1.04744E-13-3.59299E+00
 -1     21765 3.01427E-14 9.69301E-14-3.36714E+00
 -1     21766 8.76849E-15-9.24865E-14-3.11844E+00
 -1     21767 3.35200E-14 2.85480E-14-2.86289E+00
 -1     21768 2.06006E-14-2.39470E-15-2.59335E+00
 -1     21769 1.24053E-14 5.42991E-14-2.32504E+00
 -1     21770 2.94540E-14 1.60942E-14-2.11931E+00
 -1     21771 4.39774E-15 1.49646E-15-1.99721E+00
 -1     21772 7.03302E-15 4.28853E-15-1.94656E+00
 -1     21773-4.69668E-15 4.50241E-14-1.96902E+00
 -1     21774-8.03421E-15-3.22180E-14-2.06141E+00
 -1     21775 4.69416E-15 3.16027E-15-1.22764E+00
 -1     21776 3.84058E-16-3.23163E-15-1.16910E+00
 -1     21777-4.10097E-14 3.41073E-13 2.20971E+00
 -1     21778-2.71058E-13 8.17023E-13 3.31503E+00
 -1     21779 5.16710E-13 7.92172E-13 3.73339E+00
 -1     21780-1.03009E-13 5.75537E-13 3.94277E+00
 -1     21781 7.36135E-15 4.85071E-13 4.14604E+00
 -1     21782 1.40649E-13-8.22024E-13 4.32408E+00
 -1     21783 7.42123E-14-5.72100E-13 4.45750E+00
 -1     21784-1.91383E-13-4.58931E-14 4.53596E+00
 -1     21785 6.46225E-14 1.80487E-13 4.58248E+00
 -1     21786 2.69371E-14-1.92412E-13 4.60445E+00
 -1     21787 7.48135E-14-1.36940E-13 4.61878E+00
 -1     21788-1.30452E-13 6.22762E-13 4.62327E+00
 -1     21789-1.02369E-13 1.62523E-13 4.61594E+00
 -1     21790-4.81567E-14-5.33495E-13 4.58551E+00
 -1     21791-3.14781E-14-3.89340E-14 4.51903E+00
 -1     21792-4.41574E-14-1.24357E-13 4.41979E+00
 -1     21793-2.56278E-14 1.11682E-13 4.29452E+00
 -1     21794 5.89863E-14-5.56036E-14 4.14887E+00
 -1     21795-1.18684E-13 5.11175E-14 3.98483E+00
 -1     21796 9.13188E-14 2.69391E-14 3.80918E+00
 -1     21797-1.75311E-15-2.77465E-14 3.61880E+00
 -1     21798-3.48621E-14-9.84690E-14 3.41085E+00
 -1     21799-3.06387E-15 5.34016E-14 3.19200E+00
 -1     21800-2.32802E-14 3.88777E-15 2.97157E+00
 -1     21801-3.33275E-14-3.71461E-14 2.78097E+00
 -1     21802 3.38857E-14-1.78835E-14 2.62342E+00
 -1     21803-3.38313E-14 3.75109E-14 2.46846E+00
 -1     21804-1.65696E-14-6.81944E-15 2.10316E+00
 -1     21805 1.09784E-14 2.43269E-14 1.85966E+00
 -1     21806-2.04105E-14 1.19792E-14 1.92444E+00
 -1     21807-7.12191E-15-3.78572E-14 2.05094E+00
 -1     21808 4.14194E-15-2.77415E-15 1.22665E+00
 -1     21809-2.31938E-15-8.76279E-16 1.16102E+00
 -1     21810 4.04549E-13 3.47222E+00 5.07372E-14
 -1     21811 5.15940E-13 2.77294E+00-6.52639E-13
 -1     21812 3.30742E-13 2.28634E+00-4.44457E-13
 -1     21813-6.75276E-14 3.47222E+00-1.18016E+00
 -1     21814 4.93950E-13 3.65101E+00-2.62420E+00
 -1     21815-3.81385E-13 3.26500E+00-2.96329E+00
 -1     21816-1.96378E-13 3.26500E+00-3.04460E+00
 -1     21817 5.57965E-13 5.46004E+00-2.73555E+00
 -1     21818-1.99810E-13 3.75915E+00-2.22506E+00
 -1     21819 3.20899E-13 3.47926E+00-1.65849E+00
 -1     21820 9.45806E-14 3.47222E+00-1.17132E+00
 -1     21821-2.86820E-13 2.51224E+00 1.16368E+00
 -1     21822-2.25173E-13 3.14086E+00 2.62991E+00
 -1     21823-3.12967E-13 3.54075E+00 2.84711E+00
 -1     21824-1.81844E-13 4.22408E+00 2.85790E+00
 -1     21825-4.09548E-13 4.95663E+00 2.69030E+00
 -1     21826-4.57598E-14 3.04027E+00 2.36243E+00
 -1     21827-2.03297E-13 3.40672E+00 1.77836E+00
 -1     21828-1.65529E-13 3.59465E+00 1.14423E+00
 -1     21829 3.31197E+01-5.91831E+00-1.59442E-01
 -1     21830 2.76289E+01-5.85250E+00 3.60761E-01
 -1     21831 2.72657E+01-5.59860E+00-3.74944E-02
 -1     21832-1.14665E-14-4.22839E-15 6.89939E+00
 -1     21833-1.55559E-14-4.98733E-16 4.92215E+00
 -1     21834-1.34359E-14-4.00647E-14 4.34920E+00
 -1     21835-7.04527E-14 9.99092E-15 4.08302E+00
 -1     21836 1.04045E-13 1.89058E-15 3.98281E+00
 -1     21837-9.62440E-14-6.69028E-14 3.91597E+00
 -1     21838-1.09355E-14-6.46267E-14 3.85890E+00
 -1     21839-1.33451E-14-3.34730E-14 3.82083E+00
 -1     21840 3.08877E-13 3.72272E-14 3.78602E+00
 -1     21841 3.54468E-13-9.53419E-14 3.76383E+00
 -1     21842 8.86443E-14-3.28020E-15 3.72864E+00
 -1     21843-3.09019E-14-5.38354E-14 3.69231E+00
 -1     21844 2.07228E-13 6.41995E-14 3.64405E+00
 -1     21845-1.81276E-13-2.75193E-14 3.56985E+00
 -1     21846 4.48907E-13 7.56463E-15 3.47953E+00
 -1     21847-4.30293E-15-5.20707E-13 3.36287E+00
 -1     21848-1.02969E-13-5.10999E-13 3.19396E+00
 -1     21849 2.12637E-14 1.60004E-13 2.99017E+00
 -1     21850-4.84941E-13 1.64864E-13 2.79015E+00
 -1     21851 1.99217E-13-6.19065E-14 2.63463E+00
 -1     21852 7.03151E-13 1.01127E-13 2.52303E+00
 -1     21853 2.43599E-13-5.98749E-13 2.40447E+00
 -1     21854-4.76242E-14 1.44031E-13 2.25344E+00
 -1     21855-7.63923E-13-6.67765E-13 2.05560E+00
 -1     21856-3.73772E-14 7.65316E-13 1.71296E+00
 -1     21857-5.92243E-13-5.07499E-13 3.14428E-01
 -1     21858-7.71605E-15-8.81066E-15-7.32136E+00
 -1     21859-1.66759E-14 1.07540E-14-5.00388E+00
 -1     21860 3.29673E-15-2.92532E-14-4.33257E+00
 -1     21861-3.50409E-14 7.15106E-14-4.06830E+00
 -1     21862-1.35178E-13 6.75751E-15-3.94615E+00
 -1     21863-1.38020E-15 3.53335E-14-3.87294E+00
 -1     21864 5.87985E-14-4.34797E-14-3.82822E+00
 -1     21865 1.82731E-13-1.54029E-13-3.79583E+00
 -1     21866-4.16839E-13 8.62731E-14-3.76351E+00
 -1     21867 9.16933E-14-1.89058E-14-3.73596E+00
 -1     21868-5.51363E-14 2.85153E-14-3.69499E+00
 -1     21869 2.39208E-13 2.85631E-13-3.65948E+00
 -1     21870-7.77624E-14-5.22059E-14-3.63174E+00
 -1     21871-5.30133E-15 1.39716E-14-3.56873E+00
 -1     21872-1.74828E-13 2.87165E-13-3.49141E+00
 -1     21873-3.33951E-15 2.74923E-13-3.39529E+00
 -1     21874-5.84981E-13-2.85230E-13-3.27137E+00
 -1     21875 2.37001E-13 3.35818E-13-3.14721E+00
 -1     21876-1.76800E-13 6.24295E-13-3.05708E+00
 -1     21877-1.05637E-13-9.82138E-13-2.95888E+00
 -1     21878-3.64575E-13-2.37701E-13-2.78830E+00
 -1     21879 8.18472E-13 2.29155E-13-2.53722E+00
 -1     21880-8.21335E-13-1.24964E-12-2.27144E+00
 -1     21881-2.34389E-13 8.74863E-13-2.02014E+00
 -1     21882-3.05858E-14 4.46625E-13-1.72081E+00
 -1     21883 6.42264E-13 4.46532E-13-1.70260E-01
 -1     21884-2.45466E+00-2.05517E+00-1.14038E+00
 -1     21885-3.20614E+00-2.59612E+00-1.16759E+00
 -1     21886-3.35766E+00-2.66184E+00-2.03531E+00
 -1     21887-3.62588E+00-2.76003E+00-1.99109E+00
 -1     21888-3.80313E+00-2.67640E+00-2.00811E+00
 -1     21889-3.31232E+00-2.14035E+00-2.04256E+00
 -1     21890-4.21281E+00-2.49553E+00-2.07605E+00
 -1     21891-4.41630E+00-2.38731E+00-2.11603E+00
 -1     21892-4.38278E+00-2.16032E+00-2.11951E+00
 -1     21893-4.19888E+00-1.88985E+00-2.04530E+00
 -1     21894-3.85802E+00-1.58129E+00-1.88149E+00
 -1     21895-3.36319E+00-1.26212E+00-1.64868E+00
 -1     21896-2.70608E+00-9.25678E-01-1.32354E+00
 -1     21897-1.89371E+00-5.96012E-01-9.10804E-01
 -1     21898-9.09132E-01-2.75510E-01-4.09542E-01
 -1     21899 3.42624E-01 3.90664E-02 1.80090E-01
 -1     21900 1.54806E+00 2.71091E-01 8.52007E-01
 -1     21901 4.87436E+00 7.65366E-01 1.61569E+00
 -1     21902 8.05014E+00 1.02149E+00 2.49086E+00
 -1     21903 8.28655E+00 7.46884E-01 3.58835E+00
 -1     21904 1.10439E+01 4.99468E-01 5.14716E+00
 -1     21905 1.95245E+01 3.65107E-02 8.57952E+00
 -1     21906-1.83154E+00-1.52150E+00 1.13212E+00
 -1     21907-2.65099E+00-2.15063E+00 1.16096E+00
 -1     21908-3.19925E+00-2.55098E+00 2.02421E+00
 -1     21909-3.60452E+00-2.75605E+00 1.98116E+00
 -1     21910-4.00091E+00-2.82723E+00 2.06291E+00
 -1     21911-4.76773E+00-3.09870E+00 2.22434E+00
 -1     21912-4.46692E+00-2.64683E+00 2.32685E+00
 -1     21913-4.46225E+00-2.40133E+00 2.30597E+00
 -1     21914-4.38404E+00-2.15198E+00 2.20607E+00
 -1     21915-4.18126E+00-1.87285E+00 2.07357E+00
 -1     21916-3.83006E+00-1.56117E+00 1.91000E+00
 -1     21917-3.32380E+00-1.23552E+00 1.68018E+00
 -1     21918-2.65766E+00-9.04703E-01 1.34775E+00
 -1     21919-1.82414E+00-5.70354E-01 9.21537E-01
 -1     21920-8.04553E-01-2.46067E-01 4.13820E-01
 -1     21921 2.52578E-01 3.11837E-02-1.79369E-01
 -1     21922 1.71348E+00 3.16708E-01-8.63552E-01
 -1     21923 4.96313E+00 7.96694E-01-1.64846E+00
 -1     21924 7.78966E+00 9.95847E-01-2.53139E+00
 -1     21925 6.75968E+00 6.14506E-01-3.64514E+00
 -1     21926 1.05778E+01 5.17444E-01-5.22550E+00
 -1     21927 1.74536E+01 1.08926E-01-8.41937E+00
 -1     21928 4.28014E-14-2.64442E-13 1.85685E-14
 -1     21929 7.40281E-13 1.63433E-12-2.15716E-13
 -1     21930 2.26631E-14 1.18056E-12-2.05738E-14
 -1     21931 5.74183E-13-1.62576E-12-7.00828E-14
 -1     21932 2.16931E-13-3.01838E-13 1.99007E-14
 -1     21933-1.63548E-13-1.28404E-13 2.50433E-13
 -1     21934-1.50083E-13-1.04317E-12-3.49720E-13
 -1     21935 5.21006E-13-2.27334E-13-6.50237E-13
 -1     21936 3.21052E-13 9.44975E-13-4.10484E-13
 -1     21937 3.14657E-13 4.97223E-13 2.96874E-13
 -1     21938-6.87826E-13 1.71276E-12-4.27991E-14
 -1     21939-5.42462E-13-1.68843E-12-1.12604E-13
 -1     21940 1.89164E-13 1.02159E-12 1.26371E-13
 -1     21941 6.91735E-14 2.45493E-13-6.78901E-14
 -1     21942-1.24230E-13-7.80854E-15-1.21014E-14
 -1     21943-8.58642E-14 1.59797E-14 3.72147E-13
 -1     21944 1.62783E-13-7.78118E-15 1.89904E-13
 -1     21945 2.04976E-13-5.35780E-13-1.31339E-13
 -1     21946 2.51279E-13-9.38488E-14-1.28945E-13
 -1     21947 3.32361E-14 2.87086E-13 1.21458E-13
 -1     21948 1.12821E-14-3.62123E-14-1.31450E-13
 -1     21949-8.78061E-14 2.42342E-14-4.71845E-14
 -1     21950 5.01193E-14-2.61266E-13 2.88658E-14
 -1     21951 9.39443E-14 2.49818E-13-1.25344E-13
 -1     21952 4.03575E-14 2.56217E-13-3.54994E-14
 -1     21953-8.82278E-14-2.90379E-14-2.81442E-14
 -1     21954 1.20708E-13 2.85328E-13-1.85407E-14
 -1     21955-7.45724E-14-4.35304E-14 6.32827E-15
 -1     21956-7.93181E-14-2.62128E-14 1.19904E-14
 -1     21957 7.87455E-14-1.23947E-13 2.83384E-14
 -1     21958-5.74387E-14 8.20791E-14 1.18794E-14
 -1     21959-4.13088E-14 1.01819E-13 1.91791E-14
 -1     21960-1.16928E-13-4.21214E-14-5.82867E-14
 -1     21961-1.61908E-14 3.69526E-14 2.22045E-16
 -1     21962-1.57979E-14-2.63728E-14 1.02696E-14
 -1     21963-7.78552E-16-1.89653E-15 4.71845E-16
 -1     21964 7.90546E-15 5.42676E-15 6.21725E-15
 -1     21965 2.44383E-15 3.24881E-16-1.09635E-15
 -1     21966 1.07032E-15-5.85087E-15-5.10009E-16
 -1     21967-8.67468E-16 5.45821E-15 7.99708E-16
 -1     21968-3.34003E-15-2.34030E-15 2.08167E-16
 -1     21969 4.67803E-15-1.90944E-14-5.96745E-16
 -1     21970 7.25071E-15-1.59405E-14-2.55351E-15
 -1     21971-3.25326E-14 2.10470E-14-8.88178E-15
 -1     21972 7.12109E-15-9.05894E-15 2.55351E-15
 -1     21973-6.23232E-15 2.47572E-14 6.66134E-15
 -1     21974 5.56825E-15 1.44086E-14-8.88178E-15
 -1     21975 1.95532E-14-1.44205E-14-8.63198E-15
 -1     21976-5.10400E-14 3.83832E-14-3.20577E-14
 -1     21977 1.22470E-14 1.30177E-14 3.21965E-15
 -1     21978 1.30450E-13-3.71699E-14 5.83422E-14
 -1     21979 1.98328E-16-2.84807E-14 5.22637E-14
 -1     21980-1.23627E-13-1.49553E-14-6.66134E-15
 -1     21981-2.71144E-14-8.03790E-14 1.01696E-13
 -1     21982-2.14283E-14 8.44978E-14-3.55271E-15
 -1     21983 6.82820E-14 2.93751E-14 1.02474E-13
 -1     21984 4.00644E-14 1.83487E-13-4.15223E-14
 -1     21985 8.04879E-15-3.96519E-13-2.73115E-14
 -1     21986-1.20766E-13-8.07421E-14 1.10467E-14
 -1     21987-4.56609E-14 2.64698E-13-2.80331E-14
 -1     21988 5.96717E-14 6.98029E-13 1.75859E-13
 -1     21989-1.44989E-13 3.96487E-13 8.65974E-15
 -1     21990 3.16929E-14 5.23356E-13-2.49356E-13
 -1     21991 1.83773E-13-3.19050E-13-1.12119E-13
 -1     21992 9.32574E-14 3.67674E-13 7.77156E-14
 -1     21993 5.53838E-13-1.07724E-12 1.03995E-12
 -1     21994-8.89737E-14-2.35480E-13-2.27873E-13
 -1     21995 4.97786E-14-8.74619E-13-5.56222E-14
 -1     21996-4.69569E-14 5.49407E-13 3.77698E-13
 -1     21997 1.39735E-13-4.19510E-13-3.30402E-13
 -1     21998 5.31670E-13-5.22930E-13 1.68310E-13
 -1     21999-6.65921E-13 6.65220E-13-5.95357E-14
 -1     22000 8.13005E-13 4.88901E-13-7.13318E-15
 -1     22001-1.04864E-12 1.54307E-13-3.24386E-13
 -1     22002-3.48566E-15 4.96456E-16 2.88658E-15
 -1     22003 2.80483E-16-2.15556E-14 9.02056E-16
 -1     22004-4.47931E-13-2.15513E-13-3.99014E-13
 -1     22005 7.44068E-13-4.12182E-13 1.84741E-13
 -1     22006-1.05305E-13-3.02306E-13-1.58235E-13
 -1     22007 3.21300E-13-9.82392E-13 2.98872E-13
 -1     22008 1.59497E-13-1.10793E-12-3.03868E-13
 -1     22009 6.83505E-13-1.28666E-12-3.47500E-14
 -1     22010-2.51287E-13-1.17209E-13 1.98175E-13
 -1     22011 1.57285E-13 2.60299E-13 1.93429E-13
 -1     22012-6.71618E-14 1.24775E-12-9.40914E-14
 -1     22013-3.96638E-13 1.73328E-12-4.77396E-13
 -1     22014 2.27809E-13 5.02988E-13 2.78527E-13
 -1     22015 2.12519E-13 8.07290E-13-3.76588E-13
 -1     22016 1.39711E-13 1.57362E-12-2.97457E-13
 -1     22017-1.97797E-13-1.14015E-12 8.50431E-14
 -1     22018 8.78218E-14 3.11339E-13-3.76088E-14
 -1     22019-4.32126E-13 5.10674E-14-3.60822E-15
 -1     22020-2.35517E-13-1.08882E-14 3.21410E-14
 -1     22021 1.02214E-14 9.16479E-13-1.19904E-13
 -1     22022 1.90120E-13-1.08478E-12-9.11493E-14
 -1     22023-2.27837E-13 4.83018E-13 4.16334E-14
 -1     22024-1.32028E-13-2.26585E-13 2.83662E-14
 -1     22025-7.87491E-14 6.04158E-14-1.89571E-14
 -1     22026 6.07861E-14 4.70678E-14 5.55112E-15
 -1     22027 2.91011E-15 7.66794E-14-2.60764E-14
 -1     22028 1.37403E-14-1.13677E-13 5.72875E-14
 -1     22029-7.21817E-14-6.00770E-14-1.68476E-14
 -1     22030-3.07540E-13-9.26345E-14-9.64784E-14
 -1     22031 8.26323E-14 5.38982E-14-2.31065E-14
 -1     22032 3.33646E-14 8.81530E-14-2.38698E-14
 -1     22033-9.41060E-16 3.62824E-14 8.32667E-17
 -1     22034-1.57170E-13 1.48980E-13-1.62093E-14
 -1     22035 6.78063E-15 4.07317E-14 5.21805E-15
 -1     22036-3.85759E-15-1.05911E-14-3.58602E-14
 -1     22037 3.35055E-14 1.84284E-14-1.11022E-16
 -1     22038-1.80368E-14 5.29477E-14 9.32587E-15
 -1     22039 5.93991E-15 2.53085E-14-1.88738E-15
 -1     22040 2.30647E-14-2.34861E-14 1.73472E-14
 -1     22041 1.75465E-15-2.20847E-14-7.93809E-14
 -1     22042 8.68012E-16-3.79409E-15 9.99201E-16
 -1     22043 1.01489E-14-1.13823E-14 7.82707E-15
 -1     22044 8.08182E-15-4.00324E-15-2.24126E-15
 -1     22045 1.62525E-14-1.93540E-14-1.73750E-14
 -1     22046-1.99016E-14 1.45644E-13 2.58613E-14
 -1     22047-1.60869E-14 1.06666E-13-1.08368E-14
 -1     22048-3.96308E-15-5.49953E-14 3.10862E-15
 -1     22049 5.23428E-14 5.08222E-14-3.33067E-16
 -1     22050 3.73373E-14-1.43453E-17 2.77833E-14
 -1     22051-3.96981E-14 3.27472E-13-6.48925E-14
 -1     22052 6.73199E-15 1.40246E-13 2.78666E-14
 -1     22053-3.07183E-14 2.63225E-13 1.28120E-13
 -1     22054-3.66710E-15-8.35487E-14 1.18461E-13
 -1     22055 3.19913E-14-3.58807E-13 8.80962E-14
 -1     22056-1.55464E-13 1.35607E-13-1.30673E-13
 -1     22057 1.15199E-13 1.75894E-14 1.34635E-13
 -1     22058-4.18092E-14 2.84606E-14-6.66134E-16
 -1     22059 7.09719E-14 3.40252E-13 6.11178E-14
 -1     22060-1.39717E-13-1.05888E-13-1.99840E-13
 -1     22061 4.97967E-14 3.08844E-14-2.24348E-13
 -1     22062-2.87338E-13 8.48065E-14-2.91878E-13
 -1     22063 8.56928E-14 1.07425E-14-1.51879E-13
 -1     22064 1.01710E-13-5.78764E-14 1.02057E-13
 -1     22065-1.97118E-13-2.73268E-13-2.48690E-14
 -1     22066 5.19408E-14 1.24572E-13 1.41831E-14
 -1     22067 1.24745E-13-3.38690E-13-2.85605E-14
 -1     22068-1.75274E-13-1.83917E-13-9.49241E-15
 -1     22069-1.40125E-13-1.58475E-12 4.02678E-13
 -1     22070 2.03248E-13-1.77171E-13 1.44995E-13
 -1     22071-2.98167E-13 3.57793E-14 4.79561E-13
 -1     22072 3.25750E-13 3.55478E-13 1.79468E-13
 -1     22073-3.65464E-13 9.00348E-13-4.65572E-13
 -1     22074 5.43225E-13 4.77871E-13 3.16969E-13
 -1     22075-1.23479E-13-5.78355E-14-1.31450E-13
 -1     22076-3.20199E-13-4.12801E-13-1.19127E-13
 -1     22077 7.28430E-14 4.15567E-13 1.47105E-14
 -1     22078 1.38692E-13 3.39843E-13-2.16716E-13
 -1     22079 3.47181E-13-3.03539E-13-1.55098E-13
 -1     22080 7.59595E-14-1.61325E-13-8.94840E-14
 -1     22081 3.58459E-14-5.77032E-13 6.88338E-15
 -1     22082-2.51848E-14 2.99497E-13-5.37348E-14
 -1     22083-1.20124E-13-3.31838E-13-6.21725E-14
 -1     22084 2.98809E-15-9.74225E-14-2.88658E-15
 -1     22085-7.70963E-14-7.87883E-15-2.69229E-15
 -1     22086-5.40106E-14 2.81302E-15 1.28786E-14
 -1     22087-1.03340E-14 3.43492E-15-8.18789E-15
 -1     22088 1.12373E-14-6.93339E-15 5.30131E-15
 -1     22089-7.48257E-15-3.74957E-14 4.13558E-15
 -1     22090 1.54624E-14 4.99317E-14-2.99205E-14
 -1     22091-1.09263E-13-5.65256E-14-3.05311E-14
 -1     22092-1.40319E-13 1.76938E-13 5.87308E-14
 -1     22093-3.85537E-14-9.17554E-14 5.44009E-15
 -1     22094 1.34398E-13-8.29743E-13 2.75335E-14
 -1     22095 5.10756E-14 4.02890E-13 1.35780E-13
 -1     22096-1.02237E-13 6.22311E-13-1.08358E-13
 -1     22097 5.87837E-13-8.02623E-13 2.38920E-13
 -1     22098-5.39300E-13 9.67094E-13 1.87739E-13
 -1     22099 3.87165E-13-3.28177E-12 3.46390E-13
 -1     22100 2.48105E-13-1.10819E-12-3.25739E-13
 -1     22101-1.53689E-12 1.87970E-12 3.11223E-13
 -1     22102 9.60881E-14-2.17973E-14-1.10245E-13
 -1     22103 9.06165E-14-1.02518E-13 2.39808E-14
 -1     22104-2.25308E-13 2.00616E-13-9.38138E-15
 -1     22105-4.69966E-14 8.24521E-14-1.54043E-14
 -1     22106 1.24711E-14 2.13851E-14 4.99600E-15
 -1     22107 1.41659E-14-4.06378E-14 3.05311E-16
 -1     22108-3.00194E-15-6.87485E-14-1.49214E-13
 -1     22109 3.10162E-13 1.70132E-13-7.14984E-14
 -1     22110-2.65573E-13 4.44586E-13 2.57572E-13
 -1     22111 1.30910E-13-1.39738E-12 2.22045E-14
 -1     22112 1.78215E-13-5.11447E-14 7.00551E-14
 -1     22113-5.30071E-14 1.00471E-12 2.20601E-13
 -1     22114-3.36191E-13 4.91855E-13-1.46994E-13
 -1     22115-3.53272E-13-1.42948E-12-6.20615E-14
 -1     22116-9.74913E-13 9.52579E-13-1.96954E-13
 -1     22117 6.23982E-13 2.35848E-12-9.85878E-14
 -1     22118-4.29589E-13 5.60037E-13-1.02141E-13
 -1     22119 6.08351E-14-1.52417E-12-3.67484E-14
 -1     22120 1.90269E-13 4.16541E-13 1.23457E-13
 -1     22121 1.32304E-13-9.50559E-14 3.64708E-14
 -1     22122-8.84428E-14 1.03089E-13-4.09672E-14
 -1     22123 9.61829E-15 9.59269E-15 2.43555E-15
 -1     22124-8.07943E-14 2.80360E-13 1.79856E-14
 -1     22125-2.18351E-14-1.14263E-13 2.35922E-15
 -1     22126 1.13812E-13-8.26311E-13-3.47139E-13
 -1     22127-4.88787E-13-5.45217E-13 6.62803E-14
 -1     22128-3.17758E-13-3.19858E-13 8.79852E-14
 -1     22129-4.16751E-14 1.77034E-12 6.64357E-13
 -1     22130-8.35047E-14 1.22422E-12-4.18665E-13
 -1     22131 1.14277E-13-6.71278E-13 1.92402E-13
 -1     22132 1.26214E-14 3.29808E-14 3.70814E-14
 -1     22133-2.09604E-14-2.20982E-13 1.48770E-13
 -1     22134-4.37086E-14-3.51944E-13 8.79297E-14
 -1     22135-5.20468E-14-2.80299E-13 2.06113E-13
 -1     22136-4.42306E-13-2.46091E-12 3.25961E-13
 -1     22137-1.37117E-13-1.26688E-12-2.01117E-13
 -1     22138 1.74536E-13-3.79520E-13-5.68989E-14
 -1     22139 9.24687E-14 4.93490E-13-3.64472E-13
 -1     22140-2.11759E-13-3.69695E-13 1.55820E-13
 -1     22141-1.84895E-13 1.25183E-13 2.58349E-13
 -1     22142 2.39414E-13 5.23093E-13-5.10703E-14
 -1     22143-2.78623E-14 1.07472E-13 1.24900E-14
 -1     22144 3.50277E-14-1.44257E-14-4.78784E-15
 -1     22145 3.83599E-14 3.00076E-13 8.94840E-14
 -1     22146 1.06781E-13-4.03332E-13-8.65974E-14
 -1     22147-9.77573E-14-2.70552E-13 1.96509E-14
 -1     22148 9.50022E-14 1.05744E-12 4.36318E-14
 -1     22149-1.25003E-13-2.51743E-13-6.46982E-14
 -1     22150-4.54800E-14-2.45391E-13-2.43139E-14
 -1     22151-1.65201E-13 1.51087E-13 2.58821E-14
 -1     22152-5.41695E-14 1.47856E-13-5.86475E-14
 -1     22153-6.22204E-14 2.98113E-14 1.71321E-14
 -1     22154-5.18349E-15-2.10591E-13-2.78111E-14
 -1     22155 3.25026E-14-3.61307E-13-3.01426E-14
 -1     22156 1.65739E-14 5.72811E-14 6.57252E-14
 -1     22157-2.68283E-14-6.85964E-15-1.42386E-14
 -1     22158 8.09091E-14-5.76072E-14 3.88092E-14
 -1     22159 3.25865E-14-4.52179E-14-2.77885E-14
 -1     22160 2.79061E-14-4.57004E-14 1.72258E-14
 -1     22161-1.13327E-14-5.41759E-14 1.03251E-14
 -1     22162 2.51482E-14 5.75636E-15-2.17968E-14
 -1     22163-3.11646E-15-1.46149E-13-2.13218E-13
 -1     22164 6.13751E-15 2.79927E-16 2.10942E-14
 -1     22165-2.83081E-13-2.21634E-13 3.29847E-13
 -1     22166 3.25979E-15 1.59788E-14 3.74700E-16
 -1     22167 1.02614E-14-1.27706E-14-6.77236E-15
 -1     22168 4.12413E-13 8.44146E-13-5.53141E-13
 -1     22169-5.67777E-13-5.08449E-13-4.76286E-13
 -1     22170-5.68780E-13-2.02812E-13 5.94746E-13
 -1     22171-1.54086E-14-1.84011E-14-1.93179E-14
 -1     22172 1.12620E-13-1.14891E-12 2.16244E-13
 -1     22173 6.16932E-14 2.80848E-13 1.54876E-14
 -1     22174-1.07512E-12 1.20569E-12 2.63622E-13
 -1     22175-8.12893E-14 5.68000E-13-8.99281E-15
 -1     22176 2.62083E-13 2.71931E-13-8.58202E-14
 -1     22177 1.84179E-13 7.75648E-14-6.57252E-14
 -1     22178-5.02647E-14-6.61552E-13-3.52218E-14
 -1     22179-1.12300E-12-8.74717E-13 1.74916E-13
 -1     22180 5.49142E-13 1.13750E-13 3.56187E-13
 -1     22181-5.77484E-13-8.47582E-13 2.87444E-13
 -1     22182-7.56644E-14-6.06800E-14 1.23773E-15
 -1     22183 6.32640E-15-2.05734E-13 1.13909E-13
 -1     22184-1.56891E-13-1.03767E-13 2.99760E-14
 -1     22185 7.92283E-15 3.34884E-14 4.88498E-15
 -1     22186-2.12310E-12 7.41287E+00 3.97293E-13
 -1     22187-1.02049E-12 5.05702E+00-2.67342E-13
 -1     22188-5.76793E-13 6.71359E+00-2.74170E-13
 -1     22189 3.62513E-13 4.79858E+00-2.33175E-13
 -1     22190 1.17416E-12 4.57043E+00-7.99361E-15
 -1     22191-1.29917E-12 4.86597E+00-2.45073E-13
 -1     22192-5.20243E-13 4.78165E+00-5.53058E-13
 -1     22193-2.10660E-12 7.70270E+00 2.06057E-13
 -1     22194-1.14353E-12 6.78705E+00 1.35551E-13
 -1     22195 1.28402E-13 8.64768E+00-3.13499E-14
 -1     22196-1.60644E-12 1.00332E+01 2.07306E-13
 -1     22197 1.32956E-13 6.58321E+00-3.75575E-13
 -1     22198-4.66011E-14 6.21659E+00-7.87287E-14
 -1     22199-1.48499E-12 6.09115E+00 7.97765E-13
 -1     22200-9.99038E-13 6.77114E+00-3.32956E-13
 -1     22201-4.47249E-13 6.28084E+00 4.04315E-13
 -1     22202-5.57637E-13 4.99299E+00-3.33067E-13
 -1     22203-8.59415E-13 6.70644E+00-5.61773E-14
 -1     22204-4.57542E-13 7.84832E+00-4.20563E-13
 -1     22205 2.73410E-14 8.58603E+00-8.10740E-14
 -1     22206-3.40678E-13 7.31429E+00 7.79876E-13
 -1     22207 4.80660E-13 7.85536E+00-6.93889E-13
 -1     22208-6.28083E-13 7.33974E+00-4.49363E-14
 -1     22209-1.34336E-13 8.93372E+00 1.88738E-15
 -1     22210 8.04500E-15 7.61962E+00-5.97189E-13
 -1     22211 2.11766E-13 1.20195E+01-2.99483E-13
 -1     22212 2.02390E-12 1.06346E+01-2.28706E-13
 -1     22213 7.41853E-13 7.07750E+00 2.06363E-14
 -1     22214 4.14566E-13 6.53001E+00-2.39697E-13
 -1     22215-1.26995E-12 8.16490E+00 5.47007E-13
 -1     22216 1.89651E-12 8.38603E+00-4.65170E-13
 -1     22217-8.28863E-13 7.75930E+00-4.13558E-13
 -1     22218 3.57339E-13 9.30070E+00-8.79297E-14
 -1     22219-5.40911E-13 6.73132E+00 1.05693E-13
 -1     22220-6.69134E-13 7.24014E+00-2.93765E-13
 -1     22221-1.08282E-12 5.85013E+00 7.83262E-14
 -1     22222-1.19781E-12 6.38716E+00-3.87690E-13
 -1     22223 1.37333E-12 5.41027E+00-9.24205E-13
 -1     22224 1.23897E-12 1.16361E+01 1.80411E-13
 -1     22225-1.98434E-13 5.87808E+00-1.08746E-13
 -1     22226-3.64756E-13 4.85129E+00 3.51053E-13
 -1     22227 6.11848E-14 1.22561E+01 3.75255E-14
 -1     22228 4.12291E-14 7.46683E+00-1.35503E-13
 -1     22229 1.51140E-12 8.96163E+00 2.15966E-13
 -1     22230 9.12830E-13 7.87526E+00 6.42916E-13
 -1     22231 1.14872E-12 7.46351E+00-5.58664E-13
 -1     22232 1.23368E-12 7.53146E+00 9.78329E-13
 -1     22233-1.90574E-13 6.64091E+00 8.25562E-13
 -1     22234-2.29284E-12 7.40736E+00-9.94760E-13
 -1     22235-6.58487E-13 5.76498E+00-6.80997E-13
 -1     22236 6.07465E-13 6.57771E+00 3.55160E-13
 -1     22237 1.74721E-13 6.71071E+00 1.33643E-14
 -1     22238-7.89212E-13 7.11357E+00-7.87148E-14
 -1     22239-2.43691E-12 9.29397E+00 2.67883E-13
 -1     22240 1.09006E-12 8.72365E+00 6.50202E-13
 -1     22241-3.96968E-13 6.61730E+00-8.58202E-14
 -1     22242-5.28549E-12 7.31632E+00-5.96412E-13
 -1     22243-1.19125E-13 6.67458E+00-5.65804E-13
 -1     22244-1.01430E-14-1.99346E-14 6.88338E-15
 -1     22245 1.54876E-14 3.74700E-15 3.77476E-15
 -1     22246-7.73340E-15 5.12429E-14-1.66533E-15
 -1     22247 2.45229E-14-5.91541E-16-2.13718E-15
 -1     22248 1.04500E-14 1.00614E-15 5.32907E-15
 -1     22249 2.81580E-14-4.06307E-14-8.88178E-15
 -1     22250 2.46747E-14 1.02973E-14 2.12053E-14
 -1     22251-3.94747E-14-7.17904E-14 1.02696E-14
 -1     22252 2.50529E-14 2.88539E-14-3.52496E-14
 -1     22253 2.39015E-13 6.30319E-14-2.13163E-14
 -1     22254 1.59902E-14 2.01096E-13-1.69864E-14
 -1     22255 5.21606E-14 2.04301E-13 1.47105E-14
 -1     22256 8.67117E-14 1.83069E-13-6.06182E-14
 -1     22257 5.53615E-14 4.47221E-14-4.97380E-14
 -1     22258-2.33723E-13 2.81379E-13 3.47777E-14
 -1     22259-4.08524E-13 5.47647E-13-1.86198E-13
 -1     22260 4.35796E-13 3.40436E-13 5.10703E-15
 -1     22261 3.18151E-13-7.84613E-13-8.33361E-14
 -1     22262 1.89915E-13 5.78354E-13-1.25955E-13
 -1     22263 1.60728E-13-6.43169E-13-1.33227E-15
 -1     22264-2.92344E-13-2.62614E-13 1.29230E-13
 -1     22265 2.81448E-13 1.41464E-13-1.35766E-13
 -1     22266 4.14848E-13-1.84714E-14 6.22946E-13
 -1     22267-6.79862E-13-1.41109E-12 4.22329E-13
 -1     22268 1.61561E-12 5.61985E-13 1.30562E-13
 -1     22269 9.19439E-15 2.74265E-12 4.59077E-14
 -1     22270-5.42604E-13-1.20349E-13 1.69198E-13
 -1     22271 4.98386E-13-1.28837E-12 7.62168E-13
 -1     22272 2.33692E-13-3.12613E-12 9.01224E-14
 -1     22273-1.28214E-12 1.09427E-12-2.75072E-13
 -1     22274 1.26917E-12-9.40004E-13-1.48936E-13
 -1     22275 3.80015E-13 2.96568E-12-3.16688E-13
 -1     22276 5.15477E-13-7.18432E-13 7.22009E-14
 -1     22277 1.29668E-12 8.62684E-13 3.74801E-13
 -1     22278 8.68269E-14-1.17860E-12 1.50549E-13
 -1     22279 1.28404E-12 1.65801E-12-2.95921E-13
 -1     22280-2.20053E-12 1.30630E-12 3.38390E-13
 -1     22281 3.78289E-13-1.55230E-12-9.29118E-14
 -1     22282-8.52836E-13 1.22068E-12 7.43017E-14
 -1     22283 5.78071E-14-8.16633E-13 2.29247E-13
 -1     22284 6.46490E-13-1.52958E-12-6.32383E-13
 -1     22285 1.19277E-13-7.56070E-13-2.58682E-13
 -1     22286 2.07272E-13-2.08706E-12 6.20226E-13
 -1     22287-3.14963E-12 1.81234E-12-1.03390E-13
 -1     22288 2.31675E-12 1.59630E-14 7.30610E-13
 -1     22289-5.05560E-13 3.12177E-13 4.88110E-13
 -1     22290 1.12268E-12-2.23777E-12-2.55906E-13
 -1     22291 5.50397E-14 1.03017E-13 3.39867E-14
 -1     22292-3.99551E-13 1.08720E-12-3.00704E-13
 -1     22293 2.54975E-13-6.91413E-13-2.52520E-13
 -1     22294 1.84769E-13-2.96496E-13-2.26485E-13
 -1     22295-1.28946E-14 1.50396E-14-1.56597E-13
 -1     22296-3.59910E-13-1.04880E-13-1.28786E-14
 -1     22297-3.73791E-13 5.04938E-13 1.77636E-15
 -1     22298 2.14212E-13 1.28221E-13 2.85216E-13
 -1     22299-5.84268E-13 4.95416E-13-1.39444E-13
 -1     22300 1.93216E-13-6.86170E-14 1.76803E-14
 -1     22301 5.25843E-14-3.04333E-14 1.74305E-14
 -1     22302-6.54261E-13 2.43862E-13-1.54265E-13
 -1     22303 1.23197E-13-3.21099E-15-2.24265E-14
 -1     22304-4.56257E-14-3.29518E-15 8.64239E-15
 -1     22305 1.37248E-13 9.45654E-14-7.09433E-14
 -1     22306-1.31555E-14 2.08777E-13 1.01336E-13
 -1     22307-3.00392E-14 9.46890E-14-2.02061E-14
 -1     22308 4.09381E-14 1.09808E-13-1.68754E-14
 -1     22309 3.56208E-14 7.15209E-14-2.77556E-16
 -1     22310-1.06115E-13 1.19333E-13-2.26763E-14
 -1     22311 1.15529E-13 1.05298E-14-2.13163E-14
 -1     22312 3.88328E-14-7.30118E-14-1.48770E-14
 -1     22313 5.16350E-14 1.73934E-13-9.15934E-15
 -1     22314 1.99487E-13-7.02833E-14-4.09672E-14
 -1     22315-9.02952E-15 1.46173E-13-6.85563E-15
 -1     22316-3.42174E-14 6.37956E-14-3.34455E-14
 -1     22317-6.07153E-16-1.41710E-14 1.62093E-14
 -1     22318-8.39797E-14-1.35579E-14 2.62013E-14
 -1     22319-1.86981E-13-1.84289E-13 4.29101E-14
 -1     22320 1.80570E-13-8.03090E-15 3.94129E-15
 -1     22321 1.20153E-13-2.46291E-13 3.39728E-14
 -1     22322-1.01900E-13-6.21371E-14 3.95795E-14
 -1     22323 4.65482E-13-7.34299E-14 4.09672E-14
 -1     22324 1.06976E-13-2.34329E-15-8.74301E-14
 -1     22325-2.48212E-13 2.58448E-13-3.18079E-13
 -1     22326-3.49271E-13 6.63866E-13 6.12843E-14
 -1     22327 1.63557E-15-1.41637E-13 2.74003E-13
 -1     22328-1.11492E-12-1.26807E-13 6.42264E-14
 -1     22329 1.74182E-13-4.67451E-14 4.05231E-14
 -1     22330-3.32076E-13 1.62203E-13-4.46171E-14
 -1     22331 3.63007E-13 1.04619E-12-6.90697E-14
 -1     22332 5.37999E-13 5.75548E-13-5.58331E-13
 -1     22333-6.42985E-13 3.29087E-13-1.13479E-13
 -1     22334 2.68900E-13 2.10655E-12 4.19609E-13
 -1     22335 1.06520E-12-2.92599E-13-3.26739E-13
 -1     22336-1.83784E-12-5.74267E-13 9.57262E-13
 -1     22337-8.26154E-13 5.44601E-13 6.21780E-13
 -1     22338-1.42619E-13 1.64610E-13 2.83662E-13
 -1     22339-8.71616E-13 4.91362E-13 1.44156E-13
 -1     22340-2.01858E-13-1.72907E-12 2.80498E-13
 -1     22341 1.11722E-12-1.94369E-12-1.15019E-13
 -1     22342 3.64930E-13-2.68622E-13 7.32192E-14
 -1     22343 1.31098E-13-5.33571E-13-1.08802E-13
 -1     22344-9.55134E-14-1.74157E-12 3.70634E-13
 -1     22345-1.55276E-12-2.24542E-12-7.89369E-14
 -1     22346-2.86752E-13 2.11969E-12-3.39728E-13
 -1     22347 6.64316E-13-8.87440E-13 1.03140E-13
 -1     22348 1.34421E-12 2.76888E-13 5.68434E-14
 -1     22349 1.84281E-12-2.29972E-12 8.67362E-14
 -1     22350-6.11180E-13-5.23326E-13-2.33123E-13
 -1     22351 2.07792E-13 2.33304E-12 1.03473E-13
 -1     22352 9.83464E-13 6.60083E-14-2.33147E-15
 -1     22353 3.66839E-13 2.04357E-13 2.90490E-13
 -1     22354 9.30235E-13 8.80305E-13 3.33844E-13
 -1     22355 3.34703E-13 3.62516E-13 4.23273E-14
 -1     22356-1.02553E-13-1.16422E-13 3.88717E-14
 -1     22357 3.84284E-13 1.22801E-13-1.80911E-13
 -1     22358 3.93558E-13 3.76171E-13-3.95239E-14
 -1     22359-6.32274E-13 3.66138E-13 5.05956E-13
 -1     22360 3.53827E-13 2.15081E-13-3.05311E-14
 -1     22361-1.22385E-13-4.06990E-13 9.14269E-14
 -1     22362-2.64403E-14 2.61957E-13 4.54636E-14
 -1     22363-2.05481E-13 1.98981E-13-2.86715E-14
 -1     22364-9.79243E-14-1.77666E-13-2.00395E-14
 -1     22365-1.10591E-13-6.89838E-14 7.77156E-16
 -1     22366-8.07384E-14-1.00664E-13 2.28706E-14
 -1     22367 2.26800E-14-1.88815E-14 6.91114E-15
 -1     22368-6.23500E-14 1.05862E-14 4.44089E-16
 -1     22369 2.21267E-13-7.29221E-13 5.36793E-14
 -1     22370 2.29178E-13-1.60781E-13 2.78666E-14
 -1     22371-5.84666E-14-2.72341E-15 4.55191E-14
 -1     22372 3.38414E-13-6.52432E-13 7.54952E-14
 -1     22373-3.61111E-13 5.66103E-13 1.29563E-13
 -1     22374 1.36365E-13 7.02974E-13 5.55334E-13
 -1     22375-4.45635E-13 1.44524E-13 5.20139E-14
 -1     22376 7.71437E-13-8.38192E-13-2.07001E-13
 -1     22377 3.28116E-13-9.60033E-14 8.04357E-14
 -1     22378-3.54130E-14 8.28378E-14-2.16493E-14
 -1     22379-6.43268E-13-1.10055E-13-1.11022E-14
 -1     22380-1.85665E-13-1.17668E-13 5.57332E-14
 -1     22381 1.38548E-14 2.25335E-13-4.58522E-14
 -1     22382-3.33723E-14-5.92847E-14-8.10463E-15
 -1     22383-2.07981E-13 9.15440E-14 3.36953E-14
 -1     22384-2.19065E-13 1.27522E-13 3.97904E-13
 -1     22385-5.69430E-13 1.21758E-12 1.09468E-13
 -1     22386 1.34770E-13-2.43751E-12 2.02088E-13
 -1     22387 3.68256E-13-1.98694E-13-4.28851E-13
 -1     22388-5.74506E-14 1.71859E-14 1.84852E-14
 -1     22389 8.59059E-14-6.27867E-14 5.43454E-14
 -1     22390-4.04829E-13 2.10963E-13-1.82521E-13
 -1     22391 4.01140E-14 7.62461E-14-2.85327E-14
 -1     22392 4.70294E-14-2.07588E-14-1.04750E-13
 -1     22393-1.67975E-12 1.40293E-12 6.71407E-14
 -1     22394 6.19934E-14 4.55812E-15-5.91749E-14
 -1     22395 5.25414E-14-2.04272E-13-4.19664E-14
 -1     22396 7.19896E-14-2.77039E-14-1.38778E-15
 -1     22397 6.77200E-13 9.98417E-14-5.98410E-14
 -1     22398 1.14662E-12-2.22605E-13-4.34652E-14
 -1     22399-1.86734E-13-1.70377E-13 5.19584E-14
 -1     22400 6.55117E-13 5.09469E-14 3.45279E-13
 -1     22401 1.84210E-14-4.58574E-15-1.72085E-14
 -1     22402 1.81859E-14-2.27156E-13 4.00489E-14
 -1     22403-2.49793E-13 3.14455E-13-2.48690E-14
 -1     22404 1.58929E-13-4.32864E-15 6.49819E-14
 -1     22405-1.43761E-14 4.91560E-14 1.77636E-15
 -1     22406 4.98268E-15 8.98286E-15 1.22680E-14
 -1     22407 3.47822E-13 1.51089E-13-3.92131E-13
 -1     22408-3.33524E-13 2.42579E-13-9.07885E-14
 -1     22409-4.04516E-13 1.69661E-14-6.86118E-14
 -1     22410 1.89581E-13-1.63640E-13-2.04725E-13
 -1     22411-7.97732E-13-9.67718E-13-1.27676E-14
 -1     22412-4.01757E-14-1.16834E-13-1.52489E-13
 -1     22413 6.66026E-13-1.22027E-14 2.94764E-14
 -1     22414 7.70160E-13 3.32049E-13-1.48132E-13
 -1     22415 4.17297E-13-4.08811E-13 1.65465E-13
 -1     22416 5.94131E-13 8.93754E-14-2.68230E-13
 -1     22417-1.22917E-12 1.72130E-13-9.32587E-15
 -1     22418-6.21978E-13 1.50864E-12 1.36002E-13
 -1     22419 8.39474E-14-5.05364E-13-1.73458E-13
 -1     22420-3.88382E-13-5.88710E-13 7.33528E-14
 -1     22421-5.40202E-13 9.00615E-13-3.31818E-14
 -1     22422 3.39374E-12-1.51979E-13-4.02282E-13
 -1     22423 4.66253E-13-1.24197E-12-4.25028E-13
 -1     22424-3.85803E-14-6.83637E-14-1.64313E-14
 -1     22425-1.91877E-13 2.61565E-12-6.51729E-13
 -1     22426 3.37649E-14 4.03936E-14 1.24484E-14
 -1     22427-1.51445E-13 4.41075E-14 3.29736E-14
 -1     22428-4.31421E-13 1.27638E-12-6.76736E-13
 -1     22429 5.02098E-13-1.10782E-13-4.97824E-13
 -1     22430-7.51163E-13-2.40701E-12-4.22384E-13
 -1     22431-7.35744E-14-3.36971E-12-2.03171E-13
 -1     22432-4.94127E-13 1.68872E-14-2.48024E-13
 -1     22433-2.72244E-13 1.09791E-13 6.30607E-14
 -1     22434-1.11590E-12 1.60753E-12 2.52132E-13
 -1     22435-8.55870E-13 3.03383E-14-2.69451E-13
 -1     22436 3.18792E-13 1.42164E-13-7.45237E-14
 -1     22437 4.85221E-13-4.21735E-13 7.78266E-14
 -1     22438 1.03266E-13 3.32123E-13-1.82666E-13
 -1     22439-2.05587E-13-3.80482E-14-2.69229E-15
 -1     22440 1.30280E-13 2.11635E-13-6.59472E-14
 -1     22441 6.21885E-14 2.50932E-14-2.54796E-14
 -1     22442-1.04044E-13 5.38725E-14-1.33227E-15
 -1     22443 6.18476E-13 4.97605E-15-4.31824E-13
 -1     22444 1.01664E-13 2.98546E-13 7.27751E-14
 -1     22445-1.98903E-12-1.17204E-12 4.78367E-13
 -1     22446-5.39166E+00-4.39935E+00-8.14229E-03
 -1     22447-3.52198E+00-2.89693E+00 1.04792E-03
 -1     22448-4.81251E+00-3.95930E+00 1.97065E-03
 -1     22449-3.30203E+00-2.72301E+00 1.33198E-02
 -1     22450-3.15560E+00-2.61579E+00 4.45893E-03
 -1     22451-3.72193E+00-2.97124E+00 3.02399E-03
 -1     22452-3.66464E+00-2.93136E+00-7.14479E-03
 -1     22453-6.51606E+00-5.10712E+00 9.33680E-04
 -1     22454-5.89209E+00-4.68999E+00 1.01438E-02
 -1     22455-8.95812E+00-6.16357E+00-2.33008E-03
 -1     22456-7.84807E+00-5.61894E+00 6.46305E-03
 -1     22457-9.07981E+00-5.19253E+00-3.04142E-03
 -1     22458-9.75385E+00-5.85892E+00 8.47199E-03
 -1     22459-8.67795E+00-4.13896E+00-3.77070E-03
 -1     22460-8.83957E+00-4.41006E+00-9.52681E-04
 -1     22461-7.38573E+00-2.92348E+00 2.03008E-03
 -1     22462-7.80736E+00-3.24602E+00 1.95923E-03
 -1     22463-4.82456E+00-1.60514E+00-2.09443E-03
 -1     22464-5.59558E+00-1.94103E+00 1.30173E-03
 -1     22465-9.33204E-01-3.00815E-01-3.30145E-03
 -1     22466-2.02334E+00-6.12910E-01-2.80642E-03
 -1     22467 4.87845E+00 8.37884E-01 1.88012E-03
 -1     22468 2.35188E+00 4.13710E-01-1.16772E-03
 -1     22469 1.50195E+01 1.72480E+00 6.09924E-03
 -1     22470 1.55339E+01 2.05597E+00-4.62153E-03
 -1     22471 2.19498E+01 6.84538E-01 2.26440E-02
 -1     22472 1.76058E+01 9.71716E-01 2.43211E-02
 -1     22473 3.41947E+01-2.66156E-01-2.01873E-01
 -1     22474 2.80661E+01-7.64837E-02 6.32285E-02
 -1     22475 2.21815E+01 5.69852E-01-1.38472E-03
 -1     22476 3.09467E+01 5.34132E-01-1.03646E-01
 -1     22477 3.79655E+01-7.93568E-01-8.25284E-01
 -1     22478 4.04885E+01-5.87625E-01-3.22113E-02
 -1     22479 3.88989E+01 2.52808E+00 4.39910E-01
 -1     22480 2.93671E+01 3.44215E-01 2.56339E-01
 -1     22481 2.95213E+01 3.80707E-01-1.24011E-01
 -1     22482 2.15052E+01 1.02838E+00 4.55800E-03
 -1     22483 1.81107E+01 1.73647E+00-8.41817E-03
 -1     22484 1.86359E+01 1.34689E+00-1.79715E-02
 -1     22485 1.58450E+01 2.08411E+00-1.80015E-04
 -1     22486 1.76594E+01 1.98019E+00-2.77713E-02
 -1     22487 2.48333E+00 4.41890E-01-1.54167E-03
 -1     22488 4.31963E+00 7.37875E-01-9.70721E-04
 -1     22489-2.46245E+00-7.52545E-01-8.57436E-04
 -1     22490-1.40819E+00-4.47090E-01-2.21088E-03
 -1     22491-5.83258E+00-2.04760E+00 5.20958E-04
 -1     22492-5.11973E+00-1.73254E+00 9.18826E-04
 -1     22493-7.94433E+00-3.33819E+00-3.57471E-03
 -1     22494-7.53045E+00-3.02770E+00 1.75976E-03
 -1     22495-8.80917E+00-4.45975E+00-8.62917E-04
 -1     22496-8.71861E+00-4.21576E+00 7.06231E-04
 -1     22497-7.46810E+00-4.51813E+00-1.23227E-03
 -1     22498-8.46368E+00-4.91115E+00-5.56184E-05
 -1     22499-7.45422E+00-5.29704E+00-1.15912E-02
 -1     22500-6.93215E+00-4.73358E+00 1.61763E-03
 -1     22501-6.61623E+00-5.26104E+00-2.73948E-03
 -1     22502-6.84955E+00-5.32773E+00 9.16875E-03
 -1     22503-6.42539E+00-5.13648E+00 1.27261E-02
 -1     22504-6.89545E+00-5.28704E+00 7.17772E-03
 -1     22505-6.67166E+00-5.18120E+00 2.85252E-03
 -1     22506-7.45801E+00-5.53794E+00-5.46511E-03
 -1     22507-9.73893E+00-6.42199E+00 4.13498E-03
 -1     22508-9.48908E+00-6.42513E+00-9.03713E-05
 -1     22509-1.00535E+01-6.32127E+00-3.20059E-03
 -1     22510-5.36083E+00-4.30695E+00-2.32525E-03
 -1     22511-4.42983E+00-3.56323E+00-3.61386E-03
 -1     22512-7.64405E+00-5.62131E+00-5.37919E-03
 -1     22513-1.01341E+01-6.21377E+00-6.54051E-03
 -1     22514-3.86122E+00-3.09176E+00-6.53641E-03
 -1     22515-8.92907E+00-4.66345E+00-3.84811E-03
 -1     22516-9.06592E+00-4.95959E+00-2.75865E-03
 -1     22517-8.18023E+00-3.55663E+00-5.74840E-04
 -1     22518-8.45717E+00-3.84563E+00 3.07776E-03
 -1     22519-6.26917E+00-2.27794E+00-4.15614E-04
 -1     22520-6.86363E+00-2.59875E+00-4.73131E-04
 -1     22521-3.02090E+00-9.35744E-01-3.13974E-03
 -1     22522-3.98831E+00-1.28387E+00-1.99662E-03
 -1     22523 1.00332E+00 1.59229E-01-4.79498E-04
 -1     22524 3.90051E-02-5.21191E-02-1.19650E-03
 -1     22525 1.52058E+01 2.13596E+00 4.10814E-03
 -1     22526 1.23840E+01 1.79374E+00-9.58062E-03
 -1     22527 8.14956E+00 1.35233E+00-1.08784E-02
 -1     22528 1.23057E+01 1.81667E+00-1.25675E-03
 -1     22529 1.41113E+01 1.08214E+00 1.77395E-02
 -1     22530 1.38067E+01 1.37892E+00-5.80376E-03
 -1     22531 1.41387E+01 1.48601E+00 5.21399E-03
 -1     22532 2.06906E+01 1.07040E+00 3.10744E-02
 -1     22533 5.06127E+00 8.71868E-01-3.47237E-04
 -1     22534 7.58503E+00 1.20956E+00 8.33615E-03
 -1     22535-8.03746E-02-1.15215E-01 9.62610E-04
 -1     22536 1.28382E+00 2.09207E-01-6.46685E-03
 -1     22537-4.30896E+00-1.39439E+00-4.21911E-03
 -1     22538-3.44939E+00-1.07598E+00 9.12318E-04
 -1     22539-7.04305E+00-2.71543E+00 1.65752E-03
 -1     22540-6.47748E+00-2.39098E+00 2.85508E-03
 -1     22541-8.53110E+00-3.94210E+00-4.56378E-04
 -1     22542-8.28087E+00-3.65650E+00-3.48230E-03
 -1     22543-8.67174E+00-4.81048E+00-6.27910E-04
 -1     22544-8.83883E+00-4.68590E+00 1.39482E-03
 -1     22545-6.41590E+00-4.21386E+00-7.54595E-04
 -1     22546-6.58028E+00-4.15290E+00 1.85998E-03
 -1     22547-7.09516E+00-5.39847E+00-7.68427E-03
 -1     22548-7.31385E+00-5.36634E+00 7.49922E-03
 -1     22549-6.59694E+00-5.32498E+00 4.27303E-03
 -1     22550-6.47859E+00-5.19707E+00 5.25064E-03
 -1     22551-9.13414E+00-5.07463E+00-9.08089E-04
 -1     22552-8.56221E+00-3.96135E+00-4.03779E-03
 -1     22553-7.07922E+00-2.70072E+00 2.24755E-02
 -1     22554-4.28088E+00-1.39010E+00 1.18382E-03
 -1     22555-2.87826E-01-1.38338E-01 1.60119E-04
 -1     22556-3.13942E+00-9.69736E-01-1.06801E-03
 -1     22557-8.19836E+00-3.56527E+00-2.45976E-03
 -1     22558-8.85769E+00-4.63352E+00-3.32730E-03
 -1     22559-7.16873E+00-4.46485E+00-2.85183E-04
 -1     22560-7.47644E+00-5.37717E+00 2.44661E-03
 -1     22561-6.36882E+00-5.13178E+00 1.67663E-03
 -1     22562-2.37553E+00-7.33046E-01-2.77667E-04
 -1     22563 1.42032E+00 2.40582E-01 8.74122E-04
 -1     22564 1.94954E+00 3.70909E-01-7.89829E-03
 -1     22565-6.87901E+00-4.57369E+00-6.41638E-04
 -1     22566-6.95814E+00-5.36462E+00-3.51990E-03
 -1     22567-5.96577E+00-4.86642E+00 6.01561E-03
 -1     22568-5.66270E+00-4.61580E+00 1.68325E-02
 -1     22569-5.85572E+00-2.07582E+00-4.58040E-03
 -1     22570-7.97140E+00-3.36988E+00 3.66171E-03
 -1     22571-8.89438E+00-4.50361E+00-7.90281E-05
 -1     22572-8.59386E+00-4.91620E+00 1.36321E-03
 -1     22573 1.49761E+01 1.01179E+00 2.32212E-02
 -1     22574-8.67501E+00-4.13609E+00 2.25591E-03
 -1     22575-9.66315E-01-3.22963E-01 1.38271E-04
 -1     22576-7.38405E+00-2.92385E+00 2.88502E-03
 -1     22577-4.87874E+00-1.63247E+00-1.89715E-03
 -1     22578-6.28893E+00-2.26306E+00-2.11701E-03
 -1     22579-4.61455E+00-3.73906E+00-9.39693E-03
 -1     22580-5.36522E+00-1.84704E+00-4.06600E-03
 -1     22581-6.05915E+00-2.16200E+00-3.15585E-03
 -1     22582-7.57624E+00-5.50333E+00-2.78535E-03
 -1     22583-8.25987E+00-5.75688E+00 8.74708E-03
 -1     22584-8.30113E+00-5.57030E+00-5.49369E-03
 -1     22585-9.18993E+00-5.43134E+00-3.87881E-03
 -1     22586-8.88203E+00-5.01319E+00 3.21226E-03
 -1     22587-6.68970E+00-2.47513E+00 1.60425E-03
 -1     22588-7.20670E+00-2.85311E+00-2.00436E-02
 -1     22589-8.78433E+00-4.31605E+00-7.47977E-04
 -1     22590-8.88088E+00-4.56675E+00 6.83620E-03
 -1     22591-3.72617E+00-1.17438E+00 3.38489E-03
 -1     22592-4.57507E+00-1.50132E+00 5.10139E-03
 -1     22593-7.67424E+00-3.12963E+00-9.82778E-03
 -1     22594-8.08089E+00-3.45617E+00 7.27363E-03
 -1     22595 5.49675E-01 4.92401E-02 3.65677E-04
 -1     22596-5.61736E-01-2.13731E-01-2.24764E-04
 -1     22597 1.70283E+00 2.93498E-01 1.51450E-02
 -1     22598 3.24136E+00 5.70721E-01-6.12542E-04
 -1     22599 5.39064E+00 9.88981E-01-2.57907E-02
 -1     22600-8.61075E+00-4.04054E+00 2.24031E-03
 -1     22601 1.50184E+01 1.20407E+00 2.11054E-02
 -1     22602 1.68835E+01 1.75941E+00-1.78301E-03
 -1     22603 2.10336E+01 6.97918E-01-2.16151E-03
 -1     22604-5.48560E+00-4.40901E+00 1.01191E-02
 -1     22605-7.68769E+00-4.94505E+00-7.37808E-04
 -1     22606-8.37803E+00-3.74755E+00 5.04462E-03
 -1     22607-8.97229E+00-4.83591E+00 6.05876E-04
 -1     22608-1.73586E+00-5.42755E-01-1.16472E-03
 -1     22609-8.72196E+00-5.39382E+00-2.25261E-03
 -1     22610 1.76251E+01 1.47665E+00-5.74276E-02
 -1     22611-7.26433E+00-5.44534E+00 8.02427E-04
 -1     22612-6.83312E+00-5.28037E+00-1.07717E-02
 -1     22613-6.02967E+00-4.81750E+00-3.22019E-02
 -1     22614-2.74905E+00-8.49018E-01 1.19888E-03
 -1     22615-6.47321E+00-5.12284E+00 1.77030E-03
 -1     22616 3.34583E-13-7.34236E-13-4.62346E+00
 -1     22617 3.14788E-13-1.65209E-13-3.24823E+00
 -1     22618-2.76016E-13 7.77262E-13-7.07587E+00
 -1     22619 2.69607E-13-8.50019E-13-6.70694E+00
 -1     22620 8.19040E-14 1.17324E-12-8.02605E+00
 -1     22621-1.54130E-14 5.09255E-14-7.86392E+00
 -1     22622-6.99690E-14-7.35034E-14-8.50129E+00
 -1     22623-1.81785E-14-1.12924E-13-8.41711E+00
 -1     22624-2.22637E-13 2.85847E-13-8.80192E+00
 -1     22625-1.31016E-13 8.92423E-13-8.75498E+00
 -1     22626 5.37296E-14 1.80253E-13-8.87559E+00
 -1     22627-3.12826E-14-1.59606E-13-8.87931E+00
 -1     22628 1.66088E-13-9.07882E-14-8.75722E+00
 -1     22629 1.73045E-14 4.16449E-13-8.80422E+00
 -1     22630 1.83503E-13-2.71006E-13-8.51057E+00
 -1     22631-3.70704E-14-2.97853E-14-8.59210E+00
 -1     22632-3.56711E-14 1.22736E-13-8.13356E+00
 -1     22633 1.36182E-13 2.43317E-14-8.25050E+00
 -1     22634 4.70593E-14-4.35792E-14-7.59202E+00
 -1     22635-2.24879E-14-1.08243E-13-7.74995E+00
 -1     22636-1.86689E-14 2.37902E-14-6.86254E+00
 -1     22637 1.88372E-13 5.38143E-14-7.06804E+00
 -1     22638 5.25868E-14-5.12469E-14-5.97537E+00
 -1     22639 1.10265E-14-5.84615E-14-6.21052E+00
 -1     22640 3.64807E-14 3.25977E-14-4.97827E+00
 -1     22641-9.31440E-15-5.19823E-14-5.23390E+00
 -1     22642 2.59710E-14 6.59828E-14-4.18121E+00
 -1     22643 2.52249E-15-3.05633E-14-4.32738E+00
 -1     22644-6.09007E-15 2.71516E-14-4.00273E+00
 -1     22645-1.03788E-14 2.00006E-14-3.96500E+00
 -1     22646 9.65924E-15-4.03566E-14-3.53318E+00
 -1     22647-1.15576E-14 2.26096E-14-4.30228E+00
 -1     22648-7.97811E-16-1.05408E-16-2.22999E+00
 -1     22649 1.01765E-14 7.00118E-15-4.29927E+00
 -1     22650-1.79902E-15-2.66193E-15-3.48669E+00
 -1     22651 1.23817E-15 2.10315E-16-4.06241E+00
 -1     22652-1.12096E-14-1.96319E-15-4.08993E+00
 -1     22653-1.18492E-15-2.36985E-15-4.14830E+00
 -1     22654-4.70532E-15 2.40259E-16-4.12027E+00
 -1     22655-3.81737E-15 4.87742E-16-4.14882E+00
 -1     22656-2.61835E-16 1.89085E-15-4.18077E+00
 -1     22657 9.53899E-17-3.10716E-15-3.58936E+00
 -1     22658 4.45287E-15-3.64726E-15-3.79864E+00
 -1     22659-1.05203E-15 7.12646E-16-2.39114E+00
 -1     22660 1.76316E-15-4.86632E-15-2.75046E+00
 -1     22661-1.83311E-16 1.39125E-15-4.81952E-01
 -1     22662-3.82940E-16-1.72052E-15-1.01600E+00
 -1     22663 4.65638E-16-8.03606E-16 2.06644E+00
 -1     22664-7.06705E-16 5.24808E-16 1.37342E+00
 -1     22665 6.64399E-16 3.44343E-16 5.36127E+00
 -1     22666-7.49888E-16 1.25334E-16 4.43114E+00
 -1     22667 9.03271E-15 2.17708E-15 1.08293E+01
 -1     22668-3.80322E-15 3.51623E-15 9.11448E+00
 -1     22669-6.12010E-15 2.98025E-15 1.61602E+01
 -1     22670 3.69713E-15-3.10516E-16 1.35302E+01
 -1     22671-9.63639E-16-6.02903E-15 1.04863E+01
 -1     22672-2.84286E-14-1.54043E-14 1.25147E+01
 -1     22673-1.18961E-14-2.82075E-14 8.27717E+00
 -1     22674 1.21739E-13 1.47642E-14 8.70006E+00
 -1     22675-1.75694E-13 1.65818E-13 7.62704E+00
 -1     22676-1.63539E-13-5.89656E-14 7.71559E+00
 -1     22677 3.19810E-13 1.96070E-13 7.38582E+00
 -1     22678-3.33569E-13-1.15658E-13 7.43943E+00
 -1     22679 5.58182E-13-4.67422E-14 7.24551E+00
 -1     22680-2.49998E-13-1.98542E-13 7.28026E+00
 -1     22681-3.16078E-14 3.20368E-13 7.09461E+00
 -1     22682-1.47808E-13 3.37248E-14 7.13629E+00
 -1     22683 1.64804E-13 4.54891E-13 6.88057E+00
 -1     22684 4.48908E-13 2.25227E-14 6.94638E+00
 -1     22685 9.78464E-14 3.63085E-13 6.50514E+00
 -1     22686 1.78218E-13 3.41845E-15 6.60396E+00
 -1     22687-3.42789E-14-9.24025E-14 5.87624E+00
 -1     22688 1.25340E-14-4.28646E-13 6.06609E+00
 -1     22689 2.67148E-13 3.29367E-13 5.13114E+00
 -1     22690-2.23799E-13 1.50058E-13 5.29740E+00
 -1     22691-6.94549E-13 2.63123E-13 4.54058E+00
 -1     22692-1.13365E-12 1.47903E-14 4.67691E+00
 -1     22693-1.30982E-12-4.01115E-13 3.66789E+00
 -1     22694 1.36826E-12-7.25129E-13 3.93725E+00
 -1     22695 1.70128E-13 2.85222E-13 9.79295E-01
 -1     22696-1.95395E-13-1.07392E-12 2.35921E+00
 -1     22697-7.18231E-13-1.59449E-12-8.60227E-01
 -1     22698-1.04673E-14 6.43378E-13-4.04716E+00
 -1     22699-5.43747E-13 1.40636E-12-2.90557E+00
 -1     22700-4.55897E-13 1.77855E-12-5.27718E+00
 -1     22701-3.87283E-13-9.94992E-13-5.30515E+00
 -1     22702-3.11376E-13 2.92821E-13-4.05714E+00
 -1     22703 1.70562E-14-7.76010E-13-4.49410E+00
 -1     22704 4.90618E-13-8.99793E-13-2.87727E+00
 -1     22705 4.67041E-14-3.50132E-13-6.15622E+00
 -1     22706 2.45868E-13-8.33229E-13-5.56540E+00
 -1     22707-1.42906E-13-9.74667E-13-7.64916E+00
 -1     22708 5.87334E-14-9.70597E-14-7.40054E+00
 -1     22709 4.14854E-15 6.59479E-13-8.29377E+00
 -1     22710-1.34325E-13-3.03888E-13-8.17170E+00
 -1     22711-3.07160E-13-5.34805E-13-8.67935E+00
 -1     22712-1.40607E-13 7.24722E-13-8.60165E+00
 -1     22713-2.50276E-14 1.42691E-13-8.87923E+00
 -1     22714-3.60868E-14 3.65808E-14-8.84367E+00
 -1     22715 6.90821E-14-2.62552E-13-8.83522E+00
 -1     22716 1.80103E-14 5.03484E-13-8.86310E+00
 -1     22717-9.01871E-14-1.94373E-13-8.65190E+00
 -1     22718 2.86810E-13 1.53656E-13-8.71316E+00
 -1     22719-8.36985E-14-1.63583E-13-8.34365E+00
 -1     22720-1.53638E-13-1.57669E-14-8.43810E+00
 -1     22721-9.39468E-14-3.44731E-13-7.88350E+00
 -1     22722-5.05468E-14 4.24884E-13-8.01758E+00
 -1     22723-5.94415E-14 5.07278E-14-7.25188E+00
 -1     22724 6.74880E-14-1.38357E-14-7.43295E+00
 -1     22725 2.38094E-14 2.95297E-14-6.43606E+00
 -1     22726-5.42246E-14-7.34220E-14-6.65184E+00
 -1     22727-2.56783E-14-1.52261E-13-5.47903E+00
 -1     22728 6.34792E-14-1.11062E-13-5.73788E+00
 -1     22729-3.00102E-14 6.61009E-14-4.51888E+00
 -1     22730 1.05438E-14-2.29039E-14-4.72878E+00
 -1     22731 9.49523E-15 1.05653E-14-4.01158E+00
 -1     22732-1.39426E-15-2.71995E-14-4.06701E+00
 -1     22733 8.32368E-15-2.39053E-14-4.22190E+00
 -1     22734-5.51262E-15 3.34269E-14-4.01929E+00
 -1     22735-9.51618E-16 2.25280E-15-2.19520E+00
 -1     22736-3.48029E-16-5.66170E-15-2.24773E+00
 -1     22737-4.74447E-15 1.30219E-15-2.68650E+00
 -1     22738-5.95840E-15-9.95119E-15-4.24897E+00
 -1     22739-6.32903E-17-9.24396E-15-4.45870E+00
 -1     22740 8.76035E-17 5.01259E-15-2.62543E+00
 -1     22741-7.75327E-15-8.51544E-15-4.13130E+00
 -1     22742 2.66032E-15-1.15881E-14-4.08480E+00
 -1     22743 8.50069E-16 1.49628E-15-4.09146E+00
 -1     22744 3.57435E-15 7.89140E-16-4.08117E+00
 -1     22745-1.11825E-15-4.38793E-15-4.18789E+00
 -1     22746 2.14610E-15 1.42686E-15-4.17650E+00
 -1     22747-9.58652E-16-1.08805E-15-3.96011E+00
 -1     22748 3.52799E-16 2.66657E-15-4.06009E+00
 -1     22749 5.71022E-16-1.11781E-16-3.08159E+00
 -1     22750-3.52463E-15-1.27502E-16-3.34884E+00
 -1     22751 7.84854E-16-1.28771E-15-1.52308E+00
 -1     22752-8.74301E-16 1.90288E-15-1.97129E+00
 -1     22753-2.30447E-16 1.05439E-16 7.18857E-01
 -1     22754-9.17777E-17-7.37691E-16 1.03074E-01
 -1     22755-9.02707E-16 2.31586E-16 3.58575E+00
 -1     22756-4.57533E-17 3.01842E-16 2.81098E+00
 -1     22757-2.51622E-15-5.88071E-16 7.60230E+00
 -1     22758 3.02877E-15-6.36210E-16 6.40048E+00
 -1     22759 4.48641E-14 4.69915E-14 7.55587E+00
 -1     22760 9.84499E-14-9.94078E-14 7.14728E+00
 -1     22761 1.22917E-13-3.65560E-14 7.50638E+00
 -1     22762 5.31029E-14-2.63570E-15 9.21512E+00
 -1     22763-6.77999E-14 1.57149E-14 1.03407E+01
 -1     22764 1.86209E-14-5.35569E-16 7.82504E+00
 -1     22765 1.35547E-13 1.12226E-13 8.02391E+00
 -1     22766-7.37169E-14-2.98369E-13 7.02402E+00
 -1     22767 5.46785E-15 3.27134E-14 1.04054E+01
 -1     22768-2.67517E-13-4.08520E-14 7.32229E+00
 -1     22769-9.78604E-14-1.33497E-13 7.34522E+00
 -1     22770 1.17608E-13 1.83380E-14 7.17888E+00
 -1     22771-2.00311E-13 1.71152E-13 7.21566E+00
 -1     22772 2.23416E-13-1.80210E-13 6.99976E+00
 -1     22773 6.99595E-14 4.37259E-14 7.04858E+00
 -1     22774-1.19755E-13-2.56344E-13 6.70293E+00
 -1     22775-1.20439E-13 2.01505E-13 6.79722E+00
 -1     22776-6.93049E-15 6.16574E-13 6.22675E+00
 -1     22777-5.56583E-13 9.06239E-14 6.37719E+00
 -1     22778 1.50173E-13 2.27896E-13 5.49243E+00
 -1     22779 5.82571E-14-9.80643E-13 5.68351E+00
 -1     22780-6.40531E-13 5.02049E-13 4.81381E+00
 -1     22781-8.67937E-14 7.37183E-13 4.96200E+00
 -1     22782-1.07723E-12 9.05752E-13 4.18227E+00
 -1     22783 1.35584E-13-1.43469E-13 4.36935E+00
 -1     22784 1.24567E-12-1.43828E-12 2.79997E+00
 -1     22785-7.75546E-13-5.07972E-13 3.30556E+00
 -1     22786 4.51661E-13 1.50011E-13-7.07223E+00
 -1     22787 4.75569E-13-1.06799E-12-4.69820E+00
 -1     22788-1.35961E-12-2.94009E-12-2.23904E+00
 -1     22789-4.00913E-13-3.08638E-13-5.83506E+00
 -1     22790 1.29578E-12 1.97458E-12-3.59960E+00
 -1     22791-3.05861E-13-5.64796E-13-5.02258E+00
 -1     22792-7.96450E-13-8.75000E-13-4.89410E+00
 -1     22793-1.24965E-12-1.06538E-12-5.19647E+00
 -1     22794-1.88124E-13-7.19685E-13-3.50107E+00
 -1     22795-2.04092E-13-6.60554E-13-3.22686E+00
 -1     22796-2.68179E-13 6.69508E-14-3.63566E+00
 -1     22797 2.18727E-13 6.69126E-13-8.03410E+00
 -1     22798 9.28057E-14 5.21440E-14-7.64318E+00
 -1     22799-5.60871E-13 6.29232E-13-4.63663E+00
 -1     22800-1.58487E-13 4.82604E-13-6.58875E+00
 -1     22801 1.69645E-13 8.15139E-13-7.39341E+00
 -1     22802 7.35117E-14-8.46975E-13-7.85362E+00
 -1     22803 3.91159E-15 2.38338E-13-8.15823E+00
 -1     22804 5.60538E-14 2.09738E-12-8.22882E+00
 -1     22805 6.36725E-14-1.07871E-13-8.13160E+00
 -1     22806-6.67884E-14 3.04940E-13-7.92628E+00
 -1     22807 6.39606E-14 1.07243E-13-7.58330E+00
 -1     22808 4.40224E-15 9.64257E-14-7.09868E+00
 -1     22809-1.44582E-13 1.07913E-14-6.44538E+00
 -1     22810-2.11867E-14 6.37437E-14-5.65629E+00
 -1     22811-7.55185E-15 6.27638E-14-4.76569E+00
 -1     22812-8.77549E-15 1.45687E-14-4.10220E+00
 -1     22813-2.27346E-15 2.48545E-15-4.08669E+00
 -1     22814-1.83674E-14 1.25066E-14-4.05934E+00
 -1     22815-4.70110E-16 1.26937E-14-4.08460E+00
 -1     22816 5.87795E-15-2.34562E-15-4.04285E+00
 -1     22817 4.15831E-15-6.96811E-15-3.39159E+00
 -1     22818-3.35642E-16 3.76313E-15-2.09939E+00
 -1     22819 6.58653E-16 1.36523E-15-1.23679E-01
 -1     22820 2.20061E-15 9.08561E-17 2.42069E+00
 -1     22821 7.00937E-16 3.56646E-15 5.62701E+00
 -1     22822-6.46896E-14 1.01049E-14 7.73722E+00
 -1     22823 8.02093E-16 9.61327E-14 6.89150E+00
 -1     22824-3.50224E-14-1.64396E-14 6.70655E+00
 -1     22825 1.98709E-13-2.27050E-13 6.50204E+00
 -1     22826 2.12899E-13-4.74272E-14 6.22251E+00
 -1     22827 3.44957E-13 7.06741E-13 5.79952E+00
 -1     22828 1.86181E-12 2.98972E-13 5.12992E+00
 -1     22829-6.04607E-13-1.05911E-12 4.35581E+00
 -1     22830 1.21685E-12-4.11153E-13 3.64999E+00
 -1     22831 1.82626E-12 2.13476E-13 2.11661E+00
 -1     22832 1.17893E-12-1.53426E-12-4.39578E+00
 -1     22833 5.96162E-13-2.02883E-12-3.67117E+00
 -1     22834 3.26913E-13 2.36849E-13-8.21635E+00
 -1     22835 3.50455E-13 5.85010E-13-8.19703E+00
 -1     22836-2.15405E-13 5.02864E-13-8.04287E+00
 -1     22837 1.25430E-13 4.86908E-14-7.77061E+00
 -1     22838 5.55139E-14-2.69966E-13-7.35526E+00
 -1     22839 1.56338E-13-2.55410E-13-6.79219E+00
 -1     22840-3.26735E-15 1.33591E-13-6.06280E+00
 -1     22841-4.13952E-14 6.50637E-14-5.22585E+00
 -1     22842 1.75612E-14 2.22652E-14-4.35566E+00
 -1     22843-1.88551E-14 1.95210E-14-4.01466E+00
 -1     22844-1.62947E-15-9.72144E-15-4.43641E+00
 -1     22845-8.74634E-15 9.71499E-15-4.04712E+00
 -1     22846-1.63347E-15 4.99449E-15-2.83137E+00
 -1     22847-1.77844E-15-1.02232E-15-1.19016E+00
 -1     22848 1.05189E-15-9.20650E-16 1.07750E+00
 -1     22849 3.49764E-16-6.90203E-16 3.91304E+00
 -1     22850 1.04604E-14-1.08767E-15 7.77462E+00
 -1     22851 5.09275E-14 9.72707E-14 7.33000E+00
 -1     22852 4.12228E-13 1.47981E-13 6.37414E+00
 -1     22853-5.24320E-13-6.46791E-13 6.01656E+00
 -1     22854 8.55010E-13-4.20881E-13 5.49825E+00
 -1     22855 9.24933E-16-5.74803E-13 4.72226E+00
 -1     22856 1.26852E-12-1.33724E-12 4.02589E+00
 -1     22857-8.94684E-13-7.16110E-13 3.07035E+00
 -1     22858-3.27076E-13-1.24164E-13 4.93203E-01
 -1     22859-5.16649E-13-9.87651E-13-4.06269E+00
 -1     22860 1.45149E-15-4.58363E-15-3.79312E+00
 -1     22861 6.10004E-15 2.40702E-15-4.12440E+00
 -1     22862 3.65029E-14 1.90223E-14 8.49921E+00
 -1     22863-4.35827E-13 1.06661E-13 6.61051E+00
 -1     22864-8.15924E-14-1.24085E-13 6.80608E+00
 -1     22865-2.33442E-13 9.20963E-13-6.76301E+00
 -1     22866 5.33825E-13-4.31650E-13-6.62064E+00
 -1     22867 3.34793E-12-3.06766E-12-6.73401E-01
 -1     22868-3.86154E-14-1.19212E-12-7.19553E+00
 -1     22869 3.62746E-13-1.62577E-13-7.10153E+00
 -1     22870 1.37417E-12 1.81088E-12-4.55173E+00
 -1     22871-1.13394E-12 9.39918E-13-4.02270E+00
 -1     22872-1.53174E-13-2.07001E-13-7.51279E+00
 -1     22873 9.37901E-14 6.79922E-13-7.45670E+00
 -1     22874-1.23038E-13 7.83426E-13-6.97917E+00
 -1     22875 5.52876E-13 2.00604E-12-6.89209E+00
 -1     22876 6.35440E-14-3.37133E-13-6.13258E+00
 -1     22877-1.11327E-12 2.13419E-12-6.34554E+00
 -1     22878 4.31188E-13 6.69139E-13-7.59231E+00
 -1     22879 1.21105E-13-1.22941E-13-7.59226E+00
 -1     22880-3.91774E-14 1.96338E-13-7.52128E+00
 -1     22881-1.69439E-13-5.21227E-13-7.56134E+00
 -1     22882-6.94055E-14 1.44278E-13-7.34585E+00
 -1     22883-9.17495E-15-3.59421E-13-7.40176E+00
 -1     22884-5.49129E-14-6.62607E-14-7.04490E+00
 -1     22885-1.74468E-13 8.09038E-14-7.12855E+00
 -1     22886 5.61486E-14-2.17135E-13-6.62131E+00
 -1     22887-4.12144E-14-3.48163E-14-6.73635E+00
 -1     22888 1.09969E-13-6.13427E-14-6.05513E+00
 -1     22889 2.24695E-13-2.27342E-13-6.19471E+00
 -1     22890 1.74882E-14-5.57322E-14-5.37871E+00
 -1     22891-7.99016E-14 1.33522E-14-5.55425E+00
 -1     22892-1.43598E-14-1.79818E-13-4.58582E+00
 -1     22893-2.85540E-13 2.02112E-13-4.76564E+00
 -1     22894-1.95872E-15-2.50496E-14-4.03862E+00
 -1     22895 2.20452E-14 8.08303E-15-4.11390E+00
 -1     22896 1.85392E-15-2.39287E-14-4.31662E+00
 -1     22897-6.29976E-15-2.90691E-14-4.02058E+00
 -1     22898 6.31027E-15-1.63287E-14-4.05160E+00
 -1     22899-3.35533E-15 2.75734E-15-2.92892E+00
 -1     22900-6.71776E-15 4.04022E-14-4.02482E+00
 -1     22901-1.64720E-15-6.38682E-14-4.01874E+00
 -1     22902 4.59030E-15 2.72568E-14-4.09118E+00
 -1     22903-1.12391E-14 3.22415E-15-4.14920E+00
 -1     22904 1.37260E-15-1.73418E-14-4.13619E+00
 -1     22905 1.13988E-14 5.70227E-14-4.04913E+00
 -1     22906-1.08613E-14-4.98001E-16-2.59349E+00
 -1     22907 6.12211E-15-1.60355E-14-2.90913E+00
 -1     22908 1.12896E-16-1.12582E-14-3.94874E+00
 -1     22909 1.75517E-14 5.75820E-15-4.00682E+00
 -1     22910-2.67200E-13 7.35064E-14 7.73000E+00
 -1     22911-1.41594E-13 2.70806E-14 8.21226E+00
 -1     22912 2.29350E-14 5.20756E-14-3.18767E+00
 -1     22913 2.71917E-15-1.08658E-14-3.43094E+00
 -1     22914 1.02867E-14 4.67256E-15-3.02780E+00
 -1     22915-3.13944E-16 3.85373E-14-4.04703E+00
 -1     22916 3.28683E-14-4.85858E-14-4.06110E+00
 -1     22917 1.81529E-14 8.56439E-14-3.98601E+00
 -1     22918-4.38081E-14 6.76655E-14-4.06522E+00
 -1     22919-1.63634E-14 8.38762E-15-8.64217E-01
 -1     22920 9.24843E-15 8.64456E-15-1.36738E+00
 -1     22921-4.10262E-16 9.23957E-16 1.40319E+00
 -1     22922 1.26045E-16 5.13459E-15 7.89883E-01
 -1     22923 4.03009E-15-2.69966E-15 4.15231E+00
 -1     22924 1.30158E-15 2.84324E-15 3.42259E+00
 -1     22925 4.16135E-14-1.25785E-14 7.65718E+00
 -1     22926 1.51882E-15-8.36295E-15 6.76448E+00
 -1     22927 1.95362E-14 1.68258E-14 6.83705E+00
 -1     22928-1.20646E-13-7.89148E-14 6.96654E+00
 -1     22929 4.17188E-14 1.24836E-14 9.34811E+00
 -1     22930-2.22912E-14 2.06172E-15 8.86915E+00
 -1     22931 4.55582E-15 4.38304E-14 7.52765E+00
 -1     22932-7.58681E-15-1.06113E-14 9.09444E+00
 -1     22933-3.95356E-14-7.66669E-14 6.02992E+00
 -1     22934 7.07500E-14-2.59053E-13 6.09155E+00
 -1     22935 8.82138E-14-2.54793E-14 6.39453E+00
 -1     22936-4.61306E-13 1.86255E-13 6.45669E+00
 -1     22937 3.85225E-13-4.27319E-13 5.73214E+00
 -1     22938 1.73555E-13-2.70484E-13 5.81603E+00
 -1     22939 4.28043E-13-8.51304E-14 6.53773E+00
 -1     22940-7.52066E-14-3.69536E-14 6.59458E+00
 -1     22941-4.47177E-13-1.92383E-13 6.01400E+00
 -1     22942-2.17242E-13-1.64945E-15 5.89224E+00
 -1     22943 8.38870E-13 4.86888E-13 5.96912E+00
 -1     22944 4.74419E-13-3.97354E-13 5.27318E+00
 -1     22945 1.02713E-12-4.22916E-13 5.33679E+00
 -1     22946-5.64840E-13-3.98722E-13 5.45039E+00
 -1     22947-5.89101E-13 6.86518E-13 4.75700E+00
 -1     22948 2.68018E-13-7.76600E-13 4.93423E+00
 -1     22949-2.00507E-13-2.03132E-14 3.97227E+00
 -1     22950-5.98318E-12 1.47892E-12 4.15159E+00
 -1     22951 1.02702E-12-2.14255E-12 3.18957E+00
 -1     22952 5.47790E-13-1.31107E-14 3.41906E+00
 -1     22953-2.64439E-12 2.15657E-12 1.72675E+00
 -1     22954-1.79724E-12 4.23457E-12 2.27614E+00
 -1     22955 2.15770E-12-2.82827E-12 1.86718E-01
 -1     22956-2.56358E-12-1.13924E-12 1.05435E+00
 -1     22957 4.88115E-13-2.90314E-12 3.22443E-01
 -1     22958-1.02340E-12 4.25834E-13-1.63979E+00
 -1     22959-4.08265E-13-5.87999E-13-3.50482E+00
 -1     22960-1.89059E-12 2.51960E-12-3.01468E+00
 -1     22961-1.27888E-13-2.54577E-13-6.46438E+00
 -1     22962-3.49078E-13 2.30280E-12-6.26510E+00
 -1     22963 5.78467E-13 8.03614E-13-5.88224E+00
 -1     22964 1.77314E-13 8.00354E-13-3.55901E+00
 -1     22965 3.08018E-13-2.60425E-13-3.47579E+00
 -1     22966-1.30123E-12 5.29620E-13-2.52336E+00
 -1     22967-4.82687E-15 1.68844E-12-3.70230E+00
 -1     22968 2.31896E-14-2.23600E-14-3.62663E+00
 -1     22969-5.66289E-15-2.02448E-15-3.79748E+00
 -1     22970 8.12427E-15 2.62665E-14-3.83948E+00
 -1     22971-3.98673E-14-3.71243E-14-3.48182E+00
 -1     22972 1.95155E-13 2.20733E-13-7.38778E+00
 -1     22973 1.97526E-15-2.21340E-13-7.30128E+00
 -1     22974 1.12695E-13-6.74794E-13-6.59719E+00
 -1     22975-5.13909E-14-1.80996E-13-6.77544E+00
 -1     22976-3.87558E-13 2.80743E-13-7.57195E+00
 -1     22977 1.66542E-13 4.91687E-13-7.54739E+00
 -1     22978-1.94602E-13-8.60474E-14-6.88902E+00
 -1     22979-9.50751E-14-8.53762E-13-6.94966E+00
 -1     22980 4.05349E-13 3.23475E-13 6.15155E+00
 -1     22981 2.72381E-14 2.25424E-14 6.21478E+00
 -1     22982-8.00758E-14 4.48190E-13 5.58020E+00
 -1     22983 9.70762E-15 9.87920E-13-6.05923E+00
 -1     22984-4.74371E-13 1.28968E-12-5.76534E+00
 -1     22985 1.33738E-12 1.64221E-12-5.55693E+00
 -1     22986 6.14708E-14 3.35973E-13-6.94890E+00
 -1     22987 4.97547E-14 3.99833E-13-6.52527E+00
 -1     22988 1.95528E-14 2.62619E-14-6.84263E+00
 -1     22989-8.27884E-13 1.11248E-13-1.48912E+00
 -1     22990 2.21097E-13-5.49437E-13-7.48987E+00
 -1     22991 1.43562E-13-3.48675E-14-6.92213E+00
 -1     22992-8.96229E-14-7.04671E-13-7.44520E+00
 -1     22993-1.19326E-13 7.18232E-13-7.56898E+00
 -1     22994-3.50990E-14 5.30374E-13-7.58535E+00
 -1     22995 2.26642E-15 2.50079E-13-6.86658E+00
 -1     22996-4.18978E-14-5.58980E-13-6.97497E+00
 -1     22997-6.27592E-15-1.84787E-13-7.21044E+00
 -1     22998 1.18628E-13-3.42923E-13-7.28132E+00
 -1     22999 9.13503E-15-6.19067E-15-6.35931E+00
 -1     23000-6.67514E-14 9.15048E-14-6.34495E+00
 -1     23001-2.02431E-14-3.09613E-13-6.49353E+00
 -1     23002 3.83063E-14-2.53030E-13-5.72821E+00
 -1     23003-3.44729E-14 2.43723E-14-5.88238E+00
 -1     23004-6.86869E-14-3.47545E-13-4.99071E+00
 -1     23005 9.44414E-14 1.49824E-13-5.20565E+00
 -1     23006 1.88530E-14 8.89986E-14-4.22760E+00
 -1     23007 3.57765E-14-2.54067E-14-4.37220E+00
 -1     23008 4.54728E-16 6.63942E-15-2.22659E+00
 -1     23009 1.10067E-14 8.74020E-15-2.39930E+00
 -1     23010 5.38077E-15 1.04010E-14-1.82161E+00
 -1     23011 1.66431E-14 5.14074E-14-4.03176E+00
 -1     23012 6.01585E-14 7.89581E-14-4.01678E+00
 -1     23013-2.33930E-15 2.00327E-14-4.06525E+00
 -1     23014 2.60609E-15-1.24850E-14-3.99102E+00
 -1     23015-8.67374E-15 1.22120E-14-3.96755E+00
 -1     23016 6.52469E-16 2.83091E-15-4.00116E+00
 -1     23017-2.24984E-14 4.89645E-14-3.46071E-01
 -1     23018 5.75238E-15-1.26930E-14-6.09541E-01
 -1     23019-1.64369E-15 5.45131E-15 2.03419E-01
 -1     23020-1.83706E-14-1.19123E-14 7.41363E+00
 -1     23021 4.35390E-14-3.47772E-14 6.82975E+00
 -1     23022 2.14070E-13-7.33751E-15 7.15457E+00
 -1     23023-3.87367E-14 2.06726E-14-6.78735E+00
 -1     23024 1.00289E-17-4.30117E-14-1.57608E+00
 -1     23025 2.25053E-13 2.39204E-14 7.67371E+00
 -1     23026-3.40017E-15 9.46422E-15 2.05648E+00
 -1     23027 6.65429E-18-1.42557E-14 1.67514E+00
 -1     23028 1.24683E-16-3.30725E-15 2.71203E+00
 -1     23029-3.78967E-14-1.28232E-13-3.99652E+00
 -1     23030 1.37481E-14-6.86761E-15 4.86598E-01
 -1     23031 1.55052E-14 1.32050E-14 2.96137E+00
 -1     23032 1.66420E-15-1.36653E-15 5.78647E+00
 -1     23033 2.86278E-14-6.50521E-16 4.93939E+00
 -1     23034 4.36868E-14-1.25039E-13 6.51512E+00
 -1     23035 2.39977E-13 1.52858E-13 6.66419E+00
 -1     23036 1.13540E-13 2.01492E-14 6.73079E+00
 -1     23037 1.58281E-13-3.04043E-13 6.33497E+00
 -1     23038-1.77080E-15 1.03674E-13 5.85847E+00
 -1     23039-3.61609E-14-8.41590E-14 6.27826E+00
 -1     23040 8.00817E-14 1.53483E-13 5.43747E+00
 -1     23041 7.70570E-13 2.53903E-13 6.16465E+00
 -1     23042 1.31452E-13 5.32042E-13 5.24071E+00
 -1     23043 7.20491E-13 1.95428E-13 4.64627E+00
 -1     23044 1.00357E-12-2.80737E-13 5.08187E+00
 -1     23045-1.65573E-13-1.55942E-13 5.55590E+00
 -1     23046 3.48118E-13 4.71622E-13 5.65893E+00
 -1     23047-5.20787E-13-9.84618E-13 4.37507E+00
 -1     23048-7.66950E-13-2.37923E-13 5.08454E+00
 -1     23049 2.38616E-12-9.95347E-13 4.37654E+00
 -1     23050-2.35579E-13-3.72237E-13 4.57077E+00
 -1     23051 2.92426E-13 5.16046E-13 3.59806E+00
 -1     23052-2.45347E-13-5.98888E-13 3.77948E+00
 -1     23053-3.42099E-12 8.15065E-14 3.18712E+00
 -1     23054-3.82298E-12 8.82937E-13 2.81240E+00
 -1     23055 8.09300E-13 1.10553E-12 2.66065E+00
 -1     23056-1.23070E-13 1.77720E-14 2.95806E+00
 -1     23057-7.00436E-12-9.98513E-13 2.38301E+00
 -1     23058 2.46744E-12-1.14070E-12 1.60950E+00
 -1     23059-2.68448E-13 9.54800E-14 5.72046E+00
 -1     23060 1.37553E-12 2.67453E-12-3.44868E+00
 -1     23061 2.99166E-13 1.40697E-12-3.53238E+00
 -1     23062-8.29625E-13-9.59372E-13-3.64541E+00
 -1     23063-1.26757E-12 2.50491E-12-5.41384E+00
 -1     23064-5.16617E-13-1.03858E-12-5.04580E+00
 -1     23065 8.36504E-14 1.02024E-13-4.03387E+00
 -1     23066-3.17668E-14-3.25971E-14-3.89340E+00
 -1     23067 1.13316E-14 3.45354E-14-6.17728E+00
 -1     23068 1.49682E-13 3.37398E-12-4.37908E+00
 -1     23069-3.78146E-13 2.69636E-12-2.64202E+00
 -1     23070 4.23488E-13-7.33446E-13 4.03516E+00
 -1     23071 1.57637E-12 2.20080E-12-5.04048E+00
 -1     23072-1.04716E-13 1.42149E-13 6.31502E+00
 -1     23073 5.34539E-14-2.81537E-14 4.25637E+00
 -1     23074-3.31646E-13-3.79310E-13-4.35696E+00
 -1     23075-8.48605E-14-1.52475E-13-5.12656E+00
 -1     23076 1.96355E-13-1.48256E-13-5.69833E+00
 -1     23077-2.03337E-13-3.04077E-13-4.83068E+00
 -1     23078-6.92804E-14-3.81815E-13-6.96226E+00
 -1     23079 7.27689E-14-2.08476E-13-5.41224E+00
 -1     23080-3.82698E-14-3.47443E-15-6.66889E+00
 -1     23081-6.15979E-15 4.43057E-13-5.95024E+00
 -1     23082 7.90742E-15-2.26148E-14-4.03652E+00
 -1     23083-6.04542E-14 2.87270E-14 5.76357E+00
 -1     23084 3.28273E-15 1.94195E-14 4.87580E+00
 -1     23085-2.76255E-12 2.96805E-12 3.62857E+00
 -1     23086 1.33239E-13 1.24058E-12-3.11664E+00
 -1     23087-4.56895E-13-1.85967E-13-6.36336E+00
 -1     23088-7.62762E-14 2.69043E-13-6.34750E+00
 -1     23089-1.88787E-14 9.23757E-15-5.14971E+00
 -1     23090-3.62360E-14-7.47366E-14-5.24351E+00
 -1     23091 1.69259E-13 6.41182E-13-6.29236E+00
 -1     23092 2.03416E-13-4.31233E-13-6.32416E+00
 -1     23093 1.97302E-13-1.02092E-12-5.55982E+00
 -1     23094-1.80099E-14-1.59659E-13-5.66938E+00
 -1     23095-1.26930E-14 3.37808E-13-5.89612E+00
 -1     23096-1.94679E-13-5.31100E-13-5.96833E+00
 -1     23097 1.32694E-12 8.26281E-13-4.45310E-01
 -1     23098 9.97894E-15 3.98087E-14-3.99484E+00
 -1     23099-2.06141E-13 5.21937E-14-4.59669E+00
 -1     23100-1.16217E-13 5.42702E-13-4.85806E+00
 -1     23101-6.80116E-14-1.70317E-13-6.13639E+00
 -1     23102 5.37810E-14 6.30193E-13-6.18795E+00
 -1     23103-7.35184E-14-4.45785E-13-5.37381E+00
 -1     23104 8.57519E-14-4.93808E-14-5.45879E+00
 -1     23105 1.45179E-13-1.72325E-14-5.23311E+00
 -1     23106 7.42288E-14-1.21899E-13-5.04164E+00
 -1     23107-4.14764E-14 9.04354E-15-4.94215E+00
 -1     23108 1.62194E-14 9.83216E-14-5.03951E+00
 -1     23109-1.33470E-13-6.61428E-14-4.79371E+00
 -1     23110 2.86773E-14 2.45398E-14-3.83224E+00
 -1     23111-3.66108E-14-1.01904E-14-3.78611E+00
 -1     23112 3.11623E-15-5.21078E-15-2.20546E+00
 -1     23113-2.41148E-15-2.08800E-14-2.55891E+00
 -1     23114 6.49081E-14 4.35242E-15 5.66916E+00
 -1     23115 7.42028E-14-3.44515E-14 4.99561E+00
 -1     23116 7.15067E-14 5.56305E-14-5.75413E+00
 -1     23117-2.53918E-13-3.21860E-13-5.82961E+00
 -1     23118-3.08375E-13-1.53818E-13-5.47234E+00
 -1     23119 1.00528E-14-3.14341E-13-5.37132E+00
 -1     23120-1.21290E-14 1.89117E-15 3.11428E+00
 -1     23121-2.99309E-14-1.91867E-14 2.52490E+00
 -1     23122-9.00373E-14-6.15336E-14-3.87481E+00
 -1     23123 2.74730E-15 3.66405E-14-3.94474E+00
 -1     23124 5.62344E-15-5.95395E-14-3.95660E+00
 -1     23125-4.64878E-14-2.86000E-14-3.78015E+00
 -1     23126 9.63406E-15-1.38772E-14-3.49231E-01
 -1     23127-1.16522E-14 4.99095E-14-8.65792E-01
 -1     23128-1.23415E-15 7.97680E-15 4.34047E+00
 -1     23129 5.35548E-14 4.87609E-15 3.71814E+00
 -1     23130 3.43838E-14-9.21572E-18 3.23703E+00
 -1     23131 7.40267E-14 9.39719E-14 4.28529E+00
 -1     23132-7.37778E-15 3.80381E-15-2.86673E+00
 -1     23133 2.52116E-15 6.50885E-15-3.13844E+00
 -1     23134 6.23292E-15 1.14177E-15-2.79011E+00
 -1     23135 1.04060E-12-1.99422E-12 3.28283E+00
 -1     23136-3.11236E-13 3.39205E-13 3.48394E+00
 -1     23137 1.54311E-13-1.00180E-16 6.19255E+00
 -1     23138-2.86923E-14-4.54446E-14 6.47327E+00
 -1     23139-4.06493E-14-4.42458E-14-3.89422E+00
 -1     23140 3.25982E-13-4.08040E-13 4.19279E+00
 -1     23141 4.74946E-13 9.26165E-13 4.30422E+00
 -1     23142 1.78627E-13-6.18103E-13-6.23146E+00
 -1     23143-9.50218E-14-1.24613E-12-6.27332E+00
 -1     23144-2.25435E-13 5.35987E-13-5.74823E+00
 -1     23145-5.06348E-14 2.22476E-13-5.70281E+00
 -1     23146-3.16934E-15-4.11637E-14 6.99079E+00
 -1     23147 5.22356E-14 1.08583E-15 6.40649E+00
 -1     23148-8.38354E-14 2.51014E-15 5.44889E+00
 -1     23149-3.32421E-14-3.66113E-14 6.72344E+00
 -1     23150-4.72698E-13 2.76688E-14 5.32467E+00
 -1     23151 1.94709E-12 1.39076E-12 5.40832E+00
 -1     23152-5.98290E-13-2.44309E-13 4.99831E+00
 -1     23153 1.84467E-13 3.52816E-13 5.08446E+00
 -1     23154-4.63822E-13-1.56809E-12 4.42050E+00
 -1     23155 1.42348E-13-1.59126E-13 4.52811E+00
 -1     23156 3.03807E-13 1.19553E-13 3.74686E+00
 -1     23157-5.99816E-13 1.76418E-13 4.63312E+00
 -1     23158-6.76089E-14-4.94984E-13 4.73458E+00
 -1     23159 7.91862E-13-3.86031E-14 3.99940E+00
 -1     23160 8.65606E-13-5.25196E-13-2.04234E+00
 -1     23161 5.65415E-13-1.83102E-13-1.53721E+00
 -1     23162-2.53470E-15-2.27020E-14-1.34050E+00
 -1     23163-1.48920E-14 4.93796E-14-1.79519E+00
 -1     23164-3.19744E-14-5.73124E-14-2.03884E+00
 -1     23165 3.71324E-14-1.09939E-13-1.13593E+00
 -1     23166-6.78274E-13 1.13628E-12 4.82798E+00
 -1     23167 2.10573E-13 5.37425E-13 4.91648E+00
 -1     23168-5.98310E-13 3.96293E-13 4.40985E+00
 -1     23169 6.09359E-13 9.71442E-13 4.21545E+00
 -1     23170 4.85386E-13 4.41246E-13 3.65121E+00
 -1     23171 8.83231E-13-1.52997E-12 3.80465E+00
 -1     23172-1.01421E-12 6.07367E-13 2.94684E+00
 -1     23173-7.99417E-14 3.76397E-13 5.15991E+00
 -1     23174 1.93034E-13 2.20199E-15 5.24567E+00
 -1     23175 4.73881E-13-7.24527E-13 4.76696E+00
 -1     23176 1.16062E-12 3.20212E-14 4.58779E+00
 -1     23177-1.26855E-13-2.64422E-13-5.26842E+00
 -1     23178 9.32574E-13 1.03177E-12-5.15294E+00
 -1     23179 1.41068E-13 6.12927E-13-6.02918E+00
 -1     23180 2.13481E-13-1.07709E-13-6.08668E+00
 -1     23181-2.31036E-14-3.93522E-13-5.55519E+00
 -1     23182 3.21608E-12 7.79710E-13-3.79880E+00
 -1     23183 2.47431E-13-1.20252E-12-3.34251E+00
 -1     23184 1.79734E-13 2.73170E-13 5.80266E+00
 -1     23185-1.44551E-13 2.66948E-14 5.87037E+00
 -1     23186-9.37900E-14-5.93667E-14-6.33277E+00
 -1     23187 3.65745E-13-1.24557E-12-6.34567E+00
 -1     23188-3.97314E-13-2.50495E-13-5.76741E+00
 -1     23189-2.57452E-14 7.22396E-14-3.86755E+00
 -1     23190-1.38146E-14-1.04904E-13-3.98866E+00
 -1     23191 5.27085E-14 1.61432E-13-3.80780E+00
 -1     23192-1.74024E-13 1.15326E-12-4.98470E+00
 -1     23193 6.38892E-13 4.08064E-13-4.78729E+00
 -1     23194 4.84813E-14-6.84514E-13-4.46689E+00
 -1     23195-3.83480E-14-8.53938E-14 5.48947E+00
 -1     23196-7.55560E-13-1.29134E-13 5.57224E+00
 -1     23197-3.84517E-13-3.35116E-13 4.94311E+00
 -1     23198 1.05340E-12-2.80546E-12-4.59978E+00
 -1     23199-2.60842E-12 1.41138E-12-4.31967E+00
 -1     23200-5.73203E-14-7.88675E-13-4.05504E+00
 -1     23201 1.30062E-14-2.04624E-14 1.91803E+00
 -1     23202-1.79089E-15 3.73724E-16 1.32818E+00
 -1     23203 1.60253E-15 5.79739E-14 2.11232E+00
 -1     23204 4.20445E-14 1.81476E-13 5.66585E+00
 -1     23205-2.68023E-13-6.71042E-14 5.71631E+00
 -1     23206-5.27738E-13 7.62118E-14 5.13523E+00
 -1     23207-5.04000E-15-2.44526E-14 7.49458E-01
 -1     23208-3.01460E-14 3.96414E-14 1.82974E-01
 -1     23209-2.02981E-15 6.72431E-14-1.28868E-01
 -1     23210-7.50224E-15 8.60769E-15 9.67375E-01
 -1     23211 1.46573E-12 2.60177E-12-4.09510E+00
 -1     23212-4.02601E-14 1.57885E-14-4.87787E+00
 -1     23213 1.23097E-13 2.79115E-13-6.32785E+00
 -1     23214-2.02264E-13-1.20980E-13-6.30157E+00
 -1     23215-6.16663E-13-1.46632E-13-5.73352E+00
 -1     23216 3.36309E-15-5.82790E-14-3.73793E+00
 -1     23217 1.13220E-14 1.76064E-14-3.90149E+00
 -1     23218 6.44648E-13-1.05681E-12-6.26416E+00
 -1     23219 2.82634E-13-1.67864E-12-6.21578E+00
 -1     23220 1.92815E-13 5.68718E-13-5.66266E+00
 -1     23221 1.17378E-13 2.05273E-13 5.28819E+00
 -1     23222 2.91967E-14 6.60280E-13-5.38054E+00
 -1     23223-2.99359E-13 3.37303E-13-4.65591E+00
 -1     23224-5.51100E-13 7.72286E-12-5.48046E+00
 -1     23225 5.56199E-13-6.18082E-15-2.99634E+00
 -1     23226-6.51614E-13-8.56450E-14-2.96859E+00
 -1     23227 1.26674E-13-1.16545E-12-6.97232E-01
 -1     23228 2.22233E-13 5.15176E-13 4.47747E-01
 -1     23229-5.31731E-14-2.62880E-14-5.63359E+00
 -1     23230-1.84504E-14 1.14910E-12-6.36218E+00
 -1     23231 4.36982E-14-1.26835E-12-6.36051E+00
 -1     23232 4.35091E-14 9.67429E-14-3.91691E+00
 -1     23233 8.79626E-15-2.22218E-13-3.58620E+00
 -1     23234-2.04306E-14 7.95159E-14-3.94744E+00
 -1     23235 1.13551E-13-1.18036E-14 6.08000E+00
 -1     23236 1.82413E-13 6.74157E-14 5.46133E+00
 -1     23237-1.74403E-13-9.59393E-14 5.93012E+00
 -1     23238-1.46809E-12-4.83132E-13 3.09176E+00
 -1     23239 2.52068E-12 7.71214E-13 2.57884E+00
 -1     23240 4.02936E-13 2.01971E-13 2.86367E+00
 -1     23241 2.92805E-13 1.94230E-13-6.15346E+00
 -1     23242 4.54260E-13-1.44964E-12-6.07177E+00
 -1     23243-3.29060E-13 6.27253E-13-5.55937E+00
 -1     23244 6.89374E-14 2.22865E-13-4.16543E+00
 -1     23245-1.28363E-13 2.41987E-13-4.32848E+00
 -1     23246 5.66665E-14-6.45316E-13-5.97971E+00
 -1     23247 2.13544E-13-3.52375E-13-5.85627E+00
 -1     23248 5.31919E-13 2.56614E-13-5.40819E+00
 -1     23249-2.34123E-14-2.76922E-14-4.06522E+00
 -1     23250 1.11755E-14-3.67561E-14-4.04207E+00
 -1     23251-1.04610E-14 1.05492E-13-4.30693E+00
 -1     23252 1.83189E-14-8.12368E-14-4.04770E+00
 -1     23253 7.28817E-14 7.95774E-14 5.82925E+00
 -1     23254 3.33174E-13-1.88754E-12-3.69998E+00
 -1     23255-2.20352E-13 2.20544E-13 4.07267E+00
 -1     23256-3.89843E-13 1.93108E-12 3.50160E+00
 -1     23257-2.69040E-13-1.25522E-12 3.94146E+00
 -1     23258 1.26186E-12-7.83564E-12-2.44707E+00
 -1     23259-1.35020E-12-4.90031E-13-1.80786E+00
 -1     23260 2.06375E-12 2.47364E-12 2.04538E+00
 -1     23261 3.98151E-13-2.16551E-12 2.25832E+00
 -1     23262-2.05413E-13-8.06445E-14 2.45673E+00
 -1     23263-1.44734E-12-3.08534E-13 2.62683E+00
 -1     23264-8.03872E-13-1.15941E-13 2.16343E+00
 -1     23265-2.85895E-12 2.37617E-12 1.68707E+00
 -1     23266-5.37730E-13-1.17748E-13-5.76983E+00
 -1     23267 1.02329E-14 4.44056E-14 5.40731E+00
 -1     23268-1.98304E-13-1.71291E-12-5.76321E+00
 -1     23269 2.94339E-14-2.37023E-15-3.34688E+00
 -1     23270 9.86510E-15 2.93976E-14-3.54961E+00
 -1     23271-6.14653E-15-1.57563E-14-3.57924E+00
 -1     23272 2.23555E-14-1.47882E-14-3.24238E+00
 -1     23273-1.42652E-12 2.99728E-12 1.05260E+00
 -1     23274 4.92373E-14 3.99645E-13-4.67846E+00
 -1     23275 7.99822E-14 1.25127E-13-3.71970E+00
 -1     23276-2.81925E-12-6.76855E-13 1.80694E+00
 -1     23277 1.85584E-12 1.83787E-12 1.31577E+00
 -1     23278 3.78921E-12 7.57722E-13 1.49008E+00
 -1     23279 6.50136E-13-6.18461E-13 3.24654E+00
 -1     23280-2.25182E-12 1.17021E-11-3.04749E+00
 -1     23281-2.83561E-12-2.10179E-12-2.56508E+00
 -1     23282-1.74179E-14 9.93843E-14-4.43201E+00
 -1     23283 4.02189E-15-9.05081E-14-5.03692E+00
 -1     23284 2.96934E-13-8.65372E-14-5.14765E+00
 -1     23285-5.66510E-13 2.19241E-13-5.16181E+00
 -1     23286 9.46092E-14-1.30920E-14 5.15998E+00
 -1     23287 4.04555E-14-2.66150E-15 4.65716E+00
 -1     23288 1.93913E-13 4.52633E-15 5.00446E+00
 -1     23289 2.81701E-13-9.04491E-13-5.19097E+00
 -1     23290 1.15201E-13-2.97101E-13-5.18852E+00
 -1     23291-2.01866E-12-1.87513E-12 5.59807E-01
 -1     23292 2.85325E-14-4.30593E-14-2.71454E+00
 -1     23293 7.64295E-14-1.54333E-14-2.95993E+00
 -1     23294 9.38439E-14 1.98175E-13-3.53539E+00
 -1     23295 1.51559E-12 4.55860E-13-5.71971E+00
 -1     23296 1.22881E-12-6.01646E-13-5.60771E+00
 -1     23297-5.69760E-13 2.79099E-12-5.14290E+00
 -1     23298 3.54288E-14 2.64064E-14-4.89746E+00
 -1     23299 5.67521E-14-3.67846E-14-4.69868E+00
 -1     23300 2.58183E-14 2.44382E-14-4.97667E+00
 -1     23301-2.77914E-13-6.49081E-13 1.85885E+00
 -1     23302-2.18182E-13-3.67835E-13 2.05325E+00
 -1     23303-3.59696E-13 2.58543E-12 3.07054E+00
 -1     23304 2.73977E-12 1.92964E-12 3.18946E+00
 -1     23305 1.39399E-12-1.48858E-12 2.22428E+00
 -1     23306-9.32306E-13 1.12384E-12 2.38929E+00
 -1     23307-6.54913E-14-2.78856E-13 1.50309E+00
 -1     23308-4.58012E-13-1.04800E-13 3.33251E+00
 -1     23309-9.28114E-13 1.38228E-12 3.46656E+00
 -1     23310-7.01229E-14-8.15153E-13 2.67227E+00
 -1     23311 2.23408E-13 1.57324E-12-5.18645E+00
 -1     23312-7.59074E-13-1.71310E-12-5.15063E+00
 -1     23313 1.62026E-13 3.36486E-13-4.58050E+00
 -1     23314-7.17696E-15 7.82256E-13-3.25881E+00
 -1     23315 1.63037E-13-4.88826E-16 4.80161E+00
 -1     23316-3.25173E-13-2.18393E-13 4.82893E+00
 -1     23317-1.27642E-12-1.66427E-12 2.53843E+00
 -1     23318 1.49970E-13-5.91536E-13 2.67968E+00
 -1     23319 5.56664E-14-1.43622E-12 1.82831E+00
 -1     23320-4.30070E-15 1.65018E-13 4.92486E+00
 -1     23321-3.40590E-14 2.74864E-13 4.86846E+00
 -1     23322 3.27154E-14 3.02623E-14 4.46021E+00
 -1     23323-2.65433E-13-1.45656E-13-4.70351E+00
 -1     23324-9.53163E-14-2.21724E-13-4.66609E+00
 -1     23325-1.76764E-14 1.71467E-14-4.43829E+00
 -1     23326-6.54676E-13-1.40620E-12-4.81456E+00
 -1     23327 6.13944E-13 1.43287E-13-3.84849E+00
 -1     23328-4.29973E-13 1.61823E-12-3.76597E+00
 -1     23329 8.00616E-13 1.08223E-12 2.80900E+00
 -1     23330-8.35204E-13-7.88962E-14 2.93639E+00
 -1     23331 9.95113E-14-5.89653E-14 2.37421E+00
 -1     23332 6.16668E-13-2.18250E-13 2.11473E+00
 -1     23333 2.30194E-13 2.71470E-13 4.40400E+00
 -1     23334-3.10408E-13-6.42299E-13 4.50185E+00
 -1     23335 2.27026E-13 9.50423E-13-3.56265E+00
 -1     23336 2.60230E-12-2.71094E-12-3.38549E+00
 -1     23337-4.07180E-13 1.52018E-12-2.97796E+00
 -1     23338 1.86496E-14 5.80684E-14 2.26672E+00
 -1     23339 3.28045E-14 1.33676E-14 1.73541E+00
 -1     23340-1.59476E-13 2.23062E-14 4.60866E+00
 -1     23341 1.84456E-13 1.96521E-13 4.70238E+00
 -1     23342-5.42933E-14-1.89378E-13 4.05553E+00
 -1     23343-2.02344E-13-7.86431E-14-3.29314E+00
 -1     23344 5.22129E-14 1.09782E-13-3.33204E+00
 -1     23345-1.75267E-13-6.35700E-14-3.65176E+00
 -1     23346 3.56437E-15 2.30380E-14-3.55836E+00
 -1     23347 2.65069E-13-1.29485E-12-4.56829E+00
 -1     23348-2.52676E-13-2.27127E-13-4.37071E+00
 -1     23349 3.23964E-14-6.92550E-14-9.41929E-01
 -1     23350-1.28166E-15 9.09945E-14-1.42725E+00
 -1     23351-4.52903E-14 1.54339E-12-5.12700E+00
 -1     23352 4.61863E-13-1.39268E-12-5.10721E+00
 -1     23353-7.60447E-13-3.94813E-12-4.57935E+00
 -1     23354-8.10396E-13 8.39589E-13 4.30318E+00
 -1     23355 8.60225E-14-2.70424E-13 3.83970E+00
 -1     23356-2.28594E-13 2.47137E-13 4.20600E+00
 -1     23357-2.24199E-13 8.49611E-14-5.10679E+00
 -1     23358-1.15841E-13 4.53031E-13-4.67423E+00
 -1     23359 3.89799E-14-4.62645E-13-5.11933E+00
 -1     23360-5.10670E-13 3.76078E-12-8.39438E-01
 -1     23361 2.18100E-12-2.21339E-12 1.02845E+00
 -1     23362-7.08748E-13 2.05471E-13 1.20552E+00
 -1     23363 9.12336E-14 8.74800E-14-5.20094E+00
 -1     23364 4.77471E-13 2.28015E-13-5.18495E+00
 -1     23365 2.95174E-13-6.00667E-13-4.68250E+00
 -1     23366-1.36395E-14-3.35736E-13-5.00902E+00
 -1     23367-8.36076E-14-2.87749E-13-5.02878E+00
 -1     23368 1.41779E-13 1.81601E-13-4.76801E+00
 -1     23369-6.67234E-15 1.48299E-13-4.81923E+00
 -1     23370-1.91690E-13-2.69550E-13-4.46235E+00
 -1     23371 3.45956E-14 3.09418E-14-3.47138E+00
 -1     23372-1.21517E-13-2.61923E-13-3.65511E+00
 -1     23373-3.68487E-13 4.85981E-13-4.70365E+00
 -1     23374 9.30053E-13-1.94621E-12-4.01603E+00
 -1     23375-1.20016E-13 1.39553E-12-4.81669E+00
 -1     23376 1.09108E-13 5.87771E-13-5.20286E+00
 -1     23377 4.75234E-13-1.42998E-12-4.61538E+00
 -1     23378-4.28318E-14 4.19626E-13-5.20208E+00
 -1     23379-1.52929E-13-9.69224E-14-4.90410E+00
 -1     23380-1.73846E-13 1.65984E-13-4.97293E+00
 -1     23381-1.97623E-13-4.63727E-13-4.66309E+00
 -1     23382 5.12198E-14 1.66800E-12 3.58511E+00
 -1     23383-1.40814E-13 2.35259E-14 3.70346E+00
 -1     23384-1.27044E-13-1.11830E-12 2.95120E+00
 -1     23385-4.05584E-15 8.15472E-15-2.31859E+00
 -1     23386 1.78831E-14 7.95842E-15-2.63556E+00
 -1     23387-7.18689E-14 9.26409E-14-1.88201E+00
 -1     23388 4.73764E-15 5.17369E-14-4.47290E-01
 -1     23389-1.34245E-14 1.51719E-13-7.74261E-01
 -1     23390 2.03636E-15-8.36809E-14 7.69874E-02
 -1     23391-3.31478E-14 6.91529E-14-5.05166E+00
 -1     23392-5.05026E-14 4.13058E-13-5.08322E+00
 -1     23393 4.40391E-13-9.86914E-13-4.66866E+00
 -1     23394 2.60313E-14 9.72056E-13-4.66574E+00
 -1     23395-4.83259E-13-1.81898E-12-4.17703E+00
 -1     23396-3.48848E-13 3.40973E-12-4.09358E+00
 -1     23397-2.36090E-13 8.58014E-13-3.65216E+00
 -1     23398 5.51902E-12-1.93789E-12-1.99938E+00
 -1     23399-5.14298E-13 3.45588E-12-1.88976E+00
 -1     23400 1.45475E-14 4.22678E-14 4.15234E+00
 -1     23401 2.32639E-14 6.39319E-15 3.65223E+00
 -1     23402-6.89065E-15-4.94365E-14 3.80054E+00
 -1     23403-1.25904E-13-3.27329E-15 3.22583E+00
 -1     23404-8.19123E-15-3.25837E-14 2.81189E+00
 -1     23405-1.75602E-14 2.83019E-14 2.42916E+00
 -1     23406 1.95365E-14 2.49555E-14 3.27228E+00
 -1     23407-2.20829E-13-1.14042E-13 4.79513E+00
 -1     23408 1.57979E-14 6.64737E-14 4.90728E+00
 -1     23409-5.34787E-13-8.58891E-13 3.80788E+00
 -1     23410 2.97852E-13 4.83421E-13 3.91427E+00
 -1     23411 9.53308E-13-7.67013E-14 3.19465E+00
 -1     23412 7.58634E-14 3.56011E-14-3.85858E+00
 -1     23413 1.26181E-12-5.42618E-13 1.67365E+00
 -1     23414-6.93878E-13-6.83159E-13 1.17609E+00
 -1     23415 2.96521E-12 1.82088E-12 1.43689E+00
 -1     23416 1.34648E-13-1.56966E-12-5.21787E+00
 -1     23417 1.67314E-13 3.24769E-13-5.21132E+00
 -1     23418 2.16160E-14-1.44716E-13-4.70669E+00
 -1     23419 5.11246E-13 3.08070E-12-1.17168E+00
 -1     23420 9.53610E-14 1.03108E-15 4.37636E+00
 -1     23421 4.00547E-13-1.97592E-13-4.69023E+00
 -1     23422-2.10189E-13 1.95183E-12-2.65029E+00
 -1     23423 1.65873E-13 4.15274E-14 4.26751E+00
 -1     23424-1.21294E-13 6.82805E-13-4.02661E+00
 -1     23425 1.16066E-13 1.10925E-12-3.92196E+00
 -1     23426-4.99740E-13 2.19770E-12-3.42316E+00
 -1     23427 6.36583E-13-2.43788E-12-3.22346E+00
 -1     23428 1.30054E-13 4.78661E-14 4.00988E+00
 -1     23429-4.69560E-14-4.58729E-13 4.11187E+00
 -1     23430-8.69297E-13 7.18408E-13 3.42260E+00
 -1     23431 1.40293E-12 6.67284E-13 8.55696E-01
 -1     23432-8.82663E-13-1.33312E-12 5.09579E-01
 -1     23433-8.69643E-13-9.50751E-13 5.58720E-01
 -1     23434 6.45875E-13 1.65697E-13-4.67774E+00
 -1     23435-7.21543E-14-2.27778E-14 4.14888E+00
 -1     23436 1.27703E-12 8.29661E-13-4.02061E-01
 -1     23437 6.76693E-16 3.34951E-14-3.13508E+00
 -1     23438-4.96379E-14 3.00905E-14-3.34235E+00
 -1     23439-2.14663E-14-5.25246E-14-3.21015E+00
 -1     23440 7.60526E-14 2.32386E-13-3.39007E+00
 -1     23441 1.34624E-12 3.56118E-12 7.09121E-02
 -1     23442-9.30449E-16-3.94648E-14 1.16801E+00
 -1     23443-1.47430E-14-1.96275E-14 6.15736E-01
 -1     23444-6.18373E-15 3.21053E-14 2.49862E-01
 -1     23445-5.42102E-14 1.82053E-13 1.33836E+00
 -1     23446-1.87841E-13 1.71896E-12-5.05518E+00
 -1     23447 2.21761E-13-6.45945E-13-5.01456E+00
 -1     23448 4.29573E-13-4.18431E-13-4.46280E+00
 -1     23449-2.42880E-12 6.04193E-13-2.06548E+00
 -1     23450-1.35743E-12 4.09242E-13-2.01348E+00
 -1     23451-2.11066E-13 8.03909E-13-4.16194E+00
 -1     23452-8.38594E-14 5.52897E-13-4.12337E+00
 -1     23453 2.62749E-13-3.45669E-13-4.35148E+00
 -1     23454 4.03750E-13-3.08904E-12-4.96474E+00
 -1     23455-6.04404E-14 7.18486E-14-4.26470E+00
 -1     23456 2.62928E-13-8.12554E-13-3.77240E+00
 -1     23457 5.35657E-13 1.09414E-12-3.66528E+00
 -1     23458 5.45228E-14-2.13551E-13 4.00573E+00
 -1     23459 2.54081E-14 1.10289E-14 3.72316E+00
 -1     23460 1.71413E-13 1.02427E-12-4.22585E+00
 -1     23461 3.09007E-14 2.90451E-13-4.20912E+00
 -1     23462-5.60566E-13-4.53056E-12-1.22400E+00
 -1     23463-2.99478E-13 4.89517E-13-4.88556E+00
 -1     23464-2.54044E-14-2.51323E-14-1.73450E+00
 -1     23465-7.42469E-14-7.02553E-14-4.81275E+00
 -1     23466-7.42552E-14-9.32760E-14-4.51096E+00
 -1     23467 2.54920E-14 3.14202E-16-3.95220E+00
 -1     23468-2.38459E-14-6.62794E-15-4.41244E+00
 -1     23469-5.43654E-14 4.71269E-14-3.83675E+00
 -1     23470-5.04282E-14-9.29929E-14 3.42417E+00
 -1     23471-1.31178E-14-2.33098E-14 3.44568E+00
 -1     23472-8.34944E-16 2.85926E-14 3.12788E+00
 -1     23473-5.41937E-14 1.94071E-14 3.09733E+00
 -1     23474-6.68652E-14 2.68284E-12 1.98129E+00
 -1     23475-1.01873E-13 1.00624E-12 2.14532E+00
 -1     23476 1.98242E-13 3.05880E-12 8.24644E-01
 -1     23477-1.22268E-14 1.92030E-14-4.73729E+00
 -1     23478 1.60281E-13 2.41850E-13-4.01426E+00
 -1     23479-3.51922E-13 7.20463E-14-4.00758E+00
 -1     23480-6.93290E-13 1.18754E-12 1.09140E+00
 -1     23481 2.63171E-12 4.68314E-13 1.23359E+00
 -1     23482 4.16890E-13-6.39296E-14 3.50363E+00
 -1     23483-2.72838E-13 1.90338E-13 3.64357E+00
 -1     23484-7.04254E-15 1.75345E-13 3.76147E+00
 -1     23485-1.05366E-13-4.02923E-14 3.90456E+00
 -1     23486-1.52785E-13 1.62197E-13 3.20593E+00
 -1     23487 1.13724E-14-8.29430E-14-4.41581E+00
 -1     23488 5.07858E-14-4.59764E-14-4.36067E+00
 -1     23489-1.92716E-13-3.09537E-13-4.06643E+00
 -1     23490-2.74745E-13-5.47642E-13-4.04667E+00
 -1     23491-8.74826E-14-4.30646E-13-3.57138E+00
 -1     23492 1.86369E-13-1.54549E-12-4.23811E+00
 -1     23493-1.48810E-14 4.80176E-14-4.00452E+00
 -1     23494-3.51983E-14 4.35566E-14-4.18564E+00
 -1     23495-4.49301E-15 1.30395E-13-4.15337E+00
 -1     23496 1.35300E-13-4.09948E-14-3.50702E+00
 -1     23497-1.47418E-13 8.64601E-14-3.06711E+00
 -1     23498 1.26170E-13-2.68602E-13-3.21052E+00
 -1     23499 2.64000E-14-8.96742E-14-3.12374E+00
 -1     23500 4.57991E-14-1.26401E-13 3.63241E+00
 -1     23501 5.17539E-14-7.45599E-13-3.13017E+00
 -1     23502 1.32750E-12 6.27160E-13-2.81458E+00
 -1     23503 7.02017E-14-4.08078E-13-4.20693E+00
 -1     23504 4.89045E-14 5.09373E-13-4.19922E+00
 -1     23505-7.99676E-14-1.57935E-14-3.72440E+00
 -1     23506 2.36658E-12-3.97106E-12-3.61335E+00
 -1     23507-2.50235E-13-1.75107E-12-3.59361E+00
 -1     23508-2.34066E-13 2.84450E-12-3.15828E+00
 -1     23509-2.06512E-14-1.98858E-13-1.58803E+00
 -1     23510 1.83133E-13-3.93199E-14-2.07675E+00
 -1     23511-1.74016E-13 1.02603E-13-3.84017E+00
 -1     23512-4.21594E-14 6.60695E-13-3.01788E+00
 -1     23513-3.90449E-14 4.94517E-13-3.84933E+00
 -1     23514-1.04371E-13-3.63647E-14-2.54915E+00
 -1     23515 1.15920E-13-1.11771E-13-3.16419E+00
 -1     23516 8.12919E-15 2.09109E-13-2.44232E+00
 -1     23517-8.78990E-14-7.68257E-14 2.55587E+00
 -1     23518 5.86144E-14 3.66337E-14 2.09076E+00
 -1     23519-5.03613E-13-3.46586E-13-3.47833E+00
 -1     23520 9.10024E-14 2.73230E-14-3.29259E+00
 -1     23521 6.65348E-13-9.63075E-14-2.64176E+00
 -1     23522 2.93206E-13 3.76986E-13-2.81777E+00
 -1     23523-7.13754E-13 3.17684E-13 2.29002E+00
 -1     23524 7.84000E-13 1.24700E-12 2.44060E+00
 -1     23525 4.37579E-13-3.48466E-13 1.62273E+00
 -1     23526 1.51595E-13-2.32733E-13-4.31672E+00
 -1     23527-9.71003E-14-5.52519E-13-4.27737E+00
 -1     23528 1.28986E-13 2.35635E-14-3.98918E+00
 -1     23529-1.16829E-12-2.15573E-13 1.81699E+00
 -1     23530-1.38321E-12 6.64584E-13 1.30760E+00
 -1     23531-5.62736E-13-7.32453E-13 1.69351E+00
 -1     23532-9.21436E-14-9.72190E-13-4.24497E+00
 -1     23533-3.95202E-14 4.30617E-13-3.78972E+00
 -1     23534 4.42170E-13 1.88325E-13-4.25645E+00
 -1     23535-3.75134E-13-2.59582E-13 2.56988E+00
 -1     23536-1.30736E-12-1.43338E-13 2.70004E+00
 -1     23537 6.33509E-14-1.22253E-12 1.92015E+00
 -1     23538 3.60334E-12 2.29041E-12-3.23393E-01
 -1     23539 2.22215E-13-7.22470E-14-4.20549E+00
 -1     23540 3.43096E-14-7.62972E-14-4.18478E+00
 -1     23541-2.29201E-13-2.54957E-14-3.68181E+00
 -1     23542-1.93401E-13 3.09951E-13-3.72027E+00
 -1     23543 1.00544E-14 4.64343E-13 3.39001E+00
 -1     23544-6.76140E-14 3.81048E-13 2.93786E+00
 -1     23545-1.89357E-13-2.84682E-13 3.27248E+00
 -1     23546 2.94389E-12-7.35438E-13 3.88984E-01
 -1     23547 1.23243E-12 5.55541E-13 4.34792E-01
 -1     23548-8.04390E-13 1.63553E-12 9.14380E-01
 -1     23549-3.67310E-13 1.72442E-13 2.86715E-01
 -1     23550-6.56656E-13 9.88846E-13 7.56185E-01
 -1     23551-6.30804E-14-7.34393E-13-3.42086E+00
 -1     23552-6.38104E-13 2.10275E-13 5.18568E-01
 -1     23553-3.36650E-13 1.32193E-13 6.17453E-01
 -1     23554 2.75557E-13 4.88553E-13-6.03161E-02
 -1     23555-3.98608E-13-3.43253E-12-1.33428E-01
 -1     23556-2.04612E-14-9.44570E-14-3.66453E+00
 -1     23557-1.29805E-13 9.35810E-14-4.18097E+00
 -1     23558-1.83046E-14 7.06548E-14-4.20178E+00
 -1     23559 5.93782E-14-2.17027E-13-3.40320E+00
 -1     23560 2.49547E-14 2.20538E-14 4.02807E+00
 -1     23561-8.12307E-14-9.86904E-14 4.03066E+00
 -1     23562-2.03025E-14 7.29000E-14-3.71418E+00
 -1     23563-3.23040E-14 5.80524E-14-3.54062E+00
 -1     23564-4.25527E-14 2.25009E-13-3.39474E+00
 -1     23565-5.28074E-14-2.55601E-14-3.71679E+00
 -1     23566 4.67896E-13-6.39633E-13-4.02145E+00
 -1     23567-4.64664E-14-2.22294E-13-3.93710E+00
 -1     23568-2.24730E-13-1.81902E-13-3.39968E+00
 -1     23569 9.45625E-13-1.04317E-12 1.39219E+00
 -1     23570-2.30939E-14 1.31567E-12 1.55426E+00
 -1     23571 5.77117E-13 1.05068E-12 6.56906E-01
 -1     23572 1.36026E-14-1.34022E-13 3.51575E+00
 -1     23573 1.37516E-14 5.14427E-14 3.81041E+00
 -1     23574 1.72629E-14 8.94976E-13 2.82020E+00
 -1     23575-3.06066E-13-4.20859E-14 2.94021E+00
 -1     23576-4.75900E-15-4.14416E-13 2.20679E+00
 -1     23577-1.40808E-12 4.17883E-13-2.48469E+00
 -1     23578 1.18855E-12 2.29834E-12-2.23233E+00
 -1     23579 8.22742E-15 1.42595E-13 1.51349E+00
 -1     23580-2.37350E-14-7.51479E-14 9.54880E-01
 -1     23581-8.44031E-14 6.96400E-14 1.68471E+00
 -1     23582 1.65202E-12 8.99526E-13-1.42023E+00
 -1     23583 4.59138E-14 7.71529E-15-1.10848E+00
 -1     23584 1.36718E-14 8.86275E-14-1.45169E+00
 -1     23585-8.33768E-15-6.04426E-14-6.16187E-01
 -1     23586 1.91429E-12-1.55587E-12-2.77574E+00
 -1     23587-1.08278E-12 8.67914E-13-1.85281E+00
 -1     23588-4.88531E-13-1.49857E-12-2.72798E+00
 -1     23589-4.91500E-14-5.04975E-13 3.05279E+00
 -1     23590 1.66487E-13-2.55620E-13 3.16269E+00
 -1     23591 1.59654E-13-6.87934E-14 2.70487E+00
 -1     23592 1.02858E-13 2.00398E-13 2.46491E+00
 -1     23593 8.18432E-14 1.41356E-13-2.28733E+00
 -1     23594-1.94561E-13-1.51353E-13-2.78987E+00
 -1     23595-2.87780E-13 8.77404E-13-3.09111E+00
 -1     23596-1.84140E-13-2.93692E-13-2.98154E+00
 -1     23597 2.42518E-14-8.27821E-15-4.33955E+00
 -1     23598-5.92126E-15 1.09171E-13-4.45693E+00
 -1     23599-2.16028E-12 1.66391E-12-5.34997E-01
 -1     23600-1.71007E-15 8.66188E-14 4.09389E-01
 -1     23601 4.52375E-14 7.35268E-15-1.12417E-01
 -1     23602 3.01736E-15-4.00643E-14-4.81407E-01
 -1     23603-5.38196E-14-4.41231E-14 5.46785E-01
 -1     23604 1.58834E-13 2.22536E-13 2.63013E+00
 -1     23605-1.61255E-13-4.00424E-14 2.80789E+00
 -1     23606-5.13483E-14-3.77060E-14 3.08635E+00
 -1     23607-2.19104E-13 2.42627E-14 2.99882E+00
 -1     23608 4.03167E-14-2.47186E-13 2.86494E+00
 -1     23609-1.05714E-14 1.13099E-15 2.90346E+00
 -1     23610 1.38481E-12-6.31650E-13-6.64904E-01
 -1     23611 1.13941E-13-2.61376E-12-9.11807E-03
 -1     23612-2.77369E-14-5.08825E-14 3.59491E+00
 -1     23613-8.48455E-14 2.39644E-14 3.62984E+00
 -1     23614 3.70930E-14-1.14873E-13-4.17586E+00
 -1     23615-1.04234E-14 6.63497E-14-4.14819E+00
 -1     23616-8.17242E-14-7.57874E-15-3.84790E+00
 -1     23617-2.79033E-13 2.54765E-14-6.04767E-01
 -1     23618-1.55105E-12 7.91066E-13-3.87287E-01
 -1     23619-2.22309E-14 9.64661E-14 2.96885E+00
 -1     23620 2.11606E-14-2.29723E-14 3.33818E+00
 -1     23621 1.67311E-13 5.42595E-14 2.40276E+00
 -1     23622-3.92964E-13-2.28160E-12-2.53654E+00
 -1     23623-2.97742E-13-1.53458E-12-2.54465E+00
 -1     23624-8.01484E-14-5.02021E-13-2.05784E+00
 -1     23625 1.30434E-13-1.79494E-12-2.86859E+00
 -1     23626 1.53245E-13 3.75256E-13-2.84794E+00
 -1     23627-7.11813E-15-9.08847E-13-2.43033E+00
 -1     23628-1.29081E-13-4.67123E-14-4.30074E+00
 -1     23629-7.70112E-13 7.12388E-12-7.69554E-01
 -1     23630 1.58505E-12-1.18786E-12-9.06252E-01
 -1     23631 2.54892E-13-4.99219E-14-3.28053E+00
 -1     23632-3.90963E-15 2.21126E-13-3.25128E+00
 -1     23633 1.65886E-13-1.08254E-13 9.16969E-01
 -1     23634 1.45194E-13-2.54615E-13 1.08928E+00
 -1     23635 6.72286E-14 2.88557E-13-2.47118E+00
 -1     23636 3.07727E-13-9.38097E-13-2.48590E+00
 -1     23637 1.12399E-13 5.01416E-13-3.15891E+00
 -1     23638 1.87191E-13 1.59893E-13-2.63697E+00
 -1     23639 1.02338E-14-5.71197E-14-3.20423E+00
 -1     23640 2.17530E-12-1.32281E-12-2.00816E+00
 -1     23641-5.31685E-13 7.27090E-13 9.86407E-01
 -1     23642-1.81427E-13-1.07551E-12-2.07008E+00
 -1     23643 2.75743E-13 4.84654E-13-1.93570E+00
 -1     23644-2.87869E-13 1.28970E-13-3.86724E+00
 -1     23645 5.96829E-14 1.19203E-13-4.36589E+00
 -1     23646 1.00142E-14-9.32463E-14-4.04169E+00
 -1     23647 3.41367E-14 1.18367E-13-3.71809E+00
 -1     23648 6.74791E-14 2.09393E-13-3.58764E+00
 -1     23649 5.48108E-14 1.56789E-13-3.44918E+00
 -1     23650 4.07850E-13 9.10602E-13-3.49248E+00
 -1     23651 8.07538E-13-1.74062E-12-1.15105E+00
 -1     23652 2.85574E-13-3.12117E-13-1.72432E+00
 -1     23653 1.15648E-13 1.55221E-12 1.25676E+00
 -1     23654-4.99576E-14-1.08766E-13 1.41710E+00
 -1     23655 6.30351E-14-8.19269E-14 5.41584E-01
 -1     23656-1.08915E-13 4.47639E-14 3.06894E+00
 -1     23657 1.36830E-12 3.89370E-12-9.91180E-01
 -1     23658-5.21756E-13-2.62456E-13-1.67737E+00
 -1     23659-5.54594E-14 1.60786E-13-3.14431E+00
 -1     23660-3.87923E-14-4.00180E-14-3.43390E+00
 -1     23661 5.90773E-14 5.44034E-13-2.82372E+00
 -1     23662 6.01426E-14-7.30101E-13-2.90018E+00
 -1     23663 3.13931E-13 8.55648E-14-2.17054E+00
 -1     23664 5.66022E-14-1.24591E-13 3.28881E+00
 -1     23665-8.03501E-13 2.09997E-12-2.44487E-01
 -1     23666-2.78154E-14-6.65878E-14-3.32720E+00
 -1     23667 6.37690E-14 3.68257E-14-2.83013E+00
 -1     23668-2.37861E-14-1.24407E-13-3.36197E+00
 -1     23669 3.61224E-13 1.54560E-12 4.04929E-02
 -1     23670-4.20691E-14 6.48611E-14 2.01397E+00
 -1     23671-3.71258E-14-2.15071E-13 1.26170E+00
 -1     23672-1.85257E-13 5.97222E-14 1.57172E+00
 -1     23673-1.34989E-13 2.83348E-13 1.72899E+00
 -1     23674-4.03569E-13-1.26443E-13 9.19484E-01
 -1     23675-3.48783E-13 8.76894E-13-2.34740E+00
 -1     23676 1.46588E-13 3.09791E-12-1.75958E+00
 -1     23677 5.62900E-13 4.15543E-13-2.44114E+00
 -1     23678 1.80266E-13-4.89700E-13-8.80593E-01
 -1     23679 3.92791E-13-8.42147E-13 7.66271E-01
 -1     23680 2.99220E-13 2.79681E-13 1.56641E-01
 -1     23681 1.45082E-12-4.65537E-13 6.17135E-01
 -1     23682-2.92205E-14 1.99402E-13-1.79453E+00
 -1     23683-9.94949E-14-1.69720E-13-2.14283E+00
 -1     23684 4.79855E-15 6.30790E-14-1.32268E+00
 -1     23685-4.96499E-13-3.21459E-13 2.49829E+00
 -1     23686-2.33270E-13 2.17371E-13 2.04808E+00
 -1     23687-6.03656E-14-5.08496E-13 2.36179E+00
 -1     23688 7.58751E-14-3.37206E-13 3.25320E+00
 -1     23689 9.38789E-15 1.93048E-13 2.19034E+00
 -1     23690-7.22242E-14 7.63229E-14 2.40415E+00
 -1     23691-1.59485E-12 3.73972E-12-1.42952E+00
 -1     23692 1.78584E-15 9.12004E-16-3.97187E+00
 -1     23693 3.42023E-14-6.25324E-15-3.50973E+00
 -1     23694 5.71089E-14 9.07620E-14-3.42948E+00
 -1     23695 6.05339E-14-1.10587E-13-3.16264E+00
 -1     23696 8.76926E-14 2.40565E-13-2.73588E-01
 -1     23697 3.93588E-13-2.43124E-14 4.70911E-03
 -1     23698-1.02650E-13 2.02092E-15 2.76224E+00
 -1     23699-4.42659E-14-8.19814E-13-3.24712E+00
 -1     23700 9.13000E-14 1.33821E-13-3.22581E+00
 -1     23701 2.14435E-14 2.23057E-14-2.75991E+00
 -1     23702 9.05259E-14-1.24416E-13-2.77388E+00
 -1     23703-2.00957E-14 2.00967E-13-2.97120E+00
 -1     23704 3.02605E-14-1.43462E-13-2.24994E+00
 -1     23705-1.04455E-12 1.67735E-12-2.14457E+00
 -1     23706-8.57643E-13-1.40153E-13-1.28924E+00
 -1     23707-4.86936E-13 3.17998E-12-1.58634E+00
 -1     23708-3.42700E-13-5.17762E-13-2.00347E+00
 -1     23709-1.00354E-13-6.57488E-13-1.80392E+00
 -1     23710-7.67466E-13 2.12185E-12-3.99291E-01
 -1     23711-1.42503E-13 1.15023E-12 3.17917E-01
 -1     23712-1.97412E-13 2.49566E-12 4.87935E-01
 -1     23713-5.68776E-13 1.43737E-13-5.80458E-01
 -1     23714-1.02999E-15-5.36051E-15 2.36909E+00
 -1     23715-1.85874E-13-5.87091E-13-2.99389E+00
 -1     23716 1.00541E-13 5.21590E-13-2.78799E+00
 -1     23717-8.66683E-13 2.01020E-13-1.95940E+00
 -1     23718-7.84172E-14 3.57822E-13-2.33544E+00
 -1     23719-1.37504E-14 3.96858E-14 1.60666E+00
 -1     23720-3.53910E-14-6.77889E-13-2.10461E+00
 -1     23721 2.44074E-14 1.21353E-12-1.60601E+00
 -1     23722-8.33144E-14 3.22232E-13-2.21090E+00
 -1     23723-7.80669E-14-1.04691E-13 1.75664E+00
 -1     23724 8.31353E-14 3.31931E-13 1.94714E+00
 -1     23725-5.91652E-14 2.62435E-14 1.43588E+00
 -1     23726 4.31760E-14-1.99957E-13-2.97673E+00
 -1     23727 5.01124E-15 1.18913E-13 6.78595E-01
 -1     23728 6.63489E-14-2.03867E-14 1.43786E-01
 -1     23729 3.10909E-14 5.45477E-16 8.01196E-01
 -1     23730-3.52353E-14 7.04850E-14-3.62836E-01
 -1     23731-1.58766E-13 3.72635E-13-8.46766E-01
 -1     23732-3.09237E-14-6.81707E-14-1.20290E+00
 -1     23733 3.08815E-14-1.89945E-14-2.61094E-01
 -1     23734-7.03880E-14 6.15847E-14-2.39475E+00
 -1     23735 1.24697E-13-5.19555E-13-2.36749E+00
 -1     23736-6.25305E-14-1.84310E-13-1.44623E+00
 -1     23737-3.45852E-13-1.08543E-13-1.09747E+00
 -1     23738 7.34312E-14 6.98204E-14 2.18405E-01
 -1     23739 1.50695E-13-5.31933E-13 4.31812E-01
 -1     23740-1.98459E-14-2.73328E-13-5.94115E-01
 -1     23741-1.34573E-13-2.92439E-13-2.33961E+00
 -1     23742 1.58601E-14-4.02711E-13-2.29356E+00
 -1     23743 1.52223E-13-4.68989E-13-1.82310E+00
 -1     23744 6.18937E-13-4.54969E-13-1.61975E+00
 -1     23745-1.68959E-13-1.11577E-12-1.53827E+00
 -1     23746 3.59088E-13 8.19437E-13-1.24891E+00
 -1     23747-3.73851E-15-3.22757E-14 9.21200E-01
 -1     23748 1.08867E-13-6.31421E-14 8.73047E-01
 -1     23749-2.02111E-14 5.84623E-14-2.47743E+00
 -1     23750-8.51684E-14 9.41718E-14-2.81779E+00
 -1     23751 1.61492E-14-4.38410E-14-2.70009E+00
 -1     23752 8.00919E-15 1.16671E-13-2.01708E+00
 -1     23753-7.10079E-14 5.14194E-13 2.41800E-04
 -1     23754-3.18506E-14 2.07567E-13 3.24896E-01
 -1     23755 6.48684E-13-2.39010E-13 1.87022E+00
 -1     23756-1.13528E-13 4.56875E-13 1.99798E+00
 -1     23757-2.47818E-14-2.61484E-13 1.25509E+00
 -1     23758-2.49133E-13 3.63365E-13 2.12471E+00
 -1     23759-5.14267E-13-5.45135E-14 2.24403E+00
 -1     23760 1.07224E-13-1.66170E-13 1.80264E+00
 -1     23761-6.48498E-13 1.06828E-13 1.55141E+00
 -1     23762-4.87887E-14 6.63840E-14 1.59196E+00
 -1     23763-7.07511E-14 1.27700E-13 1.17883E+00
 -1     23764-2.34820E-14-2.83756E-13 1.48053E+00
 -1     23765-3.96172E-13 5.71717E-13-5.64048E-01
 -1     23766 7.46262E-14-2.92562E-13-7.20418E-01
 -1     23767-2.83914E-14 1.95987E-14-2.28183E+00
 -1     23768 4.76609E-14 9.67009E-14-2.29022E+00
 -1     23769 1.45350E-14-7.85931E-14-1.94899E+00
 -1     23770-3.59363E-14-5.73046E-14-2.60062E+00
 -1     23771-2.31667E-14 1.07385E-13-2.49386E+00
 -1     23772-8.15731E-14-6.21674E-14-2.03408E+00
 -1     23773-3.14709E-14 5.21911E-15-2.24568E+00
 -1     23774 3.89765E-14-9.97698E-13-6.74069E-01
 -1     23775 8.62518E-14-1.39840E-13-1.38893E+00
 -1     23776-4.27770E-14 6.33480E-14 8.95797E-01
 -1     23777 4.62119E-15 2.68570E-14 3.70420E-01
 -1     23778-5.59708E-14-1.28487E-13 8.24744E-01
 -1     23779 7.63690E-14-2.99991E-14-1.28971E-01
 -1     23780-3.28525E-14 1.19917E-13-1.85585E-01
 -1     23781 4.25614E-15 2.86332E-13-1.73975E+00
 -1     23782-7.10230E-14 3.56282E-13-1.19289E+00
 -1     23783-1.71543E-14 4.85378E-15-1.68843E+00
 -1     23784-6.83576E-14 5.27509E-14-1.53208E+00
 -1     23785 2.56437E-14 1.50436E-13-1.18789E+00
 -1     23786-2.48537E-13-6.04756E-13-1.09713E+00
 -1     23787-1.82601E-14-4.14811E-14-6.47089E-01
 -1     23788 1.73644E-13 5.28100E-13-9.77150E-01
 -1     23789 4.94135E-14-2.18208E-15-9.13830E-01
 -1     23790-1.31795E-13-3.73208E-14-5.54493E-01
 -1     23791-1.62036E-13 4.43698E-13-1.61983E+00
 -1     23792 8.68073E-13 1.52182E-13-1.57065E+00
 -1     23793 7.09303E-14 1.91040E-13-7.44379E-01
 -1     23794 4.46300E-13 1.49054E-12-1.08687E+00
 -1     23795-1.74332E-13 3.08575E-14-1.55121E+00
 -1     23796 3.87437E-14-1.28306E-13-1.90194E+00
 -1     23797 3.18420E-14 6.99651E-14-1.79081E+00
 -1     23798 3.78796E-14 2.97030E-13-1.10652E+00
 -1     23799 5.86385E-14 2.49132E-13-1.25978E+00
 -1     23800-8.88714E-14 9.21140E-14-6.77900E-01
 -1     23801-9.77248E-15 1.02718E-13-1.33818E+00
 -1     23802 4.98216E-14-9.40163E-14-1.33434E+00
 -1     23803-7.33886E-14 1.12861E-13 6.31123E-01
 -1     23804-1.20501E-14-4.98208E-14 7.20231E-01
 -1     23805-7.84799E-14 3.16259E-13-1.00365E+00
 -1     23806 6.39754E-14 8.15657E-13-1.92472E-01
 -1     23807-2.31829E-14-2.49691E-13-1.08209E-01
 -1     23808 7.29795E-14-7.21360E-14 2.50466E-01
 -1     23809 2.15839E-13-8.65804E-14-1.50297E-02
 -1     23810-3.78320E-14 3.81130E-13 6.23797E-01
 -1     23811-2.52874E-13 2.55874E-13-1.39991E+00
 -1     23812 2.41694E-14 1.55596E-13-1.39919E+00
 -1     23813-4.93257E-14 1.13061E-13-1.09311E+00
 -1     23814-6.33440E-14 4.10874E-13-5.36012E-01
 -1     23815-1.04153E-13-1.72179E-13 8.05173E-01
 -1     23816-5.22327E-13 1.24434E-13-4.25851E-01
 -1     23817 6.51812E-14-2.25100E-13-1.48018E+00
 -1     23818 7.59734E-14-4.34794E-15-1.49550E+00
 -1     23819 9.96345E-14 4.50740E-14-8.97413E-01
 -1     23820-1.90413E-14-1.74914E-13-1.03683E+00
 -1     23821 2.32446E-13-4.13977E-13 1.22746E+00
 -1     23822 2.40636E-13-2.84890E-13 1.36535E+00
 -1     23823 2.47157E-13-8.02550E-13 9.73595E-01
 -1     23824 3.34223E-13 1.21908E-12 1.09839E+00
 -1     23825-3.37067E-13 1.08748E-12 6.91228E-01
 -1     23826-1.04250E-13 1.30884E-12 3.69262E-01
 -1     23827 4.75298E-14 1.34000E-13 9.22136E-01
 -1     23828 2.75485E-14 3.13855E-13-8.46273E-01
 -1     23829-8.81973E-14-4.05241E-14-9.42314E-01
 -1     23830 1.05217E-13 1.10958E-13 5.28111E-01
 -1     23831-3.69556E-14 2.31129E-13 1.63714E-01
 -1     23832-7.14078E-14 1.55354E-14-3.37242E-01
 -1     23833 6.10109E-14-1.53635E-14-2.90628E-01
 -1     23834 3.58359E-14 3.01340E-13 4.19380E-01
 -1     23835-1.48166E-13 9.61483E-13-2.12673E-01
 -1     23836-3.34954E-13-4.71482E-14-5.69306E-02
 -1     23837 1.90250E-13-7.76632E-13-6.95437E-01
 -1     23838 1.88842E-13-2.41510E-13 7.10741E-02
 -1     23839 8.43179E-15 5.64736E-13 2.48291E-01
 -1     23840 5.28734E-14 2.40821E-13-2.29798E-01
 -1     23841-3.36560E-14-2.78116E-13-2.83682E-01
 -1     23842-2.24909E-14 2.18584E-13-6.52460E-01
 -1     23843-5.66614E-14-5.55523E-14-8.67433E-02
 -1     23844-5.52934E-14 4.58841E-13-8.41862E-01
 -1     23845 8.59976E-17 9.87147E-15 2.23012E+00
 -1     23846-2.15062E-14-7.81979E-14 4.21287E+00
 -1     23847-3.87141E-15 1.16738E-14 3.50494E+00
 -1     23848-3.75772E-14 6.59210E-14 3.86775E+00
 -1     23849 2.24954E-15 2.88745E-14 3.78095E+00
 -1     23850 3.59184E-14 1.13559E-13 5.04225E+00
 -1     23851-2.55656E-14-2.43601E-14 4.71052E+00
 -1     23852 1.29163E-14 1.43062E-13 5.60332E+00
 -1     23853 1.79678E-14-3.98311E-14 5.46237E+00
 -1     23854 7.64733E-14-1.23685E-13 6.33847E+00
 -1     23855 1.54049E-14 4.44221E-14 6.15048E+00
 -1     23856-8.60688E-15-3.70239E-14 7.11210E+00
 -1     23857-3.91931E-14-6.17950E-14 6.92532E+00
 -1     23858 2.24229E-13 1.55637E-13 7.78188E+00
 -1     23859-6.13246E-14 1.27272E-13 7.62721E+00
 -1     23860-4.34984E-14-2.25473E-13 8.33426E+00
 -1     23861 6.84085E-14 2.34780E-13 8.21413E+00
 -1     23862 1.98660E-13 2.42251E-13 8.71325E+00
 -1     23863 1.60890E-13-1.04639E-13 8.63658E+00
 -1     23864 1.17887E-13 3.10980E-13 8.86387E+00
 -1     23865 3.17100E-13-1.26607E-13 8.84203E+00
 -1     23866-1.12994E-13-1.06486E-13 8.84973E+00
 -1     23867 3.30601E-14-2.18097E-12 8.86411E+00
 -1     23868-2.33937E-14-9.19887E-13 8.73291E+00
 -1     23869 1.73661E-13 7.51439E-13 8.78497E+00
 -1     23870 1.69442E-13-3.85047E-13 8.42764E+00
 -1     23871-7.71368E-14 5.43101E-13 8.53203E+00
 -1     23872-3.56330E-13-1.26342E-12 7.80763E+00
 -1     23873 1.13414E-14 8.08046E-13 7.96096E+00
 -1     23874-2.92823E-13-3.13464E-13 6.94254E+00
 -1     23875 1.76115E-14 1.29115E-12 7.18906E+00
 -1     23876-1.17746E-13-5.38753E-13 3.51198E+00
 -1     23877-1.30113E-13 2.92374E-13 4.95869E+00
 -1     23878-8.87158E-13 1.88116E-12 3.18244E+00
 -1     23879 9.63512E-13 2.01379E-12 3.94652E+00
 -1     23880-1.57145E-13 2.55255E-13 3.51101E+00
 -1     23881 1.07187E-13 9.28844E-13 4.98009E+00
 -1     23882-4.49630E-13-5.27793E-13 4.88973E+00
 -1     23883-1.52289E-13 8.11358E-13 4.51921E+00
 -1     23884-1.84911E-13 7.70106E-14 4.81101E+00
 -1     23885 1.05634E-12-8.65398E-13 8.81595E-01
 -1     23886 4.58983E-13 1.37306E-12-3.25324E+00
 -1     23887-1.06919E-12 4.79323E-13-2.78457E+00
 -1     23888-4.71227E-13-2.55410E-13-4.60596E+00
 -1     23889 5.52187E-13-5.39954E-13-4.30269E+00
 -1     23890-7.35899E-14 8.57742E-13-5.50984E+00
 -1     23891-3.93856E-13-7.11532E-13-5.33160E+00
 -1     23892 5.99240E-13-1.22822E-13-5.95031E+00
 -1     23893 1.33292E-12-1.66239E-12-5.85966E+00
 -1     23894-3.32211E-14-4.71922E-14-6.43138E+00
 -1     23895 4.35621E-13 1.02822E-13-6.32809E+00
 -1     23896-4.14143E-13-1.62159E-13-6.78630E+00
 -1     23897 8.03612E-13-1.08540E-12-6.69722E+00
 -1     23898 1.40422E-12-2.92706E-13-6.98663E+00
 -1     23899-1.77301E-13-3.35839E-13-6.94243E+00
 -1     23900-1.08457E-13-3.87975E-13-7.15493E+00
 -1     23901-9.77158E-14 2.20662E-14-7.12152E+00
 -1     23902-1.69135E-13 7.70945E-14-7.29181E+00
 -1     23903-1.13859E-13 7.06814E-14-7.26905E+00
 -1     23904 8.03438E-16 3.18402E-14-7.49421E+00
 -1     23905-6.02900E-14 1.53434E-13-7.41833E+00
 -1     23906 7.44709E-14-2.34198E-14-8.00785E+00
 -1     23907 3.17651E-14 4.54823E-16-7.79150E+00
 -1     23908 9.78384E-16 2.90913E-15-1.04357E+01
 -1     23909 4.42321E-14-4.93487E-14-9.30246E+00
 -1     23910-8.52790E-15 8.57647E-15-1.61960E+01
 -1     23911 1.29063E-15-1.24831E-14-1.22446E+01
 -1     23912 6.14786E-15-3.64292E-15-1.02959E+01
 -1     23913-2.34188E-15-2.19443E-15-1.32928E+01
 -1     23914-2.99162E-15 8.95958E-17-6.49084E+00
 -1     23915-2.31109E-15 8.06213E-16-7.73257E+00
 -1     23916 1.77657E-15-1.31199E-15-2.85082E+00
 -1     23917 7.19260E-16-1.03997E-15-3.66590E+00
 -1     23918 1.52005E-16-3.74267E-16-9.59689E-02
 -1     23919 4.27514E-17 4.13271E-16-7.22253E-01
 -1     23920-1.83729E-15 2.35846E-15 2.00135E+00
 -1     23921-9.87031E-16-9.70930E-16 1.54173E+00
 -1     23922-7.71356E-16 3.97130E-15 3.41979E+00
 -1     23923-2.17946E-15-1.04257E-15 3.13611E+00
 -1     23924 3.73603E-15 3.43413E-15 4.17010E+00
 -1     23925-2.84516E-15-2.55294E-15 4.02218E+00
 -1     23926 2.65846E-15-7.36307E-15 4.58552E+00
 -1     23927 2.23489E-15 1.41924E-14 4.52187E+00
 -1     23928-4.94646E-15 7.04254E-15 4.38343E+00
 -1     23929-1.87784E-16-9.69548E-15 4.48400E+00
 -1     23930-4.86210E-15 1.33172E-14 4.19098E+00
 -1     23931 4.02762E-15-4.50079E-15 4.08594E+00
 -1     23932 9.11165E-16 2.62923E-15 3.46651E+00
 -1     23933-4.71136E-15-5.23682E-15 4.24824E+00
 -1     23934-1.72973E-13 6.02490E-13-1.23218E+00
 -1     23935-9.06379E-13 2.88303E-12 3.04410E+00
 -1     23936-1.90671E-15-1.59624E-14 2.67206E+00
 -1     23937 5.83599E-16-3.09598E-15 2.24128E+00
 -1     23938-5.09152E-15-1.38687E-14 3.84699E+00
 -1     23939-1.32910E-14-5.49608E-14 4.09426E+00
 -1     23940-1.52121E-14 2.16855E-13 4.34896E+00
 -1     23941 1.56307E-14-1.42805E-14 4.11251E+00
 -1     23942-8.94747E-14-1.01937E-13 5.31071E+00
 -1     23943 5.18419E-14 1.92321E-13 5.18619E+00
 -1     23944 2.84854E-15 1.21520E-13 5.94971E+00
 -1     23945 7.21977E-14-9.43625E-14 5.77783E+00
 -1     23946 1.62324E-15 9.75109E-14 6.73488E+00
 -1     23947 1.35780E-14-7.77889E-14 6.54221E+00
 -1     23948-1.22014E-14 2.83350E-13 7.45774E+00
 -1     23949 5.86983E-14 8.06935E-14 7.29618E+00
 -1     23950-1.94194E-13 1.73814E-13 8.07271E+00
 -1     23951 3.74280E-14 1.67148E-13 7.94203E+00
 -1     23952-3.12840E-14 3.98079E-13 8.54614E+00
 -1     23953 1.18456E-13 3.89591E-13 8.45724E+00
 -1     23954-1.75108E-13 2.50728E-13 8.81501E+00
 -1     23955-2.16696E-13-4.47364E-13 8.76909E+00
 -1     23956 5.05434E-13 2.03670E-12 8.86982E+00
 -1     23957-3.31680E-14-2.10295E-13 8.86661E+00
 -1     23958-8.41735E-14-2.15887E-13 8.80836E+00
 -1     23959 6.74841E-14 9.15624E-13 8.83474E+00
 -1     23960 1.07443E-13 6.76385E-13 8.61513E+00
 -1     23961 8.96563E-15 1.27227E-12 8.68581E+00
 -1     23962-1.91650E-13-3.02876E-13 8.15004E+00
 -1     23963-5.33349E-14-8.97379E-13 8.28396E+00
 -1     23964 3.92107E-13 1.81319E-12 7.43328E+00
 -1     23965-1.97327E-14 7.39268E-13 7.59184E+00
 -1     23966 3.35868E-14 4.15421E-13 5.82041E+00
 -1     23967-3.63492E-14-7.25411E-13 6.51732E+00
 -1     23968-5.68678E-13-1.85043E-12 3.89100E+00
 -1     23969-2.28039E-13-7.81394E-13 4.32352E+00
 -1     23970 9.23094E-14-9.80010E-15 4.04700E+00
 -1     23971-2.63512E-13-7.46082E-13 4.63497E+00
 -1     23972-4.04925E-14-1.23281E-12 4.13381E+00
 -1     23973 8.88244E-14 1.35930E-12 4.95991E+00
 -1     23974 2.03300E-13-8.00965E-13 5.00930E+00
 -1     23975-6.49112E-16-3.62601E-15 2.18927E+00
 -1     23976-6.36245E-14-1.75082E-12 3.90988E+00
 -1     23977-4.60638E-13 2.74812E-13-3.62207E+00
 -1     23978-1.63585E-13-4.35524E-13-2.00233E+00
 -1     23979-9.52702E-13 5.57712E-13-3.98139E+00
 -1     23980-1.55586E-13 7.38238E-14-5.29194E-01
 -1     23981-1.10804E-12-2.73717E-13-2.09392E+00
 -1     23982-3.35670E-12-5.78683E-13-3.01705E+00
 -1     23983-1.77053E-13-3.83533E-13-5.13290E+00
 -1     23984-1.92589E-13 1.19359E-13-4.90162E+00
 -1     23985-2.37796E-13-2.80037E-13-5.74520E+00
 -1     23986 2.06927E-12-1.10217E-13-5.63844E+00
 -1     23987-1.08935E-13-1.47864E-13-6.19195E+00
 -1     23988-8.14967E-13 8.66088E-13-6.08494E+00
 -1     23989-5.90332E-13 2.68610E-13-6.62031E+00
 -1     23990 2.82344E-13-1.73256E-13-6.53547E+00
 -1     23991 4.23405E-13 1.53076E-13-6.90081E+00
 -1     23992 1.60413E-13 4.32817E-13-6.84555E+00
 -1     23993 1.76839E-13 2.66128E-13-7.07267E+00
 -1     23994-3.65457E-13 2.45950E-14-7.02989E+00
 -1     23995 4.33352E-14-1.19074E-13-7.22626E+00
 -1     23996 2.20485E-14 1.85532E-13-7.19047E+00
 -1     23997-2.81925E-14 2.65492E-14-7.37300E+00
 -1     23998 8.98419E-14-8.63095E-15-7.32803E+00
 -1     23999-1.17343E-13-4.79018E-15-7.65276E+00
 -1     24000-2.14610E-13 4.75681E-14-7.57599E+00
 -1     24001-4.39726E-14 1.70137E-14-8.75798E+00
 -1     24002-1.38385E-13-8.58254E-15-8.30423E+00
 -1     24003-2.96529E-15 5.35223E-16-2.10006E+00
 -1     24004-1.46107E-15 3.55602E-16-2.43870E+00
 -1     24005 1.53610E-15 1.22190E-16-1.39692E+00
 -1     24006-6.55725E-16-3.09990E-15-9.19345E+00
 -1     24007-5.68035E-15 6.17562E-16-1.09334E+01
 -1     24008 1.40031E-14-1.33942E-15-4.50794E+00
 -1     24009 6.49302E-15 1.60343E-15-5.46941E+00
 -1     24010-9.48155E-16-9.82802E-16-1.08785E+00
 -1     24011 2.14568E-14-5.03070E-16-1.06476E+01
 -1     24012-5.06871E-16-2.37223E-16 1.03672E+00
 -1     24013 3.95136E-16 3.78061E-16 4.89496E-01
 -1     24014 1.09626E-15 5.55120E-15 2.80901E+00
 -1     24015 2.02847E-15-7.36878E-16 2.42823E+00
 -1     24016 4.89023E-15 4.62911E-15 3.85933E+00
 -1     24017 2.28496E-17-1.70037E-15 3.64628E+00
 -1     24018 1.41852E-14-7.25735E-15 4.42007E+00
 -1     24019-4.25420E-15-1.09908E-15 4.30851E+00
 -1     24020 2.53251E-15-6.36020E-16 4.57441E+00
 -1     24021 1.18937E-15 1.96622E-14 4.61969E+00
 -1     24022-2.28475E-15 7.72949E-15 4.15955E+00
 -1     24023 1.90068E-15-3.27397E-15 4.23220E+00
 -1     24024 8.15966E-15 1.60270E-14 4.37031E+00
 -1     24025 2.35627E-15 4.14686E-15 2.61409E+00
 -1     24026 1.79651E-12 1.06187E-12 2.22158E+00
 -1     24027 7.79075E-15-3.27190E-14 3.73443E+00
 -1     24028-1.43865E-13-6.51691E-14 5.13437E+00
 -1     24029-9.25810E-14-4.38232E-14 5.53022E+00
 -1     24030 8.18262E-14 2.27864E-13 6.17320E+00
 -1     24031-7.09095E-14-5.12790E-13 6.82140E+00
 -1     24032 2.70089E-13 3.40894E-13 7.38967E+00
 -1     24033-2.14608E-13-1.39879E-13 7.85619E+00
 -1     24034-1.34751E-13 1.51340E-13 8.15932E+00
 -1     24035-2.99408E-13 1.60914E-13 8.24291E+00
 -1     24036-8.84067E-14-1.03925E-12 8.18449E+00
 -1     24037-1.01239E-13 2.29824E-13 8.02550E+00
 -1     24038 6.04282E-14 3.83628E-13 7.65006E+00
 -1     24039-7.08327E-14 1.47550E-12 6.94283E+00
 -1     24040-9.63076E-13-2.56154E-12 6.09093E+00
 -1     24041-6.58800E-13 9.32762E-13 3.99413E+00
 -1     24042-6.09497E-13 9.27741E-13-3.78755E+00
 -1     24043-1.77666E-12-1.20611E-12-4.79981E+00
 -1     24044-4.91875E-13-1.20109E-12-5.30576E+00
 -1     24045 6.98324E-14-3.93704E-13-5.84402E+00
 -1     24046-1.95178E-14-3.23068E-14-6.20647E+00
 -1     24047 7.47119E-13-2.26946E-13-6.44309E+00
 -1     24048 5.35301E-14 4.05546E-14-6.65128E+00
 -1     24049-1.41346E-13 1.35119E-13-6.84270E+00
 -1     24050 5.60065E-14 1.01401E-13-7.09510E+00
 -1     24051-5.43604E-14-2.78545E-14-7.71787E+00
 -1     24052-6.24348E-15-3.08190E-15-5.70267E+00
 -1     24053 4.65177E-16 7.72006E-16 1.40880E-01
 -1     24054-3.87310E-15-3.18495E-15 2.14813E+00
 -1     24055 1.35699E-15-3.00172E-15 3.46066E+00
 -1     24056 7.90077E-15-2.12341E-15 4.13962E+00
 -1     24057 1.88250E-15-8.92342E-15 4.58005E+00
 -1     24058-1.61027E-15-2.46530E-14 4.27863E+00
 -1     24059-9.13242E-15 1.27381E-14 3.84299E+00
 -1     24060 5.12979E-14-1.50796E-13 4.89043E+00
 -1     24061-1.50962E-14-1.16000E-14 5.30570E+00
 -1     24062-3.83506E-15-1.89301E-13 5.83822E+00
 -1     24063-3.46364E-14-1.49450E-13 6.49558E+00
 -1     24064 6.08989E-14-7.70331E-14 7.12100E+00
 -1     24065-5.72786E-14 1.70270E-13 7.64498E+00
 -1     24066-4.99293E-14 3.03056E-15 8.03752E+00
 -1     24067-2.89997E-14 3.71485E-13 8.22799E+00
 -1     24068-2.80261E-13 2.45271E-13 8.22899E+00
 -1     24069-9.44981E-14-4.84108E-13 8.12671E+00
 -1     24070 1.38686E-13 3.64321E-13 7.87650E+00
 -1     24071 8.95856E-13 4.19109E-13 7.33876E+00
 -1     24072-1.58220E-13-4.17515E-13 6.58812E+00
 -1     24073 3.94557E-13-1.74707E-12 5.07517E+00
 -1     24074 1.09740E-13-2.67821E-13-6.75866E+00
 -1     24075 1.74571E-13 1.94350E-13-6.93720E+00
 -1     24076-8.02069E-14 8.92037E-14-7.30101E+00
 -1     24077-2.70478E-14 2.79006E-14-8.58810E+00
 -1     24078 9.01406E-16 9.32414E-17-3.98902E+00
 -1     24079-5.19167E-15-2.18751E-15 3.83775E+00
 -1     24080-1.86502E-15-6.65608E-15 4.40995E+00
 -1     24081-4.72903E-15-2.11798E-15 4.57837E+00
 -1     24082 2.13027E-14 1.21159E-14 4.07474E+00
 -1     24083-3.57961E-16 4.23819E-14 4.32054E+00
 -1     24084-2.04011E-13 9.53143E-14-6.54997E+00
 -1     24085-5.68615E-14 6.92403E-14 3.47248E+00
 -1     24086 3.38863E-13 3.05397E-13-6.32821E+00
 -1     24087-5.78741E-13 3.45971E-13-6.02375E+00
 -1     24088-2.42312E-13 6.84654E-13-5.58335E+00
 -1     24089-1.12126E-12 9.01752E-13-4.39981E+00
 -1     24090 4.73512E-13-7.88640E-13-5.03583E+00
 -1     24091-1.06867E-14-1.33108E-15-7.88171E+00
 -1     24092 2.45688E-15 2.96182E-15 2.90384E+00
 -1     24093 2.21589E-15-3.48007E-15 1.21445E+00
 -1     24094 7.28607E-13-4.88668E-14-6.03263E+00
 -1     24095 1.45936E-14 2.59565E-13-5.97295E+00
 -1     24096-1.39370E-14 3.34174E-13 5.45939E+00
 -1     24097-2.42162E-14 6.87627E-14 4.68709E+00
 -1     24098-1.65860E-13 6.41572E-14 5.24919E+00
 -1     24099 3.84737E-14 1.54096E-13 5.22785E+00
 -1     24100 3.67052E-14 1.24699E-13 5.68114E+00
 -1     24101 5.06501E-14 7.28342E-14 5.56460E+00
 -1     24102 1.45516E-13-1.14221E-13 6.24956E+00
 -1     24103-2.94244E-13 7.70635E-13 6.11847E+00
 -1     24104-7.84650E-14 2.26033E-13 6.75710E+00
 -1     24105-4.64891E-14 2.00578E-13 6.63763E+00
 -1     24106-1.27257E-13-2.41332E-13 7.19102E+00
 -1     24107-5.66213E-14-9.55162E-14 7.09498E+00
 -1     24108-1.89236E-14-2.16445E-13 7.50136E+00
 -1     24109 4.55726E-14 5.65475E-13 7.44224E+00
 -1     24110 1.91866E-13 1.53645E-13 7.63006E+00
 -1     24111 4.33606E-16 1.17943E-12 7.61054E+00
 -1     24112 3.65960E-13 8.86841E-13 7.58528E+00
 -1     24113-1.92283E-13-3.64809E-13 7.60138E+00
 -1     24114 3.38838E-14-1.42157E-13 7.43186E+00
 -1     24115 1.74440E-13 3.60658E-13 7.48623E+00
 -1     24116 1.80847E-13 8.77013E-13 7.12616E+00
 -1     24117 6.07662E-13-4.61008E-13 7.21945E+00
 -1     24118 2.07247E-13-3.77427E-14 6.51827E+00
 -1     24119 1.81262E-13 1.41039E-12 6.70703E+00
 -1     24120-6.89891E-13 3.89017E-12 5.82296E+00
 -1     24121 2.23826E-13 1.49766E-12 5.98618E+00
 -1     24122-7.43172E-13 3.73068E-13 4.46879E+00
 -1     24123-1.32623E-12 2.11489E-12 4.95005E+00
 -1     24124-1.54051E-14-1.31089E-12 2.75210E+00
 -1     24125 9.95645E-13-7.04223E-13 3.07746E+00
 -1     24126-5.98240E-13 5.01087E-13-6.28935E+00
 -1     24127-2.90186E-13 1.71789E-13-6.22364E+00
 -1     24128-3.99860E-13-1.23771E-12 4.14420E+00
 -1     24129-9.24404E-13 2.63780E-12-2.97897E+00
 -1     24130 7.19651E-13-2.25990E-12-2.57113E+00
 -1     24131 1.01060E-12 5.32234E-13 3.36300E+00
 -1     24132 2.29686E-13-1.94249E-12 3.60314E+00
 -1     24133 1.48411E-12-5.72520E-12 2.41812E+00
 -1     24134 1.96495E-13-2.25340E-13-5.77246E+00
 -1     24135 2.70691E-13 6.76888E-13-5.69439E+00
 -1     24136-6.30120E-13-5.99358E-13 7.70634E-01
 -1     24137 1.92214E-12 2.20958E-12-4.09459E+00
 -1     24138-2.20267E-12-1.20679E-12-3.89512E+00
 -1     24139 1.04597E-12 6.04258E-14-4.66288E+00
 -1     24140-1.42023E-12-1.23273E-12-4.54023E+00
 -1     24141-3.68039E-14-2.01228E-15-6.80309E+00
 -1     24142 2.45413E-14 1.37975E-14-7.70100E+00
 -1     24143 2.92591E-13-1.19693E-12-5.24834E+00
 -1     24144 1.12016E-14 2.39536E-13-5.11374E+00
 -1     24145-1.29000E-12-2.14005E-13-3.66540E+00
 -1     24146 1.09572E-12 2.31540E-12-3.37811E+00
 -1     24147-2.40697E-12-5.28660E-12-3.07124E+00
 -1     24148-6.17663E-13 2.86986E-13-5.63712E+00
 -1     24149-2.89699E-13 1.57828E-12-5.54278E+00
 -1     24150 1.82753E-13-1.01339E-13-5.05369E+00
 -1     24151 2.60920E-13-5.81135E-13-4.97032E+00
 -1     24152 3.93968E-14-3.37856E-13-4.82475E+00
 -1     24153 7.90735E-13-9.78583E-13-4.07365E+00
 -1     24154-1.27772E-13 5.95509E-13-4.39564E+00
 -1     24155-2.25839E-13 6.60954E-13-5.91254E+00
 -1     24156-7.06856E-13-3.47726E-13-5.84271E+00
 -1     24157 1.01742E-12 1.06146E-13-5.37057E+00
 -1     24158 1.02314E-12-1.15740E-12-5.44601E+00
 -1     24159 1.34015E-12-2.22142E-13-5.34410E+00
 -1     24160-3.02426E-14-4.94924E-13-4.65211E+00
 -1     24161 1.39680E-13-2.56828E-13-4.87026E+00
 -1     24162-6.26125E-14-1.29663E-13-6.15679E+00
 -1     24163-3.74355E-13 3.49269E-13-6.09887E+00
 -1     24164 1.33966E-13-1.81700E-13-5.66845E+00
 -1     24165 1.07143E-12 3.04464E-13 1.70752E+00
 -1     24166 9.01606E-13 1.43635E-12 2.29481E+00
 -1     24167-2.00592E-12-2.56506E-12 1.41598E+00
 -1     24168 1.21290E-12-6.14689E-13-2.07911E-01
 -1     24169-2.40254E-13 1.32865E-14-6.53516E+00
 -1     24170 3.59437E-13-3.25830E-13-6.44393E+00
 -1     24171-6.82852E-14-1.80010E-13-6.93504E+00
 -1     24172 7.94390E-14-1.45890E-13-6.79053E+00
 -1     24173-6.36429E-14-4.91994E-14-8.22764E+00
 -1     24174 1.17068E-13 2.07087E-14-7.74288E+00
 -1     24175-5.98263E-15 1.91307E-15-3.47080E+00
 -1     24176-1.96110E-15 5.87074E-15-4.22308E+00
 -1     24177 1.67054E-15 3.96731E-15-9.79102E+00
 -1     24178 8.78913E-14-2.29088E-14-8.98236E+00
 -1     24179-2.67876E-14-2.83053E-14-7.88336E+00
 -1     24180 6.26701E-14 2.08726E-14-8.81045E+00
 -1     24181-1.51884E-14 2.83828E-14 2.98615E+00
 -1     24182 7.79914E-17 3.05864E-15 2.66773E+00
 -1     24183-2.33205E-14-1.36621E-14 3.59455E-01
 -1     24184 5.25838E-17 2.57227E-17-1.90397E-01
 -1     24185-6.60436E-17-1.48514E-14 3.83663E+00
 -1     24186 5.62771E-15-9.61536E-15 3.66285E+00
 -1     24187 2.50834E-15-5.32578E-15-7.77923E-01
 -1     24188 4.35998E-15-3.83797E-15-1.41319E+00
 -1     24189-2.62315E-14 4.02271E-14-4.64108E-01
 -1     24190 1.71521E-16-4.23384E-15 3.49584E+00
 -1     24191-9.19958E-15-3.29177E-15 3.26653E+00
 -1     24192-1.15668E-15-4.49117E-16 3.16220E+00
 -1     24193-7.19157E-15-4.77049E-18 3.53990E+00
 -1     24194 8.86942E-15 2.79389E-14 4.42236E+00
 -1     24195 2.42227E-14-1.09201E-13 4.27794E+00
 -1     24196-6.05657E-15-4.68488E-14 4.49409E+00
 -1     24197-1.52377E-14 7.31213E-15 4.65878E+00
 -1     24198-5.05244E-15 1.84273E-14 3.96611E+00
 -1     24199 2.47034E-14-5.32450E-15 4.04388E+00
 -1     24200-1.06261E-14 3.16433E-14 3.63200E+00
 -1     24201-1.52447E-14-3.49673E-14 3.92204E+00
 -1     24202 1.71295E-14-1.00543E-14 4.16245E+00
 -1     24203-4.32678E-12-1.31442E-12-9.10418E-01
 -1     24204 2.61604E-16-1.05373E-14 2.90390E+00
 -1     24205 8.44216E-13 1.02292E-12 3.81781E+00
 -1     24206 4.46867E-13 2.46594E-12 4.00501E+00
 -1     24207 3.80807E-13 2.21528E-12 3.26981E+00
 -1     24208-1.60951E-13-5.63235E-14 3.78824E+00
 -1     24209-5.56196E-15-9.05385E-15 3.41684E+00
 -1     24210 5.46904E-14 4.50887E-14 3.42931E+00
 -1     24211 2.30567E-14-7.72310E-14 4.10626E+00
 -1     24212-8.58406E-15 2.20453E-14 2.28379E+00
 -1     24213-4.81418E-15-1.08637E-16 1.85814E+00
 -1     24214-1.59455E-14-9.61557E-15 2.47617E+00
 -1     24215-1.58201E-12 2.14866E-12-2.07558E+00
 -1     24216 1.81094E-12-3.14967E-12-1.52870E+00
 -1     24217-2.14259E-12 3.36432E-12-1.32604E+00
 -1     24218-1.98517E-13 3.03409E-13 7.37453E+00
 -1     24219 7.47224E-14-2.56451E-13 6.74634E+00
 -1     24220-9.36711E-14-4.91283E-14 7.30052E+00
 -1     24221-8.43807E-15-8.57388E-14 5.19241E+00
 -1     24222-6.37218E-14 3.76538E-13 5.37213E+00
 -1     24223-7.21927E-15-5.25584E-14 5.43476E+00
 -1     24224 2.17339E-13-1.87465E-13 5.33618E+00
 -1     24225-6.88272E-14 7.44273E-14 5.95977E+00
 -1     24226 1.95443E-14 4.86644E-14 5.81881E+00
 -1     24227 2.35152E-14-1.22528E-13 6.50933E+00
 -1     24228 4.17892E-14 2.38640E-14 6.37550E+00
 -1     24229-3.08345E-14-2.46627E-13 6.98224E+00
 -1     24230-8.43178E-14-2.28187E-13 6.87060E+00
 -1     24231-7.68917E-14 5.41525E-13 7.36537E+00
 -1     24232-1.59838E-13 2.69857E-13 7.28252E+00
 -1     24233 6.46591E-15-2.92675E-13 7.58959E+00
 -1     24234 3.16498E-14-2.88197E-13 7.55070E+00
 -1     24235 3.59651E-14-3.41871E-13 7.62014E+00
 -1     24236-5.86938E-14-1.76704E-12 7.62169E+00
 -1     24237 2.97545E-13 1.12008E-12 7.52772E+00
 -1     24238 3.39030E-14 8.26781E-13 7.55024E+00
 -1     24239 5.10739E-14 4.62635E-13 6.60287E+00
 -1     24240 1.17358E-13-2.63700E-13 5.56835E+00
 -1     24241-2.70579E-13 5.53269E-13 6.86762E+00
 -1     24242-4.32933E-13-2.76695E-12 7.01582E+00
 -1     24243-1.19711E-13 1.03842E-13 6.14825E+00
 -1     24244 1.22279E-15-1.41097E-13 6.30649E+00
 -1     24245 3.41762E-13-4.80331E-12 5.34385E+00
 -1     24246-1.46287E-12-1.25673E-12 5.66141E+00
 -1     24247 4.41959E-13-5.94495E-13 4.32608E+00
 -1     24248 2.82045E-12-9.76398E-13-2.24490E+00
 -1     24249-7.87824E-14 4.78502E-13 6.93002E+00
 -1     24250 3.00445E-13-2.26075E-12 7.03171E+00
 -1     24251-4.05069E-13-3.88145E-13-5.21790E+00
 -1     24252 4.53620E-14 1.54812E-12-4.25329E+00
 -1     24253-2.05570E-12 1.23661E-12-3.35880E+00
 -1     24254-2.15428E-13-2.09795E-12-4.35610E+00
 -1     24255 2.00205E-13-6.09428E-13 6.97774E+00
 -1     24256-4.47625E-13-3.04076E-12-3.72015E+00
 -1     24257-5.06186E-14-1.22566E-13-5.52414E+00
 -1     24258 3.54742E-14-4.52172E-13 6.73505E+00
 -1     24259 7.11361E-14-1.49216E-13 6.37539E+00
 -1     24260 3.16064E-14-1.29568E-13 5.96965E+00
 -1     24261 4.95606E-14-8.10388E-15 5.52580E+00
 -1     24262-2.16314E-14 1.98783E-15-7.55212E+00
 -1     24263 2.62857E-15-2.37771E-15-2.74597E+00
 -1     24264 1.51546E-14-1.16118E-16-2.99537E+00
 -1     24265 2.93356E-15-6.93306E-15-2.06195E+00
 -1     24266 2.09400E-14 9.77486E-15 4.53506E+00
 -1     24267-6.44305E-14-3.47665E-14 4.47722E+00
 -1     24268-1.22128E-14-4.68890E-14 4.61760E+00
 -1     24269 2.57520E-13 1.53356E-14-7.14046E+00
 -1     24270 9.21429E-14 2.21017E-14-6.49123E+00
 -1     24271 5.09936E-14-2.83237E-15-7.40503E+00
 -1     24272 1.96514E-13-3.52188E-13-6.39335E+00
 -1     24273 4.36944E-13 1.23688E-13-6.34686E+00
 -1     24274 2.09702E-13 4.69945E-14-6.68134E+00
 -1     24275-3.28659E-14-5.28933E-15-6.60934E+00
 -1     24276-6.72110E-14 7.19381E-14-6.87647E+00
 -1     24277-3.39623E-14-2.34026E-13-5.81939E+00
 -1     24278 3.01600E-14-3.66832E-15-5.04229E+00
 -1     24279 5.07721E-14 1.31861E-14-5.88444E+00
 -1     24280-4.71189E-15-5.94284E-15 8.99236E-01
 -1     24281 3.41617E-14-6.73521E-14 6.36589E-01
 -1     24282 2.51646E-15-4.98454E-14 1.38889E+00
 -1     24283-2.99987E-13 2.13583E-13 5.14443E+00
 -1     24284-3.03752E-14-2.27533E-14-1.68131E+00
 -1     24285 8.04380E-13-1.31793E-12 6.40306E+00
 -1     24286-7.37780E-14-1.10429E-13 4.12499E+00
 -1     24287 6.13867E-15 1.21244E-14 3.99126E+00
 -1     24288-2.10690E-15 6.33935E-14 4.71095E+00
 -1     24289-3.03913E-15-2.91702E-14 3.80043E+00
 -1     24290-2.83735E-14-2.85267E-14 4.17948E+00
 -1     24291-1.14252E-15 2.06788E-14 4.30459E+00
 -1     24292-1.69552E-15 5.80520E-15 3.78012E+00
 -1     24293 1.74270E-14 7.06059E-14 5.29600E+00
 -1     24294 1.00787E-12 2.63831E-13 5.08147E+00
 -1     24295-3.48666E-13 3.77438E-13-1.39615E-01
 -1     24296-9.92076E-14 1.27215E-12 6.85883E+00
 -1     24297-7.14438E-14 1.96787E-13 6.99585E+00
 -1     24298 3.14006E-13 1.73851E-14 7.03656E+00
 -1     24299 1.19447E-14-3.35761E-13 6.56316E+00
 -1     24300-4.93569E-14 1.12500E-13 6.17524E+00
 -1     24301-1.97981E-14 5.55733E-14 3.79734E+00
 -1     24302 6.99252E-14-1.73576E-14-5.85005E+00
 -1     24303-5.02184E-14-2.44569E-14 6.87934E+00
 -1     24304-5.96268E-14-9.77445E-14-6.09083E+00
 -1     24305-2.48985E-14 5.75110E-14 5.76122E+00
 -1     24306-3.41635E-13-1.45148E-13 5.02704E+00
 -1     24307-6.33100E-13-4.69960E-13 5.74236E+00
 -1     24308-1.75743E-13-8.55629E-15 5.15279E+00
 -1     24309 1.08932E-12-2.02545E-13 5.31610E+00
 -1     24310 3.27735E-13-4.84543E-13 6.11755E+00
 -1     24311-5.38495E-14-2.79249E-14-6.26285E+00
 -1     24312 3.04359E-14-5.12044E-14 4.77141E+00
 -1     24313 5.08952E-14-1.70453E-14-5.93830E+00
 -1     24314-5.98210E-14 7.00015E-15 1.61524E+00
 -1     24315-6.18744E-14 3.09485E-14-4.34710E+00
 -1     24316-4.07697E-14-3.10879E-15 4.15243E+00
 -1     24317 3.21150E-14-2.04196E-15-3.79784E+00
 -1     24318 8.49897E-14-2.88053E-14-4.44293E+00
 -1     24319 1.50886E-13 1.70377E-12 4.51194E+00
 -1     24320 1.03951E-13-2.60732E-14 4.63171E+00
 -1     24321-3.77601E-15 1.48033E-14-1.30919E+00
 -1     24322-1.51547E-15-7.32263E-16-1.91787E+00
 -1     24323 7.76324E-13 1.88558E-12 4.67612E+00
 -1     24324-1.47551E-12 1.00084E-12 4.79861E+00
 -1     24325 3.20598E-12-5.81708E-12 4.51484E+00
 -1     24326 2.31118E-13 1.12428E-12 4.44138E+00
 -1     24327 6.81708E-13-9.50016E-13 3.57341E+00
 -1     24328 1.65288E-12 1.56185E-12 4.00028E+00
 -1     24329-2.58604E-15 9.87330E-14 5.32159E+00
 -1     24330-2.85201E-14-3.06141E-14 5.23377E+00
 -1     24331 1.34409E-14 2.31302E-15 3.76424E+00
 -1     24332 4.39044E-14 1.84791E-14 3.65613E+00
 -1     24333 1.46971E-14 4.21899E-14 5.67149E+00
 -1     24334-8.55971E-14 7.65516E-13 5.57975E+00
 -1     24335 2.89190E-14 1.80323E-13 5.97455E+00
 -1     24336-6.65197E-14-1.67552E-13 5.89692E+00
 -1     24337 6.44460E-14 2.17692E-13-5.65523E+00
 -1     24338 1.82531E-13-5.02191E-13-5.57637E+00
 -1     24339 6.51977E-13 2.53643E-13-3.08732E+00
 -1     24340 1.36641E-13-3.52314E-13-2.90446E+00
 -1     24341 3.51805E-13 2.02472E-13-4.67929E+00
 -1     24342 6.57271E-14-9.89788E-14-4.58507E+00
 -1     24343-1.79639E-13-5.78321E-13 6.45041E+00
 -1     24344-2.57784E-13-1.46535E-13 6.45149E+00
 -1     24345 7.23605E-15 1.74872E-13 6.36334E+00
 -1     24346 2.25490E-14 1.72130E-12 6.39771E+00
 -1     24347-1.73508E-13 1.66820E-12 5.88633E+00
 -1     24348-1.69400E-14 4.04971E-13 5.98034E+00
 -1     24349 3.66217E-14-1.98195E-13 4.99724E+00
 -1     24350-4.07702E-14-1.23438E-13 5.04557E+00
 -1     24351 3.60429E-13-4.88248E-13 5.32783E+00
 -1     24352-5.81969E-14 2.26421E-12 5.50995E+00
 -1     24353-2.77093E-13-6.09323E-13 4.90021E+00
 -1     24354-3.88179E-14 7.34361E-13 5.14642E+00
 -1     24355 1.29547E-13 2.36667E-13 4.13733E+00
 -1     24356 2.48536E-12-2.31903E-12 6.84148E-01
 -1     24357 6.29438E-13 6.51724E-12 3.97442E+00
 -1     24358-5.58049E-14-6.29604E-14 5.13023E+00
 -1     24359-5.54700E-15-8.82920E-15 5.06082E+00
 -1     24360 2.72956E-13 5.35158E-13 4.96858E+00
 -1     24361 3.80810E-13-1.28176E-13-5.01903E+00
 -1     24362-3.79970E-13-2.22228E-13-4.94037E+00
 -1     24363 7.81112E-14-9.49200E-14 1.84729E+00
 -1     24364 1.80096E-14 6.95083E-14 1.37710E+00
 -1     24365-8.99748E-14-1.69800E-13 6.43496E+00
 -1     24366-6.33424E-14 3.16821E-13 6.40510E+00
 -1     24367-2.68430E-13 1.67973E-12 5.90618E+00
 -1     24368-2.07903E-13-1.44747E-12 5.66665E+00
 -1     24369 4.23690E-13 1.34861E-12 5.79096E+00
 -1     24370 1.05879E-12-3.33959E-12 4.92894E+00
 -1     24371-1.01596E-12 1.98218E-13-2.68822E+00
 -1     24372 3.43851E-13-2.99209E-12-2.60938E+00
 -1     24373 1.09953E-12-7.64890E-13-2.09961E+00
 -1     24374-3.40365E-13-5.41449E-13-4.49655E+00
 -1     24375 1.04827E-12-4.87420E-13-4.39440E+00
 -1     24376 5.87854E-13 7.26101E-13-3.95447E+00
 -1     24377 8.80024E-14-2.63638E-13-5.35889E+00
 -1     24378-2.81501E-13-8.03478E-14-5.26827E+00
 -1     24379 7.73303E-14 1.11145E-14 5.50821E+00
 -1     24380 2.84825E-13 7.29466E-14 5.42615E+00
 -1     24381 1.24200E-13 3.38005E-13 5.24024E+00
 -1     24382 6.16868E-15-7.70425E-14-6.51989E+00
 -1     24383 8.22174E-14 4.08690E-14-6.22425E+00
 -1     24384-1.04506E-14-8.75904E-14 8.99370E-01
 -1     24385 2.82957E-14 8.39964E-15 3.78823E-01
 -1     24386 1.22338E-14-1.25726E-14 1.17507E+00
 -1     24387 9.29118E-15-2.22325E-14-7.15683E+00
 -1     24388-2.74277E-14-4.56065E-14-6.83506E+00
 -1     24389 1.03350E-13-2.02421E-15-5.92520E+00
 -1     24390-1.27022E-13-3.21310E-14-6.50126E+00
 -1     24391 1.91643E-14-8.39530E-14 4.61951E+00
 -1     24392-1.02458E-13 4.10944E-14 4.40154E+00
 -1     24393-2.38070E-13 1.51337E-13 6.26097E+00
 -1     24394-1.74517E-13-8.45174E-14 6.19205E+00
 -1     24395-5.02755E-13 7.63448E-13-5.49204E+00
 -1     24396-3.65711E-13-3.28025E-13-5.42667E+00
 -1     24397-6.65206E-13-1.43520E-13-5.03506E+00
 -1     24398 7.17250E-14-3.23709E-13 4.98905E+00
 -1     24399-2.94808E-14 1.86936E-13 4.97224E+00
 -1     24400-2.89224E-14 1.04106E-13 4.79562E+00
 -1     24401 6.09082E-14 2.12402E-13 4.82424E+00
 -1     24402 5.76209E-14 2.91458E-14-6.07360E+00
 -1     24403-1.92590E-13-5.39290E-14-5.88168E+00
 -1     24404 1.84606E-13 7.59809E-14-5.48893E+00
 -1     24405-1.52504E-14-1.47266E-13 5.28790E+00
 -1     24406-6.09080E-14 8.02875E-14 5.46798E+00
 -1     24407 7.52420E-14 3.60037E-14 4.92751E+00
 -1     24408 4.15417E-13 9.89221E-13 2.41285E+00
 -1     24409 5.00505E-13 2.43102E-12 3.21868E+00
 -1     24410 2.57194E-14 8.83682E-13 6.17999E+00
 -1     24411 3.27364E-14 1.23100E-12 6.23773E+00
 -1     24412-1.73045E-12-2.02374E-13-1.51374E+00
 -1     24413-2.88389E-12 6.66713E-12-1.04358E+00
 -1     24414-4.67547E-13 5.51704E-13 6.05654E+00
 -1     24415-4.68798E-14 3.04960E-13 6.12138E+00
 -1     24416 3.24881E-14 4.13662E-14 5.50999E+00
 -1     24417-4.78692E-15-2.90494E-13 5.38127E+00
 -1     24418-6.99037E-15-3.98052E-14-1.54631E-01
 -1     24419 2.40151E-15 1.15745E-14-7.19796E-01
 -1     24420 2.93305E-15 2.43932E-14-9.26912E-01
 -1     24421-3.80183E-14-2.99003E-14 1.68036E-01
 -1     24422-8.85178E-15 3.24819E-14-2.54654E+00
 -1     24423-2.80908E-14-6.91869E-14-3.16230E+00
 -1     24424 2.05226E-14 6.39421E-14-3.32445E+00
 -1     24425-1.96639E-14-2.98315E-14-2.10354E+00
 -1     24426-7.36309E-13 1.62490E-12-2.40564E+00
 -1     24427 1.99048E-12 9.17685E-13-2.00463E+00
 -1     24428 1.77256E-12-1.13475E-12-7.24117E-01
 -1     24429-1.65814E-13-2.86616E-12-1.62137E+00
 -1     24430-4.13524E-13 4.75935E-13-5.18538E+00
 -1     24431 2.26008E-13-3.25772E-13-5.10118E+00
 -1     24432 3.45721E-13-3.51601E-13-4.71765E+00
 -1     24433 4.91695E-13-4.74141E-13-4.84929E+00
 -1     24434-1.12537E-12 3.30363E-13-4.76425E+00
 -1     24435-9.60589E-13-3.74622E-13-4.13847E+00
 -1     24436 3.28620E-13 3.08617E-13-4.33854E+00
 -1     24437-1.37600E-13-1.25788E-12 6.36687E+00
 -1     24438 1.03300E-13 2.38816E-13 6.31812E+00
 -1     24439 4.47658E-13 1.10720E-12 5.86247E+00
 -1     24440 4.44914E-14-2.23884E-14-5.08678E+00
 -1     24441 2.72228E-14 1.54367E-14-5.77093E+00
 -1     24442 4.10596E-14-2.95046E-14-5.55478E+00
 -1     24443-1.47892E-14-9.38170E-14-4.41809E+00
 -1     24444-3.60050E-13-2.42949E-12 2.70686E-02
 -1     24445 4.09226E-12 1.66030E-12 1.22600E+00
 -1     24446-1.78321E-12 2.57739E-12-3.27804E+00
 -1     24447 5.07799E-13 1.21691E-12-2.53057E+00
 -1     24448 1.10447E-13 3.91942E-13-3.47497E+00
 -1     24449-2.49616E-15 6.51373E-13 5.78824E+00
 -1     24450-3.15076E-14 1.09191E-13 3.98802E+00
 -1     24451-2.40056E-14-8.92973E-14 3.83315E+00
 -1     24452-7.49154E-14-1.47859E-14 4.21333E+00
 -1     24453 1.48852E-14-1.88563E-13 5.11936E+00
 -1     24454 5.44823E-15 8.07571E-16 5.32509E+00
 -1     24455 2.03221E-13-1.01070E-13 5.82043E+00
 -1     24456 1.97941E-14 1.29437E-13 5.74602E+00
 -1     24457-9.81694E-14 2.54425E-13 6.13002E+00
 -1     24458 1.92840E-13-1.86676E-13 6.04942E+00
 -1     24459-6.07015E-13 2.71127E-12 5.18094E+00
 -1     24460 3.71386E-13-2.18135E-13 6.43383E+00
 -1     24461-5.15520E-13 2.25425E-12 6.44867E+00
 -1     24462-2.52790E-13-3.24022E-12 3.15560E+00
 -1     24463-6.14008E-14-9.21449E-14-5.74624E+00
 -1     24464 8.60037E-14 4.32060E-13-5.21327E+00
 -1     24465 2.15905E-13 7.12718E-14-5.81335E+00
 -1     24466-1.27839E-13 1.30392E-13 5.56279E+00
 -1     24467 6.45845E-13-8.82741E-13-4.53117E+00
 -1     24468 2.33950E-13-4.22581E-14 4.61351E+00
 -1     24469 3.26696E-14-1.09450E-14 2.27736E+00
 -1     24470-7.04580E-15-3.57194E-14 2.09879E+00
 -1     24471-1.12867E-14-8.75488E-15 2.69073E+00
 -1     24472 2.57396E-14 2.62329E-13 5.34593E+00
 -1     24473 8.32356E-14 9.41679E-14 6.28058E+00
 -1     24474-2.24486E-13-7.36919E-13 6.32323E+00
 -1     24475 7.69249E-13 1.96501E-13-4.89033E+00
 -1     24476-1.62326E-13-1.44631E-13-4.29332E+00
 -1     24477 7.40716E-13-4.46388E-13-4.18483E+00
 -1     24478-1.55731E-12 1.04078E-12-3.73931E+00
 -1     24479 3.14965E-13 1.09627E-13 5.11952E+00
 -1     24480 2.02393E-12-4.72582E-13-5.18851E-01
 -1     24481-5.28094E-13-6.29218E-13-5.35168E+00
 -1     24482 2.33205E-14 1.86993E-14 4.63569E+00
 -1     24483 1.32699E-14 3.28088E-12 1.84441E-01
 -1     24484 7.32394E-13 2.46747E-12 5.69063E+00
 -1     24485-1.18799E-12-4.83614E-12 1.84767E+00
 -1     24486 1.63964E-15-9.44404E-14 3.56682E+00
 -1     24487 1.32767E-14-3.19511E-14 3.41710E+00
 -1     24488-4.09978E-14-9.61879E-14 3.35487E+00
 -1     24489 2.27701E-13-3.22009E-13-4.06751E+00
 -1     24490-1.59259E-12-7.21440E-13-3.93605E+00
 -1     24491 3.30658E-13 2.96347E-13-3.50046E+00
 -1     24492 7.54750E-15 5.41953E-14 4.77569E+00
 -1     24493 1.16679E-12 4.93465E-12 1.40878E+00
 -1     24494-7.32214E-14-1.34900E-13 5.62254E+00
 -1     24495-5.74869E-14-9.75241E-13 5.89304E+00
 -1     24496-1.44034E-13 1.83640E-12 5.72714E+00
 -1     24497 1.31934E-13 1.10271E-12 5.44899E+00
 -1     24498-8.25167E-14-9.08841E-15 4.32116E+00
 -1     24499 4.10346E-13 1.43842E-13 5.82438E+00
 -1     24500 8.86140E-15-1.22168E-15 3.06354E+00
 -1     24501 3.83504E-15 1.96687E-13 2.95832E+00
 -1     24502 3.32462E-14 5.26992E-14 3.27712E+00
 -1     24503-6.23439E-14 2.12781E-14 4.77336E+00
 -1     24504-1.04726E-14 6.17221E-13 5.21120E+00
 -1     24505-1.31057E-14-2.85261E-12 5.25732E+00
 -1     24506 1.27493E-12-5.12717E-12 9.31338E-01
 -1     24507-2.45969E-12-5.20365E-13 1.84388E+00
 -1     24508 1.70401E-12-3.61541E-12 5.45506E-01
 -1     24509-7.65299E-13 2.09881E-13-3.22848E+00
 -1     24510 1.64147E-12 1.25257E-12-3.80282E+00
 -1     24511 6.74642E-13-7.21341E-13 5.04309E+00
 -1     24512-2.99081E-13-3.45124E-13 5.01313E+00
 -1     24513 6.54694E-15-3.73015E-14 4.46114E+00
 -1     24514 4.22758E-15 2.23785E-14 4.20297E+00
 -1     24515-3.44887E-13 1.47071E-13-4.04935E+00
 -1     24516 7.08246E-13 4.33699E-13-3.94504E+00
 -1     24517-3.02002E-13-1.36261E-13 4.89810E+00
 -1     24518-4.96458E-14 1.02935E-13 4.83395E+00
 -1     24519 4.52539E-14-3.03497E-12 4.46716E+00
 -1     24520 1.81636E-13 1.15169E-12 4.57521E+00
 -1     24521 9.98582E-13-1.19046E-13 2.70374E+00
 -1     24522-3.67690E-13 3.21027E-13 5.35160E+00
 -1     24523-4.17539E-13 3.88978E-13 5.36025E+00
 -1     24524-1.37545E-13-2.00226E-13 4.76390E+00
 -1     24525-6.38939E-14 1.46693E-13 4.70855E+00
 -1     24526-9.14825E-14 3.70800E-13 4.63575E+00
 -1     24527-2.32746E-13 2.33340E-13 5.30725E+00
 -1     24528-3.28633E-14 1.06843E-12 5.26545E+00
 -1     24529-8.57225E-14-4.15277E-14-4.72159E+00
 -1     24530 9.14905E-14-9.34907E-14-4.68782E+00
 -1     24531-1.34561E-12-9.56074E-13 3.84226E+00
 -1     24532 1.23542E-12 8.04912E-13 4.07699E+00
 -1     24533 1.71845E-14 6.16770E-14-5.26994E+00
 -1     24534-7.89623E-14-4.53549E-15-5.09109E+00
 -1     24535 4.73872E-15 2.90768E-14-4.78491E+00
 -1     24536-2.05567E-13 8.05761E-13 5.30768E+00
 -1     24537-9.95533E-14 1.13230E-12 5.33566E+00
 -1     24538-1.26426E-14-8.80362E-14 4.81557E+00
 -1     24539-5.04014E-13 8.24401E-13 4.71876E+00
 -1     24540 7.77606E-13 1.57467E-12 4.21618E+00
 -1     24541 2.43100E-13-2.77364E-12 4.33884E+00
 -1     24542 4.83807E-13 1.09592E-12 3.47923E+00
 -1     24543 1.03026E-13-5.25993E-13-1.55352E+00
 -1     24544-3.12832E-13 6.78702E-13-1.27194E+00
 -1     24545-1.69146E-13-3.84219E-13-3.42571E+00
 -1     24546 2.00261E-13 1.46659E-12-3.30221E+00
 -1     24547-9.04102E-13-6.53809E-13-4.44232E+00
 -1     24548 5.66878E-14-4.72116E-13-4.34451E+00
 -1     24549 3.22037E-13 7.18126E-13-3.64317E+00
 -1     24550 2.55180E-14-4.52606E-14 3.93945E+00
 -1     24551 2.46187E-15-1.07172E-14 3.52042E+00
 -1     24552-1.39947E-14 4.66400E-14 4.09069E+00
 -1     24553-3.56681E-14-1.97052E-13 4.70686E+00
 -1     24554-1.69524E-13-1.20565E-13-4.24903E+00
 -1     24555 4.79624E-13 7.26050E-14-4.14812E+00
 -1     24556 2.81471E-13-3.38148E-13-3.79660E+00
 -1     24557 1.46067E-14 7.79760E-14-4.60086E+00
 -1     24558 1.00683E-13-8.93655E-14-4.51416E+00
 -1     24559-1.27341E-13 4.60441E-13-4.13834E+00
 -1     24560 6.43681E-14 2.16757E-14 1.46509E+00
 -1     24561-1.85545E-14-6.71999E-14 9.84219E-01
 -1     24562-8.75474E-14-8.56756E-15 5.22139E+00
 -1     24563 3.58493E-13-9.40961E-13 5.17945E+00
 -1     24564-7.70378E-14-4.44902E-13 4.75526E+00
 -1     24565-2.82473E-14 2.07557E-13 4.98733E+00
 -1     24566 2.16397E-13 6.81874E-13 4.96207E+00
 -1     24567 1.72253E-13 1.78113E-15 4.59682E+00
 -1     24568-5.23655E-15-1.12170E-12 4.95600E+00
 -1     24569 1.43546E-13 4.38536E-13 5.03679E+00
 -1     24570-3.40353E-14 7.60239E-14-4.94798E+00
 -1     24571 2.77148E-14 1.28833E-13-4.80947E+00
 -1     24572-6.57981E-14-5.12325E-14-4.24594E+00
 -1     24573 8.04820E-14 7.87324E-13 5.09183E+00
 -1     24574-5.70125E-14 2.47812E-12 5.14258E+00
 -1     24575 2.69049E-13-2.15124E-12 4.57221E+00
 -1     24576-1.77222E-13-1.09615E-12 4.43270E+00
 -1     24577 3.03029E-13-4.90101E-13 5.34599E+00
 -1     24578-2.12495E-13 2.86473E-13 5.33642E+00
 -1     24579-3.98682E-13-9.53540E-13 4.83427E+00
 -1     24580-5.69888E-13-1.22543E-12-2.65693E+00
 -1     24581 2.84141E-12 2.03481E-12-2.51355E+00
 -1     24582 4.07936E-15-6.39710E-14 4.61816E+00
 -1     24583 1.51538E-13 5.28078E-13-2.93112E+00
 -1     24584-3.91926E-14 2.76396E-13-2.36962E+00
 -1     24585 1.29672E-12-8.32802E-13-2.15853E+00
 -1     24586-2.49778E-13-6.72792E-13-1.77670E+00
 -1     24587 1.68948E-12-5.46417E-13 1.82007E-01
 -1     24588 5.58044E-13 3.25015E-14 5.09398E+00
 -1     24589-2.31816E-13 1.49612E-13 4.62547E+00
 -1     24590 3.40659E-14 2.02711E-13 5.12971E+00
 -1     24591 1.05731E-15-8.18683E-13 2.72451E+00
 -1     24592-1.91471E-14 4.88417E-13 2.84267E+00
 -1     24593-2.51686E-14-6.01585E-14 4.60069E+00
 -1     24594-2.46596E-13-4.04295E-13 4.80336E+00
 -1     24595-2.55968E-13 4.02246E-12 1.97802E+00
 -1     24596 2.37393E-12 1.46884E-12 3.13780E+00
 -1     24597-1.20544E-15-3.73111E-15 3.66466E+00
 -1     24598-1.48347E-14 1.56217E-14 3.45466E+00
 -1     24599-8.42181E-14 1.19098E-13 2.84931E+00
 -1     24600 2.24432E-14-2.57891E-14-5.54741E-01
 -1     24601 2.52987E-14-1.25727E-14-1.10711E+00
 -1     24602 1.61855E-12-4.32320E-12 2.98912E+00
 -1     24603-1.17606E-12-4.45652E-13-3.52281E+00
 -1     24604 7.92198E-13-1.60783E-12-2.88404E+00
 -1     24605 1.26877E-14-1.85116E-13-3.62375E+00
 -1     24606-2.30524E-14-1.09342E-12-1.75800E+00
 -1     24607-3.78530E-13-9.12469E-13-1.01755E+00
 -1     24608-4.15892E-13 1.65746E-12-1.95838E+00
 -1     24609 3.41415E-13-1.05593E-14-3.98604E+00
 -1     24610-1.24570E-12 1.64473E-12-3.19058E+00
 -1     24611 5.24351E-13 5.15934E-15-3.07229E+00
 -1     24612 1.33343E-12-2.53946E-13-2.67371E+00
 -1     24613 1.30380E-13 1.31771E-12 3.71612E+00
 -1     24614-9.06642E-15 2.76407E-15-2.88520E+00
 -1     24615-7.18379E-14 1.01637E-13-3.34898E+00
 -1     24616 1.71283E-14 7.28380E-14-1.68407E+00
 -1     24617 6.27909E-14-1.00968E-13-2.26836E+00
 -1     24618 4.42872E-14-2.66551E-14-2.40673E+00
 -1     24619 4.33155E-15-1.29305E-14-1.24952E+00
 -1     24620 9.45343E-15-2.85707E-13-4.80478E+00
 -1     24621 1.25674E-13-2.13709E-14-4.78731E+00
 -1     24622 9.74041E-14 2.37869E-13 3.15425E+00
 -1     24623 3.62041E-14-2.58517E-15 3.26074E+00
 -1     24624 3.84810E-14 6.32236E-15 3.25647E+00
 -1     24625-2.38089E-12 3.22589E-13-2.94653E+00
 -1     24626 4.59941E-13-2.03678E-13-2.79913E+00
 -1     24627 8.19244E-13 1.46639E-12-2.38823E+00
 -1     24628 1.58734E-12 5.46377E-12-1.02697E+00
 -1     24629-1.34401E-12 1.27349E-13-6.48832E-01
 -1     24630-4.80301E-13 2.98720E-13-6.08902E-01
 -1     24631-7.10060E-15 3.84436E-15 4.62944E+00
 -1     24632-7.90331E-14-3.62267E-14 4.59413E+00
 -1     24633-4.97602E-14 1.14954E-13 4.32903E+00
 -1     24634 6.57626E-14 6.33346E-14 4.43282E+00
 -1     24635-8.07031E-14-2.12289E-13 4.93780E-01
 -1     24636 2.54131E-14 7.51921E-14-2.22039E-02
 -1     24637 2.35144E-14-1.29564E-13-1.74165E-01
 -1     24638-1.30987E-14-7.23374E-15 8.25073E-01
 -1     24639 4.69582E-13 4.09778E-13-3.59030E+00
 -1     24640 1.01814E-12 2.77880E-12 4.67656E+00
 -1     24641 2.36774E-13 4.86112E-13 4.77435E+00
 -1     24642-4.12845E-15-1.34152E-12 4.00420E+00
 -1     24643-3.09068E-14 3.62838E-14 1.92166E+00
 -1     24644 5.91998E-14-1.11757E-14 1.75981E+00
 -1     24645 3.30935E-14 7.34223E-14 2.40540E+00
 -1     24646 1.37902E-13 1.54983E-15 4.69403E+00
 -1     24647 2.62269E-14-9.07931E-14 4.94789E+00
 -1     24648-3.95678E-14-8.20699E-14 4.92106E+00
 -1     24649 8.14660E-13-8.52028E-13 4.83593E+00
 -1     24650-5.12418E-13-6.61594E-13 4.90298E+00
 -1     24651 2.06757E-13 1.54826E-12 4.30237E+00
 -1     24652-4.72502E-13 1.22630E-12 4.17400E+00
 -1     24653-1.95101E-13 8.53401E-13 3.21582E+00
 -1     24654-2.85340E-13 1.15094E-12 3.62687E+00
 -1     24655 1.23154E-13-5.06335E-13-3.83500E+00
 -1     24656-6.35178E-13-8.53202E-13-3.72884E+00
 -1     24657 5.71128E-13 4.60978E-13-3.35504E+00
 -1     24658-7.15865E-14 4.27911E-14-4.33300E+00
 -1     24659-1.84983E-14 2.18489E-14 2.72141E+00
 -1     24660 6.51033E-14 1.78446E-14-3.78684E+00
 -1     24661-1.75519E-14 1.40760E-14-4.31383E+00
 -1     24662 2.16784E-14-3.96272E-14-3.95014E+00
 -1     24663-2.49050E-14 8.04668E-14-3.56758E+00
 -1     24664 5.80427E-13-7.40216E-14 4.64818E+00
 -1     24665 3.40603E-13 1.49894E-12 3.22222E+00
 -1     24666-4.14120E-13-3.01332E-13-2.09693E+00
 -1     24667 2.39158E-14-2.94515E-14-4.26201E+00
 -1     24668 2.78711E-13 3.68058E-13 4.61586E+00
 -1     24669-5.38845E-14-2.84263E-13 2.39881E+00
 -1     24670-3.03198E-13 1.07276E-13-3.55263E+00
 -1     24671 1.29116E-13 3.76104E-13-3.44232E+00
 -1     24672 4.44456E-13 4.79886E-13 2.59542E+00
 -1     24673 2.85038E-13 3.14259E-12 2.72865E+00
 -1     24674-1.90257E-13 2.48237E-13 2.17035E+00
 -1     24675-1.37188E-14 6.23678E-14 4.24830E+00
 -1     24676 1.33091E-13 3.93192E-14 4.31250E+00
 -1     24677 2.20013E-12-2.24333E-12 9.44310E-01
 -1     24678 1.81142E-12-8.34115E-13 1.47422E+00
 -1     24679-1.30629E-14 5.80447E-14-3.70477E+00
 -1     24680-4.47522E-14 1.19927E-13-3.92774E+00
 -1     24681 5.98876E-14-4.65072E-13 4.30451E+00
 -1     24682 2.58893E-13 1.13676E-13 4.29341E+00
 -1     24683-3.13649E-14 1.41420E-13 2.06840E+00
 -1     24684 2.90526E-14-2.36564E-13 1.61079E+00
 -1     24685 1.19947E-16-7.86196E-14 3.74512E+00
 -1     24686-1.41338E-14 2.08115E-13 3.96094E+00
 -1     24687-3.05187E-14 5.32200E-15 3.95202E+00
 -1     24688-1.83525E-14 1.81915E-13 3.51628E+00
 -1     24689-1.27716E-12-2.41807E-15-1.54643E+00
 -1     24690 6.94897E-13 5.05265E-13-1.36036E+00
 -1     24691-2.21177E-14-6.26258E-14 4.46651E+00
 -1     24692 1.18155E-13 2.26151E-15 4.36211E+00
 -1     24693 5.52844E-14 4.24286E-13 4.18655E+00
 -1     24694 1.31465E-13-8.19880E-13 4.18640E+00
 -1     24695 1.77971E-13-7.29670E-13-3.12237E+00
 -1     24696-1.29614E-13-5.35761E-14-2.99987E+00
 -1     24697-1.14034E-13 1.69889E-12 3.00145E+00
 -1     24698 7.48641E-13-1.58513E-12 3.09213E+00
 -1     24699 3.40892E-14 1.53712E-14 4.11702E+00
 -1     24700-3.02017E-14-1.05769E-13-3.84663E+00
 -1     24701 1.44085E-14 1.00291E-13-3.78104E+00
 -1     24702 1.46185E-13 2.31751E-13-3.43823E+00
 -1     24703-4.13132E-14-2.16530E-13 4.28738E+00
 -1     24704 1.12391E-13-8.66601E-13 4.25176E+00
 -1     24705 1.98747E-13 1.94708E-13 3.77349E+00
 -1     24706 3.70648E-14 6.14011E-13-3.34694E+00
 -1     24707 1.47034E-13 8.02707E-13-3.23126E+00
 -1     24708-8.51716E-14-4.86496E-13-2.91058E+00
 -1     24709-2.86411E-14 2.96279E-14-3.58416E+00
 -1     24710-3.80221E-14 4.86963E-14-3.50730E+00
 -1     24711-1.29149E-14 4.39385E-14-3.30053E+00
 -1     24712-4.80240E-14-3.87928E-14-3.41052E+00
 -1     24713-1.98748E-13 1.52382E-12 2.82105E+00
 -1     24714-1.69447E-12 6.96789E-13 2.87610E+00
 -1     24715 2.25361E-13-9.04582E-13 2.14965E+00
 -1     24716 3.10495E-14-5.31053E-14 4.36353E+00
 -1     24717 3.33903E-14 1.03949E-13 4.41697E+00
 -1     24718 7.61707E-14 1.68638E-14 4.22238E+00
 -1     24719-2.56940E-14-9.06436E-15 4.02970E+00
 -1     24720-5.07879E-14-6.26818E-14-3.71752E+00
 -1     24721 1.57874E-13 1.32063E-13-3.62703E+00
 -1     24722-6.46393E-14-1.43739E-13-3.09586E+00
 -1     24723-7.89814E-15 1.44537E-13-3.26194E+00
 -1     24724 1.33539E-13 1.33223E-13 4.19035E+00
 -1     24725 4.75223E-14-1.97089E-13 4.20206E+00
 -1     24726 5.54987E-15 6.76279E-13 3.72392E+00
 -1     24727 9.41500E-14 1.40581E-13 4.23643E+00
 -1     24728 4.19904E-14 2.36680E-14 4.22194E+00
 -1     24729-1.43944E-14-7.70083E-14 3.75544E+00
 -1     24730-5.20785E-14-5.88917E-14 3.80982E+00
 -1     24731-2.33417E-13 3.49111E-12 1.78525E+00
 -1     24732-1.60518E-13-6.90879E-13 1.95822E+00
 -1     24733 2.43462E-12-5.71960E-12 1.22479E+00
 -1     24734 3.59460E-14 1.01497E-14 3.85298E+00
 -1     24735 6.64749E-14-2.69297E-13 1.15706E+00
 -1     24736 1.62402E-15 6.31475E-14 6.87209E-01
 -1     24737-6.10936E-14-7.02074E-14 1.48358E+00
 -1     24738-1.60856E-13-9.94468E-13 2.25163E+00
 -1     24739 7.76006E-14 1.11896E-13-2.67658E+00
 -1     24740 1.29919E-12 5.07172E-12 1.80350E+00
 -1     24741 1.58356E-14 1.13221E-13 4.20999E+00
 -1     24742 7.82089E-14-1.68595E-13 3.62931E+00
 -1     24743 3.14950E-13 9.45903E-13-5.23859E-01
 -1     24744-2.79374E-13 7.13235E-13-3.93743E-01
 -1     24745 1.71660E-13-2.32926E-12-1.70752E+00
 -1     24746 1.41076E-13 1.85475E-12-9.79517E-01
 -1     24747-4.17729E-13 2.72872E-13-1.83984E+00
 -1     24748 9.92026E-14 8.51564E-14 2.01273E-01
 -1     24749 1.08317E-14-1.07621E-13-2.95001E-01
 -1     24750-2.78078E-15-1.79692E-14 5.81455E-01
 -1     24751-6.00776E-13 1.36783E-12-3.10909E+00
 -1     24752-6.08695E-13-6.65790E-13 3.94190E+00
 -1     24753 2.99176E-13 9.94151E-13 4.01546E+00
 -1     24754 3.75105E-13-2.53662E-13 4.11079E+00
 -1     24755 2.39910E-13 4.06387E-13 4.17748E+00
 -1     24756-3.67621E-13-1.36820E-12 3.47559E+00
 -1     24757 3.75966E-13-5.43453E-13 4.24325E+00
 -1     24758 1.23268E-14 5.20802E-14 4.29076E+00
 -1     24759 2.32909E-13-3.38330E-13 3.68571E+00
 -1     24760-2.06118E-13 7.28496E-13-1.45017E+00
 -1     24761-5.85804E-15-5.14627E-14 4.18408E+00
 -1     24762 4.36227E-14-3.77297E-14 3.68746E+00
 -1     24763 2.13636E-13-8.01456E-15 3.47487E+00
 -1     24764-1.45460E-13-1.35027E-13 4.22165E+00
 -1     24765-2.21286E-12-1.06969E-12-1.18652E+00
 -1     24766 3.16245E-13 2.77814E-13-1.04727E+00
 -1     24767-1.45154E-12-7.32261E-13-6.31479E-01
 -1     24768-2.66534E-14-2.67640E-14-8.17981E-01
 -1     24769 1.03856E-14 6.43140E-14-1.36438E+00
 -1     24770 4.73024E-15 3.56932E-13-3.85828E-01
 -1     24771 2.36830E-13-2.13712E-13-2.38109E+00
 -1     24772 1.32129E-13 9.75103E-13-2.26698E+00
 -1     24773-5.44388E-14-2.58798E-14 3.02026E+00
 -1     24774-1.83348E-14 4.46332E-14 2.54365E+00
 -1     24775 4.10638E-14-1.34269E-14-1.94531E+00
 -1     24776-8.47719E-14-4.24303E-14-2.63417E+00
 -1     24777-6.16915E-14 4.95932E-14-1.44859E+00
 -1     24778 9.96057E-15 7.04836E-13 4.30512E+00
 -1     24779-9.98265E-14-2.58516E-13 4.31977E+00
 -1     24780-2.27408E-13 7.19982E-13 3.25830E+00
 -1     24781 4.90779E-13-2.39847E-12 3.41134E+00
 -1     24782 3.82923E-14 7.09316E-13 2.59809E+00
 -1     24783 6.62279E-13 4.94403E-13 2.13991E+00
 -1     24784-1.06645E-12 3.37497E-13 2.64941E-02
 -1     24785 5.93047E-15-2.46681E-13 3.31750E+00
 -1     24786-2.71960E-13-1.77902E-12 3.63791E+00
 -1     24787 3.40761E-13 2.21129E-12 3.71850E+00
 -1     24788 5.55686E-14 3.82696E-13-2.87608E+00
 -1     24789 1.52981E-13 2.23150E-13-2.74688E+00
 -1     24790-1.76831E-13 5.71857E-13-2.41925E+00
 -1     24791-1.68001E-14-4.16298E-13 3.79768E+00
 -1     24792-1.19070E-13-1.19095E-13-3.37088E+00
 -1     24793 7.68222E-15 2.54033E-14-3.51408E+00
 -1     24794-8.05186E-14 7.89126E-15-3.24832E+00
 -1     24795 3.25869E-14-6.40661E-14-2.81585E+00
 -1     24796 2.99558E-13 1.47086E-12 3.78712E+00
 -1     24797-6.13236E-13-3.27034E-13 3.85730E+00
 -1     24798 3.77015E-13-1.42265E-12 3.11650E+00
 -1     24799-7.72923E-16 8.10274E-14 2.37138E+00
 -1     24800 3.45704E-13-5.56311E-13 3.77429E+00
 -1     24801-2.69389E-14 1.05387E-13 4.37533E+00
 -1     24802 1.55118E-13 5.48725E-14 3.40624E+00
 -1     24803-1.24651E-15-5.22352E-14 3.53267E+00
 -1     24804 8.63570E-14 5.75044E-13-6.45727E-01
 -1     24805 3.28347E-13 2.15651E-13 9.74218E-02
 -1     24806-1.46568E-12 1.95411E-12-8.49518E-01
 -1     24807-1.24533E-13 2.49599E-14-2.23266E+00
 -1     24808-2.35440E-13 4.29576E-13-2.09323E+00
 -1     24809-1.22045E-14 1.37438E-13 4.50010E+00
 -1     24810-3.10240E-14 4.47741E-13 4.26986E+00
 -1     24811 1.85474E-13 7.33341E-13 2.14173E-01
 -1     24812 4.09849E-13-9.62496E-13-2.21047E-01
 -1     24813-2.17350E-14 7.91983E-14 3.56357E+00
 -1     24814-3.65687E-14 2.60794E-14 3.12365E+00
 -1     24815-2.64507E-13 2.15062E-13 3.23804E+00
 -1     24816 4.70869E-14 2.42782E-13 3.27631E+00
 -1     24817 2.47110E-13-2.91284E-14 3.27932E+00
 -1     24818-9.32146E-13 4.30805E-13 1.34975E+00
 -1     24819-4.90761E-13 1.69249E-13 1.49658E+00
 -1     24820-6.11647E-13-3.02809E-13-2.61132E+00
 -1     24821 5.39062E-13 2.59262E-14-2.50206E+00
 -1     24822-5.17746E-13-4.69057E-13-1.86798E+00
 -1     24823 1.09251E-12-1.02202E-12-2.14799E+00
 -1     24824-5.43427E-14-3.31223E-13 2.65587E+00
 -1     24825-8.68206E-14 2.81352E-14 2.23038E+00
 -1     24826 4.15942E-14-1.03650E-13 2.95670E+00
 -1     24827 4.42520E-15-7.39540E-13-2.16103E+00
 -1     24828-3.30992E-13 9.77938E-13-1.99839E+00
 -1     24829 3.80166E-14-7.54626E-14-3.30457E+00
 -1     24830 7.40866E-14 3.14402E-14-2.99552E+00
 -1     24831-1.58961E-13-3.93655E-13 3.25967E+00
 -1     24832-2.05213E-13-5.35349E-13 3.27270E+00
 -1     24833-7.63669E-14-1.80823E-14 2.72238E+00
 -1     24834 3.11562E-13 2.36445E-13 3.25851E+00
 -1     24835-9.91711E-14 1.84807E-14 3.30282E+00
 -1     24836 9.83679E-14 6.83041E-14 2.71169E+00
 -1     24837-1.94218E-13-1.55232E-12-1.62915E+00
 -1     24838 7.10913E-13-2.55589E-12-5.27475E-02
 -1     24839 4.66319E-13-2.63354E-12 3.49575E+00
 -1     24840-4.39000E-13 1.19274E-12 3.56956E+00
 -1     24841 5.54917E-14-7.99144E-13 2.78343E+00
 -1     24842 3.05949E-13 1.12220E-12 2.98875E+00
 -1     24843 1.72106E-13 1.07282E-12 5.17507E-01
 -1     24844 1.64313E-13 1.42413E-12 1.09365E+00
 -1     24845-2.03459E-13 2.40019E-12 1.08588E+00
 -1     24846 1.60191E-12-9.71045E-13 1.30520E+00
 -1     24847-4.44046E-15-1.47811E-13 3.93996E+00
 -1     24848 5.26507E-13-1.93699E-12-1.37338E+00
 -1     24849 4.24167E-13-1.77900E-13-1.15208E+00
 -1     24850-1.04345E-14 5.91254E-13-1.01109E+00
 -1     24851-1.76519E-14-5.51628E-13-8.31473E-01
 -1     24852-4.80888E-13-4.04026E-13-6.33392E-01
 -1     24853 3.60643E-13-3.76138E-13-3.08021E-01
 -1     24854-5.77828E-14-8.05072E-14 1.80231E+00
 -1     24855 8.41053E-14 1.49756E-14 1.37395E+00
 -1     24856-1.60321E-13-1.51234E-13 2.07696E+00
 -1     24857-9.38407E-13-5.49328E-13 1.74049E+00
 -1     24858 9.03739E-13 1.37574E-12 2.02080E+00
 -1     24859 6.27508E-13 5.22611E-13 9.06392E-01
 -1     24860-4.60578E-14-1.83347E-13-2.35087E+00
 -1     24861 3.25465E-13 9.43516E-15-1.78897E+00
 -1     24862 2.96371E-13-1.27615E-13-2.46369E+00
 -1     24863-3.00507E-13-7.31471E-13-1.28564E+00
 -1     24864-4.32496E-13 6.93784E-13-7.09224E-01
 -1     24865 2.24717E-13-1.63662E-13-1.39777E+00
 -1     24866-7.47360E-13-1.29674E-12-4.78991E-01
 -1     24867 4.28932E-13 1.13238E-12-2.97406E-01
 -1     24868-1.79837E-12-1.69333E-12 7.83951E-02
 -1     24869-2.76325E-15-8.69412E-14-2.89273E+00
 -1     24870-7.80653E-14-1.37138E-13-2.75524E+00
 -1     24871-7.65396E-14-5.76978E-14-2.51692E+00
 -1     24872-1.57789E-14-2.76354E-14 9.49831E-01
 -1     24873 5.59390E-14-3.33257E-13 5.05691E-01
 -1     24874-9.86037E-14-1.55607E-13 1.31245E+00
 -1     24875-2.12835E-14 7.39651E-14 3.23628E+00
 -1     24876 2.27838E-14-1.01497E-13 3.64375E+00
 -1     24877 1.96994E-14 4.27503E-14-2.66722E+00
 -1     24878-4.63181E-15-1.77915E-13-2.55825E+00
 -1     24879-7.53157E-14 9.58674E-14-2.02650E+00
 -1     24880 8.43138E-14-7.55572E-14-2.22887E+00
 -1     24881-6.08975E-14-3.44342E-14 3.28033E+00
 -1     24882 2.08260E-13 6.32151E-16 3.31172E+00
 -1     24883-8.58319E-14-2.33048E-14-3.37061E+00
 -1     24884 5.67296E-14 3.62509E-13 2.64058E+00
 -1     24885 1.80947E-13 2.15786E-12 2.72115E+00
 -1     24886-9.14047E-14 3.44132E-13 2.83263E+00
 -1     24887-2.69802E-14-1.46378E-13 2.95308E+00
 -1     24888-7.07584E-14-3.02278E-13 2.18507E+00
 -1     24889-9.22579E-13-2.89913E-12 6.03404E-01
 -1     24890-7.16948E-13 2.20034E-13 4.17628E-01
 -1     24891-6.27738E-13 7.98884E-14-2.84912E-02
 -1     24892-6.09033E-14 5.33396E-14-3.18768E+00
 -1     24893-3.27718E-13 3.50099E-14 3.07733E+00
 -1     24894-3.56091E-13 2.51097E-13 3.17036E+00
 -1     24895-9.73106E-14-2.57664E-13 2.41433E+00
 -1     24896 5.07173E-14-2.52537E-13-9.44179E-01
 -1     24897 7.34189E-14 1.50322E-13-1.45909E+00
 -1     24898-2.96787E-14-1.73102E-13 3.30592E+00
 -1     24899 1.17559E-14-1.15446E-15 2.96818E+00
 -1     24900-8.56270E-15-2.10694E-13 3.29573E+00
 -1     24901 2.65678E-13-2.70607E-12 1.12455E-02
 -1     24902-8.76232E-14-1.22077E-13 3.71157E-02
 -1     24903-6.26111E-14-9.10077E-14-4.31561E-01
 -1     24904 8.78914E-15 1.16950E-13-4.60179E-01
 -1     24905 5.98283E-14-1.51426E-13 4.70242E-01
 -1     24906-1.21140E-13 1.52590E-13 2.72877E+00
 -1     24907-1.16688E-13 1.15374E-12 1.93888E-01
 -1     24908-1.23940E-13-1.57008E-13 4.08310E+00
 -1     24909-4.93236E-13 7.88235E-13-2.03807E-01
 -1     24910-4.90142E-13 2.39109E-13 2.28289E+00
 -1     24911-1.02184E-12 1.12893E-12 2.41173E+00
 -1     24912 5.99379E-14-1.01209E-14 3.80584E+00
 -1     24913-2.67977E-13 7.23516E-13-1.96136E+00
 -1     24914-4.08890E-14-3.86887E-15-1.81389E+00
 -1     24915 6.26470E-13-8.27187E-13-1.49930E+00
 -1     24916 5.91404E-14-2.28514E-13 3.35757E+00
 -1     24917-9.77764E-14-5.57606E-14 3.30352E+00
 -1     24918-3.65558E-13 3.93753E-13 2.82117E+00
 -1     24919 4.93289E-14-4.97114E-13 2.75474E+00
 -1     24920-2.31622E-14-5.93130E-14-2.07455E+00
 -1     24921 3.05493E-14 3.96510E-14-2.73528E+00
 -1     24922-4.99316E-14 2.80315E-15-2.42294E+00
 -1     24923 5.65763E-14-2.24126E-14-1.41071E+00
 -1     24924 2.56567E-13 1.55641E-12 6.63133E-01
 -1     24925-1.27991E-12-9.85652E-13 9.69916E-01
 -1     24926 1.85595E-14-2.99083E-14 3.04505E+00
 -1     24927-9.97813E-15-2.38525E-13 2.78744E+00
 -1     24928 2.45957E-13-3.69589E-14 2.09208E+00
 -1     24929 7.62903E-14 7.53917E-13 2.19346E+00
 -1     24930 7.03108E-14 2.28058E-13 2.55460E+00
 -1     24931-2.35198E-13-9.93053E-13 1.98350E+00
 -1     24932-1.07272E-13-8.38398E-13 2.47607E+00
 -1     24933 5.70622E-13-3.91107E-13 6.58580E-01
 -1     24934 4.58128E-13-6.10954E-13 1.27700E+00
 -1     24935-7.29490E-14 1.61638E-12 2.12421E+00
 -1     24936-9.82430E-13-1.17090E-13 8.33734E-01
 -1     24937-3.76560E-15-1.83530E-14 2.64418E+00
 -1     24938 3.90943E-14-5.96552E-14 2.33700E+00
 -1     24939-6.81379E-14-2.63772E-14 1.97791E+00
 -1     24940 7.17311E-14-1.51454E-13 2.42435E+00
 -1     24941 6.85652E-14-3.14990E-14 2.15543E+00
 -1     24942-1.31405E-14 1.19788E-13 2.22467E+00
 -1     24943-3.69640E-13 2.29879E-13-1.35043E+00
 -1     24944 7.06694E-15 3.96776E-13-1.18477E+00
 -1     24945 2.04137E-13 6.94636E-13 3.15238E-01
 -1     24946 2.89919E-13 9.94162E-13 2.15664E+00
 -1     24947-2.65142E-13-6.48551E-13 1.64317E+00
 -1     24948-1.05865E-13 1.15604E-12 2.20257E+00
 -1     24949-8.73502E-14-2.26884E-13 2.13964E+00
 -1     24950 5.77785E-14 2.21489E-13 1.61617E+00
 -1     24951-9.09837E-14 5.80427E-13 1.49290E+00
 -1     24952 3.48659E-14-3.12275E-14-1.68007E+00
 -1     24953-1.39141E-13-1.85750E-13-1.53590E+00
 -1     24954 9.17636E-14 5.03783E-13-9.70131E-01
 -1     24955-3.34993E-13 1.76049E-13-1.21708E+00
 -1     24956 1.97943E-13 4.12945E-12 1.81800E+00
 -1     24957-6.23253E-13-1.15839E-12 1.18024E+00
 -1     24958-2.49945E-13 6.14561E-13 1.28298E+00
 -1     24959-9.94870E-14 3.45664E-13 1.37799E+00
 -1     24960 4.52471E-13-2.95066E-12 1.44622E+00
 -1     24961-4.81001E-13-4.23190E-13 7.86585E-01
 -1     24962-4.54430E-13-4.47435E-13 5.55748E-02
 -1     24963-3.20171E-13-1.29218E-13 4.72527E-01
 -1     24964 5.88234E-14 6.83391E-14-2.09222E+00
 -1     24965 4.33636E-14-9.32403E-14-1.95546E+00
 -1     24966 1.62979E-14 8.84609E-15-1.72973E+00
 -1     24967 3.08842E-14 4.79986E-14 1.63456E+00
 -1     24968-8.20471E-14-1.15695E-13 1.25824E+00
 -1     24969-5.45913E-14-4.39210E-14 1.81230E+00
 -1     24970-2.85713E-14 1.07864E-12 1.91912E+00
 -1     24971-3.08844E-13 2.36761E-13 1.23329E+00
 -1     24972 5.63326E-14 3.75935E-13 1.73700E+00
 -1     24973-3.65296E-13 8.29174E-13 1.54618E+00
 -1     24974 1.50171E-13 2.90040E-14 1.64459E+00
 -1     24975 9.27909E-13-1.59794E-12 9.63290E-01
 -1     24976-5.96776E-15 1.12956E-13-1.49094E+00
 -1     24977-5.50134E-14-7.29055E-14-9.12353E-01
 -1     24978-2.46001E-14-8.06707E-14-1.59925E+00
 -1     24979-1.35822E-13-2.32743E-13 8.76244E-01
 -1     24980 4.16327E-14-2.64672E-13 4.75535E-01
 -1     24981 2.37375E-14 3.90783E-14 1.39694E+00
 -1     24982 2.39088E-14-1.27137E-13 2.28977E+00
 -1     24983 1.31351E-13-2.43070E-14 2.22863E+00
 -1     24984 1.19528E-13 1.89586E-13-1.91452E-01
 -1     24985-2.13854E-13 2.21205E-13 2.63551E-01
 -1     24986 2.10521E-13-5.07095E-13 3.72338E-01
 -1     24987-4.15839E-13-5.42172E-14-3.35557E-01
 -1     24988-1.85542E-13 8.26602E-13 1.04094E+00
 -1     24989-4.38797E-13-2.95286E-13-1.01855E+00
 -1     24990 1.34025E-13-1.78600E-13-8.72881E-01
 -1     24991 6.14492E-13-1.94280E-13-4.93161E-01
 -1     24992-1.35802E-14 1.58835E-13 2.31153E+00
 -1     24993-5.49449E-15-1.43224E-14 2.48266E+00
 -1     24994 2.57273E-14-2.28591E-13 1.70655E+00
 -1     24995 6.77365E-14-7.40967E-13 2.71275E+00
 -1     24996 4.87102E-14 4.45806E-14 2.56436E+00
 -1     24997-1.01416E-14-2.67674E-14 2.12830E+00
 -1     24998 1.94529E-13 1.83179E-13 6.46469E-03
 -1     24999-2.37527E-14 2.22008E-14-4.39277E-01
 -1     25000 1.51003E-13-1.13751E-13 4.75993E-01
 -1     25001 7.91696E-14-1.09134E-13 1.94802E+00
 -1     25002 4.40138E-14 1.01459E-13-8.85590E-01
 -1     25003-1.56716E-14 1.34093E-13-1.32531E+00
 -1     25004-7.39328E-15 1.34283E-13-1.16256E+00
 -1     25005 2.62283E-14 4.19534E-14-4.29181E-01
 -1     25006-3.68583E-14-2.95204E-14 2.01621E+00
 -1     25007 1.33587E-14 4.56314E-14 1.78403E+00
 -1     25008 1.26603E-14-5.54844E-14 1.80293E+00
 -1     25009-9.92042E-14 2.00464E-15-1.80455E+00
 -1     25010 7.08851E-14-2.89548E-14-1.68469E+00
 -1     25011-8.17167E-14 7.43678E-14-1.21279E+00
 -1     25012-1.63821E-14-9.59632E-14-1.39781E+00
 -1     25013-5.22184E-14 1.32881E-13 1.60078E+00
 -1     25014 6.47440E-14 3.05018E-13-5.05274E-01
 -1     25015-1.66648E-14-3.16981E-13-2.42710E-01
 -1     25016-1.34051E-13-9.33763E-14-4.34959E-01
 -1     25017 9.23083E-14-9.53431E-14 5.53124E-03
 -1     25018 1.29583E-13 1.77242E-13-5.31546E-01
 -1     25019 3.75763E-13 8.53068E-13 4.45070E-01
 -1     25020-4.92438E-13 9.85670E-13 3.59208E-01
 -1     25021-1.03700E-13 1.61552E-12 1.07138E+00
 -1     25022-7.99814E-14 2.96667E-13 1.13933E+00
 -1     25023 1.41655E-14-2.16682E-14 1.23150E+00
 -1     25024-2.66588E-14-7.24421E-15 1.43746E+00
 -1     25025 2.59278E-14-1.22202E-13 1.62863E+00
 -1     25026 5.24051E-14-8.99936E-14 1.02793E+00
 -1     25027 2.54695E-14-6.60215E-15 8.78297E-01
 -1     25028-7.66929E-14 3.60759E-13 5.34634E-01
 -1     25029 1.03204E-13 2.63069E-13 6.06362E-01
 -1     25030-1.55735E-13 5.84012E-13 8.95711E-01
 -1     25031-1.01371E-13-1.21185E-14 1.02232E+00
 -1     25032-4.56187E-14-1.28276E-14 1.10195E+00
 -1     25033 4.52954E-14-2.23576E-14 7.41446E-01
 -1     25034 2.51408E-13 1.27382E-13 4.10613E-01
 -1     25035-1.56825E-13-4.30464E-14-7.35754E-01
 -1     25036-2.85135E-14-1.65139E-13-6.23280E-01
 -1     25037 1.31562E-13 1.36379E-14-6.29688E-02
 -1     25038 4.59664E-14 3.96616E-13-2.03609E-01
 -1     25039-2.20455E-13 2.13792E-13 5.23707E-01
 -1     25040-7.07178E-14 4.00171E-13 5.08277E-02
 -1     25041-5.76810E-14-9.57990E-14-3.77001E-01
 -1     25042-3.22081E-14 3.02435E-13 5.60491E-01
 -1     25043 2.00375E-14-1.29886E-13 4.53014E-01
 -1     25044-2.21780E-13-3.74180E-13 4.70633E-01
 -1     25045 1.39289E-13 1.25135E-13 4.32590E-01
 -1     25046 4.15170E-14-9.84022E-14 4.64593E-01
 -1     25047 7.95461E-14 1.12607E-13-7.04589E-01
 -1     25048 4.03127E-14 1.07569E-13-1.63029E-01
 -1     25049-4.32543E-14-3.52048E-13 1.08964E-01
 -1     25050-8.59152E-14 1.17151E-13-8.21256E-01
 -1     25051 1.77782E-14 1.48712E-13-7.00823E-01
 -1     25052 1.24878E-14 3.00191E-14-1.00384E+00
 -1     25053-5.26127E-14-2.96380E-14-9.08503E-01
 -1     25054-9.94346E-15 2.06279E-13-3.76661E-01
 -1     25055-4.36540E-14-4.02824E-13 1.06774E-01
 -1     25056 9.19066E-14-3.38088E-15 3.16599E-01
 -1     25057-2.37548E-14 8.52985E-15-5.25719E-01
 -1     25058-7.77494E-15 1.11050E-13-1.26858E-01
 -1     25059-7.51023E-13-4.25570E-13-4.11338E-14
 -1     25060-1.49522E-13 3.46127E-13 4.25771E-14
 -1     25061 3.15525E-13 2.02005E-12 8.93599E-14
 -1     25062 8.09652E-14-4.89367E-13-3.84054E-13
 -1     25063 1.73220E-13 2.24243E-13 1.95399E-14
 -1     25064 1.29245E-12 1.10906E-12-1.59317E-14
 -1     25065 2.76258E-13 5.37711E-13-2.40613E-13
 -1     25066-9.20722E-14-1.53813E-13 2.31370E-13
 -1     25067-6.69142E-13 6.03633E-13 6.06182E-14
 -1     25068-3.27722E-13-3.55999E-14-1.43172E-13
 -1     25069-1.66041E-13 5.40266E-15-1.35447E-14
 -1     25070 8.45140E-13-8.93384E-13-1.72917E-13
 -1     25071-9.29958E-14 1.06592E-12-3.60822E-14
 -1     25072-1.77697E-13 6.30103E-13 4.13558E-14
 -1     25073 3.25346E-13 4.36440E-13 5.15143E-14
 -1     25074-1.03023E-13 3.03306E-14-6.30607E-14
 -1     25075 6.68627E-16 5.56666E-14-1.19349E-14
 -1     25076 2.26417E-14 1.72727E-15-3.08781E-14
 -1     25077 2.96059E-14-3.52271E-15-8.71525E-15
 -1     25078 3.34241E-13 4.35722E-13 8.87068E-14
 -1     25079-3.53974E-13-1.98216E-13-2.05114E-14
 -1     25080 1.92551E-13 4.76434E-13 2.99760E-14
 -1     25081-2.25790E-12 1.42471E-12-4.27491E-13
 -1     25082 3.54648E-13 1.49242E-12-2.72622E-13
 -1     25083 1.47569E-12 1.07882E-12 1.15730E-12
 -1     25084 9.46862E-14 1.10435E-13 9.54792E-15
 -1     25085-2.94587E-14-1.44519E-13-1.61988E-14
 -1     25086-9.41680E-14 1.27624E-13 2.76498E-14
 -1     25087 5.54597E-15 2.46012E-14 5.49560E-14
 -1     25088-5.36519E-14 3.70654E-14 1.17684E-14
 -1     25089-1.40968E-13-1.82661E-13-2.04281E-14
 -1     25090-4.06562E-14-9.06810E-14 1.66533E-15
 -1     25091 6.67485E-14-1.54496E-13 6.88338E-15
 -1     25092-6.59586E-13 2.11204E-12-8.08298E-13
 -1     25093 1.96357E-13 7.91235E-13 7.78544E-13
 -1     25094 6.20650E-13 1.45527E-12-2.43000E-13
 -1     25095-1.86639E-12 5.63656E-13-6.08291E-13
 -1     25096 3.89607E-13-2.14355E-12-5.37126E-13
 -1     25097 1.73070E-12-9.72228E-13 2.38038E-13
 -1     25098 1.47070E-14 3.18276E-13-4.67404E-14
 -1     25099 1.47920E-13-4.11915E-13 4.56302E-14
 -1     25100 2.07217E-14 7.05040E-14-4.51861E-14
 -1     25101 1.98269E-14 9.24114E-14 7.63278E-16
 -1     25102 5.11868E-15-1.96911E-14-6.88338E-15
 -1     25103-4.72055E-14-6.71992E-14 1.99840E-15
 -1     25104 1.61542E-14 2.90045E-14 8.36484E-15
 -1     25105 6.25282E-13-1.23457E-12 1.13409E-13
 -1     25106-1.91010E-12-2.46629E-16-5.06262E-14
 -1     25107 2.93665E-13 1.47167E-12 1.18461E-13
 -1     25108-6.21165E-13 2.37099E-12-7.47510E-14
 -1     25109 1.87534E-14-4.85622E-14 2.22045E-16
 -1     25110-8.10983E-16-9.93754E-14 8.88178E-16
 -1     25111 1.12833E-14-5.89917E-14 5.38458E-15
 -1     25112 2.90998E-14 4.09474E-14-3.05311E-16
 -1     25113 1.63669E-12 3.89971E-12 3.72646E-13
 -1     25114-8.90655E-14 2.87642E-12 2.16716E-13
 -1     25115 5.31091E-13 3.56423E-13-5.57637E-13
 -1     25116 2.50699E-12-3.62951E-12 6.44984E-13
 -1     25117-2.24401E-12 3.25134E-12 3.56770E-13
 -1     25118 1.52896E-12 2.67723E-12-4.71623E-13
 -1     25119-2.39600E-14 8.02830E-15 3.44169E-15
 -1     25120 3.19744E-14 9.47853E-15-6.10623E-15
 -1     25121 2.97350E-14 5.57540E-15-1.33227E-15
 -1     25122-4.27713E-14 7.35349E-15-2.44249E-15
 -1     25123-5.60047E-14 1.46202E-14 8.65974E-15
 -1     25124-2.54970E-14 3.97097E-14 1.49186E-14
 -1     25125 1.85439E-13-1.20360E-13 6.44484E-14
 -1     25126 4.02551E-14 6.05208E-14 2.38698E-15
 -1     25127-8.54052E-14-2.30323E-13 2.19824E-14
 -1     25128-2.15990E-12 3.13659E-12 7.38715E-14
 -1     25129 4.45200E-13-2.78191E-12-9.73902E-13
 -1     25130-2.04675E-12-1.94042E-12 4.35096E-13
 -1     25131 1.63115E-12-2.96183E-12-2.43683E-13
 -1     25132-6.62292E-13 1.40437E-12 1.34918E-13
 -1     25133-2.22872E-14 3.28419E-13 1.22374E-13
 -1     25134 9.09958E-14 1.46323E-13-4.51444E-14
 -1     25135-1.90357E-13 1.52518E-13-5.67324E-14
 -1     25136-9.05529E-14-1.10858E-12-1.37224E-13
 -1     25137 3.72331E-13-5.08212E-13 1.63203E-14
 -1     25138 3.76565E-14 2.98246E-13-2.05391E-14
 -1     25139 1.63999E-13 1.14070E-13 4.27436E-15
 -1     25140-3.66554E-14-1.19444E-13 2.74225E-14
 -1     25141-3.10855E-14-8.28860E-14 3.32338E-14
 -1     25142 1.18921E-13 7.04345E-13 1.84963E-13
 -1     25143 1.28177E-13-1.18654E-12-4.84550E-13
 -1     25144 2.69782E-13-1.31800E-12-1.54106E-13
 -1     25145-1.29905E-12-3.04129E-13 3.23186E-13
 -1     25146 3.42143E-13 5.05026E-12-5.60094E-13
 -1     25147-3.48074E-13 2.38647E-13-3.05415E-13
 -1     25148-1.65134E-13-6.03166E-13-6.03337E-15
 -1     25149-1.83861E-13 1.24272E-13-9.74706E-14
 -1     25150 8.72854E-14-1.50417E-13 3.74596E-14
 -1     25151-1.04306E-15 1.54161E-14-1.71002E-13
 -1     25152-1.92213E-15-8.16491E-13 1.81674E-13
 -1     25153-2.78017E-14 1.84051E-12 4.89941E-13
 -1     25154-1.73100E-12-2.02764E-12-6.04627E-13
 -1     25155-2.46147E-12-4.64789E-13-3.08170E-13
 -1     25156-3.75902E-13-4.08253E-12 5.06761E-13
 -1     25157-4.36447E-13-2.19001E-13 1.17513E-13
 -1     25158-3.10722E-13 5.78086E-12-6.53366E-14
 -1     25159 3.13427E-13-5.21449E-13-1.48659E-13
 -1     25160 1.18519E-13-1.07601E-12-1.54848E-13
 -1     25161-1.21858E-13 1.26438E-13 2.39142E-13
 -1     25162-4.15968E-13-1.55759E-12-6.70575E-14
 -1     25163-9.75321E-13-3.85398E-12 7.60614E-13
 -1     25164-6.03791E-13-4.57562E-12-1.17434E-12
 -1     25165-1.53809E-13 2.49056E-12-1.41212E-12
 -1     25166-4.55269E-13 4.21618E-12-8.68638E-13
 -1     25167 2.91741E-13-2.08752E-12 2.27623E-13
 -1     25168-4.17457E-13 1.20071E-12 1.23374E-13
 -1     25169-2.84188E-13 1.04745E-12-8.63511E-14
 -1     25170 2.33886E-13 1.87319E-12-3.58047E-14
 -1     25171 4.33727E-12 8.23333E-13 7.87105E-13
 -1     25172 5.54109E-13 1.88434E-12 5.21042E-13
 -1     25173-1.68132E-12-2.58152E-12-4.11227E-13
 -1     25174-3.68084E-14 2.68893E-12 4.00568E-13
 -1     25175-1.83170E-13-7.42915E-13-2.08444E-13
 -1     25176-1.23643E-12-2.49585E-12-1.07692E-14
 -1     25177 3.03858E-13-2.00686E-12 2.34673E-13
 -1     25178 6.54627E-13 2.13933E-13-4.93685E-13
 -1     25179 2.16395E-12 1.36986E-12-1.20515E-13
 -1     25180 1.45380E-13 2.30779E-12 1.90348E-13
 -1     25181-1.41328E-13 1.81129E-12-1.59317E-13
 -1     25182 2.76305E-13-1.64156E-12 4.14668E-14
 -1     25183 2.60154E-13 4.68467E-14-3.17571E-13
 -1     25184 5.42895E-13-3.87803E-12 4.22273E-13
 -1     25185 1.08392E-12 1.76706E-12-2.20796E-14
 -1     25186-1.26885E-12 2.56845E-12 6.06459E-15
 -1     25187 1.86715E-12 1.43098E-12-8.59634E-13
 -1     25188-3.27114E-13-4.19742E-13 1.94289E-14
 -1     25189 4.47588E-14 1.45663E-13 1.87628E-14
 -1     25190-1.75262E-13 2.73227E-13 9.71445E-16
 -1     25191 2.31294E-14-1.23582E-13-2.16493E-15
 -1     25192 8.43942E-14-1.43000E-13-2.49661E-14
 -1     25193 1.19049E-14 1.47479E-14 2.09832E-14
 -1     25194-5.85675E-14 8.28237E-15-1.08247E-14
 -1     25195 3.10111E-14 2.25911E-13 2.19824E-14
 -1     25196 8.92648E-14 1.14806E-13-4.97380E-14
 -1     25197 2.03910E-12 2.06503E-13-2.57488E-13
 -1     25198-5.14158E-13 1.40340E-12-1.59012E-13
 -1     25199 2.09761E-12-4.65026E-13 1.98841E-13
 -1     25200-8.17899E-13-1.05276E-12 1.58516E-13
 -1     25201 2.63162E-13-8.39307E-13 3.20299E-14
 -1     25202-5.72669E-14 8.56577E-13 4.52249E-13
 -1     25203 4.59022E-13 9.29836E-13 3.59268E-13
 -1     25204 5.62225E-14-6.56657E-14 1.14277E-13
 -1     25205 5.25221E-13-2.95559E-12-2.12330E-13
 -1     25206-1.66462E-13-3.06336E-14 1.47438E-13
 -1     25207 8.57884E-15-3.65276E-12-6.39405E-13
 -1     25208-1.28915E-13-1.86835E-13 1.06304E-14
 -1     25209-1.04192E-15 4.00709E-13-5.98688E-14
 -1     25210-1.52729E-13 8.28943E-15 3.81917E-14
 -1     25211 2.11020E-14-3.69025E-14-6.92502E-15
 -1     25212 6.07543E-14 3.61515E-14 3.49720E-15
 -1     25213 6.04670E-15-5.59317E-14-3.77476E-15
 -1     25214-3.37874E-14 6.25867E-14-1.47105E-15
 -1     25215 7.96958E-15-8.54179E-15 1.99840E-15
 -1     25216 1.07319E-15 6.35243E-15 1.38778E-17
 -1     25217 1.24202E-14-4.85803E-14 1.01030E-14
 -1     25218 1.89378E-13 4.87650E-13 5.95080E-14
 -1     25219 3.25153E-13-2.67237E-13-4.50473E-14
 -1     25220 8.68632E-14-2.36575E-13 5.63993E-14
 -1     25221-2.45303E-14 1.60493E-13 9.23706E-14
 -1     25222-2.98514E-14-4.93470E-14 6.55032E-14
 -1     25223 2.19479E-13 6.60506E-14 2.02727E-13
 -1     25224-4.12283E-13 2.98822E-12 2.94553E-13
 -1     25225-1.84709E-12-6.36777E-13 8.77076E-14
 -1     25226 6.53778E-14-6.44501E-13-1.30430E-13
 -1     25227-9.11353E-13-4.10527E-12 1.15588E-13
 -1     25228 1.42176E-13-2.30288E-13 3.39895E-13
 -1     25229 7.44328E-14-1.23624E-13 8.27116E-15
 -1     25230 9.94432E-13-4.56063E-12-1.57652E-14
 -1     25231 1.97625E-12-4.34689E-12 6.86673E-13
 -1     25232-2.57243E-12-6.82598E-12-6.06071E-13
 -1     25233-4.17037E-15 1.34247E-14 3.33067E-16
 -1     25234 7.70521E-15 7.14426E-15-5.91194E-15
 -1     25235-3.22114E-15-1.30449E-14 1.66533E-16
 -1     25236-8.76750E-15 3.57342E-15-3.33067E-15
 -1     25237 1.35482E-15-5.75848E-14 4.44089E-15
 -1     25238 8.42697E-13-8.26668E-13 5.22637E-13
 -1     25239-1.01945E-12-9.17636E-13-3.28571E-13
 -1     25240-1.07986E-13 2.95850E-13 1.03251E-14
 -1     25241 1.17308E-13-2.38178E-13 6.91114E-15
 -1     25242-9.35436E-14-2.00936E-13-2.08722E-14
 -1     25243-1.66132E-14-8.10468E-15 2.22045E-16
 -1     25244-4.91721E-15-3.70332E-15-2.30371E-15
 -1     25245-2.89721E-13 2.44272E-13 1.70974E-13
 -1     25246 2.41035E-13 5.06574E-13 1.51601E-13
 -1     25247 1.96183E-13 2.58067E-12 4.73268E-13
 -1     25248 2.31250E-13 1.88404E-13 1.35447E-13
 -1     25249-1.89382E-15-3.14153E-13-4.82947E-15
 -1     25250-5.44127E-14 7.22404E-14-7.03881E-14
 -1     25251 1.86090E-13-3.95093E-13 9.43690E-15
 -1     25252 2.84727E-13 9.08808E-14-5.01821E-14
 -1     25253-6.85843E-14-2.72413E-13 6.80567E-14
 -1     25254-1.34069E-13-1.88527E-13-4.70179E-14
 -1     25255-1.92527E-13 1.27648E-13 7.02771E-14
 -1     25256 3.64892E-13-1.95739E-13-9.21763E-14
 -1     25257 2.31568E-13 7.49422E-14-5.19793E-14
 -1     25258-2.46351E-14 2.98101E-13 4.66294E-15
 -1     25259 1.42980E-12-2.00141E-13-2.05169E-13
 -1     25260 7.53963E-13-7.17118E-13 4.22634E-13
 -1     25261 5.58107E-13-8.15507E-14-1.31228E-13
 -1     25262 1.15766E-12 1.26330E-14-2.67675E-13
 -1     25263-1.98285E-12-4.79691E-13 5.21805E-14
 -1     25264 4.40853E-13 1.83323E-12 9.65894E-15
 -1     25265 2.61518E-13-8.90796E-13 3.43024E-14
 -1     25266 1.66531E-13 1.11898E-12 1.89626E-13
 -1     25267 6.14755E-13-1.13003E-12-4.60743E-13
 -1     25268 3.41609E-13-8.36659E-13 7.79821E-13
 -1     25269 4.69656E-14-3.43983E-13 2.30926E-14
 -1     25270 1.76447E-14 8.24796E-15-8.43769E-15
 -1     25271 8.77640E-15 1.36609E-15 5.44009E-15
 -1     25272 7.61578E-14-1.50563E-12-2.48079E-13
 -1     25273 3.45543E-14 2.34531E-13-7.64278E-13
 -1     25274-5.68164E-13 1.29544E-12 8.87734E-13
 -1     25275 4.74618E-14 2.06862E-12-8.41549E-14
 -1     25276-3.03037E-14-2.40496E-14-4.50716E-14
 -1     25277 1.00637E-13-7.21607E-14 9.54792E-15
 -1     25278-4.56948E-14-5.22070E-15-9.49241E-15
 -1     25279-3.79437E-14 3.01616E-14 7.93809E-15
 -1     25280-1.37683E-14 4.19454E-14 7.43849E-15
 -1     25281-2.22556E-14 3.02605E-14 4.32987E-15
 -1     25282 8.95968E-13 7.24658E-13-1.24900E-13
 -1     25283 5.70832E-14 8.53933E-13 7.63833E-14
 -1     25284-1.95945E-12-2.94984E-13-3.96461E-13
 -1     25285 1.51169E-12 1.79275E-12-9.49185E-13
 -1     25286 5.58530E-12-2.33350E-12-7.36244E-13
 -1     25287-1.04518E-12-3.67679E-12 2.87659E-13
 -1     25288 2.01217E-12-1.39489E-12-1.16573E-15
 -1     25289-7.37718E-13 1.10875E-12-2.20355E-13
 -1     25290-3.71605E-12 1.32481E-12 4.33146E-13
 -1     25291-8.11113E-12 1.71780E-12-4.79491E-13
 -1     25292-1.67602E-12 1.13635E-12-6.60028E-14
 -1     25293-1.53096E-13-1.46590E-13-1.37668E-14
 -1     25294-3.81836E-13-7.86743E-13-7.68829E-13
 -1     25295-2.24950E-13 2.14567E-13-2.22045E-14
 -1     25296 4.31077E-13 1.34529E-12 1.62426E-13
 -1     25297-6.84007E-13 9.72933E-13-5.99520E-14
 -1     25298-2.33827E-13-8.37484E-13-5.98410E-14
 -1     25299 5.26193E-14 1.21372E-14 1.84575E-14
 -1     25300 9.21094E-14-1.56671E-13-1.66533E-14
 -1     25301 4.23825E-15 1.21194E-13-2.40225E-14
 -1     25302 1.26146E-13-8.59784E-14-9.76996E-15
 -1     25303-6.03512E-13 1.80308E-12 4.03899E-13
 -1     25304-9.68723E-14 4.87209E-12 1.23455E-12
 -1     25305 9.23278E-13-4.66093E-12-7.15594E-13
 -1     25306 1.75027E-15-8.46218E-15-7.49401E-16
 -1     25307 6.46305E-15-1.01839E-14 1.99840E-15
 -1     25308 3.14394E-15-7.99643E-15-5.31940E-16
 -1     25309 3.62897E-15-1.35718E-14 1.90126E-15
 -1     25310 5.13996E-15-8.43879E-15-1.11022E-15
 -1     25311-1.31579E-13 2.05953E-12-1.09579E-13
 -1     25312 3.48618E-13 2.47399E-12-6.04961E-13
 -1     25313-5.66665E-13 1.20096E-12 5.33795E-13
 -1     25314-6.97466E-15 9.74302E-15-7.44457E-15
 -1     25315-9.06231E-15 8.59544E-15 3.05311E-16
 -1     25316 2.15707E-14-2.44236E-14 1.34849E-14
 -1     25317-2.56532E-14-1.05983E-14-1.35447E-14
 -1     25318 1.04357E-14 3.39485E-15 4.21885E-15
 -1     25319 5.16889E-13 5.83958E-13 6.95988E-14
 -1     25320 4.26627E-13 1.35137E-12-2.82829E-14
 -1     25321 5.17211E-13-7.15981E-13 6.72795E-14
 -1     25322-3.48040E-13-2.17483E-12-1.56986E-13
 -1     25323 9.01699E-14 2.59206E-14-9.30922E-14
 -1     25324 2.95842E-13 7.39339E-13 8.16274E-15
 -1     25325-3.15680E-13-1.09920E-12 1.45529E-13
 -1     25326 3.66375E-13-1.45266E-12 3.93505E-14
 -1     25327-2.54630E-12 7.29745E-12 9.10799E-13
 -1     25328 1.39135E-12-1.45041E-11-2.52465E-13
 -1     25329-7.79099E-13 3.03166E-12 4.93716E-13
 -1     25330 3.69333E-14-5.34874E-12 1.18316E-12
 -1     25331 2.68318E-12-4.92994E-12-5.84810E-14
 -1     25332 1.76403E-12-1.79239E-12-1.47898E-12
 -1     25333-1.82216E-12 3.47500E-12-1.96029E-12
 -1     25334 1.82067E-12-1.45986E-12-5.88085E-13
 -1     25335 8.62946E-14-3.01180E-13 8.43839E-14
 -1     25336 7.86138E-14-1.19586E-12-4.68514E-14
 -1     25337-4.94974E-14-8.52237E-13-1.54356E-14
 -1     25338-1.65466E-13-1.24561E-12 3.36398E-13
 -1     25339 1.17935E-12-6.99742E-13-1.63200E-13
 -1     25340 1.12178E-12 1.26581E-12-2.17992E-13
 -1     25341-2.86973E-13-5.07217E-13 4.86278E-14
 -1     25342-5.84113E-13-1.71250E-13-1.53336E-13
 -1     25343-4.60287E-13 4.87116E-13-6.06459E-15
 -1     25344-1.45379E-13-5.12155E-14-1.70475E-13
 -1     25345-1.59056E-13-9.55042E-13 1.51268E-13
 -1     25346 3.93691E-13 6.51652E-13-2.25764E-13
 -1     25347-1.31648E-14 5.46458E-13 9.22040E-14
 -1     25348 9.79926E-14 9.13622E-13-4.13107E-14
 -1     25349-9.98892E-13-5.23519E-13 1.55112E-13
 -1     25350 3.47360E-13 2.89453E-13-1.66547E-13
 -1     25351-2.67993E-14-1.67689E-13 8.60423E-15
 -1     25352 2.12546E-13 1.54760E-13 6.83342E-14
 -1     25353-3.57715E-14 2.98020E-14-3.61586E-14
 -1     25354 2.44604E-13-1.66644E-12-4.94604E-14
 -1     25355-7.72440E-13-3.23151E-12-1.26310E-12
 -1     25356-1.15547E-12 1.01579E-12 5.38236E-13
 -1     25357-7.05010E-13-7.09678E-16 5.46896E-13
 -1     25358-3.13331E-12-2.13775E-12 6.66134E-13
 -1     25359 6.53782E-13 2.74830E-13-1.78774E-13
 -1     25360 1.86787E-12 3.36963E-14-6.91322E-14
 -1     25361 2.06970E-13 5.68526E-13-8.62088E-14
 -1     25362 2.22469E-13 1.19023E-13-5.10703E-15
 -1     25363 1.29042E-13 5.51497E-13-1.58540E-13
 -1     25364 1.03203E-13-1.37780E-12-6.39488E-14
 -1     25365-2.11469E-13-4.46503E-13-8.72635E-14
 -1     25366 2.42694E-13 3.30281E-13 1.51656E-13
 -1     25367-5.64276E-14-1.29831E-13 6.63081E-14
 -1     25368 2.24432E-13 2.68955E-13-8.90590E-14
 -1     25369 7.87561E-15-2.21465E-14-5.25135E-14
 -1     25370-6.15085E-14 1.05672E-13 6.41709E-14
 -1     25371-3.03770E-13-9.86905E-16-5.58442E-14
 -1     25372-3.08469E-13-1.25486E-13-2.35895E-13
 -1     25373-1.81729E-13 1.22216E-12 3.01120E-13
 -1     25374 8.08295E-13 2.45379E-12 1.26577E-12
 -1     25375 1.10751E-12 2.56107E-12-3.11806E-13
 -1     25376-6.26450E-13 3.00233E-12 3.10862E-15
 -1     25377-9.76338E-13-9.98943E-12-3.36432E-12
 -1     25378 9.34376E-14 4.83852E-12 5.29417E-13
 -1     25379 1.29200E-12 2.17097E-12-8.79519E-13
 -1     25380 1.12629E-12 1.29700E-12 1.85435E-13
 -1     25381-5.99284E-13 2.82030E-12 1.60164E-13
 -1     25382 9.00922E-13 2.56917E-12-8.47100E-14
 -1     25383 3.23688E-13-8.92777E-13-1.56986E-13
 -1     25384-2.22058E-14 5.97694E-13 1.61536E-13
 -1     25385-9.92041E-14-3.76462E-13 5.30687E-14
 -1     25386 2.05037E-13 2.21649E-13 2.35367E-14
 -1     25387-1.31898E-13-2.46681E-14 2.00395E-14
 -1     25388-1.88738E-14 1.58901E-15 4.44089E-16
 -1     25389 2.30328E-14 6.14482E-15-6.52256E-15
 -1     25390 1.58883E-14 8.50856E-15-4.67681E-14
 -1     25391 3.57597E-13-3.08404E-13 1.38552E-13
 -1     25392-2.56881E-13 3.11402E-13-4.21885E-14
 -1     25393 1.69981E-13 2.79743E-13 7.32192E-14
 -1     25394-1.66665E-13 3.13277E-12-4.56690E-13
 -1     25395-1.81634E-12 1.33525E-12 3.59907E-13
 -1     25396-2.51230E-13 1.58514E-12 7.35800E-13
 -1     25397 1.88485E-13-9.38620E-13-5.97300E-14
 -1     25398 3.72048E-14 7.92543E-15-4.51306E-14
 -1     25399-1.49630E-12-1.02082E-13-6.16174E-15
 -1     25400 1.90235E-13-5.41104E-13 2.35367E-14
 -1     25401-3.80443E-14-1.89415E-13-3.38340E-14
 -1     25402-7.49580E-13 2.52416E-13 5.32352E-14
 -1     25403-4.10958E-14-1.85667E-14 7.21645E-14
 -1     25404 2.59938E-14 3.18932E-13 3.31957E-14
 -1     25405-4.24850E-14 2.56046E-15-4.90719E-14
 -1     25406-9.16852E-14-3.94711E-14-1.13243E-14
 -1     25407 6.52670E-14-3.91117E-14-1.59872E-14
 -1     25408-1.86252E-14-9.21767E-14 3.14748E-14
 -1     25409 1.15993E-13-1.19007E-13-2.22600E-14
 -1     25410 1.28159E-13-2.09431E-13 3.03091E-14
 -1     25411-5.49706E-13 2.91373E-12 1.21543E-13
 -1     25412 4.53687E-13-1.01061E-12-2.90268E-13
 -1     25413-1.24556E-12 7.60947E-13-3.69371E-13
 -1     25414 8.32139E-13 2.38283E-12-3.54716E-14
 -1     25415 2.19227E-14-2.69175E-14-1.29063E-15
 -1     25416-3.94747E-15-2.37631E-14-8.71525E-15
 -1     25417 2.60294E-14-2.26662E-13 2.60902E-14
 -1     25418 5.80233E-13 6.60659E-13 4.45532E-13
 -1     25419 1.29562E-14-1.28229E-12-2.42251E-13
 -1     25420-5.31055E-13-1.16669E-12-3.04978E-13
 -1     25421 2.57835E-13-4.03336E-12 3.40023E-14
 -1     25422-7.67818E-14 8.26514E-13 2.30926E-14
 -1     25423-9.89627E-14-1.63919E-13-2.52576E-15
 -1     25424 3.33817E-14-4.06134E-14 1.36002E-14
 -1     25425-3.54392E-14 1.43569E-13-5.67406E-15
 -1     25426 6.89515E-13-1.11433E-13 1.75832E-13
 -1     25427 6.83125E-14-1.14402E-13 1.02128E-14
 -1     25428 6.37333E-14 3.70960E-13 5.93414E-14
 -1     25429-1.77120E-13 2.98602E-13 2.02130E-14
 -1     25430-4.27165E-13-1.33879E-13 3.57492E-14
 -1     25431 5.31552E-13-6.17271E-13-1.03917E-13
 -1     25432 1.96273E-14-4.54750E-13 1.58706E-13
 -1     25433-3.79841E-14 2.02231E-13 6.74460E-14
 -1     25434-1.43369E-14 2.52838E-13-4.10783E-15
 -1     25435-8.17151E-14 7.98751E-13-1.01030E-13
 -1     25436 2.79334E-15 1.16422E-14 1.44329E-15
 -1     25437 1.33242E-14-2.65014E-14-3.60822E-16
 -1     25438-3.60318E-15-9.50412E-16 8.88178E-16
 -1     25439-6.20161E-15-5.12967E-15-1.11022E-16
 -1     25440 1.61605E-15-1.20498E-14 1.64625E-15
 -1     25441 1.68107E-13-3.73403E-12 1.72307E-13
 -1     25442-2.73609E-13-4.70954E-12 7.27418E-13
 -1     25443 1.03993E-12-2.15696E-12 4.10227E-13
 -1     25444-5.22404E-15-1.79049E-14-3.09475E-15
 -1     25445 2.67861E-14-3.09466E-14 7.35523E-15
 -1     25446-7.67821E-15-1.94093E-14-4.66294E-15
 -1     25447 1.07414E-14-2.59558E-16-3.10862E-15
 -1     25448 1.34376E-14 5.39120E-16 1.55431E-15
 -1     25449-1.93963E-14-2.16421E-15 4.99600E-16
 -1     25450 2.24170E-15 1.07987E-15-1.11022E-15
 -1     25451 6.19635E-16 1.57470E-15 3.83027E-15
 -1     25452 4.88654E-14 1.20409E-13 2.79221E-14
 -1     25453-9.21509E-15 3.20488E-13 2.22808E-14
 -1     25454 7.39363E-14-1.99595E-13-1.59150E-13
 -1     25455-6.08991E-14-1.68230E-14 5.73985E-14
 -1     25456 5.38855E-14 5.87516E-14-3.50275E-14
 -1     25457 7.48620E-14-2.51991E-13 4.21885E-15
 -1     25458-7.88221E-13-1.41914E-12-2.81553E-13
 -1     25459 2.53144E-14 2.29761E-12 2.39114E-13
 -1     25460-2.18942E-12 2.07174E-12-6.78319E-13
 -1     25461 1.39899E-13-2.23407E-12 2.47136E-13
 -1     25462 4.33563E-14 1.34416E-12-1.76012E-13
 -1     25463 3.69452E-13 1.34144E-13-7.64944E-14
 -1     25464-6.55535E-15-7.44035E-16 1.98452E-15
 -1     25465 4.74871E-15 5.21827E-16 3.33067E-16
 -1     25466-8.71834E-16-6.20711E-15-4.30211E-16
 -1     25467 6.22149E-15 4.32792E-15-1.38778E-15
 -1     25468 1.23342E-12-6.81742E-13-5.81108E-13
 -1     25469 5.02406E-13-1.37173E-12 1.08415E-13
 -1     25470 7.82043E-14-4.80678E-13 2.65787E-13
 -1     25471 3.96175E-14-1.26436E-13 8.85056E-15
 -1     25472 8.96166E-14-2.06338E-13 7.41074E-15
 -1     25473 1.45368E-14-1.34961E-14-1.33227E-15
 -1     25474 9.42894E-14-1.16308E-14 3.21965E-14
 -1     25475 9.69597E-15-3.55521E-15 2.77556E-17
 -1     25476-6.29780E-14 1.01151E-15-1.10190E-14
 -1     25477 2.21286E-15 3.63289E-16 1.05471E-15
 -1     25478 6.43596E-16-1.98340E-14 1.66533E-15
 -1     25479 6.71620E-15-8.40849E-15 4.46865E-15
 -1     25480-6.19817E-15-2.60477E-14-1.11022E-15
 -1     25481 1.61511E-14 5.49268E-15-6.43929E-15
 -1     25482 2.79513E-15 1.21079E-14 1.97065E-15
 -1     25483 1.16916E-14 2.86789E-14-6.32827E-15
 -1     25484 6.97619E-15-8.74387E-15 1.24345E-14
 -1     25485-1.79188E-14-1.53003E-15 4.66294E-15
 -1     25486-4.67381E-14-6.56695E-15-8.10463E-15
 -1     25487 1.49761E-14 3.04401E-14 1.91513E-14
 -1     25488 9.18815E-14 1.41526E-13-4.35207E-14
 -1     25489-1.47496E-13-1.37187E-13 4.32709E-14
 -1     25490 3.43436E-14 7.46308E-14 1.01308E-14
 -1     25491 1.07699E-13-2.22739E-14 2.33563E-14
 -1     25492-2.03877E-14-5.35584E-14-8.50708E-15
 -1     25493 1.76534E-13-1.90022E-12-1.17573E-12
 -1     25494 2.82159E-12 5.16769E-12-7.31415E-13
 -1     25495 1.21378E-12 5.08452E-12-9.17044E-14
 -1     25496-2.16113E-15-7.15422E-13-6.14231E-14
 -1     25497 1.07587E-13 5.16385E-14 1.90958E-14
 -1     25498 1.10009E-13 9.10086E-14-1.78024E-13
 -1     25499 9.33227E-14 1.90354E-13-8.70692E-14
 -1     25500-1.73463E-13 2.08821E-13-3.73701E-13
 -1     25501-1.04093E-13 8.08058E-13 1.26815E-13
 -1     25502 8.65739E-14 8.54559E-13-9.83658E-14
 -1     25503 4.37754E-13 8.83120E-13 2.31117E-13
 -1     25504 6.42811E-14 1.63386E-13 5.53724E-14
 -1     25505-6.97045E-15 2.73538E-13-1.96454E-13
 -1     25506 2.24214E-13-8.96755E-13-7.06657E-14
 -1     25507 5.20592E-13 4.77114E-13 1.52295E-13
 -1     25508 1.41464E-13-2.69910E-13 5.19584E-14
 -1     25509-5.82178E-14-6.30506E-13-5.37348E-14
 -1     25510-6.27537E-13-1.34145E-13-1.65798E-13
 -1     25511 2.01440E-13 6.61740E-14-1.42050E-13
 -1     25512 2.36989E-13 5.72489E-13-3.96572E-13
 -1     25513-2.30852E-13-1.22107E-12-4.55924E-14
 -1     25514 1.03582E-13 1.59707E-13-2.81886E-13
 -1     25515 1.34422E-13 3.75863E-13 1.39111E-13
 -1     25516-2.12401E-13-5.75749E-13-1.43219E-13
 -1     25517 1.65194E-13 3.33605E-13 7.89299E-16
 -1     25518-2.74259E-13-5.40377E-13 9.31703E-14
 -1     25519-9.42457E-14 8.63734E-13-7.68829E-15
 -1     25520-1.27223E-13 5.76259E-13-1.16018E-14
 -1     25521 7.63935E-14-1.34704E-13-8.80407E-14
 -1     25522 1.16785E-13 5.58098E-13 1.43191E-13
 -1     25523 9.60576E-14-2.27524E-13 1.57568E-13
 -1     25524-1.08800E-13-4.75995E-14-5.97855E-14
 -1     25525-2.94140E-13-5.78580E-13 8.75966E-14
 -1     25526 4.93114E-14-1.78863E-13-1.85407E-14
 -1     25527-3.42436E-13-2.00230E-14-9.21485E-15
 -1     25528-6.90409E-14 6.24197E-13-2.18159E-14
 -1     25529-1.48853E-13 2.81561E-13 4.72608E-14
 -1     25530-3.16429E-13 1.61639E-12 4.21885E-15
 -1     25531 4.79220E-14-2.05369E-13-3.76088E-14
 -1     25532 2.18914E-15-1.05264E-13 3.77476E-15
 -1     25533 1.15610E-13 6.58466E-13 2.69784E-14
 -1     25534 1.17354E-14 1.27487E-13 4.10783E-15
 -1     25535-8.28218E-14-2.31288E-13 3.71925E-15
 -1     25536-2.29739E-13 1.96163E-14 7.94677E-15
 -1     25537-6.73328E-14-4.06588E-14 1.41553E-14
 -1     25538-9.16243E-14 1.29747E-13 3.05034E-14
 -1     25539 6.48911E-14 9.15396E-14-2.45359E-14
 -1     25540-8.06314E-14 9.39252E-14-6.13953E-14
 -1     25541 3.74410E-14-1.41391E-13-4.21607E-14
 -1     25542 4.58049E-14 1.60021E-13 5.88418E-14
 -1     25543 6.08964E-15 9.26986E-13 9.88098E-14
 -1     25544-9.95270E-14 1.07204E-13 2.93876E-13
 -1     25545-6.73883E-13 1.89067E-12-1.27065E-13
 -1     25546 9.86141E-13 1.16001E-12 4.98712E-13
 -1     25547 2.25744E-13-9.35245E-13-8.88178E-14
 -1     25548 1.15846E-14 4.33747E-13 6.57252E-14
 -1     25549-2.94579E-14-1.40189E-13 2.70894E-14
 -1     25550 5.16945E-14 2.89256E-14-1.16296E-14
 -1     25551 7.67122E-15-3.41641E-14 7.99361E-15
 -1     25552 7.98545E-15-1.29112E-14-3.56659E-15
 -1     25553-1.80411E-15 6.51546E-15 4.24660E-15
 -1     25554-1.65773E-14-2.24191E-14-2.02616E-15
 -1     25555 9.85296E-15-2.76091E-15 7.53564E-15
 -1     25556 2.26877E-15 2.42600E-15 3.04097E-15
 -1     25557-2.82245E-13-7.07655E-13 1.33449E-13
 -1     25558 2.03240E-13-4.29077E-13 8.26283E-14
 -1     25559 4.91705E-15-3.92701E-13 1.47105E-14
 -1     25560-3.19614E-13 1.95483E-13 6.83897E-14
 -1     25561-7.71529E-14-2.68809E-13 1.40776E-13
 -1     25562-1.27006E-13-8.38386E-13 8.59313E-14
 -1     25563 4.49778E-13 8.69542E-15-5.07025E-13
 -1     25564 6.17979E-15-4.68028E-15 1.11022E-16
 -1     25565 1.22580E-14-3.12387E-14-2.19269E-15
 -1     25566-9.98561E-15-1.11763E-14-1.33227E-15
 -1     25567 3.57933E-15 9.79544E-15 1.94289E-15
 -1     25568 1.52891E-14 2.82443E-14-6.10623E-16
 -1     25569-8.54997E-14-2.51686E-13 1.08594E-15
 -1     25570-5.48998E-13-9.63203E-14 2.37185E-13
 -1     25571-2.02338E-12-8.17384E-13-3.12198E-14
 -1     25572 3.59982E-13-2.73522E-13 2.08167E-13
 -1     25573-1.01459E-12 1.19505E-13-1.48770E-13
 -1     25574 7.10803E-14-2.36432E-14-4.59188E-13
 -1     25575 1.43263E-13-1.12736E-12-4.71845E-14
 -1     25576 1.67244E-17-1.63665E-15-2.52511E-16
 -1     25577-1.23026E-12 1.49079E-12 3.87655E-13
 -1     25578 3.57183E-13 2.44697E-12 4.65693E-13
 -1     25579-2.52709E-12 1.91535E-12 4.37815E-13
 -1     25580-1.16632E-12 9.73241E-14-9.78828E-13
 -1     25581 6.38051E-16-6.90795E-15-1.02696E-15
 -1     25582 4.01224E-15-1.84051E-14-7.49401E-15
 -1     25583-1.84331E-13-1.01319E-12-2.73670E-13
 -1     25584-1.53463E-13-1.06940E-12-2.31815E-13
 -1     25585 6.30215E-13-2.25910E-13 2.93099E-14
 -1     25586 2.61924E-13-1.25728E-12-1.57430E-13
 -1     25587 4.17490E-13-2.50375E-12-3.51386E-13
 -1     25588-1.00689E-12 6.20372E-13 4.33209E-13
 -1     25589-5.29723E-13-2.30138E-12 1.86018E-13
 -1     25590 1.89735E-13-5.96021E-13-1.00810E-12
 -1     25591 4.15154E-13-4.19972E-12-1.08136E-12
 -1     25592 9.22847E-13-1.18738E-12-6.75016E-13
 -1     25593 8.38888E-13-3.70592E-12-6.77847E-13
 -1     25594 2.55430E-12-6.66290E-12 3.08753E-13
 -1     25595 1.39937E-12-1.86778E-12 7.71661E-13
 -1     25596 5.80237E-13 3.63410E-13 6.59889E-14
 -1     25597 2.03034E-13-4.97899E-13 1.49214E-13
 -1     25598 2.38412E-14-2.05413E-14 1.28786E-14
 -1     25599-1.42627E-16 1.62052E-14-9.65894E-15
 -1     25600-1.02704E-14 7.27460E-13 1.82514E-13
 -1     25601 4.27823E-15 5.88169E-13 5.96745E-14
 -1     25602 3.97942E-13 7.06027E-13 8.58758E-13
 -1     25603 5.46501E-13-1.97927E-12-5.95746E-13
 -1     25604-3.84939E-13-6.28841E-12 3.70592E-13
 -1     25605 1.99355E-13 1.04911E-12-6.39488E-13
 -1     25606 2.13102E-14 1.23310E-12-2.63789E-13
 -1     25607-5.73839E-13 1.33355E-12-1.35891E-13
 -1     25608 2.39872E-13-1.24531E-12-2.25375E-14
 -1     25609 1.66495E-15-3.84885E-15-4.77049E-16
 -1     25610 2.60947E-12-3.17694E-12 5.03042E-13
 -1     25611-1.28429E-12 5.94862E-13-2.09499E-13
 -1     25612-1.19804E-16-6.26208E-16-6.10623E-16
 -1     25613-3.26452E-13 3.81449E-13-3.53051E-14
 -1     25614-1.31908E-13 7.68558E-14 6.89448E-14
 -1     25615-4.34284E-13 1.27455E-13 7.23865E-14
 -1     25616-1.32208E-13 9.18104E-13 8.21565E-14
 -1     25617 8.03303E-14 6.01513E-13-4.19664E-14
 -1     25618-7.38388E-13 5.11761E-13 4.04014E-13
 -1     25619 1.45902E-13 4.60313E-12-1.45772E-13
 -1     25620-1.11326E-12 1.37088E-12-6.43818E-13
 -1     25621-1.25589E-13-3.29894E-12 1.57374E-13
 -1     25622 8.63080E-14-6.75678E-14 1.34337E-13
 -1     25623 5.10446E-13 2.69063E-12-8.54872E-15
 -1     25624-2.57484E-13 1.63041E-13-2.46136E-13
 -1     25625-3.08164E-13-2.33860E-13 4.86694E-14
 -1     25626 1.29448E-13-4.66686E-13 7.91867E-14
 -1     25627-2.19384E-14-1.72774E-14 1.56819E-15
 -1     25628-8.74613E-15-1.49409E-13 1.14735E-14
 -1     25629 1.36993E-14 7.01492E-15-6.34215E-15
 -1     25630-9.22152E-15 7.15620E-14-7.35523E-16
 -1     25631-4.93141E-13-2.50877E-13-5.46230E-14
 -1     25632 3.71475E-14 3.28694E-13-1.23575E-13
 -1     25633 2.18921E-13 1.05966E-12-2.58682E-13
 -1     25634 2.34991E-13-4.56939E-13-7.40241E-14
 -1     25635 1.42406E-12 4.28325E-12 1.13895E-13
 -1     25636-7.70087E-13-1.31897E-12 8.95284E-13
 -1     25637 4.08580E-13 4.40691E-12 2.88658E-15
 -1     25638-4.18046E-13 3.13226E-12 5.81778E-13
 -1     25639-4.41870E-13 1.55428E-13 1.74083E-13
 -1     25640-6.96526E-14 9.66617E-13 7.83817E-14
 -1     25641-1.82430E-13-1.26931E-14-3.33067E-15
 -1     25642-1.81362E-13 6.09667E-13-5.84827E-14
 -1     25643 2.14524E-13 4.76960E-13-1.47875E-13
 -1     25644 3.12403E-13 5.17673E-13 5.31797E-14
 -1     25645-5.55055E-13 6.53853E-13 1.23464E-13
 -1     25646 8.52044E-14 1.65313E-13-5.38718E-14
 -1     25647 4.85468E-14-1.26302E-13 3.70676E-14
 -1     25648-8.58879E-14-2.97590E-13 8.40647E-15
 -1     25649-2.50290E-14-1.27984E-13 2.97611E-14
 -1     25650 2.20268E-14-7.20363E-13 3.25073E-13
 -1     25651 1.34165E-14 7.43280E-13-1.38500E-13
 -1     25652 4.22378E-13-4.56771E-13 2.33036E-13
 -1     25653 1.18471E-13-2.05572E-15-4.31322E-14
 -1     25654 6.71700E-14-9.31273E-14 3.58602E-14
 -1     25655-1.07071E-14-4.32458E-14-1.36557E-14
 -1     25656-3.19994E-14-2.84586E-14 9.46465E-15
 -1     25657 2.44760E-14 8.02333E-14 3.50622E-14
 -1     25658-2.29177E-13 8.38334E-14 3.81362E-14
 -1     25659 1.04340E-13-7.28718E-15-6.78624E-14
 -1     25660 2.28290E-14 1.48575E-14-3.10862E-15
 -1     25661-4.91859E-14 5.38107E-13-6.22770E-14
 -1     25662-1.23019E-13 3.33806E-13-2.41474E-15
 -1     25663-3.97051E-15 7.89099E-13 7.02632E-14
 -1     25664 4.70286E-13-7.18233E-14-1.11022E-15
 -1     25665 1.15754E-12 1.79680E-12-1.60905E-12
 -1     25666-3.49018E-12-1.47836E-12 1.17406E-12
 -1     25667 3.30615E-12-6.14231E-13 8.09217E-13
 -1     25668-1.26361E-12 3.90547E-12 7.85483E-15
 -1     25669 2.30566E-12-2.27101E-12 8.78908E-13
 -1     25670-3.56043E-12 2.59696E-13 3.05700E-13
 -1     25671 3.83171E-13 1.18330E-12-2.83995E-13
 -1     25672 2.13994E-12 2.35651E-14 8.15015E-13
 -1     25673 1.84404E-13 3.38282E-13-7.57418E-13
 -1     25674-2.93267E-12 5.37307E-12 2.51653E-13
 -1     25675-1.84029E-12-2.24518E-12-2.75419E-13
 -1     25676 5.02407E-12-2.42496E-12-1.74051E-12
 -1     25677 8.42399E-13-1.52000E-13-2.20546E-13
 -1     25678 1.14827E-12-1.42246E-12 5.06914E-13
 -1     25679-3.54331E-13-1.04869E-12-2.75502E-13
 -1     25680-8.75660E-13 2.46769E-13-3.80806E-14
 -1     25681 1.62440E-13 4.59599E-13-2.79984E-14
 -1     25682 1.38023E-12-1.84327E-12-8.58202E-14
 -1     25683 2.61142E-12 2.76578E-13-2.18617E-13
 -1     25684-2.69516E-13 8.01905E-13 1.88849E-13
 -1     25685-6.96312E-14-1.83087E-14 1.44051E-14
 -1     25686-4.31372E-14 7.30324E-14-8.57474E-15
 -1     25687-1.60524E-13 1.29043E-12-1.83825E-13
 -1     25688-4.00815E-13-8.09306E-13-5.08704E-13
 -1     25689-1.81218E-13-8.31460E-13 1.81938E-13
 -1     25690-1.58771E-13 3.38281E-13 1.49658E-13
 -1     25691-6.84682E-13 4.27532E-13 9.54792E-15
 -1     25692-1.48736E-13 2.92044E-13 1.64313E-13
 -1     25693 1.24671E-12-1.37818E-12 3.18606E-13
 -1     25694 2.76630E-13 2.46100E-13-1.72529E-13
 -1     25695-2.07196E-13 8.98618E-13 1.52156E-13
 -1     25696 1.99863E-13-5.29886E-13 2.77556E-13
 -1     25697 6.70706E-13 4.06419E-14-1.70364E-13
 -1     25698-1.11608E-12-3.07477E-13 2.41389E-13
 -1     25699 5.25905E-14-7.97835E-13 1.27232E-13
 -1     25700 1.34709E-12 9.59102E-13 4.24105E-14
 -1     25701-4.95293E-14-3.56207E-14 1.15463E-14
 -1     25702 3.27134E-13-7.23759E-13-9.98875E-13
 -1     25703-1.90576E-12 1.00483E-12 2.56517E-13
 -1     25704 1.54386E-12 1.08567E-12 1.43302E-12
 -1     25705-9.43306E-13 4.54845E-13 5.50532E-13
 -1     25706-9.43155E-13-1.67298E-12 3.66374E-13
 -1     25707-2.32265E-13-4.34862E-13 1.88877E-13
 -1     25708 7.47022E-13 5.68452E-13 3.65041E-13
 -1     25709 4.62998E-13-5.08448E-13-3.33955E-13
 -1     25710 8.44102E-13 1.82824E-13-1.46994E-13
 -1     25711 2.48881E-13 2.90301E-13-1.70627E-14
 -1     25712 4.77776E-13-3.11464E-12 2.19713E-13
 -1     25713 1.57364E-12 6.74846E-13 2.94875E-13
 -1     25714-9.87402E-14-1.19137E-13-2.31704E-13
 -1     25715-7.97464E-13-5.42934E-13 1.30118E-13
 -1     25716-2.41506E-13-1.13068E-13-9.17599E-14
 -1     25717 4.31381E-14 2.26383E-13 1.50407E-13
 -1     25718 3.62020E-14 1.04570E-14 3.70814E-14
 -1     25719-3.35862E-13-3.88852E-13-1.97065E-14
 -1     25720 8.35018E-14 1.23488E-13-5.53446E-14
 -1     25721-6.22793E-14 2.93402E-13-1.00059E-13
 -1     25722 3.55871E-14 2.16751E-13-2.13718E-14
 -1     25723-7.94161E-14-9.94367E-14-4.54081E-14
 -1     25724 1.09345E-12-7.15323E-13 5.76650E-13
 -1     25725-9.10447E-13 4.35957E-13-4.27741E-13
 -1     25726-5.12007E-13 1.85683E-12 2.08722E-14
 -1     25727-9.85587E-14-3.00307E-13-2.63012E-13
 -1     25728 1.05425E-13 4.74228E-13-2.77070E-14
 -1     25729 9.62633E-14 4.62674E-14-6.32827E-14
 -1     25730-1.61997E-13 4.33902E-13-5.89528E-14
 -1     25731-8.91007E-14-9.43939E-13-1.93734E-13
 -1     25732-2.20142E-13-4.36145E-13-4.37428E-14
 -1     25733 4.91752E-13-1.92624E-13-1.64313E-14
 -1     25734-9.20365E-14 5.79830E-13-1.99840E-15
 -1     25735 1.96504E-13-6.85564E-13 8.74856E-13
 -1     25736 1.74957E-13-6.30642E-13-2.37144E-13
 -1     25737 2.82422E-13-6.23456E-13-3.12861E-13
 -1     25738-2.70264E-13-5.08892E-13 5.70100E-13
 -1     25739-4.34569E-13-4.70452E-12 5.22582E-13
 -1     25740 1.00434E-15 2.13023E-13 2.60403E-13
 -1     25741 3.94331E-13-4.55615E-13-2.24931E-13
 -1     25742-2.44526E-14 1.93133E-13-1.45023E-13
 -1     25743 3.31513E-13 2.88014E-13 6.63358E-15
 -1     25744-2.56338E-13-3.74139E-13-1.58262E-13
 -1     25745-2.33555E-13-9.88367E-13-1.03473E-13
 -1     25746 5.03998E-12-1.81296E-12-2.58543E-13
 -1     25747 1.29375E-13 2.69942E-12-9.38138E-13
 -1     25748 1.14300E-12-7.87884E-13-5.76726E-13
 -1     25749-2.07827E-12-6.35589E-12-8.95506E-13
 -1     25750 2.20109E-12 1.96305E-12 6.77902E-13
 -1     25751-6.17688E-12 2.66624E-12 1.07447E-12
 -1     25752-1.13866E-13 4.03413E-13-1.84019E-14
 -1     25753 2.22485E-14 2.21401E-13 9.85323E-15
 -1     25754 3.13205E-14-2.79244E-13 5.57332E-14
 -1     25755-8.52012E-14 2.46639E-14-7.23865E-14
 -1     25756-3.92410E-13-4.76417E-14 1.56541E-14
 -1     25757 3.46657E-13-8.54320E-14-2.48690E-14
 -1     25758 3.16980E-13 1.47601E-13 6.97220E-14
 -1     25759 3.52854E-13 2.96893E-14 2.31037E-13
 -1     25760-1.13333E-13 2.74100E-12-6.35825E-13
 -1     25761-6.97694E-14 6.17232E-13-1.57097E-13
 -1     25762-1.47069E-12-1.93596E-12-7.20632E-13
 -1     25763-3.83145E-13 1.67725E-13-4.11560E-13
 -1     25764 3.05450E-13-1.00807E-14 6.68354E-14
 -1     25765-1.73304E-13 4.34940E-14-1.66867E-13
 -1     25766 4.51471E-14 4.83559E-14-1.43704E-13
 -1     25767-1.06469E-12-1.77245E-14 1.73028E-13
 -1     25768-8.73104E-14 1.90828E-13-8.04912E-15
 -1     25769-4.23115E-13 2.18607E-13 1.10719E-14
 -1     25770 1.33160E-13 2.10215E-13-8.18789E-14
 -1     25771-9.02623E-14-4.37945E-13 4.97380E-14
 -1     25772-7.11419E-13-3.97890E-13-1.45661E-13
 -1     25773-5.83897E-13 1.27765E-13-9.90319E-14
 -1     25774-1.57741E-12 2.84129E-13-2.09832E-13
 -1     25775-1.12553E-14-7.90304E-14-3.99680E-15
 -1     25776-2.84208E-13-3.11392E-13 5.88418E-15
 -1     25777-2.44613E-13 9.74307E-15-7.52731E-14
 -1     25778 9.05959E-16 3.96002E-14-3.00537E-13
 -1     25779 8.28811E-13 5.16378E-13-4.02013E-13
 -1     25780-1.45399E-13-8.69161E-13-7.09596E-13
 -1     25781-1.22356E-12 5.63920E-13 1.90174E-12
 -1     25782-2.11926E-13-6.56357E-13 2.78111E-14
 -1     25783 7.04105E-15 3.51952E-13 5.22568E-14
 -1     25784-9.87445E-14 2.93929E-13-5.58165E-14
 -1     25785-3.46069E-13-1.75978E-12-2.14828E-14
 -1     25786-7.24368E-13 1.74768E-12-3.26295E-13
 -1     25787-4.62677E-13-2.71598E-12 1.17684E-13
 -1     25788 7.40048E-13-2.33470E-12 4.85278E-13
 -1     25789 2.16769E-13 1.57385E-12 3.78364E-13
 -1     25790-3.64385E-13 9.34903E-14 4.42424E-14
 -1     25791 8.94423E-14-1.78633E-12 4.06786E-13
 -1     25792 1.20478E-14 4.62317E-14 2.68230E-13
 -1     25793 3.08317E-13-3.50599E-13 2.24154E-13
 -1     25794-1.06684E-14-1.64672E-13 1.71654E-13
 -1     25795 3.93433E-13-4.42035E-13-9.59233E-14
 -1     25796 5.45277E-13 2.26080E-13-2.66898E-13
 -1     25797 8.16867E-14-1.17016E-13-1.68754E-14
 -1     25798 1.25359E-13-2.49149E-13-5.68989E-14
 -1     25799 3.85483E-13 2.82371E-12 3.32623E-13
 -1     25800 3.68667E-13 9.54110E-13-3.26850E-13
 -1     25801 4.66757E-13-1.82453E-13-5.99520E-14
 -1     25802-4.52828E-15 2.25145E-15-6.66134E-16
 -1     25803 1.21203E-15 2.99538E-16 3.60822E-16
 -1     25804 1.53068E-15-3.38943E-15-8.32667E-16
 -1     25805-5.80560E-15 2.28150E-13 9.19265E-14
 -1     25806-4.59307E-13 6.08532E-14 2.91434E-14
 -1     25807-2.22020E-13-4.05677E-13 2.52194E-14
 -1     25808-5.18444E-13 5.42605E-13 4.78506E-14
 -1     25809 1.56499E-14-3.43563E-15 2.99760E-15
 -1     25810-3.01408E-15 5.82034E-15 8.68750E-15
 -1     25811-1.30944E-13 1.75148E-12-1.43219E-13
 -1     25812 1.61158E-12-2.56430E-12 1.66978E-13
 -1     25813 6.09474E-13 1.48592E-13 1.69753E-13
 -1     25814-7.57544E-13-3.06604E-13-3.44835E-13
 -1     25815 6.24962E-13-2.53225E-12 3.48929E-13
 -1     25816 1.85197E-13-1.06957E-13 1.05332E-14
 -1     25817-1.63550E-13 3.13517E-13 4.04121E-14
 -1     25818-4.68587E-15 1.18417E-15 3.16414E-15
 -1     25819-2.62368E-15-7.96471E-15-2.62550E-15
 -1     25820-2.69915E-15 7.77790E-15 1.49880E-15
 -1     25821 7.38484E-14-4.61669E-13-2.04281E-14
 -1     25822-4.76009E-13-1.36230E-13 5.38458E-14
 -1     25823 3.65499E-13 1.99902E-14 1.74305E-14
 -1     25824 8.97158E-13-1.59508E-13-1.14357E-13
 -1     25825-4.35682E-14-1.09548E-13-8.72219E-15
 -1     25826-1.19316E-13-1.31164E-13-7.62584E-15
 -1     25827-5.06834E-14-3.73844E-13-5.18474E-14
 -1     25828-1.07988E-13 1.56865E-13 1.49325E-14
 -1     25829 1.51810E-14 7.91419E-15 1.61537E-13
 -1     25830 6.55595E-14-5.93308E-13-3.67761E-15
 -1     25831-3.48052E-14 8.74655E-14 6.90871E-14
 -1     25832-2.48728E-13-9.57734E-13-5.09592E-14
 -1     25833-1.53049E-14-2.56338E-13 1.09912E-14
 -1     25834 3.57688E-14-1.27118E-13-3.47986E-15
 -1     25835-2.42531E-15-8.36135E-14-4.79616E-14
 -1     25836-5.26486E-15-4.74346E-14-2.74034E-14
 -1     25837 1.25134E-13-2.56765E-13 9.15934E-15
 -1     25838-4.77822E-14-6.23618E-14-6.86118E-14
 -1     25839 2.78865E-13 2.20779E-13 8.12683E-14
 -1     25840 4.53563E-14-1.43921E-13-3.25000E-15
 -1     25841 1.31887E-13 2.08675E-13-3.44585E-14
 -1     25842-9.79039E-14 3.49995E-14 7.21645E-15
 -1     25843 1.30656E-13-3.12779E-13-6.93889E-14
 -1     25844 2.62257E-13-1.19241E-13-3.94355E-14
 -1     25845-4.40887E-13 1.51598E-12-5.67324E-14
 -1     25846-3.84448E-13 6.99219E-13-3.78586E-14
 -1     25847-3.99884E-14-3.52269E-13-2.19769E-13
 -1     25848-6.93161E-15 1.62193E-15 3.15720E-16
 -1     25849 7.01755E-15-6.01629E-15 3.74700E-15
 -1     25850 2.89920E-15-5.29672E-15 2.06085E-15
 -1     25851-2.07428E-14-2.97860E-14 4.52416E-15
 -1     25852 3.72737E-14 2.85614E-14-9.32587E-15
 -1     25853 1.10568E-14 3.32981E-14 3.78864E-15
 -1     25854 5.30192E-15 2.81555E-15 1.04907E-15
 -1     25855 1.34341E-14 5.43402E-16 2.10942E-15
 -1     25856 1.21989E-15 1.20499E-14 3.10862E-15
 -1     25857-1.74003E-12-1.92694E-12 5.16753E-13
 -1     25858-4.47370E-12 1.43191E-12-3.47958E-13
 -1     25859-1.17816E-12 1.72298E-12-1.39249E-12
 -1     25860-6.37010E-13-3.43078E-12 7.51653E-13
 -1     25861 2.45739E-12 2.75806E-12-3.82805E-13
 -1     25862-1.95118E-12 2.87635E-12 3.93921E-14
 -1     25863 7.97342E-14 7.76112E-14 6.32827E-15
 -1     25864-5.91537E-14 4.94215E-13-4.92661E-14
 -1     25865-1.85913E-14-1.83140E-13 3.17524E-14
 -1     25866 1.53450E-13 1.11374E-13 3.91354E-15
 -1     25867-3.25853E-14-4.70387E-14-2.83107E-15
 -1     25868-2.66978E-14-1.16134E-13 6.32827E-15
 -1     25869-5.10652E-14-2.28971E-13 6.43929E-15
 -1     25870 2.44674E-13-3.84806E-13-4.82836E-13
 -1     25871-2.15784E-13 1.89620E-12-3.82416E-13
 -1     25872 4.18053E-13 1.55342E-13-5.73874E-13
 -1     25873-3.78592E-13-2.12228E-13-7.41629E-13
 -1     25874-1.88377E-13-5.16462E-13 1.23651E-13
 -1     25875-1.46270E-13-2.28006E-14 2.71172E-13
 -1     25876 5.12099E-14-7.66802E-16 3.88578E-15
 -1     25877 2.97974E-15-2.90341E-15 3.60822E-16
 -1     25878-4.47663E-15-3.19570E-16-1.00614E-16
 -1     25879 3.98928E-14 1.79366E-13-3.21410E-14
 -1     25880-1.73492E-13-1.61138E-14-4.20219E-14
 -1     25881 3.24665E-13-1.63505E-14 5.25691E-14
 -1     25882-7.94127E-14 5.20626E-13-8.10463E-14
 -1     25883-1.05928E-13 2.19288E-13 1.33782E-14
 -1     25884 4.50852E-14-4.58897E-13-7.93809E-14
 -1     25885-3.20804E-13 8.25625E-13 5.73985E-14
 -1     25886-1.10030E-13-1.82537E-13-4.52138E-14
 -1     25887-8.22329E-15-1.39554E-12 8.14904E-14
 -1     25888-6.15952E-15 6.77870E-16-1.08247E-15
 -1     25889 1.45608E-15-1.26201E-16 6.66134E-16
 -1     25890 4.08739E-15-9.52580E-16-7.21645E-16
 -1     25891 8.72132E-16 5.24808E-16 1.55431E-15
 -1     25892-8.93562E-16-2.69263E-16 5.11743E-17
 -1     25893 1.87515E-13 2.25721E-13 1.03473E-13
 -1     25894-1.63039E-13 3.88552E-13-3.95239E-14
 -1     25895 4.62875E-13-3.58517E-13-1.83825E-13
 -1     25896-3.21444E-13-7.73116E-13-1.36732E-13
 -1     25897 4.08344E-13 2.65928E-12 1.63147E-13
 -1     25898-7.91919E-13 1.51587E-13 2.46177E-13
 -1     25899-3.04574E-15-1.04734E-16 1.22125E-15
 -1     25900 2.06798E-13 3.45178E-13-4.95992E-14
 -1     25901-7.06348E-14 1.83775E-14 4.40481E-14
 -1     25902 1.46153E-13 1.43953E-13 3.17524E-14
 -1     25903-5.12402E-14-2.94313E-13-2.12885E-14
 -1     25904-4.73823E-14-1.20848E-12-2.97540E-14
 -1     25905 2.37995E-12 1.02403E-12 2.30815E-13
 -1     25906 1.83691E-12 1.14383E-12-4.40203E-13
 -1     25907-2.80271E-13 8.13531E-13 6.66134E-15
 -1     25908 1.88386E-15-3.37726E-15 4.71845E-16
 -1     25909-2.12472E-14 9.15175E-15 1.49186E-15
 -1     25910 5.14692E-15 1.25421E-15 8.88178E-16
 -1     25911 1.73407E-13 6.03336E-13 2.54130E-13
 -1     25912 4.20047E-15 5.53683E-13-1.37640E-13
 -1     25913 1.93864E-13-1.20943E-12-4.09450E-13
 -1     25914-4.77587E-14-3.77427E-13-7.92699E-14
 -1     25915 1.24461E-12-2.72790E-12 2.73476E-13
 -1     25916-3.61356E-14-5.13959E-15-1.44482E-13
 -1     25917 3.83518E-13 6.70221E-13 1.49492E-13
 -1     25918-3.27415E-13 1.82791E-13 7.80487E-14
 -1     25919 5.96092E-13 3.45203E-13 5.94247E-14
 -1     25920-4.82692E-13 1.06746E-12 2.17215E-13
 -1     25921 2.77609E-13 7.13774E-14-1.07248E-13
 -1     25922-3.63246E-13 5.92630E-13 3.93019E-14
 -1     25923-2.44341E-13-1.52704E-12 1.70086E-13
 -1     25924 6.00908E-15 4.99600E-16 2.66454E-15
 -1     25925 8.16827E-14-2.18046E-14 4.99600E-15
 -1     25926-1.54174E-14 4.51722E-15 5.21805E-15
 -1     25927 7.77294E-13 1.91895E-12 3.19689E-13
 -1     25928-1.18917E-12-8.07204E-13-6.31939E-13
 -1     25929-2.76884E-13 1.40987E-13-2.88991E-13
 -1     25930 2.94543E-14 1.12942E-15 3.19189E-15
 -1     25931-6.48353E-15-2.91997E-15-3.33067E-15
 -1     25932-2.17921E-14-1.13982E-15-1.49880E-15
 -1     25933-4.46323E-14 8.16296E-15-1.06581E-14
 -1     25934-3.04127E-14 1.45253E-14-1.13243E-14
 -1     25935 1.12250E-14 3.61154E-14-3.33067E-16
 -1     25936 7.24990E-15 4.53847E-16 9.43690E-16
 -1     25937 3.74189E-15-5.10549E-15-4.02456E-16
 -1     25938 7.30497E-15-2.40689E-14 3.91354E-15
 -1     25939 5.03812E-15-1.55874E-15-3.16414E-15
 -1     25940 9.56917E-16 3.79075E-15-2.88658E-15
 -1     25941-2.86801E-12-5.51382E-12 4.39017E-13
 -1     25942-4.93926E-13 9.59327E-13 8.76521E-14
 -1     25943-2.26475E-12 1.14447E-12-8.41330E-13
 -1     25944 2.35950E-12 4.24621E-12-5.36251E-14
 -1     25945 1.38121E-13 8.91491E-15-4.16334E-15
 -1     25946 7.83077E-14 1.41161E-13-1.68754E-14
 -1     25947 3.01459E-13-9.83796E-13 5.20695E-14
 -1     25948-3.13980E-13 4.03689E-13-6.85230E-13
 -1     25949-1.10365E-12 1.12843E-13-1.42664E-13
 -1     25950-4.82146E-13-7.89917E-13 2.11942E-13
 -1     25951-1.50944E-13 1.73450E-13-2.19824E-13
 -1     25952 4.22877E-15 2.09352E-15 5.55112E-16
 -1     25953 9.14010E-16 5.43361E-15-3.16414E-15
 -1     25954 9.76840E-13-1.42934E-12 1.37730E-13
 -1     25955 1.17248E-12-1.02390E-12 5.11147E-13
 -1     25956 4.32347E-15-1.57415E-14 1.08802E-14
 -1     25957-1.38205E-13 1.08524E-14 2.19824E-14
 -1     25958 2.58351E-13 9.20032E-14-2.33147E-14
 -1     25959-7.02816E-15 1.19862E-13 9.95905E-14
 -1     25960-4.61556E-13-3.96590E-14 1.49436E-13
 -1     25961 4.27640E-14-9.76151E-15 8.43769E-15
 -1     25962-1.12726E-13-4.63986E-14 9.32587E-15
 -1     25963-2.61044E-14-1.04212E-14-2.80331E-15
 -1     25964-2.85468E-14 2.07427E-14-4.77396E-15
 -1     25965-8.48418E-14 1.47312E-14-8.10463E-15
 -1     25966-2.32295E-13-1.21983E-12-5.12923E-14
 -1     25967-3.56189E-13 3.29255E-13-3.78475E-13
 -1     25968 1.12329E-12-1.97509E-12-2.66072E-13
 -1     25969 8.56533E-13 9.77516E-13-1.21902E-13
 -1     25970 1.15928E-14-8.57870E-14-3.71231E-14
 -1     25971 1.28189E-12 2.51742E-12-2.27374E-13
 -1     25972 7.36348E-13 1.87483E-12-3.93019E-13
 -1     25973 8.72810E-13 1.13658E-12 3.70814E-14
 -1     25974-4.57180E-13 3.18372E-12-1.10925E-13
 -1     25975-1.45775E-12 1.48113E-13-1.03972E-13
 -1     25976 1.54958E-12 9.64216E-13 4.41314E-13
 -1     25977-2.23870E-12 5.39016E-12 9.64090E-14
 -1     25978-8.92804E-14 1.58657E-13-7.90785E-15
 -1     25979-1.62584E-12-1.41274E-12 6.03476E-13
 -1     25980-3.46565E-13-3.37389E-13 3.54986E-13
 -1     25981-2.29121E-13 5.03512E-13 1.87128E-13
 -1     25982-8.69231E-13 3.67163E-12-5.77445E-13
 -1     25983 4.32261E-13-2.99278E-12-5.44231E-13
 -1     25984 6.49957E-13-1.17728E-12 3.46612E-13
 -1     25985 4.55458E-14 2.01888E-13 2.79794E-14
 -1     25986 5.14696E-14-1.63662E-13 5.30409E-14
 -1     25987-1.06112E-13-2.36146E-14-1.22236E-14
 -1     25988-2.79047E-14 1.37421E-15-7.16094E-15
 -1     25989 1.03961E-12-3.93062E-13-7.32747E-15
 -1     25990-3.05217E-13 3.08976E-12 4.65961E-13
 -1     25991 3.21294E-12-8.69012E-13-2.11463E-14
 -1     25992 4.35871E-13-3.49263E-12 2.12760E-13
 -1     25993 3.55298E-12-1.64812E-12-1.39644E-12
 -1     25994-9.02179E-13-1.05472E-13-5.91971E-13
 -1     25995 3.64428E-14 2.50778E-14 9.43690E-15
 -1     25996 5.05663E-14 2.82015E-14-5.80092E-15
 -1     25997 1.86197E-13-5.14386E-12-2.25375E-13
 -1     25998 6.75129E-13 9.05902E-15-8.63754E-14
 -1     25999 9.39235E-14-1.52903E-12 3.81917E-14
 -1     26000 2.41922E-13 3.61157E-12 2.51342E-13
 -1     26001 1.16610E-12-2.74319E-12 4.06342E-13
 -1     26002-4.48265E-13 3.63721E-12-5.04582E-13
 -1     26003 8.87074E-13 6.50208E-12-3.73996E-13
 -1     26004 2.96830E-14 1.66321E-12-5.25175E-14
 -1     26005-3.12480E-12 5.10548E-13-3.72924E-13
 -1     26006-2.71372E-13 5.11568E-13-8.08659E-14
 -1     26007-7.64232E-13-2.69932E-12-4.77507E-13
 -1     26008-3.08363E-15-2.68063E-14-6.42542E-15
 -1     26009-1.62361E-14-2.15521E-14-4.32987E-15
 -1     26010-3.76934E-15 2.38748E-14 1.01030E-14
 -1     26011-4.33807E-14-7.07824E-14 5.71765E-15
 -1     26012-2.71181E-14 1.24456E-15-6.99441E-15
 -1     26013 4.53822E-14-1.07070E-13 4.82947E-15
 -1     26014 3.13037E-14 3.87215E-13 8.82627E-14
 -1     26015-4.22822E-14 8.74969E-14 1.44329E-14
 -1     26016-4.12312E-13-1.57367E-13-9.07052E-14
 -1     26017 8.12470E-14-3.55703E-13-3.39589E-14
 -1     26018-3.20793E-13-4.47510E-15 3.22242E-14
 -1     26019 1.68906E-13-4.82486E-14 7.32747E-15
 -1     26020 2.93740E-13-8.69782E-14 1.29896E-14
 -1     26021 9.70092E-14-3.45676E-14 6.43374E-14
 -1     26022-2.25162E-13-1.10192E-13-4.06342E-14
 -1     26023 3.60069E-15 3.89283E-16-5.55112E-16
 -1     26024-9.26433E-15-5.19228E-14 8.04912E-16
 -1     26025 1.04808E-14-5.22184E-15-4.12170E-15
 -1     26026-7.38545E-15-1.34308E-14-2.41474E-15
 -1     26027 3.49249E-15-1.80350E-14-6.57807E-15
 -1     26028 1.08916E-13-5.48608E-14 4.54081E-14
 -1     26029-3.53246E-15 2.10559E-13-1.26704E-14
 -1     26030 8.82750E-14 3.26349E-13 4.91940E-13
 -1     26031 1.52429E-13-2.72427E-12-6.54587E-13
 -1     26032 7.94421E-14 4.46997E-13 2.07612E-13
 -1     26033-4.26550E-13 2.63313E-13 2.65343E-14
 -1     26034-2.28623E-13-4.08817E-13 3.95572E-13
 -1     26035-7.25392E-14 1.25906E-14 5.95080E-14
 -1     26036-2.29913E-13 8.31381E-13-1.33227E-15
 -1     26037 1.32067E-13-5.96456E-13 1.07025E-13
 -1     26038 2.28638E-13-4.02853E-14 2.79776E-14
 -1     26039-1.79835E-13-1.15096E-13 8.28781E-14
 -1     26040 5.71658E-13 4.70549E-12 3.74145E-13
 -1     26041-4.85235E-14 1.71066E-13 2.56739E-15
 -1     26042 4.11177E-14-8.39454E-14-4.99600E-15
 -1     26043 7.06928E-14-1.12806E-13-3.90799E-14
 -1     26044 1.35394E-15-4.41266E-15-4.16334E-15
 -1     26045 2.86641E-13-2.28633E-13-7.12763E-14
 -1     26046 1.01317E-13-4.38370E-13 1.48770E-14
 -1     26047 7.11993E-13 6.01378E-14 1.12355E-13
 -1     26048-6.57394E-14 1.57962E-12-3.59712E-13
 -1     26049-1.75672E-13 1.09513E-13-1.58928E-13
 -1     26050 5.19353E-13 1.89962E-12 7.54952E-15
 -1     26051 7.18888E-13-6.33790E-13 1.76859E-13
 -1     26052 4.28294E-12 1.26052E-11 5.16809E-13
 -1     26053 2.56475E-12 4.88178E-12 1.35042E-12
 -1     26054-4.03264E-12-9.46048E-13-1.38262E-12
 -1     26055-2.33990E-12-2.26615E-12 1.29188E-12
 -1     26056-1.91129E-13-8.91719E-12-2.65898E-14
 -1     26057 1.77404E-12-1.68875E-12 5.72320E-14
 -1     26058 5.49072E-13 7.24038E-12 7.96446E-13
 -1     26059 1.22220E-12-2.67502E-13-6.06550E-13
 -1     26060-2.36570E-13-4.34915E-13-1.07137E-14
 -1     26061-8.74978E-14-2.81572E-14-4.00791E-14
 -1     26062 1.25692E-12-2.73968E-13 5.20695E-14
 -1     26063 1.50107E-12-1.55902E-12-3.56382E-13
 -1     26064 1.31978E-12-2.27299E-12 5.72431E-13
 -1     26065-2.09858E-14-5.11507E-12 1.17861E-12
 -1     26066 1.13143E-12-6.36915E-12-7.18092E-13
 -1     26067-7.74278E-13-1.80040E-12 2.20501E-13
 -1     26068 9.24105E-13-7.24609E-13 5.55112E-14
 -1     26069 6.61391E-14 1.64735E-12-4.18998E-13
 -1     26070 3.16685E-12-4.40075E-13-5.04485E-13
 -1     26071-7.04595E-13-1.52248E-13-2.20712E-13
 -1     26072-1.16358E-13-3.60443E-13-1.72196E-13
 -1     26073-4.92849E-13 7.52391E-13 8.55427E-13
 -1     26074 1.95385E-13-2.01027E-13 5.82867E-14
 -1     26075-2.37572E-13-1.22168E-12 2.59015E-13
 -1     26076-6.73882E-14-3.45255E-13 6.96075E-14
 -1     26077-2.35584E-13 3.01655E-13-1.40943E-13
 -1     26078 6.80973E-13 8.01881E-13-1.09066E-13
 -1     26079-1.69391E-12-7.98323E-13 8.13682E-13
 -1     26080 6.39166E-12-1.97218E-12 9.91188E-13
 -1     26081-2.10748E-12 4.64376E-12-5.78038E-13
 -1     26082-3.79891E-16-9.90620E-14-6.18394E-14
 -1     26083-2.22913E-14-2.54000E-13 6.21725E-15
 -1     26084 8.02850E-15 2.50207E-13-4.21052E-14
 -1     26085 3.01283E-14-2.41907E-14 4.88498E-15
 -1     26086 1.21711E-14-7.17571E-15-2.05391E-15
 -1     26087-4.40845E-14 5.14892E-15 8.53345E-14
 -1     26088 2.28028E-13 8.57650E-15 5.82590E-14
 -1     26089-1.86900E-13 2.25236E-13 9.31755E-14
 -1     26090-2.22578E-13-4.85344E-14-1.47063E-13
 -1     26091-5.55855E-13-2.57230E-13 3.35270E-14
 -1     26092-3.64370E-13-1.84375E-12 3.17024E-13
 -1     26093-2.74117E-13-1.18616E-13-2.88658E-14
 -1     26094-4.98388E-13 6.45351E-13-4.80857E-13
 -1     26095 2.91625E-12 7.13683E-13 4.26548E-13
 -1     26096 1.40208E-12-2.51268E-12-9.89573E-14
 -1     26097 1.50509E-12-1.00686E-12-1.04004E-12
 -1     26098-7.08753E-12-4.29666E-12 6.28060E-13
 -1     26099 3.85650E-14 7.57374E-13 1.52850E-13
 -1     26100-3.70058E-14 3.74097E-13 2.59612E-13
 -1     26101-2.56051E-14 1.13576E-12-6.83342E-14
 -1     26102 9.71001E-13 2.20401E-12 9.65544E-13
 -1     26103 1.57737E-14-2.06177E-13-1.12281E-12
 -1     26104 7.41961E-13 1.02794E-12-1.32006E-13
 -1     26105-9.35058E-14-1.05670E-13 5.31353E-13
 -1     26106 1.23431E-12 1.49070E-12 2.12719E-12
 -1     26107 2.03705E-12 2.20374E-12 2.21451E-12
 -1     26108-2.31780E-14-4.54303E-12 5.14921E-13
 -1     26109-2.29689E-12 1.19932E-12-1.21847E-13
 -1     26110 3.93059E-13 1.97328E-12-1.40776E-13
 -1     26111-1.79655E-13-1.08156E-12-5.42344E-14
 -1     26112-1.71782E-13-7.33694E-13 1.94955E-13
 -1     26113-1.08207E-13-4.68172E-13 8.67084E-14
 -1     26114-4.66219E-13-7.50402E-12-1.04142E-12
 -1     26115 2.26553E-12-1.22361E-12 2.43042E-13
 -1     26116-1.23665E-13 3.43400E-12-5.51892E-13
 -1     26117-1.01524E-12-4.11204E-12 2.08880E-13
 -1     26118 3.50292E-13-2.46940E-12-2.35367E-13
 -1     26119 8.40692E-14 6.08961E-13-1.88035E-13
 -1     26120-3.04490E-13-6.66241E-13 8.89054E-14
 -1     26121-6.05884E-13-7.41662E-13 1.09912E-14
 -1     26122-8.57656E-14-6.78746E-13-9.38138E-14
 -1     26123 3.79238E-13 1.83512E-12-3.76144E-13
 -1     26124 2.38146E-12 1.32953E-12 5.67213E-13
 -1     26125 2.05593E-12-2.00876E-12 3.49054E-13
 -1     26126 4.87661E-13-8.68628E-13 4.24938E-14
 -1     26127 1.18916E-13 6.43317E-13-6.19504E-14
 -1     26128 6.44550E-14 1.00706E-13-1.01141E-13
 -1     26129 1.84305E-13-2.97035E-13-1.56784E-14
 -1     26130-2.25831E-13 1.77604E-13 3.05311E-14
 -1     26131 3.44042E-13 5.23474E-14 6.77236E-14
 -1     26132 2.60135E-13 1.86326E-13 2.42029E-14
 -1     26133 5.66603E-13-9.97229E-13 1.19377E-13
 -1     26134-3.75854E-12-1.28010E-12 2.25520E-12
 -1     26135-2.02152E-13-1.79213E-13 2.20046E-13
 -1     26136 3.89195E-13 2.49254E-14-5.40540E-14
 -1     26137 4.66714E-13 3.88672E-14 7.34968E-14
 -1     26138-7.82848E-13 2.82574E-12-4.52277E-13
 -1     26139 5.65119E-13-3.54715E-13 2.90878E-14
 -1     26140-1.00787E-13-2.95251E-13 6.01741E-14
 -1     26141 3.28469E-13 7.37724E-13 1.64257E-13
 -1     26142-6.81063E-13-2.56517E-13 7.77156E-16
 -1     26143 1.03547E-13-5.17377E-13-2.97540E-14
 -1     26144-5.89857E-14 1.04659E-12-6.60028E-14
 -1     26145-1.12720E-13 8.22801E-14-2.97540E-14
 -1     26146-1.87017E-13-9.02930E-13 3.50830E-13
 -1     26147-2.40098E-13 5.58042E-13-9.94760E-14
 -1     26148-9.54371E-14-6.80528E-13-1.73157E-13
 -1     26149-4.02316E-13 5.06517E-13-1.34559E-13
 -1     26150-2.44565E-13-1.72876E-12 2.83107E-14
 -1     26151-1.03370E-13-1.29292E-14-4.13142E-14
 -1     26152-4.49480E-13-6.49569E-13-9.48165E-14
 -1     26153 3.27726E-14 1.33985E-12 5.11230E-13
 -1     26154 4.56097E-15-5.89974E-15-1.85529E-15
 -1     26155 1.98217E-15 2.13069E-14 1.07900E-15
 -1     26156-8.69541E-15 2.47486E-14 3.94129E-15
 -1     26157 6.45493E-16-1.40126E-15 6.10623E-16
 -1     26158-7.89516E-16-7.15573E-16-1.11022E-16
 -1     26159-4.42965E-14 1.47705E-13 2.79776E-14
 -1     26160 2.67902E-14 9.02772E-14 1.13798E-14
 -1     26161 3.69148E-13-1.29928E-14-2.36700E-13
 -1     26162 3.66358E-14-4.00515E-13 1.10079E-13
 -1     26163-9.07195E-15-7.94404E-13-2.19824E-14
 -1     26164-1.73236E-13-2.60230E-13 9.52571E-14
 -1     26165-2.80635E-13 2.74859E-13-1.06110E-13
 -1     26166 1.65977E-12-1.09400E-12-3.92464E-13
 -1     26167 2.40493E-13 5.92142E-12-7.70606E-13
 -1     26168-4.62092E-13-1.44078E-12 7.43627E-13
 -1     26169 1.12418E-14-4.84499E-14 6.49897E-14
 -1     26170-1.87196E-14-9.85195E-14-3.98015E-14
 -1     26171 2.01721E-14-1.27237E-14-6.66134E-15
 -1     26172 2.12969E-13 5.51032E-14 1.51879E-13
 -1     26173 2.47035E-13-4.03012E-13 9.05387E-14
 -1     26174-6.50291E-14 2.72801E-12 3.72591E-13
 -1     26175-8.29938E-14 3.69770E-13-3.90799E-14
 -1     26176 1.39060E-13 2.60136E-13 1.05527E-13
 -1     26177 5.45649E-14-2.98902E-14 4.32987E-15
 -1     26178 1.98234E-13 4.91233E-13-4.81282E-14
 -1     26179-4.00819E-13-7.39804E-13 3.23630E-13
 -1     26180 6.00578E-14-1.39000E-12 3.77476E-14
 -1     26181 5.41010E-13 4.63034E-12-3.16663E-13
 -1     26182 3.81794E-13-1.56518E-12 3.49720E-15
 -1     26183 4.35872E-13-2.84755E-12-2.04475E-13
 -1     26184 3.44689E-13 6.76666E-13 6.43680E-13
 -1     26185-1.00416E-13 9.82925E-13-1.18794E-13
 -1     26186-5.43626E-13 3.53438E-12-2.29095E-13
 -1     26187-9.70623E-13 8.20654E-13 2.72560E-14
 -1     26188 2.49456E-12-2.42840E-12-1.78690E-13
 -1     26189 3.27760E-13-5.97980E-14-9.93428E-13
 -1     26190 8.51462E-13 9.35890E-13 2.31148E-13
 -1     26191-2.31851E-13 3.57411E-13-5.77260E-13
 -1     26192 1.10714E-14-1.41616E-12 2.62013E-14
 -1     26193-3.58940E-13 1.01785E-13-1.22746E-12
 -1     26194 4.74960E-13 1.66551E-13 3.97793E-13
 -1     26195-1.64365E-12-2.13751E-13 4.22544E-14
 -1     26196 1.22552E-12 1.68417E-12 9.14657E-13
 -1     26197-4.77519E-13 3.34563E-12 1.11911E-12
 -1     26198 1.29408E-13-3.96935E-12 1.91569E-13
 -1     26199-5.33985E-13-1.69229E-11-8.51999E-13
 -1     26200-9.43336E-13-3.64631E-12-7.19924E-13
 -1     26201 2.94742E-12 3.82402E-12 2.14537E-12
 -1     26202 2.93580E-12 3.71377E-12 1.27243E-12
 -1     26203 2.64291E-13-2.48104E-12 5.14422E-13
 -1     26204-1.53079E-13-9.82488E-13-2.30649E-13
 -1     26205-4.53487E-14 6.36508E-13 4.88498E-14
 -1     26206-6.11738E-13-1.53736E-12-1.76123E-13
 -1     26207-1.05004E-13-2.32608E-13-2.16271E-13
 -1     26208-1.09677E-13-5.26072E-13-8.46268E-14
 -1     26209-7.60188E-14-1.38555E-13-1.02141E-14
 -1     26210 1.87008E-13-4.01375E-13-6.22766E-14
 -1     26211-7.32795E-15-1.46904E-13 1.35586E-14
 -1     26212 1.41640E-12 3.83336E-12 4.94715E-13
 -1     26213 3.78848E-13-1.94052E-12-3.71342E-13
 -1     26214 2.31220E-12-4.75288E-12 4.26936E-13
 -1     26215-1.28954E-12 4.88851E-14 4.85931E-14
 -1     26216-3.28194E-12 4.15092E-12 9.99756E-14
 -1     26217 3.41404E-15-4.15340E-14 1.24345E-14
 -1     26218-4.35920E-14-2.09001E-14 4.73926E-15
 -1     26219 1.89848E-13 2.66723E-13-8.63754E-14
 -1     26220 6.28298E-14 1.01671E-13 7.81597E-14
 -1     26221 8.17228E-14-1.48500E-13-5.24025E-14
 -1     26222 2.13914E-12-5.84413E-13 1.06694E-12
 -1     26223 1.48500E-12 2.08200E-12-6.97331E-13
 -1     26224 1.01746E-12-1.57460E-12 7.65221E-14
 -1     26225-7.69022E-13 2.23077E-12-2.54907E-13
 -1     26226 3.15886E-13-1.19067E-12-2.31215E-12
 -1     26227 2.37925E-13-3.32387E-13-2.78513E-13
 -1     26228 8.67162E-14 1.54565E-13 1.07470E-13
 -1     26229-3.01540E-14 1.17806E-13 0.00000E+00
 -1     26230 1.37343E-13-3.14446E-13 1.66533E-16
 -1     26231-5.33806E-13 2.23016E-14-2.43139E-14
 -1     26232-2.10010E-13-9.91281E-14 3.61933E-14
 -1     26233-8.64031E-15-5.48591E-15-9.59649E-15
 -1     26234-1.62279E-13-5.97465E-15-5.49560E-15
 -1     26235 5.78915E-14 2.10845E-14 1.08802E-14
 -1     26236-1.55138E-13-9.63335E-15-1.45661E-13
 -1     26237-3.07768E-13-1.22102E-13-5.52891E-14
 -1     26238 1.18386E-13 8.45910E-14 3.06838E-14
 -1     26239-1.57474E-13 2.16003E-13-1.27898E-13
 -1     26240 1.02987E-14 3.57957E-13-4.26326E-14
 -1     26241 2.58088E-14 3.64688E-13-3.86691E-13
 -1     26242 2.03352E-13 8.65222E-13-7.95364E-13
 -1     26243 1.61004E-12-8.06861E-12-8.15625E-13
 -1     26244-1.41347E-12-1.65052E-12 5.98688E-14
 -1     26245 2.41147E-12 1.95434E-12-1.12560E-12
 -1     26246 6.44635E-13 2.12100E-12-1.75276E-13
 -1     26247 1.47052E-13 4.01952E-12 1.89404E-13
 -1     26248-1.29711E-15-1.91199E-16-6.10623E-16
 -1     26249 2.08600E-16 1.62413E-16 4.44089E-16
 -1     26250-2.30064E-16-3.57787E-16 3.36536E-16
 -1     26251-9.38485E-16-7.27391E-16-2.77556E-16
 -1     26252-2.74466E-16 3.59034E-16 4.05492E-16
 -1     26253-2.08809E-13-7.65111E-15 1.37390E-14
 -1     26254 5.32175E-13-3.79451E-14 3.34212E-14
 -1     26255-2.75629E-14-1.56652E-13-3.38618E-14
 -1     26256-1.36975E-13-1.22955E-13 4.22440E-14
 -1     26257 7.11124E-13 8.84418E-13 1.41109E-13
 -1     26258 5.08031E-13 5.17206E-13 1.57652E-14
 -1     26259-1.07407E-12-2.06209E-12 5.40679E-14
 -1     26260-5.70933E-13-1.13531E-12 3.36904E-13
 -1     26261-7.61594E-14-9.10362E-13-8.43769E-14
 -1     26262-2.03395E-13 9.73929E-13-1.94511E-13
 -1     26263 9.71680E-14 5.90719E-13-4.01235E-13
 -1     26264 2.18964E-13 4.17235E-13-2.28040E-13
 -1     26265-7.45407E-14 5.55664E-14 3.56382E-14
 -1     26266-5.31524E-13 6.74313E-13-2.33862E-13
 -1     26267 3.87920E-13-3.48769E-13-6.70575E-14
 -1     26268 4.13424E-14 2.19851E-13 1.07817E-13
 -1     26269 2.12174E-13-1.05744E-12-7.90090E-13
 -1     26270-1.51940E-12 3.25078E-13 1.97564E-13
 -1     26271 2.78148E-13-3.13879E-13 7.08711E-13
 -1     26272-1.08854E-13-1.39634E-12-8.22398E-13
 -1     26273 3.92591E-12-2.29678E-12-3.25934E-13
 -1     26274-1.71391E-12 2.42503E-12 5.75762E-13
 -1     26275-4.54762E-12 1.65119E-12 2.65343E-13
 -1     26276-5.38492E-13 5.69619E-13-6.33993E-13
 -1     26277-4.81083E-13-9.35093E-13-3.28564E-13
 -1     26278 5.66615E-13 6.32134E-13-3.50941E-13
 -1     26279-2.54575E-12 5.60492E-13-8.61755E-13
 -1     26280-1.44697E-13-2.17621E-12 7.16871E-13
 -1     26281 2.64319E-14-2.41612E-14 1.47549E-13
 -1     26282 2.01729E-13 2.41812E-12-1.72071E-13
 -1     26283-4.99724E-13 6.75771E-13-2.54463E-13
 -1     26284 1.05762E-12-2.39596E-12 3.36953E-13
 -1     26285-1.27042E-13 8.98630E-14 1.45231E-13
 -1     26286 1.00785E-13 9.74798E-14 5.56083E-14
 -1     26287-1.07951E-13-1.52635E-13-1.30618E-13
 -1     26288 1.75992E-13-6.54504E-13-1.05693E-13
 -1     26289 1.44119E-14-5.89066E-13 1.16795E-13
 -1     26290-1.26347E-12-4.01053E-12 4.01901E-14
 -1     26291 2.71889E-12 3.36464E-12-2.10387E-13
 -1     26292-2.03205E-12 2.27069E-12 8.97199E-15
 -1     26293-7.64961E-13 2.04030E-12 1.66978E-13
 -1     26294 6.25021E-13 5.93752E-13-1.60538E-13
 -1     26295 2.73117E-12 6.04181E-13 4.40203E-14
 -1     26296-1.58712E-13 1.85733E-12-4.95659E-13
 -1     26297-4.69396E-13-4.97451E-12-3.47947E-13
 -1     26298-1.28841E-12 1.22260E-12 3.79724E-13
 -1     26299 7.81882E-13-2.21251E-12-3.54716E-14
 -1     26300 2.02651E-13 1.09129E-13 1.70974E-14
 -1     26301-3.36571E-13-4.56445E-13-8.85403E-14
 -1     26302 2.52444E-13 2.75188E-14 7.74936E-14
 -1     26303-2.67559E-13 4.69574E-13-4.67959E-14
 -1     26304-1.96029E-13-1.56608E-12 4.99600E-15
 -1     26305 2.47820E-14-1.43104E-13-4.44401E-14
 -1     26306 1.63420E-13 8.80358E-14-4.99600E-14
 -1     26307 1.51329E-13 9.19152E-14-9.54792E-15
 -1     26308-1.48883E-13-6.31153E-13 1.41553E-15
 -1     26309-7.06082E-15 3.65368E-13-1.31284E-13
 -1     26310 1.34803E-13-3.15927E-13-1.78302E-13
 -1     26311 1.66556E-13-4.78175E-13-1.79856E-14
 -1     26312 1.80389E-13 6.44325E-14 3.34559E-14
 -1     26313-1.63718E-13 3.68636E-13 1.08691E-13
 -1     26314 2.51666E-13 3.62519E-13-6.66134E-15
 -1     26315-5.55163E-13 3.28152E-13-4.44089E-15
 -1     26316 1.73862E-13-1.51181E-13 5.71609E-14
 -1     26317-9.72848E-13-6.05577E-12 4.92918E-13
 -1     26318-5.50030E-12-7.18275E-12 1.55212E-12
 -1     26319 2.28940E-12 4.90047E-12-4.59438E-13
 -1     26320 2.67397E-13-3.86774E-12 6.65135E-13
 -1     26321 1.59542E-12 7.45574E-13 7.05963E-13
 -1     26322 6.30287E-13 1.93601E-12-1.16102E-12
 -1     26323-9.75763E-13 2.28785E-12-1.28175E-13
 -1     26324 3.12461E-12 9.41207E-13-5.89057E-13
 -1     26325 2.21911E-12 6.57941E-13 6.41959E-13
 -1     26326 8.67635E-14-2.20306E-13-4.71845E-15
 -1     26327 8.40737E-14-6.06472E-14-2.06224E-14
 -1     26328 2.04210E-14 1.36777E-13-1.98730E-14
 -1     26329 2.14126E-13 1.38729E-13-1.46119E-13
 -1     26330 1.54989E-13-5.45616E-13 6.87228E-14
 -1     26331-4.42248E-13-1.51740E-12-2.80886E-13
 -1     26332 7.50835E-14 3.84387E-13 7.58664E-14
 -1     26333 3.65946E-13-3.12277E-13 1.22236E-13
 -1     26334-4.40820E-13-3.16524E-13-9.19265E-14
 -1     26335-2.99561E-13-5.05559E-13-2.24265E-13
 -1     26336-3.32257E-13-1.01723E-12 1.38722E-13
 -1     26337-1.82607E-13-1.70990E-13 3.40727E-13
 -1     26338 1.58569E-13-6.72644E-13 2.00145E-13
 -1     26339 2.30473E-13 2.23993E-12-3.27294E-13
 -1     26340 7.14438E-14 5.72727E-14 6.36158E-14
 -1     26341 2.54394E-13 6.92847E-13-2.13163E-13
 -1     26342 4.23580E-14 3.14121E-13 5.09870E-14
 -1     26343 2.05256E-13-2.68864E-13 2.25153E-13
 -1     26344-2.49487E-14-7.95088E-14 6.90385E-14
 -1     26345-2.51929E-13-5.57177E-14 1.06581E-14
 -1     26346-5.27249E-14-2.04729E-13 2.61458E-14
 -1     26347-2.67191E-13 5.79653E-13 1.79634E-13
 -1     26348 1.36723E-13 1.44106E-13 1.33671E-13
 -1     26349 1.35866E-13 4.30404E-13 3.68428E-13
 -1     26350 2.81292E-13 1.20197E-12-1.61104E-13
 -1     26351 1.28362E-13 6.34166E-13-4.23439E-13
 -1     26352-7.85370E-13 4.55798E-14 1.29119E-13
 -1     26353 6.73836E-14 1.23207E-14 2.66454E-15
 -1     26354 8.27298E-14-1.13552E-13 9.23706E-14
 -1     26355-2.95796E-13-1.13161E-13-1.49658E-13
 -1     26356 4.76106E-15-1.80940E-15-6.10623E-16
 -1     26357 2.78668E-15-5.16991E-15-3.57700E-15
 -1     26358 3.06883E-15 8.23040E-15-1.11022E-15
 -1     26359 9.13836E-15 6.51660E-16-1.09912E-14
 -1     26360 8.24503E-13-4.44204E-12-1.47764E-12
 -1     26361-8.64655E-13-1.16817E-12-8.06966E-13
 -1     26362-1.91590E-12-2.85323E-12-2.90254E-13
 -1     26363 2.19482E-13 7.12822E-13 9.42579E-14
 -1     26364-3.84239E-15-3.72055E-15 3.13638E-15
 -1     26365 9.51539E-15 7.28183E-14 3.33067E-16
 -1     26366 1.15419E-12 1.68453E-12-1.70919E-13
 -1     26367 7.63598E-13 1.69318E-13 3.02203E-13
 -1     26368 1.93939E-12 5.79956E-13 3.71606E-13
 -1     26369-3.65468E-12-5.15025E-12-4.24105E-13
 -1     26370 3.55398E-12 3.64165E-12 9.24719E-13
 -1     26371-1.62753E-12-2.10446E-12-7.39353E-13
 -1     26372 6.59471E-14-4.68341E-13-9.33212E-14
 -1     26373 2.16164E-13-2.20706E-13 1.05194E-13
 -1     26374-5.70705E-14 1.45872E-13-5.32907E-14
 -1     26375 6.79534E-14 3.17231E-13 3.13638E-14
 -1     26376 9.03093E-14 9.95098E-15-1.40443E-14
 -1     26377-6.15905E-14-2.16945E-13-6.30607E-14
 -1     26378 1.22228E-15 1.79457E-15-3.33067E-16
 -1     26379 2.14670E-15-2.14753E-16-2.22045E-16
 -1     26380-3.65143E-13 2.30526E-13 8.83738E-14
 -1     26381 1.37535E-14 4.79498E-15-3.38618E-15
 -1     26382-1.45025E-14 4.47312E-14 7.71605E-15
 -1     26383 4.03098E-14-1.41229E-14 2.63678E-14
 -1     26384-4.15037E-14 7.94035E-14 2.51743E-14
 -1     26385 1.83976E-14 5.73617E-14 1.55709E-14
 -1     26386 1.33564E-14-8.12342E-14-4.38538E-15
 -1     26387-4.31964E-15-1.53798E-14-1.29341E-14
 -1     26388 2.83565E-14 2.99232E-13 5.54001E-14
 -1     26389-1.21295E-17-8.37327E-14-6.66134E-15
 -1     26390-4.92749E-13 1.70134E-12 2.44416E-13
 -1     26391-1.20249E-12 2.83991E-12 4.36540E-13
 -1     26392 2.20670E-13-2.00468E-12-3.97460E-14
 -1     26393 6.21761E-13 7.61541E-13 7.79918E-13
 -1     26394-4.55487E-13-1.69501E-13-2.36478E-13
 -1     26395-3.95330E-13-5.63276E-13-1.44919E-14
 -1     26396-2.36445E-13 1.63878E-13-3.19744E-14
 -1     26397-6.90218E-13 1.10937E-13 1.37224E-13
 -1     26398 5.95716E-13-2.44681E-13 3.32651E-14
 -1     26399-4.89670E-13-1.73811E-12 3.44724E-14
 -1     26400-3.99562E-13-4.90410E-13-7.84928E-14
 -1     26401 5.14243E-13 9.48148E-13 3.07310E-13
 -1     26402-5.22268E-13 1.04348E-12 8.33777E-14
 -1     26403-2.94108E-13-1.16266E-12-1.23124E-13
 -1     26404 1.14297E-13-1.16597E-12-4.09950E-13
 -1     26405 9.88459E-14-2.19134E-13 5.15560E-14
 -1     26406-2.65848E-14 3.07439E-13 2.24265E-14
 -1     26407-1.96313E-13 1.67395E-13 2.67564E-14
 -1     26408 5.65911E-14-1.64484E-13-5.19307E-14
 -1     26409-1.68409E-13 1.09139E-13 1.48548E-13
 -1     26410-6.81416E-14 1.38641E-14-4.37150E-15
 -1     26411 4.32944E-14-3.93116E-14 1.47105E-14
 -1     26412 5.24996E-15 3.99630E-14-7.52176E-15
 -1     26413 2.66360E-14 5.09631E-14-2.97817E-14
 -1     26414 8.71457E-14-5.07104E-14 2.40918E-14
 -1     26415-5.68839E-14-7.33758E-14-9.10383E-15
 -1     26416 5.87910E-14 5.03213E-14-3.24185E-14
 -1     26417-9.46021E-15 6.21899E-14 2.43139E-14
 -1     26418 1.61280E-13 2.31796E-12 2.46470E-13
 -1     26419-1.16102E-12 6.33570E-12-1.16760E-12
 -1     26420 1.17573E-12-3.27268E-12-1.61848E-12
 -1     26421-1.46172E-13-2.69078E-14 4.72955E-14
 -1     26422 8.97644E-14-3.74085E-13-6.16174E-14
 -1     26423 2.68803E-13-3.29071E-13-5.74644E-14
 -1     26424 1.65074E-13-1.72127E-13-6.95000E-14
 -1     26425-1.39137E-13-4.92421E-13-1.72196E-13
 -1     26426-3.37228E-14 1.40922E-13 1.19349E-14
 -1     26427 4.05721E-14 4.04597E-15 2.44249E-14
 -1     26428 2.44909E-14-9.08062E-14 2.22045E-15
 -1     26429-1.52012E-13 1.61965E-13-4.11338E-14
 -1     26430-2.47520E-13 1.58982E-13 3.76366E-14
 -1     26431-5.35516E-14-1.53039E-14 1.86517E-14
 -1     26432 4.56640E-13-3.93650E-14-5.55112E-14
 -1     26433-1.00313E-13 5.00193E-14-6.99441E-15
 -1     26434 9.02541E-14-6.02689E-14 3.84536E-14
 -1     26435-1.41705E-12 3.03609E-12-6.80067E-13
 -1     26436-5.83290E-13-6.90870E-12 3.33067E-13
 -1     26437-1.00660E-12 2.66700E-12-3.45945E-13
 -1     26438-1.28208E-14 3.46318E-14-2.92821E-15
 -1     26439-3.33837E-13 8.29905E-13-6.42368E-14
 -1     26440 1.39229E-13-4.27574E-13 5.40679E-14
 -1     26441-7.28184E-13-1.62852E-12 8.79297E-14
 -1     26442 1.46906E-14 1.47470E-13-3.06422E-14
 -1     26443 1.09123E-13-1.04990E-13-2.55351E-14
 -1     26444 1.14489E-14 1.63874E-13 3.40214E-14
 -1     26445 2.40309E-14-1.32208E-14-3.95239E-14
 -1     26446 2.92075E-12 7.41731E-12-7.72271E-13
 -1     26447 1.98737E-12-1.95729E-12-3.13249E-13
 -1     26448-1.01859E-12 1.50383E-12 4.91385E-13
 -1     26449 9.33515E-13-3.01060E-12 2.30677E-13
 -1     26450 2.37771E-14 3.53315E-14-7.99361E-15
 -1     26451-1.04167E-13-2.53529E-13-2.06501E-14
 -1     26452 6.50230E-14 3.31408E-13-8.32667E-15
 -1     26453-8.97276E-14 1.92425E-13-9.43343E-15
 -1     26454 2.55057E-13-6.86042E-13 9.43412E-14
 -1     26455 6.01465E-13 2.05898E-13 2.84366E-13
 -1     26456-1.31045E-12 1.51370E-12 1.48839E-13
 -1     26457 1.08029E-12-7.37774E-14 1.79703E-13
 -1     26458-2.68110E-12-9.09981E-13-1.21844E-12
 -1     26459-6.85690E-13 7.24192E-13-2.57572E-14
 -1     26460 9.25008E-13-2.84609E-12-2.57516E-13
 -1     26461-3.43436E-13 5.16482E-14-1.02252E-13
 -1     26462 2.90075E-13-1.62939E-13 7.31915E-14
 -1     26463 1.11917E-13-6.29539E-14-4.25493E-14
 -1     26464-1.04447E-13 1.25254E-13-2.70339E-14
 -1     26465-1.19781E-13 1.77591E-13 2.06501E-14
 -1     26466-5.12554E-14-2.10060E-13 1.38778E-15
 -1     26467-1.16361E-13 8.81410E-13 8.40439E-14
 -1     26468-1.04413E-13 3.88443E-13 5.89528E-14
 -1     26469 1.08956E-13 9.87693E-13 8.32875E-14
 -1     26470-2.51153E-13 8.11902E-13 1.92336E-13
 -1     26471-1.40678E-12 2.82618E-12 1.38317E-12
 -1     26472-5.10541E-13-1.55724E-12-2.71339E-13
 -1     26473-2.44998E-12 1.32073E-12-5.61638E-13
 -1     26474 1.70000E-12-9.95964E-13-2.36994E-13
 -1     26475 5.93284E-13 1.48323E-12 9.54375E-13
 -1     26476 4.10200E-13-5.95029E-13-2.75890E-13
 -1     26477-2.76781E-12-1.33232E-11-6.65731E-13
 -1     26478-1.41183E-12-3.62294E-12 4.99961E-13
 -1     26479-2.51673E-12-1.04167E-11 8.61648E-13
 -1     26480 1.85843E-12 4.98220E-13 7.37216E-13
 -1     26481-4.70612E-13 2.53401E-12 4.25642E-13
 -1     26482-3.50696E-13-1.27416E-12 2.00784E-13
 -1     26483 1.23990E-12 8.63106E-13-5.50671E-14
 -1     26484-1.28971E-12 1.71188E-14 3.92797E-13
 -1     26485-4.02647E-13 2.16475E-12-1.01030E-13
 -1     26486-3.91442E-13 1.77411E-12-1.81463E-12
 -1     26487-9.58119E-14 1.85215E-13-1.70419E-14
 -1     26488 8.88360E-14-1.68063E-13 1.69725E-14
 -1     26489 5.04197E-13-1.86239E-13 2.95611E-13
 -1     26490 2.16806E-12 1.38136E-12-5.11632E-13
 -1     26491 9.68631E-13 1.54410E-12 5.44051E-13
 -1     26492-2.09401E-13-3.64197E-13-2.50799E-13
 -1     26493-1.27466E-13 2.58502E-13 2.46025E-13
 -1     26494-3.77540E-13-2.15395E-13-6.33382E-14
 -1     26495 1.98494E-13 2.62272E-13 2.22045E-13
 -1     26496-1.80522E-12 9.89283E-12-1.65157E-12
 -1     26497-7.11881E-14 2.73290E-14-4.93494E-14
 -1     26498-1.00917E-13 8.04870E-13-2.79776E-14
 -1     26499 7.09963E-15 1.64565E-13 5.70655E-14
 -1     26500 1.58257E-13 7.28534E-14 3.25850E-14
 -1     26501 8.47013E-14 5.48988E-14 4.04121E-14
 -1     26502-2.56253E-14-3.14193E-14 1.42109E-14
 -1     26503-2.27260E-13-6.92454E-14 1.12549E-14
 -1     26504 1.36349E-13 4.50655E-14 3.46390E-14
 -1     26505-1.75415E-14-2.27422E-14-1.42109E-14
 -1     26506 8.43766E-13 8.69140E-13 5.77316E-15
 -1     26507 4.07097E-13-9.11940E-14-2.68230E-13
 -1     26508-6.07061E-13 1.15959E-12-3.36585E-13
 -1     26509-3.79269E-12 3.22744E-12-7.06046E-13
 -1     26510 1.10068E-12 2.12889E-12 1.38778E-15
 -1     26511-4.98202E-13-1.10897E-12-8.62643E-14
 -1     26512-9.18462E-13 1.49678E-12 3.84859E-13
 -1     26513 9.79543E-13 3.43083E-12 6.74183E-14
 -1     26514-1.08777E-12-1.06610E-12-1.29896E-13
 -1     26515 2.81239E-13-3.30456E-12 4.23162E-13
 -1     26516 6.19382E-13-8.52189E-13 2.57572E-13
 -1     26517 4.45455E-13 3.82744E-13-3.32845E-13
 -1     26518 1.48013E-13 3.93606E-13 1.25899E-13
 -1     26519-3.41155E-14-3.03642E-14 3.12916E-13
 -1     26520-1.59602E-12-6.15463E-13-4.08062E-13
 -1     26521-1.04210E-12 1.39686E-12-2.51743E-13
 -1     26522-1.33595E-12 1.98082E-12 2.75890E-14
 -1     26523 5.13609E-13 1.39222E-12-2.44249E-13
 -1     26524 2.61770E-14 7.69842E-13 2.84495E-13
 -1     26525 5.29202E-13 2.78065E-13-2.02949E-13
 -1     26526 2.14708E-13 3.94964E-13-2.37754E-13
 -1     26527 2.96461E-13-2.67973E-13 2.06141E-13
 -1     26528 1.19310E-14-6.69919E-13 1.30784E-13
 -1     26529 3.27121E-13 1.61383E-13-1.52323E-13
 -1     26530 1.93615E-13 1.87167E-12-3.34916E-13
 -1     26531 8.97569E-14-1.04059E-13 7.54952E-15
 -1     26532 7.53079E-14 1.45604E-14-4.88498E-15
 -1     26533 1.16990E-13 8.25664E-13 1.65645E-13
 -1     26534 4.37154E-14 4.07922E-14-8.24341E-15
 -1     26535 1.75641E-14 2.39574E-13-3.50830E-14
 -1     26536-5.80754E-14-1.39416E-13-5.84255E-15
 -1     26537-3.63408E-14 1.20831E-14-5.31797E-14
 -1     26538-1.31822E-14 1.06078E-14 2.79776E-14
 -1     26539 8.79664E-14-1.09380E-13-7.49401E-16
 -1     26540 6.54185E-14-4.66803E-14 1.86517E-14
 -1     26541-2.42543E-13-4.72825E-14-2.55351E-14
 -1     26542-5.46025E-14 3.11350E-15 1.50158E-14
 -1     26543-1.25307E-13 5.05826E-14 1.84297E-14
 -1     26544 1.01150E-12-8.88490E-13-2.98206E-13
 -1     26545-3.18461E-15-1.89954E-14-2.22045E-16
 -1     26546-4.29904E-14-9.46313E-14-9.99201E-16
 -1     26547-8.25863E-14-3.40859E-14 4.24660E-15
 -1     26548 2.02668E-13 7.10163E-14-2.02130E-14
 -1     26549-2.60308E-13 3.00754E-13-3.16414E-14
 -1     26550 9.18822E-13-3.27776E-12-1.49936E-13
 -1     26551 1.20348E-13-7.57961E-13 2.84647E-13
 -1     26552-4.72786E-13 3.32504E-12 2.15855E-13
 -1     26553 7.95266E-14-2.52212E-13-1.89626E-13
 -1     26554-1.01391E-13 2.16719E-14-2.89657E-13
 -1     26555 4.41623E-14-4.75199E-14-4.44089E-15
 -1     26556 2.10885E-13-4.08755E-13 1.29896E-14
 -1     26557-2.25331E-13 7.56221E-13 4.46310E-14
 -1     26558 7.80008E-13 6.10743E-13-1.42858E-13
 -1     26559 3.16487E-14-8.91018E-14-8.65974E-15
 -1     26560 1.00479E-13 2.50811E-14-5.19723E-15
 -1     26561 5.13374E-14 8.30933E-15 4.44089E-16
 -1     26562-1.26236E-13 6.63191E-14-1.62370E-14
 -1     26563 1.02500E-13 8.77614E-14-5.55112E-15
 -1     26564 1.15689E-14 2.01176E-14-7.27196E-15
 -1     26565 5.03482E-15 1.21978E-14-2.16493E-14
 -1     26566-1.86142E-14 2.98370E-14-3.55271E-15
 -1     26567 1.30044E-14 2.15513E-14-1.13243E-14
 -1     26568-7.26155E-15 1.94463E-14-1.33227E-15
 -1     26569 1.90598E-14 1.67136E-14 5.21805E-15
 -1     26570 5.81479E-15-2.30649E-14 8.88178E-16
 -1     26571 4.65947E-14-6.69534E-14-3.55271E-15
 -1     26572 3.78927E-15 5.15506E-15-9.99201E-16
 -1     26573-1.58775E-14-2.50949E-15 3.99680E-15
 -1     26574 9.42649E-15 5.78964E-15-1.06581E-14
 -1     26575-1.64296E-14 4.63301E-15 3.88578E-16
 -1     26576-3.18976E-14-5.13690E-14 1.66533E-15
 -1     26577 2.28144E-12-6.08884E-12 4.52125E-13
 -1     26578 9.94500E-13-2.24726E-12 8.54483E-13
 -1     26579 1.02420E-13 8.14871E-12-5.30366E-13
 -1     26580 5.38232E-13-9.49828E-13 4.87220E-13
 -1     26581 3.31940E-13-1.14667E-13 6.59403E-14
 -1     26582 4.17932E-13 1.08595E-13 1.89293E-14
 -1     26583-3.14823E-14-1.64628E-13-7.94920E-14
 -1     26584-1.28730E-14 2.06754E-14-8.32667E-16
 -1     26585 8.21598E-13-7.19531E-13-1.97620E-14
 -1     26586-6.87625E-14-1.19770E-14 2.77556E-14
 -1     26587 1.04164E-12-2.06790E-12 9.12964E-13
 -1     26588 2.19570E-13 3.33734E-12 1.86405E-13
 -1     26589-8.75645E-15-9.35207E-14 2.07612E-14
 -1     26590-2.71977E-14 8.51149E-14 2.49800E-14
 -1     26591 1.15611E-14-8.35020E-15 6.66134E-16
 -1     26592-1.65244E-14 4.63703E-14-1.41692E-14
 -1     26593-1.25585E-14 6.17800E-14-2.83662E-14
 -1     26594 1.93206E-14 3.71432E-14-2.99587E-15
 -1     26595 1.77818E-14-5.82694E-15-9.54792E-15
 -1     26596-7.33731E-13-6.81485E-13-1.99840E-14
 -1     26597-1.45099E-13 3.02809E-12-9.22595E-13
 -1     26598 6.01842E-13-4.69076E-13 7.00551E-14
 -1     26599-1.10316E-12-2.44791E-12-1.91513E-13
 -1     26600-6.44917E-13 5.29710E-13-3.26406E-14
 -1     26601-7.67398E-16 6.26669E-16 7.21645E-15
 -1     26602-1.07499E-14-2.63743E-15 3.33067E-16
 -1     26603 1.74209E-12 9.82119E-13-1.49511E-13
 -1     26604 9.46460E-13-5.53711E-13-8.67084E-14
 -1     26605 6.39199E-13-6.16786E-13 1.53683E-13
 -1     26606-3.00027E-14 2.79785E-14 3.60822E-15
 -1     26607 3.11448E-14 2.68479E-14-1.38778E-15
 -1     26608 1.73866E-12-1.03489E-12-7.49623E-13
 -1     26609-1.52263E-12-1.09401E-12 1.24567E-13
 -1     26610-7.77308E-15 6.08210E-15-1.87871E-15
 -1     26611 1.33255E-15-1.84748E-15 1.94289E-16
 -1     26612 1.73525E-14-4.77042E-14-1.06581E-14
 -1     26613-1.19436E-15-5.75034E-16-9.99201E-16
 -1     26614 1.40514E-17-2.00871E-15 5.91974E-16
 -1     26615-1.84382E-14-1.03041E-14 3.39832E-15
 -1     26616 1.31923E-13 1.77254E-13 2.53131E-14
 -1     26617 9.40440E-15-4.22132E-14-2.11497E-14
 -1     26618-1.47070E-13-5.73225E-14-2.84148E-14
 -1     26619 1.09251E-14 2.14397E-14-1.37390E-15
 -1     26620-1.05261E-14 2.79772E-14 2.77556E-16
 -1     26621 7.25361E-15-1.90616E-14 3.99680E-15
 -1     26622 2.59139E-15 3.66790E-14 5.60663E-15
 -1     26623-1.06523E-16 7.89164E-15 1.28508E-14
 -1     26624 6.35451E-16-1.86618E-16 3.46945E-15
 -1     26625-1.66877E-14 2.03809E-14 3.33976E-15
 -1     26626 2.16963E-14-3.73478E-14 1.18100E-14
 -1     26627-4.57750E-16-1.02869E-14 2.94209E-15
 -1     26628-1.28135E-15 1.12899E-15-6.93889E-16
 -1     26629-8.20351E-15-1.12820E-14 1.05471E-15
 -1     26630 7.44782E-14-3.97310E-13 1.65645E-13
 -1     26631 6.98426E-14-3.85611E-14-1.02321E-13
 -1     26632-1.47163E-13-1.12825E-14-9.67976E-15
 -1     26633-1.97458E-12 1.10108E-13-6.99954E-13
 -1     26634 2.40060E-12-5.52578E-12-1.72640E-13
 -1     26635-4.57967E-16-7.96620E-14-5.30687E-14
 -1     26636-2.89721E-14-1.19158E-13-2.35922E-14
 -1     26637-2.89699E-14 5.45558E-14-2.94209E-14
 -1     26638 2.25722E-14 1.42813E-14 3.59712E-14
 -1     26639-1.89137E-13-2.06370E-12-5.55667E-14
 -1     26640 8.56062E-14-4.96276E-13 1.76636E-13
 -1     26641 2.85316E-13-1.15159E-13-5.99520E-15
 -1     26642 8.35560E-14-2.30510E-14 6.21274E-14
 -1     26643-1.72131E-13 1.60172E-13-2.44249E-14
 -1     26644 8.32858E-14 6.19092E-14 1.33227E-15
 -1     26645-2.90686E-13 1.17961E-14 4.98768E-14
 -1     26646-8.15702E-13 1.10676E-13-1.23929E-14
 -1     26647 3.84595E-13 1.98932E-12-2.44257E-13
 -1     26648 1.96836E-12-3.33754E-12 7.96696E-13
 -1     26649 8.71443E-14 9.68298E-14-1.44329E-13
 -1     26650 5.69985E-13 9.98325E-13 2.80664E-13
 -1     26651-3.04231E-14-1.03932E-13-1.18794E-14
 -1     26652-8.68887E-15 1.66532E-13 4.55191E-14
 -1     26653 3.64794E-14-2.47025E-14 2.32037E-14
 -1     26654-4.49096E-12 2.40594E-12-3.46473E-13
 -1     26655-4.09435E-13-1.26869E-12 2.73392E-13
 -1     26656-1.68291E-12 3.01034E-13 1.62009E-13
 -1     26657 3.49891E-13-1.23530E-13 1.14908E-14
 -1     26658-1.42529E-15 1.31040E-14-1.14075E-14
 -1     26659-1.33267E-13 4.91494E-13-2.56493E-13
 -1     26660-1.33615E-14-6.22658E-13 3.05533E-13
 -1     26661-3.67540E-13-1.86795E-13 4.46754E-13
 -1     26662 2.19055E-14-1.96075E-13-2.73115E-13
 -1     26663 7.69972E-13-8.14299E-14-2.28373E-13
 -1     26664 7.47511E-14-1.66440E-13 1.79856E-14
 -1     26665-6.44119E-14 1.17105E-13 6.37268E-14
 -1     26666-7.63005E-14 1.77575E-14 1.77636E-15
 -1     26667-1.99285E-14-4.41661E-15-1.15463E-14
 -1     26668 3.46346E-14-1.88721E-14-2.38698E-14
 -1     26669-1.28482E-13 1.86910E-13 6.10900E-14
 -1     26670-1.32605E-13-5.33694E-13 2.07612E-14
 -1     26671-9.23972E-14 9.16799E-14-1.42109E-14
 -1     26672-3.87527E-13-5.00592E-13 3.17454E-13
 -1     26673-1.03872E-12 6.67964E-14-3.16691E-14
 -1     26674 1.63783E-12 1.29855E-12-1.77608E-13
 -1     26675 1.04387E-14-1.78987E-13-5.55112E-15
 -1     26676-7.74567E-14 1.98818E-13 1.64313E-14
 -1     26677 5.49783E-14-9.15601E-14-1.33366E-14
 -1     26678-3.54256E-13-3.10435E-13 5.10703E-15
 -1     26679 4.10720E-14 3.52471E-15-1.07914E-13
 -1     26680-9.29725E-15-1.05320E-12-4.29774E-13
 -1     26681 4.81973E-14-9.55924E-13-6.18366E-13
 -1     26682 4.40559E-13 1.68533E-12-2.81997E-14
 -1     26683-1.14193E-12 1.58150E-12 2.86660E-13
 -1     26684 8.48676E-14-1.72508E-13 1.07137E-14
 -1     26685-4.55334E-14-3.96434E-13-2.80435E-14
 -1     26686-6.33146E-14-3.81532E-13-2.11997E-13
 -1     26687 3.14837E-13-4.58179E-13 3.73479E-13
 -1     26688 1.93575E-13 2.35195E-13 1.85338E-13
 -1     26689-1.09612E-12 1.31628E-12 6.35492E-13
 -1     26690-1.69091E-13 1.28666E-13 8.45990E-14
 -1     26691 1.03406E-13-1.39532E-13 5.02376E-14
 -1     26692 8.48820E-14-5.97068E-13 2.55351E-14
 -1     26693 4.16164E-14 3.88668E-13 5.09592E-14
 -1     26694-3.04176E-16-9.37564E-17-1.40166E-15
 -1     26695 4.63034E-15 1.80382E-15-1.99493E-16
 -1     26696-1.18641E-16-2.21519E-16-1.17961E-16
 -1     26697 1.09609E-15-5.98279E-15-1.16573E-15
 -1     26698-9.70618E-15-7.95972E-15 7.49401E-16
 -1     26699 1.99846E-15 6.85067E-16 6.66134E-16
 -1     26700-3.94584E-13 4.78098E-14 3.71370E-14
 -1     26701-1.43860E-12 1.23200E-12 6.77680E-13
 -1     26702 3.47619E-14-4.54181E-14-4.88498E-15
 -1     26703 4.93616E-15 6.13534E-14 3.17246E-14
 -1     26704-3.32882E-14 1.78308E-14-6.13398E-15
 -1     26705-1.64631E-15-1.39108E-15 4.26742E-16
 -1     26706 1.14941E-15-9.28240E-16-8.46545E-16
 -1     26707 2.91677E-15 4.17882E-16-1.04083E-16
 -1     26708-5.13261E-16-9.72272E-16 9.02056E-17
 -1     26709 6.35879E-16-1.41267E-16 1.03216E-16
 -1     26710-6.01536E-14-1.21786E-13 1.16573E-14
 -1     26711-3.19901E-13-6.19131E-14-6.52811E-14
 -1     26712-1.71858E-13 2.33725E-13 2.64233E-14
 -1     26713-1.16763E-13-7.29088E-15-6.88338E-15
 -1     26714 1.50365E-13-5.56469E-14 2.55629E-14
 -1     26715 1.51662E-13-3.48411E-13 1.30118E-13
 -1     26716 1.00054E-14-8.68986E-15-4.30211E-15
 -1     26717-1.71786E-15 1.36300E-14 2.77556E-16
 -1     26718-3.69078E-15-1.42647E-16 6.10623E-16
 -1     26719-5.47433E-15-5.20708E-15-1.60288E-15
 -1     26720-4.66898E-16 1.63494E-14-6.38378E-16
 -1     26721 2.85071E-15 1.49560E-15 1.27676E-15
 -1     26722-1.18951E-15 2.71403E-15-3.67761E-16
 -1     26723-1.76683E-13 5.73369E-15 2.22045E-14
 -1     26724 1.35322E-13-1.80972E-13 3.53051E-14
 -1     26725-2.41982E-14 1.36578E-13-5.15699E-14
 -1     26726-1.59411E-14-2.95131E-14-1.97065E-15
 -1     26727 5.55591E-15-1.27318E-14 3.66374E-15
 -1     26728 1.18599E-12-1.97142E-12-6.57280E-13
 -1     26729 2.44877E-12-1.48557E-12-8.09353E-14
 -1     26730-1.49253E-14 2.82101E-13-7.22512E-13
 -1     26731 1.43602E-12 5.00102E-12 5.77330E-13
 -1     26732-4.58686E-13 1.35138E-13-2.56573E-13
 -1     26733 5.45284E-13-5.75155E-13 1.61413E-13
 -1     26734-2.64766E-13 7.10642E-13 2.20907E-13
 -1     26735 7.31594E-14-4.86560E-14 2.08722E-14
 -1     26736-5.71159E-14-1.78057E-14-2.04767E-14
 -1     26737-3.35193E-15 6.25335E-15-1.46324E-15
 -1     26738 1.34040E-15 4.07226E-15-5.55112E-17
 -1     26739-1.72469E-15-2.00090E-16 1.06165E-15
 -1     26740-9.70388E-16 9.64940E-16-1.66533E-16
 -1     26741 7.65702E-15 4.40992E-15 5.06539E-16
 -1     26742-3.84747E-14 2.49860E-13 3.12805E-14
 -1     26743-5.12250E-14-1.51178E-13-1.35586E-14
 -1     26744-1.78705E-14 1.64106E-13-5.69822E-14
 -1     26745 6.88747E-14-1.48320E-14-1.57652E-14
 -1     26746 2.11516E-14-3.70131E-14-1.05471E-14
 -1     26747 4.72524E-14 7.68782E-14 2.28116E-14
 -1     26748 1.92945E-14 3.31044E-13-8.85958E-14
 -1     26749-3.14271E-15-1.13129E-13 5.55112E-16
 -1     26750-8.46230E-14 1.79886E-13-5.32907E-15
 -1     26751-1.59739E-14 2.08826E-14 4.72539E-15
 -1     26752-3.44416E-14-9.79072E-14 1.74860E-15
 -1     26753-1.31808E-13 1.08834E-13 7.66054E-15
 -1     26754-2.25270E-14-5.76102E-15-7.32747E-15
 -1     26755-1.13191E-16-9.59042E-15-9.46465E-15
 -1     26756 4.92319E-15 3.54035E-15-2.55351E-15
 -1     26757 3.69220E-15-2.81702E-14-3.21965E-15
 -1     26758 3.62413E-15-1.31937E-15-1.30885E-15
 -1     26759-5.89338E-15 2.00749E-14 3.92134E-15
 -1     26760 4.63864E-15-3.26400E-14 7.35523E-15
 -1     26761 4.83885E-15-1.99753E-15 1.51268E-15
 -1     26762 4.44780E-15-3.62283E-15 7.94503E-16
 -1     26763-5.51918E-14-4.29224E-14-3.31957E-14
 -1     26764-6.34874E-14 6.16629E-14 7.45515E-14
 -1     26765-5.99366E-14 7.46936E-13-5.85088E-14
 -1     26766-5.70013E-13 6.65751E-14-1.29452E-13
 -1     26767 8.23126E-15 4.11151E-14 3.15303E-14
 -1     26768 3.09218E-12 2.80726E-12 3.62597E-13
 -1     26769-1.63871E-12-8.80798E-13-1.66811E-14
 -1     26770 6.19951E-14 1.21875E-12-4.37428E-14
 -1     26771 3.16935E-14-2.93167E-12 1.63869E-13
 -1     26772 2.19511E-13 5.46841E-14-2.99760E-14
 -1     26773 1.41311E-13 1.12651E-13 1.19071E-14
 -1     26774 1.98841E-13-4.28065E-15 1.22513E-13
 -1     26775-1.27082E-13-7.19681E-14 5.47618E-14
 -1     26776 4.60171E-13-1.90807E-14-7.98250E-14
 -1     26777 2.56332E-13 2.24216E-15 6.93057E-14
 -1     26778-2.46345E-12-1.97078E-12-1.85366E-13
 -1     26779 1.15557E-12 1.67021E-12 3.32966E-13
 -1     26780 1.54014E-13-5.57626E-13-8.85292E-13
 -1     26781 4.04330E-13 2.12741E-13-2.45646E-14
 -1     26782 1.99150E-14 2.36122E-12 8.30446E-13
 -1     26783 1.07067E-14-3.86229E-14-6.91114E-15
 -1     26784-3.36238E-14 1.13662E-13-1.29202E-14
 -1     26785-7.04094E-13-9.95198E-13 3.95997E-13
 -1     26786 3.84303E-12-8.90003E-13 4.54609E-13
 -1     26787-9.96358E-13 5.07226E-13 3.11941E-13
 -1     26788 4.30769E-14 1.12015E-13-1.67644E-14
 -1     26789 2.73305E-14-3.09707E-13 2.10831E-13
 -1     26790 2.51245E-12 8.60963E-13-7.62834E-13
 -1     26791 5.51024E-12-3.46293E-12-5.16351E-13
 -1     26792 1.16784E-12-8.73627E-14 1.88072E-13
 -1     26793 1.80677E-12 8.16720E-13-4.89400E-14
 -1     26794-1.38737E-12 4.81349E-13 1.03206E-12
 -1     26795-1.08516E-13 2.27629E-13-5.12090E-14
 -1     26796-1.38398E-15 2.62811E-16 2.10942E-15
 -1     26797 9.96849E-15 8.10145E-14 1.46888E-15
 -1     26798-5.11033E-13-2.30617E-12 9.36584E-13
 -1     26799 2.57744E-12 1.21021E-12-4.71248E-13
 -1     26800-1.27614E-13 9.93784E-13 1.24572E-13
 -1     26801-2.51841E-13 1.29531E-14 2.13718E-13
 -1     26802-2.24270E-14 9.47927E-13-3.33622E-14
 -1     26803 1.55474E-13-9.35137E-13-1.14575E-13
 -1     26804-1.30380E-13-1.32414E-13-1.13576E-13
 -1     26805 2.05417E-14 4.58011E-13 1.41775E-13
 -1     26806-1.55777E-13 1.36122E-13-1.93512E-13
 -1     26807-1.80510E-14 9.29118E-15-8.77076E-15
 -1     26808-6.36282E-13-3.01757E-13 1.55653E-13
 -1     26809-9.40249E-13 5.41657E-13-1.60649E-13
 -1     26810 4.85148E-13-9.42125E-14-3.18745E-13
 -1     26811-2.98515E-15-3.94812E-15-1.80411E-16
 -1     26812-2.29905E-15 6.50712E-15-8.32667E-17
 -1     26813 8.69538E-15-2.87179E-14-3.31679E-15
 -1     26814-5.05515E-15-1.09144E-14-3.71925E-15
 -1     26815 2.90081E-15 2.56191E-14-4.60743E-15
 -1     26816 4.32928E-12 2.19746E-12-4.67244E-13
 -1     26817 4.45801E-13-1.23418E-12-4.13003E-14
 -1     26818 6.91537E-13-6.87008E-13-3.17524E-13
 -1     26819 1.46103E-13 3.09039E-13-5.23581E-13
 -1     26820-2.01270E-13-4.98448E-13-3.86358E-14
 -1     26821 1.88254E-13-5.30147E-13 5.86614E-14
 -1     26822-1.33268E-12-2.57564E-12 5.17374E-13
 -1     26823-4.80849E-13 2.77106E-13 6.19504E-14
 -1     26824-6.06784E-13-2.13246E-13 3.66374E-13
 -1     26825 6.81551E-14 8.84178E-15-5.96745E-15
 -1     26826 7.83066E-14-1.62730E-14-1.40166E-15
 -1     26827 2.31492E-13-5.91002E-14 4.18277E-14
 -1     26828 1.91866E-13 3.02362E-14 5.46230E-14
 -1     26829 1.23891E-13 4.95558E-14 1.31006E-14
 -1     26830 7.27770E-13-2.73454E-14 1.31117E-13
 -1     26831-3.12795E-13 2.81384E-12-5.90084E-14
 -1     26832-8.02121E-14 1.06038E-12 3.34524E-13
 -1     26833-2.15002E-14 2.76680E-14-1.92069E-14
 -1     26834-6.13745E-15-1.05749E-14-4.44089E-16
 -1     26835-1.59317E-14 1.42490E-14-1.39888E-14
 -1     26836 9.64714E-14 4.51431E-14 1.44329E-14
 -1     26837 6.35733E-14 6.17215E-15-1.11022E-15
 -1     26838-2.69244E-12-1.21942E-12 4.09249E-13
 -1     26839 1.30379E-12 2.63394E-13 3.38049E-13
 -1     26840-1.92548E-12-1.00661E-11 1.86212E-13
 -1     26841 3.16189E-14-1.73327E-11 1.37379E-12
 -1     26842 1.21411E-12 6.36313E-13-4.38288E-13
 -1     26843-8.06499E-14 5.10879E-12-6.68382E-13
 -1     26844 1.62792E-13-1.27732E-12 1.73229E-13
 -1     26845-2.25852E-13-3.06118E-13-1.79748E-14
 -1     26846 2.46149E-15-7.96861E-16 7.94503E-16
 -1     26847-3.69015E-16 3.31343E-15-2.19963E-15
 -1     26848-1.23778E-15-3.24868E-16-1.67921E-15
 -1     26849 4.03824E-13 3.24524E-12-1.09912E-13
 -1     26850-1.82770E-12 4.55989E-13-1.43996E-13
 -1     26851-7.24032E-13-1.17169E-12 2.13884E-13
 -1     26852-1.06082E-12-2.61063E-12 1.13798E-12
 -1     26853-4.42447E-13 4.03927E-13-1.74985E-13
 -1     26854-2.36246E-13-1.81266E-12-8.49598E-14
 -1     26855-1.71372E-12 1.03703E-13-2.59931E-13
 -1     26856-2.26623E-12 2.30811E-12 2.92802E-13
 -1     26857-2.46436E-14 2.38417E-13-2.43694E-13
 -1     26858-3.88307E-13-7.42152E-13 4.29240E-13
 -1     26859-5.93853E-13 1.07775E-12 5.66824E-13
 -1     26860-2.39579E-12-2.93623E-13 6.29843E-13
 -1     26861-3.58739E-14 3.61802E-13 4.66294E-15
 -1     26862 1.69219E-13-4.59139E-13-7.02771E-14
 -1     26863-1.68544E-14 7.36602E-13 1.36002E-14
 -1     26864 8.63154E-15 1.29277E-12 1.99840E-15
 -1     26865-9.83455E-13-3.82041E-13 1.30215E-13
 -1     26866 4.82338E-13 8.43420E-13-2.64511E-13
 -1     26867-4.52651E-13-8.71669E-13-1.29896E-14
 -1     26868 2.13819E-13 3.33711E-13-1.13465E-13
 -1     26869 1.42749E-13 5.56971E-14 7.70217E-15
 -1     26870-1.16105E-13 3.76721E-14 1.70530E-13
 -1     26871-2.43560E-13-7.36043E-15-3.31513E-13
 -1     26872-2.33603E-13-3.35982E-13 1.98064E-13
 -1     26873 7.23353E-13-1.61895E-13 2.53131E-14
 -1     26874 2.67114E-13-5.98333E-13-1.23235E-13
 -1     26875 1.75650E-13 4.39392E-13 1.91513E-14
 -1     26876 1.08588E-15-2.68513E-13-3.63043E-14
 -1     26877-1.44897E-13 2.20103E-13 1.12299E-13
 -1     26878 5.30863E-15 7.51520E-15-9.57567E-16
 -1     26879-9.55507E-16-8.57387E-16 1.44329E-15
 -1     26880 6.56484E-16 2.25438E-14-8.74301E-16
 -1     26881-1.82596E-13-5.10617E-13-2.89768E-14
 -1     26882-3.73408E-14 3.66182E-13 7.36355E-14
 -1     26883-9.38180E-13 2.22817E-12 1.56319E-13
 -1     26884 3.87575E-13 1.23290E-12-7.75491E-13
 -1     26885 1.20276E-12-7.88207E-13-6.09512E-14
 -1     26886 1.86209E-12-5.94204E-12-4.89282E-13
 -1     26887 4.00093E-13-7.18222E-13-7.77156E-14
 -1     26888-1.55697E-13 1.90972E-14-8.55982E-14
 -1     26889-2.14787E-13 1.09783E-12 5.44120E-13
 -1     26890-1.39548E-12-3.10428E-12 1.55740E-13
 -1     26891 3.79097E-14 1.77142E-13 3.25850E-14
 -1     26892-2.70944E-14 1.96693E-13 4.45199E-14
 -1     26893 3.99248E-13-7.56278E-13 4.79061E-14
 -1     26894-1.13484E-12-5.48379E-12-8.97726E-13
 -1     26895 2.04100E-13-1.76250E-13 9.70890E-14
 -1     26896 3.92791E-13-1.07405E-13-1.12989E-13
 -1     26897-7.09520E-13 5.04015E-13-4.29157E-13
 -1     26898 2.04217E-13 2.14482E-14 1.12466E-13
 -1     26899-2.25303E-13 2.66187E-14 1.01363E-13
 -1     26900 6.53761E-13-1.07430E-13 5.88418E-15
 -1     26901 2.18479E-15 2.69965E-14-5.41234E-16
 -1     26902 4.52826E-15 3.53697E-15 4.85723E-16
 -1     26903 1.32410E-13 2.28818E-12 4.66405E-13
 -1     26904 2.27019E-13-2.84730E-13-2.04628E-13
 -1     26905 6.18743E-14 1.01783E-14 2.75387E-14
 -1     26906 1.82949E-14 1.53973E-13-6.52256E-15
 -1     26907 7.91138E-14 1.48233E-14-1.05402E-14
 -1     26908-1.17512E-13-3.41814E-13 3.64986E-15
 -1     26909 9.15982E-14 2.28724E-14 8.10463E-15
 -1     26910 1.70935E-15-7.20095E-15 8.38218E-15
 -1     26911 1.90312E-14-3.32200E-15 4.44089E-16
 -1     26912-1.68331E-13-2.26541E-13 6.27831E-14
 -1     26913 1.92798E-13 4.43345E-13-2.60902E-14
 -1     26914-2.13775E-13 9.17083E-14 4.74065E-14
 -1     26915-1.34765E-12 1.03528E-12 5.54390E-13
 -1     26916-3.68347E-12 1.34671E-12-1.56541E-14
 -1     26917 9.14852E-13 3.33120E-13 2.45637E-13
 -1     26918 1.19889E-12-4.34133E-13-1.79856E-14
 -1     26919-7.48060E-13-1.70474E-12-1.52753E-13
 -1     26920 2.67196E-12-1.99583E-12 4.23273E-14
 -1     26921-6.17256E-13 5.41112E-12-3.56326E-13
 -1     26922 1.79074E-12 2.16892E-13-4.97258E-13
 -1     26923-4.74610E-12 2.09475E-12-1.69765E-12
 -1     26924-1.16276E-12 1.80561E-12 8.06966E-13
 -1     26925 4.39576E-12-6.85553E-12 1.46708E-12
 -1     26926 3.36294E-12 1.03421E-11 7.80057E-13
 -1     26927-1.23665E-13-6.29583E-14-3.53051E-14
 -1     26928-3.90556E-14-6.48743E-15-2.44249E-15
 -1     26929-9.47645E-14 3.58834E-14 1.94289E-14
 -1     26930 1.95891E-13-9.28579E-14-1.67366E-14
 -1     26931 1.74863E-14-1.31329E-14-2.19269E-15
 -1     26932-1.39010E-12 1.87771E-12-3.43836E-13
 -1     26933-2.47107E-12 6.66285E-13 7.42184E-14
 -1     26934 1.27924E-12-2.21478E-12 4.15112E-13
 -1     26935-2.38784E-12-1.78981E-12 1.62870E-13
 -1     26936-3.86909E-13 1.37687E-12 4.94688E-13
 -1     26937-1.95891E-12 1.30409E-12 1.23968E-12
 -1     26938 9.47923E-13 1.67964E-12-7.15206E-13
 -1     26939-2.93941E-13 4.95156E-13-3.22020E-13
 -1     26940 1.00402E-12-8.56397E-13 6.09041E-13
 -1     26941 3.21050E-13 2.97380E-13 1.33005E-13
 -1     26942 1.73565E-12 3.64693E-13-1.87517E-13
 -1     26943-3.61046E-13-2.77483E-13-3.81251E-13
 -1     26944-3.29449E-14-3.28284E-13-1.69476E-13
 -1     26945 9.10535E-15-5.46955E-13-6.66550E-14
 -1     26946-3.27395E-14-1.86939E-14 1.27676E-15
 -1     26947-2.70339E-13 8.44619E-13-3.33743E-14
 -1     26948-3.22807E-13-9.91732E-13-1.36446E-13
 -1     26949-3.78875E-13 1.02318E-13 8.71525E-15
 -1     26950 4.30432E-13 4.40184E-14 9.54792E-15
 -1     26951 5.70747E-13-1.37143E-12-6.07292E-14
 -1     26952 8.65776E-13-4.12071E-13-1.08320E-13
 -1     26953-3.68306E-12-8.71141E-12-9.32822E-13
 -1     26954-1.63166E-12-2.50817E-12 1.23551E-12
 -1     26955 1.69777E-13 6.93456E-14-9.43690E-15
 -1     26956-2.27389E-12 8.15034E-13 5.47729E-13
 -1     26957 2.41454E-12 2.51475E-12 1.90362E-12
 -1     26958-2.88590E-12 3.83923E-12 2.10387E-13
 -1     26959-1.08689E-13-1.67256E-13-5.79536E-14
 -1     26960 1.19987E-12 1.01001E-12 2.02727E-13
 -1     26961-1.13000E-13-5.02732E-12 2.34287E-13
 -1     26962-6.64288E-14-2.64006E-12 1.69240E-13
 -1     26963-2.94165E-12 5.39276E-13 4.04662E-13
 -1     26964-9.71904E-14-1.79568E-13-9.67559E-14
 -1     26965 3.60756E-13 4.24923E-12 1.06071E-12
 -1     26966-1.01991E-12 2.77763E-12 5.57776E-13
 -1     26967 4.01041E-13-8.06816E-13 6.12843E-14
 -1     26968 1.06933E-13 1.09290E-12-4.16334E-14
 -1     26969-1.60686E-12 4.26381E-13-6.43929E-15
 -1     26970-6.68754E-14-3.54370E-13 3.32789E-14
 -1     26971 1.16705E-13 2.45427E-13 4.72400E-14
 -1     26972-2.39386E-14-4.08459E-13-3.77268E-14
 -1     26973-5.21049E-14-2.39364E-14-7.99361E-15
 -1     26974-2.06316E-13 1.00661E-12-2.22045E-16
 -1     26975-1.36399E-13-3.61104E-13 3.19744E-14
 -1     26976 2.41189E-13-9.56642E-14 1.85449E-13
 -1     26977 6.97679E-13-5.71591E-12-7.35190E-13
 -1     26978-1.42634E-12 1.33917E-12-5.46924E-14
 -1     26979 7.49448E-14 1.39356E-12-6.68632E-14
 -1     26980-1.53370E-12 2.33587E-12 4.41092E-13
 -1     26981-5.88518E-13-1.88104E-13-1.94289E-14
 -1     26982 1.01710E-13-5.38241E-13 4.52971E-14
 -1     26983-1.02937E-12-2.33428E-13 1.05860E-13
 -1     26984 4.20990E-13-6.32358E-13-1.20570E-13
 -1     26985-5.92382E-15-2.92314E-16-1.33227E-15
 -1     26986 3.87850E-15 3.37043E-15-4.21885E-15
 -1     26987-5.21789E-15 9.63406E-15 5.60663E-15
 -1     26988-2.60339E-15-1.59074E-15-5.55112E-15
 -1     26989 2.05855E-15-2.57498E-16 6.10623E-15
 -1     26990-8.31226E-14-1.42547E-13-6.43929E-14
 -1     26991 8.74897E-15-6.65611E-14 1.19904E-14
 -1     26992 4.92618E-14-1.03438E-14 2.22045E-15
 -1     26993 1.33347E-14 3.88611E-15 2.88658E-15
 -1     26994-4.23056E-15-1.23144E-14 1.11022E-15
 -1     26995 6.58365E-15-6.22297E-15 3.99680E-15
 -1     26996 3.99707E-15 8.87324E-14-2.99760E-15
 -1     26997 6.32225E-15 2.41475E-14-1.54321E-14
 -1     26998-5.74696E-14 8.24750E-14-1.59872E-14
 -1     26999 3.26662E-14-2.05474E-14 6.93889E-15
 -1     27000-4.68648E-13 1.57931E-12-7.15022E-13
 -1     27001-9.93213E-13 1.34129E-11 1.74811E-12
 -1     27002 6.62868E-15 1.50712E-13 4.82947E-15
 -1     27003 2.29008E-12-1.68435E-12 2.50736E-12
 -1     27004-1.72162E-14 1.77558E-14 7.49401E-16
 -1     27005 1.55632E-12-1.91949E-13-1.63536E-13
 -1     27006-7.91880E-14-2.99939E-12 7.77156E-15
 -1     27007 1.38786E-12 3.60013E-12 5.66991E-13
 -1     27008-4.87391E-14-2.57436E-14 1.41692E-14
 -1     27009 1.16403E-14 7.21157E-16-1.17684E-14
 -1     27010 6.53460E-13-3.42553E-12-1.72668E-12
 -1     27011-8.32459E-13-1.45615E-12 3.85538E-13
 -1     27012 3.35631E-14 2.61574E-13-1.36516E-13
 -1     27013-8.73453E-14-2.17391E-13-7.41074E-15
 -1     27014-9.46395E-13-2.95808E-12-4.57107E-13
 -1     27015-1.40299E-12 2.00576E-12 1.72867E-12
 -1     27016 1.05111E-12-4.01385E-13 6.76820E-14
 -1     27017-1.43091E-12-5.40154E-14-2.77334E-13
 -1     27018-1.99664E-13-2.00221E-12-7.48290E-14
 -1     27019 1.54962E-13-4.81670E-13-1.18509E-12
 -1     27020-7.09187E-14-9.50289E-14-6.37684E-15
 -1     27021 4.68950E-15-6.63980E-14-1.53766E-14
 -1     27022 2.36680E-13 1.04079E-13 6.10345E-14
 -1     27023-1.42067E-13-4.76244E-13 1.22014E-13
 -1     27024-2.96066E-13 4.04682E-13 4.66294E-15
 -1     27025-5.94524E-13 1.84939E-12 1.55653E-13
 -1     27026-5.54301E-14 3.18706E-13-8.71525E-15
 -1     27027 1.21374E-12 5.79907E-13 1.94331E-13
 -1     27028-1.46146E-12 4.91595E-13 5.82642E-14
 -1     27029 3.54566E-13-9.40185E-14 9.54792E-15
 -1     27030-4.26608E-13 1.86631E-12 1.58096E-13
 -1     27031 3.78110E-13-2.62414E-12 5.78981E-14
 -1     27032-2.68765E-14-1.61615E-12 4.95354E-13
 -1     27033-2.65401E-13 4.49334E-12-2.02258E-13
 -1     27034-1.12551E-12 1.77631E-12 9.04540E-13
 -1     27035-6.77008E-13 6.04129E-12 2.36255E-13
 -1     27036 2.80766E-13-3.27297E-13 4.64559E-14
 -1     27037 1.60213E-13-1.06017E-13-8.11573E-14
 -1     27038 1.19985E-13 6.92085E-14-2.33369E-13
 -1     27039-2.85975E-15 3.45380E-15-1.50435E-13
 -1     27040 8.29402E-13 4.85863E-14 9.87669E-13
 -1     27041-8.26122E-14 1.84528E-12 3.77032E-13
 -1     27042 2.14639E-15 2.78966E-12 1.48728E-13
 -1     27043-9.68878E-13 3.79588E-13 2.14669E-13
 -1     27044 4.99710E-13-1.55764E-13-3.06033E-13
 -1     27045-3.01871E-12 3.88994E-12 2.86882E-13
 -1     27046-3.20760E-12 9.03903E-13-2.06501E-13
 -1     27047-1.59600E-13 1.69267E-13 4.64073E-14
 -1     27048-1.08999E-13 6.11209E-14-5.08482E-14
 -1     27049 3.93226E-14 2.26965E-14-3.19744E-14
 -1     27050 4.07308E-15 9.27167E-15 4.64906E-16
 -1     27051 5.17936E-15 1.41094E-14-1.24900E-16
 -1     27052 4.98679E-15-4.55177E-14-2.24820E-14
 -1     27053-3.68846E-15-4.01242E-14-5.55112E-15
 -1     27054 1.89573E-15-1.21748E-14-1.49186E-15
 -1     27055-3.59952E-15 3.84538E-14 9.65894E-15
 -1     27056 1.10529E-13-1.36241E-13-9.54792E-15
 -1     27057 2.69793E-13-2.72785E-14-3.86358E-14
 -1     27058 1.33609E-12-1.59556E-13-5.93517E-13
 -1     27059 1.77231E-12 3.04770E-12-9.70557E-13
 -1     27060 1.04269E-12 1.13578E-12-5.84033E-13
 -1     27061 1.09891E-12 8.91997E-13-1.65146E-13
 -1     27062-9.92095E-13 2.01091E-13-7.92699E-14
 -1     27063 3.47907E-12-3.37410E-12-3.35836E-13
 -1     27064-1.02182E-12 5.12214E-12 6.02851E-14
 -1     27065-1.62156E-12-2.22367E-12 2.59515E-14
 -1     27066 1.93494E-12 1.66233E-13-1.73472E-13
 -1     27067-2.30497E-14 6.76276E-14 1.09912E-14
 -1     27068 8.05199E-15 1.54784E-14-1.33227E-15
 -1     27069-1.52661E-14 8.90755E-15-3.99680E-15
 -1     27070-1.30583E-14-2.01131E-14 1.50643E-14
 -1     27071-1.95715E-13 4.68956E-12-1.13720E-12
 -1     27072 1.52342E-12-3.90567E-12 4.38094E-13
 -1     27073-2.14435E-13 2.69332E-12 7.88924E-13
 -1     27074-4.94228E-13 2.63191E-12 1.65090E-13
 -1     27075-6.32359E-14 1.03462E-13-2.13163E-14
 -1     27076 8.77675E-14 2.44272E-14 2.07195E-14
 -1     27077 6.56544E-13 1.68012E-12-3.50386E-13
 -1     27078 3.00329E-13 1.28391E-13 1.63980E-13
 -1     27079-3.05270E-13-1.47930E-12-3.25073E-13
 -1     27080-2.38830E-13 1.12728E-13 8.52096E-15
 -1     27081-2.12675E-13-2.83929E-13 3.53606E-14
 -1     27082 1.14405E-12-7.19259E-13 6.02834E-13
 -1     27083-8.57230E-14 2.40490E-13-3.54924E-14
 -1     27084-6.50335E-14 2.43840E-13-9.21485E-15
 -1     27085-1.17708E-12 4.76891E-12 2.62207E-13
 -1     27086 4.34761E-12-4.04192E-13 7.72604E-13
 -1     27087 6.58089E-13-1.00225E-13 1.09646E-12
 -1     27088 1.29055E-12-3.83009E-12-7.67515E-13
 -1     27089-1.91362E-12-2.45269E-12-1.17345E-12
 -1     27090 2.60332E-13 7.00101E-12-6.94028E-13
 -1     27091-3.95211E-12 6.02789E-12-2.33369E-13
 -1     27092-1.74593E-12 3.93906E-12 4.56168E-13
 -1     27093-1.60248E-12-5.61431E-12-8.53900E-13
 -1     27094-7.44963E-14 2.75669E-14-7.81597E-14
 -1     27095 1.46626E-14 7.60203E-14 4.21885E-15
 -1     27096-1.44004E-14 6.05819E-14-9.32587E-15
 -1     27097-6.19596E-14 7.92725E-15-2.93654E-14
 -1     27098 1.05830E-14 4.14790E-14-3.94129E-15
 -1     27099 3.54683E-14-1.20706E-12-5.65423E-13
 -1     27100 5.14000E-13-2.47550E-12-4.75175E-14
 -1     27101 1.02589E-12 1.25075E-13 7.76379E-13
 -1     27102-9.88573E-13-6.21248E-13-8.83182E-14
 -1     27103 2.90275E-13-7.94718E-13-1.60094E-13
 -1     27104-4.86931E-13-3.53886E-12 7.63833E-13
 -1     27105 5.15267E-15-1.28236E-15-1.94289E-15
 -1     27106 8.95838E-15-6.69820E-16 9.43690E-16
 -1     27107 2.81676E-15-1.04590E-15-9.71445E-17
 -1     27108-7.34696E-16-9.43266E-16 2.63678E-16
 -1     27109-1.08778E-15 8.71536E-16-7.21645E-16
 -1     27110-8.17083E-13-7.55661E-13 2.94365E-13
 -1     27111 1.51711E-12 2.45234E-12-3.43395E-13
 -1     27112-2.42657E-14 4.93000E-14 7.88258E-15
 -1     27113-3.04469E-14 1.16601E-14-1.40166E-15
 -1     27114 1.80383E-14-8.34055E-15-7.21645E-16
 -1     27115-9.98897E-15 5.95016E-15-1.60982E-15
 -1     27116-2.70235E-14 5.08101E-15 3.77476E-15
 -1     27117-1.27192E-12-9.10538E-14-2.10734E-14
 -1     27118 7.56843E-13 6.04942E-13-3.13027E-13
 -1     27119 2.15489E-12-1.54608E-12-4.85778E-13
 -1     27120 2.18484E-12-2.51348E-13 2.97234E-13
 -1     27121 7.53160E-13 6.67054E-12 1.30937E-12
 -1     27122 9.47986E-13 4.18675E-12 2.62852E-13
 -1     27123-4.75281E-13 2.07905E-12-6.82676E-13
 -1     27124 1.33132E-12 1.42904E-12-6.27498E-13
 -1     27125 2.38595E-12-2.74853E-12-3.07199E-13
 -1     27126 1.52214E-15-9.05099E-16-5.48173E-16
 -1     27127-2.23328E-16 3.12345E-16-2.65413E-16
 -1     27128-3.32460E-16-2.01528E-16 1.31839E-16
 -1     27129-1.82471E-15-1.37911E-16-2.63678E-16
 -1     27130-6.80215E-16-2.00279E-16-4.11129E-16
 -1     27131-4.67356E-15-4.60786E-15 0.00000E+00
 -1     27132-2.50746E-13-2.14526E-12 7.44960E-14
 -1     27133-4.44288E-14 6.82388E-13 4.47198E-13
 -1     27134 6.73112E-13-4.38875E-12-5.17697E-13
 -1     27135 2.71023E-15-1.47723E-16-6.66134E-16
 -1     27136-5.20319E-15 2.81893E-16-1.11022E-16
 -1     27137 2.81985E-15-1.70231E-15 1.73472E-15
 -1     27138-1.05844E-12-3.42778E-12-7.77989E-13
 -1     27139-2.54535E-13-1.67139E-13-3.53328E-13
 -1     27140-2.20941E-12 7.86271E-13-5.93081E-13
 -1     27141 2.47296E-12 8.45179E-13 6.44484E-14
 -1     27142 5.07415E-12-1.75335E-12 1.00075E-12
 -1     27143 1.29677E-12-2.62725E-12-2.55004E-14
 -1     27144-1.36701E-13 2.53985E-15 8.90260E-14
 -1     27145-7.82921E-13-5.91344E-13 3.66450E-13
 -1     27146-2.86998E-13-1.49166E-12 1.21847E-13
 -1     27147 9.12087E-13-6.35914E-13-3.73812E-13
 -1     27148-5.32773E-13-2.13652E-12 6.02379E-13
 -1     27149-1.39284E-12 1.08177E-12 1.82930E-13
 -1     27150 1.85692E-12-1.62477E-12 4.89164E-13
 -1     27151-1.35389E-12-1.11017E-12-1.13076E-13
 -1     27152-4.47279E-12 2.15666E-12 1.81133E-13
 -1     27153-1.15477E-13 8.38562E-13-6.19393E-13
 -1     27154 2.20430E-12 2.15942E-12 1.19754E-12
 -1     27155-1.44139E-13 4.37298E-13 4.10783E-14
 -1     27156-2.25337E-13 2.54133E-12-3.00419E-13
 -1     27157 2.13659E-13-1.48916E-12-3.72008E-13
 -1     27158-9.09902E-13 3.64612E-12-1.29960E-12
 -1     27159-5.17169E-12-2.21878E-12 1.06748E-12
 -1     27160-6.16079E-13-7.43243E-13-9.89892E-13
 -1     27161-1.28009E-13-1.94789E-12-1.50636E-12
 -1     27162 2.80390E-12-5.53039E-12-1.15644E-13
 -1     27163 3.26280E-12 4.92908E-12-6.43929E-13
 -1     27164 1.29054E-12-5.14327E-12 1.09263E-12
 -1     27165 2.44788E-12-8.72991E-12-5.08565E-13
 -1     27166-5.10694E-12-1.34525E-12-7.24320E-13
 -1     27167 1.90574E-12 6.06782E-12 5.60857E-13
 -1     27168 4.80479E-14 6.20504E-13 1.13687E-13
 -1     27169 4.79702E-13 1.00676E-12 2.33091E-13
 -1     27170-9.53618E-14 6.75520E-13 8.95950E-14
 -1     27171 6.51331E-14 2.28325E-14-9.36230E-15
 -1     27172 1.49783E-15-2.63640E-15 1.28023E-15
 -1     27173 7.33697E-15 1.38141E-14-3.12944E-15
 -1     27174 2.08056E-15-1.05669E-14 9.10730E-16
 -1     27175 2.35973E-13-1.61587E-12-1.46994E-13
 -1     27176 2.06586E-13 2.12313E-12-3.88301E-14
 -1     27177-1.85780E-14 6.65550E-13 1.54488E-13
 -1     27178 1.78893E-12 2.63843E-12-1.25455E-14
 -1     27179-1.04934E-12 9.79458E-15-2.84328E-13
 -1     27180-7.92071E-13-2.06600E-12-6.15813E-13
 -1     27181 1.05265E-11-4.60509E-12 9.27536E-13
 -1     27182-3.76041E-12 2.74544E-12 6.34021E-13
 -1     27183 3.15132E-12-1.93248E-12 3.79141E-13
 -1     27184 3.59556E-13-3.25671E-12 4.74620E-13
 -1     27185-1.12687E-12-4.31787E-13-2.65864E-14
 -1     27186 6.46967E-13-1.18959E-12 6.17617E-13
 -1     27187 2.89203E-13-3.67491E-12 6.06459E-13
 -1     27188-5.51821E-13-7.33447E-13-1.21996E-13
 -1     27189-2.77243E-12 1.48887E-12 2.92766E-13
 -1     27190 1.33354E-12-1.98156E-14 6.51409E-13
 -1     27191-4.68001E-12-9.00181E-12-5.08871E-13
 -1     27192 3.11516E-12 3.70027E-12 5.93067E-14
 -1     27193-9.15057E-13-6.71125E-13 1.79023E-14
 -1     27194-3.95623E-13 3.28995E-12 3.56160E-13
 -1     27195-5.87854E-15 2.30649E-14-2.22045E-16
 -1     27196-1.93956E-14-1.39025E-14-3.83027E-15
 -1     27197-2.29584E-14-1.65345E-14-6.99441E-15
 -1     27198 5.33333E-13-1.42417E-13 1.56430E-13
 -1     27199-2.97549E-15 5.80815E-14-6.38378E-15
 -1     27200-7.59879E-15 3.35918E-15-3.56659E-15
 -1     27201-2.31749E-14-2.12503E-14 3.16414E-15
 -1     27202-1.82034E-14 1.12566E-13-6.66134E-16
 -1     27203-1.70999E-17-7.52250E-17-9.19403E-17
 -1     27204 1.93156E-16-2.47263E-16-1.90820E-16
 -1     27205-1.00051E-13-1.52771E-13-8.01192E-13
 -1     27206-1.01111E-12-6.66858E-12 2.61846E-13
 -1     27207-3.42637E-13 1.44930E-12-3.45182E-13
 -1     27208-3.35193E-13 4.49972E-12 7.98330E-13
 -1     27209 6.70962E-13-2.19723E-12 2.76779E-13
 -1     27210-3.24473E-14 1.01683E-13-2.97956E-14
 -1     27211-7.43248E-14 1.12740E-13-3.60822E-15
 -1     27212-2.29291E-14 9.45511E-15 5.49005E-14
 -1     27213-3.72426E-14-2.54392E-14-9.27036E-15
 -1     27214-6.15882E-12-4.68511E-12-1.69467E-12
 -1     27215-5.29069E-13-3.50460E-12-4.21913E-13
 -1     27216 6.49123E-15-2.51323E-15 7.91034E-16
 -1     27217-3.32503E-15 6.07153E-16-7.88258E-15
 -1     27218-3.58695E-16-1.26097E-14-9.60343E-15
 -1     27219-1.27518E-12 2.71559E-12-1.95788E-13
 -1     27220-5.04179E-14-1.06611E-12-3.93463E-13
 -1     27221-3.57487E-13-1.33716E-12 1.63758E-15
 -1     27222 7.54940E-15-1.40103E-14-4.35763E-15
 -1     27223 5.78653E-13-6.42128E-13-2.28345E-13
 -1     27224 1.02544E-12 1.72485E-12 3.53301E-13
 -1     27225-1.83842E-14 1.35462E-12-3.54050E-13
 -1     27226 1.70874E-14-9.53699E-14-4.35485E-14
 -1     27227 2.53695E-14 1.15640E-13 5.66214E-15
 -1     27228 1.45174E-14-8.32539E-14 4.06619E-14
 -1     27229 5.01796E-14-3.95543E-14-8.80407E-14
 -1     27230 1.28376E-14-2.47762E-15 1.11022E-15
 -1     27231-2.46926E-14-8.88337E-15 2.17534E-15
 -1     27232 1.35044E-13 2.56045E-12 1.54055E-12
 -1     27233 1.14108E-12-7.37672E-13 6.38829E-14
 -1     27234 2.58208E-12-3.26860E-12 6.04593E-13
 -1     27235-9.65066E-13-4.47724E-12 4.98174E-13
 -1     27236 3.67778E-13 1.08563E-12-5.57332E-14
 -1     27237-5.15224E-13 9.41610E-13-4.06231E-13
 -1     27238-1.28738E-13 8.45190E-13 3.76588E-13
 -1     27239-1.66908E-13-1.16003E-12 5.15143E-13
 -1     27240-1.18310E-14 1.68888E-12 1.59220E-13
 -1     27241 5.20105E-14-3.59569E-13-3.14193E-14
 -1     27242 5.80452E-13 1.89602E-12-5.06262E-14
 -1     27243-5.01791E-13 2.08084E-12 6.37823E-14
 -1     27244-2.13981E-13 2.33713E-12-1.04805E-13
 -1     27245-9.57790E-14-4.64592E-14-1.61260E-14
 -1     27246 2.64398E-14-3.54686E-13 5.88418E-15
 -1     27247-7.90239E-14 1.59915E-13-5.55112E-15
 -1     27248 8.83819E-14 4.55504E-14 6.38933E-14
 -1     27249-1.04917E-12 3.48097E-13-1.29663E-12
 -1     27250-1.45895E-12 5.97937E-13-2.37095E-13
 -1     27251-1.95113E-15 4.52654E-16-2.77556E-16
 -1     27252 1.50364E-14-6.13008E-14 1.77636E-15
 -1     27253 2.54657E-15-2.73714E-15 1.19349E-15
 -1     27254 2.70396E-14-1.24998E-13 4.57412E-14
 -1     27255-2.41320E-13-9.04897E-14-6.35048E-14
 -1     27256 4.14894E-14-5.92690E-15 2.62013E-14
 -1     27257 1.10331E-14-6.58046E-15-5.66214E-15
 -1     27258 1.68626E-14-1.01359E-13 3.60822E-15
 -1     27259 2.33034E-14-4.14859E-15 2.22045E-15
 -1     27260-2.77278E-14-1.47920E-14-1.37668E-14
 -1     27261 9.49171E-14 6.49004E-14-4.49640E-14
 -1     27262-1.02078E-14 2.87877E-14 1.25455E-14
 -1     27263 7.54952E-15 9.76649E-15-6.66134E-16
 -1     27264-5.21226E-12 1.36706E-13-3.42666E-13
 -1     27265 1.40588E-12 1.04457E-12 2.13662E-13
 -1     27266-4.68660E-13 4.93494E-14 3.60822E-14
 -1     27267 4.20934E-13-9.95783E-13 5.98410E-14
 -1     27268 2.02080E-13-1.12294E-13-1.77414E-13
 -1     27269-1.99680E-15 9.65807E-16 1.22125E-15
 -1     27270 4.37414E-13-2.54254E-13 5.70191E-13
 -1     27271-1.47858E-13 2.73400E-13-4.23828E-13
 -1     27272-6.50082E-14-2.24143E-13-2.04836E-14
 -1     27273-1.31660E-13 1.29576E-13 5.66214E-15
 -1     27274 2.46125E-13 7.98140E-14 4.74620E-14
 -1     27275 2.96553E-13-4.86269E-13-1.72390E-13
 -1     27276-7.20008E-14-1.16730E-13-1.19460E-13
 -1     27277 5.54640E-15-6.63386E-15-3.71925E-15
 -1     27278-2.20039E-15-1.88141E-14 5.99520E-15
 -1     27279-5.22461E-15-1.62833E-14 4.99600E-15
 -1     27280-2.22351E-13-5.01078E-12 2.60236E-13
 -1     27281-1.43634E-14-2.23482E-13-1.30507E-13
 -1     27282-2.06387E-13 1.72215E-12-1.83877E-13
 -1     27283-7.63483E-13-1.87833E-12 1.52323E-13
 -1     27284-5.82043E-13-5.85804E-13 8.19345E-14
 -1     27285-2.91995E-13 1.56806E-13 3.06422E-14
 -1     27286 1.08245E-13 6.02149E-13 7.79377E-14
 -1     27287-8.87094E-16 2.99012E-15 1.72085E-15
 -1     27288 7.61377E-14-3.28299E-14 5.26024E-13
 -1     27289-2.81128E-14 4.66413E-14-1.13520E-14
 -1     27290-7.62966E-14-9.63810E-14 3.58880E-14
 -1     27291 8.47102E-14-9.95029E-14 6.58362E-14
 -1     27292 1.45481E-13 2.21355E-13 7.91658E-14
 -1     27293 2.35354E-14 1.18664E-13 3.97460E-14
 -1     27294 1.11828E-13-8.12309E-13 3.79807E-13
 -1     27295 1.23111E-16-8.52725E-16 3.33067E-16
 -1     27296-5.22245E-13-1.08404E-12 2.45581E-13
 -1     27297 5.57964E-13 1.19304E-12 2.53797E-13
 -1     27298-5.19411E-13-1.41704E-12 2.88658E-13
 -1     27299-1.63790E-15 2.12555E-15 3.94129E-15
 -1     27300 9.44974E-15-3.51550E-14-6.66134E-16
 -1     27301-4.01155E-18 1.08507E-15 1.11022E-16
 -1     27302 2.07678E-12-3.01131E-12 6.16354E-13
 -1     27303 1.08923E-12 9.19551E-13-3.39312E-13
 -1     27304 8.36822E-13-3.66040E-12-3.06866E-13
 -1     27305 1.52132E-13 8.57632E-14 2.54241E-14
 -1     27306 9.09155E-14 1.93972E-13 1.01030E-14
 -1     27307 9.18246E-14 2.22003E-13-5.15950E-14
 -1     27308-1.31034E-14 7.68458E-13-1.72778E-14
 -1     27309-1.26996E-14-5.36613E-13-3.02203E-13
 -1     27310 2.75117E-13 3.61467E-13 4.04621E-13
 -1     27311-2.92289E-13 1.45065E-12-2.20657E-13
 -1     27312 6.79185E-17 6.19513E-16-1.78677E-16
 -1     27313-2.12708E-15-2.08777E-15-2.01228E-16
 -1     27314-1.09889E-14-2.05177E-15 4.16334E-17
 -1     27315 1.00329E-15 1.19799E-15-8.46545E-16
 -1     27316-1.05876E-15-1.72367E-16-5.55112E-17
 -1     27317-1.98295E-13 3.61572E-13-7.00065E-14
 -1     27318 1.94867E-13 4.25648E-13-4.04510E-13
 -1     27319-1.22286E-12 3.91933E-13-3.11251E-13
 -1     27320-2.96792E-12 4.75454E-12-7.57616E-13
 -1     27321-4.64043E-14-9.32467E-13 7.11653E-14
 -1     27322-7.01819E-13 6.44137E-13 8.80407E-14
 -1     27323 1.12083E-12-1.90789E-12-1.22413E-12
 -1     27324 3.67549E-12-1.09667E-12-2.87242E-13
 -1     27325 1.01552E-12 1.13609E-12-1.16429E-12
 -1     27326 2.03767E-12-2.91821E-13-1.26343E-13
 -1     27327 5.68811E-13 1.09515E-12 3.37896E-13
 -1     27328 1.57664E-14 7.69263E-14 6.41709E-14
 -1     27329-1.67819E-14-1.01014E-13 3.25434E-15
 -1     27330 2.04082E-13 1.38394E-13-7.92977E-14
 -1     27331-1.02338E-13-2.42679E-13 5.35683E-14
 -1     27332-1.45130E-14 5.12131E-14 1.07813E-14
 -1     27333 3.08984E-14 1.60929E-13 5.14033E-14
 -1     27334 1.57747E-14-9.19367E-13-9.35918E-14
 -1     27335 3.85119E-16 7.91636E-15 1.83742E-14
 -1     27336 2.53885E-14-5.26113E-14-1.19904E-14
 -1     27337-6.65689E-13 1.74562E-14-3.86677E-13
 -1     27338-5.92519E-13-5.49063E-13 2.02949E-13
 -1     27339-4.09822E-13-8.31752E-13 9.49657E-14
 -1     27340-7.19819E-15-4.77790E-13 1.65201E-13
 -1     27341-2.48142E-13 2.28105E-12-1.19512E-13
 -1     27342-1.10070E-13-3.66716E-12 4.05842E-13
 -1     27343-2.84480E-13 1.10754E-14-7.99361E-14
 -1     27344 4.23781E-13 9.47647E-14 5.34017E-14
 -1     27345-4.28438E-13-1.62520E-14 1.75415E-14
 -1     27346-1.15916E-12-8.00455E-13-1.53211E-14
 -1     27347-8.05270E-13-1.85539E-13-7.49678E-14
 -1     27348 5.43133E-13-3.88185E-13 1.43495E-13
 -1     27349 5.39776E-13-1.18698E-13-1.62093E-13
 -1     27350-5.88905E-14 1.32086E-12-3.19439E-13
 -1     27351 1.67265E-13 1.99185E-13 3.90809E-13
 -1     27352 2.23906E-13-4.31442E-13 1.69531E-13
 -1     27353 3.95376E-13-5.87538E-13-2.99760E-15
 -1     27354 3.68260E-15-1.66693E-13-2.86438E-14
 -1     27355 1.83604E-12 2.27601E-12-6.69048E-14
 -1     27356 1.03760E-12 6.60257E-13-4.88602E-14
 -1     27357-1.93603E-13 7.89263E-13 2.74766E-13
 -1     27358-1.58371E-13 1.16163E-12-2.04104E-13
 -1     27359-6.44169E-14-1.44595E-13-2.68896E-13
 -1     27360 5.36852E-13-2.41105E-12 9.73666E-14
 -1     27361 1.54632E-13-1.63206E-12-1.90958E-14
 -1     27362-4.30760E-13 1.06467E-13-1.35142E-13
 -1     27363 4.86144E-14-2.79772E-14-1.11022E-14
 -1     27364-2.40368E-14 1.97628E-15-1.48770E-14
 -1     27365 1.91955E-15 1.91015E-15-2.45463E-16
 -1     27366-1.10028E-15-4.06007E-16-6.07153E-17
 -1     27367 1.66276E-16 1.19267E-15 7.58942E-17
 -1     27368-6.24001E-16-1.39091E-15-7.80626E-17
 -1     27369-6.10274E-14 6.17890E-14 2.22045E-16
 -1     27370 1.49807E-13 1.65037E-13 4.70735E-14
 -1     27371-1.33051E-13-2.26844E-13 6.03961E-14
 -1     27372-4.33089E-13-7.68739E-14-1.26438E-12
 -1     27373-8.84796E-13 4.05467E-13 6.62428E-13
 -1     27374-3.77622E-12-7.78924E-14 3.66721E-14
 -1     27375-5.04402E-13-2.93995E-12 1.17439E-12
 -1     27376-1.73749E-12 1.41454E-12 2.64025E-14
 -1     27377-3.47403E-15 5.69521E-15 1.44329E-15
 -1     27378 4.42820E-12 4.99822E-12-7.73048E-13
 -1     27379 1.50921E-12-1.10158E-11 3.83110E-13
 -1     27380 1.60775E-13-1.12153E-14 1.28231E-14
 -1     27381 7.17431E-14-1.76683E-14 2.93099E-14
 -1     27382 1.30620E-13 2.42965E-14 2.46470E-14
 -1     27383-3.63974E-14-9.41601E-14-3.44169E-15
 -1     27384-7.05061E-13 1.68250E-12-5.14033E-14
 -1     27385 3.13380E-14-5.74443E-12 5.04152E-13
 -1     27386-9.02577E-15-2.71683E-12-1.90323E-13
 -1     27387-5.62397E-15 1.98452E-15-2.22045E-15
 -1     27388 8.20263E-15 2.35691E-13 7.24421E-15
 -1     27389-9.70572E-14-7.76769E-14-3.83027E-15
 -1     27390-1.40245E-15-2.46681E-15-5.68989E-16
 -1     27391 4.13786E-16 4.76011E-15 1.99840E-15
 -1     27392 2.19771E-12 9.73740E-13 7.92977E-14
 -1     27393-7.33799E-14 2.14694E-13-3.53106E-13
 -1     27394-3.86308E-14-1.82440E-13 9.99201E-15
 -1     27395-1.46542E-13-3.34553E-13 1.39333E-14
 -1     27396 4.01184E-15-9.89855E-15 3.71925E-15
 -1     27397-2.60431E-15-1.41467E-14 8.88178E-16
 -1     27398 3.34536E-15-1.92018E-15-2.13718E-15
 -1     27399 4.95979E-15-5.24461E-15-1.60982E-15
 -1     27400 2.64561E-13 4.64425E-13-6.02851E-14
 -1     27401 1.19752E-14-4.10539E-13 4.63518E-15
 -1     27402 9.11543E-17 1.42748E-13-2.27596E-14
 -1     27403 3.62425E-12 2.40234E-12 9.30866E-13
 -1     27404-4.48833E-12 1.14915E-12-7.98334E-13
 -1     27405-1.78089E-12 7.11933E-13-2.60916E-13
 -1     27406 4.16524E-13-1.05564E-12 1.24956E-13
 -1     27407-3.54121E-14-6.97196E-14 5.88418E-15
 -1     27408 1.01861E-15 3.85586E-15 4.99600E-15
 -1     27409 1.75607E-14-2.74504E-15 2.49800E-15
 -1     27410 1.68569E-13 1.04118E-13-5.68989E-15
 -1     27411-8.71390E-14-2.45500E-13-4.38760E-13
 -1     27412-4.51654E-13-2.54544E-13 5.29021E-14
 -1     27413-4.66496E-13-8.58244E-13 8.65974E-14
 -1     27414-6.08558E-14 5.60614E-14-2.27596E-14
 -1     27415 7.12691E-14-1.06211E-13 1.99285E-14
 -1     27416-7.96452E-14 2.58684E-12 1.81284E-13
 -1     27417-4.76550E-13 1.18239E-13-1.24040E-13
 -1     27418 7.53233E-13-6.50677E-13 8.67501E-14
 -1     27419-6.73526E-13-1.39188E-13-8.11240E-13
 -1     27420 6.55660E-14 8.63740E-14-2.57572E-14
 -1     27421 1.08823E-12 2.02456E-13-7.97140E-14
 -1     27422 2.04625E-12-8.10786E-13-7.47652E-13
 -1     27423-1.52940E-12 3.89248E-13-2.27596E-14
 -1     27424-8.19173E-13-4.97011E-13 1.40207E-13
 -1     27425 1.02701E-13 1.76429E-12 1.74971E-13
 -1     27426 4.72762E-13 3.42671E-13 2.48690E-14
 -1     27427 1.90603E-16-4.42002E-16 6.07153E-17
 -1     27428 4.57533E-17 3.91973E-16 1.05818E-16
 -1     27429 1.45574E-16-2.97840E-17-4.85723E-17
 -1     27430 8.32993E-14-5.17339E-14-8.99281E-15
 -1     27431-1.83321E-14-2.11957E-13 1.41442E-13
 -1     27432 3.03577E-16-6.77496E-15-1.06581E-14
 -1     27433 3.13638E-14 1.32299E-14-2.99760E-15
 -1     27434-3.95933E-14 2.97679E-14-7.54952E-15
 -1     27435-1.53696E-13 3.54976E-14 1.33227E-15
 -1     27436 5.60560E-15-1.78845E-15 3.19189E-15
 -1     27437-2.62557E-15 5.09250E-15 5.27356E-15
 -1     27438-1.95811E-14 8.70831E-16 1.28786E-14
 -1     27439-2.42928E-14-3.97946E-15-7.43849E-15
 -1     27440-6.04587E-14 2.19456E-13 3.42920E-14
 -1     27441 7.15606E-14-2.54545E-13 1.19071E-13
 -1     27442-4.11261E-13-1.15756E-12-1.15796E-13
 -1     27443 1.72264E-14-6.17644E-14 8.88178E-15
 -1     27444-2.16590E-13-5.87479E-14-1.61537E-14
 -1     27445 2.99229E-14-1.17848E-14 2.80886E-14
 -1     27446 1.24673E-13 5.68941E-14 2.55351E-15
 -1     27447-7.50537E-14 2.87638E-13-3.75255E-14
 -1     27448-4.23533E-15 2.26260E-13-6.66134E-15
 -1     27449 2.27726E-14-4.23772E-14 2.66454E-14
 -1     27450 6.05556E-14-7.64400E-15 7.13180E-14
 -1     27451-4.95445E-13 1.19673E-12 5.06817E-14
 -1     27452 2.64458E-13-8.69381E-13-3.19272E-13
 -1     27453-1.84877E-13 1.39471E-12 1.17406E-14
 -1     27454 2.83187E-13 4.30175E-13 1.03029E-13
 -1     27455 1.69371E-12-7.00069E-13 2.62568E-14
 -1     27456-4.75316E-13-3.29604E-13-2.27596E-13
 -1     27457 4.26587E-13 2.65509E-13 2.08389E-13
 -1     27458-6.66309E-14 2.02621E-13-1.44329E-13
 -1     27459-1.10374E-13 5.06914E-14-1.07470E-13
 -1     27460 3.73055E-14 1.50359E-13-1.77303E-13
 -1     27461 3.24937E-12 1.56847E-12 5.18252E-13
 -1     27462 1.25480E-13-4.48091E-13 4.38538E-14
 -1     27463-3.35609E-13-9.46829E-13-1.97689E-14
 -1     27464 1.18875E-12-1.77670E-12 3.25645E-13
 -1     27465 2.91372E-13 2.60223E-13 5.28744E-14
 -1     27466 2.70639E-13-2.11344E-13-2.77917E-13
 -1     27467 1.87769E-13 3.95164E-13 1.43496E-13
 -1     27468-8.37947E-14-2.37906E-13-1.14693E-13
 -1     27469-3.99014E-13-8.05906E-14 1.30451E-14
 -1     27470-2.57953E-13 7.43550E-13 2.19602E-13
 -1     27471-3.39750E-14-1.87775E-13 4.19109E-15
 -1     27472-2.96651E-13 3.80017E-13 1.13687E-13
 -1     27473 9.89928E-14 3.38285E-14 3.99472E-14
 -1     27474-1.48057E-13 1.11610E-14-4.41075E-14
 -1     27475-1.80692E-13-5.05301E-13 4.43586E-14
 -1     27476-6.96969E-13-1.60515E-13-3.01772E-13
 -1     27477 1.06939E-14 1.08107E-12-8.12683E-14
 -1     27478-5.93909E-13 3.21952E-12 4.44089E-16
 -1     27479-5.85494E-13 3.28180E-13-5.99687E-13
 -1     27480-4.35477E-13 1.44227E-12-1.02696E-14
 -1     27481 3.04184E-13 7.79289E-13 6.72795E-14
 -1     27482 6.30900E-14 8.89421E-13-3.59379E-13
 -1     27483-9.65803E-14-2.11498E-13 6.92751E-13
 -1     27484 2.75026E-13 9.45453E-13-2.05697E-13
 -1     27485-1.09164E-13 3.41397E-13 3.93657E-13
 -1     27486-2.84270E-13 3.75600E-13 7.95752E-14
 -1     27487 3.74131E-13-1.36305E-12 2.04808E-13
 -1     27488 7.60716E-13-1.45228E-13 9.28146E-14
 -1     27489-6.52724E-14-3.36802E-14 6.49480E-14
 -1     27490 6.60915E-14 1.83945E-13 2.18159E-14
 -1     27491 2.57719E-14-2.03218E-13-6.66134E-15
 -1     27492 1.62469E-14-1.89080E-13 5.55112E-15
 -1     27493-4.61694E-14-1.05415E-13-2.55351E-15
 -1     27494-2.01134E-14-2.36823E-14 3.83027E-15
 -1     27495 9.51558E-13-2.21870E-12 5.68920E-13
 -1     27496-5.14641E-13-1.89885E-12 6.70575E-13
 -1     27497 5.64659E-13-2.67856E-12-1.17875E-12
 -1     27498-1.34950E-12-5.43955E-12-1.45488E-12
 -1     27499 3.67655E-12-1.06304E-12 2.66176E-13
 -1     27500-3.27096E-13-7.04936E-13 7.72826E-13
 -1     27501-9.01564E-13 3.84578E-12 6.57113E-14
 -1     27502 6.59141E-13 3.13060E-12 2.10082E-13
 -1     27503 1.07553E-13 3.50390E-14-2.35367E-14
 -1     27504 1.63923E-14-7.00516E-14-6.66134E-16
 -1     27505-2.35584E-14-1.12930E-15 1.83187E-15
 -1     27506-1.35959E-15-1.42594E-15-2.99760E-15
 -1     27507 2.47380E-14-5.31086E-15 5.19029E-15
 -1     27508-1.15136E-13-5.78132E-13 6.17839E-14
 -1     27509 3.88781E-13 1.14149E-12 3.08642E-14
 -1     27510-6.36655E-14-2.46157E-13 1.92069E-14
 -1     27511 1.60649E-14 4.67996E-14-4.55677E-14
 -1     27512 3.97599E-13-5.82142E-13-2.56073E-13
 -1     27513 1.97680E-12-3.24055E-12-2.56406E-13
 -1     27514 5.50762E-13 2.89361E-12-1.04305E-13
 -1     27515 6.58647E-14-5.64972E-14-8.92619E-14
 -1     27516-4.44749E-14 2.61354E-15-3.46945E-14
 -1     27517 4.98363E-15-9.29790E-15 2.77556E-15
 -1     27518-5.93969E-15-8.43769E-15 3.46663E-15
 -1     27519-1.58297E-13-3.05289E-13-8.93730E-14
 -1     27520 1.61475E-13-2.08880E-12-2.70672E-13
 -1     27521-1.25792E-13-9.03226E-13-4.17444E-14
 -1     27522 4.47640E-17 7.44738E-16 2.70617E-16
 -1     27523 2.16417E-13 2.23312E-12-3.67777E-13
 -1     27524-1.78660E-15 4.84728E-15-5.60663E-15
 -1     27525-2.46296E-14-3.01582E-15 2.47025E-15
 -1     27526-1.51534E-12-2.15968E-12 3.61933E-14
 -1     27527-1.95192E-12 9.43694E-12-3.51219E-13
 -1     27528 3.70853E-14 9.16387E-14-2.60902E-15
 -1     27529 8.47266E-15 5.52076E-16 2.77556E-17
 -1     27530-1.36291E-15 1.04564E-15 4.36456E-15
 -1     27531-5.07461E-16 4.68670E-17 1.66533E-16
 -1     27532-1.01553E-14-3.06184E-15-2.02616E-15
 -1     27533 9.34342E-13 3.89245E-13-2.14828E-13
 -1     27534-1.21954E-12-5.46751E-13 2.38444E-13
 -1     27535-1.86070E-13-1.67451E-13 5.24025E-14
 -1     27536 7.97202E-14-2.83697E-13 4.70735E-14
 -1     27537-4.70234E-13-2.94636E-13 2.43555E-14
 -1     27538-4.97998E-14 3.35500E-13 1.71252E-14
 -1     27539 1.70308E-12-3.04389E-12-1.26210E-12
 -1     27540-2.95010E-12 2.99873E-12-4.65579E-13
 -1     27541-6.31285E-13 2.38171E-12 1.79523E-13
 -1     27542-3.01416E-12-2.57157E-12-4.09624E-13
 -1     27543 3.80176E-12-4.18233E-13-4.00513E-13
 -1     27544 6.58385E-13-1.80903E-12-7.72715E-14
 -1     27545-8.23370E-13 1.42831E-12-6.87006E-13
 -1     27546-1.23597E-12 1.46077E-12 2.59792E-14
 -1     27547 2.16594E-12 1.10962E-12 4.52416E-13
 -1     27548-1.35401E-12-3.37954E-12 1.72862E-13
 -1     27549 1.80201E-12-6.26142E-13-1.02640E-13
 -1     27550 2.89128E-12-9.79623E-13 6.58140E-13
 -1     27551-1.17581E-14 2.23287E-13-8.63198E-15
 -1     27552 8.12104E-13-4.49802E-12-4.51538E-13
 -1     27553 5.10229E-13 3.90659E-12-5.28910E-13
 -1     27554-1.28711E-12 8.66908E-14-8.70483E-13
 -1     27555 1.78774E-12-4.99753E-12 3.68594E-14
 -1     27556-1.46623E-12-2.12784E-13-4.19664E-14
 -1     27557 1.97860E-14-1.20928E-13-7.54952E-15
 -1     27558-1.10145E-13-3.87981E-14 8.08242E-14
 -1     27559 1.08919E-13-2.00830E-14-4.44089E-16
 -1     27560-2.20552E-13-5.67771E-14-5.06817E-14
 -1     27561-5.17615E-13-5.33369E-14-7.37188E-14
 -1     27562 9.96131E-13 1.39596E-12 9.47020E-14
 -1     27563-5.63092E-13 8.97092E-13 1.60080E-13
 -1     27564-2.41968E-13-4.88628E-13-5.30305E-14
 -1     27565 4.39162E-14 2.60628E-14-6.00631E-14
 -1     27566 1.16292E-13 1.50506E-13 3.83027E-14
 -1     27567 9.84950E-14 2.20857E-14 5.75859E-14
 -1     27568 7.38173E-13 2.36300E-13 1.72614E-13
 -1     27569-2.17913E-13-8.82674E-13-7.94365E-14
 -1     27570-1.13321E-13 6.63356E-14-4.49210E-13
 -1     27571-1.50401E-13-1.17335E-12-2.65843E-13
 -1     27572 4.03983E-13-6.63322E-13 8.25034E-14
 -1     27573 8.64405E-13-2.70732E-12-9.73777E-13
 -1     27574 1.34080E-13-7.26261E-13 7.77600E-13
 -1     27575 9.49224E-16-4.83717E-16-2.08167E-17
 -1     27576-5.93228E-14-2.96781E-14 1.53211E-14
 -1     27577-1.77918E-13-1.16912E-12 2.08611E-13
 -1     27578-1.58793E-12 1.61431E-12-4.92217E-13
 -1     27579 9.23832E-13 3.56237E-12-1.32561E-13
 -1     27580-2.95474E-12-1.09670E-12 3.21049E-13
 -1     27581 4.22184E-13-7.77253E-14-5.81757E-14
 -1     27582 4.82498E-13-4.89954E-13-2.85882E-15
 -1     27583-4.18374E-13-1.67632E-12-3.09475E-14
 -1     27584 1.66880E-12 4.96264E-12-5.08038E-13
 -1     27585 3.63553E-13-8.28185E-13 1.65201E-13
 -1     27586-1.52220E-12 2.06038E-12 5.36694E-13
 -1     27587 1.09611E-13 3.01231E-13-4.44089E-16
 -1     27588 1.61225E-12 1.59969E-12-6.25053E-14
 -1     27589 6.07597E-13-1.03637E-12-4.04135E-13
 -1     27590-2.51088E-12 1.86610E-12 8.52096E-14
 -1     27591 4.96586E-13 6.85042E-14 6.05887E-14
 -1     27592 1.53763E-13 3.98926E-13-1.53211E-14
 -1     27593-4.63798E-13 3.65861E-13-9.72000E-14
 -1     27594-2.13286E-13 3.69204E-13-9.18710E-14
 -1     27595-2.69454E-12-3.83202E-14 5.42233E-13
 -1     27596-4.16300E-14 1.90426E-14-1.98314E-14
 -1     27597-2.14919E-14 1.24527E-12-1.01724E-14
 -1     27598 3.34709E-13 9.85350E-15 5.78634E-14
 -1     27599-3.28979E-13-2.34799E-13 1.25094E-13
 -1     27600 4.91381E-13-6.99219E-13-3.16414E-13
 -1     27601 2.12313E-14-9.81038E-14 1.17240E-13
 -1     27602 4.40983E-13 7.99146E-13-1.07608E-13
 -1     27603 4.49012E-13 7.99029E-13-2.44915E-13
 -1     27604-1.10954E-12 1.27165E-12 4.75529E-13
 -1     27605-6.77673E-13-9.83276E-12-3.72896E-13
 -1     27606-1.16231E-12-1.60028E-12-2.30843E-13
 -1     27607-2.37083E-13-1.69904E-13 8.53827E-13
 -1     27608-6.94906E-16 1.07693E-14-6.17562E-15
 -1     27609 2.70075E-14-6.92607E-15-6.90810E-15
 -1     27610 2.97220E-15-3.95897E-15-1.33227E-15
 -1     27611-1.21347E-14 2.23224E-15 5.82867E-16
 -1     27612 2.45380E-15-1.49704E-15 3.27516E-15
 -1     27613 3.75058E-15 1.64896E-14 2.24820E-15
 -1     27614 5.39208E-15 5.10455E-15 3.05311E-16
 -1     27615-9.76742E-14 2.21053E-14-1.06581E-14
 -1     27616-2.72294E-13-1.50193E-13-3.18356E-14
 -1     27617 7.60124E-14-1.39138E-13 2.34708E-14
 -1     27618-1.59916E-13 4.40865E-13 6.77236E-15
 -1     27619 1.10786E-13 1.53889E-14-2.72005E-14
 -1     27620-9.89657E-13 8.24557E-13 8.28226E-14
 -1     27621-2.90136E-13-3.77238E-13 1.38500E-13
 -1     27622-6.00281E-14 1.44915E-13 5.30537E-13
 -1     27623 2.65120E-13-8.64979E-13-9.12603E-14
 -1     27624 1.63580E-13-1.60826E-12-1.96176E-13
 -1     27625 7.20349E-14-3.33029E-13-2.37048E-14
 -1     27626-2.37268E-13-8.68616E-13-6.62144E-15
 -1     27627 3.35750E-15-3.20792E-15 2.77556E-15
 -1     27628 5.34120E-15 3.92693E-15 1.69309E-15
 -1     27629 4.52952E-15-6.38806E-15-2.16493E-15
 -1     27630 8.63536E-14 4.40365E-13 1.72085E-13
 -1     27631 5.78041E-13 1.55932E-12-1.67866E-13
 -1     27632-1.60643E-13 7.04326E-13 1.17240E-13
 -1     27633-2.84034E-13-1.64776E-12 3.20854E-14
 -1     27634-6.19968E-15-1.48222E-15 2.22045E-16
 -1     27635 2.98362E-13-2.71219E-13 2.16028E-13
 -1     27636 1.25199E-13-6.72869E-14-9.60343E-15
 -1     27637-3.26157E-13 1.75299E-13-3.15047E-13
 -1     27638 1.83799E-12 1.88923E-12 1.13520E-13
 -1     27639-2.62562E-14-9.31084E-14 2.60521E-14
 -1     27640-4.49664E-14-6.71391E-13-1.65510E-13
 -1     27641-3.53139E-13 1.33012E-12 1.70045E-13
 -1     27642-2.06733E-13-3.91697E-13 2.47025E-14
 -1     27643-6.94539E-15 1.15512E-13-1.40221E-13
 -1     27644-2.18108E-13-5.96143E-14-9.37583E-14
 -1     27645-8.77020E-15-1.03110E-13-2.40918E-14
 -1     27646-9.48693E-13-5.88472E-13-1.81244E-14
 -1     27647-5.67866E-14 1.71731E-13-6.37129E-14
 -1     27648-8.93171E-13-5.80766E-13-1.93290E-13
 -1     27649-1.08757E-13 4.08624E-13-1.14353E-13
 -1     27650 5.55034E-13 3.38243E-12 3.34427E-13
 -1     27651 5.17511E-14 2.31047E-13-1.78052E-14
 -1     27652-1.69054E-13-1.27198E-12 1.14186E-13
 -1     27653-3.62649E-13 4.70905E-13 6.74322E-14
 -1     27654-1.60954E-12 2.86620E-12 4.63130E-13
 -1     27655-1.58336E-13 1.01163E-12 2.01703E-13
 -1     27656-4.93841E-13 1.17182E-12 8.06299E-15
 -1     27657-3.96965E-13-4.84214E-13 2.33535E-13
 -1     27658-4.99168E-14-1.62648E-13-1.42109E-14
 -1     27659-8.29233E-14 3.47427E-13 1.77081E-14
 -1     27660-2.76087E-13 3.23351E-13 1.80689E-13
 -1     27661-1.26294E-13 5.67599E-14 4.75175E-14
 -1     27662 3.11305E-14 7.09560E-14 1.46549E-14
 -1     27663 4.98870E-14-4.40985E-13 4.00444E-14
 -1     27664-7.53026E-13 1.00564E-13 8.64198E-13
 -1     27665-1.13573E-13 5.33023E-13 6.94889E-13
 -1     27666 1.33130E-12-8.29309E-12 6.28539E-13
 -1     27667-5.50566E-13 2.64001E-12 1.60538E-13
 -1     27668-4.37238E-13 3.30073E-13 6.20615E-14
 -1     27669 1.80181E-13 3.97487E-13 2.35229E-14
 -1     27670-2.84304E-13-4.83196E-13-2.31204E-13
 -1     27671-3.15771E-13 3.58396E-13-9.93650E-15
 -1     27672-9.76973E-13-4.20697E-12 1.99424E-13
 -1     27673-4.36305E-15 6.05844E-14-1.11022E-16
 -1     27674-1.04611E-14-5.51653E-15-7.72993E-15
 -1     27675-1.55028E-14 3.15966E-14-1.98452E-15
 -1     27676 3.97586E-13-9.92319E-13 8.45532E-13
 -1     27677 6.52838E-13-1.65654E-12 1.15764E-12
 -1     27678 2.12026E-15 9.90750E-15 8.25728E-16
 -1     27679 1.57402E-14-2.90115E-14 4.82947E-15
 -1     27680 1.69647E-14 8.59131E-14-3.09197E-14
 -1     27681-1.07562E-13 1.33358E-12 3.23491E-14
 -1     27682 1.64227E-13 3.26229E-13 5.27686E-14
 -1     27683-2.88047E-13 3.86672E-14 7.77538E-14
 -1     27684 3.69127E-13-4.08309E-13-4.18832E-14
 -1     27685 6.13135E-13 1.10636E-12-1.90251E-13
 -1     27686 7.21777E-14-1.14876E-12 1.36002E-14
 -1     27687 3.87151E-14-1.42408E-13-2.97540E-14
 -1     27688 3.58849E-15-2.07169E-15-2.22045E-15
 -1     27689-4.74103E-14 1.88817E-13 2.81303E-14
 -1     27690 1.12682E-14-6.46233E-15 1.88738E-15
 -1     27691 1.95613E-13-1.63593E-13-4.65183E-14
 -1     27692 4.48970E-13-6.73489E-14 2.79859E-13
 -1     27693 5.47985E-13 3.48303E-13 1.14686E-13
 -1     27694-1.38463E-12 1.66423E-12 1.14575E-13
 -1     27695 6.61024E-14-1.47275E-13-1.84852E-14
 -1     27696-5.37456E-13-2.57604E-12-4.49812E-13
 -1     27697-2.99859E-12-2.91904E-13-4.93244E-13
 -1     27698-1.58500E-12-8.13431E-13 3.63043E-13
 -1     27699-1.37541E-12 1.84113E-12 1.09301E-13
 -1     27700 5.30243E-13-1.40386E-12 1.33525E-13
 -1     27701-5.30616E-13 1.30518E-12-3.54689E-13
 -1     27702-1.13032E-14 7.18557E-13-1.37002E-13
 -1     27703-3.79628E-14-6.56650E-14-1.43080E-14
 -1     27704 1.07937E-13 1.58845E-14 7.66054E-15
 -1     27705 6.17047E-13-1.08691E-12-4.64739E-13
 -1     27706 1.65851E-12 1.01171E-12 3.61933E-14
 -1     27707 3.79832E-13 4.41198E-13-1.41276E-13
 -1     27708-1.09659E-13 9.40491E-13-6.30607E-14
 -1     27709-1.92309E-13 1.16836E-13-5.17919E-14
 -1     27710-3.64231E-14 3.45970E-13-2.62290E-14
 -1     27711-4.57996E-13-6.54469E-13 7.31776E-14
 -1     27712-1.51149E-12-7.97285E-13-6.62026E-13
 -1     27713-1.66528E-12 2.18266E-12-4.14347E-13
 -1     27714 3.05737E-13 2.09596E-13 1.10134E-13
 -1     27715 3.13664E-12-1.77143E-12 3.67595E-13
 -1     27716 3.72058E-13 2.64020E-12-4.23994E-13
 -1     27717-2.87465E-12 1.39741E-12-1.23679E-13
 -1     27718 3.15448E-12-2.11717E-12 6.77625E-13
 -1     27719-8.33399E-13-2.08432E-13-3.11973E-14
 -1     27720-1.88955E-13-4.31333E-13 1.41109E-13
 -1     27721-4.84945E-14 1.45901E-12-9.23428E-14
 -1     27722 7.41071E-13-5.69484E-12-2.05917E-13
 -1     27723 1.25787E-14-3.64829E-12 9.95801E-13
 -1     27724 2.43297E-12 2.13596E-12-1.40260E-12
 -1     27725-2.79518E-13 5.18571E-13-4.26242E-13
 -1     27726 1.02297E-13 5.50745E-13 9.79217E-14
 -1     27727 2.03109E-14 3.18601E-13-9.86234E-14
 -1     27728-1.69835E-13-2.05852E-12 1.86684E-13
 -1     27729-6.40222E-15-4.10681E-14 1.13520E-14
 -1     27730-7.20243E-14 1.94051E-14 1.75415E-14
 -1     27731 5.09893E-14-5.10849E-14-4.40759E-14
 -1     27732 2.64525E-14-5.52852E-14 1.76872E-14
 -1     27733 9.78384E-15 1.29397E-13-4.55191E-15
 -1     27734-1.20904E-14-3.72153E-13 5.14033E-14
 -1     27735 2.68625E-16 2.43289E-13 9.07469E-14
 -1     27736 7.49229E-14-1.62505E-13 9.38138E-14
 -1     27737 5.79320E-13-4.17171E-13 1.70308E-13
 -1     27738-3.89000E-14 1.21606E-13-1.95677E-15
 -1     27739-6.55243E-14-7.86749E-14 4.07729E-14
 -1     27740-1.24889E-14 1.65903E-13 1.63897E-14
 -1     27741 1.07347E-15 1.43905E-15 4.99600E-16
 -1     27742 1.82681E-13-6.49699E-14-4.72677E-14
 -1     27743 1.60025E-13-4.82072E-13 3.36398E-14
 -1     27744 8.14460E-14-3.12026E-14-1.40721E-14
 -1     27745-3.17015E-15 2.89325E-15-2.65760E-15
 -1     27746-3.79366E-15-1.62333E-14 2.56739E-16
 -1     27747 1.97122E-12-4.77051E-12 1.29025E-12
 -1     27748 1.78927E-13 4.27127E-12-1.19033E-12
 -1     27749-1.14831E-13-1.04935E-12-8.58758E-13
 -1     27750 5.57028E-13 1.17838E-12 1.89404E-13
 -1     27751 1.84821E-12 1.56927E-12-8.07354E-13
 -1     27752 2.77697E-14 1.62574E-13-2.27596E-14
 -1     27753 3.04098E-15 2.07910E-14-6.10623E-15
 -1     27754-2.79797E-13-2.04506E-12 1.07803E-13
 -1     27755-2.78098E-14-8.04142E-14-1.74860E-14
 -1     27756 7.06398E-16 1.09677E-13 1.38098E-13
 -1     27757-1.45921E-12-1.53307E-12 1.15602E-12
 -1     27758 1.88530E-12 7.53774E-13-6.44262E-13
 -1     27759-7.36727E-13 5.14095E-13 1.07025E-13
 -1     27760 8.36589E-13-2.57111E-12 2.18381E-13
 -1     27761 1.40695E-12-2.80258E-12-2.40141E-13
 -1     27762-4.46646E-13 4.93180E-12 1.21173E-12
 -1     27763-4.14860E-13-1.57782E-12-9.93927E-14
 -1     27764 1.29031E-12-1.28208E-12-3.59379E-13
 -1     27765-1.89415E-12-2.59081E-12 2.64511E-13
 -1     27766-5.40117E-14-1.66371E-12-8.65877E-13
 -1     27767-3.35762E-13 1.29623E-13-4.04121E-14
 -1     27768-6.21538E-13-2.06130E-12-7.80764E-13
 -1     27769 4.69075E-15-8.68533E-15 3.34177E-14
 -1     27770 2.09063E-14-9.12118E-15-6.88338E-15
 -1     27771 6.38004E-15 2.25808E-14-2.94209E-15
 -1     27772 3.30176E-15 1.00722E-14 6.21725E-15
 -1     27773 8.56628E-16 6.13658E-16 3.33067E-16
 -1     27774-4.14409E-16 4.51810E-15-3.71925E-15
 -1     27775-2.31043E-15 4.68072E-15-7.99361E-15
 -1     27776-2.56629E-13 5.78544E-13-1.17503E-13
 -1     27777-8.17151E-14-3.06058E-13 1.44953E-13
 -1     27778-2.39049E-14-5.87466E-14 4.52416E-14
 -1     27779 5.03913E-14-2.04151E-13 2.55351E-15
 -1     27780 8.91115E-14 1.69640E-15-1.42941E-14
 -1     27781-7.03073E-13 1.68699E-12-6.03163E-13
 -1     27782-1.91944E-13 8.68717E-13 3.47500E-13
 -1     27783-3.00718E-13-1.38404E-12-1.27268E-12
 -1     27784 5.74066E-13 3.65179E-13-4.47309E-13
 -1     27785 2.15241E-13 7.71834E-14 1.57874E-13
 -1     27786-1.02089E-13 1.00786E-13-3.21965E-15
 -1     27787 5.51382E-15-1.85268E-14 2.34535E-14
 -1     27788-2.28312E-13 1.11758E-13-2.61346E-13
 -1     27789-2.45125E-14-1.51133E-13 7.22478E-14
 -1     27790 4.83733E-14 1.39973E-13 2.13163E-13
 -1     27791 1.67832E-14 1.43053E-14-1.65146E-15
 -1     27792-2.11891E-14 1.05464E-14 4.66294E-15
 -1     27793-4.41785E-15-2.03564E-14 2.44249E-15
 -1     27794 6.60191E-15 4.77292E-16-6.03684E-16
 -1     27795 1.85376E-15 1.08060E-15-8.67362E-17
 -1     27796-2.90267E-12-4.16954E-12-4.24064E-13
 -1     27797 2.29894E-13 6.57310E-13-4.03011E-14
 -1     27798 4.68659E-14 1.78531E-12 1.28786E-14
 -1     27799 4.48171E-14 4.91156E-13-1.37113E-14
 -1     27800 4.43672E-13-9.64684E-13 1.04361E-14
 -1     27801-4.54064E-13 7.15374E-12 8.05356E-13
 -1     27802-1.07483E-13-2.50043E-13 3.39728E-14
 -1     27803 1.08150E-14-3.71794E-15-2.77556E-17
 -1     27804-7.95338E-15-6.14938E-15 7.32747E-15
 -1     27805-9.12588E-14-8.46579E-15-2.76723E-14
 -1     27806 2.81021E-14 2.55417E-13-7.04645E-14
 -1     27807-8.10680E-15 1.63162E-14-5.55112E-15
 -1     27808 4.80507E-15-5.69816E-15 5.83561E-15
 -1     27809 7.20301E-13 1.08881E-12 1.36223E-13
 -1     27810-3.12670E-14 5.91380E-14 3.49720E-15
 -1     27811-1.35651E-13-6.03876E-14 2.13163E-14
 -1     27812-8.03595E-14 2.74013E-14-1.84075E-13
 -1     27813 5.34565E-14-5.10733E-14-2.77556E-14
 -1     27814-2.65567E-12 3.88074E-13 5.07240E-13
 -1     27815-3.42319E-13 1.40280E-12-4.33268E-13
 -1     27816 8.38928E-14-3.54619E-13-1.47521E-14
 -1     27817-1.14481E-13 2.13396E-14-3.33067E-14
 -1     27818 1.08483E-13-8.89583E-14 1.15186E-14
 -1     27819 5.48814E-14 3.27863E-13 6.80012E-14
 -1     27820 1.22946E-12-1.26813E-12 6.12121E-13
 -1     27821-4.02634E-14 4.60724E-13-3.55271E-15
 -1     27822 1.99625E-13 8.87769E-14-1.10467E-13
 -1     27823-7.86242E-13-6.01154E-13-3.45279E-14
 -1     27824-1.16421E-12-4.49865E-13 2.98650E-13
 -1     27825-7.67832E-13-5.87748E-13 3.68261E-13
 -1     27826 5.23053E-13-1.07989E-12-7.00551E-14
 -1     27827-1.47478E-12-2.00222E-12-1.07747E-13
 -1     27828-1.21947E-12 3.32051E-12-7.78405E-13
 -1     27829 1.85993E-14 4.84637E-14-8.04912E-15
 -1     27830-2.23264E-14 9.46518E-14 1.07553E-14
 -1     27831 2.30912E-13 2.05863E-13 1.18794E-14
 -1     27832 3.55089E-13-4.94616E-13-4.11282E-13
 -1     27833 4.86769E-15 4.34462E-14 3.14505E-15
 -1     27834-1.34815E-13 1.20264E-12 2.80109E-13
 -1     27835 7.77943E-13-3.85661E-12-1.50482E-12
 -1     27836 1.50839E-12-3.31159E-12-3.97654E-13
 -1     27837 7.09620E-14-8.16183E-14-4.44089E-16
 -1     27838 1.20931E-14-7.83446E-15-8.79852E-15
 -1     27839-1.17208E-12 1.62866E-13 8.56565E-13
 -1     27840-8.88786E-15 1.01373E-15-8.54872E-15
 -1     27841 1.58150E-12 2.15498E-12-7.48401E-13
 -1     27842-4.86227E-15-1.59714E-15 1.22125E-15
 -1     27843-5.90934E-15 1.30061E-15 3.55271E-15
 -1     27844-3.91205E-15-4.78977E-15 2.49800E-16
 -1     27845-1.43766E-12-3.25679E-12 4.55858E-13
 -1     27846-7.52117E-13-2.27343E-12 1.32344E-12
 -1     27847-1.51867E-14 2.70699E-14-1.76248E-15
 -1     27848 5.66370E-15-2.61868E-15 7.77156E-16
 -1     27849 8.54876E-15-3.25911E-16 2.08167E-15
 -1     27850 1.23539E-15-1.01064E-14-5.44009E-15
 -1     27851-4.96825E-15-1.14145E-14-6.21725E-15
 -1     27852-1.40773E-15-1.54388E-15-1.05471E-15
 -1     27853 1.74687E-15-5.63612E-15 4.21885E-15
 -1     27854-1.16251E-14 6.93902E-14-2.15821E-15
 -1     27855 8.96628E-15-3.79763E-14-5.43315E-15
 -1     27856 7.20886E-15 4.87173E-16-5.55112E-17
 -1     27857-1.85710E-14 9.05265E-15 5.82867E-16
 -1     27858-4.56644E-15 6.95147E-15 4.77396E-15
 -1     27859 7.33191E-14 4.27570E-14-1.64035E-14
 -1     27860-1.97827E-13 4.16433E-13-9.16628E-15
 -1     27861-3.66460E-17 2.49410E-15 3.33067E-16
 -1     27862-1.00639E-14-1.10126E-14 1.11022E-16
 -1     27863-2.63876E-13-1.04615E-12 1.11969E-13
 -1     27864 1.59300E-14 2.68980E-14-1.24067E-14
 -1     27865 2.76896E-15-1.22088E-14 1.22125E-15
 -1     27866 6.70183E-15-1.41781E-15 1.05471E-15
 -1     27867 1.54892E-16 9.96859E-15-1.99840E-15
 -1     27868 9.36757E-14 4.84594E-12-5.99520E-14
 -1     27869-3.13571E-13-4.95272E-13 3.86913E-14
 -1     27870 5.59031E-13-8.24373E-13-3.89910E-13
 -1     27871-2.70779E-13-3.09134E-13-1.37890E-13
 -1     27872 9.04465E-13-3.58193E-12-6.81163E-13
 -1     27873-9.90350E-13-5.21543E-13 7.84373E-14
 -1     27874-2.03787E-13 2.75186E-13 3.38618E-14
 -1     27875 1.26893E-12 1.16332E-12-5.34572E-14
 -1     27876-1.32295E-12 2.44647E-13-3.43059E-14
 -1     27877-6.22440E-16-3.24068E-16-7.91034E-16
 -1     27878 4.57718E-15-1.34007E-15 1.80411E-15
 -1     27879-1.38401E-15-8.12935E-16 4.44089E-16
 -1     27880-5.82985E-13-5.67699E-13-1.46730E-13
 -1     27881-2.11227E-14 4.27122E-14 8.01442E-16
 -1     27882-4.49884E-15-3.30322E-14 1.55431E-15
 -1     27883-9.27791E-13 1.35574E-12-2.97984E-13
 -1     27884 3.04355E-14-1.16532E-13-3.54272E-13
 -1     27885 3.16527E-12-2.47376E-12-4.81837E-14
 -1     27886-1.29530E-12 2.11212E-12 8.58202E-14
 -1     27887-1.50612E-12 1.21173E-12-4.92939E-14
 -1     27888 7.84722E-14 2.16895E-14 5.10703E-15
 -1     27889-5.67515E-13-9.44806E-13-4.76095E-14
 -1     27890-2.85630E-12 3.29820E-12 6.27220E-13
 -1     27891-1.36814E-13 2.73331E-13-4.28463E-13
 -1     27892-1.40975E-12-4.66351E-13 4.37650E-13
 -1     27893 5.94628E-13-2.31393E-12 4.63185E-13
 -1     27894 2.85664E-14-1.70126E-14 8.99281E-15
 -1     27895 5.38494E-14 9.44284E-14-1.47132E-13
 -1     27896-1.98453E-13-8.36263E-13-5.90639E-14
 -1     27897-5.62415E-14-3.73975E-13-2.38032E-13
 -1     27898 8.10490E-13 1.69192E-12 1.24434E-12
 -1     27899-1.64465E-15-3.45123E-15-8.88178E-16
 -1     27900 4.97832E-16 5.05975E-15-2.88658E-15
 -1     27901 3.55683E-13-2.02222E-12-9.01612E-13
 -1     27902-6.03027E-13-2.92715E-12-1.60733E-13
 -1     27903-9.65670E-13 2.17065E-12-3.23984E-13
 -1     27904-5.88389E-13 7.65803E-13 1.76803E-13
 -1     27905 1.30780E-14-1.76457E-15-5.16254E-15
 -1     27906 4.56964E-16 1.58172E-16 6.06459E-15
 -1     27907-1.34606E-14-3.70443E-15 2.09902E-16
 -1     27908-3.33398E-15-8.63577E-15-3.63598E-15
 -1     27909-1.66742E-15 7.65013E-16-1.88738E-15
 -1     27910 2.98280E-13 1.43903E-12-2.05169E-13
 -1     27911-9.73025E-14 8.82324E-14 1.03612E-13
 -1     27912 2.09122E-13 4.62492E-14 5.99520E-15
 -1     27913 7.14881E-14 7.39522E-15-1.79856E-13
 -1     27914 2.35145E-12 3.86949E-13 1.03889E-13
 -1     27915 4.71969E-12 1.69632E-12-2.21601E-13
 -1     27916-2.92266E-14-2.33072E-12 2.17604E-14
 -1     27917 5.36112E-12-1.84787E-12 7.49401E-13
 -1     27918 4.03230E-14 2.39961E-14-1.60427E-14
 -1     27919 5.47434E-13-2.62021E-12 2.16843E-13
 -1     27920 1.10102E-12 4.75912E-12 1.44129E-12
 -1     27921 9.47088E-13 4.64839E-12-1.46753E-12
 -1     27922 4.56645E-13 3.13597E-12-8.59868E-14
 -1     27923 1.70939E-13 1.80782E-13-3.26406E-14
 -1     27924-2.51701E-13 5.60955E-15-1.31006E-13
 -1     27925-2.48523E-14 6.40253E-13-9.72833E-15
 -1     27926-1.70862E-14 3.13685E-13 6.41709E-14
 -1     27927-1.52679E-13 1.13978E-12 2.02505E-13
 -1     27928-1.06559E-15-1.99028E-15 3.33067E-16
 -1     27929-1.66278E-15-4.97252E-16-1.51094E-15
 -1     27930 7.27102E-14-2.37758E-13 1.58727E-14
 -1     27931 1.10593E-13-6.91964E-13-1.55320E-13
 -1     27932 1.29382E-13-9.13033E-13-6.19539E-14
 -1     27933-2.55178E-13-1.89840E-13-1.98730E-14
 -1     27934-5.55014E-14-8.35936E-14-4.43950E-14
 -1     27935-6.85345E-15-1.98643E-14 2.26694E-14
 -1     27936 2.55201E-15 1.31004E-15 1.07553E-16
 -1     27937-3.66087E-15 1.46181E-14-7.20257E-15
 -1     27938 3.61070E-15 9.38418E-16 1.69309E-15
 -1     27939 5.00728E-15 3.00563E-13-2.35784E-14
 -1     27940 1.90227E-12-8.58148E-13 1.52256E-12
 -1     27941-9.65629E-13 1.54532E-12-5.34017E-14
 -1     27942-1.22972E-14 5.03077E-13 1.80078E-13
 -1     27943 1.85832E-12 1.83329E-12-1.28786E-13
 -1     27944 2.81471E-13 7.15757E-13 1.53322E-13
 -1     27945 3.53318E-15-1.16101E-13-1.94289E-14
 -1     27946-3.12519E-13-1.29785E-13-6.21725E-15
 -1     27947-4.13420E-13-1.79394E-13-5.55112E-14
 -1     27948-6.89891E-16 8.98248E-16-3.46945E-17
 -1     27949-6.39234E-14 1.25305E-13-1.28397E-13
 -1     27950 7.90435E-15-2.18720E-13-8.18234E-14
 -1     27951-1.99325E-13-1.84890E-13-9.63674E-14
 -1     27952-2.87150E-13 7.45245E-13 1.88738E-15
 -1     27953-4.16205E-12 7.25683E-13-1.21708E-13
 -1     27954-7.78954E-14 9.46832E-13 3.10058E-13
 -1     27955-4.34500E-13 1.27951E-12 1.10134E-13
 -1     27956-7.65866E-13-1.79853E-13 4.06786E-13
 -1     27957-8.77259E-13 1.14763E-12-5.25802E-13
 -1     27958-3.54504E-13-1.47414E-13-4.98046E-13
 -1     27959-4.83694E-13-3.62884E-13-4.79478E-15
 -1     27960 8.50863E-14-1.38054E-14 1.66533E-14
 -1     27961 1.87808E-14-3.02650E-13-8.98170E-14
 -1     27962-4.30459E-13 1.44351E-12-1.24234E-13
 -1     27963-6.79577E-13 4.49828E-13 4.55233E-13
 -1     27964-7.67658E-13 2.50739E-13 6.09235E-15
 -1     27965-1.17324E-14 3.47709E-15 1.21292E-14
 -1     27966 4.41071E-15 1.84839E-14 1.50227E-15
 -1     27967-5.22134E-15-2.64831E-14-7.41074E-15
 -1     27968-6.33174E-17 1.00040E-14 2.58127E-15
 -1     27969-6.10189E-15 2.36535E-15-1.11022E-16
 -1     27970 6.51717E-13 1.44246E-13 2.74003E-13
 -1     27971 4.46182E-15 2.70479E-15 8.72913E-15
 -1     27972 2.12328E-15-1.49681E-13-2.44908E-14
 -1     27973 1.89483E-13 6.50140E-14-2.11445E-14
 -1     27974 2.18717E-13-2.47788E-13-1.45439E-14
 -1     27975 3.46453E-12 1.39528E-12-7.75324E-13
 -1     27976-5.39081E-12-2.97843E-12 2.42695E-13
 -1     27977-3.81240E-13-4.99416E-13 4.68625E-13
 -1     27978 5.27493E-12-8.85130E-13-2.31593E-13
 -1     27979 1.60614E-13 5.93087E-14-2.84772E-14
 -1     27980-1.69842E-12 2.28927E-12 3.52163E-13
 -1     27981 4.24983E-13 1.43077E-12-7.40741E-13
 -1     27982 2.41978E-13 5.06576E-13-1.80572E-13
 -1     27983 2.50091E-14 2.01395E-13 2.99274E-14
 -1     27984-1.04429E-14-2.98546E-14-7.52176E-15
 -1     27985-1.24927E-13 7.55318E-13-2.59459E-13
 -1     27986 1.00092E-13 1.01326E-12 9.93094E-14
 -1     27987 5.99005E-15 2.28585E-14 4.16334E-15
 -1     27988 2.84337E-15 8.33757E-15 1.55431E-15
 -1     27989-2.38324E-15-1.42792E-14-6.71685E-15
 -1     27990-5.87781E-13 1.03188E-12 2.77556E-16
 -1     27991-5.92828E-15-6.75223E-14 6.88338E-15
 -1     27992 4.33707E-14-5.00148E-15 1.49880E-15
 -1     27993 2.80741E-15 3.51094E-15-4.16334E-15
 -1     27994 2.37646E-12-2.04219E-12 2.40608E-12
 -1     27995 3.05437E-15-3.50547E-15 1.65146E-15
 -1     27996-2.91602E-15 2.40758E-15-1.33227E-15
 -1     27997 1.20985E-13-2.71758E-13-4.01013E-13
 -1     27998 5.52992E-15-5.60407E-14 4.48946E-15
 -1     27999-6.42912E-15-1.63370E-14-2.83107E-15
 -1     28000 1.30930E-13-2.56203E-13-5.20070E-15
 -1     28001-1.17622E-12-5.69874E-13 3.34843E-13
 -1     28002 1.78959E-14-9.62013E-16-3.33067E-16
 -1     28003-1.24683E-12 2.48766E-12 7.00107E-13
 -1     28004 6.86434E-14 1.32428E-12 5.07872E-13
 -1     28005-8.18638E-14-1.36646E-13 8.64309E-14
 -1     28006-2.39960E-14-2.25347E-14 3.23075E-14
 -1     28007-1.59651E-14 1.05427E-14-3.77476E-15
 -1     28008-2.80546E-14 9.72756E-14 4.82253E-15
 -1     28009 1.95605E-12-2.81189E-12 1.58040E-13
 -1     28010 2.72359E-13-1.48363E-12-1.66174E-13
 -1     28011 2.16027E-15 8.34611E-15 2.41474E-15
 -1     28012 3.86089E-13 1.12320E-13-4.15223E-14
 -1     28013-2.10091E-13 3.14940E-13-6.77236E-15
 -1     28014 3.16291E-14 1.43185E-12-1.06831E-13
 -1     28015 1.84186E-13 6.81295E-13 2.81664E-13
 -1     28016-1.89802E-12-1.63045E-12-4.56149E-13
 -1     28017 2.55849E-12-1.33801E-12 5.46251E-13
 -1     28018 5.99054E-13 2.26500E-13-3.39173E-13
 -1     28019-2.05054E-12-1.60926E-12 3.70592E-13
 -1     28020-2.69701E-15-4.29519E-15-3.88578E-16
 -1     28021 3.16498E-12-2.89727E-12 6.73683E-13
 -1     28022 1.60816E-12 5.31727E-14 5.95024E-13
 -1     28023 4.19308E-13 9.74113E-13 2.95541E-13
 -1     28024 3.52092E-13-6.76017E-13-1.82077E-13
 -1     28025 5.86545E-13-1.30806E-12 1.33712E-13
 -1     28026 1.93505E-13-1.66732E-13-1.38667E-13
 -1     28027-2.03549E-14-1.20097E-14-3.72619E-15
 -1     28028 1.68398E-14-1.44395E-14-1.66533E-14
 -1     28029 1.64174E-12-3.66299E-13-8.81517E-14
 -1     28030 4.98196E-12 3.65117E-12 4.16084E-13
 -1     28031 2.93891E-12 5.40901E-12-1.90447E-12
 -1     28032 1.77750E-14 1.13787E-16-5.55112E-16
 -1     28033 1.84376E-12-7.84376E-12 2.44249E-14
 -1     28034-2.29965E-13-1.00732E-12 3.14637E-13
 -1     28035-1.43833E-12-2.93052E-12 6.48814E-13
 -1     28036-9.06445E-13 4.02833E-12 3.05561E-13
 -1     28037-2.15435E-13 1.30158E-12-2.80553E-13
 -1     28038 8.27073E-13 1.38816E-12-1.50269E-13
 -1     28039-4.06512E-13-3.33696E-15 1.38070E-13
 -1     28040-1.67934E-13-1.90051E-12-2.34007E-13
 -1     28041-1.54535E-14-6.70341E-15 9.21485E-15
 -1     28042 4.33161E-13-3.29120E-12 1.46966E-13
 -1     28043-1.18601E-12 4.53157E-14 4.14890E-13
 -1     28044-2.29801E-14 1.27248E-14-2.74780E-15
 -1     28045-2.56090E-15 1.29253E-15-4.57967E-16
 -1     28046 1.56060E-13-2.30499E-12 2.01850E-12
 -1     28047-1.71774E-12 1.21244E-12 4.94049E-13
 -1     28048 3.27135E-12 3.00883E-12-6.55986E-14
 -1     28049-4.81226E-13-1.64242E-12-3.67262E-13
 -1     28050 1.36154E-12-1.18407E-12 2.62457E-13
 -1     28051-1.47093E-12-6.39095E-13-9.90319E-14
 -1     28052 6.81115E-13 9.85465E-12-5.13645E-13
 -1     28053-3.89970E-12-2.50649E-14-2.11947E-12
 -1     28054-5.03500E-13 1.79011E-13-5.79120E-14
 -1     28055 1.07411E-13 1.94357E-13-1.92318E-13
 -1     28056-4.61577E-13 1.99653E-12 2.20379E-13
 -1     28057 4.26308E-15 9.94932E-15-2.46331E-15
 -1     28058-1.45345E-14-1.74438E-13 9.47020E-14
 -1     28059 6.43230E-16-8.69530E-17-3.33067E-16
 -1     28060-4.76149E-15-6.46006E-15-3.74700E-16
 -1     28061-2.45349E-12-2.08300E-12 9.33267E-13
 -1     28062-3.75020E-12 9.63134E-13-6.54060E-13
 -1     28063 4.49209E-13 3.64712E-12-1.98619E-13
 -1     28064-3.00850E-13 1.79582E-12 9.22928E-13
 -1     28065-8.91245E-13 8.39499E-12 3.15963E-14
 -1     28066-1.06416E-12 1.57421E-12 1.82768E-12
 -1     28067 2.32093E-14-5.44753E-14 2.75335E-14
 -1     28068-2.29682E-13-2.78969E-13 7.03881E-14
 -1     28069-1.50456E-15-5.82217E-16 4.51028E-16
 -1     28070 2.23659E-15-1.23782E-15-9.15934E-16
 -1     28071-6.80265E-16-2.63085E-16 4.13081E-17
 -1     28072-1.14125E-12 8.77898E-13 8.26561E-14
 -1     28073-3.93691E-16-1.70453E-15-5.20417E-18
 -1     28074 5.97075E-12 1.70642E-12 8.50264E-13
 -1     28075 3.63763E-16 1.46167E-14-7.73860E-15
 -1     28076-6.93559E-15-9.95135E-16 6.38378E-15
 -1     28077-1.36048E-14-1.18192E-14 5.80092E-15
 -1     28078-3.82892E-15 8.54009E-15-5.27356E-16
 -1     28079-2.06206E-15-8.11820E-16-4.44089E-16
 -1     28080-1.23491E-16-5.40692E-16-2.10942E-15
 -1     28081-3.94289E-15-3.46831E-15 3.24740E-15
 -1     28082-2.47717E-14-7.10150E-15-3.27655E-14
 -1     28083 8.25668E-14 3.79927E-13-7.91811E-13
 -1     28084-3.79608E-14 1.36306E-12-3.45945E-13
 -1     28085-2.59952E-15-5.94065E-15 7.01777E-16
 -1     28086-4.43900E-13-2.44905E-12 1.11605E-13
 -1     28087-1.95657E-14 2.38793E-14 7.21645E-16
 -1     28088-8.41885E-15-2.58431E-14-2.16493E-15
 -1     28089-1.26089E-12-3.42175E-12 1.04647E-12
 -1     28090 1.11940E-12 1.76884E-13-5.08343E-13
 -1     28091 1.30082E-12-1.53088E-12-4.47364E-13
 -1     28092 6.75477E-15 5.98482E-14 2.60347E-14
 -1     28093-1.43637E-14-6.32107E-14 1.44711E-14
 -1     28094-1.78774E-15 3.85836E-14-8.60423E-15
 -1     28095 9.50355E-15-3.35179E-15 1.94289E-16
 -1     28096 8.14377E-15-1.70491E-14 1.22402E-14
 -1     28097 1.57945E-15 2.94250E-14 3.83027E-15
 -1     28098 5.58925E-15 1.69962E-14 4.77396E-15
 -1     28099-2.41847E-14 2.67659E-14 8.65974E-15
 -1     28100 3.40424E-14-2.51937E-13-4.21191E-15
 -1     28101-1.33088E-13 2.03448E-13-8.85403E-15
 -1     28102 7.12273E-13 1.78255E-12-7.69246E-14
 -1     28103-1.32596E-12-1.88356E-13-2.87964E-14
 -1     28104 7.46326E-13 4.38644E-12 9.62480E-13
 -1     28105-6.45553E-13 1.54435E-12 4.08049E-13
 -1     28106 1.82195E-15 2.28559E-15-1.41553E-15
 -1     28107-3.36999E-16-2.31550E-15 1.34615E-15
 -1     28108-1.52397E-14 1.02454E-14-3.15893E-15
 -1     28109-1.01249E-15-1.52183E-14 1.52656E-16
 -1     28110 3.07413E-15 8.80746E-16-1.94289E-15
 -1     28111-1.19404E-12 1.63482E-12-2.62013E-14
 -1     28112 5.93391E-13-5.87299E-14-1.95732E-13
 -1     28113 1.54663E-13-4.91767E-12-6.66356E-13
 -1     28114 6.15034E-14-4.65218E-14 5.95635E-14
 -1     28115-2.34111E-14 1.67797E-13-7.52176E-15
 -1     28116-3.14100E-12-2.71417E-13-3.68694E-14
 -1     28117-1.79913E-14 5.69613E-17-1.77636E-15
 -1     28118-7.44802E-15-1.26817E-14 4.10783E-15
 -1     28119 2.08514E-12 1.19325E-12-2.27596E-13
 -1     28120 1.03975E-12 7.15221E-13 8.28004E-13
 -1     28121 7.08284E-14 2.95066E-13 2.24820E-14
 -1     28122 9.58001E-15 9.83554E-14-3.77476E-15
 -1     28123-1.04951E-16-6.36427E-16 4.02456E-16
 -1     28124 8.19037E-13 4.84591E-13-2.07556E-13
 -1     28125-1.31648E-13-1.28642E-13 1.51046E-13
 -1     28126-7.31755E-16-5.34729E-15-6.73073E-16
 -1     28127 1.90638E-14 4.77437E-14 1.88044E-15
 -1     28128 2.06882E-13 2.93191E-13 1.06581E-14
 -1     28129 1.24102E-14 5.50450E-14 8.88178E-15
 -1     28130 4.92847E-14 5.86017E-14-7.45064E-16
 -1     28131 2.50915E-14-2.20929E-14 1.25455E-14
 -1     28132 6.87855E-13 2.01757E-13-3.86358E-14
 -1     28133-8.91652E-13 4.83347E-13-1.67089E-14
 -1     28134 1.20649E-13 4.90635E-16 3.24449E-13
 -1     28135-7.66687E-14 4.83248E-13-4.70735E-14
 -1     28136-3.60473E-13-1.15434E-12-2.26527E-13
 -1     28137-3.50505E-13-2.50982E-12-5.08260E-13
 -1     28138 1.14387E-12-1.01356E-12 3.61417E-13
 -1     28139-1.29789E-12-1.17829E-12 5.31908E-13
 -1     28140-6.02484E-13 2.79264E-12-1.59339E-12
 -1     28141 3.97042E-14 3.29505E-15 1.57652E-14
 -1     28142 3.38691E-14-2.18796E-14 9.43690E-16
 -1     28143-2.60934E-14 1.61143E-14-3.44169E-15
 -1     28144-4.97332E-14 1.43632E-14 9.46465E-15
 -1     28145-5.58364E-18-7.20067E-15-3.88578E-15
 -1     28146-2.31068E-13-1.47010E-13-2.59931E-14
 -1     28147 6.24080E-15 5.38672E-15 1.13798E-15
 -1     28148 5.48465E-15 4.06333E-15-8.95117E-16
 -1     28149-4.18644E-13-6.13283E-13-9.27591E-14
 -1     28150-7.06683E-16-1.98682E-12 1.77414E-13
 -1     28151 2.53252E-13 1.89243E-12-1.25067E-12
 -1     28152-4.84252E-13 9.49348E-13-9.72555E-14
 -1     28153 3.02055E-13 4.70215E-13-7.21645E-16
 -1     28154-9.26970E-14 3.76803E-13 4.28546E-14
 -1     28155 2.85660E-13-1.07463E-12-1.49991E-13
 -1     28156-9.67865E-13 2.07848E-13 2.20712E-13
 -1     28157-3.81856E-15-3.19083E-15 5.55112E-15
 -1     28158 5.73555E-13-3.59007E-13-3.88578E-15
 -1     28159-1.49969E-12-1.64700E-12 4.21801E-13
 -1     28160 7.00703E-13-7.41328E-12-1.45317E-12
 -1     28161 1.00086E-13 2.47328E-14 2.63123E-14
 -1     28162-2.30471E-14-7.43849E-14 1.58762E-14
 -1     28163 2.33101E-13-7.62405E-13-6.51701E-14
 -1     28164-3.90279E-13 3.34660E-13-6.57252E-14
 -1     28165 1.85950E-14 3.62323E-14-5.53446E-14
 -1     28166 3.34719E-13 3.35190E-13 1.21708E-14
 -1     28167 3.47560E-12-2.11953E-12-1.27981E-13
 -1     28168-3.26582E-12 2.16608E-12-1.62148E-13
 -1     28169 3.00280E-12-4.29108E-12-9.91339E-13
 -1     28170-2.90104E-14 1.45954E-14-6.99441E-15
 -1     28171-2.00301E-15-5.01652E-14 5.55112E-17
 -1     28172 5.08307E-15-8.75331E-16 3.60822E-16
 -1     28173 1.76885E-12 3.06397E-12-5.27335E-13
 -1     28174-2.35563E-12 3.48374E-12 3.36287E-13
 -1     28175-8.09939E-13-5.89007E-12-4.77412E-13
 -1     28176-6.04124E-13 4.18235E-12 5.42760E-13
 -1     28177 6.94023E-13 1.86205E-12 7.14234E-13
 -1     28178 2.70465E-13-9.26793E-14 1.46549E-13
 -1     28179-6.04023E-12 1.58655E-12 7.33066E-13
 -1     28180 1.11571E-13 8.49412E-13-7.12763E-14
 -1     28181 3.31127E-13 4.68989E-13 3.30201E-13
 -1     28182 9.56274E-13 6.29139E-14 2.02977E-13
 -1     28183-5.41176E-14 4.32208E-13 3.31402E-13
 -1     28184 3.04315E-13 8.20141E-13 1.82743E-13
 -1     28185 1.51212E-14 2.36390E-13-6.85563E-15
 -1     28186-3.60404E-13-2.09343E-12 1.08469E-13
 -1     28187 7.16328E-13-1.36093E-12 7.11653E-14
 -1     28188-3.82038E-14-1.85267E-12 2.65454E-13
 -1     28189 8.96015E-14-1.27245E-13-8.01859E-14
 -1     28190-1.09963E-15 9.90324E-15-1.78330E-15
 -1     28191-2.79368E-13-2.92519E-12 3.40283E-13
 -1     28192 6.31596E-15 6.48565E-15 5.04284E-15
 -1     28193-1.11590E-14-3.61906E-14-3.76088E-15
 -1     28194 3.51511E-13-1.02501E-12-1.21625E-13
 -1     28195 2.30358E-14 8.65697E-14-4.27436E-15
 -1     28196 5.94143E-16 5.37709E-14-6.99441E-15
 -1     28197 3.28238E-14-1.19088E-13 2.98372E-14
 -1     28198-2.43485E-15-6.34518E-15-6.21725E-15
 -1     28199 2.34957E-14 3.18831E-14-1.25455E-14
 -1     28200 2.13274E-12 9.71078E-12-2.78957E-13
 -1     28201 1.54668E-12-2.95626E-12 2.06377E-13
 -1     28202-2.39240E-12-3.73100E-12 9.60374E-13
 -1     28203 6.78178E-14-5.42517E-14 2.06501E-14
 -1     28204-5.37307E-15-8.94479E-15-4.10089E-15
 -1     28205 6.07717E-13 1.92792E-12 2.63692E-13
 -1     28206 4.22187E-13-1.39564E-13-8.00748E-14
 -1     28207 1.34662E-14-1.11437E-14 9.24261E-15
 -1     28208 3.94246E-14-1.57272E-14 1.32117E-14
 -1     28209 1.08490E-13-1.28734E-13 3.59712E-14
 -1     28210-1.57105E-13 1.89978E-12 1.20570E-13
 -1     28211 9.53401E-14-3.19733E-14-1.31450E-13
 -1     28212 1.60540E-14 3.42432E-16-3.38618E-15
 -1     28213-7.14593E-14-6.33772E-14-3.13638E-15
 -1     28214-7.90765E-14 1.01185E-12-1.16129E-13
 -1     28215-2.33386E-13-4.69932E-13-4.54149E-13
 -1     28216-2.80555E-12-1.53882E-12-2.55143E-14
 -1     28217-3.97029E-14-4.66298E-14 5.63993E-14
 -1     28218-1.15703E-14-2.22507E-14-1.56958E-14
 -1     28219 7.78871E-14-3.42706E-14 6.90004E-14
 -1     28220 4.90097E-15 3.15728E-15 2.77556E-15
 -1     28221-2.87346E-13-3.27321E-12-6.31717E-13
 -1     28222-6.59303E-16-5.26377E-15 1.66533E-16
 -1     28223-1.91079E-13 1.58149E-12 2.64677E-13
 -1     28224 1.27363E-12 3.72507E-13-1.75415E-14
 -1     28225 2.67016E-13-3.54074E-13-1.50879E-13
 -1     28226-2.54464E-13 3.11337E-13 7.58726E-13
 -1     28227-1.00674E-14 9.48016E-13 1.35669E-13
 -1     28228 1.82389E-13-9.08689E-14-3.03091E-14
 -1     28229 1.73401E-13-1.49953E-14-4.79905E-14
 -1     28230 3.11054E-14 9.08554E-13-5.50671E-14
 -1     28231 6.77968E-14 1.87073E-13 3.44100E-14
 -1     28232 3.90324E-14-1.13812E-13-3.49720E-13
 -1     28233 1.74827E-13 1.92694E-13 1.12133E-13
 -1     28234 5.09659E-13-1.99287E-12-8.63337E-14
 -1     28235 1.12628E-13 1.41689E-12-9.83158E-13
 -1     28236-3.84416E-13-2.74598E-13 4.14169E-13
 -1     28237-1.14775E-12 6.37709E-13 4.90719E-14
 -1     28238 5.78951E-13 5.36696E-13 6.30940E-13
 -1     28239-6.17071E-15 1.04068E-14-2.95857E-15
 -1     28240 2.80813E-12 5.79480E-12-3.66263E-13
 -1     28241-4.01847E-12-1.08087E-12-1.18044E-13
 -1     28242 6.92358E-14-1.11805E-13 3.33400E-13
 -1     28243 2.11279E-14 2.34654E-12 1.69975E-13
 -1     28244 2.70897E-13-4.06019E-13 3.17593E-14
 -1     28245 1.12575E-12-1.28199E-12-3.05311E-14
 -1     28246 3.72155E-13 7.72133E-13 1.00542E-12
 -1     28247 2.84210E-16 4.79415E-15 2.96985E-15
 -1     28248-1.18017E-13-1.11006E-13-3.24185E-13
 -1     28249-1.39172E-13 9.05850E-13-1.88960E-13
 -1     28250-2.10445E-13 1.26868E-12-9.61176E-14
 -1     28251 3.90812E-13 2.54193E-12-8.44672E-14
 -1     28252-1.47482E-12 1.38209E-12-5.43940E-13
 -1     28253-5.54867E-13 5.98317E-12-1.12782E-12
 -1     28254 5.20889E-15 2.70555E-15-2.08167E-16
 -1     28255-1.14326E-14-3.67783E-15-2.66454E-15
 -1     28256-5.66170E-15 1.37390E-15-2.44249E-15
 -1     28257-6.89227E-15-5.12480E-16 1.69309E-15
 -1     28258-3.71264E-15-8.27971E-14-5.32907E-15
 -1     28259 8.02285E-15 6.73378E-15 7.35523E-15
 -1     28260-5.45009E-15 3.97141E-15-1.95677E-15
 -1     28261-6.19827E-13-1.04994E-12 3.86358E-13
 -1     28262-5.23556E-13 1.85595E-13 3.10862E-14
 -1     28263 4.02307E-13-3.84286E-13-1.64146E-13
 -1     28264 1.39004E-12 5.78808E-13-4.02428E-13
 -1     28265 3.01181E-13 4.25194E-13 2.60125E-13
 -1     28266 3.85894E-13 3.23776E-12-2.26041E-13
 -1     28267 3.87831E-14-4.39078E-14-2.55351E-15
 -1     28268-3.26301E-14 1.76503E-13 1.49880E-14
 -1     28269 3.92087E-14 7.34157E-15 5.55112E-16
 -1     28270 1.52889E-12 8.32860E-14 2.87492E-13
 -1     28271 6.54753E-13 3.94701E-12-4.35041E-13
 -1     28272 2.12026E-12-9.52113E-13 8.20455E-13
 -1     28273-9.14876E-14 5.38690E-13-3.13971E-13
 -1     28274-4.21586E-13-1.63786E-14-1.55431E-14
 -1     28275 6.59241E-13 1.85499E-12-2.47486E-13
 -1     28276-5.62456E-13-7.32386E-13 1.17351E-13
 -1     28277 3.84953E-13-4.64167E-13-1.42553E-13
 -1     28278 6.15182E-14-1.66338E-15-4.98213E-15
 -1     28279 6.40416E-15 5.09025E-15 1.29063E-15
 -1     28280 6.93922E-15-5.34403E-15 4.38538E-15
 -1     28281 8.50855E-15 2.24279E-14 7.69870E-15
 -1     28282 9.26603E-15-1.05502E-14-1.99840E-15
 -1     28283 1.04361E-14 4.70735E-14 2.30926E-14
 -1     28284 8.10649E-14 1.06789E-13 1.85407E-14
 -1     28285 5.88536E-13-1.33907E-12-7.71050E-14
 -1     28286 4.45022E-14 1.15465E-13-1.07969E-14
 -1     28287-1.26351E-14-7.34755E-14-4.84057E-14
 -1     28288-2.61112E-13 5.37015E-13-2.29483E-13
 -1     28289 1.38093E-12 4.86068E-14-5.75651E-14
 -1     28290-4.00796E-13 3.45443E-12-9.71497E-14
 -1     28291-3.59945E-13 3.64411E-12 5.38125E-13
 -1     28292 7.95139E-13-1.41572E-12 1.28186E-12
 -1     28293-9.89461E-13-1.90291E-12-2.82774E-13
 -1     28294 2.08622E-14-1.35877E-13-1.75415E-14
 -1     28295-2.42545E-12 5.79269E-12 4.34056E-13
 -1     28296-5.18769E-15-5.91964E-14-1.74305E-14
 -1     28297 4.32252E-15-5.31886E-14 4.16334E-15
 -1     28298-6.37324E-13-5.01094E-13 4.22454E-13
 -1     28299-7.20720E-14 9.96452E-13 1.42664E-14
 -1     28300 4.59420E-14 5.77091E-12-1.25105E-12
 -1     28301-4.47114E-15-5.00126E-15 3.05311E-16
 -1     28302-7.53786E-15-3.12407E-15 7.49401E-16
 -1     28303-6.51990E-15-6.22565E-15 7.17308E-16
 -1     28304-4.08474E-13 3.52697E-13-3.69094E-13
 -1     28305-1.06248E-12-4.54828E-12 5.53002E-13
 -1     28306 2.84748E-13-5.40586E-12-1.04006E-12
 -1     28307 1.23227E-12 2.06514E-12-1.53405E-13
 -1     28308 1.22090E-13 2.85930E-13 3.05311E-14
 -1     28309 4.91022E-15 2.51304E-14-7.69523E-15
 -1     28310 2.31218E-13 1.50888E-13-6.38378E-14
 -1     28311 3.72775E-13 4.08462E-13 1.50102E-13
 -1     28312 3.19998E-13 6.69794E-13 8.10463E-14
 -1     28313-4.38083E-15-5.01444E-16-8.60423E-16
 -1     28314-1.71911E-15 9.67395E-14 5.41789E-14
 -1     28315 1.14362E-13 1.34831E-12-4.99822E-13
 -1     28316 1.26713E-13 5.87783E-13 1.44884E-13
 -1     28317-1.61870E-13 3.14275E-13-2.03171E-13
 -1     28318-1.67154E-13-6.50420E-13 9.39249E-14
 -1     28319-1.93190E-12 3.84180E-13 4.00735E-13
 -1     28320-4.92398E-12-2.04596E-12 4.80005E-13
 -1     28321 4.48183E-14 3.23873E-15-2.13163E-14
 -1     28322-5.78924E-13-2.20681E-12 2.95319E-14
 -1     28323-1.60810E-15 8.12474E-16-1.33227E-15
 -1     28324-1.49141E-13-3.61387E-13-2.07612E-14
 -1     28325-1.21883E-14 5.84785E-16 3.89619E-15
 -1     28326 2.21090E-12 6.00944E-13 4.15334E-13
 -1     28327 2.98904E-15 2.89871E-15 1.30451E-15
 -1     28328-1.52007E-13 4.21158E-13-2.31704E-13
 -1     28329 2.76771E-12 7.89408E-13-1.10970E-13
 -1     28330 9.87166E-15 4.94461E-15-4.77396E-15
 -1     28331-3.87835E-14 6.70779E-14-2.26485E-14
 -1     28332-5.74843E-13 2.38822E-12 9.05942E-14
 -1     28333 1.43467E-13 9.45935E-13 1.30090E-13
 -1     28334 3.65220E-13 5.78646E-13 3.26336E-14
 -1     28335 3.81499E-13 5.09439E-13 4.61853E-14
 -1     28336 4.74241E-14-6.51157E-13-1.55431E-15
 -1     28337 3.97221E-14-1.05659E-14-1.77636E-15
 -1     28338 7.47318E-14-1.99645E-13-9.54792E-15
 -1     28339 4.90701E-13 1.91168E-12 1.85463E-13
 -1     28340-3.71760E-13-8.32519E-13 1.86240E-13
 -1     28341 1.63865E-13-2.22524E-13-7.55854E-14
 -1     28342-9.74200E-13-3.42138E-13-4.48024E-13
 -1     28343 1.98163E-13 5.35627E-13-1.32228E-13
 -1     28344-3.42782E-15 3.11058E-16-4.42354E-17
 -1     28345-1.27716E-12-2.67137E-12-5.08038E-13
 -1     28346 5.65840E-13-2.58445E-12-5.05151E-13
 -1     28347-8.82765E-14-2.44641E-13-2.59237E-13
 -1     28348-1.10933E-13 5.66872E-13-1.81632E-13
 -1     28349 5.36360E-14-2.09098E-13 4.97380E-14
 -1     28350 1.35688E-13-8.63596E-14 1.02973E-13
 -1     28351 2.92512E-14 1.87507E-13-1.35447E-14
 -1     28352-8.71414E-14-1.37751E-15 6.36990E-14
 -1     28353 6.66174E-13-7.45562E-13-2.20934E-13
 -1     28354 4.15975E-13 1.69114E-12-1.52482E-13
 -1     28355-1.17944E-12-2.85898E-12 6.61970E-14
 -1     28356-4.20323E-15 1.51754E-14-1.90958E-14
 -1     28357 2.32327E-13 1.67009E-13-3.10862E-15
 -1     28358-1.36523E-14-9.78133E-15-8.60423E-15
 -1     28359-1.29794E-13 2.65846E-15-2.75335E-14
 -1     28360-5.69127E-13 1.10402E-13-8.54872E-15
 -1     28361-2.54179E-13 2.23755E-12-1.09190E-13
 -1     28362-5.81428E-13-3.16945E-12 5.00433E-14
 -1     28363 1.40790E-14 6.35950E-15 4.44089E-16
 -1     28364-3.55632E-14 2.64941E-14 9.10383E-15
 -1     28365 5.50341E-15 3.95595E-14 1.06581E-14
 -1     28366 1.26012E-15-8.31332E-14 2.86993E-14
 -1     28367 1.86846E-14-5.36322E-14 7.21645E-15
 -1     28368-1.58639E-12 1.71421E-12-1.67311E-13
 -1     28369 2.89371E-13-6.33545E-13 1.26642E-13
 -1     28370 9.54938E-15-2.55394E-13 7.53841E-14
 -1     28371-2.99891E-14-1.90474E-13 3.60822E-14
 -1     28372-3.84414E-12-3.85148E-13 1.84831E-13
 -1     28373-7.13448E-13 1.82704E-12 1.13576E-13
 -1     28374-4.29745E-15-7.99621E-15-2.99760E-15
 -1     28375 3.65796E-16 6.81692E-17 5.13478E-16
 -1     28376-7.30530E-15 3.23157E-15-4.99600E-16
 -1     28377 5.05238E-17-1.05677E-15 5.55112E-16
 -1     28378-1.00360E-12 8.70892E-13-1.93734E-14
 -1     28379 2.72292E-14-1.30809E-13-1.87628E-14
 -1     28380-1.42791E-13 2.11762E-13 2.84966E-13
 -1     28381-4.67143E-14-4.54763E-13 3.04088E-14
 -1     28382-2.50668E-15 9.43690E-16 1.99840E-15
 -1     28383-1.08349E-14 1.58250E-15-2.10942E-15
 -1     28384-4.30162E-13 7.72315E-13 1.90181E-13
 -1     28385 7.86253E-13-2.16105E-12-9.31255E-13
 -1     28386-9.14466E-13-5.34347E-12 1.73306E-13
 -1     28387-6.44522E-13 5.19126E-13-8.59063E-13
 -1     28388 3.61026E-13-1.43692E-12 2.51466E-14
 -1     28389-1.10311E-14-1.75433E-14-1.55431E-15
 -1     28390-2.71688E-16 2.21589E-14 1.26288E-15
 -1     28391 5.45203E-12-2.48412E-12 2.38209E-12
 -1     28392-3.83336E-14 6.83497E-14-2.55351E-15
 -1     28393-4.83066E-15 2.35833E-14 9.40914E-15
 -1     28394-3.43827E-13 1.26385E-12-2.09444E-13
 -1     28395 4.07899E-13-2.04486E-13-1.47049E-13
 -1     28396-8.91046E-14-2.34052E-13 1.68754E-14
 -1     28397-3.20452E-15-6.57933E-14 6.77236E-15
 -1     28398 1.20351E-13-1.77944E-13-6.48093E-14
 -1     28399 4.09900E-13 5.67721E-13 2.22045E-14
 -1     28400-6.09017E-14-1.72353E-14-5.92304E-14
 -1     28401-1.19535E-12-5.75198E-12-3.67928E-13
 -1     28402 1.52414E-14-2.15923E-13-2.09277E-14
 -1     28403-1.03911E-14 6.78602E-16-7.21645E-16
 -1     28404-7.98888E-16 8.04859E-16 3.81639E-17
 -1     28405 3.13499E-15 3.87114E-16 1.94289E-16
 -1     28406-1.69297E-13 3.14604E-13-1.42664E-13
 -1     28407-1.08280E-14 4.97558E-15 5.64826E-15
 -1     28408-4.51422E-15 8.70114E-15-3.03230E-15
 -1     28409-1.34585E-13 1.30153E-13-1.44884E-14
 -1     28410 1.86377E-13-2.58499E-13 1.81799E-13
 -1     28411 2.45897E-15-8.86444E-16 2.83107E-15
 -1     28412-3.63320E-14-2.18436E-14 8.43769E-15
 -1     28413 5.39654E-13 1.29160E-12 1.01252E-13
 -1     28414-2.65779E-13-1.06056E-12-3.72813E-13
 -1     28415 5.80505E-13 1.58125E-12 3.62821E-13
 -1     28416-7.87400E-14-4.59454E-13 1.64313E-13
 -1     28417 5.50461E-14-4.13495E-13 8.62088E-14
 -1     28418 7.91877E-14 2.48993E-13 2.54796E-14
 -1     28419-7.47290E-14 1.43150E-12 9.10383E-15
 -1     28420-6.83440E-14 5.29682E-13 1.52725E-14
 -1     28421 1.67556E-13-1.21629E-13-1.30562E-13
 -1     28422-1.95429E-14-2.17958E-13-2.26319E-13
 -1     28423 3.70847E-13 8.41441E-13 6.39822E-13
 -1     28424-7.19783E-13-1.97797E-13 1.93068E-13
 -1     28425 3.25783E-12 4.95462E-12-2.58016E-13
 -1     28426 7.22798E-15 8.32045E-15 9.57567E-16
 -1     28427-1.52921E-13-2.63169E-13-5.42899E-14
 -1     28428-2.56056E-13 2.30676E-13-6.17062E-13
 -1     28429 1.25395E-13 1.17485E-14 4.86278E-14
 -1     28430-5.15346E-13 9.31616E-14-3.59712E-14
 -1     28431 2.14742E-13-1.55701E-13 1.44551E-13
 -1     28432 1.05557E-14-3.92209E-15 2.17881E-15
 -1     28433-3.30628E-16-2.09984E-15-3.88578E-16
 -1     28434 7.02455E-16-5.80864E-15 4.08007E-15
 -1     28435 1.45808E-12-2.64705E-12-2.13274E-13
 -1     28436 1.81493E-13 2.28975E-13-3.69704E-14
 -1     28437 1.25767E-14 2.49610E-16 1.32186E-15
 -1     28438-5.92044E-13-5.55585E-14-5.69822E-14
 -1     28439-4.69026E-16 3.73172E-15 3.10862E-15
 -1     28440 1.18112E-13-5.23499E-13 1.86962E-13
 -1     28441-2.77014E-17 5.41852E-15 1.11022E-15
 -1     28442-9.32202E-15 1.03111E-13 9.99201E-16
 -1     28443-3.51284E-14 3.25600E-13-8.21565E-15
 -1     28444 2.72149E-13-1.76271E-12 2.91100E-13
 -1     28445-6.13999E-13-8.55185E-13-6.52367E-13
 -1     28446 1.60039E-12-1.80699E-12-2.85272E-13
 -1     28447-3.60842E-14-2.79313E-12 4.37095E-13
 -1     28448-2.74366E-13 8.25024E-13 7.10432E-13
 -1     28449-5.19298E-14 7.34582E-14-8.59313E-14
 -1     28450 1.82122E-13 6.25273E-14-2.26930E-13
 -1     28451 5.12044E-14 5.89351E-13-6.58917E-14
 -1     28452-3.26442E-13 1.23466E-12 6.08728E-13
 -1     28453 8.36859E-13-3.27684E-13-2.11942E-13
 -1     28454-1.02651E-14 5.72979E-15-3.55271E-15
 -1     28455 1.28288E-12-1.67955E-12 7.18869E-14
 -1     28456-7.99486E-13 1.14593E-13-5.14866E-13
 -1     28457 4.94058E-13 2.39630E-13 1.06554E-13
 -1     28458 4.36169E-13 7.49942E-13-5.53947E-13
 -1     28459-1.83013E-14-1.73472E-15-4.88498E-15
 -3
 9999
