    1C
    1UHash: PXJD0WWr, Date: 03/11/2021, Unit system: MM_TON_S_C         
    1UUSER                                                              
    1UDATE              13.march.2021                                   
    1UTIME              18:36:23                                        
    1UHOST                                                              
    1UPGM               CalculiX                                        
    1UVERSION           Version 2.17                             
    1UCOMPILETIME       Thu Jul 23 21:43:50 CEST 2020                    
    1UDIR                                                               
    1UDBN                                                               
    1UMAT    1RUBBER                                                    
    2C                           156                                     1
 -1       881 4.80000E+01 4.40000E+01 0.00000E+00
 -1       882 4.80000E+01 4.40000E+01 5.00000E+00
 -1       883 0.00000E+00 0.00000E+00 0.00000E+00
 -1       884 0.00000E+00 0.00000E+00 5.00000E+00
 -1       885 4.80000E+01 6.00000E+01 0.00000E+00
 -1       886 4.80000E+01 6.00000E+01 5.00000E+00
 -1       887 0.00000E+00 4.40000E+01 0.00000E+00
 -1       888 0.00000E+00 4.40000E+01 5.00000E+00
 -1       889 4.36364E+01 4.00000E+01 0.00000E+00
 -1       890 3.92727E+01 3.60000E+01 0.00000E+00
 -1       891 3.49091E+01 3.20000E+01 0.00000E+00
 -1       892 3.05455E+01 2.80000E+01 0.00000E+00
 -1       893 2.61818E+01 2.40000E+01 0.00000E+00
 -1       894 2.18182E+01 2.00000E+01 0.00000E+00
 -1       895 1.74545E+01 1.60000E+01 0.00000E+00
 -1       896 1.30909E+01 1.20000E+01 0.00000E+00
 -1       897 8.72727E+00 8.00000E+00 0.00000E+00
 -1       898 4.36364E+00 4.00000E+00 0.00000E+00
 -1       899 4.36364E+01 4.00000E+01 5.00000E+00
 -1       900 3.92727E+01 3.60000E+01 5.00000E+00
 -1       901 3.49091E+01 3.20000E+01 5.00000E+00
 -1       902 3.05455E+01 2.80000E+01 5.00000E+00
 -1       903 2.61818E+01 2.40000E+01 5.00000E+00
 -1       904 2.18182E+01 2.00000E+01 5.00000E+00
 -1       905 1.74545E+01 1.60000E+01 5.00000E+00
 -1       906 1.30909E+01 1.20000E+01 5.00000E+00
 -1       907 8.72727E+00 8.00000E+00 5.00000E+00
 -1       908 4.36364E+00 4.00000E+00 5.00000E+00
 -1       909 4.80000E+01 5.46667E+01 0.00000E+00
 -1       910 4.80000E+01 4.93333E+01 0.00000E+00
 -1       911 4.80000E+01 5.46667E+01 5.00000E+00
 -1       912 4.80000E+01 4.93333E+01 5.00000E+00
 -1       913 5.33333E+00 4.57778E+01 0.00000E+00
 -1       914 1.06667E+01 4.75556E+01 0.00000E+00
 -1       915 1.60000E+01 4.93333E+01 0.00000E+00
 -1       916 2.13333E+01 5.11111E+01 0.00000E+00
 -1       917 2.66667E+01 5.28889E+01 0.00000E+00
 -1       918 3.20000E+01 5.46667E+01 0.00000E+00
 -1       919 3.73333E+01 5.64444E+01 0.00000E+00
 -1       920 4.26667E+01 5.82222E+01 0.00000E+00
 -1       921 5.33333E+00 4.57778E+01 5.00000E+00
 -1       922 1.06667E+01 4.75556E+01 5.00000E+00
 -1       923 1.60000E+01 4.93333E+01 5.00000E+00
 -1       924 2.13333E+01 5.11111E+01 5.00000E+00
 -1       925 2.66667E+01 5.28889E+01 5.00000E+00
 -1       926 3.20000E+01 5.46667E+01 5.00000E+00
 -1       927 3.73333E+01 5.64444E+01 5.00000E+00
 -1       928 4.26667E+01 5.82222E+01 5.00000E+00
 -1       929 0.00000E+00 6.28571E+00 0.00000E+00
 -1       930 0.00000E+00 1.25714E+01 0.00000E+00
 -1       931 0.00000E+00 1.88571E+01 0.00000E+00
 -1       932 0.00000E+00 2.51429E+01 0.00000E+00
 -1       933 0.00000E+00 3.14286E+01 0.00000E+00
 -1       934 0.00000E+00 3.77143E+01 0.00000E+00
 -1       935 0.00000E+00 6.28571E+00 5.00000E+00
 -1       936 0.00000E+00 1.25714E+01 5.00000E+00
 -1       937 0.00000E+00 1.88571E+01 5.00000E+00
 -1       938 0.00000E+00 2.51429E+01 5.00000E+00
 -1       939 0.00000E+00 3.14286E+01 5.00000E+00
 -1       940 0.00000E+00 3.77143E+01 5.00000E+00
 -1       941 4.25522E+01 4.64581E+01 0.00000E+00
 -1       942 3.35498E+01 3.77493E+01 0.00000E+00
 -1       943 2.51093E+01 2.99939E+01 0.00000E+00
 -1       944 1.62723E+01 2.24504E+01 0.00000E+00
 -1       945 8.24325E+00 1.41262E+01 0.00000E+00
 -1       946 3.73817E+00 1.53903E+01 0.00000E+00
 -1       947 5.14726E+00 2.78644E+01 0.00000E+00
 -1       948 4.69256E+00 4.00632E+01 0.00000E+00
 -1       949 1.51309E+01 4.32275E+01 0.00000E+00
 -1       950 2.58440E+01 4.70978E+01 0.00000E+00
 -1       951 3.71250E+01 5.02228E+01 0.00000E+00
 -1       952 4.23875E+00 9.99835E+00 0.00000E+00
 -1       953 4.25575E+01 5.24822E+01 0.00000E+00
 -1       954 3.69271E+01 4.31867E+01 0.00000E+00
 -1       955 2.95315E+01 3.34789E+01 0.00000E+00
 -1       956 2.06835E+01 2.63365E+01 0.00000E+00
 -1       957 1.19290E+01 1.84412E+01 0.00000E+00
 -1       958 5.82390E+00 2.08016E+01 0.00000E+00
 -1       959 4.62419E+00 3.40527E+01 0.00000E+00
 -1       960 9.92739E+00 4.17520E+01 0.00000E+00
 -1       961 2.03904E+01 4.52491E+01 0.00000E+00
 -1       962 3.15323E+01 4.85725E+01 0.00000E+00
 -1       963 1.97109E+01 3.27050E+01 0.00000E+00
 -1       964 1.06546E+01 2.49252E+01 0.00000E+00
 -1       965 9.87661E+00 3.13032E+01 0.00000E+00
 -1       966 2.46680E+01 4.15603E+01 0.00000E+00
 -1       967 3.03406E+01 4.29916E+01 0.00000E+00
 -1       968 2.43158E+01 3.57621E+01 0.00000E+00
 -1       969 2.85017E+01 3.83368E+01 0.00000E+00
 -1       970 1.95881E+01 3.90948E+01 0.00000E+00
 -1       971 8.78510E+00 3.66642E+01 0.00000E+00
 -1       972 1.52231E+01 2.89724E+01 0.00000E+00
 -1       973 1.42155E+01 3.62576E+01 0.00000E+00
 -1       974 8.52215E+00 1.37205E+01 5.00000E+00
 -1       975 1.62939E+01 2.22249E+01 5.00000E+00
 -1       976 2.50781E+01 2.98710E+01 5.00000E+00
 -1       977 3.33231E+01 3.82333E+01 5.00000E+00
 -1       978 4.26263E+01 4.62704E+01 5.00000E+00
 -1       979 4.24174E+01 5.23232E+01 5.00000E+00
 -1       980 3.07989E+01 4.96092E+01 5.00000E+00
 -1       981 2.09102E+01 4.49189E+01 5.00000E+00
 -1       982 1.00073E+01 4.16939E+01 5.00000E+00
 -1       983 4.71862E+00 4.00435E+01 5.00000E+00
 -1       984 4.94682E+00 2.79924E+01 5.00000E+00
 -1       985 4.10531E+00 1.59927E+01 5.00000E+00
 -1       986 4.28577E+00 1.00908E+01 5.00000E+00
 -1       987 1.25727E+01 1.78670E+01 5.00000E+00
 -1       988 2.06494E+01 2.61884E+01 5.00000E+00
 -1       989 2.92937E+01 3.40051E+01 5.00000E+00
 -1       990 3.78743E+01 4.24122E+01 5.00000E+00
 -1       991 3.65864E+01 4.94468E+01 5.00000E+00
 -1       992 2.62363E+01 4.70325E+01 5.00000E+00
 -1       993 1.53560E+01 4.30852E+01 5.00000E+00
 -1       994 4.60199E+00 3.40485E+01 5.00000E+00
 -1       995 4.47681E+00 2.20456E+01 5.00000E+00
 -1       996 3.19549E+01 4.43122E+01 5.00000E+00
 -1       997 1.96505E+01 3.24258E+01 5.00000E+00
 -1       998 2.00128E+01 3.88268E+01 5.00000E+00
 -1       999 2.66176E+01 4.04732E+01 5.00000E+00
 -1      1000 9.79752E+00 3.11260E+01 5.00000E+00
 -1      1001 8.81349E+00 3.65874E+01 5.00000E+00
 -1      1002 1.51030E+01 2.86694E+01 5.00000E+00
 -1      1003 2.41353E+01 3.52181E+01 5.00000E+00
 -1      1004 1.43033E+01 3.60900E+01 5.00000E+00
 -1      1005 1.02936E+01 2.42313E+01 5.00000E+00
 -1      1006 8.05268E+00 1.88652E+01 5.00000E+00
 -1      1007 4.54484E+01 4.65039E+01 2.48874E+00
 -1      1008 3.28025E+00 7.89106E+00 2.51083E+00
 -1      1009 2.05987E+00 4.71888E+00 2.50004E+00
 -1      1010 4.10915E+01 5.50709E+01 2.50981E+00
 -1      1011 4.48875E+01 5.56357E+01 2.50887E+00
 -1      1012 2.50425E+00 1.37339E+01 2.59297E+00
 -1      1013 3.83577E+01 3.93650E+01 2.52722E+00
 -1      1014 1.29933E+01 4.54197E+01 2.50384E+00
 -1      1015 2.87985E+00 4.17234E+01 2.49798E+00
 -1      1016 8.45418E+00 1.09211E+01 2.47266E+00
 -1      1017 3.11755E+01 3.17901E+01 2.53329E+00
 -1      1018 1.91390E+01 2.12434E+01 2.49140E+00
 -1      1019 2.45820E+00 2.34296E+01 2.46314E+00
 -1      1020 3.31962E+01 5.15829E+01 2.46183E+00
 -1      1021 4.27768E+01 4.31431E+01 2.49550E+00
 -1      1022 4.52046E+01 5.08385E+01 2.50611E+00
 -1      1023 2.36716E+01 4.90072E+01 2.52106E+00
 -1      1024 2.35648E+00 2.80590E+01 2.49071E+00
 -1      1025 1.56587E+01 1.83730E+01 2.45233E+00
 -1      1026 3.04673E+00 1.87734E+01 2.47454E+00
 -1      1027 3.43236E+01 3.51113E+01 2.51890E+00
 -1      1028 1.20938E+01 1.52372E+01 2.43144E+00
 -1      1029 2.76604E+01 2.88880E+01 2.50417E+00
 -1      1030 2.48094E+00 3.73372E+01 2.50197E+00
 -1      1031 2.33932E+01 2.50730E+01 2.49121E+00
 -1      1032 7.69925E+00 4.37580E+01 2.50218E+00
 -1      1033 1.82859E+01 4.71924E+01 2.51375E+00
 -1      1034 2.88869E+01 5.08098E+01 2.46403E+00
 -1      1035 3.71530E+01 5.32597E+01 2.50862E+00
 -1      1036 2.36068E+00 3.27171E+01 2.50586E+00
 -3
    3C                           455                                     1
 -1       632    3    0    1
 -2       991       990       996       954
 -1       633    3    0    1
 -2       988       976       956       997
 -1       634    3    0    1
 -2       949      1014      1033       915
 -1       635    3    0    1
 -2       954       990      1021       978
 -1       636    3    0    1
 -2       994      1036      1030       959
 -1       637    3    0    1
 -2       956       976       943       997
 -1       638    3    0    1
 -2       966       992       950       981
 -1       639    3    0    1
 -2       958      1019       931      1026
 -1       640    3    0    1
 -2       979       978       991       951
 -1       641    3    0    1
 -2       971       965      1001       959
 -1       642    3    0    1
 -2       954       978       941       951
 -1       643    3    0    1
 -2       956       997      1002       988
 -1       644    3    0    1
 -2       940       994      1036      1030
 -1       645    3    0    1
 -2      1012       931       937      1026
 -1       646    3    0    1
 -2      1001       959      1000       994
 -1       647    3    0    1
 -2      1002       997       972      1004
 -1       648    3    0    1
 -2      1005       944      1002       975
 -1       649    3    0    1
 -2       963      1003       998       997
 -1       650    3    0    1
 -2      1000       964      1002      1005
 -1       651    3    0    1
 -2       889      1021       941       954
 -1       652    3    0    1
 -2       889       890      1013       954
 -1       653    3    0    1
 -2      1013       890       889       899
 -1       654    3    0    1
 -2      1036       933       947      1024
 -1       655    3    0    1
 -2       956       943       963       997
 -1       656    3    0    1
 -2      1030      1036       934       959
 -1       657    3    0    1
 -2       985       986       936      1012
 -1       658    3    0    1
 -2       980      1020       926       991
 -1       659    3    0    1
 -2       995      1006       964      1005
 -1       660    3    0    1
 -2       994       984       947      1000
 -1       661    3    0    1
 -2       934      1036       933       959
 -1       662    3    0    1
 -2       999       992       966       981
 -1       663    3    0    1
 -2       998       981       966       970
 -1       664    3    0    1
 -2      1013       900       890       899
 -1       665    3    0    1
 -2       956       988      1002       944
 -1       666    3    0    1
 -2      1019       947      1024       984
 -1       667    3    0    1
 -2       959      1001      1000       965
 -1       668    3    0    1
 -2      1000      1002       972      1004
 -1       669    3    0    1
 -2      1001      1004      1000       965
 -1       670    3    0    1
 -2       921      1032       922       982
 -1       671    3    0    1
 -2       996       999       969       977
 -1       672    3    0    1
 -2       994      1000       947       959
 -1       673    3    0    1
 -2      1000      1004       972       965
 -1       674    3    0    1
 -2      1006       995       964       958
 -1       675    3    0    1
 -2      1016       945       896       897
 -1       676    3    0    1
 -2       992       996       962       980
 -1       677    3    0    1
 -2       994       959       947      1036
 -1       678    3    0    1
 -2       969       977       989       942
 -1       679    3    0    1
 -2       993       981       998       970
 -1       680    3    0    1
 -2       954       942       977       996
 -1       681    3    0    1
 -2       949       993       973       970
 -1       682    3    0    1
 -2       963       997       943      1003
 -1       683    3    0    1
 -2      1001       971       983       982
 -1       684    3    0    1
 -2       943       997       976      1003
 -1       685    3    0    1
 -2       989       955       969       942
 -1       686    3    0    1
 -2      1016       897       896       906
 -1       687    3    0    1
 -2       895       957      1028      1025
 -1       688    3    0    1
 -2       961       966       950       981
 -1       689    3    0    1
 -2       896       906       905      1028
 -1       690    3    0    1
 -2       892       902       901      1017
 -1       691    3    0    1
 -2      1036      1024       947       984
 -1       692    3    0    1
 -2      1001       971       973       965
 -1       693    3    0    1
 -2       936       930      1008       935
 -1       694    3    0    1
 -2       901      1027       900       891
 -1       695    3    0    1
 -2       973      1004      1001       965
 -1       696    3    0    1
 -2      1023       981      1033       961
 -1       697    3    0    1
 -2       986       945       985       974
 -1       698    3    0    1
 -2      1000       965       972       964
 -1       699    3    0    1
 -2       954       996       977       990
 -1       700    3    0    1
 -2       894      1018       944       895
 -1       701    3    0    1
 -2       957       945       896      1028
 -1       702    3    0    1
 -2       996       977       969       942
 -1       703    3    0    1
 -2       907       897      1016       906
 -1       704    3    0    1
 -2       921      1032       983      1015
 -1       705    3    0    1
 -2       950       966       967       992
 -1       706    3    0    1
 -2       996       992       962       967
 -1       707    3    0    1
 -2       967       999       996       992
 -1       708    3    0    1
 -2       956      1018      1031       988
 -1       709    3    0    1
 -2       940       939      1036       994
 -1       710    3    0    1
 -2       996       967       962       954
 -1       711    3    0    1
 -2       904       903       893      1031
 -1       712    3    0    1
 -2       972       997       963      1004
 -1       713    3    0    1
 -2       952       945      1016       897
 -1       714    3    0    1
 -2       895      1025      1028       905
 -1       715    3    0    1
 -2      1002       975       944       988
 -1       716    3    0    1
 -2       963       998      1004       997
 -1       717    3    0    1
 -2       945       986      1012       952
 -1       718    3    0    1
 -2       983       959      1001       994
 -1       719    3    0    1
 -2       931      1012       936       930
 -1       720    3    0    1
 -2       956       944      1002       972
 -1       721    3    0    1
 -2      1003       999       966       998
 -1       722    3    0    1
 -2       949       960       973       982
 -1       723    3    0    1
 -2       949       982       973       993
 -1       724    3    0    1
 -2       991       962       954       996
 -1       725    3    0    1
 -2       966       981       961       970
 -1       726    3    0    1
 -2       956       972      1002       997
 -1       727    3    0    1
 -2       989      1003       943       976
 -1       728    3    0    1
 -2       993       998      1004       970
 -1       729    3    0    1
 -2      1029      1031       903       976
 -1       730    3    0    1
 -2       951       962      1020       918
 -1       731    3    0    1
 -2       994       983      1030       940
 -1       732    3    0    1
 -2       983       971       960       982
 -1       733    3    0    1
 -2       922      1032       921       914
 -1       734    3    0    1
 -2      1000       964       972      1002
 -1       735    3    0    1
 -2      1003       998       966       968
 -1       736    3    0    1
 -2       924       923      1033       981
 -1       737    3    0    1
 -2       915      1014       922       914
 -1       738    3    0    1
 -2       992       980       962      1034
 -1       739    3    0    1
 -2       989       999       969      1003
 -1       740    3    0    1
 -2       890      1013      1027       900
 -1       741    3    0    1
 -2      1029       943      1031       976
 -1       742    3    0    1
 -2      1014       915       922       923
 -1       743    3    0    1
 -2      1031       943       956       976
 -1       744    3    0    1
 -2      1006       946      1026       958
 -1       745    3    0    1
 -2      1032      1014       922       982
 -1       746    3    0    1
 -2      1019       984      1024       938
 -1       747    3    0    1
 -2      1014      1032       922       914
 -1       748    3    0    1
 -2       932       931      1019       937
 -1       749    3    0    1
 -2       994       959      1030       983
 -1       750    3    0    1
 -2      1032       960       913       914
 -1       751    3    0    1
 -2       927       979       991      1035
 -1       752    3    0    1
 -2      1000       964       947       965
 -1       753    3    0    1
 -2       984       938      1019       995
 -1       754    3    0    1
 -2       913      1032       921      1015
 -1       755    3    0    1
 -2       923       993      1033       981
 -1       756    3    0    1
 -2       900      1027       901       977
 -1       757    3    0    1
 -2       958      1019       947       932
 -1       758    3    0    1
 -2       918      1020      1034       962
 -1       759    3    0    1
 -2       935       930      1008       929
 -1       760    3    0    1
 -2       892      1017       901       891
 -1       761    3    0    1
 -2       936       935      1008       986
 -1       762    3    0    1
 -2      1005       944       957       964
 -1       763    3    0    1
 -2       895       896      1028       957
 -1       764    3    0    1
 -2      1006       958      1026       995
 -1       765    3    0    1
 -2      1012      1026       937       985
 -1       766    3    0    1
 -2       983       960      1032       982
 -1       767    3    0    1
 -2       892       943       893      1029
 -1       768    3    0    1
 -2      1006       974      1028       987
 -1       769    3    0    1
 -2      1032       913       948      1015
 -1       770    3    0    1
 -2       984       995       964      1005
 -1       771    3    0    1
 -2       944       894       956      1018
 -1       772    3    0    1
 -2       957      1025       895       944
 -1       773    3    0    1
 -2       894      1018      1031       956
 -1       774    3    0    1
 -2       890       942      1013       954
 -1       775    3    0    1
 -2       913      1015       921       887
 -1       776    3    0    1
 -2       976       902      1029       989
 -1       777    3    0    1
 -2       958       945       957      1006
 -1       778    3    0    1
 -2       901       902       989      1017
 -1       779    3    0    1
 -2      1003       968       966       969
 -1       780    3    0    1
 -2      1032      1015       948       983
 -1       781    3    0    1
 -2       960       971       983       948
 -1       782    3    0    1
 -2      1019       938       932       937
 -1       783    3    0    1
 -2       892       893       903      1029
 -1       784    3    0    1
 -2       905      1018       894       895
 -1       785    3    0    1
 -2       894       956      1031       893
 -1       786    3    0    1
 -2       996       954       942       967
 -1       787    3    0    1
 -2       991       980       962       996
 -1       788    3    0    1
 -2       901       891      1017      1027
 -1       789    3    0    1
 -2       939       984      1024      1036
 -1       790    3    0    1
 -2       955       892      1029       943
 -1       791    3    0    1
 -2       991      1020       962       980
 -1       792    3    0    1
 -2       968       955       989       943
 -1       793    3    0    1
 -2       961       981       993       970
 -1       794    3    0    1
 -2      1023       992       924       981
 -1       795    3    0    1
 -2       983      1032       921       982
 -1       796    3    0    1
 -2       921      1032       913       914
 -1       797    3    0    1
 -2       945       952      1012       946
 -1       798    3    0    1
 -2       963       943       968      1003
 -1       799    3    0    1
 -2       994      1036       947       984
 -1       800    3    0    1
 -2       989       976       943      1029
 -1       801    3    0    1
 -2      1035       927       979      1010
 -1       802    3    0    1
 -2      1015       921       887       888
 -1       803    3    0    1
 -2       968       943       989      1003
 -1       804    3    0    1
 -2      1028       987       905      1025
 -1       805    3    0    1
 -2       984      1005       964      1000
 -1       806    3    0    1
 -2       973      1004       963       970
 -1       807    3    0    1
 -2      1034       962       950       917
 -1       808    3    0    1
 -2       968      1003       989       969
 -1       809    3    0    1
 -2       969       999       967       966
 -1       810    3    0    1
 -2       966       999       967       992
 -1       811    3    0    1
 -2      1006       987      1028       957
 -1       812    3    0    1
 -2       966       970       968       998
 -1       813    3    0    1
 -2       959       983      1001       971
 -1       814    3    0    1
 -2       931       958      1026       946
 -1       815    3    0    1
 -2       926      1020      1035       991
 -1       816    3    0    1
 -2       963       998       968       970
 -1       817    3    0    1
 -2       973       972       963      1004
 -1       818    3    0    1
 -2      1003       969       966       999
 -1       819    3    0    1
 -2       974      1016       907       986
 -1       820    3    0    1
 -2       984      1000       964       947
 -1       821    3    0    1
 -2      1004       998       963       970
 -1       822    3    0    1
 -2       962       991       954       951
 -1       823    3    0    1
 -2       892      1029       903       902
 -1       824    3    0    1
 -2       900       977       990      1013
 -1       825    3    0    1
 -2       931       946      1026      1012
 -1       826    3    0    1
 -2       996       942       969       967
 -1       827    3    0    1
 -2       957       975      1005       987
 -1       828    3    0    1
 -2       953       951      1035       919
 -1       829    3    0    1
 -2       893       943       956      1031
 -1       830    3    0    1
 -2      1005       975       957       944
 -1       831    3    0    1
 -2       944      1005      1002       964
 -1       832    3    0    1
 -2       973       982       960       971
 -1       833    3    0    1
 -2      1001       982       973       971
 -1       834    3    0    1
 -2      1028      1025       957       987
 -1       835    3    0    1
 -2       961       993       949       970
 -1       836    3    0    1
 -2       971       959       983       948
 -1       837    3    0    1
 -2      1019       932      1024       947
 -1       838    3    0    1
 -2      1016       945       952       986
 -1       839    3    0    1
 -2       993      1004       973       970
 -1       840    3    0    1
 -2       979       951       941       978
 -1       841    3    0    1
 -2       974       945      1016       986
 -1       842    3    0    1
 -2       926       991      1035       927
 -1       843    3    0    1
 -2       984       947       964       995
 -1       844    3    0    1
 -2      1006      1005       957       964
 -1       845    3    0    1
 -2      1002       964       972       944
 -1       846    3    0    1
 -2       958       964       947       995
 -1       847    3    0    1
 -2       958      1006       957       964
 -1       848    3    0    1
 -2       969       999       989       977
 -1       849    3    0    1
 -2      1012       986      1008       952
 -1       850    3    0    1
 -2       958      1019       932       931
 -1       851    3    0    1
 -2      1001      1004       973       982
 -1       852    3    0    1
 -2      1012       952      1008       930
 -1       853    3    0    1
 -2      1014      1033       915       923
 -1       854    3    0    1
 -2       946       945       958      1006
 -1       855    3    0    1
 -2       957      1005      1006       987
 -1       856    3    0    1
 -2       901      1017       989      1027
 -1       857    3    0    1
 -2       905       904       894      1018
 -1       858    3    0    1
 -2       897      1016      1008       907
 -1       859    3    0    1
 -2       946      1006       985       945
 -1       860    3    0    1
 -2       985      1006       974       945
 -1       861    3    0    1
 -2       895       905      1028       896
 -1       862    3    0    1
 -2       956       997       963       972
 -1       863    3    0    1
 -2       966       998       999       981
 -1       864    3    0    1
 -2       939       938      1024       984
 -1       865    3    0    1
 -2      1006       957      1028       945
 -1       866    3    0    1
 -2      1000       965       947       959
 -1       867    3    0    1
 -2      1028       906       905       987
 -1       868    3    0    1
 -2       989       977       901      1027
 -1       869    3    0    1
 -2       996       967       969       999
 -1       870    3    0    1
 -2       972      1004       973       965
 -1       871    3    0    1
 -2       922       982      1014       993
 -1       872    3    0    1
 -2       968       998       963      1003
 -1       873    3    0    1
 -2       982      1004       973       993
 -1       874    3    0    1
 -2       995      1019       958      1026
 -1       875    3    0    1
 -2       910       881       882      1007
 -1       876    3    0    1
 -2       904       903      1031       988
 -1       877    3    0    1
 -2       882       881       899      1021
 -1       878    3    0    1
 -2      1034       950       992      1023
 -1       879    3    0    1
 -2       941       910      1022      1007
 -1       880    3    0    1
 -2       889       881       941      1021
 -1       881    3    0    1
 -2       899       881       889      1021
 -1       882    3    0    1
 -2       992      1034       962       950
 -1       883    3    0    1
 -2      1023       924       992       925
 -1       884    3    0    1
 -2      1006       995      1026       985
 -1       885    3    0    1
 -2       986       907       908      1008
 -1       886    3    0    1
 -2       986       908       935      1008
 -1       887    3    0    1
 -2       898       908       907      1008
 -1       888    3    0    1
 -2       986      1016       907      1008
 -1       889    3    0    1
 -2       898       883       884      1009
 -1       890    3    0    1
 -2       898       884       908      1009
 -1       891    3    0    1
 -2       883       935       884      1009
 -1       892    3    0    1
 -2       883       929       935      1009
 -1       893    3    0    1
 -2       928      1011       885       886
 -1       894    3    0    1
 -2       928       920      1011      1010
 -1       895    3    0    1
 -2       920       928       927      1010
 -1       896    3    0    1
 -2       909       885       920      1011
 -1       897    3    0    1
 -2       909       920       953      1011
 -1       898    3    0    1
 -2       909       911       885      1011
 -1       899    3    0    1
 -2       979       928      1011      1010
 -1       900    3    0    1
 -2       979       911       912      1022
 -1       901    3    0    1
 -2       912       911       909      1022
 -1       902    3    0    1
 -2       910       912       909      1022
 -1       903    3    0    1
 -2       940       887       888      1015
 -1       904    3    0    1
 -2       940       934       887      1015
 -1       905    3    0    1
 -2       948       887       934      1015
 -1       906    3    0    1
 -2       915       923      1033       916
 -1       907    3    0    1
 -2      1033       923       924       916
 -1       908    3    0    1
 -2       948      1015      1030       983
 -1       909    3    0    1
 -2      1023       961      1033       916
 -1       910    3    0    1
 -2       917       924       916      1023
 -1       911    3    0    1
 -2       917       924      1023       925
 -1       912    3    0    1
 -2       926      1020      1034       918
 -1       913    3    0    1
 -2      1023       950       917      1034
 -1       914    3    0    1
 -2       918       962      1034       917
 -1       915    3    0    1
 -2      1023      1034       917       925
 -1       916    3    0    1
 -2      1035       918       927       919
 -1       917    3    0    1
 -2       940      1030      1015       983
 -1       918    3    0    1
 -2       953       919      1035      1010
 -1       919    3    0    1
 -2       919       927      1010       920
 -1       920    3    0    1
 -2       979       927       928      1010
 -1       921    3    0    1
 -2      1035       927      1010       919
 -1       922    3    0    1
 -2       948      1030       959       983
 -1       923    3    0    1
 -2       952       898      1008       929
 -1       924    3    0    1
 -2       938      1024       932       933
 -1       925    3    0    1
 -2       939       938       933      1024
 -1       926    3    0    1
 -2       947       932      1024       933
 -1       927    3    0    1
 -2       953      1010      1035       979
 -1       928    3    0    1
 -2       940      1030      1036       934
 -1       929    3    0    1
 -2       984       939       994      1036
 -1       930    3    0    1
 -2       934       939       933      1036
 -1       931    3    0    1
 -2      1036       959       947       933
 -1       932    3    0    1
 -2       948       934       959      1030
 -1       933    3    0    1
 -2       918       951      1035      1020
 -1       934    3    0    1
 -2       940       934      1036       939
 -1       935    3    0    1
 -2       881      1021       882      1007
 -1       936    3    0    1
 -2       941       910      1007       881
 -1       937    3    0    1
 -2       897       907      1008       898
 -1       938    3    0    1
 -2      1008       898       908      1009
 -1       939    3    0    1
 -2       991      1020      1035       951
 -1       940    3    0    1
 -2       979      1010      1011       953
 -1       941    3    0    1
 -2      1011      1022       979       953
 -1       942    3    0    1
 -2       909      1022       911      1011
 -1       943    3    0    1
 -2       910       912      1022      1007
 -1       944    3    0    1
 -2       919       920      1010       953
 -1       945    3    0    1
 -2       953       979      1035       951
 -1       946    3    0    1
 -2       939      1024       933      1036
 -1       947    3    0    1
 -2       920      1010       953      1011
 -1       948    3    0    1
 -2       935       908       884      1009
 -1       949    3    0    1
 -2       883       898       929      1009
 -1       950    3    0    1
 -2       941       881      1007      1021
 -1       951    3    0    1
 -2       976       988      1031       903
 -1       952    3    0    1
 -2       990      1013      1021       899
 -1       953    3    0    1
 -2       882      1021       978      1007
 -1       954    3    0    1
 -2       951       918      1035       919
 -1       955    3    0    1
 -2      1035       979       991       951
 -1       956    3    0    1
 -2       935      1009      1008       908
 -1       957    3    0    1
 -2       885      1011       911       886
 -1       958    3    0    1
 -2       928       885      1011       920
 -1       959    3    0    1
 -2      1007       978       941      1021
 -1       960    3    0    1
 -2       979       911      1011       928
 -1       961    3    0    1
 -2      1022       979       978       912
 -1       962    3    0    1
 -2      1007       910       912       882
 -1       963    3    0    1
 -2      1022       912       978      1007
 -1       964    3    0    1
 -2       926       918      1034       925
 -1       965    3    0    1
 -2      1007       882       912       978
 -1       966    3    0    1
 -2       979       978       941      1022
 -1       967    3    0    1
 -2      1021      1013       990       954
 -1       968    3    0    1
 -2       962      1034       980      1020
 -1       969    3    0    1
 -2      1019       938      1024       932
 -1       970    3    0    1
 -2       990       899      1021       978
 -1       971    3    0    1
 -2      1034      1023       992       925
 -1       972    3    0    1
 -2       941      1007      1022       978
 -1       973    3    0    1
 -2       979      1022       941       953
 -1       974    3    0    1
 -2      1034       925       992       980
 -1       975    3    0    1
 -2       945       946      1012       985
 -1       976    3    0    1
 -2       931       946      1012       930
 -1       977    3    0    1
 -2       931      1019       937      1026
 -1       978    3    0    1
 -2       945       985      1012       986
 -1       979    3    0    1
 -2       952      1012       946       930
 -1       980    3    0    1
 -2       889      1013      1021       954
 -1       981    3    0    1
 -2      1021      1013       889       899
 -1       982    3    0    1
 -2       990       900      1013       899
 -1       983    3    0    1
 -2       992       950       962       967
 -1       984    3    0    1
 -2       954       990       977      1013
 -1       985    3    0    1
 -2       917      1023       916       950
 -1       986    3    0    1
 -2       915       949      1014       914
 -1       987    3    0    1
 -2       949       915      1033       961
 -1       988    3    0    1
 -2       960       949      1014       982
 -1       989    3    0    1
 -2       949       960      1014       914
 -1       990    3    0    1
 -2      1014       982       949       993
 -1       991    3    0    1
 -2      1023       924      1033       981
 -1       992    3    0    1
 -2       983       921      1015       888
 -1       993    3    0    1
 -2       940      1015       888       983
 -1       994    3    0    1
 -2       940       934      1015      1030
 -1       995    3    0    1
 -2       948      1015       934      1030
 -1       996    3    0    1
 -2      1028       945       896      1016
 -1       997    3    0    1
 -2      1028      1016       896       906
 -1       998    3    0    1
 -2       907      1016       974       906
 -1       999    3    0    1
 -2       954       978      1021       941
 -1      1000    3    0    1
 -2       915      1033       961       916
 -1      1001    3    0    1
 -2       892       902      1017      1029
 -1      1002    3    0    1
 -2       892       955      1017       891
 -1      1003    3    0    1
 -2      1017       902       989      1029
 -1      1004    3    0    1
 -2       955       891      1027      1017
 -1      1005    3    0    1
 -2       955      1017      1027       989
 -1      1006    3    0    1
 -2       975      1018       988       904
 -1      1007    3    0    1
 -2      1018      1025       944       895
 -1      1008    3    0    1
 -2      1018       975       988       944
 -1      1009    3    0    1
 -2       905      1025      1018       895
 -1      1010    3    0    1
 -2       905       904      1018       975
 -1      1011    3    0    1
 -2       984       995      1019       947
 -1      1012    3    0    1
 -2       937      1019       995      1026
 -1      1013    3    0    1
 -2       958       995       947      1019
 -1      1014    3    0    1
 -2       995       938      1019       937
 -1      1015    3    0    1
 -2       949       961      1033       993
 -1      1016    3    0    1
 -2      1029       943       893      1031
 -1      1017    3    0    1
 -2       918       917      1034       925
 -1      1018    3    0    1
 -2      1033       993       961       981
 -1      1019    3    0    1
 -2       926       925      1034       980
 -1      1020    3    0    1
 -2       926       980      1034      1020
 -1      1021    3    0    1
 -2       882      1021       899       978
 -1      1022    3    0    1
 -2      1023       916      1033       924
 -1      1023    3    0    1
 -2      1017      1029       989       955
 -1      1024    3    0    1
 -2       988       976      1031       956
 -1      1025    3    0    1
 -2      1029       976       903       902
 -1      1026    3    0    1
 -2       991       978       954       951
 -1      1027    3    0    1
 -2       892      1029      1017       955
 -1      1028    3    0    1
 -2       929       898      1008      1009
 -1      1029    3    0    1
 -2       989      1029       943       955
 -1      1030    3    0    1
 -2      1013       942      1027       977
 -1      1031    3    0    1
 -2       935      1009       929      1008
 -1      1032    3    0    1
 -2      1022      1011       979       911
 -1      1033    3    0    1
 -2       954       991       990       978
 -1      1034    3    0    1
 -2       910      1022       909       953
 -1      1035    3    0    1
 -2       968       969       989       955
 -1      1036    3    0    1
 -2       979       953       941       951
 -1      1037    3    0    1
 -2       941       953      1022       910
 -1      1038    3    0    1
 -2       950      1023       961       981
 -1      1039    3    0    1
 -2       950       992      1023       981
 -1      1040    3    0    1
 -2       961      1023       950       916
 -1      1041    3    0    1
 -2       911      1011       928       886
 -1      1042    3    0    1
 -2       953      1022       909      1011
 -1      1043    3    0    1
 -2       987       975       905      1025
 -1      1044    3    0    1
 -2       975       957      1025       987
 -1      1045    3    0    1
 -2       957       975      1025       944
 -1      1046    3    0    1
 -2      1018       975       944      1025
 -1      1047    3    0    1
 -2       905       975      1018      1025
 -1      1048    3    0    1
 -2      1012       985       937       936
 -1      1049    3    0    1
 -2      1012       936       937       931
 -1      1050    3    0    1
 -2      1006       985      1026       946
 -1      1051    3    0    1
 -2      1026       946       985      1012
 -1      1052    3    0    1
 -2      1026       937       985       995
 -1      1053    3    0    1
 -2       949       993      1033      1014
 -1      1054    3    0    1
 -2       890       900      1027       891
 -1      1055    3    0    1
 -2       993      1014       922       923
 -1      1056    3    0    1
 -2       993      1033      1014       923
 -1      1057    3    0    1
 -2       954      1013       977       942
 -1      1058    3    0    1
 -2       890       891      1027       942
 -1      1059    3    0    1
 -2      1032       983       948       960
 -1      1060    3    0    1
 -2      1032       960       948       913
 -1      1061    3    0    1
 -2       913       948      1015       887
 -1      1062    3    0    1
 -2      1014       960      1032       914
 -1      1063    3    0    1
 -2       960      1014      1032       982
 -1      1064    3    0    1
 -2       897       898      1008       952
 -1      1065    3    0    1
 -2       944      1018       956       988
 -1      1066    3    0    1
 -2       894       893      1031       904
 -1      1067    3    0    1
 -2       894       904      1031      1018
 -1      1068    3    0    1
 -2      1012       930      1008       936
 -1      1069    3    0    1
 -2      1008       930       952       929
 -1      1070    3    0    1
 -2      1012       936      1008       986
 -1      1071    3    0    1
 -2       986       952      1016      1008
 -1      1072    3    0    1
 -2       897       952      1008      1016
 -1      1073    3    0    1
 -2      1029       893       903      1031
 -1      1074    3    0    1
 -2       890       942      1027      1013
 -1      1075    3    0    1
 -2       900      1013      1027       977
 -1      1076    3    0    1
 -2       955       989      1027       942
 -1      1077    3    0    1
 -2       955       942      1027       891
 -1      1078    3    0    1
 -2       989       977      1027       942
 -1      1079    3    0    1
 -2      1006       945      1028       974
 -1      1080    3    0    1
 -2       974       906      1028       987
 -1      1081    3    0    1
 -2       974       945      1028      1016
 -1      1082    3    0    1
 -2       974      1016      1028       906
 -1      1083    3    0    1
 -2       991       951       962      1020
 -1      1084    3    0    1
 -2       904       988      1031      1018
 -1      1085    3    0    1
 -2       926       927      1035       918
 -1      1086    3    0    1
 -2       926       918      1035      1020
 -3
    1PSTEP                         1           1           1          
  100CL  101 1.000000000         156                     0    1           1
 -4  DISP        4    1
 -5  D1          1    2    1    0
 -5  D2          1    2    2    0
 -5  D3          1    2    3    0
 -5  ALL         1    2    0    0    1ALL
 -1       881-2.50530E+00 1.04865E+01 0.00000E+00
 -1       882-2.47844E+00 1.04897E+01 0.00000E+00
 -1       883 0.00000E+00 0.00000E+00 0.00000E+00
 -1       884 0.00000E+00 0.00000E+00 0.00000E+00
 -1       885-4.54214E+00 1.17865E+01 0.00000E+00
 -1       886-4.52643E+00 1.17916E+01 0.00000E+00
 -1       887 0.00000E+00 0.00000E+00 0.00000E+00
 -1       888 0.00000E+00 0.00000E+00 0.00000E+00
 -1       889-1.77287E+00 8.74308E+00 0.00000E+00
 -1       890-1.08340E+00 7.08181E+00 0.00000E+00
 -1       891-5.40770E-01 5.81601E+00 0.00000E+00
 -1       892-8.66997E-02 4.66187E+00 0.00000E+00
 -1       893-4.46889E-02 3.77651E+00 0.00000E+00
 -1       894-2.45335E-02 2.96659E+00 0.00000E+00
 -1       895 3.68867E-03 2.22023E+00 0.00000E+00
 -1       896 2.27669E-02 1.54466E+00 0.00000E+00
 -1       897 1.28639E-02 1.00820E+00 0.00000E+00
 -1       898 5.24755E-03 4.99156E-01 0.00000E+00
 -1       899-1.75032E+00 8.74815E+00 0.00000E+00
 -1       900-1.08790E+00 7.10301E+00 0.00000E+00
 -1       901-5.52379E-01 5.84250E+00 0.00000E+00
 -1       902-1.33751E-01 4.73295E+00 0.00000E+00
 -1       903-7.74535E-02 3.81215E+00 0.00000E+00
 -1       904-4.44067E-02 2.98390E+00 0.00000E+00
 -1       905-8.66759E-03 2.22444E+00 0.00000E+00
 -1       906 1.45533E-02 1.54589E+00 0.00000E+00
 -1       907 8.31296E-03 1.00929E+00 0.00000E+00
 -1       908 3.53371E-03 4.98417E-01 0.00000E+00
 -1       909-3.76422E+00 1.13046E+01 0.00000E+00
 -1       910-3.12043E+00 1.08621E+01 0.00000E+00
 -1       911-3.73996E+00 1.13100E+01 0.00000E+00
 -1       912-3.09506E+00 1.08661E+01 0.00000E+00
 -1       913-1.66049E-01 7.20792E-01 0.00000E+00
 -1       914-5.48549E-01 1.66758E+00 0.00000E+00
 -1       915-9.64387E-01 2.73264E+00 0.00000E+00
 -1       916-1.42528E+00 3.91305E+00 0.00000E+00
 -1       917-1.92660E+00 5.13675E+00 0.00000E+00
 -1       918-2.51302E+00 6.44389E+00 0.00000E+00
 -1       919-3.13840E+00 7.88575E+00 0.00000E+00
 -1       920-3.79722E+00 9.76371E+00 0.00000E+00
 -1       921-1.63562E-01 6.78357E-01 0.00000E+00
 -1       922-5.45204E-01 1.63059E+00 0.00000E+00
 -1       923-9.57455E-01 2.73380E+00 0.00000E+00
 -1       924-1.41301E+00 3.91328E+00 0.00000E+00
 -1       925-1.90897E+00 5.12461E+00 0.00000E+00
 -1       926-2.49112E+00 6.45208E+00 0.00000E+00
 -1       927-3.11778E+00 7.88972E+00 0.00000E+00
 -1       928-3.78420E+00 9.78504E+00 0.00000E+00
 -1       929 0.00000E+00 0.00000E+00 0.00000E+00
 -1       930 0.00000E+00 0.00000E+00 0.00000E+00
 -1       931 0.00000E+00 0.00000E+00 0.00000E+00
 -1       932 0.00000E+00 0.00000E+00 0.00000E+00
 -1       933 0.00000E+00 0.00000E+00 0.00000E+00
 -1       934 0.00000E+00 0.00000E+00 0.00000E+00
 -1       935 0.00000E+00 0.00000E+00 0.00000E+00
 -1       936 0.00000E+00 0.00000E+00 0.00000E+00
 -1       937 0.00000E+00 0.00000E+00 0.00000E+00
 -1       938 0.00000E+00 0.00000E+00 0.00000E+00
 -1       939 0.00000E+00 0.00000E+00 0.00000E+00
 -1       940 0.00000E+00 0.00000E+00 0.00000E+00
 -1       941-2.39494E+00 8.81187E+00 0.00000E+00
 -1       942-1.00952E+00 5.70927E+00 0.00000E+00
 -1       943-9.46826E-02 3.61049E+00 0.00000E+00
 -1       944-1.97109E-02 2.04465E+00 0.00000E+00
 -1       945 8.74368E-03 9.38093E-01 0.00000E+00
 -1       946 7.37827E-03 4.17847E-01 0.00000E+00
 -1       947 4.26891E-03 5.72078E-01 0.00000E+00
 -1       948 1.18939E-02 5.14146E-01 0.00000E+00
 -1       949-4.45956E-01 2.26692E+00 0.00000E+00
 -1       950-1.31900E+00 4.60547E+00 0.00000E+00
 -1       951-2.37771E+00 7.36011E+00 0.00000E+00
 -1       952 2.17901E-03 4.74202E-01 0.00000E+00
 -1       953-3.04578E+00 9.27720E+00 0.00000E+00
 -1       954-1.66781E+00 6.78891E+00 0.00000E+00
 -1       955-4.83023E-01 4.62564E+00 0.00000E+00
 -1       956-4.68534E-02 2.78814E+00 0.00000E+00
 -1       957 8.42073E-03 1.37435E+00 0.00000E+00
 -1       958 1.05552E-02 6.56765E-01 0.00000E+00
 -1       959 2.32232E-02 5.15933E-01 0.00000E+00
 -1       960-1.29024E-01 1.26147E+00 0.00000E+00
 -1       961-8.54438E-01 3.39263E+00 0.00000E+00
 -1       962-1.79586E+00 5.88913E+00 0.00000E+00
 -1       963-4.41143E-02 2.68261E+00 0.00000E+00
 -1       964 1.32938E-02 1.22492E+00 0.00000E+00
 -1       965 4.27939E-03 1.12410E+00 0.00000E+00
 -1       966-8.35932E-01 4.03783E+00 0.00000E+00
 -1       967-1.27294E+00 5.29310E+00 0.00000E+00
 -1       968-4.09337E-01 3.68526E+00 0.00000E+00
 -1       969-7.93352E-01 4.64734E+00 0.00000E+00
 -1       970-4.16061E-01 2.91564E+00 0.00000E+00
 -1       971 2.82619E-02 1.01673E+00 0.00000E+00
 -1       972-3.67070E-03 1.92203E+00 0.00000E+00
 -1       973-3.25593E-02 1.79361E+00 0.00000E+00
 -1       974 8.71291E-03 9.75259E-01 0.00000E+00
 -1       975-2.53554E-02 2.06639E+00 0.00000E+00
 -1       976-8.26002E-02 3.61841E+00 0.00000E+00
 -1       977-1.02739E+00 5.71709E+00 0.00000E+00
 -1       978-2.36704E+00 8.83399E+00 0.00000E+00
 -1       979-2.99242E+00 9.23022E+00 0.00000E+00
 -1       980-1.86010E+00 5.83081E+00 0.00000E+00
 -1       981-8.65279E-01 3.48250E+00 0.00000E+00
 -1       982-1.46876E-01 1.24968E+00 0.00000E+00
 -1       983-1.04613E-02 4.95809E-01 0.00000E+00
 -1       984-1.13285E-02 5.37397E-01 0.00000E+00
 -1       985-3.69353E-03 4.53304E-01 0.00000E+00
 -1       986 1.95331E-03 4.84320E-01 0.00000E+00
 -1       987 3.43685E-03 1.48613E+00 0.00000E+00
 -1       988-4.80368E-02 2.80085E+00 0.00000E+00
 -1       989-5.10735E-01 4.63247E+00 0.00000E+00
 -1       990-1.64370E+00 7.05160E+00 0.00000E+00
 -1       991-2.24221E+00 7.15941E+00 0.00000E+00
 -1       992-1.34047E+00 4.68460E+00 0.00000E+00
 -1       993-4.58244E-01 2.29990E+00 0.00000E+00
 -1       994-4.67478E-03 4.99873E-01 0.00000E+00
 -1       995-2.64117E-03 4.87557E-01 0.00000E+00
 -1       996-1.47129E+00 5.73772E+00 0.00000E+00
 -1       997-3.69524E-02 2.67410E+00 0.00000E+00
 -1       998-4.29074E-01 2.99480E+00 0.00000E+00
 -1       999-8.66378E-01 4.37918E+00 0.00000E+00
 -1      1000-1.58452E-02 1.11154E+00 0.00000E+00
 -1      1001 7.04766E-03 1.00589E+00 0.00000E+00
 -1      1002-1.36157E-02 1.91288E+00 0.00000E+00
 -1      1003-3.75614E-01 3.63931E+00 0.00000E+00
 -1      1004-3.95104E-02 1.80015E+00 0.00000E+00
 -1      1005 3.06574E-04 1.17863E+00 0.00000E+00
 -1      1006-3.48148E-03 9.09294E-01 0.00000E+00
 -1      1007-2.60223E+00 9.78417E+00 3.48546E-03
 -1      1008 3.78326E-04 3.64874E-01 5.51641E-04
 -1      1009-3.57765E-04 2.29649E-01-4.92348E-04
 -1      1010-3.23897E+00 9.00182E+00 4.90243E-04
 -1      1011-3.61122E+00 1.03167E+01 2.09057E-03
 -1      1012 1.25709E-03 2.72434E-01-3.15489E-03
 -1      1013-1.37105E+00 6.99245E+00 1.20354E-03
 -1      1014-5.02209E-01 1.95934E+00-1.97390E-03
 -1      1015-1.77936E-04 2.97334E-01-5.68253E-03
 -1      1016 6.30949E-03 9.68414E-01-1.27143E-03
 -1      1017-4.00920E-01 4.95187E+00-7.01265E-03
 -1      1018-1.67192E-02 2.53107E+00-2.50626E-04
 -1      1019 7.86853E-04 2.62596E-01-2.39139E-03
 -1      1020-2.23221E+00 6.50171E+00-2.44207E-03
 -1      1021-2.05929E+00 8.65776E+00 4.11390E-03
 -1      1022-3.05759E+00 1.00245E+01 8.62394E-04
 -1      1023-1.35213E+00 4.27632E+00-2.19562E-03
 -1      1024-1.27363E-03 2.53058E-01-3.75116E-03
 -1      1025 7.08955E-03 1.95844E+00 1.65237E-03
 -1      1026 1.09472E-04 3.31198E-01-4.35207E-03
 -1      1027-8.10193E-01 5.79906E+00 5.33968E-05
 -1      1028 1.57741E-02 1.40848E+00 1.76577E-03
 -1      1029-8.33350E-02 4.12232E+00-1.34655E-02
 -1      1030 1.96432E-03 2.57193E-01-7.55452E-03
 -1      1031-4.08449E-02 3.28502E+00-6.17194E-03
 -1      1032-1.47136E-01 9.79603E-01-5.67673E-03
 -1      1033-8.95605E-01 3.07773E+00-5.13367E-04
 -1      1034-1.83963E+00 5.47179E+00-7.32349E-03
 -1      1035-2.73221E+00 7.59656E+00 1.19103E-04
 -1      1036 2.19035E-03 2.53936E-01-6.81321E-03
 -3
    1PSTEP                         2           1           1          
  100CL  101 1.000000000         156                     0    1           1
 -4  STRESS      6    1
 -5  SXX         1    4    1    1
 -5  SYY         1    4    2    2
 -5  SZZ         1    4    3    3
 -5  SXY         1    4    1    2
 -5  SYZ         1    4    2    3
 -5  SZX         1    4    3    1
 -1       881 5.12787E+00 1.14191E+01 8.31704E+00 5.33117E+00-1.99173E-02 5.07325E-02
 -1       882-9.23379E-01 5.40371E+00 2.19472E+00 5.31689E+00 8.02660E-02 1.31174E-01
 -1       883 1.94769E+01 1.94175E+01 1.94399E+01 2.64087E+00-1.49661E-02-8.47370E-03
 -1       884 1.36236E+01 1.35218E+01 1.35734E+01 2.66121E+00 1.02455E-02 3.19365E-03
 -1       885 6.53370E+00 1.49718E+01 1.07623E+01 4.68376E+00 4.96102E-02 8.01782E-02
 -1       886 1.44559E+01 2.28735E+01 1.86414E+01 4.63905E+00 2.17576E-02 7.18500E-02
 -1       887-4.65630E+01-4.55693E+01-4.61100E+01 2.36722E+00-8.07633E-02-3.50110E-02
 -1       888-5.07272E+01-4.97165E+01-5.01324E+01 2.32065E+00 4.08842E-02-5.16907E-02
 -1       889 3.38176E-01 6.33739E+00 3.38584E+00 5.13580E+00-3.37471E-02 5.39524E-03
 -1       890 9.78209E+00 1.42864E+01 1.20423E+01 4.25878E+00 3.91710E-02-3.28130E-02
 -1       891-8.68778E-01 2.54217E+00 7.95637E-01 3.55835E+00 8.47253E-02-4.31320E-02
 -1       892 1.60827E+01 1.82695E+01 1.70394E+01 3.74461E+00 1.95403E-01-5.46343E-02
 -1       893 1.84044E+01 1.89183E+01 1.85322E+01 4.26977E+00 1.27212E-01-2.54511E-02
 -1       894 1.35911E+01 1.39999E+01 1.37581E+01 3.96501E+00 9.12135E-02-1.49872E-02
 -1       895 2.32327E+01 2.35484E+01 2.34045E+01 3.62760E+00 8.45191E-02-4.56258E-03
 -1       896 1.15863E+01 1.15332E+01 1.15668E+01 3.11861E+00 1.87628E-02-3.07354E-02
 -1       897 9.40315E+00 9.20219E+00 9.29263E+00 2.79745E+00-5.28012E-03-2.60168E-02
 -1       898 8.86750E+00 8.71812E+00 8.79182E+00 2.69847E+00-1.67044E-02-1.23247E-02
 -1       899-3.70161E+00 2.18427E+00-7.96215E-01 5.15021E+00 1.12094E-01 1.15959E-01
 -1       900 1.79244E+00 6.10512E+00 3.93716E+00 4.08460E+00 2.03801E-01 2.49576E-02
 -1       901 1.43695E+01 1.77214E+01 1.60828E+01 3.56435E+00 2.30474E-01-7.48377E-03
 -1       902-1.10366E+01-8.75025E+00-9.71784E+00 3.80069E+00 2.50836E-01-1.56429E-01
 -1       903 3.85984E+00 4.51824E+00 4.31328E+00 4.43432E+00 1.23152E-01-1.58800E-01
 -1       904 5.45678E+00 5.95989E+00 5.74148E+00 4.05483E+00 6.55020E-02-1.38945E-01
 -1       905 8.25450E+00 8.67180E+00 8.44683E+00 3.63889E+00 1.01194E-02-9.52709E-02
 -1       906 5.58438E+00 5.53661E+00 5.55094E+00 3.04980E+00 2.72430E-02-2.73270E-02
 -1       907 1.13565E+01 1.11993E+01 1.12837E+01 2.78079E+00 1.44588E-02-2.75723E-03
 -1       908 5.83842E+00 5.72337E+00 5.77871E+00 2.69198E+00 2.86829E-02 6.60923E-03
 -1       909 5.92602E-01 8.48340E+00 4.56005E+00 5.02839E+00-8.14872E-03 1.22911E-01
 -1       910-1.44304E+01-7.36896E+00-1.08700E+01 5.28618E+00-5.27767E-02 1.05131E-01
 -1       911-4.56225E+00 3.40368E+00-6.02228E-01 4.92120E+00 8.97497E-02 7.34547E-02
 -1       912-8.11362E+00-9.37737E-01-4.55232E+00 5.25850E+00 1.01174E-01 9.94926E-02
 -1       913-3.81257E+01-3.54601E+01-3.68764E+01 2.34519E+00-1.67491E-01 4.17836E-03
 -1       914-2.79054E+01-2.33805E+01-2.56850E+01 2.37042E+00-1.60163E-01 2.72851E-02
 -1       915-2.82195E+01-2.34138E+01-2.58264E+01 2.61622E+00-3.63531E-02 5.41153E-02
 -1       916-2.64752E+01-2.11588E+01-2.38338E+01 2.63598E+00 2.74728E-02 8.84651E-02
 -1       917-2.37415E+01-1.78112E+01-2.08484E+01 2.56046E+00 5.12247E-03 1.05766E-01
 -1       918-1.33670E+01-6.44772E+00-9.94448E+00 2.77144E+00 3.02387E-02 1.17763E-01
 -1       919-5.21838E+00 1.89461E+00-1.65715E+00 4.15136E+00 1.53387E-02 1.17376E-01
 -1       920-1.39228E+01-6.27097E+00-1.00746E+01 4.67203E+00 5.95723E-02 1.43401E-01
 -1       921-2.56775E+01-2.29139E+01-2.42201E+01 2.35042E+00-9.41217E-02-4.87689E-02
 -1       922-2.53567E+01-2.08432E+01-2.30482E+01 2.50672E+00-7.97917E-02-3.88681E-02
 -1       923-1.23756E+01-7.51751E+00-9.92969E+00 2.70066E+00 1.00521E-02-3.25435E-02
 -1       924-1.76444E+01-1.22867E+01-1.49403E+01 2.66224E+00-1.47688E-02-3.16094E-02
 -1       925-1.16282E+01-5.61421E+00-8.54401E+00 2.64724E+00 1.84588E-02-2.52077E-02
 -1       926-1.16002E+01-4.73123E+00-8.11469E+00 2.81964E+00 6.63689E-02 2.66993E-02
 -1       927-1.12321E+01-4.07126E+00-7.65356E+00 4.05915E+00 4.73990E-02 6.04274E-02
 -1       928-2.25733E+00 5.54277E+00 1.62211E+00 4.66978E+00 7.71085E-02 1.82090E-02
 -1       929 1.11303E+01 1.10847E+01 1.11063E+01 2.62387E+00-2.32829E-02-1.17118E-02
 -1       930 5.11807E+00 5.07237E+00 5.07036E+00 2.59280E+00-2.91477E-02-1.62537E-02
 -1       931 2.51272E+01 2.50738E+01 2.50464E+01 2.57355E+00-5.06594E-02-3.68464E-02
 -1       932-4.54104E+00-4.57386E+00-4.59823E+00 2.54670E+00-5.76964E-02-2.86969E-02
 -1       933 3.40184E+01 3.39591E+01 3.39040E+01 2.56679E+00-4.63091E-02-5.47420E-02
 -1       934 1.92092E+01 1.90741E+01 1.90422E+01 2.50438E+00-6.97380E-02-7.05020E-02
 -1       935 4.38228E+00 4.35756E+00 4.36825E+00 2.62214E+00 2.70755E-02 6.93134E-03
 -1       936 6.83233E+00 6.79951E+00 6.84042E+00 2.58291E+00 2.43822E-02-1.62355E-02
 -1       937 1.28081E+01 1.28057E+01 1.28528E+01 2.54050E+00 1.92251E-02-2.75761E-02
 -1       938-3.04102E+01-3.03661E+01-3.03410E+01 2.51177E+00 1.73744E-02-3.06877E-02
 -1       939 6.19914E+01 6.20206E+01 6.20716E+01 2.52929E+00 8.61922E-03-5.20969E-02
 -1       940 4.44756E+00 4.43960E+00 4.53851E+00 2.45379E+00 2.90009E-02-5.71480E-02
 -1       941 1.41492E+00 8.20327E+00 4.84518E+00 5.18333E+00-1.71378E-02 6.44243E-02
 -1       942-1.87801E+01-1.44270E+01-1.65964E+01 3.42265E+00 1.15923E-01 1.92990E-03
 -1       943-1.49097E+01-1.28030E+01-1.39308E+01 3.59524E+00 1.30005E-01-6.51214E-03
 -1       944-6.79143E+00-6.46347E+00-6.62243E+00 3.64421E+00 8.84588E-02-1.09613E-02
 -1       945 4.48980E+00 4.36072E+00 4.42238E+00 2.75986E+00-2.36766E-04-2.10605E-02
 -1       946-2.64229E+00-2.69547E+00-2.71863E+00 2.67112E+00-5.06657E-02-3.73840E-02
 -1       947-1.23353E+01-1.23612E+01-1.23766E+01 2.67693E+00-6.42819E-02-5.64188E-02
 -1       948-4.28431E+01-4.20080E+01-4.25040E+01 2.55216E+00-1.39383E-01-5.14678E-02
 -1       949-2.01211E+01-1.57580E+01-1.79497E+01 2.83607E+00-6.67574E-02-1.68877E-02
 -1       950-2.54133E+00 3.04581E+00 2.12588E-01 2.82020E+00 7.58106E-03 4.08604E-02
 -1       951-2.45956E+01-1.76557E+01-2.11289E+01 4.11252E+00 2.45366E-02 8.55637E-02
 -1       952 5.43798E+00 5.34132E+00 5.37157E+00 2.69678E+00-1.41707E-02-1.45206E-02
 -1       953 6.71048E+00 1.39921E+01 1.03644E+01 4.90165E+00 8.26725E-03 1.39928E-01
 -1       954 1.34175E+01 1.92326E+01 1.63332E+01 4.21165E+00 8.53501E-02 2.01990E-02
 -1       955-6.72336E+00-3.30483E+00-5.10018E+00 3.21731E+00 1.84343E-01-1.95513E-02
 -1       956-2.66437E+00-2.19558E+00-2.45684E+00 3.95606E+00 9.18541E-02 4.46924E-03
 -1       957 7.26128E-01 7.98039E-01 7.74128E-01 3.19534E+00 5.84697E-02-1.95019E-02
 -1       958 8.25812E+00 8.19840E+00 8.19650E+00 2.69220E+00-6.82251E-02-4.68659E-02
 -1       959 6.18349E+01 6.17312E+01 6.17210E+01 2.71876E+00-7.70189E-02-8.84215E-02
 -1       960 3.11084E+01 3.40948E+01 3.25544E+01 2.59702E+00-1.36037E-01-3.86351E-02
 -1       961-5.74677E+00-7.20867E-01-3.24434E+00 2.86247E+00 1.59068E-02 1.64885E-02
 -1       962 7.02315E+00 1.32712E+01 1.01136E+01 2.99641E+00 5.19055E-02 2.79272E-02
 -1       963 3.91942E+00 6.59800E+00 5.25766E+00 3.32227E+00 3.15749E-02-2.85435E-02
 -1       964 1.41210E+01 1.42119E+01 1.41636E+01 3.02099E+00-5.09272E-03-6.58157E-02
 -1       965-3.71328E+01-3.67735E+01-3.69458E+01 3.17403E+00-2.30121E-02-8.23507E-02
 -1       966-6.74044E+00-1.76145E+00-4.25009E+00 3.01046E+00 3.48804E-02-3.17160E-02
 -1       967 2.15651E+01 2.69707E+01 2.42631E+01 3.12722E+00 4.93481E-02-3.45125E-03
 -1       968 1.31571E+01 1.72341E+01 1.51926E+01 3.06156E+00 7.49192E-02-4.21250E-02
 -1       969-1.27785E+01-8.10429E+00-1.04393E+01 3.09580E+00 1.04746E-01-1.26331E-02
 -1       970-1.02054E+00 3.31730E+00 1.14815E+00 3.06184E+00 2.15189E-02-4.51967E-02
 -1       971 1.59536E+01 1.68660E+01 1.64065E+01 2.78240E+00-8.15769E-02-9.85078E-02
 -1       972 3.26897E+00 3.65223E+00 3.45991E+00 3.61681E+00 2.25115E-02-4.22227E-02
 -1       973 5.78161E+00 8.12872E+00 6.95378E+00 3.11236E+00-3.93096E-02-6.04462E-02
 -1       974 1.24322E+01 1.22974E+01 1.23594E+01 2.81731E+00 5.39862E-02-1.01713E-02
 -1       975-4.91673E-01-2.08383E-01-3.55793E-01 3.61803E+00 5.72818E-02-7.44133E-02
 -1       976-7.38406E+00-5.99289E+00-6.58553E+00 3.91855E+00 1.12238E-01-7.01593E-02
 -1       977-1.50343E+01-1.05665E+01-1.28020E+01 3.45939E+00 2.28231E-01 5.91258E-02
 -1       978 1.14760E+01 1.81807E+01 1.47903E+01 5.14809E+00 1.02588E-01 1.03134E-01
 -1       979-7.39930E+00-1.87965E-01-3.80421E+00 4.90819E+00 9.99296E-02 6.64916E-02
 -1       980-2.11474E+01-1.48463E+01-1.79141E+01 2.93174E+00 1.30163E-01-7.26161E-02
 -1       981-5.31054E+00-2.10750E-01-2.75255E+00 2.93007E+00 1.44883E-02-4.83106E-02
 -1       982 3.24173E+01 3.54236E+01 3.39433E+01 2.72651E+00-8.37270E-02-7.93572E-02
 -1       983-5.55813E+01-5.47814E+01-5.51129E+01 2.58951E+00-6.92778E-02-8.13560E-02
 -1       984-1.99187E+01-1.98984E+01-1.98609E+01 2.63323E+00-2.17165E-02-4.92570E-02
 -1       985-4.80378E+00-4.86463E+00-4.78606E+00 2.65766E+00 3.77006E-04-2.33579E-02
 -1       986 1.83304E+01 1.82375E+01 1.82934E+01 2.70122E+00 3.12718E-02 7.06242E-05
 -1       987-2.15557E+01-2.14600E+01-2.15293E+01 3.26274E+00 6.95006E-02-5.71450E-02
 -1       988 7.85896E+00 8.21913E+00 8.07438E+00 3.96810E+00 8.95895E-02-8.00299E-02
 -1       989 1.47618E+01 1.84148E+01 1.66292E+01 3.25330E+00 1.85180E-01-1.57191E-02
 -1       990 2.67191E+01 3.24223E+01 2.95349E+01 4.44152E+00 2.19770E-01 7.36940E-02
 -1       991-5.62388E+00 1.06612E+00-2.27045E+00 3.71789E+00 9.66127E-02 1.35163E-02
 -1       992-2.50910E+00 3.11016E+00 3.32075E-01 2.92294E+00 2.75097E-02-4.34144E-02
 -1       993 2.71936E+00 7.13614E+00 4.93638E+00 2.95568E+00 5.59605E-03-5.55484E-02
 -1       994 4.90516E+01 4.90079E+01 4.90874E+01 2.66457E+00-2.36239E-02-6.90449E-02
 -1       995 1.38638E+01 1.38203E+01 1.38752E+01 2.66698E+00-1.91448E-02-4.05394E-02
 -1       996-6.85070E+00-1.38481E+00-4.11693E+00 3.23962E+00 1.53739E-01-6.93046E-03
 -1       997 6.53631E+00 8.16624E+00 7.34980E+00 3.63112E+00 5.80331E-02-1.02227E-02
 -1       998-8.18522E+00-3.98134E+00-6.08206E+00 3.05660E+00 5.10794E-02-4.58521E-02
 -1       999-7.51146E+00-2.59640E+00-5.05292E+00 3.06868E+00 7.08523E-02-1.36181E-02
 -1      1000-8.95860E+00-8.83260E+00-8.89382E+00 3.07149E+00-1.16841E-02-8.65973E-02
 -1      1001 2.59625E+01 2.65369E+01 2.62445E+01 2.95554E+00-4.60929E-02-9.37726E-02
 -1      1002 1.07562E+01 1.11577E+01 1.09548E+01 3.64618E+00 6.31965E-02-4.10638E-02
 -1      1003-1.29152E+01-8.92222E+00-1.09165E+01 3.06612E+00 6.36682E-02-3.67199E-02
 -1      1004 1.32425E-01 1.97641E+00 1.05421E+00 3.30766E+00 8.40097E-03-4.97997E-02
 -1      1005 3.80712E+00 3.99609E+00 3.90082E+00 3.16918E+00 4.38019E-02-4.95972E-02
 -1      1006-3.73702E+00-3.81008E+00-3.77038E+00 2.77597E+00 5.85591E-03-4.05784E-02
 -1      1007-2.44871E+01-1.78713E+01-2.11755E+01 5.31076E+00 2.42142E-02 9.25023E-02
 -1      1008-2.92346E+00-3.01944E+00-2.97067E+00 2.67155E+00 6.25861E-03-5.30404E-03
 -1      1009 6.70576E+00 6.62149E+00 6.66230E+00 2.65196E+00 3.81697E-04-2.18669E-03
 -1      1010 2.43346E+01 3.15663E+01 2.79451E+01 4.67932E+00 5.61166E-02 9.35384E-02
 -1      1011-1.75807E-01 7.69729E+00 3.76018E+00 4.82545E+00 5.74329E-02 9.08304E-02
 -1      1012 1.66689E+00 1.61699E+00 1.63960E+00 2.62398E+00-8.71586E-03-2.13768E-02
 -1      1013-8.47540E+00-3.48226E+00-5.97869E+00 4.37436E+00 1.22224E-01 3.06223E-02
 -1      1014 3.59377E+01 4.03790E+01 3.81502E+01 2.63834E+00-7.75785E-02-1.58229E-02
 -1      1015-3.00807E+01-2.91418E+01-2.96055E+01 2.43091E+00-7.04807E-02-4.84310E-02
 -1      1016-1.62738E+00-1.80021E+00-1.71301E+00 2.81704E+00 1.21831E-02-1.35509E-02
 -1      1017 6.47361E-01 3.73524E+00 2.18734E+00 3.38904E+00 2.21446E-01-4.50369E-02
 -1      1018-7.87524E+00-7.55436E+00-7.71335E+00 3.83596E+00 7.14252E-02-6.04914E-02
 -1      1019-4.24608E-01-4.48793E-01-4.35372E-01 2.57166E+00-3.55636E-02-3.09232E-02
 -1      1020 3.14488E+01 3.82607E+01 3.48543E+01 2.89216E+00 4.71729E-02 5.60489E-02
 -1      1021-1.73652E+01-1.11637E+01-1.42640E+01 5.17648E+00 3.78100E-02 8.11733E-02
 -1      1022 1.17117E+01 1.91174E+01 1.54113E+01 5.19097E+00 3.76046E-02 1.05659E-01
 -1      1023 1.84145E+00 7.30400E+00 4.57196E+00 2.69202E+00-3.53185E-03 1.15739E-02
 -1      1024-3.04594E+01-3.04328E+01-3.04394E+01 2.55497E+00-3.09035E-02-3.87020E-02
 -1      1025-2.31839E+01-2.29870E+01-2.30822E+01 3.56367E+00 5.03660E-02-4.22763E-02
 -1      1026-1.03967E+01-1.04493E+01-1.04162E+01 2.63549E+00-3.42016E-02-3.22194E-02
 -1      1027 8.04141E+00 1.17394E+01 9.88644E+00 3.53028E+00 1.65778E-01 1.33305E-02
 -1      1028-6.15015E+00-6.14918E+00-6.15013E+00 3.16368E+00 4.83009E-02-2.92895E-02
 -1      1029 1.51786E+01 1.68558E+01 1.60111E+01 3.81866E+00 1.93256E-01-8.07468E-02
 -1      1030-4.94222E+01-4.95572E+01-4.94797E+01 2.52964E+00-4.72005E-02-5.78903E-02
 -1      1031-5.43827E+00-5.05220E+00-5.24400E+00 4.17221E+00 1.05117E-01-7.35931E-02
 -1      1032-1.65015E+01-1.33782E+01-1.49373E+01 2.45006E+00-1.45771E-01-3.52898E-02
 -1      1033 4.29277E+00 9.18699E+00 6.73840E+00 2.74931E+00 3.44660E-03-3.80583E-03
 -1      1034 5.10927E+00 1.13020E+01 8.21024E+00 2.69766E+00 4.07808E-02 2.87806E-02
 -1      1035 9.79783E+00 1.67964E+01 1.32953E+01 3.83451E+00 3.20388E-02 7.90970E-02
 -1      1036 6.34218E+01 6.33554E+01 6.33769E+01 2.57439E+00-3.49401E-02-5.82281E-02
 -3
    1PSTEP                         3           1           1          
  100CL  101 1.000000000         156                     0    1           1
 -4  TOSTRAIN    6    1
 -5  EXX         1    4    1    1
 -5  EYY         1    4    2    2
 -5  EZZ         1    4    3    3
 -5  EXY         1    4    1    2
 -5  EYZ         1    4    2    3
 -5  EZX         1    4    3    1
 -1       881-6.76888E-02 6.71137E-02 6.46160E-04 1.14232E-01-4.26770E-04 1.08705E-03
 -1       882-6.74548E-02 6.81166E-02-6.42743E-04 1.13926E-01 1.71987E-03 2.81068E-03
 -1       883 7.43947E-04-5.28044E-04-4.92341E-05 5.65862E-02-3.20681E-04-1.81567E-04
 -1       884 1.12502E-03-1.05791E-03 4.92356E-05 5.70222E-02 2.19533E-04 6.84309E-05
 -1       885-9.04391E-02 9.03647E-02 1.66654E-04 1.00360E-01 1.06300E-03 1.71799E-03
 -1       886-8.99630E-02 9.04027E-02-2.79736E-04 9.94015E-02 4.66204E-04 1.53954E-03
 -1       887-1.04643E-02 1.08276E-02-7.58283E-04 5.07228E-02-1.73053E-03-7.50187E-04
 -1       888-1.16109E-02 1.00451E-02 1.13559E-03 4.97249E-02 8.76031E-04-1.10758E-03
 -1       889-6.46067E-02 6.39393E-02 6.96087E-04 1.10045E-01-7.23103E-04 1.15605E-04
 -1       890-4.82808E-02 4.82346E-02 1.49299E-04 9.12535E-02 8.39322E-04-7.03088E-04
 -1       891-3.62478E-02 3.68391E-02-5.84178E-04 7.62452E-02 1.81542E-03-9.24197E-04
 -1       892-2.24030E-02 2.44545E-02-1.90462E-03 8.02362E-02 4.18694E-03-1.17066E-03
 -1       893-4.52976E-03 6.48118E-03-1.79183E-03 9.14889E-02 2.72580E-03-5.45343E-04
 -1       894-4.07254E-03 4.68583E-03-4.95151E-04 8.49589E-02 1.95444E-03-3.21132E-04
 -1       895-3.41482E-03 3.34883E-03 2.66522E-04 7.77291E-02 1.81100E-03-9.77631E-05
 -1       896 5.50973E-04-5.85854E-04 1.33984E-04 6.68229E-02 4.02033E-04-6.58572E-04
 -1       897 2.25138E-03-2.05481E-03-1.16858E-04 5.99414E-02-1.13138E-04-5.57466E-04
 -1       898 1.63262E-03-1.56826E-03 1.10073E-05 5.78206E-02-3.57927E-04-2.64084E-04
 -1       899-6.27928E-02 6.33247E-02-5.38510E-04 1.10354E-01 2.40185E-03 2.48467E-03
 -1       900-4.61100E-02 4.62985E-02-1.54699E-04 8.75212E-02 4.36688E-03 5.34771E-04
 -1       901-3.61324E-02 3.56895E-02 5.80586E-04 7.63739E-02 4.93839E-03-1.60356E-04
 -1       902-2.57779E-02 2.32132E-02 2.48039E-03 8.14379E-02 5.37471E-03-3.35182E-03
 -1       903-7.92917E-03 6.17855E-03 1.78688E-03 9.50148E-02 2.63881E-03-3.40264E-03
 -1       904-5.61046E-03 5.16961E-03 4.89869E-04 8.68833E-02 1.40352E-03-2.97720E-03
 -1       905-4.33007E-03 4.61150E-03-2.08931E-04 7.79710E-02 2.16829E-04-2.04138E-03
 -1       906 5.95944E-04-4.27683E-04-1.20626E-04 6.53486E-02 5.83740E-04-5.85539E-04
 -1       907 1.67450E-03-1.69282E-03 1.15012E-04 5.95844E-02 3.09811E-04-5.90796E-05
 -1       908 1.26475E-03-1.20053E-03-1.46743E-05 5.76813E-02 6.14592E-04 1.41617E-04
 -1       909-8.46831E-02 8.43941E-02 3.27965E-04 1.07744E-01-1.74604E-04 2.63364E-03
 -1       910-7.58956E-02 7.54102E-02 3.92081E-04 1.13268E-01-1.13085E-03 2.25266E-03
 -1       911-8.51814E-02 8.55058E-02-3.29445E-04 1.05447E-01 1.92308E-03 1.57392E-03
 -1       912-7.67019E-02 7.70567E-02-3.93586E-04 1.12675E-01 2.16787E-03 2.13184E-03
 -1       913-2.80677E-02 2.90499E-02-1.29778E-03 5.02507E-02-3.58886E-03 8.95304E-05
 -1       914-4.82504E-02 4.87043E-02-6.73805E-04 5.07914E-02-3.43184E-03 5.84643E-04
 -1       915-5.14912E-02 5.14824E-02-2.12584E-04 5.60582E-02-7.78944E-04 1.15954E-03
 -1       916-5.69052E-02 5.70094E-02-3.08388E-04 5.64816E-02 5.88664E-04 1.89555E-03
 -1       917-6.30793E-02 6.39897E-02-1.08869E-03 5.48633E-02 1.09760E-04 2.26627E-03
 -1       918-7.38929E-02 7.43667E-02-5.58858E-04 5.93840E-02 6.47930E-04 2.52333E-03
 -1       919-7.62440E-02 7.61669E-02 6.28751E-05 8.89518E-02 3.28664E-04 2.51504E-03
 -1       920-8.21658E-02 8.17903E-02 2.89064E-04 1.00108E-01 1.27646E-03 3.07268E-03
 -1       921-3.02164E-02 2.89986E-02 1.00982E-03 5.03629E-02-2.01676E-03-1.04498E-03
 -1       922-4.87910E-02 4.79194E-02 6.73756E-04 5.37118E-02-1.70971E-03-8.32833E-04
 -1       923-5.21958E-02 5.18985E-02 2.12177E-04 5.78674E-02 2.15388E-04-6.97313E-04
 -1       924-5.76231E-02 5.71771E-02 3.17838E-04 5.70442E-02-3.16454E-04-6.77298E-04
 -1       925-6.50075E-02 6.38556E-02 1.07823E-03 5.67227E-02 3.95519E-04-5.40130E-04
 -1       926-7.39786E-02 7.32034E-02 7.05392E-04 6.04169E-02 1.42210E-03 5.72090E-04
 -1       927-7.67263E-02 7.67096E-02-4.88331E-05 8.69759E-02 1.01562E-03 1.29479E-03
 -1       928-8.34151E-02 8.37188E-02-2.89719E-04 1.00060E-01 1.65221E-03 3.90167E-04
 -1       929 5.29877E-04-4.48825E-04 1.41523E-05 5.62220E-02-4.98886E-04-2.50950E-04
 -1       930 6.81689E-04-2.97507E-04-3.40580E-04 5.55563E-02-6.24553E-04-3.48269E-04
 -1       931 1.02940E-03-1.13280E-04-7.01122E-04 5.51438E-02-1.08549E-03-7.89513E-04
 -1       932 6.29761E-04-7.33974E-05-5.95544E-04 5.45684E-02-1.23627E-03-6.14894E-04
 -1       933 1.33743E-03 6.66474E-05-1.11298E-03 5.49991E-02-9.92272E-04-1.17296E-03
 -1       934 2.21305E-03-6.82946E-04-1.36631E-03 5.36617E-02-1.49429E-03-1.51066E-03
 -1       935 2.89269E-04-2.40404E-04-1.14134E-05 5.61849E-02 5.80150E-04 1.48519E-04
 -1       936 1.96118E-04-5.07074E-04 3.69449E-04 5.53443E-02 5.22442E-04-3.47880E-04
 -1       937-2.66294E-04-3.16282E-04 6.92481E-04 5.44356E-02 4.11938E-04-5.90878E-04
 -1       938-8.95418E-04 4.88110E-05 5.86272E-04 5.38200E-02 3.72284E-04-6.57549E-04
 -1       939-6.03220E-04 2.09872E-05 1.11390E-03 5.41955E-02 1.84685E-04-1.11629E-03
 -1       940-5.79908E-04-7.50549E-04 1.36882E-03 5.25776E-02 6.21406E-04-1.22452E-03
 -1       941-7.29714E-02 7.24835E-02 5.29191E-04 1.11064E-01-3.67215E-04 1.38043E-03
 -1       942-4.67363E-02 4.65383E-02 5.57201E-05 7.33375E-02 2.48390E-03 4.13522E-05
 -1       943-2.20788E-02 2.30624E-02-1.10263E-03 7.70357E-02 2.78563E-03-1.39537E-04
 -1       944-3.56834E-03 3.45870E-03 5.28437E-05 7.80849E-02 1.89542E-03-2.34870E-04
 -1       945 1.41618E-03-1.34974E-03-2.85143E-05 5.91360E-02-5.07322E-06-4.51266E-04
 -1       946 9.17338E-04-2.22053E-04-7.18304E-04 5.72345E-02-1.08562E-03-8.01031E-04
 -1       947 4.44682E-04-1.09627E-04-4.40979E-04 5.73589E-02-1.37738E-03-1.20889E-03
 -1       948-8.50764E-03 9.38562E-03-1.24185E-03 5.46854E-02-2.98658E-03-1.10281E-03
 -1       949-4.67225E-02 4.67657E-02-1.96999E-04 6.07690E-02-1.43042E-03-3.61855E-04
 -1       950-5.95743E-02 6.01421E-02-5.65729E-04 6.04289E-02 1.62441E-04 8.75522E-04
 -1       951-7.43880E-02 7.43143E-02-1.07349E-04 8.81195E-02 5.25750E-04 1.83339E-03
 -1       952 1.18009E-03-8.91051E-04-2.42891E-04 5.77842E-02-3.03637E-04-3.11135E-04
 -1       953-7.80764E-02 7.79482E-02 2.17042E-04 1.05028E-01 1.77144E-04 2.99826E-03
 -1       954-6.23119E-02 6.22888E-02 1.63111E-04 9.02437E-02 1.82881E-03 4.32807E-04
 -1       955-3.60243E-02 3.72251E-02-1.24407E-03 6.89377E-02 3.94994E-03-4.18928E-04
 -1       956-4.83744E-03 5.20736E-03-3.90826E-04 8.47671E-02 1.96817E-03 9.57630E-05
 -1       957-8.54267E-04 6.86589E-04 1.74244E-04 6.84670E-02 1.25284E-03-4.17870E-04
 -1       958 8.90090E-04-3.89471E-04-4.30182E-04 5.76861E-02-1.46187E-03-1.00420E-03
 -1       959 1.73038E-03-4.91518E-04-7.09466E-04 5.82553E-02-1.65030E-03-1.89462E-03
 -1       960-3.15647E-02 3.24243E-02-5.80340E-04 5.56467E-02-2.91488E-03-8.27839E-04
 -1       961-5.37795E-02 5.39113E-02-1.59514E-04 6.13345E-02 3.40837E-04 3.53302E-04
 -1       962-6.66699E-02 6.72069E-02-4.50101E-04 6.42045E-02 1.11219E-03 5.98401E-04
 -1       963-2.86746E-02 2.87197E-02 0.00000E+00 7.11868E-02 6.76561E-04-6.11606E-04
 -1       964-9.12920E-04 1.03434E-03 0.00000E+00 6.47312E-02-1.09123E-04-1.41024E-03
 -1       965-4.00736E-03 3.69063E-03 0.00000E+00 6.80104E-02-4.93084E-04-1.76454E-03
 -1       966-5.33610E-02 5.33246E-02 0.00000E+00 6.45055E-02 7.47388E-04-6.79583E-04
 -1       967-5.78092E-02 5.80172E-02 0.00000E+00 6.70073E-02 1.05739E-03-7.39504E-05
 -1       968-4.36146E-02 4.37448E-02 0.00000E+00 6.56005E-02 1.60530E-03-9.02618E-04
 -1       969-5.01225E-02 5.00330E-02 0.00000E+00 6.63342E-02 2.24441E-03-2.70690E-04
 -1       970-4.64689E-02 4.64788E-02 0.00000E+00 6.56064E-02 4.61089E-04-9.68437E-04
 -1       971-9.70515E-03 9.84579E-03 0.00000E+00 5.96188E-02-1.74796E-03-2.11074E-03
 -1       972-4.09126E-03 4.12092E-03 0.00000E+00 7.74979E-02 4.82356E-04-9.04712E-04
 -1       973-2.51162E-02 2.51758E-02 0.00000E+00 6.66890E-02-8.42291E-04-1.29519E-03
 -1       974 1.51758E-03-1.37023E-03-4.13847E-05 6.03670E-02 1.15677E-03-2.17942E-04
 -1       975-2.99487E-03 3.07522E-03-8.33607E-05 7.75240E-02 1.22739E-03-1.59446E-03
 -1       976-1.56587E-02 1.41502E-02 1.45153E-03 8.39633E-02 2.40494E-03-1.50331E-03
 -1       977-4.78913E-02 4.78406E-02-5.89848E-05 7.41249E-02 4.89035E-03 1.26690E-03
 -1       978-7.15165E-02 7.21458E-02-5.02273E-04 1.10309E-01 2.19818E-03 2.20987E-03
 -1       979-7.71944E-02 7.73238E-02-1.62004E-04 1.05169E-01 2.14121E-03 1.42472E-03
 -1       980-6.81502E-02 6.68648E-02 1.13140E-03 6.28188E-02 2.78901E-03-1.55596E-03
 -1       981-5.47027E-02 5.45713E-02 1.07765E-04 6.27831E-02 3.10444E-04-1.03516E-03
 -1       982-3.22750E-02 3.21431E-02 4.22656E-04 5.84214E-02-1.79403E-03-1.70040E-03
 -1       983-9.21671E-03 7.92351E-03 8.20416E-04 5.54858E-02-1.48442E-03-1.74323E-03
 -1       984-6.13986E-04-1.79367E-04 6.22844E-04 5.64225E-02-4.65322E-04-1.05544E-03
 -1       985 2.94321E-04-1.00956E-03 6.73943E-04 5.69460E-02 8.07816E-06-5.00494E-04
 -1       986 9.80819E-04-1.01072E-03 1.86650E-04 5.78795E-02 6.70066E-04 1.51327E-06
 -1       987-9.33644E-04 1.11738E-03-3.68148E-04 6.99111E-02 1.48920E-03-1.22445E-03
 -1       988-4.08815E-03 3.62944E-03 5.27723E-04 8.50251E-02 1.91965E-03-1.71481E-03
 -1       989-3.93815E-02 3.88925E-02 6.31228E-04 6.97088E-02 3.96788E-03-3.36815E-04
 -1       990-6.07614E-02 6.14414E-02-4.26606E-04 9.51692E-02 4.70905E-03 1.57905E-03
 -1       991-7.17405E-02 7.16070E-02 1.13948E-04 7.96638E-02 2.07013E-03 2.89617E-04
 -1       992-6.04268E-02 5.99779E-02 4.51525E-04 6.26303E-02 5.89454E-04-9.30247E-04
 -1       993-4.73670E-02 4.72720E-02 1.37245E-04 6.33318E-02 1.19907E-04-1.19024E-03
 -1       994 1.96288E-04-7.39517E-04 9.63648E-04 5.70942E-02-5.06192E-04-1.47943E-03
 -1       995 2.68885E-04-6.63588E-04 5.13444E-04 5.71458E-02-4.10219E-04-8.68644E-04
 -1       996-5.85768E-02 5.85415E-02 0.00000E+00 6.94159E-02 3.29419E-03-1.48500E-04
 -1       997-1.74308E-02 1.74938E-02 0.00000E+00 7.78044E-02 1.24348E-03-2.19043E-04
 -1       998-4.50646E-02 4.50125E-02 0.00000E+00 6.54941E-02 1.09449E-03-9.82480E-04
 -1       999-5.26796E-02 5.26363E-02 0.00000E+00 6.57531E-02 1.51816E-03-2.91797E-04
 -1      1000-1.38803E-03 1.31179E-03 0.00000E+00 6.58132E-02-2.50358E-04-1.85553E-03
 -1      1001-6.04120E-03 6.26618E-03 0.00000E+00 6.33288E-02-9.87638E-04-2.00928E-03
 -1      1002-4.25443E-03 4.34834E-03 0.00000E+00 7.81272E-02 1.35412E-03-8.79880E-04
 -1      1003-4.28261E-02 4.27325E-02 0.00000E+00 6.56982E-02 1.36423E-03-7.86802E-04
 -1      1004-1.97512E-02 1.97602E-02 0.00000E+00 7.08736E-02 1.80009E-04-1.06707E-03
 -1      1005-2.00774E-03 2.04118E-03 0.00000E+00 6.79065E-02 9.38550E-04-1.06273E-03
 -1      1006 7.49345E-04-8.16176E-04 3.44953E-05 5.94811E-02 1.25475E-04-8.69479E-04
 -1      1007-7.09654E-02 7.07927E-02-8.82250E-06 1.13795E-01 5.18841E-04 1.98206E-03
 -1      1008 1.01426E-03-1.04235E-03 2.62824E-06 5.72437E-02 1.34104E-04-1.13650E-04
 -1      1009 9.31401E-04-8.74305E-04 1.68365E-08 5.68239E-02 8.17868E-06-4.68545E-05
 -1      1010-7.73587E-02 7.75951E-02 3.15257E-06 1.00264E-01 1.20242E-03 2.00426E-03
 -1      1011-8.43342E-02 8.43638E-02 2.68125E-06 1.03395E-01 1.23062E-03 1.94624E-03
 -1      1012 5.56046E-04-5.13200E-04-2.87784E-05 5.62245E-02-1.86756E-04-4.58044E-04
 -1      1013-5.35124E-02 5.34762E-02-1.50818E-05 9.37301E-02 2.61890E-03 6.56149E-04
 -1      1014-4.74141E-02 4.77488E-02-7.59536E-06 5.65320E-02-1.66229E-03-3.39039E-04
 -1      1015-1.01851E-02 9.93339E-03-2.13037E-06 5.20874E-02-1.51020E-03-1.03774E-03
 -1      1016 1.84119E-03-1.86211E-03 6.23209E-06 6.03611E-02 2.61048E-04-2.90357E-04
 -1      1017-3.30477E-02 3.31168E-02-5.03754E-05 7.26174E-02 4.74496E-03-9.65013E-04
 -1      1018-3.47013E-03 3.40533E-03-1.32145E-06 8.21937E-02 1.53044E-03-1.29616E-03
 -1      1019 2.48381E-04-2.69847E-04 1.77263E-05 5.51034E-02-7.62027E-04-6.62597E-04
 -1      1020-7.28767E-02 7.30818E-02 9.37056E-05 6.19707E-02 1.01078E-03 1.20097E-03
 -1      1021-6.64840E-02 6.63969E-02-3.51620E-05 1.10917E-01 8.10160E-04 1.73931E-03
 -1      1022-7.92745E-02 7.94087E-02-2.12854E-06 1.11228E-01 8.05759E-04 2.26397E-03
 -1      1023-5.85049E-02 5.85420E-02 2.08419E-06 5.76822E-02-7.56774E-05 2.47996E-04
 -1      1024-4.19798E-04 1.49787E-04 9.06355E-06 5.47456E-02-6.62174E-04-8.29274E-04
 -1      1025-2.19872E-03 2.02030E-03-1.94487E-05 7.63592E-02 1.07920E-03-9.05861E-04
 -1      1026 4.85386E-04-6.42725E-04 6.80180E-05 5.64710E-02-7.32842E-04-6.90370E-04
 -1      1027-3.95621E-02 3.96753E-02-2.84900E-05 7.56439E-02 3.55215E-03 2.85636E-04
 -1      1028-2.46698E-05-3.79270E-06-2.42503E-05 6.77887E-02 1.03495E-03-6.27591E-04
 -1      1029-1.78789E-02 1.80577E-02-4.16078E-05 8.18229E-02 4.14093E-03-1.73017E-03
 -1      1030 1.23440E-03-1.65945E-03 8.80380E-07 5.42029E-02-1.01137E-03-1.24042E-03
 -1      1031-4.16002E-03 4.11236E-03 2.70390E-06 8.93986E-02 2.25236E-03-1.57689E-03
 -1      1032-3.35221E-02 3.34002E-02-6.12282E-06 5.24978E-02-3.12346E-03-7.56159E-04
 -1      1033-5.24048E-02 5.24645E-02-1.93601E-06 5.89098E-02 7.38508E-05-8.15481E-05
 -1      1034-6.63559E-02 6.63374E-02 8.88762E-05 5.78032E-02 8.73817E-04 6.16685E-04
 -1      1035-7.49290E-02 7.50309E-02 1.21054E-05 8.21625E-02 6.86500E-04 1.69482E-03
 -1      1036 9.75622E-04-4.46874E-04 1.45497E-05 5.51618E-02-7.48666E-04-1.24766E-03
 -3
    1PSTEP                         4           1           1          
  100CL  101 1.000000000         156                     0    1           1
 -4  FORC        4    1
 -5  F1          1    2    1    0
 -5  F2          1    2    2    0
 -5  F3          1    2    3    0
 -5  ALL         1    2    0    0    1ALL
 -1       881-4.32220E-10 2.77778E+01-1.44806E+02
 -1       882 1.04448E-11 5.55556E+01 1.50154E+02
 -1       883-4.42566E+01-1.97423E+02 2.22350E-01
 -1       884-1.29823E+02-9.21630E+01-1.19089E-01
 -1       885-1.14557E-10 5.55556E+01-3.23093E+02
 -1       886 7.14207E-11 2.77778E+01 4.04024E+02
 -1       887 7.07129E+02-1.71046E+02 5.03196E+02
 -1       888 5.00679E+02-5.65105E+01-4.24935E+02
 -1       889 1.33567E-10 3.42182E-10 1.37656E+02
 -1       890-2.10233E-10 8.35313E-11-2.76202E+02
 -1       891 1.29489E-10-6.93195E-10 8.47610E+01
 -1       892 1.94195E-10-3.29273E-10-6.76296E+01
 -1       893 6.34482E-11 1.44197E-10-2.75174E+02
 -1       894 1.40407E-10-9.12096E-11-9.44679E+01
 -1       895 1.19258E-10-2.96781E-10-2.93339E+02
 -1       896-7.18882E-12-8.24360E-11 6.58529E+01
 -1       897 1.61582E-11-2.35471E-10 2.11673E+02
 -1       898 1.62996E-11-9.34941E-11-2.67872E+02
 -1       899-4.84468E-10-7.72502E-10-1.14445E+02
 -1       900 2.50579E-10-3.82296E-10 7.02897E+01
 -1       901 4.35518E-10-2.97862E-10 4.69750E+02
 -1       902 1.23519E-10-1.78317E-10-3.15421E+02
 -1       903-1.24169E-10-1.49768E-10 8.92602E+01
 -1       904 6.00961E-11 1.01814E-11 1.32678E+02
 -1       905 2.54455E-10-2.37741E-10 3.48746E+02
 -1       906-7.83131E-11-1.61806E-10-7.52343E+01
 -1       907 1.58285E-11-1.61989E-10 1.83116E+01
 -1       908 3.16629E-12-3.27565E-11 2.02868E+02
 -1       909-5.46353E-10 8.33333E+01-1.58946E+02
 -1       910-4.71923E-10 8.33333E+01 1.35129E+02
 -1       911-1.07018E-09 8.33333E+01-1.04311E+02
 -1       912-7.54765E-10 8.33333E+01 2.76416E+01
 -1       913 1.81484E-12 7.00124E-13 1.33178E+02
 -1       914 3.67715E-11 1.08792E-10-7.16577E+01
 -1       915 2.71255E-10-1.64081E-10 1.31505E+01
 -1       916-1.92073E-10 3.03239E-10-1.84635E+01
 -1       917 3.28126E-10 6.11213E-10 4.33340E+01
 -1       918-6.02577E-10-2.60958E-10-2.55016E+02
 -1       919-5.82146E-10-9.73918E-10-1.40736E+02
 -1       920-4.59645E-10 2.22444E-09 2.48143E+02
 -1       921-1.12295E-11 3.60953E-11-1.74068E+02
 -1       922-6.36214E-11 6.80996E-11-1.49980E+02
 -1       923-1.39107E-10-4.64476E-10 2.03479E+02
 -1       924-4.77708E-10 5.15146E-10-7.54243E+01
 -1       925-4.06110E-10-1.52280E-10 1.91280E+02
 -1       926-2.20246E-10-4.76656E-10 4.09832E+02
 -1       927-1.21086E-09 7.97996E-10-2.59625E+02
 -1       928 3.28156E-10 2.41539E-09-6.31824E+01
 -1       929-3.39994E+01-5.63011E+01-2.70856E+02
 -1       930 1.17744E+02-5.34576E+01 1.30478E+02
 -1       931-2.89951E+02 3.24925E+01 1.61711E+01
 -1       932 5.35343E+01 5.96362E+02 1.54259E+02
 -1       933-4.20158E+02-1.08306E+03-8.62083E+02
 -1       934-6.83013E+01 6.34918E+02 3.72908E+02
 -1       935-8.35356E-01 1.78716E+01 1.87013E+02
 -1       936-1.18405E+02-1.20827E+02-6.97858E+01
 -1       937 3.51544E+00 4.71121E+01-3.04079E+01
 -1       938 6.29434E+02 4.13198E+02-3.24179E+02
 -1       939-1.47555E+03-9.70506E+02 9.76769E+02
 -1       940 5.69246E+02 5.59344E+02-3.10250E+02
 -1       941-1.45832E-09 1.99061E-09-3.07027E+02
 -1       942 4.44258E-10-1.05758E-09 1.75850E+03
 -1       943-3.02990E-12 5.59160E-11 6.34878E+02
 -1       944-3.79540E-11-3.76845E-11 2.14291E+01
 -1       945 8.72362E-11-1.74314E-10-6.50709E+02
 -1       946-9.15985E-11 3.16103E-11 1.61637E+02
 -1       947-8.66117E-12 2.68059E-12 7.89752E+02
 -1       948 1.72248E-11-7.85316E-12 1.37564E+03
 -1       949-1.44495E-10-3.23162E-11 3.06698E+02
 -1       950-9.64249E-10 5.57243E-11-1.61818E+01
 -1       951 1.03305E-09 1.36058E-09 9.86386E+02
 -1       952 3.14304E-13 1.79354E-11-3.86528E+02
 -1       953-3.08476E-10-1.04835E-10 5.39108E+01
 -1       954-1.29661E-10-1.50747E-09-1.53920E+03
 -1       955-4.53455E-12-5.37022E-10 2.13166E+02
 -1       956 7.49253E-11-9.32271E-11-1.07893E+02
 -1       957-1.46212E-10-1.81519E-10 4.64810E+02
 -1       958-1.06186E-11 5.63698E-11-2.01758E+02
 -1       959-3.45197E-11-9.57524E-11-2.71226E+03
 -1       960 8.07245E-11 2.11987E-10-4.32614E+02
 -1       961 1.01816E-10-8.56291E-10-1.88601E+02
 -1       962 1.96493E-10-1.96983E-09-1.15566E+02
 -1       963-1.12857E-11-3.26749E-10-1.31699E+02
 -1       964-1.48797E-10-7.80659E-11-5.82081E+02
 -1       965 4.49170E-11 9.59289E-12 1.81978E+03
 -1       966-1.61148E-10 4.11316E-10 7.17462E+02
 -1       967-5.71196E-10-8.73397E-10-1.29065E+03
 -1       968 7.28472E-10-5.57951E-10-2.82039E+02
 -1       969 4.75556E-10-9.81871E-10-1.15239E+03
 -1       970 1.55797E-10 2.43848E-10 1.90638E+02
 -1       971 3.99283E-11-1.82954E-10 5.10043E+02
 -1       972-1.83015E-10-2.50582E-10-2.01859E+02
 -1       973-5.27368E-10 9.16966E-11-5.28958E+02
 -1       974 6.27612E-11-4.20457E-11 2.72288E+02
 -1       975-3.22127E-11 3.66538E-10 2.34891E+01
 -1       976-4.32311E-10 5.20104E-10-4.90435E+02
 -1       977-3.12481E-10-5.87039E-10-1.95426E+03
 -1       978-1.40546E-09-3.31971E-10 9.44811E+01
 -1       979 2.16650E-09-2.34086E-09-1.41476E+02
 -1       980 1.27112E-10 7.86077E-10-5.54625E+02
 -1       981-2.74784E-10 6.29781E-10-2.61556E+01
 -1       982-1.16000E-10-4.47600E-11 4.91932E+02
 -1       983-4.07105E-12 1.42238E-10-1.46804E+03
 -1       984-8.85504E-11-5.27704E-11-8.23135E+02
 -1       985-7.16577E-11-7.43199E-11-7.27410E+01
 -1       986 3.27658E-11 7.94203E-12 4.91885E+02
 -1       987-2.07307E-10-4.83812E-10-6.22188E+02
 -1       988-3.92066E-10 5.72064E-10 2.65096E+02
 -1       989 1.52382E-10-1.09103E-09 3.95831E+02
 -1       990 2.41476E-10-5.90152E-11 1.23674E+03
 -1       991 6.04352E-10-1.51129E-09-4.29675E+02
 -1       992-7.42928E-10 3.89260E-10 2.10728E+02
 -1       993-3.99724E-11 6.85418E-10-1.40004E+02
 -1       994-1.75290E-11 7.01626E-12 2.60154E+03
 -1       995 1.62589E-11-2.31093E-11 3.67871E+02
 -1       996 6.62818E-10-4.42711E-10 1.86834E+03
 -1       997-1.76885E-10-2.21841E-10 1.27834E+02
 -1       998 4.10653E-10-1.71851E-10-4.31550E+02
 -1       999 1.60381E-10 3.38044E-10 5.88653E+01
 -1      1000 2.52108E-11 8.53081E-12-1.86968E+03
 -1      1001 1.14217E-10 2.16946E-11-5.13897E+02
 -1      1002 3.91712E-11-5.29180E-10 2.24973E+02
 -1      1003-2.08252E-10 6.39570E-10 2.81522E+02
 -1      1004 2.40960E-10-4.33270E-10 5.20807E+02
 -1      1005 1.25940E-10 2.34443E-11 7.27228E+02
 -1      1006-1.56018E-11 3.94681E-11-2.08121E+01
 -1      1007-5.36522E-10 3.23154E-10 1.08695E-09
 -1      1008 6.50283E-11 1.62495E-10-7.98650E-12
 -1      1009-1.41043E-12 9.40332E-11-8.43511E-12
 -1      1010 1.04719E-09-7.35984E-10 5.77183E-10
 -1      1011 1.36377E-09-1.81964E-09-4.58812E-10
 -1      1012 1.07442E-11-1.13004E-10-1.52269E-11
 -1      1013-1.76490E-10-1.31942E-09-1.06454E-09
 -1      1014 4.50083E-10-6.40957E-10 5.95817E-11
 -1      1015 4.32022E-11-6.89510E-11-3.41061E-12
 -1      1016-1.53053E-10 1.22406E-10-1.94404E-11
 -1      1017-5.14623E-10 9.52829E-10-9.72022E-11
 -1      1018 8.81232E-11-3.20477E-10-6.32738E-11
 -1      1019 5.03625E-12-1.45819E-12 6.70184E-11
 -1      1020 1.10090E-10-7.62157E-10-2.09077E-10
 -1      1021 5.51362E-10-3.88201E-10-3.61354E-10
 -1      1022-1.25935E-10-2.05982E-09 4.46548E-10
 -1      1023 1.12708E-09-1.72949E-09 2.72395E-10
 -1      1024-4.48885E-12 1.19229E-11-4.90276E-12
 -1      1025-1.68714E-10-6.69649E-11 1.91562E-10
 -1      1026-1.40859E-11 2.83039E-11-2.79243E-12
 -1      1027 1.81802E-10 5.13203E-10 3.70079E-10
 -1      1028 1.00223E-10-2.94857E-10 2.05205E-11
 -1      1029 1.08799E-09 3.09228E-11-3.89215E-10
 -1      1030 3.16382E-11-4.46706E-11 1.33582E-12
 -1      1031 1.11427E-10 2.88718E-10 3.81277E-10
 -1      1032-6.12971E-11-1.08802E-10-3.98543E-11
 -1      1033 1.68231E-10 2.33448E-10 2.00828E-10
 -1      1034-2.34306E-10 1.95176E-09 3.34552E-10
 -1      1035-3.43420E-10-7.44826E-10-1.47823E-09
 -1      1036 4.63629E-13 9.74865E-12-1.08728E-11
 -3
    1PSTEP                         5           1           1          
  100CL  101 1.000000000         156                     0    1           1
 -4  ERROR       1    1
 -5  STR(%)      1    1    0    0
 -1       881 0.00000E+00
 -1       882 0.00000E+00
 -1       883 0.00000E+00
 -1       884 0.00000E+00
 -1       885 0.00000E+00
 -1       886 0.00000E+00
 -1       887 0.00000E+00
 -1       888 0.00000E+00
 -1       889 0.00000E+00
 -1       890 0.00000E+00
 -1       891 0.00000E+00
 -1       892 0.00000E+00
 -1       893 0.00000E+00
 -1       894 0.00000E+00
 -1       895 0.00000E+00
 -1       896 0.00000E+00
 -1       897 0.00000E+00
 -1       898 0.00000E+00
 -1       899 0.00000E+00
 -1       900 0.00000E+00
 -1       901 0.00000E+00
 -1       902 0.00000E+00
 -1       903 0.00000E+00
 -1       904 0.00000E+00
 -1       905 0.00000E+00
 -1       906 0.00000E+00
 -1       907 0.00000E+00
 -1       908 0.00000E+00
 -1       909 0.00000E+00
 -1       910 0.00000E+00
 -1       911 0.00000E+00
 -1       912 0.00000E+00
 -1       913 0.00000E+00
 -1       914 0.00000E+00
 -1       915 0.00000E+00
 -1       916 0.00000E+00
 -1       917 0.00000E+00
 -1       918 0.00000E+00
 -1       919 0.00000E+00
 -1       920 0.00000E+00
 -1       921 0.00000E+00
 -1       922 0.00000E+00
 -1       923 0.00000E+00
 -1       924 0.00000E+00
 -1       925 0.00000E+00
 -1       926 0.00000E+00
 -1       927 0.00000E+00
 -1       928 0.00000E+00
 -1       929 0.00000E+00
 -1       930 0.00000E+00
 -1       931 0.00000E+00
 -1       932 0.00000E+00
 -1       933 0.00000E+00
 -1       934 0.00000E+00
 -1       935 0.00000E+00
 -1       936 0.00000E+00
 -1       937 0.00000E+00
 -1       938 0.00000E+00
 -1       939 0.00000E+00
 -1       940 0.00000E+00
 -1       941 0.00000E+00
 -1       942 0.00000E+00
 -1       943 0.00000E+00
 -1       944 0.00000E+00
 -1       945 0.00000E+00
 -1       946 0.00000E+00
 -1       947 0.00000E+00
 -1       948 0.00000E+00
 -1       949 0.00000E+00
 -1       950 0.00000E+00
 -1       951 0.00000E+00
 -1       952 0.00000E+00
 -1       953 0.00000E+00
 -1       954 0.00000E+00
 -1       955 0.00000E+00
 -1       956 0.00000E+00
 -1       957 0.00000E+00
 -1       958 0.00000E+00
 -1       959 0.00000E+00
 -1       960 0.00000E+00
 -1       961 0.00000E+00
 -1       962 0.00000E+00
 -1       963 0.00000E+00
 -1       964 0.00000E+00
 -1       965 0.00000E+00
 -1       966 0.00000E+00
 -1       967 0.00000E+00
 -1       968 0.00000E+00
 -1       969 0.00000E+00
 -1       970 0.00000E+00
 -1       971 0.00000E+00
 -1       972 0.00000E+00
 -1       973 0.00000E+00
 -1       974 0.00000E+00
 -1       975 0.00000E+00
 -1       976 0.00000E+00
 -1       977 0.00000E+00
 -1       978 0.00000E+00
 -1       979 0.00000E+00
 -1       980 0.00000E+00
 -1       981 0.00000E+00
 -1       982 0.00000E+00
 -1       983 0.00000E+00
 -1       984 0.00000E+00
 -1       985 0.00000E+00
 -1       986 0.00000E+00
 -1       987 0.00000E+00
 -1       988 0.00000E+00
 -1       989 0.00000E+00
 -1       990 0.00000E+00
 -1       991 0.00000E+00
 -1       992 0.00000E+00
 -1       993 0.00000E+00
 -1       994 0.00000E+00
 -1       995 0.00000E+00
 -1       996 0.00000E+00
 -1       997 0.00000E+00
 -1       998 0.00000E+00
 -1       999 0.00000E+00
 -1      1000 0.00000E+00
 -1      1001 0.00000E+00
 -1      1002 0.00000E+00
 -1      1003 0.00000E+00
 -1      1004 0.00000E+00
 -1      1005 0.00000E+00
 -1      1006 0.00000E+00
 -1      1007 0.00000E+00
 -1      1008 0.00000E+00
 -1      1009 0.00000E+00
 -1      1010 0.00000E+00
 -1      1011 0.00000E+00
 -1      1012 0.00000E+00
 -1      1013 0.00000E+00
 -1      1014 0.00000E+00
 -1      1015 0.00000E+00
 -1      1016 0.00000E+00
 -1      1017 0.00000E+00
 -1      1018 0.00000E+00
 -1      1019 0.00000E+00
 -1      1020 0.00000E+00
 -1      1021 0.00000E+00
 -1      1022 0.00000E+00
 -1      1023 0.00000E+00
 -1      1024 0.00000E+00
 -1      1025 0.00000E+00
 -1      1026 0.00000E+00
 -1      1027 0.00000E+00
 -1      1028 0.00000E+00
 -1      1029 0.00000E+00
 -1      1030 0.00000E+00
 -1      1031 0.00000E+00
 -1      1032 0.00000E+00
 -1      1033 0.00000E+00
 -1      1034 0.00000E+00
 -1      1035 0.00000E+00
 -1      1036 0.00000E+00
 -3
 9999
