    1C
    1UHash: PXJD0WWr, Date: 03/11/2021, Unit system: MM_TON_S_C         
    1UUSER                                                              
    1UDATE              11.march.2021                                   
    1UTIME              20:38:41                                        
    1UHOST                                                              
    1UPGM               CalculiX                                        
    1UVERSION           Version 2.10                             
    1UCOMPILETIME       Sa 5. MÃ¤r 12:23:33 CET 2016                    
    1UDIR                                                               
    1UDBN                                                               
    1UMAT    1RUBBER                                                    
    2C                           339                                     1
 -1       380 4.80000E+01 4.40000E+01 0.00000E+00
 -1       381 4.80000E+01 4.40000E+01 5.00000E+00
 -1       382 0.00000E+00 0.00000E+00 0.00000E+00
 -1       383 0.00000E+00 0.00000E+00 5.00000E+00
 -1       384 4.80000E+01 6.00000E+01 0.00000E+00
 -1       385 4.80000E+01 6.00000E+01 5.00000E+00
 -1       386 0.00000E+00 4.40000E+01 0.00000E+00
 -1       387 0.00000E+00 4.40000E+01 5.00000E+00
 -1       388 4.00000E+01 3.66667E+01 0.00000E+00
 -1       389 3.20000E+01 2.93333E+01 0.00000E+00
 -1       390 2.40000E+01 2.20000E+01 0.00000E+00
 -1       391 1.60000E+01 1.46667E+01 0.00000E+00
 -1       392 8.00000E+00 7.33333E+00 0.00000E+00
 -1       393 4.00000E+01 3.66667E+01 5.00000E+00
 -1       394 3.20000E+01 2.93333E+01 5.00000E+00
 -1       395 2.40000E+01 2.20000E+01 5.00000E+00
 -1       396 1.60000E+01 1.46667E+01 5.00000E+00
 -1       397 8.00000E+00 7.33333E+00 5.00000E+00
 -1       398 4.80000E+01 5.20000E+01 0.00000E+00
 -1       399 4.80000E+01 5.20000E+01 5.00000E+00
 -1       400 1.20000E+01 4.80000E+01 0.00000E+00
 -1       401 2.40000E+01 5.20000E+01 0.00000E+00
 -1       402 3.60000E+01 5.60000E+01 0.00000E+00
 -1       403 1.20000E+01 4.80000E+01 5.00000E+00
 -1       404 2.40000E+01 5.20000E+01 5.00000E+00
 -1       405 3.60000E+01 5.60000E+01 5.00000E+00
 -1       406 0.00000E+00 1.10000E+01 0.00000E+00
 -1       407 0.00000E+00 2.20000E+01 0.00000E+00
 -1       408 0.00000E+00 3.30000E+01 0.00000E+00
 -1       409 0.00000E+00 1.10000E+01 5.00000E+00
 -1       410 0.00000E+00 2.20000E+01 5.00000E+00
 -1       411 0.00000E+00 3.30000E+01 5.00000E+00
 -1       412 3.80065E+01 4.67331E+01 0.00000E+00
 -1       413 2.09537E+01 3.61194E+01 0.00000E+00
 -1       414 6.62674E+00 2.71099E+01 0.00000E+00
 -1       415 9.61877E+00 3.62657E+01 0.00000E+00
 -1       416 7.75803E+00 1.77959E+01 0.00000E+00
 -1       417 3.05955E+01 4.02121E+01 0.00000E+00
 -1       418 1.49260E+01 2.57683E+01 0.00000E+00
 -1       419 1.14120E+01 2.54818E+01 5.00000E+00
 -1       420 2.54557E+01 4.04878E+01 5.00000E+00
 -1       421 3.70129E+01 4.65978E+01 5.00000E+00
 -1       422 1.14283E+01 3.72313E+01 5.00000E+00
 -1       423 7.18583E+00 1.63756E+01 5.00000E+00
 -1       424 2.08432E+01 3.11517E+01 5.00000E+00
 -1       425 4.76644E+00 2.94410E+01 2.49260E+00
 -1       426 1.90846E+01 4.34778E+01 2.67109E+00
 -1       427 4.07939E+01 4.27991E+01 2.51110E+00
 -1       428 4.39936E+00 1.43227E+01 2.48868E+00
 -1       429 4.16500E+01 5.27551E+01 2.48414E+00
 -1       430 2.72183E+01 3.45384E+01 2.49888E+00
 -1       431 1.80600E+01 2.26208E+01 2.46317E+00
 -1       432 3.44644E+01 3.83298E+01 2.39541E+00
 -1       433 5.28484E+00 2.17785E+01 2.44780E+00
 -1       434 3.47176E+00 7.98777E+00 2.50831E+00
 -1       435 8.74601E+00 4.20323E+01 2.48626E+00
 -1       436 3.13696E+01 4.86081E+01 2.53841E+00
 -1       437 4.45190E+00 3.72323E+01 2.46029E+00
 -1       438 2.37781E+01 2.81748E+01 2.59705E+00
 -1       439 1.24811E+01 1.89365E+01 2.48864E+00
 -1       440 4.38562E+01 4.75927E+01 2.42804E+00
 -1       441 9.79015E+00 1.41780E+01 2.49064E+00
 -1       442 4.80000E+01 4.40000E+01 2.50000E+00
 -1       443 0.00000E+00 0.00000E+00 2.50000E+00
 -1       444 4.40000E+01 4.03333E+01 0.00000E+00
 -1       445 3.60000E+01 3.30000E+01 0.00000E+00
 -1       446 2.80000E+01 2.56667E+01 0.00000E+00
 -1       447 2.00000E+01 1.83333E+01 0.00000E+00
 -1       448 1.20000E+01 1.10000E+01 0.00000E+00
 -1       449 4.00000E+00 3.66667E+00 0.00000E+00
 -1       450 4.40000E+01 4.03333E+01 5.00000E+00
 -1       451 3.60000E+01 3.30000E+01 5.00000E+00
 -1       452 2.80000E+01 2.56667E+01 5.00000E+00
 -1       453 2.00000E+01 1.83333E+01 5.00000E+00
 -1       454 1.20000E+01 1.10000E+01 5.00000E+00
 -1       455 4.00000E+00 3.66667E+00 5.00000E+00
 -1       456 4.80000E+01 6.00000E+01 2.50000E+00
 -1       457 4.80000E+01 5.60000E+01 0.00000E+00
 -1       458 4.80000E+01 4.80000E+01 0.00000E+00
 -1       459 4.80000E+01 5.60000E+01 5.00000E+00
 -1       460 4.80000E+01 4.80000E+01 5.00000E+00
 -1       461 0.00000E+00 4.40000E+01 2.50000E+00
 -1       462 6.00000E+00 4.60000E+01 0.00000E+00
 -1       463 1.80000E+01 5.00000E+01 0.00000E+00
 -1       464 3.00000E+01 5.40000E+01 0.00000E+00
 -1       465 4.20000E+01 5.80000E+01 0.00000E+00
 -1       466 6.00000E+00 4.60000E+01 5.00000E+00
 -1       467 1.80000E+01 5.00000E+01 5.00000E+00
 -1       468 3.00000E+01 5.40000E+01 5.00000E+00
 -1       469 4.20000E+01 5.80000E+01 5.00000E+00
 -1       470 0.00000E+00 5.50000E+00 0.00000E+00
 -1       471 0.00000E+00 1.65000E+01 0.00000E+00
 -1       472 0.00000E+00 2.75000E+01 0.00000E+00
 -1       473 0.00000E+00 3.85000E+01 0.00000E+00
 -1       474 0.00000E+00 5.50000E+00 5.00000E+00
 -1       475 0.00000E+00 1.65000E+01 5.00000E+00
 -1       476 0.00000E+00 2.75000E+01 5.00000E+00
 -1       477 0.00000E+00 3.85000E+01 5.00000E+00
 -1       478 4.40000E+01 4.03333E+01 2.50000E+00
 -1       479 3.60000E+01 3.30000E+01 2.50000E+00
 -1       480 3.20000E+01 2.93333E+01 2.50000E+00
 -1       481 2.80000E+01 2.56667E+01 2.50000E+00
 -1       482 2.00000E+01 1.83333E+01 2.50000E+00
 -1       483 2.40000E+01 2.20000E+01 2.50000E+00
 -1       484 1.20000E+01 1.10000E+01 2.50000E+00
 -1       485 1.60000E+01 1.46667E+01 2.50000E+00
 -1       486 4.00000E+00 3.66667E+00 2.50000E+00
 -1       487 8.00000E+00 7.33333E+00 2.50000E+00
 -1       488 4.00000E+01 3.66667E+01 2.50000E+00
 -1       489 4.80000E+01 5.20000E+01 2.50000E+00
 -1       490 4.80000E+01 5.60000E+01 2.50000E+00
 -1       491 4.80000E+01 4.80000E+01 2.50000E+00
 -1       492 6.00000E+00 4.60000E+01 2.50000E+00
 -1       493 1.80000E+01 5.00000E+01 2.50000E+00
 -1       494 2.40000E+01 5.20000E+01 2.50000E+00
 -1       495 3.00000E+01 5.40000E+01 2.50000E+00
 -1       496 4.20000E+01 5.80000E+01 2.50000E+00
 -1       497 3.60000E+01 5.60000E+01 2.50000E+00
 -1       498 1.20000E+01 4.80000E+01 2.50000E+00
 -1       499 0.00000E+00 5.50000E+00 2.50000E+00
 -1       500 0.00000E+00 1.65000E+01 2.50000E+00
 -1       501 0.00000E+00 2.20000E+01 2.50000E+00
 -1       502 0.00000E+00 2.75000E+01 2.50000E+00
 -1       503 0.00000E+00 3.85000E+01 2.50000E+00
 -1       504 0.00000E+00 3.30000E+01 2.50000E+00
 -1       505 0.00000E+00 1.10000E+01 2.50000E+00
 -1       506 3.90033E+01 4.16999E+01 0.00000E+00
 -1       507 4.30033E+01 4.53666E+01 0.00000E+00
 -1       508 2.24769E+01 2.90597E+01 0.00000E+00
 -1       509 2.64769E+01 3.27264E+01 0.00000E+00
 -1       510 4.00000E+00 9.16667E+00 0.00000E+00
 -1       511 3.31337E+00 3.00549E+01 0.00000E+00
 -1       512 3.31337E+00 2.45549E+01 0.00000E+00
 -1       513 4.80938E+00 4.01328E+01 0.00000E+00
 -1       514 4.80938E+00 3.46328E+01 0.00000E+00
 -1       515 8.12276E+00 3.16878E+01 0.00000E+00
 -1       516 1.08094E+01 4.21328E+01 0.00000E+00
 -1       517 2.24769E+01 4.40597E+01 0.00000E+00
 -1       518 1.64769E+01 4.20597E+01 0.00000E+00
 -1       519 3.70033E+01 5.13666E+01 0.00000E+00
 -1       520 3.10033E+01 4.93666E+01 0.00000E+00
 -1       521 4.20000E+01 5.40000E+01 0.00000E+00
 -1       522 4.30033E+01 4.93666E+01 0.00000E+00
 -1       523 3.87902E+00 1.43979E+01 0.00000E+00
 -1       524 7.87902E+00 1.25646E+01 0.00000E+00
 -1       525 1.18790E+01 1.62313E+01 0.00000E+00
 -1       526 3.87902E+00 1.98979E+01 0.00000E+00
 -1       527 3.12977E+01 3.47727E+01 0.00000E+00
 -1       528 3.52977E+01 3.84394E+01 0.00000E+00
 -1       529 1.54630E+01 2.02175E+01 0.00000E+00
 -1       530 1.94630E+01 2.38841E+01 0.00000E+00
 -1       531 3.43010E+01 4.34726E+01 0.00000E+00
 -1       532 1.79399E+01 3.09438E+01 0.00000E+00
 -1       533 2.57746E+01 3.81657E+01 0.00000E+00
 -1       534 2.72977E+01 4.61061E+01 0.00000E+00
 -1       535 7.19239E+00 2.24529E+01 0.00000E+00
 -1       536 1.52862E+01 3.61925E+01 0.00000E+00
 -1       537 1.13420E+01 2.17821E+01 0.00000E+00
 -1       538 1.07764E+01 2.64391E+01 0.00000E+00
 -1       539 1.22724E+01 3.10170E+01 0.00000E+00
 -1       540 4.00000E+00 9.16667E+00 5.00000E+00
 -1       541 1.77060E+01 2.37409E+01 5.00000E+00
 -1       542 1.37060E+01 2.00742E+01 5.00000E+00
 -1       543 3.27279E+01 3.85772E+01 5.00000E+00
 -1       544 2.87279E+01 3.49106E+01 5.00000E+00
 -1       545 4.25065E+01 4.52989E+01 5.00000E+00
 -1       546 3.85065E+01 4.16322E+01 5.00000E+00
 -1       547 3.12343E+01 4.35428E+01 5.00000E+00
 -1       548 4.25065E+01 4.92989E+01 5.00000E+00
 -1       549 4.20000E+01 5.40000E+01 5.00000E+00
 -1       550 3.05065E+01 4.92989E+01 5.00000E+00
 -1       551 2.47279E+01 4.62439E+01 5.00000E+00
 -1       552 1.87279E+01 4.42439E+01 5.00000E+00
 -1       553 5.71414E+00 4.06156E+01 5.00000E+00
 -1       554 1.17141E+01 4.26156E+01 5.00000E+00
 -1       555 5.71414E+00 3.51156E+01 5.00000E+00
 -1       556 5.70602E+00 2.37409E+01 5.00000E+00
 -1       557 5.70602E+00 2.92409E+01 5.00000E+00
 -1       558 1.15929E+01 1.55211E+01 5.00000E+00
 -1       559 7.59292E+00 1.18544E+01 5.00000E+00
 -1       560 2.64216E+01 3.02425E+01 5.00000E+00
 -1       561 2.24216E+01 2.65759E+01 5.00000E+00
 -1       562 2.31495E+01 3.58198E+01 5.00000E+00
 -1       563 3.65065E+01 5.12989E+01 5.00000E+00
 -1       564 1.14202E+01 3.13565E+01 5.00000E+00
 -1       565 3.59292E+00 1.36878E+01 5.00000E+00
 -1       566 3.59292E+00 1.91878E+01 5.00000E+00
 -1       567 1.61276E+01 2.83167E+01 5.00000E+00
 -1       568 1.84420E+01 3.88595E+01 5.00000E+00
 -1       569 9.29894E+00 2.09287E+01 5.00000E+00
 -1       570 1.61357E+01 3.41915E+01 5.00000E+00
 -1       571 3.36848E+01 5.23040E+01 1.26920E+00
 -1       572 3.88250E+01 5.43775E+01 1.24207E+00
 -1       573 3.65098E+01 5.06816E+01 2.51127E+00
 -1       574 3.36848E+01 5.23040E+01 3.76920E+00
 -1       575 3.88250E+01 5.43775E+01 3.74207E+00
 -1       576 2.48400E+01 4.18450E+01 1.33555E+00
 -1       577 2.22702E+01 4.19828E+01 3.83555E+00
 -1       578 2.80256E+01 4.03500E+01 2.50000E+00
 -1       579 2.00191E+01 3.97986E+01 1.33555E+00
 -1       580 2.32047E+01 3.83036E+01 2.50000E+00
 -1       581 2.38322E+00 3.12205E+01 3.74630E+00
 -1       582 2.38322E+00 3.12205E+01 1.24630E+00
 -1       583 2.38322E+00 2.57205E+01 1.24630E+00
 -1       584 7.94009E+00 3.72318E+01 3.73014E+00
 -1       585 2.22595E+00 3.51161E+01 3.73014E+00
 -1       586 8.09736E+00 3.33361E+01 3.74630E+00
 -1       587 4.60917E+00 3.33366E+01 2.47644E+00
 -1       588 1.43517E+01 3.98718E+01 1.33555E+00
 -1       589 1.05235E+01 3.67485E+01 2.50000E+00
 -1       590 1.52564E+01 4.03545E+01 3.83555E+00
 -1       591 1.61910E+01 3.66753E+01 2.50000E+00
 -1       592 2.76848E+01 5.03040E+01 1.26920E+00
 -1       593 1.05154E+01 3.08737E+01 2.50000E+00
 -1       594 1.52310E+01 3.37087E+01 2.50000E+00
 -1       595 4.03970E+01 3.97329E+01 3.75555E+00
 -1       596 3.76292E+01 4.05645E+01 2.45326E+00
 -1       597 3.72322E+01 3.74982E+01 3.69771E+00
 -1       598 4.03970E+01 3.97329E+01 1.25555E+00
 -1       599 3.72322E+01 3.74982E+01 1.19771E+00
 -1       600 1.39153E+01 4.27550E+01 2.57868E+00
 -1       601 1.03730E+01 4.50161E+01 3.74313E+00
 -1       602 1.55423E+01 4.57389E+01 3.83555E+00
 -1       603 1.00871E+01 3.96318E+01 3.74313E+00
 -1       604 2.22595E+00 4.06161E+01 3.73014E+00
 -1       605 2.76848E+01 5.03040E+01 3.76920E+00
 -1       606 3.89034E+01 4.46984E+01 3.75555E+00
 -1       607 4.43970E+01 4.33996E+01 3.75555E+00
 -1       608 2.19968E+00 1.81614E+01 1.24434E+00
 -1       609 2.64242E+00 2.18892E+01 1.22390E+00
 -1       610 4.84210E+00 1.80506E+01 2.46824E+00
 -1       611 2.19968E+00 1.81614E+01 3.74434E+00
 -1       612 2.64242E+00 2.18892E+01 3.72390E+00
 -1       613 3.46881E+01 4.76706E+01 1.26920E+00
 -1       614 3.09825E+01 4.44101E+01 1.26920E+00
 -1       615 1.78846E+01 2.84600E+01 2.50000E+00
 -1       616 1.31690E+01 2.56250E+01 2.50000E+00
 -1       617 3.32322E+01 3.38316E+01 1.19771E+00
 -1       618 3.32322E+01 3.38316E+01 3.69771E+00
 -1       619 2.96091E+01 3.19359E+01 1.24944E+00
 -1       620 3.08414E+01 3.64341E+01 2.44714E+00
 -1       621 2.96091E+01 3.19359E+01 3.74944E+00
 -1       622 3.93315E+01 4.96764E+01 3.74207E+00
 -1       623 4.48250E+01 5.23775E+01 3.74207E+00
 -1       624 2.08985E+01 3.36356E+01 2.50000E+00
 -1       625 8.08924E+00 2.74614E+01 3.74630E+00
 -1       626 7.19260E+00 3.28533E+01 1.24630E+00
 -1       627 2.78890E+01 2.87541E+01 1.29852E+00
 -1       628 2.23659E+01 3.21471E+01 1.29852E+00
 -1       629 2.54982E+01 3.13566E+01 2.54796E+00
 -1       630 2.40860E+01 3.53289E+01 1.24944E+00
 -1       631 2.63370E+01 3.75131E+01 3.74944E+00
 -1       632 2.40307E+01 3.28451E+01 3.74944E+00
 -1       633 2.15423E+01 4.77389E+01 1.33555E+00
 -1       634 4.48250E+01 5.63775E+01 3.74207E+00
 -1       635 4.48250E+01 5.23775E+01 1.24207E+00
 -1       636 4.48250E+01 5.63775E+01 1.24207E+00
 -1       637 3.57387E+01 4.24638E+01 3.69771E+00
 -1       638 9.01939E+00 2.62958E+01 2.50000E+00
 -1       639 9.58504E+00 2.16388E+01 2.50000E+00
 -1       640 1.73588E+00 9.49388E+00 1.25416E+00
 -1       641 5.73588E+00 7.66055E+00 1.25416E+00
 -1       642 1.73588E+00 3.99388E+00 1.25416E+00
 -1       643 8.89507E+00 1.07557E+01 3.74532E+00
 -1       644 8.48799E+00 1.52768E+01 3.74532E+00
 -1       645 1.28951E+01 1.44223E+01 3.74532E+00
 -1       646 2.19968E+00 1.26614E+01 1.24434E+00
 -1       647 2.78890E+01 2.87541E+01 3.79852E+00
 -1       648 2.23107E+01 2.96633E+01 3.79852E+00
 -1       649 2.99601E+01 3.94088E+01 3.69771E+00
 -1       650 4.59281E+01 4.97963E+01 1.21402E+00
 -1       651 4.59281E+01 4.97963E+01 3.71402E+00
 -1       652 4.59281E+01 4.57963E+01 1.21402E+00
 -1       653 5.73588E+00 7.66055E+00 3.75416E+00
 -1       654 1.03730E+01 4.50161E+01 1.24313E+00
 -1       655 4.37301E+00 4.30161E+01 1.24313E+00
 -1       656 1.55423E+01 4.57389E+01 1.33555E+00
 -1       657 1.42406E+01 1.68016E+01 1.24432E+00
 -1       658 1.37036E+01 2.23524E+01 1.24432E+00
 -1       659 1.01196E+01 1.83662E+01 1.24432E+00
 -1       660 2.22595E+00 3.51161E+01 1.23014E+00
 -1       661 2.22595E+00 4.06161E+01 1.23014E+00
 -1       662 1.28951E+01 1.44223E+01 1.24532E+00
 -1       663 8.77409E+00 1.59869E+01 1.24532E+00
 -1       664 8.89507E+00 1.07557E+01 1.24532E+00
 -1       665 2.10300E+01 2.23104E+01 1.23158E+00
 -1       666 1.70300E+01 1.86437E+01 3.73158E+00
 -1       667 1.70300E+01 1.86437E+01 1.23158E+00
 -1       668 2.10300E+01 2.23104E+01 3.73158E+00
 -1       669 1.94516E+01 2.68863E+01 3.73158E+00
 -1       670 1.47360E+01 2.40513E+01 3.73158E+00
 -1       671 4.37301E+00 4.30161E+01 3.74313E+00
 -1       672 2.38890E+01 2.50874E+01 1.29852E+00
 -1       673 2.38890E+01 2.50874E+01 3.79852E+00
 -1       674 2.09191E+01 2.53978E+01 2.53011E+00
 -1       675 1.42406E+01 1.68016E+01 3.74432E+00
 -1       676 1.52706E+01 2.07787E+01 2.47590E+00
 -1       677 4.27531E+01 5.01739E+01 2.45609E+00
 -1       678 9.83349E+00 1.76561E+01 3.74432E+00
 -1       679 1.11356E+01 1.65573E+01 2.48964E+00
 -1       680 7.09476E+00 1.42504E+01 2.48966E+00
 -1       681 6.19968E+00 1.08280E+01 3.74434E+00
 -1       682 5.79260E+00 1.53491E+01 3.74434E+00
 -1       683 2.15423E+01 4.77389E+01 3.83555E+00
 -1       684 2.84127E+01 4.45479E+01 3.76920E+00
 -1       685 2.52271E+01 4.60429E+01 2.60475E+00
 -1       686 6.23534E+00 1.90770E+01 3.72390E+00
 -1       687 8.34844E+00 2.36301E+01 3.72390E+00
 -1       688 2.89069E+01 3.73753E+01 1.24944E+00
 -1       689 3.98283E+01 4.97441E+01 1.24207E+00
 -1       690 2.38322E+00 2.57205E+01 3.74630E+00
 -1       691 4.43970E+01 4.33996E+01 1.25555E+00
 -1       692 6.19968E+00 1.08280E+01 1.24434E+00
 -1       693 6.07870E+00 1.60593E+01 1.24434E+00
 -1       694 3.93556E+00 1.11553E+01 2.49850E+00
 -1       695 2.19968E+00 1.26614E+01 3.74434E+00
 -1       696 4.04346E+01 4.70952E+01 3.71402E+00
 -1       697 4.59281E+01 4.57963E+01 3.71402E+00
 -1       698 1.73588E+00 3.99388E+00 3.75416E+00
 -1       699 6.52144E+00 1.97872E+01 1.22390E+00
 -1       700 7.47193E+00 1.70857E+01 2.50000E+00
 -1       701 1.93521E+01 2.69716E+01 1.29852E+00
 -1       702 3.25299E+01 3.92710E+01 1.19771E+00
 -1       703 5.69659E+00 2.82754E+01 1.24630E+00
 -1       704 5.02564E+00 2.56097E+01 2.47020E+00
 -1       705 3.62355E+01 4.25315E+01 1.19771E+00
 -1       706 3.94002E+01 4.47661E+01 1.25555E+00
 -1       707 4.23251E+01 4.51959E+01 2.46957E+00
 -1       708 4.09314E+01 4.71629E+01 1.21402E+00
 -1       709 3.75097E+01 4.66655E+01 2.50000E+00
 -1       710 1.64930E+01 2.41945E+01 1.23158E+00
 -1       711 5.95579E+00 2.44442E+01 1.22390E+00
 -1       712 3.38042E+01 4.34049E+01 2.50000E+00
 -1       713 1.73588E+00 9.49388E+00 3.75416E+00
 -1       714 9.18239E+00 3.91490E+01 1.24313E+00
 -1       715 6.59896E+00 3.96323E+01 2.47328E+00
 -1       716 7.03533E+00 3.67490E+01 1.23014E+00
 -1       717 3.41913E+01 4.76029E+01 3.76920E+00
 -1       718 1.19466E+01 2.22091E+01 3.74432E+00
 -3
    3C                           173                                     1
 -1       395    6    0    1
 -2       436       429       402       405       573       572       571       574       575       497
 -1       396    6    0    1
 -2       417       420       426       413       578       577       576       533       580       579
 -1       397    6    0    1
 -2       411       407       408       425       502       472       504       581       583       582
 -1       398    6    0    1
 -2       411       437       422       425       585       584       555       581       587       586
 -1       399    6    0    1
 -2       426       422       415       413       590       589       588       579       591       536
 -1       400    6    0    1
 -2       436       405       402       401       574       497       571       592       495       464
 -1       401    6    0    1
 -2       419       424       415       422       567       594       593       564       570       589
 -1       402    6    0    1
 -2       393       432       427       388       597       596       595       488       599       598
 -1       403    6    0    1
 -2       426       403       435       422       602       601       600       590       554       603
 -1       404    6    0    1
 -2       422       411       387       437       555       477       553       584       585       604
 -1       405    6    0    1
 -2       401       436       405       404       592       574       495       494       605       468
 -1       406    6    0    1
 -2       427       381       421       393       607       545       606       595       450       546
 -1       407    6    0    1
 -2       428       433       407       410       610       609       608       611       612       501
 -1       408    6    0    1
 -2       412       436       401       417       613       592       520       531       614       534
 -1       409    6    0    1
 -2       424       419       415       418       567       593       594       615       616       539
 -1       410    6    0    1
 -2       389       394       432       430       480       618       617       619       621       620
 -1       411    6    0    1
 -2       421       399       429       405       548       623       622       563       549       575
 -1       412    6    0    1
 -2       424       415       413       418       594       536       624       615       539       532
 -1       413    6    0    1
 -2       413       415       424       422       536       594       624       591       589       570
 -1       414    6    0    1
 -2       419       422       415       425       564       589       593       625       586       626
 -1       415    6    0    1
 -2       389       413       438       430       509       628       627       619       630       629
 -1       416    6    0    1
 -2       413       430       420       424       630       631       580       624       632       562
 -1       417    6    0    1
 -2       417       413       426       401       533       579       576       534       517       633
 -1       418    6    0    1
 -2       389       388       432       394       445       599       617       480       479       618
 -1       419    6    0    1
 -2       385       384       398       429       456       457       490       634       636       635
 -1       420    6    0    1
 -2       432       393       427       421       597       595       596       637       546       606
 -1       421    6    0    1
 -2       388       432       394       393       599       618       479       488       597       451
 -1       422    6    0    1
 -2       419       414       418       416       638       538       616       639       535       537
 -1       423    6    0    1
 -2       406       392       434       382       510       641       640       470       449       642
 -1       424    6    0    1
 -2       441       423       397       396       644       559       643       645       558       454
 -1       425    6    0    1
 -2       428       410       407       406       611       501       608       646       500       471
 -1       426    6    0    1
 -2       394       389       438       430       480       627       647       621       619       629
 -1       427    6    0    1
 -2       394       430       438       424       621       629       647       560       632       648
 -1       428    6    0    1
 -2       413       422       424       420       591       570       624       580       568       562
 -1       429    6    0    1
 -2       420       393       394       432       543       451       544       649       597       618
 -1       430    6    0    1
 -2       398       399       440       380       489       651       650       458       491       652
 -1       431    6    0    1
 -2       424       394       430       420       560       621       632       562       544       631
 -1       432    6    0    1
 -2       434       392       397       382       641       487       653       642       449       486
 -1       433    6    0    1
 -2       421       393       420       432       546       543       547       637       597       649
 -1       434    6    0    1
 -2       403       386       400       435       492       462       498       601       655       654
 -1       435    6    0    1
 -2       426       413       415       400       579       536       588       656       518       516
 -1       436    6    0    1
 -2       439       418       391       416       658       529       657       659       537       525
 -1       437    6    0    1
 -2       408       386       411       437       473       503       504       660       661       585
 -1       438    6    0    1
 -2       411       386       387       437       503       461       477       585       661       604
 -1       439    6    0    1
 -2       441       416       391       392       663       525       662       664       524       448
 -1       440    6    0    1
 -2       390       391       396       431       447       485       482       665       667       666
 -1       441    6    0    1
 -2       395       419       424       431       541       567       561       668       670       669
 -1       442    6    0    1
 -2       387       386       403       435       461       492       466       671       655       601
 -1       443    6    0    1
 -2       390       395       438       431       483       673       672       665       668       674
 -1       444    6    0    1
 -2       413       401       400       426       517       463       518       579       633       656
 -1       445    6    0    1
 -2       396       419       395       431       542       541       453       666       670       668
 -1       446    6    0    1
 -2       391       439       396       431       657       675       485       667       676       666
 -1       447    6    0    1
 -2       390       431       396       395       665       666       482       483       668       453
 -1       448    6    0    1
 -2       440       399       398       429       651       489       650       677       623       635
 -1       449    6    0    1
 -2       423       396       441       439       558       645       644       678       675       679
 -1       450    6    0    1
 -2       428       397       441       423       681       643       680       682       559       644
 -1       451    6    0    1
 -2       426       400       435       403       656       654       600       602       498       601
 -1       452    6    0    1
 -2       420       426       404       436       577       683       551       684       685       605
 -1       453    6    0    1
 -2       441       439       391       416       679       657       662       663       659       525
 -1       454    6    0    1
 -2       422       419       411       425       564       557       555       586       625       581
 -1       455    6    0    1
 -2       391       392       397       441       448       487       484       662       664       643
 -1       456    6    0    1
 -2       410       419       423       433       556       569       566       612       687       686
 -1       457    6    0    1
 -2       430       413       417       389       630       533       688       619       509       527
 -1       458    6    0    1
 -2       398       402       412       429       521       519       522       635       572       689
 -1       459    6    0    1
 -2       422       387       403       435       553       466       554       603       671       601
 -1       460    6    0    1
 -2       433       423       410       428       686       566       612       610       682       611
 -1       461    6    0    1
 -2       426       403       422       420       602       554       590       577       552       568
 -1       462    6    0    1
 -2       410       407       411       425       501       502       476       690       583       581
 -1       463    6    0    1
 -2       427       381       393       380       607       450       595       691       442       478
 -1       464    6    0    1
 -2       427       393       388       380       595       488       598       691       478       444
 -1       465    6    0    1
 -2       428       392       406       416       692       510       646       693       524       523
 -1       466    6    0    1
 -2       385       429       398       399       634       635       490       459       623       489
 -1       467    6    0    1
 -2       406       392       428       434       510       692       646       640       641       694
 -1       468    6    0    1
 -2       397       434       428       392       653       694       681       487       641       692
 -1       469    6    0    1
 -2       406       428       410       409       646       611       500       505       695       475
 -1       470    6    0    1
 -2       441       396       391       439       645       485       662       679       675       657
 -1       471    6    0    1
 -2       384       402       398       429       465       521       457       636       572       635
 -1       472    6    0    1
 -2       421       381       440       399       545       697       696       548       460       651
 -1       473    6    0    1
 -2       391       441       397       396       662       643       484       485       645       454
 -1       474    6    0    1
 -2       397       434       382       383       653       642       486       455       698       443
 -1       475    6    0    1
 -2       411       419       410       425       557       556       476       581       625       690
 -1       476    6    0    1
 -2       401       404       400       426       494       493       463       633       683       656
 -1       477    6    0    1
 -2       419       433       416       423       687       699       639       569       686       700
 -1       478    6    0    1
 -2       400       404       403       426       493       467       498       656       683       602
 -1       479    6    0    1
 -2       399       381       440       380       460       697       651       491       442       652
 -1       480    6    0    1
 -2       438       418       413       390       701       532       628       672       530       508
 -1       481    6    0    1
 -2       420       432       430       417       649       620       631       578       702       688
 -1       482    6    0    1
 -2       408       437       411       425       660       585       504       582       587       581
 -1       483    6    0    1
 -2       425       407       408       414       583       472       582       703       512       511
 -1       484    6    0    1
 -2       419       425       415       414       625       626       593       638       703       515
 -1       485    6    0    1
 -2       419       414       415       418       638       515       593       616       538       539
 -1       486    6    0    1
 -2       410       433       407       425       612       609       501       690       704       583
 -1       487    6    0    1
 -2       425       419       410       433       625       556       690       704       687       612
 -1       488    6    0    1
 -2       408       415       425       414       514       626       582       511       515       703
 -1       489    6    0    1
 -2       426       420       422       413       577       568       590       579       580       591
 -1       490    6    0    1
 -2       417       401       426       436       534       633       576       614       592       685
 -1       491    6    0    1
 -2       404       426       401       436       683       633       494       605       685       592
 -1       492    6    0    1
 -2       426       404       403       420       683       467       602       577       551       552
 -1       493    6    0    1
 -2       412       427       432       388       706       596       705       506       598       599
 -1       494    6    0    1
 -2       427       421       440       412       606       696       707       706       709       708
 -1       495    6    0    1
 -2       412       388       432       417       506       599       705       531       528       702
 -1       496    6    0    1
 -2       427       412       440       380       706       708       707       691       507       652
 -1       497    6    0    1
 -2       412       427       388       380       706       598       506       507       691       444
 -1       498    6    0    1
 -2       391       439       431       418       657       676       667       529       658       710
 -1       499    6    0    1
 -2       407       433       414       425       609       711       512       583       704       703
 -1       500    6    0    1
 -2       428       423       441       416       682       644       680       693       700       663
 -1       501    6    0    1
 -2       428       416       441       392       693       663       680       692       524       664
 -1       502    6    0    1
 -2       428       423       410       409       682       566       611       695       565       475
 -1       503    6    0    1
 -2       385       384       429       405       456       636       634       469       496       575
 -1       504    6    0    1
 -2       389       417       432       388       527       702       617       445       528       599
 -1       505    6    0    1
 -2       417       436       426       420       614       685       576       578       684       577
 -1       506    6    0    1
 -2       385       405       429       399       469       575       634       459       549       623
 -1       507    6    0    1
 -2       384       402       429       405       465       572       636       496       497       575
 -1       508    6    0    1
 -2       389       395       438       390       481       673       627       446       483       672
 -1       509    6    0    1
 -2       394       424       438       395       560       648       647       452       561       673
 -1       510    6    0    1
 -2       389       390       438       413       446       672       627       509       508       628
 -1       511    6    0    1
 -2       423       439       441       416       678       679       644       700       659       663
 -1       512    6    0    1
 -2       430       413       420       417       630       580       631       688       533       578
 -1       513    6    0    1
 -2       390       391       431       418       447       667       665       530       529       710
 -1       514    6    0    1
 -2       428       392       441       397       692       664       680       681       487       643
 -1       515    6    0    1
 -2       436       401       402       412       592       464       571       613       520       519
 -1       516    6    0    1
 -2       436       412       402       429       613       519       571       573       689       572
 -1       517    6    0    1
 -2       421       399       440       429       548       651       696       622       623       677
 -1       518    6    0    1
 -2       412       440       398       429       708       650       522       689       677       635
 -1       519    6    0    1
 -2       425       419       433       414       625       687       704       703       638       711
 -1       520    6    0    1
 -2       412       417       432       421       531       702       705       709       712       637
 -1       521    6    0    1
 -2       412       421       432       427       709       637       705       706       606       596
 -1       522    6    0    1
 -2       389       430       432       417       619       620       617       527       688       702
 -1       523    6    0    1
 -2       420       432       394       430       649       618       544       631       620       621
 -1       524    6    0    1
 -2       421       432       420       417       637       649       547       712       702       578
 -1       525    6    0    1
 -2       428       406       407       416       646       471       608       693       523       526
 -1       526    6    0    1
 -2       428       416       407       433       693       526       608       610       699       609
 -1       527    6    0    1
 -2       433       419       416       414       687       639       699       711       638       535
 -1       528    6    0    1
 -2       416       423       433       428       700       686       699       693       682       610
 -1       529    6    0    1
 -2       416       407       433       414       526       609       699       535       512       711
 -1       530    6    0    1
 -2       406       434       409       382       640       713       505       470       642       499
 -1       531    6    0    1
 -2       382       434       409       383       642       713       499       443       698       474
 -1       532    6    0    1
 -2       406       434       428       409       640       694       646       505       713       695
 -1       533    6    0    1
 -2       397       423       428       409       559       682       681       540       565       695
 -1       534    6    0    1
 -2       397       409       428       434       540       695       681       653       713       694
 -1       535    6    0    1
 -2       398       440       412       380       650       708       522       458       652       507
 -1       536    6    0    1
 -2       431       419       424       418       670       567       669       710       616       615
 -1       537    6    0    1
 -2       390       431       438       418       665       674       672       530       710       701
 -1       538    6    0    1
 -2       421       440       412       429       696       708       709       622       677       689
 -1       539    6    0    1
 -2       426       435       415       422       600       714       588       590       603       589
 -1       540    6    0    1
 -2       435       386       400       415       655       462       654       714       513       516
 -1       541    6    0    1
 -2       435       415       437       386       714       716       715       655       513       661
 -1       542    6    0    1
 -2       426       400       415       435       656       516       588       600       654       714
 -1       543    6    0    1
 -2       435       386       437       387       655       661       715       671       461       604
 -1       544    6    0    1
 -2       409       434       397       383       713       653       540       474       698       455
 -1       545    6    0    1
 -2       427       381       440       421       607       697       707       606       545       696
 -1       546    6    0    1
 -2       429       405       436       421       575       574       573       622       563       717
 -1       547    6    0    1
 -2       436       421       405       404       717       563       574       605       550       468
 -1       548    6    0    1
 -2       412       421       436       417       709       717       613       531       712       614
 -1       549    6    0    1
 -2       436       421       420       417       717       547       684       614       712       578
 -1       550    6    0    1
 -2       421       436       420       404       717       684       547       550       605       551
 -1       551    6    0    1
 -2       412       429       436       421       689       573       613       709       622       717
 -1       552    6    0    1
 -2       437       415       422       425       716       589       584       587       626       586
 -1       553    6    0    1
 -2       435       387       437       422       671       604       715       603       553       584
 -1       554    6    0    1
 -2       408       386       437       415       473       661       660       514       513       716
 -1       555    6    0    1
 -2       435       422       437       415       603       584       715       714       589       716
 -1       556    6    0    1
 -2       408       415       437       425       514       716       660       582       626       587
 -1       557    6    0    1
 -2       438       395       424       431       673       561       648       674       668       669
 -1       558    6    0    1
 -2       424       418       413       438       615       532       624       648       701       628
 -1       559    6    0    1
 -2       413       430       424       438       630       632       624       628       629       648
 -1       560    6    0    1
 -2       394       395       438       389       452       673       647       480       481       627
 -1       561    6    0    1
 -2       438       431       424       418       674       669       648       701       710       615
 -1       562    6    0    1
 -2       419       418       439       416       616       658       718       639       537       659
 -1       563    6    0    1
 -2       439       419       396       431       718       542       675       676       670       666
 -1       564    6    0    1
 -2       423       419       439       416       569       718       678       700       639       659
 -1       565    6    0    1
 -2       423       396       439       419       558       675       678       569       542       718
 -1       566    6    0    1
 -2       439       419       431       418       718       670       676       658       616       710
 -1       567    6    0    1
 -2       427       380       440       381       691       652       707       607       442       697
 -3
    1PSTEP                         1           1           1          
  100CL  101 1.000000000         339                     0    1           1
 -4  DISP        4    1
 -5  D1          1    2    1    0
 -5  D2          1    2    2    0
 -5  D3          1    2    3    0
 -5  ALL         1    2    0    0    1ALL
 -1       380-6.02260E+00 2.96513E+01 0.00000E+00
 -1       381-6.02327E+00 2.96556E+01 0.00000E+00
 -1       382 0.00000E+00 0.00000E+00 0.00000E+00
 -1       383 0.00000E+00 0.00000E+00 0.00000E+00
 -1       384-2.33234E+01 3.15877E+01 0.00000E+00
 -1       385-2.32844E+01 3.17022E+01 0.00000E+00
 -1       386 0.00000E+00 0.00000E+00 0.00000E+00
 -1       387 0.00000E+00 0.00000E+00 0.00000E+00
 -1       388-6.62360E-01 1.98892E+01 0.00000E+00
 -1       389 1.80623E+00 1.20913E+01 0.00000E+00
 -1       390 2.24450E+00 6.55533E+00 0.00000E+00
 -1       391 1.39527E+00 3.17635E+00 0.00000E+00
 -1       392 4.38451E-01 1.35176E+00 0.00000E+00
 -1       393-6.83824E-01 1.98768E+01 0.00000E+00
 -1       394 1.81087E+00 1.20955E+01 0.00000E+00
 -1       395 2.22575E+00 6.53904E+00 0.00000E+00
 -1       396 1.39836E+00 3.18451E+00 0.00000E+00
 -1       397 4.34371E-01 1.35979E+00 0.00000E+00
 -1       398-1.36368E+01 3.06941E+01 0.00000E+00
 -1       399-1.35958E+01 3.07049E+01 0.00000E+00
 -1       400-5.37478E+00 2.63398E+00 0.00000E+00
 -1       401-1.06994E+01 7.92120E+00 0.00000E+00
 -1       402-1.68878E+01 1.71746E+01 0.00000E+00
 -1       403-5.33271E+00 2.59980E+00 0.00000E+00
 -1       404-1.06997E+01 7.91823E+00 0.00000E+00
 -1       405-1.68838E+01 1.72022E+01 0.00000E+00
 -1       406 0.00000E+00 0.00000E+00 0.00000E+00
 -1       407 0.00000E+00 0.00000E+00 0.00000E+00
 -1       408 0.00000E+00 0.00000E+00 0.00000E+00
 -1       409 0.00000E+00 0.00000E+00 0.00000E+00
 -1       410 0.00000E+00 0.00000E+00 0.00000E+00
 -1       411 0.00000E+00 0.00000E+00 0.00000E+00
 -1       412-8.13138E+00 1.85486E+01 0.00000E+00
 -1       413-1.10004E+00 5.40519E+00 0.00000E+00
 -1       414 3.31423E-01 7.22775E-01 0.00000E+00
 -1       415-7.02419E-01 1.22435E+00 0.00000E+00
 -1       416 7.14420E-01 1.27119E+00 0.00000E+00
 -1       417-3.17519E+00 1.15805E+01 0.00000E+00
 -1       418 1.07136E+00 2.88676E+00 0.00000E+00
 -1       419 8.02001E-01 1.84998E+00 0.00000E+00
 -1       420-3.20014E+00 8.05573E+00 0.00000E+00
 -1       421-7.96076E+00 1.75459E+01 0.00000E+00
 -1       422-1.04551E+00 1.75485E+00 0.00000E+00
 -1       423 6.56291E-01 1.19862E+00 0.00000E+00
 -1       424 4.79630E-01 5.26807E+00 0.00000E+00
 -1       425 1.20482E-01 3.55912E-01-6.94257E-04
 -1       426-4.26971E+00 4.83855E+00-1.12792E-03
 -1       427-4.99016E+00 2.11415E+01 3.41732E-03
 -1       428 3.74920E-01 7.38815E-01 3.23103E-04
 -1       429-1.40021E+01 2.29108E+01-6.30223E-03
 -1       430-3.83046E-01 8.93404E+00-4.65299E-04
 -1       431 1.61841E+00 4.00689E+00 2.21299E-05
 -1       432-2.01769E+00 1.46409E+01-1.39163E-03
 -1       433 4.27973E-01 6.82737E-01-6.57991E-04
 -1       434 2.17973E-01 6.07214E-01 1.18219E-03
 -1       435-2.08903E+00 1.32051E+00 5.47025E-03
 -1       436-9.15000E+00 1.26782E+01-4.64295E-04
 -1       437-4.32489E-01 2.30000E-01 2.22377E-03
 -1       438 1.36971E+00 6.67840E+00 1.66135E-03
 -1       439 1.19725E+00 2.30468E+00-1.05937E-05
 -1       440-9.19481E+00 2.50169E+01 2.88484E-03
 -1       441 8.57204E-01 1.74051E+00-5.96735E-04
 -1       442-6.02450E+00 2.96481E+01 4.28290E-03
 -1       443 0.00000E+00 0.00000E+00 0.00000E+00
 -1       444-2.94092E+00 2.45654E+01 0.00000E+00
 -1       445 8.63343E-01 1.57162E+01 0.00000E+00
 -1       446 2.24437E+00 9.05074E+00 0.00000E+00
 -1       447 1.90844E+00 4.62823E+00 0.00000E+00
 -1       448 8.71734E-01 2.15163E+00 0.00000E+00
 -1       449 1.79707E-01 6.43086E-01 0.00000E+00
 -1       450-2.91607E+00 2.45649E+01 0.00000E+00
 -1       451 8.64855E-01 1.57137E+01 0.00000E+00
 -1       452 2.23637E+00 9.04638E+00 0.00000E+00
 -1       453 1.91197E+00 4.63040E+00 0.00000E+00
 -1       454 8.72941E-01 2.14691E+00 0.00000E+00
 -1       455 1.82740E-01 6.33175E-01 0.00000E+00
 -1       456-2.33057E+01 3.16462E+01 2.25446E-03
 -1       457-1.80295E+01 3.12544E+01 0.00000E+00
 -1       458-9.78095E+00 3.00771E+01 0.00000E+00
 -1       459-1.80450E+01 3.12689E+01 0.00000E+00
 -1       460-9.80974E+00 3.00866E+01 0.00000E+00
 -1       461 0.00000E+00 0.00000E+00 0.00000E+00
 -1       462-2.81929E+00 1.15643E+00 0.00000E+00
 -1       463-7.92773E+00 4.84601E+00 0.00000E+00
 -1       464-1.37271E+01 1.20010E+01 0.00000E+00
 -1       465-2.00886E+01 2.36252E+01 0.00000E+00
 -1       466-2.92244E+00 1.20831E+00 0.00000E+00
 -1       467-7.92280E+00 4.84322E+00 0.00000E+00
 -1       468-1.37180E+01 1.20090E+01 0.00000E+00
 -1       469-2.00861E+01 2.35898E+01 0.00000E+00
 -1       470 0.00000E+00 0.00000E+00 0.00000E+00
 -1       471 0.00000E+00 0.00000E+00 0.00000E+00
 -1       472 0.00000E+00 0.00000E+00 0.00000E+00
 -1       473 0.00000E+00 0.00000E+00 0.00000E+00
 -1       474 0.00000E+00 0.00000E+00 0.00000E+00
 -1       475 0.00000E+00 0.00000E+00 0.00000E+00
 -1       476 0.00000E+00 0.00000E+00 0.00000E+00
 -1       477 0.00000E+00 0.00000E+00 0.00000E+00
 -1       478-2.90189E+00 2.45882E+01-6.36729E-03
 -1       479 8.59736E-01 1.57162E+01-2.53242E-04
 -1       480 1.80641E+00 1.20929E+01-2.83168E-04
 -1       481 2.22882E+00 9.04555E+00 1.83051E-03
 -1       482 1.89534E+00 4.62149E+00 4.95913E-04
 -1       483 2.22726E+00 6.54354E+00-3.44956E-04
 -1       484 8.64701E-01 2.14131E+00 9.54495E-04
 -1       485 1.39115E+00 3.17692E+00-3.80764E-04
 -1       486 1.78747E-01 6.28577E-01-1.42496E-03
 -1       487 4.35850E-01 1.35337E+00 2.21416E-04
 -1       488-6.70037E-01 1.98882E+01 1.34790E-03
 -1       489-1.36380E+01 3.06704E+01-4.80859E-03
 -1       490-1.80324E+01 3.12921E+01 1.01900E-02
 -1       491-9.81651E+00 3.00283E+01-4.15596E-03
 -1       492-2.93525E+00 1.18068E+00-1.07914E-02
 -1       493-7.91980E+00 4.85031E+00-6.08527E-05
 -1       494-1.06962E+01 7.92006E+00-1.08915E-03
 -1       495-1.37172E+01 1.20174E+01 1.64383E-03
 -1       496-2.01019E+01 2.35944E+01 5.87103E-03
 -1       497-1.68797E+01 1.72001E+01-2.10038E-03
 -1       498-5.35731E+00 2.62176E+00 3.68931E-03
 -1       499 0.00000E+00 0.00000E+00 0.00000E+00
 -1       500 0.00000E+00 0.00000E+00 0.00000E+00
 -1       501 0.00000E+00 0.00000E+00 0.00000E+00
 -1       502 0.00000E+00 0.00000E+00 0.00000E+00
 -1       503 0.00000E+00 0.00000E+00 0.00000E+00
 -1       504 0.00000E+00 0.00000E+00 0.00000E+00
 -1       505 0.00000E+00 0.00000E+00 0.00000E+00
 -1       506-4.16230E+00 1.91683E+01 0.00000E+00
 -1       507-7.18481E+00 2.38201E+01 0.00000E+00
 -1       508 1.08559E+00 6.03028E+00 0.00000E+00
 -1       509 2.75302E-01 8.39351E+00 0.00000E+00
 -1       510 2.68276E-01 7.04857E-01 0.00000E+00
 -1       511 4.94129E-02 1.76313E-01 0.00000E+00
 -1       512 2.01620E-01 3.09628E-01 0.00000E+00
 -1       513-7.64253E-01 3.13948E-01 0.00000E+00
 -1       514-2.09274E-01 2.46357E-01 0.00000E+00
 -1       515 3.16349E-02 8.82590E-01 0.00000E+00
 -1       516-2.48057E+00 1.82444E+00 0.00000E+00
 -1       517-4.98334E+00 6.52313E+00 0.00000E+00
 -1       518-3.26369E+00 3.66749E+00 0.00000E+00
 -1       519-1.22138E+01 1.78670E+01 0.00000E+00
 -1       520-9.73073E+00 1.24423E+01 0.00000E+00
 -1       521-1.53417E+01 2.33973E+01 0.00000E+00
 -1       522-1.07552E+01 2.42090E+01 0.00000E+00
 -1       523 3.25929E-01 6.44250E-01 0.00000E+00
 -1       524 6.47439E-01 1.38199E+00 0.00000E+00
 -1       525 1.10778E+00 2.18481E+00 0.00000E+00
 -1       526 3.19399E-01 5.23290E-01 0.00000E+00
 -1       527-3.02451E-01 1.18377E+01 0.00000E+00
 -1       528-2.05142E+00 1.53868E+01 0.00000E+00
 -1       529 1.47521E+00 3.12225E+00 0.00000E+00
 -1       530 1.65278E+00 4.56185E+00 0.00000E+00
 -1       531-5.39929E+00 1.48156E+01 0.00000E+00
 -1       532 3.99043E-01 3.96745E+00 0.00000E+00
 -1       533-2.02550E+00 8.15697E+00 0.00000E+00
 -1       534-6.81178E+00 9.54043E+00 0.00000E+00
 -1       535 5.85339E-01 9.99301E-01 0.00000E+00
 -1       536-9.92087E-01 2.97748E+00 0.00000E+00
 -1       537 1.01252E+00 1.94486E+00 0.00000E+00
 -1       538 6.69122E-01 1.64786E+00 0.00000E+00
 -1       539 2.08496E-01 1.95423E+00 0.00000E+00
 -1       540 2.67700E-01 7.06929E-01 0.00000E+00
 -1       541 1.51099E+00 3.88284E+00 0.00000E+00
 -1       542 1.30603E+00 2.61239E+00 0.00000E+00
 -1       543-2.20763E+00 1.31788E+01 0.00000E+00
 -1       544-4.83179E-01 9.96056E+00 0.00000E+00
 -1       545-7.10832E+00 2.32486E+01 0.00000E+00
 -1       546-4.11843E+00 1.86538E+01 0.00000E+00
 -1       547-5.32891E+00 1.22579E+01 0.00000E+00
 -1       548-1.06556E+01 2.36344E+01 0.00000E+00
 -1       549-1.53435E+01 2.33846E+01 0.00000E+00
 -1       550-9.61291E+00 1.20524E+01 0.00000E+00
 -1       551-6.61121E+00 7.92142E+00 0.00000E+00
 -1       552-4.62882E+00 4.71958E+00 0.00000E+00
 -1       553-1.01462E+00 5.03086E-01 0.00000E+00
 -1       554-2.80152E+00 2.11048E+00 0.00000E+00
 -1       555-2.95542E-01 3.81047E-01 0.00000E+00
 -1       556 4.07718E-01 6.81645E-01 0.00000E+00
 -1       557 1.64470E-01 4.98567E-01 0.00000E+00
 -1       558 1.06129E+00 2.12131E+00 0.00000E+00
 -1       559 6.02653E-01 1.33488E+00 0.00000E+00
 -1       560 1.05422E+00 8.26826E+00 0.00000E+00
 -1       561 1.56629E+00 5.93923E+00 0.00000E+00
 -1       562-9.84073E-01 6.54544E+00 0.00000E+00
 -1       563-1.20977E+01 1.73835E+01 0.00000E+00
 -1       564 1.19538E-01 1.70982E+00 0.00000E+00
 -1       565 2.97353E-01 6.06670E-01 0.00000E+00
 -1       566 2.98349E-01 4.98082E-01 0.00000E+00
 -1       567 8.22048E-01 3.27139E+00 0.00000E+00
 -1       568-2.07874E+00 4.32794E+00 0.00000E+00
 -1       569 8.32492E-01 1.49523E+00 0.00000E+00
 -1       570-4.40253E-01 3.26501E+00 0.00000E+00
 -1       571-1.27131E+01 1.48604E+01 3.71230E-03
 -1       572-1.54608E+01 1.99094E+01-4.23008E-03
 -1       573-1.15129E+01 1.73469E+01 4.51413E-04
 -1       574-1.27138E+01 1.48636E+01-1.37992E-03
 -1       575-1.54611E+01 1.99131E+01-2.58368E-03
 -1       576-3.91839E+00 7.74156E+00-3.06755E-04
 -1       577-3.80826E+00 6.30936E+00 3.19570E-04
 -1       578-3.21158E+00 9.72224E+00-1.22406E-04
 -1       579-2.57288E+00 5.08021E+00-1.33854E-04
 -1       580-2.04052E+00 6.64943E+00 1.86961E-03
 -1       581 7.02520E-03 8.79707E-02 5.39768E-05
 -1       582 2.82700E-03 7.90122E-02-4.71309E-04
 -1       583 1.17205E-01 1.80139E-01 4.47848E-04
 -1       584-7.55830E-01 8.43914E-01 3.86686E-03
 -1       585-1.17872E-01 1.58719E-02 3.09397E-03
 -1       586-1.62678E-01 8.44818E-01-1.96070E-03
 -1       587-9.92140E-02 2.44024E-01 1.06043E-04
 -1       588-2.13203E+00 2.77624E+00 2.67710E-04
 -1       589-8.63307E-01 1.47672E+00 4.91242E-04
 -1       590-2.40821E+00 3.11676E+00-1.69790E-03
 -1       591-1.16970E+00 3.33760E+00-1.68000E-03
 -1       592-1.00229E+01 1.00797E+01 2.74788E-04
 -1       593 1.79215E-01 1.46702E+00-3.20818E-03
 -1       594-3.10408E-01 2.92243E+00 3.46360E-03
 -1       595-2.68389E+00 2.04900E+01 5.03247E-03
 -1       596-3.36778E+00 1.77149E+01 1.45583E-04
 -1       597-1.39277E+00 1.71412E+01-1.50854E-03
 -1       598-2.68021E+00 2.04997E+01 2.10288E-04
 -1       599-1.38580E+00 1.71395E+01-1.03034E-04
 -1       600-3.22091E+00 2.78675E+00-1.84822E-03
 -1       601-3.55744E+00 1.96109E+00 5.52956E-03
 -1       602-4.90603E+00 3.54656E+00-2.64968E-03
 -1       603-1.56081E+00 1.48654E+00 3.33691E-03
 -1       604-3.92855E-01 4.70818E-02-3.65756E-03
 -1       605-1.00237E+01 1.00791E+01 1.00227E-03
 -1       606-6.48876E+00 1.92960E+01 2.87337E-03
 -1       607-5.47655E+00 2.52530E+01-3.32930E-03
 -1       608 1.73972E-01 3.05310E-01-4.57947E-04
 -1       609 1.98699E-01 2.94878E-01 2.37967E-04
 -1       610 4.18545E-01 7.26640E-01-3.53177E-05
 -1       611 1.75342E-01 3.08214E-01 8.77962E-04
 -1       612 1.98371E-01 2.91780E-01-1.59799E-03
 -1       613-8.70124E+00 1.54362E+01-1.41743E-03
 -1       614-5.92294E+00 1.21052E+01 6.51274E-07
 -1       615 9.11142E-01 3.95068E+00-2.08221E-03
 -1       616 9.38607E-01 2.33614E+00 6.87613E-04
 -1       617 2.43961E-01 1.33382E+01-4.00485E-04
 -1       618 2.45333E-01 1.33409E+01 1.78769E-03
 -1       619 7.39211E-01 1.04531E+01 3.98153E-04
 -1       620-1.11118E+00 1.15733E+01 1.29131E-04
 -1       621 7.38265E-01 1.04510E+01-2.63963E-03
 -1       622-1.08109E+01 2.01381E+01-1.00416E-03
 -1       623-1.38172E+01 2.66668E+01-2.71022E-03
 -1       624-2.38924E-01 5.32848E+00 1.05744E-03
 -1       625 3.96600E-01 9.77482E-01-1.42540E-03
 -1       626-9.74081E-02 6.69760E-01 2.35914E-03
 -1       627 1.56778E+00 9.13403E+00-1.84510E-03
 -1       628 2.72409E-01 6.04391E+00 4.76252E-04
 -1       629 6.64621E-01 7.74857E+00-1.18476E-03
 -1       630-7.78008E-01 7.04961E+00 8.05124E-06
 -1       631-1.70904E+00 8.48252E+00 1.59822E-03
 -1       632 1.17893E-01 6.94739E+00 8.39386E-04
 -1       633-7.13794E+00 6.27675E+00 1.12819E-05
 -1       634-1.82991E+01 2.70152E+01 2.10062E-03
 -1       635-1.38262E+01 2.66661E+01-1.71508E-03
 -1       636-1.82963E+01 2.70187E+01 1.90625E-03
 -1       637-4.71288E+00 1.60422E+01 1.08765E-04
 -1       638 5.45616E-01 1.23039E+00-2.20188E-04
 -1       639 8.43051E-01 1.53095E+00 1.14670E-03
 -1       640 1.21616E-01 3.11779E-01-5.64476E-04
 -1       641 3.37837E-01 9.83879E-01 5.51914E-04
 -1       642 8.75918E-02 2.89095E-01 1.60782E-03
 -1       643 6.55826E-01 1.56117E+00-8.98362E-04
 -1       644 7.68442E-01 1.47180E+00-2.78300E-04
 -1       645 1.13125E+00 2.41148E+00 1.03257E-03
 -1       646 1.75884E-01 3.76379E-01 2.95780E-04
 -1       647 1.57070E+00 9.13491E+00 1.40312E-03
 -1       648 9.31522E-01 5.95811E+00-7.94022E-04
 -1       649-2.70719E+00 1.10527E+01-1.38602E-03
 -1       650-1.13520E+01 2.77477E+01-5.41465E-03
 -1       651-1.13427E+01 2.77643E+01 5.92277E-03
 -1       652-7.65462E+00 2.72921E+01-1.85503E-03
 -1       653 3.37119E-01 9.86584E-01 4.56441E-04
 -1       654-3.56819E+00 1.95439E+00 2.01371E-03
 -1       655-1.30199E+00 5.20215E-01 9.10811E-03
 -1       656-4.92108E+00 3.56050E+00-1.23659E-03
 -1       657 1.34608E+00 2.76429E+00 3.19783E-04
 -1       658 1.21850E+00 2.57880E+00-8.71156E-04
 -1       659 9.60928E-01 1.74929E+00 3.14541E-04
 -1       660-1.20379E-01 1.92086E-02-4.30372E-04
 -1       661-3.81873E-01 2.98464E-02-2.52581E-03
 -1       662 1.13184E+00 2.41267E+00-2.76302E-04
 -1       663 8.06327E-01 1.51723E+00-7.90302E-04
 -1       664 6.55250E-01 1.55811E+00 8.75848E-04
 -1       665 1.92494E+00 5.19089E+00-2.15616E-03
 -1       666 1.63510E+00 3.59672E+00 1.27041E-03
 -1       667 1.63325E+00 3.59368E+00 1.22932E-04
 -1       668 1.91996E+00 5.18909E+00-5.71589E-04
 -1       669 1.28776E+00 4.59354E+00-7.88353E-04
 -1       670 1.21303E+00 2.85804E+00-4.36731E-04
 -1       671-1.30912E+00 5.21023E-01 4.50217E-05
 -1       672 1.92199E+00 6.62928E+00 1.68941E-03
 -1       673 1.92269E+00 6.62990E+00 2.06658E-03
 -1       674 1.61888E+00 5.21138E+00-1.13731E-03
 -1       675 1.34379E+00 2.76372E+00-1.90027E-03
 -1       676 1.43840E+00 3.06207E+00 2.57989E-04
 -1       677-1.15057E+01 2.39873E+01-3.31491E-04
 -1       678 9.32275E-01 1.70373E+00 5.79940E-04
 -1       679 1.04505E+00 2.01123E+00-3.81021E-04
 -1       680 6.20192E-01 1.22499E+00-3.92858E-04
 -1       681 4.64636E-01 1.08844E+00 2.14253E-04
 -1       682 5.11943E-01 9.66628E-01-1.80523E-04
 -1       683-7.13807E+00 6.28149E+00-1.20897E-03
 -1       684-5.83974E+00 1.02086E+01-1.16925E-03
 -1       685-6.53627E+00 8.21146E+00 6.21294E-04
 -1       686 5.54762E-01 9.34902E-01-3.31081E-04
 -1       687 6.42135E-01 1.19193E+00 5.78913E-04
 -1       688-1.62439E+00 1.02018E+01-4.56128E-04
 -1       689-1.09086E+01 2.06722E+01 2.85408E-04
 -1       690 1.16410E-01 1.81521E-01 1.43147E-03
 -1       691-5.48473E+00 2.52502E+01 1.45628E-03
 -1       692 4.65414E-01 1.08648E+00-9.05753E-04
 -1       693 5.41833E-01 1.00354E+00 5.61083E-04
 -1       694 3.00382E-01 6.92247E-01-3.53764E-04
 -1       695 1.74678E-01 3.76105E-01-3.94049E-04
 -1       696-8.57361E+00 2.11183E+01-2.57283E-03
 -1       697-7.65907E+00 2.72851E+01 8.84058E-04
 -1       698 8.79010E-02 2.84136E-01-4.31735E-04
 -1       699 5.75222E-01 9.66649E-01-3.68073E-04
 -1       700 6.85578E-01 1.23637E+00 1.05086E-04
 -1       701 1.26483E+00 4.54727E+00-1.44199E-03
 -1       702-2.61807E+00 1.30548E+01-3.63729E-04
 -1       703 2.17940E-01 5.25203E-01-3.26521E-04
 -1       704 2.88494E-01 5.14658E-01-2.75452E-04
 -1       705-4.76688E+00 1.65107E+01 1.49071E-04
 -1       706-6.56083E+00 1.98180E+01 4.19081E-04
 -1       707-7.01036E+00 2.30330E+01-8.47196E-04
 -1       708-8.65784E+00 2.16645E+01 3.79789E-03
 -1       709-8.04868E+00 1.80440E+01 1.43115E-04
 -1       710 1.35737E+00 3.44222E+00 2.02753E-03
 -1       711 4.04951E-01 7.03515E-01-6.59410E-04
 -1       712-5.33839E+00 1.43709E+01-2.83840E-04
 -1       713 1.21737E-01 3.13172E-01 1.18935E-03
 -1       714-1.30883E+00 1.22485E+00-6.37860E-04
 -1       715-1.01232E+00 6.37979E-01 2.83506E-03
 -1       716-5.97660E-01 6.43136E-01 1.32228E-03
 -1       717-8.60146E+00 1.49865E+01 4.66497E-04
 -1       718 1.05776E+00 2.09806E+00 2.21308E-03
 -3
    1PSTEP                         2           1           1          
  100CL  101 1.000000000         339                     0    1           1
 -4  STRESS      6    1
 -5  SXX         1    4    1    1
 -5  SYY         1    4    2    2
 -5  SZZ         1    4    3    3
 -5  SXY         1    4    1    2
 -5  SYZ         1    4    2    3
 -5  SZX         1    4    3    1
 -1       380 3.95878E+00 8.21467E+00 3.98790E+00 7.68753E+00-5.44622E-03-1.21641E-01
 -1       381 3.87579E+00 8.60754E+00 4.10999E+00 7.80286E+00-4.07956E-02 1.49467E-01
 -1       382 3.90359E+00 2.25700E+00 2.04633E+00 3.95268E+00-1.13453E-02 1.90152E-02
 -1       383 3.95347E+00 2.06803E+00 2.01434E+00 3.88455E+00-7.68415E-02-1.98028E-02
 -1       384-3.15101E+00 2.93763E+00 1.73017E-01 2.31013E-01-1.27315E-01-5.93875E-02
 -1       385-2.28612E+00 5.20314E+00 6.54548E-01 1.47572E+00 7.75578E-02-1.05393E-01
 -1       386-3.07680E+01-8.77972E+00-1.30456E+01-1.74100E+00 1.58555E-01-6.60581E-01
 -1       387-3.16222E+01-8.64356E+00-1.31379E+01-1.49386E+00-1.75992E-01 5.78681E-01
 -1       388 1.29468E+01 1.09328E+01 7.89938E+00 1.16195E+01-3.59865E-02 3.21773E-02
 -1       389 1.40817E+01 1.14702E+01 8.41673E+00 1.25303E+01 1.11192E-02 6.08846E-02
 -1       390 1.33609E+01 1.03327E+01 7.79964E+00 1.16021E+01-1.21059E-02 4.50119E-03
 -1       391 1.01386E+01 7.55107E+00 5.84143E+00 8.71313E+00 4.32756E-02 3.85502E-02
 -1       392 6.26988E+00 4.84587E+00 3.68101E+00 5.50315E+00-2.30381E-02-3.13729E-02
 -1       393 1.33412E+01 1.10406E+01 8.00226E+00 1.16416E+01 7.81234E-03-1.45731E-01
 -1       394 1.41296E+01 1.14225E+01 8.45552E+00 1.25156E+01 3.21878E-02-6.78244E-03
 -1       395 1.31828E+01 1.05151E+01 7.79088E+00 1.16088E+01-2.02290E-02-6.69753E-02
 -1       396 1.02830E+01 7.50847E+00 5.88147E+00 8.74070E+00-1.47262E-02-3.65931E-02
 -1       397 6.15896E+00 4.90428E+00 3.65537E+00 5.46417E+00 5.86510E-02 8.86293E-04
 -1       398 9.96502E-01 1.25118E+01 4.27811E+00 8.43225E+00 1.05061E-01 1.52959E-01
 -1       399 4.15168E-01 1.17898E+01 4.08010E+00 8.23565E+00 2.33862E-02 7.52915E-02
 -1       400-1.93346E+01-1.98935E+00-6.97133E+00-7.07679E+00 2.72745E-02-2.81224E-02
 -1       401-1.79155E+01-2.33709E+00-6.67276E+00-6.32823E+00 3.20739E-03-2.84664E-02
 -1       402-1.32640E+01-2.88265E+00-5.40055E+00-4.57779E+00-1.96941E-01-1.35703E-01
 -1       403-1.79686E+01-1.93790E+00-6.59048E+00-7.43857E+00-2.00449E-01 1.77676E-01
 -1       404-1.79353E+01-2.33776E+00-6.68497E+00-6.30692E+00 6.42950E-02 2.49825E-02
 -1       405-1.37391E+01-3.09746E+00-5.50853E+00-4.84430E+00 2.40156E-01 8.90445E-02
 -1       406 7.80313E+00 3.60260E+00 3.74908E+00 4.65853E+00 6.16537E-02-4.05707E-02
 -1       407 7.10931E+00 3.01064E+00 3.35200E+00 2.40678E+00 6.32007E-03-1.74590E-02
 -1       408-2.12987E+00-1.61005E+00-1.27189E+00-4.10982E-01-1.32884E-01-3.86775E-02
 -1       409 7.78698E+00 3.58533E+00 3.74504E+00 4.70061E+00-5.04721E-02 3.58778E-02
 -1       410 7.12861E+00 2.92823E+00 3.31961E+00 2.45813E+00-4.62886E-02 5.62595E-02
 -1       411-1.87368E+00-1.59705E+00-1.20401E+00-3.17078E-01 2.85626E-01 7.70951E-02
 -1       412-1.86352E+00 5.15788E+00 1.14437E+00 4.47681E+00 9.53223E-05 2.19698E-02
 -1       413 7.02601E-01 2.00842E+00 9.24159E-01 3.04895E+00 5.18797E-03-2.44307E-02
 -1       414 5.15263E+00-7.08568E-01 1.44189E+00 3.27611E+00-2.38449E-02-3.10129E-02
 -1       415-5.62874E+00-1.38216E+00-2.29022E+00 1.64418E+00 1.48446E-02 1.68523E-02
 -1       416 9.55544E+00 1.98720E+00 3.82137E+00 5.17638E+00-2.60069E-03 3.17556E-02
 -1       417 1.62482E+00 4.69318E+00 2.07634E+00 4.29584E+00-4.48391E-03-1.55762E-02
 -1       418 8.01026E+00 2.13091E+00 3.36398E+00 5.92574E+00-2.03305E-02-3.46438E-02
 -1       419 7.53322E+00 3.72205E-01 2.60025E+00 4.94265E+00 8.65006E-03 3.39629E-03
 -1       420-1.91343E+00 2.40875E+00 1.31433E-01 1.83839E+00-6.68585E-03 7.57060E-03
 -1       421-2.24317E+00 4.73731E+00 8.17076E-01 3.95062E+00 1.15540E-02-1.09925E-02
 -1       422-6.40599E+00-7.34046E-01-2.39879E+00 1.16128E+00-9.07917E-02 1.17197E-02
 -1       423 9.35741E+00 2.27648E+00 3.84311E+00 5.20059E+00-1.87284E-02 1.37979E-02
 -1       424 5.71439E+00 3.67200E+00 3.11617E+00 5.56540E+00-4.60557E-03 4.00416E-02
 -1       425 2.66763E+00-1.42699E+00 3.68424E-01 2.27977E+00 6.56246E-02 1.48817E-02
 -1       426-9.82054E+00-3.18179E-01-3.38889E+00-2.09841E+00-1.90669E-02-3.01357E-04
 -1       427 4.37322E+00 8.28367E+00 4.23649E+00 7.42886E+00-6.25352E-02 7.31602E-02
 -1       428 8.80627E+00 2.70963E+00 3.79754E+00 4.82416E+00 7.68268E-03-7.13846E-03
 -1       429-4.31820E+00 2.82511E+00-5.05981E-01 2.96368E+00-9.07729E-02-3.08034E-02
 -1       430 5.78107E+00 5.85869E+00 3.84433E+00 6.44085E+00-5.79753E-02-4.90848E-02
 -1       431 1.02387E+01 5.56242E+00 5.19478E+00 8.18776E+00 2.35230E-02 2.05780E-02
 -1       432 6.37673E+00 7.53639E+00 4.56563E+00 7.46504E+00 4.57511E-02-6.76377E-03
 -1       433 7.94597E+00 1.18716E+00 2.99542E+00 3.77675E+00-6.22547E-02 2.04349E-03
 -1       434 6.69343E+00 3.99360E+00 3.53772E+00 4.88396E+00-1.65355E-02 3.96150E-05
 -1       435-1.56277E+01-2.89646E-01-5.22765E+00-2.82806E+00 1.28071E-01-2.25087E-03
 -1       436-8.30218E+00 1.30859E+00-2.32386E+00-5.35140E-01-1.56361E-02 3.67051E-04
 -1       437-8.65793E+00-3.67331E+00-3.97041E+00 1.04750E+00 1.26781E-01-1.23281E-01
 -1       438 9.31692E+00 6.93269E+00 5.35307E+00 8.35918E+00-7.10528E-03 3.30700E-02
 -1       439 9.75513E+00 3.54320E+00 4.39491E+00 6.50394E+00 1.04286E-03-7.14226E-02
 -1       440-6.45373E-01 7.88635E+00 2.49150E+00 7.12112E+00 5.34751E-02-5.13217E-02
 -1       441 8.89766E+00 4.05593E+00 4.28251E+00 6.15514E+00-2.05937E-02 1.93040E-02
 -1       442 3.80821E+00 8.17605E+00 3.95480E+00 7.50090E+00 1.17875E-03 4.76658E-02
 -1       443 3.96264E+00 2.23153E+00 2.04408E+00 3.89305E+00 6.59029E-03-6.29426E-03
 -1       444 9.13230E+00 9.72917E+00 6.15284E+00 9.66621E+00 9.50487E-02 1.43137E-01
 -1       445 1.38519E+01 1.13938E+01 8.32917E+00 1.23766E+01-3.76399E-02 4.97530E-03
 -1       446 1.40162E+01 1.11576E+01 8.30155E+00 1.22159E+01-1.35044E-02 1.20691E-02
 -1       447 1.21533E+01 9.34183E+00 7.03691E+00 1.03579E+01-2.42039E-02 3.63699E-02
 -1       448 7.93884E+00 6.02624E+00 4.65017E+00 6.97941E+00-1.32961E-02-3.53280E-04
 -1       449 4.82781E+00 3.50666E+00 2.77730E+00 4.54683E+00-1.43226E-02 1.15921E-02
 -1       450 9.47883E+00 1.00199E+01 6.46392E+00 9.70983E+00 6.60932E-03 9.55111E-02
 -1       451 1.37241E+01 1.14884E+01 8.27861E+00 1.22341E+01 3.81804E-02 1.06099E-02
 -1       452 1.39176E+01 1.14342E+01 8.26758E+00 1.23300E+01 2.13326E-02-6.27241E-02
 -1       453 1.19905E+01 9.25428E+00 6.98969E+00 1.02539E+01 3.92588E-02 1.06039E-02
 -1       454 7.94822E+00 6.04113E+00 4.59638E+00 6.98628E+00-1.51327E-02 3.24712E-02
 -1       455 4.89160E+00 3.62238E+00 2.84548E+00 4.53245E+00-4.53947E-02-5.27736E-05
 -1       456-2.61417E+00 3.72439E+00 3.66372E-01 9.59185E-01 5.61603E-01 2.11687E-01
 -1       457 4.18914E-01 9.07975E+00 3.40296E+00 4.90837E+00 4.73378E-01 3.43401E-01
 -1       458 1.09950E+00 1.06421E+01 3.49805E+00 7.91827E+00-2.20023E-01-2.50874E-01
 -1       459 7.69832E-01 1.01181E+01 3.44697E+00 5.15962E+00-5.40864E-01-3.49866E-01
 -1       460 1.02352E+00 1.07526E+01 3.73835E+00 8.15649E+00 1.14485E-01-1.59313E-01
 -1       461-3.22586E+01-9.35450E+00-1.37323E+01-1.58432E+00-1.91812E-02-7.31571E-03
 -1       462-2.61063E+01-2.79280E+00-9.40001E+00-5.79698E+00 1.33242E-01-3.53423E-01
 -1       463-1.87919E+01-2.32895E+00-7.00332E+00-6.48976E+00-3.38235E-02-2.38118E-02
 -1       464-1.65023E+01-2.59770E+00-6.19306E+00-5.69362E+00 2.87614E-02-6.47127E-02
 -1       465-8.93325E+00-1.35793E+00-3.31999E+00-2.73413E+00-7.25868E-01-4.66961E-01
 -1       466-2.47389E+01-1.73722E+00-8.66512E+00-6.51622E+00 1.64264E-01-3.65346E-01
 -1       467-1.90937E+01-2.49940E+00-7.07749E+00-6.44475E+00 7.64986E-02 7.44832E-02
 -1       468-1.65406E+01-2.46408E+00-6.27516E+00-5.55779E+00 8.19232E-02 1.09431E-01
 -1       469-8.87924E+00-1.00756E+00-3.45063E+00-2.33986E+00 4.14794E-01 2.77880E-01
 -1       470 5.96885E+00 2.94455E+00 2.95404E+00 4.46396E+00 5.88746E-02 1.33657E-02
 -1       471 7.67353E+00 3.77614E+00 3.76928E+00 3.67234E+00 1.12413E-01-1.23854E-02
 -1       472 2.64300E+00 1.30516E+00 1.31198E+00 9.42891E-01-8.86133E-02-1.48745E-02
 -1       473-1.34576E+01-6.67126E+00-6.75828E+00-5.31723E-01-4.48569E-01-2.41830E-03
 -1       474 6.02739E+00 2.96698E+00 2.96346E+00 4.39794E+00-7.59210E-02 7.32738E-03
 -1       475 7.68743E+00 3.78303E+00 3.77627E+00 3.73470E+00-5.72602E-02 1.49858E-02
 -1       476 2.89349E+00 1.40622E+00 1.36775E+00 1.09389E+00 1.58089E-01 9.72757E-02
 -1       477-1.39726E+01-6.86493E+00-6.83020E+00-2.92204E-01 5.66371E-01-1.36847E-01
 -1       478 1.00394E+01 9.48334E+00 6.48359E+00 9.68521E+00 5.62194E-02 1.14173E-02
 -1       479 1.37700E+01 1.13579E+01 8.31505E+00 1.24092E+01 3.89015E-02 2.06077E-02
 -1       480 1.40986E+01 1.15162E+01 8.45289E+00 1.26112E+01 1.90260E-02 3.12581E-02
 -1       481 1.36894E+01 1.13331E+01 8.25830E+00 1.23739E+01-2.64466E-02 6.52554E-03
 -1       482 1.17989E+01 9.35153E+00 6.98015E+00 1.04202E+01-1.39792E-03 1.81309E-02
 -1       483 1.31504E+01 1.05319E+01 7.81515E+00 1.16962E+01-7.57065E-02-8.81029E-02
 -1       484 7.75851E+00 6.18309E+00 4.59230E+00 6.94075E+00-4.99725E-02-4.71649E-03
 -1       485 1.00756E+01 7.64741E+00 5.84859E+00 8.76998E+00 4.28142E-02 1.50460E-02
 -1       486 4.93201E+00 4.02015E+00 2.95111E+00 4.47534E+00-7.67861E-03-9.53164E-03
 -1       487 6.07654E+00 4.81266E+00 3.59343E+00 5.45365E+00 4.19471E-02-1.83284E-02
 -1       488 1.31626E+01 1.09293E+01 7.95034E+00 1.17566E+01-5.33745E-02-1.23688E-01
 -1       489 6.27478E-01 1.29819E+01 4.49110E+00 8.12636E+00 8.26968E-02 1.84474E-01
 -1       490 2.96749E-01 1.01655E+01 3.35366E+00 5.32771E+00-6.08540E-02-1.42640E-01
 -1       491 1.71682E-01 1.01513E+01 3.53388E+00 7.41827E+00 1.45067E-01-1.29952E-01
 -1       492-2.40587E+01-2.16545E+00-8.70563E+00-6.82557E+00 7.45934E-03-4.36068E-01
 -1       493-1.87909E+01-2.28304E+00-6.88752E+00-6.43031E+00 2.20203E-02-2.54024E-02
 -1       494-1.80465E+01-2.25276E+00-6.69876E+00-6.30968E+00-2.20207E-02 6.62989E-03
 -1       495-1.64255E+01-2.06848E+00-6.08887E+00-5.55084E+00 4.50080E-03 2.39650E-02
 -1       496-9.00141E+00-1.14997E+00-3.28899E+00-2.81910E+00-2.06730E-01-3.04396E-02
 -1       497-1.36109E+01-2.52035E+00-5.32331E+00-4.82097E+00 1.48256E-01 1.62041E-02
 -1       498-1.87507E+01-2.15242E+00-6.89803E+00-7.20090E+00-1.81183E-01 2.24679E-01
 -1       499 5.99518E+00 2.95285E+00 2.95285E+00 4.52762E+00 1.10002E-07 3.34440E-02
 -1       500 7.72148E+00 3.80312E+00 3.80312E+00 3.77066E+00-8.25621E-08 1.21093E-02
 -1       501 7.12515E+00 3.10723E+00 3.37669E+00 2.45059E+00 3.47431E-03 1.93089E-03
 -1       502 2.78473E+00 1.37159E+00 1.37158E+00 9.95474E-01-2.67913E-07 9.37409E-03
 -1       503-1.32092E+01-6.50603E+00-6.50603E+00-8.19063E-01-2.84650E-07-6.42767E-03
 -1       504-1.94647E+00-1.44155E+00-1.11805E+00-4.58331E-01 3.75465E-03 8.40159E-03
 -1       505 7.74012E+00 3.63535E+00 3.75390E+00 4.70625E+00-7.43655E-04-1.33985E-03
 -1       506 5.33146E+00 8.23337E+00 4.46001E+00 7.75289E+00 4.49733E-03 4.88534E-02
 -1       507 9.78228E-01 6.99889E+00 2.65188E+00 6.49575E+00 1.51943E-02-7.02318E-02
 -1       508 7.48105E+00 5.78240E+00 4.44890E+00 7.25061E+00 2.00870E-03 9.76906E-03
 -1       509 7.26935E+00 6.44495E+00 4.49590E+00 7.48897E+00 1.07340E-03-5.54077E-02
 -1       510 7.09870E+00 4.10844E+00 3.66075E+00 5.11555E+00 1.25494E-02-2.02825E-02
 -1       511 1.56998E+00-1.41212E+00 2.67774E-02 1.59896E+00-1.27998E-02-1.14579E-03
 -1       512 6.04409E+00 8.94039E-01 2.30049E+00 2.68336E+00 2.00028E-02-4.38461E-03
 -1       513-1.76967E+01-4.51125E+00-7.24990E+00 4.05173E-01 2.69762E-01-2.92775E-01
 -1       514-4.15810E+00-1.91835E+00-1.95574E+00 8.65383E-01 1.51851E-01-2.49456E-02
 -1       515 1.46463E-01-1.31858E+00-3.67755E-01 2.78655E+00 2.79634E-02 1.65868E-02
 -1       516-1.24595E+01-8.83031E-01-4.45717E+00-2.79026E+00-1.23913E-01-1.74346E-01
 -1       517-8.42792E+00 3.07787E-01-2.65651E+00-1.39240E+00-1.21676E-02 4.03438E-02
 -1       518-9.90694E+00-4.11350E-01-3.44731E+00-1.77674E+00 2.70147E-02 1.01236E-01
 -1       519-6.92836E+00 1.64591E+00-1.69908E+00 3.92423E-01-1.25807E-01-2.14736E-02
 -1       520-9.45976E+00 1.18761E+00-2.78003E+00-1.05750E+00 2.50197E-02-2.06676E-02
 -1       521-5.08027E+00 3.65357E+00-6.28278E-01 2.09817E+00 1.40312E-01 7.56341E-02
 -1       522-1.57190E+00 7.12416E+00 1.77950E+00 6.29411E+00 1.25981E-02 1.26944E-01
 -1       523 8.55776E+00 2.54667E+00 3.70358E+00 4.78469E+00 2.96258E-03 3.28118E-02
 -1       524 8.07362E+00 3.69285E+00 3.88180E+00 5.40129E+00-5.49844E-02-6.57247E-03
 -1       525 9.70850E+00 4.52459E+00 4.69311E+00 6.92589E+00 2.80580E-02 6.07932E-02
 -1       526 8.24129E+00 2.16429E+00 3.43868E+00 3.93031E+00-5.68804E-02 1.20514E-02
 -1       527 7.81174E+00 7.94172E+00 5.20144E+00 8.30942E+00 2.21570E-02 2.28380E-02
 -1       528 6.87200E+00 7.76794E+00 4.84457E+00 7.85328E+00-1.05595E-02-2.84202E-02
 -1       529 9.44272E+00 4.88349E+00 4.77414E+00 7.30125E+00 1.29901E-02-9.63847E-03
 -1       530 1.03965E+01 6.04115E+00 5.40675E+00 8.56728E+00 8.91949E-02 6.42802E-02
 -1       531-2.21733E-02 5.03097E+00 1.64292E+00 4.20496E+00 4.06670E-02 3.44623E-02
 -1       532 4.95824E+00 2.48611E+00 2.41069E+00 4.70778E+00-7.48986E-02-1.46707E-01
 -1       533 1.07219E+00 3.40059E+00 1.49769E+00 3.58645E+00-6.62683E-02-2.01135E-02
 -1       534-7.84793E+00 1.01170E+00-2.23433E+00-8.47312E-01 9.82821E-02 2.26252E-02
 -1       535 7.62787E+00 9.07877E-01 2.80913E+00 4.11688E+00-1.27252E-02-5.12968E-02
 -1       536-2.87100E+00 3.41363E-01-8.05353E-01 2.07311E+00 5.34145E-02 4.72594E-02
 -1       537 9.06376E+00 1.96997E+00 3.65667E+00 5.60484E+00-7.45626E-03-4.92507E-02
 -1       538 6.17325E+00 3.15723E-01 2.15445E+00 4.66073E+00-6.76418E-02 1.82411E-02
 -1       539 1.60503E+00 5.07780E-02 5.23093E-01 3.58090E+00-5.35291E-02-5.03163E-02
 -1       540 7.04116E+00 4.11388E+00 3.65352E+00 5.12915E+00-1.25821E-02-5.22331E-03
 -1       541 9.83756E+00 5.07908E+00 4.97875E+00 7.92125E+00 1.99587E-02 2.24509E-02
 -1       542 9.28619E+00 3.83841E+00 4.30194E+00 6.68386E+00-3.03930E-02 5.48304E-03
 -1       543 4.87169E+00 6.46058E+00 3.85783E+00 6.51123E+00-8.01686E-03 4.61771E-02
 -1       544 6.13557E+00 6.58726E+00 4.20250E+00 7.02536E+00-3.75000E-02-2.09124E-02
 -1       545 6.97277E-01 6.68609E+00 2.58317E+00 6.12069E+00 2.99973E-02 3.21639E-02
 -1       546 5.30001E+00 8.09641E+00 4.24666E+00 7.57326E+00 6.39359E-02-2.68615E-02
 -1       547-2.01783E+00 3.62206E+00 5.49020E-01 2.70238E+00-6.68190E-02-4.26929E-02
 -1       548-1.71845E+00 6.69573E+00 1.60059E+00 6.23017E+00-1.05667E-01-7.61746E-02
 -1       549-5.39264E+00 2.73671E+00-7.57219E-01 1.75829E+00-1.33899E-01 4.16493E-02
 -1       550-9.69069E+00 1.04145E+00-2.95099E+00-1.26355E+00-2.44896E-02-1.89318E-02
 -1       551-9.66034E+00 1.31058E-01-3.13656E+00-2.12493E+00 2.55066E-02 4.89000E-03
 -1       552-1.11668E+01-4.40481E-01-3.72423E+00-2.45537E+00 2.32927E-02-6.40223E-02
 -1       553-1.82364E+01-3.86823E+00-7.28939E+00-1.18279E-01-3.08347E-01 4.80736E-01
 -1       554-1.22950E+01-1.05469E+00-4.50586E+00-3.16690E+00-8.46880E-02 1.08181E-01
 -1       555-4.55366E+00-1.73908E+00-2.21830E+00 7.67130E-01-2.91898E-02 1.24212E-01
 -1       556 6.91784E+00 8.72290E-01 2.58496E+00 3.46881E+00-1.29570E-01-4.48501E-02
 -1       557 2.77684E+00-1.33081E+00 5.34381E-01 2.59309E+00 9.78107E-02-6.07094E-02
 -1       558 9.43162E+00 4.62179E+00 4.63703E+00 6.86397E+00-2.69941E-02-6.41794E-02
 -1       559 7.88369E+00 3.71725E+00 3.85711E+00 5.38107E+00 3.29220E-02-5.30104E-04
 -1       560 9.41302E+00 7.37516E+00 5.58719E+00 8.83216E+00-1.89483E-02 8.21949E-03
 -1       561 9.37023E+00 6.85055E+00 5.36971E+00 8.43116E+00 6.18760E-03 2.07054E-02
 -1       562 2.22586E+00 3.41122E+00 1.75128E+00 3.83820E+00 4.78660E-02 4.63997E-02
 -1       563-7.19061E+00 1.75118E+00-1.76354E+00 8.45515E-02 1.73667E-01 3.04504E-02
 -1       564 8.94798E-01-1.88848E-01 3.35314E-01 3.49173E+00-1.88577E-01-3.48231E-02
 -1       565 8.44858E+00 2.68443E+00 3.71493E+00 4.79172E+00-9.11835E-04-1.86525E-02
 -1       566 8.30619E+00 2.14701E+00 3.47943E+00 3.90390E+00 1.78333E-03 3.61805E-02
 -1       567 6.47294E+00 2.01546E+00 2.83329E+00 5.23270E+00-6.37164E-03 9.42869E-02
 -1       568-4.43717E+00 6.54412E-01-1.23088E+00 1.06633E+00 9.00143E-03-2.80363E-02
 -1       569 8.91152E+00 1.67131E+00 3.42757E+00 5.16023E+00 7.10880E-02 3.25108E-02
 -1       570-5.21441E-02 1.13976E+00 3.03609E-01 3.16698E+00-3.37878E-02-7.54968E-02
 -1       571-1.09432E+01-2.98367E-01-3.74499E+00-2.42523E+00 1.39783E-02 7.41327E-02
 -1       572-8.50479E+00-4.51584E-02-2.92929E+00-8.06846E-01-1.09824E-01-7.67455E-02
 -1       573-6.80304E+00 1.96409E+00-1.63714E+00 1.12374E+00-2.72194E-02-2.20107E-02
 -1       574-1.08929E+01 8.48143E-03-3.60407E+00-2.41099E+00 3.95269E-02-6.02302E-02
 -1       575-8.85845E+00-5.14990E-01-3.01825E+00-1.06729E+00 8.23589E-02 1.11846E-02
 -1       576-4.05991E+00 1.97646E+00-6.81213E-01 1.03869E+00 2.24027E-02-7.58377E-03
 -1       577-5.89851E+00 9.57558E-01-1.64980E+00-1.24481E-01 9.24382E-02-3.35323E-02
 -1       578-1.45370E-01 3.64956E+00 1.14261E+00 3.10143E+00-6.81015E-02 2.04908E-02
 -1       579-4.76517E+00 8.73620E-01-1.29103E+00 5.16543E-01 4.97283E-02 2.81457E-02
 -1       580-6.99809E-01 2.36403E+00 5.51017E-01 2.46381E+00 1.01356E-01 2.48674E-02
 -1       581 1.50566E-01-1.82389E+00-5.66074E-01 1.11447E+00 2.07262E-01 9.00922E-02
 -1       582 7.73829E-02-1.76778E+00-5.86864E-01 1.02299E+00 1.71739E-02-3.14202E-02
 -1       583 4.96936E+00 9.34451E-01 1.97181E+00 2.18186E+00 6.04184E-02 1.48138E-02
 -1       584-7.67538E+00-2.15714E+00-3.28456E+00 1.33771E+00-3.57229E-02-2.84862E-01
 -1       585-5.34389E+00-2.53349E+00-2.58834E+00 1.26245E-01 1.46636E-01-5.54295E-02
 -1       586-2.09118E+00-1.49598E+00-1.25965E+00 2.16176E+00-1.87796E-01 1.61799E-01
 -1       587-2.91454E+00-2.28683E+00-1.68680E+00 1.48450E+00 3.59806E-02 6.19257E-02
 -1       588-8.09900E+00-5.13849E-01-2.90842E+00-3.37788E-01-1.38146E-01-1.20779E-01
 -1       589-6.04826E+00-1.13835E+00-2.35970E+00 1.30829E+00 5.30829E-02-6.76103E-03
 -1       590-8.21943E+00-3.93560E-01-2.84704E+00-6.79866E-01-5.29290E-02 6.24340E-02
 -1       591-3.12750E+00 4.96966E-01-8.53089E-01 1.77494E+00-1.53296E-02-2.02307E-03
 -1       592-1.30979E+01-6.31922E-01-4.53248E+00-3.46930E+00 1.62011E-02-2.87144E-02
 -1       593 1.40664E+00-4.95795E-01 3.15946E-01 3.33324E+00-5.30822E-02-3.77138E-02
 -1       594 5.67357E-02 6.69066E-01 2.29927E-01 3.31074E+00-4.98446E-02-8.33226E-03
 -1       595 9.32229E+00 9.78994E+00 6.29912E+00 9.60993E+00-3.74133E-02-4.20263E-02
 -1       596 5.75871E+00 8.14314E+00 4.67341E+00 7.46233E+00 3.23559E-03 3.92606E-02
 -1       597 9.28883E+00 9.09340E+00 6.02565E+00 9.45384E+00 4.77930E-02-7.92385E-02
 -1       598 8.89877E+00 9.64823E+00 6.24375E+00 9.47233E+00-8.01768E-02 5.42678E-02
 -1       599 9.54469E+00 9.19866E+00 6.17193E+00 9.54379E+00 1.07929E-02 1.50073E-02
 -1       600-1.19395E+01-2.47432E-01-3.95586E+00-2.62956E+00 8.18405E-02-6.17272E-02
 -1       601-1.57989E+01-9.64566E-01-5.58544E+00-5.40617E+00 4.64976E-02-1.03736E-02
 -1       602-1.51802E+01-1.82786E+00-5.63901E+00-4.35421E+00-2.77817E-01 2.13198E-01
 -1       603-1.10822E+01-4.35417E-01-3.81677E+00-7.74286E-01 2.60793E-01-1.50930E-01
 -1       604-1.89687E+01-7.38633E+00-8.62671E+00 5.48645E-01 9.81498E-03 2.87130E-01
 -1       605-1.30376E+01-6.15365E-01-4.49255E+00-3.43368E+00-5.32425E-02 1.69700E-02
 -1       606 9.84748E-01 6.79228E+00 2.57083E+00 5.74201E+00 3.94668E-02 1.23802E-01
 -1       607 4.14202E+00 8.44302E+00 4.09477E+00 7.59337E+00 2.27950E-02 2.28145E-01
 -1       608 8.13608E+00 2.89917E+00 3.65021E+00 3.77239E+00 1.11253E-02 2.17466E-02
 -1       609 7.24915E+00 1.71039E+00 2.94456E+00 3.12444E+00-3.08138E-02-6.10415E-02
 -1       610 8.67707E+00 2.05932E+00 3.52408E+00 4.44138E+00-2.18734E-02 2.53690E-02
 -1       611 8.14624E+00 2.89263E+00 3.64320E+00 3.78951E+00 3.05270E-02-4.81238E-03
 -1       612 7.24266E+00 1.61919E+00 2.92312E+00 3.06456E+00-7.14777E-02 7.86417E-02
 -1       613-4.78904E+00 3.20467E+00-5.10781E-01 1.98059E+00-1.15066E-02-2.28379E-02
 -1       614-3.21728E+00 2.99090E+00-7.73130E-02 1.88041E+00 6.28586E-02 4.08916E-02
 -1       615 6.89320E+00 3.05861E+00 3.31797E+00 5.78360E+00 6.02878E-02-2.05521E-02
 -1       616 7.63734E+00 1.23365E+00 2.92864E+00 5.45462E+00 1.00048E-02 1.00804E-01
 -1       617 1.04216E+01 9.51910E+00 6.59702E+00 1.00772E+01 6.13789E-02 5.70161E-02
 -1       618 1.04863E+01 9.56588E+00 6.62993E+00 1.00860E+01 1.26816E-02-2.07784E-02
 -1       619 9.87554E+00 8.56010E+00 6.04101E+00 9.39968E+00-1.83397E-02-9.78351E-03
 -1       620 6.04140E+00 6.66545E+00 4.19429E+00 6.96581E+00-3.77066E-02-2.69580E-02
 -1       621 9.84211E+00 8.47995E+00 6.07295E+00 9.37176E+00-2.10780E-02-1.80479E-02
 -1       622-3.43802E+00 3.73772E+00 1.20319E-01 3.54496E+00-6.54040E-02 4.94421E-02
 -1       623-1.38571E+00 6.59840E+00 1.80296E+00 5.62250E+00-1.29673E-01 9.98022E-02
 -1       624 3.38080E+00 2.92226E+00 2.08960E+00 4.38534E+00-1.85491E-02-6.79607E-03
 -1       625 5.03852E+00-7.68479E-01 1.41391E+00 3.72121E+00-7.08983E-02-1.36826E-01
 -1       626-1.56022E+00-1.77106E+00-1.11227E+00 2.21658E+00 8.21922E-02 1.42980E-02
 -1       627 1.16236E+01 9.27745E+00 6.92279E+00 1.04710E+01-1.76416E-02 6.55758E-02
 -1       628 5.24861E+00 4.26012E+00 3.13424E+00 5.68105E+00-7.22580E-02-5.16173E-02
 -1       629 7.70689E+00 6.51868E+00 4.68658E+00 7.50236E+00-2.29619E-02 2.61772E-02
 -1       630 3.21215E+00 3.86324E+00 2.37765E+00 4.66079E+00-9.82716E-03-9.73512E-02
 -1       631 1.98456E+00 4.10108E+00 1.98491E+00 4.16242E+00-6.58153E-03 2.89094E-02
 -1       632 5.65211E+00 4.89713E+00 3.50856E+00 6.01357E+00-3.74921E-02 1.54473E-02
 -1       633-1.36222E+01-1.06778E+00-4.87379E+00-4.12397E+00-3.86100E-02 5.43060E-03
 -1       634-3.33277E+00 3.76858E+00 3.13142E-03 2.22705E+00-8.69668E-02-1.09993E-01
 -1       635-1.25866E+00 7.52855E+00 1.97508E+00 5.81276E+00 5.46496E-02 6.24959E-02
 -1       636-3.52774E+00 3.03698E+00-4.09833E-02 1.65881E+00-2.10915E-01-7.35032E-02
 -1       637 2.00202E+00 6.22343E+00 2.68809E+00 5.51452E+00-1.43553E-02-1.66598E-02
 -1       638 6.13493E+00-1.94878E-01 1.94039E+00 4.17366E+00-4.23085E-02-7.03000E-02
 -1       639 8.68709E+00 1.42136E+00 3.33928E+00 5.05822E+00 1.05973E-01 9.59460E-03
 -1       640 7.32738E+00 3.81008E+00 3.69787E+00 4.83349E+00 1.25710E-02-1.29486E-02
 -1       641 6.32960E+00 4.30138E+00 3.53232E+00 5.13311E+00 1.14209E-02 3.24978E-02
 -1       642 5.24141E+00 3.10686E+00 2.75570E+00 4.38910E+00-1.89230E-02 9.84617E-03
 -1       643 7.57210E+00 4.48876E+00 3.97705E+00 5.79179E+00-5.34253E-05 2.58903E-02
 -1       644 9.03389E+00 3.20744E+00 4.06078E+00 5.63723E+00-3.39728E-02 3.91382E-03
 -1       645 9.31453E+00 5.61839E+00 4.94736E+00 7.41020E+00-1.80447E-03-3.66747E-03
 -1       646 8.17159E+00 3.00976E+00 3.68236E+00 4.69694E+00 2.83531E-02-4.50603E-02
 -1       647 1.15407E+01 9.19975E+00 6.86607E+00 1.04583E+01 5.24948E-02 2.79729E-02
 -1       648 7.42240E+00 5.27142E+00 4.19111E+00 6.91979E+00-1.10883E-02 4.30293E-03
 -1       649 2.04692E+00 4.83252E+00 2.24950E+00 4.60393E+00-2.87549E-02 4.06631E-02
 -1       650-6.41406E-01 9.79502E+00 3.04486E+00 7.57618E+00-8.86014E-02-6.42676E-02
 -1       651-6.51236E-01 1.00804E+01 3.23633E+00 7.68959E+00 2.71995E-01 8.98840E-02
 -1       652 1.48006E+00 8.06307E+00 3.24807E+00 7.41855E+00-7.69640E-04-1.16081E-01
 -1       653 6.29101E+00 4.43914E+00 3.53063E+00 5.13793E+00 1.26342E-02-3.50207E-02
 -1       654-1.68474E+01-9.15925E-01-5.68890E+00-5.22748E+00 1.93723E-01-4.10859E-02
 -1       655-2.49411E+01-3.34705E+00-9.35467E+00-2.66873E+00 1.96434E-01-3.98337E-01
 -1       656-1.48712E+01-1.48608E+00-5.41972E+00-4.41482E+00 2.73694E-02 4.74886E-03
 -1       657 9.98005E+00 5.52598E+00 5.09542E+00 7.58730E+00 2.46156E-02-2.99505E-02
 -1       658 9.16166E+00 2.92173E+00 4.04191E+00 6.20752E+00-1.19186E-01-7.77581E-02
 -1       659 9.50081E+00 2.65876E+00 4.03504E+00 5.89351E+00 2.50344E-02-9.43635E-02
 -1       660-5.39805E+00-2.58517E+00-2.57291E+00 1.23400E-01-7.74387E-02 6.08445E-02
 -1       661-1.83421E+01-7.37441E+00-8.46250E+00 4.12643E-01 1.74449E-01-3.47768E-01
 -1       662 9.29257E+00 5.63366E+00 4.93031E+00 7.39938E+00-2.09940E-02 2.57418E-02
 -1       663 9.19494E+00 3.05792E+00 4.03661E+00 5.65374E+00-7.30278E-03 4.53298E-02
 -1       664 7.65137E+00 4.54645E+00 4.01550E+00 5.84165E+00 1.08819E-02-2.46517E-02
 -1       665 1.17544E+01 8.02774E+00 6.50410E+00 9.89989E+00-3.72091E-02-1.75720E-02
 -1       666 1.05175E+01 6.78619E+00 5.73128E+00 8.51849E+00-1.32666E-02-2.04417E-02
 -1       667 1.04417E+01 6.79418E+00 5.68383E+00 8.49772E+00 7.16130E-02 3.81118E-02
 -1       668 1.15434E+01 7.90649E+00 6.43655E+00 9.82632E+00 1.00076E-02-5.61512E-02
 -1       669 8.04151E+00 4.67961E+00 4.23010E+00 6.96048E+00 7.04475E-02 1.07992E-01
 -1       670 8.71693E+00 2.85735E+00 3.75836E+00 6.45000E+00 2.00671E-02 9.28945E-02
 -1       671-2.49138E+01-3.10772E+00-9.35074E+00-2.59181E+00-1.40794E-01 3.15171E-01
 -1       672 1.12966E+01 8.53178E+00 6.54966E+00 9.90165E+00 4.99621E-02 3.98764E-02
 -1       673 1.14193E+01 8.81154E+00 6.64998E+00 1.00379E+01-2.73985E-02-1.13270E-02
 -1       674 9.86014E+00 6.30087E+00 5.31707E+00 8.31179E+00-3.82854E-03 2.08930E-02
 -1       675 9.99976E+00 5.42407E+00 5.09968E+00 7.55297E+00-3.70927E-02-6.57767E-02
 -1       676 9.89915E+00 4.47226E+00 4.73212E+00 7.21950E+00-3.10996E-02-2.91692E-02
 -1       677-2.45382E+00 5.59849E+00 1.08372E+00 5.19252E+00 3.72140E-02-5.48094E-03
 -1       678 9.37717E+00 2.89259E+00 4.04402E+00 5.88295E+00 3.46216E-02 4.14786E-02
 -1       679 9.39058E+00 3.83397E+00 4.36609E+00 6.44566E+00-5.01095E-03-9.07802E-03
 -1       680 8.71019E+00 3.34311E+00 3.96611E+00 5.38138E+00-5.69261E-03 5.99580E-03
 -1       681 7.59802E+00 3.78569E+00 3.76496E+00 5.27180E+00 8.52383E-02-2.55877E-04
 -1       682 8.98761E+00 2.42365E+00 3.75732E+00 4.96216E+00-9.22728E-03-4.63132E-02
 -1       683-1.37610E+01-1.14118E+00-4.92125E+00-4.13856E+00 1.05312E-01-5.21444E-03
 -1       684-5.03009E+00 1.95484E+00-1.00496E+00 6.46421E-01-1.60289E-01 4.27152E-04
 -1       685-9.09049E+00 3.48901E-01-2.90106E+00-1.49141E+00 2.86714E-02-2.82918E-02
 -1       686 8.92062E+00 1.73619E+00 3.51411E+00 4.58586E+00-8.91971E-02 4.30750E-02
 -1       687 7.55032E+00 6.97706E-01 2.70844E+00 4.30346E+00 4.40618E-02-4.92300E-02
 -1       688 3.70918E+00 5.35399E+00 3.00510E+00 5.33438E+00-1.26274E-01-1.03146E-01
 -1       689-3.18288E+00 3.93243E+00 2.40683E-01 3.80908E+00 4.97365E-02-4.56969E-02
 -1       690 4.94525E+00 9.66972E-01 1.95722E+00 2.17876E+00-2.29308E-02-3.54504E-02
 -1       691 4.43771E+00 8.45821E+00 4.24940E+00 7.59950E+00-1.17643E-02 1.20734E-02
 -1       692 7.62311E+00 3.83729E+00 3.78391E+00 5.25413E+00-5.85343E-02-3.41836E-02
 -1       693 9.07095E+00 2.28239E+00 3.74211E+00 4.95569E+00-1.58054E-02 5.52748E-02
 -1       694 7.85860E+00 3.50867E+00 3.78046E+00 4.93833E+00 6.25350E-03-5.35785E-03
 -1       695 8.12837E+00 2.98566E+00 3.65633E+00 4.70255E+00-1.40042E-02 2.63960E-02
 -1       696-1.44804E+00 6.26950E+00 1.55853E+00 5.69955E+00-2.03139E-02-1.73231E-01
 -1       697 1.58330E+00 8.32940E+00 3.24409E+00 7.47506E+00-1.07610E-01-7.60819E-02
 -1       698 5.26791E+00 3.04107E+00 2.71330E+00 4.35936E+00-7.73452E-02-8.73599E-03
 -1       699 8.82848E+00 1.62362E+00 3.44904E+00 4.53338E+00-1.35322E-02 4.31857E-02
 -1       700 9.37908E+00 2.14787E+00 3.80842E+00 5.17400E+00-3.23514E-02 4.55377E-02
 -1       701 8.32265E+00 4.59474E+00 4.21694E+00 7.07158E+00 2.98442E-02-6.45048E-02
 -1       702 3.87916E+00 6.15363E+00 3.27981E+00 5.87346E+00 8.85745E-03-3.33944E-02
 -1       703 3.93361E+00-1.05582E+00 9.22569E-01 2.80061E+00 5.23800E-02 1.38352E-02
 -1       704 5.42089E+00 8.78258E-02 1.81665E+00 2.87344E+00 3.31452E-03-7.39111E-02
 -1       705 2.13197E+00 6.53170E+00 2.84101E+00 5.71887E+00 6.86831E-02-8.88164E-03
 -1       706 1.04191E+00 6.91834E+00 2.70113E+00 5.95351E+00-9.78842E-02-7.02705E-02
 -1       707 1.45738E+00 7.67096E+00 2.92409E+00 7.04531E+00-3.14669E-02-4.52411E-03
 -1       708-1.28679E+00 6.36422E+00 1.75121E+00 5.92946E+00 6.50652E-02 1.37408E-01
 -1       709-1.95915E+00 5.05744E+00 1.02535E+00 4.12289E+00-2.17388E-02 1.02145E-02
 -1       710 9.03127E+00 3.82087E+00 4.25092E+00 7.01962E+00 2.72536E-02 4.59022E-02
 -1       711 6.55609E+00 3.66021E-01 2.27646E+00 3.39305E+00-8.07967E-02-7.34119E-02
 -1       712-2.76407E-01 4.74493E+00 1.47032E+00 3.99419E+00 1.15749E-02-1.32848E-02
 -1       713 7.31091E+00 3.83668E+00 3.67030E+00 4.83779E+00-2.57422E-02 1.37976E-02
 -1       714-1.10030E+01-8.22286E-01-3.84155E+00-4.13678E-01-2.10140E-01 3.06298E-01
 -1       715-1.23803E+01-1.71920E+00-4.68362E+00-5.89542E-01 5.64070E-02-6.20184E-02
 -1       716-7.23687E+00-2.56535E+00-3.12851E+00 1.54309E+00 1.66990E-01 1.03014E-01
 -1       717-5.09049E+00 2.95776E+00-6.97116E-01 1.67078E+00 4.04716E-02 5.42028E-02
 -1       718 8.95040E+00 2.14749E+00 3.63688E+00 5.66449E+00 1.20721E-01 7.40755E-02
 -3
    1PSTEP                         3           1           1          
  100CL  101 1.000000000         339                     0    1           1
 -4  TOSTRAIN    6    1
 -5  EXX         1    4    1    1
 -5  EYY         1    4    2    2
 -5  EZZ         1    4    3    3
 -5  EXY         1    4    1    2
 -5  EYZ         1    4    2    3
 -5  EZX         1    4    3    1
 -1       380-9.72361E-04 7.98895E-02-4.19191E-04 1.46063E-01-1.03478E-04-2.31119E-03
 -1       381-4.58566E-03 8.53176E-02-1.35809E-04 1.48254E-01-7.75117E-04 2.83987E-03
 -1       382 3.54784E-02 4.19330E-03 1.90542E-04 7.51009E-02-2.15561E-04 3.61288E-04
 -1       383 3.72327E-02 1.40936E-03 3.89181E-04 7.38064E-02-1.45999E-03-3.76253E-04
 -1       384-5.96788E-02 5.60052E-02 3.47760E-03 4.38925E-03-2.41898E-03-1.12836E-03
 -1       385-6.02737E-02 8.20223E-02-4.40099E-03 2.80386E-02 1.47360E-03-2.00246E-03
 -1       386-3.36652E-01 8.11250E-02 7.36355E-05-3.30789E-02 3.01254E-03-1.25510E-02
 -1       387-3.49062E-01 8.75326E-02 2.13985E-03-2.83833E-02-3.34385E-03 1.09949E-02
 -1       388 9.61742E-02 5.79079E-02 2.73040E-04 2.20770E-01-6.83744E-04 6.11369E-04
 -1       389 1.07415E-01 5.77952E-02-2.19942E-04 2.38076E-01 2.11264E-04 1.15681E-03
 -1       390 1.05389E-01 4.78531E-02-2.75086E-04 2.20439E-01-2.30012E-04 8.55226E-05
 -1       391 8.17012E-02 3.25379E-02 5.48987E-05 1.65550E-01 8.22237E-04 7.32454E-04
 -1       392 4.93715E-02 2.23154E-02 1.83121E-04 1.04560E-01-4.37723E-04-5.96085E-04
 -1       393 1.00814E-01 5.71039E-02-6.24582E-04 2.21191E-01 1.48434E-04-2.76889E-03
 -1       394 1.08140E-01 5.67061E-02 3.33409E-04 2.37797E-01 6.11568E-04-1.28866E-04
 -1       395 1.02026E-01 5.13397E-02-4.20222E-04 2.20567E-01-3.84352E-04-1.27253E-03
 -1       396 8.37759E-02 3.10600E-02 1.46955E-04 1.66073E-01-2.79798E-04-6.95269E-04
 -1       397 4.76325E-02 2.37936E-02 6.42697E-05 1.03819E-01 1.11437E-03 1.68396E-05
 -1       398-6.49166E-02 1.53874E-01-2.56608E-03 1.60213E-01 1.99616E-03 2.90623E-03
 -1       399-6.88843E-02 1.47234E-01 7.49504E-04 1.56477E-01 4.44339E-04 1.43054E-03
 -1       400-2.33966E-01 9.55945E-02 9.36774E-04-1.34459E-01 5.18216E-04-5.34326E-04
 -1       401-2.13461E-01 8.25291E-02 1.51253E-04-1.20236E-01 6.09404E-05-5.40861E-04
 -1       402-1.50437E-01 4.68094E-02-1.03063E-03-8.69780E-02-3.74187E-03-2.57836E-03
 -1       403-2.16489E-01 8.80944E-02-3.04755E-04-1.41333E-01-3.80852E-03 3.37584E-03
 -1       404-2.13682E-01 8.26701E-02 7.31927E-05-1.19831E-01 1.22160E-03 4.74667E-04
 -1       405-1.55702E-01 4.64895E-02 6.79060E-04-9.20416E-02 4.56296E-03 1.69185E-03
 -1       406 7.68154E-02-2.99472E-03-2.11640E-04 8.85120E-02 1.17142E-03-7.70844E-04
 -1       407 7.15663E-02-6.30844E-03 1.77392E-04 4.57288E-02 1.20081E-04-3.31720E-04
 -1       408-1.68404E-02-6.96384E-03-5.38806E-04-7.80865E-03-2.52480E-03-7.34872E-04
 -1       409 7.66851E-02-3.14626E-03-1.11710E-04 8.93117E-02-9.58970E-04 6.81678E-04
 -1       410 7.23831E-02-7.42405E-03 1.22489E-05 4.67044E-02-8.79483E-04 1.06893E-03
 -1       411-1.35618E-02-8.30588E-03-8.38148E-04-6.02449E-03 5.42689E-03 1.46481E-03
 -1       412-5.63324E-02 7.70743E-02 8.17600E-04 8.50594E-02 1.81112E-06 4.17425E-04
 -1       413-3.78787E-03 2.10228E-02 4.21720E-04 5.79301E-02 9.85714E-05-4.64184E-04
 -1       414 7.01520E-02-4.12109E-02-3.52153E-04 6.22461E-02-4.53053E-04-5.89246E-04
 -1       415-6.30979E-02 1.75871E-02 3.33909E-04 3.12395E-02 2.82048E-04 3.20194E-04
 -1       416 1.09123E-01-3.46735E-02 1.75713E-04 9.83512E-02-4.94131E-05 6.03357E-04
 -1       417-8.70177E-03 4.95970E-02-1.22769E-04 8.16209E-02-8.51944E-05-2.95948E-04
 -1       418 8.85278E-02-2.31798E-02 2.48428E-04 1.12589E-01-3.86279E-04-6.58233E-04
 -1       419 9.36045E-02-4.24549E-02-1.22087E-04 9.39103E-02 1.64351E-04 6.45295E-05
 -1       420-3.93098E-02 4.28116E-02-4.57489E-04 3.49294E-02-1.27031E-04 1.43841E-04
 -1       421-5.82303E-02 7.43989E-02-8.55559E-05 7.50617E-02 2.19526E-04-2.08858E-04
 -1       422-7.67451E-02 3.10219E-02-6.08203E-04 2.20644E-02-1.72504E-03 2.22674E-04
 -1       423 1.04828E-01-2.97098E-02 5.60447E-05 9.88112E-02-3.55839E-04 2.62160E-04
 -1       424 4.96328E-02 1.08273E-02 2.66549E-04 1.05743E-01-8.75058E-05 7.60791E-04
 -1       425 4.30994E-02-3.46984E-02-5.85554E-04 4.33157E-02 1.24687E-03 2.82752E-04
 -1       426-1.22817E-01 5.77276E-02-6.15921E-04-3.98698E-02-3.62271E-04-5.72579E-06
 -1       427 3.45100E-03 7.77496E-02 8.53023E-04 1.41148E-01-1.18817E-03 1.39004E-03
 -1       428 9.51271E-02-2.07089E-02-3.86668E-05 9.16589E-02 1.45971E-04-1.35631E-04
 -1       429-7.26217E-02 6.31013E-02-1.89443E-04 5.63099E-02-1.72469E-03-5.85265E-04
 -1       430 3.68439E-02 3.83186E-02 4.58407E-05 1.22376E-01-1.10153E-03-9.32611E-04
 -1       431 9.55546E-02 6.70532E-03-2.79798E-04 1.55567E-01 4.46937E-04 3.90982E-04
 -1       432 3.40437E-02 5.60772E-02-3.67076E-04 1.41836E-01 8.69272E-04-1.28512E-04
 -1       433 9.37960E-02-3.46214E-02-2.64500E-04 7.17582E-02-1.18284E-03 3.88262E-05
 -1       434 6.01155E-02 8.81890E-03 1.57207E-04 9.27953E-02-3.14175E-04 7.52686E-07
 -1       435-1.97243E-01 9.41804E-02 3.58265E-04-5.37332E-02 2.43335E-03-4.27666E-05
 -1       436-1.13816E-01 6.87884E-02-2.28194E-04-1.01677E-02-2.97086E-04 6.97396E-06
 -1       437-8.76501E-02 7.05772E-03 1.41290E-03 1.99025E-02 2.40884E-03-2.34235E-03
 -1       438 7.51803E-02 2.98799E-02-1.32833E-04 1.58824E-01-1.35000E-04 6.28330E-04
 -1       439 1.01936E-01-1.60901E-02 9.22682E-05 1.23575E-01 1.98144E-05-1.35703E-03
 -1       440-5.81438E-02 1.03959E-01 1.45685E-03 1.35301E-01 1.01603E-03-9.75112E-04
 -1       441 8.77997E-02-4.19329E-03 1.11786E-04 1.16948E-01-3.91281E-04 3.66775E-04
 -1       442-2.78532E-03 8.02036E-02-4.69454E-09 1.42517E-01 2.23962E-05 9.05650E-04
 -1       443 3.64528E-02 3.56154E-03 2.90657E-09 7.39680E-02 1.25215E-04-1.19591E-04
 -1       444 5.55891E-02 6.69297E-02-1.02064E-03 1.83658E-01 1.80593E-03 2.71960E-03
 -1       445 1.04905E-01 5.82000E-02-2.70050E-05 2.35155E-01-7.15158E-04 9.45308E-05
 -1       446 1.08495E-01 5.41822E-02-8.26948E-05 2.32103E-01-2.56583E-04 2.29312E-04
 -1       447 9.64044E-02 4.29867E-02-8.06915E-04 1.96800E-01-4.59874E-04 6.91029E-04
 -1       448 6.30804E-02 2.67409E-02 5.95698E-04 1.32609E-01-2.52626E-04-6.71232E-06
 -1       449 3.93443E-02 1.42425E-02 3.84667E-04 8.63897E-02-2.72130E-04 2.20249E-04
 -1       450 5.77024E-02 6.79828E-02 4.19087E-04 1.84487E-01 1.25577E-04 1.81471E-03
 -1       451 1.02871E-01 6.03931E-02-5.93257E-04 2.32447E-01 7.25428E-04 2.01589E-04
 -1       452 1.05943E-01 5.87588E-02-1.40771E-03 2.34269E-01 4.05319E-04-1.19176E-03
 -1       453 9.47142E-02 4.27260E-02-3.01302E-04 1.94824E-01 7.45917E-04 2.01475E-04
 -1       454 6.33977E-02 2.71630E-02-2.87132E-04 1.32739E-01-2.87521E-04 6.16952E-04
 -1       455 3.93887E-02 1.52735E-02 5.12306E-04 8.61165E-02-8.62500E-04-1.00270E-06
 -1       456-5.66303E-02 6.38023E-02-5.15545E-09 1.82245E-02 1.06705E-02 4.02205E-03
 -1       457-5.28626E-02 1.11693E-01 3.83434E-03 9.32591E-02 8.99417E-03 6.52462E-03
 -1       458-5.09535E-02 1.30356E-01-5.38104E-03 1.50447E-01-4.18043E-03-4.76660E-03
 -1       459-5.29522E-02 1.24665E-01-2.08648E-03 9.80327E-02-1.02764E-02-6.64746E-03
 -1       460-5.36930E-02 1.31160E-01-2.11112E-03 1.54973E-01 2.17521E-03-3.02696E-03
 -1       461-3.51999E-01 8.31784E-02 7.00741E-09-3.01021E-02-3.64442E-04-1.38999E-04
 -1       462-3.15467E-01 1.27490E-01 1.95279E-03-1.10143E-01 2.53161E-03-6.71505E-03
 -1       463-2.24461E-01 8.83356E-02-4.77594E-04-1.23305E-01-6.42646E-04-4.52425E-04
 -1       464-1.94306E-01 6.98826E-02 1.57085E-03-1.08179E-01 5.46466E-04-1.22954E-03
 -1       465-1.05565E-01 3.83663E-02 1.08715E-03-5.19485E-02-1.37915E-02-8.87226E-03
 -1       466-3.04374E-01 1.32659E-01 1.02871E-03-1.23808E-01 3.12101E-03-6.94157E-03
 -1       467-2.27619E-01 8.76728E-02 6.89001E-04-1.22450E-01 1.45347E-03 1.41518E-03
 -1       468-1.95094E-01 7.23587E-02-5.18292E-05-1.05598E-01 1.55654E-03 2.07919E-03
 -1       469-1.05829E-01 4.37327E-02-2.68559E-03-4.44574E-02 7.88108E-03 5.27973E-03
 -1       470 5.74616E-02-5.33306E-08 1.80297E-04 8.48152E-02 1.11862E-03 2.53949E-04
 -1       471 7.40506E-02 1.30963E-07-1.30078E-04 6.97744E-02 2.13585E-03-2.35322E-04
 -1       472 2.54192E-02 1.67037E-07 1.29850E-04 1.79149E-02-1.68365E-03-2.82616E-04
 -1       473-1.28941E-01-4.42353E-08-1.65349E-03-1.01027E-02-8.52281E-03-4.59478E-05
 -1       474 5.81478E-02-6.56199E-08-6.68297E-05 8.35608E-02-1.44250E-03 1.39220E-04
 -1       475 7.41837E-02 1.21642E-07-1.28361E-04 7.09592E-02-1.08794E-03 2.84730E-04
 -1       476 2.82584E-02 1.84265E-07-7.30869E-04 2.07839E-02 3.00370E-03 1.84824E-03
 -1       477-1.35046E-01-9.18186E-08 6.59715E-04-5.55187E-03 1.07610E-02-2.60009E-03
 -1       478 6.81469E-02 5.75824E-02 5.87000E-04 1.84019E-01 1.06817E-03 2.16929E-04
 -1       479 1.03970E-01 5.81412E-02 3.26214E-04 2.35775E-01 7.39129E-04 3.91547E-04
 -1       480 1.07269E-01 5.82022E-02-1.48577E-09 2.39612E-01 3.61494E-04 5.93905E-04
 -1       481 1.03203E-01 5.84346E-02 1.23538E-05 2.35105E-01-5.02485E-04 1.23985E-04
 -1       482 9.15637E-02 4.50635E-02 7.15860E-06 1.97984E-01-2.65605E-05 3.44488E-04
 -1       483 1.01370E-01 5.16178E-02-3.83876E-09 2.22228E-01-1.43842E-03-1.67395E-03
 -1       484 6.00377E-02 3.01045E-02-1.20436E-04 1.31874E-01-9.49477E-04-8.96133E-05
 -1       485 8.03131E-02 3.41775E-02-7.68352E-12 1.66630E-01 8.13470E-04 2.85873E-04
 -1       486 3.75927E-02 2.02674E-02-4.42808E-05 8.50314E-02-1.45894E-04-1.81101E-04
 -1       487 4.71790E-02 2.31652E-02 1.07858E-09 1.03619E-01 7.96994E-04-3.48239E-04
 -1       488 9.90327E-02 5.66012E-02-5.25145E-10 2.23376E-01-1.01411E-03-2.35006E-03
 -1       489-7.34089E-02 1.61326E-01-4.62761E-09 1.54401E-01 1.57124E-03 3.50501E-03
 -1       490-5.94940E-02 1.28013E-01-1.41261E-03 1.01226E-01-1.15623E-03-2.71017E-03
 -1       491-6.20635E-02 1.27550E-01 1.81828E-03 1.40947E-01 2.75628E-03-2.46909E-03
 -1       492-2.92447E-01 1.23526E-01-7.37856E-04-1.29686E-01 1.41728E-04-8.28528E-03
 -1       493-2.25210E-01 8.84408E-02 9.55696E-04-1.22176E-01 4.18385E-04-4.82646E-04
 -1       494-2.15607E-01 8.44740E-02 1.96405E-09-1.19884E-01-4.18392E-04 1.25968E-04
 -1       495-1.96194E-01 7.65896E-02 2.02250E-04-1.05466E-01 8.55151E-05 4.55334E-04
 -1       496-1.07665E-01 4.15123E-02 8.70966E-04-5.35629E-02-3.92787E-03-5.78352E-04
 -1       497-1.57464E-01 5.32563E-02-4.54993E-10-9.15983E-02 2.81687E-03 3.07878E-04
 -1       498-2.25201E-01 9.01666E-02 4.76370E-09-1.36817E-01-3.44247E-03 4.26890E-03
 -1       499 5.78043E-02-2.57446E-08 3.12901E-10 8.60247E-02 2.09005E-09 6.35436E-04
 -1       500 7.44488E-02 6.91710E-08-7.07524E-10 7.16426E-02-1.56868E-09 2.30076E-04
 -1       501 7.12208E-02-5.11963E-03-5.29572E-10 4.65612E-02 6.60119E-05 3.66869E-05
 -1       502 2.68497E-02 9.69053E-08-1.65242E-09 1.89140E-02-5.09034E-09 1.78108E-04
 -1       503-1.27360E-01-2.08308E-08-2.62014E-09-1.55622E-02-5.40836E-09-1.22126E-04
 -1       504-1.57400E-02-6.14661E-03-5.91301E-09-8.70830E-03 7.13383E-05 1.59630E-04
 -1       505 7.57381E-02-2.25260E-03-1.55359E-09 8.94187E-02-1.41295E-05-2.54572E-05
 -1       506 1.63235E-02 7.14597E-02-2.33995E-04 1.47305E-01 8.54492E-05 9.28214E-04
 -1       507-3.15218E-02 8.28708E-02 2.77616E-04 1.23419E-01 2.88692E-04-1.33440E-03
 -1       508 5.86388E-02 2.63645E-02 1.02808E-03 1.37762E-01 3.81653E-05 1.85612E-04
 -1       509 5.22695E-02 3.66060E-02-4.25969E-04 1.42290E-01 2.03946E-05-1.05275E-03
 -1       510 6.47839E-02 7.96882E-03-5.37218E-04 9.71955E-02 2.38439E-04-3.85368E-04
 -1       511 2.89592E-02-2.77008E-02-3.61636E-04 3.03802E-02-2.43195E-04-2.17701E-05
 -1       512 7.12843E-02-2.65668E-02 1.55807E-04 5.09839E-02 3.80053E-04-8.33075E-05
 -1       513-1.97365E-01 5.31591E-02 1.12480E-03 7.69829E-03 5.12547E-03-5.56273E-03
 -1       514-4.11379E-02 1.41737E-03 7.06938E-04 1.64423E-02 2.88517E-03-4.73966E-04
 -1       515 1.00422E-02-1.77936E-02 2.72032E-04 5.29444E-02 5.31304E-04 3.15149E-04
 -1       516-1.52818E-01 6.71354E-02-7.73331E-04-5.30149E-02-2.35435E-03-3.31257E-03
 -1       517-1.09326E-01 5.66521E-02 3.30497E-04-2.64555E-02-2.31184E-04 7.66532E-04
 -1       518-1.23337E-01 5.70793E-02-6.03861E-04-3.37580E-02 5.13280E-04 1.92349E-03
 -1       519-9.87260E-02 6.41853E-02 6.30415E-04 7.45605E-03-2.39033E-03-4.07998E-04
 -1       520-1.27632E-01 7.46676E-02-7.17382E-04-2.00924E-02 4.75374E-04-3.92685E-04
 -1       521-8.68374E-02 7.91055E-02-2.24950E-03 3.98651E-02 2.66592E-03 1.43705E-03
 -1       522-6.44302E-02 1.00795E-01-7.53462E-04 1.19588E-01 2.39364E-04 2.41194E-03
 -1       523 9.27882E-02-2.14224E-02 5.58782E-04 9.09091E-02 5.62891E-05 6.23425E-04
 -1       524 7.96283E-02-3.60622E-03-1.62487E-05 1.02625E-01-1.04470E-03-1.24877E-04
 -1       525 9.52379E-02-3.25630E-03-5.43638E-05 1.31592E-01 5.33103E-04 1.15507E-03
 -1       526 9.13187E-02-2.41443E-02 6.91847E-05 7.46759E-02-1.08073E-03 2.28976E-04
 -1       527 4.96356E-02 5.21053E-02 3.99883E-05 1.57879E-01 4.20982E-04 4.33922E-04
 -1       528 3.87124E-02 5.57354E-02 1.91246E-04 1.49212E-01-2.00630E-04-5.39984E-04
 -1       529 8.93672E-02 2.74183E-03 6.64150E-04 1.38724E-01 2.46811E-04-1.83131E-04
 -1       530 9.45527E-02 1.18011E-02-2.52463E-04 1.62778E-01 1.69470E-03 1.22132E-03
 -1       531-3.17794E-02 6.42304E-02-1.42661E-04 7.98943E-02 7.72673E-04 6.54783E-04
 -1       532 4.77471E-02 7.76622E-04-6.56326E-04 8.94479E-02-1.42307E-03-2.78743E-03
 -1       533-7.77487E-03 3.64647E-02 3.09609E-04 6.81426E-02-1.25910E-03-3.82156E-04
 -1       534-1.06350E-01 6.19836E-02 3.08908E-04-1.60989E-02 1.86736E-03 4.29879E-04
 -1       535 9.14465E-02-3.62333E-02-1.09549E-04 7.82206E-02-2.41780E-04-9.74640E-04
 -1       536-3.88269E-02 2.22080E-02 4.20385E-04 3.93891E-02 1.01488E-03 8.97929E-04
 -1       537 1.02957E-01-3.18252E-02 2.21914E-04 1.06492E-01-1.41669E-04-9.35764E-04
 -1       538 7.65442E-02-3.47488E-02 1.86972E-04 8.85539E-02-1.28519E-03 3.46581E-04
 -1       539 2.02235E-02-9.30716E-03-3.33177E-04 6.80371E-02-1.01705E-03-9.56010E-04
 -1       540 6.39703E-02 8.35193E-03-3.94916E-04 9.74538E-02-2.39060E-04-9.92429E-05
 -1       541 9.31211E-02 2.71002E-03 8.03667E-04 1.50504E-01 3.79215E-04 4.26567E-04
 -1       542 9.42839E-02-9.22387E-03-4.16809E-04 1.26993E-01-5.77466E-04 1.04178E-04
 -1       543 2.09516E-02 5.11405E-02 1.68836E-03 1.23713E-01-1.52320E-04 8.77365E-04
 -1       544 3.67850E-02 4.53671E-02 5.66066E-05 1.33482E-01-7.12499E-04-3.97336E-04
 -1       545-3.37369E-02 8.00506E-02 2.09516E-03 1.16293E-01 5.69949E-04 6.11114E-04
 -1       546 1.75257E-02 7.06572E-02-2.48804E-03 1.43892E-01 1.21478E-03-5.10368E-04
 -1       547-4.84898E-02 5.86681E-02 2.80336E-04 5.13453E-02-1.26956E-03-8.11165E-04
 -1       548-6.36605E-02 9.62089E-02-5.98771E-04 1.18373E-01-2.00766E-03-1.44732E-03
 -1       549-8.63695E-02 6.80880E-02 1.70341E-03 3.34076E-02-2.54409E-03 7.91337E-04
 -1       550-1.29436E-01 7.44744E-02-1.38197E-03-2.40074E-02-4.65302E-04-3.59704E-04
 -1       551-1.23836E-01 6.22005E-02 1.15795E-04-4.03737E-02 4.84626E-04 9.29101E-05
 -1       552-1.39892E-01 6.39079E-02 1.51671E-03-4.66520E-02 4.42561E-04-1.21642E-03
 -1       553-2.07920E-01 6.50755E-02 7.35765E-05-2.24730E-03-5.85860E-03 9.13398E-03
 -1       554-1.49429E-01 6.41371E-02-1.43524E-03-6.01710E-02-1.60907E-03 2.05544E-03
 -1       555-4.63960E-02 7.08092E-03-2.02429E-03 1.45755E-02-5.54607E-04 2.36003E-03
 -1       556 8.25277E-02-3.23376E-02 2.03180E-04 6.59075E-02-2.46183E-03-8.52152E-04
 -1       557 4.34237E-02-3.46216E-02 8.17013E-04 4.92688E-02 1.85840E-03-1.15348E-03
 -1       558 9.10887E-02-2.97983E-04-8.56839E-06 1.30415E-01-5.12888E-04-1.21941E-03
 -1       559 7.69165E-02-2.24588E-03 4.11339E-04 1.02240E-01 6.25518E-04-1.00720E-05
 -1       560 7.33635E-02 3.46442E-02 6.72684E-04 1.67811E-01-3.60018E-04 1.56170E-04
 -1       561 7.62506E-02 2.83767E-02 2.40775E-04 1.60192E-01 1.17564E-04 3.93403E-04
 -1       562 7.46056E-03 2.99823E-02-1.55646E-03 7.29258E-02 9.09454E-04 8.81594E-04
 -1       563-1.02665E-01 6.72293E-02 4.49566E-04 1.60648E-03 3.29967E-03 5.78557E-04
 -1       564 1.20923E-02-8.49692E-03 1.46215E-03 6.63429E-02-3.58296E-03-6.61639E-04
 -1       565 9.05255E-02-1.89932E-02 5.86245E-04 9.10426E-02-1.73249E-05-3.54398E-04
 -1       566 9.21352E-02-2.48892E-02 4.26767E-04 7.41741E-02 3.38832E-05 6.87429E-04
 -1       567 6.96122E-02-1.50799E-02 4.58732E-04 9.94213E-02-1.21061E-04 1.79145E-03
 -1       568-6.06705E-02 3.60695E-02 2.49026E-04 2.02604E-02 1.71027E-04-5.32690E-04
 -1       569 1.03270E-01-3.42941E-02-9.25165E-04 9.80444E-02 1.35067E-03 6.17706E-04
 -1       570-7.54935E-03 1.50968E-02-7.90040E-04 6.01726E-02-6.41968E-04-1.43444E-03
 -1       571-1.37270E-01 6.49821E-02-5.03664E-04-4.60794E-02 2.65588E-04 1.40852E-03
 -1       572-1.07475E-01 5.32584E-02-1.54002E-03-1.53301E-02-2.08666E-03-1.45816E-03
 -1       573-9.87277E-02 6.78479E-02-5.75593E-04 2.13510E-02-5.17168E-04-4.18204E-04
 -1       574-1.38662E-01 6.84639E-02-1.74633E-04-4.58088E-02 7.51010E-04-1.14437E-03
 -1       575-1.09893E-01 4.86332E-02 1.07120E-03-2.02784E-02 1.56482E-03 2.12507E-04
 -1       576-6.41049E-02 5.05861E-02 9.03811E-05 1.97351E-02 4.25652E-04-1.44092E-04
 -1       577-8.10010E-02 4.92643E-02-2.75470E-04-2.36514E-03 1.75633E-03-6.37113E-04
 -1       578-2.46684E-02 4.74352E-02-1.96680E-04 5.89272E-02-1.29393E-03 3.89326E-04
 -1       579-6.61060E-02 4.10309E-02-9.74037E-05 9.81432E-03 9.44838E-04 5.34768E-04
 -1       580-2.37396E-02 3.44732E-02 2.60764E-05 4.68123E-02 1.92576E-03 4.72482E-04
 -1       581 1.34179E-02-2.40967E-02-1.98245E-04 2.11750E-02 3.93799E-03 1.71175E-03
 -1       582 1.22060E-02-2.28522E-02-4.14737E-04 1.94367E-02 3.26303E-04-5.96985E-04
 -1       583 5.72898E-02-1.93734E-02 3.36534E-04 4.14553E-02 1.14795E-03 2.81463E-04
 -1       584-8.39946E-02 2.08520E-02-5.68939E-04 2.54164E-02-6.78735E-04-5.41237E-03
 -1       585-5.21955E-02 1.20210E-03 1.59880E-04 2.39866E-03 2.78609E-03-1.05316E-03
 -1       586-1.68832E-02-5.57426E-03-1.08418E-03 4.10734E-02-3.56813E-03 3.07419E-03
 -1       587-2.29035E-02-1.09770E-02 4.23597E-04 2.82056E-02 6.83632E-04 1.17659E-03
 -1       588-9.95665E-02 4.45514E-02-9.45423E-04-6.41797E-03-2.62477E-03-2.29481E-03
 -1       589-6.99129E-02 2.33753E-02 1.69758E-04 2.48574E-02 1.00858E-03-1.28460E-04
 -1       590-1.02143E-01 4.65482E-02-6.78153E-05-1.29175E-02-1.00565E-03 1.18625E-03
 -1       591-4.29997E-02 2.58651E-02 2.14081E-04 3.37238E-02-2.91262E-04-3.84383E-05
 -1       592-1.62766E-01 7.40871E-02-2.35297E-05-6.59167E-02 3.07820E-04-5.45574E-04
 -1       593 2.09427E-02-1.52035E-02 2.19538E-04 6.33316E-02-1.00856E-03-7.16563E-04
 -1       594-3.42760E-03 8.20667E-03-1.36966E-04 6.29040E-02-9.47047E-04-1.58313E-04
 -1       595 5.73271E-02 6.62125E-02-1.13047E-04 1.82589E-01-7.10853E-04-7.98499E-04
 -1       596 2.18465E-02 6.71506E-02 1.22564E-03 1.41784E-01 6.14761E-05 7.45951E-04
 -1       597 6.14220E-02 5.77090E-02-5.78355E-04 1.79623E-01 9.08067E-04-1.50553E-03
 -1       598 5.22060E-02 6.64457E-02 1.76053E-03 1.79974E-01-1.52336E-03 1.03109E-03
 -1       599 6.38913E-02 5.73168E-02-1.91035E-04 1.81332E-01 2.05066E-04 2.85138E-04
 -1       600-1.50749E-01 7.14004E-02 9.40313E-04-4.99617E-02 1.55497E-03-1.17282E-03
 -1       601-1.94820E-01 8.70326E-02-7.64102E-04-1.02717E-01 8.83454E-04-1.97098E-04
 -1       602-1.81659E-01 7.20355E-02-3.76361E-04-8.27301E-02-5.27852E-03 4.05076E-03
 -1       603-1.38271E-01 6.40176E-02-2.28029E-04-1.47114E-02 4.95507E-03-2.86767E-03
 -1       604-1.95491E-01 2.45737E-02 1.00645E-03 1.04242E-02 1.86485E-04 5.45547E-03
 -1       605-1.62171E-01 7.38512E-02 1.84565E-04-6.52399E-02-1.01161E-03 3.22429E-04
 -1       606-3.00726E-02 8.02705E-02 6.30810E-05 1.09098E-01 7.49869E-04 2.35223E-03
 -1       607 6.49487E-05 8.17839E-02-8.32661E-04 1.44274E-01 4.33105E-04 4.33476E-03
 -1       608 8.53540E-02-1.41472E-02 1.22541E-04 7.16754E-02 2.11381E-04 4.13186E-04
 -1       609 8.16145E-02-2.36220E-02-1.72653E-04 5.93643E-02-5.85462E-04-1.15979E-03
 -1       610 9.76364E-02-2.81009E-02-2.70429E-04 8.43862E-02-4.15595E-04 4.82010E-04
 -1       611 8.55630E-02-1.42555E-02 5.39515E-06 7.20006E-02 5.80013E-04-9.14352E-05
 -1       612 8.20528E-02-2.47931E-02-1.84429E-05 5.82266E-02-1.35808E-03 1.49419E-03
 -1       613-8.11146E-02 7.07659E-02 1.72296E-04 3.76312E-02-2.18624E-04-4.33920E-04
 -1       614-5.96966E-02 5.82588E-02-3.72714E-05 3.57277E-02 1.19431E-03 7.76941E-04
 -1       615 6.84132E-02-4.44386E-03 4.83841E-04 1.09888E-01 1.14547E-03-3.90491E-04
 -1       616 8.94825E-02-3.21874E-02 1.73849E-05 1.03638E-01 1.90091E-04 1.91527E-03
 -1       617 7.29040E-02 5.57565E-02 2.37012E-04 1.91467E-01 1.16620E-03 1.08331E-03
 -1       618 7.34529E-02 5.59646E-02 1.81481E-04 1.91633E-01 2.40950E-04-3.94791E-04
 -1       619 7.22454E-02 4.72519E-02-6.10724E-04 1.78594E-01-3.48455E-04-1.85887E-04
 -1       620 3.51098E-02 4.69667E-02 1.46977E-05 1.32350E-01-7.16426E-04-5.12201E-04
 -1       621 7.19950E-02 4.61140E-02 3.81075E-04 1.78063E-01-4.00482E-04-3.42910E-04
 -1       622-6.73025E-02 6.90366E-02 3.05989E-04 6.73542E-02-1.24268E-03 9.39401E-04
 -1       623-5.94023E-02 9.22959E-02 1.18239E-03 1.06827E-01-2.46379E-03 1.89624E-03
 -1       624 2.46698E-02 1.59576E-02 1.36959E-04 8.33215E-02-3.52434E-04-1.29125E-04
 -1       625 6.89361E-02-4.13969E-02 6.85372E-05 7.07030E-02-1.34707E-03-2.59969E-03
 -1       626-8.69599E-03-1.27019E-02-1.85018E-04 4.21150E-02 1.56165E-03 2.71662E-04
 -1       627 8.96795E-02 4.51017E-02 3.63330E-04 1.98949E-01-3.35191E-04 1.24594E-03
 -1       628 4.01210E-02 2.13397E-02-5.20020E-05 1.07940E-01-1.37290E-03-9.80728E-04
 -1       629 5.72737E-02 3.46976E-02-1.12260E-04 1.42545E-01-4.36275E-04 4.97367E-04
 -1       630 1.64665E-02 2.88372E-02 6.11046E-04 8.85551E-02-1.86716E-04-1.84967E-03
 -1       631-3.40213E-04 3.98737E-02-3.33574E-04 7.90859E-02-1.25049E-04 5.49278E-04
 -1       632 4.11176E-02 2.67730E-02 3.90129E-04 1.14258E-01-7.12351E-04 2.93499E-04
 -1       633-1.66592E-01 7.19412E-02-3.73003E-04-7.83555E-02-7.33589E-04 1.03181E-04
 -1       634-6.53919E-02 6.95337E-02-2.00980E-03 4.23140E-02-1.65237E-03-2.08986E-03
 -1       635-6.27837E-02 1.04173E-01-1.34266E-03 1.10443E-01 1.03834E-03 1.18742E-03
 -1       636-6.45202E-02 6.02095E-02 1.72807E-03 3.15174E-02-4.00739E-03-1.39656E-03
 -1       637-1.34112E-02 6.67956E-02-3.75820E-04 1.04776E-01-2.72752E-04-3.16536E-04
 -1       638 7.94131E-02-4.08533E-02-2.83316E-04 7.92995E-02-8.03861E-04-1.33570E-03
 -1       639 1.01658E-01-3.63906E-02 4.98385E-05 9.61062E-02 2.01348E-03 1.82297E-04
 -1       640 6.92823E-02 2.45349E-03 3.21600E-04 9.18363E-02 2.38848E-04-2.46024E-04
 -1       641 5.34926E-02 1.49564E-02 3.44182E-04 9.75291E-02 2.16996E-04 6.17459E-04
 -1       642 4.72396E-02 6.68298E-03 1.10084E-05 8.33929E-02-3.59536E-04 1.87077E-04
 -1       643 6.82626E-02 9.67917E-03-4.33504E-05 1.10044E-01-1.01508E-06 4.91916E-04
 -1       644 9.47911E-02-1.59114E-02 3.01992E-04 1.07107E-01-6.45483E-04 7.43626E-05
 -1       645 8.32548E-02 1.30280E-02 2.78458E-04 1.40794E-01-3.42849E-05-6.96819E-05
 -1       646 8.51884E-02-1.28863E-02-1.06932E-04 8.92419E-02 5.38709E-04-8.56146E-04
 -1       647 8.91287E-02 4.46501E-02 3.10102E-04 1.98708E-01 9.97402E-04 5.31484E-04
 -1       648 6.14253E-02 2.05565E-02 3.07262E-05 1.31476E-01-2.10677E-04 8.17556E-05
 -1       649-4.14501E-03 4.87814E-02-2.95839E-04 8.74746E-02-5.46344E-04 7.72598E-04
 -1       650-6.96938E-02 1.28598E-01 3.45274E-04 1.43947E-01-1.68343E-03-1.22109E-03
 -1       651-7.20820E-02 1.31818E-01 1.78166E-03 1.46102E-01 5.16791E-03 1.70780E-03
 -1       652-3.21802E-02 9.28969E-02 1.41195E-03 1.40952E-01-1.46232E-05-2.20555E-03
 -1       653 5.22999E-02 1.71142E-02-1.47456E-04 9.76206E-02 2.40049E-04-6.65394E-04
 -1       654-2.09540E-01 9.31580E-02 2.47151E-03-9.93222E-02 3.68074E-03-7.80632E-04
 -1       655-2.96421E-01 1.13865E-01-2.79967E-04-5.07058E-02 3.73225E-03-7.56840E-03
 -1       656-1.79890E-01 7.44276E-02-3.11401E-04-8.38815E-02 5.20018E-04 9.02283E-05
 -1       657 9.24998E-02 7.87248E-03-3.08138E-04 1.44159E-01 4.67697E-04-5.69059E-04
 -1       658 9.80522E-02-2.05064E-02 7.76989E-04 1.17943E-01-2.26454E-03-1.47740E-03
 -1       659 1.04169E-01-2.58296E-02 3.19695E-04 1.11977E-01 4.75654E-04-1.79291E-03
 -1       660-5.27983E-02 6.46320E-04 8.79387E-04 2.34461E-03-1.47134E-03 1.15605E-03
 -1       661-1.87370E-01 2.10157E-02 3.41941E-04 7.84022E-03 3.31454E-03-6.60759E-03
 -1       662 8.29495E-02 1.34301E-02 6.64685E-05 1.40588E-01-3.98886E-04 4.89095E-04
 -1       663 9.79106E-02-1.86928E-02-9.75356E-05 1.07421E-01-1.38753E-04 8.61267E-04
 -1       664 6.89419E-02 9.94828E-03-1.39727E-04 1.10991E-01 2.06757E-04-4.68382E-04
 -1       665 9.94125E-02 2.86062E-02-3.42784E-04 1.88098E-01-7.06973E-04-3.33869E-04
 -1       666 9.12388E-02 2.03443E-02 3.01019E-04 1.61851E-01-2.52065E-04-3.88393E-04
 -1       667 9.03428E-02 2.10392E-02-5.74480E-05 1.61457E-01 1.36065E-03 7.24124E-04
 -1       668 9.72889E-02 2.81871E-02 2.58236E-04 1.86700E-01 1.90144E-04-1.06687E-03
 -1       669 7.28758E-02 8.99965E-03 4.58997E-04 1.32249E-01 1.33850E-03 2.05184E-03
 -1       670 9.33392E-02-1.79928E-02-8.73630E-04 1.22550E-01 3.81275E-04 1.76500E-03
 -1       671-2.97179E-01 1.17137E-01-1.48039E-03-4.92443E-02-2.67508E-03 5.98824E-03
 -1       672 9.02821E-02 3.77500E-02 8.98570E-05 1.88131E-01 9.49279E-04 7.57651E-04
 -1       673 9.02422E-02 4.06956E-02-3.74027E-04 1.90720E-01-5.20572E-04-2.15214E-04
 -1       674 8.60888E-02 1.84627E-02-2.29432E-04 1.57924E-01-7.27422E-05 3.96967E-04
 -1       675 9.32417E-02 6.30367E-03 1.40277E-04 1.43506E-01-7.04761E-04-1.24976E-03
 -1       676 9.80243E-02-5.08653E-03-1.49256E-04 1.37171E-01-5.90892E-04-5.54214E-04
 -1       677-6.65564E-02 8.64374E-02 6.56887E-04 9.86579E-02 7.07067E-04-1.04138E-04
 -1       678 1.01258E-01-2.19486E-02-7.14633E-05 1.11776E-01 6.57810E-04 7.88093E-04
 -1       679 9.54937E-02-1.00819E-02 2.84784E-05 1.22468E-01-9.52080E-05-1.72482E-04
 -1       680 8.99736E-02-1.20010E-02-1.64001E-04 1.02246E-01-1.08160E-04 1.13920E-04
 -1       681 7.29472E-02 5.12884E-04 1.19163E-04 1.00164E-01 1.61953E-03-4.86167E-06
 -1       682 9.92557E-02-2.54597E-02-1.19973E-04 9.42811E-02-1.75318E-04-8.79951E-04
 -1       683-1.68005E-01 7.17707E-02-5.06964E-05-7.86327E-02 2.00092E-03-9.90744E-05
 -1       684-7.63365E-02 5.63772E-02 1.41034E-04 1.22820E-02-3.04549E-03 8.11589E-06
 -1       685-1.17832E-01 6.15159E-02-2.33369E-04-2.83367E-02 5.44757E-04-5.37543E-04
 -1       686 1.02686E-01-3.38182E-02-3.76099E-05 8.71313E-02-1.69475E-03 8.18425E-04
 -1       687 9.18042E-02-3.83955E-02-1.91558E-04 8.17658E-02 8.37173E-04-9.35370E-04
 -1       688 1.35811E-02 4.48326E-02 2.03610E-04 1.01353E-01-2.39921E-03-1.95978E-03
 -1       689-6.51429E-02 7.00479E-02-9.52879E-05 7.23725E-02 9.44993E-04-8.68241E-04
 -1       690 5.68610E-02-1.87264E-02 8.83888E-05 4.13965E-02-4.35686E-04-6.73558E-04
 -1       691 3.48850E-03 7.98780E-02-8.92604E-05 1.44390E-01-2.23522E-04 2.29395E-04
 -1       692 7.29731E-02 1.04241E-03 2.83041E-05 9.98285E-02-1.11215E-03-6.49488E-04
 -1       693 1.01184E-01-2.77989E-02-6.41927E-05 9.41582E-02-3.00303E-04 1.05022E-03
 -1       694 7.79027E-02-4.74607E-03 4.18082E-04 9.38282E-02 1.18816E-04-1.01799E-04
 -1       695 8.48073E-02-1.29041E-02-1.61387E-04 8.93484E-02-2.66080E-04 5.01525E-04
 -1       696-5.75899E-02 8.90435E-02-4.65094E-04 1.08291E-01-3.85965E-04-3.29140E-03
 -1       697-3.19422E-02 9.62338E-02-3.87218E-04 1.42026E-01-2.04459E-03-1.44556E-03
 -1       698 4.81282E-02 5.81810E-03-4.09428E-04 8.28278E-02-1.46956E-03-1.65984E-04
 -1       699 1.02207E-01-3.46852E-02-2.14945E-06 8.61343E-02-2.57111E-04 8.20529E-04
 -1       700 1.05907E-01-3.14858E-02 6.45984E-05 9.83059E-02-6.14677E-04 8.65217E-04
 -1       701 7.73542E-02 6.52389E-03-6.54240E-04 1.34360E-01 5.67040E-04-1.22559E-03
 -1       702 1.09447E-02 5.41595E-02-4.43036E-04 1.11596E-01 1.68292E-04-6.34494E-04
 -1       703 5.68226E-02-3.79765E-02-3.87183E-04 5.32117E-02 9.95220E-04 2.62868E-04
 -1       704 6.84631E-02-3.28652E-02-1.75350E-05 5.45954E-02 6.29759E-05-1.40431E-03
 -1       705-1.37289E-02 6.98660E-02-2.57161E-04 1.08659E-01 1.30498E-03-1.68751E-04
 -1       706-3.04645E-02 8.11877E-02 1.06068E-03 1.13117E-01-1.85980E-03-1.33514E-03
 -1       707-2.91284E-02 8.89297E-02-1.26094E-03 1.33861E-01-5.97871E-04-8.59580E-05
 -1       708-5.66411E-02 8.87280E-02 1.08080E-03 1.12660E-01 1.23624E-03 2.61075E-03
 -1       709-5.66639E-02 7.66513E-02 4.16624E-05 7.83348E-02-4.13038E-04 1.94075E-04
 -1       710 9.09655E-02-8.03223E-03 1.38760E-04 1.33373E-01 5.17819E-04 8.72141E-04
 -1       711 8.12010E-02-3.64103E-02-1.11932E-04 6.44679E-02-1.53514E-03-1.39483E-03
 -1       712-3.32491E-02 6.21563E-02-6.12784E-05 7.58897E-02 2.19923E-04-2.52411E-04
 -1       713 6.90515E-02 3.04123E-03-1.20075E-04 9.19181E-02-4.89101E-04 2.62155E-04
 -1       714-1.35199E-01 5.82345E-02 8.68482E-04-7.85989E-03-3.99265E-03 5.81966E-03
 -1       715-1.46676E-01 5.58841E-02-4.39887E-04-1.12013E-02 1.07173E-03-1.17835E-03
 -1       716-7.65414E-02 1.22176E-02 1.51745E-03 2.93186E-02 3.17280E-03 1.95726E-03
 -1       717-8.33786E-02 6.95381E-02 9.55103E-05 3.17448E-02 7.68961E-04 1.02985E-03
 -1       718 1.00594E-01-2.86616E-02-3.63222E-04 1.07625E-01 2.29371E-03 1.40744E-03
 -3
    1PSTEP                         4           1           1          
  100CL  101 1.000000000         339                     0    1           1
 -4  FORC        4    1
 -5  F1          1    2    1    0
 -5  F2          1    2    2    0
 -5  F3          1    2    3    0
 -5  ALL         1    2    0    0    1ALL
 -1       380-7.97161E-13-2.59762E-12-1.57601E+00
 -1       381 9.71445E-16-3.23572E-12 2.31504E+00
 -1       382 5.09688E+00 3.92168E+00 2.36240E+00
 -1       383 1.62276E+00 2.33813E+00-2.47593E+00
 -1       384-4.23080E-13 5.43101E-14-1.52701E+00
 -1       385 6.87700E-13 1.82387E-12 1.59585E+00
 -1       386 7.17104E+01-2.17121E+01 4.59934E+01
 -1       387 4.11650E+01-1.76739E+01-4.85028E+01
 -1       388-1.70157E-12 2.17384E-12-2.17236E+01
 -1       389-1.29036E-13-2.05960E-12-2.71469E+01
 -1       390-1.88974E-13 5.84768E-13-2.28076E+01
 -1       391-3.36849E-14 1.79686E-13-6.86136E+00
 -1       392 5.89745E-14 1.42802E-13 1.00674E+00
 -1       393-6.05238E-13-5.97855E-13 3.27280E+01
 -1       394-4.46441E-13 2.87164E-12 2.80719E+01
 -1       395-1.11923E-13 9.43254E-13 1.91127E+01
 -1       396 7.54119E-14-2.50966E-13 8.00057E+00
 -1       397 9.86641E-14 7.06379E-14-1.19718E+00
 -1       398-6.65985E-12-3.34455E-14-2.86950E+01
 -1       399-1.25187E-12 2.48505E-12 3.03563E+01
 -1       400-1.25563E-12 6.64725E-13 2.53713E+01
 -1       401-5.58387E-13 6.20417E-13 5.66399E+01
 -1       402 1.96232E-13 2.79596E-13 3.21238E+01
 -1       403 4.19886E-13-4.46032E-13-2.70026E+01
 -1       404 8.50875E-13 1.02170E-12-3.31734E+01
 -1       405-1.12677E-12-5.38192E-12-3.09374E+01
 -1       406-1.04299E+00-2.07568E+00-1.58494E+00
 -1       407-9.93655E+00-1.89864E+00-3.47100E+00
 -1       408-3.65814E+00-1.05637E+00-5.20597E+00
 -1       409-4.74775E+00-9.41050E-01 1.29187E+00
 -1       410-3.87773E-01 4.25242E-01 4.64245E+00
 -1       411-1.52055E+01 3.62828E+00 3.87919E-01
 -1       412-1.67723E-12 3.61992E-13-8.79573E+00
 -1       413-3.61810E-13 2.22080E-12-1.14426E+01
 -1       414-3.90799E-14 6.31439E-14-1.03997E+00
 -1       415-3.59209E-14 3.11778E-13-5.54354E+00
 -1       416 5.66006E-14 1.53572E-13-1.00649E+00
 -1       417 6.33035E-14-4.30362E-12-5.17862E+00
 -1       418-3.56826E-13-3.84887E-13-3.28553E+00
 -1       419-1.83568E-13-2.35936E-13-8.09911E-01
 -1       420 1.30986E-12-3.77739E-13-1.00280E+00
 -1       421 9.27952E-13-3.51152E-12 5.84684E+00
 -1       422-3.12796E-13 2.80435E-13 3.33129E+00
 -1       423-2.61596E-14-2.26943E-13 2.92990E-01
 -1       424 2.18589E-13 8.94340E-13 2.81168E+00
 -1       425-6.24431E-14 1.00808E-13 5.57332E-14
 -1       426 2.45276E-12 3.92620E-13-3.93241E-13
 -1       427-7.73047E-14-2.88039E-12 4.59617E-12
 -1       428 3.03552E-13-3.36103E-15 9.95870E-14
 -1       429 2.97248E-12-3.35840E-12-3.78664E-12
 -1       430 2.13589E-13 4.18971E-12-6.32383E-13
 -1       431-1.54987E-13-1.94544E-12 8.21565E-15
 -1       432-1.49642E-12 9.50911E-12 9.30589E-13
 -1       433-1.88682E-13-5.57887E-15-6.61693E-14
 -1       434 6.09790E-14-2.79221E-13-3.99680E-14
 -1       435 3.75993E-13 3.68469E-13-2.29816E-13
 -1       436 1.34227E-12 1.93897E-12-1.99876E-12
 -1       437 1.63272E-14-2.92405E-14 6.30607E-14
 -1       438 3.92589E-13-1.31145E-13-2.46470E-13
 -1       439 2.93605E-13-1.01298E-12 4.72955E-14
 -1       440-3.63448E-12-5.36375E-12-1.60806E-12
 -1       441-1.86737E-13 3.32165E-13-1.51013E-13
 -1       442 3.31252E-12 4.16667E+01 4.77840E-13
 -1       443-4.47755E+01-3.35513E+01 2.54600E-01
 -1       444 2.38698E-13-1.38833E-12-8.36699E+01
 -1       445-1.50314E-13 9.04027E-13-1.13357E+02
 -1       446-2.91850E-13-1.76625E-12-1.52191E+02
 -1       447 1.13548E-13-2.77632E-13-1.00455E+02
 -1       448-7.21315E-14 8.64066E-14-6.38658E+01
 -1       449-6.96665E-15 2.26485E-14-4.45234E+01
 -1       450 1.72085E-14-5.57829E-12 8.98045E+01
 -1       451-5.28570E-14-1.76546E-12 1.49256E+02
 -1       452 2.00964E-13 1.74694E-13 1.14321E+02
 -1       453 1.60955E-13-1.95777E-13 1.20079E+02
 -1       454-1.95288E-13-1.58637E-13 5.83521E+01
 -1       455 1.08247E-14-9.43690E-14 4.49958E+01
 -1       456 1.33568E-12 4.16667E+01 4.26026E-13
 -1       457 2.83271E-12 4.16667E+01-1.37075E+01
 -1       458 1.09251E-12 4.16667E+01-4.16836E+01
 -1       459 9.12187E-14 4.16667E+01 1.38009E+01
 -1       460-2.99854E-13 4.16667E+01 4.32785E+01
 -1       461 2.85279E+02-3.54154E+01 1.63945E+00
 -1       462-7.01106E-13 3.09724E-13 1.70723E+02
 -1       463 9.77177E-13 6.02740E-13 1.60410E+02
 -1       464-1.01660E-12-5.97380E-13 9.16481E+01
 -1       465-4.24358E-12 2.32628E-12 1.94705E+01
 -1       466-4.11227E-13-5.69544E-14-1.57066E+02
 -1       467 7.49123E-13-5.75096E-13-1.34326E+02
 -1       468 1.37945E-14-1.46152E-12-9.10015E+01
 -1       469 1.20037E-12-9.97413E-12-2.02463E+01
 -1       470-5.83970E+01-4.59392E+01-4.51670E+01
 -1       471-7.13960E+01-3.53111E+01-5.27267E+01
 -1       472-1.73926E+01-5.63295E+00-1.57999E+01
 -1       473 9.39934E+01 2.27696E+01 1.02144E+02
 -1       474-5.11818E+01-4.43481E+01 4.49506E+01
 -1       475-7.16102E+01-3.83846E+01 4.89978E+01
 -1       476-3.61851E+01-9.27785E+00 2.85878E+01
 -1       477 1.37070E+02 2.80792E+01-1.22100E+02
 -1       478 1.94600E-12 1.91980E-12 1.06581E-13
 -1       479-2.45347E-12 4.62655E-12-1.00719E-12
 -1       480-3.85469E-13 1.44566E-12 3.80140E-13
 -1       481 6.86430E-13-3.46181E-13-7.67386E-13
 -1       482 9.13020E-14-9.64182E-13 3.09086E-13
 -1       483 1.03884E-12-4.64628E-13 2.80664E-13
 -1       484-8.17540E-14 1.03639E-13 2.13163E-13
 -1       485 2.20574E-13-7.37826E-13-6.75016E-14
 -1       486 1.11808E-13-9.57411E-14 7.99361E-15
 -1       487 2.88519E-14-1.80772E-13-5.32907E-14
 -1       488 3.20632E-13-4.18510E-12-2.56328E-12
 -1       489-7.16982E-13 8.33333E+01-1.93090E-12
 -1       490 3.51663E-13 8.33333E+01-2.08988E-12
 -1       491 1.82493E-15 8.33333E+01 2.30838E-12
 -1       492 1.54432E-13 4.73774E-13 1.24345E-14
 -1       493-7.69135E-13 3.41588E-13-1.77636E-15
 -1       494-1.10280E-12-1.25424E-12 7.40455E-13
 -1       495 1.72251E-13 1.29161E-13-4.51195E-13
 -1       496 2.82215E-12 5.30820E-12 1.52944E-12
 -1       497 1.73300E-12 1.60449E-12-1.40687E-12
 -1       498-2.19913E-13-7.01699E-13 6.56116E-13
 -1       499-1.09638E+02-8.52129E+01-8.56091E-02
 -1       500-1.42017E+02-7.11352E+01 1.03348E-03
 -1       501-1.13393E+02-4.48752E+01 1.19504E-01
 -1       502-5.16211E+01-1.57982E+01-8.55294E-01
 -1       503 2.40742E+02 2.44056E+01 1.13513E+00
 -1       504 6.09664E+01 8.69721E+00-4.42979E-01
 -1       505-1.35059E+02-8.40251E+01 1.72268E-01
 -1       506 4.82947E-14-3.30314E-12-1.30454E+02
 -1       507 3.31069E-13-7.74159E-12-9.81923E+01
 -1       508 3.36398E-14-1.47782E-12-1.99382E+02
 -1       509 6.74044E-14 4.24466E-13-1.93049E+02
 -1       510 3.69496E-14 3.42339E-14-1.00778E+02
 -1       511 6.71685E-15 6.42819E-14-2.52156E+00
 -1       512-2.71450E-14-8.77076E-15-5.00920E+01
 -1       513 1.24789E-13 7.30249E-14 2.49493E+02
 -1       514-6.07570E-14 2.28151E-14 8.76035E+01
 -1       515 1.01565E-13-2.98150E-13 4.70319E+00
 -1       516 1.00653E-12-3.14526E-13 2.05687E+02
 -1       517-2.38484E-12 2.66444E-12 1.47905E+02
 -1       518 1.77122E-13 1.31826E-12 1.90924E+02
 -1       519 1.03156E-12-2.79754E-12 7.55256E+01
 -1       520-4.06120E-13-3.48388E-13 1.02641E+02
 -1       521 4.33473E-12 4.47772E-12 1.48203E+01
 -1       522-2.38762E-12-2.44293E-12-4.10375E+01
 -1       523-6.55032E-15 9.21485E-14-1.03535E+02
 -1       524 2.32037E-14 1.13354E-13-1.12699E+02
 -1       525 8.82545E-14-8.21565E-14-1.29973E+02
 -1       526 2.06779E-14-8.77354E-14-8.50380E+01
 -1       527-2.29372E-13 5.34184E-13-1.74524E+02
 -1       528-5.74166E-13 8.16847E-13-1.50747E+02
 -1       529-2.46192E-14-1.16390E-12-1.54024E+02
 -1       530 2.90667E-13-1.13598E-12-1.80731E+02
 -1       531-4.86833E-14-7.78333E-12-3.98705E+01
 -1       532 2.28118E-13-1.87499E-13-9.23437E+01
 -1       533 1.06821E-12-1.24040E-12-5.08806E+01
 -1       534-6.68195E-12-3.94240E-13 7.39010E+01
 -1       535-4.51306E-14-1.88238E-13-6.77672E+01
 -1       536 1.88877E-13-3.59657E-13 4.55848E+01
 -1       537-1.29619E-13-1.71863E-13-1.00430E+02
 -1       538 1.17281E-13-2.05780E-13-5.08201E+01
 -1       539-4.42298E-14 4.88051E-13-2.16102E+01
 -1       540 3.95170E-14-1.11855E-13 9.21913E+01
 -1       541 4.27713E-14 1.70887E-12 1.82862E+02
 -1       542-1.60094E-13-2.55573E-13 1.62049E+02
 -1       543 3.09981E-13 2.82199E-12 1.80901E+02
 -1       544 2.18027E-13 3.93261E-12 1.88315E+02
 -1       545 2.66231E-13 2.37244E-12 1.04901E+02
 -1       546-6.09311E-13 4.49640E-13 1.50840E+02
 -1       547 2.13482E-12-5.29870E-12 2.05775E+01
 -1       548 3.12694E-13 1.46654E-12 4.30901E+01
 -1       549-1.44462E-12 4.70557E-12-1.89192E+01
 -1       550 4.84168E-13 3.02397E-12-1.20047E+02
 -1       551 1.11100E-12 5.79828E-13-1.55193E+02
 -1       552-4.69402E-13 1.97398E-12-1.87987E+02
 -1       553 2.24543E-13-3.29736E-14-2.63648E+02
 -1       554-8.63823E-13 4.61575E-14-2.18964E+02
 -1       555-7.56201E-14-8.79193E-14-1.14106E+02
 -1       556 2.24543E-14-7.06379E-14 8.34241E+01
 -1       557-2.16355E-14-1.40776E-13 2.03968E+01
 -1       558-7.66054E-14 5.55667E-14 1.22063E+02
 -1       559-1.16226E-13 1.55612E-13 9.84515E+01
 -1       560-2.91100E-13 1.44504E-12 1.83793E+02
 -1       561 1.52929E-13 2.68921E-12 1.80673E+02
 -1       562 3.08253E-13 2.29719E-12 7.25820E+01
 -1       563 7.52620E-13-4.26077E-12-7.85212E+01
 -1       564 1.72414E-13-2.02161E-13 1.01739E+01
 -1       565-2.10665E-14 1.46910E-13 9.15832E+01
 -1       566-7.16970E-14-7.87148E-14 9.63674E+01
 -1       567-2.49620E-13 1.20938E-12 9.65477E+01
 -1       568 4.13032E-13-6.93751E-13-6.66820E+01
 -1       569-5.67324E-14 4.52527E-13 1.03767E+02
 -1       570 2.52728E-13-1.12715E-13 1.70671E+01
 -1       571-1.01723E-12-3.78313E-14 1.40988E-12
 -1       572-8.43009E-12-1.59150E-12 5.21805E-12
 -1       573-2.34170E-12 2.37525E-12 2.04228E-12
 -1       574-2.53936E-12-4.20078E-12 2.38387E-12
 -1       575-4.22822E-12 3.00513E-12 3.19425E-12
 -1       576-1.57138E-12 2.22845E-12 1.21370E-12
 -1       577 1.82383E-12-1.07157E-12 1.61582E-12
 -1       578 2.29332E-12-3.73283E-12-8.88178E-15
 -1       579 7.23043E-13-5.63161E-13 8.81739E-13
 -1       580 1.46476E-12 3.48638E-13 7.32969E-13
 -1       581-2.64233E-14-6.37268E-14 3.77476E-14
 -1       582 7.63278E-15-2.65343E-14-1.82077E-14
 -1       583-2.92474E-14 5.66387E-15-2.89768E-14
 -1       584-2.43317E-14-3.70121E-14-5.46230E-14
 -1       585 1.89015E-14 2.39808E-14 1.54321E-14
 -1       586-1.61648E-13-5.13006E-13-5.77316E-14
 -1       587-1.70280E-14 9.90319E-14-6.30607E-14
 -1       588-4.43354E-13 1.30069E-12-7.36744E-13
 -1       589 4.73559E-13-2.91933E-13-6.12843E-14
 -1       590-4.62194E-13 6.45740E-13 1.99840E-14
 -1       591 2.73547E-13-1.74832E-12-1.62204E-13
 -1       592 5.13189E-12 3.10193E-13 2.58527E-12
 -1       593 3.37081E-13 3.71814E-13 2.04281E-14
 -1       594 8.96956E-14 1.25519E-12 3.23075E-13
 -1       595 1.89376E-12 1.46189E-12 1.76481E-12
 -1       596 6.04067E-13 8.79551E-12 3.91576E-13
 -1       597-1.16451E-12-5.28252E-12 1.27542E-12
 -1       598-7.59837E-13-4.04482E-13-7.58504E-13
 -1       599 1.93424E-12-2.38309E-12-1.27898E-12
 -1       600 4.49252E-13-1.50935E-13 2.34479E-13
 -1       601 8.97338E-14-1.51436E-12-3.45501E-13
 -1       602-2.27016E-12-4.04565E-13 3.19300E-13
 -1       603 5.68174E-14-2.28408E-13 1.76970E-13
 -1       604-7.65195E-14 2.09936E-14-7.84928E-14
 -1       605-6.70064E-12 1.55431E-14-4.61853E-13
 -1       606-2.74780E-13-1.28586E-12-4.92939E-13
 -1       607 5.76851E-13-4.17359E-12-1.42997E-13
 -1       608 1.98266E-14 1.63691E-13-9.56180E-15
 -1       609 4.19664E-14-1.40749E-13-6.79456E-14
 -1       610 2.52480E-13-1.33955E-14-3.24185E-14
 -1       611-1.56125E-17-8.94562E-14 1.06581E-14
 -1       612 2.79776E-14-4.17721E-15-1.77636E-15
 -1       613 2.34333E-12-2.28214E-12 1.49319E-12
 -1       614-2.49384E-14-1.31413E-12-1.71241E-12
 -1       615 3.14360E-13 9.08773E-13 1.29674E-13
 -1       616 2.64122E-13 6.81177E-13-2.47802E-13
 -1       617 1.15638E-12 5.78555E-13 1.68110E-12
 -1       618-8.63015E-13-3.25393E-12-1.28919E-12
 -1       619 1.14955E-12-9.33620E-13-2.26297E-12
 -1       620-5.52315E-13-2.52563E-12-1.30207E-12
 -1       621 1.67553E-13 1.29907E-12-5.29354E-13
 -1       622-3.31389E-12-8.66241E-13-1.83453E-12
 -1       623 7.26197E-13-6.87898E-12 5.34683E-13
 -1       624-5.73664E-13-2.33908E-12-2.87992E-13
 -1       625-1.68754E-14 2.41751E-14-1.14797E-13
 -1       626 3.66790E-14 5.14588E-14 7.99361E-15
 -1       627 2.31468E-13-6.79987E-13 4.03233E-13
 -1       628 1.37862E-13 8.01637E-13 5.75540E-13
 -1       629-5.18774E-13 1.05473E-12 1.10134E-13
 -1       630-8.66798E-14 8.79333E-13-1.78790E-12
 -1       631-8.64170E-13 2.03395E-12-3.23297E-13
 -1       632-1.55764E-13-3.78894E-12-2.05169E-13
 -1       633-2.96245E-12-8.42122E-13 3.97904E-13
 -1       634 1.25655E-12 8.49676E-12-2.27374E-13
 -1       635-6.86479E-12-3.08494E-12 2.45803E-12
 -1       636 5.29003E-12-2.53118E-13-1.50692E-12
 -1       637-2.69810E-12 1.58450E-12-1.33005E-12
 -1       638-1.95205E-13-2.44331E-13 2.84217E-14
 -1       639 1.51043E-13 1.11845E-13-5.08482E-14
 -1       640 3.26912E-14-9.47653E-14-1.42109E-14
 -1       641-6.18949E-14-2.72508E-13-1.37668E-14
 -1       642 5.50887E-14-2.34396E-14-3.06422E-14
 -1       643-5.54209E-14-2.58779E-13 8.48210E-14
 -1       644-5.65286E-14 9.41397E-13-6.88338E-15
 -1       645 1.17198E-13-7.34329E-13-1.04805E-13
 -1       646 1.71481E-14 5.86675E-14 6.75016E-14
 -1       647-8.21378E-13 1.72282E-12 1.42286E-12
 -1       648-3.43048E-13-1.06950E-12 5.62335E-13
 -1       649-7.64458E-13 1.67623E-12 7.25642E-13
 -1       650-1.86751E-12 6.28608E-13 1.75415E-12
 -1       651-4.99670E-13 6.90181E-13-2.15009E-13
 -1       652-1.75303E-12-2.66381E-12 9.58345E-13
 -1       653 6.90212E-14-3.11806E-13-1.77636E-15
 -1       654-1.13742E-13 4.17194E-13 7.81597E-13
 -1       655-7.52245E-14-4.04315E-13-3.90799E-14
 -1       656 5.63716E-13-1.14560E-12-5.87974E-13
 -1       657 2.07695E-13 3.10989E-13-2.02616E-14
 -1       658 3.07254E-13 5.26412E-13-1.24345E-14
 -1       659 7.29798E-15 8.90607E-14-8.48210E-14
 -1       660 6.52117E-14-6.73073E-16-1.22125E-14
 -1       661 1.72529E-13-3.94962E-14 9.59233E-14
 -1       662 1.05180E-13-6.22918E-13-1.58984E-13
 -1       663-7.10890E-15-2.71692E-13-4.92939E-14
 -1       664 1.43784E-13 3.85456E-13-1.70974E-13
 -1       665 2.01285E-13 5.38632E-13 5.15143E-14
 -1       666 9.75886E-14 1.79215E-12 3.41061E-13
 -1       667-2.03657E-13-5.11535E-14-3.94351E-13
 -1       668 1.20039E-12 4.01191E-13-5.34683E-13
 -1       669 1.81827E-13-1.23457E-12-3.82805E-13
 -1       670 5.38458E-13 1.27574E-12 2.66454E-14
 -1       671 3.44759E-14-2.37518E-13-1.73195E-14
 -1       672-3.94541E-13 2.34449E-12 5.26468E-13
 -1       673-1.23031E-12-1.75947E-12 1.04882E-13
 -1       674-5.59101E-15 4.89026E-13 1.38778E-15
 -1       675-7.58227E-13 1.02340E-12 1.50102E-13
 -1       676-5.94230E-13-5.44413E-13-1.54321E-13
 -1       677 4.44147E-12 1.98310E-12 2.26638E-12
 -1       678-3.61378E-14 2.22045E-16 7.37188E-14
 -1       679-3.25172E-13 3.24031E-13 1.13479E-13
 -1       680-2.60243E-13-7.23535E-14-1.84586E-14
 -1       681 3.66235E-14-2.28102E-13-3.99680E-14
 -1       682-1.73646E-15-3.38608E-13-2.85105E-13
 -1       683 1.69270E-12-1.01347E-12 3.15303E-13
 -1       684-3.97232E-12-5.80383E-12 4.01457E-13
 -1       685 1.97340E-12 3.10946E-13 2.59071E-13
 -1       686-1.26934E-13 1.48236E-13-5.63993E-14
 -1       687 1.35725E-14-1.19640E-13-1.59872E-14
 -1       688-5.49560E-13-1.38885E-12-2.85993E-13
 -1       689-1.18740E-12 1.07750E-12 7.90368E-13
 -1       690 2.43902E-14-4.24209E-14-2.66454E-15
 -1       691 9.52675E-13-4.11482E-12 2.69562E-13
 -1       692-1.48378E-13-2.27325E-13 2.13163E-14
 -1       693-2.97835E-13 3.28702E-13 1.77636E-14
 -1       694 6.78207E-14 9.00495E-14 5.59552E-14
 -1       695 2.51223E-14 4.98794E-14-9.99201E-15
 -1       696 6.17728E-13-6.13243E-12 1.58096E-12
 -1       697-5.27571E-13 1.34417E-12-4.47642E-13
 -1       698 2.64233E-14 6.08402E-14-1.42109E-14
 -1       699 1.08732E-13 4.39093E-14-9.99201E-14
 -1       700 2.33841E-15-3.17746E-13 7.28306E-14
 -1       701 4.32210E-13-2.58238E-13 5.64881E-13
 -1       702-2.81532E-12-2.60969E-12-1.10756E-12
 -1       703 1.22749E-13 5.42483E-14-3.99680E-14
 -1       704 3.32998E-14-1.17392E-13-2.84217E-14
 -1       705-2.03395E-12 7.47406E-12 2.59126E-12
 -1       706-4.05970E-12 5.88196E-13-4.61853E-14
 -1       707-2.16883E-12 3.86321E-12 5.15033E-13
 -1       708 3.98654E-12-4.42157E-13-1.29624E-12
 -1       709 1.99868E-12-3.55774E-12-3.63376E-12
 -1       710 5.32685E-13 1.05756E-12 2.18492E-13
 -1       711 6.37268E-14 2.06390E-13 9.23706E-14
 -1       712 2.10361E-12 1.65668E-12 1.46372E-12
 -1       713-1.20182E-14 2.55351E-14-5.28466E-14
 -1       714 1.73041E-13 6.96665E-15 1.20792E-13
 -1       715-1.20099E-13-6.14786E-14-2.64233E-14
 -1       716 1.27954E-13-1.87305E-13-4.34097E-14
 -1       717-2.52580E-12 3.22843E-12-9.02417E-13
 -1       718 3.15838E-13 6.35776E-14 5.15143E-14
 -3
 9999
