    1C
    1UUSER                                                              
    1UDATE              18.february.2021                                
    1UTIME              19:26:56                                        
    1UHOST                                                              
    1UPGM               CalculiX                                        
    1UVERSION           Version 2.17                             
    1UCOMPILETIME       Thu Jul 23 21:43:50 CEST 2020                    
    1UDIR                                                               
    1UDBN                                                               
    1UMAT    1STEEL                                                     
    2C                            29                                     1
 -1         1 1.16500E+00 8.12831E-01 0.00000E+00
 -1         2-3.05640E-15 1.00000E+00 0.00000E+00
 -1         3 3.39463E-15 1.58305E+00 0.00000E+00
 -1         4 1.36776E+00 1.30989E+00 0.00000E+00
 -1         5-4.65605E-15 2.75000E+00 0.00000E+00
 -1         6 1.77348E+00 2.30447E+00 0.00000E+00
 -1         7 1.78302E+00 4.53000E-01 0.00000E+00
 -1         8 2.13324E+00 7.51594E-01 0.00000E+00
 -1         9 2.83277E+00 1.34800E+00 0.00000E+00
 -1        10 2.00000E+00 1.09117E-14 0.00000E+00
 -1        11 2.41700E+00 2.81975E-15 0.00000E+00
 -1        12 3.25000E+00 9.31453E-15 0.00000E+00
 -1        13 6.11832E-01 9.52058E-01 0.00000E+00
 -1        14 1.26638E+00 1.06136E+00 0.00000E+00
 -1        15 7.01092E-01 1.51739E+00 0.00000E+00
 -1        16 1.04148E-15 1.29152E+00 0.00000E+00
 -1        17 1.57062E+00 1.80718E+00 0.00000E+00
 -1        18 9.24995E-01 2.63627E+00 0.00000E+00
 -1        19 4.16745E-15 2.16652E+00 0.00000E+00
 -1        20 1.51730E+00 6.51501E-01 0.00000E+00
 -1        21 1.95813E+00 6.02297E-01 0.00000E+00
 -1        22 1.78691E+00 1.07212E+00 0.00000E+00
 -1        23 2.48300E+00 1.04980E+00 0.00000E+00
 -1        24 2.37146E+00 1.88042E+00 0.00000E+00
 -1        25 1.94500E+00 2.32905E-01 0.00000E+00
 -1        26 2.20850E+00 7.79284E-15 0.00000E+00
 -1        27 2.34293E+00 3.97036E-01 0.00000E+00
 -1        28 2.83350E+00 3.11639E-15 0.00000E+00
 -1        29 3.14396E+00 6.96732E-01 0.00000E+00
 -3
    3C                             6                                     1
 -1         1   10    0    1
 -2         2         1         4         3        13        14        15        16
 -1         2   10    0    1
 -2         3         4         6         5        15        17        18        19
 -1         3   10    0    1
 -2         1         7         8         4        20        21        22        14
 -1         4   10    0    1
 -2         4         8         9         6        22        23        24        17
 -1         5   10    0    1
 -2         7        10        11         8        25        26        27        21
 -1         6   10    0    1
 -2         8        11        12         9        27        28        29        23
 -3
    1PSTEP                         1           1           1          
  100CL  101 1.000000000          29                     0    1           1
 -4  DISP        4    1
 -5  D1          1    2    1    0
 -5  D2          1    2    2    0
 -5  D3          1    2    3    0
 -5  ALL         1    2    0    0    1ALL
 -1         1-4.34746E-05 4.09154E-04 1.62789E-21
 -1         2 0.00000E+00 5.38814E-04-1.78671E-21
 -1         3 0.00000E+00 5.38254E-04 1.64113E-21
 -1         4 3.81452E-05 3.72063E-04-1.79995E-21
 -1         5 0.00000E+00 5.36391E-04-3.38813E-21
 -1         6 1.72119E-04 3.26228E-04 1.48231E-21
 -1         7-7.71362E-05 2.04543E-04 1.58819E-21
 -1         8-3.16926E-05 1.38018E-04-1.58819E-22
 -1         9 7.07831E-05 5.72837E-05-7.94093E-23
 -1        10-8.94814E-05 0.00000E+00 4.23516E-22
 -1        11-9.99678E-05 0.00000E+00-7.41154E-22
 -1        12-6.53229E-05 0.00000E+00 2.71315E-22
 -1        13-1.99176E-05 5.03084E-04 1.25446E-18
 -1        14 3.49233E-06 3.88457E-04-3.28014E-19
 -1        15 3.17385E-05 4.92864E-04 4.23093E-19
 -1        16 0.00000E+00 5.40277E-04-5.18808E-21
 -1        17 9.99525E-05 3.48364E-04 3.09167E-20
 -1        18 1.16888E-04 4.76725E-04-6.91602E-19
 -1        19 0.00000E+00 5.35911E-04-1.63011E-18
 -1        20-6.02521E-05 3.11057E-04-4.41516E-20
 -1        21-5.14626E-05 1.60201E-04 1.84018E-19
 -1        22 1.57375E-05 2.53856E-04-4.08058E-19
 -1        23 1.22442E-05 1.02907E-04-1.76818E-20
 -1        24 1.47912E-04 1.77642E-04-3.49401E-20
 -1        25-8.65143E-05 9.89999E-05-1.01644E-20
 -1        26-1.03324E-04 0.00000E+00-9.82558E-20
 -1        27-7.53860E-05 5.54476E-05-1.36161E-19
 -1        28-8.34410E-05 0.00000E+00 2.79521E-20
 -1        29-2.29600E-05 9.91976E-07 2.43522E-21
 -3
    1PSTEP                         2           1           1          
  100CL  101 1.000000000          29                     0    1           1
 -4  STRESS      6    1
 -5  SXX         1    4    1    1
 -5  SYY         1    4    2    2
 -5  SZZ         1    4    3    3
 -5  SXY         1    4    1    2
 -5  SYZ         1    4    2    3
 -5  SZX         1    4    3    1
 -1         1 6.43319E+06 2.83205E+06 4.11537E+05-2.46011E+06-2.78815E-08-2.56950E-07
 -1         2-5.63976E+06 9.75276E+05 1.10716E+04-8.10837E+05-1.06797E-07 3.28322E-07
 -1         3 1.34986E+07 2.13836E+06 4.61511E+04-7.79650E+05-2.89634E-07 1.19690E-07
 -1         4 9.36269E+06 1.15039E+07-1.19907E+05-1.05770E+07 1.49483E-07-6.54727E-08
 -1         5 3.57506E+07 1.14975E+07 4.64044E+05-1.12879E+06 1.58652E-07-1.16674E-07
 -1         6 2.25264E+07 1.64361E+07 1.18229E+05-7.81197E+06 2.11330E-08-7.95899E-09
 -1         7 1.97525E+07 2.52382E+07-2.30361E+04-2.23166E+07 5.80330E-08 9.09567E-08
 -1         8 4.49820E+06 3.03822E+07-1.77858E+04-4.19603E+06-8.27313E-08-9.84619E-09
 -1         9 7.20280E+06 1.03101E+07-3.63308E+05 1.38217E+06 5.14166E-09-1.35933E-08
 -1        10 2.20827E+06 8.58475E+07-1.13985E+06 8.41022E+04-1.09139E-11-1.03173E-07
 -1        11 1.85482E+07 2.73636E+07 3.46218E+05 2.83687E+06-5.40240E-08 5.19140E-08
 -1        12 7.58720E+06-5.38893E+06-7.30389E+05 1.94259E+06 2.52476E-09-8.10542E-09
 -1        13-4.48171E+06-1.82990E+06-2.58373E+05 3.58005E+05-4.41083E-07-3.21015E-08
 -1        14 8.93243E+06 7.71648E+06 6.76605E+04-7.32702E+06 9.58535E-08-1.32641E-07
 -1        15 9.44943E+06 3.64476E+06-1.50753E+05-4.80864E+06-3.33370E-07-3.54485E-08
 -1        16 5.44064E+06 1.75681E+06 7.95793E+04-1.00570E+06 1.18627E-07 1.90350E-07
 -1        17 1.60397E+07 1.41835E+07 1.03880E+05-8.90547E+06-2.89001E-08-3.28619E-08
 -1        18 2.68286E+07 1.06476E+07-1.48925E+05-4.25162E+06 1.36220E-07 2.45791E-08
 -1        19 2.55918E+07 7.37160E+06 3.07900E+05-9.66125E+05 2.78160E-07 5.76256E-08
 -1        20 1.32144E+07 5.97324E+06-7.47505E+05-1.12077E+07-1.10645E-07-7.13335E-08
 -1        21 9.21567E+06 2.64514E+07-3.44132E+05-1.17076E+07-4.96220E-08 1.29512E-08
 -1        22 7.12341E+06 2.03554E+07-9.39598E+04-8.92807E+06-7.53898E-08 5.82077E-11
 -1        23 4.97644E+06 1.75290E+07-3.03093E+05-7.16564E+05-1.00481E-08 3.55431E-09
 -1        24 1.45296E+07 1.44502E+07 1.38436E+05-4.22233E+06-2.52330E-08 9.47184E-08
 -1        25 1.93505E+07 7.07336E+07 1.92482E+06-2.12391E+07 2.36905E-08 4.42378E-09
 -1        26 7.38288E+06 4.37240E+07-5.48163E+05 3.82970E+06-6.75209E-09 8.32370E-09
 -1        27 1.31554E+07 3.39880E+07 5.26598E+05-1.13096E+06 3.39787E-09-1.53887E-08
 -1        28 1.05890E+07 6.66728E+06-7.26656E+05 1.93679E+06-2.29775E-08 4.06289E-08
 -1        29 1.11236E+07 6.77808E+06 1.19525E+05 2.22700E+06 2.54477E-09 3.48518E-09
 -3
    1PSTEP                         3           1           1          
  100CL  101 1.000000000          29                     0    1           1
 -4  TOSTRAIN    6    1
 -5  EXX         1    4    1    1
 -5  EYY         1    4    2    2
 -5  EZZ         1    4    3    3
 -5  EXY         1    4    1    2
 -5  EYZ         1    4    2    3
 -5  EZX         1    4    3    1
 -1         1 2.60005E-05 3.70777E-06-1.12764E-05-1.52292E-05-1.72689E-19-1.59057E-18
 -1         2-2.82651E-05 1.26852E-05 6.71627E-06-5.01947E-06-6.61109E-19 2.03250E-18
 -1         3 6.11581E-05-9.16693E-06-2.21187E-05-4.82640E-06-1.79296E-18 7.40935E-19
 -1         4 2.83214E-05 4.15764E-05-3.03804E-05-6.54766E-05 9.25350E-19-4.05319E-19
 -1         5 1.53153E-04 3.01490E-06-6.52875E-05-6.98773E-06 9.82029E-19-7.22268E-19
 -1         6 8.36196E-05 4.59178E-05-5.50978E-05-4.83598E-05 1.30840E-19-4.92801E-20
 -1         7 5.80377E-05 9.19969E-05-6.43820E-05-1.38150E-04 3.59460E-19 5.63224E-19
 -1         8-2.19578E-05 1.38277E-04-4.99139E-05-2.59754E-05-5.12084E-19-6.08408E-20
 -1         9 2.00893E-05 3.93252E-05-2.67485E-05 8.55628E-06 3.17596E-20-8.41309E-20
 -1        10-1.10495E-04 4.07271E-04-1.31222E-04 5.20633E-07-5.29396E-23-6.38451E-19
 -1        11 4.87391E-05 1.03311E-04-6.39396E-05 1.75616E-05-3.34446E-19 3.21648E-19
 -1        12 4.48714E-05-3.54570E-05-6.61843E-06 1.20255E-05 1.55907E-20-5.02132E-20
 -1        13-1.83582E-05-1.94228E-06 7.78624E-06 2.21622E-06-2.72988E-18-1.98629E-19
 -1        14 3.14152E-05 2.38879E-05-2.34620E-05-4.53577E-05 5.93347E-19-8.21410E-19
 -1        15 4.00058E-05 4.07216E-06-1.94239E-05-2.97678E-05-2.06364E-18-2.19461E-19
 -1        16 2.32844E-05 4.79725E-07-9.90311E-06-6.22575E-06 7.34483E-19 1.17836E-18
 -1        17 5.59689E-05 4.44781E-05-4.26813E-05-5.51291E-05-1.78883E-19-2.03394E-19
 -1        18 1.12757E-04 1.25891E-05-5.42465E-05-2.63195E-05 8.43221E-19 1.52168E-19
 -1        19 1.10895E-04-1.89667E-06-4.56243E-05-5.98077E-06 1.72175E-18 3.56680E-19
 -1        20 5.54606E-05 1.06341E-05-3.09705E-05-6.93810E-05-6.85197E-19-4.41410E-19
 -1        21 6.58802E-06 1.13285E-04-5.25917E-05-7.24755E-05-3.06626E-19 8.00976E-20
 -1        22 4.97617E-06 8.68882E-05-3.97028E-05-5.52690E-05-4.66623E-19 4.23516E-22
 -1        23-9.11062E-07 7.67951E-05-3.35939E-05-4.43587E-06-6.20981E-20 2.18905E-20
 -1        24 4.83476E-05 4.78560E-05-4.07404E-05-2.61382E-05-1.56172E-19 5.86345E-19
 -1        25-1.16525E-05 3.06433E-04-1.19526E-04-1.31480E-04 1.46113E-19 2.62580E-20
 -1        26-2.65233E-05 1.98446E-04-7.56202E-05 2.37077E-05-4.15046E-20 5.16690E-20
 -1        27 1.33382E-05 1.42302E-04-6.48400E-05-7.00116E-06 2.12817E-20-9.53441E-20
 -1        28 4.19370E-05 1.76599E-05-2.81120E-05 1.19897E-05-1.42037E-19 2.51145E-19
 -1        29 4.31159E-05 1.62149E-05-2.50047E-05 1.37862E-05 1.56833E-20 2.13876E-20
 -3
    1PSTEP                         4           1           1          
  100CL  101 1.000000000          29                     0    1           1
 -4  ERROR       1    1
 -5  STR(%)      1    1    0    0
 -1         1 3.97395E+01
 -1         2 3.97395E+01
 -1         3 3.97395E+01
 -1         4 3.97395E+01
 -1         5 1.49433E+01
 -1         6 1.49433E+01
 -1         7 2.18453E+01
 -1         8 2.18453E+01
 -1         9 2.09342E+01
 -1        10 1.72489E+01
 -1        11 2.09342E+01
 -1        12 2.09342E+01
 -1        13 3.97395E+01
 -1        14 3.97395E+01
 -1        15 3.97395E+01
 -1        16 3.97395E+01
 -1        17 2.73414E+01
 -1        18 1.49433E+01
 -1        19 2.73414E+01
 -1        20 3.07924E+01
 -1        21 2.18453E+01
 -1        22 3.07924E+01
 -1        23 2.13897E+01
 -1        24 1.79388E+01
 -1        25 1.95471E+01
 -1        26 1.90915E+01
 -1        27 2.13897E+01
 -1        28 2.09342E+01
 -1        29 2.09342E+01
 -3
 9999
