    1C
    1UHash: PXJD0WWr, Date: 03/11/2021, Unit system: MM_TON_S_C         
    1UUSER                                                              
    1UDATE              11.march.2021                                   
    1UTIME              20:37:25                                        
    1UHOST                                                              
    1UPGM               CalculiX                                        
    1UVERSION           Version 2.10                             
    1UCOMPILETIME       Sa 5. MÃ¤r 12:23:33 CET 2016                    
    1UDIR                                                               
    1UDBN                                                               
    1UMAT    1RUBBER                                                    
    2C                           155                                     1
 -1       225 4.80000E+01 4.40000E+01 0.00000E+00
 -1       226 4.80000E+01 4.40000E+01 5.00000E+00
 -1       227 0.00000E+00 0.00000E+00 0.00000E+00
 -1       228 0.00000E+00 0.00000E+00 5.00000E+00
 -1       229 4.80000E+01 6.00000E+01 0.00000E+00
 -1       230 4.80000E+01 6.00000E+01 5.00000E+00
 -1       231 0.00000E+00 4.40000E+01 0.00000E+00
 -1       232 0.00000E+00 4.40000E+01 5.00000E+00
 -1       233 3.60000E+01 3.30000E+01 0.00000E+00
 -1       234 2.40000E+01 2.20000E+01 0.00000E+00
 -1       235 1.20000E+01 1.10000E+01 0.00000E+00
 -1       236 3.60000E+01 3.30000E+01 5.00000E+00
 -1       237 2.40000E+01 2.20000E+01 5.00000E+00
 -1       238 1.20000E+01 1.10000E+01 5.00000E+00
 -1       239 4.80000E+01 5.60000E+01 0.00000E+00
 -1       240 4.80000E+01 5.20000E+01 0.00000E+00
 -1       241 4.80000E+01 4.80000E+01 0.00000E+00
 -1       242 4.80000E+01 5.60000E+01 5.00000E+00
 -1       243 4.80000E+01 5.20000E+01 5.00000E+00
 -1       244 4.80000E+01 4.80000E+01 5.00000E+00
 -1       245 1.20000E+01 4.80000E+01 0.00000E+00
 -1       246 2.40000E+01 5.20000E+01 0.00000E+00
 -1       247 3.60000E+01 5.60000E+01 0.00000E+00
 -1       248 1.20000E+01 4.80000E+01 5.00000E+00
 -1       249 2.40000E+01 5.20000E+01 5.00000E+00
 -1       250 3.60000E+01 5.60000E+01 5.00000E+00
 -1       251 0.00000E+00 1.10000E+01 0.00000E+00
 -1       252 0.00000E+00 2.20000E+01 0.00000E+00
 -1       253 0.00000E+00 3.30000E+01 0.00000E+00
 -1       254 0.00000E+00 1.10000E+01 5.00000E+00
 -1       255 0.00000E+00 2.20000E+01 5.00000E+00
 -1       256 0.00000E+00 3.30000E+01 5.00000E+00
 -1       257 3.60000E+01 3.87500E+01 0.00000E+00
 -1       258 3.60000E+01 4.45000E+01 0.00000E+00
 -1       259 3.60000E+01 5.02500E+01 0.00000E+00
 -1       260 2.40000E+01 2.95000E+01 0.00000E+00
 -1       261 2.40000E+01 3.70000E+01 0.00000E+00
 -1       262 2.40000E+01 4.45000E+01 0.00000E+00
 -1       263 1.20000E+01 2.02500E+01 0.00000E+00
 -1       264 1.20000E+01 2.95000E+01 0.00000E+00
 -1       265 1.20000E+01 3.87500E+01 0.00000E+00
 -1       266 1.20000E+01 2.02500E+01 5.00000E+00
 -1       267 1.20000E+01 2.95000E+01 5.00000E+00
 -1       268 1.20000E+01 3.87500E+01 5.00000E+00
 -1       269 2.40000E+01 2.95000E+01 5.00000E+00
 -1       270 2.40000E+01 3.70000E+01 5.00000E+00
 -1       271 2.40000E+01 4.45000E+01 5.00000E+00
 -1       272 3.60000E+01 3.87500E+01 5.00000E+00
 -1       273 3.60000E+01 4.45000E+01 5.00000E+00
 -1       274 3.60000E+01 5.02500E+01 5.00000E+00
 -1       275 4.80000E+01 4.40000E+01 2.50000E+00
 -1       276 0.00000E+00 0.00000E+00 2.50000E+00
 -1       277 4.20000E+01 3.85000E+01 0.00000E+00
 -1       278 3.00000E+01 2.75000E+01 0.00000E+00
 -1       279 1.80000E+01 1.65000E+01 0.00000E+00
 -1       280 6.00000E+00 5.50000E+00 0.00000E+00
 -1       281 4.20000E+01 3.85000E+01 5.00000E+00
 -1       282 3.00000E+01 2.75000E+01 5.00000E+00
 -1       283 1.80000E+01 1.65000E+01 5.00000E+00
 -1       284 6.00000E+00 5.50000E+00 5.00000E+00
 -1       285 4.80000E+01 6.00000E+01 2.50000E+00
 -1       286 4.80000E+01 5.80000E+01 0.00000E+00
 -1       287 4.80000E+01 5.40000E+01 0.00000E+00
 -1       288 4.80000E+01 5.00000E+01 0.00000E+00
 -1       289 4.80000E+01 4.60000E+01 0.00000E+00
 -1       290 4.80000E+01 5.80000E+01 5.00000E+00
 -1       291 4.80000E+01 5.40000E+01 5.00000E+00
 -1       292 4.80000E+01 5.00000E+01 5.00000E+00
 -1       293 4.80000E+01 4.60000E+01 5.00000E+00
 -1       294 0.00000E+00 4.40000E+01 2.50000E+00
 -1       295 6.00000E+00 4.60000E+01 0.00000E+00
 -1       296 1.80000E+01 5.00000E+01 0.00000E+00
 -1       297 3.00000E+01 5.40000E+01 0.00000E+00
 -1       298 4.20000E+01 5.80000E+01 0.00000E+00
 -1       299 6.00000E+00 4.60000E+01 5.00000E+00
 -1       300 1.80000E+01 5.00000E+01 5.00000E+00
 -1       301 3.00000E+01 5.40000E+01 5.00000E+00
 -1       302 4.20000E+01 5.80000E+01 5.00000E+00
 -1       303 0.00000E+00 5.50000E+00 0.00000E+00
 -1       304 0.00000E+00 1.65000E+01 0.00000E+00
 -1       305 0.00000E+00 2.75000E+01 0.00000E+00
 -1       306 0.00000E+00 3.85000E+01 0.00000E+00
 -1       307 0.00000E+00 5.50000E+00 5.00000E+00
 -1       308 0.00000E+00 1.65000E+01 5.00000E+00
 -1       309 0.00000E+00 2.75000E+01 5.00000E+00
 -1       310 0.00000E+00 3.85000E+01 5.00000E+00
 -1       311 3.60000E+01 3.30000E+01 2.50000E+00
 -1       312 2.40000E+01 2.20000E+01 2.50000E+00
 -1       313 1.20000E+01 1.10000E+01 2.50000E+00
 -1       314 4.80000E+01 5.60000E+01 2.50000E+00
 -1       315 4.80000E+01 5.20000E+01 2.50000E+00
 -1       316 4.80000E+01 4.80000E+01 2.50000E+00
 -1       317 1.20000E+01 4.80000E+01 2.50000E+00
 -1       318 2.40000E+01 5.20000E+01 2.50000E+00
 -1       319 3.60000E+01 5.60000E+01 2.50000E+00
 -1       320 0.00000E+00 1.10000E+01 2.50000E+00
 -1       321 0.00000E+00 2.20000E+01 2.50000E+00
 -1       322 0.00000E+00 3.30000E+01 2.50000E+00
 -1       323 3.60000E+01 3.58750E+01 0.00000E+00
 -1       324 4.20000E+01 4.33750E+01 0.00000E+00
 -1       325 3.60000E+01 4.16250E+01 0.00000E+00
 -1       326 4.20000E+01 4.82500E+01 0.00000E+00
 -1       327 3.60000E+01 4.73750E+01 0.00000E+00
 -1       328 4.20000E+01 5.31250E+01 0.00000E+00
 -1       329 3.60000E+01 5.31250E+01 0.00000E+00
 -1       330 2.40000E+01 2.57500E+01 0.00000E+00
 -1       331 3.00000E+01 3.41250E+01 0.00000E+00
 -1       332 2.40000E+01 3.32500E+01 0.00000E+00
 -1       333 3.00000E+01 4.07500E+01 0.00000E+00
 -1       334 2.40000E+01 4.07500E+01 0.00000E+00
 -1       335 3.00000E+01 4.73750E+01 0.00000E+00
 -1       336 2.40000E+01 4.82500E+01 0.00000E+00
 -1       337 1.20000E+01 1.56250E+01 0.00000E+00
 -1       338 1.80000E+01 2.48750E+01 0.00000E+00
 -1       339 1.20000E+01 2.48750E+01 0.00000E+00
 -1       340 1.80000E+01 3.32500E+01 0.00000E+00
 -1       341 1.20000E+01 3.41250E+01 0.00000E+00
 -1       342 1.80000E+01 4.16250E+01 0.00000E+00
 -1       343 1.20000E+01 4.33750E+01 0.00000E+00
 -1       344 6.00000E+00 1.56250E+01 0.00000E+00
 -1       345 6.00000E+00 2.57500E+01 0.00000E+00
 -1       346 6.00000E+00 3.58750E+01 0.00000E+00
 -1       347 1.20000E+01 1.56250E+01 5.00000E+00
 -1       348 6.00000E+00 1.56250E+01 5.00000E+00
 -1       349 1.20000E+01 2.48750E+01 5.00000E+00
 -1       350 6.00000E+00 2.57500E+01 5.00000E+00
 -1       351 1.20000E+01 3.41250E+01 5.00000E+00
 -1       352 6.00000E+00 3.58750E+01 5.00000E+00
 -1       353 1.20000E+01 4.33750E+01 5.00000E+00
 -1       354 2.40000E+01 2.57500E+01 5.00000E+00
 -1       355 1.80000E+01 2.48750E+01 5.00000E+00
 -1       356 2.40000E+01 3.32500E+01 5.00000E+00
 -1       357 1.80000E+01 3.32500E+01 5.00000E+00
 -1       358 2.40000E+01 4.07500E+01 5.00000E+00
 -1       359 1.80000E+01 4.16250E+01 5.00000E+00
 -1       360 2.40000E+01 4.82500E+01 5.00000E+00
 -1       361 3.60000E+01 3.58750E+01 5.00000E+00
 -1       362 3.00000E+01 3.41250E+01 5.00000E+00
 -1       363 3.60000E+01 4.16250E+01 5.00000E+00
 -1       364 3.00000E+01 4.07500E+01 5.00000E+00
 -1       365 3.60000E+01 4.73750E+01 5.00000E+00
 -1       366 3.00000E+01 4.73750E+01 5.00000E+00
 -1       367 3.60000E+01 5.31250E+01 5.00000E+00
 -1       368 4.20000E+01 4.33750E+01 5.00000E+00
 -1       369 4.20000E+01 4.82500E+01 5.00000E+00
 -1       370 4.20000E+01 5.31250E+01 5.00000E+00
 -1       371 3.60000E+01 3.87500E+01 2.50000E+00
 -1       372 3.60000E+01 4.45000E+01 2.50000E+00
 -1       373 3.60000E+01 5.02500E+01 2.50000E+00
 -1       374 2.40000E+01 2.95000E+01 2.50000E+00
 -1       375 2.40000E+01 3.70000E+01 2.50000E+00
 -1       376 2.40000E+01 4.45000E+01 2.50000E+00
 -1       377 1.20000E+01 2.02500E+01 2.50000E+00
 -1       378 1.20000E+01 2.95000E+01 2.50000E+00
 -1       379 1.20000E+01 3.87500E+01 2.50000E+00
 -3
    3C                            16                                     1
 -1       379    4    0    1
 -2       226       225       233       236       244       241       257       272       275       277
 -2       311       281       293       289       323       361       316       324       371       368
 -1       380    4    0    1
 -2       244       241       257       272       243       240       258       273       316       324
 -2       371       368       292       288       325       363       315       326       372       369
 -1       381    4    0    1
 -2       243       240       258       273       242       239       259       274       315       326
 -2       372       369       291       287       327       365       314       328       373       370
 -1       382    4    0    1
 -2       242       239       259       274       230       229       247       250       314       328
 -2       373       370       290       286       329       367       285       298       319       302
 -1       383    4    0    1
 -2       236       233       234       237       272       257       260       269       311       278
 -2       312       282       361       323       330       354       371       331       374       362
 -1       384    4    0    1
 -2       272       257       260       269       273       258       261       270       371       331
 -2       374       362       363       325       332       356       372       333       375       364
 -1       385    4    0    1
 -2       273       258       261       270       274       259       262       271       372       333
 -2       375       364       365       327       334       358       373       335       376       366
 -1       386    4    0    1
 -2       274       259       262       271       250       247       246       249       373       335
 -2       376       366       367       329       336       360       319       297       318       301
 -1       387    4    0    1
 -2       237       234       235       238       269       260       263       266       312       279
 -2       313       283       354       330       337       347       374       338       377       355
 -1       388    4    0    1
 -2       269       260       263       266       270       261       264       267       374       338
 -2       377       355       356       332       339       349       375       340       378       357
 -1       389    4    0    1
 -2       270       261       264       267       271       262       265       268       375       340
 -2       378       357       358       334       341       351       376       342       379       359
 -1       390    4    0    1
 -2       271       262       265       268       249       246       245       248       376       342
 -2       379       359       360       336       343       353       318       296       317       300
 -1       391    4    0    1
 -2       238       235       227       228       266       263       251       254       313       280
 -2       276       284       347       337       303       307       377       344       320       348
 -1       392    4    0    1
 -2       266       263       251       254       267       264       252       255       377       344
 -2       320       348       349       339       304       308       378       345       321       350
 -1       393    4    0    1
 -2       267       264       252       255       268       265       253       256       378       345
 -2       321       350       351       341       305       309       379       346       322       352
 -1       394    4    0    1
 -2       268       265       253       256       248       245       231       232       379       346
 -2       322       352       353       343       306       310       317       295       294       299
 -3
    1PSTEP                         1           1           1          
  100CL  101 1.000000000         155                     0    1           1
 -4  DISP        4    1
 -5  D1          1    2    1    0
 -5  D2          1    2    2    0
 -5  D3          1    2    3    0
 -5  ALL         1    2    0    0    1ALL
 -1       225-5.81783E+00 2.92350E+01 0.00000E+00
 -1       226-5.81783E+00 2.92350E+01 0.00000E+00
 -1       227 0.00000E+00 0.00000E+00 0.00000E+00
 -1       228 0.00000E+00 0.00000E+00 0.00000E+00
 -1       229-2.31164E+01 3.13410E+01 0.00000E+00
 -1       230-2.31164E+01 3.13410E+01 0.00000E+00
 -1       231 0.00000E+00 0.00000E+00 0.00000E+00
 -1       232 0.00000E+00 0.00000E+00 0.00000E+00
 -1       233 9.58613E-01 1.53891E+01 0.00000E+00
 -1       234 2.18373E+00 6.37628E+00 0.00000E+00
 -1       235 8.62577E-01 2.09007E+00 0.00000E+00
 -1       236 9.58613E-01 1.53891E+01 0.00000E+00
 -1       237 2.18373E+00 6.37628E+00 0.00000E+00
 -1       238 8.62577E-01 2.09007E+00 0.00000E+00
 -1       239-1.77860E+01 3.09510E+01 0.00000E+00
 -1       240-1.34273E+01 3.02899E+01 0.00000E+00
 -1       241-9.58906E+00 2.96487E+01 0.00000E+00
 -1       242-1.77860E+01 3.09510E+01 0.00000E+00
 -1       243-1.34273E+01 3.02899E+01 0.00000E+00
 -1       244-9.58906E+00 2.96487E+01 0.00000E+00
 -1       245-5.12695E+00 2.44253E+00 0.00000E+00
 -1       246-1.04829E+01 7.70907E+00 0.00000E+00
 -1       247-1.65991E+01 1.69034E+01 0.00000E+00
 -1       248-5.12695E+00 2.44253E+00 0.00000E+00
 -1       249-1.04829E+01 7.70907E+00 0.00000E+00
 -1       250-1.65991E+01 1.69034E+01 0.00000E+00
 -1       251 0.00000E+00 0.00000E+00 0.00000E+00
 -1       252 0.00000E+00 0.00000E+00 0.00000E+00
 -1       253 0.00000E+00 0.00000E+00 0.00000E+00
 -1       254 0.00000E+00 0.00000E+00 0.00000E+00
 -1       255 0.00000E+00 0.00000E+00 0.00000E+00
 -1       256 0.00000E+00 0.00000E+00 0.00000E+00
 -1       257-2.08832E+00 1.57314E+01 0.00000E+00
 -1       258-6.06473E+00 1.61188E+01 0.00000E+00
 -1       259-1.08462E+01 1.65182E+01 0.00000E+00
 -1       260 1.14060E+00 6.62835E+00 0.00000E+00
 -1       261-1.34524E+00 6.81997E+00 0.00000E+00
 -1       262-5.21253E+00 7.17230E+00 0.00000E+00
 -1       263 1.10852E+00 2.06140E+00 0.00000E+00
 -1       264 4.30757E-01 1.79617E+00 0.00000E+00
 -1       265-1.47601E+00 1.83626E+00 0.00000E+00
 -1       266 1.10852E+00 2.06140E+00 0.00000E+00
 -1       267 4.30757E-01 1.79617E+00 0.00000E+00
 -1       268-1.47601E+00 1.83626E+00 0.00000E+00
 -1       269 1.14060E+00 6.62835E+00 0.00000E+00
 -1       270-1.34524E+00 6.81997E+00 0.00000E+00
 -1       271-5.21253E+00 7.17230E+00 0.00000E+00
 -1       272-2.08832E+00 1.57314E+01 0.00000E+00
 -1       273-6.06473E+00 1.61188E+01 0.00000E+00
 -1       274-1.08462E+01 1.65182E+01 0.00000E+00
 -1       275-5.81783E+00 2.92350E+01-3.55271E-15
 -1       276 0.00000E+00 0.00000E+00 0.00000E+00
 -1       277-1.56315E+00 2.18487E+01 0.00000E+00
 -1       278 2.12252E+00 1.02191E+01 0.00000E+00
 -1       279 1.63928E+00 3.72004E+00 0.00000E+00
 -1       280 2.97827E-01 9.39915E-01 0.00000E+00
 -1       281-1.56315E+00 2.18487E+01 0.00000E+00
 -1       282 2.12252E+00 1.02191E+01 0.00000E+00
 -1       283 1.63928E+00 3.72004E+00 0.00000E+00
 -1       284 2.97827E-01 9.39915E-01 0.00000E+00
 -1       285-2.31164E+01 3.13410E+01 6.89323E-15
 -1       286-2.02857E+01 3.12007E+01 0.00000E+00
 -1       287-1.55183E+01 3.06359E+01 0.00000E+00
 -1       288-1.14848E+01 2.99601E+01 0.00000E+00
 -1       289-7.72964E+00 2.93951E+01 0.00000E+00
 -1       290-2.02857E+01 3.12007E+01 0.00000E+00
 -1       291-1.55183E+01 3.06359E+01 0.00000E+00
 -1       292-1.14848E+01 2.99601E+01 0.00000E+00
 -1       293-7.72964E+00 2.93951E+01 0.00000E+00
 -1       294 0.00000E+00 0.00000E+00 0.00000E+00
 -1       295-2.42282E+00 9.84910E-01 0.00000E+00
 -1       296-7.75874E+00 4.67267E+00 0.00000E+00
 -1       297-1.34516E+01 1.17473E+01 0.00000E+00
 -1       298-1.98722E+01 2.32145E+01 0.00000E+00
 -1       299-2.42282E+00 9.84910E-01 0.00000E+00
 -1       300-7.75874E+00 4.67267E+00 0.00000E+00
 -1       301-1.34516E+01 1.17473E+01 0.00000E+00
 -1       302-1.98722E+01 2.32145E+01 0.00000E+00
 -1       303 0.00000E+00 0.00000E+00 0.00000E+00
 -1       304 0.00000E+00 0.00000E+00 0.00000E+00
 -1       305 0.00000E+00 0.00000E+00 0.00000E+00
 -1       306 0.00000E+00 0.00000E+00 0.00000E+00
 -1       307 0.00000E+00 0.00000E+00 0.00000E+00
 -1       308 0.00000E+00 0.00000E+00 0.00000E+00
 -1       309 0.00000E+00 0.00000E+00 0.00000E+00
 -1       310 0.00000E+00 0.00000E+00 0.00000E+00
 -1       311 9.58613E-01 1.53891E+01 7.96634E-15
 -1       312 2.18373E+00 6.37628E+00-8.17060E-16
 -1       313 8.62577E-01 2.09007E+00 4.24372E-16
 -1       314-1.77860E+01 3.09510E+01-7.54952E-15
 -1       315-1.34273E+01 3.02899E+01-3.02189E-15
 -1       316-9.58906E+00 2.96487E+01 1.24345E-14
 -1       317-5.12695E+00 2.44253E+00 7.09888E-16
 -1       318-1.04829E+01 7.70907E+00-1.19853E-15
 -1       319-1.65991E+01 1.69034E+01 1.77636E-15
 -1       320 0.00000E+00 0.00000E+00 0.00000E+00
 -1       321 0.00000E+00 0.00000E+00 0.00000E+00
 -1       322 0.00000E+00 0.00000E+00 0.00000E+00
 -1       323-4.24810E-01 1.55620E+01 0.00000E+00
 -1       324-5.30600E+00 2.21667E+01 0.00000E+00
 -1       325-3.97865E+00 1.59225E+01 0.00000E+00
 -1       326-9.44884E+00 2.25942E+01 0.00000E+00
 -1       327-8.35028E+00 1.63263E+01 0.00000E+00
 -1       328-1.41581E+01 2.29714E+01 0.00000E+00
 -1       329-1.35833E+01 1.66961E+01 0.00000E+00
 -1       330 1.85441E+00 6.52821E+00 0.00000E+00
 -1       331 2.28991E-02 1.05642E+01 0.00000E+00
 -1       332 8.32832E-02 6.71029E+00 0.00000E+00
 -1       333-3.33758E+00 1.08924E+01 0.00000E+00
 -1       334-3.10734E+00 6.97178E+00 0.00000E+00
 -1       335-7.83773E+00 1.12845E+01 0.00000E+00
 -1       336-7.70403E+00 7.43751E+00 0.00000E+00
 -1       337 1.08820E+00 2.15372E+00 0.00000E+00
 -1       338 1.42220E+00 3.86865E+00 0.00000E+00
 -1       339 9.01935E-01 1.93734E+00 0.00000E+00
 -1       340-9.93537E-02 3.85170E+00 0.00000E+00
 -1       341-3.25659E-01 1.74351E+00 0.00000E+00
 -1       342-3.06220E+00 4.05540E+00 0.00000E+00
 -1       343-2.92766E+00 2.00286E+00 0.00000E+00
 -1       344 5.26627E-01 9.56699E-01 0.00000E+00
 -1       345 3.47661E-01 6.25345E-01 0.00000E+00
 -1       346-3.84021E-01 3.71071E-01 0.00000E+00
 -1       347 1.08820E+00 2.15372E+00 0.00000E+00
 -1       348 5.26627E-01 9.56699E-01 0.00000E+00
 -1       349 9.01935E-01 1.93734E+00 0.00000E+00
 -1       350 3.47661E-01 6.25345E-01 0.00000E+00
 -1       351-3.25659E-01 1.74351E+00 0.00000E+00
 -1       352-3.84021E-01 3.71071E-01 0.00000E+00
 -1       353-2.92766E+00 2.00286E+00 0.00000E+00
 -1       354 1.85441E+00 6.52821E+00 0.00000E+00
 -1       355 1.42220E+00 3.86865E+00 0.00000E+00
 -1       356 8.32832E-02 6.71029E+00 0.00000E+00
 -1       357-9.93537E-02 3.85170E+00 0.00000E+00
 -1       358-3.10734E+00 6.97178E+00 0.00000E+00
 -1       359-3.06220E+00 4.05540E+00 0.00000E+00
 -1       360-7.70403E+00 7.43751E+00 0.00000E+00
 -1       361-4.24810E-01 1.55620E+01 0.00000E+00
 -1       362 2.28991E-02 1.05642E+01 0.00000E+00
 -1       363-3.97865E+00 1.59225E+01 0.00000E+00
 -1       364-3.33758E+00 1.08924E+01 0.00000E+00
 -1       365-8.35028E+00 1.63263E+01 0.00000E+00
 -1       366-7.83773E+00 1.12845E+01 0.00000E+00
 -1       367-1.35833E+01 1.66961E+01 0.00000E+00
 -1       368-5.30600E+00 2.21667E+01 0.00000E+00
 -1       369-9.44884E+00 2.25942E+01 0.00000E+00
 -1       370-1.41581E+01 2.29714E+01 0.00000E+00
 -1       371-2.08832E+00 1.57314E+01-6.20782E-15
 -1       372-6.06473E+00 1.61188E+01-3.81018E-15
 -1       373-1.08462E+01 1.65182E+01 5.77316E-15
 -1       374 1.14060E+00 6.62835E+00 2.35878E-15
 -1       375-1.34524E+00 6.81997E+00-3.35100E-16
 -1       376-5.21253E+00 7.17230E+00-1.13941E-15
 -1       377 1.10852E+00 2.06140E+00-3.58296E-16
 -1       378 4.30757E-01 1.79617E+00-1.06852E-16
 -1       379-1.47601E+00 1.83626E+00 1.83688E-16
 -3
    1PSTEP                         2           1           1          
  100CL  101 1.000000000         155                     0    1           1
 -4  STRESS      6    1
 -5  SXX         1    4    1    1
 -5  SYY         1    4    2    2
 -5  SZZ         1    4    3    3
 -5  SXY         1    4    1    2
 -5  SYZ         1    4    2    3
 -5  SZX         1    4    3    1
 -1       225 6.58095E+00 7.61119E+00 4.68341E+00 7.53664E+00 9.43156E-13-6.47490E-13
 -1       226 6.58095E+00 7.61119E+00 4.68341E+00 7.53664E+00-1.47399E-12 1.26072E-12
 -1       227 2.86553E+00 1.40701E+00 1.40994E+00 3.65735E+00 2.06232E-15 1.19484E-15
 -1       228 2.86553E+00 1.40701E+00 1.40994E+00 3.65735E+00-4.83748E-16 6.74677E-16
 -1       229-1.95733E+00 2.21115E+00 8.37588E-02-1.48924E-01 5.05807E-13 1.22868E-12
 -1       230-1.95733E+00 2.21115E+00 8.37588E-02-1.48924E-01 4.75962E-13 3.02879E-13
 -1       231-3.94675E+01-1.95025E+01-1.94601E+01 3.28603E+00-9.92358E-15 1.67602E-14
 -1       232-3.94675E+01-1.95025E+01-1.94601E+01 3.28603E+00 3.91071E-15 9.84679E-15
 -1       233 1.49917E+01 1.21994E+01 8.97306E+00 1.31108E+01 2.49202E-13 5.84531E-13
 -1       234 1.38151E+01 1.05243E+01 8.03201E+00 1.18229E+01 1.77424E-13-6.54959E-14
 -1       235 8.60777E+00 6.64266E+00 5.03264E+00 6.32196E+00-1.60634E-14 7.81636E-15
 -1       236 1.49917E+01 1.21994E+01 8.97306E+00 1.31108E+01 1.44335E-12-3.41157E-13
 -1       237 1.38151E+01 1.05243E+01 8.03201E+00 1.18229E+01-2.92612E-14 4.88016E-15
 -1       238 8.60777E+00 6.64266E+00 5.03264E+00 6.32196E+00 1.13428E-13 1.17337E-14
 -1       239 4.20890E-01 1.18109E+01 4.03649E+00 5.61060E+00-1.60327E-12-1.60273E-14
 -1       240-7.07033E-01 1.31762E+01 4.11482E+00 7.44860E+00-3.90733E-13 8.75619E-13
 -1       241-1.39033E+00 1.09937E+01 3.16911E+00 7.64295E+00-3.01581E-13-5.36895E-13
 -1       242 4.20890E-01 1.18109E+01 4.03649E+00 5.61060E+00 5.34302E-13-1.45074E-12
 -1       243-7.07033E-01 1.31762E+01 4.11482E+00 7.44860E+00 8.12211E-13-2.27483E-13
 -1       244-1.39033E+00 1.09937E+01 3.16911E+00 7.64295E+00 4.57743E-13 5.49692E-13
 -1       245-2.13284E+01-6.92954E-01-7.26704E+00-8.00515E+00 3.96118E-14 1.51745E-13
 -1       246-1.81204E+01-3.15490E+00-7.02084E+00-5.99300E+00-1.34782E-13 8.58098E-14
 -1       247-1.44587E+01-9.92037E-01-5.09875E+00-5.17577E+00-8.84138E-13-3.47060E-13
 -1       248-2.13284E+01-6.92954E-01-7.26704E+00-8.00515E+00 2.16696E-14-1.89162E-13
 -1       249-1.81204E+01-3.15490E+00-7.02084E+00-5.99300E+00 1.60953E-13-2.09262E-13
 -1       250-1.44587E+01-9.92037E-01-5.09875E+00-5.17577E+00 2.05793E-13-6.97335E-13
 -1       251 8.67754E+00 4.29136E+00 4.27974E+00 3.85581E+00-3.40902E-17-1.33271E-15
 -1       252 8.39013E+00 4.18753E+00 4.15063E+00 1.51419E+00-1.95084E-15 8.90360E-16
 -1       253-4.87279E-01-2.42264E-01-2.40749E-01-7.82704E-01-1.36332E-15-5.00657E-15
 -1       254 8.67754E+00 4.29136E+00 4.27974E+00 3.85581E+00 3.76081E-15 1.69329E-15
 -1       255 8.39013E+00 4.18753E+00 4.15063E+00 1.51419E+00 4.90767E-15-1.13034E-15
 -1       256-4.87279E-01-2.42264E-01-2.40749E-01-7.82704E-01 3.70925E-15 3.09497E-15
 -1       257 7.33963E+00 8.54148E+00 5.24077E+00 7.94983E+00 6.60500E-13 2.11200E-14
 -1       258-5.25918E-01 5.48534E+00 1.63661E+00 4.42533E+00-3.08637E-15 7.11815E-14
 -1       259-6.84074E+00 1.46896E+00-1.77269E+00 6.20412E-01 1.24825E-13 1.65890E-13
 -1       260 9.51822E+00 6.17321E+00 5.17817E+00 7.76399E+00 1.06826E-14 5.12414E-14
 -1       261 1.47374E+00 3.34894E+00 1.59149E+00 3.39200E+00 8.37151E-14 7.24820E-14
 -1       262-8.10174E+00 1.10773E+00-2.30802E+00-1.43490E+00-7.75601E-14 3.39509E-13
 -1       263 1.03439E+01 2.65609E+00 4.29000E+00 5.68173E+00 1.24827E-13 2.10527E-15
 -1       264 4.69115E+00-5.58976E-02 1.52963E+00 3.86410E+00-2.11258E-15-1.22714E-14
 -1       265-9.66610E+00-3.10058E+00-4.21300E+00 1.13493E+00 6.19565E-15 4.67069E-14
 -1       266 1.03439E+01 2.65609E+00 4.29000E+00 5.68173E+00-2.81342E-15 6.15564E-15
 -1       267 4.69115E+00-5.58976E-02 1.52963E+00 3.86410E+00 3.97034E-14-3.03472E-15
 -1       268-9.66610E+00-3.10058E+00-4.21300E+00 1.13493E+00 4.82340E-14 3.59238E-14
 -1       269 9.51822E+00 6.17321E+00 5.17817E+00 7.76399E+00 2.81697E-13 5.29464E-15
 -1       270 1.47374E+00 3.34894E+00 1.59149E+00 3.39200E+00-4.57889E-14-6.94877E-14
 -1       271-8.10174E+00 1.10773E+00-2.30802E+00-1.43490E+00 5.95420E-14-1.69547E-13
 -1       272 7.33963E+00 8.54148E+00 5.24077E+00 7.94983E+00 2.35029E-13-3.25574E-13
 -1       273-5.25918E-01 5.48534E+00 1.63661E+00 4.42533E+00 3.95107E-13 7.39907E-14
 -1       274-6.84074E+00 1.46896E+00-1.77269E+00 6.20412E-01-6.99835E-13-3.05926E-13
 -1       275 6.58159E+00 7.61201E+00 4.68389E+00 7.53744E+00-1.40108E-13 2.43545E-13
 -1       276 2.86619E+00 1.40734E+00 1.41027E+00 3.65781E+00 1.12914E-15 1.36823E-15
 -1       277 1.23937E+01 9.77858E+00 7.31684E+00 1.02627E+01 3.87805E-13-3.59955E-13
 -1       278 1.30930E+01 1.11957E+01 8.01528E+00 1.26080E+01-1.70114E-13 1.45167E-13
 -1       279 9.35639E+00 7.95100E+00 5.71144E+00 9.54516E+00 3.09746E-14-3.39241E-14
 -1       280 4.24750E+00 3.43236E+00 2.53435E+00 5.29976E+00-2.48042E-14 1.69620E-16
 -1       281 1.23937E+01 9.77858E+00 7.31684E+00 1.02627E+01-3.90321E-13 3.05170E-13
 -1       282 1.30930E+01 1.11957E+01 8.01528E+00 1.26080E+01 6.95272E-14-1.16457E-13
 -1       283 9.35639E+00 7.95100E+00 5.71144E+00 9.54516E+00-1.08062E-13 2.53374E-14
 -1       284 4.24750E+00 3.43236E+00 2.53435E+00 5.29976E+00 3.47965E-14 4.50600E-15
 -1       285-1.95786E+00 2.21133E+00 8.36431E-02-1.48899E-01 5.13700E-13 3.75742E-13
 -1       286 5.85742E-01 7.72820E+00 2.74360E+00 3.04108E+00-1.12517E-12 2.79637E-13
 -1       287 8.63516E-01 1.31371E+01 4.62022E+00 6.36514E+00-9.45702E-13 5.45221E-13
 -1       288-1.53144E+00 1.16597E+01 3.34233E+00 7.54723E+00-3.78215E-13 1.51411E-13
 -1       289 6.54211E-01 8.33801E+00 2.96743E+00 7.51790E+00 4.60117E-13-5.99817E-13
 -1       290 5.85742E-01 7.72820E+00 2.74360E+00 3.04108E+00 5.04505E-13-3.26013E-13
 -1       291 8.63516E-01 1.31371E+01 4.62022E+00 6.36514E+00 9.28149E-13-7.89475E-13
 -1       292-1.53144E+00 1.16597E+01 3.34233E+00 7.54723E+00 9.39917E-13-1.52744E-13
 -1       293 6.54211E-01 8.33801E+00 2.96743E+00 7.51790E+00-4.46201E-13 9.97051E-13
 -1       294-3.94690E+01-1.95028E+01-1.94607E+01 3.28592E+00 6.31266E-16 5.04013E-15
 -1       295-3.03363E+01-8.06043E+00-1.26709E+01-2.65311E+00-2.54284E-15 1.16087E-13
 -1       296-1.71544E+01-3.80531E-02-5.67353E+00-7.40085E+00-1.50929E-14 2.21098E-14
 -1       297-1.67721E+01-2.34896E+00-6.30994E+00-5.04470E+00-3.32237E-13 3.27122E-14
 -1       298-9.78610E+00-2.19323E+00-3.95318E+00-2.77068E+00-1.26432E-13 3.75431E-13
 -1       299-3.03363E+01-8.06043E+00-1.26709E+01-2.65311E+00-1.65031E-14-5.47279E-14
 -1       300-1.71544E+01-3.80531E-02-5.67353E+00-7.40085E+00 6.68025E-15 6.62883E-14
 -1       301-1.67721E+01-2.34896E+00-6.30994E+00-5.04470E+00 2.66803E-13-4.54972E-13
 -1       302-9.78610E+00-2.19323E+00-3.95318E+00-2.77068E+00 1.52993E-14-6.10666E-13
 -1       303 6.63809E+00 3.26151E+00 3.26687E+00 3.93152E+00 3.08882E-15 5.00470E-17
 -1       304 9.67354E+00 4.81031E+00 4.77967E+00 2.70133E+00 3.50553E-15 4.25469E-15
 -1       305 5.68447E+00 2.86774E+00 2.82223E+00 1.90283E-01 4.53238E-15 4.95467E-15
 -1       306-1.68172E+01-8.35233E+00-8.30594E+00 9.70116E-01-6.43767E-15 2.11224E-14
 -1       307 6.63809E+00 3.26151E+00 3.26687E+00 3.93152E+00-5.34470E-15-8.28780E-16
 -1       308 9.67354E+00 4.81031E+00 4.77967E+00 2.70133E+00-7.26637E-15-5.05267E-15
 -1       309 5.68447E+00 2.86774E+00 2.82223E+00 1.90283E-01-2.89765E-15-6.15321E-15
 -1       310-1.68172E+01-8.35233E+00-8.30594E+00 9.70116E-01 6.79255E-15-3.46135E-14
 -1       311 1.49925E+01 1.22002E+01 8.97360E+00 1.31117E+01 8.16475E-13 1.63971E-13
 -1       312 1.38161E+01 1.05250E+01 8.03256E+00 1.18238E+01 1.18111E-13-9.80388E-15
 -1       313 8.60856E+00 6.64312E+00 5.03305E+00 6.32256E+00 3.38578E-14 6.76706E-15
 -1       314 4.20526E-01 1.18113E+01 4.03650E+00 5.61082E+00-5.41950E-13-7.64615E-13
 -1       315-7.07083E-01 1.31768E+01 4.11502E+00 7.44911E+00 2.15110E-13 3.50455E-13
 -1       316-1.38997E+00 1.09945E+01 3.16949E+00 7.64366E+00 1.49659E-14 7.75452E-14
 -1       317-2.13297E+01-6.93182E-01-7.26755E+00-8.00537E+00 3.76168E-14-2.86035E-14
 -1       318-1.81215E+01-3.15497E+00-7.02124E+00-5.99329E+00-1.44726E-14-9.44310E-14
 -1       319-1.44595E+01-9.91961E-01-5.09899E+00-5.17589E+00-3.63068E-13-3.44120E-13
 -1       320 8.67822E+00 4.29160E+00 4.28004E+00 3.85622E+00 1.75507E-16-1.34995E-15
 -1       321 8.39050E+00 4.18757E+00 4.15077E+00 1.51445E+00 1.49450E-15-3.04070E-16
 -1       322-4.87971E-01-2.42480E-01-2.41049E-01-7.82676E-01-1.22597E-15 6.06269E-15
 -1       323 1.09447E+01 1.01189E+01 6.95101E+00 1.04742E+01 6.08711E-13 1.42242E-13
 -1       324 3.97811E+00 8.50081E+00 4.11804E+00 7.58878E+00 2.23211E-14-6.78797E-15
 -1       325 3.19925E+00 6.93650E+00 3.34480E+00 6.19404E+00 4.15984E-13-2.60313E-13
 -1       326-1.15704E+00 6.47905E+00 1.75626E+00 6.09929E+00-3.43754E-13 2.01095E-14
 -1       327-3.30476E+00 3.92656E+00 2.05193E-01 2.51959E+00 5.67380E-14 2.84332E-15
 -1       328-4.56662E+00 3.01900E+00-5.10715E-01 3.27120E+00-2.64166E-13 3.96267E-13
 -1       329-9.95115E+00 4.38861E-01-3.13906E+00-2.20193E+00-2.85238E-13 2.73236E-14
 -1       330 1.28008E+01 8.93970E+00 7.17437E+00 9.67016E+00 1.27123E-13 1.34241E-14
 -1       331 7.88408E+00 7.35130E+00 5.02768E+00 8.02979E+00 9.81444E-14 3.18296E-14
 -1       332 5.97695E+00 4.94449E+00 3.60407E+00 5.58464E+00 1.12767E-13 8.60559E-14
 -1       333 5.11968E-01 4.52323E+00 1.66162E+00 3.85896E+00 8.70234E-14-5.27886E-14
 -1       334-3.47152E+00 1.97638E+00-4.93397E-01 1.23648E+00 6.43398E-14 1.55607E-13
 -1       335-7.51922E+00 1.34837E+00-2.03638E+00-3.78206E-01 2.40607E-13 1.11679E-15
 -1       336-1.31684E+01-8.55107E-01-4.62775E+00-3.74543E+00-3.89979E-14 2.10672E-15
 -1       337 1.05284E+01 4.94330E+00 5.10567E+00 6.13933E+00 4.85589E-14-2.83236E-15
 -1       338 8.08711E+00 3.57640E+00 3.84896E+00 7.46176E+00-3.24032E-14-2.73960E-14
 -1       339 8.94134E+00 2.12487E+00 3.65185E+00 4.67712E+00 6.00632E-14-1.25190E-14
 -1       340 1.62069E+00 8.13612E-01 8.03320E-01 4.12762E+00 7.20894E-14 7.27805E-15
 -1       341-1.29504E-01 2.38249E-01 3.58858E-02 1.98852E+00 2.15370E-14 3.31388E-14
 -1       342-8.20639E+00-5.91629E-01-2.90335E+00-4.18414E-01-2.44459E-15 1.14173E-13
 -1       343-1.47401E+01-2.07748E+00-5.54979E+00-3.08351E+00 2.99622E-14 4.33996E-14
 -1       344 8.00265E+00 2.18257E+00 3.36112E+00 5.11651E+00 2.05177E-14 4.06421E-16
 -1       345 4.33131E+00-7.69031E-01 1.17555E+00 3.53174E+00-6.23066E-15-8.59569E-15
 -1       346-6.25093E+00-2.17912E+00-2.78192E+00 7.42695E-01-6.48005E-17 8.26306E-15
 -1       347 1.05284E+01 4.94330E+00 5.10567E+00 6.13933E+00 3.01922E-14-1.40123E-15
 -1       348 8.00265E+00 2.18257E+00 3.36112E+00 5.11651E+00-3.34296E-14 3.96904E-15
 -1       349 8.94134E+00 2.12487E+00 3.65185E+00 4.67712E+00-1.92079E-15 1.94453E-16
 -1       350 4.33131E+00-7.69031E-01 1.17555E+00 3.53174E+00 8.22190E-15 9.81608E-15
 -1       351-1.29504E-01 2.38249E-01 3.58858E-02 1.98852E+00 1.74238E-14 6.78286E-15
 -1       352-6.25093E+00-2.17912E+00-2.78192E+00 7.42695E-01 1.07053E-15 8.15994E-15
 -1       353-1.47401E+01-2.07748E+00-5.54979E+00-3.08351E+00-2.75708E-15-5.33736E-14
 -1       354 1.28008E+01 8.93970E+00 7.17437E+00 9.67016E+00 1.38753E-13 4.00226E-14
 -1       355 8.08711E+00 3.57640E+00 3.84896E+00 7.46176E+00 1.72229E-15 6.37794E-16
 -1       356 5.97695E+00 4.94449E+00 3.60407E+00 5.58464E+00 1.42325E-13-8.24410E-14
 -1       357 1.62069E+00 8.13612E-01 8.03320E-01 4.12762E+00-8.00442E-14-1.23856E-14
 -1       358-3.47152E+00 1.97638E+00-4.93397E-01 1.23648E+00-2.32575E-14-1.17951E-13
 -1       359-8.20639E+00-5.91629E-01-2.90335E+00-4.18414E-01 2.01783E-14-5.55050E-14
 -1       360-1.31684E+01-8.55107E-01-4.62775E+00-3.74543E+00 5.30232E-14 1.13562E-13
 -1       361 1.09447E+01 1.01189E+01 6.95101E+00 1.04742E+01 7.82253E-13-1.80475E-13
 -1       362 7.88408E+00 7.35130E+00 5.02768E+00 8.02979E+00-1.45270E-13-1.62144E-14
 -1       363 3.19925E+00 6.93650E+00 3.34480E+00 6.19404E+00 7.31961E-14 6.23096E-14
 -1       364 5.11968E-01 4.52323E+00 1.66162E+00 3.85896E+00-1.00634E-13-3.98534E-14
 -1       365-3.30476E+00 3.92656E+00 2.05193E-01 2.51959E+00-3.70392E-13 1.77199E-13
 -1       366-7.51922E+00 1.34837E+00-2.03638E+00-3.78206E-01-3.78701E-13 2.01393E-14
 -1       367-9.95115E+00 4.38861E-01-3.13906E+00-2.20193E+00-1.51329E-13-3.76041E-13
 -1       368 3.97811E+00 8.50081E+00 4.11804E+00 7.58878E+00 1.06906E-13 1.01153E-13
 -1       369-1.15704E+00 6.47905E+00 1.75626E+00 6.09929E+00 2.72320E-14 7.57148E-15
 -1       370-4.56662E+00 3.01900E+00-5.10715E-01 3.27120E+00 2.39672E-13-1.43691E-13
 -1       371 7.34015E+00 8.54221E+00 5.24118E+00 7.95055E+00 4.75065E-13-1.41307E-13
 -1       372-5.25928E-01 5.48586E+00 1.63678E+00 4.42576E+00 2.52479E-13 3.26384E-14
 -1       373-6.84126E+00 1.46921E+00-1.77278E+00 6.20501E-01-2.38566E-13-1.67826E-13
 -1       374 9.51894E+00 6.17376E+00 5.17859E+00 7.76466E+00 1.37551E-13 2.36963E-14
 -1       375 1.47384E+00 3.34922E+00 1.59161E+00 3.39234E+00 1.62833E-14-2.07280E-14
 -1       376-8.10245E+00 1.10778E+00-2.30824E+00-1.43496E+00-2.78121E-14 2.98662E-14
 -1       377 1.03446E+01 2.65642E+00 4.29034E+00 5.68225E+00 5.97539E-14 5.69669E-15
 -1       378 4.69142E+00-5.57951E-02 1.52976E+00 3.86440E+00 1.69236E-14-3.94250E-15
 -1       379-9.66681E+00-3.10070E+00-4.21328E+00 1.13491E+00 2.67688E-14 1.99851E-14
 -3
    1PSTEP                         3           1           1          
  100CL  101 1.000000000         155                     0    1           1
 -4  TOSTRAIN    6    1
 -5  EXX         1    4    1    1
 -5  EYY         1    4    2    2
 -5  EZZ         1    4    3    3
 -5  EXY         1    4    1    2
 -5  EYZ         1    4    2    3
 -5  EZX         1    4    3    1
 -1       225 3.60534E-02 5.56279E-02-2.84216E-15 1.43196E-01 1.79200E-14-1.23023E-14
 -1       226 3.60534E-02 5.56279E-02 2.84216E-15 1.43196E-01-2.80058E-14 2.39536E-14
 -1       227 2.76562E-02-5.55892E-05 1.01319E-21 6.94896E-02 3.91842E-17 2.27020E-17
 -1       228 2.76562E-02-5.55892E-05-1.01319E-21 6.94896E-02-9.19121E-18 1.28189E-17
 -1       229-3.87807E-02 4.04204E-02 5.51460E-15-2.82955E-03 9.61034E-15 2.33450E-14
 -1       230-3.87807E-02 4.04204E-02-5.51460E-15-2.82955E-03 9.04328E-15 5.75471E-15
 -1       231-3.80141E-01-8.04942E-04 5.17830E-23 6.24345E-02-1.88548E-16 3.18444E-16
 -1       232-3.80141E-01-8.04942E-04-5.17830E-23 6.24345E-02 7.43036E-17 1.87089E-16
 -1       233 1.14354E-01 6.13002E-02 6.37309E-15 2.49105E-01 4.73484E-15 1.11061E-14
 -1       234 1.09879E-01 4.73533E-02-6.53640E-16 2.24636E-01 3.37105E-15-1.24442E-15
 -1       235 6.79274E-02 3.05904E-02 3.39496E-16 1.20117E-01-3.05205E-16 1.48511E-16
 -1       236 1.14354E-01 6.13002E-02-6.37309E-15 2.49105E-01 2.74236E-14-6.48199E-15
 -1       237 1.09879E-01 4.73533E-02 6.53640E-16 2.24636E-01-5.55962E-16 9.27230E-17
 -1       238 6.79274E-02 3.05904E-02-3.39496E-16 1.20117E-01 2.15514E-15 2.22941E-16
 -1       239-6.86965E-02 1.47714E-01-6.03964E-15 1.06601E-01-3.04621E-14-3.04520E-16
 -1       240-9.16152E-02 1.72166E-01-2.41752E-15 1.41523E-01-7.42392E-15 1.66368E-14
 -1       241-8.66294E-02 1.48667E-01 9.94764E-15 1.45216E-01-5.73004E-15-1.02010E-14
 -1       242-6.86965E-02 1.47714E-01 6.03964E-15 1.06601E-01 1.01517E-14-2.75641E-14
 -1       243-9.16152E-02 1.72166E-01 2.41752E-15 1.41523E-01 1.54320E-14-4.32217E-15
 -1       244-8.66294E-02 1.48667E-01-9.94764E-15 1.45216E-01 8.69713E-15 1.04442E-14
 -1       245-2.67165E-01 1.24908E-01 5.67914E-16-1.52098E-01 7.52625E-16 2.88316E-15
 -1       246-2.10891E-01 7.34527E-02-9.58834E-16-1.13867E-01-2.56085E-15 1.63039E-15
 -1       247-1.77839E-01 7.80276E-02 1.42111E-15-9.83397E-02-1.67986E-14-6.59414E-15
 -1       248-2.67165E-01 1.24908E-01-5.67914E-16-1.52098E-01 4.11723E-16-3.59408E-15
 -1       249-2.10891E-01 7.34527E-02 9.58834E-16-1.13867E-01 3.05810E-15-3.97599E-15
 -1       250-1.77839E-01 7.80276E-02-1.42111E-15-9.83397E-02 3.91007E-15-1.32494E-14
 -1       251 8.35583E-02 2.20799E-04-5.53806E-22 7.32604E-02-6.47713E-19-2.53216E-17
 -1       252 8.05505E-02 7.01159E-04 1.17382E-22 2.87695E-02-3.70660E-17 1.69168E-17
 -1       253-4.68407E-03-2.87807E-05-5.19550E-22-1.48714E-02-2.59030E-17-9.51249E-17
 -1       254 8.35583E-02 2.20799E-04 5.53806E-22 7.32604E-02 7.14553E-17 3.21725E-17
 -1       255 8.05505E-02 7.01159E-04-1.17382E-22 2.87695E-02 9.32457E-17-2.14764E-17
 -1       256-4.68407E-03-2.87807E-05 5.19550E-22-1.48714E-02 7.04757E-17 5.88045E-17
 -1       257 3.98784E-02 6.27136E-02-4.96627E-15 1.51047E-01 1.25495E-14 4.01281E-16
 -1       258-4.10880E-02 7.31259E-02-3.04816E-15 8.40812E-02-5.86410E-17 1.35245E-15
 -1       259-9.62930E-02 6.15913E-02 4.61855E-15 1.17878E-02 2.37168E-15 3.15191E-15
 -1       260 8.24610E-02 1.89057E-02 1.88703E-15 1.47516E-01 2.02970E-16 9.73586E-16
 -1       261-2.23715E-03 3.33917E-02-2.68082E-16 6.44480E-02 1.59059E-15 1.37716E-15
 -1       262-1.10081E-01 6.48994E-02-9.11530E-16-2.72631E-02-1.47364E-15 6.45067E-15
 -1       263 1.15024E-01-3.10443E-02-2.86637E-16 1.07953E-01 2.37172E-15 4.00001E-17
 -1       264 6.00688E-02-3.01251E-02-8.54826E-17 7.34179E-02-4.01391E-17-2.33156E-16
 -1       265-1.03609E-01 2.11360E-02 1.46952E-16 2.15637E-02 1.17717E-16 8.87431E-16
 -1       266 1.15024E-01-3.10443E-02 2.86637E-16 1.07953E-01-5.34550E-17 1.16957E-16
 -1       267 6.00688E-02-3.01251E-02 8.54826E-17 7.34179E-02 7.54364E-16-5.76597E-17
 -1       268-1.03609E-01 2.11360E-02-1.46952E-16 2.15637E-02 9.16446E-16 6.82551E-16
 -1       269 8.24610E-02 1.89057E-02-1.88703E-15 1.47516E-01 5.35224E-15 1.00598E-16
 -1       270-2.23715E-03 3.33917E-02 2.68082E-16 6.44480E-02-8.69989E-16-1.32027E-15
 -1       271-1.10081E-01 6.48994E-02 9.11530E-16-2.72631E-02 1.13130E-15-3.22139E-15
 -1       272 3.98784E-02 6.27136E-02 4.96627E-15 1.51047E-01 4.46556E-15-6.18591E-15
 -1       273-4.10880E-02 7.31259E-02 3.04816E-15 8.40812E-02 7.50703E-15 1.40582E-15
 -1       274-9.62930E-02 6.15913E-02-4.61855E-15 1.17878E-02-1.32969E-14-5.81259E-15
 -1       275 3.60563E-02 5.56344E-02-5.89180E-30 1.43211E-01-2.66206E-15 4.62736E-15
 -1       276 2.76626E-02-5.55553E-05-5.04594E-32 6.94984E-02 2.14537E-17 2.59964E-17
 -1       277 9.64596E-02 4.67731E-02 1.76546E-15 1.94991E-01 7.36830E-15-6.83915E-15
 -1       278 9.64764E-02 6.04287E-02 2.85973E-15 2.39552E-01-3.23217E-15 2.75817E-15
 -1       279 6.92541E-02 4.25517E-02-1.57078E-16 1.81358E-01 5.88517E-16-6.44558E-16
 -1       280 3.25497E-02 1.70621E-02 1.69750E-16 1.00695E-01-4.71279E-16 3.22278E-18
 -1       281 9.64596E-02 4.67731E-02-1.76546E-15 1.94991E-01-7.41610E-15 5.79823E-15
 -1       282 9.64764E-02 6.04287E-02-2.85973E-15 2.39552E-01 1.32102E-15-2.21269E-15
 -1       283 6.92541E-02 4.25517E-02 1.57078E-16 1.81358E-01-2.05318E-15 4.81411E-16
 -1       284 3.25497E-02 1.70621E-02-1.69750E-16 1.00695E-01 6.61133E-16 8.56140E-17
 -1       285-3.87886E-02 4.04260E-02 9.86076E-32-2.82908E-03 9.76030E-15 7.13909E-15
 -1       286-4.09993E-02 9.47074E-02-2.62522E-16 5.77806E-02-2.13782E-14 5.31311E-15
 -1       287-7.13773E-02 1.61822E-01-4.22859E-15 1.20938E-01-1.79683E-14 1.03592E-14
 -1       288-9.26018E-02 1.58031E-01 3.76507E-15 1.43397E-01-7.18609E-15 2.87681E-15
 -1       289-4.39512E-02 1.02041E-01 3.55273E-15 1.42840E-01 8.74222E-15-1.13965E-14
 -1       290-4.09993E-02 9.47074E-02 2.62522E-16 5.77806E-02 9.58559E-15-6.19425E-15
 -1       291-7.13773E-02 1.61822E-01 4.22859E-15 1.20938E-01 1.76348E-14-1.50000E-14
 -1       292-9.26018E-02 1.58031E-01-3.76507E-15 1.43397E-01 1.78584E-14-2.90213E-15
 -1       293-4.39512E-02 1.02041E-01-3.55273E-15 1.42840E-01-8.47782E-15 1.89440E-14
 -1       294-3.80157E-01-8.00490E-04-2.77334E-32 6.24324E-02 1.19941E-17 9.57625E-17
 -1       295-3.35642E-01 8.75994E-02 2.83957E-16-5.04092E-02-4.83139E-17 2.20564E-15
 -1       296-2.18138E-01 1.07074E-01-1.95457E-16-1.40616E-01-2.86765E-16 4.20087E-16
 -1       297-1.98781E-01 7.52587E-02 2.31129E-16-9.58494E-02-6.31251E-15 6.21532E-16
 -1       298-1.10825E-01 3.34389E-02 3.46786E-15-5.26429E-02-2.40221E-15 7.13318E-15
 -1       299-3.35642E-01 8.75994E-02-2.83957E-16-5.04092E-02-3.13559E-16-1.03983E-15
 -1       300-2.18138E-01 1.07074E-01 1.95457E-16-1.40616E-01 1.26925E-16 1.25948E-15
 -1       301-1.98781E-01 7.52587E-02-2.31129E-16-9.58494E-02 5.06926E-15-8.64447E-15
 -1       302-1.10825E-01 3.34389E-02-3.46786E-15-5.26429E-02 2.90686E-16-1.16027E-14
 -1       303 6.40531E-02-1.01714E-04-4.90864E-23 7.46989E-02 5.86876E-17 9.50892E-19
 -1       304 9.29835E-02 5.82159E-04 3.45548E-22 5.13252E-02 6.66051E-17 8.08391E-17
 -1       305 5.43825E-02 8.64697E-04-5.70801E-23 3.61538E-03 8.61152E-17 9.41387E-17
 -1       306-1.61714E-01-8.81307E-04-6.63818E-22 1.84322E-02-1.22316E-16 4.01325E-16
 -1       307 6.40531E-02-1.01714E-04 4.90864E-23 7.46989E-02-1.01549E-16-1.57468E-17
 -1       308 9.29835E-02 5.82159E-04-3.45548E-22 5.13252E-02-1.38061E-16-9.60007E-17
 -1       309 5.43825E-02 8.64697E-04 5.70801E-23 3.61538E-03-5.50554E-17-1.16911E-16
 -1       310-1.61714E-01-8.81307E-04 6.63818E-22 1.84322E-02 1.29058E-16-6.57656E-16
 -1       311 1.14359E-01 6.13057E-02 5.85483E-31 2.49122E-01 1.55130E-14 3.11544E-15
 -1       312 1.09887E-01 4.73563E-02-2.46615E-31 2.24651E-01 2.24410E-15-1.86274E-16
 -1       313 6.79346E-02 3.05912E-02 4.89186E-32 1.20129E-01 6.43298E-16 1.28574E-16
 -1       314-6.87034E-02 1.47721E-01-1.01073E-30 1.06606E-01-1.02970E-14-1.45277E-14
 -1       315-9.16199E-02 1.72175E-01 6.03972E-31 1.41533E-01 4.08709E-15 6.65865E-15
 -1       316-8.66297E-02 1.48675E-01 2.95823E-31 1.45230E-01 2.84353E-16 1.47336E-15
 -1       317-2.67181E-01 1.24913E-01 2.50371E-32-1.52102E-01 7.14720E-16-5.43466E-16
 -1       318-2.10905E-01 7.34590E-02-4.31408E-32-1.13872E-01-2.74979E-16-1.79419E-15
 -1       319-1.77850E-01 7.80335E-02-1.14015E-30-9.83418E-02-6.89829E-15-6.53829E-15
 -1       320 8.35654E-02 2.19675E-04 2.59038E-32 7.32682E-02 3.33464E-18-2.56490E-17
 -1       321 8.05550E-02 6.99378E-04-8.66668E-33 2.87746E-02 2.83954E-17-5.77733E-18
 -1       322-4.69152E-03-2.71948E-05-4.62223E-33-1.48708E-02-2.32933E-17 1.15191E-16
 -1       323 7.58806E-02 6.01908E-02 7.03410E-16 1.99010E-01 1.15655E-14 2.70260E-15
 -1       324-2.65873E-03 8.32725E-02 2.49069E-15 1.44187E-01 4.24102E-16-1.28971E-16
 -1       325-2.76545E-03 6.82424E-02-4.00723E-15 1.17687E-01 7.90370E-15-4.94594E-15
 -1       326-5.53527E-02 8.97329E-02-2.73284E-15 1.15886E-01-6.53133E-15 3.82081E-16
 -1       327-6.66891E-02 7.07059E-02 7.85203E-16 4.78723E-02 1.07802E-15 5.40230E-17
 -1       328-7.70622E-02 6.70646E-02-7.10548E-16 6.21529E-02-5.01915E-15 7.52907E-15
 -1       329-1.29430E-01 6.79804E-02 3.01983E-15-4.18367E-02-5.41952E-15 5.19148E-16
 -1       330 1.06902E-01 3.35413E-02 6.16690E-16 1.83733E-01 2.41533E-15 2.55058E-16
 -1       331 5.42717E-02 4.41488E-02-1.53963E-15 1.52566E-01 1.86474E-15 6.04762E-16
 -1       332 4.50846E-02 2.54678E-02 8.09480E-16 1.06108E-01 2.14257E-15 1.63506E-15
 -1       333-2.18433E-02 5.43707E-02-1.65812E-15 7.33203E-02 1.65344E-15-1.00298E-15
 -1       334-5.65843E-02 4.69257E-02-5.89808E-16 2.34930E-02 1.22246E-15 2.95653E-15
 -1       335-1.04174E-01 6.43102E-02 1.85351E-15-7.18591E-03 4.57152E-15 2.12190E-17
 -1       336-1.62272E-01 7.16802E-02-9.35184E-16-7.11632E-02-7.40960E-16 4.00277E-17
 -1       337 1.03032E-01-3.08494E-03 2.64300E-17 1.16647E-01 9.22619E-16-5.38149E-17
 -1       338 8.05248E-02-5.17857E-03 8.00198E-16 1.41774E-01-6.15662E-16-5.20523E-16
 -1       339 1.00500E-01-2.90126E-02-1.86061E-16 8.88652E-02 1.14120E-15-2.37861E-16
 -1       340 1.55301E-02 1.95543E-04-1.76782E-16 7.84247E-02 1.36970E-15 1.38283E-16
 -1       341-3.14242E-03 3.84491E-03 3.07353E-17 3.77818E-02 4.09202E-16 6.29636E-16
 -1       342-1.00758E-01 4.39226E-02-3.82290E-16-7.94986E-03-4.64473E-17 2.16929E-15
 -1       343-1.74615E-01 6.59738E-02 3.57433E-16-5.85868E-02 5.69282E-16 8.24592E-16
 -1       344 8.81890E-02-2.23925E-02-1.43319E-16 9.72137E-02 3.89836E-16 7.72200E-18
 -1       345 5.99594E-02-3.69471E-02-4.27409E-17 6.71030E-02-1.18382E-16-1.63318E-16
 -1       346-6.59113E-02 1.14532E-02 7.34755E-17 1.41112E-02-1.23121E-18 1.56998E-16
 -1       347 1.03032E-01-3.08494E-03-2.64300E-17 1.16647E-01 5.73651E-16-2.66233E-17
 -1       348 8.81890E-02-2.23925E-02 1.43319E-16 9.72137E-02-6.35163E-16 7.54117E-17
 -1       349 1.00500E-01-2.90126E-02 1.86061E-16 8.88652E-02-3.64950E-17 3.69460E-18
 -1       350 5.99594E-02-3.69471E-02 4.27409E-17 6.71030E-02 1.56216E-16 1.86506E-16
 -1       351-3.14242E-03 3.84491E-03-3.07353E-17 3.77818E-02 3.31053E-16 1.28874E-16
 -1       352-6.59113E-02 1.14532E-02-7.34755E-17 1.41112E-02 2.03401E-17 1.55039E-16
 -1       353-1.74615E-01 6.59738E-02-3.57433E-16-5.85868E-02-5.23844E-17-1.01410E-15
 -1       354 1.06902E-01 3.35413E-02-6.16690E-16 1.83733E-01 2.63631E-15 7.60430E-16
 -1       355 8.05248E-02-5.17857E-03-8.00198E-16 1.41774E-01 3.27236E-17 1.21181E-17
 -1       356 4.50846E-02 2.54678E-02-8.09480E-16 1.06108E-01 2.70417E-15-1.56638E-15
 -1       357 1.55301E-02 1.95543E-04 1.76782E-16 7.84247E-02-1.52084E-15-2.35326E-16
 -1       358-5.65843E-02 4.69257E-02 5.89808E-16 2.34930E-02-4.41892E-16-2.24107E-15
 -1       359-1.00758E-01 4.39226E-02 3.82290E-16-7.94986E-03 3.83387E-16-1.05460E-15
 -1       360-1.62272E-01 7.16802E-02 9.35184E-16-7.11632E-02 1.00744E-15 2.15768E-15
 -1       361 7.58806E-02 6.01908E-02-7.03410E-16 1.99010E-01 1.48628E-14-3.42903E-15
 -1       362 5.42717E-02 4.41488E-02 1.53963E-15 1.52566E-01-2.76012E-15-3.08073E-16
 -1       363-2.76545E-03 6.82424E-02 4.00723E-15 1.17687E-01 1.39073E-15 1.18388E-15
 -1       364-2.18433E-02 5.43707E-02 1.65812E-15 7.33203E-02-1.91204E-15-7.57215E-16
 -1       365-6.66891E-02 7.07059E-02-7.85203E-16 4.78723E-02-7.03745E-15 3.36679E-15
 -1       366-1.04174E-01 6.43102E-02-1.85351E-15-7.18591E-03-7.19531E-15 3.82646E-16
 -1       367-1.29430E-01 6.79804E-02-3.01983E-15-4.18367E-02-2.87525E-15-7.14479E-15
 -1       368-2.65873E-03 8.32725E-02-2.49069E-15 1.44187E-01 2.03121E-15 1.92191E-15
 -1       369-5.53527E-02 8.97329E-02 2.73284E-15 1.15886E-01 5.17409E-16 1.43858E-16
 -1       370-7.70622E-02 6.70646E-02 7.10548E-16 6.21529E-02 4.55377E-15-2.73012E-15
 -1       371 3.98805E-02 6.27196E-02-2.51141E-31 1.51060E-01 9.02624E-15-2.68484E-15
 -1       372-4.10914E-02 7.31326E-02 1.64860E-31 8.40894E-02 4.79709E-15 6.20130E-16
 -1       373-9.63012E-02 6.15977E-02 7.77305E-31 1.17895E-02-4.53275E-15-3.18870E-15
 -1       374 8.24666E-02 1.89083E-02 4.03482E-32 1.47529E-01 2.61347E-15 4.50229E-16
 -1       375-2.23766E-03 3.33946E-02 1.28122E-31 6.44544E-02 3.09382E-16-3.93831E-16
 -1       376-1.10090E-01 6.49044E-02 4.23705E-33-2.72643E-02-5.28429E-16 5.67459E-16
 -1       377 1.15031E-01-3.10445E-02-4.50668E-32 1.07963E-01 1.13532E-15 1.08237E-16
 -1       378 6.00716E-02-3.01255E-02 7.10668E-32 7.34235E-02 3.21548E-16-7.49074E-17
 -1       379-1.03617E-01 2.11390E-02 3.10075E-32 2.15632E-02 5.08608E-16 3.79717E-16
 -3
    1PSTEP                         4           1           1          
  100CL  101 1.000000000         155                     0    1           1
 -4  FORC        4    1
 -5  F1          1    2    1    0
 -5  F2          1    2    2    0
 -5  F3          1    2    3    0
 -5  ALL         1    2    0    0    1ALL
 -1       225-4.14515E-12-1.04167E+01 2.93390E+01
 -1       226-4.14015E-13-1.04167E+01-2.93390E+01
 -1       227 2.33133E+01 3.26096E+01 4.40325E+01
 -1       228 2.33133E+01 3.26096E+01-4.40325E+01
 -1       229-3.23930E-12-1.04167E+01-1.03209E+01
 -1       230-1.72210E-12-1.04167E+01 1.03209E+01
 -1       231 3.00482E+01-8.49953E+01-1.29068E+01
 -1       232 3.00482E+01-8.49953E+01 1.29068E+01
 -1       233-1.10338E-12 3.99611E-12 6.01875E+01
 -1       234 2.18885E-13-7.42645E-13 7.93789E+01
 -1       235-4.20116E-13 4.09808E-13 7.85697E+01
 -1       236-1.28398E-12 1.05366E-11-6.01875E+01
 -1       237-1.43621E-13-9.08519E-13-7.93789E+01
 -1       238 4.60498E-14 8.14815E-13-7.85697E+01
 -1       239 2.50107E-12-2.08333E+01-1.42036E+01
 -1       240-5.59261E-12-2.08333E+01 1.51557E+01
 -1       241-2.56377E-12-2.08333E+01 4.64176E+01
 -1       242-1.26930E-11-2.08333E+01 1.42036E+01
 -1       243 1.88936E-12-2.08333E+01-1.51557E+01
 -1       244 2.25055E-12-2.08333E+01-4.64176E+01
 -1       245-5.34736E-13 1.42324E-13-9.50921E+01
 -1       246-6.44220E-15 6.66134E-13-5.51630E+01
 -1       247 2.76066E-12-3.56810E-13-2.54413E+01
 -1       248-5.96206E-13 5.52068E-13 9.50921E+01
 -1       249-1.74867E-12 1.62402E-12 5.51630E+01
 -1       250-5.94774E-12-1.31862E-12 2.54413E+01
 -1       251 4.85237E+01 5.13219E+01 5.98501E+01
 -1       252 3.90023E+01 2.38749E+01 8.96908E+00
 -1       253-2.67796E+01-5.35685E+01-8.48040E+01
 -1       254 4.85237E+01 5.13219E+01-5.98501E+01
 -1       255 3.90023E+01 2.38749E+01-8.96908E+00
 -1       256-2.67796E+01-5.35685E+01 8.48040E+01
 -1       257-5.90344E-12 9.45727E-12 1.03152E+02
 -1       258-9.85176E-14 6.18387E-13 4.16398E+01
 -1       259 4.26328E-12-1.46816E-11-2.59989E+01
 -1       260 3.33988E-13-4.11044E-14 1.30152E+02
 -1       261-6.46326E-13-7.99048E-12 3.75972E+01
 -1       262-1.94976E-12-8.76027E-12-7.58403E+01
 -1       263 1.30857E-13-1.51228E-12 1.31478E+02
 -1       264-2.03833E-13-1.04874E-12 4.57230E+01
 -1       265-7.16644E-13 2.92946E-13-9.73800E+01
 -1       266 1.43849E-13 2.10833E-13-1.31478E+02
 -1       267-2.14839E-13-8.54548E-13-4.57230E+01
 -1       268 3.64725E-13 1.35066E-12 9.73800E+01
 -1       269 1.02894E-12 4.18270E-12-1.30152E+02
 -1       270-8.15851E-13-3.43528E-12-3.75972E+01
 -1       271-3.59950E-13-4.58979E-12 7.58403E+01
 -1       272-5.82846E-12 1.06019E-11-1.03152E+02
 -1       273 4.55964E-12 5.46179E-12-4.16398E+01
 -1       274-8.50938E-13-1.15604E-11 2.59989E+01
 -1       275-6.77560E-12 4.16667E+01 1.03861E-12
 -1       276-9.14217E+01-7.67345E+01 3.33955E-13
 -1       277-2.38379E-12-3.02950E-12-1.16376E+02
 -1       278-1.00548E-12 1.68768E-12-1.90175E+02
 -1       279 3.60781E-13 7.58698E-13-1.88880E+02
 -1       280 3.20013E-14-8.00720E-14-1.36611E+02
 -1       281-9.22403E-13 2.38940E-12 1.16376E+02
 -1       282-1.72800E-13 1.49256E-12 1.90175E+02
 -1       283 3.87787E-13-6.39204E-14 1.88880E+02
 -1       284-1.89209E-13-1.13579E-13 1.36611E+02
 -1       285 1.08265E-12 4.16667E+01-7.19425E-12
 -1       286-4.60651E-12 4.16667E+01 8.48138E+00
 -1       287-3.99170E-12 4.16667E+01-3.35259E+01
 -1       288-7.21537E-13 4.16667E+01-5.53126E+01
 -1       289 1.86403E-11 4.16667E+01-8.70468E+01
 -1       290-9.15050E-14 4.16667E+01-8.48138E+00
 -1       291-2.10706E-12 4.16667E+01 3.35259E+01
 -1       292-9.89058E-12 4.16667E+01 5.53126E+01
 -1       293 2.26808E-11 4.16667E+01 8.70468E+01
 -1       294 4.45145E+02-6.03202E+01 4.26326E-14
 -1       295-1.61751E-13 3.07134E-13 3.24524E+02
 -1       296-1.11815E-12 6.74440E-13 1.77565E+02
 -1       297 3.60807E-12 1.49195E-12 1.24371E+02
 -1       298 1.06343E-12 3.45063E-12 4.35088E+01
 -1       299-6.11545E-14 1.02650E-13-3.24524E+02
 -1       300 6.80781E-13 8.49785E-14-1.77565E+02
 -1       301 1.28584E-12-1.11805E-13-1.24371E+02
 -1       302-2.02039E-12 1.00353E-12-4.35088E+01
 -1       303-9.23374E+01-1.03586E+02-1.44841E+02
 -1       304-1.35373E+02-7.86127E+01-1.39705E+02
 -1       305-4.88738E+01-1.02073E+01-1.55767E+01
 -1       306 1.62476E+02 1.39830E+02 2.75822E+02
 -1       307-9.23374E+01-1.03586E+02 1.44841E+02
 -1       308-1.35373E+02-7.86127E+01 1.39705E+02
 -1       309-4.88738E+01-1.02073E+01 1.55767E+01
 -1       310 1.62476E+02 1.39830E+02-2.75822E+02
 -1       311 3.32250E-12 3.20897E-12-1.20459E-13
 -1       312-8.11175E-13 2.17658E-12 4.28046E-13
 -1       313-2.75914E-13 3.42318E-13 7.25531E-14
 -1       314 2.30375E-12 8.33333E+01 3.64159E-12
 -1       315 3.18288E-12 8.33333E+01 5.20743E-13
 -1       316 3.58333E-12 8.33333E+01 1.89961E-12
 -1       317 2.10383E-12 9.80490E-13 6.41265E-13
 -1       318-3.96180E-14-7.75397E-13 9.77884E-13
 -1       319 4.40445E-12-5.58728E-12 2.53619E-12
 -1       320-2.61326E+02-1.59111E+02-4.00568E-13
 -1       321-2.12484E+02-8.21404E+01-4.47531E-13
 -1       322 1.20086E+02 4.49723E+01 1.50990E-13
 -1       323 5.04568E-12-2.99373E-11-2.94312E+02
 -1       324 2.12463E-12-8.62296E-12-1.60374E+02
 -1       325 1.36803E-11-1.47442E-11-1.47264E+02
 -1       326 4.89896E-12-2.05724E-12-7.58890E+01
 -1       327-5.44523E-12 1.15066E-11-7.61673E+00
 -1       328-3.92906E-12 8.01927E-12 9.54756E+00
 -1       329-8.37925E-12 1.60722E-11 1.42594E+02
 -1       330-1.40359E-12-3.01406E-12-3.73531E+02
 -1       331-6.24658E-13-3.94827E-13-2.66795E+02
 -1       332 1.16487E-12-5.51683E-12-1.92409E+02
 -1       333 3.93829E-14 2.28164E-12-8.42257E+01
 -1       334-2.09228E-12 6.37238E-12 2.76546E+01
 -1       335-8.84356E-13 5.77800E-12 1.08336E+02
 -1       336-2.84370E-12 3.60992E-12 2.69282E+02
 -1       337 9.33058E-13-1.98477E-12-3.36177E+02
 -1       338 3.99706E-13 5.11996E-13-2.80714E+02
 -1       339 2.38280E-13-1.38564E-12-2.21741E+02
 -1       340 2.36469E-13 5.50397E-13-7.53408E+01
 -1       341-2.71428E-13-1.02805E-12 3.87285E+01
 -1       342 5.82004E-13-1.41253E-12 1.90745E+02
 -1       343-1.33080E-13-1.49426E-12 3.99716E+02
 -1       344 6.57644E-15 6.62726E-13-2.82077E+02
 -1       345-1.80664E-13-8.40233E-14-1.22670E+02
 -1       346-1.41851E-13-5.42135E-13 2.25821E+02
 -1       347 6.29414E-13-1.44685E-12 3.36177E+02
 -1       348-5.20678E-14-1.33233E-13 2.82077E+02
 -1       349-6.92902E-14-2.37428E-13 2.21741E+02
 -1       350 3.76042E-14-2.27524E-14 1.22670E+02
 -1       351 8.82811E-14 1.61703E-15-3.87285E+01
 -1       352 3.10979E-13-3.92117E-13-2.25821E+02
 -1       353 4.07371E-14-1.40375E-12-3.99716E+02
 -1       354 1.27391E-12-2.11691E-13 3.73531E+02
 -1       355-4.17747E-13 5.13710E-13 2.80714E+02
 -1       356-1.37445E-12-3.16031E-12 1.92409E+02
 -1       357-5.28961E-15-9.13126E-14 7.53408E+01
 -1       358-1.98016E-12-2.22930E-13-2.76546E+01
 -1       359-7.31888E-14-7.55407E-13-1.90745E+02
 -1       360-1.47910E-14 2.81987E-12-2.69282E+02
 -1       361 7.69091E-12-4.04296E-12 2.94312E+02
 -1       362-1.62990E-13-1.33365E-12 2.66795E+02
 -1       363-2.31627E-12-7.69047E-13 1.47264E+02
 -1       364-2.57129E-12-1.78336E-12 8.42257E+01
 -1       365 1.19591E-12-3.71034E-12 7.61673E+00
 -1       366-1.37173E-12-3.60942E-13-1.08336E+02
 -1       367-1.08282E-11 5.60792E-12-1.42594E+02
 -1       368-1.20123E-13-4.03538E-13 1.60374E+02
 -1       369 1.65635E-12-3.52013E-12 7.58890E+01
 -1       370 4.23237E-12-1.45559E-12-9.54756E+00
 -1       371-2.72831E-13 6.34480E-12-2.60875E-13
 -1       372 9.33372E-12 5.21061E-12 6.51124E-12
 -1       373 6.08500E-13 1.82269E-11 1.01683E-11
 -1       374 2.32984E-12 1.53971E-12 2.07193E-12
 -1       375 1.29984E-12 3.21008E-12 2.90978E-12
 -1       376 3.19672E-12 6.78211E-12 6.83231E-13
 -1       377 5.04504E-13 3.45591E-12 7.20146E-13
 -1       378-3.23607E-13 4.34905E-13 2.78361E-13
 -1       379 2.40991E-12-2.04251E-12 7.24532E-13
 -3
 9999
