    1C
    1UUSER                                                              
    1UDATE              18.february.2021                                
    1UTIME              19:26:56                                        
    1UHOST                                                              
    1UPGM               CalculiX                                        
    1UVERSION           Version 2.17                             
    1UCOMPILETIME       Thu Jul 23 21:43:50 CEST 2020                    
    1UDIR                                                               
    1UDBN                                                               
    1UMAT    1STEEL                                                     
    2C                            93                                     1
 -1         1 1.16500E+00 8.12831E-01 0.00000E+00
 -1         2-3.05640E-15 1.00000E+00 0.00000E+00
 -1         3 3.39463E-15 1.58305E+00 0.00000E+00
 -1         4 1.36776E+00 1.30989E+00 0.00000E+00
 -1         5-4.65605E-15 2.75000E+00 0.00000E+00
 -1         6 1.77348E+00 2.30447E+00 0.00000E+00
 -1         7 1.78302E+00 4.53000E-01 0.00000E+00
 -1         8 2.13324E+00 7.51594E-01 0.00000E+00
 -1         9 2.83277E+00 1.34800E+00 0.00000E+00
 -1        10 2.00000E+00 1.09117E-14 0.00000E+00
 -1        11 2.41700E+00 2.81975E-15 0.00000E+00
 -1        12 3.25000E+00 9.31453E-15 0.00000E+00
 -1        13 5.90531E-01 9.55415E-01 0.00000E+00
 -1        14 1.04148E-15 1.29152E+00 0.00000E+00
 -1        15 6.98357E-01 1.51793E+00 0.00000E+00
 -1        16 1.26638E+00 1.06136E+00 0.00000E+00
 -1        17 4.16745E-15 2.16652E+00 0.00000E+00
 -1        18 9.14932E-01 2.63878E+00 0.00000E+00
 -1        19 1.57062E+00 1.80718E+00 0.00000E+00
 -1        20 1.49321E+00 6.65266E-01 0.00000E+00
 -1        21 1.78308E+00 1.07486E+00 0.00000E+00
 -1        22 1.95813E+00 6.02297E-01 0.00000E+00
 -1        23 2.36090E+00 1.88991E+00 0.00000E+00
 -1        24 2.48300E+00 1.04980E+00 0.00000E+00
 -1        25 1.93761E+00 2.47828E-01 0.00000E+00
 -1        26 2.34160E+00 4.00442E-01 0.00000E+00
 -1        27 2.20850E+00 7.79284E-15 0.00000E+00
 -1        28 3.14145E+00 7.04781E-01 0.00000E+00
 -1        29 2.83350E+00 3.11639E-15 0.00000E+00
 -1        30 6.44444E-01 1.23667E+00 0.00000E+00
 -1        31 8.06644E-01 2.07835E+00 0.00000E+00
 -1        32 1.63814E+00 8.70063E-01 0.00000E+00
 -1        33 2.07199E+00 1.48239E+00 0.00000E+00
 -1        34 2.13960E+00 3.24135E-01 0.00000E+00
 -1        35 2.74153E+00 5.52612E-01 0.00000E+00
 -1        36 2.98613E-01 9.88791E-01 0.00000E+00
 -1        37 6.17487E-01 1.09604E+00 0.00000E+00
 -1        38 3.22222E-01 1.26410E+00 0.00000E+00
 -1        39 5.20738E-16 1.14576E+00 0.00000E+00
 -1        40 6.71400E-01 1.37730E+00 0.00000E+00
 -1        41 3.51094E-01 1.56746E+00 0.00000E+00
 -1        42 1.56221E-15 1.43728E+00 0.00000E+00
 -1        43 8.89271E-01 8.95712E-01 0.00000E+00
 -1        44 1.21569E+00 9.37096E-01 0.00000E+00
 -1        45 9.55413E-01 1.14902E+00 0.00000E+00
 -1        46 1.31707E+00 1.18563E+00 0.00000E+00
 -1        47 1.04003E+00 1.43257E+00 0.00000E+00
 -1        48 7.52500E-01 1.79814E+00 0.00000E+00
 -1        49 4.03322E-01 2.12244E+00 0.00000E+00
 -1        50 3.12520E-15 1.87478E+00 0.00000E+00
 -1        51 8.60788E-01 2.35857E+00 0.00000E+00
 -1        52 4.62163E-01 2.72205E+00 0.00000E+00
 -1        53 5.20970E-15 2.45826E+00 0.00000E+00
 -1        54 1.46919E+00 1.55854E+00 0.00000E+00
 -1        55 1.18863E+00 1.94277E+00 0.00000E+00
 -1        56 1.67205E+00 2.05583E+00 0.00000E+00
 -1        57 1.35864E+00 2.49817E+00 0.00000E+00
 -1        58 1.33727E+00 7.43589E-01 0.00000E+00
 -1        59 1.56568E+00 7.67664E-01 0.00000E+00
 -1        60 1.45226E+00 9.65712E-01 0.00000E+00
 -1        61 1.71061E+00 9.72462E-01 0.00000E+00
 -1        62 1.58210E+00 1.20223E+00 0.00000E+00
 -1        63 1.65181E+00 5.63807E-01 0.00000E+00
 -1        64 1.87058E+00 5.27649E-01 0.00000E+00
 -1        65 1.79814E+00 7.36180E-01 0.00000E+00
 -1        66 2.04569E+00 6.76946E-01 0.00000E+00
 -1        67 1.97002E+00 9.23955E-01 0.00000E+00
 -1        68 1.92753E+00 1.27862E+00 0.00000E+00
 -1        69 1.82130E+00 1.64478E+00 0.00000E+00
 -1        70 2.21644E+00 1.68615E+00 0.00000E+00
 -1        71 2.08165E+00 2.11187E+00 0.00000E+00
 -1        72 2.30812E+00 9.00696E-01 0.00000E+00
 -1        73 2.27749E+00 1.26609E+00 0.00000E+00
 -1        74 2.65788E+00 1.19890E+00 0.00000E+00
 -1        75 2.61650E+00 1.63122E+00 0.00000E+00
 -1        76 1.87159E+00 3.52538E-01 0.00000E+00
 -1        77 2.03861E+00 2.85981E-01 0.00000E+00
 -1        78 2.04887E+00 4.63216E-01 0.00000E+00
 -1        79 2.24060E+00 3.62288E-01 0.00000E+00
 -1        80 2.25171E+00 5.83144E-01 0.00000E+00
 -1        81 1.98434E+00 1.24892E-01 0.00000E+00
 -1        82 2.10425E+00 8.57287E-15 0.00000E+00
 -1        83 2.17405E+00 1.62067E-01 0.00000E+00
 -1        84 2.31275E+00 7.01281E-15 0.00000E+00
 -1        85 2.39862E+00 2.03277E-01 0.00000E+00
 -1        86 2.54156E+00 4.76527E-01 0.00000E+00
 -1        87 2.61227E+00 8.01204E-01 0.00000E+00
 -1        88 2.94149E+00 6.28696E-01 0.00000E+00
 -1        89 3.01119E+00 1.03467E+00 0.00000E+00
 -1        90 2.62525E+00 4.67458E-15 0.00000E+00
 -1        91 2.78751E+00 2.76306E-01 0.00000E+00
 -1        92 3.04175E+00 1.55819E-15 0.00000E+00
 -1        93 3.22275E+00 3.55370E-01 0.00000E+00
 -3
    3C                            24                                     1
 -1         1   10    0    1
 -2         2        13        30        14        36        37        38        39
 -1         2   10    0    1
 -2        14        30        15         3        38        40        41        42
 -1         3   10    0    1
 -2        13         1        16        30        43        44        45        37
 -1         4   10    0    1
 -2        30        16         4        15        45        46        47        40
 -1         5   10    0    1
 -2         3        15        31        17        41        48        49        50
 -1         6   10    0    1
 -2        17        31        18         5        49        51        52        53
 -1         7   10    0    1
 -2        15         4        19        31        47        54        55        48
 -1         8   10    0    1
 -2        31        19         6        18        55        56        57        51
 -1         9   10    0    1
 -2         1        20        32        16        58        59        60        44
 -1        10   10    0    1
 -2        16        32        21         4        60        61        62        46
 -1        11   10    0    1
 -2        20         7        22        32        63        64        65        59
 -1        12   10    0    1
 -2        32        22         8        21        65        66        67        61
 -1        13   10    0    1
 -2         4        21        33        19        62        68        69        54
 -1        14   10    0    1
 -2        19        33        23         6        69        70        71        56
 -1        15   10    0    1
 -2        21         8        24        33        67        72        73        68
 -1        16   10    0    1
 -2        33        24         9        23        73        74        75        70
 -1        17   10    0    1
 -2         7        25        34        22        76        77        78        64
 -1        18   10    0    1
 -2        22        34        26         8        78        79        80        66
 -1        19   10    0    1
 -2        25        10        27        34        81        82        83        77
 -1        20   10    0    1
 -2        34        27        11        26        83        84        85        79
 -1        21   10    0    1
 -2         8        26        35        24        80        86        87        72
 -1        22   10    0    1
 -2        24        35        28         9        87        88        89        74
 -1        23   10    0    1
 -2        26        11        29        35        85        90        91        86
 -1        24   10    0    1
 -2        35        29        12        28        91        92        93        88
 -3
    1PSTEP                         1           1           1          
  100CL  101 1.000000000          93                     0    1           1
 -4  DISP        4    1
 -5  D1          1    2    1    0
 -5  D2          1    2    2    0
 -5  D3          1    2    3    0
 -5  ALL         1    2    0    0    1ALL
 -1         1-4.63909E-05 4.17688E-04 1.29040E-20
 -1         2 0.00000E+00 5.48970E-04 1.85288E-22
 -1         3 0.00000E+00 5.48403E-04-5.55865E-22
 -1         4 3.60500E-05 3.78966E-04 1.64113E-21
 -1         5 0.00000E+00 5.45798E-04-2.85874E-21
 -1         6 1.74462E-04 3.32036E-04-3.07049E-21
 -1         7-8.45032E-05 2.10038E-04 5.29396E-21
 -1         8-3.63734E-05 1.40242E-04 3.17637E-22
 -1         9 6.83830E-05 5.74880E-05 7.41154E-22
 -1        10-1.00827E-04 0.00000E+00-2.11758E-22
 -1        11-1.07606E-04 0.00000E+00 3.17637E-22
 -1        12-7.34865E-05 0.00000E+00 9.26442E-23
 -1        13-2.11366E-05 5.16036E-04-5.55204E-21
 -1        14 0.00000E+00 5.49803E-04 1.04622E-20
 -1        15 3.07961E-05 5.04189E-04 3.36166E-21
 -1        16 1.48649E-07 3.95616E-04-1.37643E-21
 -1        17 0.00000E+00 5.45756E-04-4.76456E-22
 -1        18 1.17295E-04 4.87314E-04 5.82335E-21
 -1        19 1.00478E-04 3.55277E-04-1.16467E-21
 -1        20-6.49003E-05 3.26268E-04-4.49986E-21
 -1        21 1.24012E-05 2.61289E-04-2.11758E-22
 -1        22-5.74116E-05 1.64866E-04 2.11758E-22
 -1        23 1.50125E-04 1.82631E-04-2.11758E-21
 -1        24 9.10536E-06 1.03996E-04 5.29396E-23
 -1        25-9.61946E-05 1.10756E-04-2.01170E-21
 -1        26-8.47367E-05 5.69839E-05-2.11758E-22
 -1        27-1.11233E-04 0.00000E+00 2.54110E-21
 -1        28-2.87421E-05-2.12414E-06 1.32349E-22
 -1        29-9.24521E-05 0.00000E+00 3.70577E-22
 -1        30 7.56461E-06 5.10381E-04-1.69407E-21
 -1        31 7.19939E-05 4.94468E-04-1.05879E-21
 -1        32-2.04297E-05 2.87330E-04-5.29396E-22
 -1        33 7.42148E-05 2.23865E-04 2.59404E-21
 -1        34-9.31319E-05 7.39162E-05-1.37643E-21
 -1        35-6.06488E-05 3.19575E-05-2.64698E-22
 -1        36-1.03872E-05 5.40690E-04 7.61006E-19
 -1        37-5.92157E-06 5.13497E-04-1.66363E-19
 -1        38 4.02680E-06 5.39998E-04 1.70333E-19
 -1        39 0.00000E+00 5.49870E-04 5.16690E-20
 -1        40 1.97184E-05 5.07255E-04 1.37908E-19
 -1        41 1.70089E-05 5.37159E-04 6.29769E-19
 -1        42 0.00000E+00 5.49260E-04 1.05932E-19
 -1        43-3.34373E-05 4.73756E-04 2.75729E-19
 -1        44-2.12885E-05 4.06038E-04 2.06253E-19
 -1        45 4.60865E-06 4.62586E-04 1.17949E-19
 -1        46 1.90278E-05 3.86639E-04 1.50984E-19
 -1        47 3.83595E-05 4.50241E-04 2.60357E-19
 -1        48 5.15946E-05 4.98849E-04-9.25383E-20
 -1        49 3.79295E-05 5.32735E-04 3.11708E-19
 -1        50 0.00000E+00 5.46851E-04-1.71101E-19
 -1        51 9.35549E-05 4.90727E-04 5.17749E-19
 -1        52 6.26914E-05 5.30722E-04 4.13564E-19
 -1        53 0.00000E+00 5.45438E-04-9.02090E-20
 -1        54 6.81931E-05 3.66254E-04 1.18585E-20
 -1        55 9.16123E-05 4.34456E-04 2.33993E-19
 -1        56 1.35389E-04 3.44254E-04-4.36857E-19
 -1        57 1.56691E-04 4.18234E-04 5.04196E-19
 -1        58-5.57453E-05 3.73775E-04-6.29981E-21
 -1        59-4.03500E-05 3.04951E-04-2.77403E-20
 -1        60-9.69936E-06 3.45122E-04-8.53386E-20
 -1        61-3.19506E-06 2.72999E-04-4.84926E-20
 -1        62 2.75342E-05 3.21846E-04 1.69407E-19
 -1        63-7.52614E-05 2.68838E-04 3.00697E-20
 -1        64-6.91880E-05 1.83608E-04 2.62580E-20
 -1        65-3.86252E-05 2.28353E-04 1.22820E-20
 -1        66-4.66919E-05 1.50911E-04 1.92700E-20
 -1        67-9.26660E-06 1.98828E-04 8.19504E-20
 -1        68 4.25302E-05 2.41660E-04 1.16679E-19
 -1        69 9.07956E-05 2.91563E-04 2.57074E-19
 -1        70 1.09504E-04 2.04829E-04-8.47033E-21
 -1        71 1.70109E-04 2.56765E-04-4.63327E-19
 -1        72-1.48329E-05 1.21966E-04-1.18585E-20
 -1        73 4.31578E-05 1.61931E-04 6.77626E-21
 -1        74 3.64250E-05 8.32654E-05 1.40925E-19
 -1        75 1.14101E-04 1.13604E-04-1.27267E-19
 -1        76-9.11752E-05 1.60232E-04-1.27055E-21
 -1        77-9.55098E-05 8.76421E-05-3.98105E-20
 -1        78-7.64028E-05 1.18846E-04 6.56451E-21
 -1        79-8.94707E-05 6.41868E-05-1.84230E-20
 -1        80-6.15008E-05 9.47072E-05 1.37643E-20
 -1        81-1.00315E-04 5.49020E-05-3.81165E-20
 -1        82-1.09539E-04 0.00000E+00 3.13402E-20
 -1        83-1.06346E-04 3.58858E-05-4.23516E-21
 -1        84-1.10277E-04 0.00000E+00 5.25160E-20
 -1        85-1.01327E-04 2.60955E-05-1.73642E-20
 -1        86-7.35779E-05 4.46863E-05-2.71051E-20
 -1        87-2.90401E-05 6.38226E-05-6.15158E-20
 -1        88-4.57772E-05 1.69783E-05-2.96462E-20
 -1        89 1.71409E-05 1.84884E-05-2.62580E-20
 -1        90-1.00554E-04 0.00000E+00 2.90109E-20
 -1        91-8.48051E-05 1.36236E-05 2.27640E-20
 -1        92-8.32895E-05 0.00000E+00 2.92226E-20
 -1        93-6.15275E-05-5.68288E-06 2.33463E-20
 -3
    1PSTEP                         2           1           1          
  100CL  101 1.000000000          93                     0    1           1
 -4  STRESS      6    1
 -5  SXX         1    4    1    1
 -5  SYY         1    4    2    2
 -5  SZZ         1    4    3    3
 -5  SXY         1    4    1    2
 -5  SYZ         1    4    2    3
 -5  SZX         1    4    3    1
 -1         1 5.05329E+06 9.55401E+05-1.20886E+05-2.31232E+06 2.63444E-07 1.59343E-09
 -1         2-7.21644E+06-1.43090E+05-1.44007E+05-1.16009E+05 7.24540E-08 4.17867E-07
 -1         3 1.17133E+07 2.14090E+06-4.60887E+03-7.20403E+04-8.58381E-08 2.88131E-07
 -1         4 9.37045E+06 1.10562E+07-2.80810E+04-9.29927E+06-4.66771E-08-2.98623E-08
 -1         5 3.31840E+07 1.04571E+07 8.16191E+04-1.10836E+05-3.58708E-07 1.46509E-07
 -1         6 2.23400E+07 1.43738E+07 2.29648E+04-6.89750E+06 3.29772E-07-4.61828E-08
 -1         7 2.22356E+07 2.44513E+07 2.46566E+05-2.19420E+07-6.90634E-08-2.28465E-09
 -1         8 5.99369E+06 2.91564E+07 3.18149E+04-5.18121E+06-3.62161E-08-3.77555E-08
 -1         9 9.45973E+06 1.02595E+07-4.12091E+04 1.85369E+05-7.50606E-08-7.62611E-08
 -1        10 3.00693E+06 9.29873E+07 7.69136E+05-1.58713E+05-4.67253E-08 6.61821E-08
 -1        11 1.54567E+07 2.87240E+07-3.23274E+04 4.31211E+05-1.12232E-08 4.80213E-10
 -1        12 9.16724E+06-3.35624E+06-2.17925E+05 2.70825E+05 1.04956E-08 1.30894E-08
 -1        13-4.30056E+06-3.41670E+04-1.14810E+05 4.14848E+05-1.05283E-08-1.71323E-07
 -1        14 2.82484E+06 1.76776E+05-3.76398E+04 1.55395E+04 1.69282E-07 8.17936E-08
 -1        15 1.13410E+07 4.11499E+06-4.78537E+03-5.00910E+06-5.47225E-08-8.53506E-08
 -1        16 7.18559E+06 6.34553E+06-4.78020E+04-7.49185E+06 1.23873E-08-7.25777E-08
 -1        17 2.26090E+07 6.22445E+06-1.00145E+04-9.29439E+04-2.57074E-07 1.21306E-07
 -1        18 3.02629E+07 1.18084E+07 9.13452E+04-5.09686E+06-2.05939E-07-3.27932E-08
 -1        19 1.43246E+07 1.41140E+07 3.98972E+03-8.42317E+06-2.23836E-07-5.39740E-08
 -1        20 1.43254E+07 5.50670E+06-6.17841E+04-8.68011E+06-2.12998E-08 1.79352E-08
 -1        21 6.88796E+06 1.98381E+07 1.53942E+04-9.80074E+06 2.56714E-08 7.34144E-09
 -1        22 9.39497E+06 3.23612E+07 9.60374E+04-1.22841E+07 5.55592E-08 6.04632E-09
 -1        23 1.47713E+07 1.45896E+07 1.62208E+04-4.47325E+06-4.62751E-09 6.86198E-08
 -1        24 6.40777E+06 2.03393E+07 2.52647E+04-9.09615E+05 4.54711E-08 3.22743E-08
 -1        25 1.54778E+07 6.10259E+07 5.83551E+05-2.78963E+07 2.10130E-08-4.37576E-08
 -1        26 1.07423E+07 3.08268E+07-4.39132E+02 6.56958E+05 7.57427E-09-1.01209E-08
 -1        27 1.74276E+07 5.08410E+07 6.09662E+05 3.88438E+05-1.04192E-08 1.29367E-08
 -1        28 8.45618E+06 1.65232E+06-1.54142E+05 2.74398E+06-1.55926E-08 2.73831E-08
 -1        29 1.25022E+07 1.23701E+07-1.22362E+04 3.67722E+05 1.55867E-08-1.12050E-08
 -1        30 4.01637E+06 1.24846E+06-5.64467E+04-2.91323E+06 1.63724E-07 2.19643E-08
 -1        31 2.04628E+07 8.34766E+06 3.39088E+03-5.69859E+06 1.43322E-07 1.14105E-08
 -1        32 9.05642E+06 1.53038E+07-2.63443E+04-1.14995E+07 6.93581E-08 1.60107E-08
 -1        33 8.86368E+06 1.89753E+07 2.47193E+04-6.40746E+06 2.90947E-08-8.23347E-08
 -1        34 1.23872E+07 4.67336E+07 3.89944E+05-5.75003E+06-7.84348E-09-1.26602E-09
 -1        35 9.46750E+06 1.60340E+07 3.11511E+03 2.78052E+06-1.65492E-08-7.05768E-10
 -1        36-6.67105E+06-3.97728E+05-1.28275E+05 4.92352E+05-5.38217E-07-2.24172E-08
 -1        37 4.43406E+05 7.81634E+05 1.05486E+04-1.38167E+06 6.14382E-08-6.24641E-08
 -1        38 3.38501E+06 4.24740E+05-3.10796E+04-1.34098E+06 2.22353E-08-3.56522E-10
 -1        39-1.64386E+06 1.71112E+05 5.24331E+03-8.80169E+04 3.16213E-08 2.14025E-07
 -1        40 8.04514E+06 2.83554E+06 6.69701E+03-4.02752E+06-1.89641E-07-4.70172E-08
 -1        41 1.06100E+07 2.26736E+06-2.06573E+04-2.37173E+06 2.19719E-07-7.90897E-09
 -1        42 7.64697E+06 1.25931E+06-6.72242E+03 4.27068E+02 2.29251E-07 1.88357E-07
 -1        43-4.48581E+05-5.68646E+05-1.69616E+05-1.57116E+03-2.37778E-08 6.63567E-09
 -1        44 6.79728E+06 4.05017E+06 6.14304E+04-5.24279E+06-1.48066E-08-5.96629E-08
 -1        45 5.66601E+06 2.99400E+06-2.04161E+04-4.84721E+06 1.28493E-08 1.83791E-08
 -1        46 8.55131E+06 8.89335E+06 1.51827E+03-8.50449E+06 1.07029E-07-4.26444E-08
 -1        47 9.78362E+06 6.32986E+06-2.03084E+04-6.97115E+06-2.09919E-07-2.41198E-08
 -1        48 1.62255E+07 6.42744E+06 3.21004E+04-5.42886E+06-2.50686E-07-5.22268E-08
 -1        49 2.13819E+07 6.60256E+06 1.27226E+04-2.83106E+06 6.45377E-08 2.22926E-08
 -1        50 1.76090E+07 4.34978E+06 1.58786E+04-1.60687E+05 6.58707E-07 2.13111E-07
 -1        51 2.53973E+07 1.00564E+07 2.01074E+04-5.35226E+06-4.41505E-08-2.26919E-08
 -1        52 3.08079E+07 1.02028E+07 2.50955E+04-2.53770E+06-2.64918E-07-1.61808E-08
 -1        53 2.79935E+07 8.39349E+06 2.19450E+04-6.28728E+04 1.18613E-07 1.85022E-07
 -1        54 1.18581E+07 1.27386E+07 1.25006E+04-8.86611E+06 1.19318E-07 7.19592E-09
 -1        55 1.72855E+07 1.04617E+07 5.91550E+03-7.15742E+06 3.05779E-07 4.05998E-08
 -1        56 1.82355E+07 1.40490E+07-3.82547E+03-7.53177E+06 3.17232E-08-6.06797E-08
 -1        57 2.55852E+07 1.22965E+07 6.76219E+03-6.11493E+06-1.21086E-07-3.06818E-08
 -1        58 9.62924E+06 1.68304E+06-1.63444E+05-4.79581E+06 2.43912E-07 7.65431E-09
 -1        59 1.21312E+07 1.12567E+07 7.27767E+04-1.06413E+07-1.32859E-07 2.78960E-08
 -1        60 8.31764E+06 9.80239E+06-4.91551E+04-9.36969E+06 7.92716E-09 4.71482E-09
 -1        61 8.03011E+06 1.77329E+07 4.80006E+04-1.06054E+07-7.70524E-09-4.56930E-09
 -1        62 7.99029E+06 1.44615E+07 1.06217E+03-9.64010E+06-5.98848E-08 3.22980E-08
 -1        63 1.91412E+07 1.09511E+07-1.21328E+05-1.52045E+07 2.09999E-07-3.05590E-09
 -1        64 1.47417E+07 2.91662E+07 4.70299E+04-1.69964E+07-1.00350E-07-4.89381E-08
 -1        65 9.45564E+06 2.20558E+07-2.12191E+04-1.22980E+07-7.84057E-08 3.72529E-09
 -1        66 7.53340E+06 3.02397E+07 4.89100E+04-8.44274E+06 1.07975E-08-2.33285E-08
 -1        67 6.44330E+06 2.40403E+07-4.02558E+03-8.18809E+06 1.40339E-07 1.35733E-08
 -1        68 7.58608E+06 1.91975E+07 4.44303E+03-7.89602E+06-6.90325E-08-1.42281E-08
 -1        69 1.15708E+07 1.60487E+07 2.13487E+04-7.50210E+06-9.43000E-08-5.07662E-08
 -1        70 1.16599E+07 1.63652E+07 4.71968E+03-5.29273E+06-2.05946E-08 3.51565E-08
 -1        71 1.82604E+07 1.42341E+07 2.39809E+04-5.82560E+06-6.97255E-08-6.29070E-08
 -1        72 5.87174E+06 2.38763E+07-2.40006E+04-2.73780E+06 5.54282E-08-1.59707E-08
 -1        73 7.57852E+06 1.94896E+07 5.05516E+03-3.80113E+06 8.14680E-08 1.97051E-08
 -1        74 7.81245E+06 1.48022E+07 1.20396E+03-2.73251E+05 1.15851E-08-1.74623E-08
 -1        75 1.21347E+07 1.29583E+07-1.86093E+04-2.38092E+06-3.56813E-08-1.19035E-07
 -1        76 2.01412E+07 3.98433E+07 2.02610E+05-2.76018E+07 2.56696E-08-5.05897E-08
 -1        77 1.17860E+07 5.09574E+07-1.33274E+05-1.49227E+07 1.14087E-08 2.88419E-08
 -1        78 1.05665E+07 3.84606E+07 8.17606E+04-9.60427E+06-1.10012E-08-2.17915E-08
 -1        79 1.07316E+07 3.67088E+07-9.31025E+04-2.45972E+06-3.78350E-09 2.43017E-08
 -1        80 8.68544E+06 3.12708E+07 7.25473E+04-2.73344E+06 1.01427E-08 2.96641E-08
 -1        81 9.46196E+06 8.44073E+07 1.51057E+06-1.80788E+07 1.52504E-08 7.43894E-08
 -1        82 8.51978E+06 6.40262E+07-2.64413E+05 7.50222E+05-4.25134E-08-2.12458E-08
 -1        83 1.48543E+07 4.82466E+07 2.73266E+05-2.87615E+06-4.07454E-10 2.29920E-09
 -1        84 1.47216E+07 3.70672E+07-2.27165E+05 4.09420E+05-2.21953E-08-5.70435E-09
 -1        85 1.46106E+07 3.20871E+07 1.04713E+05 4.29745E+05-5.26052E-09 5.52973E-10
 -1        86 9.66855E+06 2.21100E+07-8.87427E+04 1.79822E+06 8.57108E-09 3.92902E-10
 -1        87 8.17705E+06 1.83373E+07 1.91781E+03 1.10213E+06-6.31189E-09 1.90848E-08
 -1        88 8.90771E+06 8.44511E+06-4.31873E+04 2.77559E+06 2.87400E-10-1.12341E-08
 -1        89 9.45160E+06 7.31021E+06-3.66355E+04 1.50805E+06-2.48474E-09-3.11702E-08
 -1        90 1.33701E+07 1.92286E+07-1.36270E+05 3.83205E+05-1.06447E-08-1.71131E-08
 -1        91 1.19573E+07 1.42138E+07-1.04107E+04 1.63853E+06-4.22369E-09 1.97469E-08
 -1        92 1.08224E+07 4.21868E+06-7.22246E+04 2.15877E+05 3.00133E-09-7.91624E-09
 -1        93 1.00859E+07 7.15376E+05-3.75711E+04 1.53510E+06 3.68800E-10-2.05036E-08
 -3
    1PSTEP                         3           1           1          
  100CL  101 1.000000000          93                     0    1           1
 -4  TOSTRAIN    6    1
 -5  EXX         1    4    1    1
 -5  EYY         1    4    2    2
 -5  EZZ         1    4    3    3
 -5  EXY         1    4    1    2
 -5  EYZ         1    4    2    3
 -5  EZX         1    4    3    1
 -1         1 2.28711E-05-2.49677E-06-9.15950E-06-1.43144E-05 1.63091E-18 9.92617E-21
 -1         2-3.39539E-05 9.83355E-06 9.82787E-06-7.18153E-07 4.48451E-19 2.58680E-18
 -1         3 5.27259E-05-6.53198E-06-1.98137E-05-4.45964E-07-5.31275E-19 1.78369E-18
 -1         4 2.88668E-05 3.93021E-05-2.93146E-05-5.75669E-05-2.88944E-19-1.84812E-19
 -1         5 1.42964E-04 2.27350E-06-6.19559E-05-6.86131E-07-2.22058E-18 9.06947E-19
 -1         6 8.58141E-05 3.64997E-05-5.23390E-05-4.26988E-05 2.04147E-18-2.85889E-19
 -1         7 7.06011E-05 8.43175E-05-6.55215E-05-1.35832E-04-4.27540E-19-1.41349E-20
 -1         8-1.31561E-05 1.30232E-04-5.00629E-05-3.20741E-05-2.24173E-19-2.33718E-19
 -1         9 3.04488E-05 3.53996E-05-2.83665E-05 1.14752E-06-4.64664E-19-4.72062E-19
 -1        10-1.19619E-04 4.37402E-04-1.33472E-04-9.82511E-07-2.89136E-19 4.11023E-19
 -1        11 3.26152E-05 1.14746E-04-6.32692E-05 2.66940E-06-6.94302E-20 2.91168E-21
 -1        12 4.87595E-05-2.87668E-05-9.33917E-06 1.67654E-06 6.50362E-20 8.10505E-20
 -1        13-2.02660E-05 6.14497E-06 5.64575E-06 2.56810E-06-6.51421E-20-1.06052E-18
 -1        14 1.32528E-05-3.13992E-06-4.46726E-06 9.61972E-08 1.04802E-18 5.06344E-19
 -1        15 4.81328E-05 3.40066E-06-2.21027E-05-3.10087E-05-3.38734E-19-5.28370E-19
 -1        16 2.52203E-05 2.00200E-05-1.95578E-05-4.63781E-05 7.66830E-20-4.49298E-19
 -1        17 9.87839E-05-2.64396E-06-4.12383E-05-5.75367E-07-1.59136E-18 7.50949E-19
 -1        18 1.27109E-04 1.28675E-05-5.96670E-05-3.15520E-05-1.27486E-18-2.03008E-19
 -1        19 4.80439E-05 4.67403E-05-4.06077E-05-5.21434E-05-1.38567E-18-3.34108E-19
 -1        20 6.04379E-05 5.84573E-06-2.86258E-05-5.37340E-05-1.31866E-19 1.10855E-19
 -1        21 4.43768E-06 8.46051E-05-3.81068E-05-6.06712E-05 1.58938E-19 4.55016E-20
 -1        22-1.62961E-06 1.40543E-04-5.91944E-05-7.60442E-05 3.43895E-19 3.74150E-20
 -1        23 4.94742E-05 4.83491E-05-4.18669E-05-2.76915E-05-2.86403E-20 4.24794E-19
 -1        24 1.42103E-06 8.76636E-05-3.80897E-05-5.63095E-06 2.81506E-19 1.99781E-19
 -1        25-1.43098E-05 2.67655E-04-1.06512E-04-1.72691E-04 1.30443E-19-2.70786E-19
 -1        26 7.11634E-06 1.31449E-04-5.93865E-05 4.06688E-06 4.68780E-20-6.26010E-20
 -1        27 9.48776E-06 2.16332E-04-9.46235E-05 2.40462E-06-6.46392E-20 7.98329E-20
 -1        28 3.81273E-05-3.99188E-06-1.51747E-05 1.69865E-05-9.65336E-20 1.69565E-19
 -1        29 4.18802E-05 4.10623E-05-3.55901E-05 2.27637E-06 9.64857E-20-6.94567E-20
 -1        30 1.74227E-05 2.88041E-07-7.78998E-06-1.80343E-05 1.01350E-18 1.35936E-19
 -1        31 8.55119E-05 1.05133E-05-4.11417E-05-3.52770E-05 8.87241E-19 7.06346E-20
 -1        32 2.13009E-05 5.99750E-05-3.49257E-05-7.11875E-05 4.29353E-19 9.90764E-20
 -1        33 1.50651E-05 7.76610E-05-3.96523E-05-3.96652E-05 1.80109E-19-5.09707E-19
 -1        34-8.33251E-06 2.04288E-04-8.26015E-05-3.55954E-05-4.85456E-20-7.94093E-21
 -1        35 2.21732E-05 6.28230E-05-3.64159E-05 1.72128E-05-1.02438E-19-4.39398E-21
 -1        36-3.10155E-05 7.81938E-06 9.48742E-06 3.04790E-06-3.33149E-18-1.38755E-19
 -1        37 9.79769E-07 3.07356E-06-1.69983E-06-8.55322E-06 3.80424E-19-3.86618E-19
 -1        38 1.55567E-05-2.76876E-06-5.59050E-06-8.30130E-06 1.37537E-19-2.22346E-21
 -1        39-8.07984E-06 3.15570E-06 2.12889E-06-5.44867E-07 1.95876E-19 1.32491E-18
 -1        40 3.42499E-05 1.99994E-06-1.55119E-05-2.49323E-05-1.17388E-18-2.91115E-19
 -1        41 4.73140E-05-4.33060E-06-1.84945E-05-1.46822E-05 1.36023E-18-4.89162E-20
 -1        42 3.46247E-05-4.91791E-06-1.27553E-05 2.64376E-09 1.41899E-18 1.16603E-18
 -1        43-1.08144E-06-1.82470E-06 6.45485E-07-9.72624E-09-1.47066E-19 4.07635E-20
 -1        44 2.64943E-05 9.48840E-06-1.52038E-05-3.24554E-05-9.16913E-20-3.69624E-19
 -1        45 2.27330E-05 6.19199E-06-1.24687E-05-3.00065E-05 7.94623E-20 1.13873E-19
 -1        46 2.80136E-05 3.01309E-05-2.49137E-05-5.26468E-05 6.62592E-19-2.64063E-19
 -1        47 3.75750E-05 1.61946E-05-2.31160E-05-4.31548E-05-1.29956E-18-1.49078E-19
 -1        48 6.80366E-05 7.38164E-06-3.22085E-05-3.36072E-05-1.55203E-18-3.23302E-19
 -1        49 9.23683E-05 8.76976E-07-3.99173E-05-1.75256E-05 3.99376E-19 1.38000E-19
 -1        50 7.76157E-05-4.46515E-06-3.12941E-05-9.94728E-07 4.07746E-18 1.31932E-18
 -1        51 1.06544E-04 1.15771E-05-5.05524E-05-3.31330E-05-2.73380E-19-1.40462E-19
 -1        52 1.32093E-04 4.53760E-06-5.84673E-05-1.57096E-05-1.63996E-18-1.00160E-19
 -1        53 1.21280E-04-5.30820E-08-5.18769E-05-3.89213E-07 7.34166E-19 1.14539E-18
 -1        54 3.82514E-05 4.37020E-05-3.50787E-05-5.48855E-05 7.38666E-19 4.45751E-20
 -1        55 6.73581E-05 2.51155E-05-3.96106E-05-4.43078E-05 1.89291E-18 2.51344E-19
 -1        56 6.67710E-05 4.08548E-05-4.61389E-05-4.66252E-05 1.96512E-19-3.75666E-19
 -1        57 1.04258E-04 2.19949E-05-5.40846E-05-3.78544E-05-7.49730E-19-1.89937E-19
 -1        58 4.36827E-05-5.50811E-06-1.69387E-05-2.96883E-05 1.51000E-18 4.75397E-20
 -1        59 4.15828E-05 3.61688E-05-3.30647E-05-6.58749E-05-8.22548E-19 1.72583E-19
 -1        60 2.56746E-05 3.48659E-05-2.61198E-05-5.80028E-05 4.90551E-20 2.91168E-20
 -1        61 1.28374E-05 7.29020E-05-3.65757E-05-6.56526E-05-4.76853E-20-2.81638E-20
 -1        62 1.73881E-05 5.74483E-05-3.20690E-05-5.96768E-05-3.70683E-19 1.99794E-19
 -1        63 7.56776E-05 2.49769E-05-4.35668E-05-9.41231E-05 1.29998E-18-1.82112E-20
 -1        64 2.84653E-05 1.17760E-04-6.25016E-05-1.05216E-04-6.20875E-19-3.03026E-19
 -1        65 1.35488E-05 9.15501E-05-4.51175E-05-7.61305E-05-4.85350E-19 2.30287E-20
 -1        66-7.39604E-06 1.33167E-04-5.37286E-05-5.22646E-05 6.68097E-20-1.44406E-19
 -1        67-3.65508E-06 1.05278E-04-4.35671E-05-5.06882E-05 8.68579E-19 8.40151E-20
 -1        68 8.69288E-06 8.05729E-05-3.82411E-05-4.88801E-05-4.27348E-19-8.80914E-20
 -1        69 3.21420E-05 5.98620E-05-3.93547E-05-4.64416E-05-5.83817E-19-3.14249E-19
 -1        70 3.21375E-05 6.12659E-05-4.00134E-05-3.27645E-05-1.27505E-19 2.17648E-19
 -1        71 6.65857E-05 4.16607E-05-4.63065E-05-3.60632E-05-4.31616E-19-3.89430E-19
 -1        72-6.11409E-06 1.05343E-04-4.26115E-05-1.69483E-05 3.43313E-19-9.88646E-20
 -1        73 8.23872E-06 8.19738E-05-3.86446E-05-2.35308E-05 5.04342E-19 1.21946E-19
 -1        74 1.60544E-05 5.93243E-05-3.23009E-05-1.69155E-06 7.16934E-20-1.07997E-19
 -1        75 3.92991E-05 4.43977E-05-3.59359E-05-1.47390E-05-2.20890E-19-7.36945E-19
 -1        76 3.87020E-05 1.60667E-04-8.47273E-05-1.70868E-04 1.57125E-19-3.13137E-19
 -1        77-1.64822E-05 2.26008E-04-9.02680E-05-9.23789E-05 6.98802E-20 1.78830E-19
 -1        78-4.74363E-06 1.67934E-04-6.96495E-05-5.94550E-05-6.81862E-20-1.34969E-19
 -1        79-1.20547E-06 1.59606E-04-6.82153E-05-1.52268E-05-2.37169E-20 1.50137E-19
 -1        80-3.41695E-06 1.36397E-04-5.67348E-05-1.69213E-05 6.28922E-20 1.83594E-19
 -1        81-7.76829E-05 3.86265E-04-1.26906E-04-1.11916E-04 9.40207E-20 4.59939E-19
 -1        82-5.05179E-05 2.93093E-04-1.04896E-04 4.64423E-06-2.63295E-19-1.32137E-19
 -1        83 1.42072E-06 2.08135E-04-8.88429E-05-1.78047E-05-2.64698E-21 1.43996E-20
 -1        84 1.74741E-05 1.55804E-04-7.50657E-05 2.53450E-06-1.37391E-19-3.55754E-20
 -1        85 2.35860E-05 1.31774E-04-6.62123E-05 2.66032E-06-3.25578E-20 3.17637E-21
 -1        86 1.45817E-05 9.16003E-05-4.58205E-05 1.11318E-05 5.29925E-20 2.01170E-21
 -1        87 1.27394E-05 7.56363E-05-3.78685E-05 6.82270E-06-3.91223E-20 1.18161E-19
 -1        88 3.04149E-05 2.75512E-05-2.49954E-05 1.71822E-05 1.74701E-21-6.96685E-20
 -1        89 3.46168E-05 2.13606E-05-2.41199E-05 9.33554E-06-1.53657E-20-1.92965E-19
 -1        90 3.63925E-05 7.26591E-05-4.72185E-05 2.37222E-06-6.59892E-20-1.05456E-19
 -1        91 3.66488E-05 5.06179E-05-3.74368E-05 1.01433E-05-2.61389E-20 1.22290E-19
 -1        92 4.56118E-05 4.73152E-06-2.18312E-05 1.33638E-06 1.86083E-20-4.91279E-20
 -1        93 4.70597E-05-1.09482E-05-1.56093E-05 9.50300E-06 2.27640E-21-1.27055E-19
 -3
    1PSTEP                         4           1           1          
  100CL  101 1.000000000          93                     0    1           1
 -4  ERROR       1    1
 -5  STR(%)      1    1    0    0
 -1         1 3.89054E+01
 -1         2 3.91119E+01
 -1         3 2.13599E+01
 -1         4 1.66609E+01
 -1         5 2.55625E+00
 -1         6 2.28257E+00
 -1         7 1.00905E+01
 -1         8 5.26535E+00
 -1         9 9.46108E+00
 -1        10 8.07756E+00
 -1        11 1.27618E+01
 -1        12 3.84128E+00
 -1        13 3.91119E+01
 -1        14 3.91119E+01
 -1        15 2.13599E+01
 -1        16 3.89054E+01
 -1        17 7.76114E+00
 -1        18 2.55625E+00
 -1        19 2.94990E+00
 -1        20 1.92765E+01
 -1        21 3.56727E+00
 -1        22 1.00905E+01
 -1        23 7.08185E+00
 -1        24 9.46108E+00
 -1        25 8.07756E+00
 -1        26 1.27618E+01
 -1        27 8.07756E+00
 -1        28 9.46108E+00
 -1        29 1.27618E+01
 -1        30 3.91119E+01
 -1        31 7.76114E+00
 -1        32 1.92765E+01
 -1        33 7.08185E+00
 -1        34 8.07756E+00
 -1        35 1.27618E+01
 -1        36 3.91119E+01
 -1        37 3.91119E+01
 -1        38 3.91119E+01
 -1        39 3.91119E+01
 -1        40 3.02359E+01
 -1        41 2.13599E+01
 -1        42 3.02359E+01
 -1        43 3.90087E+01
 -1        44 3.89054E+01
 -1        45 3.90087E+01
 -1        46 2.77831E+01
 -1        47 1.90104E+01
 -1        48 1.45605E+01
 -1        49 7.76114E+00
 -1        50 1.45605E+01
 -1        51 5.15870E+00
 -1        52 2.55625E+00
 -1        53 5.15870E+00
 -1        54 9.80539E+00
 -1        55 5.35552E+00
 -1        56 2.61623E+00
 -1        57 2.41941E+00
 -1        58 2.90909E+01
 -1        59 1.92765E+01
 -1        60 2.90909E+01
 -1        61 1.14219E+01
 -1        62 1.01141E+01
 -1        63 1.46835E+01
 -1        64 1.00905E+01
 -1        65 1.46835E+01
 -1        66 7.67794E+00
 -1        67 4.41631E+00
 -1        68 5.32456E+00
 -1        69 5.01587E+00
 -1        70 7.08185E+00
 -1        71 4.68221E+00
 -1        72 7.36321E+00
 -1        73 8.27146E+00
 -1        74 9.46108E+00
 -1        75 8.27146E+00
 -1        76 9.08405E+00
 -1        77 8.07756E+00
 -1        78 9.08405E+00
 -1        79 1.04197E+01
 -1        80 9.01356E+00
 -1        81 8.07756E+00
 -1        82 8.07756E+00
 -1        83 8.07756E+00
 -1        84 1.04197E+01
 -1        85 1.27618E+01
 -1        86 1.27618E+01
 -1        87 1.11114E+01
 -1        88 1.11114E+01
 -1        89 9.46108E+00
 -1        90 1.27618E+01
 -1        91 1.27618E+01
 -1        92 8.30152E+00
 -1        93 6.65118E+00
 -3
 9999
