    1C
    1UHash: PXJD0WWr, Date: 03/11/2021, Unit system: MM_TON_S_C         
    1UUSER                                                              
    1UDATE              11.march.2021                                   
    1UTIME              20:42:14                                        
    1UHOST                                                              
    1UPGM               CalculiX                                        
    1UVERSION           Version 2.10                             
    1UCOMPILETIME       Sa 5. MÃ¤r 12:23:33 CET 2016                    
    1UDIR                                                               
    1UDBN                                                               
    1UMAT    1RUBBER                                                    
    2C                           890                                     1
 -1      1568 4.80000E+01 4.40000E+01 0.00000E+00
 -1      1569 4.80000E+01 4.40000E+01 5.00000E+00
 -1      1570 0.00000E+00 0.00000E+00 0.00000E+00
 -1      1571 0.00000E+00 0.00000E+00 5.00000E+00
 -1      1572 4.80000E+01 6.00000E+01 0.00000E+00
 -1      1573 4.80000E+01 6.00000E+01 5.00000E+00
 -1      1574 0.00000E+00 4.40000E+01 0.00000E+00
 -1      1575 0.00000E+00 4.40000E+01 5.00000E+00
 -1      1576 4.36364E+01 4.00000E+01 0.00000E+00
 -1      1577 3.92727E+01 3.60000E+01 0.00000E+00
 -1      1578 3.49091E+01 3.20000E+01 0.00000E+00
 -1      1579 3.05455E+01 2.80000E+01 0.00000E+00
 -1      1580 2.61818E+01 2.40000E+01 0.00000E+00
 -1      1581 2.18182E+01 2.00000E+01 0.00000E+00
 -1      1582 1.74545E+01 1.60000E+01 0.00000E+00
 -1      1583 1.30909E+01 1.20000E+01 0.00000E+00
 -1      1584 8.72727E+00 8.00000E+00 0.00000E+00
 -1      1585 4.36364E+00 4.00000E+00 0.00000E+00
 -1      1586 4.36364E+01 4.00000E+01 5.00000E+00
 -1      1587 3.92727E+01 3.60000E+01 5.00000E+00
 -1      1588 3.49091E+01 3.20000E+01 5.00000E+00
 -1      1589 3.05455E+01 2.80000E+01 5.00000E+00
 -1      1590 2.61818E+01 2.40000E+01 5.00000E+00
 -1      1591 2.18182E+01 2.00000E+01 5.00000E+00
 -1      1592 1.74545E+01 1.60000E+01 5.00000E+00
 -1      1593 1.30909E+01 1.20000E+01 5.00000E+00
 -1      1594 8.72727E+00 8.00000E+00 5.00000E+00
 -1      1595 4.36364E+00 4.00000E+00 5.00000E+00
 -1      1596 4.80000E+01 5.46667E+01 0.00000E+00
 -1      1597 4.80000E+01 4.93333E+01 0.00000E+00
 -1      1598 4.80000E+01 5.46667E+01 5.00000E+00
 -1      1599 4.80000E+01 4.93333E+01 5.00000E+00
 -1      1600 5.33333E+00 4.57778E+01 0.00000E+00
 -1      1601 1.06667E+01 4.75556E+01 0.00000E+00
 -1      1602 1.60000E+01 4.93333E+01 0.00000E+00
 -1      1603 2.13333E+01 5.11111E+01 0.00000E+00
 -1      1604 2.66667E+01 5.28889E+01 0.00000E+00
 -1      1605 3.20000E+01 5.46667E+01 0.00000E+00
 -1      1606 3.73333E+01 5.64444E+01 0.00000E+00
 -1      1607 4.26667E+01 5.82222E+01 0.00000E+00
 -1      1608 5.33333E+00 4.57778E+01 5.00000E+00
 -1      1609 1.06667E+01 4.75556E+01 5.00000E+00
 -1      1610 1.60000E+01 4.93333E+01 5.00000E+00
 -1      1611 2.13333E+01 5.11111E+01 5.00000E+00
 -1      1612 2.66667E+01 5.28889E+01 5.00000E+00
 -1      1613 3.20000E+01 5.46667E+01 5.00000E+00
 -1      1614 3.73333E+01 5.64444E+01 5.00000E+00
 -1      1615 4.26667E+01 5.82222E+01 5.00000E+00
 -1      1616 0.00000E+00 6.28571E+00 0.00000E+00
 -1      1617 0.00000E+00 1.25714E+01 0.00000E+00
 -1      1618 0.00000E+00 1.88571E+01 0.00000E+00
 -1      1619 0.00000E+00 2.51429E+01 0.00000E+00
 -1      1620 0.00000E+00 3.14286E+01 0.00000E+00
 -1      1621 0.00000E+00 3.77143E+01 0.00000E+00
 -1      1622 0.00000E+00 6.28571E+00 5.00000E+00
 -1      1623 0.00000E+00 1.25714E+01 5.00000E+00
 -1      1624 0.00000E+00 1.88571E+01 5.00000E+00
 -1      1625 0.00000E+00 2.51429E+01 5.00000E+00
 -1      1626 0.00000E+00 3.14286E+01 5.00000E+00
 -1      1627 0.00000E+00 3.77143E+01 5.00000E+00
 -1      1628 4.25522E+01 4.64581E+01 0.00000E+00
 -1      1629 3.35498E+01 3.77493E+01 0.00000E+00
 -1      1630 2.51093E+01 2.99939E+01 0.00000E+00
 -1      1631 1.62723E+01 2.24504E+01 0.00000E+00
 -1      1632 8.24325E+00 1.41262E+01 0.00000E+00
 -1      1633 3.73817E+00 1.53903E+01 0.00000E+00
 -1      1634 5.14726E+00 2.78644E+01 0.00000E+00
 -1      1635 4.69256E+00 4.00632E+01 0.00000E+00
 -1      1636 1.51309E+01 4.32275E+01 0.00000E+00
 -1      1637 2.58440E+01 4.70978E+01 0.00000E+00
 -1      1638 3.71250E+01 5.02228E+01 0.00000E+00
 -1      1639 4.23875E+00 9.99835E+00 0.00000E+00
 -1      1640 4.25575E+01 5.24822E+01 0.00000E+00
 -1      1641 3.69271E+01 4.31867E+01 0.00000E+00
 -1      1642 2.95315E+01 3.34789E+01 0.00000E+00
 -1      1643 2.06835E+01 2.63365E+01 0.00000E+00
 -1      1644 1.19290E+01 1.84412E+01 0.00000E+00
 -1      1645 5.82390E+00 2.08016E+01 0.00000E+00
 -1      1646 4.62419E+00 3.40527E+01 0.00000E+00
 -1      1647 9.92739E+00 4.17520E+01 0.00000E+00
 -1      1648 2.03904E+01 4.52491E+01 0.00000E+00
 -1      1649 3.15323E+01 4.85725E+01 0.00000E+00
 -1      1650 1.97109E+01 3.27050E+01 0.00000E+00
 -1      1651 1.06546E+01 2.49252E+01 0.00000E+00
 -1      1652 9.87661E+00 3.13032E+01 0.00000E+00
 -1      1653 2.46680E+01 4.15603E+01 0.00000E+00
 -1      1654 3.03406E+01 4.29916E+01 0.00000E+00
 -1      1655 2.43158E+01 3.57621E+01 0.00000E+00
 -1      1656 2.85017E+01 3.83368E+01 0.00000E+00
 -1      1657 1.95881E+01 3.90948E+01 0.00000E+00
 -1      1658 8.78510E+00 3.66642E+01 0.00000E+00
 -1      1659 1.52231E+01 2.89724E+01 0.00000E+00
 -1      1660 1.42155E+01 3.62576E+01 0.00000E+00
 -1      1661 8.52215E+00 1.37205E+01 5.00000E+00
 -1      1662 1.62939E+01 2.22249E+01 5.00000E+00
 -1      1663 2.50781E+01 2.98710E+01 5.00000E+00
 -1      1664 3.33231E+01 3.82333E+01 5.00000E+00
 -1      1665 4.26263E+01 4.62704E+01 5.00000E+00
 -1      1666 4.24174E+01 5.23232E+01 5.00000E+00
 -1      1667 3.07989E+01 4.96092E+01 5.00000E+00
 -1      1668 2.09102E+01 4.49189E+01 5.00000E+00
 -1      1669 1.00073E+01 4.16939E+01 5.00000E+00
 -1      1670 4.71862E+00 4.00435E+01 5.00000E+00
 -1      1671 4.94682E+00 2.79924E+01 5.00000E+00
 -1      1672 4.10531E+00 1.59927E+01 5.00000E+00
 -1      1673 4.28577E+00 1.00908E+01 5.00000E+00
 -1      1674 1.25727E+01 1.78670E+01 5.00000E+00
 -1      1675 2.06494E+01 2.61884E+01 5.00000E+00
 -1      1676 2.92937E+01 3.40051E+01 5.00000E+00
 -1      1677 3.78743E+01 4.24122E+01 5.00000E+00
 -1      1678 3.65864E+01 4.94468E+01 5.00000E+00
 -1      1679 2.62363E+01 4.70325E+01 5.00000E+00
 -1      1680 1.53560E+01 4.30852E+01 5.00000E+00
 -1      1681 4.60199E+00 3.40485E+01 5.00000E+00
 -1      1682 4.47681E+00 2.20456E+01 5.00000E+00
 -1      1683 3.19549E+01 4.43122E+01 5.00000E+00
 -1      1684 1.96505E+01 3.24258E+01 5.00000E+00
 -1      1685 2.00128E+01 3.88268E+01 5.00000E+00
 -1      1686 2.66176E+01 4.04732E+01 5.00000E+00
 -1      1687 9.79752E+00 3.11260E+01 5.00000E+00
 -1      1688 8.81349E+00 3.65874E+01 5.00000E+00
 -1      1689 1.51030E+01 2.86694E+01 5.00000E+00
 -1      1690 2.41353E+01 3.52181E+01 5.00000E+00
 -1      1691 1.43033E+01 3.60900E+01 5.00000E+00
 -1      1692 1.02936E+01 2.42313E+01 5.00000E+00
 -1      1693 8.05268E+00 1.88652E+01 5.00000E+00
 -1      1694 4.54484E+01 4.65039E+01 2.48874E+00
 -1      1695 3.28025E+00 7.89106E+00 2.51083E+00
 -1      1696 2.05987E+00 4.71888E+00 2.50004E+00
 -1      1697 4.10915E+01 5.50709E+01 2.50981E+00
 -1      1698 4.48875E+01 5.56357E+01 2.50887E+00
 -1      1699 2.50425E+00 1.37339E+01 2.59297E+00
 -1      1700 3.83577E+01 3.93650E+01 2.52722E+00
 -1      1701 1.29933E+01 4.54197E+01 2.50384E+00
 -1      1702 2.87985E+00 4.17234E+01 2.49798E+00
 -1      1703 8.45418E+00 1.09211E+01 2.47266E+00
 -1      1704 3.11755E+01 3.17901E+01 2.53329E+00
 -1      1705 1.91390E+01 2.12434E+01 2.49140E+00
 -1      1706 2.45820E+00 2.34296E+01 2.46314E+00
 -1      1707 3.31962E+01 5.15829E+01 2.46183E+00
 -1      1708 4.27768E+01 4.31431E+01 2.49550E+00
 -1      1709 4.52046E+01 5.08385E+01 2.50611E+00
 -1      1710 2.36716E+01 4.90072E+01 2.52106E+00
 -1      1711 2.35648E+00 2.80590E+01 2.49071E+00
 -1      1712 1.56587E+01 1.83730E+01 2.45233E+00
 -1      1713 3.04673E+00 1.87734E+01 2.47454E+00
 -1      1714 3.43236E+01 3.51113E+01 2.51890E+00
 -1      1715 1.20938E+01 1.52372E+01 2.43144E+00
 -1      1716 2.76604E+01 2.88880E+01 2.50417E+00
 -1      1717 2.48094E+00 3.73372E+01 2.50197E+00
 -1      1718 2.33932E+01 2.50730E+01 2.49121E+00
 -1      1719 7.69925E+00 4.37580E+01 2.50218E+00
 -1      1720 1.82859E+01 4.71924E+01 2.51375E+00
 -1      1721 2.88869E+01 5.08098E+01 2.46403E+00
 -1      1722 3.71530E+01 5.32597E+01 2.50862E+00
 -1      1723 2.36068E+00 3.27171E+01 2.50586E+00
 -1      1724 4.80000E+01 4.40000E+01 2.50000E+00
 -1      1725 0.00000E+00 0.00000E+00 2.50000E+00
 -1      1726 4.58182E+01 4.20000E+01 0.00000E+00
 -1      1727 4.14545E+01 3.80000E+01 0.00000E+00
 -1      1728 3.70909E+01 3.40000E+01 0.00000E+00
 -1      1729 3.27273E+01 3.00000E+01 0.00000E+00
 -1      1730 2.83636E+01 2.60000E+01 0.00000E+00
 -1      1731 2.40000E+01 2.20000E+01 0.00000E+00
 -1      1732 1.96364E+01 1.80000E+01 0.00000E+00
 -1      1733 1.52727E+01 1.40000E+01 0.00000E+00
 -1      1734 1.09091E+01 1.00000E+01 0.00000E+00
 -1      1735 6.54545E+00 6.00000E+00 0.00000E+00
 -1      1736 2.18182E+00 2.00000E+00 0.00000E+00
 -1      1737 4.58182E+01 4.20000E+01 5.00000E+00
 -1      1738 4.14545E+01 3.80000E+01 5.00000E+00
 -1      1739 3.70909E+01 3.40000E+01 5.00000E+00
 -1      1740 3.27273E+01 3.00000E+01 5.00000E+00
 -1      1741 2.83636E+01 2.60000E+01 5.00000E+00
 -1      1742 2.40000E+01 2.20000E+01 5.00000E+00
 -1      1743 1.96364E+01 1.80000E+01 5.00000E+00
 -1      1744 1.52727E+01 1.40000E+01 5.00000E+00
 -1      1745 1.09091E+01 1.00000E+01 5.00000E+00
 -1      1746 6.54545E+00 6.00000E+00 5.00000E+00
 -1      1747 2.18182E+00 2.00000E+00 5.00000E+00
 -1      1748 4.80000E+01 6.00000E+01 2.50000E+00
 -1      1749 4.80000E+01 5.73333E+01 0.00000E+00
 -1      1750 4.80000E+01 5.20000E+01 0.00000E+00
 -1      1751 4.80000E+01 4.66667E+01 0.00000E+00
 -1      1752 4.80000E+01 5.73333E+01 5.00000E+00
 -1      1753 4.80000E+01 5.20000E+01 5.00000E+00
 -1      1754 4.80000E+01 4.66667E+01 5.00000E+00
 -1      1755 0.00000E+00 4.40000E+01 2.50000E+00
 -1      1756 2.66667E+00 4.48889E+01 0.00000E+00
 -1      1757 8.00000E+00 4.66667E+01 0.00000E+00
 -1      1758 1.33333E+01 4.84444E+01 0.00000E+00
 -1      1759 1.86667E+01 5.02222E+01 0.00000E+00
 -1      1760 2.40000E+01 5.20000E+01 0.00000E+00
 -1      1761 2.93333E+01 5.37778E+01 0.00000E+00
 -1      1762 3.46667E+01 5.55556E+01 0.00000E+00
 -1      1763 4.00000E+01 5.73333E+01 0.00000E+00
 -1      1764 4.53333E+01 5.91111E+01 0.00000E+00
 -1      1765 2.66667E+00 4.48889E+01 5.00000E+00
 -1      1766 8.00000E+00 4.66667E+01 5.00000E+00
 -1      1767 1.33333E+01 4.84444E+01 5.00000E+00
 -1      1768 1.86667E+01 5.02222E+01 5.00000E+00
 -1      1769 2.40000E+01 5.20000E+01 5.00000E+00
 -1      1770 2.93333E+01 5.37778E+01 5.00000E+00
 -1      1771 3.46667E+01 5.55556E+01 5.00000E+00
 -1      1772 4.00000E+01 5.73333E+01 5.00000E+00
 -1      1773 4.53333E+01 5.91111E+01 5.00000E+00
 -1      1774 0.00000E+00 3.14286E+00 0.00000E+00
 -1      1775 0.00000E+00 9.42857E+00 0.00000E+00
 -1      1776 0.00000E+00 1.57143E+01 0.00000E+00
 -1      1777 0.00000E+00 2.20000E+01 0.00000E+00
 -1      1778 0.00000E+00 2.82857E+01 0.00000E+00
 -1      1779 0.00000E+00 3.45714E+01 0.00000E+00
 -1      1780 0.00000E+00 4.08571E+01 0.00000E+00
 -1      1781 0.00000E+00 3.14286E+00 5.00000E+00
 -1      1782 0.00000E+00 9.42857E+00 5.00000E+00
 -1      1783 0.00000E+00 1.57143E+01 5.00000E+00
 -1      1784 0.00000E+00 2.20000E+01 5.00000E+00
 -1      1785 0.00000E+00 2.82857E+01 5.00000E+00
 -1      1786 0.00000E+00 3.45714E+01 5.00000E+00
 -1      1787 0.00000E+00 4.08571E+01 5.00000E+00
 -1      1788 4.58182E+01 4.20000E+01 2.50000E+00
 -1      1789 3.92727E+01 3.60000E+01 2.50000E+00
 -1      1790 4.14545E+01 3.80000E+01 2.50000E+00
 -1      1791 3.49091E+01 3.20000E+01 2.50000E+00
 -1      1792 3.70909E+01 3.40000E+01 2.50000E+00
 -1      1793 3.05455E+01 2.80000E+01 2.50000E+00
 -1      1794 3.27273E+01 3.00000E+01 2.50000E+00
 -1      1795 2.83636E+01 2.60000E+01 2.50000E+00
 -1      1796 2.40000E+01 2.20000E+01 2.50000E+00
 -1      1797 2.61818E+01 2.40000E+01 2.50000E+00
 -1      1798 1.96364E+01 1.80000E+01 2.50000E+00
 -1      1799 2.18182E+01 2.00000E+01 2.50000E+00
 -1      1800 1.30909E+01 1.20000E+01 2.50000E+00
 -1      1801 1.52727E+01 1.40000E+01 2.50000E+00
 -1      1802 8.72727E+00 8.00000E+00 2.50000E+00
 -1      1803 1.09091E+01 1.00000E+01 2.50000E+00
 -1      1804 4.36364E+00 4.00000E+00 2.50000E+00
 -1      1805 6.54545E+00 6.00000E+00 2.50000E+00
 -1      1806 2.18182E+00 2.00000E+00 2.50000E+00
 -1      1807 4.36364E+01 4.00000E+01 2.50000E+00
 -1      1808 1.74545E+01 1.60000E+01 2.50000E+00
 -1      1809 4.80000E+01 5.73333E+01 2.50000E+00
 -1      1810 4.80000E+01 5.20000E+01 2.50000E+00
 -1      1811 4.80000E+01 5.46667E+01 2.50000E+00
 -1      1812 4.80000E+01 4.66667E+01 2.50000E+00
 -1      1813 4.80000E+01 4.93333E+01 2.50000E+00
 -1      1814 2.66667E+00 4.48889E+01 2.50000E+00
 -1      1815 1.06667E+01 4.75556E+01 2.50000E+00
 -1      1816 8.00000E+00 4.66667E+01 2.50000E+00
 -1      1817 1.60000E+01 4.93333E+01 2.50000E+00
 -1      1818 1.33333E+01 4.84444E+01 2.50000E+00
 -1      1819 2.13333E+01 5.11111E+01 2.50000E+00
 -1      1820 1.86667E+01 5.02222E+01 2.50000E+00
 -1      1821 2.66667E+01 5.28889E+01 2.50000E+00
 -1      1822 2.40000E+01 5.20000E+01 2.50000E+00
 -1      1823 3.20000E+01 5.46667E+01 2.50000E+00
 -1      1824 2.93333E+01 5.37778E+01 2.50000E+00
 -1      1825 3.46667E+01 5.55556E+01 2.50000E+00
 -1      1826 3.73333E+01 5.64444E+01 2.50000E+00
 -1      1827 4.26667E+01 5.82222E+01 2.50000E+00
 -1      1828 4.00000E+01 5.73333E+01 2.50000E+00
 -1      1829 4.53333E+01 5.91111E+01 2.50000E+00
 -1      1830 5.33333E+00 4.57778E+01 2.50000E+00
 -1      1831 0.00000E+00 3.14286E+00 2.50000E+00
 -1      1832 0.00000E+00 1.25714E+01 2.50000E+00
 -1      1833 0.00000E+00 9.42857E+00 2.50000E+00
 -1      1834 0.00000E+00 1.88571E+01 2.50000E+00
 -1      1835 0.00000E+00 1.57143E+01 2.50000E+00
 -1      1836 0.00000E+00 2.51429E+01 2.50000E+00
 -1      1837 0.00000E+00 2.20000E+01 2.50000E+00
 -1      1838 0.00000E+00 3.14286E+01 2.50000E+00
 -1      1839 0.00000E+00 2.82857E+01 2.50000E+00
 -1      1840 0.00000E+00 3.77143E+01 2.50000E+00
 -1      1841 0.00000E+00 3.45714E+01 2.50000E+00
 -1      1842 0.00000E+00 4.08571E+01 2.50000E+00
 -1      1843 0.00000E+00 6.28571E+00 2.50000E+00
 -1      1844 4.30943E+01 4.32291E+01 0.00000E+00
 -1      1845 4.52761E+01 4.52291E+01 0.00000E+00
 -1      1846 3.42294E+01 3.48746E+01 0.00000E+00
 -1      1847 3.64113E+01 3.68746E+01 0.00000E+00
 -1      1848 2.56455E+01 2.69969E+01 0.00000E+00
 -1      1849 2.78274E+01 2.89969E+01 0.00000E+00
 -1      1850 1.68634E+01 1.92252E+01 0.00000E+00
 -1      1851 1.90452E+01 2.12252E+01 0.00000E+00
 -1      1852 8.48526E+00 1.10631E+01 0.00000E+00
 -1      1853 1.06671E+01 1.30631E+01 0.00000E+00
 -1      1854 2.18182E+00 5.14286E+00 0.00000E+00
 -1      1855 1.86908E+00 1.71237E+01 0.00000E+00
 -1      1856 1.86908E+00 1.39808E+01 0.00000E+00
 -1      1857 2.57363E+00 2.96465E+01 0.00000E+00
 -1      1858 2.57363E+00 2.65036E+01 0.00000E+00
 -1      1859 2.34628E+00 4.20316E+01 0.00000E+00
 -1      1860 2.34628E+00 3.88887E+01 0.00000E+00
 -1      1861 5.01295E+00 4.29205E+01 0.00000E+00
 -1      1862 1.55655E+01 4.62804E+01 0.00000E+00
 -1      1863 1.28988E+01 4.53915E+01 0.00000E+00
 -1      1864 2.62553E+01 4.99934E+01 0.00000E+00
 -1      1865 2.35887E+01 4.91045E+01 0.00000E+00
 -1      1866 3.72292E+01 5.33336E+01 0.00000E+00
 -1      1867 3.45625E+01 5.24447E+01 0.00000E+00
 -1      1868 4.53333E+01 5.64444E+01 0.00000E+00
 -1      1869 4.52761E+01 4.78957E+01 0.00000E+00
 -1      1870 2.11938E+00 8.14203E+00 0.00000E+00
 -1      1871 4.30119E+00 6.99918E+00 0.00000E+00
 -1      1872 6.48301E+00 8.99918E+00 0.00000E+00
 -1      1873 2.11938E+00 1.12849E+01 0.00000E+00
 -1      1874 4.52788E+01 5.35745E+01 0.00000E+00
 -1      1875 4.26121E+01 5.53522E+01 0.00000E+00
 -1      1876 3.80999E+01 3.95934E+01 0.00000E+00
 -1      1877 4.02817E+01 4.15934E+01 0.00000E+00
 -1      1878 3.00385E+01 3.07395E+01 0.00000E+00
 -1      1879 3.22203E+01 3.27394E+01 0.00000E+00
 -1      1880 2.12509E+01 2.31683E+01 0.00000E+00
 -1      1881 2.34327E+01 2.51683E+01 0.00000E+00
 -1      1882 1.25099E+01 1.52206E+01 0.00000E+00
 -1      1883 1.46918E+01 1.72206E+01 0.00000E+00
 -1      1884 3.52385E+01 4.04680E+01 0.00000E+00
 -1      1885 4.52788E+01 5.09078E+01 0.00000E+00
 -1      1886 3.99454E+01 5.44633E+01 0.00000E+00
 -1      1887 2.91195E+00 2.29722E+01 0.00000E+00
 -1      1888 2.91195E+00 1.98294E+01 0.00000E+00
 -1      1889 2.31209E+00 3.58835E+01 0.00000E+00
 -1      1890 2.31209E+00 3.27406E+01 0.00000E+00
 -1      1891 1.02970E+01 4.46538E+01 0.00000E+00
 -1      1892 7.63036E+00 4.37649E+01 0.00000E+00
 -1      1893 2.08618E+01 4.81801E+01 0.00000E+00
 -1      1894 1.81952E+01 4.72912E+01 0.00000E+00
 -1      1895 3.17662E+01 5.16196E+01 0.00000E+00
 -1      1896 2.90995E+01 5.07307E+01 0.00000E+00
 -1      1897 3.97396E+01 4.48224E+01 0.00000E+00
 -1      1898 4.78104E+00 1.80959E+01 0.00000E+00
 -1      1899 2.73204E+01 3.17364E+01 0.00000E+00
 -1      1900 4.25548E+01 4.94702E+01 0.00000E+00
 -1      1901 3.98412E+01 5.13525E+01 0.00000E+00
 -1      1902 3.98846E+00 1.26943E+01 0.00000E+00
 -1      1903 3.15407E+01 3.56141E+01 0.00000E+00
 -1      1904 2.28964E+01 2.81652E+01 0.00000E+00
 -1      1905 1.41006E+01 2.04458E+01 0.00000E+00
 -1      1906 4.88572E+00 3.09585E+01 0.00000E+00
 -1      1907 7.30997E+00 4.09076E+01 0.00000E+00
 -1      1908 2.86882E+01 4.78352E+01 0.00000E+00
 -1      1909 1.84779E+01 2.43934E+01 0.00000E+00
 -1      1910 1.00861E+01 1.62837E+01 0.00000E+00
 -1      1911 2.31172E+01 4.61735E+01 0.00000E+00
 -1      1912 3.43287E+01 4.93976E+01 0.00000E+00
 -1      1913 1.25292E+01 4.24898E+01 0.00000E+00
 -1      1914 4.65837E+00 3.70579E+01 0.00000E+00
 -1      1915 5.48558E+00 2.43330E+01 0.00000E+00
 -1      1916 1.77607E+01 4.42383E+01 0.00000E+00
 -1      1917 3.98386E+01 4.83405E+01 0.00000E+00
 -1      1918 2.01972E+01 2.95207E+01 0.00000E+00
 -1      1919 2.24101E+01 3.13494E+01 0.00000E+00
 -1      1920 1.12918E+01 2.16832E+01 0.00000E+00
 -1      1921 1.34635E+01 2.36878E+01 0.00000E+00
 -1      1922 7.25040E+00 3.26779E+01 0.00000E+00
 -1      1923 7.51193E+00 2.95838E+01 0.00000E+00
 -1      1924 2.52560E+01 4.43291E+01 0.00000E+00
 -1      1925 2.25292E+01 4.34047E+01 0.00000E+00
 -1      1926 3.19452E+01 4.03704E+01 0.00000E+00
 -1      1927 3.36339E+01 4.30891E+01 0.00000E+00
 -1      1928 2.47126E+01 3.28780E+01 0.00000E+00
 -1      1929 2.69237E+01 3.46205E+01 0.00000E+00
 -1      1930 2.20134E+01 3.42335E+01 0.00000E+00
 -1      1931 2.90166E+01 3.59078E+01 0.00000E+00
 -1      1932 3.10257E+01 3.80430E+01 0.00000E+00
 -1      1933 2.94211E+01 4.06642E+01 0.00000E+00
 -1      1934 2.64088E+01 3.70494E+01 0.00000E+00
 -1      1935 1.99892E+01 4.21719E+01 0.00000E+00
 -1      1936 1.73595E+01 4.11611E+01 0.00000E+00
 -1      1937 2.21281E+01 4.03275E+01 0.00000E+00
 -1      1938 7.90095E+00 2.63948E+01 0.00000E+00
 -1      1939 8.23927E+00 2.28634E+01 0.00000E+00
 -1      1940 3.09365E+01 4.57820E+01 0.00000E+00
 -1      1941 2.80923E+01 4.50447E+01 0.00000E+00
 -1      1942 3.70260E+01 4.67047E+01 0.00000E+00
 -1      1943 6.73883E+00 3.83637E+01 0.00000E+00
 -1      1944 6.70464E+00 3.53584E+01 0.00000E+00
 -1      1945 9.33086E+00 3.39837E+01 0.00000E+00
 -1      1946 9.35624E+00 3.92081E+01 0.00000E+00
 -1      1947 3.42297E+01 4.58796E+01 0.00000E+00
 -1      1948 1.57477E+01 2.57114E+01 0.00000E+00
 -1      1949 1.79533E+01 2.76545E+01 0.00000E+00
 -1      1950 1.29389E+01 2.69488E+01 0.00000E+00
 -1      1951 1.46732E+01 3.97425E+01 0.00000E+00
 -1      1952 1.20714E+01 3.90048E+01 0.00000E+00
 -1      1953 1.15003E+01 3.64609E+01 0.00000E+00
 -1      1954 1.69018E+01 3.76762E+01 0.00000E+00
 -1      1955 6.24100E+00 1.20623E+01 0.00000E+00
 -1      1956 5.99071E+00 1.47582E+01 0.00000E+00
 -1      1957 1.74670E+01 3.08387E+01 0.00000E+00
 -1      1958 1.02656E+01 2.81142E+01 0.00000E+00
 -1      1959 8.87644E+00 1.96214E+01 0.00000E+00
 -1      1960 7.03358E+00 1.74639E+01 0.00000E+00
 -1      1961 2.75043E+01 4.22759E+01 0.00000E+00
 -1      1962 1.25499E+01 3.01378E+01 0.00000E+00
 -1      1963 1.20461E+01 3.37804E+01 0.00000E+00
 -1      1964 1.47193E+01 3.26150E+01 0.00000E+00
 -1      1965 2.44919E+01 3.86612E+01 0.00000E+00
 -1      1966 2.19520E+01 3.74284E+01 0.00000E+00
 -1      1967 1.96495E+01 3.58999E+01 0.00000E+00
 -1      1968 1.69632E+01 3.44813E+01 0.00000E+00
 -1      1969 2.65849E+01 3.99485E+01 0.00000E+00
 -1      1970 2.18182E+00 5.14286E+00 5.00000E+00
 -1      1971 1.08065E+01 1.28603E+01 5.00000E+00
 -1      1972 8.62471E+00 1.08603E+01 5.00000E+00
 -1      1973 1.90560E+01 2.11125E+01 5.00000E+00
 -1      1974 1.68742E+01 1.91125E+01 5.00000E+00
 -1      1975 2.78118E+01 2.89355E+01 5.00000E+00
 -1      1976 2.56300E+01 2.69355E+01 5.00000E+00
 -1      1977 3.62979E+01 3.71167E+01 5.00000E+00
 -1      1978 3.41161E+01 3.51167E+01 5.00000E+00
 -1      1979 4.53132E+01 4.51352E+01 5.00000E+00
 -1      1980 4.31313E+01 4.31352E+01 5.00000E+00
 -1      1981 4.53132E+01 4.78019E+01 5.00000E+00
 -1      1982 4.53333E+01 5.64444E+01 5.00000E+00
 -1      1983 3.98753E+01 5.43838E+01 5.00000E+00
 -1      1984 4.25420E+01 5.52727E+01 5.00000E+00
 -1      1985 2.87328E+01 5.12490E+01 5.00000E+00
 -1      1986 3.13995E+01 5.21379E+01 5.00000E+00
 -1      1987 1.84551E+01 4.71261E+01 5.00000E+00
 -1      1988 2.11218E+01 4.80150E+01 5.00000E+00
 -1      1989 7.67031E+00 4.37358E+01 5.00000E+00
 -1      1990 1.03370E+01 4.46247E+01 5.00000E+00
 -1      1991 2.35931E+00 4.20217E+01 5.00000E+00
 -1      1992 5.02597E+00 4.29106E+01 5.00000E+00
 -1      1993 7.36295E+00 4.08687E+01 5.00000E+00
 -1      1994 2.35931E+00 3.88789E+01 5.00000E+00
 -1      1995 2.47341E+00 2.65676E+01 5.00000E+00
 -1      1996 2.47341E+00 2.97105E+01 5.00000E+00
 -1      1997 2.05266E+00 1.42820E+01 5.00000E+00
 -1      1998 2.05266E+00 1.74249E+01 5.00000E+00
 -1      1999 2.14288E+00 8.18827E+00 5.00000E+00
 -1      2000 2.14288E+00 1.13311E+01 5.00000E+00
 -1      2001 4.19554E+00 1.30417E+01 5.00000E+00
 -1      2002 4.32470E+00 7.04541E+00 5.00000E+00
 -1      2003 4.52087E+01 5.34949E+01 5.00000E+00
 -1      2004 1.28318E+01 1.49335E+01 5.00000E+00
 -1      2005 1.05474E+01 1.57938E+01 5.00000E+00
 -1      2006 1.50136E+01 1.69335E+01 5.00000E+00
 -1      2007 6.50652E+00 9.04541E+00 5.00000E+00
 -1      2008 1.44333E+01 2.00460E+01 5.00000E+00
 -1      2009 2.34156E+01 2.50942E+01 5.00000E+00
 -1      2010 2.12338E+01 2.30942E+01 5.00000E+00
 -1      2011 3.21014E+01 3.30026E+01 5.00000E+00
 -1      2012 2.99196E+01 3.10026E+01 5.00000E+00
 -1      2013 4.07553E+01 4.12061E+01 5.00000E+00
 -1      2014 3.85735E+01 3.92061E+01 5.00000E+00
 -1      2015 4.52087E+01 5.08283E+01 5.00000E+00
 -1      2016 3.69599E+01 5.29456E+01 5.00000E+00
 -1      2017 3.95019E+01 5.08850E+01 5.00000E+00
 -1      2018 3.42932E+01 5.20567E+01 5.00000E+00
 -1      2019 3.36927E+01 4.95280E+01 5.00000E+00
 -1      2020 2.37848E+01 4.90718E+01 5.00000E+00
 -1      2021 2.64515E+01 4.99607E+01 5.00000E+00
 -1      2022 1.30113E+01 4.53204E+01 5.00000E+00
 -1      2023 1.56780E+01 4.62093E+01 5.00000E+00
 -1      2024 2.30100E+00 3.27386E+01 5.00000E+00
 -1      2025 2.30100E+00 3.58814E+01 5.00000E+00
 -1      2026 2.23840E+00 2.04514E+01 5.00000E+00
 -1      2027 2.23840E+00 2.35942E+01 5.00000E+00
 -1      2028 4.29106E+00 1.90191E+01 5.00000E+00
 -1      2029 1.84717E+01 2.42067E+01 5.00000E+00
 -1      2030 2.71859E+01 3.19381E+01 5.00000E+00
 -1      2031 3.55987E+01 4.03227E+01 5.00000E+00
 -1      2032 1.81331E+01 4.40020E+01 5.00000E+00
 -1      2033 4.71181E+00 2.50190E+01 5.00000E+00
 -1      2034 4.66030E+00 3.70460E+01 5.00000E+00
 -1      2035 4.02503E+01 4.43413E+01 5.00000E+00
 -1      2036 3.13084E+01 3.61192E+01 5.00000E+00
 -1      2037 2.28638E+01 2.80297E+01 5.00000E+00
 -1      2038 4.25218E+01 4.92968E+01 5.00000E+00
 -1      2039 2.85176E+01 4.83208E+01 5.00000E+00
 -1      2040 1.26817E+01 4.23895E+01 5.00000E+00
 -1      2041 2.35732E+01 4.59757E+01 5.00000E+00
 -1      2042 4.77440E+00 3.10205E+01 5.00000E+00
 -1      2043 6.40396E+00 1.19057E+01 5.00000E+00
 -1      2044 3.96064E+01 4.78586E+01 5.00000E+00
 -1      2045 3.49146E+01 4.33622E+01 5.00000E+00
 -1      2046 3.26390E+01 4.12728E+01 5.00000E+00
 -1      2047 2.23643E+01 3.11484E+01 5.00000E+00
 -1      2048 2.01499E+01 2.93071E+01 5.00000E+00
 -1      2049 1.76844E+01 4.09560E+01 5.00000E+00
 -1      2050 2.04615E+01 4.18728E+01 5.00000E+00
 -1      2051 2.99703E+01 3.93533E+01 5.00000E+00
 -1      2052 2.79557E+01 3.72392E+01 5.00000E+00
 -1      2053 2.92863E+01 4.23927E+01 5.00000E+00
 -1      2054 2.90956E+01 4.56724E+01 5.00000E+00
 -1      2055 3.13769E+01 4.69607E+01 5.00000E+00
 -1      2056 3.42707E+01 4.68795E+01 5.00000E+00
 -1      2057 7.37217E+00 2.95592E+01 5.00000E+00
 -1      2058 7.19975E+00 3.25873E+01 5.00000E+00
 -1      2059 2.37639E+01 4.26960E+01 5.00000E+00
 -1      2060 2.64269E+01 4.37528E+01 5.00000E+00
 -1      2061 3.72304E+01 4.59295E+01 5.00000E+00
 -1      2062 6.76605E+00 3.83155E+01 5.00000E+00
 -1      2063 9.41039E+00 3.91407E+01 5.00000E+00
 -1      2064 6.70774E+00 3.53180E+01 5.00000E+00
 -1      2065 1.78762E+01 2.74289E+01 5.00000E+00
 -1      2066 1.56984E+01 2.54471E+01 5.00000E+00
 -1      2067 1.73767E+01 3.05476E+01 5.00000E+00
 -1      2068 2.67145E+01 3.46116E+01 5.00000E+00
 -1      2069 2.46067E+01 3.25446E+01 5.00000E+00
 -1      2070 2.53764E+01 3.78456E+01 5.00000E+00
 -1      2071 2.18929E+01 3.38219E+01 5.00000E+00
 -1      2072 1.21553E+01 3.88919E+01 5.00000E+00
 -1      2073 1.48296E+01 3.95876E+01 5.00000E+00
 -1      2074 1.71580E+01 3.74584E+01 5.00000E+00
 -1      2075 1.15584E+01 3.63387E+01 5.00000E+00
 -1      2076 7.38522E+00 2.31384E+01 5.00000E+00
 -1      2077 7.62023E+00 2.61118E+01 5.00000E+00
 -1      2078 9.30550E+00 3.38567E+01 5.00000E+00
 -1      2079 6.31373E+00 1.48566E+01 5.00000E+00
 -1      2080 1.26983E+01 2.64503E+01 5.00000E+00
 -1      2081 1.32938E+01 2.32281E+01 5.00000E+00
 -1      2082 6.07900E+00 1.74289E+01 5.00000E+00
 -1      2083 6.26475E+00 2.04554E+01 5.00000E+00
 -1      2084 9.17316E+00 2.15482E+01 5.00000E+00
 -1      2085 8.28742E+00 1.62928E+01 5.00000E+00
 -1      2086 1.00456E+01 2.76786E+01 5.00000E+00
 -1      2087 1.14332E+01 2.10492E+01 5.00000E+00
 -1      2088 2.20740E+01 3.70224E+01 5.00000E+00
 -1      2089 1.98316E+01 3.56263E+01 5.00000E+00
 -1      2090 2.33152E+01 3.96500E+01 5.00000E+00
 -1      2091 1.69769E+01 3.42579E+01 5.00000E+00
 -1      2092 1.03127E+01 1.83661E+01 5.00000E+00
 -1      2093 1.24502E+01 2.98977E+01 5.00000E+00
 -1      2094 1.47031E+01 3.23797E+01 5.00000E+00
 -1      2095 1.20504E+01 3.36080E+01 5.00000E+00
 -1      2096 3.67568E+01 4.63167E+01 2.50000E+00
 -1      2097 3.44410E+01 4.37495E+01 2.50000E+00
 -1      2098 3.74007E+01 4.27994E+01 2.50000E+00
 -1      2099 2.06665E+01 2.62625E+01 2.50000E+00
 -1      2100 2.28808E+01 2.81038E+01 2.50000E+00
 -1      2101 2.01670E+01 2.93811E+01 2.50000E+00
 -1      2102 1.67084E+01 4.52099E+01 1.25687E+00
 -1      2103 1.56396E+01 4.63061E+01 2.50880E+00
 -1      2104 1.40621E+01 4.43236E+01 1.25192E+00
 -1      2105 1.71429E+01 4.82629E+01 1.25687E+00
 -1      2106 1.44966E+01 4.73765E+01 1.25192E+00
 -1      2107 3.98519E+01 4.31649E+01 1.24775E+00
 -1      2108 4.03255E+01 4.27776E+01 3.74775E+00
 -1      2109 3.97767E+01 4.47286E+01 2.50000E+00
 -1      2110 4.27015E+01 4.47068E+01 3.74775E+00
 -1      2111 3.54147E+00 3.56929E+01 3.75098E+00
 -1      2112 2.42081E+00 3.50272E+01 2.50391E+00
 -1      2113 3.48133E+00 3.33828E+01 3.75293E+00
 -1      2114 4.61309E+00 3.40506E+01 2.50000E+00
 -1      2115 3.55256E+00 3.56950E+01 1.25098E+00
 -1      2116 3.49243E+00 3.33849E+01 1.25293E+00
 -1      2117 2.50937E+01 2.99324E+01 2.50000E+00
 -1      2118 2.23799E+01 3.12098E+01 2.50000E+00
 -1      2119 2.60401E+01 4.70652E+01 2.50000E+00
 -1      2120 2.54521E+01 4.42964E+01 2.50000E+00
 -1      2121 2.27891E+01 4.32396E+01 2.50000E+00
 -1      2122 2.33771E+01 4.60084E+01 2.50000E+00
 -1      2123 1.22910E+00 2.11434E+01 1.23157E+00
 -1      2124 4.14105E+00 2.21156E+01 1.23157E+00
 -1      2125 4.43532E+00 1.97875E+01 1.23727E+00
 -1      2126 1.52337E+00 1.88153E+01 1.23727E+00
 -1      2127 2.75246E+00 2.11015E+01 2.46884E+00
 -1      2128 3.97712E+01 5.12730E+01 2.50000E+00
 -1      2129 3.68557E+01 4.98348E+01 2.50000E+00
 -1      2130 3.98756E+01 4.82466E+01 2.50000E+00
 -1      2131 8.79929E+00 3.66258E+01 2.50000E+00
 -1      2132 9.34505E+00 3.39453E+01 2.50000E+00
 -1      2133 6.71884E+00 3.53201E+01 2.50000E+00
 -1      2134 4.25892E+01 4.63643E+01 2.50000E+00
 -1      2135 1.78932E+01 2.75029E+01 2.50000E+00
 -1      2136 1.18034E+00 3.52157E+01 3.75293E+00
 -1      2137 1.24047E+00 3.75258E+01 3.75098E+00
 -1      2138 1.25212E+00 1.62955E+01 3.79648E+00
 -1      2139 1.25212E+00 1.62955E+01 1.29648E+00
 -1      2140 2.77549E+00 1.62537E+01 2.53375E+00
 -1      2141 1.52337E+00 1.88153E+01 3.73727E+00
 -1      2142 7.21085E+00 3.25893E+01 2.50000E+00
 -1      2143 1.51630E+01 2.88209E+01 2.50000E+00
 -1      2144 1.74368E+01 3.06991E+01 2.50000E+00
 -1      2145 1.47632E+01 3.25312E+01 2.50000E+00
 -1      2146 1.56876E+01 2.55599E+01 2.50000E+00
 -1      2147 1.32830E+01 2.33408E+01 2.50000E+00
 -1      2148 1.62831E+01 2.23376E+01 2.50000E+00
 -1      2149 1.98619E+01 3.57659E+01 2.50000E+00
 -1      2150 2.19231E+01 3.39615E+01 2.50000E+00
 -1      2151 1.96807E+01 3.25654E+01 2.50000E+00
 -1      2152 1.28788E+01 2.67973E+01 2.50000E+00
 -1      2153 1.02261E+01 2.80256E+01 2.50000E+00
 -1      2154 1.04741E+01 2.45783E+01 2.50000E+00
 -1      2155 4.26645E+01 4.48006E+01 1.24775E+00
 -1      2156 4.32066E+01 4.15716E+01 1.24775E+00
 -1      2157 4.09970E+01 3.96825E+01 1.26361E+00
 -1      2158 3.88152E+01 3.76825E+01 1.26361E+00
 -1      2159 3.76424E+01 4.12758E+01 1.26361E+00
 -1      2160 4.09970E+01 3.96825E+01 3.76361E+00
 -1      2161 3.75397E+00 3.02908E+01 1.25293E+00
 -1      2162 1.18034E+00 3.20729E+01 1.25293E+00
 -1      2163 2.35858E+00 3.03881E+01 2.49829E+00
 -1      2164 3.75187E+00 2.79617E+01 1.24536E+00
 -1      2165 1.17824E+00 2.97438E+01 1.24536E+00
 -1      2166 1.24047E+00 3.75258E+01 1.25098E+00
 -1      2167 1.18034E+00 3.52157E+01 1.25293E+00
 -1      2168 3.30478E+00 1.48633E+01 3.79648E+00
 -1      2169 1.25212E+00 1.31527E+01 3.79648E+00
 -1      2170 3.39501E+00 1.19124E+01 3.79648E+00
 -1      2171 3.25981E+01 5.31248E+01 3.73092E+00
 -1      2172 3.19976E+01 5.05960E+01 3.73092E+00
 -1      2173 3.48913E+01 5.05148E+01 3.73092E+00
 -1      2174 7.56572E+00 2.34854E+01 2.50000E+00
 -1      2175 9.35366E+00 2.18952E+01 2.50000E+00
 -1      2176 4.87462E+00 3.09565E+01 2.50000E+00
 -1      2177 5.04704E+00 2.79284E+01 2.50000E+00
 -1      2178 7.47239E+00 2.94952E+01 2.50000E+00
 -1      2179 2.56428E+01 4.10167E+01 2.50000E+00
 -1      2180 2.23404E+01 4.01935E+01 2.50000E+00
 -1      2181 1.98005E+01 3.89608E+01 2.50000E+00
 -1      2182 2.02492E+01 4.20068E+01 2.50000E+00
 -1      2183 3.88152E+01 3.76825E+01 3.76361E+00
 -1      2184 1.84609E+01 2.43194E+01 2.50000E+00
 -1      2185 2.40734E+00 2.57443E+01 2.47693E+00
 -1      2186 3.80273E+00 2.56470E+01 1.23157E+00
 -1      2187 3.70251E+00 2.57110E+01 3.73157E+00
 -1      2188 3.65165E+00 2.80257E+01 3.74536E+00
 -1      2189 9.83707E+00 3.12146E+01 2.50000E+00
 -1      2190 1.25103E+01 3.00492E+01 2.50000E+00
 -1      2191 1.20899E+01 3.36966E+01 2.50000E+00
 -1      2192 9.18296E+00 4.56568E+01 3.75109E+00
 -1      2193 6.51629E+00 4.47679E+01 3.75109E+00
 -1      2194 8.85327E+00 4.27259E+01 3.75109E+00
 -1      2195 3.02283E+01 4.13245E+01 2.50000E+00
 -1      2196 2.75596E+01 3.94050E+01 2.50000E+00
 -1      2197 3.09124E+01 3.82850E+01 2.50000E+00
 -1      2198 6.93829E+00 1.98334E+01 2.50000E+00
 -1      2199 5.15036E+00 2.14236E+01 2.50000E+00
 -1      2200 1.07725E+01 1.14605E+01 1.23633E+00
 -1      2201 8.34871E+00 1.25236E+01 1.23633E+00
 -1      2202 8.59073E+00 9.46053E+00 1.23633E+00
 -1      2203 2.88843E+01 4.78025E+01 2.50000E+00
 -1      2204 3.17436E+01 4.64424E+01 2.50000E+00
 -1      2205 3.11656E+01 4.90908E+01 2.50000E+00
 -1      2206 2.88977E+01 3.61709E+01 2.50000E+00
 -1      2207 3.14218E+01 3.58772E+01 2.50000E+00
 -1      2208 3.34364E+01 3.79913E+01 2.50000E+00
 -1      2209 1.74721E+01 4.10900E+01 2.50000E+00
 -1      2210 3.51251E+01 4.07100E+01 2.50000E+00
 -1      2211 3.27524E+01 4.10308E+01 2.50000E+00
 -1      2212 1.47858E+01 3.96714E+01 2.50000E+00
 -1      2213 1.52435E+01 4.31564E+01 2.50000E+00
 -1      2214 2.46223E+01 3.26060E+01 2.50000E+00
 -1      2215 6.75186E+00 3.83538E+01 2.50000E+00
 -1      2216 9.39619E+00 3.91790E+01 2.50000E+00
 -1      2217 2.94126E+01 3.37420E+01 2.50000E+00
 -1      2218 1.07725E+01 1.14605E+01 3.73633E+00
 -1      2219 1.47742E+01 1.56186E+01 1.21572E+00
 -1      2220 1.20114E+01 1.68392E+01 1.21572E+00
 -1      2221 1.65566E+01 1.71865E+01 1.22617E+00
 -1      2222 1.38763E+01 1.68051E+01 2.44189E+00
 -1      2223 1.37938E+01 1.84071E+01 1.22617E+00
 -1      2224 2.06503E+01 4.50840E+01 2.50000E+00
 -1      2225 1.25924E+01 1.36186E+01 1.21572E+00
 -1      2226 1.47742E+01 1.56186E+01 3.71572E+00
 -1      2227 1.25924E+01 1.36186E+01 3.71572E+00
 -1      2228 3.08605E+01 2.98951E+01 1.26664E+00
 -1      2229 3.30423E+01 3.18951E+01 3.76664E+00
 -1      2230 3.08605E+01 2.98951E+01 3.76664E+00
 -1      2231 3.65375E+00 3.03548E+01 3.75293E+00
 -1      2232 1.15145E+01 3.64225E+01 2.50000E+00
 -1      2233 1.64013E+00 1.02312E+01 3.75541E+00
 -1      2234 1.64013E+00 1.02312E+01 1.25541E+00
 -1      2235 1.64013E+00 7.08839E+00 3.75541E+00
 -1      2236 3.67982E+01 3.55556E+01 3.75945E+00
 -1      2237 3.46164E+01 3.35556E+01 3.75945E+00
 -1      2238 3.46164E+01 3.35556E+01 1.25945E+00
 -1      2239 1.42594E+01 3.61738E+01 2.50000E+00
 -1      2240 2.09788E+01 4.80998E+01 2.51740E+00
 -1      2241 1.95980E+01 4.60556E+01 3.75687E+00
 -1      2242 2.22909E+01 4.69630E+01 3.76053E+00
 -1      2243 2.20310E+01 4.71281E+01 1.26053E+00
 -1      2244 1.93381E+01 4.62207E+01 1.25687E+00
 -1      2245 6.17428E+00 1.50594E+01 2.50000E+00
 -1      2246 6.26451E+00 1.21085E+01 2.50000E+00
 -1      2247 8.38270E+00 1.39233E+01 2.50000E+00
 -1      2248 1.77056E+01 2.18469E+01 1.24570E+00
 -1      2249 2.04786E+01 2.06217E+01 1.24570E+00
 -1      2250 1.82968E+01 1.86217E+01 1.24570E+00
 -1      2251 1.01685E+01 1.46817E+01 1.21572E+00
 -1      2252 8.59073E+00 9.46053E+00 3.73633E+00
 -1      2253 6.20893E+00 4.19007E+01 3.75109E+00
 -1      2254 4.10659E+00 4.37506E+01 3.74899E+00
 -1      2255 3.79924E+00 4.08834E+01 3.74899E+00
 -1      2256 5.28955E+00 4.27407E+01 2.50008E+00
 -1      2257 2.82884E+01 4.50120E+01 2.50000E+00
 -1      2258 3.11478E+01 4.36519E+01 2.50000E+00
 -1      2259 2.84791E+01 4.17324E+01 2.50000E+00
 -1      2260 2.20384E+01 2.57048E+01 1.24560E+00
 -1      2261 2.12661E+01 2.31582E+01 2.49131E+00
 -1      2262 1.99113E+01 2.37900E+01 1.24570E+00
 -1      2263 2.20213E+01 2.56307E+01 3.74560E+00
 -1      2264 1.98942E+01 2.37159E+01 3.74570E+00
 -1      2265 1.18034E+00 3.20729E+01 3.75293E+00
 -1      2266 2.26057E+01 2.25365E+01 3.74560E+00
 -1      2267 2.47875E+01 2.45365E+01 1.24560E+00
 -1      2268 2.47875E+01 2.45365E+01 3.74560E+00
 -1      2269 1.70071E+01 3.43975E+01 2.50000E+00
 -1      2270 6.34647E+00 1.04597E+01 1.23633E+00
 -1      2271 1.65566E+01 1.71865E+01 3.72617E+00
 -1      2272 5.37375E+00 1.39301E+01 1.29648E+00
 -1      2273 3.37150E+00 1.18661E+01 1.29648E+00
 -1      2274 4.26226E+00 1.00446E+01 2.50000E+00
 -1      2275 4.67140E+00 3.70481E+01 2.50000E+00
 -1      2276 1.25212E+00 1.31527E+01 1.29648E+00
 -1      2277 2.44017E+01 3.83892E+01 2.50000E+00
 -1      2278 1.25691E+01 4.24607E+01 2.50000E+00
 -1      2279 1.21114E+01 3.89757E+01 2.50000E+00
 -1      2280 9.96734E+00 4.17230E+01 2.50000E+00
 -1      2281 3.40594E+01 4.90096E+01 2.50000E+00
 -1      2282 2.72015E+01 3.19995E+01 2.50000E+00
 -1      2283 1.69457E+01 3.75924E+01 2.50000E+00
 -1      2284 2.69211E+01 2.64440E+01 3.75208E+00
 -1      2285 2.55268E+01 2.69805E+01 2.49769E+00
 -1      2286 2.63693E+01 2.93795E+01 3.75208E+00
 -1      2287 2.42357E+01 2.74720E+01 3.74560E+00
 -1      2288 3.51606E+01 5.09028E+01 1.23092E+00
 -1      2289 3.23643E+01 5.00777E+01 1.23092E+00
 -1      2290 3.25981E+01 5.31248E+01 1.23092E+00
 -1      2291 3.59978E+00 3.86903E+01 3.75098E+00
 -1      2292 7.32300E+00 4.08978E+01 2.50000E+00
 -1      2293 9.18296E+00 4.56568E+01 1.25109E+00
 -1      2294 2.42256E+01 3.54901E+01 2.50000E+00
 -1      2295 2.21643E+01 3.72944E+01 2.50000E+00
 -1      2296 1.98096E+01 4.91517E+01 3.75687E+00
 -1      2297 1.71429E+01 4.82629E+01 3.75687E+00
 -1      2298 1.18300E+01 4.64876E+01 3.75192E+00
 -1      2299 1.18300E+01 4.64876E+01 1.25192E+00
 -1      2300 2.75616E+01 4.89211E+01 3.73202E+00
 -1      2301 3.02096E+01 4.96912E+01 1.23202E+00
 -1      2302 2.98429E+01 5.02095E+01 3.73202E+00
 -1      2303 2.63185E+01 3.67774E+01 2.50000E+00
 -1      2304 3.67982E+01 3.55556E+01 1.25945E+00
 -1      2305 3.63406E+01 3.72381E+01 2.52306E+00
 -1      2306 2.42512E+01 2.75334E+01 1.24560E+00
 -1      2307 2.63848E+01 2.94409E+01 1.25208E+00
 -1      2308 1.44966E+01 4.73765E+01 3.75192E+00
 -1      2309 5.54971E+00 1.88193E+01 3.73727E+00
 -1      2310 3.39245E+00 1.70819E+01 1.23727E+00
 -1      2311 5.89543E+00 1.71277E+01 2.50000E+00
 -1      2312 1.03463E+01 4.45889E+01 2.50301E+00
 -1      2313 1.15003E+01 4.35568E+01 3.75192E+00
 -1      2314 1.22910E+00 2.42862E+01 3.73157E+00
 -1      2315 1.17824E+00 2.66009E+01 3.74536E+00
 -1      2316 1.22910E+00 2.42862E+01 1.23157E+00
 -1      2317 1.22910E+00 2.11434E+01 3.73157E+00
 -1      2318 6.51629E+00 4.47679E+01 1.25109E+00
 -1      2319 8.81332E+00 4.27550E+01 1.25109E+00
 -1      2320 3.72432E+01 5.48521E+01 3.75431E+00
 -1      2321 3.68697E+01 5.13533E+01 3.75431E+00
 -1      2322 3.97852E+01 5.27915E+01 3.75431E+00
 -1      2323 3.46750E+00 2.27376E+01 3.73157E+00
 -1      2324 4.10659E+00 4.37506E+01 1.24899E+00
 -1      2325 1.68210E+01 4.51388E+01 3.75687E+00
 -1      2326 3.38234E+01 3.66723E+01 3.75945E+00
 -1      2327 3.04435E+01 5.27382E+01 1.23202E+00
 -1      2328 3.10416E+01 5.11964E+01 2.46293E+00
 -1      2329 1.64013E+00 7.08839E+00 1.25541E+00
 -1      2330 3.30423E+01 3.18951E+01 1.26664E+00
 -1      2331 3.78301E+00 8.99094E+00 3.75541E+00
 -1      2332 1.11113E+01 2.13363E+01 2.50000E+00
 -1      2333 3.76177E+00 2.04095E+01 3.73727E+00
 -1      2334 3.57602E+00 1.73831E+01 3.73727E+00
 -1      2335 2.91029E+01 2.84440E+01 1.25208E+00
 -1      2336 2.69211E+01 2.64440E+01 1.25208E+00
 -1      2337 1.00733E+01 1.70512E+01 3.71572E+00
 -1      2338 1.03080E+01 1.44788E+01 3.71572E+00
 -1      2339 1.23333E+01 1.65521E+01 3.71572E+00
 -1      2340 6.19590E+00 4.19106E+01 1.25109E+00
 -1      2341 3.78621E+00 4.08933E+01 1.24899E+00
 -1      2342 7.80073E+00 2.64588E+01 2.50000E+00
 -1      2343 1.59655E+01 2.04117E+01 1.22617E+00
 -1      2344 2.26057E+01 2.25365E+01 1.24560E+00
 -1      2345 3.59537E+01 3.85571E+01 1.26361E+00
 -1      2346 1.43993E+00 4.28617E+01 1.24899E+00
 -1      2347 2.91029E+01 2.84440E+01 3.75208E+00
 -1      2348 2.84771E+01 3.14466E+01 3.75208E+00
 -1      2349 9.99082E+00 1.86532E+01 2.50000E+00
 -1      2350 8.14796E+00 1.64957E+01 2.50000E+00
 -1      2351 3.02346E+01 3.28976E+01 3.76664E+00
 -1      2352 4.70559E+00 4.00533E+01 2.50000E+00
 -1      2353 1.82968E+01 1.86217E+01 3.74570E+00
 -1      2354 3.27496E+01 3.34507E+01 2.52609E+00
 -1      2355 1.17824E+00 2.97438E+01 3.74536E+00
 -1      2356 2.85960E+01 3.11835E+01 1.25208E+00
 -1      2357 2.68048E+01 3.48836E+01 2.50000E+00
 -1      2358 1.78732E+01 4.41672E+01 2.50000E+00
 -1      2359 2.25025E+01 5.00591E+01 3.76053E+00
 -1      2360 2.49539E+01 4.80198E+01 3.76053E+00
 -1      2361 3.12121E+00 1.45621E+01 1.29648E+00
 -1      2362 3.91223E+01 5.41653E+01 2.50921E+00
 -1      2363 4.17544E+01 5.36970E+01 3.75490E+00
 -1      2364 3.92124E+01 5.57577E+01 3.75490E+00
 -1      2365 1.43993E+00 4.28617E+01 3.74899E+00
 -1      2366 1.41157E+01 1.81200E+01 3.72617E+00
 -1      2367 2.73655E+01 4.89538E+01 1.23202E+00
 -1      2368 2.77768E+01 5.18494E+01 1.23202E+00
 -1      2369 1.22508E+01 1.81541E+01 2.50000E+00
 -1      2370 3.45765E+01 5.39632E+01 3.75431E+00
 -1      2371 3.51746E+01 5.24213E+01 2.48523E+00
 -1      2372 8.48817E+00 1.23208E+01 3.73633E+00
 -1      2373 6.36997E+00 1.05059E+01 3.73633E+00
 -1      2374 3.81160E+01 4.08886E+01 3.76361E+00
 -1      2375 3.58404E+01 3.87992E+01 3.76361E+00
 -1      2376 1.41114E+01 2.03331E+01 2.50000E+00
 -1      2377 3.98553E+01 5.28710E+01 1.25431E+00
 -1      2378 3.71390E+01 5.17413E+01 1.25431E+00
 -1      2379 3.72432E+01 5.48521E+01 1.25431E+00
 -1      2380 1.17824E+00 2.66009E+01 1.24536E+00
 -1      2381 4.24848E+01 4.93907E+01 2.50000E+00
 -1      2382 4.81203E+00 2.49550E+01 2.50000E+00
 -1      2383 2.89225E+00 1.08125E+01 2.55190E+00
 -1      2384 3.75950E+00 8.94470E+00 1.25541E+00
 -1      2385 3.18087E+01 3.45582E+01 3.75945E+00
 -1      2386 2.04786E+01 2.06217E+01 3.74570E+00
 -1      2387 6.00376E+00 7.94553E+00 1.25541E+00
 -1      2388 5.86722E+00 9.40606E+00 2.49174E+00
 -1      2389 6.00376E+00 7.94553E+00 3.75541E+00
 -1      2390 3.92174E+00 1.56915E+01 2.50000E+00
 -1      2391 1.41746E+01 4.42525E+01 3.75192E+00
 -1      2392 4.67242E+01 4.79186E+01 1.24437E+00
 -1      2393 4.67242E+01 4.52520E+01 3.74437E+00
 -1      2394 4.67242E+01 4.52520E+01 1.24437E+00
 -1      2395 4.53884E+01 4.35716E+01 3.74775E+00
 -1      2396 4.32066E+01 4.15716E+01 3.74775E+00
 -1      2397 4.53884E+01 4.35716E+01 1.24775E+00
 -1      2398 2.62793E+01 4.99085E+01 2.49254E+00
 -1      2399 2.47578E+01 4.80525E+01 1.26053E+00
 -1      2400 4.38784E+01 4.86483E+01 1.25306E+00
 -1      2401 4.66023E+01 5.00859E+01 1.25306E+00
 -1      2402 4.40003E+01 4.64810E+01 1.24437E+00
 -1      2403 4.53265E+01 4.86712E+01 2.49742E+00
 -1      2404 2.51691E+01 5.09480E+01 3.76053E+00
 -1      2405 3.82194E+00 5.94553E+00 3.75541E+00
 -1      2406 3.82194E+00 5.94553E+00 1.25541E+00
 -1      2407 3.21175E+00 4.35944E+00 1.25002E+00
 -1      2408 1.02993E+00 2.35944E+00 3.75002E+00
 -1      2409 1.02993E+00 2.35944E+00 1.25002E+00
 -1      2410 3.21175E+00 4.35944E+00 3.75002E+00
 -1      2411 1.02993E+00 5.50230E+00 3.75002E+00
 -1      2412 1.02993E+00 5.50230E+00 1.25002E+00
 -1      2413 4.64438E+01 5.78179E+01 1.25444E+00
 -1      2414 4.37771E+01 5.69290E+01 3.75444E+00
 -1      2415 4.64438E+01 5.78179E+01 3.75444E+00
 -1      2416 4.37771E+01 5.69290E+01 1.25444E+00
 -1      2417 4.18791E+01 5.66466E+01 3.75490E+00
 -1      2418 4.29895E+01 5.53533E+01 2.50934E+00
 -1      2419 4.18791E+01 5.66466E+01 1.25490E+00
 -1      2420 4.64438E+01 5.51512E+01 1.25444E+00
 -1      2421 4.37225E+01 5.40590E+01 1.25444E+00
 -1      2422 4.64438E+01 5.51512E+01 3.75444E+00
 -1      2423 4.36525E+01 5.39795E+01 3.75444E+00
 -1      2424 4.38110E+01 5.15808E+01 3.75306E+00
 -1      2425 4.66023E+01 5.00859E+01 3.75306E+00
 -1      2426 4.66023E+01 5.27526E+01 3.75306E+00
 -1      2427 4.66023E+01 5.27526E+01 1.25306E+00
 -1      2428 1.43993E+00 3.97189E+01 3.74899E+00
 -1      2429 1.43993E+00 3.97189E+01 1.24899E+00
 -1      2430 1.98096E+01 4.91517E+01 1.25687E+00
 -1      2431 3.58675E+00 3.87002E+01 1.25098E+00
 -1      2432 2.68040E+00 3.95303E+01 2.49997E+00
 -1      2433 2.25025E+01 5.00591E+01 1.26053E+00
 -1      2434 2.51691E+01 5.09480E+01 1.26053E+00
 -1      2435 3.04435E+01 5.27382E+01 3.73202E+00
 -1      2436 2.77768E+01 5.18494E+01 3.73202E+00
 -1      2437 3.45765E+01 5.39632E+01 1.25431E+00
 -1      2438 4.18245E+01 5.37766E+01 1.25490E+00
 -1      2439 3.92124E+01 5.57577E+01 1.25490E+00
 -1      2440 4.24874E+01 5.24027E+01 2.50000E+00
 -1      2441 4.41126E+01 4.48235E+01 2.49212E+00
 -1      2442 2.67006E+00 6.30497E+00 2.50543E+00
 -1      2443 4.50461E+01 5.32371E+01 2.50749E+00
 -1      2444 4.38811E+01 5.16604E+01 1.25306E+00
 -1      2445 4.67242E+01 4.79186E+01 3.74437E+00
 -1      2446 4.05672E+01 4.12540E+01 2.51136E+00
 -1      2447 4.40374E+01 4.63872E+01 3.74437E+00
 -1      2448 4.39155E+01 4.85545E+01 3.75306E+00
 -1      2449 1.14603E+01 4.35859E+01 1.25192E+00
 -1      2450 1.02740E+01 1.30791E+01 2.45205E+00
 -1      2451 2.94180E+01 3.03391E+01 2.51873E+00
 -1      2452 3.03535E+01 3.26345E+01 1.26664E+00
 -1      2453 3.19276E+01 3.42951E+01 1.25945E+00
 -1      2454 1.77165E+01 2.17342E+01 3.74570E+00
 -1      2455 1.73988E+01 1.98082E+01 2.47187E+00
 -1      2456 3.39367E+01 3.64303E+01 1.25945E+00
 -1      2457 1.59763E+01 2.02990E+01 3.72617E+00
 -3
    3C                           455                                     1
 -1      1151    6    0    1
 -2      1678      1677      1683      1641      2061      2045      2056      2096      2098      2097
 -1      1152    6    0    1
 -2      1675      1663      1643      1684      2037      2100      2099      2048      2047      2101
 -1      1153    6    0    1
 -2      1636      1701      1720      1602      2104      2103      2102      1862      2106      2105
 -1      1154    6    0    1
 -2      1641      1677      1708      1665      2098      2108      2107      2109      2035      2110
 -1      1155    6    0    1
 -2      1681      1723      1717      1646      2113      2112      2111      2114      2116      2115
 -1      1156    6    0    1
 -2      1643      1663      1630      1684      2100      2117      1904      2101      2047      2118
 -1      1157    6    0    1
 -2      1653      1679      1637      1668      2120      2119      1924      2121      2041      2122
 -1      1158    6    0    1
 -2      1645      1706      1618      1713      2124      2123      1888      2125      2127      2126
 -1      1159    6    0    1
 -2      1666      1665      1678      1638      2038      2044      2017      2128      2130      2129
 -1      1160    6    0    1
 -2      1658      1652      1688      1646      1945      2132      2131      1944      1922      2133
 -1      1161    6    0    1
 -2      1641      1665      1628      1638      2109      2134      1897      1942      2130      1917
 -1      1162    6    0    1
 -2      1643      1684      1689      1675      2101      2067      2135      2099      2048      2065
 -1      1163    6    0    1
 -2      1627      1681      1723      1717      2025      2113      2136      2137      2111      2112
 -1      1164    6    0    1
 -2      1699      1618      1624      1713      2139      1834      2138      2140      2126      2141
 -1      1165    6    0    1
 -2      1688      1646      1687      1681      2133      2142      2078      2064      2114      2058
 -1      1166    6    0    1
 -2      1689      1684      1659      1691      2067      2144      2143      2094      2091      2145
 -1      1167    6    0    1
 -2      1692      1631      1689      1662      2147      2146      2080      2081      2148      2066
 -1      1168    6    0    1
 -2      1650      1690      1685      1684      2150      2088      2149      2151      2071      2089
 -1      1169    6    0    1
 -2      1687      1651      1689      1692      2153      2152      2093      2086      2154      2080
 -1      1170    6    0    1
 -2      1576      1708      1628      1641      2156      2155      1844      1877      2107      1897
 -1      1171    6    0    1
 -2      1576      1577      1700      1641      1727      2158      2157      1877      1876      2159
 -1      1172    6    0    1
 -2      1700      1577      1576      1586      2158      1727      2157      2160      1790      1807
 -1      1173    6    0    1
 -2      1723      1620      1634      1711      2162      1857      2161      2163      2165      2164
 -1      1174    6    0    1
 -2      1643      1630      1650      1684      1904      1919      1918      2101      2118      2151
 -1      1175    6    0    1
 -2      1717      1723      1621      1646      2112      2167      2166      2115      2116      1889
 -1      1176    6    0    1
 -2      1672      1673      1623      1699      2001      2000      1997      2168      2170      2169
 -1      1177    6    0    1
 -2      1667      1707      1613      1678      2172      2171      1986      2019      2173      2018
 -1      1178    6    0    1
 -2      1682      1693      1651      1692      2083      2175      2174      2076      2084      2154
 -1      1179    6    0    1
 -2      1681      1671      1634      1687      2042      2177      2176      2058      2057      2178
 -1      1180    6    0    1
 -2      1621      1723      1620      1646      2167      2162      1779      1889      2116      1890
 -1      1181    6    0    1
 -2      1686      1679      1653      1668      2060      2120      2179      2059      2041      2121
 -1      1182    6    0    1
 -2      1685      1668      1653      1657      2050      2121      2180      2181      2182      1937
 -1      1183    6    0    1
 -2      1700      1587      1577      1586      2183      1789      2158      2160      1738      1790
 -1      1184    6    0    1
 -2      1643      1675      1689      1631      2099      2065      2135      1909      2184      2146
 -1      1185    6    0    1
 -2      1706      1634      1711      1671      2186      2164      2185      2187      2177      2188
 -1      1186    6    0    1
 -2      1646      1688      1687      1652      2133      2078      2142      1922      2132      2189
 -1      1187    6    0    1
 -2      1687      1689      1659      1691      2093      2143      2190      2095      2094      2145
 -1      1188    6    0    1
 -2      1688      1691      1687      1652      2075      2095      2078      2132      2191      2189
 -1      1189    6    0    1
 -2      1608      1719      1609      1669      2193      2192      1766      1989      2194      1990
 -1      1190    6    0    1
 -2      1683      1686      1656      1664      2053      2196      2195      2046      2051      2197
 -1      1191    6    0    1
 -2      1681      1687      1634      1646      2058      2178      2176      2114      2142      1906
 -1      1192    6    0    1
 -2      1687      1691      1659      1652      2095      2145      2190      2189      2191      1962
 -1      1193    6    0    1
 -2      1693      1682      1651      1645      2083      2174      2175      2198      2199      1939
 -1      1194    6    0    1
 -2      1703      1632      1583      1584      2201      1853      2200      2202      1852      1734
 -1      1195    6    0    1
 -2      1679      1683      1649      1667      2054      2204      2203      2039      2055      2205
 -1      1196    6    0    1
 -2      1681      1646      1634      1723      2114      1906      2176      2113      2116      2161
 -1      1197    6    0    1
 -2      1656      1664      1676      1629      2197      2036      2206      1932      2208      2207
 -1      1198    6    0    1
 -2      1680      1668      1685      1657      2032      2050      2049      2209      2182      2181
 -1      1199    6    0    1
 -2      1641      1629      1664      1683      1884      2208      2210      2097      2211      2046
 -1      1200    6    0    1
 -2      1636      1680      1660      1657      2213      2212      1951      1936      2209      1954
 -1      1201    6    0    1
 -2      1650      1684      1630      1690      2151      2118      1919      2150      2071      2214
 -1      1202    6    0    1
 -2      1688      1658      1670      1669      2131      2215      2062      2063      2216      1993
 -1      1203    6    0    1
 -2      1630      1684      1663      1690      2118      2047      2117      2214      2071      2069
 -1      1204    6    0    1
 -2      1676      1642      1656      1629      2217      1931      2206      2207      1903      1932
 -1      1205    6    0    1
 -2      1703      1584      1583      1593      2202      1734      2200      2218      1803      1800
 -1      1206    6    0    1
 -2      1582      1644      1715      1712      1883      2220      2219      2221      2223      2222
 -1      1207    6    0    1
 -2      1648      1653      1637      1668      1925      1924      1911      2224      2121      2122
 -1      1208    6    0    1
 -2      1583      1593      1592      1715      1800      1744      1801      2225      2227      2226
 -1      1209    6    0    1
 -2      1579      1589      1588      1704      1793      1740      1794      2228      2230      2229
 -1      1210    6    0    1
 -2      1723      1711      1634      1671      2163      2164      2161      2231      2188      2177
 -1      1211    6    0    1
 -2      1688      1658      1660      1652      2131      1953      2232      2132      1945      1963
 -1      1212    6    0    1
 -2      1623      1617      1695      1622      1832      2234      2233      1782      1833      2235
 -1      1213    6    0    1
 -2      1588      1714      1587      1578      2237      2236      1739      1791      2238      1792
 -1      1214    6    0    1
 -2      1660      1691      1688      1652      2239      2075      2232      1963      2191      2132
 -1      1215    6    0    1
 -2      1710      1668      1720      1648      2242      2241      2240      2243      2224      2244
 -1      1216    6    0    1
 -2      1673      1632      1672      1661      2246      2245      2001      2043      2247      2079
 -1      1217    6    0    1
 -2      1687      1652      1659      1651      2189      1962      2190      2153      1958      1950
 -1      1218    6    0    1
 -2      1641      1683      1664      1677      2097      2046      2210      2098      2045      2031
 -1      1219    6    0    1
 -2      1581      1705      1631      1582      2249      2248      1851      1732      2250      1850
 -1      1220    6    0    1
 -2      1644      1632      1583      1715      1910      1853      1882      2220      2251      2225
 -1      1221    6    0    1
 -2      1683      1664      1656      1629      2046      2197      2195      2211      2208      1932
 -1      1222    6    0    1
 -2      1594      1584      1703      1593      1802      2202      2252      1745      1803      2218
 -1      1223    6    0    1
 -2      1608      1719      1670      1702      2193      2253      1992      2254      2256      2255
 -1      1224    6    0    1
 -2      1637      1653      1654      1679      1924      1961      1941      2119      2120      2257
 -1      1225    6    0    1
 -2      1683      1679      1649      1654      2054      2203      2204      2258      2257      1940
 -1      1226    6    0    1
 -2      1654      1686      1683      1679      2259      2053      2258      2257      2060      2054
 -1      1227    6    0    1
 -2      1643      1705      1718      1675      2262      2261      2260      2099      2264      2263
 -1      1228    6    0    1
 -2      1627      1626      1723      1681      1786      2265      2136      2025      2024      2113
 -1      1229    6    0    1
 -2      1683      1654      1649      1641      2258      1940      2204      2097      1927      1947
 -1      1230    6    0    1
 -2      1591      1590      1580      1718      1742      1797      1796      2266      2268      2267
 -1      1231    6    0    1
 -2      1659      1684      1650      1691      2144      2151      1957      2145      2091      2269
 -1      1232    6    0    1
 -2      1639      1632      1703      1584      1955      2201      2270      1872      1852      2202
 -1      1233    6    0    1
 -2      1582      1712      1715      1592      2221      2222      2219      1808      2271      2226
 -1      1234    6    0    1
 -2      1689      1662      1631      1675      2066      2148      2146      2065      2029      2184
 -1      1235    6    0    1
 -2      1650      1685      1691      1684      2149      2074      2269      2151      2089      2091
 -1      1236    6    0    1
 -2      1632      1673      1699      1639      2246      2170      2272      1955      2274      2273
 -1      1237    6    0    1
 -2      1670      1646      1688      1681      2275      2133      2062      2034      2114      2064
 -1      1238    6    0    1
 -2      1618      1699      1623      1617      2139      2169      1835      1776      2276      1832
 -1      1239    6    0    1
 -2      1643      1631      1689      1659      1909      2146      2135      1949      1948      2143
 -1      1240    6    0    1
 -2      1690      1686      1653      1685      2070      2179      2277      2088      2090      2180
 -1      1241    6    0    1
 -2      1636      1647      1660      1669      1913      1952      1951      2278      2280      2279
 -1      1242    6    0    1
 -2      1636      1669      1660      1680      2278      2279      1951      2213      2040      2212
 -1      1243    6    0    1
 -2      1678      1649      1641      1683      2281      1947      2096      2056      2204      2097
 -1      1244    6    0    1
 -2      1653      1668      1648      1657      2121      2224      1925      1937      2182      1935
 -1      1245    6    0    1
 -2      1643      1659      1689      1684      1949      2143      2135      2101      2144      2067
 -1      1246    6    0    1
 -2      1676      1690      1630      1663      2068      2214      2282      2030      2069      2117
 -1      1247    6    0    1
 -2      1680      1685      1691      1657      2049      2074      2073      2209      2181      2283
 -1      1248    6    0    1
 -2      1716      1718      1590      1663      2285      2268      2284      2286      2287      1976
 -1      1249    6    0    1
 -2      1638      1649      1707      1605      1912      2289      2288      1867      1895      2290
 -1      1250    6    0    1
 -2      1681      1670      1717      1627      2034      2291      2111      2025      1994      2137
 -1      1251    6    0    1
 -2      1670      1658      1647      1669      2215      1946      2292      1993      2216      2280
 -1      1252    6    0    1
 -2      1609      1719      1608      1601      2192      2193      1766      1815      2293      1816
 -1      1253    6    0    1
 -2      1687      1651      1659      1689      2153      1950      2190      2093      2152      2143
 -1      1254    6    0    1
 -2      1690      1685      1653      1655      2088      2180      2277      2294      2295      1965
 -1      1255    6    0    1
 -2      1611      1610      1720      1668      1768      2297      2296      1988      1987      2241
 -1      1256    6    0    1
 -2      1602      1701      1609      1601      2106      2298      1818      1758      2299      1815
 -1      1257    6    0    1
 -2      1679      1667      1649      1721      2039      2205      2203      2300      2302      2301
 -1      1258    6    0    1
 -2      1676      1686      1656      1690      2052      2196      2206      2068      2070      2303
 -1      1259    6    0    1
 -2      1577      1700      1714      1587      2158      2305      2304      1789      2183      2236
 -1      1260    6    0    1
 -2      1716      1630      1718      1663      2307      2306      2285      2286      2117      2287
 -1      1261    6    0    1
 -2      1701      1602      1609      1610      2106      1818      2298      2308      1817      1767
 -1      1262    6    0    1
 -2      1718      1630      1643      1663      2306      1904      2260      2287      2117      2100
 -1      1263    6    0    1
 -2      1693      1633      1713      1645      2311      2310      2309      2198      1898      2125
 -1      1264    6    0    1
 -2      1719      1701      1609      1669      2312      2298      2192      2194      2313      1990
 -1      1265    6    0    1
 -2      1706      1671      1711      1625      2187      2188      2185      2314      1995      2315
 -1      1266    6    0    1
 -2      1701      1719      1609      1601      2312      2192      2298      2299      2293      1815
 -1      1267    6    0    1
 -2      1619      1618      1706      1624      1777      2123      2316      1837      1834      2317
 -1      1268    6    0    1
 -2      1681      1646      1717      1670      2114      2115      2111      2034      2275      2291
 -1      1269    6    0    1
 -2      1719      1647      1600      1601      2319      1892      2318      2293      1891      1757
 -1      1270    6    0    1
 -2      1614      1666      1678      1722      1983      2017      2016      2320      2322      2321
 -1      1271    6    0    1
 -2      1687      1651      1634      1652      2153      1938      2178      2189      1958      1923
 -1      1272    6    0    1
 -2      1671      1625      1706      1682      1995      2314      2187      2033      2027      2323
 -1      1273    6    0    1
 -2      1600      1719      1608      1702      2318      2193      1830      2324      2256      2254
 -1      1274    6    0    1
 -2      1610      1680      1720      1668      2023      2325      2297      1987      2032      2241
 -1      1275    6    0    1
 -2      1587      1714      1588      1664      2236      2237      1739      1977      2326      1978
 -1      1276    6    0    1
 -2      1645      1706      1634      1619      2124      2186      1915      1887      2316      1858
 -1      1277    6    0    1
 -2      1605      1707      1721      1649      2290      2328      2327      1895      2289      2301
 -1      1278    6    0    1
 -2      1622      1617      1695      1616      1833      2234      2235      1843      1775      2329
 -1      1279    6    0    1
 -2      1579      1704      1588      1578      2228      2229      1794      1729      2330      1791
 -1      1280    6    0    1
 -2      1623      1622      1695      1673      1782      2235      2233      2000      1999      2331
 -1      1281    6    0    1
 -2      1692      1631      1644      1651      2147      1905      2332      2154      1921      1920
 -1      1282    6    0    1
 -2      1582      1583      1715      1644      1733      2225      2219      1883      1882      2220
 -1      1283    6    0    1
 -2      1693      1645      1713      1682      2198      2125      2309      2083      2199      2333
 -1      1284    6    0    1
 -2      1699      1713      1624      1672      2140      2141      2138      2168      2334      1998
 -1      1285    6    0    1
 -2      1670      1647      1719      1669      2292      2319      2253      1993      2280      2194
 -1      1286    6    0    1
 -2      1579      1630      1580      1716      1849      1848      1730      2335      2307      2336
 -1      1287    6    0    1
 -2      1693      1661      1715      1674      2085      2338      2337      2092      2005      2339
 -1      1288    6    0    1
 -2      1719      1600      1635      1702      2318      1861      2340      2256      2324      2341
 -1      1289    6    0    1
 -2      1671      1682      1651      1692      2033      2174      2342      2077      2076      2154
 -1      1290    6    0    1
 -2      1631      1581      1643      1705      1851      1880      1909      2248      2249      2262
 -1      1291    6    0    1
 -2      1644      1712      1582      1631      2223      2221      1883      1905      2343      1850
 -1      1292    6    0    1
 -2      1581      1705      1718      1643      2249      2261      2344      1880      2262      2260
 -1      1293    6    0    1
 -2      1577      1629      1700      1641      1847      2345      2158      1876      1884      2159
 -1      1294    6    0    1
 -2      1600      1702      1608      1574      2324      2254      1830      1756      2346      1814
 -1      1295    6    0    1
 -2      1663      1589      1716      1676      1975      2347      2286      2030      2012      2348
 -1      1296    6    0    1
 -2      1645      1632      1644      1693      1960      1910      1959      2198      2350      2349
 -1      1297    6    0    1
 -2      1588      1589      1676      1704      1740      2012      2011      2229      2230      2351
 -1      1298    6    0    1
 -2      1690      1655      1653      1656      2294      1965      2277      2303      1934      1969
 -1      1299    6    0    1
 -2      1719      1702      1635      1670      2256      2341      2340      2253      2255      2352
 -1      1300    6    0    1
 -2      1647      1658      1670      1635      1946      2215      2292      1907      1943      2352
 -1      1301    6    0    1
 -2      1706      1625      1619      1624      2314      1836      2316      2317      1784      1837
 -1      1302    6    0    1
 -2      1579      1580      1590      1716      1730      1797      1795      2335      2336      2284
 -1      1303    6    0    1
 -2      1592      1705      1581      1582      2353      2249      1798      1808      2250      1732
 -1      1304    6    0    1
 -2      1581      1643      1718      1580      1880      2260      2344      1731      1881      2267
 -1      1305    6    0    1
 -2      1683      1641      1629      1654      2097      1884      2211      2258      1927      1926
 -1      1306    6    0    1
 -2      1678      1667      1649      1683      2019      2205      2281      2056      2055      2204
 -1      1307    6    0    1
 -2      1588      1578      1704      1714      1791      2330      2229      2237      2238      2354
 -1      1308    6    0    1
 -2      1626      1671      1711      1723      1996      2188      2355      2265      2231      2163
 -1      1309    6    0    1
 -2      1642      1579      1716      1630      1878      2335      2356      1899      1849      2307
 -1      1310    6    0    1
 -2      1678      1707      1649      1667      2173      2289      2281      2019      2172      2205
 -1      1311    6    0    1
 -2      1655      1642      1676      1630      1929      2217      2357      1928      1899      2282
 -1      1312    6    0    1
 -2      1648      1668      1680      1657      2224      2032      2358      1935      2182      2209
 -1      1313    6    0    1
 -2      1710      1679      1611      1668      2360      2020      2359      2242      2041      1988
 -1      1314    6    0    1
 -2      1670      1719      1608      1669      2253      2193      1992      1993      2194      1989
 -1      1315    6    0    1
 -2      1608      1719      1600      1601      2193      2318      1830      1816      2293      1757
 -1      1316    6    0    1
 -2      1632      1639      1699      1633      1955      2273      2272      1956      1902      2361
 -1      1317    6    0    1
 -2      1650      1630      1655      1690      1919      1928      1930      2150      2214      2294
 -1      1318    6    0    1
 -2      1681      1723      1634      1671      2113      2161      2176      2042      2231      2177
 -1      1319    6    0    1
 -2      1676      1663      1630      1716      2030      2117      2282      2348      2286      2307
 -1      1320    6    0    1
 -2      1722      1614      1666      1697      2320      1983      2322      2362      2364      2363
 -1      1321    6    0    1
 -2      1702      1608      1574      1575      2254      1814      2346      2365      1765      1755
 -1      1322    6    0    1
 -2      1655      1630      1676      1690      1928      2282      2357      2294      2214      2068
 -1      1323    6    0    1
 -2      1715      1674      1592      1712      2339      2006      2226      2222      2366      2271
 -1      1324    6    0    1
 -2      1671      1692      1651      1687      2077      2154      2342      2057      2086      2153
 -1      1325    6    0    1
 -2      1660      1691      1650      1657      2239      2269      1968      1954      2283      1967
 -1      1326    6    0    1
 -2      1721      1649      1637      1604      2301      1908      2367      2368      1896      1864
 -1      1327    6    0    1
 -2      1655      1690      1676      1656      2294      2068      2357      1934      2303      2206
 -1      1328    6    0    1
 -2      1656      1686      1654      1653      2196      2259      1933      1969      2179      1961
 -1      1329    6    0    1
 -2      1653      1686      1654      1679      2179      2259      1961      2120      2060      2257
 -1      1330    6    0    1
 -2      1693      1674      1715      1644      2092      2339      2337      2349      2369      2220
 -1      1331    6    0    1
 -2      1653      1657      1655      1685      1937      1966      1965      2180      2181      2295
 -1      1332    6    0    1
 -2      1646      1670      1688      1658      2275      2062      2133      1944      2215      2131
 -1      1333    6    0    1
 -2      1618      1645      1713      1633      1888      2125      2126      1855      1898      2310
 -1      1334    6    0    1
 -2      1613      1707      1722      1678      2171      2371      2370      2018      2173      2321
 -1      1335    6    0    1
 -2      1650      1685      1655      1657      2149      2295      1930      1967      2181      1966
 -1      1336    6    0    1
 -2      1660      1659      1650      1691      1964      1957      1968      2239      2145      2269
 -1      1337    6    0    1
 -2      1690      1656      1653      1686      2303      1969      2277      2070      2196      2179
 -1      1338    6    0    1
 -2      1661      1703      1594      1673      2372      2252      1972      2043      2373      2007
 -1      1339    6    0    1
 -2      1671      1687      1651      1634      2057      2153      2342      2177      2178      1938
 -1      1340    6    0    1
 -2      1691      1685      1650      1657      2074      2149      2269      2283      2181      1967
 -1      1341    6    0    1
 -2      1649      1678      1641      1638      2281      2096      1947      1912      2129      1942
 -1      1342    6    0    1
 -2      1579      1716      1590      1589      2335      2284      1795      1793      2347      1741
 -1      1343    6    0    1
 -2      1587      1664      1677      1700      1977      2031      2014      2183      2375      2374
 -1      1344    6    0    1
 -2      1618      1633      1713      1699      1855      2310      2126      2139      2361      2140
 -1      1345    6    0    1
 -2      1683      1629      1656      1654      2211      1932      2195      2258      1926      1933
 -1      1346    6    0    1
 -2      1644      1662      1692      1674      2376      2081      2332      2369      2008      2087
 -1      1347    6    0    1
 -2      1640      1638      1722      1606      1901      2378      2377      1886      1866      2379
 -1      1348    6    0    1
 -2      1580      1630      1643      1718      1848      1904      1881      2267      2306      2260
 -1      1349    6    0    1
 -2      1692      1662      1644      1631      2081      2376      2332      2147      2148      1905
 -1      1350    6    0    1
 -2      1631      1692      1689      1651      2147      2080      2146      1921      2154      2152
 -1      1351    6    0    1
 -2      1660      1669      1647      1658      2279      2280      1952      1953      2216      1946
 -1      1352    6    0    1
 -2      1688      1669      1660      1658      2063      2279      2232      2131      2216      1953
 -1      1353    6    0    1
 -2      1715      1712      1644      1674      2222      2223      2220      2339      2366      2369
 -1      1354    6    0    1
 -2      1648      1680      1636      1657      2358      2213      1916      1935      2209      1936
 -1      1355    6    0    1
 -2      1658      1646      1670      1635      1944      2275      2215      1943      1914      2352
 -1      1356    6    0    1
 -2      1706      1619      1711      1634      2316      2380      2185      2186      1858      2164
 -1      1357    6    0    1
 -2      1703      1632      1639      1673      2201      1955      2270      2373      2246      2274
 -1      1358    6    0    1
 -2      1680      1691      1660      1657      2073      2239      2212      2209      2283      1954
 -1      1359    6    0    1
 -2      1666      1638      1628      1665      2128      1917      2381      2038      2130      2134
 -1      1360    6    0    1
 -2      1661      1632      1703      1673      2247      2201      2372      2043      2246      2373
 -1      1361    6    0    1
 -2      1613      1678      1722      1614      2018      2321      2370      1771      2016      2320
 -1      1362    6    0    1
 -2      1671      1634      1651      1682      2177      1938      2342      2033      2382      2174
 -1      1363    6    0    1
 -2      1693      1692      1644      1651      2084      2332      2349      2175      2154      1920
 -1      1364    6    0    1
 -2      1689      1651      1659      1631      2152      1950      2143      2146      1921      1948
 -1      1365    6    0    1
 -2      1645      1651      1634      1682      1939      1938      1915      2199      2174      2382
 -1      1366    6    0    1
 -2      1645      1693      1644      1651      2198      2349      1959      1939      2175      1920
 -1      1367    6    0    1
 -2      1656      1686      1676      1664      2196      2052      2206      2197      2051      2036
 -1      1368    6    0    1
 -2      1699      1673      1695      1639      2170      2331      2383      2273      2274      2384
 -1      1369    6    0    1
 -2      1645      1706      1619      1618      2124      2316      1887      1888      2123      1777
 -1      1370    6    0    1
 -2      1688      1691      1660      1669      2075      2239      2232      2063      2072      2279
 -1      1371    6    0    1
 -2      1699      1639      1695      1617      2273      2384      2383      2276      1873      2234
 -1      1372    6    0    1
 -2      1701      1720      1602      1610      2103      2105      2106      2308      2297      1817
 -1      1373    6    0    1
 -2      1633      1632      1645      1693      1956      1960      1898      2311      2350      2198
 -1      1374    6    0    1
 -2      1644      1692      1693      1674      2332      2084      2349      2369      2087      2092
 -1      1375    6    0    1
 -2      1588      1704      1676      1714      2229      2351      2011      2237      2354      2385
 -1      1376    6    0    1
 -2      1592      1591      1581      1705      1743      1799      1798      2353      2386      2249
 -1      1377    6    0    1
 -2      1584      1703      1695      1594      2202      2388      2387      1802      2252      2389
 -1      1378    6    0    1
 -2      1633      1693      1672      1632      2311      2082      2390      1956      2350      2245
 -1      1379    6    0    1
 -2      1672      1693      1661      1632      2082      2085      2079      2245      2350      2247
 -1      1380    6    0    1
 -2      1582      1592      1715      1583      1808      2226      2219      1733      1801      2225
 -1      1381    6    0    1
 -2      1643      1684      1650      1659      2101      2151      1918      1949      2144      1957
 -1      1382    6    0    1
 -2      1653      1685      1686      1668      2180      2090      2179      2121      2050      2059
 -1      1383    6    0    1
 -2      1626      1625      1711      1671      1785      2315      2355      1996      1995      2188
 -1      1384    6    0    1
 -2      1693      1644      1715      1632      2349      2220      2337      2350      1910      2251
 -1      1385    6    0    1
 -2      1687      1652      1634      1646      2189      1923      2178      2142      1922      1906
 -1      1386    6    0    1
 -2      1715      1593      1592      1674      2227      1744      2226      2339      2004      2006
 -1      1387    6    0    1
 -2      1676      1664      1588      1714      2036      1978      2011      2385      2326      2237
 -1      1388    6    0    1
 -2      1683      1654      1656      1686      2258      1933      2195      2053      2259      2196
 -1      1389    6    0    1
 -2      1659      1691      1660      1652      2145      2239      1964      1962      2191      1963
 -1      1390    6    0    1
 -2      1609      1669      1701      1680      1990      2313      2298      2022      2040      2391
 -1      1391    6    0    1
 -2      1655      1685      1650      1690      2295      2149      1930      2294      2088      2150
 -1      1392    6    0    1
 -2      1669      1691      1660      1680      2072      2239      2279      2040      2073      2212
 -1      1393    6    0    1
 -2      1682      1706      1645      1713      2323      2124      2199      2333      2127      2125
 -1      1394    6    0    1
 -2      1597      1568      1569      1694      1751      1724      1812      2392      2394      2393
 -1      1395    6    0    1
 -2      1591      1590      1718      1675      1742      2268      2266      2010      2009      2263
 -1      1396    6    0    1
 -2      1569      1568      1586      1708      1724      1788      1737      2395      2397      2396
 -1      1397    6    0    1
 -2      1721      1637      1679      1710      2367      2119      2300      2398      2399      2360
 -1      1398    6    0    1
 -2      1628      1597      1709      1694      1869      2401      2400      2402      2392      2403
 -1      1399    6    0    1
 -2      1576      1568      1628      1708      1726      1845      1844      2156      2397      2155
 -1      1400    6    0    1
 -2      1586      1568      1576      1708      1788      1726      1807      2396      2397      2156
 -1      1401    6    0    1
 -2      1679      1721      1649      1637      2300      2301      2203      2119      2367      1908
 -1      1402    6    0    1
 -2      1710      1611      1679      1612      2359      2020      2360      2404      1769      2021
 -1      1403    6    0    1
 -2      1693      1682      1713      1672      2083      2333      2309      2082      2028      2334
 -1      1404    6    0    1
 -2      1673      1594      1595      1695      2007      1746      2002      2331      2389      2405
 -1      1405    6    0    1
 -2      1673      1595      1622      1695      2002      1970      1999      2331      2405      2235
 -1      1406    6    0    1
 -2      1585      1595      1594      1695      1804      1746      1805      2406      2405      2389
 -1      1407    6    0    1
 -2      1673      1703      1594      1695      2373      2252      2007      2331      2388      2389
 -1      1408    6    0    1
 -2      1585      1570      1571      1696      1736      1725      1806      2407      2409      2408
 -1      1409    6    0    1
 -2      1585      1571      1595      1696      1806      1747      1804      2407      2408      2410
 -1      1410    6    0    1
 -2      1570      1622      1571      1696      1831      1781      1725      2409      2411      2408
 -1      1411    6    0    1
 -2      1570      1616      1622      1696      1774      1843      1831      2409      2412      2411
 -1      1412    6    0    1
 -2      1615      1698      1572      1573      2414      2413      1829      1773      2415      1748
 -1      1413    6    0    1
 -2      1615      1607      1698      1697      1827      2416      2414      2417      2419      2418
 -1      1414    6    0    1
 -2      1607      1615      1614      1697      1827      1772      1828      2419      2417      2364
 -1      1415    6    0    1
 -2      1596      1572      1607      1698      1749      1764      1868      2420      2413      2416
 -1      1416    6    0    1
 -2      1596      1607      1640      1698      1868      1875      1874      2420      2416      2421
 -1      1417    6    0    1
 -2      1596      1598      1572      1698      1811      1809      1749      2420      2422      2413
 -1      1418    6    0    1
 -2      1666      1615      1698      1697      1984      2414      2423      2363      2417      2418
 -1      1419    6    0    1
 -2      1666      1598      1599      1709      2003      1753      2015      2424      2426      2425
 -1      1420    6    0    1
 -2      1599      1598      1596      1709      1753      1811      1810      2425      2426      2427
 -1      1421    6    0    1
 -2      1597      1599      1596      1709      1813      1810      1750      2401      2425      2427
 -1      1422    6    0    1
 -2      1627      1574      1575      1702      1842      1755      1787      2428      2346      2365
 -1      1423    6    0    1
 -2      1627      1621      1574      1702      1840      1780      1842      2428      2429      2346
 -1      1424    6    0    1
 -2      1635      1574      1621      1702      1859      1780      1860      2341      2346      2429
 -1      1425    6    0    1
 -2      1602      1610      1720      1603      1817      2297      2105      1759      1820      2430
 -1      1426    6    0    1
 -2      1720      1610      1611      1603      2297      1768      2296      2430      1820      1819
 -1      1427    6    0    1
 -2      1635      1702      1717      1670      2341      2432      2431      2352      2255      2291
 -1      1428    6    0    1
 -2      1710      1648      1720      1603      2243      2244      2240      2433      1893      2430
 -1      1429    6    0    1
 -2      1604      1611      1603      1710      1822      1819      1760      2434      2359      2433
 -1      1430    6    0    1
 -2      1604      1611      1710      1612      1822      2359      2434      1821      1769      2404
 -1      1431    6    0    1
 -2      1613      1707      1721      1605      2171      2328      2435      1823      2290      2327
 -1      1432    6    0    1
 -2      1710      1637      1604      1721      2399      1864      2434      2398      2367      2368
 -1      1433    6    0    1
 -2      1605      1649      1721      1604      1895      2301      2327      1761      1896      2368
 -1      1434    6    0    1
 -2      1710      1721      1604      1612      2398      2368      2434      2404      2436      1821
 -1      1435    6    0    1
 -2      1722      1605      1614      1606      2437      1825      2320      2379      1762      1826
 -1      1436    6    0    1
 -2      1627      1717      1702      1670      2137      2432      2428      1994      2291      2255
 -1      1437    6    0    1
 -2      1640      1606      1722      1697      1886      2379      2377      2438      2439      2362
 -1      1438    6    0    1
 -2      1606      1614      1697      1607      1826      2364      2439      1763      1828      2419
 -1      1439    6    0    1
 -2      1666      1614      1615      1697      1983      1772      1984      2363      2364      2417
 -1      1440    6    0    1
 -2      1722      1614      1697      1606      2320      2364      2362      2379      1826      2439
 -1      1441    6    0    1
 -2      1635      1717      1646      1670      2431      2115      1914      2352      2291      2275
 -1      1442    6    0    1
 -2      1639      1585      1695      1616      1871      2406      2384      1870      1854      2329
 -1      1443    6    0    1
 -2      1625      1711      1619      1620      2315      2380      1836      1839      2165      1778
 -1      1444    6    0    1
 -2      1626      1625      1620      1711      1785      1839      1838      2355      2315      2165
 -1      1445    6    0    1
 -2      1634      1619      1711      1620      1858      2380      2164      1857      1778      2165
 -1      1446    6    0    1
 -2      1640      1697      1722      1666      2438      2362      2377      2440      2363      2322
 -1      1447    6    0    1
 -2      1627      1717      1723      1621      2137      2112      2136      1840      2166      2167
 -1      1448    6    0    1
 -2      1671      1626      1681      1723      1996      2024      2042      2231      2265      2113
 -1      1449    6    0    1
 -2      1621      1626      1620      1723      1841      1838      1779      2167      2265      2162
 -1      1450    6    0    1
 -2      1723      1646      1634      1620      2116      1906      2161      2162      1890      1857
 -1      1451    6    0    1
 -2      1635      1621      1646      1717      1860      1889      1914      2431      2166      2115
 -1      1452    6    0    1
 -2      1605      1638      1722      1707      1867      2378      2437      2290      2288      2371
 -1      1453    6    0    1
 -2      1627      1621      1723      1626      1840      2167      2136      1786      1841      2265
 -1      1454    6    0    1
 -2      1568      1708      1569      1694      2397      2395      1724      2394      2441      2393
 -1      1455    6    0    1
 -2      1628      1597      1694      1568      1869      2392      2402      1845      1751      2394
 -1      1456    6    0    1
 -2      1584      1594      1695      1585      1802      2389      2387      1735      1805      2406
 -1      1457    6    0    1
 -2      1695      1585      1595      1696      2406      1804      2405      2442      2407      2410
 -1      1458    6    0    1
 -2      1678      1707      1722      1638      2173      2371      2321      2129      2288      2378
 -1      1459    6    0    1
 -2      1666      1697      1698      1640      2363      2418      2423      2440      2438      2421
 -1      1460    6    0    1
 -2      1698      1709      1666      1640      2443      2424      2423      2421      2444      2440
 -1      1461    6    0    1
 -2      1596      1709      1598      1698      2427      2426      1811      2420      2443      2422
 -1      1462    6    0    1
 -2      1597      1599      1709      1694      1813      2425      2401      2392      2445      2403
 -1      1463    6    0    1
 -2      1606      1607      1697      1640      1763      2419      2439      1886      1875      2438
 -1      1464    6    0    1
 -2      1640      1666      1722      1638      2440      2322      2377      1901      2128      2378
 -1      1465    6    0    1
 -2      1626      1711      1620      1723      2355      2165      1838      2265      2163      2162
 -1      1466    6    0    1
 -2      1607      1697      1640      1698      2419      2438      1875      2416      2418      2421
 -1      1467    6    0    1
 -2      1622      1595      1571      1696      1970      1747      1781      2411      2410      2408
 -1      1468    6    0    1
 -2      1570      1585      1616      1696      1736      1854      1774      2409      2407      2412
 -1      1469    6    0    1
 -2      1628      1568      1694      1708      1845      2394      2402      2155      2397      2441
 -1      1470    6    0    1
 -2      1663      1675      1718      1590      2037      2263      2287      1976      2009      2268
 -1      1471    6    0    1
 -2      1677      1700      1708      1586      2374      2446      2108      2013      2160      2396
 -1      1472    6    0    1
 -2      1569      1708      1665      1694      2395      2110      1979      2393      2441      2447
 -1      1473    6    0    1
 -2      1638      1605      1722      1606      1867      2437      2378      1866      1762      2379
 -1      1474    6    0    1
 -2      1722      1666      1678      1638      2322      2017      2321      2378      2128      2129
 -1      1475    6    0    1
 -2      1622      1696      1695      1595      2411      2442      2235      1970      2410      2405
 -1      1476    6    0    1
 -2      1572      1698      1598      1573      2413      2422      1809      1748      2415      1752
 -1      1477    6    0    1
 -2      1615      1572      1698      1607      1829      2413      2414      1827      1764      2416
 -1      1478    6    0    1
 -2      1694      1665      1628      1708      2447      2134      2402      2441      2110      2155
 -1      1479    6    0    1
 -2      1666      1598      1698      1615      2003      2422      2423      1984      1982      2414
 -1      1480    6    0    1
 -2      1709      1666      1665      1599      2424      2038      2448      2425      2015      1981
 -1      1481    6    0    1
 -2      1694      1597      1599      1569      2392      1813      2445      2393      1812      1754
 -1      1482    6    0    1
 -2      1709      1599      1665      1694      2425      1981      2448      2403      2445      2447
 -1      1483    6    0    1
 -2      1613      1605      1721      1612      1823      2327      2435      1770      1824      2436
 -1      1484    6    0    1
 -2      1694      1569      1599      1665      2393      1754      2445      2447      1979      1981
 -1      1485    6    0    1
 -2      1666      1665      1628      1709      2038      2134      2381      2424      2448      2400
 -1      1486    6    0    1
 -2      1708      1700      1677      1641      2446      2374      2108      2107      2159      2098
 -1      1487    6    0    1
 -2      1649      1721      1667      1707      2301      2302      2205      2289      2328      2172
 -1      1488    6    0    1
 -2      1706      1625      1711      1619      2314      2315      2185      2316      1836      2380
 -1      1489    6    0    1
 -2      1677      1586      1708      1665      2013      2396      2108      2035      1980      2110
 -1      1490    6    0    1
 -2      1721      1710      1679      1612      2398      2360      2300      2436      2404      2021
 -1      1491    6    0    1
 -2      1628      1694      1709      1665      2402      2403      2400      2134      2447      2448
 -1      1492    6    0    1
 -2      1666      1709      1628      1640      2424      2400      2381      2440      2444      1900
 -1      1493    6    0    1
 -2      1721      1612      1679      1667      2436      2021      2300      2302      1985      2039
 -1      1494    6    0    1
 -2      1632      1633      1699      1672      1956      2361      2272      2245      2390      2168
 -1      1495    6    0    1
 -2      1618      1633      1699      1617      1855      2361      2139      1776      1856      2276
 -1      1496    6    0    1
 -2      1618      1706      1624      1713      2123      2317      1834      2126      2127      2141
 -1      1497    6    0    1
 -2      1632      1672      1699      1673      2245      2168      2272      2246      2001      2170
 -1      1498    6    0    1
 -2      1639      1699      1633      1617      2273      2361      1902      1873      2276      1856
 -1      1499    6    0    1
 -2      1576      1700      1708      1641      2157      2446      2156      1877      2159      2107
 -1      1500    6    0    1
 -2      1708      1700      1576      1586      2446      2157      2156      2396      2160      1807
 -1      1501    6    0    1
 -2      1677      1587      1700      1586      2014      2183      2374      2013      1738      2160
 -1      1502    6    0    1
 -2      1679      1637      1649      1654      2119      1908      2203      2257      1941      1940
 -1      1503    6    0    1
 -2      1641      1677      1664      1700      2098      2031      2210      2159      2374      2375
 -1      1504    6    0    1
 -2      1604      1710      1603      1637      2434      2433      1760      1864      2399      1865
 -1      1505    6    0    1
 -2      1602      1636      1701      1601      1862      2104      2106      1758      1863      2299
 -1      1506    6    0    1
 -2      1636      1602      1720      1648      1862      2105      2102      1916      1894      2244
 -1      1507    6    0    1
 -2      1647      1636      1701      1669      1913      2104      2449      2280      2278      2313
 -1      1508    6    0    1
 -2      1636      1647      1701      1601      1913      2449      2104      1863      1891      2299
 -1      1509    6    0    1
 -2      1701      1669      1636      1680      2313      2278      2104      2391      2040      2213
 -1      1510    6    0    1
 -2      1710      1611      1720      1668      2359      2296      2240      2242      1988      2241
 -1      1511    6    0    1
 -2      1670      1608      1702      1575      1992      2254      2255      1991      1765      2365
 -1      1512    6    0    1
 -2      1627      1702      1575      1670      2428      2365      1787      1994      2255      1991
 -1      1513    6    0    1
 -2      1627      1621      1702      1717      1840      2429      2428      2137      2166      2432
 -1      1514    6    0    1
 -2      1635      1702      1621      1717      2341      2429      1860      2431      2432      2166
 -1      1515    6    0    1
 -2      1715      1632      1583      1703      2251      1853      2225      2450      2201      2200
 -1      1516    6    0    1
 -2      1715      1703      1583      1593      2450      2200      2225      2227      2218      1800
 -1      1517    6    0    1
 -2      1594      1703      1661      1593      2252      2372      1972      1745      2218      1971
 -1      1518    6    0    1
 -2      1641      1665      1708      1628      2109      2110      2107      1897      2134      2155
 -1      1519    6    0    1
 -2      1602      1720      1648      1603      2105      2244      1894      1759      2430      1893
 -1      1520    6    0    1
 -2      1579      1589      1704      1716      1793      2230      2228      2335      2347      2451
 -1      1521    6    0    1
 -2      1579      1642      1704      1578      1878      2452      2228      1729      1879      2330
 -1      1522    6    0    1
 -2      1704      1589      1676      1716      2230      2012      2351      2451      2347      2348
 -1      1523    6    0    1
 -2      1642      1578      1714      1704      1879      2238      2453      2452      2330      2354
 -1      1524    6    0    1
 -2      1642      1704      1714      1676      2452      2354      2453      2217      2351      2385
 -1      1525    6    0    1
 -2      1662      1705      1675      1591      2454      2264      2029      1973      2386      2010
 -1      1526    6    0    1
 -2      1705      1712      1631      1582      2455      2343      2248      2250      2221      1850
 -1      1527    6    0    1
 -2      1705      1662      1675      1631      2454      2029      2264      2248      2148      2184
 -1      1528    6    0    1
 -2      1592      1712      1705      1582      2271      2455      2353      1808      2221      2250
 -1      1529    6    0    1
 -2      1592      1591      1705      1662      1743      2386      2353      1974      1973      2454
 -1      1530    6    0    1
 -2      1671      1682      1706      1634      2033      2323      2187      2177      2382      2186
 -1      1531    6    0    1
 -2      1624      1706      1682      1713      2317      2323      2026      2141      2127      2333
 -1      1532    6    0    1
 -2      1645      1682      1634      1706      2199      2382      1915      2124      2323      2186
 -1      1533    6    0    1
 -2      1682      1625      1706      1624      2027      2314      2323      2026      1784      2317
 -1      1534    6    0    1
 -2      1636      1648      1720      1680      1916      2244      2102      2213      2358      2325
 -1      1535    6    0    1
 -2      1716      1630      1580      1718      2307      1848      2336      2285      2306      2267
 -1      1536    6    0    1
 -2      1605      1604      1721      1612      1761      2368      2327      1824      1821      2436
 -1      1537    6    0    1
 -2      1720      1680      1648      1668      2325      2358      2244      2241      2032      2224
 -1      1538    6    0    1
 -2      1613      1612      1721      1667      1770      2436      2435      1986      1985      2302
 -1      1539    6    0    1
 -2      1613      1667      1721      1707      1986      2302      2435      2171      2172      2328
 -1      1540    6    0    1
 -2      1569      1708      1586      1665      2395      2396      1737      1979      2110      1980
 -1      1541    6    0    1
 -2      1710      1603      1720      1611      2433      2430      2240      2359      1819      2296
 -1      1542    6    0    1
 -2      1704      1716      1676      1642      2451      2348      2351      2452      2356      2217
 -1      1543    6    0    1
 -2      1675      1663      1718      1643      2037      2287      2263      2099      2100      2260
 -1      1544    6    0    1
 -2      1716      1663      1590      1589      2286      1976      2284      2347      1975      1741
 -1      1545    6    0    1
 -2      1678      1665      1641      1638      2044      2109      2096      2129      2130      1942
 -1      1546    6    0    1
 -2      1579      1716      1704      1642      2335      2451      2228      1878      2356      2452
 -1      1547    6    0    1
 -2      1616      1585      1695      1696      1854      2406      2329      2412      2407      2442
 -1      1548    6    0    1
 -2      1676      1716      1630      1642      2348      2307      2282      2217      2356      1899
 -1      1549    6    0    1
 -2      1700      1629      1714      1664      2345      2456      2305      2375      2208      2326
 -1      1550    6    0    1
 -2      1622      1696      1616      1695      2411      2412      1843      2235      2442      2329
 -1      1551    6    0    1
 -2      1709      1698      1666      1598      2443      2423      2424      2426      2422      2003
 -1      1552    6    0    1
 -2      1641      1678      1677      1665      2096      2061      2098      2109      2044      2035
 -1      1553    6    0    1
 -2      1597      1709      1596      1640      2401      2427      1750      1885      2444      1874
 -1      1554    6    0    1
 -2      1655      1656      1676      1642      1934      2206      2357      1929      1931      2217
 -1      1555    6    0    1
 -2      1666      1640      1628      1638      2440      1900      2381      2128      1901      1917
 -1      1556    6    0    1
 -2      1628      1640      1709      1597      1900      2444      2400      1869      1885      2401
 -1      1557    6    0    1
 -2      1637      1710      1648      1668      2399      2243      1911      2122      2242      2224
 -1      1558    6    0    1
 -2      1637      1679      1710      1668      2119      2360      2399      2122      2041      2242
 -1      1559    6    0    1
 -2      1648      1710      1637      1603      2243      2399      1911      1893      2433      1865
 -1      1560    6    0    1
 -2      1598      1698      1615      1573      2422      2414      1982      1752      2415      1773
 -1      1561    6    0    1
 -2      1640      1709      1596      1698      2444      2427      1874      2421      2443      2420
 -1      1562    6    0    1
 -2      1674      1662      1592      1712      2008      1974      2006      2366      2457      2271
 -1      1563    6    0    1
 -2      1662      1644      1712      1674      2376      2223      2457      2008      2369      2366
 -1      1564    6    0    1
 -2      1644      1662      1712      1631      2376      2457      2223      1905      2148      2343
 -1      1565    6    0    1
 -2      1705      1662      1631      1712      2454      2148      2248      2455      2457      2343
 -1      1566    6    0    1
 -2      1592      1662      1705      1712      1974      2454      2353      2271      2457      2455
 -1      1567    6    0    1
 -2      1699      1672      1624      1623      2168      1998      2138      2169      1997      1783
 -1      1568    6    0    1
 -2      1699      1623      1624      1618      2169      1783      2138      2139      1835      1834
 -1      1569    6    0    1
 -2      1693      1672      1713      1633      2082      2334      2309      2311      2390      2310
 -1      1570    6    0    1
 -2      1713      1633      1672      1699      2310      2390      2334      2140      2361      2168
 -1      1571    6    0    1
 -2      1713      1624      1672      1682      2141      1998      2334      2333      2026      2028
 -1      1572    6    0    1
 -2      1636      1680      1720      1701      2213      2325      2102      2104      2391      2103
 -1      1573    6    0    1
 -2      1577      1587      1714      1578      1789      2236      2304      1728      1792      2238
 -1      1574    6    0    1
 -2      1680      1701      1609      1610      2391      2298      2022      2023      2308      1767
 -1      1575    6    0    1
 -2      1680      1720      1701      1610      2325      2103      2391      2023      2297      2308
 -1      1576    6    0    1
 -2      1641      1700      1664      1629      2159      2375      2210      1884      2345      2208
 -1      1577    6    0    1
 -2      1577      1578      1714      1629      1728      2238      2304      1847      1846      2456
 -1      1578    6    0    1
 -2      1719      1670      1635      1647      2253      2352      2340      2319      2292      1907
 -1      1579    6    0    1
 -2      1719      1647      1635      1600      2319      1907      2340      2318      1892      1861
 -1      1580    6    0    1
 -2      1600      1635      1702      1574      1861      2341      2324      1756      1859      2346
 -1      1581    6    0    1
 -2      1701      1647      1719      1601      2449      2319      2312      2299      1891      2293
 -1      1582    6    0    1
 -2      1647      1701      1719      1669      2449      2312      2319      2280      2313      2194
 -1      1583    6    0    1
 -2      1584      1585      1695      1639      1735      2406      2387      1872      1871      2384
 -1      1584    6    0    1
 -2      1631      1705      1643      1675      2248      2262      1909      2184      2264      2099
 -1      1585    6    0    1
 -2      1581      1580      1718      1591      1731      2267      2344      1799      1796      2266
 -1      1586    6    0    1
 -2      1581      1591      1718      1705      1799      2266      2344      2249      2386      2261
 -1      1587    6    0    1
 -2      1699      1617      1695      1623      2276      2234      2383      2169      1832      2233
 -1      1588    6    0    1
 -2      1695      1617      1639      1616      2234      1873      2384      2329      1775      1870
 -1      1589    6    0    1
 -2      1699      1623      1695      1673      2169      2233      2383      2170      2000      2331
 -1      1590    6    0    1
 -2      1673      1639      1703      1695      2274      2270      2373      2331      2384      2388
 -1      1591    6    0    1
 -2      1584      1639      1695      1703      1872      2384      2387      2202      2270      2388
 -1      1592    6    0    1
 -2      1716      1580      1590      1718      2336      1797      2284      2285      2267      2268
 -1      1593    6    0    1
 -2      1577      1629      1714      1700      1847      2456      2304      2158      2345      2305
 -1      1594    6    0    1
 -2      1587      1700      1714      1664      2183      2305      2236      1977      2375      2326
 -1      1595    6    0    1
 -2      1642      1676      1714      1629      2217      2385      2453      1903      2207      2456
 -1      1596    6    0    1
 -2      1642      1629      1714      1578      1903      2456      2453      1879      1846      2238
 -1      1597    6    0    1
 -2      1676      1664      1714      1629      2036      2326      2385      2207      2208      2456
 -1      1598    6    0    1
 -2      1693      1632      1715      1661      2350      2251      2337      2085      2247      2338
 -1      1599    6    0    1
 -2      1661      1593      1715      1674      1971      2227      2338      2005      2004      2339
 -1      1600    6    0    1
 -2      1661      1632      1715      1703      2247      2251      2338      2372      2201      2450
 -1      1601    6    0    1
 -2      1661      1703      1715      1593      2372      2450      2338      1971      2218      2227
 -1      1602    6    0    1
 -2      1678      1638      1649      1707      2129      1912      2281      2173      2288      2289
 -1      1603    6    0    1
 -2      1591      1675      1718      1705      2010      2263      2266      2386      2264      2261
 -1      1604    6    0    1
 -2      1613      1614      1722      1605      1771      2320      2370      1823      1825      2437
 -1      1605    6    0    1
 -2      1613      1605      1722      1707      1823      2437      2370      2171      2290      2371
 -3
    1PSTEP                         1           1           1          
  100CL  101 1.000000000         890                     0    1           1
 -4  DISP        4    1
 -5  D1          1    2    1    0
 -5  D2          1    2    2    0
 -5  D3          1    2    3    0
 -5  ALL         1    2    0    0    1ALL
 -1      1568-6.06620E+00 2.97672E+01 0.00000E+00
 -1      1569-6.09801E+00 2.97595E+01 0.00000E+00
 -1      1570 0.00000E+00 0.00000E+00 0.00000E+00
 -1      1571 0.00000E+00 0.00000E+00 0.00000E+00
 -1      1572-2.36598E+01 3.20191E+01 0.00000E+00
 -1      1573-2.37033E+01 3.20536E+01 0.00000E+00
 -1      1574 0.00000E+00 0.00000E+00 0.00000E+00
 -1      1575 0.00000E+00 0.00000E+00 0.00000E+00
 -1      1576-2.69096E+00 2.42316E+01 0.00000E+00
 -1      1577-3.65280E-01 1.91632E+01 0.00000E+00
 -1      1578 1.15738E+00 1.47342E+01 0.00000E+00
 -1      1579 2.00336E+00 1.09763E+01 0.00000E+00
 -1      1580 2.27095E+00 7.89053E+00 0.00000E+00
 -1      1581 2.07788E+00 5.47090E+00 0.00000E+00
 -1      1582 1.58894E+00 3.68264E+00 0.00000E+00
 -1      1583 1.00489E+00 2.41962E+00 0.00000E+00
 -1      1584 5.10865E-01 1.49871E+00 0.00000E+00
 -1      1585 1.93153E-01 7.09782E-01 0.00000E+00
 -1      1586-2.69144E+00 2.42373E+01 0.00000E+00
 -1      1587-3.65537E-01 1.91611E+01 0.00000E+00
 -1      1588 1.15824E+00 1.47344E+01 0.00000E+00
 -1      1589 2.00393E+00 1.09764E+01 0.00000E+00
 -1      1590 2.27039E+00 7.89012E+00 0.00000E+00
 -1      1591 2.07706E+00 5.47081E+00 0.00000E+00
 -1      1592 1.58821E+00 3.68122E+00 0.00000E+00
 -1      1593 1.00561E+00 2.41819E+00 0.00000E+00
 -1      1594 5.10765E-01 1.49762E+00 0.00000E+00
 -1      1595 1.93153E-01 7.06538E-01 0.00000E+00
 -1      1596-1.65102E+01 3.12646E+01 0.00000E+00
 -1      1597-1.10736E+01 3.03111E+01 0.00000E+00
 -1      1598-1.65268E+01 3.12619E+01 0.00000E+00
 -1      1599-1.10889E+01 3.03122E+01 0.00000E+00
 -1      1600-2.71774E+00 1.08142E+00 0.00000E+00
 -1      1601-4.85637E+00 2.29788E+00 0.00000E+00
 -1      1602-7.08350E+00 4.06857E+00 0.00000E+00
 -1      1603-9.48038E+00 6.48774E+00 0.00000E+00
 -1      1604-1.20693E+01 9.65696E+00 0.00000E+00
 -1      1605-1.48183E+01 1.36684E+01 0.00000E+00
 -1      1606-1.76599E+01 1.85791E+01 0.00000E+00
 -1      1607-2.05854E+01 2.44365E+01 0.00000E+00
 -1      1608-2.70138E+00 1.04333E+00 0.00000E+00
 -1      1609-4.86006E+00 2.30055E+00 0.00000E+00
 -1      1610-7.08393E+00 4.06885E+00 0.00000E+00
 -1      1611-9.48039E+00 6.48848E+00 0.00000E+00
 -1      1612-1.20678E+01 9.65852E+00 0.00000E+00
 -1      1613-1.48204E+01 1.36686E+01 0.00000E+00
 -1      1614-1.76581E+01 1.85808E+01 0.00000E+00
 -1      1615-2.05896E+01 2.44549E+01 0.00000E+00
 -1      1616 0.00000E+00 0.00000E+00 0.00000E+00
 -1      1617 0.00000E+00 0.00000E+00 0.00000E+00
 -1      1618 0.00000E+00 0.00000E+00 0.00000E+00
 -1      1619 0.00000E+00 0.00000E+00 0.00000E+00
 -1      1620 0.00000E+00 0.00000E+00 0.00000E+00
 -1      1621 0.00000E+00 0.00000E+00 0.00000E+00
 -1      1622 0.00000E+00 0.00000E+00 0.00000E+00
 -1      1623 0.00000E+00 0.00000E+00 0.00000E+00
 -1      1624 0.00000E+00 0.00000E+00 0.00000E+00
 -1      1625 0.00000E+00 0.00000E+00 0.00000E+00
 -1      1626 0.00000E+00 0.00000E+00 0.00000E+00
 -1      1627 0.00000E+00 0.00000E+00 0.00000E+00
 -1      1628-8.16732E+00 2.35071E+01 0.00000E+00
 -1      1629-1.74202E+00 1.38819E+01 0.00000E+00
 -1      1630 1.01684E+00 7.52724E+00 0.00000E+00
 -1      1631 1.46135E+00 3.40800E+00 0.00000E+00
 -1      1632 7.23732E-01 1.45364E+00 0.00000E+00
 -1      1633 3.18963E-01 6.13271E-01 0.00000E+00
 -1      1634 2.10756E-01 4.69924E-01 0.00000E+00
 -1      1635-8.29852E-01 3.91609E-01 0.00000E+00
 -1      1636-3.65809E+00 3.27470E+00 0.00000E+00
 -1      1637-7.38265E+00 8.70719E+00 0.00000E+00
 -1      1638-1.11961E+01 1.79836E+01 0.00000E+00
 -1      1639 3.03870E-01 7.53997E-01 0.00000E+00
 -1      1640-1.38294E+01 2.40385E+01 0.00000E+00
 -1      1641-5.29917E+00 1.72864E+01 0.00000E+00
 -1      1642 1.29769E-01 1.05260E+01 0.00000E+00
 -1      1643 1.45136E+00 5.16151E+00 0.00000E+00
 -1      1644 1.13997E+00 2.19395E+00 0.00000E+00
 -1      1645 4.92525E-01 8.24106E-01 0.00000E+00
 -1      1646-1.70253E-01 2.55861E-01 0.00000E+00
 -1      1647-2.23023E+00 1.60239E+00 0.00000E+00
 -1      1648-5.46461E+00 5.58507E+00 0.00000E+00
 -1      1649-9.18752E+00 1.28645E+01 0.00000E+00
 -1      1650-3.90921E-03 4.79418E+00 0.00000E+00
 -1      1651 7.78288E-01 1.69587E+00 0.00000E+00
 -1      1652 9.07032E-02 1.32377E+00 0.00000E+00
 -1      1653-3.78053E+00 7.68168E+00 0.00000E+00
 -1      1654-4.95115E+00 1.15913E+01 0.00000E+00
 -1      1655-9.78125E-01 7.24670E+00 0.00000E+00
 -1      1656-2.15198E+00 1.00128E+01 0.00000E+00
 -1      1657-2.27209E+00 4.89666E+00 0.00000E+00
 -1      1658-7.43658E-01 1.06744E+00 0.00000E+00
 -1      1659 6.42769E-01 2.97478E+00 0.00000E+00
 -1      1660-9.83169E-01 2.64099E+00 0.00000E+00
 -1      1661 7.36876E-01 1.51244E+00 0.00000E+00
 -1      1662 1.47670E+00 3.41474E+00 0.00000E+00
 -1      1663 1.04742E+00 7.50546E+00 0.00000E+00
 -1      1664-2.02720E+00 1.37168E+01 0.00000E+00
 -1      1665-7.99781E+00 2.35764E+01 0.00000E+00
 -1      1666-1.36556E+01 2.38625E+01 0.00000E+00
 -1      1667-9.96088E+00 1.23540E+01 0.00000E+00
 -1      1668-5.34219E+00 5.81708E+00 0.00000E+00
 -1      1669-2.22329E+00 1.61771E+00 0.00000E+00
 -1      1670-8.33129E-01 3.99607E-01 0.00000E+00
 -1      1671 1.95224E-01 4.32226E-01 0.00000E+00
 -1      1672 3.54200E-01 6.60887E-01 0.00000E+00
 -1      1673 3.08286E-01 7.62474E-01 0.00000E+00
 -1      1674 1.20435E+00 2.36112E+00 0.00000E+00
 -1      1675 1.47084E+00 5.14359E+00 0.00000E+00
 -1      1676-9.73646E-02 1.03799E+01 0.00000E+00
 -1      1677-4.73313E+00 1.81562E+01 0.00000E+00
 -1      1678-1.04364E+01 1.74060E+01 0.00000E+00
 -1      1679-7.38526E+00 8.95223E+00 0.00000E+00
 -1      1680-3.62487E+00 3.34761E+00 0.00000E+00
 -1      1681-1.63960E-01 2.53513E-01 0.00000E+00
 -1      1682 3.44949E-01 5.60815E-01 0.00000E+00
 -1      1683-5.94559E+00 1.29366E+01 0.00000E+00
 -1      1684 7.16781E-02 4.76174E+00 0.00000E+00
 -1      1685-2.18016E+00 5.08643E+00 0.00000E+00
 -1      1686-3.26999E+00 8.84163E+00 0.00000E+00
 -1      1687 1.13775E-01 1.30623E+00 0.00000E+00
 -1      1688-7.30201E-01 1.07245E+00 0.00000E+00
 -1      1689 6.84478E-01 2.93472E+00 0.00000E+00
 -1      1690-7.63684E-01 7.12485E+00 0.00000E+00
 -1      1691-9.38515E-01 2.66694E+00 0.00000E+00
 -1      1692 7.87658E-01 1.62916E+00 0.00000E+00
 -1      1693 7.39701E-01 1.31217E+00 0.00000E+00
 -1      1694-8.35270E+00 2.69074E+01-1.56039E-03
 -1      1695 2.08986E-01 5.84335E-01-1.46952E-05
 -1      1696 1.07089E-01 3.48592E-01-3.78984E-04
 -1      1697-1.65365E+01 2.24826E+01 1.40911E-03
 -1      1698-1.74554E+01 2.71305E+01 2.26413E-04
 -1      1699 2.05326E-01 4.28380E-01-2.94428E-04
 -1      1700-2.55454E+00 1.84306E+01-5.56265E-04
 -1      1701-4.32082E+00 2.73968E+00 2.67171E-04
 -1      1702-6.84606E-01 2.32235E-01 1.03352E-02
 -1      1703 6.34133E-01 1.50086E+00 2.70339E-04
 -1      1704 8.95471E-01 1.16584E+01 8.30876E-05
 -1      1705 1.79774E+00 4.43039E+00-4.36140E-04
 -1      1706 1.59557E-01 2.43210E-01-1.22191E-04
 -1      1707-1.20230E+01 1.44476E+01-1.35423E-04
 -1      1708-5.31075E+00 2.34471E+01 2.75883E-03
 -1      1709-1.23394E+01 2.71072E+01-1.01259E-03
 -1      1710-8.41950E+00 7.54673E+00 1.20748E-04
 -1      1711 7.43245E-02 1.32916E-01 1.77813E-04
 -1      1712 1.50767E+00 3.20670E+00 2.08444E-05
 -1      1713 2.52516E-01 4.28576E-01 2.95296E-04
 -1      1714-2.99085E-01 1.44010E+01-9.20493E-05
 -1      1715 1.10524E+00 2.25889E+00 3.33358E-04
 -1      1716 1.50676E+00 9.04608E+00-1.95507E-04
 -1      1717-2.33692E-01 2.75815E-02-4.70161E-04
 -1      1718 1.87096E+00 6.43147E+00-3.62138E-04
 -1      1719-2.49204E+00 1.27477E+00-2.42452E-03
 -1      1720-6.27279E+00 4.77682E+00 1.20040E-04
 -1      1721-1.06994E+01 1.10052E+01-7.38937E-05
 -1      1722-1.41679E+01 1.82096E+01 3.35669E-05
 -1      1723-4.55469E-02 5.18398E-02 3.90069E-04
 -1      1724-6.08169E+00 2.97661E+01-1.31856E-03
 -1      1725 0.00000E+00 0.00000E+00 0.00000E+00
 -1      1726-4.24280E+00 2.69581E+01 0.00000E+00
 -1      1727-1.42094E+00 2.16200E+01 0.00000E+00
 -1      1728 4.86525E-01 1.68658E+01 0.00000E+00
 -1      1729 1.65922E+00 1.27727E+01 0.00000E+00
 -1      1730 2.20366E+00 9.35130E+00 0.00000E+00
 -1      1731 2.22406E+00 6.60087E+00 0.00000E+00
 -1      1732 1.85998E+00 4.50548E+00 0.00000E+00
 -1      1733 1.29946E+00 2.99711E+00 0.00000E+00
 -1      1734 7.41146E-01 1.93004E+00 0.00000E+00
 -1      1735 3.32599E-01 1.09673E+00 0.00000E+00
 -1      1736 9.01028E-02 3.25101E-01 0.00000E+00
 -1      1737-4.23208E+00 2.69592E+01 0.00000E+00
 -1      1738-1.42334E+00 2.16212E+01 0.00000E+00
 -1      1739 4.85407E-01 1.68654E+01 0.00000E+00
 -1      1740 1.65912E+00 1.27728E+01 0.00000E+00
 -1      1741 2.20405E+00 9.35176E+00 0.00000E+00
 -1      1742 2.22430E+00 6.60103E+00 0.00000E+00
 -1      1743 1.86036E+00 4.50465E+00 0.00000E+00
 -1      1744 1.29716E+00 2.99716E+00 0.00000E+00
 -1      1745 7.40348E-01 1.93062E+00 0.00000E+00
 -1      1746 3.32947E-01 1.09619E+00 0.00000E+00
 -1      1747 9.06766E-02 3.32369E-01 0.00000E+00
 -1      1748-2.36902E+01 3.20444E+01 2.56141E-04
 -1      1749-1.97991E+01 3.16985E+01 0.00000E+00
 -1      1750-1.36790E+01 3.07670E+01 0.00000E+00
 -1      1751-8.64717E+00 2.99847E+01 0.00000E+00
 -1      1752-1.97774E+01 3.17474E+01 0.00000E+00
 -1      1753-1.36793E+01 3.07690E+01 0.00000E+00
 -1      1754-8.62471E+00 2.99786E+01 0.00000E+00
 -1      1755 0.00000E+00 0.00000E+00 0.00000E+00
 -1      1756-1.46827E+00 5.89558E-01 0.00000E+00
 -1      1757-3.78701E+00 1.62540E+00 0.00000E+00
 -1      1758-5.95341E+00 3.10758E+00 0.00000E+00
 -1      1759-8.25900E+00 5.19108E+00 0.00000E+00
 -1      1760-1.07522E+01 7.97402E+00 0.00000E+00
 -1      1761-1.34274E+01 1.15550E+01 0.00000E+00
 -1      1762-1.62347E+01 1.60114E+01 0.00000E+00
 -1      1763-1.91125E+01 2.13820E+01 0.00000E+00
 -1      1764-2.20884E+01 2.79302E+01 0.00000E+00
 -1      1765-1.55055E+00 6.72526E-01 0.00000E+00
 -1      1766-3.78245E+00 1.61769E+00 0.00000E+00
 -1      1767-5.95409E+00 3.10759E+00 0.00000E+00
 -1      1768-8.25928E+00 5.19046E+00 0.00000E+00
 -1      1769-1.07521E+01 7.97361E+00 0.00000E+00
 -1      1770-1.34280E+01 1.15545E+01 0.00000E+00
 -1      1771-1.62344E+01 1.60123E+01 0.00000E+00
 -1      1772-1.91085E+01 2.13831E+01 0.00000E+00
 -1      1773-2.21251E+01 2.78903E+01 0.00000E+00
 -1      1774 0.00000E+00 0.00000E+00 0.00000E+00
 -1      1775 0.00000E+00 0.00000E+00 0.00000E+00
 -1      1776 0.00000E+00 0.00000E+00 0.00000E+00
 -1      1777 0.00000E+00 0.00000E+00 0.00000E+00
 -1      1778 0.00000E+00 0.00000E+00 0.00000E+00
 -1      1779 0.00000E+00 0.00000E+00 0.00000E+00
 -1      1780 0.00000E+00 0.00000E+00 0.00000E+00
 -1      1781 0.00000E+00 0.00000E+00 0.00000E+00
 -1      1782 0.00000E+00 0.00000E+00 0.00000E+00
 -1      1783 0.00000E+00 0.00000E+00 0.00000E+00
 -1      1784 0.00000E+00 0.00000E+00 0.00000E+00
 -1      1785 0.00000E+00 0.00000E+00 0.00000E+00
 -1      1786 0.00000E+00 0.00000E+00 0.00000E+00
 -1      1787 0.00000E+00 0.00000E+00 0.00000E+00
 -1      1788-4.21620E+00 2.69712E+01-4.02567E-03
 -1      1789-3.67432E-01 1.91621E+01-5.02619E-04
 -1      1790-1.42119E+00 2.16235E+01 1.26434E-04
 -1      1791 1.15675E+00 1.47340E+01-7.41501E-05
 -1      1792 4.84792E-01 1.68656E+01-1.36316E-04
 -1      1793 2.00288E+00 1.09765E+01-4.61064E-05
 -1      1794 1.65794E+00 1.27725E+01 3.74367E-05
 -1      1795 2.20239E+00 9.35066E+00 1.34059E-04
 -1      1796 2.22186E+00 6.59940E+00 1.72165E-04
 -1      1797 2.26991E+00 7.89041E+00-1.46602E-04
 -1      1798 1.85725E+00 4.50274E+00 2.16092E-04
 -1      1799 2.07611E+00 5.47047E+00-1.46966E-04
 -1      1800 1.00451E+00 2.41784E+00 1.45289E-04
 -1      1801 1.29548E+00 2.99516E+00-1.97333E-04
 -1      1802 5.10831E-01 1.49782E+00 1.37779E-04
 -1      1803 7.38737E-01 1.92848E+00-9.84779E-05
 -1      1804 1.93439E-01 7.07241E-01-4.46207E-04
 -1      1805 3.32932E-01 1.09530E+00-6.17667E-05
 -1      1806 8.87098E-02 3.24708E-01 5.85923E-04
 -1      1807-2.68976E+00 2.42386E+01 1.86842E-03
 -1      1808 1.58725E+00 3.68094E+00-3.73235E-05
 -1      1809-1.97767E+01 3.17477E+01-1.05307E-04
 -1      1810-1.36870E+01 3.07484E+01 1.97615E-03
 -1      1811-1.65249E+01 3.12535E+01 4.22494E-03
 -1      1812-8.64158E+00 2.99608E+01 1.20022E-03
 -1      1813-1.10866E+01 3.02972E+01 5.85213E-04
 -1      1814-1.57030E+00 6.24960E-01-1.53290E-02
 -1      1815-4.85756E+00 2.30010E+00-1.14625E-04
 -1      1816-3.78637E+00 1.62260E+00-3.52180E-04
 -1      1817-7.08251E+00 4.06903E+00 1.17414E-04
 -1      1818-5.95165E+00 3.10785E+00-2.75617E-05
 -1      1819-9.47946E+00 6.48864E+00 5.36907E-05
 -1      1820-8.25746E+00 5.19158E+00-4.05707E-05
 -1      1821-1.20680E+01 9.65838E+00 1.31752E-05
 -1      1822-1.07513E+01 7.97476E+00-2.18663E-06
 -1      1823-1.48184E+01 1.36693E+01-2.42200E-04
 -1      1824-1.34272E+01 1.15556E+01-3.89257E-05
 -1      1825-1.62324E+01 1.60137E+01-7.78532E-05
 -1      1826-1.76577E+01 1.85833E+01 5.90889E-04
 -1      1827-2.05812E+01 2.44551E+01-5.40180E-03
 -1      1828-1.91011E+01 2.13896E+01-1.23489E-03
 -1      1829-2.21216E+01 2.78921E+01 8.26509E-05
 -1      1830-2.73084E+00 1.07272E+00 6.79585E-03
 -1      1831 0.00000E+00 0.00000E+00 0.00000E+00
 -1      1832 0.00000E+00 0.00000E+00 0.00000E+00
 -1      1833 0.00000E+00 0.00000E+00 0.00000E+00
 -1      1834 0.00000E+00 0.00000E+00 0.00000E+00
 -1      1835 0.00000E+00 0.00000E+00 0.00000E+00
 -1      1836 0.00000E+00 0.00000E+00 0.00000E+00
 -1      1837 0.00000E+00 0.00000E+00 0.00000E+00
 -1      1838 0.00000E+00 0.00000E+00 0.00000E+00
 -1      1839 0.00000E+00 0.00000E+00 0.00000E+00
 -1      1840 0.00000E+00 0.00000E+00 0.00000E+00
 -1      1841 0.00000E+00 0.00000E+00 0.00000E+00
 -1      1842 0.00000E+00 0.00000E+00 0.00000E+00
 -1      1843 0.00000E+00 0.00000E+00 0.00000E+00
 -1      1844-5.38325E+00 2.38207E+01 0.00000E+00
 -1      1845-7.18999E+00 2.65646E+01 0.00000E+00
 -1      1846-1.88665E-01 1.43058E+01 0.00000E+00
 -1      1847-1.10317E+00 1.63878E+01 0.00000E+00
 -1      1848 1.75864E+00 7.72924E+00 0.00000E+00
 -1      1849 1.49335E+00 9.15919E+00 0.00000E+00
 -1      1850 1.62351E+00 3.58985E+00 0.00000E+00
 -1      1851 1.78928E+00 4.39412E+00 0.00000E+00
 -1      1852 6.42360E-01 1.50766E+00 0.00000E+00
 -1      1853 8.94717E-01 1.94009E+00 0.00000E+00
 -1      1854 1.16205E-01 3.73873E-01 0.00000E+00
 -1      1855 1.52447E-01 2.79707E-01 0.00000E+00
 -1      1856 1.50484E-01 3.15741E-01 0.00000E+00
 -1      1857 4.42555E-02 1.19352E-01 0.00000E+00
 -1      1858 1.17205E-01 1.86967E-01 0.00000E+00
 -1      1859-5.71328E-01 1.51946E-01 0.00000E+00
 -1      1860-3.10536E-01 3.62242E-02 0.00000E+00
 -1      1861-1.54275E+00 6.97565E-01 0.00000E+00
 -1      1862-5.25284E+00 3.65136E+00 0.00000E+00
 -1      1863-4.28772E+00 2.70903E+00 0.00000E+00
 -1      1864-9.60129E+00 9.16533E+00 0.00000E+00
 -1      1865-8.47483E+00 7.50745E+00 0.00000E+00
 -1      1866-1.42528E+01 1.82897E+01 0.00000E+00
 -1      1867-1.30254E+01 1.57068E+01 0.00000E+00
 -1      1868-1.84699E+01 2.77747E+01 0.00000E+00
 -1      1869-9.59543E+00 2.68617E+01 0.00000E+00
 -1      1870 1.37437E-01 3.82254E-01 0.00000E+00
 -1      1871 2.52218E-01 7.48917E-01 0.00000E+00
 -1      1872 4.29919E-01 1.13806E+00 0.00000E+00
 -1      1873 1.59786E-01 3.79801E-01 0.00000E+00
 -1      1874-1.51289E+01 2.74821E+01 0.00000E+00
 -1      1875-1.69850E+01 2.42614E+01 0.00000E+00
 -1      1876-2.71957E+00 1.81859E+01 0.00000E+00
 -1      1877-4.09343E+00 2.05731E+01 0.00000E+00
 -1      1878 1.16695E+00 1.07607E+01 0.00000E+00
 -1      1879 6.12985E-01 1.25216E+01 0.00000E+00
 -1      1880 1.88015E+00 5.34989E+00 0.00000E+00
 -1      1881 1.86208E+00 6.45500E+00 0.00000E+00
 -1      1882 1.14093E+00 2.35372E+00 0.00000E+00
 -1      1883 1.39856E+00 2.91991E+00 0.00000E+00
 -1      1884-3.37125E+00 1.55235E+01 0.00000E+00
 -1      1885-1.24046E+01 2.72014E+01 0.00000E+00
 -1      1886-1.57512E+01 2.11783E+01 0.00000E+00
 -1      1887 1.99373E-01 3.09398E-01 0.00000E+00
 -1      1888 2.33014E-01 3.84048E-01 0.00000E+00
 -1      1889-1.57387E-01 2.17779E-02 0.00000E+00
 -1      1890-4.65709E-02 4.80620E-02 0.00000E+00
 -1      1891-3.42478E+00 1.93947E+00 0.00000E+00
 -1      1892-2.48450E+00 1.26715E+00 0.00000E+00
 -1      1893-7.35661E+00 6.01568E+00 0.00000E+00
 -1      1894-6.31455E+00 4.74635E+00 0.00000E+00
 -1      1895-1.18550E+01 1.32581E+01 0.00000E+00
 -1      1896-1.06659E+01 1.11528E+01 0.00000E+00
 -1      1897-6.65514E+00 2.02556E+01 0.00000E+00
 -1      1898 4.19268E-01 7.27402E-01 0.00000E+00
 -1      1899 6.36894E-01 8.94540E+00 0.00000E+00
 -1      1900-1.08748E+01 2.37987E+01 0.00000E+00
 -1      1901-1.25031E+01 2.08836E+01 0.00000E+00
 -1      1902 3.22011E-01 6.93951E-01 0.00000E+00
 -1      1903-7.07244E-01 1.21321E+01 0.00000E+00
 -1      1904 1.29640E+00 6.26664E+00 0.00000E+00
 -1      1905 1.33372E+00 2.74595E+00 0.00000E+00
 -1      1906 3.87147E-02 3.43063E-01 0.00000E+00
 -1      1907-1.50684E+00 9.41919E-01 0.00000E+00
 -1      1908-8.27627E+00 1.06609E+01 0.00000E+00
 -1      1909 1.51069E+00 4.21307E+00 0.00000E+00
 -1      1910 9.40648E-01 1.80304E+00 0.00000E+00
 -1      1911-6.40222E+00 7.04516E+00 0.00000E+00
 -1      1912-1.01832E+01 1.52941E+01 0.00000E+00
 -1      1913-2.93958E+00 2.37822E+00 0.00000E+00
 -1      1914-4.27210E-01 2.69733E-01 0.00000E+00
 -1      1915 3.72406E-01 6.40473E-01 0.00000E+00
 -1      1916-4.53692E+00 4.35163E+00 0.00000E+00
 -1      1917-9.67547E+00 2.06614E+01 0.00000E+00
 -1      1918 8.21276E-01 4.97729E+00 0.00000E+00
 -1      1919 4.81928E-01 6.08454E+00 0.00000E+00
 -1      1920 1.00760E+00 1.95868E+00 0.00000E+00
 -1      1921 1.11246E+00 2.50041E+00 0.00000E+00
 -1      1922-9.41677E-02 7.12077E-01 0.00000E+00
 -1      1923 2.08676E-01 8.28555E-01 0.00000E+00
 -1      1924-5.46684E+00 8.17827E+00 0.00000E+00
 -1      1925-4.65216E+00 6.56357E+00 0.00000E+00
 -1      1926-3.31600E+00 1.27005E+01 0.00000E+00
 -1      1927-5.14648E+00 1.42676E+01 0.00000E+00
 -1      1928 1.13276E-01 7.38562E+00 0.00000E+00
 -1      1929-4.53532E-01 8.79841E+00 0.00000E+00
 -1      1930-4.33714E-01 5.94369E+00 0.00000E+00
 -1      1931-9.44792E-01 1.02666E+01 0.00000E+00
 -1      1932-1.97128E+00 1.18529E+01 0.00000E+00
 -1      1933-3.45816E+00 1.07813E+01 0.00000E+00
 -1      1934-1.52375E+00 8.56152E+00 0.00000E+00
 -1      1935-3.74098E+00 5.22006E+00 0.00000E+00
 -1      1936-3.00059E+00 4.01081E+00 0.00000E+00
 -1      1937-2.98576E+00 6.20349E+00 0.00000E+00
 -1      1938 4.61575E-01 1.01029E+00 0.00000E+00
 -1      1939 6.66513E-01 1.21530E+00 0.00000E+00
 -1      1940-6.94979E+00 1.22143E+01 0.00000E+00
 -1      1941-6.19130E+00 1.00698E+01 0.00000E+00
 -1      1942-8.09088E+00 1.76407E+01 0.00000E+00
 -1      1943-8.52960E-01 6.72177E-01 0.00000E+00
 -1      1944-3.87712E-01 5.94681E-01 0.00000E+00
 -1      1945-2.98009E-01 1.16327E+00 0.00000E+00
 -1      1946-1.37587E+00 1.29841E+00 0.00000E+00
 -1      1947-7.25316E+00 1.49700E+01 0.00000E+00
 -1      1948 1.12977E+00 3.19721E+00 0.00000E+00
 -1      1949 1.03022E+00 4.00779E+00 0.00000E+00
 -1      1950 7.76711E-01 2.26767E+00 0.00000E+00
 -1      1951-2.15282E+00 2.92021E+00 0.00000E+00
 -1      1952-1.63639E+00 2.03484E+00 0.00000E+00
 -1      1953-8.92750E-01 1.77881E+00 0.00000E+00
 -1      1954-1.56967E+00 3.68495E+00 0.00000E+00
 -1      1955 4.99906E-01 1.10120E+00 0.00000E+00
 -1      1956 5.23046E-01 1.01932E+00 0.00000E+00
 -1      1957 3.95072E-01 3.81271E+00 0.00000E+00
 -1      1958 4.76307E-01 1.49538E+00 0.00000E+00
 -1      1959 8.17565E-01 1.46117E+00 0.00000E+00
 -1      1960 6.42675E-01 1.15366E+00 0.00000E+00
 -1      1961-4.35625E+00 9.51689E+00 0.00000E+00
 -1      1962 3.30750E-01 2.08493E+00 0.00000E+00
 -1      1963-3.15637E-01 1.90737E+00 0.00000E+00
 -1      1964-7.16380E-02 2.77610E+00 0.00000E+00
 -1      1965-2.27058E+00 7.45152E+00 0.00000E+00
 -1      1966-1.65802E+00 6.00056E+00 0.00000E+00
 -1      1967-1.02514E+00 4.82438E+00 0.00000E+00
 -1      1968-5.42883E-01 3.63651E+00 0.00000E+00
 -1      1969-2.98179E+00 8.79691E+00 0.00000E+00
 -1      1970 1.16201E-01 3.74424E-01 0.00000E+00
 -1      1971 8.96509E-01 1.96667E+00 0.00000E+00
 -1      1972 6.43581E-01 1.53120E+00 0.00000E+00
 -1      1973 1.79463E+00 4.39564E+00 0.00000E+00
 -1      1974 1.62489E+00 3.59161E+00 0.00000E+00
 -1      1975 1.50770E+00 9.14606E+00 0.00000E+00
 -1      1976 1.76896E+00 7.71766E+00 0.00000E+00
 -1      1977-1.25022E+00 1.62953E+01 0.00000E+00
 -1      1978-3.15675E-01 1.42214E+01 0.00000E+00
 -1      1979-7.11190E+00 2.66011E+01 0.00000E+00
 -1      1980-5.30148E+00 2.38543E+01 0.00000E+00
 -1      1981-9.51216E+00 2.68937E+01 0.00000E+00
 -1      1982-1.84660E+01 2.77705E+01 0.00000E+00
 -1      1983-1.56552E+01 2.11004E+01 0.00000E+00
 -1      1984-1.68852E+01 2.41820E+01 0.00000E+00
 -1      1985-1.10477E+01 1.09267E+01 0.00000E+00
 -1      1986-1.22738E+01 1.30010E+01 0.00000E+00
 -1      1987-6.26373E+00 4.84319E+00 0.00000E+00
 -1      1988-7.29419E+00 6.13062E+00 0.00000E+00
 -1      1989-2.47462E+00 1.26390E+00 0.00000E+00
 -1      1990-3.41700E+00 1.94523E+00 0.00000E+00
 -1      1991-5.73057E-01 1.68697E-01 0.00000E+00
 -1      1992-1.54878E+00 6.97994E-01 0.00000E+00
 -1      1993-1.50469E+00 9.46866E-01 0.00000E+00
 -1      1994-3.12177E-01 3.73134E-02 0.00000E+00
 -1      1995 1.10591E-01 1.74471E-01 0.00000E+00
 -1      1996 4.07465E-02 1.09360E-01 0.00000E+00
 -1      1997 1.66329E-01 3.43114E-01 0.00000E+00
 -1      1998 1.68048E-01 3.03063E-01 0.00000E+00
 -1      1999 1.39494E-01 3.86303E-01 0.00000E+00
 -1      2000 1.61825E-01 3.83695E-01 0.00000E+00
 -1      2001 3.44440E-01 7.27120E-01 0.00000E+00
 -1      2002 2.54654E-01 7.52584E-01 0.00000E+00
 -1      2003-1.50457E+01 2.73810E+01 0.00000E+00
 -1      2004 1.15735E+00 2.42620E+00 0.00000E+00
 -1      2005 9.74785E-01 1.90817E+00 0.00000E+00
 -1      2006 1.42126E+00 3.00493E+00 0.00000E+00
 -1      2007 4.32688E-01 1.14234E+00 0.00000E+00
 -1      2008 1.37399E+00 2.84653E+00 0.00000E+00
 -1      2009 1.87049E+00 6.44353E+00 0.00000E+00
 -1      2010 1.88446E+00 5.34031E+00 0.00000E+00
 -1      2011 4.96710E-01 1.24409E+01 0.00000E+00
 -1      2012 1.07014E+00 1.06882E+01 0.00000E+00
 -1      2013-3.78719E+00 2.10548E+01 0.00000E+00
 -1      2014-2.43796E+00 1.86367E+01 0.00000E+00
 -1      2015-1.23274E+01 2.71049E+01 0.00000E+00
 -1      2016-1.38236E+01 1.80011E+01 0.00000E+00
 -1      2017-1.20188E+01 2.04888E+01 0.00000E+00
 -1      2018-1.26142E+01 1.54395E+01 0.00000E+00
 -1      2019-1.02310E+01 1.47396E+01 0.00000E+00
 -1      2020-8.48530E+00 7.61514E+00 0.00000E+00
 -1      2021-9.60844E+00 9.28868E+00 0.00000E+00
 -1      2022-4.27599E+00 2.73755E+00 0.00000E+00
 -1      2023-5.23557E+00 3.68664E+00 0.00000E+00
 -1      2024-4.54377E-02 4.77611E-02 0.00000E+00
 -1      2025-1.56084E-01 2.01235E-02 0.00000E+00
 -1      2026 1.71055E-01 2.76977E-01 0.00000E+00
 -1      2027 1.41572E-01 2.14107E-01 0.00000E+00
 -1      2028 3.65307E-01 6.20058E-01 0.00000E+00
 -1      2029 1.52667E+00 4.20852E+00 0.00000E+00
 -1      2030 5.60080E-01 8.86624E+00 0.00000E+00
 -1      2031-3.27120E+00 1.58408E+01 0.00000E+00
 -1      2032-4.46485E+00 4.49151E+00 0.00000E+00
 -1      2033 2.93500E-01 4.96600E-01 0.00000E+00
 -1      2034-4.32908E-01 2.75086E-01 0.00000E+00
 -1      2035-6.27284E+00 2.07600E+01 0.00000E+00
 -1      2036-9.64006E-01 1.19763E+01 0.00000E+00
 -1      2037 1.32063E+00 6.24524E+00 0.00000E+00
 -1      2038-1.07180E+01 2.37427E+01 0.00000E+00
 -1      2039-8.62917E+00 1.05708E+01 0.00000E+00
 -1      2040-2.92009E+00 2.41454E+00 0.00000E+00
 -1      2041-6.33388E+00 7.28579E+00 0.00000E+00
 -1      2042 3.16857E-02 3.26674E-01 0.00000E+00
 -1      2043 5.09881E-01 1.12940E+00 0.00000E+00
 -1      2044-9.23969E+00 2.03683E+01 0.00000E+00
 -1      2045-5.38007E+00 1.54175E+01 0.00000E+00
 -1      2046-3.89299E+00 1.33175E+01 0.00000E+00
 -1      2047 5.37849E-01 6.05682E+00 0.00000E+00
 -1      2048 8.65629E-01 4.95540E+00 0.00000E+00
 -1      2049-2.94102E+00 4.13615E+00 0.00000E+00
 -1      2050-3.63388E+00 5.43163E+00 0.00000E+00
 -1      2051-2.70542E+00 1.11196E+01 0.00000E+00
 -1      2052-1.60095E+00 9.58806E+00 0.00000E+00
 -1      2053-4.51585E+00 1.07720E+01 0.00000E+00
 -1      2054-6.71703E+00 1.08197E+01 0.00000E+00
 -1      2055-7.88263E+00 1.26361E+01 0.00000E+00
 -1      2056-8.05352E+00 1.50735E+01 0.00000E+00
 -1      2057 2.02513E-01 8.02292E-01 0.00000E+00
 -1      2058-7.93894E-02 6.99866E-01 0.00000E+00
 -1      2059-4.35702E+00 7.21121E+00 0.00000E+00
 -1      2060-5.20364E+00 8.88277E+00 0.00000E+00
 -1      2061-7.46070E+00 1.77818E+01 0.00000E+00
 -1      2062-8.45731E-01 6.75668E-01 0.00000E+00
 -1      2063-1.36939E+00 1.30944E+00 0.00000E+00
 -1      2064-3.82373E-01 5.93423E-01 0.00000E+00
 -1      2065 1.06500E+00 3.97742E+00 0.00000E+00
 -1      2066 1.15617E+00 3.18510E+00 0.00000E+00
 -1      2067 4.51390E-01 3.77319E+00 0.00000E+00
 -1      2068-4.57264E-01 8.66435E+00 0.00000E+00
 -1      2069 2.20718E-01 7.31502E+00 0.00000E+00
 -1      2070-1.89484E+00 7.94980E+00 0.00000E+00
 -1      2071-2.98075E-01 5.87013E+00 0.00000E+00
 -1      2072-1.61032E+00 2.05670E+00 0.00000E+00
 -1      2073-2.11304E+00 2.96930E+00 0.00000E+00
 -1      2074-1.50556E+00 3.78065E+00 0.00000E+00
 -1      2075-8.63211E-01 1.79222E+00 0.00000E+00
 -1      2076 5.78648E-01 1.02735E+00 0.00000E+00
 -1      2077 4.58897E-01 9.65901E-01 0.00000E+00
 -1      2078-2.80101E-01 1.15909E+00 0.00000E+00
 -1      2079 5.56278E-01 1.07874E+00 0.00000E+00
 -1      2080 8.07309E-01 2.20740E+00 0.00000E+00
 -1      2081 1.12966E+00 2.46279E+00 0.00000E+00
 -1      2082 5.45836E-01 9.75773E-01 0.00000E+00
 -1      2083 5.39709E-01 9.15319E-01 0.00000E+00
 -1      2084 8.05308E-01 1.46116E+00 0.00000E+00
 -1      2085 7.62964E-01 1.42799E+00 0.00000E+00
 -1      2086 5.05242E-01 1.45398E+00 0.00000E+00
 -1      2087 1.04713E+00 2.01364E+00 0.00000E+00
 -1      2088-1.49044E+00 6.05187E+00 0.00000E+00
 -1      2089-9.31075E-01 4.90353E+00 0.00000E+00
 -1      2090-2.71251E+00 6.81790E+00 0.00000E+00
 -1      2091-4.75895E-01 3.63949E+00 0.00000E+00
 -1      2092 9.75366E-01 1.81224E+00 0.00000E+00
 -1      2093 3.67450E-01 2.05904E+00 0.00000E+00
 -1      2094-2.13756E-02 2.77235E+00 0.00000E+00
 -1      2095-2.85582E-01 1.90627E+00 0.00000E+00
 -1      2096-7.75135E+00 1.73490E+01-4.99503E-04
 -1      2097-5.64894E+00 1.50175E+01 5.26913E-04
 -1      2098-5.01733E+00 1.77172E+01 6.24024E-05
 -1      2099 1.46114E+00 5.15247E+00-1.53313E-04
 -1      2100 1.30756E+00 6.25685E+00 1.93787E-05
 -1      2101 8.50028E-01 4.96296E+00-1.36374E-05
 -1      2102-4.88565E+00 3.99528E+00-1.54228E-04
 -1      2103-5.28042E+00 3.68011E+00-8.65574E-05
 -1      2104-3.99613E+00 2.98871E+00 1.41322E-04
 -1      2105-6.68956E+00 4.40068E+00 5.63035E-05
 -1      2106-5.62962E+00 3.37664E+00-6.31822E-06
 -1      2107-5.32223E+00 2.02366E+01 9.26606E-05
 -1      2108-5.01876E+00 2.07091E+01 6.28730E-04
 -1      2109-6.58196E+00 2.02871E+01-1.14954E-03
 -1      2110-6.64289E+00 2.35038E+01 1.24972E-03
 -1      2111-2.24171E-01 1.18371E-01-3.77968E-04
 -1      2112-1.29254E-01 3.11429E-02 2.27298E-05
 -1      2113-9.37929E-02 1.32955E-01 5.20305E-04
 -1      2114-1.67138E-01 2.54652E-01 3.72351E-04
 -1      2115-2.25798E-01 1.19679E-01 4.72871E-04
 -1      2116-9.54462E-02 1.33136E-01-4.64656E-05
 -1      2117 1.03225E+00 7.51616E+00-1.30854E-04
 -1      2118 5.20282E-01 6.06570E+00-4.42295E-05
 -1      2119-7.38448E+00 8.82909E+00 4.79509E-05
 -1      2120-5.46436E+00 8.29739E+00-1.20302E-04
 -1      2121-4.58255E+00 6.69574E+00 4.06084E-05
 -1      2122-6.33008E+00 7.17835E+00-3.63955E-05
 -1      2123 8.64282E-02 1.37198E-01-2.40748E-04
 -1      2124 3.13322E-01 5.02992E-01 2.84769E-04
 -1      2125 3.72786E-01 6.21521E-01-1.77699E-04
 -1      2126 1.20252E-01 2.04849E-01 5.09274E-04
 -1      2127 2.08203E-01 3.33400E-01 1.20997E-04
 -1      2128-1.24170E+01 2.08025E+01 2.55734E-04
 -1      2129-1.08127E+01 1.76935E+01 5.19233E-05
 -1      2130-9.59656E+00 2.06906E+01 4.52520E-05
 -1      2131-7.36659E-01 1.06915E+00 8.16955E-06
 -1      2132-2.92278E-01 1.16764E+00-5.63387E-05
 -1      2133-3.84879E-01 5.96103E-01-1.52802E-04
 -1      2134-8.08202E+00 2.35403E+01 3.31621E-04
 -1      2135 1.05243E+00 3.98415E+00-1.20972E-04
 -1      2136-6.87932E-02-1.55910E-02-2.74532E-04
 -1      2137-1.19291E-01-2.60821E-02-2.63569E-04
 -1      2138 9.95516E-02 1.92306E-01 1.67157E-04
 -1      2139 9.96163E-02 1.92818E-01-2.65820E-04
 -1      2140 2.32281E-01 4.35728E-01-8.51837E-05
 -1      2141 1.20198E-01 2.05154E-01-1.36246E-04
 -1      2142-8.16463E-02 7.03735E-01-6.54004E-05
 -1      2143 6.63964E-01 2.95477E+00 1.57232E-05
 -1      2144 4.22769E-01 3.79870E+00-3.89517E-05
 -1      2145-5.35047E-02 2.79254E+00 3.53876E-04
 -1      2146 1.14255E+00 3.17929E+00 1.78690E-04
 -1      2147 1.11963E+00 2.45637E+00 1.84714E-05
 -1      2148 1.46922E+00 3.41149E+00-1.01732E-04
 -1      2149-9.79874E-01 4.92141E+00 3.02570E-04
 -1      2150-3.43262E-01 5.88946E+00-3.66499E-05
 -1      2151 3.40727E-02 4.77785E+00-6.79465E-05
 -1      2152 7.86366E-01 2.25321E+00 1.64611E-04
 -1      2153 4.83166E-01 1.48871E+00-3.40022E-05
 -1      2154 7.84075E-01 1.66242E+00 1.55867E-05
 -1      2155-6.72728E+00 2.34688E+01 2.92545E-04
 -1      2156-3.98898E+00 2.38245E+01 1.62908E-03
 -1      2157-2.63927E+00 2.12157E+01-1.22956E-03
 -1      2158-1.42864E+00 1.87899E+01-3.14184E-04
 -1      2159-3.90139E+00 1.78464E+01 2.89832E-04
 -1      2160-2.64133E+00 2.12151E+01 6.22462E-04
 -1      2161 5.03014E-02 2.17844E-01 1.18348E-04
 -1      2162-1.59260E-02 6.90017E-03 2.10350E-05
 -1      2163 2.15877E-02 8.87218E-02 5.69213E-05
 -1      2164 1.36912E-01 2.77955E-01 4.55087E-04
 -1      2165 1.44093E-02 3.12255E-02-6.01562E-05
 -1      2166-1.19605E-01-2.46065E-02-7.31731E-04
 -1      2167-6.84344E-02-1.62735E-02 2.83001E-04
 -1      2168 2.78487E-01 5.47390E-01-4.33300E-04
 -1      2169 9.89665E-02 2.17383E-01-8.60397E-05
 -1      2170 2.65031E-01 5.98572E-01 2.25526E-04
 -1      2171-1.33978E+01 1.40487E+01 5.98362E-04
 -1      2172-1.09676E+01 1.33769E+01 1.31894E-04
 -1      2173-1.12431E+01 1.58786E+01-5.58584E-04
 -1      2174 5.81572E-01 1.05158E+00-8.59445E-05
 -1      2175 8.11246E-01 1.49143E+00 1.66059E-04
 -1      2176 3.77255E-02 3.41771E-01-6.00244E-05
 -1      2177 2.03148E-01 4.51055E-01-1.29041E-04
 -1      2178 2.14361E-01 8.23309E-01-2.22280E-04
 -1      2179-3.53113E+00 8.24854E+00 3.50729E-05
 -1      2180-2.93209E+00 6.30938E+00-2.27654E-04
 -1      2181-2.22665E+00 4.99085E+00 6.73249E-06
 -1      2182-3.68254E+00 5.33559E+00-6.23918E-05
 -1      2183-1.42890E+00 1.87891E+01-4.73438E-04
 -1      2184 1.51572E+00 4.20597E+00-2.84413E-05
 -1      2185 1.22604E-01 1.86047E-01 5.15612E-05
 -1      2186 2.11268E-01 3.50899E-01-1.24866E-04
 -1      2187 2.03510E-01 3.35185E-01 1.49007E-04
 -1      2188 1.30505E-01 2.63332E-01-1.80194E-04
 -1      2189 1.02864E-01 1.31503E+00-1.03088E-04
 -1      2190 3.45282E-01 2.07482E+00-2.38536E-05
 -1      2191-3.00836E-01 1.91941E+00-3.18463E-05
 -1      2192-3.61180E+00 1.77083E+00-4.36121E-04
 -1      2193-2.59320E+00 1.14788E+00-3.01204E-03
 -1      2194-2.36301E+00 1.42531E+00-1.42028E-03
 -1      2195-3.87807E+00 1.14142E+01-2.07139E-04
 -1      2196-2.71088E+00 9.41531E+00-1.94203E-04
 -1      2197-2.10554E+00 1.17780E+01-1.93144E-04
 -1      2198 6.16965E-01 1.06199E+00-1.19483E-05
 -1      2199 4.17131E-01 6.87899E-01 1.74893E-04
 -1      2200 8.20581E-01 1.93994E+00-1.55460E-05
 -1      2201 6.86316E-01 1.48525E+00 1.55296E-04
 -1      2202 5.77746E-01 1.50739E+00 3.42030E-05
 -1      2203-8.27412E+00 1.07988E+01-6.13461E-06
 -1      2204-7.51372E+00 1.28975E+01-5.06418E-04
 -1      2205-9.57321E+00 1.26069E+01-7.41923E-05
 -1      2206-1.07163E+00 1.01940E+01 5.84988E-06
 -1      2207-8.40338E-01 1.20523E+01-5.12564E-05
 -1      2208-1.88392E+00 1.37991E+01-7.85009E-05
 -1      2209-2.98005E+00 4.05438E+00 1.69308E-04
 -1      2210-3.53278E+00 1.54345E+01 2.13663E-04
 -1      2211-3.73758E+00 1.33974E+01-3.32695E-05
 -1      2212-2.13945E+00 2.95738E+00-4.64030E-05
 -1      2213-3.64185E+00 3.31140E+00-3.34999E-05
 -1      2214 2.00186E-01 7.32500E+00-3.05700E-04
 -1      2215-8.51375E-01 6.73336E-01-5.45611E-04
 -1      2216-1.37478E+00 1.30751E+00-4.24848E-05
 -1      2217 1.66969E-02 1.04527E+01-7.73629E-05
 -1      2218 8.20861E-01 1.94050E+00 1.70443E-05
 -1      2219 1.35155E+00 2.91699E+00-2.94863E-04
 -1      2220 1.13684E+00 2.23431E+00 3.68750E-04
 -1      2221 1.56678E+00 3.45372E+00 2.52898E-04
 -1      2222 1.31342E+00 2.69832E+00-9.17919E-05
 -1      2223 1.32729E+00 2.67664E+00-3.92007E-04
 -1      2224-5.40405E+00 5.70033E+00-1.32074E-05
 -1      2225 1.07517E+00 2.35453E+00 1.09492E-04
 -1      2226 1.35206E+00 2.91762E+00 1.74384E-04
 -1      2227 1.07497E+00 2.35388E+00 2.15628E-05
 -1      2228 1.50836E+00 1.13192E+01-1.86581E-04
 -1      2229 1.01745E+00 1.31399E+01 4.54450E-04
 -1      2230 1.50801E+00 1.13190E+01 2.53765E-04
 -1      2231 4.61526E-02 2.04581E-01 3.21117E-05
 -1      2232-8.82164E-01 1.78136E+00 1.11646E-04
 -1      2233 1.17201E-01 2.96953E-01 1.07108E-04
 -1      2234 1.16941E-01 2.97869E-01-1.65933E-04
 -1      2235 1.01137E-01 2.96028E-01-1.13039E-04
 -1      2236-3.41185E-01 1.66767E+01 5.90031E-04
 -1      2237 4.62520E-01 1.45682E+01-2.45798E-04
 -1      2238 4.62601E-01 1.45682E+01-6.43739E-06
 -1      2239-9.60774E-01 2.65394E+00-6.89765E-06
 -1      2240-7.32463E+00 6.06676E+00-6.35460E-05
 -1      2241-5.82150E+00 5.26912E+00 1.45209E-04
 -1      2242-6.79677E+00 6.65106E+00-7.37660E-05
 -1      2243-6.86453E+00 6.52664E+00 1.21975E-04
 -1      2244-5.87755E+00 5.16275E+00-5.41485E-05
 -1      2245 5.45759E-01 1.04882E+00 2.22634E-04
 -1      2246 5.03028E-01 1.10449E+00-3.19089E-04
 -1      2247 7.30146E-01 1.48296E+00 1.26710E-04
 -1      2248 1.63316E+00 3.90694E+00-1.85010E-04
 -1      2249 1.94403E+00 4.94016E+00-6.87659E-05
 -1      2250 1.75320E+00 4.05422E+00-1.52434E-06
 -1      2251 9.13591E-01 1.83766E+00-1.75005E-04
 -1      2252 5.77623E-01 1.50654E+00 1.62100E-04
 -1      2253-1.54910E+00 8.08425E-01-1.40399E-03
 -1      2254-1.55983E+00 6.75122E-01 7.90128E-03
 -1      2255-7.81828E-01 3.10223E-01 7.73015E-03
 -1      2256-1.57244E+00 7.28364E-01 9.08490E-04
 -1      2257-6.18503E+00 1.02052E+01 3.03717E-04
 -1      2258-5.43780E+00 1.22528E+01-6.90165E-06
 -1      2259-4.07037E+00 1.01605E+01-1.63673E-04
 -1      2260 1.66137E+00 5.78073E+00-1.16994E-04
 -1      2261 1.88228E+00 5.35691E+00 2.17558E-04
 -1      2262 1.70085E+00 4.78802E+00 8.24811E-05
 -1      2263 1.67081E+00 5.77075E+00-2.25035E-04
 -1      2264 1.70532E+00 4.77935E+00 1.24352E-04
 -1      2265-1.55494E-02 5.98950E-03 1.76329E-04
 -1      2266 2.05605E+00 5.94744E+00 3.12122E-04
 -1      2267 2.07127E+00 7.14117E+00-7.31084E-05
 -1      2268 2.07074E+00 7.14093E+00-2.38750E-04
 -1      2269-5.18142E-01 3.65211E+00-3.73889E-04
 -1      2270 4.67203E-01 1.12358E+00-2.37548E-04
 -1      2271 1.56700E+00 3.45373E+00-2.80347E-04
 -1      2272 4.57848E-01 9.22978E-01 7.71328E-05
 -1      2273 2.62228E-01 5.94145E-01 1.70700E-04
 -1      2274 3.06307E-01 7.57325E-01 6.92917E-05
 -1      2275-4.28577E-01 2.72445E-01 9.68456E-04
 -1      2276 9.89917E-02 2.17198E-01-7.40295E-06
 -1      2277-2.13830E+00 7.38833E+00-8.80616E-05
 -1      2278-2.93289E+00 2.38766E+00-2.05711E-04
 -1      2279-1.63183E+00 2.04649E+00-1.37425E-04
 -1      2280-2.22608E+00 1.61052E+00-3.45167E-04
 -1      2281-9.81782E+00 1.50284E+01 1.16755E-03
 -1      2282 5.41257E-01 8.87932E+00 3.70678E-04
 -1      2283-1.54236E+00 3.69940E+00 1.51596E-05
 -1      2284 1.98063E+00 8.46362E+00 3.12351E-04
 -1      2285 1.75125E+00 7.66031E+00 1.57955E-04
 -1      2286 1.27344E+00 8.25590E+00-1.16100E-04
 -1      2287 1.54387E+00 6.95559E+00 7.15435E-05
 -1      2288-1.16314E+01 1.61513E+01 8.79136E-04
 -1      2289-1.05595E+01 1.36438E+01 4.95499E-04
 -1      2290-1.33974E+01 1.40483E+01-9.50256E-04
 -1      2291-4.75542E-01 1.67914E-01-1.50676E-03
 -1      2292-1.50368E+00 9.43161E-01-3.00023E-04
 -1      2293-3.61775E+00 1.77399E+00-6.48602E-04
 -1      2294-8.69721E-01 7.18539E+00 1.72371E-04
 -1      2295-1.60541E+00 6.10766E+00 4.47713E-05
 -1      2296-7.79507E+00 5.59899E+00-1.61269E-04
 -1      2297-6.68981E+00 4.40066E+00-1.65584E-05
 -1      2298-4.59846E+00 2.49968E+00-1.72027E-04
 -1      2299-4.59738E+00 2.49868E+00 4.10192E-04
 -1      2300-8.96630E+00 9.94819E+00-3.27249E-04
 -1      2301-9.95374E+00 1.19045E+01-2.05328E-04
 -1      2302-1.03374E+01 1.16636E+01 2.32429E-04
 -1      2303-1.39880E+00 8.49380E+00 1.33350E-04
 -1      2304-3.41404E-01 1.66768E+01-5.67165E-04
 -1      2305-1.31876E+00 1.63424E+01-9.34309E-06
 -1      2306 1.53358E+00 6.96641E+00 2.61945E-05
 -1      2307 1.25844E+00 8.26770E+00 1.68363E-05
 -1      2308-5.62931E+00 3.37673E+00 9.47323E-05
 -1      2309 4.87784E-01 8.40279E-01-4.63946E-05
 -1      2310 2.88693E-01 5.20336E-01-1.66066E-05
 -1      2311 5.29214E-01 9.50544E-01-1.20647E-04
 -1      2312-3.40565E+00 1.94529E+00-1.04999E-03
 -1      2313-3.19803E+00 2.15872E+00 3.47960E-04
 -1      2314 6.89529E-02 9.95330E-02-1.57180E-04
 -1      2315 4.74681E-02 6.54729E-02 3.75376E-04
 -1      2316 6.94210E-02 1.00365E-01-8.74181E-05
 -1      2317 8.66593E-02 1.37445E-01-1.31984E-05
 -1      2318-2.60433E+00 1.16344E+00-3.22637E-04
 -1      2319-2.36753E+00 1.41932E+00-1.31164E-04
 -1      2320-1.58657E+01 1.83957E+01 4.66863E-04
 -1      2321-1.22379E+01 1.78105E+01 4.61985E-05
 -1      2322-1.39493E+01 2.09132E+01-5.72563E-04
 -1      2323 2.47119E-01 3.89911E-01-1.26197E-04
 -1      2324-1.56798E+00 6.63843E-01 6.47433E-03
 -1      2325-4.86613E+00 4.03380E+00 1.13781E-04
 -1      2326-1.13679E+00 1.40560E+01-3.08305E-04
 -1      2327-1.26687E+01 1.22993E+01 5.47632E-04
 -1      2328-1.13668E+01 1.26514E+01 2.36746E-04
 -1      2329 1.01153E-01 2.94811E-01-1.45326E-05
 -1      2330 1.01703E+00 1.31398E+01-2.94470E-04
 -1      2331 2.56524E-01 6.74519E-01 3.63014E-05
 -1      2332 1.00437E+00 1.92505E+00-3.87374E-04
 -1      2333 3.03919E-01 4.98067E-01 2.86102E-04
 -1      2334 3.04859E-01 5.42960E-01 1.15381E-04
 -1      2335 1.75015E+00 9.98359E+00-3.52576E-05
 -1      2336 1.98054E+00 8.46362E+00-1.81293E-04
 -1      2337 9.47147E-01 1.78626E+00-2.29109E-04
 -1      2338 9.19231E-01 1.86728E+00 2.44513E-04
 -1      2339 1.16228E+00 2.31271E+00-1.03105E-04
 -1      2340-1.54846E+00 8.08038E-01 3.27406E-03
 -1      2341-7.76786E-01 2.98602E-01 1.18321E-03
 -1      2342 4.51576E-01 9.88216E-01-6.78257E-05
 -1      2343 1.51854E+00 3.31242E+00 2.58184E-04
 -1      2344 2.05582E+00 5.94727E+00-1.80229E-04
 -1      2345-2.13209E+00 1.60597E+01-1.23635E-04
 -1      2346-3.99034E-01 9.73619E-02 6.52640E-03
 -1      2347 1.74999E+00 9.98351E+00-1.75489E-04
 -1      2348 8.11964E-01 9.70045E+00 2.53786E-04
 -1      2349 9.40484E-01 1.73247E+00-6.14089E-05
 -1      2350 7.50386E-01 1.39441E+00 1.96564E-04
 -1      2351 4.05277E-01 1.10094E+01-4.15535E-04
 -1      2352-8.31607E-01 3.93349E-01 1.61021E-03
 -1      2353 1.75369E+00 4.05430E+00 2.33971E-04
 -1      2354 3.57150E-01 1.29859E+01 9.21159E-06
 -1      2355 1.42347E-02 3.11834E-02 1.26006E-04
 -1      2356 9.08448E-01 9.76982E+00-3.25803E-05
 -1      2357-5.65162E-01 8.73226E+00 5.46320E-05
 -1      2358-4.51566E+00 4.39353E+00-1.06818E-04
 -1      2359-8.96262E+00 6.99250E+00 7.19434E-05
 -1      2360-7.91608E+00 8.22174E+00 2.76183E-04
 -1      2361 2.61453E-01 5.22047E-01 3.76935E-05
 -1      2362-1.53414E+01 2.02798E+01 2.46153E-04
 -1      2363-1.50606E+01 2.31714E+01 2.99162E-03
 -1      2364-1.71285E+01 2.04617E+01-9.91475E-04
 -1      2365-4.21187E-01 1.12893E-01-7.21870E-04
 -1      2366 1.35781E+00 2.76519E+00 2.26177E-04
 -1      2367-8.96367E+00 9.81797E+00 2.14790E-04
 -1      2368-1.13929E+01 1.03074E+01-2.32546E-04
 -1      2369 1.17285E+00 2.27784E+00-9.77225E-05
 -1      2370-1.45434E+01 1.58231E+01-5.18989E-04
 -1      2371-1.30828E+01 1.62647E+01-1.12671E-04
 -1      2372 6.90481E-01 1.51220E+00-3.65173E-05
 -1      2373 4.69763E-01 1.12723E+00-4.13648E-05
 -1      2374-3.61907E+00 1.82891E+01-4.59008E-04
 -1      2375-2.28627E+00 1.59694E+01 2.01485E-04
 -1      2376 1.33650E+00 2.75044E+00 4.95382E-05
 -1      2377-1.40386E+01 2.09932E+01 1.00677E-03
 -1      2378-1.26427E+01 1.80998E+01-3.64460E-04
 -1      2379-1.58659E+01 1.83955E+01-9.57230E-05
 -1      2380 4.71540E-02 6.59817E-02-3.27860E-04
 -1      2381-1.08028E+01 2.37095E+01 3.92522E-04
 -1      2382 3.02114E-01 5.14189E-01-2.67094E-05
 -1      2383 2.14438E-01 5.15904E-01 2.66791E-04
 -1      2384 2.54276E-01 6.70371E-01 6.21502E-06
 -1      2385-1.97574E-01 1.22894E+01 1.90864E-04
 -1      2386 1.94337E+00 4.93995E+00-2.54608E-04
 -1      2387 3.69619E-01 1.04433E+00 3.66138E-05
 -1      2388 4.03738E-01 1.03500E+00-1.58680E-04
 -1      2389 3.69538E-01 1.04439E+00-5.76585E-05
 -1      2390 3.37068E-01 6.37426E-01-2.10519E-05
 -1      2391-3.98123E+00 3.02133E+00-7.88634E-05
 -1      2392-9.70776E+00 2.86041E+01-3.26549E-04
 -1      2393-7.26523E+00 2.83053E+01-7.03711E-05
 -1      2394-7.26092E+00 2.83012E+01-7.03180E-05
 -1      2395-5.67784E+00 2.65477E+01-1.94569E-03
 -1      2396-3.99141E+00 2.38225E+01 9.16809E-04
 -1      2397-5.67783E+00 2.65445E+01-7.20503E-04
 -1      2398-9.53861E+00 9.17474E+00-4.15316E-05
 -1      2399-7.91020E+00 8.10680E+00-1.10099E-04
 -1      2400-1.01951E+01 2.52797E+01-4.82869E-04
 -1      2401-1.16957E+01 2.87268E+01-3.79594E-04
 -1      2402-8.25736E+00 2.51920E+01-4.84934E-04
 -1      2403-1.03056E+01 2.70126E+01 1.26617E-04
 -1      2404-1.01573E+01 8.56720E+00-2.61103E-04
 -1      2405 2.07202E-01 6.55548E-01-1.26765E-04
 -1      2406 2.07064E-01 6.57176E-01 3.43836E-04
 -1      2407 1.54885E-01 5.31558E-01-4.91848E-04
 -1      2408 4.77877E-02 1.61348E-01-4.47920E-04
 -1      2409 4.76513E-02 1.60285E-01 3.43509E-04
 -1      2410 1.54397E-01 5.30736E-01-3.19261E-04
 -1      2411 5.87007E-02 1.82444E-01-1.16840E-04
 -1      2412 5.86488E-02 1.80733E-01-3.59727E-04
 -1      2413-2.03371E+01 2.94270E+01-9.59662E-05
 -1      2414-1.89875E+01 2.57674E+01-1.28436E-03
 -1      2415-2.03439E+01 2.94334E+01 1.42344E-04
 -1      2416-1.89932E+01 2.57619E+01-2.39892E-03
 -1      2417-1.84769E+01 2.34616E+01-2.82575E-03
 -1      2418-1.70103E+01 2.47207E+01 1.96956E-04
 -1      2419-1.84812E+01 2.34532E+01 2.86774E-03
 -1      2420-1.69642E+01 2.91797E+01 3.24434E-03
 -1      2421-1.55775E+01 2.55484E+01-1.18699E-03
 -1      2422-1.69663E+01 2.91709E+01 5.46894E-06
 -1      2423-1.54861E+01 2.54573E+01 1.13391E-03
 -1      2424-1.29895E+01 2.54763E+01-1.69385E-03
 -1      2425-1.17006E+01 2.87293E+01-1.19018E-04
 -1      2426-1.43467E+01 2.90846E+01 3.44390E-03
 -1      2427-1.43418E+01 2.90910E+01-4.36393E-03
 -1      2428-2.19204E-01-6.85417E-03 3.44662E-03
 -1      2429-2.26413E-01 2.20128E-03 1.39447E-04
 -1      2430-7.79544E+00 5.59878E+00 1.88439E-04
 -1      2431-4.73512E-01 1.64977E-01 1.41544E-03
 -1      2432-4.12743E-01 9.26236E-02-3.76297E-04
 -1      2433-8.96249E+00 6.99251E+00-7.37401E-05
 -1      2434-1.01576E+01 8.56674E+00 3.96038E-04
 -1      2435-1.26686E+01 1.22992E+01-3.96099E-04
 -1      2436-1.13928E+01 1.03073E+01 7.25613E-05
 -1      2437-1.45431E+01 1.58226E+01 5.63329E-04
 -1      2438-1.51532E+01 2.32556E+01-1.26131E-03
 -1      2439-1.71282E+01 2.04607E+01 9.77336E-04
 -1      2440-1.37413E+01 2.39523E+01 3.37878E-04
 -1      2441-6.78816E+00 2.51507E+01-9.85483E-04
 -1      2442 1.53020E-01 4.67578E-01 1.03739E-04
 -1      2443-1.47580E+01 2.71488E+01-3.04192E-04
 -1      2444-1.30720E+01 2.55699E+01 1.44316E-03
 -1      2445-9.70868E+00 2.85975E+01 2.50637E-03
 -1      2446-3.82989E+00 2.08544E+01 1.74794E-04
 -1      2447-8.17162E+00 2.52272E+01-1.54034E-03
 -1      2448-1.01108E+01 2.53134E+01 3.25760E-04
 -1      2449-3.20425E+00 2.15148E+00-6.36664E-04
 -1      2450 8.64303E-01 1.86039E+00-1.86811E-04
 -1      2451 1.24321E+00 1.02987E+01 5.64225E-05
 -1      2452 5.15408E-01 1.10844E+01 3.10425E-04
 -1      2453-7.14831E-02 1.23699E+01-2.22434E-04
 -1      2454 1.64031E+00 3.90963E+00-2.46009E-04
 -1      2455 1.66856E+00 3.77633E+00 1.73303E-04
 -1      2456-1.00136E+00 1.41398E+01 1.28020E-04
 -1      2457 1.52161E+00 3.31503E+00 3.19707E-04
 -3
    1PSTEP                         2           1           1          
  100CL  101 1.000000000         890                     0    1           1
 -4  STRESS      6    1
 -5  SXX         1    4    1    1
 -5  SYY         1    4    2    2
 -5  SZZ         1    4    3    3
 -5  SXY         1    4    1    2
 -5  SYZ         1    4    2    3
 -5  SZX         1    4    3    1
 -1      1568 3.55245E+00 6.82730E+00 3.34091E+00 6.49356E+00-9.27189E-02-1.72511E-01
 -1      1569 2.47342E+00 6.43537E+00 3.00881E+00 6.51328E+00 8.91174E-02 1.22587E-01
 -1      1570 4.12284E+00 2.13053E+00 2.07588E+00 3.63092E+00 4.02359E-02 1.94662E-02
 -1      1571 4.07660E+00 2.27506E+00 2.09773E+00 3.66899E+00 2.55147E-02 9.65554E-03
 -1      1572-3.07240E+00 5.25949E+00 7.23820E-01 1.79799E+00 1.09347E-01-1.04455E-01
 -1      1573-2.78449E+00 5.01971E+00 7.24847E-01 1.89609E+00 2.19159E-02-4.48537E-02
 -1      1574-3.86713E+01-1.18246E+01-1.66594E+01-6.25950E-01 7.43056E-02-3.37174E-01
 -1      1575-4.06161E+01-1.16745E+01-1.70709E+01 2.66265E-01-1.65730E-01 4.29717E-01
 -1      1576 1.10441E+01 9.84571E+00 6.95126E+00 1.01666E+01-3.08173E-02 5.16225E-02
 -1      1577 1.32039E+01 1.09923E+01 7.95737E+00 1.19071E+01-1.47054E-02 1.90313E-02
 -1      1578 1.37959E+01 1.15094E+01 8.34134E+00 1.25471E+01 8.50071E-05 5.46774E-03
 -1      1579 1.38562E+01 1.15894E+01 8.39341E+00 1.26326E+01-2.28815E-03 4.59361E-03
 -1      1580 1.34311E+01 1.11538E+01 8.10892E+00 1.21903E+01 4.06556E-04 1.34879E-02
 -1      1581 1.23583E+01 1.01286E+01 7.41862E+00 1.11405E+01 8.22105E-03 2.00012E-02
 -1      1582 1.05690E+01 8.50479E+00 6.29607E+00 9.45272E+00 2.77668E-02 3.61829E-02
 -1      1583 8.32164E+00 6.66878E+00 4.94772E+00 7.45984E+00 2.01317E-02 1.55659E-02
 -1      1584 6.26514E+00 5.10546E+00 3.75419E+00 5.68559E+00 6.34562E-03-5.77960E-03
 -1      1585 4.98618E+00 4.43057E+00 3.10238E+00 4.66483E+00-2.85407E-02-2.81985E-03
 -1      1586 1.16219E+01 9.78177E+00 7.03123E+00 1.03279E+01 5.45343E-02-6.73888E-02
 -1      1587 1.31186E+01 1.10094E+01 7.97227E+00 1.19138E+01 5.16341E-03-1.46310E-02
 -1      1588 1.37790E+01 1.15102E+01 8.34393E+00 1.25345E+01 1.66363E-03-8.15521E-03
 -1      1589 1.38713E+01 1.15521E+01 8.38936E+00 1.26017E+01-7.46391E-04-5.52793E-03
 -1      1590 1.34510E+01 1.11519E+01 8.11854E+00 1.21998E+01 1.68174E-03-1.25586E-02
 -1      1591 1.23802E+01 1.01472E+01 7.43262E+00 1.11573E+01-1.51339E-03-1.76123E-02
 -1      1592 1.05132E+01 8.56875E+00 6.29835E+00 9.46867E+00-1.64433E-02-2.24149E-02
 -1      1593 8.25464E+00 6.66858E+00 4.92546E+00 7.43204E+00-1.25024E-02-1.19390E-03
 -1      1594 6.26436E+00 5.09045E+00 3.74251E+00 5.67240E+00-5.49664E-03 2.01749E-03
 -1      1595 4.98215E+00 4.33414E+00 3.09602E+00 4.61599E+00 2.76089E-02 1.26710E-02
 -1      1596 1.00103E+00 1.41655E+01 5.13766E+00 7.04539E+00 2.29976E-01 1.84613E-01
 -1      1597-2.76062E-01 1.13183E+01 3.66200E+00 7.50767E+00 1.11878E-01-4.59485E-02
 -1      1598 1.54073E+00 1.50990E+01 5.32911E+00 7.83477E+00-2.46351E-01-2.74063E-01
 -1      1599-4.70723E-02 1.17401E+01 3.75985E+00 7.35934E+00-1.20435E-01 3.02954E-02
 -1      1600-2.24383E+01-1.42647E+00-7.60377E+00-8.19007E+00 2.00325E-01-1.01613E-01
 -1      1601-1.97343E+01-2.18581E+00-7.22747E+00-6.77842E+00 6.34802E-02-6.52980E-02
 -1      1602-1.91403E+01-2.16969E+00-7.03066E+00-6.47566E+00-7.41293E-04-4.02364E-03
 -1      1603-1.86357E+01-2.13172E+00-6.85261E+00-6.26513E+00-3.66258E-03-5.31950E-03
 -1      1604-1.76704E+01-2.03764E+00-6.50328E+00-5.90955E+00-8.13050E-03-4.38334E-03
 -1      1605-1.57578E+01-1.83033E+00-5.81527E+00-5.25988E+00-9.82176E-03-1.89721E-03
 -1      1606-1.27331E+01-1.70530E+00-4.73748E+00-4.36253E+00-4.75733E-03-2.63253E-02
 -1      1607-9.22448E+00-2.49104E+00-4.01431E+00-3.58484E+00-2.16208E-01-1.52658E-01
 -1      1608-2.01461E+01-1.39343E+00-7.16752E+00-8.95320E+00-2.32153E-01-6.29484E-02
 -1      1609-1.98400E+01-2.11048E+00-7.23628E+00-6.82696E+00-1.44680E-02-2.10754E-03
 -1      1610-1.91583E+01-2.17713E+00-7.04180E+00-6.49129E+00-6.04477E-04 6.09953E-03
 -1      1611-1.86458E+01-2.14668E+00-6.86015E+00-6.28500E+00 6.76954E-03 9.16602E-03
 -1      1612-1.76968E+01-2.02129E+00-6.50414E+00-5.91901E+00 7.46061E-03 5.61240E-03
 -1      1613-1.57177E+01-1.84810E+00-5.79299E+00-5.26344E+00 8.24734E-03-5.22831E-03
 -1      1614-1.27277E+01-1.63800E+00-4.72895E+00-4.27427E+00-9.65037E-03 1.01642E-02
 -1      1615-9.70088E+00-3.44701E+00-4.10881E+00-4.32922E+00 3.10042E-01 1.17924E-01
 -1      1616 6.29249E+00 3.11759E+00 3.09703E+00 4.74379E+00 2.24119E-03 4.29138E-03
 -1      1617 7.96123E+00 3.77557E+00 3.87201E+00 4.69847E+00 3.13796E-02-6.20943E-03
 -1      1618 7.77605E+00 3.64294E+00 3.77338E+00 3.39071E+00 2.40310E-02-9.04715E-03
 -1      1619 4.98704E+00 2.23097E+00 2.37143E+00 1.60143E+00-2.28980E-02-4.19838E-02
 -1      1620-7.86429E-01-5.75802E-01-4.54462E-01-1.43944E-01-1.71836E-02-3.20191E-02
 -1      1621-1.00384E+01-5.35363E+00-5.13024E+00-1.21581E+00-1.99059E-01 1.39139E-02
 -1      1622 6.28827E+00 3.08522E+00 3.09667E+00 4.79330E+00-2.11785E-02-5.14794E-03
 -1      1623 7.94080E+00 3.78120E+00 3.86639E+00 4.66310E+00-3.11801E-02 5.65351E-03
 -1      1624 7.78510E+00 3.67016E+00 3.78123E+00 3.37138E+00-1.72558E-02 1.13321E-02
 -1      1625 4.95996E+00 2.26138E+00 2.37943E+00 1.54604E+00 6.69534E-03 2.38003E-02
 -1      1626-7.85634E-01-5.85427E-01-4.56925E-01-1.82845E-01 2.74702E-02 2.64215E-02
 -1      1627-9.71224E+00-5.30822E+00-4.96078E+00-1.33624E+00 2.44973E-01-7.19336E-02
 -1      1628-3.01643E-01 8.17521E+00 2.59809E+00 7.34596E+00-2.27381E-02 2.94531E-02
 -1      1629 6.43643E+00 7.47962E+00 4.59341E+00 7.40476E+00 3.77418E-03-1.88202E-03
 -1      1630 8.86576E+00 6.78876E+00 5.16572E+00 8.10095E+00-1.83801E-03-5.30400E-03
 -1      1631 9.90614E+00 4.30914E+00 4.69188E+00 7.28146E+00-2.16008E-03-1.31736E-02
 -1      1632 8.97693E+00 3.32612E+00 4.06184E+00 5.71490E+00 5.28791E-03-8.05884E-04
 -1      1633 8.70276E+00 2.71547E+00 3.76921E+00 4.56659E+00-1.57149E-02 2.75171E-03
 -1      1634 4.02510E+00-7.49495E-01 1.08131E+00 2.75230E+00 3.21296E-03-3.49657E-03
 -1      1635-1.60076E+01-2.62565E+00-6.06756E+00 4.14851E-01 3.30494E-02-9.58073E-02
 -1      1636-1.20546E+01-8.07235E-01-4.24809E+00-2.84541E+00 7.35727E-03 8.20479E-03
 -1      1637-9.97697E+00 3.93924E-02-3.27866E+00-2.09906E+00 7.35441E-03 2.23927E-03
 -1      1638-5.71423E+00 2.35560E+00-1.10022E+00 1.70416E+00 1.91367E-02 2.99935E-03
 -1      1639 7.50040E+00 3.53925E+00 3.64599E+00 5.02779E+00-1.61786E-02-1.15647E-02
 -1      1640-2.49172E+00 3.43922E+00 3.14777E-01 4.18084E+00-1.78089E-02-1.18794E-03
 -1      1641 1.65496E+00 6.56138E+00 2.70816E+00 5.63725E+00 1.24099E-02 1.67499E-03
 -1      1642 8.37353E+00 7.61687E+00 5.27904E+00 8.23953E+00-4.38855E-03-4.19322E-03
 -1      1643 9.42446E+00 5.61755E+00 4.96140E+00 7.82426E+00-2.07745E-03-1.23231E-02
 -1      1644 9.85339E+00 3.36213E+00 4.35740E+00 6.43432E+00-1.26592E-02-9.49447E-03
 -1      1645 8.44256E+00 1.16847E+00 3.17481E+00 4.20116E+00 9.61938E-03 1.53763E-02
 -1      1646-3.64973E+00-2.77977E+00-2.10411E+00 1.74770E+00 1.41285E-02 2.75938E-02
 -1      1647-1.43536E+01-9.68569E-01-5.06725E+00-2.40728E+00-3.32990E-02 1.01327E-02
 -1      1648-1.10977E+01-5.47095E-01-3.84500E+00-2.81529E+00 6.45576E-03 3.35322E-03
 -1      1649-8.00420E+00 1.15040E+00-2.25416E+00-4.80451E-01 7.95962E-03 9.13721E-03
 -1      1650 3.52795E+00 2.73087E+00 2.06251E+00 4.55274E+00-3.40650E-03-4.54614E-04
 -1      1651 7.34257E+00 7.08736E-01 2.65804E+00 4.83799E+00-1.78889E-03-4.91325E-03
 -1      1652 1.19984E+00-8.85181E-01 9.94151E-02 3.23551E+00-1.50955E-03 2.09255E-03
 -1      1653-3.71185E+00 1.85457E+00-6.15531E-01 1.02162E+00 1.16119E-03-7.99707E-04
 -1      1654-1.88181E+00 3.43275E+00 5.13555E-01 2.53573E+00-4.76610E-03-4.11425E-03
 -1      1655 2.77428E+00 3.84084E+00 2.18990E+00 4.41155E+00-3.85443E-03-2.89822E-03
 -1      1656 2.46858E+00 4.76816E+00 2.38234E+00 4.61215E+00-1.45979E-03 1.30851E-03
 -1      1657-3.91908E+00 1.00076E+00-9.61477E-01 9.25645E-01 1.56332E-03-6.27170E-03
 -1      1658-6.84962E+00-1.47561E+00-2.75454E+00 1.27309E+00-1.77922E-02 9.42737E-03
 -1      1659 5.30407E+00 1.56591E+00 2.27045E+00 4.96102E+00-5.36801E-04 1.20462E-03
 -1      1660-3.50040E+00-2.73931E-02-1.16506E+00 1.69601E+00-1.89917E-03 1.24059E-03
 -1      1661 8.86751E+00 3.59748E+00 4.10867E+00 5.82279E+00 1.10383E-02 6.90225E-03
 -1      1662 9.98480E+00 4.43009E+00 4.75680E+00 7.35885E+00-3.64731E-03 1.26686E-02
 -1      1663 8.93311E+00 6.85661E+00 5.21334E+00 8.16422E+00-1.08478E-03 8.58710E-03
 -1      1664 5.71715E+00 7.12162E+00 4.23971E+00 6.95239E+00-1.09222E-03 4.03515E-03
 -1      1665 4.01773E-02 8.18348E+00 2.71860E+00 7.30835E+00 2.68273E-02-4.44490E-03
 -1      1666-2.68203E+00 3.63741E+00 2.81687E-01 4.23156E+00 1.48361E-02 2.04094E-02
 -1      1667-9.81469E+00 3.84753E-01-3.12256E+00-1.59144E+00 2.80723E-03 2.94576E-03
 -1      1668-1.03302E+01-3.57736E-01-3.52721E+00-2.43234E+00-4.30062E-03-3.09754E-03
 -1      1669-1.41408E+01-1.03169E+00-4.98572E+00-2.25718E+00 1.52634E-02 1.12231E-02
 -1      1670-1.57077E+01-2.46005E+00-6.09889E+00 1.49059E-01 1.99274E-02 2.91582E-02
 -1      1671 3.81206E+00-8.10005E-01 9.97817E-01 2.66149E+00-2.21041E-02-1.86628E-03
 -1      1672 8.77399E+00 2.53117E+00 3.73681E+00 4.54581E+00 3.37175E-03-2.35514E-03
 -1      1673 7.52885E+00 3.54466E+00 3.65121E+00 5.03369E+00 1.37758E-02 2.94626E-03
 -1      1674 9.93004E+00 3.95170E+00 4.58607E+00 6.79706E+00 1.19835E-02 1.17174E-02
 -1      1675 9.49208E+00 5.67901E+00 5.01069E+00 7.87674E+00-1.61771E-03 1.40241E-02
 -1      1676 7.69981E+00 7.21539E+00 4.92288E+00 7.76742E+00 1.12214E-03 5.53117E-03
 -1      1677 3.14361E+00 7.36657E+00 3.47781E+00 6.46746E+00-2.21385E-02-1.59929E-02
 -1      1678-5.40897E+00 2.70520E+00-8.93570E-01 1.92137E+00-1.79687E-02 1.88498E-03
 -1      1679-9.61394E+00 1.58349E-01-3.12313E+00-1.89212E+00-2.32830E-03-3.01350E-04
 -1      1680-1.17280E+01-7.56817E-01-4.11784E+00-2.66087E+00-2.35690E-03 1.32403E-03
 -1      1681-3.57402E+00-2.70075E+00-2.08591E+00 1.65590E+00-1.90615E-02-6.46408E-03
 -1      1682 7.68280E+00 1.06909E+00 2.88394E+00 3.60421E+00 1.43086E-02-4.31563E-03
 -1      1683-2.49689E+00 3.52657E+00 3.40745E-01 2.49575E+00 1.50722E-03-1.18342E-03
 -1      1684 3.78106E+00 2.76858E+00 2.16415E+00 4.64953E+00-5.44920E-04-1.96253E-03
 -1      1685-3.30848E+00 1.20261E+00-6.96519E-01 1.19983E+00-1.38284E-03 1.44497E-03
 -1      1686-1.18679E+00 2.98377E+00 5.97956E-01 2.44919E+00 8.71974E-05-1.02822E-03
 -1      1687 1.39930E+00-9.17542E-01 1.64266E-01 3.23036E+00-1.17953E-04 9.67440E-04
 -1      1688-6.82993E+00-1.51838E+00-2.75411E+00 1.29092E+00 1.24518E-02-6.10564E-03
 -1      1689 5.56882E+00 1.56252E+00 2.35065E+00 5.00109E+00-4.74821E-03 1.28490E-04
 -1      1690 3.26801E+00 4.00918E+00 2.40000E+00 4.69604E+00 4.50186E-03-4.42653E-04
 -1      1691-3.19178E+00-2.22351E-02-1.06021E+00 1.76990E+00-3.19609E-04-4.17293E-03
 -1      1692 7.66575E+00 8.20211E-01 2.80391E+00 4.83707E+00-7.99870E-05 3.86691E-03
 -1      1693 9.18805E+00 1.89700E+00 3.65855E+00 5.12149E+00-4.81214E-03-8.51849E-03
 -1      1694-3.59202E-01 9.11816E+00 2.91260E+00 7.72317E+00 2.55150E-02 8.33586E-02
 -1      1695 6.69327E+00 3.62095E+00 3.39910E+00 4.87197E+00-1.47584E-03 2.88756E-03
 -1      1696 5.58175E+00 3.75587E+00 3.08097E+00 4.52697E+00 2.36337E-02-9.73948E-03
 -1      1697-6.54358E+00 4.93201E-01-2.02645E+00-2.80748E-01 3.09041E-02 3.59363E-02
 -1      1698-1.77768E+00 3.44427E+00 5.50036E-01 3.10168E+00-6.92382E-02 8.73080E-02
 -1      1699 8.37706E+00 3.12839E+00 3.78937E+00 4.60572E+00-5.15826E-03 1.85379E-03
 -1      1700 7.78839E+00 8.86511E+00 5.50448E+00 8.67665E+00-1.05845E-02-9.94678E-03
 -1      1701-1.61267E+01-1.51762E+00-5.82516E+00-4.83074E+00 1.14652E-04 1.13296E-02
 -1      1702-2.25044E+01-3.68686E+00-8.53452E+00 3.76907E-02 2.73643E-01-1.03073E-01
 -1      1703 7.75609E+00 4.36129E+00 3.99974E+00 5.83378E+00-1.64231E-03 4.00709E-04
 -1      1704 1.10947E+01 9.53153E+00 6.80998E+00 1.03600E+01-3.31494E-03-2.20142E-03
 -1      1705 1.10522E+01 7.10987E+00 5.99205E+00 9.07748E+00 1.31476E-04 1.15141E-03
 -1      1706 6.58051E+00 1.38869E+00 2.62779E+00 2.77315E+00-6.47836E-03-2.83279E-03
 -1      1707-1.05227E+01 1.31996E-01-3.42676E+00-1.89379E+00-5.37709E-04 7.10577E-03
 -1      1708 4.68658E+00 8.96247E+00 4.50032E+00 7.85677E+00-1.08105E-02-2.42928E-04
 -1      1709-5.76592E-01 7.87527E+00 2.44443E+00 6.87067E+00-3.59789E-02-3.23326E-02
 -1      1710-1.40652E+01-1.12215E+00-5.01136E+00-4.15607E+00-1.97905E-03-1.81546E-04
 -1      1711 3.13065E+00-1.02776E-01 9.99924E-01 1.68743E+00-6.58799E-03 2.76814E-03
 -1      1712 1.03940E+01 5.82615E+00 5.35303E+00 8.01501E+00 7.88904E-03 3.55282E-03
 -1      1713 8.31596E+00 2.32409E+00 3.51052E+00 3.89062E+00 9.95555E-03-4.07923E-03
 -1      1714 1.00188E+01 9.29642E+00 6.37811E+00 9.76000E+00 2.51145E-03-1.73721E-04
 -1      1715 9.46651E+00 4.72296E+00 4.68069E+00 6.89352E+00-1.29960E-03-4.62465E-03
 -1      1716 1.12381E+01 9.09280E+00 6.71222E+00 1.02068E+01-1.25398E-03-4.58441E-03
 -1      1717-9.86801E+00-4.53931E+00-4.80828E+00 6.07967E-01-3.63464E-02 1.25025E-02
 -1      1718 1.13473E+01 8.31789E+00 6.49045E+00 9.86156E+00-1.39751E-03-8.41200E-04
 -1      1719-1.88025E+01-1.33614E+00-6.76319E+00-4.76414E+00-8.89153E-02 9.23560E-02
 -1      1720-1.49941E+01-1.40583E+00-5.41061E+00-4.62318E+00-1.34056E-03 2.28463E-03
 -1      1721-1.29150E+01-6.90048E-01-4.49062E+00-3.39082E+00-5.30464E-03-2.97972E-04
 -1      1722-8.94238E+00 3.85054E-01-2.83356E+00-1.07461E+00 1.23351E-02-6.73536E-04
 -1      1723-2.00716E+00-2.11331E+00-1.35353E+00 7.94818E-01 1.74643E-03 4.56548E-03
 -1      1724 2.99002E+00 6.27462E+00 3.05733E+00 6.34306E+00-9.99644E-03-1.58062E-01
 -1      1725 4.10722E+00 2.24829E+00 2.09732E+00 3.62020E+00-1.78039E-03 6.25252E-03
 -1      1726 7.99587E+00 8.67205E+00 5.45701E+00 8.35231E+00-3.98385E-02 1.02546E-01
 -1      1727 1.24476E+01 1.06262E+01 7.60724E+00 1.12466E+01-1.86589E-02 5.11973E-02
 -1      1728 1.35856E+01 1.13812E+01 8.21542E+00 1.23300E+01-7.57641E-03 2.49341E-03
 -1      1729 1.39006E+01 1.16237E+01 8.40807E+00 1.26384E+01-7.97759E-03 4.60166E-03
 -1      1730 1.37295E+01 1.14335E+01 8.30028E+00 1.24540E+01-6.40389E-03 8.06830E-03
 -1      1731 1.29952E+01 1.07334E+01 7.82874E+00 1.17140E+01-9.05233E-03 9.91687E-03
 -1      1732 1.15355E+01 9.40500E+00 6.91703E+00 1.03365E+01-7.59207E-03 1.45973E-02
 -1      1733 9.45711E+00 7.62627E+00 5.62410E+00 8.46095E+00 1.75061E-02 8.48472E-03
 -1      1734 7.19686E+00 5.83053E+00 4.29640E+00 6.52061E+00 2.19494E-03-8.19780E-03
 -1      1735 5.48994E+00 4.51298E+00 3.31284E+00 5.10138E+00-7.32475E-03-1.97785E-02
 -1      1736 4.58235E+00 3.56693E+00 2.69862E+00 4.11864E+00 2.66928E-02 1.10813E-02
 -1      1737 7.85535E+00 8.52115E+00 5.54638E+00 8.16109E+00 5.10474E-02-1.73788E-02
 -1      1738 1.24398E+01 1.06312E+01 7.60660E+00 1.12935E+01 3.00098E-02-4.23333E-02
 -1      1739 1.35772E+01 1.13789E+01 8.22744E+00 1.23149E+01 8.75608E-03-2.41850E-02
 -1      1740 1.39261E+01 1.16224E+01 8.41223E+00 1.26343E+01 6.31445E-03-1.39079E-02
 -1      1741 1.37541E+01 1.14368E+01 8.30516E+00 1.24578E+01 1.23818E-02-2.77580E-03
 -1      1742 1.29989E+01 1.07316E+01 7.82362E+00 1.17118E+01 1.19468E-02-8.73234E-03
 -1      1743 1.15378E+01 9.44212E+00 6.91689E+00 1.03355E+01 5.13285E-03-7.19134E-03
 -1      1744 9.39120E+00 7.64874E+00 5.62311E+00 8.46599E+00-4.04250E-03-1.69688E-02
 -1      1745 7.17117E+00 5.81648E+00 4.28416E+00 6.53147E+00 3.05105E-03 2.96895E-03
 -1      1746 5.50955E+00 4.55037E+00 3.33187E+00 5.10482E+00 9.77341E-03 2.21874E-02
 -1      1747 4.52719E+00 3.39746E+00 2.62935E+00 4.13365E+00 4.21050E-02 5.10127E-03
 -1      1748-2.67696E+00 4.84304E+00 7.14807E-01 1.96564E+00 1.84613E-01-2.28458E-01
 -1      1749-7.98827E-02 1.11266E+01 3.78778E+00 5.03357E+00 5.46377E-01 3.89608E-01
 -1      1750 6.99855E-01 1.43579E+01 4.88657E+00 7.01294E+00 8.98170E-02 1.02694E-01
 -1      1751 2.38810E-01 8.13303E+00 2.77183E+00 7.15272E+00 5.82723E-03 4.14323E-02
 -1      1752 1.11199E+00 1.22060E+01 4.39184E+00 5.78011E+00-5.17740E-01-2.80551E-01
 -1      1753 7.18043E-01 1.42702E+01 4.75175E+00 7.10334E+00-7.29360E-02-5.90298E-02
 -1      1754 6.76254E-01 8.43135E+00 2.89086E+00 7.08919E+00 2.93254E-02 1.44699E-01
 -1      1755-4.14038E+01-1.25100E+01-1.77916E+01-7.78694E-02-7.24812E-02-4.56558E-02
 -1      1756-3.19750E+01-3.54087E+00-1.16202E+01-5.83320E+00 2.02753E-01-5.13865E-01
 -1      1757-2.03861E+01-2.07531E+00-7.31531E+00-7.04344E+00 1.51267E-01-1.08284E-01
 -1      1758-1.94574E+01-2.15396E+00-7.12619E+00-6.56899E+00 4.75061E-03 9.73659E-04
 -1      1759-1.89420E+01-2.16136E+00-6.95787E+00-6.37432E+00-8.53973E-03-1.12210E-04
 -1      1760-1.82971E+01-2.13719E+00-6.73532E+00-6.11887E+00-1.53836E-02-5.35083E-03
 -1      1761-1.69038E+01-2.01828E+00-6.23466E+00-5.61002E+00-2.68560E-02-1.31325E-02
 -1      1762-1.44220E+01-1.83798E+00-5.34602E+00-4.82755E+00-1.84966E-03 2.89723E-02
 -1      1763-1.14934E+01-1.93936E+00-4.35422E+00-4.19653E+00-5.72405E-02 3.25138E-02
 -1      1764-6.99388E+00 6.04996E-02-2.43525E+00-1.48757E+00-5.90691E-01-3.16473E-01
 -1      1765-3.05619E+01-2.08296E+00-1.06145E+01-6.53842E+00 2.64813E-01-2.09108E-01
 -1      1766-2.07418E+01-2.24320E+00-7.51584E+00-6.87703E+00-9.02947E-02-5.55476E-02
 -1      1767-1.93953E+01-2.13809E+00-7.10137E+00-6.58585E+00-5.62446E-03-1.49103E-02
 -1      1768-1.89305E+01-2.17283E+00-6.95757E+00-6.38108E+00 4.11136E-03 1.34523E-03
 -1      1769-1.82708E+01-2.12812E+00-6.72476E+00-6.11446E+00 1.03453E-02 8.64409E-03
 -1      1770-1.69286E+01-1.96922E+00-6.22444E+00-5.62635E+00 7.27518E-03-5.78388E-04
 -1      1771-1.43994E+01-1.83082E+00-5.34957E+00-4.78752E+00 2.24031E-02-4.41294E-02
 -1      1772-1.14905E+01-1.86425E+00-4.18704E+00-4.11770E+00-7.56086E-03-5.15058E-02
 -1      1773-7.63164E+00-1.67036E+00-3.03913E+00-1.97459E+00 4.40546E-01 3.24723E-01
 -1      1774 5.26785E+00 2.59640E+00 2.60006E+00 4.20496E+00 4.52179E-02 1.22830E-02
 -1      1775 7.14322E+00 3.51651E+00 3.51288E+00 4.80139E+00 2.64864E-02 1.08488E-02
 -1      1776 7.95106E+00 3.91494E+00 3.91238E+00 4.09096E+00 2.38110E-02-2.87964E-03
 -1      1777 6.51854E+00 3.20783E+00 3.20211E+00 2.51284E+00-3.00640E-02-2.94598E-02
 -1      1778 2.19419E+00 1.07576E+00 1.06568E+00 7.08191E-01-2.02716E-02-1.87898E-02
 -1      1779-5.36877E+00-2.64319E+00-2.64090E+00-7.24020E-01-5.92056E-02-8.47778E-03
 -1      1780-2.04866E+01-1.00749E+01-1.00433E+01-1.94086E-01-1.25041E-01 4.97066E-02
 -1      1781 5.29500E+00 2.61187E+00 2.61977E+00 4.29735E+00-2.75173E-02-1.40163E-02
 -1      1782 7.16109E+00 3.52709E+00 3.52706E+00 4.80032E+00-3.44894E-02-1.26682E-02
 -1      1783 7.93836E+00 3.90748E+00 3.90249E+00 4.07826E+00-3.17140E-02 3.31145E-03
 -1      1784 6.44863E+00 3.17732E+00 3.17958E+00 2.47349E+00 3.20682E-03 1.04824E-02
 -1      1785 2.19807E+00 1.07838E+00 1.06972E+00 6.97467E-01 2.16036E-02 1.56401E-02
 -1      1786-5.39306E+00-2.65323E+00-2.64705E+00-7.32626E-01 5.61532E-02-6.49039E-04
 -1      1787-2.09866E+01-1.03114E+01-1.02600E+01-5.74846E-02 1.45846E-01 1.04430E-01
 -1      1788 8.68107E+00 8.18111E+00 5.51990E+00 8.29845E+00 2.16974E-02 1.05327E-02
 -1      1789 1.31844E+01 1.10243E+01 7.98889E+00 1.19784E+01-1.04959E-02-3.38669E-03
 -1      1790 1.23968E+01 1.04898E+01 7.51938E+00 1.13557E+01 1.05402E-03-3.15740E-02
 -1      1791 1.37718E+01 1.15203E+01 8.34639E+00 1.25712E+01-2.68451E-04 3.08459E-03
 -1      1792 1.34925E+01 1.13371E+01 8.19979E+00 1.23531E+01 5.79439E-03-1.17104E-02
 -1      1793 1.38410E+01 1.15973E+01 8.39464E+00 1.26511E+01 1.73531E-04 3.64853E-03
 -1      1794 1.38335E+01 1.16008E+01 8.39371E+00 1.26622E+01 5.29562E-03-1.91936E-03
 -1      1795 1.36687E+01 1.14303E+01 8.28407E+00 1.24807E+01 6.50991E-03-7.18541E-04
 -1      1796 1.29052E+01 1.07470E+01 7.80523E+00 1.17472E+01 6.89736E-03 1.05864E-03
 -1      1797 1.34128E+01 1.11941E+01 8.12026E+00 1.22328E+01-4.37595E-04-3.18619E-03
 -1      1798 1.14196E+01 9.46646E+00 6.89087E+00 1.03658E+01 1.10570E-03-9.46688E-04
 -1      1799 1.23135E+01 1.01992E+01 7.42922E+00 1.11909E+01 1.78165E-03-4.80537E-03
 -1      1800 8.20982E+00 6.71667E+00 4.92574E+00 7.42644E+00-9.33997E-03 5.70857E-03
 -1      1801 9.32886E+00 7.69445E+00 5.62025E+00 8.48184E+00 2.99621E-03-1.30628E-02
 -1      1802 6.23025E+00 5.11998E+00 3.74558E+00 5.65638E+00-6.29670E-03-3.39813E-05
 -1      1803 7.14015E+00 5.89645E+00 4.30197E+00 6.51357E+00 7.14141E-03-4.43998E-04
 -1      1804 4.96894E+00 4.36217E+00 3.07927E+00 4.64267E+00-1.50638E-02 1.46650E-03
 -1      1805 5.54529E+00 4.57567E+00 3.33174E+00 5.07201E+00 3.23297E-04 1.09501E-03
 -1      1806 4.56489E+00 3.71485E+00 2.72607E+00 4.14364E+00 8.45787E-03 2.47123E-02
 -1      1807 1.15062E+01 9.70191E+00 6.99868E+00 1.03962E+01 1.94907E-02-3.75535E-03
 -1      1808 1.04664E+01 8.60645E+00 6.29404E+00 9.47837E+00-5.00127E-03-2.03933E-03
 -1      1809 1.49373E-01 1.21888E+01 4.01602E+00 5.55534E+00 3.31710E-01 1.14658E-01
 -1      1810 4.96771E-02 1.41698E+01 4.74337E+00 6.59831E+00 5.31747E-02 9.77651E-02
 -1      1811 7.50320E-01 1.51202E+01 5.23726E+00 7.14454E+00-7.26622E-03-5.63966E-02
 -1      1812 2.12876E-02 7.80083E+00 2.60795E+00 6.77540E+00-1.13673E-01 1.04015E-01
 -1      1813-1.29426E-01 1.16377E+01 3.79772E+00 6.96770E+00-3.89354E-03-9.11399E-02
 -1      1814-2.89947E+01-2.23834E+00-1.04021E+01-7.64711E+00-1.54364E-02-1.54930E-01
 -1      1815-1.97249E+01-2.14366E+00-7.21663E+00-6.76164E+00 9.18405E-03-1.68203E-02
 -1      1816-2.03986E+01-2.33324E+00-7.59826E+00-6.95735E+00-4.75083E-02 9.10301E-02
 -1      1817-1.91705E+01-2.16697E+00-7.04136E+00-6.44650E+00 3.29725E-03-2.83333E-03
 -1      1818-1.94451E+01-2.16714E+00-7.12881E+00-6.55006E+00 2.08678E-03-1.26154E-03
 -1      1819-1.86678E+01-2.11286E+00-6.85761E+00-6.25734E+00 5.27638E-03-5.02450E-04
 -1      1820-1.89564E+01-2.11885E+00-6.95573E+00-6.35261E+00-4.95094E-03-2.36267E-03
 -1      1821-1.77114E+01-1.99953E+00-6.50460E+00-5.91579E+00 8.78046E-03 6.88252E-03
 -1      1822-1.82851E+01-2.04765E+00-6.71036E+00-6.10862E+00-9.00333E-03 7.81551E-04
 -1      1823-1.57782E+01-1.79513E+00-5.79920E+00-5.26551E+00-5.12010E-04-1.10229E-02
 -1      1824-1.68902E+01-1.88687E+00-6.20000E+00-5.61350E+00-1.46829E-02 1.63028E-03
 -1      1825-1.43342E+01-1.63421E+00-5.28123E+00-4.80229E+00-2.38568E-02 8.82472E-03
 -1      1826-1.28269E+01-1.47784E+00-4.72056E+00-4.27750E+00 1.19631E-02-5.44547E-04
 -1      1827-9.79049E+00-2.33659E+00-4.00194E+00-4.02063E+00 5.62280E-02-2.25032E-02
 -1      1828-1.14489E+01-1.46685E+00-4.34611E+00-3.98978E+00-2.30475E-02 3.83411E-02
 -1      1829-7.53867E+00-5.25178E-01-2.58186E+00-2.09759E+00-1.95820E-01-2.50992E-01
 -1      1830-2.08992E+01-1.75875E+00-7.47713E+00-8.77459E+00-2.13314E-01 9.66792E-02
 -1      1831 5.31770E+00 2.61916E+00 2.61916E+00 4.30357E+00-7.14433E-08 1.06333E-02
 -1      1832 7.94333E+00 3.79444E+00 3.87346E+00 4.71131E+00 3.44824E-04 3.18017E-04
 -1      1833 7.18262E+00 3.53771E+00 3.53771E+00 4.84119E+00-1.02458E-08-4.35821E-03
 -1      1834 7.77596E+00 3.71050E+00 3.79053E+00 3.40307E+00-7.06682E-04 1.15011E-03
 -1      1835 7.94510E+00 3.91326E+00 3.91326E+00 4.11950E+00 9.54395E-09-4.30100E-03
 -1      1836 4.92074E+00 2.30812E+00 2.38552E+00 1.57940E+00 5.17755E-04-2.56660E-03
 -1      1837 6.43854E+00 3.17123E+00 3.17122E+00 2.48800E+00 1.66620E-08-8.46136E-04
 -1      1838-8.23856E-01-5.06535E-01-4.39029E-01-2.06032E-01 9.56807E-05-1.89272E-04
 -1      1839 2.17553E+00 1.07154E+00 1.07153E+00 6.75404E-01 1.54594E-08 5.05465E-03
 -1      1840-9.69508E+00-5.21105E+00-4.91902E+00-1.47126E+00-3.59117E-03-1.68757E-02
 -1      1841-5.37845E+00-2.64908E+00-2.64908E+00-8.07167E-01 1.09146E-08 5.89251E-03
 -1      1842-1.98749E+01-9.78914E+00-9.78913E+00-4.68043E-01-2.37480E-07 8.78229E-02
 -1      1843 6.27843E+00 3.06536E+00 3.08345E+00 4.79155E+00 1.44146E-03-4.43651E-03
 -1      1844 5.07476E+00 8.99446E+00 4.67326E+00 8.24347E+00 4.30022E-02 3.85056E-02
 -1      1845 1.23897E+00 7.88244E+00 2.97342E+00 6.89454E+00-1.21727E-01-1.23087E-01
 -1      1846 1.01163E+01 9.39642E+00 6.44850E+00 9.91241E+00 7.20472E-03 6.02017E-04
 -1      1847 9.57258E+00 9.14320E+00 6.16059E+00 9.58968E+00-5.36040E-03 2.20717E-02
 -1      1848 1.11355E+01 8.84384E+00 6.59500E+00 1.01014E+01-7.51496E-04-1.39277E-03
 -1      1849 1.12747E+01 9.15250E+00 6.74542E+00 1.02970E+01 5.64848E-04-3.36449E-03
 -1      1850 1.03198E+01 6.36033E+00 5.52103E+00 8.35706E+00 1.39614E-02-4.68833E-03
 -1      1851 1.10528E+01 7.14816E+00 6.00432E+00 9.13121E+00-6.64903E-04 1.02467E-03
 -1      1852 7.73306E+00 4.34177E+00 3.98777E+00 5.76724E+00-5.93465E-03-8.54684E-04
 -1      1853 8.66831E+00 4.95529E+00 4.48913E+00 6.62365E+00 7.68269E-03 9.25196E-03
 -1      1854 5.72761E+00 3.84555E+00 3.14307E+00 4.69301E+00-1.64868E-03 2.14862E-03
 -1      1855 8.25720E+00 3.03117E+00 3.73269E+00 4.01578E+00 6.48229E-03-1.25577E-02
 -1      1856 8.22447E+00 3.15047E+00 3.76331E+00 4.56045E+00-5.71342E-03 1.34929E-02
 -1      1857 1.52207E+00-9.10487E-01 2.09720E-01 1.41255E+00 1.19465E-02-1.93384E-02
 -1      1858 4.41101E+00 4.76802E-01 1.61028E+00 2.09397E+00-2.23386E-02-1.45279E-02
 -1      1859-2.63469E+01-6.80489E+00-1.07976E+01 2.59788E-01 4.84891E-02 4.51754E-02
 -1      1860-1.31112E+01-4.42677E+00-5.85946E+00-1.48365E-01-1.00843E-01 1.53490E-02
 -1      1861-1.95811E+01-1.48636E+00-6.76800E+00-3.82311E+00 1.52099E-01-1.33425E-01
 -1      1862-1.55939E+01-1.44638E+00-5.62760E+00-4.69183E+00-4.60694E-03-8.64036E-03
 -1      1863-1.62535E+01-1.65560E+00-5.88664E+00-4.80573E+00 4.37721E-03-1.49295E-02
 -1      1864-1.37127E+01-9.53644E-01-4.83303E+00-3.95798E+00-1.56905E-03-4.50186E-03
 -1      1865-1.42417E+01-1.09738E+00-5.07546E+00-4.19830E+00 4.93251E-03-1.84358E-03
 -1      1866-8.98787E+00 4.76593E-01-2.83534E+00-1.17893E+00 2.05779E-03-1.08892E-02
 -1      1867-1.04984E+01 2.83146E-01-3.36637E+00-1.81872E+00 2.17109E-02-1.14143E-02
 -1      1868-3.03025E+00 4.33430E+00 4.71196E-01 2.22399E+00 5.71032E-02-8.37827E-02
 -1      1869-5.10586E-01 9.43123E+00 2.93399E+00 7.82400E+00 1.67474E-01 6.57002E-02
 -1      1870 6.78550E+00 3.34308E+00 3.34238E+00 4.86912E+00-2.05581E-02 9.61097E-03
 -1      1871 6.19080E+00 3.90549E+00 3.35170E+00 4.85775E+00-1.43492E-03-1.42389E-02
 -1      1872 6.92789E+00 4.30568E+00 3.69911E+00 5.39336E+00 1.10023E-02 8.73278E-03
 -1      1873 7.76212E+00 3.61296E+00 3.75798E+00 4.83095E+00 1.92953E-02-1.98205E-02
 -1      1874-1.12142E+00 7.47890E+00 2.08881E+00 5.57146E+00 1.28359E-01 1.03129E-01
 -1      1875-4.91608E+00 1.21189E+00-1.29190E+00 5.60941E-01-1.42962E-01-1.69929E-01
 -1      1876 7.28554E+00 8.67004E+00 5.27940E+00 8.52964E+00 3.09103E-02 2.12956E-02
 -1      1877 5.84971E+00 8.18620E+00 4.62371E+00 7.83141E+00 1.18239E-04 3.71146E-02
 -1      1878 1.11142E+01 9.51015E+00 6.80930E+00 1.03909E+01-3.11952E-03 3.60434E-03
 -1      1879 1.09753E+01 9.52461E+00 6.75980E+00 1.03447E+01 4.22107E-03 1.14850E-02
 -1      1880 1.09119E+01 7.74824E+00 6.16110E+00 9.43793E+00 7.21979E-03-1.57206E-03
 -1      1881 1.13444E+01 8.34873E+00 6.49824E+00 9.92535E+00-1.57749E-03-1.65579E-03
 -1      1882 9.24673E+00 5.05003E+00 4.73587E+00 6.97926E+00-4.02277E-03-3.58578E-03
 -1      1883 1.01677E+01 5.83248E+00 5.27294E+00 7.90607E+00-7.73873E-03 1.52395E-03
 -1      1884 4.15292E+00 7.04891E+00 3.70819E+00 6.47414E+00 3.77902E-03-8.97020E-03
 -1      1885-8.93013E-01 7.46946E+00 2.25793E+00 6.16078E+00 5.48439E-02-7.47660E-02
 -1      1886-7.28185E+00 8.52671E-01-2.13098E+00-2.12249E-01 3.06862E-02 1.39407E-02
 -1      1887 6.74314E+00 1.42240E+00 2.70932E+00 2.97581E+00-2.64402E-03 5.65676E-03
 -1      1888 7.96521E+00 2.16787E+00 3.35251E+00 3.66859E+00 4.40031E-02 2.18280E-02
 -1      1889-6.95582E+00-4.14711E+00-3.66367E+00 4.09679E-01-8.61443E-02 2.06664E-02
 -1      1890-2.21566E+00-1.87238E+00-1.36137E+00 6.57189E-01 1.03482E-02 1.07512E-02
 -1      1891-1.71544E+01-1.50337E+00-6.15486E+00-4.71475E+00 1.08139E-03-6.93296E-02
 -1      1892-1.91019E+01-1.56728E+00-6.77839E+00-4.91879E+00 1.47616E-02 4.92885E-02
 -1      1893-1.48036E+01-1.30855E+00-5.31523E+00-4.53133E+00-1.95759E-03-6.01268E-03
 -1      1894-1.51771E+01-1.42304E+00-5.48128E+00-4.66708E+00 3.05350E-03-3.31677E-03
 -1      1895-1.17278E+01-2.82945E-01-3.96615E+00-2.76491E+00 2.52042E-03 4.21870E-04
 -1      1896-1.26622E+01-4.91865E-01-4.36361E+00-3.19890E+00 5.57839E-03-3.81353E-03
 -1      1897 7.36274E-01 7.37678E+00 2.64383E+00 6.32343E+00 6.15077E-02-1.02321E-02
 -1      1898 8.71077E+00 2.10235E+00 3.55719E+00 4.41067E+00-2.61411E-02-2.13209E-02
 -1      1899 8.66450E+00 7.26850E+00 5.26477E+00 8.19459E+00 7.25467E-03-2.78876E-03
 -1      1900-1.36254E+00 6.19210E+00 1.63522E+00 6.15929E+00-1.29188E-01-7.11926E-02
 -1      1901-4.61404E+00 2.67633E+00-6.16628E-01 2.75759E+00 5.08823E-02 3.23496E-02
 -1      1902 8.11748E+00 3.20428E+00 3.75538E+00 4.78448E+00-2.73554E-02-9.31638E-03
 -1      1903 7.50035E+00 7.62257E+00 4.98730E+00 7.86299E+00-2.95510E-03-1.34588E-02
 -1      1904 9.17958E+00 6.27308E+00 5.09866E+00 7.98636E+00-1.65489E-03-1.22801E-02
 -1      1905 9.95787E+00 3.85416E+00 4.55258E+00 6.86375E+00-7.98884E-03-1.85360E-02
 -1      1906 2.74406E-01-1.63106E+00-4.47056E-01 2.17886E+00 9.12200E-03 4.27008E-03
 -1      1907-1.53586E+01-1.53819E+00-5.46989E+00-1.17881E+00-1.53101E-04-1.21157E-01
 -1      1908-9.09268E+00 5.20561E-01-2.82713E+00-1.32803E+00 9.38953E-03 8.52293E-03
 -1      1909 9.73093E+00 5.03470E+00 4.87212E+00 7.56412E+00-2.88654E-03-1.96817E-02
 -1      1910 9.49124E+00 3.35182E+00 4.24094E+00 6.10022E+00-1.42835E-02-1.62259E-02
 -1      1911-1.05871E+01-3.01550E-01-3.59513E+00-2.47962E+00 5.21345E-03 7.04759E-03
 -1      1912-7.07389E+00 1.65394E+00-1.73676E+00 5.30431E-01 2.39404E-02 1.59327E-02
 -1      1913-1.30183E+01-8.69510E-01-4.60508E+00-2.67180E+00-2.00119E-02 1.33391E-02
 -1      1914-9.58599E+00-3.05215E+00-4.08275E+00 1.18838E+00 9.04942E-02-4.71705E-02
 -1      1915 6.38933E+00 4.46874E-01 2.26222E+00 3.47296E+00 2.92468E-02 2.30768E-02
 -1      1916-1.15471E+01-6.95200E-01-4.04771E+00-2.83613E+00-3.10833E-04 7.61197E-03
 -1      1917-2.57935E+00 5.21914E+00 8.84276E-01 4.62780E+00-3.14473E-02-3.37954E-02
 -1      1918 6.44026E+00 4.09734E+00 3.47512E+00 6.18295E+00 1.01533E-02-5.86401E-04
 -1      1919 6.20257E+00 4.76207E+00 3.61291E+00 6.27667E+00-7.28902E-03 3.52780E-03
 -1      1920 8.70318E+00 2.09737E+00 3.55755E+00 5.59536E+00 9.67569E-03 1.87801E-02
 -1      1921 8.52218E+00 2.46916E+00 3.63136E+00 6.05640E+00 1.85273E-02 8.03375E-03
 -1      1922-1.16765E+00-1.78918E+00-9.80866E-01 2.45812E+00-1.40285E-02 2.00791E-02
 -1      1923 2.60282E+00-8.84864E-01 5.57814E-01 2.95782E+00 2.81434E-03 2.97229E-04
 -1      1924-6.80459E+00 1.01025E+00-1.91338E+00-5.30836E-01 3.47616E-03-1.41750E-03
 -1      1925-7.39149E+00 5.99467E-01-2.24060E+00-8.77367E-01 9.02329E-03 2.90308E-03
 -1      1926 2.26066E+00 5.44656E+00 2.54226E+00 4.95908E+00 4.71944E-03-2.96153E-03
 -1      1927-9.40511E-02 4.88553E+00 1.59575E+00 4.10342E+00 8.89675E-03 6.53953E-03
 -1      1928 5.81780E+00 5.29273E+00 3.66822E+00 6.26097E+00 2.40483E-03-9.04617E-04
 -1      1929 5.55313E+00 5.73640E+00 3.72491E+00 6.30400E+00 2.94289E-03-2.15721E-03
 -1      1930 3.10173E+00 3.26959E+00 2.10844E+00 4.49100E+00-4.69493E-03-3.34905E-03
 -1      1931 5.42395E+00 6.14404E+00 3.81544E+00 6.41110E+00-4.72482E-03-8.74854E-03
 -1      1932 4.41569E+00 6.11617E+00 3.46985E+00 6.00456E+00-1.02176E-04 2.29249E-04
 -1      1933 3.13917E-01 4.16726E+00 1.47107E+00 3.58770E+00-6.01968E-03 2.02776E-03
 -1      1934 2.62120E+00 4.31878E+00 2.29669E+00 4.50109E+00-5.08539E-04-5.61025E-03
 -1      1935-7.44452E+00 3.02129E-01-2.35768E+00-9.38024E-01 4.63004E-03-4.63677E-03
 -1      1936-7.96500E+00 3.89699E-02-2.61179E+00-9.04395E-01 1.24451E-02-4.02672E-04
 -1      1937-3.87461E+00 1.39142E+00-8.23623E-01 9.36474E-01-3.21729E-03-1.63646E-03
 -1      1938 5.62546E+00-1.15366E-01 1.81300E+00 3.82898E+00 1.03348E-02 1.00713E-02
 -1      1939 7.91067E+00 8.94055E-01 2.90889E+00 4.50025E+00-2.25086E-02 1.48100E-02
 -1      1940-4.88983E+00 2.38520E+00-8.31730E-01 1.04912E+00-1.15439E-03-5.28821E-03
 -1      1941-5.90448E+00 1.67688E+00-1.38526E+00 2.27025E-01 4.89990E-03 1.45642E-03
 -1      1942-1.84374E+00 4.70197E+00 9.24037E-01 3.80925E+00-2.07878E-02-8.52316E-03
 -1      1943-1.11254E+01-2.03146E+00-4.31194E+00 5.46286E-01-3.46699E-02 1.44100E-02
 -1      1944-5.51050E+00-2.23908E+00-2.55603E+00 1.60787E+00-2.03277E-02-4.17513E-03
 -1      1945-2.94366E+00-1.25672E+00-1.38748E+00 2.24453E+00 1.63731E-03 2.28612E-03
 -1      1946-1.04490E+01-1.22862E+00-3.86881E+00-4.79295E-01-7.24730E-03 1.44792E-02
 -1      1947-3.08825E+00 3.81230E+00 2.47932E-01 2.68598E+00-3.77070E-03 1.20136E-03
 -1      1948 7.60876E+00 2.88571E+00 3.46862E+00 6.09751E+00 1.19966E-02 7.84261E-03
 -1      1949 7.37985E+00 3.60554E+00 3.62275E+00 6.35105E+00 2.56800E-03 1.44755E-02
 -1      1950 6.34753E+00 1.18782E+00 2.48943E+00 4.88265E+00 5.23702E-03-1.32366E-02
 -1      1951-7.71984E+00-2.82555E-01-2.64560E+00-5.31057E-01 1.01697E-02-1.35456E-02
 -1      1952-8.83117E+00-6.25685E-01-3.13428E+00-2.25337E-01 1.47025E-02 5.40908E-03
 -1      1953-5.27754E+00-8.54505E-01-2.02306E+00 1.44078E+00-4.31507E-03 1.06364E-02
 -1      1954-3.83449E+00 4.49875E-01-1.11559E+00 1.25328E+00-2.26350E-03-9.50960E-03
 -1      1955 8.22551E+00 3.40210E+00 3.83583E+00 5.36967E+00-2.96129E-03 2.42778E-03
 -1      1956 8.79400E+00 2.94117E+00 3.87998E+00 5.11796E+00 2.46076E-02 3.30446E-02
 -1      1957 4.37783E+00 2.14660E+00 2.15090E+00 4.77394E+00-8.55582E-03-1.52998E-02
 -1      1958 4.30258E+00-3.70845E-02 1.40377E+00 4.00742E+00 9.95203E-03 7.38222E-03
 -1      1959 9.03970E+00 2.11658E+00 3.67952E+00 5.31386E+00-9.08727E-03-3.14729E-03
 -1      1960 8.88339E+00 2.30660E+00 3.69787E+00 4.96250E+00 1.74169E-03-2.64664E-03
 -1      1961-2.84638E+00 2.58502E+00-8.62472E-02 1.74701E+00-3.17739E-03-1.41077E-03
 -1      1962 3.27403E+00 3.76079E-01 1.20530E+00 4.08592E+00 7.58614E-03 1.43570E-02
 -1      1963-1.15011E+00-4.36124E-01-5.23630E-01 2.50948E+00-6.68406E-03-6.92765E-03
 -1      1964 9.81991E-01 6.88327E-01 5.60920E-01 3.36096E+00 1.33586E-02-7.97654E-03
 -1      1965-4.17942E-01 2.89081E+00 8.15998E-01 2.74072E+00-3.23439E-03 5.33624E-03
 -1      1966-5.02934E-01 2.43869E+00 6.40243E-01 2.68771E+00 3.44589E-03 5.69451E-03
 -1      1967-1.56550E-01 1.87910E+00 5.70412E-01 2.77948E+00 8.70269E-03 4.66849E-03
 -1      1968 1.35298E-01 1.33066E+00 4.73106E-01 3.06420E+00-7.63019E-03 1.21655E-02
 -1      1969-6.07277E-01 3.29767E+00 8.85425E-01 2.83180E+00 2.78704E-03 1.50851E-03
 -1      1970 5.71140E+00 3.78087E+00 3.14598E+00 4.66456E+00-6.54592E-03 8.04639E-03
 -1      1971 8.60113E+00 5.05271E+00 4.50734E+00 6.64669E+00-9.95954E-03-1.11919E-02
 -1      1972 7.65858E+00 4.48066E+00 4.00648E+00 5.82244E+00 8.12294E-03-3.89078E-03
 -1      1973 1.10358E+01 7.17783E+00 6.02626E+00 9.16158E+00-2.17052E-03 1.07155E-03
 -1      1974 1.04069E+01 6.44607E+00 5.55550E+00 8.39853E+00-2.09776E-02-4.87148E-03
 -1      1975 1.13047E+01 9.15329E+00 6.76201E+00 1.03130E+01-3.29472E-03 1.65964E-03
 -1      1976 1.12075E+01 8.89382E+00 6.62469E+00 1.01376E+01 5.75496E-05 1.18847E-03
 -1      1977 9.24322E+00 8.98726E+00 6.00649E+00 9.36035E+00-1.84438E-03-1.49837E-02
 -1      1978 9.72727E+00 9.19264E+00 6.27224E+00 9.65822E+00-7.27349E-03-7.39481E-06
 -1      1979 9.63382E-01 7.77844E+00 2.96170E+00 6.99291E+00 2.36298E-02 7.53986E-02
 -1      1980 5.56111E+00 9.13905E+00 4.80705E+00 8.35058E+00-1.20991E-02-1.32708E-02
 -1      1981-5.39069E-01 9.41473E+00 2.85657E+00 7.60147E+00-1.57728E-01-6.46215E-02
 -1      1982-3.02368E+00 4.30838E+00 5.02185E-01 2.20521E+00 3.28296E-02-4.87147E-02
 -1      1983-7.21860E+00 9.17889E-01-2.11661E+00-1.64581E-01-1.88193E-02 2.32169E-02
 -1      1984-4.71007E+00 1.61909E+00-9.96867E-01 5.18669E-01 1.64919E-01 8.45022E-02
 -1      1985-1.36379E+01-8.31511E-01-4.79380E+00-3.75330E+00-1.52089E-03 6.00221E-03
 -1      1986-1.26669E+01-6.69442E-01-4.42007E+00-3.36830E+00 3.81224E-03 5.08661E-03
 -1      1987-1.48024E+01-1.33121E+00-5.32796E+00-4.48886E+00-1.62362E-03 3.99522E-03
 -1      1988-1.44219E+01-1.21974E+00-5.15786E+00-4.35210E+00 6.55894E-05 2.32801E-03
 -1      1989-1.91740E+01-1.93216E+00-6.78457E+00-4.67968E+00-5.51945E-02-6.76129E-02
 -1      1990-1.71839E+01-1.49174E+00-6.14605E+00-4.70969E+00 2.77650E-02 4.62187E-02
 -1      1991-2.70216E+01-5.99490E+00-1.09984E+01 2.34244E-01-2.08094E-01 4.78780E-01
 -1      1992-1.87870E+01-1.68149E+00-6.97329E+00-4.28955E+00-1.04080E-01-2.93843E-01
 -1      1993-1.52084E+01-1.56964E+00-5.50131E+00-1.21225E+00 1.15229E-02 6.97363E-02
 -1      1994-1.31524E+01-4.33259E+00-5.87864E+00-9.51205E-02 1.81382E-01-7.74008E-02
 -1      1995 4.35192E+00 5.26013E-01 1.60513E+00 2.03277E+00 3.98925E-03 9.60513E-04
 -1      1996 1.44152E+00-8.85557E-01 1.87462E-01 1.33743E+00-7.16235E-03 6.35774E-03
 -1      1997 8.27772E+00 3.04599E+00 3.75847E+00 4.52970E+00 4.75051E-03-1.06661E-02
 -1      1998 8.29751E+00 3.02696E+00 3.74531E+00 4.00042E+00 8.06650E-03 1.40150E-02
 -1      1999 6.78970E+00 3.32230E+00 3.34086E+00 4.87684E+00-1.91010E-03-7.80168E-03
 -1      2000 7.78743E+00 3.64429E+00 3.75987E+00 4.84616E+00-9.84165E-03 1.75398E-02
 -1      2001 8.24112E+00 3.12197E+00 3.75294E+00 4.80783E+00 1.66079E-02 1.19565E-02
 -1      2002 6.23079E+00 3.95756E+00 3.36683E+00 4.85350E+00 1.33185E-02 1.30166E-02
 -1      2003-1.58495E+00 7.13369E+00 1.73979E+00 5.56176E+00-1.67617E-02-1.24048E-01
 -1      2004 9.25058E+00 5.39830E+00 4.84766E+00 7.15893E+00 7.33548E-03 1.08615E-02
 -1      2005 9.44901E+00 3.72045E+00 4.34730E+00 6.30855E+00 1.54268E-02 2.35401E-02
 -1      2006 1.01533E+01 6.14652E+00 5.38324E+00 8.09259E+00-1.17214E-02-1.96302E-02
 -1      2007 6.93619E+00 4.26862E+00 3.69838E+00 5.38123E+00-1.19598E-02-5.94857E-03
 -1      2008 1.00630E+01 4.23369E+00 4.70715E+00 7.09425E+00 6.99710E-03 9.16414E-03
 -1      2009 1.13464E+01 8.34042E+00 6.51242E+00 9.93891E+00-1.73495E-03 2.02032E-03
 -1      2010 1.09970E+01 7.79692E+00 6.19208E+00 9.47185E+00-6.06173E-03-2.54487E-03
 -1      2011 1.06368E+01 9.31202E+00 6.58342E+00 1.00910E+01-5.81587E-03-4.63492E-03
 -1      2012 1.08007E+01 9.29144E+00 6.63233E+00 1.01486E+01 7.05231E-03 5.16177E-03
 -1      2013 6.73092E+00 8.45198E+00 4.99326E+00 8.28023E+00 6.36158E-02-8.16532E-03
 -1      2014 8.04840E+00 9.01931E+00 5.66939E+00 8.99254E+00-2.16452E-02-4.07888E-03
 -1      2015-9.98166E-01 7.41678E+00 2.19149E+00 6.29950E+00-1.13205E-01 4.40170E-02
 -1      2016-8.79434E+00 6.13165E-01-2.72768E+00-9.94273E-01 2.46121E-02 2.23902E-02
 -1      2017-4.59034E+00 2.87479E+00-5.62711E-01 2.91859E+00-9.65446E-03 9.90998E-03
 -1      2018-1.02831E+01 3.87472E-01-3.25728E+00-1.66363E+00-1.35868E-02 3.78293E-02
 -1      2019-7.65283E+00 1.47584E+00-2.04882E+00 8.15877E-02-2.95768E-02-5.43172E-03
 -1      2020-1.40663E+01-1.03780E+00-5.00062E+00-4.10716E+00 9.91474E-04 5.91140E-03
 -1      2021-1.35695E+01-9.05335E-01-4.76929E+00-3.86040E+00-2.49101E-04-7.64696E-03
 -1      2022-1.61005E+01-1.56950E+00-5.80953E+00-4.75563E+00-5.83032E-03-1.43014E-03
 -1      2023-1.54505E+01-1.44211E+00-5.57235E+00-4.63162E+00 3.60568E-03 9.35441E-03
 -1      2024-2.17077E+00-1.87611E+00-1.36363E+00 6.82186E-01 8.26426E-04 9.61886E-04
 -1      2025-6.92154E+00-4.13821E+00-3.63837E+00 3.75517E-01 8.24102E-02-2.04527E-02
 -1      2026 7.66348E+00 2.24372E+00 3.27140E+00 3.42453E+00-1.33873E-02-2.48208E-03
 -1      2027 6.29718E+00 1.45629E+00 2.57091E+00 2.68303E+00 7.67891E-03 7.95575E-04
 -1      2028 8.33337E+00 2.01594E+00 3.40120E+00 4.09142E+00 1.56322E-02 5.99082E-03
 -1      2029 9.80239E+00 5.13073E+00 4.92847E+00 7.63618E+00-3.32132E-03 9.45677E-03
 -1      2030 8.40666E+00 7.11304E+00 5.11259E+00 8.00275E+00-7.50950E-03-1.60647E-04
 -1      2031 4.57559E+00 7.29045E+00 3.91066E+00 6.71840E+00-5.90591E-03 2.46256E-02
 -1      2032-1.10326E+01-6.00027E-01-3.84045E+00-2.58590E+00-7.25300E-03-3.85119E-04
 -1      2033 5.85567E+00 2.54919E-01 2.01849E+00 3.13346E+00-3.39253E-03 1.40875E-03
 -1      2034-9.61765E+00-3.05672E+00-4.17654E+00 1.18351E+00-5.74264E-02-7.83996E-03
 -1      2035 1.71501E+00 7.83624E+00 3.15917E+00 6.73417E+00-3.87804E-02 6.57076E-02
 -1      2036 6.78893E+00 7.23989E+00 4.63369E+00 7.38484E+00 3.31942E-03 9.94010E-03
 -1      2037 9.25518E+00 6.33984E+00 5.14831E+00 8.04229E+00-8.34752E-03 8.97236E-03
 -1      2038-1.24628E+00 6.27121E+00 1.65825E+00 6.12950E+00 1.04734E-01 8.03946E-03
 -1      2039-9.80264E+00 2.30525E-01-3.15616E+00-1.75795E+00-5.61996E-03-9.18249E-03
 -1      2040-1.28246E+01-8.89986E-01-4.52297E+00-2.51794E+00-5.10879E-03 2.30646E-02
 -1      2041-1.00205E+01-1.56615E-01-3.35997E+00-2.18907E+00-3.71161E-03-1.71692E-03
 -1      2042 2.12180E-01-1.58804E+00-4.57530E-01 2.14621E+00-1.14319E-02-2.30589E-02
 -1      2043 8.12789E+00 3.49059E+00 3.84185E+00 5.40928E+00-9.06841E-03 2.55305E-03
 -1      2044-2.23816E+00 5.48513E+00 1.08749E+00 4.68981E+00-1.11358E-02-3.89759E-02
 -1      2045 3.49146E-01 5.46443E+00 1.90198E+00 4.54375E+00 2.50389E-02 1.20023E-02
 -1      2046 1.63159E+00 5.33900E+00 2.29968E+00 4.72010E+00 1.10276E-02 5.39914E-03
 -1      2047 6.36666E+00 4.79619E+00 3.68691E+00 6.36276E+00 4.38541E-03 8.16566E-03
 -1      2048 6.60889E+00 4.14662E+00 3.55399E+00 6.26195E+00 1.13458E-02 6.69214E-03
 -1      2049-7.45842E+00 1.74291E-01-2.40869E+00-6.85536E-01 2.43129E-03 4.30944E-03
 -1      2050-6.76502E+00 5.04753E-01-2.06298E+00-6.09145E-01 6.26404E-03 8.10527E-03
 -1      2051 2.18400E+00 4.99996E+00 2.38155E+00 4.68651E+00 8.94973E-03 8.64500E-03
 -1      2052 3.28046E+00 5.01395E+00 2.74243E+00 5.08053E+00-2.33561E-03-3.27486E-03
 -1      2053-1.84552E+00 3.25466E+00 4.71842E-01 2.45453E+00-3.58055E-03-4.05750E-03
 -1      2054-6.02426E+00 1.81657E+00-1.38673E+00 2.96329E-01-3.39374E-03 3.33271E-03
 -1      2055-6.22029E+00 1.94719E+00-1.39386E+00 4.71064E-01-2.96479E-03-1.60765E-03
 -1      2056-4.11445E+00 3.11102E+00-3.41270E-01 2.17402E+00-4.27132E-03-6.20901E-03
 -1      2057 2.58816E+00-9.69311E-01 5.41822E-01 2.95555E+00 1.17026E-02-1.25886E-02
 -1      2058-1.12383E+00-1.82244E+00-9.75348E-01 2.45832E+00 8.61324E-04 1.23414E-03
 -1      2059-5.73276E+00 1.23279E+00-1.48711E+00 1.18382E-02 9.18473E-03 4.09474E-03
 -1      2060-5.34701E+00 1.62873E+00-1.22744E+00 3.00011E-01-3.98910E-04-2.82099E-03
 -1      2061-1.11316E+00 5.21873E+00 1.36708E+00 4.31002E+00-3.60859E-03-3.40817E-02
 -1      2062-1.08655E+01-2.02616E+00-4.25195E+00 5.63268E-01 2.17177E-02-2.50253E-02
 -1      2063-1.03298E+01-1.25760E+00-3.82295E+00-4.02751E-01 1.20334E-02-1.77205E-02
 -1      2064-5.40030E+00-2.15165E+00-2.49829E+00 1.55575E+00-5.45536E-03 1.73957E-02
 -1      2065 7.49284E+00 3.59646E+00 3.66307E+00 6.40882E+00 9.35885E-04 1.16628E-02
 -1      2066 7.80714E+00 2.95464E+00 3.54923E+00 6.15192E+00 7.54169E-03 4.02801E-03
 -1      2067 4.65832E+00 2.21371E+00 2.26949E+00 4.85540E+00-5.03203E-03-3.63803E-03
 -1      2068 5.43247E+00 5.59184E+00 3.63343E+00 6.19775E+00-1.60059E-04-5.91271E-03
 -1      2069 6.04433E+00 5.34955E+00 3.77221E+00 6.40995E+00 1.06650E-02 7.88724E-03
 -1      2070 1.12147E+00 3.59123E+00 1.55678E+00 3.59712E+00 1.58203E-02 1.15630E-02
 -1      2071 3.50716E+00 3.39634E+00 2.28346E+00 4.65981E+00 3.46796E-04-3.89995E-04
 -1      2072-8.59373E+00-6.16119E-01-3.03521E+00-1.55780E-01 7.74980E-03 9.17807E-04
 -1      2073-7.48134E+00-2.33440E-01-2.54666E+00-4.03158E-01-3.73111E-03-2.11606E-03
 -1      2074-3.38932E+00 5.50366E-01-9.36536E-01 1.41435E+00-1.77045E-03 3.84360E-03
 -1      2075-5.02848E+00-7.60707E-01-1.91151E+00 1.51141E+00 1.88736E-03-1.27315E-02
 -1      2076 7.54738E+00 8.32070E-01 2.76719E+00 4.16390E+00-1.30404E-02-1.30790E-02
 -1      2077 5.70351E+00-8.01246E-02 1.85718E+00 3.79964E+00 7.93617E-03 8.61319E-03
 -1      2078-2.82040E+00-1.24943E+00-1.33802E+00 2.30835E+00 1.67647E-05-2.20976E-02
 -1      2079 8.86544E+00 3.03104E+00 3.91606E+00 5.21535E+00 9.37327E-03 4.67043E-03
 -1      2080 6.69469E+00 1.20396E+00 2.60134E+00 4.96273E+00-1.12005E-03-1.30478E-02
 -1      2081 8.72039E+00 2.53524E+00 3.71916E+00 6.07999E+00 9.80957E-03 1.71189E-02
 -1      2082 8.93736E+00 2.16927E+00 3.66562E+00 4.79543E+00-1.29067E-03-3.30148E-03
 -1      2083 8.47562E+00 1.41387E+00 3.25942E+00 4.37168E+00-9.38320E-03-1.48759E-02
 -1      2084 8.58788E+00 1.50223E+00 3.33043E+00 5.04789E+00-3.95710E-03 6.12742E-03
 -1      2085 9.09604E+00 2.84111E+00 3.93616E+00 5.46238E+00-1.43949E-02-4.80418E-03
 -1      2086 4.65245E+00 1.14415E-02 1.53960E+00 4.05308E+00-2.96422E-04-8.26852E-03
 -1      2087 8.90467E+00 2.37328E+00 3.73531E+00 5.76874E+00 6.59142E-03 1.80270E-02
 -1      2088 2.36841E-02 2.59255E+00 8.60204E-01 2.96085E+00-3.20876E-03-1.64048E-03
 -1      2089 2.42412E-01 2.03607E+00 7.45328E-01 2.97990E+00-3.41027E-03-7.50054E-03
 -1      2090-2.33743E+00 2.02074E+00-9.91161E-02 1.75914E+00-8.85814E-03-4.30552E-03
 -1      2091 4.13487E-01 1.37247E+00 5.94343E-01 3.19303E+00 1.26533E-02 8.53125E-03
 -1      2092 9.46142E+00 2.84729E+00 4.07448E+00 5.94096E+00-8.12521E-03-2.10658E-02
 -1      2093 3.46788E+00 3.63557E-01 1.26323E+00 4.13522E+00-8.40857E-04 9.40294E-03
 -1      2094 1.24934E+00 7.29945E-01 6.42814E-01 3.45672E+00 1.02889E-02-5.09416E-03
 -1      2095-8.99094E-01-4.31917E-01-4.39843E-01 2.57318E+00-1.82480E-03-1.87243E-02
 -1      2096-1.87108E+00 4.74589E+00 9.47234E-01 3.86130E+00-7.65271E-03-9.83156E-03
 -1      2097-3.76748E-01 4.99703E+00 1.52699E+00 4.10285E+00 1.89108E-03 5.44092E-04
 -1      2098 2.44705E+00 6.95377E+00 3.10353E+00 6.07721E+00-5.72914E-03-1.18813E-02
 -1      2099 9.40126E+00 5.65280E+00 4.96773E+00 7.86498E+00-4.89256E-03 8.50155E-05
 -1      2100 9.18687E+00 6.31310E+00 5.11463E+00 8.03675E+00-8.20835E-03-8.42880E-03
 -1      2101 6.60428E+00 4.12892E+00 3.54111E+00 6.23947E+00 7.00338E-03 5.37201E-03
 -1      2102-1.34808E+01-1.04510E+00-4.79218E+00-3.73620E+00 6.06051E-03 1.27456E-02
 -1      2103-1.55299E+01-1.45785E+00-5.60483E+00-4.72801E+00-6.96408E-05 4.43509E-03
 -1      2104-1.41788E+01-1.22586E+00-5.08287E+00-3.83721E+00 1.37934E-03 8.61040E-03
 -1      2105-1.70995E+01-1.81555E+00-6.23896E+00-5.54954E+00 3.19291E-03-8.96026E-03
 -1      2106-1.75992E+01-1.82426E+00-6.41281E+00-5.63366E+00-4.10885E-03 4.12919E-04
 -1      2107 3.16301E+00 7.73791E+00 3.60603E+00 6.74626E+00 2.70884E-02 3.40207E-02
 -1      2108 3.96110E+00 8.16076E+00 3.98590E+00 7.17669E+00-4.30961E-02-5.09096E-02
 -1      2109 9.50292E-01 7.25846E+00 2.70109E+00 6.39070E+00-2.11938E-03 1.33042E-02
 -1      2110 2.30991E+00 8.74687E+00 3.63419E+00 7.47490E+00-3.43354E-02 5.22647E-02
 -1      2111-6.53593E+00-3.53747E+00-3.34196E+00 1.13588E+00-7.42789E-02 1.30073E-02
 -1      2112-5.75865E+00-3.38647E+00-3.02317E+00 7.10463E-01-6.97361E-03 1.83101E-03
 -1      2113-2.84326E+00-2.43879E+00-1.74850E+00 1.19928E+00-3.80959E-03-2.18029E-02
 -1      2114-3.67799E+00-2.72614E+00-2.11337E+00 1.65672E+00 5.70164E-03 2.69411E-02
 -1      2115-6.48235E+00-3.53587E+00-3.31936E+00 1.14601E+00 4.99986E-02-2.49642E-03
 -1      2116-2.91773E+00-2.45872E+00-1.75530E+00 1.19290E+00 1.07833E-02 5.12755E-02
 -1      2117 8.87264E+00 6.82884E+00 5.18140E+00 8.14700E+00-1.32272E-03 4.05614E-04
 -1      2118 6.32819E+00 4.76636E+00 3.66015E+00 6.31507E+00-9.62983E-04 1.32908E-02
 -1      2119-9.80229E+00 1.12198E-01-3.19783E+00-1.99472E+00 4.71239E-03 1.92572E-03
 -1      2120-6.64033E+00 1.06191E+00-1.84224E+00-4.21005E-01 9.08351E-03 1.73252E-03
 -1      2121-7.00076E+00 7.15095E-01-2.07495E+00-6.93025E-01 1.38715E-03 4.25156E-03
 -1      2122-1.01979E+01-1.70155E-01-3.42111E+00-2.28702E+00-1.06485E-02-1.00605E-03
 -1      2123 7.18735E+00 2.58308E+00 3.22611E+00 3.02862E+00 1.95189E-02 7.79020E-03
 -1      2124 7.48230E+00 1.18681E+00 2.85989E+00 3.50370E+00 2.27104E-02 2.91830E-02
 -1      2125 8.33304E+00 1.76047E+00 3.33370E+00 4.01764E+00-3.42540E-03 5.72825E-03
 -1      2126 7.94204E+00 2.83977E+00 3.56170E+00 3.60651E+00 1.57940E-02-1.39676E-02
 -1      2127 7.47325E+00 1.89018E+00 3.08635E+00 3.29764E+00 1.65575E-03 6.18836E-03
 -1      2128-4.64636E+00 2.87047E+00-5.92030E-01 2.86553E+00-1.76425E-02 4.55491E-04
 -1      2129-5.63575E+00 2.53748E+00-1.02396E+00 1.79315E+00 1.99273E-02 1.18489E-02
 -1      2130-2.31638E+00 5.32361E+00 9.90104E-01 4.66881E+00-1.25586E-02-4.21754E-02
 -1      2131-6.88273E+00-1.49935E+00-2.76616E+00 1.26329E+00-6.63542E-04 7.40113E-03
 -1      2132-2.82667E+00-1.25930E+00-1.35035E+00 2.27397E+00 1.24643E-02-1.25720E-02
 -1      2133-5.39824E+00-2.20243E+00-2.50413E+00 1.62019E+00-6.43772E-04-5.05110E-03
 -1      2134 3.25833E-02 8.06952E+00 2.67446E+00 7.30358E+00 2.28804E-02 4.41875E-02
 -1      2135 7.47599E+00 3.58402E+00 3.64738E+00 6.36021E+00-3.04933E-04 2.38653E-02
 -1      2136-6.11862E+00-3.61513E+00-3.21133E+00-1.93339E-01 8.21014E-02-2.63687E-02
 -1      2137-1.03118E+01-5.44817E+00-5.19346E+00-1.75642E-01 7.25349E-02-4.75286E-04
 -1      2138 8.17474E+00 3.37728E+00 3.81270E+00 4.06056E+00-6.83309E-03-7.95412E-04
 -1      2139 8.17247E+00 3.37731E+00 3.81054E+00 4.06832E+00 5.31381E-04-2.95072E-03
 -1      2140 8.49697E+00 2.79745E+00 3.71860E+00 4.30638E+00-1.45263E-03-7.69259E-03
 -1      2141 7.95863E+00 2.87229E+00 3.56781E+00 3.62457E+00 1.42119E-03 1.72532E-02
 -1      2142-1.15446E+00-1.78808E+00-9.64409E-01 2.45579E+00-2.01319E-02 2.23694E-02
 -1      2143 5.36658E+00 1.55768E+00 2.28497E+00 4.97250E+00-1.22417E-02 8.06761E-04
 -1      2144 4.52125E+00 2.22394E+00 2.22715E+00 4.84462E+00-1.43821E-02-2.06453E-02
 -1      2145 1.15575E+00 7.14643E-01 6.19024E-01 3.41886E+00 7.89625E-03-3.97382E-03
 -1      2146 7.78448E+00 2.89767E+00 3.52381E+00 6.12747E+00 8.55299E-03 5.16808E-03
 -1      2147 8.69468E+00 2.48309E+00 3.68778E+00 6.04227E+00 1.05878E-02 2.29173E-02
 -1      2148 9.87892E+00 4.38308E+00 4.70622E+00 7.32892E+00-1.21380E-02 5.79992E-04
 -1      2149 1.43073E-01 2.00113E+00 7.06069E-01 2.92040E+00 6.08157E-03 9.14950E-04
 -1      2150 3.34863E+00 3.37471E+00 2.21613E+00 4.62108E+00-7.88479E-03-1.34706E-02
 -1      2151 3.61645E+00 2.75059E+00 2.10122E+00 4.59739E+00-6.88323E-03-6.18274E-03
 -1      2152 6.44906E+00 1.19187E+00 2.52154E+00 4.94650E+00-5.10256E-03-3.35595E-02
 -1      2153 4.43557E+00-4.00259E-02 1.45329E+00 4.03253E+00 1.14141E-02-7.96276E-03
 -1      2154 7.46254E+00 7.81838E-01 2.72083E+00 4.83852E+00-1.30205E-02-1.54717E-02
 -1      2155 2.03665E+00 8.61344E+00 3.54480E+00 7.42444E+00 2.19786E-02-1.48692E-02
 -1      2156 7.81750E+00 9.30242E+00 5.71067E+00 8.91426E+00-3.10086E-02 7.61393E-03
 -1      2157 9.45024E+00 9.44513E+00 6.26899E+00 9.54272E+00-3.72862E-02-3.77193E-02
 -1      2158 1.05051E+01 9.89203E+00 6.72091E+00 1.02503E+01-9.92190E-03 3.57913E-03
 -1      2159 4.71199E+00 7.74984E+00 4.11014E+00 7.09283E+00 1.97204E-02-9.48475E-04
 -1      2160 9.42594E+00 9.31689E+00 6.17404E+00 9.57904E+00 2.23163E-02 8.40980E-03
 -1      2161 1.06092E+00-1.39132E+00-1.01583E-01 1.80497E+00 2.65415E-02-1.18125E-02
 -1      2162-1.44545E+00-1.43254E+00-9.43343E-01 2.90230E-01-5.38885E-03-2.34357E-02
 -1      2163 6.15241E-01-1.07120E+00-1.55261E-01 1.28411E+00-6.30431E-03 4.43048E-03
 -1      2164 3.45448E+00-5.55257E-01 9.58031E-01 2.23048E+00-5.45202E-03 2.59541E-02
 -1      2165 1.16070E+00-3.24603E-01 2.78855E-01 8.17925E-01-3.19085E-02 2.27899E-03
 -1      2166-1.02209E+01-5.29385E+00-5.16824E+00-2.07014E-01-1.06811E-01-1.11382E-02
 -1      2167-6.08870E+00-3.57705E+00-3.19249E+00-1.97795E-01-6.96061E-02 1.42699E-02
 -1      2168 8.53735E+00 2.80394E+00 3.74496E+00 4.54573E+00-4.23994E-03-1.51719E-02
 -1      2169 8.08461E+00 3.36849E+00 3.78075E+00 4.61355E+00-1.07909E-02 4.87644E-03
 -1      2170 7.97570E+00 3.39439E+00 3.74650E+00 4.83229E+00 2.07778E-02 7.80358E-03
 -1      2171-1.30467E+01-8.42042E-01-4.56952E+00-3.55825E+00 1.85205E-03 1.04495E-02
 -1      2172-1.01716E+01 2.82534E-01-3.26815E+00-1.74426E+00 5.79679E-03 1.89721E-02
 -1      2173-7.92171E+00 1.34510E+00-2.18163E+00-2.44253E-02-2.10750E-02-1.93677E-05
 -1      2174 7.45526E+00 7.33673E-01 2.70083E+00 4.18099E+00-3.36278E-03 1.60671E-02
 -1      2175 8.40295E+00 1.42042E+00 3.24110E+00 5.01627E+00-2.47770E-02 3.27084E-03
 -1      2176 3.04936E-01-1.63050E+00-4.44803E-01 2.17278E+00 5.99346E-03-1.34420E-02
 -1      2177 3.89594E+00-7.43729E-01 1.03999E+00 2.69344E+00-1.97435E-02 3.84391E-03
 -1      2178 2.70313E+00-9.15959E-01 5.89547E-01 2.99690E+00 2.60716E-04-1.66445E-02
 -1      2179-2.46562E+00 2.41564E+00-1.57645E-02 1.73633E+00 1.16788E-03-9.63917E-03
 -1      2180-3.57062E+00 1.49692E+00-6.85127E-01 1.07605E+00-7.03197E-03 1.19165E-03
 -1      2181-3.61172E+00 1.11425E+00-8.24076E-01 1.06719E+00 2.15151E-03-2.64118E-03
 -1      2182-7.08823E+00 3.93598E-01-2.20880E+00-7.44180E-01 4.20276E-03-2.41521E-03
 -1      2183 1.04207E+01 9.86453E+00 6.70314E+00 1.02307E+01-6.12763E-03 8.91239E-04
 -1      2184 9.71874E+00 5.07479E+00 4.88252E+00 7.61388E+00-7.09220E-03-1.42346E-02
 -1      2185 4.93787E+00 7.35025E-01 1.87623E+00 2.18345E+00-5.92857E-03 3.58648E-03
 -1      2186 5.32787E+00 3.52166E-01 1.87470E+00 2.71468E+00-1.47010E-02-3.45489E-03
 -1      2187 5.27169E+00 3.32563E-01 1.85324E+00 2.66537E+00-3.74266E-03 2.07788E-03
 -1      2188 3.39378E+00-5.40597E-01 9.39393E-01 2.16751E+00-1.70533E-02-2.22245E-02
 -1      2189 1.26678E+00-8.92446E-01 1.23578E-01 3.21077E+00-5.14569E-03 9.68867E-03
 -1      2190 3.34564E+00 3.49447E-01 1.22124E+00 4.06976E+00 1.70878E-03 2.89399E-02
 -1      2191-1.03985E+00-4.16907E-01-4.82160E-01 2.58813E+00-1.22188E-02-2.23608E-02
 -1      2192-1.92301E+01-1.76587E+00-6.92389E+00-5.81836E+00-2.65374E-02 6.84705E-02
 -1      2193-2.12114E+01-2.43555E+00-7.87336E+00-6.13684E+00-2.62666E-01 7.66246E-02
 -1      2194-1.67564E+01-1.27843E+00-5.94418E+00-3.45786E+00 2.08836E-02 5.28069E-02
 -1      2195 1.33107E-02 4.18726E+00 1.38169E+00 3.54766E+00 9.99885E-04-1.26555E-03
 -1      2196 6.45199E-01 3.87128E+00 1.48961E+00 3.54192E+00-2.15820E-03 6.43348E-03
 -1      2197 4.04253E+00 5.94826E+00 3.29601E+00 5.78940E+00 2.74446E-03-1.44957E-03
 -1      2198 8.79066E+00 1.54733E+00 3.41079E+00 4.66879E+00-1.46755E-02-2.01811E-02
 -1      2199 8.04458E+00 1.15057E+00 3.03332E+00 3.90904E+00 2.66041E-02 1.20324E-02
 -1      2200 7.94705E+00 5.43943E+00 4.41823E+00 6.62427E+00 1.33586E-02 2.58976E-02
 -1      2201 8.38351E+00 3.90604E+00 4.05581E+00 5.77509E+00-1.42175E-02 1.94437E-03
 -1      2202 7.03049E+00 4.77096E+00 3.89969E+00 5.76553E+00 4.24172E-03-4.65752E-03
 -1      2203-8.88529E+00 6.32556E-01-2.72766E+00-1.22139E+00 8.96560E-05 7.78347E-03
 -1      2204-5.26014E+00 2.35601E+00-9.56739E-01 1.02543E+00-5.23638E-03-3.55624E-03
 -1      2205-8.93861E+00 7.78470E-01-2.69438E+00-1.05423E+00 1.32279E-02 1.11088E-02
 -1      2206 5.07383E+00 5.94742E+00 3.63600E+00 6.16988E+00-2.27626E-03-4.63977E-03
 -1      2207 7.10751E+00 7.40382E+00 4.78976E+00 7.63150E+00-2.23097E-03 6.70453E-03
 -1      2208 6.09424E+00 7.30611E+00 4.42223E+00 7.19029E+00-4.20870E-05-5.25284E-03
 -1      2209-7.77715E+00 8.07436E-02-2.53889E+00-8.33470E-01-2.38989E-03 7.99090E-05
 -1      2210 3.74623E+00 6.82541E+00 3.48991E+00 6.27627E+00-1.41699E-02 2.37751E-03
 -1      2211 1.98703E+00 5.50985E+00 2.47096E+00 4.93269E+00 1.54309E-03 8.39847E-04
 -1      2212-7.61555E+00-2.71298E-01-2.60245E+00-4.34816E-01 1.15620E-03-1.04501E-02
 -1      2213-1.18954E+01-7.88966E-01-4.18599E+00-2.73025E+00 9.18751E-03 4.60391E-03
 -1      2214 6.04627E+00 5.34895E+00 3.75765E+00 6.38594E+00 3.19045E-03 3.72016E-03
 -1      2215-1.10966E+01-2.00522E+00-4.34012E+00 5.17472E-01 2.39017E-03-5.76616E-03
 -1      2216-1.04437E+01-1.27566E+00-3.86258E+00-3.91842E-01-4.16800E-03-2.33105E-02
 -1      2217 8.03096E+00 7.42361E+00 5.10008E+00 8.01644E+00 3.25136E-04 3.75111E-03
 -1      2218 7.93263E+00 5.45690E+00 4.41833E+00 6.61912E+00-1.99822E-03-1.13914E-02
 -1      2219 9.84433E+00 6.54631E+00 5.40890E+00 8.11036E+00 1.58218E-02 2.76899E-02
 -1      2220 9.67529E+00 4.06985E+00 4.53417E+00 6.65504E+00-3.07258E-02-1.32038E-02
 -1      2221 1.04850E+01 7.14442E+00 5.81495E+00 8.72188E+00 1.70672E-02 1.53788E-02
 -1      2222 9.92996E+00 5.29566E+00 5.02609E+00 7.46649E+00 9.73084E-03 4.80854E-03
 -1      2223 1.00678E+01 4.58810E+00 4.83711E+00 7.25207E+00-1.09407E-02-2.95324E-02
 -1      2224-1.07235E+01-4.44107E-01-3.68529E+00-2.61288E+00 3.91205E-03-3.70234E-03
 -1      2225 8.91291E+00 5.73651E+00 4.83704E+00 7.17976E+00 1.43735E-02-1.92164E-05
 -1      2226 9.82079E+00 6.57601E+00 5.41379E+00 8.12619E+00-5.28356E-04-1.94005E-02
 -1      2227 8.91963E+00 5.76510E+00 4.84069E+00 7.17630E+00-1.42023E-02 8.79435E-04
 -1      2228 1.24985E+01 1.05537E+01 7.61264E+00 1.15003E+01 6.04164E-03 2.43216E-03
 -1      2229 1.24169E+01 1.05402E+01 7.57937E+00 1.14562E+01 4.00474E-03 1.47538E-03
 -1      2230 1.25174E+01 1.05477E+01 7.61077E+00 1.14901E+01-1.23051E-02-9.88262E-03
 -1      2231 9.48241E-01-1.36471E+00-1.32888E-01 1.75055E+00-3.94730E-02 9.80625E-03
 -1      2232-5.15797E+00-8.03129E-01-1.96737E+00 1.42449E+00-6.90779E-04 2.01220E-02
 -1      2233 7.43005E+00 3.65400E+00 3.65727E+00 4.81570E+00-1.53528E-02 8.72704E-03
 -1      2234 7.42332E+00 3.66549E+00 3.66134E+00 4.82354E+00 1.58364E-02-6.46818E-04
 -1      2235 6.41189E+00 3.29753E+00 3.20357E+00 4.81572E+00 8.25643E-04 9.20833E-04
 -1      2236 1.15412E+01 1.01761E+01 7.17521E+00 1.08717E+01 1.15884E-02 6.40613E-03
 -1      2237 1.18908E+01 1.03667E+01 7.34119E+00 1.11191E+01-2.44826E-03-1.08417E-03
 -1      2238 1.19095E+01 1.03815E+01 7.35459E+00 1.11358E+01 1.51299E-03-6.80914E-04
 -1      2239-3.37603E+00-2.00634E-02-1.12073E+00 1.72038E+00-6.47700E-03 4.61733E-03
 -1      2240-1.45645E+01-1.28192E+00-5.23224E+00-4.40847E+00-9.77519E-04 2.96134E-03
 -1      2241-1.26825E+01-9.09142E-01-4.48582E+00-3.52852E+00 9.83855E-04-6.14576E-03
 -1      2242-1.21820E+01-6.94550E-01-4.24677E+00-3.29449E+00-1.37929E-02-6.94126E-03
 -1      2243-1.25691E+01-7.96907E-01-4.41015E+00-3.47826E+00 1.01097E-02 6.63598E-03
 -1      2244-1.30609E+01-1.00486E+00-4.63971E+00-3.72070E+00-3.26522E-04 1.46998E-03
 -1      2245 8.84308E+00 2.84113E+00 3.85826E+00 5.13055E+00 5.03341E-03 3.28340E-03
 -1      2246 8.24024E+00 3.43996E+00 3.85332E+00 5.36165E+00-4.97216E-03 1.25797E-03
 -1      2247 8.88865E+00 3.51316E+00 4.09317E+00 5.75814E+00 4.62805E-03-1.03996E-02
 -1      2248 1.04674E+01 5.73303E+00 5.34175E+00 8.18493E+00-3.86525E-03-1.91058E-02
 -1      2249 1.16808E+01 8.60872E+00 6.69110E+00 1.00922E+01 1.07276E-04 1.04354E-02
 -1      2250 1.09245E+01 7.88917E+00 6.21420E+00 9.32095E+00 1.59266E-02 2.00461E-02
 -1      2251 9.17818E+00 4.00108E+00 4.35117E+00 6.33817E+00-2.49770E-02-4.38475E-02
 -1      2252 7.05169E+00 4.78950E+00 3.90207E+00 5.77969E+00-1.11378E-02 7.84781E-04
 -1      2253-1.74818E+01-1.54571E+00-6.38343E+00-2.41133E+00-2.14625E-02 1.14855E-01
 -1      2254-2.08557E+01-1.01527E+00-7.31947E+00-5.50087E+00 1.20520E-01-1.35228E-01
 -1      2255-1.89515E+01-2.80627E+00-7.27158E+00 1.33493E-01 1.58663E-01-6.83784E-02
 -1      2256-2.06171E+01-1.23172E+00-7.19891E+00-3.06438E+00 1.18700E-01-3.67503E-02
 -1      2257-5.71904E+00 1.76692E+00-1.30477E+00 3.30289E-01-2.57735E-03 3.95133E-03
 -1      2258-2.19225E+00 3.49031E+00 4.27571E-01 2.51390E+00-4.09987E-03-8.69194E-03
 -1      2259-1.55259E+00 3.22139E+00 5.51344E-01 2.49222E+00-1.15204E-02-5.90036E-03
 -1      2260 1.03867E+01 6.99663E+00 5.73306E+00 8.84577E+00-2.00630E-03-1.83094E-02
 -1      2261 1.12068E+01 7.71748E+00 6.24839E+00 9.46356E+00 2.60913E-04-2.76733E-03
 -1      2262 1.02539E+01 6.35549E+00 5.48035E+00 8.44560E+00-2.21510E-02-3.40527E-02
 -1      2263 1.04037E+01 6.98477E+00 5.74204E+00 8.85834E+00-2.06146E-03 1.65820E-02
 -1      2264 1.03220E+01 6.40472E+00 5.51914E+00 8.47527E+00 1.48294E-02 1.60996E-02
 -1      2265-1.43980E+00-1.39796E+00-9.38801E-01 2.79069E-01 6.72178E-03 2.30135E-02
 -1      2266 1.19185E+01 9.26318E+00 6.98992E+00 1.05389E+01-9.73763E-03-8.56099E-03
 -1      2267 1.23612E+01 9.73115E+00 7.28716E+00 1.10090E+01-3.04496E-03 5.48432E-03
 -1      2268 1.23433E+01 9.70614E+00 7.27841E+00 1.09976E+01-2.87261E-03-8.04762E-03
 -1      2269 2.47824E-01 1.33022E+00 5.21500E-01 3.10524E+00 2.81886E-03 1.29692E-02
 -1      2270 7.57858E+00 3.88552E+00 3.78439E+00 5.43265E+00-1.46504E-02-7.09369E-03
 -1      2271 1.04669E+01 7.16075E+00 5.81784E+00 8.71423E+00-9.40314E-03-6.53581E-03
 -1      2272 8.58126E+00 3.11992E+00 3.85433E+00 5.09385E+00 1.47312E-02 1.86742E-02
 -1      2273 7.94662E+00 3.37335E+00 3.73669E+00 4.81420E+00-1.65679E-02-3.24530E-03
 -1      2274 7.50546E+00 3.53901E+00 3.64471E+00 5.02632E+00 5.22730E-03-9.96460E-03
 -1      2275-9.44236E+00-3.03286E+00-4.12841E+00 1.06238E+00 3.51847E-02-2.30055E-02
 -1      2276 8.06509E+00 3.35473E+00 3.76183E+00 4.61822E+00 7.27732E-03-5.03263E-03
 -1      2277-1.60190E-01 2.98223E+00 9.27760E-01 2.88415E+00 5.46610E-03 4.53133E-03
 -1      2278-1.29759E+01-9.50312E-01-4.59107E+00-2.62809E+00-1.11934E-02 1.30164E-02
 -1      2279-8.72456E+00-6.20413E-01-3.07932E+00-1.95314E-01-3.88028E-03-5.15616E-03
 -1      2280-1.42537E+01-1.08398E+00-5.06149E+00-2.29526E+00-4.89707E-03 5.80441E-03
 -1      2281-6.75770E+00 1.91235E+00-1.60149E+00 6.54561E-01-1.10915E-02 4.09447E-03
 -1      2282 8.32614E+00 7.06349E+00 5.07604E+00 7.98132E+00 1.09182E-03 2.74881E-03
 -1      2283-3.69383E+00 4.94744E-01-1.05510E+00 1.28147E+00-9.55792E-03-7.14643E-03
 -1      2284 1.23874E+01 1.01377E+01 7.43422E+00 1.12275E+01-7.51052E-03-8.43098E-03
 -1      2285 1.13026E+01 8.71925E+00 6.61050E+00 1.00426E+01-7.92388E-04-3.69709E-03
 -1      2286 1.00760E+01 7.96726E+00 5.95585E+00 9.17463E+00 5.23773E-04 8.51350E-03
 -1      2287 1.01599E+01 7.58578E+00 5.85494E+00 9.02020E+00 9.68337E-03 1.30838E-02
 -1      2288-8.12885E+00 1.22606E+00-2.28242E+00-1.75408E-01 2.55346E-02 1.94197E-02
 -1      2289-9.24975E+00 6.78880E-01-2.82347E+00-1.15996E+00 4.42819E-03 4.90042E-03
 -1      2290-1.30452E+01-8.43840E-01-4.58831E+00-3.54043E+00-1.74009E-04-1.01622E-02
 -1      2291-1.30076E+01-3.81459E+00-5.60764E+00 6.30870E-01-3.94859E-02 4.87694E-03
 -1      2292-1.52006E+01-1.62475E+00-5.57953E+00-1.35123E+00 1.31825E-03 3.09399E-03
 -1      2293-1.91523E+01-1.79640E+00-6.95785E+00-5.80017E+00-3.14313E-03 3.28492E-02
 -1      2294 2.99925E+00 3.91137E+00 2.28077E+00 4.55285E+00-5.84952E-03-7.47846E-03
 -1      2295-2.23080E-01 2.51787E+00 7.59145E-01 2.82128E+00 2.53568E-03 6.84647E-03
 -1      2296-1.67884E+01-1.74215E+00-6.11757E+00-5.43467E+00 1.12250E-02 6.20367E-03
 -1      2297-1.70983E+01-1.80949E+00-6.24163E+00-5.55210E+00-3.87236E-03 5.98634E-03
 -1      2298-1.80867E+01-1.87493E+00-6.59046E+00-5.80038E+00-8.15612E-03 1.47315E-02
 -1      2299-1.80914E+01-1.93655E+00-6.60948E+00-5.78300E+00 2.42684E-02-3.64139E-02
 -1      2300-1.12867E+01-2.41119E-01-3.80177E+00-2.63522E+00-1.13526E-02-6.43284E-03
 -1      2301-1.04176E+01 2.05736E-01-3.36605E+00-1.94056E+00 6.36616E-03 5.99416E-03
 -1      2302-1.13331E+01-1.63841E-01-3.79381E+00-2.48242E+00 1.07885E-03 2.56878E-03
 -1      2303 2.88575E+00 4.41735E+00 2.40601E+00 4.65796E+00 4.79319E-03 6.16493E-03
 -1      2304 1.15313E+01 1.01598E+01 7.15551E+00 1.08710E+01-1.80296E-02-1.18635E-02
 -1      2305 8.97791E+00 9.10496E+00 5.97913E+00 9.25481E+00 1.80283E-03 2.64730E-03
 -1      2306 1.01066E+01 7.54110E+00 5.82307E+00 8.98602E+00-1.72173E-02-2.52231E-02
 -1      2307 1.00457E+01 7.96101E+00 5.94313E+00 9.15647E+00 1.28542E-03-1.17525E-02
 -1      2308-1.75909E+01-1.82483E+00-6.41262E+00-5.64598E+00 6.36103E-03 1.01374E-02
 -1      2309 8.67196E+00 2.00142E+00 3.53099E+00 4.48897E+00-4.37240E-03-2.21882E-02
 -1      2310 8.57554E+00 2.53522E+00 3.66901E+00 4.25474E+00 1.60770E-03-1.36687E-02
 -1      2311 8.92414E+00 2.28373E+00 3.69730E+00 4.80933E+00-1.07679E-02-1.50037E-02
 -1      2312-1.72001E+01-1.39844E+00-6.14732E+00-4.80545E+00-2.45845E-02 6.42152E-02
 -1      2313-1.50452E+01-1.14156E+00-5.32825E+00-3.65102E+00-8.40801E-03 2.35462E-02
 -1      2314 5.70478E+00 1.73312E+00 2.45364E+00 2.20297E+00-4.10794E-03 1.60669E-02
 -1      2315 4.06112E+00 1.09853E+00 1.70488E+00 1.56721E+00-9.42922E-03 3.73528E-03
 -1      2316 5.73767E+00 1.74791E+00 2.46483E+00 2.21930E+00-1.84514E-02-3.11290E-02
 -1      2317 7.18083E+00 2.57613E+00 3.22168E+00 3.03256E+00-2.05243E-02-5.27322E-03
 -1      2318-2.09730E+01-1.72172E+00-7.48442E+00-6.30413E+00 6.56509E-02-3.54288E-02
 -1      2319-1.67759E+01-1.23601E+00-6.01413E+00-3.56527E+00-7.10982E-02 3.18479E-02
 -1      2320-1.07692E+01-5.82586E-01-3.74766E+00-2.64924E+00 1.74653E-02 1.38317E-03
 -1      2321-7.11468E+00 1.58234E+00-1.81429E+00 4.88845E-01-2.40343E-03 1.16059E-02
 -1      2322-5.84289E+00 1.82639E+00-1.35351E+00 1.37336E+00-1.28503E-02-3.24722E-02
 -1      2323 7.08753E+00 1.18518E+00 2.72727E+00 3.22917E+00 4.62912E-03-1.31246E-02
 -1      2324-2.30812E+01-1.44370E+00-7.80893E+00-4.75654E+00 2.65184E-01-9.73057E-02
 -1      2325-1.33190E+01-1.02470E+00-4.72832E+00-3.67486E+00-7.98973E-03-2.61664E-03
 -1      2326 7.87415E+00 8.18033E+00 5.29651E+00 8.33249E+00-2.24254E-03-4.06282E-03
 -1      2327-1.43796E+01-1.23860E+00-5.16179E+00-4.29662E+00-7.87016E-03 5.21738E-03
 -1      2328-1.17590E+01-2.73199E-01-3.96070E+00-2.65237E+00-6.58235E-03 7.07421E-03
 -1      2329 6.42976E+00 3.35733E+00 3.22444E+00 4.81159E+00-5.39130E-03 3.87262E-03
 -1      2330 1.23965E+01 1.05284E+01 7.56815E+00 1.14522E+01-5.81010E-03-1.04007E-03
 -1      2331 7.09122E+00 3.58301E+00 3.51964E+00 4.94011E+00 1.61655E-02-8.34602E-03
 -1      2332 8.83900E+00 2.12256E+00 3.61584E+00 5.60743E+00 1.45013E-02 1.68783E-02
 -1      2333 8.01879E+00 1.76703E+00 3.22516E+00 3.74086E+00 3.23807E-02 2.03771E-03
 -1      2334 8.58170E+00 2.49833E+00 3.65590E+00 4.23483E+00 2.36859E-04-2.97180E-04
 -1      2335 1.25148E+01 1.03314E+01 7.53699E+00 1.14006E+01-3.12884E-03 1.08266E-03
 -1      2336 1.23817E+01 1.01208E+01 7.42780E+00 1.12193E+01 1.17018E-02 1.36350E-02
 -1      2337 9.39223E+00 3.23967E+00 4.16645E+00 6.00926E+00-6.56648E-03-8.32435E-03
 -1      2338 9.14319E+00 4.08301E+00 4.36178E+00 6.37042E+00 7.09497E-03 2.64259E-02
 -1      2339 9.74679E+00 4.36519E+00 4.65110E+00 6.85173E+00 1.64306E-02-2.66760E-03
 -1      2340-1.76678E+01-1.61561E+00-6.40939E+00-2.29440E+00-5.07490E-02-1.56878E-01
 -1      2341-1.92260E+01-3.30918E+00-7.25919E+00 2.40034E-01 1.47189E-01-6.56427E-02
 -1      2342 5.51577E+00-1.72756E-01 1.76530E+00 3.78655E+00 9.28281E-03 1.04113E-02
 -1      2343 1.01519E+01 5.08658E+00 5.03059E+00 7.63147E+00-2.67590E-02-3.06955E-02
 -1      2344 1.19217E+01 9.24637E+00 6.98873E+00 1.05301E+01 1.70755E-02 1.79793E-02
 -1      2345 7.09603E+00 8.17445E+00 5.03878E+00 8.05106E+00 1.71128E-02 7.39145E-03
 -1      2346-3.10899E+01-8.13413E+00-1.29058E+01-7.36376E-02 2.03397E-01-2.34267E-01
 -1      2347 1.25108E+01 1.03010E+01 7.52911E+00 1.13847E+01-8.62669E-04-2.50301E-03
 -1      2348 9.51976E+00 8.15569E+00 5.83266E+00 9.00177E+00 7.89490E-03 3.65248E-03
 -1      2349 9.44293E+00 2.59843E+00 3.96952E+00 5.78853E+00 9.48877E-03 2.31939E-02
 -1      2350 9.14221E+00 2.69917E+00 3.90807E+00 5.39876E+00 2.67227E-02 8.44029E-03
 -1      2351 9.37688E+00 8.34052E+00 5.84605E+00 9.04582E+00 5.51391E-04 5.23796E-03
 -1      2352-1.58051E+01-2.63659E+00-6.08528E+00 3.96097E-02 5.16027E-02-2.50735E-02
 -1      2353 1.08981E+01 7.92074E+00 6.20843E+00 9.32198E+00-1.26379E-02-5.13582E-03
 -1      2354 1.05902E+01 9.45427E+00 6.61774E+00 1.00796E+01-6.31632E-04-1.88101E-03
 -1      2355 1.16207E+00-3.45081E-01 2.67530E-01 8.15885E-01 3.32751E-02-3.48883E-03
 -1      2356 9.84674E+00 8.36088E+00 6.01254E+00 9.22992E+00-1.00664E-02-1.49610E-02
 -1      2357 5.19920E+00 5.52956E+00 3.54380E+00 6.06647E+00 1.54797E-03-2.37554E-03
 -1      2358-1.13930E+01-6.76113E-01-3.98267E+00-2.76658E+00-8.80373E-03 4.66309E-03
 -1      2359-1.63488E+01-1.64688E+00-5.93936E+00-5.22010E+00-3.29267E-03 3.63263E-03
 -1      2360-1.18136E+01-4.98399E-01-4.06226E+00-3.02186E+00-1.18545E-03-2.54493E-03
 -1      2361 8.49398E+00 2.92482E+00 3.75816E+00 4.56119E+00-1.05417E-02 1.85360E-02
 -1      2362-7.78852E+00 3.66521E-01-2.43210E+00-7.00363E-01 1.36340E-02 1.17844E-02
 -1      2363-4.32113E+00 2.18118E+00-7.45199E-01 1.94544E+00 3.63729E-03 2.42439E-02
 -1      2364-9.64248E+00-6.07066E-01-3.41945E+00-2.30647E+00-5.23284E-03 5.09947E-02
 -1      2365-3.16268E+01-7.64907E+00-1.30643E+01 2.99310E-01-4.37309E-03 1.08453E-01
 -1      2366 1.01006E+01 4.88237E+00 4.95122E+00 7.43006E+00 1.16611E-02 3.17288E-02
 -1      2367-1.14515E+01-2.88247E-01-3.87560E+00-2.72917E+00 1.01115E-02-2.21010E-03
 -1      2368-1.52453E+01-1.38554E+00-5.48546E+00-4.65081E+00-4.97697E-05-2.71398E-03
 -1      2369 9.82474E+00 3.67681E+00 4.45511E+00 6.60562E+00-9.69263E-03-6.75493E-04
 -1      2370-1.23700E+01-7.64380E-01-4.34167E+00-3.22156E+00 2.11768E-02-5.41614E-03
 -1      2371-9.82626E+00 2.35780E-01-3.17316E+00-1.50425E+00 5.66527E-03-2.74552E-03
 -1      2372 8.34252E+00 4.03301E+00 4.07948E+00 5.83053E+00 1.50945E-02-9.67075E-03
 -1      2373 7.59948E+00 3.88472E+00 3.79174E+00 5.42902E+00-2.37176E-03 6.32409E-03
 -1      2374 5.45993E+00 8.09908E+00 4.48253E+00 7.52211E+00-2.09090E-02-1.77839E-02
 -1      2375 6.74702E+00 7.98782E+00 4.85789E+00 7.83121E+00-1.18528E-02-6.56158E-04
 -1      2376 9.92891E+00 3.94279E+00 4.57754E+00 6.92169E+00-3.73170E-03-2.04093E-02
 -1      2377-5.86225E+00 1.71564E+00-1.38695E+00 1.36309E+00 4.34556E-02 5.85069E-02
 -1      2378-7.30796E+00 1.46781E+00-1.92925E+00 3.36741E-01 2.46568E-02 1.24744E-02
 -1      2379-1.07457E+01-5.91491E-01-3.72600E+00-2.67411E+00-6.55941E-03-1.04491E-02
 -1      2380 4.06191E+00 1.07922E+00 1.69908E+00 1.57331E+00 9.67644E-03-8.61858E-04
 -1      2381-1.43179E+00 6.23238E+00 1.58373E+00 6.03481E+00-2.91608E-02-6.07769E-02
 -1      2382 5.88979E+00 3.07085E-01 2.04182E+00 3.15331E+00-2.86474E-04 6.58731E-03
 -1      2383 7.68832E+00 3.50521E+00 3.69747E+00 4.82363E+00-1.48001E-03 7.60347E-03
 -1      2384 7.08761E+00 3.58497E+00 3.52125E+00 4.93884E+00-1.07800E-02 3.53193E-03
 -1      2385 8.80793E+00 8.27973E+00 5.63907E+00 8.76286E+00 5.44349E-04 8.27580E-03
 -1      2386 1.16592E+01 8.58886E+00 6.68444E+00 1.00819E+01-4.01490E-03-1.32779E-02
 -1      2387 6.43643E+00 4.30171E+00 3.54086E+00 5.23692E+00-4.43076E-04 1.01701E-02
 -1      2388 7.15341E+00 3.93451E+00 3.66307E+00 5.29097E+00-6.64471E-03-1.79622E-04
 -1      2389 6.43341E+00 4.30921E+00 3.54189E+00 5.22733E+00-4.08688E-03-6.02796E-03
 -1      2390 8.67191E+00 2.58265E+00 3.71347E+00 4.53503E+00-9.88139E-03-9.98038E-04
 -1      2391-1.40459E+01-1.19550E+00-5.03577E+00-3.74989E+00 9.80268E-03 8.93993E-04
 -1      2392-6.59989E-01 9.93997E+00 3.09583E+00 7.72606E+00 1.52491E-02 7.44461E-02
 -1      2393 1.02417E+00 7.69504E+00 2.92044E+00 7.13815E+00 4.78814E-02 5.76976E-02
 -1      2394 1.37494E+00 8.09449E+00 3.08243E+00 7.07078E+00 1.43232E-03-4.85932E-02
 -1      2395 3.92973E+00 8.26194E+00 4.05684E+00 7.21383E+00 7.99847E-02 9.52978E-02
 -1      2396 8.31433E+00 9.38679E+00 5.80083E+00 9.03392E+00 1.91806E-02-5.04723E-02
 -1      2397 4.40271E+00 8.13842E+00 4.07996E+00 7.23079E+00-4.80547E-02-9.61186E-02
 -1      2398-1.35646E+01-9.33417E-01-4.79136E+00-3.79895E+00-3.11180E-03-2.25138E-03
 -1      2399-1.20061E+01-5.63424E-01-4.14476E+00-3.12851E+00-5.09187E-04-7.58803E-04
 -1      2400-8.23349E-01 7.77552E+00 2.27839E+00 7.19620E+00-1.10599E-01-4.77205E-02
 -1      2401 3.35511E-02 9.78331E+00 3.22214E+00 7.13178E+00 7.25814E-02-1.43253E-01
 -1      2402-1.23561E-01 8.79760E+00 2.82700E+00 7.56593E+00 2.81957E-02 1.97294E-01
 -1      2403-6.21135E-01 8.66779E+00 2.69584E+00 7.49792E+00-1.97201E-02 3.11404E-02
 -1      2404-1.58634E+01-1.53403E+00-5.74422E+00-5.01072E+00 1.22200E-02 2.38945E-04
 -1      2405 5.82489E+00 3.99940E+00 3.24333E+00 4.76592E+00 1.40194E-02 4.96613E-03
 -1      2406 5.78149E+00 3.93423E+00 3.19839E+00 4.77137E+00-2.03955E-02 1.66407E-03
 -1      2407 5.31775E+00 4.20372E+00 3.13314E+00 4.61717E+00-9.06170E-03 1.83043E-03
 -1      2408 4.82608E+00 3.02381E+00 2.58208E+00 4.09479E+00 2.34193E-02-3.12588E-03
 -1      2409 4.85566E+00 2.95255E+00 2.57463E+00 4.08156E+00 3.11129E-02 1.13196E-03
 -1      2410 5.28079E+00 4.07683E+00 3.10363E+00 4.55738E+00 2.29565E-02-6.92733E-03
 -1      2411 5.96997E+00 3.43093E+00 3.10188E+00 4.65893E+00-9.08439E-04-1.97686E-03
 -1      2412 5.97954E+00 3.44109E+00 3.10911E+00 4.63467E+00 2.44890E-02-7.31326E-03
 -1      2413-2.28859E+00 4.12598E+00 5.92863E-01 2.49259E+00-1.13331E-02 2.61835E-02
 -1      2414-5.65288E+00-4.17324E-01-1.90699E+00-7.60666E-01 1.67525E-01 1.42532E-01
 -1      2415-2.14565E+00 4.07154E+00 6.15892E-01 2.52918E+00-1.95862E-03 5.14296E-03
 -1      2416-5.23769E+00 1.13027E-01-1.77417E+00-2.42896E-01-1.94360E-01-5.11395E-02
 -1      2417-7.70787E+00-3.60906E-01-2.60686E+00-1.94957E+00 2.09329E-02-6.18828E-02
 -1      2418-4.42719E+00 1.85236E+00-8.22132E-01 1.25216E+00 1.16708E-02 5.53686E-02
 -1      2419-8.01832E+00-6.38390E-01-2.95878E+00-1.94335E+00 4.62628E-02 5.60220E-02
 -1      2420-1.01186E-01 8.41218E+00 2.80960E+00 5.33997E+00 7.21927E-02 1.31003E-01
 -1      2421-2.29236E+00 3.58928E+00 4.38597E-01 3.57773E+00-1.96996E-02-3.40750E-02
 -1      2422 1.14494E-01 9.26602E+00 3.00457E+00 5.74705E+00-1.78100E-01-1.00614E-01
 -1      2423-2.39264E+00 3.61572E+00 3.92477E-01 3.56522E+00-1.37680E-02 8.48813E-02
 -1      2424-1.48335E+00 5.69059E+00 1.39441E+00 5.73568E+00-9.07835E-03-1.58686E-03
 -1      2425-1.16195E-01 9.78296E+00 3.18965E+00 7.13100E+00-5.96719E-02 4.81946E-02
 -1      2426-2.97819E-01 1.06303E+01 3.40008E+00 6.81496E+00-5.69413E-03-1.03193E-01
 -1      2427-1.24341E-01 1.10341E+01 3.69215E+00 6.72529E+00-2.29142E-02 1.82861E-02
 -1      2428-1.52779E+01-5.19684E+00-6.77670E+00-3.61675E-01 1.72389E-01-8.74138E-02
 -1      2429-1.54490E+01-5.41086E+00-6.79951E+00-2.63103E-01-1.77487E-02 3.49937E-02
 -1      2430-1.68015E+01-1.73614E+00-6.11887E+00-5.43100E+00-4.66188E-03 8.10336E-04
 -1      2431-1.31235E+01-3.96626E+00-5.66416E+00 6.37356E-01 5.06076E-02 9.95547E-04
 -1      2432-1.54092E+01-4.66685E+00-6.52144E+00 5.71510E-01 6.54335E-02 1.93434E-02
 -1      2433-1.63342E+01-1.65336E+00-5.93188E+00-5.21136E+00 2.91276E-03-4.00792E-03
 -1      2434-1.58830E+01-1.54524E+00-5.75185E+00-5.02022E+00-4.35861E-03 2.84994E-03
 -1      2435-1.43712E+01-1.23322E+00-5.15401E+00-4.29685E+00-4.49339E-03-9.82840E-03
 -1      2436-1.52837E+01-1.36485E+00-5.49290E+00-4.65930E+00-5.42512E-03-1.18503E-03
 -1      2437-1.23765E+01-7.35281E-01-4.33482E+00-3.22438E+00 3.03033E-04-5.83577E-05
 -1      2438-4.34615E+00 2.06560E+00-7.29401E-01 1.90272E+00 3.14442E-02 1.49153E-02
 -1      2439-9.72030E+00-6.67378E-01-3.41131E+00-2.38296E+00 1.51711E-02-3.37230E-02
 -1      2440-2.77097E+00 3.62882E+00 2.83048E-01 4.14262E+00 2.18972E-03 9.91361E-03
 -1      2441 1.94105E+00 8.84363E+00 3.54195E+00 7.57973E+00 4.31849E-02 5.61069E-02
 -1      2442 6.10743E+00 3.75685E+00 3.25301E+00 4.72718E+00 1.34166E-02-3.44230E-04
 -1      2443-1.01164E+00 6.45887E+00 1.84763E+00 5.07875E+00-6.89720E-02 4.54548E-03
 -1      2444-1.45709E+00 5.60414E+00 1.35359E+00 5.69758E+00-2.79434E-02-2.18237E-02
 -1      2445-5.51358E-01 9.99289E+00 3.11048E+00 7.58224E+00-7.73765E-02 1.74414E-02
 -1      2446 6.29151E+00 8.85704E+00 5.01153E+00 8.27293E+00-1.81261E-02-2.65225E-02
 -1      2447-1.37193E-01 8.65262E+00 2.85184E+00 7.55582E+00 2.36050E-02-1.08749E-01
 -1      2448-7.59312E-01 7.75201E+00 2.31191E+00 7.18700E+00 1.01059E-01 2.59051E-02
 -1      2449-1.51097E+01-1.11547E+00-5.35798E+00-3.69552E+00-1.85361E-02 2.31341E-02
 -1      2450 8.67207E+00 4.58669E+00 4.37836E+00 6.41693E+00 1.41799E-03-1.24806E-03
 -1      2451 1.11780E+01 9.31660E+00 6.76130E+00 1.02854E+01-3.04760E-03-8.14961E-03
 -1      2452 9.71856E+00 8.55492E+00 6.03011E+00 9.28651E+00-2.15518E-03-5.75988E-04
 -1      2453 9.17727E+00 8.49186E+00 5.83388E+00 9.00517E+00 3.49061E-03-4.63406E-03
 -1      2454 1.04720E+01 5.74417E+00 5.35442E+00 8.21674E+00-4.16503E-03 1.82966E-02
 -1      2455 1.07012E+01 6.45850E+00 5.65864E+00 8.52804E+00 3.22915E-03 1.68732E-03
 -1      2456 8.23694E+00 8.37131E+00 5.48084E+00 8.57538E+00 4.39095E-03-2.38869E-03
 -1      2457 1.02468E+01 5.16105E+00 5.08318E+00 7.67494E+00 1.63358E-02 1.32182E-02
 -3
    1PSTEP                         3           1           1          
  100CL  101 1.000000000         890                     0    1           1
 -4  TOSTRAIN    6    1
 -5  EXX         1    4    1    1
 -5  EYY         1    4    2    2
 -5  EZZ         1    4    3    3
 -5  EXY         1    4    1    2
 -5  EYZ         1    4    2    3
 -5  EZX         1    4    3    1
 -1      1568 2.81339E-03 6.50356E-02-1.20585E-03 1.23378E-01-1.76166E-03-3.27772E-03
 -1      1569-9.18796E-03 6.60891E-02 9.84376E-04 1.23752E-01 1.69323E-03 2.32916E-03
 -1      1570 3.90675E-02 1.21355E-03 1.75300E-04 6.89874E-02 7.64482E-04 3.69858E-04
 -1      1571 3.76226E-02 3.39327E-03 2.40870E-05 6.97108E-02 4.84780E-04 1.83455E-04
 -1      1572-7.20984E-02 8.62074E-02 2.96913E-05 3.41617E-02 2.07760E-03-1.98464E-03
 -1      1573-6.68599E-02 8.14199E-02-1.82501E-04 3.60258E-02 4.16402E-04-8.52221E-04
 -1      1574-4.18165E-01 9.19214E-02 6.05513E-05-1.18931E-02 1.41181E-03-6.40630E-03
 -1      1575-4.44716E-01 1.05175E-01 2.64242E-03 5.05904E-03-3.14888E-03 8.16463E-03
 -1      1576 7.85878E-02 5.58174E-02 8.23048E-04 1.93165E-01-5.85528E-04 9.80828E-04
 -1      1577 9.92936E-02 5.72723E-02-3.91292E-04 2.26235E-01-2.79402E-04 3.61595E-04
 -1      1578 1.03502E-01 6.00587E-02-1.34465E-04 2.38394E-01 1.61513E-06 1.03887E-04
 -1      1579 1.03741E-01 6.06721E-02-5.23248E-05 2.40020E-01-4.34748E-05 8.72786E-05
 -1      1580 1.01063E-01 5.77943E-02-5.84540E-05 2.31616E-01 7.72457E-06 2.56270E-04
 -1      1581 9.38238E-02 5.14607E-02-2.92085E-05 2.11670E-01 1.56200E-04 3.80023E-04
 -1      1582 8.12103E-02 4.19901E-02 2.46033E-05 1.79602E-01 5.27570E-04 6.87476E-04
 -1      1583 6.41171E-02 3.27128E-02 1.25771E-05 1.41737E-01 3.82501E-04 2.95752E-04
 -1      1584 4.77350E-02 2.57012E-02 2.70684E-05 1.08026E-01 1.20567E-04-1.09812E-04
 -1      1585 3.57186E-02 2.51622E-02-7.35870E-05 8.86318E-02-5.42273E-04-5.35772E-05
 -1      1586 8.67658E-02 5.18034E-02-4.56872E-04 1.96230E-01 1.03615E-03-1.28039E-03
 -1      1587 9.79231E-02 5.78491E-02 1.43412E-04 2.26362E-01 9.81048E-05-2.77988E-04
 -1      1588 1.03244E-01 6.01375E-02-2.12435E-05 2.38156E-01 3.16091E-05-1.54949E-04
 -1      1589 1.04151E-01 6.00875E-02-5.34780E-06 2.39432E-01-1.41814E-05-1.05031E-04
 -1      1590 1.01311E-01 5.76279E-02-5.93044E-06 2.31797E-01 3.19531E-05-2.38613E-04
 -1      1591 9.39838E-02 5.15561E-02-1.99909E-05 2.11988E-01-2.87544E-05-3.34634E-04
 -1      1592 8.01007E-02 4.31562E-02 1.87666E-05 1.79905E-01-3.12423E-04-4.25884E-04
 -1      1593 6.32658E-02 3.31307E-02 1.13249E-05 1.41209E-01-2.37546E-04-2.26840E-05
 -1      1594 4.78498E-02 2.55455E-02-6.54272E-05 1.07776E-01-1.04436E-04 3.83323E-05
 -1      1595 3.61457E-02 2.38335E-02 3.09197E-04 8.77038E-02 5.24569E-04 2.40749E-04
 -1      1596-7.67004E-02 1.73425E-01 1.89559E-03 1.33862E-01 4.36955E-03 3.50766E-03
 -1      1597-7.45652E-02 1.45728E-01 2.57985E-04 1.42646E-01 2.12568E-03-8.73021E-04
 -1      1598-7.42937E-02 1.83314E-01-2.31445E-03 1.48861E-01-4.68067E-03-5.20720E-03
 -1      1599-7.37437E-02 1.50213E-01-1.41217E-03 1.39828E-01-2.28826E-03 5.75613E-04
 -1      1600-2.77975E-01 1.21249E-01 3.87984E-03-1.55611E-01 3.80617E-03-1.93065E-03
 -1      1601-2.37542E-01 9.58796E-02 8.82429E-05-1.28790E-01 1.20612E-03-1.24066E-03
 -1      1602-2.30060E-01 9.23819E-02 2.33857E-05-1.23038E-01-1.40846E-05-7.64491E-05
 -1      1603-2.23869E-01 8.97059E-02 9.08018E-06-1.19037E-01-6.95890E-05-1.01071E-04
 -1      1604-2.12170E-01 8.48526E-02 5.47905E-06-1.12281E-01-1.54479E-04-8.32835E-05
 -1      1605-1.89068E-01 7.55542E-02-1.59759E-04-9.99377E-02-1.86613E-04-3.60470E-05
 -1      1606-1.51529E-01 5.80001E-02 3.88700E-04-8.28881E-02-9.03893E-05-5.00180E-04
 -1      1607-1.01110E-01 2.68251E-02-2.11691E-03-6.81119E-02-4.10796E-03-2.90049E-03
 -1      1608-2.47443E-01 1.08858E-01-8.49604E-04-1.70111E-01-4.41091E-03-1.19602E-03
 -1      1609-2.39365E-01 9.74956E-02 1.05462E-04-1.29712E-01-2.74893E-04-4.00432E-05
 -1      1610-2.30229E-01 9.24126E-02-1.60221E-05-1.23335E-01-1.14851E-05 1.15891E-04
 -1      1611-2.23908E-01 8.95754E-02 1.94655E-05-1.19415E-01 1.28621E-04 1.74154E-04
 -1      1612-2.12620E-01 8.52144E-02 4.02233E-05-1.12461E-01 1.41752E-04 1.06636E-04
 -1      1613-1.88517E-01 7.50063E-02 5.32229E-05-1.00005E-01 1.56699E-04-9.93378E-05
 -1      1614-1.51809E-01 5.88958E-02 1.67641E-04-8.12112E-02-1.83357E-04 1.93120E-04
 -1      1615-1.02964E-01 1.58598E-02 3.28572E-03-8.22551E-02 5.89079E-03 2.24056E-03
 -1      1616 6.05953E-02 2.72178E-04-1.18611E-04 9.01320E-02 4.25826E-05 8.15362E-05
 -1      1617 7.76789E-02-1.84855E-03-1.61629E-05 8.92709E-02 5.96213E-04-1.17979E-04
 -1      1618 7.61237E-02-2.40528E-03 7.30922E-05 6.44235E-02 4.56588E-04-1.71896E-04
 -1      1619 4.95464E-02-2.81887E-03-1.50193E-04 3.04272E-02-4.35062E-04-7.97692E-04
 -1      1620-6.37773E-03-2.37583E-03-7.03738E-05-2.73493E-03-3.26488E-04-6.08363E-04
 -1      1621-9.39819E-02-4.97115E-03-7.26593E-04-2.31004E-02-3.78212E-03 2.64365E-04
 -1      1622 6.06893E-02-1.68802E-04 4.88993E-05 9.10726E-02-4.02391E-04-9.78108E-05
 -1      1623 7.73870E-02-1.64526E-03-2.67401E-05 8.85989E-02-5.92423E-04 1.07417E-04
 -1      1624 7.60877E-02-2.09614E-03 1.42426E-05 6.40562E-02-3.27861E-04 2.15311E-04
 -1      1625 4.89784E-02-2.29461E-03-5.15182E-05 2.93748E-02 1.27211E-04 4.52206E-04
 -1      1626-6.30940E-03-2.50546E-03-6.39319E-05-3.47405E-03 5.21934E-04 5.02008E-04
 -1      1627-9.03353E-02-6.65890E-03-5.75687E-05-2.53885E-02 4.65448E-03-1.36674E-03
 -1      1628-5.50976E-02 1.05963E-01-2.61228E-06 1.39573E-01-4.32025E-04 5.59608E-04
 -1      1629 3.50333E-02 5.48538E-02 1.59441E-05 1.40690E-01 7.17094E-05-3.57583E-05
 -1      1630 7.02968E-02 3.08338E-02-3.83210E-06 1.53918E-01-3.49222E-05-1.00776E-04
 -1      1631 9.90828E-02-7.26008E-03 1.20439E-05 1.38348E-01-4.10415E-05-2.50299E-04
 -1      1632 9.34130E-02-1.39525E-02 2.61749E-05 1.08583E-01 1.00470E-04-1.53118E-05
 -1      1633 9.37545E-02-2.00040E-02 1.71061E-05 8.67652E-02-2.98584E-04 5.22825E-05
 -1      1634 5.59372E-02-3.47802E-02 5.20035E-06 5.22938E-02 6.10463E-05-6.64348E-05
 -1      1635-1.87698E-01 6.65593E-02 1.16308E-03 7.88217E-03 6.27939E-04-1.82034E-03
 -1      1636-1.48377E-01 6.53238E-02-5.23880E-05-5.40627E-02 1.39788E-04 1.55891E-04
 -1      1637-1.27257E-01 6.30535E-02 1.06180E-05-3.98821E-02 1.39734E-04 4.25461E-05
 -1      1638-8.75501E-02 6.57767E-02 1.16128E-04 3.23790E-02 3.63597E-04 5.69876E-05
 -1      1639 7.32753E-02-1.98654E-03 4.15248E-05 9.55280E-02-3.07393E-04-2.19729E-04
 -1      1640-5.32935E-02 5.93945E-02 3.00447E-05 7.94360E-02-3.38368E-04-2.25709E-05
 -1      1641-2.00570E-02 7.31650E-02-4.61994E-05 1.07108E-01 2.35787E-04 3.18248E-05
 -1      1642 5.88268E-02 4.44503E-02 3.15712E-05 1.56551E-01-8.33824E-05-7.96712E-05
 -1      1643 8.47629E-02 1.24317E-02-3.51516E-05 1.48661E-01-3.94715E-05-2.34138E-04
 -1      1644 1.04371E-01-1.89633E-02-5.32301E-05 1.22252E-01-2.40525E-04-1.80395E-04
 -1      1645 1.00132E-01-3.80751E-02 4.53422E-05 7.98220E-02 1.82768E-04 2.92149E-04
 -1      1646-2.91150E-02-1.25858E-02 2.51842E-04 3.32064E-02 2.68441E-04 5.24283E-04
 -1      1647-1.76596E-01 7.77186E-02-1.56344E-04-4.57383E-02-6.32682E-04 1.92521E-04
 -1      1648-1.37833E-01 6.26286E-02-3.16293E-05-5.34905E-02 1.22659E-04 6.37111E-05
 -1      1649-1.09142E-01 6.47951E-02 1.08565E-04-9.12858E-03 1.51233E-04 1.73607E-04
 -1      1650 2.78019E-02 1.26574E-02-4.14512E-05 8.65020E-02-6.47235E-05-8.63767E-06
 -1      1651 8.90220E-02-3.70209E-02 1.57955E-05 9.19219E-02-3.39889E-05-9.33517E-05
 -1      1652 2.08448E-02-1.87705E-02-6.31613E-05 6.14746E-02-2.86814E-05 3.97585E-05
 -1      1653-5.88676E-02 4.68944E-02-3.75849E-05 1.94107E-02 2.20626E-05-1.51944E-05
 -1      1654-4.54871E-02 5.54897E-02 2.49475E-05 4.81788E-02-9.05560E-05-7.81708E-05
 -1      1655 1.12019E-02 3.14666E-02 9.87552E-05 8.38195E-02-7.32341E-05-5.50662E-05
 -1      1656 1.55600E-03 4.52479E-02-8.26396E-05 8.76309E-02-2.77360E-05 2.48617E-05
 -1      1657-5.61721E-02 3.73049E-02 2.24297E-05 1.75872E-02 2.97031E-05-1.19162E-04
 -1      1658-7.79095E-02 2.41966E-02-1.03106E-04 2.41887E-02-3.38051E-04 1.79120E-04
 -1      1659 5.76867E-02-1.33383E-02 4.79965E-05 9.42595E-02-1.01992E-05 2.28878E-05
 -1      1660-4.43842E-02 2.16030E-02-1.26277E-05 3.22242E-02-3.60843E-05 2.35712E-05
 -1      1661 9.03497E-02-9.78088E-03-6.82489E-05 1.10633E-01 2.09727E-04 1.31143E-04
 -1      1662 9.93303E-02-6.20906E-03-1.56330E-06 1.39818E-01-6.92989E-05 2.40703E-04
 -1      1663 7.07146E-02 3.12611E-02 3.90939E-05 1.55120E-01-2.06109E-05 1.63155E-04
 -1      1664 2.81130E-02 5.47979E-02 4.16877E-05 1.32095E-01-2.07523E-05 7.66678E-05
 -1      1665-5.08216E-02 1.03901E-01 6.85248E-05 1.38859E-01 5.09719E-04-8.44531E-05
 -1      1666-5.67905E-02 6.32789E-02-4.79815E-04 8.03996E-02 2.81886E-04 3.87779E-04
 -1      1667-1.27303E-01 6.64864E-02-1.52645E-04-3.02373E-02 5.33374E-05 5.59694E-05
 -1      1668-1.29260E-01 6.02174E-02-2.53627E-06-4.62144E-02-8.17117E-05-5.88532E-05
 -1      1669-1.73644E-01 7.54296E-02 3.03042E-04-4.28864E-02 2.90005E-04 2.13240E-04
 -1      1670-1.84046E-01 6.76588E-02-1.47905E-03 2.83212E-03 3.78621E-04 5.54006E-04
 -1      1671 5.35725E-02-3.42466E-02 1.02004E-04 5.05683E-02-4.19978E-04-3.54594E-05
 -1      1672 9.57937E-02-2.28199E-02 8.71729E-05 8.63704E-02 6.40633E-05-4.47476E-05
 -1      1673 7.36316E-02-2.06796E-03-4.35712E-05 9.56402E-02 2.61740E-04 5.59790E-05
 -1      1674 1.01608E-01-1.19803E-02 7.28194E-05 1.29144E-01 2.27686E-04 2.22632E-04
 -1      1675 8.52068E-02 1.27586E-02 6.04307E-05 1.49658E-01-3.07366E-05 2.66458E-04
 -1      1676 5.27740E-02 4.35701E-02 1.23058E-05 1.47581E-01 2.13206E-05 1.05092E-04
 -1      1677-6.21480E-03 7.40215E-02 1.34930E-04 1.22882E-01-4.20631E-04-3.03866E-04
 -1      1678-8.58116E-02 6.83577E-02-1.89168E-05 3.65060E-02-3.41405E-04 3.58145E-05
 -1      1679-1.23365E-01 6.23083E-02-3.97608E-05-3.59504E-02-4.42377E-05-5.72565E-06
 -1      1680-1.44562E-01 6.38900E-02 3.06758E-05-5.05565E-02-4.47812E-05 2.51565E-05
 -1      1681-2.84917E-02-1.18996E-02-2.17649E-04 3.14621E-02-3.62169E-04-1.22817E-04
 -1      1682 9.11185E-02-3.45418E-02-5.98348E-05 6.84799E-02 2.71863E-04-8.19969E-05
 -1      1683-5.39015E-02 6.05442E-02 1.36034E-05 4.74193E-02 2.86371E-05-2.24850E-05
 -1      1684 3.07609E-02 1.15238E-02 3.95241E-05 8.83410E-02-1.03535E-05-3.72881E-05
 -1      1685-4.96498E-02 3.60608E-02-2.26085E-05 2.27968E-02-2.62740E-05 2.74544E-05
 -1      1686-3.38394E-02 4.54012E-02 7.07422E-05 4.65347E-02 1.65675E-06-1.95363E-05
 -1      1687 2.35411E-02-2.04788E-02 7.55277E-05 6.13768E-02-2.24112E-06 1.83814E-05
 -1      1688-7.74287E-02 2.34908E-02 1.18663E-05 2.45275E-02 2.36584E-04-1.16007E-04
 -1      1689 6.11068E-02-1.50130E-02-3.84177E-05 9.50207E-02-9.02159E-05 2.44131E-06
 -1      1690 1.64712E-02 3.05534E-02-2.10524E-05 8.92247E-02 8.55354E-05-8.41040E-06
 -1      1691-4.04940E-02 1.97275E-02 5.93914E-06 3.36281E-02-6.07256E-06-7.92857E-05
 -1      1692 9.24256E-02-3.76397E-02 5.06104E-05 9.19044E-02-1.51975E-06 7.34713E-05
 -1      1693 1.05067E-01-3.34625E-02 6.85375E-06 9.73083E-02-9.14307E-05-1.61851E-04
 -1      1694-6.18479E-02 1.18222E-01 3.16393E-04 1.46740E-01 4.84785E-04 1.58381E-03
 -1      1695 6.25237E-02 4.14944E-03-6.55348E-05 9.25674E-02-2.80410E-05 5.48637E-05
 -1      1696 4.75084E-02 1.28168E-02-6.31099E-06 8.60125E-02 4.49041E-04-1.85050E-04
 -1      1697-8.62515E-02 4.74473E-02-4.26038E-04-5.33422E-03 5.87177E-04 6.82790E-04
 -1      1698-4.42257E-02 5.49913E-02 8.41144E-07 5.89320E-02-1.31553E-03 1.65885E-03
 -1      1699 8.70600E-02-1.26647E-02-1.06193E-04 8.75086E-02-9.80070E-05 3.52221E-05
 -1      1700 4.35204E-02 6.39780E-02 1.26038E-04 1.64856E-01-2.01106E-04-1.88989E-04
 -1      1701-1.95765E-01 8.18069E-02-3.63076E-05-9.17841E-02 2.17839E-06 2.15262E-04
 -1      1702-2.63876E-01 9.36567E-02 1.55123E-03 7.16123E-04 5.19922E-03-1.95839E-03
 -1      1703 7.13850E-02 6.88373E-03 1.44058E-05 1.10842E-01-3.12039E-05 7.61346E-06
 -1      1704 8.14565E-02 5.17571E-02 4.76815E-05 1.96840E-01-6.29839E-05-4.18269E-05
 -1      1705 9.61218E-02 2.12184E-02-2.03332E-05 1.72472E-01 2.49805E-06 2.18768E-05
 -1      1706 7.50725E-02-2.35721E-02-2.92669E-05 5.26898E-02-1.23089E-04-5.38231E-05
 -1      1707-1.34792E-01 6.76474E-02 3.09759E-05-3.59821E-02-1.02165E-05 1.35010E-04
 -1      1708 3.48380E-03 8.47255E-02-5.52396E-05 1.49279E-01-2.05400E-04-4.61563E-06
 -1      1709-5.68870E-02 1.03698E-01 5.12374E-04 1.30543E-01-6.83599E-04-6.14320E-04
 -1      1710-1.72016E-01 7.39017E-02 6.66253E-06-7.89653E-02-3.76019E-05-3.44938E-06
 -1      1711 4.04941E-02-2.09409E-02 1.03728E-05 3.20611E-02-1.25172E-04 5.25947E-05
 -1      1712 9.57838E-02 8.99475E-03 5.45056E-06 1.52285E-01 1.49892E-04 6.75036E-05
 -1      1713 9.12934E-02-2.25521E-02-9.98796E-06 7.39218E-02 1.89155E-04-7.75053E-05
 -1      1714 6.92315E-02 5.55064E-02 5.83340E-05 1.85440E-01 4.77176E-05-3.30070E-06
 -1      1715 9.09043E-02 7.76995E-04-2.62552E-05 1.30977E-01-2.46925E-05-8.78683E-05
 -1      1716 8.60356E-02 4.52740E-02 4.29151E-05 1.93929E-01-2.38256E-05-8.71039E-05
 -1      1717-9.69044E-02 4.34103E-03-7.69507E-04 1.15514E-02-6.90581E-04 2.37547E-04
 -1      1718 9.22929E-02 3.47350E-02 1.35337E-05 1.87370E-01-2.65526E-05-1.59828E-05
 -1      1719-2.30425E-01 1.01436E-01-1.67772E-03-9.05186E-02-1.68939E-03 1.75476E-03
 -1      1720-1.82067E-01 7.61105E-02 1.96636E-05-8.78404E-02-2.54706E-05 4.34080E-05
 -1      1721-1.60076E-01 7.21970E-02-1.38986E-05-6.44255E-02-1.00788E-04-5.66146E-06
 -1      1722-1.16205E-01 6.10160E-02-1.37778E-04-2.04177E-02 2.34367E-04-1.27972E-05
 -1      1723-1.23300E-02-1.43469E-02 8.89471E-05 1.51015E-02 3.31821E-05 8.67441E-05
 -1      1724-1.27893E-03 6.11285E-02-2.02625E-09 1.20518E-01-1.89932E-04-3.00318E-03
 -1      1725 3.81882E-02 2.86843E-03 1.09175E-09 6.87838E-02-3.38273E-05 1.18798E-04
 -1      1726 4.76183E-02 6.04658E-02-6.20122E-04 1.58694E-01-7.56931E-04 1.94837E-03
 -1      1727 9.18655E-02 5.72587E-02-1.01820E-04 2.13686E-01-3.54519E-04 9.72750E-04
 -1      1728 1.01696E-01 5.98117E-02-3.37235E-04 2.34269E-01-1.43952E-04 4.73748E-05
 -1      1729 1.04144E-01 6.08840E-02-2.13635E-04 2.40130E-01-1.51574E-04 8.74315E-05
 -1      1730 1.03104E-01 5.94812E-02-4.99488E-05 2.36627E-01-1.21674E-04 1.53298E-04
 -1      1731 9.81382E-02 5.51640E-02-2.39697E-05 2.22567E-01-1.71994E-04 1.88420E-04
 -1      1732 8.78464E-02 4.73666E-02 9.50696E-05 1.96394E-01-1.44249E-04 2.77348E-04
 -1      1733 7.26356E-02 3.78496E-02-1.91723E-04 1.60758E-01 3.32617E-04 1.61210E-04
 -1      1734 5.50711E-02 2.91108E-02-3.77583E-05 1.23892E-01 4.17039E-05-1.55758E-04
 -1      1735 4.15346E-02 2.29723E-02 1.69652E-04 9.69262E-02-1.39170E-04-3.75791E-04
 -1      1736 3.59246E-02 1.66316E-02 1.33646E-04 7.82541E-02 5.07162E-04 2.10545E-04
 -1      1737 4.59009E-02 5.85512E-02 2.03043E-03 1.55061E-01 9.69901E-04-3.30196E-04
 -1      1738 9.17329E-02 5.73700E-02-9.75057E-05 2.14577E-01 5.70185E-04-8.04332E-04
 -1      1739 1.01530E-01 5.97620E-02-1.15199E-04 2.33982E-01 1.66366E-04-4.59515E-04
 -1      1740 1.04496E-01 6.07252E-02-2.68533E-04 2.40052E-01 1.19975E-04-2.64251E-04
 -1      1741 1.03418E-01 5.93887E-02-1.11593E-04 2.36698E-01 2.35254E-04-5.27401E-05
 -1      1742 9.82237E-02 5.51459E-02-1.06532E-04 2.22524E-01 2.26990E-04-1.65915E-04
 -1      1743 8.77045E-02 4.78868E-02-9.25274E-05 1.96375E-01 9.75241E-05-1.36636E-04
 -1      1744 7.15927E-02 3.84860E-02-9.85393E-07 1.60854E-01-7.68075E-05-3.22407E-04
 -1      1745 5.48280E-02 2.90889E-02-2.52598E-05 1.24098E-01 5.79699E-05 5.64100E-05
 -1      1746 4.15488E-02 2.33243E-02 1.72733E-04 9.69915E-02 1.85695E-04 4.21561E-04
 -1      1747 3.62621E-02 1.47971E-02 2.03135E-04 7.85393E-02 7.99994E-04 9.69241E-05
 -1      1748-6.44435E-02 7.84364E-02-5.46759E-10 3.73471E-02 3.50765E-03-4.34071E-03
 -1      1749-7.14519E-02 1.41472E-01 2.03370E-03 9.56379E-02 1.03812E-02 7.40256E-03
 -1      1750-8.07260E-02 1.78777E-01-1.17848E-03 1.33246E-01 1.70652E-03 1.95119E-03
 -1      1751-4.79971E-02 1.01993E-01 1.30358E-04 1.35902E-01 1.10717E-04 7.87214E-04
 -1      1752-6.23614E-02 1.48425E-01-4.40598E-05 1.09822E-01-9.83706E-03-5.33046E-03
 -1      1753-7.94170E-02 1.78073E-01-2.77645E-03 1.34964E-01-1.38578E-03-1.12157E-03
 -1      1754-4.37154E-02 1.03631E-01-1.63780E-03 1.34695E-01 5.57182E-04 2.74929E-03
 -1      1755-4.48633E-01 1.00349E-01-9.11580E-10-1.47952E-03-1.37714E-03-8.67460E-04
 -1      1756-3.85313E-01 1.54937E-01 1.42916E-03-1.10831E-01 3.85230E-03-9.76343E-03
 -1      1757-2.46960E-01 1.00945E-01 1.38507E-03-1.33825E-01 2.87407E-03-2.05740E-03
 -1      1758-2.34214E-01 9.45519E-02 7.95120E-05-1.24811E-01 9.02615E-05 1.84995E-05
 -1      1759-2.27609E-01 9.12227E-02 8.88535E-05-1.21112E-01-1.62255E-04-2.13198E-06
 -1      1760-2.19559E-01 8.74787E-02 1.14194E-04-1.16259E-01-2.92289E-04-1.01666E-04
 -1      1761-2.02577E-01 8.02489E-02 1.37718E-04-1.06590E-01-5.10263E-04-2.49517E-04
 -1      1762-1.72161E-01 6.69351E-02 2.82315E-04-9.17234E-02-3.51436E-05 5.50473E-04
 -1      1763-1.34521E-01 4.70050E-02 1.12250E-03-7.97341E-02-1.08757E-03 6.17762E-04
 -1      1764-8.87173E-02 4.53159E-02-2.10338E-03-2.82638E-02-1.12231E-02-6.01298E-03
 -1      1765-3.76740E-01 1.64361E-01 2.26173E-03-1.24230E-01 5.03146E-03-3.97304E-03
 -1      1766-2.50304E-01 1.01169E-01 9.88494E-04-1.30664E-01-1.71560E-03-1.05540E-03
 -1      1767-2.33519E-01 9.43690E-02 6.65113E-05-1.25131E-01-1.06865E-04-2.83296E-04
 -1      1768-2.27392E-01 9.10031E-02 9.30411E-05-1.21240E-01 7.81159E-05 2.55593E-05
 -1      1769-2.19277E-01 8.74345E-02 9.84642E-05-1.16175E-01 1.96561E-04 1.64238E-04
 -1      1770-2.03210E-01 8.10183E-02 1.69236E-04-1.06901E-01 1.38228E-04-1.09894E-05
 -1      1771-1.71856E-01 6.69479E-02 9.16702E-05-9.09629E-02 4.25659E-04-8.38458E-04
 -1      1772-1.35622E-01 4.72761E-02 3.14318E-03-7.82363E-02-1.43656E-04-9.78610E-04
 -1      1773-8.68216E-02 2.64427E-02 4.36120E-04-3.75171E-02 8.37037E-03 6.16973E-03
 -1      1774 5.07574E-02-7.81194E-08 6.93083E-05 7.98942E-02 8.59141E-04 2.33378E-04
 -1      1775 6.89074E-02-3.19029E-09-6.89482E-05 9.12264E-02 5.03241E-04 2.06128E-04
 -1      1776 7.66863E-02 7.38567E-08-4.85956E-05 7.77283E-02 4.52409E-04-5.47133E-05
 -1      1777 6.29038E-02 1.28913E-07-1.08427E-04 4.77440E-02-5.71215E-04-5.59736E-04
 -1      1778 2.12501E-02 1.19438E-07-1.91481E-04 1.34556E-02-3.85161E-04-3.57007E-04
 -1      1779-5.17860E-02 6.33342E-08 4.34980E-05-1.37564E-02-1.12491E-03-1.61078E-04
 -1      1780-1.97823E-01-2.66642E-07 5.99772E-04-3.68764E-03-2.37577E-03 9.44425E-04
 -1      1781 5.09793E-02-7.33969E-08 1.50109E-04 8.16497E-02-5.22828E-04-2.66310E-04
 -1      1782 6.90460E-02 6.58834E-10-5.69137E-07 9.12061E-02-6.55299E-04-2.40696E-04
 -1      1783 7.65866E-02 7.85617E-08-9.48609E-05 7.74870E-02-6.02566E-04 6.29175E-05
 -1      1784 6.21551E-02 1.20551E-07 4.30779E-05 4.69963E-02 6.09295E-05 1.99165E-04
 -1      1785 2.12743E-02 1.16456E-07-1.64379E-04 1.32519E-02 4.10469E-04 2.97163E-04
 -1      1786-5.20567E-02 6.16912E-08 1.17571E-04-1.39199E-02 1.06691E-03-1.23317E-05
 -1      1787-2.02830E-01-3.23188E-07 9.76375E-04-1.09221E-03 2.77106E-03 1.98417E-03
 -1      1788 5.94248E-02 4.99256E-02-6.37394E-04 1.57671E-01 4.12251E-04 2.00121E-04
 -1      1789 9.87151E-02 5.76735E-02-1.26531E-09 2.27590E-01-1.99422E-04-6.43471E-05
 -1      1790 9.21968E-02 5.59636E-02-4.74210E-04 2.15758E-01 2.00265E-05-5.99905E-04
 -1      1791 1.03084E-01 6.03035E-02-8.70880E-10 2.38853E-01-5.10057E-06 5.86073E-05
 -1      1792 1.00648E-01 5.96953E-02 8.56929E-05 2.34709E-01 1.10093E-04-2.22497E-04
 -1      1793 1.03481E-01 6.08508E-02-3.13005E-10 2.40371E-01 3.29709E-06 6.93221E-05
 -1      1794 1.03361E-01 6.09409E-02 5.60744E-06 2.40581E-01 1.00617E-04-3.64678E-05
 -1      1795 1.02328E-01 5.97980E-02 2.00988E-05 2.37132E-01 1.23688E-04-1.36523E-05
 -1      1796 9.68993E-02 5.58938E-02 7.24136E-08 2.23196E-01 1.31050E-04 2.01141E-05
 -1      1797 1.00558E-01 5.84025E-02-4.51109E-10 2.32423E-01-8.31430E-06-6.05376E-05
 -1      1798 8.60241E-02 4.89144E-02-2.19286E-05 1.96951E-01 2.10084E-05-1.79871E-05
 -1      1799 9.28020E-02 5.26305E-02-4.15475E-10 2.12627E-01 3.38513E-05-9.13021E-05
 -1      1800 6.23974E-02 3.40277E-02 8.63137E-12 1.41102E-01-1.77459E-04 1.08463E-04
 -1      1801 7.05001E-02 3.94464E-02 3.65221E-05 1.61155E-01 5.69279E-05-2.48193E-04
 -1      1802 4.72088E-02 2.61137E-02-7.58986E-11 1.07471E-01-1.19637E-04-6.45645E-07
 -1      1803 5.39238E-02 3.02935E-02-1.50225E-06 1.23758E-01 1.35687E-04-8.43597E-06
 -1      1804 3.59039E-02 2.43751E-02 8.17813E-10 8.82106E-02-2.86212E-04 2.78636E-05
 -1      1805 4.19407E-02 2.35178E-02-1.16797E-04 9.63681E-02 6.14265E-06 2.08052E-05
 -1      1806 3.48484E-02 1.86976E-02-8.92407E-05 7.87291E-02 1.60699E-04 4.69533E-04
 -1      1807 8.56432E-02 5.13613E-02 1.18252E-09 1.97527E-01 3.70324E-04-7.13516E-05
 -1      1808 7.92749E-02 4.39358E-02-1.98079E-10 1.80089E-01-9.50242E-05-3.87473E-05
 -1      1809-7.42600E-02 1.54488E-01-7.93757E-04 1.05552E-01 6.30248E-03 2.17851E-03
 -1      1810-8.84523E-02 1.79829E-01 7.27937E-04 1.25368E-01 1.01032E-03 1.85754E-03
 -1      1811-8.52519E-02 1.87775E-01-5.15172E-09 1.35746E-01-1.38058E-04-1.07154E-03
 -1      1812-4.87658E-02 9.90454E-02 3.80751E-04 1.28733E-01-2.15978E-03 1.97628E-03
 -1      1813-7.46158E-02 1.48959E-01-5.08341E-09 1.32386E-01-7.39773E-05-1.73166E-03
 -1      1814-3.54620E-01 1.53751E-01-1.35917E-03-1.45295E-01-2.93291E-04-2.94368E-03
 -1      1815-2.37657E-01 9.63864E-02 3.02875E-10-1.28471E-01 1.74497E-04-3.19585E-04
 -1      1816-2.44589E-01 9.86533E-02-1.38209E-03-1.32190E-01-9.02657E-04 1.72957E-03
 -1      1817-2.30454E-01 9.26136E-02-3.16619E-11-1.22484E-01 6.26478E-05-5.38333E-05
 -1      1818-2.33964E-01 9.43181E-02 4.64084E-05-1.24451E-01 3.96488E-05-2.39692E-05
 -1      1819-2.24393E-01 9.01504E-02 2.69881E-10-1.18889E-01 1.00251E-04-9.54656E-06
 -1      1820-2.28026E-01 9.18881E-02-1.27442E-05-1.20700E-01-9.40678E-05-4.48908E-05
 -1      1821-2.12929E-01 8.55962E-02 5.40840E-10-1.12400E-01 1.66829E-04 1.30768E-04
 -1      1822-2.19928E-01 8.85836E-02-8.10255E-06-1.16064E-01-1.71063E-04 1.48495E-05
 -1      1823-1.89601E-01 7.60774E-02 4.58894E-10-1.00045E-01-9.72818E-06-2.09435E-04
 -1      1824-2.03164E-01 8.18984E-02-5.10744E-05-1.06657E-01-2.78976E-04 3.09754E-05
 -1      1825-1.72173E-01 6.91268E-02-1.66617E-04-9.12436E-02-4.53280E-04 1.67670E-04
 -1      1826-1.54020E-01 6.16116E-02 3.01167E-09-8.12725E-02 2.27300E-04-1.03464E-05
 -1      1827-1.09983E-01 3.16416E-02 5.72398E-09-7.63920E-02 1.06833E-03-4.27560E-04
 -1      1828-1.36152E-01 5.35075E-02-1.19853E-03-7.58059E-02-4.37903E-04 7.28481E-04
 -1      1829-9.30478E-02 4.02085E-02 1.13159E-03-3.98541E-02-3.72058E-03-4.76884E-03
 -1      1830-2.55020E-01 1.08649E-01 1.32917E-08-1.66717E-01-4.05296E-03 1.83690E-03
 -1      1831 5.12722E-02-3.61928E-08 6.00709E-10 8.17678E-02-1.35742E-09 2.02033E-04
 -1      1832 7.73274E-02-1.50141E-03-2.83857E-10 8.95148E-02 6.55165E-06 6.04233E-06
 -1      1833 6.92533E-02-3.47058E-09-1.91134E-10 9.19826E-02-1.94669E-10-8.28061E-05
 -1      1834 7.57232E-02-1.52065E-03-1.64340E-11 6.46583E-02-1.34270E-05 2.18521E-05
 -1      1835 7.66050E-02 4.30412E-08-3.88040E-10 7.82705E-02 1.81335E-10-8.17191E-05
 -1      1836 4.81692E-02-1.47071E-03-9.24959E-10 3.00086E-02 9.83734E-06-4.87653E-05
 -1      1837 6.20790E-02 6.49884E-08-1.72793E-10 4.72720E-02 3.16578E-10-1.60766E-05
 -1      1838-7.31171E-03-1.28261E-03-4.98573E-10-3.91461E-03 1.81793E-06-3.59617E-06
 -1      1839 2.09760E-02 6.00895E-08-9.73983E-10 1.28327E-02 2.93728E-10 9.60384E-05
 -1      1840-9.07451E-02-5.54844E-03-3.52382E-09-2.79540E-02-6.82321E-05-3.20637E-04
 -1      1841-5.18579E-02 3.90220E-08 4.40494E-10-1.53362E-02 2.07378E-10 1.11958E-04
 -1      1842-1.91629E-01-1.87388E-07 4.31592E-09-8.89282E-03-4.51213E-09 1.66863E-03
 -1      1843 6.07047E-02-3.43789E-04-2.10816E-10 9.10395E-02 2.73878E-05-8.42937E-05
 -1      1844 8.06299E-03 8.25373E-02 4.34544E-04 1.56626E-01 8.17042E-04 7.31607E-04
 -1      1845-3.34781E-02 9.27479E-02-5.23500E-04 1.30996E-01-2.31282E-03-2.33866E-03
 -1      1846 6.98205E-02 5.61435E-02 1.33081E-04 1.88336E-01 1.36890E-04 1.14383E-05
 -1      1847 6.46047E-02 5.64465E-02-2.23062E-04 1.82204E-01-1.01848E-04 4.19362E-04
 -1      1848 8.62958E-02 4.27539E-02 2.58264E-05 1.91927E-01-1.42784E-05-2.64627E-05
 -1      1849 8.61202E-02 4.57979E-02 6.33609E-05 1.95644E-01 1.07321E-05-6.39253E-05
 -1      1850 9.14141E-02 1.61834E-02 2.36827E-04 1.58784E-01 2.65267E-04-8.90783E-05
 -1      1851 9.58932E-02 2.17042E-02-2.86630E-05 1.73493E-01-1.26332E-05 1.94686E-05
 -1      1852 7.12045E-02 6.76990E-03 4.39441E-05 1.09578E-01-1.12758E-04-1.62390E-05
 -1      1853 7.93094E-02 8.76185E-03-9.50880E-05 1.25849E-01 1.45971E-04 1.75787E-04
 -1      1854 4.88766E-02 1.31175E-02-2.29552E-04 8.91671E-02-3.13249E-05 4.08237E-05
 -1      1855 8.60733E-02-1.32214E-02 1.07497E-04 7.62998E-02 1.23164E-04-2.38596E-04
 -1      1856 8.48988E-02-1.15071E-02 1.36913E-04 8.66486E-02-1.08555E-04 2.56365E-04
 -1      1857 2.50475E-02-2.11711E-02 1.12818E-04 2.68384E-02 2.26984E-04-3.67430E-04
 -1      1858 5.31753E-02-2.15746E-02-3.85282E-05 3.97855E-02-4.24434E-04-2.76030E-04
 -1      1859-2.93401E-01 7.78970E-02 2.03522E-03 4.93597E-03 9.21292E-04 8.58332E-04
 -1      1860-1.38811E-01 2.61936E-02-1.02751E-03-2.81894E-03-1.91602E-03 2.91631E-04
 -1      1861-2.40816E-01 1.02983E-01 2.63222E-03-7.26391E-02 2.88988E-03-2.53508E-03
 -1      1862-1.89421E-01 7.93815E-02-6.17167E-05-8.91448E-02-8.75320E-05-1.64167E-04
 -1      1863-1.96637E-01 8.07234E-02 3.33830E-04-9.13089E-02 8.31670E-05-2.83660E-04
 -1      1864-1.68615E-01 7.38062E-02 9.79672E-05-7.52016E-02-2.98120E-05-8.55353E-05
 -1      1865-1.74352E-01 7.53897E-02-1.93740E-04-7.97677E-02 9.37178E-05-3.50279E-05
 -1      1866-1.17278E-01 6.25465E-02-3.80265E-04-2.23996E-02 3.90980E-05-2.06895E-04
 -1      1867-1.35441E-01 6.94072E-02 6.65235E-05-3.45556E-02 4.12507E-04-2.16871E-04
 -1      1868-6.59437E-02 7.39827E-02 5.83700E-04 4.22559E-02 1.08496E-03-1.59187E-03
 -1      1869-6.55873E-02 1.23307E-01-1.40333E-04 1.48656E-01 3.18201E-03 1.24830E-03
 -1      1870 6.54186E-02 1.26155E-05-7.72785E-07 9.25133E-02-3.90603E-04 1.82608E-04
 -1      1871 5.42276E-02 1.08066E-02 2.84685E-04 9.22973E-02-2.72635E-05-2.70539E-04
 -1      1872 6.12330E-02 1.14111E-02-1.13917E-04 1.02474E-01 2.09044E-04 1.65923E-04
 -1      1873 7.61387E-02-2.69533E-03 6.01060E-05 9.17880E-02 3.66611E-04-3.76590E-04
 -1      1874-6.11253E-02 1.02281E-01-1.30802E-04 1.05858E-01 2.43883E-03 1.95944E-03
 -1      1875-6.98525E-02 4.65789E-02-9.93080E-04 1.06579E-02-2.71628E-03-3.22864E-03
 -1      1876 3.83175E-02 6.46230E-02 2.00841E-04 1.62063E-01 5.87296E-04 4.04616E-04
 -1      1877 2.31777E-02 6.75709E-02-1.16228E-04 1.48797E-01 2.24654E-06 7.05177E-04
 -1      1878 8.18393E-02 5.13629E-02 4.68165E-05 1.97427E-01-5.92709E-05 6.84824E-05
 -1      1879 8.00214E-02 5.24573E-02-7.41161E-05 1.96549E-01 8.02002E-05 2.18215E-04
 -1      1880 9.03110E-02 3.02023E-02 4.66638E-05 1.79321E-01 1.37176E-04-2.98691E-05
 -1      1881 9.20706E-02 3.51521E-02-7.25186E-06 1.88582E-01-2.99723E-05-3.14599E-05
 -1      1882 8.59626E-02 6.22532E-03 2.56279E-04 1.32606E-01-7.64327E-05-6.81298E-05
 -1      1883 9.28985E-02 1.05297E-02-1.01672E-04 1.50215E-01-1.47036E-04 2.89551E-05
 -1      1884 8.61544E-03 6.36392E-02 1.65501E-04 1.23009E-01 7.18015E-05-1.70434E-04
 -1      1885-5.86150E-02 1.00272E-01 1.25283E-03 1.17055E-01 1.04203E-03-1.42055E-03
 -1      1886-9.80002E-02 5.65558E-02-1.33604E-04-4.03274E-03 5.83037E-04 2.64873E-04
 -1      1887 7.68525E-02-2.42416E-02 2.09851E-04 5.65405E-02-5.02364E-05 1.07478E-04
 -1      1888 8.77640E-02-2.23854E-02 1.22784E-04 6.97032E-02 8.36060E-04 4.14732E-04
 -1      1889-6.25466E-02-9.18113E-03 4.22335E-06 7.78391E-03-1.63674E-03 3.92662E-04
 -1      1890-1.64075E-02-9.88510E-03-1.75961E-04 1.24866E-02 1.96616E-04 2.04273E-04
 -1      1891-2.08959E-01 8.84096E-02 3.14016E-05-8.95802E-02 2.05465E-05-1.31726E-03
 -1      1892-2.33540E-01 9.96174E-02 6.06236E-04-9.34570E-02 2.80470E-04 9.36482E-04
 -1      1893-1.80253E-01 7.61524E-02 2.52978E-05-8.60952E-02-3.71941E-05-1.14241E-04
 -1      1894-1.84267E-01 7.70605E-02-4.60390E-05-8.86745E-02 5.80164E-05-6.30185E-05
 -1      1895-1.47509E-01 6.99439E-02-3.70421E-05-5.25333E-02 4.78880E-05 8.01554E-06
 -1      1896-1.57998E-01 7.32377E-02-3.25425E-04-6.07790E-02 1.05989E-04-7.24570E-05
 -1      1897-3.67218E-02 8.94479E-02-4.78297E-04 1.20145E-01 1.16865E-03-1.94409E-04
 -1      1898 9.77589E-02-2.78011E-02-1.59094E-04 8.38027E-02-4.96681E-04-4.05097E-04
 -1      1899 6.46931E-02 3.81692E-02 9.82722E-05 1.55697E-01 1.37839E-04-5.29864E-05
 -1      1900-5.63651E-02 8.71730E-02 5.92467E-04 1.17027E-01-2.45458E-03-1.35266E-03
 -1      1901-7.56249E-02 6.28922E-02 3.25961E-04 5.23942E-02 9.66764E-04 6.14642E-04
 -1      1902 8.31542E-02-1.01966E-02 2.74286E-04 9.09051E-02-5.19753E-04-1.77011E-04
 -1      1903 4.77013E-02 5.00235E-02-4.66631E-05 1.49397E-01-5.61469E-05-2.55717E-04
 -1      1904 7.75273E-02 2.23037E-02-1.03002E-05 1.51741E-01-3.14429E-05-2.33322E-04
 -1      1905 1.02623E-01-1.33470E-02-7.69102E-05 1.30411E-01-1.51788E-04-3.52185E-04
 -1      1906 1.37169E-02-2.24869E-02 9.11744E-06 4.13984E-02 1.73318E-04 8.11315E-05
 -1      1907-1.86370E-01 7.62171E-02 1.51481E-03-2.23974E-02-2.90892E-06-2.30199E-03
 -1      1908-1.19022E-01 6.36300E-02 2.38989E-05-2.52326E-02 1.78401E-04 1.61936E-04
 -1      1909 9.23098E-02 3.08127E-03-7.66965E-06 1.43718E-01-5.48442E-05-3.73952E-04
 -1      1910 9.97947E-02-1.68543E-02 3.90602E-05 1.15904E-01-2.71386E-04-3.08291E-04
 -1      1911-1.32875E-01 6.25514E-02-2.65990E-05-4.71128E-02 9.90556E-05 1.33904E-04
 -1      1912-1.00665E-01 6.51636E-02 7.40317E-04 1.00782E-02 4.54868E-04 3.02721E-04
 -1      1913-1.60167E-01 7.06602E-02-3.15698E-04-5.07643E-02-3.80226E-04 2.53442E-04
 -1      1914-1.03307E-01 2.08362E-02 1.25477E-03 2.25793E-02 1.71939E-03-8.96239E-04
 -1      1915 7.85047E-02-3.44020E-02 8.96732E-05 6.59862E-02 5.55688E-04 4.38459E-04
 -1      1916-1.42599E-01 6.35869E-02-1.10704E-04-5.38865E-02-5.90583E-06 1.44627E-04
 -1      1917-6.56211E-02 8.25502E-02 1.87769E-04 8.79281E-02-5.97498E-04-6.42113E-04
 -1      1918 5.63049E-02 1.17895E-02-3.26335E-05 1.17476E-01 1.92913E-04-1.11416E-05
 -1      1919 4.91260E-02 2.17566E-02-7.74433E-05 1.19257E-01-1.38491E-04 6.70283E-05
 -1      1920 9.76722E-02-2.78381E-02-9.47770E-05 1.06312E-01 1.83838E-04 3.56823E-04
 -1      1921 9.29859E-02-2.20216E-02 6.02199E-05 1.15072E-01 3.52019E-04 1.52641E-04
 -1      1922-3.62190E-03-1.54310E-02-7.30549E-05 4.67044E-02-2.66542E-04 3.81503E-04
 -1      1923 3.87249E-02-2.75410E-02-1.30147E-04 5.61987E-02 5.34725E-05 5.64735E-06
 -1      1924-9.29509E-02 5.55312E-02-1.78818E-05-1.00859E-02 6.60470E-05-2.69326E-05
 -1      1925-9.78559E-02 5.39722E-02 1.09605E-05-1.66700E-02 1.71443E-04 5.51585E-05
 -1      1926-5.36640E-03 5.51657E-02-1.60684E-05 9.42226E-02 8.96694E-05-5.62691E-05
 -1      1927-3.18982E-02 6.27139E-02 2.08004E-04 7.79651E-02 1.69038E-04 1.24251E-04
 -1      1928 4.08669E-02 3.08906E-02 2.49645E-05 1.18958E-01 4.56917E-05-1.71877E-05
 -1      1929 3.47271E-02 3.82093E-02-9.09288E-06 1.19776E-01 5.59150E-05-4.09870E-05
 -1      1930 1.89569E-02 2.21462E-02 8.43905E-05 8.53290E-02-8.92037E-05-6.36319E-05
 -1      1931 3.05332E-02 4.42149E-02-2.86052E-05 1.21811E-01-8.97716E-05-1.66222E-04
 -1      1932 1.78901E-02 5.01991E-02-8.09473E-05 1.14087E-01-1.94135E-06 4.35574E-06
 -1      1933-2.20962E-02 5.11174E-02-1.10278E-04 6.81662E-02-1.14374E-04 3.85274E-05
 -1      1934 6.25849E-03 3.85125E-02 9.28174E-05 8.55207E-02-9.66225E-06-1.06595E-04
 -1      1935-9.66598E-02 5.05265E-02-9.87811E-06-1.78225E-02 8.79708E-05-8.80985E-05
 -1      1936-1.01657E-01 5.04187E-02 5.43229E-05-1.71835E-02 2.36457E-04-7.65077E-06
 -1      1937-5.80283E-02 4.20263E-02-5.95912E-05 1.77930E-02-6.11285E-05-3.10927E-05
 -1      1938 7.23606E-02-3.67151E-02-7.62165E-05 7.27506E-02 1.96361E-04 1.91355E-04
 -1      1939 9.50814E-02-3.82343E-02 4.76046E-05 8.55047E-02-4.27663E-04 2.81390E-04
 -1      1940-7.71782E-02 6.10474E-02-7.43405E-05 1.99334E-02-2.19334E-05-1.00476E-04
 -1      1941-8.57244E-02 5.83213E-02 1.40667E-04 4.31348E-03 9.30982E-05 2.76720E-05
 -1      1942-5.28618E-02 7.15067E-02-2.73974E-04 7.23757E-02-3.94968E-04-1.61940E-04
 -1      1943-1.29029E-01 4.37550E-02 4.25839E-04 1.03794E-02-6.58728E-04 2.73791E-04
 -1      1944-5.61159E-02 6.04103E-03 1.89978E-05 3.05495E-02-3.86226E-04-7.93274E-05
 -1      1945-2.95868E-02 2.46506E-03-1.92675E-05 4.26461E-02 3.11088E-05 4.34363E-05
 -1      1946-1.25240E-01 4.99463E-02-2.17279E-04-9.10660E-03-1.37699E-04 2.75105E-04
 -1      1947-6.32589E-02 6.78515E-02 1.28499E-04 5.10335E-02-7.16433E-05 2.28258E-05
 -1      1948 7.87405E-02-1.09976E-02 7.77649E-05 1.15853E-01 2.27936E-04 1.49010E-04
 -1      1949 7.13503E-02-3.61764E-04-3.46523E-05 1.20670E-01 4.87920E-05 2.75035E-04
 -1      1950 7.33435E-02-2.46912E-02 3.95023E-05 9.27704E-02 9.95034E-05-2.51496E-04
 -1      1951-9.64792E-02 4.48291E-02-6.87150E-05-1.00901E-02 1.93224E-04-2.57365E-04
 -1      1952-1.08434E-01 4.74702E-02-1.93037E-04-4.28140E-03 2.79348E-04 1.02773E-04
 -1      1953-6.18278E-02 2.22099E-02 7.38876E-06 2.73748E-02-8.19863E-05 2.02091E-04
 -1      1954-5.16401E-02 2.97629E-02 1.90984E-05 2.38122E-02-4.30065E-05-1.80682E-04
 -1      1955 8.33856E-02-8.25919E-03-1.82874E-05 1.02024E-01-5.62644E-05 4.61279E-05
 -1      1956 9.34717E-02-1.77321E-02 1.05355E-04 9.72412E-02 4.67544E-04 6.27847E-04
 -1      1957 4.22807E-02-1.12559E-04-3.08478E-05 9.07049E-02-1.62561E-04-2.90696E-04
 -1      1958 5.50224E-02-2.74312E-02-5.48358E-05 7.61409E-02 1.89089E-04 1.40262E-04
 -1      1959 1.01814E-01-2.97252E-02-2.93432E-05 1.00963E-01-1.72658E-04-5.97984E-05
 -1      1960 9.85988E-02-2.63602E-02 7.38462E-05 9.42874E-02 3.30922E-05-5.02862E-05
 -1      1961-5.24425E-02 5.07541E-02 3.21477E-08 3.31931E-02-6.03703E-05-2.68047E-05
 -1      1962 3.93168E-02-1.57443E-02 1.09152E-05 7.76324E-02 1.44137E-04 2.72783E-04
 -1      1963-1.19056E-02 1.66015E-03-2.46132E-06 4.76802E-02-1.26997E-04-1.31625E-04
 -1      1964 8.13914E-03 2.55952E-03 1.38791E-04 6.38583E-02 2.53813E-04-1.51554E-04
 -1      1965-2.34456E-02 3.94207E-02-6.91189E-07 5.20736E-02-6.14535E-05 1.01389E-04
 -1      1966-2.16998E-02 3.41912E-02 2.06013E-05 5.10664E-02 6.54718E-05 1.08196E-04
 -1      1967-1.37841E-02 2.48932E-02 2.81649E-05 5.28102E-02 1.65351E-04 8.87013E-05
 -1      1968-6.57066E-03 1.61413E-02-1.52314E-04 5.82198E-02-1.44974E-04 2.31144E-04
 -1      1969-2.83957E-02 4.57983E-02-3.43462E-05 5.38043E-02 5.29538E-05 2.86617E-05
 -1      1970 4.89362E-02 1.22562E-02 1.93337E-04 8.86267E-02-1.24372E-04 1.52881E-04
 -1      1971 7.78045E-02 1.03845E-02 2.24359E-05 1.26287E-01-1.89231E-04-2.12646E-04
 -1      1972 6.93975E-02 9.01705E-03 7.58679E-06 1.10626E-01 1.54336E-04-7.39248E-05
 -1      1973 9.54061E-02 2.21051E-02 2.25263E-04 1.74070E-01-4.12398E-05 2.03595E-05
 -1      1974 9.20916E-02 1.68353E-02-8.56372E-05 1.59572E-01-3.98574E-04-9.25581E-05
 -1      1975 8.64665E-02 4.55897E-02 1.55328E-04 1.95946E-01-6.25996E-05 3.15331E-05
 -1      1976 8.69478E-02 4.29887E-02-1.24649E-04 1.92615E-01 1.09344E-06 2.25810E-05
 -1      1977 6.13612E-02 5.64979E-02-1.36730E-04 1.77847E-01-3.50432E-05-2.84691E-04
 -1      1978 6.60552E-02 5.58971E-02 4.09560E-04 1.83506E-01-1.38196E-04-1.40501E-07
 -1      1979-3.68695E-02 9.26165E-02 1.09863E-03 1.32865E-01 4.48967E-04 1.43257E-03
 -1      1980 1.36985E-02 8.16793E-02-6.28563E-04 1.58661E-01-2.29883E-04-2.52146E-04
 -1      1981-6.55514E-02 1.23571E-01-1.03426E-03 1.44428E-01-2.99683E-03-1.22781E-03
 -1      1982-6.58739E-02 7.34353E-02 1.11765E-03 4.18990E-02 6.23763E-04-9.25579E-04
 -1      1983-9.74717E-02 5.71215E-02-5.33967E-04-3.12704E-03-3.57567E-04 4.41121E-04
 -1      1984-7.02201E-02 5.00340E-02 3.30825E-04 9.85472E-03 3.13346E-03 1.60554E-03
 -1      1985-1.68308E-01 7.50137E-02-2.69671E-04-7.13128E-02-2.88969E-05 1.14042E-04
 -1      1986-1.56963E-01 7.09895E-02-2.72374E-04-6.39977E-02 7.24325E-05 9.66456E-05
 -1      1987-1.80070E-01 7.58830E-02-5.52077E-05-8.52883E-02-3.08489E-05 7.59092E-05
 -1      1988-1.75962E-01 7.48798E-02 5.55891E-05-8.26900E-02 1.24620E-06 4.42322E-05
 -1      1989-2.32822E-01 9.47740E-02 2.57828E-03-8.89139E-02-1.04870E-03-1.28464E-03
 -1      1990-2.09477E-01 8.86732E-02 2.41420E-04-8.94841E-02 5.27534E-04 8.78155E-04
 -1      1991-3.05912E-01 9.35961E-02-1.47132E-03 4.45064E-03-3.95378E-03 9.09683E-03
 -1      1992-2.27585E-01 9.74200E-02-3.12415E-03-8.15015E-02-1.97752E-03-5.58303E-03
 -1      1993-1.83929E-01 7.52081E-02 5.06520E-04-2.30327E-02 2.18936E-04 1.32499E-03
 -1      1994-1.39753E-01 2.78236E-02-1.55128E-03-1.80729E-03 3.44626E-03-1.47062E-03
 -1      1995 5.21235E-02-2.05687E-02-6.55790E-05 3.86227E-02 7.57957E-05 1.82497E-05
 -1      1996 2.38842E-02-2.03303E-02 5.70463E-05 2.54112E-02-1.36085E-04 1.20797E-04
 -1      1997 8.61749E-02-1.32278E-02 3.09199E-04 8.60644E-02 9.02597E-05-2.02657E-04
 -1      1998 8.66095E-02-1.35310E-02 1.17685E-04 7.60080E-02 1.53264E-04 2.66285E-04
 -1      1999 6.55837E-02-2.96906E-04 5.57532E-05 9.26600E-02-3.62919E-05-1.48232E-04
 -1      2000 7.63437E-02-2.37604E-03-1.79961E-04 9.20770E-02-1.86991E-04 3.33257E-04
 -1      2001 8.53200E-02-1.19439E-02 4.46091E-05 9.13488E-02 3.15550E-04 2.27173E-04
 -1      2002 5.44820E-02 1.12907E-02 6.67813E-05 9.22165E-02 2.53052E-04 2.47316E-04
 -1      2003-6.44743E-02 1.01180E-01-1.30414E-03 1.05673E-01-3.18473E-04-2.35691E-03
 -1      2004 8.38487E-02 1.06554E-02 1.93277E-04 1.36020E-01 1.39374E-04 2.06369E-04
 -1      2005 9.69521E-02-1.18904E-02 1.96774E-05 1.19862E-01 2.93109E-04 4.47261E-04
 -1      2006 9.06921E-02 1.45639E-02 6.15264E-05 1.53759E-01-2.22707E-04-3.72974E-04
 -1      2007 6.15297E-02 1.08458E-02 1.13387E-05 1.02243E-01-2.27235E-04-1.13023E-04
 -1      2008 1.01607E-01-9.14918E-03-1.53471E-04 1.34791E-01 1.32945E-04 1.74119E-04
 -1      2009 9.20708E-02 3.49572E-02 2.25381E-04 1.88839E-01-3.29641E-05 3.83861E-05
 -1      2010 9.11513E-02 3.03505E-02-1.41465E-04 1.79965E-01-1.15173E-04-4.83525E-05
 -1      2011 7.70189E-02 5.18477E-02 4.40162E-06 1.91730E-01-1.10501E-04-8.80634E-05
 -1      2012 7.92267E-02 5.05506E-02 2.74533E-05 1.92824E-01 1.33994E-04 9.80737E-05
 -1      2013 3.27712E-02 6.54715E-02-2.44258E-04 1.57324E-01 1.20870E-03-1.55141E-04
 -1      2014 4.57304E-02 6.41777E-02 5.29212E-04 1.70858E-01-4.11258E-04-7.74986E-05
 -1      2015-5.95556E-02 1.00328E-01 1.04782E-03 1.19690E-01-2.15089E-03 8.36322E-04
 -1      2016-1.15665E-01 6.30776E-02-3.98398E-04-1.88912E-02 4.67630E-04 4.25413E-04
 -1      2017-7.64760E-02 6.53614E-02 4.88478E-05 5.54533E-02-1.83435E-04 1.88290E-04
 -1      2018-1.33373E-01 6.93686E-02 1.18324E-04-3.16090E-02-2.58149E-04 7.18756E-04
 -1      2019-1.06625E-01 6.68199E-02-1.48839E-04 1.55017E-03-5.61960E-04-1.03203E-04
 -1      2020-1.72481E-01 7.50615E-02-2.32158E-04-7.80361E-02 1.88380E-05 1.12317E-04
 -1      2021-1.67099E-01 7.35210E-02 1.05879E-04-7.33477E-02-4.73292E-06-1.45292E-04
 -1      2022-1.95220E-01 8.08686E-02 3.08055E-04-9.03569E-02-1.10776E-04-2.71727E-05
 -1      2023-1.87654E-01 7.85062E-02 3.18446E-05-8.80008E-02 6.85080E-05 1.77734E-04
 -1      2024-1.57380E-02-1.01394E-02-4.02222E-04 1.29615E-02 1.57021E-05 1.82758E-05
 -1      2025-6.22181E-02-9.33481E-03 1.62044E-04 7.13482E-03 1.56579E-03-3.88601E-04
 -1      2026 8.34785E-02-1.94970E-02 2.88299E-05 6.50662E-02-2.54358E-04-4.71596E-05
 -1      2027 7.09744E-02-2.10026E-02 1.75242E-04 5.09775E-02 1.45899E-04 1.51159E-05
 -1      2028 9.35102E-02-2.65209E-02-2.01021E-04 7.77369E-02 2.97012E-04 1.13826E-04
 -1      2029 9.26123E-02 3.85065E-03 7.65993E-06 1.45087E-01-6.31052E-05 1.79679E-04
 -1      2030 6.24599E-02 3.78813E-02-1.27241E-04 1.52052E-01-1.42681E-04-3.05229E-06
 -1      2031 1.25604E-02 6.41426E-02-7.32685E-05 1.27650E-01-1.12212E-04 4.67886E-04
 -1      2032-1.36674E-01 6.15438E-02-2.41434E-05-4.91320E-02-1.37807E-04-7.31725E-06
 -1      2033 7.29350E-02-3.34793E-02 2.84619E-05 5.95358E-02-6.44581E-05 2.67662E-05
 -1      2034-1.03295E-01 2.13622E-02 8.58176E-05 2.24868E-02-1.09110E-03-1.48959E-04
 -1      2035-2.73353E-02 8.89679E-02 1.03672E-04 1.27949E-01-7.36827E-04 1.24844E-03
 -1      2036 4.10092E-02 4.95776E-02 5.96459E-05 1.40312E-01 6.30690E-05 1.88862E-04
 -1      2037 7.80584E-02 2.26669E-02 2.79497E-05 1.52803E-01-1.58603E-04 1.70475E-04
 -1      2038-5.51858E-02 8.76466E-02 2.99569E-07 1.16460E-01 1.98994E-03 1.52750E-04
 -1      2039-1.26245E-01 6.43846E-02 3.77323E-05-3.34010E-02-1.06779E-04-1.74467E-04
 -1      2040-1.57691E-01 6.90674E-02 4.07129E-05-4.78409E-02-9.70670E-05 4.38228E-04
 -1      2041-1.26572E-01 6.08421E-02-2.15489E-05-4.15924E-02-7.05205E-05-3.26215E-05
 -1      2042 1.26746E-02-2.15297E-02-4.99279E-05 4.07781E-02-2.17206E-04-4.38119E-04
 -1      2043 8.15455E-02-6.56326E-03 1.10746E-04 1.02776E-01-1.72300E-04 4.85080E-05
 -1      2044-6.29590E-02 8.37836E-02 2.28497E-04 8.91064E-02-2.11579E-04-7.40542E-04
 -1      2045-2.97396E-02 6.74509E-02-2.35726E-04 8.63313E-02 4.75739E-04 2.28043E-04
 -1      2046-1.27024E-02 5.77383E-02-8.80221E-06 8.96818E-02 2.09524E-04 1.02584E-04
 -1      2047 5.09605E-02 2.11216E-02 4.53457E-05 1.20893E-01 8.33229E-05 1.55147E-04
 -1      2048 5.81099E-02 1.13267E-02 6.67799E-05 1.18977E-01 2.15570E-04 1.27151E-04
 -1      2049-9.60153E-02 4.90063E-02-7.04158E-05-1.30252E-02 4.61946E-05 8.18794E-05
 -1      2050-8.92972E-02 4.88285E-02 4.15059E-05-1.15737E-02 1.19017E-04 1.54000E-04
 -1      2051-3.59859E-03 4.99047E-02 1.54938E-04 8.90436E-02 1.70045E-04 1.64255E-04
 -1      2052 1.02980E-02 4.32342E-02 7.53412E-05 9.65302E-02-4.43766E-05-6.22223E-05
 -1      2053-4.39324E-02 5.29711E-02 9.75263E-05 4.66360E-02-6.80304E-05-7.70925E-05
 -1      2054-8.80873E-02 6.08886E-02 2.58515E-05 5.63026E-03-6.44810E-05 6.33215E-05
 -1      2055-9.14698E-02 6.37123E-02 2.32245E-04 8.95021E-03-5.63310E-05-3.05453E-05
 -1      2056-7.18353E-02 6.54487E-02-1.44804E-04 4.13064E-02-8.11551E-05-1.17971E-04
 -1      2057 3.89891E-02-2.86030E-02 1.08581E-04 5.61554E-02 2.22350E-04-2.39184E-04
 -1      2058-2.86519E-03-1.61387E-02-4.39918E-05 4.67082E-02 1.63651E-05 2.34486E-05
 -1      2059-8.06976E-02 5.16478E-02-3.02729E-05 2.24926E-04 1.74510E-04 7.78001E-05
 -1      2060-7.82777E-02 5.42614E-02-5.78862E-06 5.70022E-03-7.57929E-06-5.35988E-05
 -1      2061-4.69497E-02 7.33562E-02 1.74839E-04 8.18905E-02-6.85632E-05-6.47552E-04
 -1      2062-1.25625E-01 4.23229E-02 3.30082E-05 1.07021E-02 4.12636E-04-4.75481E-04
 -1      2063-1.23617E-01 4.87543E-02 1.25779E-05-7.65226E-03 2.28635E-04-3.36690E-04
 -1      2064-5.52260E-02 6.49834E-03-8.78191E-05 2.95592E-02-1.03652E-04 3.30519E-04
 -1      2065 7.28170E-02-1.21422E-03 5.15313E-05 1.21768E-01 1.77818E-05 2.21593E-04
 -1      2066 8.08695E-02-1.13281E-02-3.07827E-05 1.16886E-01 1.43292E-04 7.65322E-05
 -1      2067 4.54124E-02-1.03526E-03 2.45659E-05 9.22526E-02-9.56086E-05-6.91226E-05
 -1      2068 3.41161E-02 3.71442E-02-6.55628E-05 1.17757E-01-3.04112E-06-1.12341E-04
 -1      2069 4.33450E-02 3.01442E-02 1.74622E-04 1.21789E-01 2.02635E-04 1.49858E-04
 -1      2070-8.24825E-03 3.86773E-02 2.27262E-05 6.83452E-02 3.00586E-04 2.19696E-04
 -1      2071 2.33261E-02 2.12204E-02 7.58508E-05 8.85364E-02 6.58913E-06-7.40990E-06
 -1      2072-1.05554E-01 4.60204E-02 5.77291E-05-2.95982E-03 1.47246E-04 1.74383E-05
 -1      2073-9.37702E-02 4.39400E-02-1.11064E-05-7.66000E-03-7.08912E-05-4.02051E-05
 -1      2074-4.65984E-02 2.82557E-02 4.57989E-06 2.68726E-02-3.36385E-05 7.30283E-05
 -1      2075-5.92378E-02 2.18499E-02-1.54072E-05 2.87167E-02 3.58599E-05-2.41898E-04
 -1      2076 9.08518E-02-3.67391E-02 2.81431E-05 7.91141E-02-2.47767E-04-2.48501E-04
 -1      2077 7.31011E-02-3.67879E-02 2.08953E-05 7.21932E-02 1.50787E-04 1.63651E-04
 -1      2078-2.80934E-02 1.75496E-03 7.17902E-05 4.38586E-02 3.18529E-07-4.19855E-04
 -1      2079 9.38986E-02-1.69551E-02-1.39737E-04 9.90916E-02 1.78092E-04 8.87382E-05
 -1      2080 7.76991E-02-2.66247E-02-7.44473E-05 9.42919E-02-2.12810E-05-2.47907E-04
 -1      2081 9.50919E-02-2.24259E-02 6.86038E-05 1.15520E-01 1.86382E-04 3.25259E-04
 -1      2082 1.00169E-01-2.84245E-02 6.19701E-06 9.11131E-02-2.45227E-05-6.27282E-05
 -1      2083 9.90490E-02-3.51242E-02-5.87717E-05 8.30618E-02-1.78281E-04-2.82642E-04
 -1      2084 9.99014E-02-3.47258E-02 9.89655E-06 9.59100E-02-7.51850E-05 1.16421E-04
 -1      2085 9.79935E-02-2.08503E-02-4.42739E-05 1.03785E-01-2.73503E-04-9.12795E-05
 -1      2086 5.91515E-02-2.90277E-02 7.36619E-06 7.70085E-02-5.63201E-06-1.57102E-04
 -1      2087 9.84119E-02-2.56844E-02 1.94038E-04 1.09606E-01 1.25237E-04 3.42513E-04
 -1      2088-1.59389E-02 3.28696E-02-4.50578E-05 5.62562E-02-6.09665E-05-3.11690E-05
 -1      2089-9.64926E-03 2.44302E-02-9.38495E-05 5.66180E-02-6.47951E-05-1.42510E-04
 -1      2090-4.24510E-02 4.03543E-02 7.70321E-05 3.34237E-02-1.68305E-04-8.18048E-05
 -1      2091-3.36517E-03 1.48556E-02 7.10808E-05 6.06676E-02 2.40412E-04 1.62094E-04
 -1      2092 1.02532E-01-2.31365E-02 1.80047E-04 1.12878E-01-1.54379E-04-4.00249E-04
 -1      2093 4.18719E-02-1.71101E-02-1.63230E-05 7.85691E-02-1.59763E-05 1.78656E-04
 -1      2094 1.13761E-02 1.50765E-03-1.47839E-04 6.56776E-02 1.95489E-04-9.67891E-05
 -1      2095-8.73447E-03 1.41879E-04-8.69969E-06 4.88904E-02-3.46713E-05-3.55762E-04
 -1      2096-5.35688E-02 7.21537E-02-2.07491E-05 7.33646E-02-1.45401E-04-1.86800E-04
 -1      2097-3.61382E-02 6.59636E-02 3.28687E-05 7.79542E-02 3.59305E-05 1.03378E-05
 -1      2098-1.24551E-02 7.31726E-02 1.79272E-05 1.15467E-01-1.08854E-04-2.25744E-04
 -1      2099 8.42356E-02 1.30147E-02-1.63045E-06 1.49435E-01-9.29586E-05 1.61529E-06
 -1      2100 7.73674E-02 2.27658E-02-5.14294E-06 1.52698E-01-1.55959E-04-1.60147E-04
 -1      2101 5.81881E-02 1.11563E-02-1.20868E-05 1.18550E-01 1.33064E-04 1.02068E-04
 -1      2102-1.65064E-01 7.12140E-02 1.94159E-05-7.09877E-02 1.15150E-04 2.42166E-04
 -1      2103-1.88560E-01 7.88087E-02 1.60889E-05-8.98322E-02-1.32318E-06 8.42666E-05
 -1      2104-1.72814E-01 7.32929E-02 9.80110E-06-7.29071E-02 2.62074E-05 1.63598E-04
 -1      2105-2.06308E-01 8.40879E-02 4.29576E-05-1.05441E-01 6.06654E-05-1.70245E-04
 -1      2106-2.12586E-01 8.71388E-02-4.37044E-05-1.07040E-01-7.80682E-05 7.84547E-06
 -1      2107-8.29270E-03 7.86304E-02 1.24582E-04 1.28179E-01 5.14679E-04 6.46394E-04
 -1      2108-6.75618E-04 7.91178E-02-2.04513E-04 1.36357E-01-8.18826E-04-9.67282E-04
 -1      2109-3.33766E-02 8.64786E-02-1.11351E-04 1.21423E-01-4.02682E-05 2.52780E-04
 -1      2110-2.53691E-02 9.69330E-02-2.07765E-04 1.42023E-01-6.52373E-04 9.93030E-04
 -1      2111-6.09388E-02-3.96815E-03-2.53427E-04 2.15818E-02-1.41130E-03 2.47138E-04
 -1      2112-5.20495E-02-6.97817E-03-7.54981E-05 1.34988E-02-1.32499E-04 3.47892E-05
 -1      2113-2.08779E-02-1.31930E-02-7.74779E-05 2.27862E-02-7.23823E-05-4.14256E-04
 -1      2114-2.97279E-02-1.16427E-02-1.11981E-07 3.14777E-02 1.08331E-04 5.11881E-04
 -1      2115-6.02874E-02-4.30442E-03-1.90622E-04 2.17742E-02 9.49973E-04-4.74320E-05
 -1      2116-2.18158E-02-1.30946E-02 2.70459E-04 2.26651E-02 2.04883E-04 9.74235E-04
 -1      2117 7.01324E-02 3.13000E-02-1.24302E-06 1.54793E-01-2.51317E-05 7.70666E-06
 -1      2118 5.06778E-02 2.10029E-02-1.50535E-05 1.19986E-01-1.82967E-05 2.52525E-04
 -1      2119-1.25486E-01 6.28891E-02-1.39478E-06-3.78996E-02 8.95354E-05 3.65887E-05
 -1      2120-9.11831E-02 5.51594E-02-1.95030E-05-7.99910E-03 1.72587E-04 3.29179E-05
 -1      2121-9.36001E-02 5.30011E-02-9.66012E-06-1.31675E-02 2.63558E-05 8.07796E-05
 -1      2122-1.28754E-01 6.17733E-02 5.06776E-06-4.34533E-02-2.02321E-04-1.91150E-05
 -1      2123 7.52903E-02-1.21909E-02 2.66502E-05 5.75438E-02 3.70858E-04 1.48014E-04
 -1      2124 8.78128E-02-3.18017E-02-1.31327E-05 6.65703E-02 4.31498E-04 5.54477E-04
 -1      2125 9.50281E-02-2.98508E-02 4.05873E-05 7.63351E-02-6.50826E-05 1.08837E-04
 -1      2126 8.32793E-02-1.36638E-02 5.29082E-05 6.85236E-02 3.00086E-04-2.65384E-04
 -1      2127 8.33000E-02-2.27784E-02-5.12555E-05 6.26552E-02 3.14592E-05 1.17579E-04
 -1      2128-7.71178E-02 6.57020E-02-8.55441E-05 5.44451E-02-3.35207E-04 8.65433E-06
 -1      2129-8.76459E-02 6.76454E-02-2.18118E-05 3.40698E-02 3.78619E-04 2.25129E-04
 -1      2130-6.28559E-02 8.23041E-02-3.26035E-05 8.87075E-02-2.38613E-04-8.01332E-04
 -1      2131-7.82159E-02 2.40684E-02-1.06703E-06 2.40025E-02-1.26073E-05 1.40622E-04
 -1      2132-2.80783E-02 1.70164E-03-2.83440E-05 4.32055E-02 2.36822E-04-2.38867E-04
 -1      2133-5.49297E-02 5.79074E-03 5.84865E-05 3.07836E-02-1.22317E-05-9.59710E-05
 -1      2134-5.01847E-02 1.02517E-01 1.09589E-05 1.38768E-01 4.34728E-04 8.39562E-04
 -1      2135 7.27090E-02-1.23846E-03-3.46287E-05 1.20844E-01-5.79373E-06 4.53441E-04
 -1      2136-5.52270E-02-7.66062E-03 1.15323E-05-3.67345E-03 1.55993E-03-5.01006E-04
 -1      2137-9.71441E-02-4.73462E-03 1.04837E-04-3.33719E-03 1.37816E-03-9.03044E-06
 -1      2138 8.28863E-02-8.26529E-03 7.57957E-06 7.71507E-02-1.29829E-04-1.51128E-05
 -1      2139 8.28640E-02-8.24408E-03-1.27060E-05 7.72982E-02 1.00962E-05-5.60637E-05
 -1      2140 9.06668E-02-1.76241E-02-1.22254E-04 8.18212E-02-2.76000E-05-1.46159E-04
 -1      2141 8.33342E-02-1.33062E-02-9.13170E-05 6.88668E-02 2.70025E-05 3.27811E-04
 -1      2142-3.51628E-03-1.55551E-02 9.47230E-05 4.66599E-02-3.82505E-04 4.25019E-04
 -1      2143 5.85501E-02-1.38190E-02-4.93990E-07 9.44775E-02-2.32593E-04 1.53285E-05
 -1      2144 4.36056E-02-4.33730E-05 1.77539E-05 9.20477E-02-2.73260E-04-3.92260E-04
 -1      2145 1.02234E-02 1.84240E-03 2.56321E-05 6.49583E-02 1.50029E-04-7.55025E-05
 -1      2146 8.09342E-02-1.19153E-02-1.85165E-05 1.16422E-01 1.62507E-04 9.81935E-05
 -1      2147 9.51184E-02-2.29017E-02-1.25792E-05 1.14803E-01 2.01169E-04 4.35429E-04
 -1      2148 9.82779E-02-6.14304E-03-3.42510E-06 1.39249E-01-2.30623E-04 1.10198E-05
 -1      2149-1.07186E-02 2.45845E-02-2.17069E-05 5.54877E-02 1.15550E-04 1.73841E-05
 -1      2150 2.14807E-02 2.19762E-02-3.66991E-05 8.78004E-02-1.49811E-04-2.55941E-04
 -1      2151 2.87907E-02 1.23394E-02 1.42851E-06 8.73504E-02-1.30781E-04-1.17472E-04
 -1      2152 7.46233E-02-2.52633E-02 4.71600E-07 9.39835E-02-9.69486E-05-6.37630E-04
 -1      2153 5.67027E-02-2.83336E-02 3.94742E-05 7.66180E-02 2.16868E-04-1.51292E-04
 -1      2154 9.00951E-02-3.68382E-02 2.68017E-06 9.19320E-02-2.47389E-04-2.93962E-04
 -1      2155-2.82225E-02 9.67366E-02 4.32480E-04 1.41064E-01 4.17593E-04-2.82515E-04
 -1      2156 4.09025E-02 6.91161E-02 8.72741E-04 1.69371E-01-5.89164E-04 1.44665E-04
 -1      2157 6.09226E-02 6.08255E-02 4.78838E-04 1.81312E-01-7.08438E-04-7.16666E-04
 -1      2158 7.17546E-02 6.01065E-02-1.44955E-04 1.94756E-01-1.88516E-04 6.80034E-05
 -1      2159 1.14027E-02 6.91220E-02-3.23442E-05 1.34764E-01 3.74688E-04-1.80210E-05
 -1      2160 6.16276E-02 5.95556E-02-1.58420E-04 1.82002E-01 4.24009E-04 1.59786E-04
 -1      2161 2.21939E-02-2.43985E-02 1.06414E-04 3.42945E-02 5.04289E-04-2.24437E-04
 -1      2162-9.44871E-03-9.20346E-03 9.13709E-05 5.51436E-03-1.02388E-04-4.45278E-04
 -1      2163 1.45710E-02-1.74713E-02-6.85110E-05 2.43980E-02-1.19782E-04 8.41792E-05
 -1      2164 4.74510E-02-2.87341E-02 1.83774E-05 4.23792E-02-1.03588E-04 4.93127E-04
 -1      2165 1.67971E-02-1.14237E-02 4.20383E-05 1.55406E-02-6.06261E-04 4.33009E-05
 -1      2166-9.66918E-02-3.07763E-03-6.90901E-04-3.93327E-03-2.02942E-03-2.11627E-04
 -1      2167-5.50679E-02-7.34654E-03-3.99467E-05-3.75810E-03-1.32252E-03 2.71128E-04
 -1      2168 9.10887E-02-1.78460E-02 3.33500E-05 8.63689E-02-8.05588E-05-2.88266E-04
 -1      2169 8.17908E-02-7.81549E-03 1.76245E-05 8.76575E-02-2.05027E-04 9.26523E-05
 -1      2170 8.02744E-02-6.77048E-03-8.04632E-05 9.18136E-02 3.94777E-04 1.48268E-04
 -1      2171-1.60870E-01 7.10188E-02 1.96761E-04-6.76067E-02 3.51890E-05 1.98541E-04
 -1      2172-1.31234E-01 6.73952E-02-6.77644E-05-3.31408E-02 1.10139E-04 3.60470E-04
 -1      2173-1.09224E-01 6.68458E-02-1.62073E-04-4.64081E-04-4.00426E-04-3.67986E-07
 -1      2174 9.03125E-02-3.73977E-02-2.17372E-05 7.94388E-02-6.38928E-05 3.05275E-04
 -1      2175 9.80664E-02-3.46016E-02-8.79753E-06 9.53092E-02-4.70762E-04 6.21460E-05
 -1      2176 1.41398E-02-2.26335E-02-1.05223E-04 4.12829E-02 1.13876E-04-2.55399E-04
 -1      2177 5.42596E-02-3.38941E-02-3.36914E-06 5.11753E-02-3.75127E-04 7.30343E-05
 -1      2178 4.01549E-02-2.86077E-02-3.13604E-06 5.69411E-02 4.95361E-06-3.16246E-04
 -1      2179-4.65369E-02 4.62071E-02 1.04443E-05 3.29902E-02 2.21897E-05-1.83144E-04
 -1      2180-5.48359E-02 4.14474E-02-1.14918E-05 2.04449E-02-1.33607E-04 2.26413E-05
 -1      2181-5.29640E-02 3.68294E-02 1.31583E-06 2.02766E-02 4.08787E-05-5.01824E-05
 -1      2182-9.27030E-02 4.94517E-02 6.09493E-06-1.41394E-02 7.98524E-05-4.58890E-05
 -1      2183 7.07627E-02 6.01951E-02 1.28676E-04 1.94384E-01-1.16425E-04 1.69335E-05
 -1      2184 9.18976E-02 3.66251E-03 9.29241E-06 1.44664E-01-1.34752E-04-2.70458E-04
 -1      2185 5.82308E-02-2.16233E-02 5.96787E-05 4.14855E-02-1.12643E-04 6.81431E-05
 -1      2186 6.56143E-02-2.89240E-02 4.16568E-06 5.15789E-02-2.79318E-04-6.56429E-05
 -1      2187 6.50053E-02-2.88380E-02 5.48073E-05 5.06421E-02-7.11105E-05 3.94797E-05
 -1      2188 4.66026E-02-2.81506E-02-3.08408E-05 4.11827E-02-3.24013E-04-4.22265E-04
 -1      2189 2.17216E-02-1.93038E-02 6.66260E-07 6.10046E-02-9.77680E-05 1.84085E-04
 -1      2190 4.03902E-02-1.65375E-02 2.65359E-05 7.73254E-02 3.24668E-05 5.49858E-04
 -1      2191-1.06165E-02 1.21937E-03-2.04322E-05 4.91745E-02-2.32157E-04-4.24855E-04
 -1      2192-2.33750E-01 9.80709E-02 6.85540E-05-1.10549E-01-5.04210E-04 1.30094E-03
 -1      2193-2.54420E-01 1.02320E-01-9.98341E-04-1.16600E-01-4.99065E-03 1.45587E-03
 -1      2194-2.05328E-01 8.87538E-02 1.04472E-04-6.56993E-02 3.96788E-04 1.00333E-03
 -1      2195-2.60635E-02 5.32415E-02-6.42077E-05 6.74055E-02 1.89978E-05-2.40455E-05
 -1      2196-1.60557E-02 4.52399E-02-1.17823E-05 6.72966E-02-4.10059E-05 1.22236E-04
 -1      2197 1.41703E-02 5.03791E-02-1.35861E-05 1.09999E-01 5.21448E-05-2.75418E-05
 -1      2198 1.02207E-01-3.54164E-02-1.06268E-05 8.87070E-02-2.78834E-04-3.83440E-04
 -1      2199 9.51986E-02-3.57877E-02-1.54521E-05 7.42718E-02 5.05478E-04 2.28616E-04
 -1      2200 6.70575E-02 1.94127E-02 9.90129E-06 1.25861E-01 2.53814E-04 4.92055E-04
 -1      2201 8.22300E-02-2.84199E-03 3.74206E-06 1.09727E-01-2.70133E-04 3.69430E-05
 -1      2202 5.95596E-02 1.66285E-02 7.44934E-05 1.09545E-01 8.05926E-05-8.84929E-05
 -1      2203-1.17056E-01 6.37833E-02-6.07957E-05-2.32063E-02 1.70346E-06 1.47886E-04
 -1      2204-8.17414E-02 6.29655E-02 2.31509E-05 1.94831E-02-9.94912E-05-6.75685E-05
 -1      2205-1.18662E-01 6.59622E-02-2.19154E-05-2.00303E-02 2.51331E-04 2.11066E-04
 -1      2206 2.73043E-02 4.39025E-02-1.44483E-05 1.17228E-01-4.32490E-05-8.81556E-05
 -1      2207 4.40519E-02 4.96817E-02 1.45986E-05 1.44999E-01-4.23884E-05 1.27386E-04
 -1      2208 3.17698E-02 5.47953E-02 1.67634E-06 1.36615E-01-7.99652E-07-9.98039E-05
 -1      2209-9.95138E-02 4.97863E-02 1.31900E-05-1.58359E-02-4.54078E-05 1.51827E-06
 -1      2210 4.88818E-03 6.33927E-02 1.81717E-05 1.19249E-01-2.69227E-04 4.51727E-05
 -1      2211-9.23768E-03 5.76959E-02-4.30000E-05 9.37210E-02 2.93187E-05 1.59571E-05
 -1      2212-9.52459E-02 4.42949E-02 2.99345E-06-8.26150E-03 2.19679E-05-1.98552E-04
 -1      2213-1.46481E-01 6.45415E-02-2.06345E-06-5.18747E-02 1.74563E-04 8.74743E-05
 -1      2214 4.34442E-02 3.01951E-02-3.95798E-05 1.21333E-01 6.06185E-05 7.06831E-05
 -1      2215-1.28608E-01 4.41269E-02-2.36175E-04 9.83197E-03 4.54132E-05-1.09557E-04
 -1      2216-1.24972E-01 4.92201E-02 6.84785E-05-7.44501E-03-7.91920E-05-4.42900E-04
 -1      2217 5.56878E-02 4.41482E-02 9.12249E-07 1.52312E-01 6.17759E-06 7.12711E-05
 -1      2218 6.67686E-02 1.97298E-02-3.04022E-06 1.25763E-01-3.79662E-05-2.16437E-04
 -1      2219 8.42730E-02 2.16107E-02-2.01239E-07 1.54097E-01 3.00615E-04 5.26108E-04
 -1      2220 9.76567E-02-8.84679E-03-2.46088E-05 1.26446E-01-5.83790E-04-2.50873E-04
 -1      2221 8.86914E-02 2.52206E-02-3.93937E-05 1.65716E-01 3.24277E-04 2.92198E-04
 -1      2222 9.31969E-02 5.14525E-03 2.32963E-05 1.41863E-01 1.84886E-04 9.13623E-05
 -1      2223 9.93924E-02-4.72169E-03 9.56050E-06 1.37789E-01-2.07874E-04-5.61116E-04
 -1      2224-1.33725E-01 6.15826E-02 8.12929E-08-4.96447E-02 7.43289E-05-7.03444E-05
 -1      2225 7.74806E-02 1.71289E-02 3.90096E-05 1.36415E-01 2.73096E-04-3.65112E-07
 -1      2226 8.37736E-02 2.21229E-02 4.06147E-05 1.54398E-01-1.00388E-05-3.68610E-04
 -1      2227 7.74246E-02 1.74884E-02-7.52631E-05 1.36350E-01-2.69845E-04 1.67093E-05
 -1      2228 9.29088E-02 5.59577E-02 7.71985E-05 2.18505E-01 1.14791E-04 4.62109E-05
 -1      2229 9.19639E-02 5.63056E-02 5.04227E-05 2.17668E-01 7.60900E-05 2.80323E-05
 -1      2230 9.32161E-02 5.57910E-02-1.00760E-05 2.18312E-01-2.33796E-04-1.87770E-04
 -1      2231 2.06064E-02-2.33397E-02 6.49504E-05 3.32604E-02-7.49987E-04 1.86319E-04
 -1      2232-6.06244E-02 2.21176E-02-2.91489E-06 2.70653E-02-1.31248E-05 3.82317E-04
 -1      2233 7.16761E-02-6.87657E-05-6.64413E-06 9.14982E-02-2.91703E-04 1.65814E-04
 -1      2234 7.15067E-02 1.07916E-04 2.90339E-05 9.16472E-02 3.00892E-04-1.22895E-05
 -1      2235 6.09504E-02 1.77752E-03-7.66568E-06 9.14987E-02 1.56872E-05 1.74958E-05
 -1      2236 8.30757E-02 5.71377E-02 1.21538E-04 2.06562E-01 2.20180E-04 1.21716E-04
 -1      2237 8.63884E-02 5.74305E-02-5.39682E-05 2.11262E-01-4.65170E-05-2.05992E-05
 -1      2238 8.65230E-02 5.74902E-02-2.04256E-05 2.11580E-01 2.87468E-05-1.29374E-05
 -1      2239-4.28509E-02 2.09124E-02-2.82939E-07 3.26872E-02-1.23063E-04 8.77293E-05
 -1      2240-1.77355E-01 7.50144E-02-4.17477E-05-8.37610E-02-1.85729E-05 5.62655E-05
 -1      2241-1.55746E-01 6.79488E-02-8.08583E-06-6.70418E-02 1.86932E-05-1.16769E-04
 -1      2242-1.50733E-01 6.75276E-02 3.54809E-05-6.25953E-02-2.62065E-04-1.31884E-04
 -1      2243-1.55010E-01 6.86605E-02 8.85306E-06-6.60869E-02 1.92085E-04 1.26084E-04
 -1      2244-1.59975E-01 6.90907E-02 2.85680E-05-7.06932E-02-6.20392E-06 2.79297E-05
 -1      2245 9.47469E-02-1.92901E-02 3.52207E-05 9.74804E-02 9.56348E-05 6.23846E-05
 -1      2246 8.33351E-02-7.87026E-03-1.63379E-05 1.01871E-01-9.44710E-05 2.39015E-05
 -1      2247 9.11223E-02-1.10120E-02 8.20351E-06 1.09405E-01 8.79330E-05-1.97593E-04
 -1      2248 9.73242E-02 7.37169E-03-6.25481E-05 1.55514E-01-7.34397E-05-3.63010E-04
 -1      2249 9.47403E-02 3.63715E-02-6.32351E-05 1.91753E-01 2.03825E-06 1.98273E-04
 -1      2250 8.95775E-02 3.19055E-02 8.11261E-05 1.77098E-01 3.02606E-04 3.80875E-04
 -1      2251 9.17419E-02-6.62296E-03 2.88433E-05 1.20425E-01-4.74562E-04-8.33103E-04
 -1      2252 5.97638E-02 1.67823E-02-7.88467E-05 1.09814E-01-2.11618E-04 1.49108E-05
 -1      2253-2.12359E-01 9.04258E-02-1.49087E-03-4.58153E-02-4.07788E-04 2.18225E-03
 -1      2254-2.58646E-01 1.18322E-01-1.45780E-03-1.04517E-01 2.28989E-03-2.56934E-03
 -1      2255-2.23225E-01 8.35333E-02-1.30755E-03 2.53636E-03 3.01461E-03-1.29919E-03
 -1      2256-2.54786E-01 1.13537E-01 1.60045E-04-5.82233E-02 2.25530E-03-6.98256E-04
 -1      2257-8.38793E-02 5.83540E-02-8.10507E-06 6.27549E-03-4.89697E-05 7.50754E-05
 -1      2258-4.97879E-02 5.81807E-02-1.12530E-05 4.77641E-02-7.78976E-05-1.65147E-04
 -1      2259-3.99656E-02 5.07400E-02 9.12798E-06 4.73521E-02-2.18888E-04-1.12107E-04
 -1      2260 8.83701E-02 2.39586E-02-4.91614E-05 1.68070E-01-3.81198E-05-3.47879E-04
 -1      2261 9.42586E-02 2.79608E-02 4.80101E-05 1.79808E-01 4.95735E-06-5.25793E-05
 -1      2262 9.06872E-02 1.66169E-02-1.08322E-05 1.60466E-01-4.20870E-04-6.47002E-04
 -1      2263 8.86258E-02 2.36670E-02 5.52031E-05 1.68308E-01-3.91678E-05 3.15057E-04
 -1      2264 9.12450E-02 1.68162E-02-9.79206E-06 1.61030E-01 2.81759E-04 3.05892E-04
 -1      2265-9.55240E-03-8.75747E-03-3.34286E-05 5.30232E-03 1.27714E-04 4.37256E-04
 -1      2266 9.36427E-02 4.31914E-02-5.61757E-07 2.00238E-01-1.85015E-04-1.62659E-04
 -1      2267 9.63592E-02 4.63885E-02-4.73106E-05 2.09171E-01-5.78542E-05 1.04202E-04
 -1      2268 9.62631E-02 4.61567E-02 2.98554E-05 2.08954E-01-5.45795E-05-1.52905E-04
 -1      2269-5.18918E-03 1.53763E-02 1.06550E-05 5.89995E-02 5.35583E-05 2.46416E-04
 -1      2270 7.21073E-02 1.93913E-03 1.76612E-05 1.03220E-01-2.78358E-04-1.34780E-04
 -1      2271 8.83425E-02 2.55255E-02 1.01202E-05 1.65570E-01-1.78660E-04-1.24180E-04
 -1      2272 8.97108E-02-1.40547E-02-1.00793E-04 9.67832E-02 2.79893E-04 3.54810E-04
 -1      2273 8.00044E-02-6.88771E-03 1.57077E-05 9.14697E-02-3.14790E-04-6.16608E-05
 -1      2274 7.33548E-02-2.00786E-03 5.29209E-07 9.55001E-02 9.93188E-05-1.89327E-04
 -1      2275-1.01131E-01 2.06499E-02-1.65559E-04 2.01853E-02 6.68510E-04-4.37105E-04
 -1      2276 8.16661E-02-7.83074E-03-9.59372E-05 8.77462E-02 1.38269E-04-9.56200E-05
 -1      2277-2.07212E-02 3.89847E-02-5.01770E-05 5.47988E-02 1.03856E-04 8.60952E-05
 -1      2278-1.59246E-01 6.92398E-02 6.54780E-05-4.99336E-02-2.12675E-04 2.47311E-04
 -1      2279-1.07195E-01 4.67839E-02 6.45394E-05-3.71096E-03-7.37254E-05-9.79670E-05
 -1      2280-1.74652E-01 7.55717E-02-1.01245E-06-4.36100E-02-9.30443E-05 1.10284E-04
 -1      2281-9.80040E-02 6.67269E-02-3.61334E-05 1.24367E-02-2.10739E-04 7.77949E-05
 -1      2282 6.17157E-02 3.77253E-02-3.62311E-05 1.51645E-01 2.07446E-05 5.22274E-05
 -1      2283-5.01273E-02 2.94556E-02 8.54286E-06 2.43480E-02-1.81600E-04-1.35782E-04
 -1      2284 9.41242E-02 5.13797E-02 1.30766E-05 2.13323E-01-1.42700E-04-1.60189E-04
 -1      2285 8.91970E-02 4.01132E-02 4.69863E-05 1.90809E-01-1.50554E-05-7.02448E-05
 -1      2286 7.83052E-02 3.82394E-02 2.24841E-05 1.74318E-01 9.95169E-06 1.61757E-04
 -1      2287 8.17787E-02 3.28695E-02-1.64207E-05 1.71384E-01 1.83984E-04 2.48592E-04
 -1      2288-1.11146E-01 6.65968E-02-6.42491E-05-3.33276E-03 4.85158E-04 3.68974E-04
 -1      2289-1.22029E-01 6.66149E-02 7.02525E-05-2.20392E-02 8.41356E-05 9.31080E-05
 -1      2290-1.60752E-01 7.10746E-02-7.02326E-05-6.72681E-02-3.30617E-06-1.93082E-04
 -1      2291-1.41403E-01 3.32633E-02-8.04748E-04 1.19865E-02-7.50232E-04 9.26618E-05
 -1      2292-1.83188E-01 7.47527E-02-3.88132E-04-2.56733E-02 2.50467E-05 5.87858E-05
 -1      2293-2.32334E-01 9.74276E-02-6.39947E-04-1.10203E-01-5.97195E-05 6.24135E-04
 -1      2294 1.36549E-02 3.09852E-02 3.81140E-06 8.65041E-02-1.11141E-04-1.42091E-04
 -1      2295-1.86357E-02 3.34424E-02 2.66296E-05 5.36043E-02 4.81779E-05 1.30083E-04
 -1      2296-2.02781E-01 8.30974E-02-3.54848E-05-1.03259E-01 2.13275E-04 1.17870E-04
 -1      2297-2.06305E-01 8.41810E-02-2.96065E-05-1.05490E-01-7.35749E-05 1.13740E-04
 -1      2298-2.18473E-01 8.95505E-02-4.46031E-05-1.10207E-01-1.54966E-04 2.79899E-04
 -1      2299-2.18160E-01 8.87819E-02-3.74437E-06-1.09877E-01 4.61099E-04-6.91865E-04
 -1      2300-1.42179E-01 6.76866E-02 3.41671E-05-5.00691E-02-2.15700E-04-1.22224E-04
 -1      2301-1.33924E-01 6.79190E-02 5.50309E-05-3.68707E-02 1.20957E-04 1.13889E-04
 -1      2302-1.43244E-01 6.89721E-02 2.56048E-06-4.71660E-02 2.04981E-05 4.88069E-05
 -1      2303 9.05777E-03 3.81581E-02-5.73754E-05 8.85011E-02 9.10706E-05 1.17134E-04
 -1      2304 8.31036E-02 5.70456E-02-3.68094E-05 2.06549E-01-3.42562E-04-2.25407E-04
 -1      2305 5.71452E-02 5.95592E-02 1.68255E-04 1.75841E-01 3.42537E-05 5.02986E-05
 -1      2306 8.13778E-02 3.26329E-02-9.73232E-06 1.70734E-01-3.27129E-04-4.79239E-04
 -1      2307 7.79624E-02 3.83526E-02 1.28623E-05 1.73973E-01 2.44229E-05-2.23297E-04
 -1      2308-2.12466E-01 8.70907E-02-7.73924E-05-1.07274E-01 1.20860E-04 1.92612E-04
 -1      2309 9.78038E-02-2.89365E-02 1.25405E-04 8.52905E-02-8.30756E-05-4.21576E-04
 -1      2310 9.32592E-02-2.15069E-02 3.51441E-05 8.08400E-02 3.05464E-05-2.59705E-04
 -1      2311 9.92915E-02-2.68764E-02-1.85607E-05 9.13773E-02-2.04590E-04-2.85070E-04
 -1      2312-2.10142E-01 9.00885E-02-1.40208E-04-9.13035E-02-4.67105E-04 1.22009E-03
 -1      2313-1.84431E-01 7.97384E-02 1.91223E-04-6.93695E-02-1.59752E-04 4.47378E-04
 -1      2314 6.17593E-02-1.37023E-02-1.23475E-05 4.18565E-02-7.80508E-05 3.05271E-04
 -1      2315 4.47999E-02-1.14893E-02 3.13042E-05 2.97770E-02-1.79155E-04 7.09703E-05
 -1      2316 6.21066E-02-1.36987E-02-7.72809E-05 4.21667E-02-3.50577E-04-5.91451E-04
 -1      2317 7.52508E-02-1.22385E-02 2.68162E-05 5.76187E-02-3.89963E-04-1.00191E-04
 -1      2318-2.56215E-01 1.09561E-01 6.93123E-05-1.19778E-01 1.24737E-03-6.73147E-04
 -1      2319-2.05477E-01 8.97814E-02-1.00283E-03-6.77401E-02-1.35087E-03 6.05110E-04
 -1      2320-1.33431E-01 6.01138E-02-2.26606E-05-5.03355E-02 3.31841E-04 2.62803E-05
 -1      2321-1.00545E-01 6.46986E-02 1.62564E-04 9.28805E-03-4.56652E-05 2.20511E-04
 -1      2322-8.56992E-02 6.00172E-02-4.00960E-04 2.60938E-02-2.44156E-04-6.16972E-04
 -1      2323 8.28060E-02-2.93387E-02-3.88323E-05 6.13542E-02 8.79532E-05-2.49367E-04
 -1      2324-2.86112E-01 1.25000E-01 4.06117E-03-9.03743E-02 5.03850E-03-1.84881E-03
 -1      2325-1.63150E-01 7.04418E-02 7.29411E-05-6.98224E-02-1.51805E-04-4.97161E-05
 -1      2326 4.89541E-02 5.47717E-02-2.10195E-05 1.58317E-01-4.26082E-05-7.71936E-05
 -1      2327-1.75250E-01 7.44294E-02-1.11168E-04-8.16358E-02-1.49533E-04 9.91302E-05
 -1      2328-1.48025E-01 7.02041E-02 1.41662E-04-5.03950E-02-1.25065E-04 1.34410E-04
 -1      2329 6.08254E-02 2.44918E-03-7.57259E-05 9.14202E-02-1.02435E-04 7.35797E-05
 -1      2330 9.17812E-02 5.62864E-02 4.17199E-05 2.17592E-01-1.10392E-04-1.97613E-05
 -1      2331 6.78192E-02 1.16326E-03-4.08319E-05 9.38621E-02 3.07145E-04-1.58574E-04
 -1      2332 9.92189E-02-2.83933E-02-2.11166E-05 1.06541E-01 2.75525E-04 3.20688E-04
 -1      2333 9.10195E-02-2.77639E-02-5.93814E-05 7.10764E-02 6.15233E-04 3.87166E-05
 -1      2334 9.35829E-02-2.20011E-02-7.28420E-06 8.04617E-02 4.50032E-06-5.64641E-06
 -1      2335 9.45455E-02 5.30622E-02-3.21800E-05 2.16611E-01-5.94480E-05 2.05705E-05
 -1      2336 9.41524E-02 5.11950E-02 2.83019E-05 2.13167E-01 2.22335E-04 2.59066E-04
 -1      2337 9.92602E-02-1.76385E-02-2.97291E-05 1.14176E-01-1.24763E-04-1.58163E-04
 -1      2338 9.08059E-02-5.33755E-03-4.09383E-05 1.21038E-01 1.34804E-04 5.02091E-04
 -1      2339 9.67344E-02-5.51586E-03-8.36029E-05 1.30183E-01 3.12181E-04-5.06845E-05
 -1      2340-2.14565E-01 9.04267E-02-6.55193E-04-4.35937E-02-9.64230E-04-2.98069E-03
 -1      2341-2.24836E-01 7.75850E-02 2.53481E-03 4.56064E-03 2.79659E-03-1.24721E-03
 -1      2342 7.12890E-02-3.67930E-02 3.00572E-05 7.19445E-02 1.76373E-04 1.97814E-04
 -1      2343 9.73315E-02 1.09104E-03 2.71390E-05 1.44998E-01-5.08422E-04-5.83214E-04
 -1      2344 9.37727E-02 4.29419E-02 4.68035E-05 2.00073E-01 3.24435E-04 3.41607E-04
 -1      2345 3.90809E-02 5.95709E-02-6.84861E-06 1.52970E-01 3.25143E-04 1.40438E-04
 -1      2346-3.44953E-01 9.12062E-02 5.44682E-04-1.39911E-03 3.86455E-03-4.45106E-03
 -1      2347 9.46697E-02 5.26837E-02 1.70535E-05 2.16310E-01-1.63907E-05-4.75572E-05
 -1      2348 7.00516E-02 4.41341E-02-3.48259E-06 1.71034E-01 1.50003E-04 6.93971E-05
 -1      2349 1.03936E-01-2.61097E-02-5.90063E-05 1.09982E-01 1.80287E-04 4.40684E-04
 -1      2350 9.94547E-02-2.29632E-02 5.85740E-06 1.02576E-01 5.07732E-04 1.60365E-04
 -1      2351 6.70759E-02 4.73851E-02-9.92647E-06 1.71871E-01 1.04764E-05 9.95212E-05
 -1      2352-1.84670E-01 6.55321E-02 7.00238E-06 7.52584E-04 9.80451E-04-4.76397E-04
 -1      2353 8.90779E-02 3.25085E-02-2.54450E-05 1.77118E-01-2.40120E-04-9.75806E-05
 -1      2354 7.55209E-02 5.39378E-02 4.36897E-05 1.91513E-01-1.20010E-05-3.57392E-05
 -1      2355 1.69665E-02-1.16692E-02-2.96371E-05 1.55018E-02 6.32227E-04-6.62877E-05
 -1      2356 7.29073E-02 4.46760E-02 5.75020E-05 1.75368E-01-1.91262E-04-2.84259E-04
 -1      2357 3.14999E-02 3.77767E-02 4.72488E-05 1.15263E-01 2.94115E-05-4.51353E-05
 -1      2358-1.40795E-01 6.28267E-02 2.04839E-06-5.25650E-02-1.67271E-04 8.85987E-05
 -1      2359-1.97791E-01 8.15461E-02-1.09856E-05-9.91818E-02-6.25606E-05 6.90200E-05
 -1      2360-1.47266E-01 6.77233E-02 1.00628E-05-5.74154E-02-2.25236E-05-4.83537E-05
 -1      2361 8.98371E-02-1.59769E-02-1.43586E-04 8.66626E-02-2.00292E-04 3.52185E-04
 -1      2362-1.01527E-01 5.34189E-02 2.45171E-04-1.33069E-02 2.59046E-04 2.23904E-04
 -1      2363-6.85000E-02 5.50439E-02-5.57384E-04 3.69634E-02 6.91085E-05 4.60634E-04
 -1      2364-1.18768E-01 5.29053E-02-5.30044E-04-4.38229E-02-9.94239E-05 9.68899E-04
 -1      2365-3.54163E-01 1.01414E-01-1.47573E-03 5.68689E-03-8.30887E-05 2.06060E-03
 -1      2366 9.79366E-02-1.21064E-03 9.74955E-05 1.41171E-01 2.21561E-04 6.02848E-04
 -1      2367-1.43964E-01 6.81387E-02-2.10266E-05-5.18542E-02 1.92118E-04-4.19920E-05
 -1      2368-1.85397E-01 7.79370E-02 3.85575E-05-8.83655E-02-9.45624E-07-5.15656E-05
 -1      2369 1.02017E-01-1.47935E-02-5.77257E-06 1.25507E-01-1.84160E-04-1.28344E-05
 -1      2370-1.52643E-01 6.78639E-02-1.04484E-04-6.12096E-02 4.02359E-04-1.02907E-04
 -1      2371-1.26528E-01 6.46513E-02-1.18634E-04-2.85808E-02 1.07640E-04-5.21648E-05
 -1      2372 8.09343E-02-9.46463E-04-6.34602E-05 1.10780E-01 2.86796E-04-1.83744E-04
 -1      2373 7.23749E-02 1.79456E-03 2.78860E-05 1.03151E-01-4.50634E-05 1.20158E-04
 -1      2374 1.86856E-02 6.88295E-02 1.15175E-04 1.42920E-01-3.97271E-04-3.37893E-04
 -1      2375 3.58277E-02 5.94028E-02-6.58484E-05 1.48793E-01-2.25203E-04-1.24670E-05
 -1      2376 1.01674E-01-1.20619E-02-1.77181E-06 1.31512E-01-7.09023E-05-3.87777E-04
 -1      2377-8.52959E-02 5.86839E-02-2.65208E-04 2.58987E-02 8.25656E-04 1.11163E-03
 -1      2378-1.02224E-01 6.45155E-02-2.84900E-05 6.39807E-03 4.68478E-04 2.37014E-04
 -1      2379-1.33155E-01 5.97737E-02 2.17930E-04-5.08081E-02-1.24629E-04-1.98532E-04
 -1      2380 4.49296E-02-1.17415E-02 3.58131E-05 2.98929E-02 1.83852E-04-1.63753E-05
 -1      2381-5.73016E-02 8.83177E-02-6.60212E-06 1.14661E-01-5.54056E-04-1.15476E-03
 -1      2382 7.30664E-02-3.30049E-02-4.50376E-05 5.99129E-02-5.44301E-06 1.25159E-04
 -1      2383 7.58777E-02-3.60148E-03 5.14470E-05 9.16490E-02-2.81202E-05 1.44466E-04
 -1      2384 6.77508E-02 1.20067E-03-1.00696E-05 9.38380E-02-2.04819E-04 6.71067E-05
 -1      2385 6.02103E-02 5.01746E-02 1.98179E-06 1.66494E-01 1.03426E-05 1.57240E-04
 -1      2386 9.45576E-02 3.62207E-02 3.67988E-05 1.91556E-01-7.62831E-05-2.52281E-04
 -1      2387 5.49768E-02 1.44172E-02-3.89601E-05 9.95015E-02-8.41845E-06 1.93231E-04
 -1      2388 6.63745E-02 5.21535E-03 5.78946E-05 1.00528E-01-1.26250E-04-3.41282E-06
 -1      2389 5.48936E-02 1.45337E-02-4.53705E-05 9.93193E-02-7.76508E-05-1.14531E-04
 -1      2390 9.42027E-02-2.14932E-02-7.63018E-06 8.61655E-02-1.87746E-04-1.89627E-05
 -1      2391-1.71279E-01 7.28778E-02-8.73784E-05-7.12479E-02 1.86251E-04 1.69859E-05
 -1      2392-7.08829E-02 1.30516E-01 4.77610E-04 1.46795E-01 2.89733E-04 1.41448E-03
 -1      2393-3.54134E-02 9.13332E-02 6.15686E-04 1.35625E-01 9.09747E-04 1.09626E-03
 -1      2394-3.30492E-02 9.46223E-02-6.06835E-04 1.34345E-01 2.72141E-05-9.23271E-04
 -1      2395-1.93530E-03 8.03768E-02 4.79875E-04 1.37063E-01 1.51971E-03 1.81066E-03
 -1      2396 4.71773E-02 6.75542E-02-5.79203E-04 1.71644E-01 3.64431E-04-9.58973E-04
 -1      2397 5.29482E-03 7.62735E-02-8.37284E-04 1.37385E-01-9.13040E-04-1.82625E-03
 -1      2398-1.66792E-01 7.32007E-02-1.00271E-04-7.21800E-02-5.91242E-05-4.27761E-05
 -1      2399-1.49320E-01 6.80907E-02 4.52841E-05-5.94417E-02-9.67455E-06-1.44173E-05
 -1      2400-5.91591E-02 1.04219E-01-2.26149E-04 1.36728E-01-2.10138E-03-9.06689E-04
 -1      2401-6.08321E-02 1.24413E-01-2.48986E-04 1.35504E-01 1.37905E-03-2.72181E-03
 -1      2402-5.65669E-02 1.12935E-01-5.06160E-04 1.43753E-01 5.35719E-04 3.74858E-03
 -1      2403-6.24448E-02 1.14045E-01 5.77707E-04 1.42460E-01-3.74681E-04 5.91667E-04
 -1      2404-1.92309E-01 7.99500E-02-4.37405E-05-9.52036E-02 2.32179E-04 4.53995E-06
 -1      2405 4.90685E-02 1.43841E-02 1.87184E-05 9.05525E-02 2.66369E-04 9.43565E-05
 -1      2406 4.89676E-02 1.38696E-02-1.11473E-04 9.06561E-02-3.87515E-04 3.16173E-05
 -1      2407 4.13798E-02 2.02133E-02-1.27872E-04 8.77263E-02-1.72172E-04 3.47781E-05
 -1      2408 4.25162E-02 8.27309E-03-1.19754E-04 7.78011E-02 4.44967E-04-5.93917E-05
 -1      2409 4.33099E-02 7.15077E-03-2.96915E-05 7.75496E-02 5.91145E-04 2.15072E-05
 -1      2410 4.15891E-02 1.87139E-02 2.23118E-04 8.65902E-02 4.36174E-04-1.31619E-04
 -1      2411 5.44877E-02 6.24596E-03-5.89217E-06 8.85197E-02-1.72603E-05-3.75603E-05
 -1      2412 5.45425E-02 6.31193E-03 4.29452E-06 8.80588E-02 4.65290E-04-1.38952E-04
 -1      2413-5.49401E-02 6.69367E-02-1.92515E-04 4.73592E-02-2.15330E-04 4.97487E-04
 -1      2414-6.97980E-02 2.96776E-02 1.37401E-03-1.44526E-02 3.18297E-03 2.70812E-03
 -1      2415-5.27501E-02 6.53766E-02-2.80720E-04 4.80545E-02-3.72137E-05 9.77162E-05
 -1      2416-6.69930E-02 3.46706E-02-1.18617E-03-4.61501E-03-3.69285E-03-9.71651E-04
 -1      2417-9.61215E-02 4.34707E-02 7.97705E-04-3.70419E-02 3.97725E-04-1.17577E-03
 -1      2418-6.81024E-02 5.12092E-02 3.93750E-04 2.37910E-02 2.21746E-04 1.05200E-03
 -1      2419-9.75893E-02 4.26293E-02-1.45803E-03-3.69237E-02 8.78994E-04 1.06442E-03
 -1      2420-5.43482E-02 1.07406E-01 9.56754E-04 1.01459E-01 1.37166E-03 2.48905E-03
 -1      2421-5.17366E-02 6.00146E-02 1.51623E-04 6.79768E-02-3.74292E-04-6.47424E-04
 -1      2422-5.62114E-02 1.17668E-01-1.30003E-03 1.09194E-01-3.38390E-03-1.91167E-03
 -1      2423-5.30763E-02 6.10825E-02-1.59165E-04 6.77392E-02-2.61592E-04 1.61274E-03
 -1      2424-5.45915E-02 8.17135E-02 8.59868E-05 1.08978E-01-1.72489E-04-3.01504E-05
 -1      2425-6.28165E-02 1.25267E-01-5.41173E-06 1.35489E-01-1.13377E-03 9.15697E-04
 -1      2426-7.03977E-02 1.37236E-01-1.37505E-04 1.29484E-01-1.08189E-04-1.96066E-03
 -1      2427-7.12001E-02 1.40811E-01 1.31315E-03 1.27781E-01-4.35371E-04 3.47436E-04
 -1      2428-1.61809E-01 2.97310E-02-2.86157E-04-6.87183E-03 3.27538E-03-1.66086E-03
 -1      2429-1.63137E-01 2.75878E-02 1.20356E-03-4.99895E-03-3.37225E-04 6.64881E-04
 -1      2430-2.02991E-01 8.32514E-02-2.06130E-05-1.03189E-01-8.85758E-05 1.53964E-05
 -1      2431-1.42078E-01 3.19095E-02-3.50444E-04 1.21098E-02 9.61545E-04 1.89154E-05
 -1      2432-1.67387E-01 3.67182E-02 1.48094E-03 1.08587E-02 1.24324E-03 3.67524E-04
 -1      2433-1.97586E-01 8.13491E-02 5.71327E-05-9.90158E-02 5.53425E-05-7.61505E-05
 -1      2434-1.92500E-01 7.99182E-02-7.32139E-06-9.53842E-02-8.28135E-05 5.41489E-05
 -1      2435-1.75191E-01 7.44297E-02-6.52067E-05-8.16402E-02-8.53745E-05-1.86740E-04
 -1      2436-1.86010E-01 7.84491E-02 1.61437E-05-8.85268E-02-1.03077E-04-2.25156E-05
 -1      2437-1.52905E-01 6.82779E-02-1.13427E-04-6.12633E-02 5.75763E-06-1.10880E-06
 -1      2438-6.83871E-02 5.34361E-02 3.31163E-04 3.61517E-02 5.97440E-04 2.83391E-04
 -1      2439-1.19633E-01 5.23722E-02 2.37431E-04-4.52763E-02 2.88250E-04-6.40737E-04
 -1      2440-5.80270E-02 6.35691E-02-6.05031E-07 7.87098E-02 4.16048E-05 1.88359E-04
 -1      2441-3.06598E-02 1.00489E-01-2.42761E-04 1.44015E-01 8.20514E-04 1.06603E-03
 -1      2442 5.42025E-02 9.54152E-03-3.14746E-05 8.98164E-02 2.54915E-04-6.54037E-06
 -1      2443-5.36113E-02 8.83285E-02 7.14868E-04 9.64962E-02-1.31047E-03 8.63642E-05
 -1      2444-5.36163E-02 8.05471E-02-2.13367E-04 1.08254E-01-5.30925E-04-4.14650E-04
 -1      2445-6.96496E-02 1.30691E-01-7.46004E-05 1.44063E-01-1.47015E-03 3.31387E-04
 -1      2446 2.44984E-02 7.32433E-02 1.78755E-04 1.57186E-01-3.44396E-04-5.03928E-04
 -1      2447-5.61952E-02 1.10811E-01 5.96391E-04 1.43561E-01 4.48496E-04-2.06622E-03
 -1      2448-5.82915E-02 1.03424E-01 6.16823E-05 1.36553E-01 1.92012E-03 4.92196E-04
 -1      2449-1.85335E-01 8.05550E-02-5.26471E-05-7.02148E-02-3.52185E-04 4.39548E-04
 -1      2450 8.16229E-02 4.00069E-03 4.23543E-05 1.21922E-01 2.69419E-05-2.37132E-05
 -1      2451 8.38898E-02 4.85233E-02-2.73434E-05 1.95423E-01-5.79043E-05-1.54843E-04
 -1      2452 7.00785E-02 4.79694E-02-1.91737E-06 1.76444E-01-4.09484E-05-1.09438E-05
 -1      2453 6.35683E-02 5.05455E-02 4.37387E-05 1.71098E-01 6.63217E-05-8.80471E-05
 -1      2454 9.72782E-02 7.44927E-03 4.40467E-05 1.56118E-01-7.91355E-05 3.47635E-04
 -1      2455 9.57513E-02 1.51391E-02-5.82596E-05 1.62033E-01 6.13538E-05 3.20591E-05
 -1      2456 5.23676E-02 5.49206E-02 1.62363E-06 1.62932E-01 8.34281E-05-4.53852E-05
 -1      2457 9.80884E-02 1.45942E-03-2.00548E-05 1.45824E-01 3.10380E-04 2.51146E-04
 -3
    1PSTEP                         4           1           1          
  100CL  101 1.000000000         890                     0    1           1
 -4  FORC        4    1
 -5  F1          1    2    1    0
 -5  F2          1    2    2    0
 -5  F3          1    2    3    0
 -5  ALL         1    2    0    0    1ALL
 -1      1568 1.46563E-13 1.49342E-12 6.06867E-01
 -1      1569 5.91080E-13 2.99657E-13-8.57327E-01
 -1      1570 1.92503E+00 1.74805E+00 4.42475E-01
 -1      1571 7.30996E-01 1.48353E+00-5.27247E-01
 -1      1572-1.43442E-13-3.55193E-12-3.91712E-02
 -1      1573-2.17890E-12-1.60218E-13 1.16978E-01
 -1      1574 4.16884E+01-1.55261E+01 1.33636E+01
 -1      1575 2.41992E+01-1.04195E+01-1.38954E+01
 -1      1576 2.45513E-13 2.02718E-13-6.21991E+00
 -1      1577-2.02633E-14 1.56387E-12-5.57048E+00
 -1      1578-2.25830E-13 4.09724E-13-3.41948E+00
 -1      1579-6.05674E-14-1.22587E-13-3.09132E+00
 -1      1580-5.40751E-14-1.01582E-12-3.24796E+00
 -1      1581 3.07972E-13 1.38435E-13-2.92314E+00
 -1      1582 3.54002E-13 3.60450E-13-1.96071E+00
 -1      1583-2.52138E-14-1.36352E-13-6.14387E-01
 -1      1584-1.54606E-14 7.10198E-14 1.60541E-01
 -1      1585 3.72410E-14 1.50487E-16 2.83611E-01
 -1      1586-2.37539E-13 1.73534E-12 4.85861E+00
 -1      1587-8.11434E-14 1.12144E-12 4.94002E+00
 -1      1588 5.27843E-13-6.29245E-14 4.14213E+00
 -1      1589-5.77151E-14-9.59080E-13 3.49761E+00
 -1      1590 6.96182E-14-9.23957E-13 3.15119E+00
 -1      1591 3.73540E-13 3.06643E-14 2.77155E+00
 -1      1592 4.09993E-14-4.12578E-14 1.54192E+00
 -1      1593 1.61909E-13 6.63775E-14 4.90379E-01
 -1      1594-8.38427E-14-4.54524E-14-1.10677E-01
 -1      1595 4.25298E-14 3.17801E-14-2.35275E-01
 -1      1596-1.06512E-12-2.11248E-12-9.14648E+00
 -1      1597 1.28056E-12-1.10392E-12-2.74315E+00
 -1      1598 1.07743E-12 3.78529E-13 9.70169E+00
 -1      1599-1.44523E-12-1.73067E-12 2.54721E+00
 -1      1600 1.88785E-13-6.51432E-15 8.07264E-01
 -1      1601 6.48093E-14-3.91735E-14 2.59500E+00
 -1      1602-2.93469E-13-3.12201E-13 3.03715E+00
 -1      1603-2.23127E-13-2.69984E-14 3.32777E+00
 -1      1604-5.16338E-13-3.87729E-13 3.98037E+00
 -1      1605 7.29050E-13-1.97676E-12 4.58135E+00
 -1      1606-1.34902E-12-2.75280E-13 4.79891E+00
 -1      1607-7.36318E-13-2.18429E-12 8.63067E+00
 -1      1608 3.85618E-14 6.80868E-14-2.25986E+00
 -1      1609-1.11760E-13 3.32733E-13-2.62418E+00
 -1      1610-9.58192E-14 1.37668E-12-3.51971E+00
 -1      1611 5.76547E-13-2.25502E-13-3.76429E+00
 -1      1612 4.95557E-13-3.24180E-13-3.04093E+00
 -1      1613 3.49530E-13 9.58897E-13-4.02257E+00
 -1      1614-2.04147E-12-1.71985E-12-5.44812E+00
 -1      1615-4.98660E-13 2.81912E-13-9.05647E+00
 -1      1616-1.14603E-01 1.36512E-01 2.74219E-01
 -1      1617-1.14182E+00 2.38475E-01-1.88388E-01
 -1      1618-1.48435E-01 5.53234E-01-6.45222E-01
 -1      1619 1.38544E+00 1.13165E+00-5.92946E-01
 -1      1620 2.61720E+00 7.32726E-01-3.93654E-01
 -1      1621 4.20634E+00-7.46724E-01-2.93399E-01
 -1      1622-2.03640E-01-4.19195E-01-2.82283E-01
 -1      1623-8.22129E-02-3.59140E-01 2.52280E-01
 -1      1624-1.69134E+00-7.85389E-01 6.37492E-01
 -1      1625-3.37063E+00-8.34466E-01 8.21547E-01
 -1      1626-5.32168E+00-6.03680E-01 4.55869E-01
 -1      1627-1.37833E+01-4.34909E-01 5.38821E-01
 -1      1628-1.10893E-12-3.67622E-12 3.24536E-01
 -1      1629-5.90917E-13-1.52304E-12-6.62422E-02
 -1      1630 1.07833E-13 5.71178E-13 1.85873E-02
 -1      1631 4.12982E-13 3.53492E-13-6.83551E-03
 -1      1632 7.21493E-15-1.26155E-13-1.91321E-01
 -1      1633-9.33060E-14-2.01533E-13-1.04903E-01
 -1      1634 6.60956E-14 7.34988E-14 1.93246E-01
 -1      1635 9.80882E-14-5.68365E-14-9.94354E-01
 -1      1636-1.79069E-13 8.46661E-13 4.56368E-01
 -1      1637 2.29142E-12-7.35693E-13-2.78089E-02
 -1      1638 1.85232E-12-1.04379E-12 5.94802E-01
 -1      1639-3.40370E-14-8.01350E-14-1.51580E-01
 -1      1640 7.36675E-13-5.17447E-13-9.93649E-02
 -1      1641 5.43961E-13 2.77501E-12 2.20523E-01
 -1      1642 4.51618E-13 4.94723E-13 8.46188E-02
 -1      1643-6.70865E-13 3.87539E-13 2.76735E-02
 -1      1644 1.79529E-13-7.37097E-13-1.98303E-01
 -1      1645-2.81194E-14-5.59873E-14-4.21377E-01
 -1      1646-1.84735E-14-1.28734E-14-6.30463E-02
 -1      1647-3.03974E-13-2.53885E-13 7.19158E-01
 -1      1648-5.71155E-13 3.34756E-13-4.25983E-02
 -1      1649-1.45376E-12-1.57614E-12 6.82495E-01
 -1      1650 1.26743E-13 5.60812E-13-1.82986E-01
 -1      1651-2.24767E-13 1.02592E-14 1.25722E-01
 -1      1652 4.12608E-14-9.66033E-14 2.21190E-01
 -1      1653-2.62082E-13 1.31339E-13-7.66362E-02
 -1      1654-5.91012E-13-3.16905E-13 2.13370E-01
 -1      1655 9.96111E-14-2.53290E-12 7.65708E-02
 -1      1656 8.14876E-13-5.33840E-12 5.07018E-02
 -1      1657 1.25416E-13-1.89333E-13-9.22874E-02
 -1      1658 4.20349E-14 8.01376E-14 4.69573E-02
 -1      1659 8.58156E-14 5.93304E-13-1.54467E-01
 -1      1660 2.35065E-13-4.49130E-13 2.78144E-01
 -1      1661 2.32002E-14 1.59558E-13 8.84338E-02
 -1      1662 6.94193E-15 2.68916E-13 1.74977E-01
 -1      1663 1.96649E-13 9.04384E-13-1.47513E-01
 -1      1664-7.40310E-13 1.12361E-12 2.36738E-01
 -1      1665-1.31515E-12-1.45683E-12-1.02480E-01
 -1      1666-1.87207E-12-1.18359E-12 1.83538E-01
 -1      1667-7.44722E-13-9.02427E-14-1.65025E-01
 -1      1668 3.34537E-13 1.16893E-12-3.98894E-01
 -1      1669 4.46067E-14 7.07491E-13-6.30571E-01
 -1      1670-1.64715E-13-3.70945E-14 6.81413E-01
 -1      1671-3.54812E-14 7.10430E-14 9.95390E-03
 -1      1672-3.24862E-14 1.19731E-14 1.28376E-01
 -1      1673 3.66479E-14 7.48098E-14 1.98685E-01
 -1      1674-1.03643E-13-8.15840E-14 3.75987E-01
 -1      1675 3.40413E-13 7.77258E-13-1.15051E-02
 -1      1676 9.77448E-14-7.22470E-13 1.90736E-01
 -1      1677 1.05325E-13-3.02565E-12 3.73772E-01
 -1      1678-6.40508E-13-4.17935E-12-4.48050E-01
 -1      1679-2.45505E-13 6.37953E-14-2.78806E-01
 -1      1680 5.04199E-13 5.59867E-13-4.65268E-01
 -1      1681-5.48860E-14-1.36696E-14 1.07460E-01
 -1      1682-3.87292E-14 1.61246E-13 2.51396E-01
 -1      1683 3.81285E-13-1.95639E-13-1.45255E-01
 -1      1684 2.03428E-13 5.84519E-13 1.33203E-01
 -1      1685 3.58270E-13 1.66659E-12 7.53262E-02
 -1      1686 9.09500E-14-2.64089E-12 1.58637E-01
 -1      1687 9.19161E-14-5.00173E-14-3.68360E-01
 -1      1688-1.78418E-13 1.25704E-13-2.81781E-02
 -1      1689 3.16560E-13 1.10870E-12 1.91310E-01
 -1      1690-2.14584E-13-1.73557E-12-1.02770E-01
 -1      1691-1.55699E-13-5.50422E-13-2.54420E-01
 -1      1692-1.24451E-13-2.09848E-13 1.92108E-01
 -1      1693-3.66387E-13-3.04908E-13 6.43715E-02
 -1      1694 1.33427E-12 8.00305E-13 7.78690E-13
 -1      1695 1.51643E-13-5.81240E-14-2.33147E-14
 -1      1696-9.10383E-15-5.12923E-14-6.38985E-15
 -1      1697-4.86538E-13-1.92835E-13-1.38531E-12
 -1      1698 1.39969E-12 1.32439E-12 1.54010E-12
 -1      1699-3.47031E-14 9.54566E-14-2.06501E-14
 -1      1700 2.25991E-13-5.03082E-12 3.25961E-13
 -1      1701-1.61683E-12 1.86141E-12-6.61949E-14
 -1      1702-3.44974E-13-6.48648E-14 1.33227E-14
 -1      1703 2.71103E-14 7.86541E-14 4.50751E-14
 -1      1704-4.35792E-13 3.01647E-12 5.06040E-13
 -1      1705 2.28115E-13 3.83144E-13 3.61489E-13
 -1      1706-7.39452E-14-4.11476E-15-2.22045E-16
 -1      1707-1.18172E-12-7.40075E-13 1.64902E-12
 -1      1708 4.51417E-13-3.55846E-12 1.21858E-12
 -1      1709 1.54652E-12 2.73502E-12-8.70581E-13
 -1      1710-2.17973E-12-1.02471E-12-6.21725E-13
 -1      1711 3.15855E-14-4.13563E-14-1.13803E-14
 -1      1712 2.28682E-13 2.82750E-13 8.61533E-14
 -1      1713 1.40241E-13-6.56211E-14-1.77636E-15
 -1      1714 1.51865E-13 5.69254E-13-2.56406E-13
 -1      1715-3.12281E-13 7.80227E-14 2.83773E-13
 -1      1716-4.32987E-13-2.49578E-12 9.29277E-13
 -1      1717-3.08018E-14-1.13624E-16-7.54952E-15
 -1      1718-3.63352E-13-2.07634E-13 3.65485E-13
 -1      1719-4.96098E-15-3.43805E-14-1.97821E-13
 -1      1720-1.05616E-12 3.74127E-13 8.85958E-14
 -1      1721-7.13575E-13 2.07892E-12-1.24800E-12
 -1      1722-6.91947E-12-1.03486E-12 1.29848E-12
 -1      1723 6.10623E-16 2.77556E-15-8.46025E-15
 -1      1724 1.76428E-12 2.77778E+01-1.03905E-12
 -1      1725-2.37682E+01-1.83827E+01-4.67227E-03
 -1      1726 1.84054E-13-1.71353E-12-2.53763E+01
 -1      1727-2.92895E-13 2.07803E-12-4.40441E+01
 -1      1728 3.40939E-13-2.26289E-13-3.78757E+01
 -1      1729 2.34803E-13-2.18971E-13-3.61383E+01
 -1      1730 1.92500E-14 3.09226E-13-3.87394E+01
 -1      1731 3.28208E-13-3.46205E-14-3.86458E+01
 -1      1732-1.65043E-13-4.53778E-13-3.51834E+01
 -1      1733-1.05055E-14-3.64236E-13-2.94197E+01
 -1      1734 3.27871E-14 1.63902E-13-2.05323E+01
 -1      1735-1.73299E-15-5.62311E-15-1.51758E+01
 -1      1736 1.29605E-14-2.46348E-14-1.26960E+01
 -1      1737 1.25705E-12 3.17356E-12 2.46016E+01
 -1      1738-3.05502E-13 3.64311E-12 3.72171E+01
 -1      1739-4.00027E-15 7.20347E-13 4.12059E+01
 -1      1740-1.00568E-13-4.49564E-13 3.99277E+01
 -1      1741 3.65419E-13-7.59556E-13 3.82490E+01
 -1      1742 5.90938E-14-1.25575E-13 3.80775E+01
 -1      1743-1.32628E-13 5.31721E-13 3.41433E+01
 -1      1744 1.60007E-14-2.33303E-13 2.50099E+01
 -1      1745-1.54821E-13-1.98647E-13 1.84341E+01
 -1      1746 3.06630E-14 3.51490E-14 1.53250E+01
 -1      1747-7.73080E-15-2.32670E-14 1.25740E+01
 -1      1748-1.31065E-12 2.77778E+01-4.59410E-13
 -1      1749 1.45269E-12 2.77778E+01-7.13251E+00
 -1      1750-1.31067E-12 2.77778E+01-1.78697E+01
 -1      1751 1.13700E-12 2.77778E+01-1.37132E+01
 -1      1752-2.52361E-13 2.77778E+01 6.63867E+00
 -1      1753-1.74963E-12 2.77778E+01 1.81277E+01
 -1      1754 1.50722E-12 2.77778E+01 1.42876E+01
 -1      1755 2.06322E+02-2.76107E+01 1.26921E+00
 -1      1756-2.99066E-14 8.20594E-14 4.81268E+01
 -1      1757-8.86305E-14-1.87850E-13 3.52051E+01
 -1      1758 3.88349E-13-2.90250E-14 3.40343E+01
 -1      1759 1.03414E-13 7.18453E-14 3.12266E+01
 -1      1760 1.86303E-12-3.61466E-13 2.94556E+01
 -1      1761-5.23095E-15 1.33921E-12 2.83659E+01
 -1      1762-6.03018E-13 8.41324E-14 2.40539E+01
 -1      1763-2.18138E-13-2.00478E-12 1.63666E+01
 -1      1764 9.11328E-13-2.35280E-12 1.36024E+00
 -1      1765-5.81479E-14 6.79248E-14-4.50008E+01
 -1      1766 1.73792E-13 5.32991E-14-3.61938E+01
 -1      1767 8.95978E-13 1.32070E-13-3.51964E+01
 -1      1768-6.73901E-13 3.72508E-13-3.37588E+01
 -1      1769 8.05628E-13-1.42580E-13-3.03689E+01
 -1      1770 5.44107E-13-7.75614E-13-2.30139E+01
 -1      1771 8.74837E-13 3.71501E-12-2.60331E+01
 -1      1772-1.23679E-12 2.26298E-12-1.65797E+01
 -1      1773 8.09450E-13-1.06377E-12-1.12169E+00
 -1      1774-2.91629E+01-2.38406E+01-1.25081E+01
 -1      1775-3.64940E+01-2.62987E+01-1.58710E+01
 -1      1776-4.15883E+01-2.24360E+01-1.50725E+01
 -1      1777-3.55758E+01-1.42700E+01-1.87960E+01
 -1      1778-1.45537E+01-4.06808E+00-5.35565E+00
 -1      1779 2.29413E+01 4.80624E+00 1.27570E+01
 -1      1780 8.73509E+01 1.22188E+01 4.37866E+01
 -1      1781-2.67543E+01-2.27594E+01 1.25372E+01
 -1      1782-3.85591E+01-2.63240E+01 1.60014E+01
 -1      1783-4.16517E+01-2.13160E+01 1.65311E+01
 -1      1784-3.23158E+01-1.24238E+01 1.43349E+01
 -1      1785-8.49437E+00-2.42922E+00 5.11107E+00
 -1      1786 3.26848E+01 5.80930E+00-1.26572E+01
 -1      1787 1.14917E+02 9.89298E+00-4.46685E+01
 -1      1788 1.76547E-13 2.57084E-12-8.17568E-13
 -1      1789-1.62657E-14-1.30929E-12-7.83328E-13
 -1      1790 6.42798E-13-1.29836E-12 6.57252E-14
 -1      1791 3.69919E-13-1.88649E-12 1.48430E-13
 -1      1792 1.72647E-12-4.50770E-12 6.98108E-13
 -1      1793-9.14777E-14-8.37998E-13 2.16611E-13
 -1      1794-4.83734E-13 4.87661E-14-1.17240E-13
 -1      1795 9.42769E-13-3.87031E-13-7.81597E-14
 -1      1796 1.32335E-13-1.61116E-12-1.33227E-13
 -1      1797 2.30926E-13 2.66454E-15 1.67708E-13
 -1      1798-5.08924E-16 7.74709E-13-3.73035E-14
 -1      1799 9.41496E-14 7.10092E-13-1.27666E-13
 -1      1800 1.08814E-13-1.51824E-13 2.46025E-13
 -1      1801 2.84064E-13-4.30683E-13-1.13687E-13
 -1      1802 6.88291E-15 2.16196E-13 6.97326E-14
 -1      1803-1.44329E-14-6.80705E-14-3.55271E-15
 -1      1804-2.09832E-14 1.76525E-14 1.44764E-14
 -1      1805 1.28523E-14 6.84210E-14 4.17444E-14
 -1      1806-8.20809E-15 2.36226E-14 4.44089E-16
 -1      1807-2.74159E-13 2.07840E-12 3.04645E-13
 -1      1808 4.99600E-16 8.11991E-13 1.19016E-13
 -1      1809 1.95054E-12 5.55556E+01-2.88791E-12
 -1      1810-3.57090E-12 5.55556E+01 1.45883E-13
 -1      1811-3.96850E-13 5.55556E+01-2.38741E-14
 -1      1812-4.30933E-13 5.55556E+01-2.46025E-13
 -1      1813 1.19860E-12 5.55556E+01-1.88800E-13
 -1      1814-2.21905E-13 3.21132E-14 3.37508E-14
 -1      1815-1.20194E-12 2.98837E-13-1.74971E-13
 -1      1816-2.41328E-13-2.71339E-13-6.92779E-14
 -1      1817-2.40300E-13 9.58007E-13-6.88666E-15
 -1      1818 2.55115E-13-1.12655E-14 1.70086E-13
 -1      1819-2.05370E-12 1.20705E-12-1.41220E-13
 -1      1820-6.38799E-13 8.11773E-13 2.08722E-13
 -1      1821 1.00897E-12-8.47431E-13-1.37668E-13
 -1      1822 1.31221E-12-1.39175E-12 6.63913E-13
 -1      1823 3.29737E-13 1.71972E-12 7.21696E-13
 -1      1824 3.33858E-13 1.15557E-12-1.71418E-13
 -1      1825-2.55175E-12 6.02465E-12 8.11795E-13
 -1      1826-3.43700E-12-4.99792E-12-6.14175E-13
 -1      1827-2.41740E-12 1.50936E-12 1.41753E-12
 -1      1828-4.26867E-12 3.31723E-12 8.67750E-13
 -1      1829 3.28796E-13-3.21266E-12-7.26308E-13
 -1      1830 6.96587E-14 1.29869E-13-2.48485E-14
 -1      1831-5.58225E+01-4.56920E+01 1.79405E-02
 -1      1832-8.08408E+01-4.81457E+01-4.91572E-02
 -1      1833-7.51435E+01-5.16161E+01 4.10605E-02
 -1      1834-7.81369E+01-3.52613E+01-4.74345E-02
 -1      1835-8.31706E+01-4.34012E+01 1.49582E-02
 -1      1836-4.86079E+01-1.66391E+01 3.11947E-02
 -1      1837-6.75004E+01-2.61920E+01 7.23704E-02
 -1      1838 1.21369E+01 2.03060E+00-2.85539E-02
 -1      1839-2.29013E+01-6.85317E+00-1.06870E-02
 -1      1840 1.16336E+02 1.19707E+01-1.90114E-01
 -1      1841 5.61646E+01 9.23194E+00-5.91774E-03
 -1      1842 2.07037E+02 1.37017E+01 7.78458E-02
 -1      1843-6.57427E+01-4.95976E+01 4.55046E-02
 -1      1844-3.64681E-13-2.89796E-12-5.21594E+01
 -1      1845 2.47496E-13 1.41501E-12-3.58801E+01
 -1      1846-1.44801E-13-6.40529E-14-6.42897E+01
 -1      1847 4.84050E-13-8.79670E-13-6.82595E+01
 -1      1848 2.05357E-13-7.49093E-13-6.75202E+01
 -1      1849-1.20629E-13 9.88792E-16-6.55170E+01
 -1      1850 1.96843E-13 2.70881E-13-6.13480E+01
 -1      1851-1.06708E-13 7.73426E-15-6.45758E+01
 -1      1852-7.52731E-14-1.92016E-13-3.71658E+01
 -1      1853-5.59483E-14-8.94883E-14-4.22349E+01
 -1      1854 1.04086E-14-3.45540E-14-2.73162E+01
 -1      1855 4.18502E-16-3.87381E-14-3.14996E+01
 -1      1856 1.93608E-14 2.58083E-14-2.83253E+01
 -1      1857-1.01273E-14 3.81015E-14-2.68983E+00
 -1      1858 1.45798E-14-8.37524E-15-1.93945E+01
 -1      1859 2.56462E-14 8.02136E-15 9.30726E+01
 -1      1860 5.90500E-15 1.72841E-14 6.06189E+01
 -1      1861-5.22429E-14 1.93331E-13 7.31027E+01
 -1      1862 1.07507E-12 1.37854E-13 5.74417E+01
 -1      1863-7.11740E-14-2.89680E-13 5.90828E+01
 -1      1864 1.16141E-12 6.10471E-13 4.90038E+01
 -1      1865-7.53911E-13-5.85776E-13 5.05783E+01
 -1      1866-1.04469E-12-1.10317E-12 3.11408E+01
 -1      1867-9.07428E-13 2.85152E-12 3.79889E+01
 -1      1868-4.61906E-12 3.20985E-12-4.58024E+00
 -1      1869 1.92733E-12 1.55055E-12-2.80632E+01
 -1      1870-6.47399E-15 1.14700E-14-2.96297E+01
 -1      1871 5.87586E-14-4.96270E-14-2.94935E+01
 -1      1872 9.32454E-14-9.13377E-14-3.22909E+01
 -1      1873 1.53454E-14 4.67499E-14-2.96254E+01
 -1      1874-6.30093E-13 4.28904E-12-2.02401E+01
 -1      1875 1.45597E-12 6.26235E-14 1.30333E+01
 -1      1876-4.65905E-13 1.13885E-12-6.97275E+01
 -1      1877 1.56652E-13-1.87378E-12-6.56082E+01
 -1      1878-4.61679E-14 1.26120E-12-6.33713E+01
 -1      1879-4.34359E-13-6.63285E-13-6.38379E+01
 -1      1880 2.73613E-13-8.28413E-13-6.72094E+01
 -1      1881 1.38240E-14-3.74227E-13-6.75022E+01
 -1      1882-1.77526E-13 1.14360E-13-4.94232E+01
 -1      1883-5.29715E-14-1.17382E-13-5.67687E+01
 -1      1884 7.79236E-13-1.57645E-12-4.53650E+01
 -1      1885 7.11764E-13-3.96239E-13-2.57381E+01
 -1      1886-2.33284E-13-6.25888E-14 2.37282E+01
 -1      1887 1.91639E-14 2.75266E-14-3.30867E+01
 -1      1888 6.96058E-15-9.68739E-14-3.54816E+01
 -1      1889 1.32359E-14-7.11237E-16 3.40016E+01
 -1      1890 1.46688E-14 8.46545E-16 1.45356E+01
 -1      1891 6.32827E-15 3.98848E-14 5.98800E+01
 -1      1892 5.16948E-15-1.70641E-13 6.56871E+01
 -1      1893 7.66968E-13 7.37905E-13 5.28556E+01
 -1      1894-3.68344E-13-8.01980E-13 5.47785E+01
 -1      1895 2.54281E-12-9.55021E-13 4.28384E+01
 -1      1896 5.37181E-13-3.79266E-13 4.64537E+01
 -1      1897 8.05108E-13-3.54601E-12-3.52873E+01
 -1      1898 1.27126E-13-1.79854E-13-3.25932E+01
 -1      1899-5.17057E-13 1.66218E-13-4.88238E+01
 -1      1900 1.00005E-12 2.17902E-12-1.63365E+01
 -1      1901 1.47997E-12 3.75568E-12 6.54073E+00
 -1      1902 4.21652E-14 2.62042E-14-2.84598E+01
 -1      1903-4.67518E-13 1.05236E-12-4.47606E+01
 -1      1904 8.32085E-13-2.20496E-14-5.24284E+01
 -1      1905-5.83401E-13 1.97252E-13-4.97337E+01
 -1      1906-7.09155E-15-9.75262E-15 4.33150E+00
 -1      1907 1.42750E-13 1.64178E-13 4.96002E+01
 -1      1908 1.94560E-13-6.26525E-13 2.91904E+01
 -1      1909-4.13209E-14-1.56811E-12-5.25023E+01
 -1      1910-1.72876E-13-5.59119E-14-4.44947E+01
 -1      1911 1.14101E-12 1.88173E-13 3.51960E+01
 -1      1912-1.71558E-13-8.09368E-13 1.91528E+01
 -1      1913 6.61647E-13-5.47639E-13 4.80334E+01
 -1      1914 1.59369E-14 9.16281E-15 3.63566E+01
 -1      1915-1.32336E-14-3.36094E-14-2.81058E+01
 -1      1916-5.66946E-13 1.87009E-13 4.10622E+01
 -1      1917-1.03958E-12-1.87121E-13-1.26098E+01
 -1      1918 2.73045E-14 8.53389E-13-3.77677E+01
 -1      1919 1.42458E-14-6.49613E-13-3.65686E+01
 -1      1920-2.45885E-13 1.39930E-13-4.21513E+01
 -1      1921-1.59832E-13 3.00140E-13-4.02761E+01
 -1      1922 4.43118E-14-7.72923E-14 8.90762E+00
 -1      1923 6.65093E-15 9.12759E-14-5.43770E+00
 -1      1924-3.43753E-13-3.37031E-13 1.80801E+01
 -1      1925-8.34715E-14 1.66352E-12 2.11208E+01
 -1      1926-2.57641E-13-1.41414E-12-2.54582E+01
 -1      1927-1.20415E-12 1.32689E-12-1.81289E+01
 -1      1928 2.14943E-13 9.43845E-13-3.50489E+01
 -1      1929-5.61853E-13-1.15846E-13-3.21701E+01
 -1      1930-1.50930E-13 9.45583E-13-2.07651E+01
 -1      1931 3.14243E-13-7.74086E-13-2.92486E+01
 -1      1932 6.57199E-13-9.81105E-13-2.71654E+01
 -1      1933-3.17914E-13 1.97257E-12-1.25522E+01
 -1      1934 2.44875E-13-1.51625E-12-1.77364E+01
 -1      1935-4.42973E-13-7.98137E-13 2.41094E+01
 -1      1936 5.91353E-13-6.79335E-13 2.81137E+01
 -1      1937-4.89707E-13 1.79488E-13 7.79275E+00
 -1      1938-3.95899E-14 2.98992E-13-2.11288E+01
 -1      1939-6.45387E-14-3.21174E-13-3.52316E+01
 -1      1940 1.11265E-12 3.24991E-12 7.62242E+00
 -1      1941-1.34441E-13 1.57564E-12 1.39266E+01
 -1      1942-1.18893E-12 2.83977E-12-9.04128E+00
 -1      1943 7.40840E-14-5.36281E-14 3.46518E+01
 -1      1944-4.09908E-14-6.03920E-14 2.14774E+01
 -1      1945 2.43642E-14-1.32117E-13 1.26648E+01
 -1      1946 4.68237E-14 8.28365E-14 3.38648E+01
 -1      1947-2.08692E-13-9.61319E-14-1.51942E+00
 -1      1948-1.57446E-13-1.19044E-13-3.95866E+01
 -1      1949 2.81160E-13 1.27011E-12-3.87124E+01
 -1      1950-1.59494E-14 4.46369E-13-2.73302E+01
 -1      1951-9.54705E-15-5.45366E-13 3.21568E+01
 -1      1952 1.05714E-13 1.69198E-13 3.37260E+01
 -1      1953 2.04334E-13 3.11921E-13 1.94897E+01
 -1      1954 1.40957E-13-3.58664E-13 1.25019E+01
 -1      1955-9.15077E-14-5.79775E-14-3.23077E+01
 -1      1956-1.56644E-13-1.13328E-13-3.22263E+01
 -1      1957 3.24768E-13-1.30974E-12-2.39548E+01
 -1      1958-9.14997E-14 1.54767E-13-1.57718E+01
 -1      1959-5.64462E-14-2.45994E-13-4.34642E+01
 -1      1960-1.47257E-13 1.00753E-13-3.89976E+01
 -1      1961-4.93098E-13-4.19431E-13 1.77513E+00
 -1      1962 1.34424E-13-1.25901E-13-1.24212E+01
 -1      1963-5.37209E-14-4.17513E-14 4.47986E+00
 -1      1964-4.89365E-14 4.86942E-13-8.14861E+00
 -1      1965-3.16994E-13-8.04327E-13-6.53855E+00
 -1      1966-2.34176E-13-9.96694E-14-6.28453E+00
 -1      1967 2.61706E-13-9.29349E-13-5.59085E+00
 -1      1968-7.60724E-14 9.03765E-14-6.03533E+00
 -1      1969 9.86408E-13 2.20751E-13-7.61763E+00
 -1      1970 1.52049E-15 8.04912E-15 2.76299E+01
 -1      1971-3.74700E-15-9.63118E-15 3.82295E+01
 -1      1972 1.10710E-14-4.15987E-14 3.42819E+01
 -1      1973 2.38156E-13 7.07039E-13 6.29711E+01
 -1      1974 5.27356E-16 5.19092E-13 5.67773E+01
 -1      1975-2.33055E-13 2.41553E-13 6.77246E+01
 -1      1976-2.55249E-13-1.29658E-12 6.68919E+01
 -1      1977 4.36415E-13 6.64330E-13 6.90588E+01
 -1      1978 2.54442E-13-2.46293E-13 6.87890E+01
 -1      1979 7.93483E-13 3.69323E-15 3.51023E+01
 -1      1980-4.53138E-13 4.17152E-13 4.89911E+01
 -1      1981-3.34288E-13 1.77983E-12 2.81637E+01
 -1      1982-1.71136E-12-9.56363E-13 4.79238E+00
 -1      1983-5.14706E-13-1.23363E-12-2.53631E+01
 -1      1984 2.86174E-12 5.26024E-13-1.26094E+01
 -1      1985 6.07951E-14-7.41305E-13-3.97287E+01
 -1      1986 2.27279E-12-1.57417E-12-3.85431E+01
 -1      1987-4.03143E-13-6.92127E-13-5.86051E+01
 -1      1988 4.73951E-13 6.23945E-13-5.54254E+01
 -1      1989-9.38416E-14-1.02501E-13-6.66707E+01
 -1      1990-5.03121E-13 2.60430E-14-6.14613E+01
 -1      1991 4.94049E-14-3.46945E-15-9.24081E+01
 -1      1992-1.27232E-13 1.88270E-13-7.50374E+01
 -1      1993 3.27988E-13-1.31770E-14-5.03271E+01
 -1      1994-1.49394E-14-1.31319E-14-6.15003E+01
 -1      1995 1.29757E-15-1.67163E-14 1.52518E+01
 -1      1996 1.09011E-14-6.85216E-15 2.34925E+00
 -1      1997 4.46691E-15 1.38223E-14 3.17890E+01
 -1      1998 1.59230E-14 2.32800E-15 3.16961E+01
 -1      1999 1.24031E-14 2.88995E-14 3.00669E+01
 -1      2000 4.26742E-16 2.51604E-14 3.18788E+01
 -1      2001 1.99563E-14-2.05114E-14 3.18593E+01
 -1      2002 1.01889E-14-6.41142E-14 3.00395E+01
 -1      2003 2.62679E-13 1.46133E-12 1.99473E+01
 -1      2004-6.91860E-14-3.53710E-14 4.37888E+01
 -1      2005-4.32007E-14 6.97532E-14 3.53698E+01
 -1      2006 5.82659E-14-1.61806E-13 4.94254E+01
 -1      2007 4.56527E-14 5.12940E-14 3.14581E+01
 -1      2008-3.49365E-13 2.30957E-13 4.77515E+01
 -1      2009-1.47393E-13 2.26659E-13 6.66832E+01
 -1      2010-5.19409E-13-2.85870E-13 6.61816E+01
 -1      2011 5.24921E-14 6.47880E-13 6.88805E+01
 -1      2012 1.37655E-14 2.16507E-13 6.87572E+01
 -1      2013-1.68110E-13 2.41662E-12 5.81423E+01
 -1      2014-2.61169E-13 1.00712E-12 6.45735E+01
 -1      2015 1.32254E-12 1.05127E-12 2.57590E+01
 -1      2016-2.92349E-13-4.60661E-12-3.38986E+01
 -1      2017 1.60345E-12 2.67677E-13-6.81922E+00
 -1      2018-6.29666E-13 1.65364E-13-3.78231E+01
 -1      2019 3.17917E-12-4.24903E-12-2.13949E+01
 -1      2020-6.49411E-13 3.26784E-13-5.20326E+01
 -1      2021-2.84584E-13-1.60575E-12-4.55846E+01
 -1      2022-2.24234E-13-1.52053E-13-6.08199E+01
 -1      2023 8.61367E-13 2.65364E-13-6.05407E+01
 -1      2024-3.17259E-15-1.05454E-14-1.43628E+01
 -1      2025-1.12688E-14 8.29892E-15-3.40137E+01
 -1      2026-1.82103E-14 6.01602E-15 2.93600E+01
 -1      2027-1.70428E-14-5.41234E-15 2.38727E+01
 -1      2028 9.81437E-14-2.52645E-14 2.79555E+01
 -1      2029-1.64456E-13 8.48460E-13 5.23214E+01
 -1      2030 1.19370E-13 1.73081E-13 4.91617E+01
 -1      2031-1.25867E-12 1.67502E-12 4.48245E+01
 -1      2032 3.86570E-13 1.00990E-12-4.20555E+01
 -1      2033-4.67629E-14-1.09826E-13 2.14466E+01
 -1      2034 2.73601E-14 3.69565E-14-3.62336E+01
 -1      2035 1.46749E-12 4.34038E-12 3.56481E+01
 -1      2036-2.02720E-14 3.96384E-13 5.18320E+01
 -1      2037 1.06889E-13-2.19331E-13 5.21842E+01
 -1      2038-1.39822E-12-4.10771E-12 1.75335E+01
 -1      2039-3.51334E-14-1.78284E-12-2.72093E+01
 -1      2040-1.32894E-13-2.07660E-13-4.86285E+01
 -1      2041-5.32257E-14-1.36865E-12-3.66943E+01
 -1      2042 3.38141E-15 2.02555E-14-4.49276E+00
 -1      2043-1.42269E-13 1.22034E-13 3.25118E+01
 -1      2044 9.84456E-13-1.81128E-12 1.52545E+01
 -1      2045-4.76914E-13 2.12590E-14 2.20516E+01
 -1      2046-7.36216E-14-2.53898E-13 2.62592E+01
 -1      2047-1.67467E-13 3.65281E-14 3.58068E+01
 -1      2048-2.90772E-13 1.08520E-13 3.81972E+01
 -1      2049 4.91263E-13-4.20602E-13-2.74350E+01
 -1      2050-4.03236E-13-9.07392E-13-2.36427E+01
 -1      2051 3.38478E-13-1.49495E-12 3.05323E+01
 -1      2052-2.37429E-13 5.07890E-13 3.23971E+01
 -1      2053-7.97333E-13 1.54643E-12 6.12005E+00
 -1      2054-9.50887E-13-4.14078E-14-1.39708E+01
 -1      2055 6.58088E-13 2.22443E-12-1.44926E+01
 -1      2056-3.18045E-13-2.04198E-12-1.42088E+00
 -1      2057 7.61378E-14-8.27736E-14 6.03926E+00
 -1      2058-1.37477E-14 3.97098E-14-8.54190E+00
 -1      2059 7.89854E-14-6.05346E-13-1.93526E+01
 -1      2060-2.61169E-13-5.56561E-13-1.58900E+01
 -1      2061 2.34447E-12-2.96978E-12 1.77539E+01
 -1      2062 1.05312E-14-1.02385E-13-3.50431E+01
 -1      2063-1.63917E-13-2.54387E-13-3.38013E+01
 -1      2064 4.66287E-14 1.46567E-14-2.16540E+01
 -1      2065-1.62160E-13 4.88046E-13 3.93633E+01
 -1      2066 4.19132E-13 6.36415E-13 4.16316E+01
 -1      2067 3.10238E-14-1.29483E-12 2.49543E+01
 -1      2068 3.37857E-13 2.52195E-12 3.28428E+01
 -1      2069 3.21639E-14-3.06696E-13 3.30846E+01
 -1      2070 8.67409E-14 9.01467E-13 1.64796E+01
 -1      2071 4.02882E-13-7.41738E-13 2.05004E+01
 -1      2072-3.49677E-14-1.02255E-13-3.36560E+01
 -1      2073-3.31520E-13 1.80106E-13-3.20107E+01
 -1      2074 1.04761E-13-7.97278E-13-1.11920E+01
 -1      2075 1.22037E-13-4.70447E-13-1.93416E+01
 -1      2076 2.23302E-14 1.10946E-13 2.66760E+01
 -1      2077-1.15992E-14 1.67579E-13 2.06041E+01
 -1      2078-4.49380E-15-2.19571E-13-1.22723E+01
 -1      2079-6.64985E-14 8.38995E-14 3.04279E+01
 -1      2080-3.83209E-14 1.78848E-13 3.06545E+01
 -1      2081-6.34354E-14 7.17955E-13 4.29899E+01
 -1      2082 1.22081E-15-5.13030E-14 2.72343E+01
 -1      2083 1.29204E-14-1.45464E-13 2.67138E+01
 -1      2084 5.33397E-14-4.25496E-14 2.96025E+01
 -1      2085-4.61046E-15-7.11672E-14 2.94341E+01
 -1      2086-7.80398E-14 2.94535E-13 1.83132E+01
 -1      2087 1.96732E-13-1.14416E-13 3.85362E+01
 -1      2088 5.75748E-13-1.56861E-12 9.31490E+00
 -1      2089-1.54250E-13 1.74378E-13 7.30819E+00
 -1      2090 3.32685E-14-5.98657E-13-2.80574E+00
 -1      2091-1.42880E-14-4.09703E-13 7.43258E+00
 -1      2092 8.40951E-15-9.04884E-14 3.25829E+01
 -1      2093-4.50336E-14 3.21888E-13 1.43574E+01
 -1      2094-1.36916E-13 3.92228E-13 9.46171E+00
 -1      2095 2.00916E-14-1.22265E-13-3.73881E+00
 -1      2096 5.37021E-12 1.99619E-12-2.58904E-13
 -1      2097-1.48077E-12-1.31213E-12-4.40203E-13
 -1      2098-1.48184E-12 1.13021E-11 2.73093E-12
 -1      2099-1.00569E-12-9.35060E-13 3.26850E-13
 -1      2100 8.92862E-13 1.48387E-12 9.05942E-14
 -1      2101 3.80113E-14 2.99297E-12-1.59650E-13
 -1      2102-1.45006E-13 1.42982E-12 5.00933E-13
 -1      2103-5.02515E-14-5.69146E-13 2.65565E-13
 -1      2104 1.01266E-12-1.28494E-12 1.91847E-13
 -1      2105 9.95639E-13 1.26800E-12-3.99680E-14
 -1      2106-9.31548E-13-5.04159E-13 1.30562E-13
 -1      2107-3.50073E-12 3.25196E-12-2.04352E-12
 -1      2108 1.44658E-12 4.77431E-12 6.23945E-13
 -1      2109 1.22063E-12 7.28717E-12 8.27782E-13
 -1      2110-1.76292E-12-7.39050E-12-5.50671E-14
 -1      2111 5.35856E-14-1.93214E-14 7.10543E-15
 -1      2112-2.26782E-14-5.69002E-15 8.96954E-15
 -1      2113 5.69510E-15-1.01932E-14-1.04361E-14
 -1      2114 1.82786E-14 1.61424E-13-3.18582E-15
 -1      2115 1.79540E-14-1.18464E-14-2.89213E-14
 -1      2116 1.89328E-14 2.29261E-14-2.88658E-15
 -1      2117-6.34877E-13-9.88737E-13 4.71497E-13
 -1      2118-5.91633E-13 4.93220E-13-2.92877E-13
 -1      2119 4.72656E-13 2.14604E-12-8.04912E-13
 -1      2120-9.97156E-13 1.68885E-12-7.63389E-13
 -1      2121-1.72998E-12-9.74242E-13 1.07558E-12
 -1      2122 1.93579E-12 5.10356E-15 2.89546E-13
 -1      2123-8.76773E-15 1.40327E-14-4.66294E-15
 -1      2124 7.38637E-14 1.83411E-14 2.66454E-15
 -1      2125-4.19716E-14-1.70818E-13 1.55431E-14
 -1      2126 5.49287E-14 1.68138E-14-2.30926E-14
 -1      2127 5.96051E-15 3.96697E-14 2.30926E-14
 -1      2128-1.97349E-13-6.55738E-12 1.38534E-12
 -1      2129 2.06127E-14-5.01509E-12-1.99325E-12
 -1      2130 4.54854E-12-1.65713E-12-1.09113E-12
 -1      2131 3.04201E-13-5.21045E-13 4.17444E-14
 -1      2132-1.91496E-14-1.55279E-14-9.12603E-14
 -1      2133-7.64647E-14 2.61455E-13 2.79776E-14
 -1      2134-1.58214E-12 3.93835E-12-1.49125E-12
 -1      2135-3.13222E-14-7.12678E-13 3.91909E-13
 -1      2136-3.61348E-14-4.66717E-15 1.19904E-14
 -1      2137 4.00548E-15-8.72913E-15-2.66454E-15
 -1      2138 7.04515E-15 3.66050E-14-3.55271E-15
 -1      2139 8.64372E-14 1.26893E-14 2.44249E-15
 -1      2140-2.57185E-14-9.40692E-14 5.92582E-15
 -1      2141-5.37699E-15 8.05744E-14-9.32587E-15
 -1      2142 1.66644E-13-8.82697E-14-3.99680E-14
 -1      2143 4.85607E-14 6.09902E-13 3.15747E-13
 -1      2144 8.28781E-14 1.64118E-12-6.92779E-14
 -1      2145 1.24369E-13 8.60809E-13 1.28397E-13
 -1      2146-3.00023E-13 1.71155E-13 7.10543E-14
 -1      2147 8.91578E-14-1.25326E-12 1.98508E-13
 -1      2148-1.87485E-13-9.94442E-13-3.86677E-13
 -1      2149-1.01180E-12 2.74257E-13 2.21614E-13
 -1      2150-6.65353E-13 7.53028E-13-4.38205E-13
 -1      2151-2.08091E-15-4.85744E-13-1.33227E-14
 -1      2152 3.48123E-14 7.45379E-13-2.16271E-13
 -1      2153-6.56711E-14-5.15437E-13 1.73302E-13
 -1      2154 1.82924E-13-4.53249E-13-4.33431E-13
 -1      2155 1.33218E-12 6.60711E-12 4.17666E-13
 -1      2156 2.26951E-12-3.18853E-13-2.51799E-12
 -1      2157-6.05887E-14 8.13679E-13 1.83142E-12
 -1      2158-1.74964E-14-6.36146E-12-2.14939E-13
 -1      2159 4.92662E-14-1.34438E-12-1.34622E-12
 -1      2160 9.69894E-13-4.83780E-12-2.94875E-13
 -1      2161 3.60406E-14 3.05658E-14 2.80886E-14
 -1      2162-8.65800E-15 1.09461E-15 3.99680E-15
 -1      2163-1.65423E-14-3.30846E-14-1.00874E-15
 -1      2164-4.75132E-14-1.16577E-13 5.63438E-15
 -1      2165 2.62746E-15-1.38687E-14 1.16573E-15
 -1      2166-6.34215E-15 1.33465E-14 6.66134E-15
 -1      2167-3.75250E-14 2.87330E-15 1.77636E-15
 -1      2168 1.59180E-13-2.32081E-13 5.06262E-14
 -1      2169-9.46821E-14-5.36407E-14 1.83187E-15
 -1      2170 2.34587E-14-1.34476E-14 1.50990E-14
 -1      2171-1.38973E-12-7.38264E-13 2.30926E-14
 -1      2172-1.79176E-12-1.56627E-12-3.54383E-13
 -1      2173 1.30485E-12-9.34837E-13-1.59428E-13
 -1      2174-1.61010E-13 1.14505E-13-4.44089E-14
 -1      2175-2.96881E-14-3.11418E-13 8.34888E-14
 -1      2176-1.63626E-14-1.58045E-13-4.87110E-15
 -1      2177 6.08368E-15 1.88217E-15-2.79776E-14
 -1      2178-7.78128E-14 6.24865E-14-1.13687E-13
 -1      2179-2.00014E-13 2.37965E-12 5.27356E-14
 -1      2180 1.62761E-12 2.79523E-13 5.53113E-13
 -1      2181-3.75893E-13-1.03895E-12-8.17346E-13
 -1      2182 5.87783E-13-1.89961E-12 1.85629E-13
 -1      2183-4.21407E-13-2.07469E-12-2.48401E-12
 -1      2184 1.19277E-13-2.11700E-13-3.68594E-13
 -1      2185-3.98952E-14-2.31551E-14-2.90745E-15
 -1      2186 3.94692E-14 4.64946E-14-8.43769E-15
 -1      2187-1.60245E-15-1.15437E-14-6.55032E-15
 -1      2188 2.99760E-15 7.72068E-14 1.19904E-14
 -1      2189-2.53314E-14 7.06422E-14 5.53550E-15
 -1      2190 4.84492E-14-6.63998E-13-2.53575E-13
 -1      2191 4.89331E-14 2.21170E-13 1.96398E-13
 -1      2192-1.43255E-13-3.71318E-15 2.22045E-14
 -1      2193 3.42327E-13 2.03773E-13-9.63674E-14
 -1      2194 1.20946E-12-1.61243E-15-2.60236E-13
 -1      2195-5.26161E-13 3.58676E-12 1.06026E-13
 -1      2196 5.06375E-13 2.64321E-12 6.54005E-13
 -1      2197-4.18913E-13-4.38992E-12 1.03206E-12
 -1      2198 1.19918E-13-2.35909E-13-8.88178E-15
 -1      2199-2.59499E-14-6.59888E-14-1.23679E-13
 -1      2200 2.26364E-14-6.39887E-14-9.30367E-14
 -1      2201 1.14780E-13 3.39475E-13-4.70735E-14
 -1      2202 1.43052E-13-1.31955E-13-8.94840E-14
 -1      2203-7.10806E-13-2.03214E-12 3.62155E-13
 -1      2204-3.45839E-12-3.82401E-12 5.06262E-14
 -1      2205 2.67993E-14-1.75206E-12 5.29354E-13
 -1      2206 3.66799E-13 3.68780E-12-7.42073E-13
 -1      2207-9.81489E-14-1.93456E-12-9.98979E-13
 -1      2208-1.07833E-13-2.11187E-12 9.50351E-14
 -1      2209 5.97541E-13 2.71447E-13 1.67172E-13
 -1      2210 1.64062E-12-3.38876E-12-9.20375E-13
 -1      2211 1.38036E-12 1.55129E-12 8.31557E-13
 -1      2212-8.18096E-13 3.59573E-13-1.26121E-13
 -1      2213-1.60435E-13 1.53750E-12 1.23374E-13
 -1      2214 4.35504E-14-2.18381E-12 3.81917E-13
 -1      2215-2.15366E-15-1.43456E-13-3.86358E-14
 -1      2216-3.88244E-13 1.60121E-13 1.59872E-13
 -1      2217-1.41213E-12 4.66717E-12-7.27890E-15
 -1      2218-2.38948E-13-3.26600E-13-1.09246E-13
 -1      2219 4.43163E-13-3.75497E-13 6.88338E-14
 -1      2220 3.21321E-13 5.06071E-13 2.26555E-14
 -1      2221-1.44719E-14 7.17532E-13 1.79412E-13
 -1      2222 3.90530E-16-2.91851E-13 1.44329E-14
 -1      2223-2.05721E-13-7.66552E-13-4.19387E-14
 -1      2224-1.09556E-13-5.62430E-13-8.50875E-13
 -1      2225-9.54627E-14 3.92767E-13 1.35891E-13
 -1      2226-4.05203E-13-1.90330E-13-1.09246E-13
 -1      2227 7.29208E-14-8.97754E-14-1.95399E-14
 -1      2228-6.39129E-13-2.35887E-12-1.08802E-14
 -1      2229 2.15108E-13 2.36193E-12 4.77396E-14
 -1      2230-4.89524E-13 9.02300E-13 4.75120E-13
 -1      2231 1.26670E-14-7.04367E-14 1.01030E-14
 -1      2232 1.07867E-13 3.93473E-13-2.23821E-13
 -1      2233-4.49919E-14 3.40320E-14-1.12688E-14
 -1      2234-9.10036E-15-1.12410E-14-4.26326E-14
 -1      2235-8.44520E-14-3.58099E-14-1.73195E-14
 -1      2236-2.57209E-12 2.13356E-12 1.70242E-12
 -1      2237-1.68443E-12-3.07177E-13-8.34888E-14
 -1      2238 9.74623E-13 2.02279E-12 4.61853E-14
 -1      2239 1.37461E-13 7.14086E-13 1.69517E-13
 -1      2240-6.18601E-13-1.73283E-12 1.45998E-13
 -1      2241-1.52714E-12 8.71385E-13 2.68230E-13
 -1      2242 2.91884E-12 5.38978E-13-7.79932E-14
 -1      2243-6.21878E-13-3.11761E-13 2.61124E-13
 -1      2244 6.59982E-14 2.84272E-12-2.86882E-13
 -1      2245 2.28715E-14 3.28531E-14 2.37588E-14
 -1      2246 3.17801E-15-6.84799E-14 6.48370E-14
 -1      2247-2.81548E-13-1.47708E-13-2.59792E-14
 -1      2248-3.09424E-13-7.63850E-13-4.99045E-14
 -1      2249 4.90004E-13-1.45654E-12-1.17240E-13
 -1      2250 4.23400E-13-1.33343E-13-5.77316E-14
 -1      2251-2.77153E-13 5.71586E-13 1.56541E-13
 -1      2252 1.28279E-13 4.08562E-14-3.33067E-15
 -1      2253 1.94315E-14-1.09529E-13 5.44009E-14
 -1      2254-9.03583E-14-2.78645E-13 9.05942E-14
 -1      2255 2.57849E-14 5.19862E-14 1.06581E-14
 -1      2256 2.13129E-13 1.01000E-13-4.56961E-14
 -1      2257 1.40254E-12-2.71634E-12 7.76712E-13
 -1      2258-2.23225E-13-9.85540E-13 1.33434E-12
 -1      2259 1.61989E-12-2.39310E-12-1.77858E-13
 -1      2260 9.48962E-13-8.47180E-14-3.21521E-13
 -1      2261 8.26132E-13-1.03249E-12 1.20792E-13
 -1      2262-2.36423E-13 6.68694E-13-3.27516E-13
 -1      2263 9.74315E-13 7.77748E-13 3.43850E-13
 -1      2264-4.12377E-13 1.38890E-12 3.66818E-13
 -1      2265-3.63772E-15-1.46393E-14 4.44089E-16
 -1      2266-3.65313E-13 4.35495E-13-1.48163E-13
 -1      2267-9.35434E-13-2.89092E-13-1.86517E-13
 -1      2268-6.88156E-13 2.40829E-12-5.52447E-13
 -1      2269 7.43605E-13 8.25035E-13-1.55768E-13
 -1      2270 6.88278E-14 2.27596E-14-1.64313E-13
 -1      2271-1.48375E-13 1.00843E-13-1.06581E-14
 -1      2272-3.52149E-14 2.45116E-13-2.26485E-14
 -1      2273-1.37637E-13 5.19697E-14-1.59872E-14
 -1      2274 1.08834E-14-6.77646E-14-6.44276E-15
 -1      2275-3.98813E-14 3.22832E-15 1.99840E-14
 -1      2276 3.42260E-14-4.08571E-15-1.08802E-14
 -1      2277-7.80728E-13-1.08726E-12-4.39149E-13
 -1      2278-2.29448E-13-7.23185E-13 4.08562E-14
 -1      2279 3.76773E-13-3.38570E-13 1.30118E-13
 -1      2280-5.07372E-14 3.18450E-13 1.46549E-13
 -1      2281 3.90763E-12-3.98254E-12-1.32061E-12
 -1      2282 4.07992E-13 3.69697E-13-3.01981E-13
 -1      2283-1.01932E-13-6.45421E-14-1.44773E-13
 -1      2284-4.21220E-13 2.23541E-12 1.99840E-14
 -1      2285-3.62377E-13 1.56319E-13 2.04446E-13
 -1      2286-1.55555E-13 4.48290E-13 6.26166E-14
 -1      2287 7.81301E-13-1.48079E-12-4.81316E-14
 -1      2288-8.13637E-14-4.74422E-12 5.28022E-13
 -1      2289 1.96989E-12 3.68354E-12-4.28546E-13
 -1      2290 1.07787E-12 2.47656E-13 3.35731E-12
 -1      2291-1.03691E-13 4.90476E-14-3.10862E-15
 -1      2292-4.05981E-13-1.14300E-13-8.26006E-14
 -1      2293-1.04416E-13 9.01876E-13-6.66134E-14
 -1      2294-2.82647E-13 1.73721E-12 2.50466E-13
 -1      2295 3.93695E-14 7.79372E-13-1.39666E-13
 -1      2296 4.57689E-13-1.23734E-12-3.10862E-15
 -1      2297 3.13222E-13-1.67963E-12-1.87406E-13
 -1      2298 2.55169E-12-2.95116E-13 1.64313E-13
 -1      2299 4.84224E-13 1.25816E-13 1.35891E-13
 -1      2300 6.62412E-13-8.89606E-13 8.13571E-13
 -1      2301 1.62423E-12 5.72374E-13 2.35145E-13
 -1      2302 8.75306E-13-1.77037E-13-1.76581E-13
 -1      2303-1.10979E-12 2.01051E-13-3.18912E-13
 -1      2304 3.11322E-13 5.11482E-12-3.43614E-13
 -1      2305-4.72768E-13 1.53863E-12-4.68958E-13
 -1      2306-9.10652E-14 1.07538E-12 1.00364E-13
 -1      2307 4.82382E-13-1.16649E-12 9.36196E-14
 -1      2308-5.84324E-13-2.43680E-13-3.65930E-13
 -1      2309 5.02790E-14-2.83989E-13 8.43214E-14
 -1      2310 6.07497E-14 1.75660E-13-2.98650E-14
 -1      2311 8.16534E-15-6.77507E-14-1.78968E-13
 -1      2312 5.04685E-13-3.21406E-13-7.58352E-14
 -1      2313-5.07983E-13 2.89699E-15 3.77476E-15
 -1      2314-9.86364E-15 1.53332E-14-1.13243E-14
 -1      2315-1.36086E-14-1.52781E-14-1.55431E-15
 -1      2316-1.89280E-14-1.79852E-14-2.78666E-14
 -1      2317-2.50841E-15-6.80012E-15-1.77636E-15
 -1      2318-8.28199E-13-2.80082E-13-1.03029E-13
 -1      2319-4.93776E-13 4.90230E-13 1.07025E-13
 -1      2320 3.68938E-12-4.21829E-13 1.55913E-12
 -1      2321 3.78038E-13-3.41001E-12-4.07230E-13
 -1      2322 1.53747E-12 3.69973E-12-7.92588E-13
 -1      2323 8.54791E-14 9.51062E-14 2.78666E-14
 -1      2324 9.55069E-14-5.03070E-14-1.06581E-13
 -1      2325-2.92810E-13-8.68928E-13 5.22082E-14
 -1      2326 1.27723E-13 1.12294E-12-1.36979E-12
 -1      2327 1.06693E-12-6.09181E-13-1.06416E-13
 -1      2328 3.92528E-13 1.05820E-12-1.00098E-12
 -1      2329-2.90601E-14 2.18020E-14-1.33227E-14
 -1      2330 1.38275E-12-1.10138E-12-8.03801E-13
 -1      2331 9.21832E-15-5.61539E-14 5.32907E-15
 -1      2332 3.47526E-13 1.87764E-13-2.15827E-13
 -1      2333 6.52794E-14-1.30701E-13 6.30607E-14
 -1      2334-6.46336E-14-1.09213E-13-3.68594E-14
 -1      2335-8.96824E-13 3.96628E-12-8.84293E-14
 -1      2336 2.55575E-13-1.59955E-13 4.70735E-14
 -1      2337 1.73281E-13-3.08718E-13-6.30815E-14
 -1      2338 2.81063E-13 1.89627E-13 7.58837E-14
 -1      2339-1.58342E-13 6.17770E-13-1.95399E-14
 -1      2340 1.11341E-13-4.38052E-14 6.66134E-14
 -1      2341 7.75074E-15-6.95624E-14-6.66134E-15
 -1      2342-7.78344E-14-6.96066E-14-1.31450E-13
 -1      2343 4.89296E-13 2.69154E-13-3.99680E-14
 -1      2344-3.95295E-13-1.19725E-12 6.30607E-14
 -1      2345-7.06865E-14-2.03302E-12-1.65201E-13
 -1      2346 5.53446E-14-4.12448E-14 3.55271E-14
 -1      2347 6.57398E-13-1.96259E-12 1.13687E-13
 -1      2348 4.89843E-13-4.55638E-13-6.97220E-14
 -1      2349-1.99550E-13-4.63911E-14-4.45199E-14
 -1      2350-2.54861E-13-1.75066E-13-7.46070E-14
 -1      2351 4.86885E-13 6.52142E-13-2.49356E-13
 -1      2352 1.35110E-13 1.58923E-13 5.85599E-14
 -1      2353 4.09760E-13-6.82752E-14-1.47604E-13
 -1      2354 1.88424E-13 5.62233E-13 3.44169E-13
 -1      2355-3.65441E-15 1.32025E-14 5.82867E-15
 -1      2356 6.95281E-13-1.67094E-12 1.21403E-13
 -1      2357 3.78650E-13-8.73042E-13-3.91243E-13
 -1      2358-3.85851E-13 2.57459E-13-1.62093E-13
 -1      2359-2.47500E-13 5.68868E-12-1.14131E-13
 -1      2360 1.20564E-13-1.93655E-12 7.28306E-13
 -1      2361-1.15694E-13-5.29390E-14 8.43769E-15
 -1      2362 1.20251E-13-1.64754E-12 1.23925E-12
 -1      2363-6.42712E-13 6.71566E-12-3.38091E-13
 -1      2364-1.25948E-12-3.93482E-12 5.44009E-14
 -1      2365 9.65270E-14-2.40676E-14-2.97540E-14
 -1      2366 2.72115E-14-3.24241E-13 2.02949E-13
 -1      2367-1.46668E-12-2.41619E-12-1.39089E-12
 -1      2368-1.24247E-12 2.01790E-12 2.41140E-13
 -1      2369-4.14546E-13-1.23324E-12-1.32783E-13
 -1      2370-2.15310E-12 1.52459E-13-1.08002E-12
 -1      2371 1.42652E-12-1.05456E-12 1.27103E-12
 -1      2372-1.45181E-13-3.37380E-13-2.41474E-14
 -1      2373 2.60229E-14 2.12306E-13 6.88338E-15
 -1      2374 8.07847E-13 3.03318E-12 4.67715E-12
 -1      2375-8.11677E-13-2.56985E-12-1.20615E-12
 -1      2376-2.68788E-13 2.94202E-13 1.16795E-13
 -1      2377 4.96728E-12-2.46847E-12-5.45397E-13
 -1      2378 2.75308E-12 4.58707E-12-3.91839E-12
 -1      2379 1.18016E-12 7.67753E-12-8.01137E-13
 -1      2380 1.50921E-15 1.80014E-14 1.23235E-14
 -1      2381-2.70165E-12-1.14514E-11-2.13823E-12
 -1      2382-5.40041E-14 6.27813E-14 6.43929E-15
 -1      2383 3.23986E-14 4.22353E-14-2.13163E-14
 -1      2384-4.49051E-14 7.26183E-14 4.14113E-14
 -1      2385-1.47023E-13 1.77321E-12-4.69513E-13
 -1      2386-5.61686E-14-9.36411E-13-6.66134E-14
 -1      2387 3.04608E-14 4.62080E-13 1.11133E-13
 -1      2388 6.06377E-14-2.20665E-13 3.99680E-14
 -1      2389-9.85269E-15-7.54822E-14 9.72555E-14
 -1      2390-2.86780E-14 2.48009E-13 4.08007E-15
 -1      2391 2.02495E-13 1.04961E-13-1.29029E-13
 -1      2392 8.02150E-13-1.70000E-12 1.31506E-12
 -1      2393-1.99166E-12 1.59591E-12-1.27698E-12
 -1      2394 3.12549E-13 1.23308E-11 1.62936E-12
 -1      2395 1.38370E-12 6.71073E-12 2.33458E-12
 -1      2396 4.79054E-13 3.02926E-12-2.99316E-13
 -1      2397 2.44156E-12 1.09839E-12-1.00853E-12
 -1      2398 5.00440E-13 2.32017E-12-3.44169E-13
 -1      2399-1.52440E-12 1.73847E-12 6.03517E-13
 -1      2400-2.69391E-12 2.65565E-13-1.51967E-12
 -1      2401-1.89881E-12-7.33003E-12 1.45839E-12
 -1      2402 6.12418E-12-3.75009E-12 2.82774E-13
 -1      2403-2.65875E-12 4.21938E-12 1.40898E-12
 -1      2404-1.59667E-12 1.25637E-12-1.24345E-14
 -1      2405 5.70742E-14-3.08869E-14-3.98223E-14
 -1      2406-1.17036E-13 6.31821E-14-4.10783E-14
 -1      2407 1.79754E-14 3.70147E-14-7.10543E-15
 -1      2408 1.09973E-14-9.31460E-15-1.99840E-15
 -1      2409-5.37396E-15 3.43996E-15 9.10383E-15
 -1      2410-6.02903E-14-5.33185E-14-5.32907E-15
 -1      2411-3.04956E-14 2.69849E-14 3.66374E-15
 -1      2412 3.18408E-15-6.77887E-15 1.07692E-14
 -1      2413 5.64560E-12-2.23943E-13 7.14183E-13
 -1      2414-3.86524E-12-1.67304E-13-8.49570E-13
 -1      2415-5.01536E-12 7.86621E-13 1.82965E-13
 -1      2416-4.05398E-13 8.36440E-13-3.77698E-13
 -1      2417 2.67316E-12 3.81937E-13-2.27235E-13
 -1      2418-1.48812E-12-9.81992E-14 3.32712E-12
 -1      2419 6.75098E-12-1.66064E-12-5.46823E-13
 -1      2420 8.18817E-13-5.88307E-12-1.16107E-12
 -1      2421 5.62328E-13 7.47458E-13 3.47278E-13
 -1      2422 8.41146E-13 1.76857E-12 1.41004E-12
 -1      2423 4.59150E-13 1.35214E-12 2.12119E-13
 -1      2424-2.13064E-13 6.09755E-15 4.17610E-13
 -1      2425 2.01315E-12-9.68344E-14 5.75928E-13
 -1      2426 2.75761E-12 4.76968E-12-1.76703E-12
 -1      2427 3.47011E-12 2.99109E-12 1.96351E-12
 -1      2428 2.06133E-14 2.97679E-15-1.24345E-14
 -1      2429-1.29729E-14-3.58385E-15-1.58207E-15
 -1      2430-2.06588E-14 3.26982E-13-2.09610E-13
 -1      2431-3.87537E-14-1.27914E-14 2.13163E-14
 -1      2432-9.38138E-15-1.61507E-14-4.26326E-14
 -1      2433-1.53051E-13-5.55294E-13 1.97176E-13
 -1      2434 1.71996E-13 1.98668E-12 2.87770E-13
 -1      2435 4.29294E-12-5.31021E-14-1.71008E-12
 -1      2436 6.91025E-13-1.01129E-12-1.52323E-13
 -1      2437 2.84477E-12-2.65743E-12 1.08891E-12
 -1      2438-5.69801E-13-4.03726E-12 1.29154E-13
 -1      2439 7.66763E-13 3.10063E-13-1.33338E-12
 -1      2440 8.86498E-13 5.71844E-12-2.39646E-12
 -1      2441-8.33057E-13-1.48268E-12-5.79731E-13
 -1      2442 1.42109E-14 9.41469E-14 2.69576E-14
 -1      2443 2.97701E-12-3.04751E-12 7.91811E-13
 -1      2444-4.09187E-12 1.78662E-12 2.34432E-12
 -1      2445-2.63387E-13-3.96926E-12 3.08664E-12
 -1      2446 7.27449E-13-4.67441E-12 5.86730E-13
 -1      2447 1.04775E-12-6.72377E-12-1.49702E-12
 -1      2448-8.60229E-13-4.51832E-12 5.33684E-13
 -1      2449 7.74485E-13-5.64679E-14 1.29008E-13
 -1      2450 1.81546E-13 3.74006E-14 1.42109E-13
 -1      2451 7.80105E-13-6.51863E-13-2.03393E-13
 -1      2452 1.03334E-13 7.91485E-13-2.70894E-13
 -1      2453 4.10540E-14 2.95212E-12-4.57412E-13
 -1      2454-9.64496E-14-4.37770E-14-7.14984E-14
 -1      2455 1.23788E-13-1.31211E-13-6.12843E-14
 -1      2456-3.80242E-13-3.86710E-12-4.39981E-13
 -1      2457-2.78317E-13 5.99500E-13 2.26485E-13
 -3
 9999
