    1C
    1UUSER                                                              
    1UDATE              26.march.2021                                   
    1UTIME              22:13:21                                        
    1UHOST                                                              
    1UPGM               CalculiX                                        
    1UVERSION           Version 2.17                             
    1UCOMPILETIME       Thu Jul 23 21:43:50 CEST 2020                    
    1UDIR                                                               
    1UDBN                                                               
    1UMAT    1MAT                                                       
    2C                           117                                     1
 -1        50 9.98080E+00-3.56506E-05-3.56506E-05
 -1        51 1.00008E+01 1.48544E-06 1.48544E-06
 -1        52 1.00208E+01 3.86214E-05 3.86214E-05
 -1        53 7.05749E+00-1.72823E-05 7.05749E+00
 -1        54 7.07163E+00 7.20097E-07 7.07163E+00
 -1        55 7.08578E+00 1.87225E-05 7.08578E+00
 -1        56 5.76242E+00 5.76242E+00 5.76242E+00
 -1        57 5.77396E+00 5.77396E+00 5.77396E+00
 -1        58 5.78551E+00 5.78551E+00 5.78551E+00
 -1        59 7.05749E+00 7.05749E+00-1.72823E-05
 -1        60 7.07163E+00 7.07163E+00 7.20097E-07
 -1        61 7.08578E+00 7.08578E+00 1.87225E-05
 -1        62-3.56506E-05-3.56506E-05 9.98080E+00
 -1        63 1.48544E-06 1.48544E-06 1.00008E+01
 -1        64 3.86214E-05 3.86214E-05 1.00208E+01
 -1        65-1.72823E-05 7.05749E+00 7.05749E+00
 -1        66 7.20097E-07 7.07163E+00 7.07163E+00
 -1        67 1.87225E-05 7.08578E+00 7.08578E+00
 -1        68-3.56506E-05 9.98080E+00-3.56506E-05
 -1        69 1.48544E-06 1.00008E+01 1.48544E-06
 -1        70 3.86214E-05 1.00208E+01 3.86214E-05
 -1        71 9.22106E+00-3.20000E-05 3.81949E+00
 -1        72 9.23953E+00 1.33333E-06 3.82714E+00
 -1        73 9.25801E+00 3.46666E-05 3.83479E+00
 -1        74 6.72593E+00 3.02324E+00 6.72593E+00
 -1        75 6.73941E+00 3.02930E+00 6.73941E+00
 -1        76 6.75289E+00 3.03535E+00 6.75289E+00
 -1        77 6.72593E+00 6.72593E+00 3.02324E+00
 -1        78 6.73941E+00 6.73941E+00 3.02930E+00
 -1        79 6.75289E+00 6.75289E+00 3.03535E+00
 -1        80 9.22106E+00 3.81949E+00-2.99073E-05
 -1        81 9.23953E+00 3.82714E+00 1.24614E-06
 -1        82 9.25801E+00 3.83479E+00 3.23996E-05
 -1        83 3.81949E+00-3.00904E-05 9.22106E+00
 -1        84 3.82714E+00 1.25377E-06 9.23953E+00
 -1        85 3.83479E+00 3.25979E-05 9.25801E+00
 -1        86-3.00904E-05 3.81949E+00 9.22106E+00
 -1        87 1.25377E-06 3.82714E+00 9.23953E+00
 -1        88 3.25979E-05 3.83479E+00 9.25801E+00
 -1        89 3.02324E+00 6.72593E+00 6.72593E+00
 -1        90 3.02930E+00 6.73941E+00 6.73941E+00
 -1        91 3.03535E+00 6.75289E+00 6.75289E+00
 -1        92-3.20000E-05 9.22106E+00 3.81949E+00
 -1        93 1.33333E-06 9.23953E+00 3.82714E+00
 -1        94 3.46666E-05 9.25801E+00 3.83479E+00
 -1        95 3.81949E+00 9.22106E+00-2.99073E-05
 -1        96 3.82714E+00 9.23953E+00 1.24614E-06
 -1        97 3.83479E+00 9.25801E+00 3.23996E-05
 -1        98 8.54406E+00 3.68880E+00 3.60669E+00
 -1        99 8.56118E+00 3.69619E+00 3.61392E+00
 -1       100 8.57830E+00 3.70358E+00 3.62114E+00
 -1       101 3.61659E+00 3.61659E+00 8.57070E+00
 -1       102 3.62384E+00 3.62384E+00 8.58787E+00
 -1       103 3.63109E+00 3.63109E+00 8.60505E+00
 -1       104 3.68880E+00 8.54406E+00 3.60669E+00
 -1       105 3.69619E+00 8.56118E+00 3.61392E+00
 -1       106 3.70358E+00 8.57830E+00 3.62114E+00
 -1       107 8.29873E+00-1.63601E-04 5.54504E+00
 -1       109 8.33199E+00 1.77234E-04 5.56726E+00
 -1       110 9.04413E+00 1.87795E+00 3.78067E+00
 -1       112 9.08040E+00 1.88548E+00 3.79575E+00
 -1       113 7.76748E+00 3.41429E+00 5.25597E+00
 -1       115 7.79864E+00 3.42791E+00 5.27703E+00
 -1       116 6.97411E+00 1.52969E+00 6.97411E+00
 -1       118 7.00206E+00 1.53582E+00 7.00206E+00
 -1       119 7.76136E+00 5.29356E+00 3.36986E+00
 -1       121 7.79249E+00 5.31477E+00 3.38330E+00
 -1       122 6.31883E+00 6.31883E+00 4.44535E+00
 -1       124 6.34415E+00 6.34415E+00 4.46316E+00
 -1       125 6.31883E+00 4.44535E+00 6.31883E+00
 -1       127 6.34416E+00 4.46316E+00 6.34415E+00
 -1       128 9.78902E+00-2.30095E-04 1.94716E+00
 -1       130 9.82825E+00 2.49270E-04 1.95496E+00
 -1       131 9.78902E+00 1.94716E+00-2.31190E-04
 -1       133 9.82825E+00 1.95496E+00 2.50455E-04
 -1       134 9.03676E+00 3.81935E+00 1.83465E+00
 -1       136 9.07300E+00 3.83459E+00 1.84201E+00
 -1       137 8.29873E+00 5.54504E+00-1.60924E-04
 -1       139 8.33199E+00 5.56726E+00 1.74334E-04
 -1       140 6.97411E+00 6.97411E+00 1.52969E+00
 -1       142 7.00206E+00 7.00206E+00 1.53582E+00
 -1       143 1.94716E+00-2.25961E-04 9.78902E+00
 -1       145 1.95496E+00 2.44791E-04 9.82825E+00
 -1       146 3.78292E+00 1.83984E+00 9.05102E+00
 -1       148 3.79801E+00 1.84721E+00 9.08732E+00
 -1       149 1.83984E+00 3.78292E+00 9.05102E+00
 -1       151 1.84721E+00 3.79801E+00 9.08732E+00
 -1       152-2.25961E-04 1.94716E+00 9.78902E+00
 -1       154 2.44791E-04 1.95496E+00 9.82825E+00
 -1       155 3.37732E+00 5.26063E+00 7.78048E+00
 -1       157 3.39079E+00 5.28172E+00 7.81169E+00
 -1       158 1.52969E+00 6.97411E+00 6.97411E+00
 -1       160 1.53582E+00 7.00206E+00 7.00206E+00
 -1       161-1.67172E-04 5.54504E+00 8.29873E+00
 -1       163 1.81103E-04 5.56726E+00 8.33199E+00
 -1       164 5.54504E+00-1.67172E-04 8.29873E+00
 -1       166 5.56726E+00 1.81103E-04 8.33199E+00
 -1       167 5.26063E+00 3.37732E+00 7.78048E+00
 -1       169 5.28172E+00 3.39079E+00 7.81169E+00
 -1       170 4.44535E+00 6.31883E+00 6.31883E+00
 -1       172 4.46316E+00 6.34416E+00 6.34415E+00
 -1       173 5.29356E+00 7.76136E+00 3.36986E+00
 -1       175 5.31477E+00 7.79249E+00 3.38330E+00
 -1       176 3.41429E+00 7.76748E+00 5.25597E+00
 -1       178 3.42791E+00 7.79864E+00 5.27703E+00
 -1       179 1.87795E+00 9.04413E+00 3.78067E+00
 -1       181 1.88548E+00 9.08040E+00 3.79575E+00
 -1       182-1.63601E-04 8.29873E+00 5.54504E+00
 -1       184 1.77234E-04 8.33199E+00 5.56726E+00
 -1       185 5.54504E+00 8.29873E+00-1.60924E-04
 -1       187 5.56726E+00 8.33199E+00 1.74334E-04
 -1       188 3.81935E+00 9.03676E+00 1.83465E+00
 -1       190 3.83459E+00 9.07300E+00 1.84201E+00
 -1       191 1.94716E+00 9.78902E+00-2.31190E-04
 -1       193 1.95496E+00 9.82825E+00 2.50455E-04
 -1       194-2.30095E-04 9.78902E+00 1.94716E+00
 -1       196 2.49270E-04 9.82825E+00 1.95496E+00
 -3
    3C                            12                                     1
 -1         1    4    0    1
 -2        53        71        98        74        55        73       100        76       107       110
 -2       113       116        54        72        99        75       109       112       115       118
 -1         2    4    0    1
 -2        74        98        77        56        76       100        79        58       113       119
 -2       122       125        75        99        78        57       115       121       124       127
 -1         3    4    0    1
 -2        71        50        80        98        73        52        82       100       128       131
 -2       134       110        72        51        81        99       130       133       136       112
 -1         4    4    0    1
 -2        98        80        59        77       100        82        61        79       134       137
 -2       140       119        99        81        60        78       136       139       142       121
 -1         5    4    0    1
 -2        62        83       101        86        64        85       103        88       143       146
 -2       149       152        63        84       102        87       145       148       151       154
 -1         6    4    0    1
 -2        86       101        89        65        88       103        91        67       149       155
 -2       158       161        87       102        90        66       151       157       160       163
 -1         7    4    0    1
 -2        83        53        74       101        85        55        76       103       164       116
 -2       167       146        84        54        75       102       166       118       169       148
 -1         8    4    0    1
 -2       101        74        56        89       103        76        58        91       167       125
 -2       170       155       102        75        57        90       169       127       172       157
 -1         9    4    0    1
 -2        56        77       104        89        58        79       106        91       122       173
 -2       176       170        57        78       105        90       124       175       178       172
 -1        10    4    0    1
 -2        89       104        92        65        91       106        94        67       176       179
 -2       182       158        90       105        93        66       178       181       184       160
 -1        11    4    0    1
 -2        77        59        95       104        79        61        97       106       140       185
 -2       188       173        78        60        96       105       142       187       190       175
 -1        12    4    0    1
 -2       104        95        68        92       106        97        70        94       188       191
 -2       194       179       105        96        69        93       190       193       196       181
 -3
    1PSTEP                         1           1           1          
  100CL  101 1.000000000         117                     0    1           1
 -4  DISP        4    1
 -5  D1          1    2    1    0
 -5  D2          1    2    2    0
 -5  D3          1    2    3    0
 -5  ALL         1    2    0    0    1ALL
 -1        50 4.31226E-05 1.29801E-11 2.01395E-05
 -1        51 4.31153E-05 0.00000E+00 2.03369E-05
 -1        52 4.31086E-05-1.29801E-11 2.05343E-05
 -1        53 8.17904E-06-6.77870E-13 1.01568E-05
 -1        54 8.17963E-06 0.00000E+00 1.01574E-05
 -1        55 8.18011E-06 6.77870E-13 1.01579E-05
 -1        56 3.93643E-06-3.93643E-06 3.47370E-15
 -1        57 3.89733E-06-3.89733E-06 3.48004E-15
 -1        58 3.85822E-06-3.85822E-06 3.48639E-15
 -1        59 1.52152E-05-1.52152E-05 5.19091E-15
 -1        60 1.51144E-05-1.51144E-05 5.23160E-15
 -1        61 1.50136E-05-1.50136E-05 5.27231E-15
 -1        62-3.67992E-21-3.67992E-21-1.98185E-18
 -1        63 0.00000E+00 0.00000E+00 0.00000E+00
 -1        64 3.67992E-21 3.67992E-21 1.98185E-18
 -1        65 6.77870E-13-8.17904E-06-1.01568E-05
 -1        66 0.00000E+00-8.17963E-06-1.01574E-05
 -1        67-6.77870E-13-8.18011E-06-1.01579E-05
 -1        68-1.29801E-11-4.31226E-05-2.01395E-05
 -1        69 0.00000E+00-4.31153E-05-2.03369E-05
 -1        70 1.29801E-11-4.31086E-05-2.05343E-05
 -1        71 2.07227E-05-5.95203E-12 1.71455E-05
 -1        72 2.07262E-05 0.00000E+00 1.71469E-05
 -1        73 2.07293E-05 5.95203E-12 1.71483E-05
 -1        74 6.02329E-06-8.73112E-07 6.67172E-06
 -1        75 5.98721E-06-8.34014E-07 6.69030E-06
 -1        76 5.95116E-06-7.94923E-07 6.70892E-06
 -1        77 7.99705E-06-7.99705E-06 4.38612E-15
 -1        78 7.94320E-06-7.94320E-06 4.41306E-15
 -1        79 7.88937E-06-7.88937E-06 4.43997E-15
 -1        80 3.40410E-05-2.07668E-06 1.45482E-05
 -1        81 3.40085E-05-1.99214E-06 1.46436E-05
 -1        82 3.39760E-05-1.90769E-06 1.47391E-05
 -1        83 2.19472E-06-1.62864E-13 3.45642E-06
 -1        84 2.19478E-06 0.00000E+00 3.45656E-06
 -1        85 2.19480E-06 1.62864E-13 3.45661E-06
 -1        86 1.62864E-13-2.19472E-06-3.45642E-06
 -1        87 0.00000E+00-2.19478E-06-3.45656E-06
 -1        88-1.62864E-13-2.19480E-06-3.45661E-06
 -1        89 8.73112E-07-6.02329E-06-6.67172E-06
 -1        90 8.34014E-07-5.98721E-06-6.69030E-06
 -1        91 7.94923E-07-5.95116E-06-6.70892E-06
 -1        92 5.95203E-12-2.07227E-05-1.71455E-05
 -1        93 0.00000E+00-2.07262E-05-1.71469E-05
 -1        94-5.95203E-12-2.07293E-05-1.71483E-05
 -1        95 2.07668E-06-3.40410E-05-1.45482E-05
 -1        96 1.99214E-06-3.40085E-05-1.46436E-05
 -1        97 1.90769E-06-3.39760E-05-1.47391E-05
 -1        98 1.45704E-05-1.69754E-06 1.13436E-05
 -1        99 1.45295E-05-1.63624E-06 1.13743E-05
 -1       100 1.44888E-05-1.57487E-06 1.14049E-05
 -1       101 1.39117E-06-1.39117E-06 2.71102E-15
 -1       102 1.36763E-06-1.36763E-06 2.71584E-15
 -1       103 1.34411E-06-1.34411E-06 2.72060E-15
 -1       104 1.69754E-06-1.45704E-05-1.13436E-05
 -1       105 1.63624E-06-1.45295E-05-1.13743E-05
 -1       106 1.57487E-06-1.44888E-05-1.14049E-05
 -1       107 1.35968E-05 4.18266E-11 1.38519E-05
 -1       109 1.35886E-05-4.18266E-11 1.38464E-05
 -1       110 1.85158E-05-2.94985E-07 1.55642E-05
 -1       112 1.84354E-05-2.14574E-07 1.57341E-05
 -1       113 9.67446E-06-1.21614E-06 9.11597E-06
 -1       115 9.58745E-06-1.11569E-06 9.17020E-06
 -1       116 7.39963E-06-2.10538E-07 9.08810E-06
 -1       118 7.29880E-06-1.55654E-07 9.17429E-06
 -1       119 1.10747E-05-4.26571E-06 6.06204E-06
 -1       121 1.09723E-05-4.15240E-06 6.12486E-06
 -1       122 5.64513E-06-5.64513E-06 3.80582E-15
 -1       124 5.55224E-06-5.55224E-06 3.83690E-15
 -1       125 4.79056E-06-2.12241E-06 3.51588E-06
 -1       127 4.70599E-06-2.04471E-06 3.54617E-06
 -1       128 2.76336E-05 2.34669E-11 1.89595E-05
 -1       130 2.76297E-05-2.34669E-11 1.89587E-05
 -1       131 4.03530E-05-2.86849E-07 1.86818E-05
 -1       133 4.03297E-05-2.04016E-07 1.90930E-05
 -1       134 2.26678E-05-2.06880E-06 1.34815E-05
 -1       136 2.25795E-05-1.95194E-06 1.36597E-05
 -1       137 2.51953E-05-6.98641E-06 7.98284E-06
 -1       139 2.50660E-05-6.78421E-06 8.12096E-06
 -1       140 1.11858E-05-1.11858E-05 5.03741E-15
 -1       142 1.10328E-05-1.10328E-05 5.12086E-15
 -1       143 8.40565E-07 1.58117E-11 1.15149E-06
 -1       145 8.40041E-07-1.58117E-11 1.14886E-06
 -1       146 1.85311E-06-4.56539E-07 2.33630E-06
 -1       148 1.78157E-06-4.18053E-07 2.35937E-06
 -1       149 4.56539E-07-1.85311E-06-2.33630E-06
 -1       151 4.18053E-07-1.78157E-06-2.35937E-06
 -1       152-1.58117E-11-8.40565E-07-1.15149E-06
 -1       154 1.58117E-11-8.40041E-07-1.14886E-06
 -1       155 1.11685E-06-3.11677E-06-3.02731E-06
 -1       157 1.04986E-06-3.05515E-06-3.03517E-06
 -1       158 2.10538E-07-7.39963E-06-9.08810E-06
 -1       160 1.55654E-07-7.29880E-06-9.17429E-06
 -1       161-2.00060E-11-4.48158E-06-6.53582E-06
 -1       163 2.00060E-11-4.47902E-06-6.53200E-06
 -1       164 4.48158E-06 2.00060E-11 6.53582E-06
 -1       166 4.47902E-06-2.00060E-11 6.53200E-06
 -1       167 3.11677E-06-1.11685E-06 3.02731E-06
 -1       169 3.05515E-06-1.04986E-06 3.03517E-06
 -1       170 2.12241E-06-4.79056E-06-3.51588E-06
 -1       172 2.04471E-06-4.70599E-06-3.54617E-06
 -1       173 4.26571E-06-1.10747E-05-6.06204E-06
 -1       175 4.15240E-06-1.09723E-05-6.12486E-06
 -1       176 1.21614E-06-9.67446E-06-9.11597E-06
 -1       178 1.11569E-06-9.58745E-06-9.17020E-06
 -1       179 2.94985E-07-1.85158E-05-1.55642E-05
 -1       181 2.14574E-07-1.84354E-05-1.57341E-05
 -1       182-4.18266E-11-1.35968E-05-1.38519E-05
 -1       184 4.18266E-11-1.35886E-05-1.38464E-05
 -1       185 6.98641E-06-2.51953E-05-7.98284E-06
 -1       187 6.78421E-06-2.50660E-05-8.12096E-06
 -1       188 2.06880E-06-2.26678E-05-1.34815E-05
 -1       190 1.95194E-06-2.25795E-05-1.36597E-05
 -1       191 2.86849E-07-4.03530E-05-1.86818E-05
 -1       193 2.04016E-07-4.03297E-05-1.90930E-05
 -1       194-2.34669E-11-2.76336E-05-1.89595E-05
 -1       196 2.34669E-11-2.76297E-05-1.89587E-05
 -3
    1PSTEP                         2           1           1          
  100CL  101 1.000000000         117                     0    1           1
 -4  STRESS      6    1
 -5  SXX         1    4    1    1
 -5  SYY         1    4    2    2
 -5  SZZ         1    4    3    3
 -5  SXY         1    4    1    2
 -5  SYZ         1    4    2    3
 -5  SZX         1    4    3    1
 -1        50-2.31879E+04 5.96812E+03-6.35647E+03-1.46418E+04-2.80487E+02-5.78361E+03
 -1        51-2.53061E+04 3.19613E+03-1.80375E+04-1.45106E+04 6.24777E+02-5.01665E+03
 -1        52-2.74071E+04 4.36948E+02-2.96732E+04-1.43848E+04 1.52453E+03-4.25662E+03
 -1        53 9.34033E+04 7.39567E+03-6.58980E+04-5.34144E+03-9.31061E+03-3.71945E+03
 -1        54 9.35601E+04 9.18155E+03-6.52977E+04-6.74914E+03-8.00144E+03-3.86334E+03
 -1        55 9.37084E+04 1.09581E+04-6.47004E+04-8.14960E+03-6.69611E+03-4.00590E+03
 -1        56-1.31532E+03 1.31532E+03 1.38647E-06-9.83424E-08-2.10362E+03 2.10362E+03
 -1        57-1.59916E+03 1.59916E+03 1.17951E-06-2.89370E-07-2.36023E+03 2.36023E+03
 -1        58-1.88182E+03 1.88182E+03 9.64681E-07-4.83678E-07-2.61596E+03 2.61596E+03
 -1        59 2.66098E+03-2.66098E+03 4.46068E-06 7.52764E-06-4.76513E+03 4.76513E+03
 -1        60 2.64370E+03-2.64370E+03 5.50192E-06 6.22384E-06-6.02016E+03 6.02016E+03
 -1        61 2.62539E+03-2.62539E+03 6.57757E-06 4.89962E-06-7.27054E+03 7.27054E+03
 -1        62 1.33469E+04-1.33469E+04 2.49780E-06-2.92554E-07-8.32149E+03 8.32149E+03
 -1        63 1.33052E+04-1.33052E+04 2.51027E-06-2.92571E-07-8.27014E+03 8.27014E+03
 -1        64 1.32615E+04-1.32615E+04 2.52939E-06-2.92093E-07-8.21782E+03 8.21782E+03
 -1        65-7.39567E+03-9.34033E+04 6.58980E+04 5.34144E+03 3.71945E+03 9.31061E+03
 -1        66-9.18155E+03-9.35601E+04 6.52977E+04 6.74914E+03 3.86334E+03 8.00144E+03
 -1        67-1.09581E+04-9.37084E+04 6.47004E+04 8.14960E+03 4.00590E+03 6.69611E+03
 -1        68-5.96812E+03 2.31879E+04 6.35647E+03 1.46418E+04 5.78361E+03 2.80487E+02
 -1        69-3.19613E+03 2.53061E+04 1.80375E+04 1.45106E+04 5.01665E+03-6.24777E+02
 -1        70-4.36948E+02 2.74071E+04 2.96732E+04 1.43848E+04 4.25662E+03-1.52453E+03
 -1        71 5.92516E+04 8.54833E+02-7.66484E+04-1.48818E+04-6.34422E+03-4.70588E+04
 -1        72 5.95828E+04 3.46759E+03-7.41437E+04-1.57554E+04-4.23979E+03-4.74824E+04
 -1        73 5.99070E+04 6.06957E+03-7.16502E+04-1.66216E+04-2.14436E+03-4.79050E+04
 -1        74 1.80036E+04 4.26138E+03-1.12801E+04-2.54911E+03-2.67657E+03 1.17877E+03
 -1        75 1.74008E+04 4.17904E+03-1.14060E+04-2.14211E+03-3.10403E+03 1.50586E+03
 -1        76 1.67999E+04 4.09781E+03-1.15290E+04-1.73573E+03-3.52957E+03 1.83175E+03
 -1        77 9.99702E+00-9.99701E+00-3.03171E-06-7.16920E-07-1.71291E+03 1.71291E+03
 -1        78-2.58777E+02 2.58777E+02-3.74817E-06-8.89298E-07-2.40789E+03 2.40789E+03
 -1        79-5.25286E+02 5.25286E+02-4.48502E-06-1.06384E-06-3.09999E+03 3.09999E+03
 -1        80 8.07857E+03 1.69028E+04-1.00092E+04 1.36444E+03-1.62926E+04-3.54497E+04
 -1        81 9.05689E+03 1.88813E+04-8.27108E+03 8.38925E+02-1.78023E+04-3.49403E+04
 -1        82 1.00318E+04 2.08522E+04-6.53919E+03 3.12526E+02-1.93060E+04-3.44283E+04
 -1        83 3.96111E+04-4.57715E+03-2.71647E+04-1.91759E+03-9.31790E+03 2.78728E+04
 -1        84 3.98344E+04-3.44194E+03-2.69218E+04-2.75736E+03-8.97577E+03 2.77218E+04
 -1        85 4.00530E+04-2.31135E+03-2.66804E+04-3.59320E+03-8.63392E+03 2.75702E+04
 -1        86 4.57715E+03-3.96111E+04 2.71647E+04 1.91759E+03-2.78728E+04 9.31790E+03
 -1        87 3.44194E+03-3.98344E+04 2.69218E+04 2.75736E+03-2.77218E+04 8.97577E+03
 -1        88 2.31135E+03-4.00530E+04 2.66804E+04 3.59320E+03-2.75702E+04 8.63392E+03
 -1        89-4.26138E+03-1.80036E+04 1.12801E+04 2.54911E+03-1.17877E+03 2.67657E+03
 -1        90-4.17904E+03-1.74008E+04 1.14060E+04 2.14211E+03-1.50586E+03 3.10403E+03
 -1        91-4.09781E+03-1.67999E+04 1.15290E+04 1.73573E+03-1.83175E+03 3.52957E+03
 -1        92-8.54833E+02-5.92516E+04 7.66484E+04 1.48818E+04 4.70588E+04 6.34422E+03
 -1        93-3.46759E+03-5.95828E+04 7.41437E+04 1.57554E+04 4.74824E+04 4.23979E+03
 -1        94-6.06957E+03-5.99070E+04 7.16502E+04 1.66216E+04 4.79050E+04 2.14436E+03
 -1        95-1.69028E+04-8.07857E+03 1.00092E+04-1.36444E+03 3.54497E+04 1.62926E+04
 -1        96-1.88813E+04-9.05689E+03 8.27108E+03-8.38925E+02 3.49403E+04 1.78023E+04
 -1        97-2.08522E+04-1.00318E+04 6.53919E+03-3.12526E+02 3.44283E+04 1.93060E+04
 -1        98 1.77546E+04 7.91449E+03-2.80174E+04 3.10190E+03-1.16878E+04-2.13692E+04
 -1        99 1.73296E+04 7.66499E+03-2.94639E+04 3.34793E+03-1.21603E+04-2.07119E+04
 -1       100 1.69048E+04 7.41646E+03-3.09033E+04 3.59477E+03-1.26305E+04-2.00547E+04
 -1       101 6.98165E+03-6.98165E+03-3.15380E-06 1.61781E-06-8.31352E+03 8.31352E+03
 -1       102 6.86936E+03-6.86936E+03-3.13448E-06 1.65503E-06-8.37012E+03 8.37012E+03
 -1       103 6.75657E+03-6.75657E+03-3.10773E-06 1.69108E-06-8.42602E+03 8.42602E+03
 -1       104-7.91449E+03-1.77546E+04 2.80174E+04-3.10190E+03 2.13692E+04 1.16878E+04
 -1       105-7.66499E+03-1.73296E+04 2.94639E+04-3.34793E+03 2.07119E+04 1.21603E+04
 -1       106-7.41646E+03-1.69048E+04 3.09033E+04-3.59477E+03 2.00547E+04 1.26305E+04
 -1       107 9.14703E+04 1.05865E+04-7.33147E+04-8.75997E+03-9.52993E+03-4.96307E+04
 -1       109 9.10824E+04 1.40535E+04-7.22934E+04-1.09434E+04-5.99725E+03-4.99698E+04
 -1       110-2.10201E+04-6.14539E+03 1.32485E+04-1.04220E+03 1.49351E+03 3.05183E+04
 -1       112-2.02789E+04-3.26608E+03 1.43323E+04-1.65749E+03 2.15697E+03 3.02489E+04
 -1       113 1.49825E+04 9.52475E+03-1.14868E+04-2.11430E+03-4.34121E+03-9.77204E+03
 -1       115 1.45655E+04 9.86911E+03-1.14378E+04-1.35278E+03-5.44241E+03-8.97340E+03
 -1       116-8.86632E+03-2.82141E+03 1.56291E+04-1.76253E+03 4.44326E+03-5.17638E+03
 -1       118-9.31971E+03-1.33769E+03 1.50665E+04-2.33084E+03 4.70423E+03-4.73812E+03
 -1       119-1.95290E+03-3.49425E+03-6.92944E+03 3.18933E+03-2.21797E+03 6.34612E+01
 -1       121-2.78898E+03-4.06065E+03-9.01673E+03 3.41468E+03-2.56529E+03 8.86959E+02
 -1       122 1.36659E+02-1.36659E+02 6.37908E-06-1.41016E-06-1.28819E+03 1.28819E+03
 -1       124-4.77141E+02 4.77141E+02 5.69015E-06-1.72128E-06-2.22838E+03 2.22838E+03
 -1       125-3.11777E+03-2.98270E+03 1.79635E+02-2.26282E+03 1.76288E+02 2.29599E+03
 -1       127-4.13951E+03-3.28755E+03-6.59943E+02-2.18885E+03 1.69028E+01 2.88610E+03
 -1       128 6.79936E+04 2.27679E+04-2.54359E+04 4.34111E+03-1.06145E+04-1.43138E+05
 -1       130 6.65974E+04 2.28589E+04-3.22896E+04 3.43114E+03-5.96964E+03-1.41799E+05
 -1       131-1.11321E+04-1.42965E+04-1.38407E+04-6.23568E+03 1.09056E+04 4.84607E+04
 -1       133-1.21985E+04-1.45298E+04-2.34474E+04-6.53702E+03 9.35633E+03 4.92407E+04
 -1       134 6.42350E+03 5.42642E+03 8.04326E+03-4.38578E+03-4.85447E+03-5.09768E+03
 -1       136 6.11463E+03 6.26186E+03 6.19516E+03-4.63037E+03-6.03010E+03-4.12122E+03
 -1       137-4.41118E+03-6.48140E+03-1.55438E+04 7.34956E+03-2.42685E+03-6.14752E+03
 -1       139-3.09631E+03-4.41592E+03-1.38372E+04 6.54621E+03-4.38512E+03-5.09036E+03
 -1       140-1.19694E+03 1.19694E+03 7.34957E-06-5.85524E-06 2.05051E+03-2.05051E+03
 -1       142-1.73447E+03 1.73447E+03 7.39354E-06-7.26287E-06-2.67427E+02 2.67427E+02
 -1       143 3.36333E+04-9.95142E+03-8.60288E+03-7.09952E+02-7.60491E+03 1.87794E+04
 -1       145 3.43305E+04-7.69348E+03-7.93537E+03-1.60923E+03-7.37627E+03 1.86269E+04
 -1       146 5.26881E+01-1.22297E+04 6.83848E+03-1.97704E+03 2.03933E+03-7.81948E+03
 -1       148-8.16430E+02-1.17094E+04 6.25715E+03-2.41785E+03 2.05819E+03-7.51302E+03
 -1       149 1.22297E+04-5.26881E+01-6.83848E+03 1.97704E+03 7.81948E+03-2.03933E+03
 -1       151 1.17094E+04 8.16430E+02-6.25715E+03 2.41785E+03 7.51302E+03-2.05819E+03
 -1       152 9.95142E+03-3.36333E+04 8.60288E+03 7.09952E+02-1.87794E+04 7.60491E+03
 -1       154 7.69348E+03-3.43305E+04 7.93537E+03 1.60923E+03-1.86269E+04 7.37627E+03
 -1       155-5.24054E+03-1.84272E+04 8.31283E+03 1.11776E+03 4.47081E+02 2.44181E+03
 -1       157-5.57289E+03-1.80012E+04 7.87696E+03 4.47208E+02 2.94484E+02 3.04035E+03
 -1       158 2.82141E+03 8.86632E+03-1.56291E+04 1.76253E+03 5.17638E+03-4.44326E+03
 -1       160 1.33769E+03 9.31971E+03-1.50665E+04 2.33084E+03 4.73812E+03-4.70423E+03
 -1       161-2.25994E+03-7.18656E+04 4.65521E+04 2.85708E+03-1.17910E+04 9.15955E+03
 -1       163-5.20504E+03-7.23875E+04 4.57226E+04 5.00838E+03-1.14479E+04 7.68109E+03
 -1       164 7.18656E+04 2.25994E+03-4.65521E+04-2.85708E+03-9.15955E+03 1.17910E+04
 -1       166 7.23875E+04 5.20504E+03-4.57226E+04-5.00838E+03-7.68109E+03 1.14479E+04
 -1       167 1.84272E+04 5.24054E+03-8.31283E+03-1.11776E+03-2.44181E+03-4.47081E+02
 -1       169 1.80012E+04 5.57289E+03-7.87696E+03-4.47208E+02-3.04035E+03-2.94484E+02
 -1       170 2.98270E+03 3.11777E+03-1.79635E+02 2.26282E+03-2.29599E+03-1.76288E+02
 -1       172 3.28755E+03 4.13951E+03 6.59943E+02 2.18885E+03-2.88610E+03-1.69028E+01
 -1       173 3.49425E+03 1.95290E+03 6.92944E+03-3.18933E+03-6.34612E+01 2.21797E+03
 -1       175 4.06065E+03 2.78898E+03 9.01673E+03-3.41468E+03-8.86959E+02 2.56529E+03
 -1       176-9.52475E+03-1.49825E+04 1.14868E+04 2.11430E+03 9.77204E+03 4.34121E+03
 -1       178-9.86911E+03-1.45655E+04 1.14378E+04 1.35278E+03 8.97340E+03 5.44241E+03
 -1       179 6.14539E+03 2.10201E+04-1.32485E+04 1.04220E+03-3.05183E+04-1.49351E+03
 -1       181 3.26608E+03 2.02789E+04-1.43323E+04 1.65749E+03-3.02489E+04-2.15697E+03
 -1       182-1.05865E+04-9.14703E+04 7.33147E+04 8.75997E+03 4.96307E+04 9.52993E+03
 -1       184-1.40535E+04-9.10824E+04 7.22934E+04 1.09434E+04 4.99698E+04 5.99725E+03
 -1       185 6.48140E+03 4.41118E+03 1.55438E+04-7.34956E+03 6.14752E+03 2.42685E+03
 -1       187 4.41592E+03 3.09631E+03 1.38372E+04-6.54621E+03 5.09036E+03 4.38512E+03
 -1       188-5.42642E+03-6.42350E+03-8.04326E+03 4.38578E+03 5.09768E+03 4.85447E+03
 -1       190-6.26186E+03-6.11463E+03-6.19516E+03 4.63037E+03 4.12122E+03 6.03010E+03
 -1       191 1.42965E+04 1.11321E+04 1.38407E+04 6.23568E+03-4.84607E+04-1.09056E+04
 -1       193 1.45298E+04 1.21985E+04 2.34474E+04 6.53702E+03-4.92407E+04-9.35633E+03
 -1       194-2.27679E+04-6.79936E+04 2.54359E+04-4.34111E+03 1.43138E+05 1.06145E+04
 -1       196-2.28589E+04-6.65974E+04 3.22896E+04-3.43114E+03 1.41799E+05 5.96964E+03
 -3
    1PSTEP                         3           1           1          
  100CL  101 1.000000000         117                     0    1           1
 -4  TOSTRAIN    6    1
 -5  EXX         1    4    1    1
 -5  EYY         1    4    2    2
 -5  EZZ         1    4    3    3
 -5  EXY         1    4    1    2
 -5  EYZ         1    4    2    3
 -5  EZX         1    4    3    1
 -1        50-3.38042E-07 2.17310E-07-1.74438E-08-2.78891E-07-5.34261E-09-1.10164E-07
 -1        51-3.05549E-07 2.37351E-07-1.67099E-07-2.76392E-07 1.19005E-08-9.55552E-08
 -1        52-2.73059E-07 2.57305E-07-3.16222E-07-2.73997E-07 2.90386E-08-8.10785E-08
 -1        53 1.62570E-06-1.25406E-08-1.40861E-06-1.01742E-07-1.77345E-07-7.08466E-08
 -1        54 1.61751E-06 1.02978E-08-1.40835E-06-1.28555E-07-1.52408E-07-7.35874E-08
 -1        55 1.60925E-06 3.30504E-08-1.40806E-06-1.55230E-07-1.27545E-07-7.63028E-08
 -1        56-2.50538E-08 2.50538E-08 4.27607E-17-1.87319E-18-4.00689E-08 4.00689E-08
 -1        57-3.04603E-08 3.04603E-08 3.89979E-17-5.51182E-18-4.49567E-08 4.49567E-08
 -1        58-3.58443E-08 3.58443E-08 3.51547E-17-9.21292E-18-4.98278E-08 4.98278E-08
 -1        59 5.06853E-08-5.06853E-08 3.80746E-17 1.43384E-16-9.07645E-08 9.07645E-08
 -1        60 5.03563E-08-5.03563E-08 4.37709E-17 1.18549E-16-1.14670E-07 1.14670E-07
 -1        61 5.00073E-08-5.00073E-08 4.93299E-17 9.33262E-17-1.38487E-07 1.38487E-07
 -1        62 2.54227E-07-2.54227E-07 9.47991E-17-5.57246E-18-1.58505E-07 1.58505E-07
 -1        63 2.53433E-07-2.53433E-07 9.47573E-17-5.57279E-18-1.57526E-07 1.57526E-07
 -1        64 2.52600E-07-2.52600E-07 9.47871E-17-5.56369E-18-1.56530E-07 1.56530E-07
 -1        65 1.25406E-08-1.62570E-06 1.40861E-06 1.01742E-07 7.08466E-08 1.77345E-07
 -1        66-1.02978E-08-1.61751E-06 1.40835E-06 1.28555E-07 7.35874E-08 1.52408E-07
 -1        67-3.30504E-08-1.60925E-06 1.40806E-06 1.55230E-07 7.63028E-08 1.27545E-07
 -1        68-2.17310E-07 3.38042E-07 1.74438E-08 2.78891E-07 1.10164E-07 5.34261E-09
 -1        69-2.37351E-07 3.05549E-07 1.67099E-07 2.76392E-07 9.55552E-08-1.19005E-08
 -1        70-2.57305E-07 2.73059E-07 3.16222E-07 2.73997E-07 8.10785E-08-2.90386E-08
 -1        71 1.20131E-06 8.89948E-08-1.38726E-06-2.83464E-07-1.20842E-07-8.96358E-07
 -1        72 1.18367E-06 1.14811E-07-1.36350E-06-3.00104E-07-8.07579E-08-9.04426E-07
 -1        73 1.16603E-06 1.40550E-07-1.33983E-06-3.16602E-07-4.08450E-08-9.12475E-07
 -1        74 2.94640E-07 3.28840E-08-2.63144E-07-4.85545E-08-5.09823E-08 2.24528E-08
 -1        75 2.86723E-07 3.48807E-08-2.61977E-07-4.08021E-08-5.91243E-08 2.86831E-08
 -1        76 2.78817E-07 3.68724E-08-2.60781E-07-3.30616E-08-6.72299E-08 3.48905E-08
 -1        77 1.90419E-10-1.90419E-10-7.62346E-17-1.36556E-17-3.26268E-08 3.26268E-08
 -1        78-4.92909E-09 4.92909E-09-8.65437E-17-1.69390E-17-4.58646E-08 4.58646E-08
 -1        79-1.00054E-08 1.00054E-08-9.68372E-17-2.02636E-17-5.90474E-08 5.90474E-08
 -1        80 8.80659E-08 2.56146E-07-2.56463E-07 2.59894E-08-3.10334E-07-6.75232E-07
 -1        81 8.60636E-08 2.73194E-07-2.43993E-07 1.59795E-08-3.39092E-07-6.65530E-07
 -1        82 8.40725E-08 2.90174E-07-2.31566E-07 5.95288E-09-3.67733E-07-6.55778E-07
 -1        83 7.19907E-07-1.21774E-07-5.52013E-07-3.65256E-08-1.77484E-07 5.30910E-07
 -1        84 7.17122E-07-1.07190E-07-5.54425E-07-5.25211E-08-1.70967E-07 5.28033E-07
 -1        85 7.14293E-07-9.26467E-08-5.56819E-07-6.84419E-08-1.64456E-07 5.25146E-07
 -1        86 1.21774E-07-7.19907E-07 5.52013E-07 3.65256E-08-5.30910E-07 1.77484E-07
 -1        87 1.07190E-07-7.17122E-07 5.54425E-07 5.25211E-08-5.28033E-07 1.70967E-07
 -1        88 9.26467E-08-7.14293E-07 5.56819E-07 6.84419E-08-5.25146E-07 1.64456E-07
 -1        89-3.28840E-08-2.94640E-07 2.63144E-07 4.85545E-08-2.24528E-08 5.09823E-08
 -1        90-3.48807E-08-2.86723E-07 2.61977E-07 4.08021E-08-2.86831E-08 5.91243E-08
 -1        91-3.68724E-08-2.78817E-07 2.60781E-07 3.30616E-08-3.48905E-08 6.72299E-08
 -1        92-8.89948E-08-1.20131E-06 1.38726E-06 2.83464E-07 8.96358E-07 1.20842E-07
 -1        93-1.14811E-07-1.18367E-06 1.36350E-06 3.00104E-07 9.04426E-07 8.07579E-08
 -1        94-1.40550E-07-1.16603E-06 1.33983E-06 3.16602E-07 9.12475E-07 4.08450E-08
 -1        95-2.56146E-07-8.80659E-08 2.56463E-07-2.59894E-08 6.75232E-07 3.10334E-07
 -1        96-2.73194E-07-8.60636E-08 2.43993E-07-1.59795E-08 6.65530E-07 3.39092E-07
 -1        97-2.90174E-07-8.40725E-08 2.31566E-07-5.95288E-09 6.55778E-07 3.67733E-07
 -1        98 3.48505E-07 1.61074E-07-5.23342E-07 5.90838E-08-2.22625E-07-4.07032E-07
 -1        99 3.49733E-07 1.65645E-07-5.41572E-07 6.37701E-08-2.31624E-07-3.94512E-07
 -1       100 3.50928E-07 1.70198E-07-5.59702E-07 6.84718E-08-2.40581E-07-3.81995E-07
 -1       101 1.32984E-07-1.32984E-07-6.50227E-17 3.08155E-17-1.58353E-07 1.58353E-07
 -1       102 1.30845E-07-1.30845E-07-6.66932E-17 3.15244E-17-1.59431E-07 1.59431E-07
 -1       103 1.28696E-07-1.28696E-07-6.82902E-17 3.22110E-17-1.60496E-07 1.60496E-07
 -1       104-1.61074E-07-3.48505E-07 5.23342E-07-5.90838E-08 4.07032E-07 2.22625E-07
 -1       105-1.65645E-07-3.49733E-07 5.41572E-07-6.37701E-08 3.94512E-07 2.31624E-07
 -1       106-1.70198E-07-3.50928E-07 5.59702E-07-6.84718E-08 3.81995E-07 2.40581E-07
 -1       107 1.61595E-06 7.53087E-08-1.52281E-06-1.66856E-07-1.81522E-07-9.45346E-07
 -1       109 1.59054E-06 1.23323E-07-1.52138E-06-2.08445E-07-1.14233E-07-9.51805E-07
 -1       110-3.39210E-07-5.58815E-08 3.13527E-07-1.98515E-08 2.84479E-08 5.81302E-07
 -1       112-3.45770E-07-2.17160E-08 3.13492E-07-3.15713E-08 4.10851E-08 5.76170E-07
 -1       113 2.28149E-07 1.24191E-07-2.76029E-07-4.02724E-08-8.26898E-08-1.86134E-07
 -1       115 2.20309E-07 1.30854E-07-2.74992E-07-2.57672E-08-1.03665E-07-1.70922E-07
 -1       116-1.86207E-07-7.10657E-08 2.80372E-07-3.35721E-08 8.46335E-08-9.85977E-08
 -1       118-1.96899E-07-4.48605E-08 2.67600E-07-4.43970E-08 8.96044E-08-9.02499E-08
 -1       119 1.72045E-08-1.21545E-08-7.75868E-08 6.07491E-08-4.22471E-08 1.20878E-09
 -1       121 1.66188E-08-7.60349E-09-1.02005E-07 6.50415E-08-4.88627E-08 1.68945E-08
 -1       122 2.60304E-09-2.60304E-09 6.95699E-17-2.68603E-17-2.45370E-08 2.45370E-08
 -1       124-9.08839E-09 9.08839E-09 5.82734E-17-3.27863E-17-4.24454E-08 4.24454E-08
 -1       125-3.33605E-08-3.07877E-08 2.94473E-08-4.31013E-08 3.35787E-09 4.37332E-08
 -1       127-4.33006E-08-2.70727E-08 2.29769E-08-4.16924E-08 3.21958E-10 5.49734E-08
 -1       128 1.00797E-06 1.46529E-07-7.71638E-07 8.26878E-08-2.02181E-07-2.72645E-06
 -1       130 1.01724E-06 1.84125E-07-8.66321E-07 6.53550E-08-1.13708E-07-2.70094E-06
 -1       131-3.94272E-08-9.97020E-08-9.10200E-08-1.18775E-07 2.07725E-07 9.23062E-07
 -1       133-1.18000E-08-5.62049E-08-2.26065E-07-1.24515E-07 1.78216E-07 9.37918E-07
 -1       134 3.49098E-08 1.59179E-08 6.57624E-08-8.35386E-08-9.24660E-08-9.70986E-08
 -1       136 3.48355E-08 3.76399E-08 3.63695E-08-8.81975E-08-1.14859E-07-7.84994E-08
 -1       137 3.21814E-08-7.25142E-09-1.79868E-07 1.39992E-07-4.62256E-08-1.17096E-07
 -1       139 3.48663E-08 9.73091E-09-1.69722E-07 1.24690E-07-8.35261E-08-9.69593E-08
 -1       140-2.27990E-08 2.27990E-08 6.54375E-17-1.11528E-16 3.90573E-08-3.90573E-08
 -1       142-3.30375E-08 3.30375E-08 5.76153E-17-1.38340E-16-5.09384E-09 5.09384E-09
 -1       143 5.74353E-07-2.55832E-07-2.30146E-07-1.35229E-08-1.44855E-07 3.57703E-07
 -1       145 5.71710E-07-2.28748E-07-2.33355E-07-3.06521E-08-1.40500E-07 3.54797E-07
 -1       146 2.44697E-08-2.09481E-07 1.53723E-07-3.76579E-08 3.88443E-08-1.48942E-07
 -1       148 1.20034E-08-1.95481E-07 1.46738E-07-4.60543E-08 3.92036E-08-1.43105E-07
 -1       149 2.09481E-07-2.44697E-08-1.53723E-07 3.76579E-08 1.48942E-07-3.88443E-08
 -1       151 1.95481E-07-1.20034E-08-1.46738E-07 4.60543E-08 1.43105E-07-3.92036E-08
 -1       152 2.55832E-07-5.74353E-07 2.30146E-07 1.35229E-08-3.57703E-07 1.44855E-07
 -1       154 2.28748E-07-5.71710E-07 2.33355E-07 3.06521E-08-3.54797E-07 1.40500E-07
 -1       155-3.23256E-08-2.83500E-07 2.25834E-07 2.12907E-08 8.51583E-09 4.65107E-08
 -1       157-3.71518E-08-2.73882E-07 2.19036E-07 8.51825E-09 5.60921E-09 5.79114E-08
 -1       158 7.10657E-08 1.86207E-07-2.80372E-07 3.35721E-08 9.85977E-08-8.46335E-08
 -1       160 4.48605E-08 1.96899E-07-2.67600E-07 4.43970E-08 9.02499E-08-8.96044E-08
 -1       161 7.81557E-08-1.24767E-06 1.00791E-06 5.44206E-08-2.24590E-07 1.74468E-07
 -1       163 4.09439E-08-1.23872E-06 1.01099E-06 9.53978E-08-2.18056E-07 1.46306E-07
 -1       164 1.24767E-06-7.81557E-08-1.00791E-06-5.44206E-08-1.74468E-07 2.24590E-07
 -1       166 1.23872E-06-4.09439E-08-1.01099E-06-9.53978E-08-1.46306E-07 2.18056E-07
 -1       167 2.83500E-07 3.23256E-08-2.25834E-07-2.12907E-08-4.65107E-08-8.51582E-09
 -1       169 2.73882E-07 3.71518E-08-2.19036E-07-8.51825E-09-5.79114E-08-5.60921E-09
 -1       170 3.07877E-08 3.33605E-08-2.94473E-08 4.31013E-08-4.37332E-08-3.35787E-09
 -1       172 2.70727E-08 4.33006E-08-2.29769E-08 4.16924E-08-5.49734E-08-3.21958E-10
 -1       173 1.21545E-08-1.72045E-08 7.75868E-08-6.07491E-08-1.20878E-09 4.22471E-08
 -1       175 7.60349E-09-1.66188E-08 1.02005E-07-6.50415E-08-1.68945E-08 4.88627E-08
 -1       176-1.24191E-07-2.28149E-07 2.76029E-07 4.02724E-08 1.86134E-07 8.26898E-08
 -1       178-1.30854E-07-2.20309E-07 2.74992E-07 2.57672E-08 1.70922E-07 1.03665E-07
 -1       179 5.58815E-08 3.39210E-07-3.13527E-07 1.98515E-08-5.81302E-07-2.84479E-08
 -1       181 2.17160E-08 3.45770E-07-3.13492E-07 3.15713E-08-5.76170E-07-4.10851E-08
 -1       182-7.53087E-08-1.61595E-06 1.52281E-06 1.66856E-07 9.45346E-07 1.81522E-07
 -1       184-1.23323E-07-1.59054E-06 1.52138E-06 2.08445E-07 9.51805E-07 1.14233E-07
 -1       185 7.25142E-09-3.21814E-08 1.79868E-07-1.39992E-07 1.17096E-07 4.62256E-08
 -1       187-9.73091E-09-3.48663E-08 1.69722E-07-1.24690E-07 9.69593E-08 8.35261E-08
 -1       188-1.59179E-08-3.49098E-08-6.57624E-08 8.35386E-08 9.70986E-08 9.24660E-08
 -1       190-3.76399E-08-3.48355E-08-3.63695E-08 8.81975E-08 7.84994E-08 1.14859E-07
 -1       191 9.97020E-08 3.94272E-08 9.10200E-08 1.18775E-07-9.23062E-07-2.07725E-07
 -1       193 5.62049E-08 1.18000E-08 2.26065E-07 1.24515E-07-9.37918E-07-1.78216E-07
 -1       194-1.46529E-07-1.00797E-06 7.71638E-07-8.26878E-08 2.72645E-06 2.02181E-07
 -1       196-1.84125E-07-1.01724E-06 8.66321E-07-6.53550E-08 2.70094E-06 1.13708E-07
 -3
    1PSTEP                         4           1           1          
  100CL  101 1.000000000         117                     0    1           1
 -4  ERROR       1    1
 -5  STR(%)      1    1    0    0
 -1        50 2.00860E+01
 -1        51 2.00860E+01
 -1        52 2.00860E+01
 -1        53 1.88209E+01
 -1        54 1.88209E+01
 -1        55 1.88209E+01
 -1        56 1.97523E+01
 -1        57 1.97523E+01
 -1        58 1.97523E+01
 -1        59 2.23669E+01
 -1        60 2.23669E+01
 -1        61 2.23669E+01
 -1        62 1.75892E+01
 -1        63 1.75892E+01
 -1        64 1.75892E+01
 -1        65 1.88209E+01
 -1        66 1.88209E+01
 -1        67 1.88209E+01
 -1        68 2.00860E+01
 -1        69 2.00860E+01
 -1        70 2.00860E+01
 -1        71 2.00860E+01
 -1        72 2.00860E+01
 -1        73 2.00860E+01
 -1        74 1.97523E+01
 -1        75 1.97523E+01
 -1        76 1.97523E+01
 -1        77 2.23669E+01
 -1        78 2.23669E+01
 -1        79 2.23669E+01
 -1        80 2.23669E+01
 -1        81 2.23669E+01
 -1        82 2.23669E+01
 -1        83 1.87490E+01
 -1        84 1.87490E+01
 -1        85 1.87490E+01
 -1        86 1.87490E+01
 -1        87 1.87490E+01
 -1        88 1.87490E+01
 -1        89 1.97523E+01
 -1        90 1.97523E+01
 -1        91 1.97523E+01
 -1        92 2.00860E+01
 -1        93 2.00860E+01
 -1        94 2.00860E+01
 -1        95 2.23669E+01
 -1        96 2.23669E+01
 -1        97 2.23669E+01
 -1        98 2.23669E+01
 -1        99 2.23669E+01
 -1       100 2.23669E+01
 -1       101 1.87490E+01
 -1       102 1.87490E+01
 -1       103 1.87490E+01
 -1       104 2.23669E+01
 -1       105 2.23669E+01
 -1       106 2.23669E+01
 -1       107 1.94534E+01
 -1       109 1.94534E+01
 -1       110 2.12264E+01
 -1       112 2.12264E+01
 -1       113 2.10596E+01
 -1       115 2.10596E+01
 -1       116 1.92866E+01
 -1       118 1.92866E+01
 -1       119 2.23669E+01
 -1       121 2.23669E+01
 -1       122 2.10596E+01
 -1       124 2.10596E+01
 -1       125 1.97523E+01
 -1       127 1.97523E+01
 -1       128 2.00860E+01
 -1       130 2.00860E+01
 -1       131 2.12264E+01
 -1       133 2.12264E+01
 -1       134 2.23669E+01
 -1       136 2.23669E+01
 -1       137 2.23669E+01
 -1       139 2.23669E+01
 -1       140 2.23669E+01
 -1       142 2.23669E+01
 -1       143 1.81691E+01
 -1       145 1.81691E+01
 -1       146 1.87490E+01
 -1       148 1.87490E+01
 -1       149 1.87490E+01
 -1       151 1.87490E+01
 -1       152 1.81691E+01
 -1       154 1.81691E+01
 -1       155 1.92507E+01
 -1       157 1.92507E+01
 -1       158 1.92866E+01
 -1       160 1.92866E+01
 -1       161 1.87850E+01
 -1       163 1.87850E+01
 -1       164 1.87850E+01
 -1       166 1.87850E+01
 -1       167 1.92507E+01
 -1       169 1.92507E+01
 -1       170 1.97523E+01
 -1       172 1.97523E+01
 -1       173 2.23669E+01
 -1       175 2.23669E+01
 -1       176 2.10596E+01
 -1       178 2.10596E+01
 -1       179 2.12264E+01
 -1       181 2.12264E+01
 -1       182 1.94534E+01
 -1       184 1.94534E+01
 -1       185 2.23669E+01
 -1       187 2.23669E+01
 -1       188 2.23669E+01
 -1       190 2.23669E+01
 -1       191 2.12264E+01
 -1       193 2.12264E+01
 -1       194 2.00860E+01
 -1       196 2.00860E+01
 -3
 9999
