    1C
    1UHash: PXJD0WWr, Date: 03/11/2021, Unit system: MM_TON_S_C         
    1UUSER                                                              
    1UDATE              13.march.2021                                   
    1UTIME              18:35:32                                        
    1UHOST                                                              
    1UPGM               CalculiX                                        
    1UVERSION           Version 2.17                             
    1UCOMPILETIME       Thu Jul 23 21:43:50 CEST 2020                    
    1UDIR                                                               
    1UDBN                                                               
    1UMAT    1RUBBER                                                    
    2C                           155                                     1
 -1       225 4.80000E+01 4.40000E+01 0.00000E+00
 -1       226 4.80000E+01 4.40000E+01 5.00000E+00
 -1       227 0.00000E+00 0.00000E+00 0.00000E+00
 -1       228 0.00000E+00 0.00000E+00 5.00000E+00
 -1       229 4.80000E+01 6.00000E+01 0.00000E+00
 -1       230 4.80000E+01 6.00000E+01 5.00000E+00
 -1       231 0.00000E+00 4.40000E+01 0.00000E+00
 -1       232 0.00000E+00 4.40000E+01 5.00000E+00
 -1       233 3.60000E+01 3.30000E+01 0.00000E+00
 -1       234 2.40000E+01 2.20000E+01 0.00000E+00
 -1       235 1.20000E+01 1.10000E+01 0.00000E+00
 -1       236 3.60000E+01 3.30000E+01 5.00000E+00
 -1       237 2.40000E+01 2.20000E+01 5.00000E+00
 -1       238 1.20000E+01 1.10000E+01 5.00000E+00
 -1       239 4.80000E+01 5.60000E+01 0.00000E+00
 -1       240 4.80000E+01 5.20000E+01 0.00000E+00
 -1       241 4.80000E+01 4.80000E+01 0.00000E+00
 -1       242 4.80000E+01 5.60000E+01 5.00000E+00
 -1       243 4.80000E+01 5.20000E+01 5.00000E+00
 -1       244 4.80000E+01 4.80000E+01 5.00000E+00
 -1       245 1.20000E+01 4.80000E+01 0.00000E+00
 -1       246 2.40000E+01 5.20000E+01 0.00000E+00
 -1       247 3.60000E+01 5.60000E+01 0.00000E+00
 -1       248 1.20000E+01 4.80000E+01 5.00000E+00
 -1       249 2.40000E+01 5.20000E+01 5.00000E+00
 -1       250 3.60000E+01 5.60000E+01 5.00000E+00
 -1       251 0.00000E+00 1.10000E+01 0.00000E+00
 -1       252 0.00000E+00 2.20000E+01 0.00000E+00
 -1       253 0.00000E+00 3.30000E+01 0.00000E+00
 -1       254 0.00000E+00 1.10000E+01 5.00000E+00
 -1       255 0.00000E+00 2.20000E+01 5.00000E+00
 -1       256 0.00000E+00 3.30000E+01 5.00000E+00
 -1       257 3.60000E+01 3.87500E+01 0.00000E+00
 -1       258 3.60000E+01 4.45000E+01 0.00000E+00
 -1       259 3.60000E+01 5.02500E+01 0.00000E+00
 -1       260 2.40000E+01 2.95000E+01 0.00000E+00
 -1       261 2.40000E+01 3.70000E+01 0.00000E+00
 -1       262 2.40000E+01 4.45000E+01 0.00000E+00
 -1       263 1.20000E+01 2.02500E+01 0.00000E+00
 -1       264 1.20000E+01 2.95000E+01 0.00000E+00
 -1       265 1.20000E+01 3.87500E+01 0.00000E+00
 -1       266 1.20000E+01 2.02500E+01 5.00000E+00
 -1       267 1.20000E+01 2.95000E+01 5.00000E+00
 -1       268 1.20000E+01 3.87500E+01 5.00000E+00
 -1       269 2.40000E+01 2.95000E+01 5.00000E+00
 -1       270 2.40000E+01 3.70000E+01 5.00000E+00
 -1       271 2.40000E+01 4.45000E+01 5.00000E+00
 -1       272 3.60000E+01 3.87500E+01 5.00000E+00
 -1       273 3.60000E+01 4.45000E+01 5.00000E+00
 -1       274 3.60000E+01 5.02500E+01 5.00000E+00
 -1       275 4.80000E+01 4.40000E+01 2.50000E+00
 -1       276 0.00000E+00 0.00000E+00 2.50000E+00
 -1       277 4.20000E+01 3.85000E+01 0.00000E+00
 -1       278 3.00000E+01 2.75000E+01 0.00000E+00
 -1       279 1.80000E+01 1.65000E+01 0.00000E+00
 -1       280 6.00000E+00 5.50000E+00 0.00000E+00
 -1       281 4.20000E+01 3.85000E+01 5.00000E+00
 -1       282 3.00000E+01 2.75000E+01 5.00000E+00
 -1       283 1.80000E+01 1.65000E+01 5.00000E+00
 -1       284 6.00000E+00 5.50000E+00 5.00000E+00
 -1       285 4.80000E+01 6.00000E+01 2.50000E+00
 -1       286 4.80000E+01 5.80000E+01 0.00000E+00
 -1       287 4.80000E+01 5.40000E+01 0.00000E+00
 -1       288 4.80000E+01 5.00000E+01 0.00000E+00
 -1       289 4.80000E+01 4.60000E+01 0.00000E+00
 -1       290 4.80000E+01 5.80000E+01 5.00000E+00
 -1       291 4.80000E+01 5.40000E+01 5.00000E+00
 -1       292 4.80000E+01 5.00000E+01 5.00000E+00
 -1       293 4.80000E+01 4.60000E+01 5.00000E+00
 -1       294 0.00000E+00 4.40000E+01 2.50000E+00
 -1       295 6.00000E+00 4.60000E+01 0.00000E+00
 -1       296 1.80000E+01 5.00000E+01 0.00000E+00
 -1       297 3.00000E+01 5.40000E+01 0.00000E+00
 -1       298 4.20000E+01 5.80000E+01 0.00000E+00
 -1       299 6.00000E+00 4.60000E+01 5.00000E+00
 -1       300 1.80000E+01 5.00000E+01 5.00000E+00
 -1       301 3.00000E+01 5.40000E+01 5.00000E+00
 -1       302 4.20000E+01 5.80000E+01 5.00000E+00
 -1       303 0.00000E+00 5.50000E+00 0.00000E+00
 -1       304 0.00000E+00 1.65000E+01 0.00000E+00
 -1       305 0.00000E+00 2.75000E+01 0.00000E+00
 -1       306 0.00000E+00 3.85000E+01 0.00000E+00
 -1       307 0.00000E+00 5.50000E+00 5.00000E+00
 -1       308 0.00000E+00 1.65000E+01 5.00000E+00
 -1       309 0.00000E+00 2.75000E+01 5.00000E+00
 -1       310 0.00000E+00 3.85000E+01 5.00000E+00
 -1       311 3.60000E+01 3.30000E+01 2.50000E+00
 -1       312 2.40000E+01 2.20000E+01 2.50000E+00
 -1       313 1.20000E+01 1.10000E+01 2.50000E+00
 -1       314 4.80000E+01 5.60000E+01 2.50000E+00
 -1       315 4.80000E+01 5.20000E+01 2.50000E+00
 -1       316 4.80000E+01 4.80000E+01 2.50000E+00
 -1       317 1.20000E+01 4.80000E+01 2.50000E+00
 -1       318 2.40000E+01 5.20000E+01 2.50000E+00
 -1       319 3.60000E+01 5.60000E+01 2.50000E+00
 -1       320 0.00000E+00 1.10000E+01 2.50000E+00
 -1       321 0.00000E+00 2.20000E+01 2.50000E+00
 -1       322 0.00000E+00 3.30000E+01 2.50000E+00
 -1       323 3.60000E+01 3.58750E+01 0.00000E+00
 -1       324 4.20000E+01 4.33750E+01 0.00000E+00
 -1       325 3.60000E+01 4.16250E+01 0.00000E+00
 -1       326 4.20000E+01 4.82500E+01 0.00000E+00
 -1       327 3.60000E+01 4.73750E+01 0.00000E+00
 -1       328 4.20000E+01 5.31250E+01 0.00000E+00
 -1       329 3.60000E+01 5.31250E+01 0.00000E+00
 -1       330 2.40000E+01 2.57500E+01 0.00000E+00
 -1       331 3.00000E+01 3.41250E+01 0.00000E+00
 -1       332 2.40000E+01 3.32500E+01 0.00000E+00
 -1       333 3.00000E+01 4.07500E+01 0.00000E+00
 -1       334 2.40000E+01 4.07500E+01 0.00000E+00
 -1       335 3.00000E+01 4.73750E+01 0.00000E+00
 -1       336 2.40000E+01 4.82500E+01 0.00000E+00
 -1       337 1.20000E+01 1.56250E+01 0.00000E+00
 -1       338 1.80000E+01 2.48750E+01 0.00000E+00
 -1       339 1.20000E+01 2.48750E+01 0.00000E+00
 -1       340 1.80000E+01 3.32500E+01 0.00000E+00
 -1       341 1.20000E+01 3.41250E+01 0.00000E+00
 -1       342 1.80000E+01 4.16250E+01 0.00000E+00
 -1       343 1.20000E+01 4.33750E+01 0.00000E+00
 -1       344 6.00000E+00 1.56250E+01 0.00000E+00
 -1       345 6.00000E+00 2.57500E+01 0.00000E+00
 -1       346 6.00000E+00 3.58750E+01 0.00000E+00
 -1       347 1.20000E+01 1.56250E+01 5.00000E+00
 -1       348 6.00000E+00 1.56250E+01 5.00000E+00
 -1       349 1.20000E+01 2.48750E+01 5.00000E+00
 -1       350 6.00000E+00 2.57500E+01 5.00000E+00
 -1       351 1.20000E+01 3.41250E+01 5.00000E+00
 -1       352 6.00000E+00 3.58750E+01 5.00000E+00
 -1       353 1.20000E+01 4.33750E+01 5.00000E+00
 -1       354 2.40000E+01 2.57500E+01 5.00000E+00
 -1       355 1.80000E+01 2.48750E+01 5.00000E+00
 -1       356 2.40000E+01 3.32500E+01 5.00000E+00
 -1       357 1.80000E+01 3.32500E+01 5.00000E+00
 -1       358 2.40000E+01 4.07500E+01 5.00000E+00
 -1       359 1.80000E+01 4.16250E+01 5.00000E+00
 -1       360 2.40000E+01 4.82500E+01 5.00000E+00
 -1       361 3.60000E+01 3.58750E+01 5.00000E+00
 -1       362 3.00000E+01 3.41250E+01 5.00000E+00
 -1       363 3.60000E+01 4.16250E+01 5.00000E+00
 -1       364 3.00000E+01 4.07500E+01 5.00000E+00
 -1       365 3.60000E+01 4.73750E+01 5.00000E+00
 -1       366 3.00000E+01 4.73750E+01 5.00000E+00
 -1       367 3.60000E+01 5.31250E+01 5.00000E+00
 -1       368 4.20000E+01 4.33750E+01 5.00000E+00
 -1       369 4.20000E+01 4.82500E+01 5.00000E+00
 -1       370 4.20000E+01 5.31250E+01 5.00000E+00
 -1       371 3.60000E+01 3.87500E+01 2.50000E+00
 -1       372 3.60000E+01 4.45000E+01 2.50000E+00
 -1       373 3.60000E+01 5.02500E+01 2.50000E+00
 -1       374 2.40000E+01 2.95000E+01 2.50000E+00
 -1       375 2.40000E+01 3.70000E+01 2.50000E+00
 -1       376 2.40000E+01 4.45000E+01 2.50000E+00
 -1       377 1.20000E+01 2.02500E+01 2.50000E+00
 -1       378 1.20000E+01 2.95000E+01 2.50000E+00
 -1       379 1.20000E+01 3.87500E+01 2.50000E+00
 -3
    3C                            16                                     1
 -1       379    4    0    1
 -2       226       225       233       236       244       241       257       272       275       277
 -2       311       281       293       289       323       361       316       324       371       368
 -1       380    4    0    1
 -2       244       241       257       272       243       240       258       273       316       324
 -2       371       368       292       288       325       363       315       326       372       369
 -1       381    4    0    1
 -2       243       240       258       273       242       239       259       274       315       326
 -2       372       369       291       287       327       365       314       328       373       370
 -1       382    4    0    1
 -2       242       239       259       274       230       229       247       250       314       328
 -2       373       370       290       286       329       367       285       298       319       302
 -1       383    4    0    1
 -2       236       233       234       237       272       257       260       269       311       278
 -2       312       282       361       323       330       354       371       331       374       362
 -1       384    4    0    1
 -2       272       257       260       269       273       258       261       270       371       331
 -2       374       362       363       325       332       356       372       333       375       364
 -1       385    4    0    1
 -2       273       258       261       270       274       259       262       271       372       333
 -2       375       364       365       327       334       358       373       335       376       366
 -1       386    4    0    1
 -2       274       259       262       271       250       247       246       249       373       335
 -2       376       366       367       329       336       360       319       297       318       301
 -1       387    4    0    1
 -2       237       234       235       238       269       260       263       266       312       279
 -2       313       283       354       330       337       347       374       338       377       355
 -1       388    4    0    1
 -2       269       260       263       266       270       261       264       267       374       338
 -2       377       355       356       332       339       349       375       340       378       357
 -1       389    4    0    1
 -2       270       261       264       267       271       262       265       268       375       340
 -2       378       357       358       334       341       351       376       342       379       359
 -1       390    4    0    1
 -2       271       262       265       268       249       246       245       248       376       342
 -2       379       359       360       336       343       353       318       296       317       300
 -1       391    4    0    1
 -2       238       235       227       228       266       263       251       254       313       280
 -2       276       284       347       337       303       307       377       344       320       348
 -1       392    4    0    1
 -2       266       263       251       254       267       264       252       255       377       344
 -2       320       348       349       339       304       308       378       345       321       350
 -1       393    4    0    1
 -2       267       264       252       255       268       265       253       256       378       345
 -2       321       350       351       341       305       309       379       346       322       352
 -1       394    4    0    1
 -2       268       265       253       256       248       245       231       232       379       346
 -2       322       352       353       343       306       310       317       295       294       299
 -3
    1PSTEP                         1           1           1          
  100CL  101 1.000000000         155                     0    1           1
 -4  DISP        4    1
 -5  D1          1    2    1    0
 -5  D2          1    2    2    0
 -5  D3          1    2    3    0
 -5  ALL         1    2    0    0    1ALL
 -1       225-4.19944E+00 2.21116E+01 0.00000E+00
 -1       226-4.19944E+00 2.21116E+01 0.00000E+00
 -1       227 0.00000E+00 0.00000E+00 0.00000E+00
 -1       228 0.00000E+00 0.00000E+00 0.00000E+00
 -1       229-1.64662E+01 2.35910E+01 0.00000E+00
 -1       230-1.64662E+01 2.35910E+01 0.00000E+00
 -1       231 0.00000E+00 0.00000E+00 0.00000E+00
 -1       232 0.00000E+00 0.00000E+00 0.00000E+00
 -1       233 5.16587E-01 1.16237E+01 0.00000E+00
 -1       234 1.09133E+00 5.34693E+00 0.00000E+00
 -1       235 3.24948E-01 2.37455E+00 0.00000E+00
 -1       236 5.16587E-01 1.16237E+01 0.00000E+00
 -1       237 1.09133E+00 5.34693E+00 0.00000E+00
 -1       238 3.24948E-01 2.37455E+00 0.00000E+00
 -1       239-1.26699E+01 2.33528E+01 0.00000E+00
 -1       240-9.61773E+00 2.28890E+01 0.00000E+00
 -1       241-6.88461E+00 2.23592E+01 0.00000E+00
 -1       242-1.26699E+01 2.33528E+01 0.00000E+00
 -1       243-9.61773E+00 2.28890E+01 0.00000E+00
 -1       244-6.88461E+00 2.23592E+01 0.00000E+00
 -1       245-2.38970E+00 2.49824E+00 0.00000E+00
 -1       246-6.97233E+00 5.94443E+00 0.00000E+00
 -1       247-1.15969E+01 1.27841E+01 0.00000E+00
 -1       248-2.38970E+00 2.49824E+00 0.00000E+00
 -1       249-6.97233E+00 5.94443E+00 0.00000E+00
 -1       250-1.15969E+01 1.27841E+01 0.00000E+00
 -1       251 0.00000E+00 0.00000E+00 0.00000E+00
 -1       252 0.00000E+00 0.00000E+00 0.00000E+00
 -1       253 0.00000E+00 0.00000E+00 0.00000E+00
 -1       254 0.00000E+00 0.00000E+00 0.00000E+00
 -1       255 0.00000E+00 0.00000E+00 0.00000E+00
 -1       256 0.00000E+00 0.00000E+00 0.00000E+00
 -1       257-1.20210E+00 1.15555E+01 0.00000E+00
 -1       258-3.78976E+00 1.17655E+01 0.00000E+00
 -1       259-7.23737E+00 1.21739E+01 0.00000E+00
 -1       260 8.10291E-01 4.92699E+00 0.00000E+00
 -1       261-4.82140E-01 4.72586E+00 0.00000E+00
 -1       262-2.93706E+00 5.10920E+00 0.00000E+00
 -1       263 4.82756E-01 1.88210E+00 0.00000E+00
 -1       264 2.30301E-01 1.14521E+00 0.00000E+00
 -1       265-5.66831E-01 9.49621E-01 0.00000E+00
 -1       266 4.82756E-01 1.88210E+00 0.00000E+00
 -1       267 2.30301E-01 1.14521E+00 0.00000E+00
 -1       268-5.66831E-01 9.49621E-01 0.00000E+00
 -1       269 8.10291E-01 4.92699E+00 0.00000E+00
 -1       270-4.82140E-01 4.72586E+00 0.00000E+00
 -1       271-2.93706E+00 5.10920E+00 0.00000E+00
 -1       272-1.20210E+00 1.15555E+01 0.00000E+00
 -1       273-3.78976E+00 1.17655E+01 0.00000E+00
 -1       274-7.23737E+00 1.21739E+01 0.00000E+00
 -1       275-4.19944E+00 2.21116E+01-3.33465E-12
 -1       276 0.00000E+00 0.00000E+00 0.00000E+00
 -1       277-1.17120E+00 1.63533E+01 0.00000E+00
 -1       278 1.17581E+00 7.83316E+00 0.00000E+00
 -1       279 6.74863E-01 3.22672E+00 0.00000E+00
 -1       280 8.12600E-02 1.03563E+00 0.00000E+00
 -1       281-1.17120E+00 1.63533E+01 0.00000E+00
 -1       282 1.17581E+00 7.83316E+00 0.00000E+00
 -1       283 6.74863E-01 3.22672E+00 0.00000E+00
 -1       284 8.12600E-02 1.03563E+00 0.00000E+00
 -1       285-1.64662E+01 2.35910E+01-4.72343E-12
 -1       286-1.45585E+01 2.34577E+01 0.00000E+00
 -1       287-1.11352E+01 2.31147E+01 0.00000E+00
 -1       288-8.24285E+00 2.26123E+01 0.00000E+00
 -1       289-5.53355E+00 2.21849E+01 0.00000E+00
 -1       290-1.45585E+01 2.34577E+01 0.00000E+00
 -1       291-1.11352E+01 2.31147E+01 0.00000E+00
 -1       292-8.24285E+00 2.26123E+01 0.00000E+00
 -1       293-5.53355E+00 2.21849E+01 0.00000E+00
 -1       294 0.00000E+00 0.00000E+00 0.00000E+00
 -1       295-5.91913E-01 1.46100E+00 0.00000E+00
 -1       296-4.75164E+00 3.90801E+00 0.00000E+00
 -1       297-9.19411E+00 8.91107E+00 0.00000E+00
 -1       298-1.40627E+01 1.75811E+01 0.00000E+00
 -1       299-5.91913E-01 1.46100E+00 0.00000E+00
 -1       300-4.75164E+00 3.90801E+00 0.00000E+00
 -1       301-9.19411E+00 8.91107E+00 0.00000E+00
 -1       302-1.40627E+01 1.75811E+01 0.00000E+00
 -1       303 0.00000E+00 0.00000E+00 0.00000E+00
 -1       304 0.00000E+00 0.00000E+00 0.00000E+00
 -1       305 0.00000E+00 0.00000E+00 0.00000E+00
 -1       306 0.00000E+00 0.00000E+00 0.00000E+00
 -1       307 0.00000E+00 0.00000E+00 0.00000E+00
 -1       308 0.00000E+00 0.00000E+00 0.00000E+00
 -1       309 0.00000E+00 0.00000E+00 0.00000E+00
 -1       310 0.00000E+00 0.00000E+00 0.00000E+00
 -1       311 5.16587E-01 1.16237E+01-6.28339E-13
 -1       312 1.09133E+00 5.34693E+00 1.87681E-12
 -1       313 3.24948E-01 2.37455E+00-4.05682E-13
 -1       314-1.26699E+01 2.33528E+01-5.46052E-12
 -1       315-9.61773E+00 2.28890E+01 5.96893E-12
 -1       316-6.88461E+00 2.23592E+01-8.41105E-13
 -1       317-2.38970E+00 2.49824E+00-1.20168E-13
 -1       318-6.97233E+00 5.94443E+00 1.59758E-12
 -1       319-1.15969E+01 1.27841E+01 1.52367E-12
 -1       320 0.00000E+00 0.00000E+00 0.00000E+00
 -1       321 0.00000E+00 0.00000E+00 0.00000E+00
 -1       322 0.00000E+00 0.00000E+00 0.00000E+00
 -1       323-3.24459E-01 1.14756E+01 0.00000E+00
 -1       324-3.54889E+00 1.64633E+01 0.00000E+00
 -1       325-2.48387E+00 1.15641E+01 0.00000E+00
 -1       326-6.42230E+00 1.67983E+01 0.00000E+00
 -1       327-5.50087E+00 1.19016E+01 0.00000E+00
 -1       328-9.82984E+00 1.72065E+01 0.00000E+00
 -1       329-9.40481E+00 1.24031E+01 0.00000E+00
 -1       330 9.67068E-01 5.04796E+00 0.00000E+00
 -1       331 2.26947E-01 7.74821E+00 0.00000E+00
 -1       332 1.77028E-01 4.68719E+00 0.00000E+00
 -1       333-1.78789E+00 7.81224E+00 0.00000E+00
 -1       334-1.69873E+00 4.74506E+00 0.00000E+00
 -1       335-4.92533E+00 8.18092E+00 0.00000E+00
 -1       336-4.94266E+00 5.41159E+00 0.00000E+00
 -1       337 4.10210E-01 2.16758E+00 0.00000E+00
 -1       338 8.09261E-01 2.95536E+00 0.00000E+00
 -1       339 3.67380E-01 1.46707E+00 0.00000E+00
 -1       340 1.73700E-01 2.64563E+00 0.00000E+00
 -1       341-1.55810E-01 8.84338E-01 0.00000E+00
 -1       342-1.43528E+00 2.83372E+00 0.00000E+00
 -1       343-1.47797E+00 1.33165E+00 0.00000E+00
 -1       344 1.19242E-01 7.23710E-01 0.00000E+00
 -1       345 5.50873E-02 3.72620E-01 0.00000E+00
 -1       346-1.44193E-01 3.98040E-01 0.00000E+00
 -1       347 4.10210E-01 2.16758E+00 0.00000E+00
 -1       348 1.19242E-01 7.23710E-01 0.00000E+00
 -1       349 3.67380E-01 1.46707E+00 0.00000E+00
 -1       350 5.50873E-02 3.72620E-01 0.00000E+00
 -1       351-1.55810E-01 8.84338E-01 0.00000E+00
 -1       352-1.44193E-01 3.98040E-01 0.00000E+00
 -1       353-1.47797E+00 1.33165E+00 0.00000E+00
 -1       354 9.67068E-01 5.04796E+00 0.00000E+00
 -1       355 8.09261E-01 2.95536E+00 0.00000E+00
 -1       356 1.77028E-01 4.68719E+00 0.00000E+00
 -1       357 1.73700E-01 2.64563E+00 0.00000E+00
 -1       358-1.69873E+00 4.74506E+00 0.00000E+00
 -1       359-1.43528E+00 2.83372E+00 0.00000E+00
 -1       360-4.94266E+00 5.41159E+00 0.00000E+00
 -1       361-3.24459E-01 1.14756E+01 0.00000E+00
 -1       362 2.26947E-01 7.74821E+00 0.00000E+00
 -1       363-2.48387E+00 1.15641E+01 0.00000E+00
 -1       364-1.78789E+00 7.81224E+00 0.00000E+00
 -1       365-5.50087E+00 1.19016E+01 0.00000E+00
 -1       366-4.92533E+00 8.18092E+00 0.00000E+00
 -1       367-9.40481E+00 1.24031E+01 0.00000E+00
 -1       368-3.54889E+00 1.64633E+01 0.00000E+00
 -1       369-6.42230E+00 1.67983E+01 0.00000E+00
 -1       370-9.82984E+00 1.72065E+01 0.00000E+00
 -1       371-1.20210E+00 1.15555E+01-1.46150E-12
 -1       372-3.78976E+00 1.17655E+01 8.15301E-14
 -1       373-7.23737E+00 1.21739E+01 9.44134E-13
 -1       374 8.10291E-01 4.92699E+00 8.14774E-13
 -1       375-4.82140E-01 4.72586E+00-7.18316E-13
 -1       376-2.93706E+00 5.10920E+00-2.19577E-14
 -1       377 4.82756E-01 1.88210E+00 7.62373E-14
 -1       378 2.30301E-01 1.14521E+00 1.40839E-13
 -1       379-5.66831E-01 9.49621E-01-2.54802E-13
 -3
    1PSTEP                         2           1           1          
  100CL  101 1.000000000         155                     0    1           1
 -4  STRESS      6    1
 -5  SXX         1    4    1    1
 -5  SYY         1    4    2    2
 -5  SZZ         1    4    3    3
 -5  SXY         1    4    1    2
 -5  SYZ         1    4    2    3
 -5  SZX         1    4    3    1
 -1       225 2.62275E+02 2.63188E+02 2.62679E+02 8.69208E+00-2.41776E-10 1.33024E-10
 -1       226 2.62275E+02 2.63188E+02 2.62679E+02 8.69208E+00 4.97905E-10-2.04979E-11
 -1       227 2.84531E+00 2.85886E+00 2.85152E+00 3.43845E+00 2.15958E-14-1.62451E-14
 -1       228 2.84531E+00 2.85886E+00 2.85152E+00 3.43845E+00 1.89833E-14-1.67201E-14
 -1       229-2.24992E+02-2.18041E+02-2.21472E+02 2.76387E+00-6.39816E-10 1.38845E-10
 -1       230-2.24992E+02-2.18041E+02-2.21472E+02 2.76387E+00 2.20647E-10 5.55123E-11
 -1       231 2.29829E+02 2.29695E+02 2.29716E+02 6.46485E+00-1.17943E-14-6.21892E-15
 -1       232 2.29829E+02 2.29695E+02 2.29716E+02 6.46485E+00 4.55344E-15 2.84229E-15
 -1       233 6.64353E+01 5.79795E+01 6.21950E+01 1.21089E+01 2.49872E-10 1.05209E-10
 -1       234-1.71894E+02-1.81475E+02-1.76649E+02 1.04607E+01-5.89251E-11 5.33199E-11
 -1       235-1.14360E+02-1.17752E+02-1.16033E+02 4.55834E+00 4.52386E-11-3.79406E-12
 -1       236 6.64353E+01 5.79795E+01 6.21950E+01 1.21089E+01-5.50063E-11 6.59137E-11
 -1       237-1.71894E+02-1.81475E+02-1.76649E+02 1.04607E+01 1.00478E-10 4.55078E-11
 -1       238-1.14360E+02-1.17752E+02-1.16033E+02 4.55834E+00-8.32332E-12-3.00250E-12
 -1       239-3.24451E+01-2.46801E+01-2.85569E+01 5.14470E+00-5.58943E-10 1.44435E-11
 -1       240-6.83613E+01-5.65780E+01-6.24571E+01 6.99834E+00-1.41361E-10 4.78972E-10
 -1       241 2.50504E+01 3.58319E+01 3.04351E+01 6.94098E+00-4.17545E-10-1.32066E-11
 -1       242-3.24451E+01-2.46801E+01-2.85569E+01 5.14470E+00 3.04382E-10-3.90758E-11
 -1       243-6.83613E+01-5.65780E+01-6.24571E+01 6.99834E+00 6.90080E-10 3.81491E-10
 -1       244 2.50504E+01 3.58319E+01 3.04351E+01 6.94098E+00 3.80428E-10-1.37228E-10
 -1       245-3.16539E+01-1.53240E-01-1.59004E+01-3.45315E+00 3.99279E-12 4.54073E-13
 -1       246-2.87702E+02-2.71476E+02-2.79533E+02-4.60615E+00-5.74722E-11 1.91074E-11
 -1       247-1.72388E+02-1.57477E+02-1.64900E+02-2.55334E+00 1.97995E-10 1.20241E-10
 -1       248-3.16539E+01-1.53240E-01-1.59004E+01-3.45315E+00-1.83681E-11-7.54992E-12
 -1       249-2.87702E+02-2.71476E+02-2.79533E+02-4.60615E+00 1.44329E-10-5.63182E-12
 -1       250-1.72388E+02-1.57477E+02-1.64900E+02-2.55334E+00-5.85284E-11 7.04600E-11
 -1       251-5.70667E+01-5.70475E+01-5.70457E+01 1.96897E+00 8.22087E-15-8.22668E-15
 -1       252-9.83917E+01-9.83825E+01-9.83674E+01 6.63467E-01-9.81232E-15 3.52593E-15
 -1       253-9.86924E+01-9.87103E+01-9.86816E+01 1.22426E+00-3.55271E-15-5.26309E-16
 -1       254-5.70667E+01-5.70475E+01-5.70457E+01 1.96897E+00 1.45385E-14-7.28508E-15
 -1       255-9.83917E+01-9.83825E+01-9.83674E+01 6.63467E-01-3.47784E-15 4.74218E-15
 -1       256-9.86924E+01-9.87103E+01-9.86816E+01 1.22426E+00-6.16772E-15 6.47755E-15
 -1       257 1.08395E+01 1.26208E+01 1.17278E+01 7.83334E+00 1.34145E-10 3.02974E-11
 -1       258-3.84524E+01-3.24711E+01-3.54547E+01 4.12939E+00 1.20885E-10 3.57551E-11
 -1       259-7.93081E+01-7.12450E+01-7.52615E+01 5.67526E-01 1.41856E-10 1.77295E-12
 -1       260-9.22099E+00-1.43154E+01-1.17658E+01 7.75258E+00-4.46961E-11 1.86610E-11
 -1       261 3.85754E+01 3.88936E+01 3.87268E+01 3.88419E+00-5.73050E-11 3.09489E-11
 -1       262-1.73512E+01-8.34836E+00-1.28472E+01-1.28532E+00-1.05964E-10 8.31344E-12
 -1       263-6.08144E+01-6.87543E+01-6.47714E+01 5.31546E+00 3.94135E-11 1.10459E-11
 -1       264-4.98245E+01-5.68603E+01-5.33317E+01 4.02900E+00 3.25141E-11-2.56267E-12
 -1       265-7.30667E+00-5.06043E+00-6.18231E+00 8.89551E-01 3.02771E-11 1.14637E-11
 -1       266-6.08144E+01-6.87543E+01-6.47714E+01 5.31546E+00-1.41165E-11 2.65826E-12
 -1       267-4.98245E+01-5.68603E+01-5.33317E+01 4.02900E+00-8.77048E-12-1.10050E-11
 -1       268-7.30667E+00-5.06043E+00-6.18231E+00 8.89551E-01 8.67711E-13 6.64307E-12
 -1       269-9.22099E+00-1.43154E+01-1.17658E+01 7.75258E+00 1.07448E-10-1.59897E-11
 -1       270 3.85754E+01 3.88936E+01 3.87268E+01 3.88419E+00 1.17938E-10 3.64408E-13
 -1       271-1.73512E+01-8.34836E+00-1.28472E+01-1.28532E+00 8.73773E-11-9.83959E-12
 -1       272 1.08395E+01 1.26208E+01 1.17278E+01 7.83334E+00-1.76799E-10-4.58051E-11
 -1       273-3.84524E+01-3.24711E+01-3.54547E+01 4.12939E+00-1.70376E-10-3.17675E-11
 -1       274-7.93081E+01-7.12450E+01-7.52615E+01 5.67526E-01-1.17336E-10-2.94957E-11
 -1       275 2.62276E+02 2.63189E+02 2.62680E+02 8.69289E+00 1.41511E-10 3.86835E-11
 -1       276 2.84569E+00 2.85900E+00 2.85177E+00 3.43889E+00-1.23603E-14-7.78565E-13
 -1       277-1.04663E+02-1.08815E+02-1.06718E+02 1.02303E+01 2.30451E-11 1.13560E-10
 -1       278-3.01149E+01-3.70193E+01-3.35604E+01 1.06936E+01 9.40976E-11 9.71638E-11
 -1       279-7.34383E+00-1.14733E+01-9.40671E+00 7.22937E+00-3.62441E-11 1.07518E-11
 -1       280-6.47969E+01-6.69223E+01-6.58464E+01 5.22735E+00 1.83289E-11-1.19931E-12
 -1       281-1.04663E+02-1.08815E+02-1.06718E+02 1.02303E+01 2.40206E-10 1.72866E-11
 -1       282-3.01149E+01-3.70193E+01-3.35604E+01 1.06936E+01 2.12850E-11 7.37016E-11
 -1       283-7.34383E+00-1.14733E+01-9.40671E+00 7.22937E+00 1.67045E-11 7.24231E-12
 -1       284-6.47969E+01-6.69223E+01-6.58464E+01 5.22735E+00-8.43178E-12-8.03059E-13
 -1       285-2.24992E+02-2.18041E+02-2.21472E+02 2.76392E+00-2.05505E-10 8.33973E-11
 -1       286 1.79541E+01 2.34544E+01 2.07001E+01 3.28391E+00-6.07030E-10 7.60735E-11
 -1       287 1.22633E+01 2.30010E+01 1.76286E+01 6.70256E+00-3.55616E-10 2.46122E-10
 -1       288 6.04406E+00 1.82757E+01 1.21574E+01 7.33575E+00-2.50271E-10 2.27738E-10
 -1       289 7.36855E+00 1.31230E+01 1.02437E+01 7.86173E+00-3.50968E-10 5.76850E-11
 -1       290 1.79541E+01 2.34544E+01 2.07001E+01 3.28391E+00 2.55129E-10 8.08854E-12
 -1       291 1.22633E+01 2.30010E+01 1.76286E+01 6.70256E+00 4.91735E-10 1.70667E-10
 -1       292 6.04406E+00 1.82757E+01 1.21574E+01 7.33575E+00 5.64580E-10 1.16884E-10
 -1       293 7.36855E+00 1.31230E+01 1.02437E+01 7.86173E+00 4.17781E-10-8.09873E-11
 -1       294 2.29829E+02 2.29696E+02 2.29717E+02 6.46490E+00-3.19180E-15-2.32159E-13
 -1       295-2.31506E+02-2.14384E+02-2.22901E+02 2.40852E+00-3.20679E-12 1.17406E-12
 -1       296 5.29744E+01 7.62346E+01 6.45916E+01-4.55040E+00-3.98210E-11 6.16498E-12
 -1       297-3.61799E+01-2.04955E+01-2.83320E+01-3.21353E+00 4.59301E-11 5.24495E-11
 -1       298 4.85116E+01 5.91143E+01 5.38022E+01-3.42316E-01-2.30434E-10 1.69875E-10
 -1       299-2.31506E+02-2.14384E+02-2.22901E+02 2.40852E+00-1.44171E-11-2.83886E-12
 -1       300 5.29744E+01 7.62346E+01 6.45916E+01-4.55040E+00 4.97434E-11-1.00610E-11
 -1       301-3.61799E+01-2.04955E+01-2.83320E+01-3.21353E+00 1.84211E-11 1.49583E-11
 -1       302 4.85116E+01 5.91143E+01 5.38022E+01-3.42316E-01 7.14846E-11 1.02957E-10
 -1       303 3.44598E+01 3.44583E+01 3.44522E+01 2.78084E+00 1.82265E-14-1.59467E-14
 -1       304 2.83879E+01 2.83611E+01 2.83689E+01 1.22756E+00 7.28290E-15-4.49980E-16
 -1       305 2.33326E+01 2.32845E+01 2.33039E+01 6.32629E-01-1.27973E-14 1.07096E-14
 -1       306 6.46224E+01 6.45340E+01 6.45653E+01 3.08416E+00-4.10939E-15 5.16277E-15
 -1       307 3.44598E+01 3.44583E+01 3.44522E+01 2.78084E+00 1.62360E-14-1.62252E-14
 -1       308 2.83879E+01 2.83611E+01 2.83689E+01 1.22756E+00-3.98443E-15-3.41096E-15
 -1       309 2.33326E+01 2.32845E+01 2.33039E+01 6.32629E-01-1.73157E-14 6.17089E-15
 -1       310 6.46224E+01 6.45340E+01 6.45653E+01 3.08416E+00 1.76954E-14-1.66215E-14
 -1       311 6.64359E+01 5.79801E+01 6.21956E+01 1.21097E+01 9.37055E-11 8.39788E-11
 -1       312-1.71894E+02-1.81475E+02-1.76649E+02 1.04615E+01 1.75778E-11 5.21634E-11
 -1       313-1.14360E+02-1.17752E+02-1.16033E+02 4.55886E+00 1.97270E-11-2.73403E-12
 -1       314-3.24458E+01-2.46800E+01-2.85572E+01 5.14493E+00-1.56403E-10-1.08265E-11
 -1       315-6.83617E+01-5.65777E+01-6.24572E+01 6.99884E+00 2.62050E-10 4.49423E-10
 -1       316 2.50508E+01 3.58326E+01 3.04356E+01 6.94168E+00 7.06916E-12-9.37238E-11
 -1       317-3.16552E+01-1.53538E-01-1.59012E+01-3.45324E+00-6.91667E-12-2.07994E-12
 -1       318-2.87704E+02-2.71477E+02-2.79534E+02-4.60637E+00 4.84218E-11 6.67942E-12
 -1       319-1.72389E+02-1.57478E+02-1.64900E+02-2.55342E+00 7.20924E-11 8.85138E-11
 -1       320-5.70668E+01-5.70480E+01-5.70460E+01 1.96933E+00-5.90283E-15 1.52551E-13
 -1       321-9.83930E+01-9.83839E+01-9.83688E+01 6.63670E-01 5.27009E-15 2.71739E-13
 -1       322-9.86930E+01-9.87105E+01-9.86820E+01 1.22434E+00 8.13908E-16-4.94458E-13
 -1       323 3.84166E+01 3.73611E+01 3.78813E+01 1.01924E+01 1.95688E-10 6.49190E-11
 -1       324-2.26894E+01-1.73417E+01-2.00115E+01 7.38034E+00-9.70604E-11 3.33104E-11
 -1       325 1.91671E+01 2.26252E+01 2.08920E+01 6.15465E+00 1.12452E-10 3.33295E-11
 -1       326-1.90085E+00 5.86257E+00 1.98046E+00 5.38827E+00-7.80379E-11 1.22142E-10
 -1       327 1.41411E+01 2.07771E+01 1.74556E+01 2.58365E+00 1.31897E-10 1.61994E-11
 -1       328-2.91234E+01-2.19209E+01-2.55170E+01 2.59178E+00-2.19487E-10 6.14514E-12
 -1       329 1.15208E+01 2.14399E+01 1.64771E+01-1.62708E+00 1.76954E-10 5.73875E-11
 -1       330 5.46839E+01 4.94392E+01 5.20512E+01 9.15923E+00-5.75923E-11 3.38850E-11
 -1       331-7.80062E+01-7.85812E+01-7.82781E+01 7.75413E+00 1.77999E-11 1.87576E-11
 -1       332 4.22280E+01 3.97332E+01 4.09724E+01 5.87405E+00-3.26201E-11 2.46370E-11
 -1       333-6.69071E+01-6.39025E+01-6.53917E+01 4.14432E+00 2.51931E-11 5.58030E-11
 -1       334 2.43982E+01 2.91864E+01 2.67869E+01 1.63044E+00-9.52391E-11 2.01796E-11
 -1       335-2.67073E+01-1.82608E+01-2.24796E+01-3.14000E-01 7.11659E-14-1.28955E-12
 -1       336 1.72354E+01 2.75944E+01 2.24104E+01-3.64936E+00-8.90971E-11 1.11588E-11
 -1       337 4.77972E+01 4.27633E+01 4.52712E+01 4.96249E+00 3.99581E-11 3.25969E-12
 -1       338-7.87786E+01-8.35010E+01-8.11236E+01 6.14398E+00-1.34040E-11 1.98144E-11
 -1       339 5.97958E+01 5.23179E+01 5.60456E+01 4.58917E+00 3.18951E-11 3.43650E-12
 -1       340-8.34329E+01-8.57457E+01-8.45724E+01 4.20223E+00-3.41851E-11 3.41052E-12
 -1       341 5.04678E+01 4.84842E+01 4.94661E+01 2.47240E+00 3.81387E-11 3.81684E-12
 -1       342-1.37892E+02-1.32719E+02-1.35279E+02 5.82301E-01-4.98898E-11 1.72821E-11
 -1       343 1.12510E+01 2.69277E+01 1.90855E+01-2.14564E+00 1.30172E-11 5.48082E-12
 -1       344-3.75264E+01-4.13582E+01-3.94344E+01 4.38173E+00 1.33625E-11 3.88449E-12
 -1       345-4.17426E+01-4.43005E+01-4.30129E+01 2.33035E+00 1.25614E-11 6.98827E-13
 -1       346-2.97871E+01-2.68717E+01-2.83237E+01 7.27320E-01 8.82832E-12 3.36173E-12
 -1       347 4.77972E+01 4.27633E+01 4.52712E+01 4.96249E+00-1.36002E-11-5.41884E-13
 -1       348-3.75264E+01-4.13582E+01-3.94344E+01 4.38173E+00-1.33995E-11-3.08510E-13
 -1       349 5.97958E+01 5.23179E+01 5.60456E+01 4.58917E+00-1.55254E-11-4.97838E-12
 -1       350-4.17426E+01-4.43005E+01-4.30129E+01 2.33035E+00-8.08063E-12-3.52054E-12
 -1       351 5.04678E+01 4.84842E+01 4.94661E+01 2.47240E+00 2.75935E-12-2.82593E-12
 -1       352-2.97871E+01-2.68717E+01-2.83237E+01 7.27320E-01-5.87808E-12 9.60619E-13
 -1       353 1.12510E+01 2.69277E+01 1.90855E+01-2.14564E+00-1.29545E-11-9.22797E-13
 -1       354 5.46839E+01 4.94392E+01 5.20512E+01 9.15923E+00 9.81137E-11 1.26612E-11
 -1       355-7.87786E+01-8.35010E+01-8.11236E+01 6.14398E+00 3.58564E-11-1.68168E-12
 -1       356 4.22280E+01 3.97332E+01 4.09724E+01 5.87405E+00 1.31023E-10-8.02635E-12
 -1       357-8.34329E+01-8.57457E+01-8.45724E+01 4.20223E+00 3.27572E-11-1.60988E-11
 -1       358 2.43982E+01 2.91864E+01 2.67869E+01 1.63044E+00 8.90239E-11-4.16414E-12
 -1       359-1.37892E+02-1.32719E+02-1.35279E+02 5.82301E-01 3.20614E-11 5.85447E-12
 -1       360 1.72354E+01 2.75944E+01 2.24104E+01-3.64936E+00 1.08405E-10-1.00196E-11
 -1       361 3.84166E+01 3.73611E+01 3.78813E+01 1.01924E+01-1.12322E-10 7.39791E-12
 -1       362-7.80062E+01-7.85812E+01-7.82781E+01 7.75413E+00-6.17446E-11-3.65107E-11
 -1       363 1.91671E+01 2.26252E+01 2.08920E+01 6.15465E+00-1.88774E-10-3.81684E-11
 -1       364-6.69071E+01-6.39025E+01-6.53917E+01 4.14432E+00-3.29764E-11 6.79074E-12
 -1       365 1.41411E+01 2.07771E+01 1.74556E+01 2.58365E+00-1.43474E-10-3.29382E-11
 -1       366-2.67073E+01-1.82608E+01-2.24796E+01-3.14000E-01-3.29997E-11-2.56357E-11
 -1       367 1.15208E+01 2.14399E+01 1.64771E+01-1.62708E+00-8.09959E-11 1.67750E-11
 -1       368-2.26894E+01-1.73417E+01-2.00115E+01 7.38034E+00 1.46318E-10-6.69134E-11
 -1       369-1.90085E+00 5.86257E+00 1.98046E+00 5.38827E+00 1.91916E-10 4.00024E-11
 -1       370-2.91234E+01-2.19209E+01-2.55170E+01 2.59178E+00 8.22779E-11-3.59888E-11
 -1       371 1.08398E+01 1.26213E+01 1.17282E+01 7.83404E+00-2.06150E-11-9.91320E-12
 -1       372-3.84528E+01-3.24711E+01-3.54549E+01 4.12983E+00-1.95460E-11 5.23499E-12
 -1       373-7.93090E+01-7.12452E+01-7.52621E+01 5.67633E-01 1.60602E-11-2.10160E-11
 -1       374-9.22080E+00-1.43154E+01-1.17657E+01 7.75320E+00 2.73011E-11 2.97280E-12
 -1       375 3.85756E+01 3.88939E+01 3.87270E+01 3.88455E+00 2.89175E-11 1.64614E-11
 -1       376-1.73524E+01-8.34884E+00-1.28480E+01-1.28532E+00-5.74778E-12-1.34010E-12
 -1       377-6.08144E+01-6.87547E+01-6.47716E+01 5.31590E+00 1.33952E-11 7.06771E-12
 -1       378-4.98247E+01-5.68607E+01-5.33320E+01 4.02928E+00 1.14681E-11-7.23213E-12
 -1       379-7.30754E+00-5.06078E+00-6.18292E+00 8.89596E-01 1.51885E-11 9.20891E-12
 -3
    1PSTEP                         3           1           1          
  100CL  101 1.000000000         155                     0    1           1
 -4  TOSTRAIN    6    1
 -5  EXX         1    4    1    1
 -5  EYY         1    4    2    2
 -5  EZZ         1    4    3    3
 -5  EXY         1    4    1    2
 -5  EYZ         1    4    2    3
 -5  EZX         1    4    3    1
 -1       225-8.66306E-03 1.09149E-02-2.66773E-12 1.86247E-01-5.18056E-12 2.85033E-12
 -1       226-8.66306E-03 1.09149E-02 2.66773E-12 1.86247E-01 1.06687E-11-4.39212E-13
 -1       227-1.32910E-04 1.57355E-04-4.11466E-19 7.36761E-02 4.62736E-16-3.48086E-16
 -1       228-1.32910E-04 1.57355E-04 4.11466E-19 7.36761E-02 4.06758E-16-3.58263E-16
 -1       229-7.54194E-02 7.35208E-02-3.77877E-12 5.92217E-02-1.37094E-11 2.97505E-12
 -1       230-7.54194E-02 7.35208E-02 3.77877E-12 5.92217E-02 4.72784E-12 1.18947E-12
 -1       231 2.41618E-03-4.46923E-04 4.60537E-19 1.38523E-01-2.52719E-16-1.33254E-16
 -1       232 2.41618E-03-4.46923E-04-4.60537E-19 1.38523E-01 9.75672E-17 6.09022E-17
 -1       233 9.08593E-02-9.03261E-02-5.02675E-13 2.59459E-01 5.35405E-12 2.25433E-12
 -1       234 1.01887E-01-1.03401E-01 1.50146E-12 2.24144E-01-1.26260E-12 1.14249E-12
 -1       235 3.58393E-02-3.68340E-02-3.24548E-13 9.76721E-02 9.69333E-13-8.12958E-14
 -1       236 9.08593E-02-9.03261E-02 5.02675E-13 2.59459E-01-1.17863E-12 1.41234E-12
 -1       237 1.01887E-01-1.03401E-01-1.50146E-12 2.24144E-01 2.15295E-12 9.75102E-13
 -1       238 3.58393E-02-3.68340E-02 3.24548E-13 9.76721E-02-1.78345E-13-6.43350E-14
 -1       239-8.33137E-02 8.30689E-02-4.36844E-12 1.10236E-01-1.19766E-11 3.09482E-13
 -1       240-1.26509E-01 1.25974E-01 4.77517E-12 1.49954E-01-3.02896E-12 1.02630E-11
 -1       241-1.15377E-01 1.15638E-01-6.72887E-13 1.48725E-01-8.94680E-12-2.82980E-13
 -1       242-8.33137E-02 8.30689E-02 4.36844E-12 1.10236E-01 6.52203E-12-8.37284E-13
 -1       243-1.26509E-01 1.25974E-01-4.77517E-12 1.49954E-01 1.47865E-11 8.17425E-12
 -1       244-1.15377E-01 1.15638E-01 6.72887E-13 1.48725E-01 8.15149E-12-2.94040E-12
 -1       245-3.37553E-01 3.37417E-01-9.61344E-14-7.39912E-02 8.55541E-14 9.72948E-15
 -1       246-1.75036E-01 1.72640E-01 1.27807E-12-9.86967E-02-1.23147E-12 4.09418E-13
 -1       247-1.60454E-01 1.59040E-01 1.21895E-12-5.47107E-02 4.24246E-12 2.57643E-12
 -1       248-3.37553E-01 3.37417E-01 9.61344E-14-7.39912E-02-3.93576E-13-1.61773E-13
 -1       249-1.75036E-01 1.72640E-01-1.27807E-12-9.86967E-02 3.09256E-12-1.20674E-13
 -1       250-1.60454E-01 1.59040E-01-1.21895E-12-5.47107E-02-1.25410E-12 1.50976E-12
 -1       251-4.49721E-04-3.93068E-05 3.25286E-19 4.21893E-02 1.76150E-16-1.76274E-16
 -1       252-5.20383E-04-3.22879E-04 2.74739E-19 1.42162E-02-2.10250E-16 7.55505E-17
 -1       253-2.31125E-04-6.14831E-04-1.79596E-19 2.62325E-02-7.61245E-17-1.12773E-17
 -1       254-4.49721E-04-3.93068E-05-3.25286E-19 4.21893E-02 3.11519E-16-1.56098E-16
 -1       255-5.20383E-04-3.22879E-04-2.74739E-19 1.42162E-02-7.45201E-17 1.01611E-16
 -1       256-2.31125E-04-6.14831E-04 1.79596E-19 2.62325E-02-1.32157E-16 1.38795E-16
 -1       257-1.90339E-02 1.91344E-02-1.16921E-12 1.67846E-01 2.87435E-12 6.49186E-13
 -1       258-6.42326E-02 6.39287E-02 6.52288E-14 8.84811E-02 2.59021E-12 7.66129E-13
 -1       259-8.67075E-02 8.60623E-02 7.55309E-13 1.21605E-02 3.03956E-12 3.79892E-14
 -1       260 5.45288E-02-5.46296E-02 6.51823E-13 1.66116E-01-9.57709E-13 3.99851E-13
 -1       261-3.24331E-03 3.57530E-03-5.74656E-13 8.32271E-02-1.22788E-12 6.63147E-13
 -1       262-9.65080E-02 9.63978E-02-1.75666E-14-2.75407E-02-2.27051E-12 1.78133E-13
 -1       263 8.47872E-02-8.53425E-02 6.09898E-14 1.13895E-01 8.44520E-13 2.36683E-13
 -1       264 7.51502E-02-7.56074E-02 1.12671E-13 8.63300E-02 6.96685E-13-5.49108E-14
 -1       265-2.40918E-02 2.40388E-02-2.03843E-13 1.90605E-02 6.48752E-13 2.45635E-13
 -1       266 8.47872E-02-8.53425E-02-6.09898E-14 1.13895E-01-3.02477E-13 5.69590E-14
 -1       267 7.51502E-02-7.56074E-02-1.12671E-13 8.63300E-02-1.87926E-13-2.35807E-13
 -1       268-2.40918E-02 2.40388E-02 2.03843E-13 1.90605E-02 1.85926E-14 1.42342E-13
 -1       269 5.45288E-02-5.46296E-02-6.51823E-13 1.66116E-01 2.30230E-12-3.42613E-13
 -1       270-3.24331E-03 3.57530E-03 5.74656E-13 8.32271E-02 2.52708E-12 7.80822E-15
 -1       271-9.65080E-02 9.63978E-02 1.75666E-14-2.75407E-02 1.87225E-12-2.10834E-13
 -1       272-1.90339E-02 1.91344E-02 1.16921E-12 1.67846E-01-3.78830E-12-9.81472E-13
 -1       273-6.42326E-02 6.39287E-02-6.52288E-14 8.84811E-02-3.65067E-12-6.80687E-13
 -1       274-8.67075E-02 8.60623E-02-7.55309E-13 1.21605E-02-2.51418E-12-6.32009E-13
 -1       275-8.66517E-03 1.09170E-02-4.67006E-28 1.86264E-01 3.03218E-12 8.28877E-13
 -1       276-1.30285E-04 1.54732E-04 3.80625E-29 7.36856E-02-2.64845E-16-1.66824E-14
 -1       277 4.40199E-02-4.49348E-02-1.58520E-12 2.19207E-01 4.93792E-13 2.43328E-12
 -1       278 7.38272E-02-7.41149E-02 4.99394E-13 2.29132E-01 2.01624E-12 2.08194E-12
 -1       279 4.42016E-02-4.42822E-02 5.88456E-13 1.54905E-01-7.76608E-13 2.30380E-13
 -1       280 2.24884E-02-2.30529E-02-1.62274E-13 1.12007E-01 3.92737E-13-2.56978E-14
 -1       281 4.40199E-02-4.49348E-02 1.58520E-12 2.19207E-01 5.14692E-12 3.70403E-13
 -1       282 7.38272E-02-7.41149E-02-4.99394E-13 2.29132E-01 4.56076E-13 1.57921E-12
 -1       283 4.42016E-02-4.42822E-02-5.88456E-13 1.54905E-01 3.57930E-13 1.55182E-13
 -1       284 2.24884E-02-2.30529E-02 1.62274E-13 1.12007E-01-1.80669E-13-1.72073E-14
 -1       285-7.54265E-02 7.35279E-02-7.57306E-29 5.92229E-02-4.40338E-12 1.78697E-12
 -1       286-5.88397E-02 5.90171E-02-4.07361E-12 7.03649E-02-1.30069E-11 1.63004E-12
 -1       287-1.14963E-01 1.15114E-01 2.03366E-13 1.43617E-01-7.61983E-12 5.27370E-12
 -1       288-1.30992E-01 1.31097E-01 2.05115E-12 1.57184E-01-5.36259E-12 4.87977E-12
 -1       289-6.16067E-02 6.16945E-02-1.67031E-12 1.68454E-01-7.52025E-12 1.23602E-12
 -1       290-5.88397E-02 5.90171E-02 4.07361E-12 7.03649E-02 5.46669E-12 1.73314E-13
 -1       291-1.14963E-01 1.15114E-01-2.03366E-13 1.43617E-01 1.05365E-11 3.65691E-12
 -1       292-1.30992E-01 1.31097E-01-2.05115E-12 1.57184E-01 1.20973E-11 2.50449E-12
 -1       293-6.16067E-02 6.16945E-02 1.67031E-12 1.68454E-01 8.95185E-12-1.73533E-12
 -1       294 2.40750E-03-4.38238E-04-1.89327E-29 1.38524E-01-6.83911E-17-4.97450E-15
 -1       295-1.84388E-01 1.82477E-01-4.80672E-14 5.16077E-02-6.87123E-14 2.51567E-14
 -1       296-2.48923E-01 2.49477E-01 5.90968E-13-9.75021E-02-8.53251E-13 1.32098E-13
 -1       297-1.68157E-01 1.67914E-01 1.24851E-12-6.88568E-02 9.84152E-13 1.12384E-12
 -1       298-1.13361E-01 1.13823E-01-1.27991E-12-7.33486E-03-4.93753E-12 3.63993E-12
 -1       299-1.84388E-01 1.82477E-01 4.80672E-14 5.16077E-02-3.08918E-13-6.08288E-14
 -1       300-2.48923E-01 2.49477E-01-5.90968E-13-9.75021E-02 1.06586E-12-2.15578E-13
 -1       301-1.68157E-01 1.67914E-01-1.24851E-12-6.88568E-02 3.94712E-13 3.20514E-13
 -1       302-1.13361E-01 1.13823E-01 1.27991E-12-7.33486E-03 1.53171E-12 2.20607E-12
 -1       303 1.63849E-04 1.31495E-04 2.43790E-19 5.95854E-02 3.90541E-16-3.41693E-16
 -1       304 4.08421E-04-1.65227E-04-1.60637E-19 2.63030E-02 1.56052E-16-9.64178E-18
 -1       305 6.14900E-04-4.15126E-04 8.43327E-20 1.35554E-02-2.74210E-16 2.29476E-16
 -1       306 1.22392E-03-6.70429E-04 2.77478E-19 6.60848E-02-8.80526E-17 1.10623E-16
 -1       307 1.63849E-04 1.31495E-04-2.43790E-19 5.95854E-02 3.47891E-16-3.47660E-16
 -1       308 4.08421E-04-1.65227E-04 1.60637E-19 2.63030E-02-8.53749E-17-7.30871E-17
 -1       309 6.14900E-04-4.15126E-04-8.43327E-20 1.35554E-02-3.71026E-16 1.32225E-16
 -1       310 1.22392E-03-6.70429E-04-2.77478E-19 6.60848E-02 3.79162E-16-3.56151E-16
 -1       311 9.08592E-02-9.03260E-02 2.49280E-28 2.59476E-01 2.00784E-12 1.79943E-12
 -1       312 1.01889E-01-1.03404E-01-1.05707E-28 2.24159E-01 3.76641E-13 1.11771E-12
 -1       313 3.58425E-02-3.68372E-02-1.70468E-29 9.76833E-02 4.22693E-13-5.85825E-14
 -1       314-8.33213E-02 8.30764E-02 4.74894E-28 1.10241E-01-3.35127E-12-2.31981E-13
 -1       315-1.26517E-01 1.25981E-01-9.16656E-28 1.49965E-01 5.61499E-12 9.62984E-12
 -1       316-1.15381E-01 1.15642E-01-1.89327E-28 1.48740E-01 1.51472E-13-2.00823E-12
 -1       317-3.37563E-01 3.37427E-01-1.31148E-29-7.39930E-02-1.48204E-13-4.45672E-14
 -1       318-1.75047E-01 1.72651E-01-2.95823E-30-9.87014E-02 1.03754E-12 1.43121E-13
 -1       319-1.60462E-01 1.59049E-01-5.55358E-28-5.47126E-02 1.54473E-12 1.89660E-12
 -1       320-4.46760E-04-4.22709E-05-2.06090E-29 4.21972E-02-1.26481E-16 3.26873E-15
 -1       321-5.18619E-04-3.24654E-04-4.53595E-30 1.42206E-02 1.12923E-16 5.82260E-15
 -1       322-2.35349E-04-6.10610E-04 5.02899E-30 2.62341E-02 1.74397E-17-1.05948E-14
 -1       323 1.14707E-02-1.11459E-02-8.35939E-13 2.18393E-01 4.19303E-12 1.39103E-12
 -1       324-5.73792E-02 5.72077E-02-9.21047E-13 1.58140E-01-2.07973E-12 7.13747E-13
 -1       325-3.69587E-02 3.71378E-02-5.51992E-13 1.31877E-01 2.40952E-12 7.14156E-13
 -1       326-8.31655E-02 8.31824E-02 2.42020E-12 1.15455E-01-1.67213E-12 2.61715E-12
 -1       327-7.10201E-02 7.11698E-02 4.10268E-13 5.53603E-02 2.82617E-12 3.47107E-13
 -1       328-7.72736E-02 7.70549E-02-1.80657E-12 5.55345E-02-4.70298E-12 1.31673E-13
 -1       329-1.06199E-01 1.06340E-01 9.87131E-13-3.48636E-02 3.79162E-12 1.22965E-12
 -1       330 5.64128E-02-5.59666E-02 1.07664E-12 1.96256E-01-1.23404E-12 7.26060E-13
 -1       331 5.82464E-03-6.49568E-03-2.58691E-13 1.66149E-01 3.81400E-13 4.01921E-13
 -1       332 2.69036E-02-2.65524E-02 3.85838E-14 1.25864E-01-6.98956E-13 5.27899E-13
 -1       333-3.24712E-02 3.19106E-02-2.54716E-13 8.88009E-02 5.39817E-13 1.19570E-12
 -1       334-5.11847E-02 5.14143E-02-2.96112E-13 3.49356E-02-2.04070E-12 4.32390E-13
 -1       335-9.05885E-02 9.03958E-02 3.68872E-13-6.72813E-03 1.52488E-15-2.76313E-14
 -1       336-1.10885E-01 1.11077E-01 6.30251E-13-7.81953E-02-1.90910E-12 2.39101E-13
 -1       337 5.41253E-02-5.37372E-02-1.31780E-13 1.06332E-01 8.56188E-13 6.98458E-14
 -1       338 5.02467E-02-5.09422E-02 3.56406E-13 1.31648E-01-2.87210E-13 4.24566E-13
 -1       339 8.03546E-02-7.98742E-02 8.68309E-14 9.83328E-02 6.83421E-13 7.36343E-14
 -1       340 2.44162E-02-2.51412E-02-2.30993E-13 9.00417E-02-7.32489E-13 7.30776E-14
 -1       341 2.14630E-02-2.10389E-02-4.55851E-14 5.29764E-02 8.17203E-13 8.17840E-14
 -1       342-5.59973E-02 5.48376E-02-1.10705E-13 1.24771E-02-1.06900E-12 3.70307E-13
 -1       343-1.67871E-01 1.68035E-01-1.49989E-13-4.59750E-02 2.78921E-13 1.17438E-13
 -1       344 4.08828E-02-4.12208E-02 3.04952E-14 9.38879E-02 2.86320E-13 8.32335E-14
 -1       345 2.72207E-02-2.75894E-02 5.63359E-14 4.99328E-02 2.69156E-13 1.49739E-14
 -1       346-3.13550E-02 3.11122E-02-1.01921E-13 1.55844E-02 1.89166E-13 7.20324E-14
 -1       347 5.41253E-02-5.37372E-02 1.31780E-13 1.06332E-01-2.91414E-13-1.16110E-14
 -1       348 4.08828E-02-4.12208E-02-3.04952E-14 9.38879E-02-2.87112E-13-6.61050E-15
 -1       349 8.03546E-02-7.98742E-02-8.68309E-14 9.83328E-02-3.32666E-13-1.06672E-13
 -1       350 2.72207E-02-2.75894E-02-5.63359E-14 4.99328E-02-1.73145E-13-7.54351E-14
 -1       351 2.14630E-02-2.10389E-02 4.55851E-14 5.29764E-02 5.91250E-14-6.05517E-14
 -1       352-3.13550E-02 3.11122E-02 1.01921E-13 1.55844E-02-1.25950E-13 2.05833E-14
 -1       353-1.67871E-01 1.68035E-01 1.49989E-13-4.59750E-02-2.77578E-13-1.97729E-14
 -1       354 5.64128E-02-5.59666E-02-1.07664E-12 1.96256E-01 2.10230E-12 2.71293E-13
 -1       355 5.02467E-02-5.09422E-02-3.56406E-13 1.31648E-01 7.68301E-13-3.60335E-14
 -1       356 2.69036E-02-2.65524E-02-3.85838E-14 1.25864E-01 2.80745E-12-1.71982E-13
 -1       357 2.44162E-02-2.51412E-02 2.30993E-13 9.00417E-02 7.01894E-13-3.44952E-13
 -1       358-5.11847E-02 5.14143E-02 2.96112E-13 3.49356E-02 1.90753E-12-8.92256E-14
 -1       359-5.59973E-02 5.48376E-02 1.10705E-13 1.24771E-02 6.86984E-13 1.25445E-13
 -1       360-1.10885E-01 1.11077E-01-6.30251E-13-7.81953E-02 2.32280E-12-2.14691E-13
 -1       361 1.14707E-02-1.11459E-02 8.35939E-13 2.18393E-01-2.40675E-12 1.58516E-13
 -1       362 5.82464E-03-6.49568E-03 2.58691E-13 1.66149E-01-1.32301E-12-7.82319E-13
 -1       363-3.69587E-02 3.71378E-02 5.51992E-13 1.31877E-01-4.04489E-12-8.17839E-13
 -1       364-3.24712E-02 3.19106E-02 2.54716E-13 8.88009E-02-7.06590E-13 1.45506E-13
 -1       365-7.10201E-02 7.11698E-02-4.10268E-13 5.53603E-02-3.07424E-12-7.05773E-13
 -1       366-9.05885E-02 9.03958E-02-3.68872E-13-6.72813E-03-7.07088E-13-5.49299E-13
 -1       367-1.06199E-01 1.06340E-01-9.87131E-13-3.48636E-02-1.73551E-12 3.59440E-13
 -1       368-5.73792E-02 5.72077E-02 9.21047E-13 1.58140E-01 3.13518E-12-1.43376E-12
 -1       369-8.31655E-02 8.31824E-02-2.42020E-12 1.15455E-01 4.11222E-12 8.57137E-13
 -1       370-7.72736E-02 7.70549E-02 1.80657E-12 5.55345E-02 1.76298E-12-7.71136E-13
 -1       371-1.90358E-02 1.91363E-02 2.14570E-28 1.67861E-01-4.41721E-13-2.12412E-13
 -1       372-6.42378E-02 6.39338E-02-7.74070E-29 8.84904E-02-4.18815E-13 1.12171E-13
 -1       373-8.67150E-02 8.60698E-02-2.09973E-28 1.21628E-02 3.44125E-13-4.50313E-13
 -1       374 5.45310E-02-5.46318E-02-7.37585E-29 1.66129E-01 5.84984E-13 6.36987E-14
 -1       375-3.24425E-03 3.57624E-03 5.98178E-29 8.32348E-02 6.19620E-13 3.52720E-13
 -1       376-9.65152E-02 9.64050E-02-2.12992E-29-2.75407E-02-1.23159E-13-2.87145E-14
 -1       377 8.47906E-02-8.53458E-02 2.42082E-29 1.13905E-01 2.87021E-13 1.51441E-13
 -1       378 7.51516E-02-7.56088E-02 1.47911E-30 8.63359E-02 2.45729E-13-1.54964E-13
 -1       379-2.40973E-02 2.40443E-02-9.86076E-31 1.90615E-02 3.25447E-13 1.97321E-13
 -3
    1PSTEP                         4           1           1          
  100CL  101 1.000000000         155                     0    1           1
 -4  FORC        4    1
 -5  F1          1    2    1    0
 -5  F2          1    2    2    0
 -5  F3          1    2    3    0
 -5  ALL         1    2    0    0    1ALL
 -1       225-6.46474E-09-1.04167E+01-1.10124E+02
 -1       226-8.03236E-09-1.04167E+01 1.10124E+02
 -1       227 9.47807E+01 4.23498E+01 1.61797E+02
 -1       228 9.47807E+01 4.23498E+01-1.61797E+02
 -1       229 1.75506E-09-1.04167E+01 1.48864E+02
 -1       230 1.91355E-09-1.04167E+01-1.48864E+02
 -1       231 4.20419E+02-6.84729E+02-2.42376E+02
 -1       232 4.20419E+02-6.84729E+02 2.42376E+02
 -1       233-2.54879E-09-2.18023E-09 1.17783E+02
 -1       234-1.28980E-09 8.86194E-10 8.26092E+02
 -1       235-7.99634E-10-3.87097E-10 7.29201E+02
 -1       236 2.99064E-09 2.19702E-09-1.17783E+02
 -1       237 4.11858E-11 7.08839E-10-8.26092E+02
 -1       238 1.53336E-10 2.24840E-10-7.29201E+02
 -1       239 3.12748E-09-2.08333E+01 8.82061E+01
 -1       240-7.83798E-09-2.08333E+01 1.61030E+02
 -1       241-4.24342E-09-2.08333E+01 5.91790E+01
 -1       242 6.61782E-09-2.08333E+01-8.82061E+01
 -1       243 7.56921E-09-2.08333E+01-1.61030E+02
 -1       244-2.53038E-09-2.08333E+01-5.91790E+01
 -1       245 4.17054E-10 4.07603E-11 8.07585E+00
 -1       246-1.31209E-09 3.87268E-10 7.87661E+02
 -1       247-5.07329E-10-7.59032E-09 3.23120E+02
 -1       248-7.53827E-10-2.80501E-10-8.07585E+00
 -1       249-7.17060E-10 1.04237E-09-7.87661E+02
 -1       250 2.90141E-09-7.30560E-09-3.23120E+02
 -1       251 3.40424E+02-1.87307E+02 4.67245E+02
 -1       252 7.77642E+02-1.04607E+03 5.86854E+02
 -1       253 8.97038E+02-1.58131E+03 4.06661E+02
 -1       254 3.40424E+02-1.87307E+02-4.67245E+02
 -1       255 7.77642E+02-1.04607E+03-5.86854E+02
 -1       256 8.97038E+02-1.58131E+03-4.06661E+02
 -1       257-1.75367E-09-3.84704E-09 3.37993E+02
 -1       258-3.42881E-09-2.56635E-09 4.02180E+02
 -1       259 3.95950E-09-3.78854E-09 4.41025E+02
 -1       260-1.19335E-09 1.20636E-09 7.00441E+02
 -1       261 2.17936E-09-7.96349E-10 8.80826E+01
 -1       262 1.21128E-09-2.73296E-09 3.23390E+02
 -1       263 1.83775E-10-6.64332E-10 1.11919E+03
 -1       264 2.27010E-10-1.96521E-09 8.25426E+02
 -1       265-9.52587E-11-6.55730E-10 2.47525E+02
 -1       266 5.44105E-10-6.72753E-10-1.11919E+03
 -1       267 6.88490E-10-7.89840E-11-8.25426E+02
 -1       268-3.91778E-10-2.15852E-10-2.47525E+02
 -1       269-5.19027E-10 1.14281E-09-7.00441E+02
 -1       270 1.85277E-09-1.05098E-09-8.80826E+01
 -1       271 1.48361E-09-3.45580E-09-3.23390E+02
 -1       272-4.76382E-09-2.40266E-09-3.37993E+02
 -1       273 2.85874E-09-8.33493E-09-4.02180E+02
 -1       274 2.33872E-09-1.41661E-09-4.41025E+02
 -1       275 1.39862E-09 4.16667E+01-1.40683E-09
 -1       276-7.45904E+01-9.63142E+01-1.31168E-09
 -1       277 1.68196E-09 8.23733E-10 1.66104E+02
 -1       278 7.66033E-10-2.08342E-10-3.89289E+02
 -1       279 1.21996E-11 3.12590E-10-6.10317E+02
 -1       280-6.95456E-11 8.38424E-11-1.72129E+01
 -1       281 1.04771E-09 2.48157E-09-1.66104E+02
 -1       282 1.96819E-09-3.02625E-10 3.89289E+02
 -1       283-1.84018E-10-1.89113E-10 6.10317E+02
 -1       284 1.18488E-11-3.80511E-11 1.72129E+01
 -1       285-9.45968E-10 4.16667E+01-1.04923E-09
 -1       286-8.42797E-09 4.16667E+01-1.05829E+02
 -1       287 1.08570E-09 4.16667E+01-1.29419E+02
 -1       288-2.85625E-09 4.16667E+01-1.65790E+02
 -1       289 1.40866E-09 4.16667E+01-1.16385E+02
 -1       290-6.96357E-09 4.16667E+01 1.05829E+02
 -1       291-2.57043E-09 4.16667E+01 1.29419E+02
 -1       292-7.99627E-09 4.16667E+01 1.65790E+02
 -1       293 3.63016E-09 4.16667E+01 1.16385E+02
 -1       294 3.80732E+02 1.09155E+02 1.42984E-09
 -1       295-4.91986E-10 1.72930E-10 1.89599E+03
 -1       296-1.84025E-10-2.53963E-10-5.81427E+02
 -1       297 1.42878E-09-1.06801E-09 1.08023E+02
 -1       298 3.61315E-10-4.43295E-09-1.78004E+02
 -1       299-2.58077E-10-1.47641E-11-1.89599E+03
 -1       300 5.54160E-10 2.02823E-10 5.81427E+02
 -1       301 1.44956E-09 1.89277E-10-1.08023E+02
 -1       302 2.83514E-09-3.30623E-09 1.78004E+02
 -1       303-2.26857E+02-1.32857E+02-5.97177E+02
 -1       304-6.17656E+02 4.88596E+02-5.86663E+02
 -1       305-1.03532E+03 1.59396E+03-4.71957E+02
 -1       306-6.50471E+02 1.42404E+03-1.96072E+02
 -1       307-2.26857E+02-1.32857E+02 5.97177E+02
 -1       308-6.17656E+02 4.88596E+02 5.86663E+02
 -1       309-1.03532E+03 1.59396E+03 4.71957E+02
 -1       310-6.50471E+02 1.42404E+03 1.96072E+02
 -1       311 5.66148E-10-1.95742E-09 1.38501E-09
 -1       312 1.94589E-10-6.90808E-10-4.55427E-10
 -1       313-2.78561E-10 2.66106E-10-5.81180E-10
 -1       314-3.81915E-09 8.33333E+01-5.94100E-09
 -1       315 2.33957E-09 8.33333E+01-4.26285E-09
 -1       316-2.84811E-09 8.33333E+01-2.92422E-09
 -1       317 6.59925E-10 2.33932E-10-2.17433E-10
 -1       318 1.94844E-09-8.08723E-10 3.55146E-09
 -1       319 3.23202E-09-6.75495E-09-9.42038E-10
 -1       320-3.27328E+02-3.77474E+01 1.93842E-09
 -1       321-1.95385E+02-1.91680E+01-3.00662E-09
 -1       322 2.16572E+02-2.89258E+02 1.79791E-09
 -1       323-4.02159E-09 3.90030E-09-8.07382E+02
 -1       324 4.18058E-09 1.50467E-09-1.35361E+02
 -1       325-7.59970E-09 2.37348E-09-4.98938E+02
 -1       326 1.93369E-09-2.31048E-09-2.43349E+02
 -1       327 6.84852E-10-8.47021E-09-3.90218E+02
 -1       328-2.92642E-10 2.44428E-09-3.17222E+00
 -1       329-3.78962E-09 1.46950E-08-1.61406E+02
 -1       330-2.50795E-09 1.73898E-09-1.52355E+03
 -1       331 7.53050E-10-1.00971E-09-1.30504E+02
 -1       332 8.47239E-10 1.45792E-09-7.56458E+02
 -1       333-6.55404E-10 2.40869E-09 5.31131E+01
 -1       334-1.88443E-09 4.15194E-09-3.52551E+02
 -1       335-2.59519E-09 1.10700E-09-6.94889E+01
 -1       336-6.71852E-10 3.62981E-09-4.83289E+02
 -1       337 8.54699E-10-4.60434E-10-1.48243E+03
 -1       338-9.06107E-10 4.10391E-10-1.36531E+02
 -1       339-5.37027E-10 7.13706E-10-1.32832E+03
 -1       340-2.83000E-10 4.08385E-10 6.27283E+02
 -1       341-5.31055E-10 1.00908E-09-8.86784E+02
 -1       342 3.00998E-10 5.37055E-10 1.02995E+03
 -1       343 5.03642E-10-1.44891E-10-1.82624E+01
 -1       344-3.50466E-11-1.52044E-10-6.03601E+02
 -1       345 7.64623E-11-1.37917E-10-7.04891E+02
 -1       346-3.16355E-11-1.64928E-10 2.14332E+02
 -1       347-1.25289E-11 4.04615E-10 1.48243E+03
 -1       348-2.39841E-10-7.99430E-11 6.03601E+02
 -1       349-2.24225E-10 6.66206E-10 1.32832E+03
 -1       350-3.16399E-10-3.06668E-11 7.04891E+02
 -1       351-3.37709E-10 1.03363E-09 8.86784E+02
 -1       352 2.39286E-10 2.87714E-10-2.14332E+02
 -1       353 4.20227E-10-7.95495E-10 1.82624E+01
 -1       354-5.76928E-10 2.63669E-09 1.52355E+03
 -1       355-1.08365E-10 7.65853E-10 1.36531E+02
 -1       356-8.42206E-10 6.42174E-09 7.56458E+02
 -1       357-2.77633E-10 5.91057E-10-6.27283E+02
 -1       358-1.36789E-09 3.87517E-09 3.52551E+02
 -1       359 1.07674E-09 2.63084E-10-1.02995E+03
 -1       360-9.88505E-11 2.82217E-09 4.83289E+02
 -1       361-2.02991E-09 6.33187E-09 8.07382E+02
 -1       362-1.43440E-09-2.32911E-10 1.30504E+02
 -1       363-1.26872E-09 7.09342E-10 4.98938E+02
 -1       364 6.66402E-10-1.38823E-10-5.31131E+01
 -1       365-4.19162E-09-6.88236E-09 3.90218E+02
 -1       366-2.26836E-09 2.07477E-09 6.94889E+01
 -1       367-3.62677E-09 1.11444E-08 1.61406E+02
 -1       368 1.95925E-09-9.63044E-10 1.35361E+02
 -1       369 3.71651E-09-3.11106E-09 2.43349E+02
 -1       370-4.90493E-09 5.56876E-09 3.17222E+00
 -1       371-5.87352E-11-8.43760E-10 2.17833E-09
 -1       372-4.47469E-09-3.95852E-09-4.55655E-09
 -1       373-8.49789E-09 1.28975E-08 2.55562E-09
 -1       374-1.76248E-09 1.58332E-10-9.53513E-10
 -1       375-9.18808E-10 1.32296E-09-2.35727E-09
 -1       376 9.50177E-10 4.27041E-09 1.39527E-09
 -1       377-2.09501E-10-1.28263E-10-2.28439E-10
 -1       378 1.50689E-10-3.45840E-10 9.08926E-10
 -1       379 4.56788E-10-3.78600E-10 1.25521E-10
 -3
    1PSTEP                         5           1           1          
  100CL  101 1.000000000         155                     0    1           1
 -4  ERROR       1    1
 -5  STR(%)      1    1    0    0
 -1       225 4.22250E+01
 -1       226 4.22250E+01
 -1       227 3.73871E+01
 -1       228 3.73871E+01
 -1       229 3.73669E+01
 -1       230 3.73669E+01
 -1       231 4.00291E+01
 -1       232 4.00291E+01
 -1       233 4.22250E+01
 -1       234 3.82385E+01
 -1       235 3.73871E+01
 -1       236 4.22250E+01
 -1       237 3.82385E+01
 -1       238 3.73871E+01
 -1       239 4.05779E+01
 -1       240 4.47967E+01
 -1       241 4.47967E+01
 -1       242 4.05779E+01
 -1       243 4.47967E+01
 -1       244 4.47967E+01
 -1       245 4.00291E+01
 -1       246 3.41505E+01
 -1       247 3.73669E+01
 -1       248 4.00291E+01
 -1       249 3.41505E+01
 -1       250 3.73669E+01
 -1       251 3.73871E+01
 -1       252 3.67708E+01
 -1       253 4.00291E+01
 -1       254 3.73871E+01
 -1       255 3.67708E+01
 -1       256 4.00291E+01
 -1       257 4.47967E+01
 -1       258 4.47967E+01
 -1       259 4.05779E+01
 -1       260 4.46391E+01
 -1       261 4.46391E+01
 -1       262 3.48354E+01
 -1       263 3.73871E+01
 -1       264 3.70637E+01
 -1       265 4.00291E+01
 -1       266 3.73871E+01
 -1       267 3.70637E+01
 -1       268 4.00291E+01
 -1       269 4.46391E+01
 -1       270 4.46391E+01
 -1       271 3.48354E+01
 -1       272 4.47967E+01
 -1       273 4.47967E+01
 -1       274 4.05779E+01
 -1       275 4.22250E+01
 -1       276 3.73871E+01
 -1       277 4.22250E+01
 -1       278 4.02317E+01
 -1       279 3.78128E+01
 -1       280 3.73871E+01
 -1       281 4.22250E+01
 -1       282 4.02317E+01
 -1       283 3.78128E+01
 -1       284 3.73871E+01
 -1       285 3.73669E+01
 -1       286 3.89724E+01
 -1       287 4.26873E+01
 -1       288 4.47967E+01
 -1       289 4.35108E+01
 -1       290 3.89724E+01
 -1       291 4.26873E+01
 -1       292 4.47967E+01
 -1       293 4.35108E+01
 -1       294 4.00291E+01
 -1       295 4.00291E+01
 -1       296 3.70898E+01
 -1       297 3.57587E+01
 -1       298 3.73669E+01
 -1       299 4.00291E+01
 -1       300 3.70898E+01
 -1       301 3.57587E+01
 -1       302 3.73669E+01
 -1       303 3.73871E+01
 -1       304 3.70790E+01
 -1       305 3.83999E+01
 -1       306 4.00291E+01
 -1       307 3.73871E+01
 -1       308 3.70790E+01
 -1       309 3.83999E+01
 -1       310 4.00291E+01
 -1       311 4.22250E+01
 -1       312 3.82385E+01
 -1       313 3.73871E+01
 -1       314 4.05779E+01
 -1       315 4.47967E+01
 -1       316 4.47967E+01
 -1       317 4.00291E+01
 -1       318 3.41505E+01
 -1       319 3.73669E+01
 -1       320 3.73871E+01
 -1       321 3.67708E+01
 -1       322 4.00291E+01
 -1       323 4.35108E+01
 -1       324 4.47967E+01
 -1       325 4.47967E+01
 -1       326 4.47967E+01
 -1       327 4.26873E+01
 -1       328 4.05779E+01
 -1       329 3.89724E+01
 -1       330 4.14388E+01
 -1       331 4.47179E+01
 -1       332 4.46391E+01
 -1       333 4.47179E+01
 -1       334 3.97372E+01
 -1       335 3.77067E+01
 -1       336 3.44930E+01
 -1       337 3.73871E+01
 -1       338 4.10131E+01
 -1       339 3.72254E+01
 -1       340 4.08514E+01
 -1       341 3.85464E+01
 -1       342 3.74322E+01
 -1       343 4.00291E+01
 -1       344 3.73871E+01
 -1       345 3.69172E+01
 -1       346 4.00291E+01
 -1       347 3.73871E+01
 -1       348 3.73871E+01
 -1       349 3.72254E+01
 -1       350 3.69172E+01
 -1       351 3.85464E+01
 -1       352 4.00291E+01
 -1       353 4.00291E+01
 -1       354 4.14388E+01
 -1       355 4.10131E+01
 -1       356 4.46391E+01
 -1       357 4.08514E+01
 -1       358 3.97372E+01
 -1       359 3.74322E+01
 -1       360 3.44930E+01
 -1       361 4.35108E+01
 -1       362 4.47179E+01
 -1       363 4.47967E+01
 -1       364 4.47179E+01
 -1       365 4.26873E+01
 -1       366 3.77067E+01
 -1       367 3.89724E+01
 -1       368 4.47967E+01
 -1       369 4.47967E+01
 -1       370 4.05779E+01
 -1       371 4.47967E+01
 -1       372 4.47967E+01
 -1       373 4.05779E+01
 -1       374 4.46391E+01
 -1       375 4.46391E+01
 -1       376 3.48354E+01
 -1       377 3.73871E+01
 -1       378 3.70637E+01
 -1       379 4.00291E+01
 -3
 9999
