    1C
    1UUSER                                                              
    1UDATE              18.february.2021                                
    1UTIME              19:26:56                                        
    1UHOST                                                              
    1UPGM               CalculiX                                        
    1UVERSION           Version 2.17                             
    1UCOMPILETIME       Thu Jul 23 21:43:50 CEST 2020                    
    1UDIR                                                               
    1UDBN                                                               
    1UMAT    1STEEL                                                     
    2C                            12                                     1
 -1         1 1.16500E+00 8.12831E-01 0.00000E+00
 -1         2-3.05640E-15 1.00000E+00 0.00000E+00
 -1         3 3.39463E-15 1.58305E+00 0.00000E+00
 -1         4 1.36776E+00 1.30989E+00 0.00000E+00
 -1         5-4.65605E-15 2.75000E+00 0.00000E+00
 -1         6 1.77348E+00 2.30447E+00 0.00000E+00
 -1         7 1.78302E+00 4.53000E-01 0.00000E+00
 -1         8 2.13324E+00 7.51594E-01 0.00000E+00
 -1         9 2.83277E+00 1.34800E+00 0.00000E+00
 -1        10 2.00000E+00 1.09117E-14 0.00000E+00
 -1        11 2.41700E+00 2.81975E-15 0.00000E+00
 -1        12 3.25000E+00 9.31453E-15 0.00000E+00
 -3
    3C                            12                                     1
 -1         1    7    0    1
 -2         1         4         3
 -1         2    7    0    1
 -2         8        11        12
 -1         3    7    0    1
 -2         2         1         3
 -1         4    7    0    1
 -2         9         8        12
 -1         5    7    0    1
 -2        11         8        10
 -1         6    7    0    1
 -2         7        10         8
 -1         7    7    0    1
 -2         6         5         3
 -1         8    7    0    1
 -2         4         6         3
 -1         9    7    0    1
 -2         1         7         4
 -1        10    7    0    1
 -2         8         4         7
 -1        11    7    0    1
 -2         6         4         9
 -1        12    7    0    1
 -2         8         9         4
 -3
    1PSTEP                         1           1           1          
  100CL  101 1.000000000          12                     0    1           1
 -4  DISP        4    1
 -5  D1          1    2    1    0
 -5  D2          1    2    2    0
 -5  D3          1    2    3    0
 -5  ALL         1    2    0    0    1ALL
 -1         1 4.38850E-05 2.48433E-04 0.00000E+00
 -1         2 0.00000E+00 3.26021E-04 0.00000E+00
 -1         3 0.00000E+00 3.28340E-04 0.00000E+00
 -1         4 7.30480E-05 2.29766E-04 0.00000E+00
 -1         5 0.00000E+00 3.42936E-04 0.00000E+00
 -1         6 1.32337E-04 2.32284E-04 0.00000E+00
 -1         7 5.35753E-05 1.15178E-04 0.00000E+00
 -1         8 6.24616E-05 9.30418E-05 0.00000E+00
 -1         9 1.19091E-04 6.72311E-05 0.00000E+00
 -1        10 4.50227E-05 0.00000E+00 0.00000E+00
 -1        11 5.30713E-05 0.00000E+00 0.00000E+00
 -1        12 5.52556E-05 0.00000E+00 0.00000E+00
 -3
    1PSTEP                         2           1           1          
  100CL  101 1.000000000          12                     0    1           1
 -4  STRESS      6    1
 -5  SXX         1    4    1    1
 -5  SYY         1    4    2    2
 -5  SZZ         1    4    3    3
 -5  SXY         1    4    1    2
 -5  SYZ         1    4    2    3
 -5  SZX         1    4    3    1
 -1         1 1.16086E+07 6.17016E+06 2.87534E+05-6.86783E+06 5.82804E-09 1.45519E-11
 -1         2 8.96494E+06 3.52221E+06-7.75037E+03-5.32757E+06 1.75205E-08 0.00000E+00
 -1         3 1.40474E+07 6.19542E+06-1.28016E+05-3.95519E+06 2.18279E-09-1.36697E-09
 -1         4 1.17431E+07 1.30448E+07-1.74276E+05-5.91254E+06-3.64889E-09-5.39330E-10
 -1         5 1.80867E+07 8.05328E+06 1.77966E+03-4.78561E+06 8.75843E-09-5.68434E-13
 -1         6 1.47914E+07 1.07597E+07-4.00150E+03-4.18262E+06-3.65071E-09 7.29415E-10
 -1         7 1.05300E+07 2.24628E+07 7.12626E+05-1.14975E+07 1.23910E-08 1.48430E-09
 -1         8 1.05638E+07 2.41559E+07 4.72692E+03-4.07920E+06 5.10772E-09-5.47516E-10
 -1         9 1.10727E+07 1.51723E+07 2.29105E+05-3.33339E+06-3.64889E-09-3.71074E-10
 -1        10 1.30376E+07 3.37905E+07 6.07392E+05-6.33970E+06 1.85901E-08 5.45697E-10
 -1        11 1.07926E+07 2.90191E+07-7.17085E+05 1.34339E+06 1.09139E-09 5.23869E-10
 -1        12 9.49887E+06 1.91499E+07 3.57901E+05 3.20632E+05-2.19006E-09 5.38421E-10
 -3
    1PSTEP                         3           1           1          
  100CL  101 1.000000000          12                     0    1           1
 -4  TOSTRAIN    6    1
 -5  EXX         1    4    1    1
 -5  EYY         1    4    2    2
 -5  EZZ         1    4    3    3
 -5  EXY         1    4    1    2
 -5  EYZ         1    4    2    3
 -5  EZX         1    4    3    1
 -1         1 4.60539E-05 1.23872E-05-2.40291E-05-4.25151E-05 3.60518E-20 5.29396E-23
 -1         2 3.76695E-05 3.97642E-06-1.78757E-05-3.29802E-05 1.08420E-19 0.00000E+00
 -1         3 5.82249E-05 9.61710E-06-2.95280E-05-2.44845E-05 1.35261E-20-8.46371E-21
 -1         4 3.75329E-05 4.55914E-05-3.62412E-05-3.66014E-05-2.25787E-20-3.33519E-21
 -1         5 7.46200E-05 1.25082E-05-3.73344E-05-2.96252E-05 5.42233E-20-3.30872E-24
 -1         6 5.50701E-05 3.01119E-05-3.65207E-05-2.58924E-05-2.25853E-20 4.51310E-21
 -1         7 1.70352E-05 9.09050E-05-4.37392E-05-7.11747E-05 7.67624E-20 9.15854E-21
 -1         8 1.57886E-05 9.99303E-05-4.95771E-05-2.52522E-05 3.15784E-20-3.38813E-21
 -1         9 3.07250E-05 5.61035E-05-3.64018E-05-2.06353E-05-2.25787E-20-2.27640E-21
 -1        10 1.29440E-05 1.41414E-04-6.40049E-05-3.92457E-05 1.15091E-19 3.33519E-21
 -1        11 1.09617E-05 1.23793E-04-6.02885E-05 8.31620E-06 6.72332E-21 3.28225E-21
 -1        12 1.73644E-05 7.71089E-05-3.92225E-05 1.98486E-06-1.36055E-20 3.28225E-21
 -3
    1PSTEP                         4           1           1          
  100CL  101 1.000000000          12                     0    1           1
 -4  ERROR       1    1
 -5  STR(%)      1    1    0    0
 -1         1 0.00000E+00
 -1         2 0.00000E+00
 -1         3 0.00000E+00
 -1         4 0.00000E+00
 -1         5 0.00000E+00
 -1         6 0.00000E+00
 -1         7 0.00000E+00
 -1         8 0.00000E+00
 -1         9 0.00000E+00
 -1        10 0.00000E+00
 -1        11 0.00000E+00
 -1        12 0.00000E+00
 -3
 9999
