    1C
    1UHash: PXJD0WWr, Date: 03/11/2021, Unit system: MM_TON_S_C         
    1UUSER                                                              
    1UDATE              11.march.2021                                   
    1UTIME              20:33:01                                        
    1UHOST                                                              
    1UPGM               CalculiX                                        
    1UVERSION           Version 2.10                             
    1UCOMPILETIME       Sa 5. MÃ¤r 12:23:33 CET 2016                    
    1UDIR                                                               
    1UDBN                                                               
    1UMAT    1RUBBER                                                    
    2C                            62                                     1
 -1       113 4.80000E+01 4.40000E+01 0.00000E+00
 -1       114 4.80000E+01 4.40000E+01 5.00000E+00
 -1       115 0.00000E+00 0.00000E+00 0.00000E+00
 -1       116 0.00000E+00 0.00000E+00 5.00000E+00
 -1       117 4.80000E+01 6.00000E+01 0.00000E+00
 -1       118 4.80000E+01 6.00000E+01 5.00000E+00
 -1       119 0.00000E+00 4.40000E+01 0.00000E+00
 -1       120 0.00000E+00 4.40000E+01 5.00000E+00
 -1       121 4.00000E+01 3.66667E+01 0.00000E+00
 -1       122 3.20000E+01 2.93333E+01 0.00000E+00
 -1       123 2.40000E+01 2.20000E+01 0.00000E+00
 -1       124 1.60000E+01 1.46667E+01 0.00000E+00
 -1       125 8.00000E+00 7.33333E+00 0.00000E+00
 -1       126 4.00000E+01 3.66667E+01 5.00000E+00
 -1       127 3.20000E+01 2.93333E+01 5.00000E+00
 -1       128 2.40000E+01 2.20000E+01 5.00000E+00
 -1       129 1.60000E+01 1.46667E+01 5.00000E+00
 -1       130 8.00000E+00 7.33333E+00 5.00000E+00
 -1       131 4.80000E+01 5.20000E+01 0.00000E+00
 -1       132 4.80000E+01 5.20000E+01 5.00000E+00
 -1       133 1.20000E+01 4.80000E+01 0.00000E+00
 -1       134 2.40000E+01 5.20000E+01 0.00000E+00
 -1       135 3.60000E+01 5.60000E+01 0.00000E+00
 -1       136 1.20000E+01 4.80000E+01 5.00000E+00
 -1       137 2.40000E+01 5.20000E+01 5.00000E+00
 -1       138 3.60000E+01 5.60000E+01 5.00000E+00
 -1       139 0.00000E+00 1.10000E+01 0.00000E+00
 -1       140 0.00000E+00 2.20000E+01 0.00000E+00
 -1       141 0.00000E+00 3.30000E+01 0.00000E+00
 -1       142 0.00000E+00 1.10000E+01 5.00000E+00
 -1       143 0.00000E+00 2.20000E+01 5.00000E+00
 -1       144 0.00000E+00 3.30000E+01 5.00000E+00
 -1       145 3.80065E+01 4.67331E+01 0.00000E+00
 -1       146 2.09537E+01 3.61194E+01 0.00000E+00
 -1       147 6.62674E+00 2.71099E+01 0.00000E+00
 -1       148 9.61877E+00 3.62657E+01 0.00000E+00
 -1       149 7.75803E+00 1.77959E+01 0.00000E+00
 -1       150 3.05955E+01 4.02121E+01 0.00000E+00
 -1       151 1.49260E+01 2.57683E+01 0.00000E+00
 -1       152 1.14120E+01 2.54818E+01 5.00000E+00
 -1       153 2.54557E+01 4.04878E+01 5.00000E+00
 -1       154 3.70129E+01 4.65978E+01 5.00000E+00
 -1       155 1.14283E+01 3.72313E+01 5.00000E+00
 -1       156 7.18583E+00 1.63756E+01 5.00000E+00
 -1       157 2.08432E+01 3.11517E+01 5.00000E+00
 -1       158 4.76644E+00 2.94410E+01 2.49260E+00
 -1       159 1.90846E+01 4.34778E+01 2.67109E+00
 -1       160 4.07939E+01 4.27991E+01 2.51110E+00
 -1       161 4.39936E+00 1.43227E+01 2.48868E+00
 -1       162 4.16500E+01 5.27551E+01 2.48414E+00
 -1       163 2.72183E+01 3.45384E+01 2.49888E+00
 -1       164 1.80600E+01 2.26208E+01 2.46317E+00
 -1       165 3.44644E+01 3.83298E+01 2.39541E+00
 -1       166 5.28484E+00 2.17785E+01 2.44780E+00
 -1       167 3.47176E+00 7.98777E+00 2.50831E+00
 -1       168 8.74601E+00 4.20323E+01 2.48626E+00
 -1       169 3.13696E+01 4.86081E+01 2.53841E+00
 -1       170 4.45190E+00 3.72323E+01 2.46029E+00
 -1       171 2.37781E+01 2.81748E+01 2.59705E+00
 -1       172 1.24811E+01 1.89365E+01 2.48864E+00
 -1       173 4.38562E+01 4.75927E+01 2.42804E+00
 -1       174 9.79015E+00 1.41780E+01 2.49064E+00
 -3
    3C                           173                                     1
 -1       190    3    0    1
 -2       169       162       135       138
 -1       191    3    0    1
 -2       150       153       159       146
 -1       192    3    0    1
 -2       144       140       141       158
 -1       193    3    0    1
 -2       144       170       155       158
 -1       194    3    0    1
 -2       159       155       148       146
 -1       195    3    0    1
 -2       169       138       135       134
 -1       196    3    0    1
 -2       152       157       148       155
 -1       197    3    0    1
 -2       126       165       160       121
 -1       198    3    0    1
 -2       159       136       168       155
 -1       199    3    0    1
 -2       155       144       120       170
 -1       200    3    0    1
 -2       134       169       138       137
 -1       201    3    0    1
 -2       160       114       154       126
 -1       202    3    0    1
 -2       161       166       140       143
 -1       203    3    0    1
 -2       145       169       134       150
 -1       204    3    0    1
 -2       157       152       148       151
 -1       205    3    0    1
 -2       122       127       165       163
 -1       206    3    0    1
 -2       154       132       162       138
 -1       207    3    0    1
 -2       157       148       146       151
 -1       208    3    0    1
 -2       146       148       157       155
 -1       209    3    0    1
 -2       152       155       148       158
 -1       210    3    0    1
 -2       122       146       171       163
 -1       211    3    0    1
 -2       146       163       153       157
 -1       212    3    0    1
 -2       150       146       159       134
 -1       213    3    0    1
 -2       122       121       165       127
 -1       214    3    0    1
 -2       118       117       131       162
 -1       215    3    0    1
 -2       165       126       160       154
 -1       216    3    0    1
 -2       121       165       127       126
 -1       217    3    0    1
 -2       152       147       151       149
 -1       218    3    0    1
 -2       139       125       167       115
 -1       219    3    0    1
 -2       174       156       130       129
 -1       220    3    0    1
 -2       161       143       140       139
 -1       221    3    0    1
 -2       127       122       171       163
 -1       222    3    0    1
 -2       127       163       171       157
 -1       223    3    0    1
 -2       146       155       157       153
 -1       224    3    0    1
 -2       153       126       127       165
 -1       225    3    0    1
 -2       131       132       173       113
 -1       226    3    0    1
 -2       157       127       163       153
 -1       227    3    0    1
 -2       167       125       130       115
 -1       228    3    0    1
 -2       154       126       153       165
 -1       229    3    0    1
 -2       136       119       133       168
 -1       230    3    0    1
 -2       159       146       148       133
 -1       231    3    0    1
 -2       172       151       124       149
 -1       232    3    0    1
 -2       141       119       144       170
 -1       233    3    0    1
 -2       144       119       120       170
 -1       234    3    0    1
 -2       174       149       124       125
 -1       235    3    0    1
 -2       123       124       129       164
 -1       236    3    0    1
 -2       128       152       157       164
 -1       237    3    0    1
 -2       120       119       136       168
 -1       238    3    0    1
 -2       123       128       171       164
 -1       239    3    0    1
 -2       146       134       133       159
 -1       240    3    0    1
 -2       129       152       128       164
 -1       241    3    0    1
 -2       124       172       129       164
 -1       242    3    0    1
 -2       123       164       129       128
 -1       243    3    0    1
 -2       173       132       131       162
 -1       244    3    0    1
 -2       156       129       174       172
 -1       245    3    0    1
 -2       161       130       174       156
 -1       246    3    0    1
 -2       159       133       168       136
 -1       247    3    0    1
 -2       153       159       137       169
 -1       248    3    0    1
 -2       174       172       124       149
 -1       249    3    0    1
 -2       155       152       144       158
 -1       250    3    0    1
 -2       124       125       130       174
 -1       251    3    0    1
 -2       143       152       156       166
 -1       252    3    0    1
 -2       163       146       150       122
 -1       253    3    0    1
 -2       131       135       145       162
 -1       254    3    0    1
 -2       155       120       136       168
 -1       255    3    0    1
 -2       166       156       143       161
 -1       256    3    0    1
 -2       159       136       155       153
 -1       257    3    0    1
 -2       143       140       144       158
 -1       258    3    0    1
 -2       160       114       126       113
 -1       259    3    0    1
 -2       160       126       121       113
 -1       260    3    0    1
 -2       161       125       139       149
 -1       261    3    0    1
 -2       118       162       131       132
 -1       262    3    0    1
 -2       139       125       161       167
 -1       263    3    0    1
 -2       130       167       161       125
 -1       264    3    0    1
 -2       139       161       143       142
 -1       265    3    0    1
 -2       174       129       124       172
 -1       266    3    0    1
 -2       117       135       131       162
 -1       267    3    0    1
 -2       154       114       173       132
 -1       268    3    0    1
 -2       124       174       130       129
 -1       269    3    0    1
 -2       130       167       115       116
 -1       270    3    0    1
 -2       144       152       143       158
 -1       271    3    0    1
 -2       134       137       133       159
 -1       272    3    0    1
 -2       152       166       149       156
 -1       273    3    0    1
 -2       133       137       136       159
 -1       274    3    0    1
 -2       132       114       173       113
 -1       275    3    0    1
 -2       171       151       146       123
 -1       276    3    0    1
 -2       153       165       163       150
 -1       277    3    0    1
 -2       141       170       144       158
 -1       278    3    0    1
 -2       158       140       141       147
 -1       279    3    0    1
 -2       152       158       148       147
 -1       280    3    0    1
 -2       152       147       148       151
 -1       281    3    0    1
 -2       143       166       140       158
 -1       282    3    0    1
 -2       158       152       143       166
 -1       283    3    0    1
 -2       141       148       158       147
 -1       284    3    0    1
 -2       159       153       155       146
 -1       285    3    0    1
 -2       150       134       159       169
 -1       286    3    0    1
 -2       137       159       134       169
 -1       287    3    0    1
 -2       159       137       136       153
 -1       288    3    0    1
 -2       145       160       165       121
 -1       289    3    0    1
 -2       160       154       173       145
 -1       290    3    0    1
 -2       145       121       165       150
 -1       291    3    0    1
 -2       160       145       173       113
 -1       292    3    0    1
 -2       145       160       121       113
 -1       293    3    0    1
 -2       124       172       164       151
 -1       294    3    0    1
 -2       140       166       147       158
 -1       295    3    0    1
 -2       161       156       174       149
 -1       296    3    0    1
 -2       161       149       174       125
 -1       297    3    0    1
 -2       161       156       143       142
 -1       298    3    0    1
 -2       118       117       162       138
 -1       299    3    0    1
 -2       122       150       165       121
 -1       300    3    0    1
 -2       150       169       159       153
 -1       301    3    0    1
 -2       118       138       162       132
 -1       302    3    0    1
 -2       117       135       162       138
 -1       303    3    0    1
 -2       122       128       171       123
 -1       304    3    0    1
 -2       127       157       171       128
 -1       305    3    0    1
 -2       122       123       171       146
 -1       306    3    0    1
 -2       156       172       174       149
 -1       307    3    0    1
 -2       163       146       153       150
 -1       308    3    0    1
 -2       123       124       164       151
 -1       309    3    0    1
 -2       161       125       174       130
 -1       310    3    0    1
 -2       169       134       135       145
 -1       311    3    0    1
 -2       169       145       135       162
 -1       312    3    0    1
 -2       154       132       173       162
 -1       313    3    0    1
 -2       145       173       131       162
 -1       314    3    0    1
 -2       158       152       166       147
 -1       315    3    0    1
 -2       145       150       165       154
 -1       316    3    0    1
 -2       145       154       165       160
 -1       317    3    0    1
 -2       122       163       165       150
 -1       318    3    0    1
 -2       153       165       127       163
 -1       319    3    0    1
 -2       154       165       153       150
 -1       320    3    0    1
 -2       161       139       140       149
 -1       321    3    0    1
 -2       161       149       140       166
 -1       322    3    0    1
 -2       166       152       149       147
 -1       323    3    0    1
 -2       149       156       166       161
 -1       324    3    0    1
 -2       149       140       166       147
 -1       325    3    0    1
 -2       139       167       142       115
 -1       326    3    0    1
 -2       115       167       142       116
 -1       327    3    0    1
 -2       139       167       161       142
 -1       328    3    0    1
 -2       130       156       161       142
 -1       329    3    0    1
 -2       130       142       161       167
 -1       330    3    0    1
 -2       131       173       145       113
 -1       331    3    0    1
 -2       164       152       157       151
 -1       332    3    0    1
 -2       123       164       171       151
 -1       333    3    0    1
 -2       154       173       145       162
 -1       334    3    0    1
 -2       159       168       148       155
 -1       335    3    0    1
 -2       168       119       133       148
 -1       336    3    0    1
 -2       168       148       170       119
 -1       337    3    0    1
 -2       159       133       148       168
 -1       338    3    0    1
 -2       168       119       170       120
 -1       339    3    0    1
 -2       142       167       130       116
 -1       340    3    0    1
 -2       160       114       173       154
 -1       341    3    0    1
 -2       162       138       169       154
 -1       342    3    0    1
 -2       169       154       138       137
 -1       343    3    0    1
 -2       145       154       169       150
 -1       344    3    0    1
 -2       169       154       153       150
 -1       345    3    0    1
 -2       154       169       153       137
 -1       346    3    0    1
 -2       145       162       169       154
 -1       347    3    0    1
 -2       170       148       155       158
 -1       348    3    0    1
 -2       168       120       170       155
 -1       349    3    0    1
 -2       141       119       170       148
 -1       350    3    0    1
 -2       168       155       170       148
 -1       351    3    0    1
 -2       141       148       170       158
 -1       352    3    0    1
 -2       171       128       157       164
 -1       353    3    0    1
 -2       157       151       146       171
 -1       354    3    0    1
 -2       146       163       157       171
 -1       355    3    0    1
 -2       127       128       171       122
 -1       356    3    0    1
 -2       171       164       157       151
 -1       357    3    0    1
 -2       152       151       172       149
 -1       358    3    0    1
 -2       172       152       129       164
 -1       359    3    0    1
 -2       156       152       172       149
 -1       360    3    0    1
 -2       156       129       172       152
 -1       361    3    0    1
 -2       172       152       164       151
 -1       362    3    0    1
 -2       160       113       173       114
 -3
    1PSTEP                         1           1           1          
  100CL  101 1.000000000          62                     0    1           1
 -4  DISP        4    1
 -5  D1          1    2    1    0
 -5  D2          1    2    2    0
 -5  D3          1    2    3    0
 -5  ALL         1    2    0    0    1ALL
 -1       113-4.81456E+00 2.30904E+01 0.00000E+00
 -1       114-4.94436E+00 2.30184E+01 0.00000E+00
 -1       115 0.00000E+00 0.00000E+00 0.00000E+00
 -1       116 0.00000E+00 0.00000E+00 0.00000E+00
 -1       117-1.62814E+01 2.41614E+01 0.00000E+00
 -1       118-1.61515E+01 2.43621E+01 0.00000E+00
 -1       119 0.00000E+00 0.00000E+00 0.00000E+00
 -1       120 0.00000E+00 0.00000E+00 0.00000E+00
 -1       121-9.38427E-01 1.60078E+01 0.00000E+00
 -1       122 1.21483E+00 1.02355E+01 0.00000E+00
 -1       123 1.90324E+00 5.87026E+00 0.00000E+00
 -1       124 1.28642E+00 2.97994E+00 0.00000E+00
 -1       125 4.80828E-01 1.27658E+00 0.00000E+00
 -1       126-9.69650E-01 1.58714E+01 0.00000E+00
 -1       127 1.26151E+00 1.03014E+01 0.00000E+00
 -1       128 1.83586E+00 5.81969E+00 0.00000E+00
 -1       129 1.30658E+00 2.98031E+00 0.00000E+00
 -1       130 4.35547E-01 1.23971E+00 0.00000E+00
 -1       131-1.01732E+01 2.36940E+01 0.00000E+00
 -1       132-1.01783E+01 2.37185E+01 0.00000E+00
 -1       133-4.28276E+00 2.39527E+00 0.00000E+00
 -1       134-7.84279E+00 7.12461E+00 0.00000E+00
 -1       135-1.22210E+01 1.44251E+01 0.00000E+00
 -1       136-4.37240E+00 2.38095E+00 0.00000E+00
 -1       137-7.99635E+00 7.14349E+00 0.00000E+00
 -1       138-1.22959E+01 1.43118E+01 0.00000E+00
 -1       139 0.00000E+00 0.00000E+00 0.00000E+00
 -1       140 0.00000E+00 0.00000E+00 0.00000E+00
 -1       141 0.00000E+00 0.00000E+00 0.00000E+00
 -1       142 0.00000E+00 0.00000E+00 0.00000E+00
 -1       143 0.00000E+00 0.00000E+00 0.00000E+00
 -1       144 0.00000E+00 0.00000E+00 0.00000E+00
 -1       145-6.25646E+00 1.51639E+01 0.00000E+00
 -1       146-7.20224E-01 5.05709E+00 0.00000E+00
 -1       147 2.92215E-01 7.77896E-01 0.00000E+00
 -1       148-3.74646E-01 1.12146E+00 0.00000E+00
 -1       149 5.95228E-01 1.18504E+00 0.00000E+00
 -1       150-2.69498E+00 1.00652E+01 0.00000E+00
 -1       151 8.72502E-01 2.65616E+00 0.00000E+00
 -1       152 6.39404E-01 1.68401E+00 0.00000E+00
 -1       153-2.58488E+00 7.19685E+00 0.00000E+00
 -1       154-6.06248E+00 1.44459E+01 0.00000E+00
 -1       155-6.74173E-01 1.58412E+00 0.00000E+00
 -1       156 5.32498E-01 1.09200E+00 0.00000E+00
 -1       157 2.62250E-01 4.75083E+00 0.00000E+00
 -1       158 1.85992E-01 5.42244E-01 4.40146E-04
 -1       159-3.36784E+00 4.59660E+00 1.33864E-03
 -1       160-4.14106E+00 1.70632E+01 2.33047E-03
 -1       161 3.26592E-01 6.74201E-01-2.43117E-03
 -1       162-1.03455E+01 1.85186E+01 1.73027E-03
 -1       163-4.77436E-01 7.94657E+00 3.10059E-02
 -1       164 1.33453E+00 3.75392E+00-2.86081E-03
 -1       165-1.77676E+00 1.24148E+01-7.45102E-03
 -1       166 3.34073E-01 7.36113E-01 9.55478E-03
 -1       167 1.97909E-01 5.47157E-01-4.28287E-03
 -1       168-1.62810E+00 1.25379E+00 8.34220E-03
 -1       169-6.75809E+00 1.10277E+01 9.36536E-03
 -1       170-2.68938E-01 4.28393E-01-1.27767E-02
 -1       171 9.10006E-01 5.99758E+00-5.88159E-03
 -1       172 9.57221E-01 2.13805E+00-2.88687E-03
 -1       173-7.05668E+00 1.99345E+01-4.41783E-03
 -1       174 7.37443E-01 1.61995E+00 5.84509E-03
 -3
    1PSTEP                         2           1           1          
  100CL  101 1.000000000          62                     0    1           1
 -4  STRESS      6    1
 -5  SXX         1    4    1    1
 -5  SYY         1    4    2    2
 -5  SZZ         1    4    3    3
 -5  SXY         1    4    1    2
 -5  SYZ         1    4    2    3
 -5  SZX         1    4    3    1
 -1       113 1.87414E+00 7.10721E+00 2.95083E+00 5.85590E+00-4.65034E-01-4.61062E-01
 -1       114 1.53419E+00 7.56012E+00 3.01587E+00 5.81390E+00 1.57637E-01-1.42046E-01
 -1       115 5.93201E+00 2.98096E+00 2.91737E+00 4.15621E+00-6.25382E-02-7.46188E-02
 -1       116 5.73825E+00 2.89108E+00 2.88779E+00 4.10204E+00-4.00740E-02-3.49690E-02
 -1       117-4.12338E+00 3.55697E+00-1.74727E-01 1.33393E+00-1.31369E-01-9.64728E-02
 -1       118-2.89880E+00 4.49986E+00 5.16313E-01 1.84852E+00 8.52939E-01 4.97855E-01
 -1       119-1.46109E+01-3.80525E+00-6.10976E+00-1.26188E-01-2.56772E-01-7.60268E-01
 -1       120-1.51033E+01-4.40745E+00-6.41444E+00-5.14680E-02 7.36540E-01 1.19823E+00
 -1       121 4.82567E+00 7.49876E+00 4.01936E+00 6.38800E+00-2.84311E-01 1.06255E-01
 -1       122 6.43739E+00 7.35944E+00 4.69107E+00 7.34874E+00-1.09311E-01 4.27074E-02
 -1       123 8.72462E+00 6.15792E+00 4.84894E+00 7.55588E+00-5.20530E-02 5.91108E-03
 -1       124 8.96175E+00 4.34143E+00 4.38645E+00 6.58575E+00 5.40938E-02 2.10496E-01
 -1       125 7.21493E+00 3.42968E+00 3.50691E+00 4.89843E+00-5.36949E-02-5.80407E-02
 -1       126 3.55365E+00 7.57955E+00 3.71940E+00 6.14817E+00-1.57482E-01 8.81175E-02
 -1       127 6.74082E+00 7.36278E+00 4.51661E+00 7.38976E+00 4.09039E-01 2.36540E-01
 -1       128 8.64929E+00 6.50672E+00 5.06105E+00 7.65540E+00 5.99919E-02-4.36897E-02
 -1       129 9.07106E+00 4.48179E+00 4.47159E+00 6.77923E+00-5.70255E-02-1.32982E-01
 -1       130 7.19410E+00 3.54863E+00 3.55187E+00 4.96113E+00-1.29390E-01-1.50745E-01
 -1       131-1.69489E+00 5.00718E+00 1.08126E+00 3.16213E+00-4.06261E-01-1.90586E-02
 -1       132-1.35798E+00 5.55982E+00 1.39676E+00 3.56320E+00 5.69585E-01-1.00711E-01
 -1       133-1.29182E+01-1.40302E+00-4.66388E+00-1.65456E+00-3.48426E-01 2.08411E-01
 -1       134-8.01135E+00 6.66133E-01-2.33928E+00-3.17610E-01-3.34328E-01 2.79516E-01
 -1       135-6.44579E+00 1.80285E+00-1.46097E+00 4.79506E-01-6.52028E-01-2.91879E-01
 -1       136-1.41627E+01-1.90000E+00-5.36232E+00-2.25455E+00 6.78122E-01-7.74220E-02
 -1       137-8.78340E+00 3.21355E-01-2.88260E+00-9.49113E-01 4.98544E-01-1.56191E-01
 -1       138-6.38376E+00 2.07866E+00-1.47817E+00 3.29495E-01-3.66711E-02-2.74810E-01
 -1       139 6.88984E+00 3.26947E+00 3.30693E+00 4.21361E+00-1.92547E-02-3.84370E-02
 -1       140 5.76869E+00 2.25531E+00 2.69877E+00 3.35463E+00-1.62666E-02-4.85182E-02
 -1       141-1.03948E+00-7.76295E-01-6.80881E-01 2.26144E+00-3.00345E-01-6.32259E-02
 -1       142 6.52703E+00 3.15665E+00 3.24125E+00 4.19987E+00-3.21472E-02-5.83492E-02
 -1       143 6.26590E+00 2.65713E+00 2.89302E+00 3.63929E+00 3.24720E-01 1.07932E-01
 -1       144-1.31910E+00-8.67888E-01-6.59297E-01 2.53034E+00 7.78931E-01 6.13777E-02
 -1       145-1.06091E+00 5.19485E+00 1.38093E+00 3.63698E+00-3.17883E-01 7.11016E-02
 -1       146-2.81659E-01 3.06053E+00 1.00708E+00 3.54510E+00-5.83495E-01-2.13919E-02
 -1       147 3.79554E+00 6.10869E-01 1.52332E+00 3.13392E+00 1.28293E-02 1.18447E-01
 -1       148-4.03664E+00-5.46551E-01-1.53255E+00 1.80107E+00-1.69787E-01-2.06764E-01
 -1       149 7.16269E+00 2.48845E+00 3.22313E+00 4.55493E+00-1.75269E-01-5.47505E-02
 -1       150-3.13309E-01 4.35576E+00 1.40599E+00 3.48022E+00-1.58656E-01 6.22204E-01
 -1       151 5.81011E+00 2.84879E+00 2.82409E+00 5.75442E+00-9.54089E-02 8.79673E-02
 -1       152 5.14421E+00 1.65995E+00 2.24418E+00 4.38044E+00 3.03909E-01-9.18405E-02
 -1       153-1.28782E+00 3.50176E+00 6.18256E-01 2.89469E+00 3.35071E-01-9.72389E-02
 -1       154-1.46373E+00 4.70748E+00 1.04140E+00 3.41858E+00 3.56328E-01 1.64023E-01
 -1       155-5.62048E+00-6.52543E-01-2.06879E+00 1.17586E+00 6.07479E-01 8.00368E-02
 -1       156 7.38190E+00 2.76966E+00 3.31401E+00 4.58750E+00 1.40369E-02-1.12036E-01
 -1       157 3.31423E+00 3.33553E+00 2.15872E+00 5.60085E+00-7.91203E-02-3.48631E-01
 -1       158 1.52023E+00 1.06427E-01 5.33719E-01 2.43321E+00 5.47014E-01 5.85698E-02
 -1       159-6.75465E+00 7.60325E-01-1.97482E+00-1.04038E-02-7.30718E-02 2.72149E-01
 -1       160 2.31258E+00 7.09066E+00 3.10451E+00 5.93936E+00-2.23538E-01-3.09813E-02
 -1       161 7.11017E+00 3.15257E+00 3.39209E+00 4.29054E+00-5.42053E-02-6.83895E-02
 -1       162-2.98430E+00 4.36193E+00 4.51968E-01 2.29824E+00 2.53793E-02-7.82842E-03
 -1       163 3.23389E+00 5.06153E+00 2.74589E+00 5.65538E+00-5.95280E-02-1.85406E-01
 -1       164 8.29538E+00 4.74043E+00 4.31216E+00 6.85903E+00 3.96616E-02-1.35904E-01
 -1       165 3.43310E+00 6.18832E+00 3.13670E+00 5.33693E+00 1.87862E-01 4.71725E-01
 -1       166 6.03129E+00 1.89358E+00 2.63266E+00 3.50389E+00 2.34482E-01-1.74734E-02
 -1       167 6.07675E+00 2.93935E+00 2.97543E+00 4.24484E+00-7.51862E-02-9.15167E-02
 -1       168-1.52155E+01-3.05864E+00-6.04527E+00-1.29650E+00 1.64047E-02 2.96527E-01
 -1       169-5.89958E+00 2.04828E+00-1.27580E+00 7.09193E-01-3.66178E-01-3.75937E-01
 -1       170-7.33113E+00-2.94267E+00-3.40989E+00 1.57625E+00 4.12495E-01-1.44746E-01
 -1       171 7.21244E+00 6.16811E+00 4.45899E+00 7.07126E+00-1.88007E-01-1.35666E-01
 -1       172 8.13517E+00 3.12645E+00 3.70657E+00 5.75283E+00-8.79748E-02 7.23599E-02
 -1       173-1.19558E-01 6.15665E+00 1.98876E+00 4.63174E+00 1.10597E-01-7.73116E-02
 -1       174 8.29599E+00 3.59798E+00 3.91996E+00 5.55616E+00-4.30193E-02-4.21531E-02
 -3
    1PSTEP                         3           1           1          
  100CL  101 1.000000000          62                     0    1           1
 -4  TOSTRAIN    6    1
 -5  EXX         1    4    1    1
 -5  EYY         1    4    2    2
 -5  EZZ         1    4    3    3
 -5  EXY         1    4    1    2
 -5  EYZ         1    4    2    3
 -5  EZX         1    4    3    1
 -1       113-2.06430E-02 7.87853E-02-1.86020E-04 1.11262E-01-8.83565E-03-8.76017E-03
 -1       114-2.79413E-02 8.65515E-02 2.10648E-04 1.10464E-01 2.99511E-03-2.69887E-03
 -1       115 5.69366E-02 8.66556E-04-3.41494E-04 7.89680E-02-1.18823E-03-1.41776E-03
 -1       116 5.47318E-02 6.35567E-04 5.72955E-04 7.79387E-02-7.61406E-04-6.64411E-04
 -1       117-7.48503E-02 7.10764E-02 1.74131E-04 2.53447E-02-2.49602E-03-1.83298E-03
 -1       118-6.50592E-02 7.55155E-02-1.71936E-04 3.51219E-02 1.62058E-02 9.45924E-03
 -1       119-1.61985E-01 4.33223E-02-4.63433E-04-2.39757E-03-4.87866E-03-1.44451E-02
 -1       120-1.64744E-01 3.84773E-02 3.44512E-04-9.77891E-04 1.39943E-02 2.27663E-02
 -1       121 1.46384E-02 6.54272E-02-6.81417E-04 1.21372E-01-5.40191E-03 2.01885E-03
 -1       122 3.51532E-02 5.26721E-02 1.97310E-03 1.39626E-01-2.07690E-03 8.11440E-04
 -1       123 7.27479E-02 2.39807E-02-8.89970E-04 1.43562E-01-9.89006E-04 1.12310E-04
 -1       124 8.68793E-02-9.06744E-04-5.14722E-05 1.25129E-01 1.02778E-03 3.99942E-03
 -1       125 7.03694E-02-1.55038E-03-8.30044E-05 9.30702E-02-1.02020E-03-1.10277E-03
 -1       126-2.50002E-03 7.39920E-02 6.49186E-04 1.16815E-01-2.99216E-03 1.67423E-03
 -1       127 4.02946E-02 5.21119E-02-1.96546E-03 1.40405E-01 7.77175E-03 4.49427E-03
 -1       128 6.90275E-02 2.83187E-02 8.50902E-04 1.45453E-01 1.13985E-03-8.30104E-04
 -1       129 8.73778E-02 1.81608E-04-1.21367E-05 1.28805E-01-1.08349E-03-2.52665E-03
 -1       130 6.92991E-02 3.50676E-05 9.67773E-05 9.42615E-02-2.45842E-03-2.86415E-03
 -1       131-5.29153E-02 7.44239E-02-1.68546E-04 6.00805E-02-7.71896E-03-3.62114E-04
 -1       132-5.21950E-02 7.92433E-02 1.44981E-04 6.77008E-02 1.08221E-02-1.91350E-03
 -1       133-1.55944E-01 6.28437E-02 8.87328E-04-3.14366E-02-6.62009E-03 3.95981E-03
 -1       134-1.06560E-01 5.83120E-02 1.20910E-03-6.03460E-03-6.35223E-03 5.31080E-03
 -1       135-9.36944E-02 6.30297E-02 1.01709E-03 9.11061E-03-1.23885E-02-5.54570E-03
 -1       136-1.68087E-01 6.49037E-02-8.80454E-04-4.28365E-02 1.28843E-02-1.47102E-03
 -1       137-1.13403E-01 5.95876E-02-1.28749E-03-1.80331E-02 9.47234E-03-2.96762E-03
 -1       138-9.40275E-02 6.67586E-02-8.21212E-04 6.26040E-03-6.96750E-04-5.22138E-03
 -1       139 6.74232E-02-1.36379E-03-6.52013E-04 8.00587E-02-3.65839E-04-7.30303E-04
 -1       140 5.90550E-02-7.69929E-03 7.26393E-04 6.37381E-02-3.09065E-04-9.21845E-04
 -1       141-7.98016E-03-2.97966E-03-1.16679E-03 4.29673E-02-5.70655E-03-1.20129E-03
 -1       142 6.30818E-02-9.55453E-04 6.51888E-04 7.97976E-02-6.10798E-04-1.10863E-03
 -1       143 6.33479E-02-5.21872E-03-7.36850E-04 6.91466E-02 6.16967E-03 2.05071E-03
 -1       144-1.16447E-02-3.07168E-03 8.91539E-04 4.80764E-02 1.47997E-02 1.16618E-03
 -1       145-4.61559E-02 7.27034E-02 2.38979E-04 6.91027E-02-6.03977E-03 1.35093E-03
 -1       146-2.31996E-02 4.03020E-02 1.28643E-03 6.73570E-02-1.10864E-02-4.06447E-04
 -1       147 4.41608E-02-1.63479E-02 9.88710E-04 5.95444E-02 2.43756E-04 2.25049E-03
 -1       148-4.78649E-02 1.84469E-02-2.87018E-04 3.42203E-02-3.22595E-03-3.92851E-03
 -1       149 7.53981E-02-1.34125E-02 5.46570E-04 8.65436E-02-3.33011E-03-1.04026E-03
 -1       150-3.16384E-02 5.70740E-02 1.02829E-03 6.61243E-02-3.01446E-03 1.18219E-02
 -1       151 5.62580E-02-7.11137E-06-4.76359E-04 1.09334E-01-1.81277E-03 1.67138E-03
 -1       152 5.50836E-02-1.11173E-02-1.71420E-05 8.32284E-02 5.77426E-03-1.74497E-03
 -1       153-3.78203E-02 5.31816E-02-1.60495E-03 5.49990E-02 6.36635E-03-1.84754E-03
 -1       154-4.80123E-02 6.92407E-02-4.14768E-04 6.49530E-02 6.77024E-03 3.11643E-03
 -1       155-6.74635E-02 2.69274E-02 1.86741E-05 2.23414E-02 1.15421E-02 1.52070E-03
 -1       156 7.67755E-02-1.08570E-02-5.14397E-04 8.71626E-02 2.66701E-04-2.12869E-03
 -1       157 2.14446E-02 2.18495E-02-5.10047E-04 1.06416E-01-1.50329E-03-6.62400E-03
 -1       158 1.86997E-02-8.16251E-03-4.39547E-05 4.62310E-02 1.03933E-02 1.11283E-03
 -1       159-9.07696E-02 5.20150E-02 4.72402E-05-1.97672E-04-1.38836E-03 5.17083E-03
 -1       160-1.50261E-02 7.57574E-02 2.05993E-05 1.12848E-01-4.24722E-03-5.88644E-04
 -1       161 7.07205E-02-4.47397E-03 7.68954E-05 8.15203E-02-1.02990E-03-1.29940E-03
 -1       162-6.53269E-02 7.42515E-02-3.78888E-05 4.36667E-02 4.82207E-04-1.48740E-04
 -1       163 9.39198E-03 4.41172E-02 1.20082E-04 1.07452E-01-1.13103E-03-3.52271E-03
 -1       164 7.58290E-02 8.28490E-03 1.47721E-04 1.30322E-01 7.53571E-04-2.58218E-03
 -1       165 5.08353E-03 5.74326E-02-5.48083E-04 1.01402E-01 3.56937E-03 8.96277E-03
 -1       166 6.48233E-02-1.37931E-02 2.49311E-04 6.65740E-02 4.45515E-03-3.31994E-04
 -1       167 5.89267E-02-6.83800E-04 1.66122E-06 8.06520E-02-1.42854E-03-1.73882E-03
 -1       168-1.74446E-01 5.65345E-02-2.11391E-04-2.46335E-02 3.11690E-04 5.63402E-03
 -1       169-8.79214E-02 6.30879E-02-6.95476E-05 1.34747E-02-6.95739E-03-7.14281E-03
 -1       170-7.47826E-02 8.59812E-03-2.79147E-04 2.99488E-02 7.83741E-03-2.75017E-03
 -1       171 5.29356E-02 3.30935E-02 6.20123E-04 1.34354E-01-3.57214E-03-2.57765E-03
 -1       172 8.40039E-02-1.11617E-02-1.39513E-04 1.09304E-01-1.67152E-03 1.37484E-03
 -1       173-4.01078E-02 7.91403E-02-4.97587E-05 8.80030E-02 2.10133E-03-1.46892E-03
 -1       174 8.30724E-02-6.18979E-03-7.21081E-05 1.05567E-01-8.17366E-04-8.00910E-04
 -3
    1PSTEP                         4           1           1          
  100CL  101 1.000000000          62                     0    1           1
 -4  FORC        4    1
 -5  F1          1    2    1    0
 -5  F2          1    2    2    0
 -5  F3          1    2    3    0
 -5  ALL         1    2    0    0    1ALL
 -1       113-5.09814E-13 8.33333E+01-9.39647E+01
 -1       114 1.08979E-12 4.16667E+01 9.15027E+01
 -1       115-9.28420E+01-6.54799E+01-4.01793E+01
 -1       116-4.41938E+01-3.19225E+01 4.23610E+01
 -1       117 1.20881E-12 4.16667E+01-1.92742E+01
 -1       118 1.10578E-13 8.33333E+01 1.93056E+01
 -1       119 3.97537E+02-4.81168E+01 2.60470E+02
 -1       120 3.25485E+02 8.35178E+00-2.81695E+02
 -1       121 5.86198E-14-2.04281E-13-1.70629E+02
 -1       122 4.88054E-13-2.24309E-12-2.59290E+02
 -1       123-3.71259E-13-1.50546E-13-2.67437E+02
 -1       124-1.16573E-13 1.28439E-13-2.02719E+02
 -1       125 2.30926E-14 8.23785E-14-1.52690E+02
 -1       126 6.89671E-13 3.03579E-12 2.44908E+02
 -1       127-5.69766E-13 8.32667E-13 2.33712E+02
 -1       128-2.98428E-13-1.36424E-12 2.49317E+02
 -1       129 1.16351E-13-1.22569E-13 2.10176E+02
 -1       130 7.57172E-14-8.26006E-14 1.38206E+02
 -1       131-1.40804E-13 1.25000E+02-4.13920E+01
 -1       132-1.26310E-12 1.25000E+02 5.00034E+01
 -1       133-7.10543E-14-3.09086E-13 3.17783E+02
 -1       134-3.21876E-12-1.06581E-12 2.17865E+02
 -1       135-5.43565E-13 1.78346E-12 4.75465E+01
 -1       136-1.42109E-14 7.38964E-13-3.13019E+02
 -1       137-9.91651E-13-1.26121E-12-1.47530E+02
 -1       138-4.66194E-12 5.00378E-12-6.75923E+01
 -1       139-1.89679E+02-1.20629E+02-1.39298E+02
 -1       140-1.38999E+02-7.44166E+01-1.01093E+02
 -1       141 2.40480E+01 7.30750E+00 3.53245E+01
 -1       142-1.75606E+02-1.23145E+02 1.31616E+02
 -1       143-1.78122E+02-8.17019E+01 1.16817E+02
 -1       144 7.23716E+01 2.97517E+01-3.88619E+01
 -1       145-1.73195E-14-1.08136E-13-1.06242E+02
 -1       146 2.96874E-13-1.43224E-12-9.88446E+01
 -1       147 3.90521E-14-1.14387E-13-7.80531E+01
 -1       148 3.46390E-14 1.02585E-12 2.43832E+02
 -1       149 1.93179E-14 3.86025E-13-2.68996E+02
 -1       150-4.40981E-13-8.47322E-13-1.09488E+02
 -1       151 7.59393E-13 1.17684E-13-2.50804E+02
 -1       152 2.50910E-13 5.95080E-13 2.87368E+02
 -1       153-1.99202E-13-1.65645E-13 3.77028E+01
 -1       154 1.55945E-12-1.60760E-12 8.44501E+01
 -1       155-4.38316E-13 6.56364E-13-2.39080E+02
 -1       156 4.68514E-14 2.14828E-13 2.29345E+02
 -1       157-3.17080E-13 2.19380E-13 1.98560E+02
 -1       158-4.88498E-15-8.08242E-14 4.35207E-14
 -1       159 1.10134E-12 3.14682E-12-4.68958E-13
 -1       160-3.26850E-12-1.81188E-12-1.70530E-13
 -1       161-1.42386E-13 2.47621E-13 1.68754E-14
 -1       162 3.86101E-12 5.61368E-12 1.97620E-13
 -1       163 1.64757E-13-4.78978E-13-2.74447E-13
 -1       164 1.46105E-13 1.56364E-12 8.34888E-14
 -1       165-1.53699E-12-4.06963E-12 3.85114E-12
 -1       166 3.54161E-14 2.75444E-13 6.03961E-14
 -1       167-1.39222E-13-1.09912E-13 0.00000E+00
 -1       168-7.57172E-14 5.81313E-13 4.88498E-14
 -1       169 7.91908E-13-1.24956E-13 1.30695E-12
 -1       170 1.34115E-13-3.39284E-13 2.30926E-14
 -1       171 2.77112E-13-3.81473E-12-1.24345E-13
 -1       172 7.30527E-14 3.54161E-13 4.44089E-15
 -1       173-3.22586E-12-3.41061E-13-4.83613E-13
 -1       174-3.37508E-13 4.44089E-14 3.19744E-14
 -3
 9999
