    1C
    1UHash: PXJD0WWr, Date: 03/11/2021, Unit system: MM_TON_S_C         
    1UUSER                                                              
    1UDATE              13.march.2021                                   
    1UTIME              18:36:54                                        
    1UHOST                                                              
    1UPGM               CalculiX                                        
    1UVERSION           Version 2.17                             
    1UCOMPILETIME       Thu Jul 23 21:43:50 CEST 2020                    
    1UDIR                                                               
    1UDBN                                                               
    1UMAT    1RUBBER                                                    
    2C                           890                                     1
 -1      1568 4.80000E+01 4.40000E+01 0.00000E+00
 -1      1569 4.80000E+01 4.40000E+01 5.00000E+00
 -1      1570 0.00000E+00 0.00000E+00 0.00000E+00
 -1      1571 0.00000E+00 0.00000E+00 5.00000E+00
 -1      1572 4.80000E+01 6.00000E+01 0.00000E+00
 -1      1573 4.80000E+01 6.00000E+01 5.00000E+00
 -1      1574 0.00000E+00 4.40000E+01 0.00000E+00
 -1      1575 0.00000E+00 4.40000E+01 5.00000E+00
 -1      1576 4.36364E+01 4.00000E+01 0.00000E+00
 -1      1577 3.92727E+01 3.60000E+01 0.00000E+00
 -1      1578 3.49091E+01 3.20000E+01 0.00000E+00
 -1      1579 3.05455E+01 2.80000E+01 0.00000E+00
 -1      1580 2.61818E+01 2.40000E+01 0.00000E+00
 -1      1581 2.18182E+01 2.00000E+01 0.00000E+00
 -1      1582 1.74545E+01 1.60000E+01 0.00000E+00
 -1      1583 1.30909E+01 1.20000E+01 0.00000E+00
 -1      1584 8.72727E+00 8.00000E+00 0.00000E+00
 -1      1585 4.36364E+00 4.00000E+00 0.00000E+00
 -1      1586 4.36364E+01 4.00000E+01 5.00000E+00
 -1      1587 3.92727E+01 3.60000E+01 5.00000E+00
 -1      1588 3.49091E+01 3.20000E+01 5.00000E+00
 -1      1589 3.05455E+01 2.80000E+01 5.00000E+00
 -1      1590 2.61818E+01 2.40000E+01 5.00000E+00
 -1      1591 2.18182E+01 2.00000E+01 5.00000E+00
 -1      1592 1.74545E+01 1.60000E+01 5.00000E+00
 -1      1593 1.30909E+01 1.20000E+01 5.00000E+00
 -1      1594 8.72727E+00 8.00000E+00 5.00000E+00
 -1      1595 4.36364E+00 4.00000E+00 5.00000E+00
 -1      1596 4.80000E+01 5.46667E+01 0.00000E+00
 -1      1597 4.80000E+01 4.93333E+01 0.00000E+00
 -1      1598 4.80000E+01 5.46667E+01 5.00000E+00
 -1      1599 4.80000E+01 4.93333E+01 5.00000E+00
 -1      1600 5.33333E+00 4.57778E+01 0.00000E+00
 -1      1601 1.06667E+01 4.75556E+01 0.00000E+00
 -1      1602 1.60000E+01 4.93333E+01 0.00000E+00
 -1      1603 2.13333E+01 5.11111E+01 0.00000E+00
 -1      1604 2.66667E+01 5.28889E+01 0.00000E+00
 -1      1605 3.20000E+01 5.46667E+01 0.00000E+00
 -1      1606 3.73333E+01 5.64444E+01 0.00000E+00
 -1      1607 4.26667E+01 5.82222E+01 0.00000E+00
 -1      1608 5.33333E+00 4.57778E+01 5.00000E+00
 -1      1609 1.06667E+01 4.75556E+01 5.00000E+00
 -1      1610 1.60000E+01 4.93333E+01 5.00000E+00
 -1      1611 2.13333E+01 5.11111E+01 5.00000E+00
 -1      1612 2.66667E+01 5.28889E+01 5.00000E+00
 -1      1613 3.20000E+01 5.46667E+01 5.00000E+00
 -1      1614 3.73333E+01 5.64444E+01 5.00000E+00
 -1      1615 4.26667E+01 5.82222E+01 5.00000E+00
 -1      1616 0.00000E+00 6.28571E+00 0.00000E+00
 -1      1617 0.00000E+00 1.25714E+01 0.00000E+00
 -1      1618 0.00000E+00 1.88571E+01 0.00000E+00
 -1      1619 0.00000E+00 2.51429E+01 0.00000E+00
 -1      1620 0.00000E+00 3.14286E+01 0.00000E+00
 -1      1621 0.00000E+00 3.77143E+01 0.00000E+00
 -1      1622 0.00000E+00 6.28571E+00 5.00000E+00
 -1      1623 0.00000E+00 1.25714E+01 5.00000E+00
 -1      1624 0.00000E+00 1.88571E+01 5.00000E+00
 -1      1625 0.00000E+00 2.51429E+01 5.00000E+00
 -1      1626 0.00000E+00 3.14286E+01 5.00000E+00
 -1      1627 0.00000E+00 3.77143E+01 5.00000E+00
 -1      1628 4.25522E+01 4.64581E+01 0.00000E+00
 -1      1629 3.35498E+01 3.77493E+01 0.00000E+00
 -1      1630 2.51093E+01 2.99939E+01 0.00000E+00
 -1      1631 1.62723E+01 2.24504E+01 0.00000E+00
 -1      1632 8.24325E+00 1.41262E+01 0.00000E+00
 -1      1633 3.73817E+00 1.53903E+01 0.00000E+00
 -1      1634 5.14726E+00 2.78644E+01 0.00000E+00
 -1      1635 4.69256E+00 4.00632E+01 0.00000E+00
 -1      1636 1.51309E+01 4.32275E+01 0.00000E+00
 -1      1637 2.58440E+01 4.70978E+01 0.00000E+00
 -1      1638 3.71250E+01 5.02228E+01 0.00000E+00
 -1      1639 4.23875E+00 9.99835E+00 0.00000E+00
 -1      1640 4.25575E+01 5.24822E+01 0.00000E+00
 -1      1641 3.69271E+01 4.31867E+01 0.00000E+00
 -1      1642 2.95315E+01 3.34789E+01 0.00000E+00
 -1      1643 2.06835E+01 2.63365E+01 0.00000E+00
 -1      1644 1.19290E+01 1.84412E+01 0.00000E+00
 -1      1645 5.82390E+00 2.08016E+01 0.00000E+00
 -1      1646 4.62419E+00 3.40527E+01 0.00000E+00
 -1      1647 9.92739E+00 4.17520E+01 0.00000E+00
 -1      1648 2.03904E+01 4.52491E+01 0.00000E+00
 -1      1649 3.15323E+01 4.85725E+01 0.00000E+00
 -1      1650 1.97109E+01 3.27050E+01 0.00000E+00
 -1      1651 1.06546E+01 2.49252E+01 0.00000E+00
 -1      1652 9.87661E+00 3.13032E+01 0.00000E+00
 -1      1653 2.46680E+01 4.15603E+01 0.00000E+00
 -1      1654 3.03406E+01 4.29916E+01 0.00000E+00
 -1      1655 2.43158E+01 3.57621E+01 0.00000E+00
 -1      1656 2.85017E+01 3.83368E+01 0.00000E+00
 -1      1657 1.95881E+01 3.90948E+01 0.00000E+00
 -1      1658 8.78510E+00 3.66642E+01 0.00000E+00
 -1      1659 1.52231E+01 2.89724E+01 0.00000E+00
 -1      1660 1.42155E+01 3.62576E+01 0.00000E+00
 -1      1661 8.52215E+00 1.37205E+01 5.00000E+00
 -1      1662 1.62939E+01 2.22249E+01 5.00000E+00
 -1      1663 2.50781E+01 2.98710E+01 5.00000E+00
 -1      1664 3.33231E+01 3.82333E+01 5.00000E+00
 -1      1665 4.26263E+01 4.62704E+01 5.00000E+00
 -1      1666 4.24174E+01 5.23232E+01 5.00000E+00
 -1      1667 3.07989E+01 4.96092E+01 5.00000E+00
 -1      1668 2.09102E+01 4.49189E+01 5.00000E+00
 -1      1669 1.00073E+01 4.16939E+01 5.00000E+00
 -1      1670 4.71862E+00 4.00435E+01 5.00000E+00
 -1      1671 4.94682E+00 2.79924E+01 5.00000E+00
 -1      1672 4.10531E+00 1.59927E+01 5.00000E+00
 -1      1673 4.28577E+00 1.00908E+01 5.00000E+00
 -1      1674 1.25727E+01 1.78670E+01 5.00000E+00
 -1      1675 2.06494E+01 2.61884E+01 5.00000E+00
 -1      1676 2.92937E+01 3.40051E+01 5.00000E+00
 -1      1677 3.78743E+01 4.24122E+01 5.00000E+00
 -1      1678 3.65864E+01 4.94468E+01 5.00000E+00
 -1      1679 2.62363E+01 4.70325E+01 5.00000E+00
 -1      1680 1.53560E+01 4.30852E+01 5.00000E+00
 -1      1681 4.60199E+00 3.40485E+01 5.00000E+00
 -1      1682 4.47681E+00 2.20456E+01 5.00000E+00
 -1      1683 3.19549E+01 4.43122E+01 5.00000E+00
 -1      1684 1.96505E+01 3.24258E+01 5.00000E+00
 -1      1685 2.00128E+01 3.88268E+01 5.00000E+00
 -1      1686 2.66176E+01 4.04732E+01 5.00000E+00
 -1      1687 9.79752E+00 3.11260E+01 5.00000E+00
 -1      1688 8.81349E+00 3.65874E+01 5.00000E+00
 -1      1689 1.51030E+01 2.86694E+01 5.00000E+00
 -1      1690 2.41353E+01 3.52181E+01 5.00000E+00
 -1      1691 1.43033E+01 3.60900E+01 5.00000E+00
 -1      1692 1.02936E+01 2.42313E+01 5.00000E+00
 -1      1693 8.05268E+00 1.88652E+01 5.00000E+00
 -1      1694 4.54484E+01 4.65039E+01 2.48874E+00
 -1      1695 3.28025E+00 7.89106E+00 2.51083E+00
 -1      1696 2.05987E+00 4.71888E+00 2.50004E+00
 -1      1697 4.10915E+01 5.50709E+01 2.50981E+00
 -1      1698 4.48875E+01 5.56357E+01 2.50887E+00
 -1      1699 2.50425E+00 1.37339E+01 2.59297E+00
 -1      1700 3.83577E+01 3.93650E+01 2.52722E+00
 -1      1701 1.29933E+01 4.54197E+01 2.50384E+00
 -1      1702 2.87985E+00 4.17234E+01 2.49798E+00
 -1      1703 8.45418E+00 1.09211E+01 2.47266E+00
 -1      1704 3.11755E+01 3.17901E+01 2.53329E+00
 -1      1705 1.91390E+01 2.12434E+01 2.49140E+00
 -1      1706 2.45820E+00 2.34296E+01 2.46314E+00
 -1      1707 3.31962E+01 5.15829E+01 2.46183E+00
 -1      1708 4.27768E+01 4.31431E+01 2.49550E+00
 -1      1709 4.52046E+01 5.08385E+01 2.50611E+00
 -1      1710 2.36716E+01 4.90072E+01 2.52106E+00
 -1      1711 2.35648E+00 2.80590E+01 2.49071E+00
 -1      1712 1.56587E+01 1.83730E+01 2.45233E+00
 -1      1713 3.04673E+00 1.87734E+01 2.47454E+00
 -1      1714 3.43236E+01 3.51113E+01 2.51890E+00
 -1      1715 1.20938E+01 1.52372E+01 2.43144E+00
 -1      1716 2.76604E+01 2.88880E+01 2.50417E+00
 -1      1717 2.48094E+00 3.73372E+01 2.50197E+00
 -1      1718 2.33932E+01 2.50730E+01 2.49121E+00
 -1      1719 7.69925E+00 4.37580E+01 2.50218E+00
 -1      1720 1.82859E+01 4.71924E+01 2.51375E+00
 -1      1721 2.88869E+01 5.08098E+01 2.46403E+00
 -1      1722 3.71530E+01 5.32597E+01 2.50862E+00
 -1      1723 2.36068E+00 3.27171E+01 2.50586E+00
 -1      1724 4.80000E+01 4.40000E+01 2.50000E+00
 -1      1725 0.00000E+00 0.00000E+00 2.50000E+00
 -1      1726 4.58182E+01 4.20000E+01 0.00000E+00
 -1      1727 4.14545E+01 3.80000E+01 0.00000E+00
 -1      1728 3.70909E+01 3.40000E+01 0.00000E+00
 -1      1729 3.27273E+01 3.00000E+01 0.00000E+00
 -1      1730 2.83636E+01 2.60000E+01 0.00000E+00
 -1      1731 2.40000E+01 2.20000E+01 0.00000E+00
 -1      1732 1.96364E+01 1.80000E+01 0.00000E+00
 -1      1733 1.52727E+01 1.40000E+01 0.00000E+00
 -1      1734 1.09091E+01 1.00000E+01 0.00000E+00
 -1      1735 6.54545E+00 6.00000E+00 0.00000E+00
 -1      1736 2.18182E+00 2.00000E+00 0.00000E+00
 -1      1737 4.58182E+01 4.20000E+01 5.00000E+00
 -1      1738 4.14545E+01 3.80000E+01 5.00000E+00
 -1      1739 3.70909E+01 3.40000E+01 5.00000E+00
 -1      1740 3.27273E+01 3.00000E+01 5.00000E+00
 -1      1741 2.83636E+01 2.60000E+01 5.00000E+00
 -1      1742 2.40000E+01 2.20000E+01 5.00000E+00
 -1      1743 1.96364E+01 1.80000E+01 5.00000E+00
 -1      1744 1.52727E+01 1.40000E+01 5.00000E+00
 -1      1745 1.09091E+01 1.00000E+01 5.00000E+00
 -1      1746 6.54545E+00 6.00000E+00 5.00000E+00
 -1      1747 2.18182E+00 2.00000E+00 5.00000E+00
 -1      1748 4.80000E+01 6.00000E+01 2.50000E+00
 -1      1749 4.80000E+01 5.73333E+01 0.00000E+00
 -1      1750 4.80000E+01 5.20000E+01 0.00000E+00
 -1      1751 4.80000E+01 4.66667E+01 0.00000E+00
 -1      1752 4.80000E+01 5.73333E+01 5.00000E+00
 -1      1753 4.80000E+01 5.20000E+01 5.00000E+00
 -1      1754 4.80000E+01 4.66667E+01 5.00000E+00
 -1      1755 0.00000E+00 4.40000E+01 2.50000E+00
 -1      1756 2.66667E+00 4.48889E+01 0.00000E+00
 -1      1757 8.00000E+00 4.66667E+01 0.00000E+00
 -1      1758 1.33333E+01 4.84444E+01 0.00000E+00
 -1      1759 1.86667E+01 5.02222E+01 0.00000E+00
 -1      1760 2.40000E+01 5.20000E+01 0.00000E+00
 -1      1761 2.93333E+01 5.37778E+01 0.00000E+00
 -1      1762 3.46667E+01 5.55556E+01 0.00000E+00
 -1      1763 4.00000E+01 5.73333E+01 0.00000E+00
 -1      1764 4.53333E+01 5.91111E+01 0.00000E+00
 -1      1765 2.66667E+00 4.48889E+01 5.00000E+00
 -1      1766 8.00000E+00 4.66667E+01 5.00000E+00
 -1      1767 1.33333E+01 4.84444E+01 5.00000E+00
 -1      1768 1.86667E+01 5.02222E+01 5.00000E+00
 -1      1769 2.40000E+01 5.20000E+01 5.00000E+00
 -1      1770 2.93333E+01 5.37778E+01 5.00000E+00
 -1      1771 3.46667E+01 5.55556E+01 5.00000E+00
 -1      1772 4.00000E+01 5.73333E+01 5.00000E+00
 -1      1773 4.53333E+01 5.91111E+01 5.00000E+00
 -1      1774 0.00000E+00 3.14286E+00 0.00000E+00
 -1      1775 0.00000E+00 9.42857E+00 0.00000E+00
 -1      1776 0.00000E+00 1.57143E+01 0.00000E+00
 -1      1777 0.00000E+00 2.20000E+01 0.00000E+00
 -1      1778 0.00000E+00 2.82857E+01 0.00000E+00
 -1      1779 0.00000E+00 3.45714E+01 0.00000E+00
 -1      1780 0.00000E+00 4.08571E+01 0.00000E+00
 -1      1781 0.00000E+00 3.14286E+00 5.00000E+00
 -1      1782 0.00000E+00 9.42857E+00 5.00000E+00
 -1      1783 0.00000E+00 1.57143E+01 5.00000E+00
 -1      1784 0.00000E+00 2.20000E+01 5.00000E+00
 -1      1785 0.00000E+00 2.82857E+01 5.00000E+00
 -1      1786 0.00000E+00 3.45714E+01 5.00000E+00
 -1      1787 0.00000E+00 4.08571E+01 5.00000E+00
 -1      1788 4.58182E+01 4.20000E+01 2.50000E+00
 -1      1789 3.92727E+01 3.60000E+01 2.50000E+00
 -1      1790 4.14545E+01 3.80000E+01 2.50000E+00
 -1      1791 3.49091E+01 3.20000E+01 2.50000E+00
 -1      1792 3.70909E+01 3.40000E+01 2.50000E+00
 -1      1793 3.05455E+01 2.80000E+01 2.50000E+00
 -1      1794 3.27273E+01 3.00000E+01 2.50000E+00
 -1      1795 2.83636E+01 2.60000E+01 2.50000E+00
 -1      1796 2.40000E+01 2.20000E+01 2.50000E+00
 -1      1797 2.61818E+01 2.40000E+01 2.50000E+00
 -1      1798 1.96364E+01 1.80000E+01 2.50000E+00
 -1      1799 2.18182E+01 2.00000E+01 2.50000E+00
 -1      1800 1.30909E+01 1.20000E+01 2.50000E+00
 -1      1801 1.52727E+01 1.40000E+01 2.50000E+00
 -1      1802 8.72727E+00 8.00000E+00 2.50000E+00
 -1      1803 1.09091E+01 1.00000E+01 2.50000E+00
 -1      1804 4.36364E+00 4.00000E+00 2.50000E+00
 -1      1805 6.54545E+00 6.00000E+00 2.50000E+00
 -1      1806 2.18182E+00 2.00000E+00 2.50000E+00
 -1      1807 4.36364E+01 4.00000E+01 2.50000E+00
 -1      1808 1.74545E+01 1.60000E+01 2.50000E+00
 -1      1809 4.80000E+01 5.73333E+01 2.50000E+00
 -1      1810 4.80000E+01 5.20000E+01 2.50000E+00
 -1      1811 4.80000E+01 5.46667E+01 2.50000E+00
 -1      1812 4.80000E+01 4.66667E+01 2.50000E+00
 -1      1813 4.80000E+01 4.93333E+01 2.50000E+00
 -1      1814 2.66667E+00 4.48889E+01 2.50000E+00
 -1      1815 1.06667E+01 4.75556E+01 2.50000E+00
 -1      1816 8.00000E+00 4.66667E+01 2.50000E+00
 -1      1817 1.60000E+01 4.93333E+01 2.50000E+00
 -1      1818 1.33333E+01 4.84444E+01 2.50000E+00
 -1      1819 2.13333E+01 5.11111E+01 2.50000E+00
 -1      1820 1.86667E+01 5.02222E+01 2.50000E+00
 -1      1821 2.66667E+01 5.28889E+01 2.50000E+00
 -1      1822 2.40000E+01 5.20000E+01 2.50000E+00
 -1      1823 3.20000E+01 5.46667E+01 2.50000E+00
 -1      1824 2.93333E+01 5.37778E+01 2.50000E+00
 -1      1825 3.46667E+01 5.55556E+01 2.50000E+00
 -1      1826 3.73333E+01 5.64444E+01 2.50000E+00
 -1      1827 4.26667E+01 5.82222E+01 2.50000E+00
 -1      1828 4.00000E+01 5.73333E+01 2.50000E+00
 -1      1829 4.53333E+01 5.91111E+01 2.50000E+00
 -1      1830 5.33333E+00 4.57778E+01 2.50000E+00
 -1      1831 0.00000E+00 3.14286E+00 2.50000E+00
 -1      1832 0.00000E+00 1.25714E+01 2.50000E+00
 -1      1833 0.00000E+00 9.42857E+00 2.50000E+00
 -1      1834 0.00000E+00 1.88571E+01 2.50000E+00
 -1      1835 0.00000E+00 1.57143E+01 2.50000E+00
 -1      1836 0.00000E+00 2.51429E+01 2.50000E+00
 -1      1837 0.00000E+00 2.20000E+01 2.50000E+00
 -1      1838 0.00000E+00 3.14286E+01 2.50000E+00
 -1      1839 0.00000E+00 2.82857E+01 2.50000E+00
 -1      1840 0.00000E+00 3.77143E+01 2.50000E+00
 -1      1841 0.00000E+00 3.45714E+01 2.50000E+00
 -1      1842 0.00000E+00 4.08571E+01 2.50000E+00
 -1      1843 0.00000E+00 6.28571E+00 2.50000E+00
 -1      1844 4.30943E+01 4.32291E+01 0.00000E+00
 -1      1845 4.52761E+01 4.52291E+01 0.00000E+00
 -1      1846 3.42294E+01 3.48746E+01 0.00000E+00
 -1      1847 3.64113E+01 3.68746E+01 0.00000E+00
 -1      1848 2.56455E+01 2.69969E+01 0.00000E+00
 -1      1849 2.78274E+01 2.89969E+01 0.00000E+00
 -1      1850 1.68634E+01 1.92252E+01 0.00000E+00
 -1      1851 1.90452E+01 2.12252E+01 0.00000E+00
 -1      1852 8.48526E+00 1.10631E+01 0.00000E+00
 -1      1853 1.06671E+01 1.30631E+01 0.00000E+00
 -1      1854 2.18182E+00 5.14286E+00 0.00000E+00
 -1      1855 1.86908E+00 1.71237E+01 0.00000E+00
 -1      1856 1.86908E+00 1.39808E+01 0.00000E+00
 -1      1857 2.57363E+00 2.96465E+01 0.00000E+00
 -1      1858 2.57363E+00 2.65036E+01 0.00000E+00
 -1      1859 2.34628E+00 4.20316E+01 0.00000E+00
 -1      1860 2.34628E+00 3.88887E+01 0.00000E+00
 -1      1861 5.01295E+00 4.29205E+01 0.00000E+00
 -1      1862 1.55655E+01 4.62804E+01 0.00000E+00
 -1      1863 1.28988E+01 4.53915E+01 0.00000E+00
 -1      1864 2.62553E+01 4.99934E+01 0.00000E+00
 -1      1865 2.35887E+01 4.91045E+01 0.00000E+00
 -1      1866 3.72292E+01 5.33336E+01 0.00000E+00
 -1      1867 3.45625E+01 5.24447E+01 0.00000E+00
 -1      1868 4.53333E+01 5.64444E+01 0.00000E+00
 -1      1869 4.52761E+01 4.78957E+01 0.00000E+00
 -1      1870 2.11938E+00 8.14203E+00 0.00000E+00
 -1      1871 4.30119E+00 6.99918E+00 0.00000E+00
 -1      1872 6.48301E+00 8.99918E+00 0.00000E+00
 -1      1873 2.11938E+00 1.12849E+01 0.00000E+00
 -1      1874 4.52788E+01 5.35745E+01 0.00000E+00
 -1      1875 4.26121E+01 5.53522E+01 0.00000E+00
 -1      1876 3.80999E+01 3.95934E+01 0.00000E+00
 -1      1877 4.02817E+01 4.15934E+01 0.00000E+00
 -1      1878 3.00385E+01 3.07395E+01 0.00000E+00
 -1      1879 3.22203E+01 3.27394E+01 0.00000E+00
 -1      1880 2.12509E+01 2.31683E+01 0.00000E+00
 -1      1881 2.34327E+01 2.51683E+01 0.00000E+00
 -1      1882 1.25099E+01 1.52206E+01 0.00000E+00
 -1      1883 1.46918E+01 1.72206E+01 0.00000E+00
 -1      1884 3.52385E+01 4.04680E+01 0.00000E+00
 -1      1885 4.52788E+01 5.09078E+01 0.00000E+00
 -1      1886 3.99454E+01 5.44633E+01 0.00000E+00
 -1      1887 2.91195E+00 2.29722E+01 0.00000E+00
 -1      1888 2.91195E+00 1.98294E+01 0.00000E+00
 -1      1889 2.31209E+00 3.58835E+01 0.00000E+00
 -1      1890 2.31209E+00 3.27406E+01 0.00000E+00
 -1      1891 1.02970E+01 4.46538E+01 0.00000E+00
 -1      1892 7.63036E+00 4.37649E+01 0.00000E+00
 -1      1893 2.08618E+01 4.81801E+01 0.00000E+00
 -1      1894 1.81952E+01 4.72912E+01 0.00000E+00
 -1      1895 3.17662E+01 5.16196E+01 0.00000E+00
 -1      1896 2.90995E+01 5.07307E+01 0.00000E+00
 -1      1897 3.97396E+01 4.48224E+01 0.00000E+00
 -1      1898 4.78104E+00 1.80959E+01 0.00000E+00
 -1      1899 2.73204E+01 3.17364E+01 0.00000E+00
 -1      1900 4.25548E+01 4.94702E+01 0.00000E+00
 -1      1901 3.98412E+01 5.13525E+01 0.00000E+00
 -1      1902 3.98846E+00 1.26943E+01 0.00000E+00
 -1      1903 3.15407E+01 3.56141E+01 0.00000E+00
 -1      1904 2.28964E+01 2.81652E+01 0.00000E+00
 -1      1905 1.41006E+01 2.04458E+01 0.00000E+00
 -1      1906 4.88572E+00 3.09585E+01 0.00000E+00
 -1      1907 7.30997E+00 4.09076E+01 0.00000E+00
 -1      1908 2.86882E+01 4.78352E+01 0.00000E+00
 -1      1909 1.84779E+01 2.43934E+01 0.00000E+00
 -1      1910 1.00861E+01 1.62837E+01 0.00000E+00
 -1      1911 2.31172E+01 4.61735E+01 0.00000E+00
 -1      1912 3.43287E+01 4.93976E+01 0.00000E+00
 -1      1913 1.25292E+01 4.24898E+01 0.00000E+00
 -1      1914 4.65837E+00 3.70579E+01 0.00000E+00
 -1      1915 5.48558E+00 2.43330E+01 0.00000E+00
 -1      1916 1.77607E+01 4.42383E+01 0.00000E+00
 -1      1917 3.98386E+01 4.83405E+01 0.00000E+00
 -1      1918 2.01972E+01 2.95207E+01 0.00000E+00
 -1      1919 2.24101E+01 3.13494E+01 0.00000E+00
 -1      1920 1.12918E+01 2.16832E+01 0.00000E+00
 -1      1921 1.34635E+01 2.36878E+01 0.00000E+00
 -1      1922 7.25040E+00 3.26779E+01 0.00000E+00
 -1      1923 7.51193E+00 2.95838E+01 0.00000E+00
 -1      1924 2.52560E+01 4.43291E+01 0.00000E+00
 -1      1925 2.25292E+01 4.34047E+01 0.00000E+00
 -1      1926 3.19452E+01 4.03704E+01 0.00000E+00
 -1      1927 3.36339E+01 4.30891E+01 0.00000E+00
 -1      1928 2.47126E+01 3.28780E+01 0.00000E+00
 -1      1929 2.69237E+01 3.46205E+01 0.00000E+00
 -1      1930 2.20134E+01 3.42335E+01 0.00000E+00
 -1      1931 2.90166E+01 3.59078E+01 0.00000E+00
 -1      1932 3.10257E+01 3.80430E+01 0.00000E+00
 -1      1933 2.94211E+01 4.06642E+01 0.00000E+00
 -1      1934 2.64088E+01 3.70494E+01 0.00000E+00
 -1      1935 1.99892E+01 4.21719E+01 0.00000E+00
 -1      1936 1.73595E+01 4.11611E+01 0.00000E+00
 -1      1937 2.21281E+01 4.03275E+01 0.00000E+00
 -1      1938 7.90095E+00 2.63948E+01 0.00000E+00
 -1      1939 8.23927E+00 2.28634E+01 0.00000E+00
 -1      1940 3.09365E+01 4.57820E+01 0.00000E+00
 -1      1941 2.80923E+01 4.50447E+01 0.00000E+00
 -1      1942 3.70260E+01 4.67047E+01 0.00000E+00
 -1      1943 6.73883E+00 3.83637E+01 0.00000E+00
 -1      1944 6.70464E+00 3.53584E+01 0.00000E+00
 -1      1945 9.33086E+00 3.39837E+01 0.00000E+00
 -1      1946 9.35624E+00 3.92081E+01 0.00000E+00
 -1      1947 3.42297E+01 4.58796E+01 0.00000E+00
 -1      1948 1.57477E+01 2.57114E+01 0.00000E+00
 -1      1949 1.79533E+01 2.76545E+01 0.00000E+00
 -1      1950 1.29389E+01 2.69488E+01 0.00000E+00
 -1      1951 1.46732E+01 3.97425E+01 0.00000E+00
 -1      1952 1.20714E+01 3.90048E+01 0.00000E+00
 -1      1953 1.15003E+01 3.64609E+01 0.00000E+00
 -1      1954 1.69018E+01 3.76762E+01 0.00000E+00
 -1      1955 6.24100E+00 1.20623E+01 0.00000E+00
 -1      1956 5.99071E+00 1.47582E+01 0.00000E+00
 -1      1957 1.74670E+01 3.08387E+01 0.00000E+00
 -1      1958 1.02656E+01 2.81142E+01 0.00000E+00
 -1      1959 8.87644E+00 1.96214E+01 0.00000E+00
 -1      1960 7.03358E+00 1.74639E+01 0.00000E+00
 -1      1961 2.75043E+01 4.22759E+01 0.00000E+00
 -1      1962 1.25499E+01 3.01378E+01 0.00000E+00
 -1      1963 1.20461E+01 3.37804E+01 0.00000E+00
 -1      1964 1.47193E+01 3.26150E+01 0.00000E+00
 -1      1965 2.44919E+01 3.86612E+01 0.00000E+00
 -1      1966 2.19520E+01 3.74284E+01 0.00000E+00
 -1      1967 1.96495E+01 3.58999E+01 0.00000E+00
 -1      1968 1.69632E+01 3.44813E+01 0.00000E+00
 -1      1969 2.65849E+01 3.99485E+01 0.00000E+00
 -1      1970 2.18182E+00 5.14286E+00 5.00000E+00
 -1      1971 1.08065E+01 1.28603E+01 5.00000E+00
 -1      1972 8.62471E+00 1.08603E+01 5.00000E+00
 -1      1973 1.90560E+01 2.11125E+01 5.00000E+00
 -1      1974 1.68742E+01 1.91125E+01 5.00000E+00
 -1      1975 2.78118E+01 2.89355E+01 5.00000E+00
 -1      1976 2.56300E+01 2.69355E+01 5.00000E+00
 -1      1977 3.62979E+01 3.71167E+01 5.00000E+00
 -1      1978 3.41161E+01 3.51167E+01 5.00000E+00
 -1      1979 4.53132E+01 4.51352E+01 5.00000E+00
 -1      1980 4.31313E+01 4.31352E+01 5.00000E+00
 -1      1981 4.53132E+01 4.78019E+01 5.00000E+00
 -1      1982 4.53333E+01 5.64444E+01 5.00000E+00
 -1      1983 3.98753E+01 5.43838E+01 5.00000E+00
 -1      1984 4.25420E+01 5.52727E+01 5.00000E+00
 -1      1985 2.87328E+01 5.12490E+01 5.00000E+00
 -1      1986 3.13995E+01 5.21379E+01 5.00000E+00
 -1      1987 1.84551E+01 4.71261E+01 5.00000E+00
 -1      1988 2.11218E+01 4.80150E+01 5.00000E+00
 -1      1989 7.67031E+00 4.37358E+01 5.00000E+00
 -1      1990 1.03370E+01 4.46247E+01 5.00000E+00
 -1      1991 2.35931E+00 4.20217E+01 5.00000E+00
 -1      1992 5.02597E+00 4.29106E+01 5.00000E+00
 -1      1993 7.36295E+00 4.08687E+01 5.00000E+00
 -1      1994 2.35931E+00 3.88789E+01 5.00000E+00
 -1      1995 2.47341E+00 2.65676E+01 5.00000E+00
 -1      1996 2.47341E+00 2.97105E+01 5.00000E+00
 -1      1997 2.05266E+00 1.42820E+01 5.00000E+00
 -1      1998 2.05266E+00 1.74249E+01 5.00000E+00
 -1      1999 2.14288E+00 8.18827E+00 5.00000E+00
 -1      2000 2.14288E+00 1.13311E+01 5.00000E+00
 -1      2001 4.19554E+00 1.30417E+01 5.00000E+00
 -1      2002 4.32470E+00 7.04541E+00 5.00000E+00
 -1      2003 4.52087E+01 5.34949E+01 5.00000E+00
 -1      2004 1.28318E+01 1.49335E+01 5.00000E+00
 -1      2005 1.05474E+01 1.57938E+01 5.00000E+00
 -1      2006 1.50136E+01 1.69335E+01 5.00000E+00
 -1      2007 6.50652E+00 9.04541E+00 5.00000E+00
 -1      2008 1.44333E+01 2.00460E+01 5.00000E+00
 -1      2009 2.34156E+01 2.50942E+01 5.00000E+00
 -1      2010 2.12338E+01 2.30942E+01 5.00000E+00
 -1      2011 3.21014E+01 3.30026E+01 5.00000E+00
 -1      2012 2.99196E+01 3.10026E+01 5.00000E+00
 -1      2013 4.07553E+01 4.12061E+01 5.00000E+00
 -1      2014 3.85735E+01 3.92061E+01 5.00000E+00
 -1      2015 4.52087E+01 5.08283E+01 5.00000E+00
 -1      2016 3.69599E+01 5.29456E+01 5.00000E+00
 -1      2017 3.95019E+01 5.08850E+01 5.00000E+00
 -1      2018 3.42932E+01 5.20567E+01 5.00000E+00
 -1      2019 3.36927E+01 4.95280E+01 5.00000E+00
 -1      2020 2.37848E+01 4.90718E+01 5.00000E+00
 -1      2021 2.64515E+01 4.99607E+01 5.00000E+00
 -1      2022 1.30113E+01 4.53204E+01 5.00000E+00
 -1      2023 1.56780E+01 4.62093E+01 5.00000E+00
 -1      2024 2.30100E+00 3.27386E+01 5.00000E+00
 -1      2025 2.30100E+00 3.58814E+01 5.00000E+00
 -1      2026 2.23840E+00 2.04514E+01 5.00000E+00
 -1      2027 2.23840E+00 2.35942E+01 5.00000E+00
 -1      2028 4.29106E+00 1.90191E+01 5.00000E+00
 -1      2029 1.84717E+01 2.42067E+01 5.00000E+00
 -1      2030 2.71859E+01 3.19381E+01 5.00000E+00
 -1      2031 3.55987E+01 4.03227E+01 5.00000E+00
 -1      2032 1.81331E+01 4.40020E+01 5.00000E+00
 -1      2033 4.71181E+00 2.50190E+01 5.00000E+00
 -1      2034 4.66030E+00 3.70460E+01 5.00000E+00
 -1      2035 4.02503E+01 4.43413E+01 5.00000E+00
 -1      2036 3.13084E+01 3.61192E+01 5.00000E+00
 -1      2037 2.28638E+01 2.80297E+01 5.00000E+00
 -1      2038 4.25218E+01 4.92968E+01 5.00000E+00
 -1      2039 2.85176E+01 4.83208E+01 5.00000E+00
 -1      2040 1.26817E+01 4.23895E+01 5.00000E+00
 -1      2041 2.35732E+01 4.59757E+01 5.00000E+00
 -1      2042 4.77440E+00 3.10205E+01 5.00000E+00
 -1      2043 6.40396E+00 1.19057E+01 5.00000E+00
 -1      2044 3.96064E+01 4.78586E+01 5.00000E+00
 -1      2045 3.49146E+01 4.33622E+01 5.00000E+00
 -1      2046 3.26390E+01 4.12728E+01 5.00000E+00
 -1      2047 2.23643E+01 3.11484E+01 5.00000E+00
 -1      2048 2.01499E+01 2.93071E+01 5.00000E+00
 -1      2049 1.76844E+01 4.09560E+01 5.00000E+00
 -1      2050 2.04615E+01 4.18728E+01 5.00000E+00
 -1      2051 2.99703E+01 3.93533E+01 5.00000E+00
 -1      2052 2.79557E+01 3.72392E+01 5.00000E+00
 -1      2053 2.92863E+01 4.23927E+01 5.00000E+00
 -1      2054 2.90956E+01 4.56724E+01 5.00000E+00
 -1      2055 3.13769E+01 4.69607E+01 5.00000E+00
 -1      2056 3.42707E+01 4.68795E+01 5.00000E+00
 -1      2057 7.37217E+00 2.95592E+01 5.00000E+00
 -1      2058 7.19975E+00 3.25873E+01 5.00000E+00
 -1      2059 2.37639E+01 4.26960E+01 5.00000E+00
 -1      2060 2.64269E+01 4.37528E+01 5.00000E+00
 -1      2061 3.72304E+01 4.59295E+01 5.00000E+00
 -1      2062 6.76605E+00 3.83155E+01 5.00000E+00
 -1      2063 9.41039E+00 3.91407E+01 5.00000E+00
 -1      2064 6.70774E+00 3.53180E+01 5.00000E+00
 -1      2065 1.78762E+01 2.74289E+01 5.00000E+00
 -1      2066 1.56984E+01 2.54471E+01 5.00000E+00
 -1      2067 1.73767E+01 3.05476E+01 5.00000E+00
 -1      2068 2.67145E+01 3.46116E+01 5.00000E+00
 -1      2069 2.46067E+01 3.25446E+01 5.00000E+00
 -1      2070 2.53764E+01 3.78456E+01 5.00000E+00
 -1      2071 2.18929E+01 3.38219E+01 5.00000E+00
 -1      2072 1.21553E+01 3.88919E+01 5.00000E+00
 -1      2073 1.48296E+01 3.95876E+01 5.00000E+00
 -1      2074 1.71580E+01 3.74584E+01 5.00000E+00
 -1      2075 1.15584E+01 3.63387E+01 5.00000E+00
 -1      2076 7.38522E+00 2.31384E+01 5.00000E+00
 -1      2077 7.62023E+00 2.61118E+01 5.00000E+00
 -1      2078 9.30550E+00 3.38567E+01 5.00000E+00
 -1      2079 6.31373E+00 1.48566E+01 5.00000E+00
 -1      2080 1.26983E+01 2.64503E+01 5.00000E+00
 -1      2081 1.32938E+01 2.32281E+01 5.00000E+00
 -1      2082 6.07900E+00 1.74289E+01 5.00000E+00
 -1      2083 6.26475E+00 2.04554E+01 5.00000E+00
 -1      2084 9.17316E+00 2.15482E+01 5.00000E+00
 -1      2085 8.28742E+00 1.62928E+01 5.00000E+00
 -1      2086 1.00456E+01 2.76786E+01 5.00000E+00
 -1      2087 1.14332E+01 2.10492E+01 5.00000E+00
 -1      2088 2.20740E+01 3.70224E+01 5.00000E+00
 -1      2089 1.98316E+01 3.56263E+01 5.00000E+00
 -1      2090 2.33152E+01 3.96500E+01 5.00000E+00
 -1      2091 1.69769E+01 3.42579E+01 5.00000E+00
 -1      2092 1.03127E+01 1.83661E+01 5.00000E+00
 -1      2093 1.24502E+01 2.98977E+01 5.00000E+00
 -1      2094 1.47031E+01 3.23797E+01 5.00000E+00
 -1      2095 1.20504E+01 3.36080E+01 5.00000E+00
 -1      2096 3.67568E+01 4.63167E+01 2.50000E+00
 -1      2097 3.44410E+01 4.37495E+01 2.50000E+00
 -1      2098 3.74007E+01 4.27994E+01 2.50000E+00
 -1      2099 2.06665E+01 2.62625E+01 2.50000E+00
 -1      2100 2.28808E+01 2.81038E+01 2.50000E+00
 -1      2101 2.01670E+01 2.93811E+01 2.50000E+00
 -1      2102 1.67084E+01 4.52099E+01 1.25687E+00
 -1      2103 1.56396E+01 4.63061E+01 2.50880E+00
 -1      2104 1.40621E+01 4.43236E+01 1.25192E+00
 -1      2105 1.71429E+01 4.82629E+01 1.25687E+00
 -1      2106 1.44966E+01 4.73765E+01 1.25192E+00
 -1      2107 3.98519E+01 4.31649E+01 1.24775E+00
 -1      2108 4.03255E+01 4.27776E+01 3.74775E+00
 -1      2109 3.97767E+01 4.47286E+01 2.50000E+00
 -1      2110 4.27015E+01 4.47068E+01 3.74775E+00
 -1      2111 3.54147E+00 3.56929E+01 3.75098E+00
 -1      2112 2.42081E+00 3.50272E+01 2.50391E+00
 -1      2113 3.48133E+00 3.33828E+01 3.75293E+00
 -1      2114 4.61309E+00 3.40506E+01 2.50000E+00
 -1      2115 3.55256E+00 3.56950E+01 1.25098E+00
 -1      2116 3.49243E+00 3.33849E+01 1.25293E+00
 -1      2117 2.50937E+01 2.99324E+01 2.50000E+00
 -1      2118 2.23799E+01 3.12098E+01 2.50000E+00
 -1      2119 2.60401E+01 4.70652E+01 2.50000E+00
 -1      2120 2.54521E+01 4.42964E+01 2.50000E+00
 -1      2121 2.27891E+01 4.32396E+01 2.50000E+00
 -1      2122 2.33771E+01 4.60084E+01 2.50000E+00
 -1      2123 1.22910E+00 2.11434E+01 1.23157E+00
 -1      2124 4.14105E+00 2.21156E+01 1.23157E+00
 -1      2125 4.43532E+00 1.97875E+01 1.23727E+00
 -1      2126 1.52337E+00 1.88153E+01 1.23727E+00
 -1      2127 2.75246E+00 2.11015E+01 2.46884E+00
 -1      2128 3.97712E+01 5.12730E+01 2.50000E+00
 -1      2129 3.68557E+01 4.98348E+01 2.50000E+00
 -1      2130 3.98756E+01 4.82466E+01 2.50000E+00
 -1      2131 8.79929E+00 3.66258E+01 2.50000E+00
 -1      2132 9.34505E+00 3.39453E+01 2.50000E+00
 -1      2133 6.71884E+00 3.53201E+01 2.50000E+00
 -1      2134 4.25892E+01 4.63643E+01 2.50000E+00
 -1      2135 1.78932E+01 2.75029E+01 2.50000E+00
 -1      2136 1.18034E+00 3.52157E+01 3.75293E+00
 -1      2137 1.24047E+00 3.75258E+01 3.75098E+00
 -1      2138 1.25212E+00 1.62955E+01 3.79648E+00
 -1      2139 1.25212E+00 1.62955E+01 1.29648E+00
 -1      2140 2.77549E+00 1.62537E+01 2.53375E+00
 -1      2141 1.52337E+00 1.88153E+01 3.73727E+00
 -1      2142 7.21085E+00 3.25893E+01 2.50000E+00
 -1      2143 1.51630E+01 2.88209E+01 2.50000E+00
 -1      2144 1.74368E+01 3.06991E+01 2.50000E+00
 -1      2145 1.47632E+01 3.25312E+01 2.50000E+00
 -1      2146 1.56876E+01 2.55599E+01 2.50000E+00
 -1      2147 1.32830E+01 2.33408E+01 2.50000E+00
 -1      2148 1.62831E+01 2.23376E+01 2.50000E+00
 -1      2149 1.98619E+01 3.57659E+01 2.50000E+00
 -1      2150 2.19231E+01 3.39615E+01 2.50000E+00
 -1      2151 1.96807E+01 3.25654E+01 2.50000E+00
 -1      2152 1.28788E+01 2.67973E+01 2.50000E+00
 -1      2153 1.02261E+01 2.80256E+01 2.50000E+00
 -1      2154 1.04741E+01 2.45783E+01 2.50000E+00
 -1      2155 4.26645E+01 4.48006E+01 1.24775E+00
 -1      2156 4.32066E+01 4.15716E+01 1.24775E+00
 -1      2157 4.09970E+01 3.96825E+01 1.26361E+00
 -1      2158 3.88152E+01 3.76825E+01 1.26361E+00
 -1      2159 3.76424E+01 4.12758E+01 1.26361E+00
 -1      2160 4.09970E+01 3.96825E+01 3.76361E+00
 -1      2161 3.75397E+00 3.02908E+01 1.25293E+00
 -1      2162 1.18034E+00 3.20729E+01 1.25293E+00
 -1      2163 2.35858E+00 3.03881E+01 2.49829E+00
 -1      2164 3.75187E+00 2.79617E+01 1.24536E+00
 -1      2165 1.17824E+00 2.97438E+01 1.24536E+00
 -1      2166 1.24047E+00 3.75258E+01 1.25098E+00
 -1      2167 1.18034E+00 3.52157E+01 1.25293E+00
 -1      2168 3.30478E+00 1.48633E+01 3.79648E+00
 -1      2169 1.25212E+00 1.31527E+01 3.79648E+00
 -1      2170 3.39501E+00 1.19124E+01 3.79648E+00
 -1      2171 3.25981E+01 5.31248E+01 3.73092E+00
 -1      2172 3.19976E+01 5.05960E+01 3.73092E+00
 -1      2173 3.48913E+01 5.05148E+01 3.73092E+00
 -1      2174 7.56572E+00 2.34854E+01 2.50000E+00
 -1      2175 9.35366E+00 2.18952E+01 2.50000E+00
 -1      2176 4.87462E+00 3.09565E+01 2.50000E+00
 -1      2177 5.04704E+00 2.79284E+01 2.50000E+00
 -1      2178 7.47239E+00 2.94952E+01 2.50000E+00
 -1      2179 2.56428E+01 4.10167E+01 2.50000E+00
 -1      2180 2.23404E+01 4.01935E+01 2.50000E+00
 -1      2181 1.98005E+01 3.89608E+01 2.50000E+00
 -1      2182 2.02492E+01 4.20068E+01 2.50000E+00
 -1      2183 3.88152E+01 3.76825E+01 3.76361E+00
 -1      2184 1.84609E+01 2.43194E+01 2.50000E+00
 -1      2185 2.40734E+00 2.57443E+01 2.47693E+00
 -1      2186 3.80273E+00 2.56470E+01 1.23157E+00
 -1      2187 3.70251E+00 2.57110E+01 3.73157E+00
 -1      2188 3.65165E+00 2.80257E+01 3.74536E+00
 -1      2189 9.83707E+00 3.12146E+01 2.50000E+00
 -1      2190 1.25103E+01 3.00492E+01 2.50000E+00
 -1      2191 1.20899E+01 3.36966E+01 2.50000E+00
 -1      2192 9.18296E+00 4.56568E+01 3.75109E+00
 -1      2193 6.51629E+00 4.47679E+01 3.75109E+00
 -1      2194 8.85327E+00 4.27259E+01 3.75109E+00
 -1      2195 3.02283E+01 4.13245E+01 2.50000E+00
 -1      2196 2.75596E+01 3.94050E+01 2.50000E+00
 -1      2197 3.09124E+01 3.82850E+01 2.50000E+00
 -1      2198 6.93829E+00 1.98334E+01 2.50000E+00
 -1      2199 5.15036E+00 2.14236E+01 2.50000E+00
 -1      2200 1.07725E+01 1.14605E+01 1.23633E+00
 -1      2201 8.34871E+00 1.25236E+01 1.23633E+00
 -1      2202 8.59073E+00 9.46053E+00 1.23633E+00
 -1      2203 2.88843E+01 4.78025E+01 2.50000E+00
 -1      2204 3.17436E+01 4.64424E+01 2.50000E+00
 -1      2205 3.11656E+01 4.90908E+01 2.50000E+00
 -1      2206 2.88977E+01 3.61709E+01 2.50000E+00
 -1      2207 3.14218E+01 3.58772E+01 2.50000E+00
 -1      2208 3.34364E+01 3.79913E+01 2.50000E+00
 -1      2209 1.74721E+01 4.10900E+01 2.50000E+00
 -1      2210 3.51251E+01 4.07100E+01 2.50000E+00
 -1      2211 3.27524E+01 4.10308E+01 2.50000E+00
 -1      2212 1.47858E+01 3.96714E+01 2.50000E+00
 -1      2213 1.52435E+01 4.31564E+01 2.50000E+00
 -1      2214 2.46223E+01 3.26060E+01 2.50000E+00
 -1      2215 6.75186E+00 3.83538E+01 2.50000E+00
 -1      2216 9.39619E+00 3.91790E+01 2.50000E+00
 -1      2217 2.94126E+01 3.37420E+01 2.50000E+00
 -1      2218 1.07725E+01 1.14605E+01 3.73633E+00
 -1      2219 1.47742E+01 1.56186E+01 1.21572E+00
 -1      2220 1.20114E+01 1.68392E+01 1.21572E+00
 -1      2221 1.65566E+01 1.71865E+01 1.22617E+00
 -1      2222 1.38763E+01 1.68051E+01 2.44189E+00
 -1      2223 1.37938E+01 1.84071E+01 1.22617E+00
 -1      2224 2.06503E+01 4.50840E+01 2.50000E+00
 -1      2225 1.25924E+01 1.36186E+01 1.21572E+00
 -1      2226 1.47742E+01 1.56186E+01 3.71572E+00
 -1      2227 1.25924E+01 1.36186E+01 3.71572E+00
 -1      2228 3.08605E+01 2.98951E+01 1.26664E+00
 -1      2229 3.30423E+01 3.18951E+01 3.76664E+00
 -1      2230 3.08605E+01 2.98951E+01 3.76664E+00
 -1      2231 3.65375E+00 3.03548E+01 3.75293E+00
 -1      2232 1.15145E+01 3.64225E+01 2.50000E+00
 -1      2233 1.64013E+00 1.02312E+01 3.75541E+00
 -1      2234 1.64013E+00 1.02312E+01 1.25541E+00
 -1      2235 1.64013E+00 7.08839E+00 3.75541E+00
 -1      2236 3.67982E+01 3.55556E+01 3.75945E+00
 -1      2237 3.46164E+01 3.35556E+01 3.75945E+00
 -1      2238 3.46164E+01 3.35556E+01 1.25945E+00
 -1      2239 1.42594E+01 3.61738E+01 2.50000E+00
 -1      2240 2.09788E+01 4.80998E+01 2.51740E+00
 -1      2241 1.95980E+01 4.60556E+01 3.75687E+00
 -1      2242 2.22909E+01 4.69630E+01 3.76053E+00
 -1      2243 2.20310E+01 4.71281E+01 1.26053E+00
 -1      2244 1.93381E+01 4.62207E+01 1.25687E+00
 -1      2245 6.17428E+00 1.50594E+01 2.50000E+00
 -1      2246 6.26451E+00 1.21085E+01 2.50000E+00
 -1      2247 8.38270E+00 1.39233E+01 2.50000E+00
 -1      2248 1.77056E+01 2.18469E+01 1.24570E+00
 -1      2249 2.04786E+01 2.06217E+01 1.24570E+00
 -1      2250 1.82968E+01 1.86217E+01 1.24570E+00
 -1      2251 1.01685E+01 1.46817E+01 1.21572E+00
 -1      2252 8.59073E+00 9.46053E+00 3.73633E+00
 -1      2253 6.20893E+00 4.19007E+01 3.75109E+00
 -1      2254 4.10659E+00 4.37506E+01 3.74899E+00
 -1      2255 3.79924E+00 4.08834E+01 3.74899E+00
 -1      2256 5.28955E+00 4.27407E+01 2.50008E+00
 -1      2257 2.82884E+01 4.50120E+01 2.50000E+00
 -1      2258 3.11478E+01 4.36519E+01 2.50000E+00
 -1      2259 2.84791E+01 4.17324E+01 2.50000E+00
 -1      2260 2.20384E+01 2.57048E+01 1.24560E+00
 -1      2261 2.12661E+01 2.31582E+01 2.49131E+00
 -1      2262 1.99113E+01 2.37900E+01 1.24570E+00
 -1      2263 2.20213E+01 2.56307E+01 3.74560E+00
 -1      2264 1.98942E+01 2.37159E+01 3.74570E+00
 -1      2265 1.18034E+00 3.20729E+01 3.75293E+00
 -1      2266 2.26057E+01 2.25365E+01 3.74560E+00
 -1      2267 2.47875E+01 2.45365E+01 1.24560E+00
 -1      2268 2.47875E+01 2.45365E+01 3.74560E+00
 -1      2269 1.70071E+01 3.43975E+01 2.50000E+00
 -1      2270 6.34647E+00 1.04597E+01 1.23633E+00
 -1      2271 1.65566E+01 1.71865E+01 3.72617E+00
 -1      2272 5.37375E+00 1.39301E+01 1.29648E+00
 -1      2273 3.37150E+00 1.18661E+01 1.29648E+00
 -1      2274 4.26226E+00 1.00446E+01 2.50000E+00
 -1      2275 4.67140E+00 3.70481E+01 2.50000E+00
 -1      2276 1.25212E+00 1.31527E+01 1.29648E+00
 -1      2277 2.44017E+01 3.83892E+01 2.50000E+00
 -1      2278 1.25691E+01 4.24607E+01 2.50000E+00
 -1      2279 1.21114E+01 3.89757E+01 2.50000E+00
 -1      2280 9.96734E+00 4.17230E+01 2.50000E+00
 -1      2281 3.40594E+01 4.90096E+01 2.50000E+00
 -1      2282 2.72015E+01 3.19995E+01 2.50000E+00
 -1      2283 1.69457E+01 3.75924E+01 2.50000E+00
 -1      2284 2.69211E+01 2.64440E+01 3.75208E+00
 -1      2285 2.55268E+01 2.69805E+01 2.49769E+00
 -1      2286 2.63693E+01 2.93795E+01 3.75208E+00
 -1      2287 2.42357E+01 2.74720E+01 3.74560E+00
 -1      2288 3.51606E+01 5.09028E+01 1.23092E+00
 -1      2289 3.23643E+01 5.00777E+01 1.23092E+00
 -1      2290 3.25981E+01 5.31248E+01 1.23092E+00
 -1      2291 3.59978E+00 3.86903E+01 3.75098E+00
 -1      2292 7.32300E+00 4.08978E+01 2.50000E+00
 -1      2293 9.18296E+00 4.56568E+01 1.25109E+00
 -1      2294 2.42256E+01 3.54901E+01 2.50000E+00
 -1      2295 2.21643E+01 3.72944E+01 2.50000E+00
 -1      2296 1.98096E+01 4.91517E+01 3.75687E+00
 -1      2297 1.71429E+01 4.82629E+01 3.75687E+00
 -1      2298 1.18300E+01 4.64876E+01 3.75192E+00
 -1      2299 1.18300E+01 4.64876E+01 1.25192E+00
 -1      2300 2.75616E+01 4.89211E+01 3.73202E+00
 -1      2301 3.02096E+01 4.96912E+01 1.23202E+00
 -1      2302 2.98429E+01 5.02095E+01 3.73202E+00
 -1      2303 2.63185E+01 3.67774E+01 2.50000E+00
 -1      2304 3.67982E+01 3.55556E+01 1.25945E+00
 -1      2305 3.63406E+01 3.72381E+01 2.52306E+00
 -1      2306 2.42512E+01 2.75334E+01 1.24560E+00
 -1      2307 2.63848E+01 2.94409E+01 1.25208E+00
 -1      2308 1.44966E+01 4.73765E+01 3.75192E+00
 -1      2309 5.54971E+00 1.88193E+01 3.73727E+00
 -1      2310 3.39245E+00 1.70819E+01 1.23727E+00
 -1      2311 5.89543E+00 1.71277E+01 2.50000E+00
 -1      2312 1.03463E+01 4.45889E+01 2.50301E+00
 -1      2313 1.15003E+01 4.35568E+01 3.75192E+00
 -1      2314 1.22910E+00 2.42862E+01 3.73157E+00
 -1      2315 1.17824E+00 2.66009E+01 3.74536E+00
 -1      2316 1.22910E+00 2.42862E+01 1.23157E+00
 -1      2317 1.22910E+00 2.11434E+01 3.73157E+00
 -1      2318 6.51629E+00 4.47679E+01 1.25109E+00
 -1      2319 8.81332E+00 4.27550E+01 1.25109E+00
 -1      2320 3.72432E+01 5.48521E+01 3.75431E+00
 -1      2321 3.68697E+01 5.13533E+01 3.75431E+00
 -1      2322 3.97852E+01 5.27915E+01 3.75431E+00
 -1      2323 3.46750E+00 2.27376E+01 3.73157E+00
 -1      2324 4.10659E+00 4.37506E+01 1.24899E+00
 -1      2325 1.68210E+01 4.51388E+01 3.75687E+00
 -1      2326 3.38234E+01 3.66723E+01 3.75945E+00
 -1      2327 3.04435E+01 5.27382E+01 1.23202E+00
 -1      2328 3.10416E+01 5.11964E+01 2.46293E+00
 -1      2329 1.64013E+00 7.08839E+00 1.25541E+00
 -1      2330 3.30423E+01 3.18951E+01 1.26664E+00
 -1      2331 3.78301E+00 8.99094E+00 3.75541E+00
 -1      2332 1.11113E+01 2.13363E+01 2.50000E+00
 -1      2333 3.76177E+00 2.04095E+01 3.73727E+00
 -1      2334 3.57602E+00 1.73831E+01 3.73727E+00
 -1      2335 2.91029E+01 2.84440E+01 1.25208E+00
 -1      2336 2.69211E+01 2.64440E+01 1.25208E+00
 -1      2337 1.00733E+01 1.70512E+01 3.71572E+00
 -1      2338 1.03080E+01 1.44788E+01 3.71572E+00
 -1      2339 1.23333E+01 1.65521E+01 3.71572E+00
 -1      2340 6.19590E+00 4.19106E+01 1.25109E+00
 -1      2341 3.78621E+00 4.08933E+01 1.24899E+00
 -1      2342 7.80073E+00 2.64588E+01 2.50000E+00
 -1      2343 1.59655E+01 2.04117E+01 1.22617E+00
 -1      2344 2.26057E+01 2.25365E+01 1.24560E+00
 -1      2345 3.59537E+01 3.85571E+01 1.26361E+00
 -1      2346 1.43993E+00 4.28617E+01 1.24899E+00
 -1      2347 2.91029E+01 2.84440E+01 3.75208E+00
 -1      2348 2.84771E+01 3.14466E+01 3.75208E+00
 -1      2349 9.99082E+00 1.86532E+01 2.50000E+00
 -1      2350 8.14796E+00 1.64957E+01 2.50000E+00
 -1      2351 3.02346E+01 3.28976E+01 3.76664E+00
 -1      2352 4.70559E+00 4.00533E+01 2.50000E+00
 -1      2353 1.82968E+01 1.86217E+01 3.74570E+00
 -1      2354 3.27496E+01 3.34507E+01 2.52609E+00
 -1      2355 1.17824E+00 2.97438E+01 3.74536E+00
 -1      2356 2.85960E+01 3.11835E+01 1.25208E+00
 -1      2357 2.68048E+01 3.48836E+01 2.50000E+00
 -1      2358 1.78732E+01 4.41672E+01 2.50000E+00
 -1      2359 2.25025E+01 5.00591E+01 3.76053E+00
 -1      2360 2.49539E+01 4.80198E+01 3.76053E+00
 -1      2361 3.12121E+00 1.45621E+01 1.29648E+00
 -1      2362 3.91223E+01 5.41653E+01 2.50921E+00
 -1      2363 4.17544E+01 5.36970E+01 3.75490E+00
 -1      2364 3.92124E+01 5.57577E+01 3.75490E+00
 -1      2365 1.43993E+00 4.28617E+01 3.74899E+00
 -1      2366 1.41157E+01 1.81200E+01 3.72617E+00
 -1      2367 2.73655E+01 4.89538E+01 1.23202E+00
 -1      2368 2.77768E+01 5.18494E+01 1.23202E+00
 -1      2369 1.22508E+01 1.81541E+01 2.50000E+00
 -1      2370 3.45765E+01 5.39632E+01 3.75431E+00
 -1      2371 3.51746E+01 5.24213E+01 2.48523E+00
 -1      2372 8.48817E+00 1.23208E+01 3.73633E+00
 -1      2373 6.36997E+00 1.05059E+01 3.73633E+00
 -1      2374 3.81160E+01 4.08886E+01 3.76361E+00
 -1      2375 3.58404E+01 3.87992E+01 3.76361E+00
 -1      2376 1.41114E+01 2.03331E+01 2.50000E+00
 -1      2377 3.98553E+01 5.28710E+01 1.25431E+00
 -1      2378 3.71390E+01 5.17413E+01 1.25431E+00
 -1      2379 3.72432E+01 5.48521E+01 1.25431E+00
 -1      2380 1.17824E+00 2.66009E+01 1.24536E+00
 -1      2381 4.24848E+01 4.93907E+01 2.50000E+00
 -1      2382 4.81203E+00 2.49550E+01 2.50000E+00
 -1      2383 2.89225E+00 1.08125E+01 2.55190E+00
 -1      2384 3.75950E+00 8.94470E+00 1.25541E+00
 -1      2385 3.18087E+01 3.45582E+01 3.75945E+00
 -1      2386 2.04786E+01 2.06217E+01 3.74570E+00
 -1      2387 6.00376E+00 7.94553E+00 1.25541E+00
 -1      2388 5.86722E+00 9.40606E+00 2.49174E+00
 -1      2389 6.00376E+00 7.94553E+00 3.75541E+00
 -1      2390 3.92174E+00 1.56915E+01 2.50000E+00
 -1      2391 1.41746E+01 4.42525E+01 3.75192E+00
 -1      2392 4.67242E+01 4.79186E+01 1.24437E+00
 -1      2393 4.67242E+01 4.52520E+01 3.74437E+00
 -1      2394 4.67242E+01 4.52520E+01 1.24437E+00
 -1      2395 4.53884E+01 4.35716E+01 3.74775E+00
 -1      2396 4.32066E+01 4.15716E+01 3.74775E+00
 -1      2397 4.53884E+01 4.35716E+01 1.24775E+00
 -1      2398 2.62793E+01 4.99085E+01 2.49254E+00
 -1      2399 2.47578E+01 4.80525E+01 1.26053E+00
 -1      2400 4.38784E+01 4.86483E+01 1.25306E+00
 -1      2401 4.66023E+01 5.00859E+01 1.25306E+00
 -1      2402 4.40003E+01 4.64810E+01 1.24437E+00
 -1      2403 4.53265E+01 4.86712E+01 2.49742E+00
 -1      2404 2.51691E+01 5.09480E+01 3.76053E+00
 -1      2405 3.82194E+00 5.94553E+00 3.75541E+00
 -1      2406 3.82194E+00 5.94553E+00 1.25541E+00
 -1      2407 3.21175E+00 4.35944E+00 1.25002E+00
 -1      2408 1.02993E+00 2.35944E+00 3.75002E+00
 -1      2409 1.02993E+00 2.35944E+00 1.25002E+00
 -1      2410 3.21175E+00 4.35944E+00 3.75002E+00
 -1      2411 1.02993E+00 5.50230E+00 3.75002E+00
 -1      2412 1.02993E+00 5.50230E+00 1.25002E+00
 -1      2413 4.64438E+01 5.78179E+01 1.25444E+00
 -1      2414 4.37771E+01 5.69290E+01 3.75444E+00
 -1      2415 4.64438E+01 5.78179E+01 3.75444E+00
 -1      2416 4.37771E+01 5.69290E+01 1.25444E+00
 -1      2417 4.18791E+01 5.66466E+01 3.75490E+00
 -1      2418 4.29895E+01 5.53533E+01 2.50934E+00
 -1      2419 4.18791E+01 5.66466E+01 1.25490E+00
 -1      2420 4.64438E+01 5.51512E+01 1.25444E+00
 -1      2421 4.37225E+01 5.40590E+01 1.25444E+00
 -1      2422 4.64438E+01 5.51512E+01 3.75444E+00
 -1      2423 4.36525E+01 5.39795E+01 3.75444E+00
 -1      2424 4.38110E+01 5.15808E+01 3.75306E+00
 -1      2425 4.66023E+01 5.00859E+01 3.75306E+00
 -1      2426 4.66023E+01 5.27526E+01 3.75306E+00
 -1      2427 4.66023E+01 5.27526E+01 1.25306E+00
 -1      2428 1.43993E+00 3.97189E+01 3.74899E+00
 -1      2429 1.43993E+00 3.97189E+01 1.24899E+00
 -1      2430 1.98096E+01 4.91517E+01 1.25687E+00
 -1      2431 3.58675E+00 3.87002E+01 1.25098E+00
 -1      2432 2.68040E+00 3.95303E+01 2.49997E+00
 -1      2433 2.25025E+01 5.00591E+01 1.26053E+00
 -1      2434 2.51691E+01 5.09480E+01 1.26053E+00
 -1      2435 3.04435E+01 5.27382E+01 3.73202E+00
 -1      2436 2.77768E+01 5.18494E+01 3.73202E+00
 -1      2437 3.45765E+01 5.39632E+01 1.25431E+00
 -1      2438 4.18245E+01 5.37766E+01 1.25490E+00
 -1      2439 3.92124E+01 5.57577E+01 1.25490E+00
 -1      2440 4.24874E+01 5.24027E+01 2.50000E+00
 -1      2441 4.41126E+01 4.48235E+01 2.49212E+00
 -1      2442 2.67006E+00 6.30497E+00 2.50543E+00
 -1      2443 4.50461E+01 5.32371E+01 2.50749E+00
 -1      2444 4.38811E+01 5.16604E+01 1.25306E+00
 -1      2445 4.67242E+01 4.79186E+01 3.74437E+00
 -1      2446 4.05672E+01 4.12540E+01 2.51136E+00
 -1      2447 4.40374E+01 4.63872E+01 3.74437E+00
 -1      2448 4.39155E+01 4.85545E+01 3.75306E+00
 -1      2449 1.14603E+01 4.35859E+01 1.25192E+00
 -1      2450 1.02740E+01 1.30791E+01 2.45205E+00
 -1      2451 2.94180E+01 3.03391E+01 2.51873E+00
 -1      2452 3.03535E+01 3.26345E+01 1.26664E+00
 -1      2453 3.19276E+01 3.42951E+01 1.25945E+00
 -1      2454 1.77165E+01 2.17342E+01 3.74570E+00
 -1      2455 1.73988E+01 1.98082E+01 2.47187E+00
 -1      2456 3.39367E+01 3.64303E+01 1.25945E+00
 -1      2457 1.59763E+01 2.02990E+01 3.72617E+00
 -3
    3C                           455                                     1
 -1      1151    6    0    1
 -2      1678      1677      1683      1641      2061      2045      2056      2096      2098      2097
 -1      1152    6    0    1
 -2      1675      1663      1643      1684      2037      2100      2099      2048      2047      2101
 -1      1153    6    0    1
 -2      1636      1701      1720      1602      2104      2103      2102      1862      2106      2105
 -1      1154    6    0    1
 -2      1641      1677      1708      1665      2098      2108      2107      2109      2035      2110
 -1      1155    6    0    1
 -2      1681      1723      1717      1646      2113      2112      2111      2114      2116      2115
 -1      1156    6    0    1
 -2      1643      1663      1630      1684      2100      2117      1904      2101      2047      2118
 -1      1157    6    0    1
 -2      1653      1679      1637      1668      2120      2119      1924      2121      2041      2122
 -1      1158    6    0    1
 -2      1645      1706      1618      1713      2124      2123      1888      2125      2127      2126
 -1      1159    6    0    1
 -2      1666      1665      1678      1638      2038      2044      2017      2128      2130      2129
 -1      1160    6    0    1
 -2      1658      1652      1688      1646      1945      2132      2131      1944      1922      2133
 -1      1161    6    0    1
 -2      1641      1665      1628      1638      2109      2134      1897      1942      2130      1917
 -1      1162    6    0    1
 -2      1643      1684      1689      1675      2101      2067      2135      2099      2048      2065
 -1      1163    6    0    1
 -2      1627      1681      1723      1717      2025      2113      2136      2137      2111      2112
 -1      1164    6    0    1
 -2      1699      1618      1624      1713      2139      1834      2138      2140      2126      2141
 -1      1165    6    0    1
 -2      1688      1646      1687      1681      2133      2142      2078      2064      2114      2058
 -1      1166    6    0    1
 -2      1689      1684      1659      1691      2067      2144      2143      2094      2091      2145
 -1      1167    6    0    1
 -2      1692      1631      1689      1662      2147      2146      2080      2081      2148      2066
 -1      1168    6    0    1
 -2      1650      1690      1685      1684      2150      2088      2149      2151      2071      2089
 -1      1169    6    0    1
 -2      1687      1651      1689      1692      2153      2152      2093      2086      2154      2080
 -1      1170    6    0    1
 -2      1576      1708      1628      1641      2156      2155      1844      1877      2107      1897
 -1      1171    6    0    1
 -2      1576      1577      1700      1641      1727      2158      2157      1877      1876      2159
 -1      1172    6    0    1
 -2      1700      1577      1576      1586      2158      1727      2157      2160      1790      1807
 -1      1173    6    0    1
 -2      1723      1620      1634      1711      2162      1857      2161      2163      2165      2164
 -1      1174    6    0    1
 -2      1643      1630      1650      1684      1904      1919      1918      2101      2118      2151
 -1      1175    6    0    1
 -2      1717      1723      1621      1646      2112      2167      2166      2115      2116      1889
 -1      1176    6    0    1
 -2      1672      1673      1623      1699      2001      2000      1997      2168      2170      2169
 -1      1177    6    0    1
 -2      1667      1707      1613      1678      2172      2171      1986      2019      2173      2018
 -1      1178    6    0    1
 -2      1682      1693      1651      1692      2083      2175      2174      2076      2084      2154
 -1      1179    6    0    1
 -2      1681      1671      1634      1687      2042      2177      2176      2058      2057      2178
 -1      1180    6    0    1
 -2      1621      1723      1620      1646      2167      2162      1779      1889      2116      1890
 -1      1181    6    0    1
 -2      1686      1679      1653      1668      2060      2120      2179      2059      2041      2121
 -1      1182    6    0    1
 -2      1685      1668      1653      1657      2050      2121      2180      2181      2182      1937
 -1      1183    6    0    1
 -2      1700      1587      1577      1586      2183      1789      2158      2160      1738      1790
 -1      1184    6    0    1
 -2      1643      1675      1689      1631      2099      2065      2135      1909      2184      2146
 -1      1185    6    0    1
 -2      1706      1634      1711      1671      2186      2164      2185      2187      2177      2188
 -1      1186    6    0    1
 -2      1646      1688      1687      1652      2133      2078      2142      1922      2132      2189
 -1      1187    6    0    1
 -2      1687      1689      1659      1691      2093      2143      2190      2095      2094      2145
 -1      1188    6    0    1
 -2      1688      1691      1687      1652      2075      2095      2078      2132      2191      2189
 -1      1189    6    0    1
 -2      1608      1719      1609      1669      2193      2192      1766      1989      2194      1990
 -1      1190    6    0    1
 -2      1683      1686      1656      1664      2053      2196      2195      2046      2051      2197
 -1      1191    6    0    1
 -2      1681      1687      1634      1646      2058      2178      2176      2114      2142      1906
 -1      1192    6    0    1
 -2      1687      1691      1659      1652      2095      2145      2190      2189      2191      1962
 -1      1193    6    0    1
 -2      1693      1682      1651      1645      2083      2174      2175      2198      2199      1939
 -1      1194    6    0    1
 -2      1703      1632      1583      1584      2201      1853      2200      2202      1852      1734
 -1      1195    6    0    1
 -2      1679      1683      1649      1667      2054      2204      2203      2039      2055      2205
 -1      1196    6    0    1
 -2      1681      1646      1634      1723      2114      1906      2176      2113      2116      2161
 -1      1197    6    0    1
 -2      1656      1664      1676      1629      2197      2036      2206      1932      2208      2207
 -1      1198    6    0    1
 -2      1680      1668      1685      1657      2032      2050      2049      2209      2182      2181
 -1      1199    6    0    1
 -2      1641      1629      1664      1683      1884      2208      2210      2097      2211      2046
 -1      1200    6    0    1
 -2      1636      1680      1660      1657      2213      2212      1951      1936      2209      1954
 -1      1201    6    0    1
 -2      1650      1684      1630      1690      2151      2118      1919      2150      2071      2214
 -1      1202    6    0    1
 -2      1688      1658      1670      1669      2131      2215      2062      2063      2216      1993
 -1      1203    6    0    1
 -2      1630      1684      1663      1690      2118      2047      2117      2214      2071      2069
 -1      1204    6    0    1
 -2      1676      1642      1656      1629      2217      1931      2206      2207      1903      1932
 -1      1205    6    0    1
 -2      1703      1584      1583      1593      2202      1734      2200      2218      1803      1800
 -1      1206    6    0    1
 -2      1582      1644      1715      1712      1883      2220      2219      2221      2223      2222
 -1      1207    6    0    1
 -2      1648      1653      1637      1668      1925      1924      1911      2224      2121      2122
 -1      1208    6    0    1
 -2      1583      1593      1592      1715      1800      1744      1801      2225      2227      2226
 -1      1209    6    0    1
 -2      1579      1589      1588      1704      1793      1740      1794      2228      2230      2229
 -1      1210    6    0    1
 -2      1723      1711      1634      1671      2163      2164      2161      2231      2188      2177
 -1      1211    6    0    1
 -2      1688      1658      1660      1652      2131      1953      2232      2132      1945      1963
 -1      1212    6    0    1
 -2      1623      1617      1695      1622      1832      2234      2233      1782      1833      2235
 -1      1213    6    0    1
 -2      1588      1714      1587      1578      2237      2236      1739      1791      2238      1792
 -1      1214    6    0    1
 -2      1660      1691      1688      1652      2239      2075      2232      1963      2191      2132
 -1      1215    6    0    1
 -2      1710      1668      1720      1648      2242      2241      2240      2243      2224      2244
 -1      1216    6    0    1
 -2      1673      1632      1672      1661      2246      2245      2001      2043      2247      2079
 -1      1217    6    0    1
 -2      1687      1652      1659      1651      2189      1962      2190      2153      1958      1950
 -1      1218    6    0    1
 -2      1641      1683      1664      1677      2097      2046      2210      2098      2045      2031
 -1      1219    6    0    1
 -2      1581      1705      1631      1582      2249      2248      1851      1732      2250      1850
 -1      1220    6    0    1
 -2      1644      1632      1583      1715      1910      1853      1882      2220      2251      2225
 -1      1221    6    0    1
 -2      1683      1664      1656      1629      2046      2197      2195      2211      2208      1932
 -1      1222    6    0    1
 -2      1594      1584      1703      1593      1802      2202      2252      1745      1803      2218
 -1      1223    6    0    1
 -2      1608      1719      1670      1702      2193      2253      1992      2254      2256      2255
 -1      1224    6    0    1
 -2      1637      1653      1654      1679      1924      1961      1941      2119      2120      2257
 -1      1225    6    0    1
 -2      1683      1679      1649      1654      2054      2203      2204      2258      2257      1940
 -1      1226    6    0    1
 -2      1654      1686      1683      1679      2259      2053      2258      2257      2060      2054
 -1      1227    6    0    1
 -2      1643      1705      1718      1675      2262      2261      2260      2099      2264      2263
 -1      1228    6    0    1
 -2      1627      1626      1723      1681      1786      2265      2136      2025      2024      2113
 -1      1229    6    0    1
 -2      1683      1654      1649      1641      2258      1940      2204      2097      1927      1947
 -1      1230    6    0    1
 -2      1591      1590      1580      1718      1742      1797      1796      2266      2268      2267
 -1      1231    6    0    1
 -2      1659      1684      1650      1691      2144      2151      1957      2145      2091      2269
 -1      1232    6    0    1
 -2      1639      1632      1703      1584      1955      2201      2270      1872      1852      2202
 -1      1233    6    0    1
 -2      1582      1712      1715      1592      2221      2222      2219      1808      2271      2226
 -1      1234    6    0    1
 -2      1689      1662      1631      1675      2066      2148      2146      2065      2029      2184
 -1      1235    6    0    1
 -2      1650      1685      1691      1684      2149      2074      2269      2151      2089      2091
 -1      1236    6    0    1
 -2      1632      1673      1699      1639      2246      2170      2272      1955      2274      2273
 -1      1237    6    0    1
 -2      1670      1646      1688      1681      2275      2133      2062      2034      2114      2064
 -1      1238    6    0    1
 -2      1618      1699      1623      1617      2139      2169      1835      1776      2276      1832
 -1      1239    6    0    1
 -2      1643      1631      1689      1659      1909      2146      2135      1949      1948      2143
 -1      1240    6    0    1
 -2      1690      1686      1653      1685      2070      2179      2277      2088      2090      2180
 -1      1241    6    0    1
 -2      1636      1647      1660      1669      1913      1952      1951      2278      2280      2279
 -1      1242    6    0    1
 -2      1636      1669      1660      1680      2278      2279      1951      2213      2040      2212
 -1      1243    6    0    1
 -2      1678      1649      1641      1683      2281      1947      2096      2056      2204      2097
 -1      1244    6    0    1
 -2      1653      1668      1648      1657      2121      2224      1925      1937      2182      1935
 -1      1245    6    0    1
 -2      1643      1659      1689      1684      1949      2143      2135      2101      2144      2067
 -1      1246    6    0    1
 -2      1676      1690      1630      1663      2068      2214      2282      2030      2069      2117
 -1      1247    6    0    1
 -2      1680      1685      1691      1657      2049      2074      2073      2209      2181      2283
 -1      1248    6    0    1
 -2      1716      1718      1590      1663      2285      2268      2284      2286      2287      1976
 -1      1249    6    0    1
 -2      1638      1649      1707      1605      1912      2289      2288      1867      1895      2290
 -1      1250    6    0    1
 -2      1681      1670      1717      1627      2034      2291      2111      2025      1994      2137
 -1      1251    6    0    1
 -2      1670      1658      1647      1669      2215      1946      2292      1993      2216      2280
 -1      1252    6    0    1
 -2      1609      1719      1608      1601      2192      2193      1766      1815      2293      1816
 -1      1253    6    0    1
 -2      1687      1651      1659      1689      2153      1950      2190      2093      2152      2143
 -1      1254    6    0    1
 -2      1690      1685      1653      1655      2088      2180      2277      2294      2295      1965
 -1      1255    6    0    1
 -2      1611      1610      1720      1668      1768      2297      2296      1988      1987      2241
 -1      1256    6    0    1
 -2      1602      1701      1609      1601      2106      2298      1818      1758      2299      1815
 -1      1257    6    0    1
 -2      1679      1667      1649      1721      2039      2205      2203      2300      2302      2301
 -1      1258    6    0    1
 -2      1676      1686      1656      1690      2052      2196      2206      2068      2070      2303
 -1      1259    6    0    1
 -2      1577      1700      1714      1587      2158      2305      2304      1789      2183      2236
 -1      1260    6    0    1
 -2      1716      1630      1718      1663      2307      2306      2285      2286      2117      2287
 -1      1261    6    0    1
 -2      1701      1602      1609      1610      2106      1818      2298      2308      1817      1767
 -1      1262    6    0    1
 -2      1718      1630      1643      1663      2306      1904      2260      2287      2117      2100
 -1      1263    6    0    1
 -2      1693      1633      1713      1645      2311      2310      2309      2198      1898      2125
 -1      1264    6    0    1
 -2      1719      1701      1609      1669      2312      2298      2192      2194      2313      1990
 -1      1265    6    0    1
 -2      1706      1671      1711      1625      2187      2188      2185      2314      1995      2315
 -1      1266    6    0    1
 -2      1701      1719      1609      1601      2312      2192      2298      2299      2293      1815
 -1      1267    6    0    1
 -2      1619      1618      1706      1624      1777      2123      2316      1837      1834      2317
 -1      1268    6    0    1
 -2      1681      1646      1717      1670      2114      2115      2111      2034      2275      2291
 -1      1269    6    0    1
 -2      1719      1647      1600      1601      2319      1892      2318      2293      1891      1757
 -1      1270    6    0    1
 -2      1614      1666      1678      1722      1983      2017      2016      2320      2322      2321
 -1      1271    6    0    1
 -2      1687      1651      1634      1652      2153      1938      2178      2189      1958      1923
 -1      1272    6    0    1
 -2      1671      1625      1706      1682      1995      2314      2187      2033      2027      2323
 -1      1273    6    0    1
 -2      1600      1719      1608      1702      2318      2193      1830      2324      2256      2254
 -1      1274    6    0    1
 -2      1610      1680      1720      1668      2023      2325      2297      1987      2032      2241
 -1      1275    6    0    1
 -2      1587      1714      1588      1664      2236      2237      1739      1977      2326      1978
 -1      1276    6    0    1
 -2      1645      1706      1634      1619      2124      2186      1915      1887      2316      1858
 -1      1277    6    0    1
 -2      1605      1707      1721      1649      2290      2328      2327      1895      2289      2301
 -1      1278    6    0    1
 -2      1622      1617      1695      1616      1833      2234      2235      1843      1775      2329
 -1      1279    6    0    1
 -2      1579      1704      1588      1578      2228      2229      1794      1729      2330      1791
 -1      1280    6    0    1
 -2      1623      1622      1695      1673      1782      2235      2233      2000      1999      2331
 -1      1281    6    0    1
 -2      1692      1631      1644      1651      2147      1905      2332      2154      1921      1920
 -1      1282    6    0    1
 -2      1582      1583      1715      1644      1733      2225      2219      1883      1882      2220
 -1      1283    6    0    1
 -2      1693      1645      1713      1682      2198      2125      2309      2083      2199      2333
 -1      1284    6    0    1
 -2      1699      1713      1624      1672      2140      2141      2138      2168      2334      1998
 -1      1285    6    0    1
 -2      1670      1647      1719      1669      2292      2319      2253      1993      2280      2194
 -1      1286    6    0    1
 -2      1579      1630      1580      1716      1849      1848      1730      2335      2307      2336
 -1      1287    6    0    1
 -2      1693      1661      1715      1674      2085      2338      2337      2092      2005      2339
 -1      1288    6    0    1
 -2      1719      1600      1635      1702      2318      1861      2340      2256      2324      2341
 -1      1289    6    0    1
 -2      1671      1682      1651      1692      2033      2174      2342      2077      2076      2154
 -1      1290    6    0    1
 -2      1631      1581      1643      1705      1851      1880      1909      2248      2249      2262
 -1      1291    6    0    1
 -2      1644      1712      1582      1631      2223      2221      1883      1905      2343      1850
 -1      1292    6    0    1
 -2      1581      1705      1718      1643      2249      2261      2344      1880      2262      2260
 -1      1293    6    0    1
 -2      1577      1629      1700      1641      1847      2345      2158      1876      1884      2159
 -1      1294    6    0    1
 -2      1600      1702      1608      1574      2324      2254      1830      1756      2346      1814
 -1      1295    6    0    1
 -2      1663      1589      1716      1676      1975      2347      2286      2030      2012      2348
 -1      1296    6    0    1
 -2      1645      1632      1644      1693      1960      1910      1959      2198      2350      2349
 -1      1297    6    0    1
 -2      1588      1589      1676      1704      1740      2012      2011      2229      2230      2351
 -1      1298    6    0    1
 -2      1690      1655      1653      1656      2294      1965      2277      2303      1934      1969
 -1      1299    6    0    1
 -2      1719      1702      1635      1670      2256      2341      2340      2253      2255      2352
 -1      1300    6    0    1
 -2      1647      1658      1670      1635      1946      2215      2292      1907      1943      2352
 -1      1301    6    0    1
 -2      1706      1625      1619      1624      2314      1836      2316      2317      1784      1837
 -1      1302    6    0    1
 -2      1579      1580      1590      1716      1730      1797      1795      2335      2336      2284
 -1      1303    6    0    1
 -2      1592      1705      1581      1582      2353      2249      1798      1808      2250      1732
 -1      1304    6    0    1
 -2      1581      1643      1718      1580      1880      2260      2344      1731      1881      2267
 -1      1305    6    0    1
 -2      1683      1641      1629      1654      2097      1884      2211      2258      1927      1926
 -1      1306    6    0    1
 -2      1678      1667      1649      1683      2019      2205      2281      2056      2055      2204
 -1      1307    6    0    1
 -2      1588      1578      1704      1714      1791      2330      2229      2237      2238      2354
 -1      1308    6    0    1
 -2      1626      1671      1711      1723      1996      2188      2355      2265      2231      2163
 -1      1309    6    0    1
 -2      1642      1579      1716      1630      1878      2335      2356      1899      1849      2307
 -1      1310    6    0    1
 -2      1678      1707      1649      1667      2173      2289      2281      2019      2172      2205
 -1      1311    6    0    1
 -2      1655      1642      1676      1630      1929      2217      2357      1928      1899      2282
 -1      1312    6    0    1
 -2      1648      1668      1680      1657      2224      2032      2358      1935      2182      2209
 -1      1313    6    0    1
 -2      1710      1679      1611      1668      2360      2020      2359      2242      2041      1988
 -1      1314    6    0    1
 -2      1670      1719      1608      1669      2253      2193      1992      1993      2194      1989
 -1      1315    6    0    1
 -2      1608      1719      1600      1601      2193      2318      1830      1816      2293      1757
 -1      1316    6    0    1
 -2      1632      1639      1699      1633      1955      2273      2272      1956      1902      2361
 -1      1317    6    0    1
 -2      1650      1630      1655      1690      1919      1928      1930      2150      2214      2294
 -1      1318    6    0    1
 -2      1681      1723      1634      1671      2113      2161      2176      2042      2231      2177
 -1      1319    6    0    1
 -2      1676      1663      1630      1716      2030      2117      2282      2348      2286      2307
 -1      1320    6    0    1
 -2      1722      1614      1666      1697      2320      1983      2322      2362      2364      2363
 -1      1321    6    0    1
 -2      1702      1608      1574      1575      2254      1814      2346      2365      1765      1755
 -1      1322    6    0    1
 -2      1655      1630      1676      1690      1928      2282      2357      2294      2214      2068
 -1      1323    6    0    1
 -2      1715      1674      1592      1712      2339      2006      2226      2222      2366      2271
 -1      1324    6    0    1
 -2      1671      1692      1651      1687      2077      2154      2342      2057      2086      2153
 -1      1325    6    0    1
 -2      1660      1691      1650      1657      2239      2269      1968      1954      2283      1967
 -1      1326    6    0    1
 -2      1721      1649      1637      1604      2301      1908      2367      2368      1896      1864
 -1      1327    6    0    1
 -2      1655      1690      1676      1656      2294      2068      2357      1934      2303      2206
 -1      1328    6    0    1
 -2      1656      1686      1654      1653      2196      2259      1933      1969      2179      1961
 -1      1329    6    0    1
 -2      1653      1686      1654      1679      2179      2259      1961      2120      2060      2257
 -1      1330    6    0    1
 -2      1693      1674      1715      1644      2092      2339      2337      2349      2369      2220
 -1      1331    6    0    1
 -2      1653      1657      1655      1685      1937      1966      1965      2180      2181      2295
 -1      1332    6    0    1
 -2      1646      1670      1688      1658      2275      2062      2133      1944      2215      2131
 -1      1333    6    0    1
 -2      1618      1645      1713      1633      1888      2125      2126      1855      1898      2310
 -1      1334    6    0    1
 -2      1613      1707      1722      1678      2171      2371      2370      2018      2173      2321
 -1      1335    6    0    1
 -2      1650      1685      1655      1657      2149      2295      1930      1967      2181      1966
 -1      1336    6    0    1
 -2      1660      1659      1650      1691      1964      1957      1968      2239      2145      2269
 -1      1337    6    0    1
 -2      1690      1656      1653      1686      2303      1969      2277      2070      2196      2179
 -1      1338    6    0    1
 -2      1661      1703      1594      1673      2372      2252      1972      2043      2373      2007
 -1      1339    6    0    1
 -2      1671      1687      1651      1634      2057      2153      2342      2177      2178      1938
 -1      1340    6    0    1
 -2      1691      1685      1650      1657      2074      2149      2269      2283      2181      1967
 -1      1341    6    0    1
 -2      1649      1678      1641      1638      2281      2096      1947      1912      2129      1942
 -1      1342    6    0    1
 -2      1579      1716      1590      1589      2335      2284      1795      1793      2347      1741
 -1      1343    6    0    1
 -2      1587      1664      1677      1700      1977      2031      2014      2183      2375      2374
 -1      1344    6    0    1
 -2      1618      1633      1713      1699      1855      2310      2126      2139      2361      2140
 -1      1345    6    0    1
 -2      1683      1629      1656      1654      2211      1932      2195      2258      1926      1933
 -1      1346    6    0    1
 -2      1644      1662      1692      1674      2376      2081      2332      2369      2008      2087
 -1      1347    6    0    1
 -2      1640      1638      1722      1606      1901      2378      2377      1886      1866      2379
 -1      1348    6    0    1
 -2      1580      1630      1643      1718      1848      1904      1881      2267      2306      2260
 -1      1349    6    0    1
 -2      1692      1662      1644      1631      2081      2376      2332      2147      2148      1905
 -1      1350    6    0    1
 -2      1631      1692      1689      1651      2147      2080      2146      1921      2154      2152
 -1      1351    6    0    1
 -2      1660      1669      1647      1658      2279      2280      1952      1953      2216      1946
 -1      1352    6    0    1
 -2      1688      1669      1660      1658      2063      2279      2232      2131      2216      1953
 -1      1353    6    0    1
 -2      1715      1712      1644      1674      2222      2223      2220      2339      2366      2369
 -1      1354    6    0    1
 -2      1648      1680      1636      1657      2358      2213      1916      1935      2209      1936
 -1      1355    6    0    1
 -2      1658      1646      1670      1635      1944      2275      2215      1943      1914      2352
 -1      1356    6    0    1
 -2      1706      1619      1711      1634      2316      2380      2185      2186      1858      2164
 -1      1357    6    0    1
 -2      1703      1632      1639      1673      2201      1955      2270      2373      2246      2274
 -1      1358    6    0    1
 -2      1680      1691      1660      1657      2073      2239      2212      2209      2283      1954
 -1      1359    6    0    1
 -2      1666      1638      1628      1665      2128      1917      2381      2038      2130      2134
 -1      1360    6    0    1
 -2      1661      1632      1703      1673      2247      2201      2372      2043      2246      2373
 -1      1361    6    0    1
 -2      1613      1678      1722      1614      2018      2321      2370      1771      2016      2320
 -1      1362    6    0    1
 -2      1671      1634      1651      1682      2177      1938      2342      2033      2382      2174
 -1      1363    6    0    1
 -2      1693      1692      1644      1651      2084      2332      2349      2175      2154      1920
 -1      1364    6    0    1
 -2      1689      1651      1659      1631      2152      1950      2143      2146      1921      1948
 -1      1365    6    0    1
 -2      1645      1651      1634      1682      1939      1938      1915      2199      2174      2382
 -1      1366    6    0    1
 -2      1645      1693      1644      1651      2198      2349      1959      1939      2175      1920
 -1      1367    6    0    1
 -2      1656      1686      1676      1664      2196      2052      2206      2197      2051      2036
 -1      1368    6    0    1
 -2      1699      1673      1695      1639      2170      2331      2383      2273      2274      2384
 -1      1369    6    0    1
 -2      1645      1706      1619      1618      2124      2316      1887      1888      2123      1777
 -1      1370    6    0    1
 -2      1688      1691      1660      1669      2075      2239      2232      2063      2072      2279
 -1      1371    6    0    1
 -2      1699      1639      1695      1617      2273      2384      2383      2276      1873      2234
 -1      1372    6    0    1
 -2      1701      1720      1602      1610      2103      2105      2106      2308      2297      1817
 -1      1373    6    0    1
 -2      1633      1632      1645      1693      1956      1960      1898      2311      2350      2198
 -1      1374    6    0    1
 -2      1644      1692      1693      1674      2332      2084      2349      2369      2087      2092
 -1      1375    6    0    1
 -2      1588      1704      1676      1714      2229      2351      2011      2237      2354      2385
 -1      1376    6    0    1
 -2      1592      1591      1581      1705      1743      1799      1798      2353      2386      2249
 -1      1377    6    0    1
 -2      1584      1703      1695      1594      2202      2388      2387      1802      2252      2389
 -1      1378    6    0    1
 -2      1633      1693      1672      1632      2311      2082      2390      1956      2350      2245
 -1      1379    6    0    1
 -2      1672      1693      1661      1632      2082      2085      2079      2245      2350      2247
 -1      1380    6    0    1
 -2      1582      1592      1715      1583      1808      2226      2219      1733      1801      2225
 -1      1381    6    0    1
 -2      1643      1684      1650      1659      2101      2151      1918      1949      2144      1957
 -1      1382    6    0    1
 -2      1653      1685      1686      1668      2180      2090      2179      2121      2050      2059
 -1      1383    6    0    1
 -2      1626      1625      1711      1671      1785      2315      2355      1996      1995      2188
 -1      1384    6    0    1
 -2      1693      1644      1715      1632      2349      2220      2337      2350      1910      2251
 -1      1385    6    0    1
 -2      1687      1652      1634      1646      2189      1923      2178      2142      1922      1906
 -1      1386    6    0    1
 -2      1715      1593      1592      1674      2227      1744      2226      2339      2004      2006
 -1      1387    6    0    1
 -2      1676      1664      1588      1714      2036      1978      2011      2385      2326      2237
 -1      1388    6    0    1
 -2      1683      1654      1656      1686      2258      1933      2195      2053      2259      2196
 -1      1389    6    0    1
 -2      1659      1691      1660      1652      2145      2239      1964      1962      2191      1963
 -1      1390    6    0    1
 -2      1609      1669      1701      1680      1990      2313      2298      2022      2040      2391
 -1      1391    6    0    1
 -2      1655      1685      1650      1690      2295      2149      1930      2294      2088      2150
 -1      1392    6    0    1
 -2      1669      1691      1660      1680      2072      2239      2279      2040      2073      2212
 -1      1393    6    0    1
 -2      1682      1706      1645      1713      2323      2124      2199      2333      2127      2125
 -1      1394    6    0    1
 -2      1597      1568      1569      1694      1751      1724      1812      2392      2394      2393
 -1      1395    6    0    1
 -2      1591      1590      1718      1675      1742      2268      2266      2010      2009      2263
 -1      1396    6    0    1
 -2      1569      1568      1586      1708      1724      1788      1737      2395      2397      2396
 -1      1397    6    0    1
 -2      1721      1637      1679      1710      2367      2119      2300      2398      2399      2360
 -1      1398    6    0    1
 -2      1628      1597      1709      1694      1869      2401      2400      2402      2392      2403
 -1      1399    6    0    1
 -2      1576      1568      1628      1708      1726      1845      1844      2156      2397      2155
 -1      1400    6    0    1
 -2      1586      1568      1576      1708      1788      1726      1807      2396      2397      2156
 -1      1401    6    0    1
 -2      1679      1721      1649      1637      2300      2301      2203      2119      2367      1908
 -1      1402    6    0    1
 -2      1710      1611      1679      1612      2359      2020      2360      2404      1769      2021
 -1      1403    6    0    1
 -2      1693      1682      1713      1672      2083      2333      2309      2082      2028      2334
 -1      1404    6    0    1
 -2      1673      1594      1595      1695      2007      1746      2002      2331      2389      2405
 -1      1405    6    0    1
 -2      1673      1595      1622      1695      2002      1970      1999      2331      2405      2235
 -1      1406    6    0    1
 -2      1585      1595      1594      1695      1804      1746      1805      2406      2405      2389
 -1      1407    6    0    1
 -2      1673      1703      1594      1695      2373      2252      2007      2331      2388      2389
 -1      1408    6    0    1
 -2      1585      1570      1571      1696      1736      1725      1806      2407      2409      2408
 -1      1409    6    0    1
 -2      1585      1571      1595      1696      1806      1747      1804      2407      2408      2410
 -1      1410    6    0    1
 -2      1570      1622      1571      1696      1831      1781      1725      2409      2411      2408
 -1      1411    6    0    1
 -2      1570      1616      1622      1696      1774      1843      1831      2409      2412      2411
 -1      1412    6    0    1
 -2      1615      1698      1572      1573      2414      2413      1829      1773      2415      1748
 -1      1413    6    0    1
 -2      1615      1607      1698      1697      1827      2416      2414      2417      2419      2418
 -1      1414    6    0    1
 -2      1607      1615      1614      1697      1827      1772      1828      2419      2417      2364
 -1      1415    6    0    1
 -2      1596      1572      1607      1698      1749      1764      1868      2420      2413      2416
 -1      1416    6    0    1
 -2      1596      1607      1640      1698      1868      1875      1874      2420      2416      2421
 -1      1417    6    0    1
 -2      1596      1598      1572      1698      1811      1809      1749      2420      2422      2413
 -1      1418    6    0    1
 -2      1666      1615      1698      1697      1984      2414      2423      2363      2417      2418
 -1      1419    6    0    1
 -2      1666      1598      1599      1709      2003      1753      2015      2424      2426      2425
 -1      1420    6    0    1
 -2      1599      1598      1596      1709      1753      1811      1810      2425      2426      2427
 -1      1421    6    0    1
 -2      1597      1599      1596      1709      1813      1810      1750      2401      2425      2427
 -1      1422    6    0    1
 -2      1627      1574      1575      1702      1842      1755      1787      2428      2346      2365
 -1      1423    6    0    1
 -2      1627      1621      1574      1702      1840      1780      1842      2428      2429      2346
 -1      1424    6    0    1
 -2      1635      1574      1621      1702      1859      1780      1860      2341      2346      2429
 -1      1425    6    0    1
 -2      1602      1610      1720      1603      1817      2297      2105      1759      1820      2430
 -1      1426    6    0    1
 -2      1720      1610      1611      1603      2297      1768      2296      2430      1820      1819
 -1      1427    6    0    1
 -2      1635      1702      1717      1670      2341      2432      2431      2352      2255      2291
 -1      1428    6    0    1
 -2      1710      1648      1720      1603      2243      2244      2240      2433      1893      2430
 -1      1429    6    0    1
 -2      1604      1611      1603      1710      1822      1819      1760      2434      2359      2433
 -1      1430    6    0    1
 -2      1604      1611      1710      1612      1822      2359      2434      1821      1769      2404
 -1      1431    6    0    1
 -2      1613      1707      1721      1605      2171      2328      2435      1823      2290      2327
 -1      1432    6    0    1
 -2      1710      1637      1604      1721      2399      1864      2434      2398      2367      2368
 -1      1433    6    0    1
 -2      1605      1649      1721      1604      1895      2301      2327      1761      1896      2368
 -1      1434    6    0    1
 -2      1710      1721      1604      1612      2398      2368      2434      2404      2436      1821
 -1      1435    6    0    1
 -2      1722      1605      1614      1606      2437      1825      2320      2379      1762      1826
 -1      1436    6    0    1
 -2      1627      1717      1702      1670      2137      2432      2428      1994      2291      2255
 -1      1437    6    0    1
 -2      1640      1606      1722      1697      1886      2379      2377      2438      2439      2362
 -1      1438    6    0    1
 -2      1606      1614      1697      1607      1826      2364      2439      1763      1828      2419
 -1      1439    6    0    1
 -2      1666      1614      1615      1697      1983      1772      1984      2363      2364      2417
 -1      1440    6    0    1
 -2      1722      1614      1697      1606      2320      2364      2362      2379      1826      2439
 -1      1441    6    0    1
 -2      1635      1717      1646      1670      2431      2115      1914      2352      2291      2275
 -1      1442    6    0    1
 -2      1639      1585      1695      1616      1871      2406      2384      1870      1854      2329
 -1      1443    6    0    1
 -2      1625      1711      1619      1620      2315      2380      1836      1839      2165      1778
 -1      1444    6    0    1
 -2      1626      1625      1620      1711      1785      1839      1838      2355      2315      2165
 -1      1445    6    0    1
 -2      1634      1619      1711      1620      1858      2380      2164      1857      1778      2165
 -1      1446    6    0    1
 -2      1640      1697      1722      1666      2438      2362      2377      2440      2363      2322
 -1      1447    6    0    1
 -2      1627      1717      1723      1621      2137      2112      2136      1840      2166      2167
 -1      1448    6    0    1
 -2      1671      1626      1681      1723      1996      2024      2042      2231      2265      2113
 -1      1449    6    0    1
 -2      1621      1626      1620      1723      1841      1838      1779      2167      2265      2162
 -1      1450    6    0    1
 -2      1723      1646      1634      1620      2116      1906      2161      2162      1890      1857
 -1      1451    6    0    1
 -2      1635      1621      1646      1717      1860      1889      1914      2431      2166      2115
 -1      1452    6    0    1
 -2      1605      1638      1722      1707      1867      2378      2437      2290      2288      2371
 -1      1453    6    0    1
 -2      1627      1621      1723      1626      1840      2167      2136      1786      1841      2265
 -1      1454    6    0    1
 -2      1568      1708      1569      1694      2397      2395      1724      2394      2441      2393
 -1      1455    6    0    1
 -2      1628      1597      1694      1568      1869      2392      2402      1845      1751      2394
 -1      1456    6    0    1
 -2      1584      1594      1695      1585      1802      2389      2387      1735      1805      2406
 -1      1457    6    0    1
 -2      1695      1585      1595      1696      2406      1804      2405      2442      2407      2410
 -1      1458    6    0    1
 -2      1678      1707      1722      1638      2173      2371      2321      2129      2288      2378
 -1      1459    6    0    1
 -2      1666      1697      1698      1640      2363      2418      2423      2440      2438      2421
 -1      1460    6    0    1
 -2      1698      1709      1666      1640      2443      2424      2423      2421      2444      2440
 -1      1461    6    0    1
 -2      1596      1709      1598      1698      2427      2426      1811      2420      2443      2422
 -1      1462    6    0    1
 -2      1597      1599      1709      1694      1813      2425      2401      2392      2445      2403
 -1      1463    6    0    1
 -2      1606      1607      1697      1640      1763      2419      2439      1886      1875      2438
 -1      1464    6    0    1
 -2      1640      1666      1722      1638      2440      2322      2377      1901      2128      2378
 -1      1465    6    0    1
 -2      1626      1711      1620      1723      2355      2165      1838      2265      2163      2162
 -1      1466    6    0    1
 -2      1607      1697      1640      1698      2419      2438      1875      2416      2418      2421
 -1      1467    6    0    1
 -2      1622      1595      1571      1696      1970      1747      1781      2411      2410      2408
 -1      1468    6    0    1
 -2      1570      1585      1616      1696      1736      1854      1774      2409      2407      2412
 -1      1469    6    0    1
 -2      1628      1568      1694      1708      1845      2394      2402      2155      2397      2441
 -1      1470    6    0    1
 -2      1663      1675      1718      1590      2037      2263      2287      1976      2009      2268
 -1      1471    6    0    1
 -2      1677      1700      1708      1586      2374      2446      2108      2013      2160      2396
 -1      1472    6    0    1
 -2      1569      1708      1665      1694      2395      2110      1979      2393      2441      2447
 -1      1473    6    0    1
 -2      1638      1605      1722      1606      1867      2437      2378      1866      1762      2379
 -1      1474    6    0    1
 -2      1722      1666      1678      1638      2322      2017      2321      2378      2128      2129
 -1      1475    6    0    1
 -2      1622      1696      1695      1595      2411      2442      2235      1970      2410      2405
 -1      1476    6    0    1
 -2      1572      1698      1598      1573      2413      2422      1809      1748      2415      1752
 -1      1477    6    0    1
 -2      1615      1572      1698      1607      1829      2413      2414      1827      1764      2416
 -1      1478    6    0    1
 -2      1694      1665      1628      1708      2447      2134      2402      2441      2110      2155
 -1      1479    6    0    1
 -2      1666      1598      1698      1615      2003      2422      2423      1984      1982      2414
 -1      1480    6    0    1
 -2      1709      1666      1665      1599      2424      2038      2448      2425      2015      1981
 -1      1481    6    0    1
 -2      1694      1597      1599      1569      2392      1813      2445      2393      1812      1754
 -1      1482    6    0    1
 -2      1709      1599      1665      1694      2425      1981      2448      2403      2445      2447
 -1      1483    6    0    1
 -2      1613      1605      1721      1612      1823      2327      2435      1770      1824      2436
 -1      1484    6    0    1
 -2      1694      1569      1599      1665      2393      1754      2445      2447      1979      1981
 -1      1485    6    0    1
 -2      1666      1665      1628      1709      2038      2134      2381      2424      2448      2400
 -1      1486    6    0    1
 -2      1708      1700      1677      1641      2446      2374      2108      2107      2159      2098
 -1      1487    6    0    1
 -2      1649      1721      1667      1707      2301      2302      2205      2289      2328      2172
 -1      1488    6    0    1
 -2      1706      1625      1711      1619      2314      2315      2185      2316      1836      2380
 -1      1489    6    0    1
 -2      1677      1586      1708      1665      2013      2396      2108      2035      1980      2110
 -1      1490    6    0    1
 -2      1721      1710      1679      1612      2398      2360      2300      2436      2404      2021
 -1      1491    6    0    1
 -2      1628      1694      1709      1665      2402      2403      2400      2134      2447      2448
 -1      1492    6    0    1
 -2      1666      1709      1628      1640      2424      2400      2381      2440      2444      1900
 -1      1493    6    0    1
 -2      1721      1612      1679      1667      2436      2021      2300      2302      1985      2039
 -1      1494    6    0    1
 -2      1632      1633      1699      1672      1956      2361      2272      2245      2390      2168
 -1      1495    6    0    1
 -2      1618      1633      1699      1617      1855      2361      2139      1776      1856      2276
 -1      1496    6    0    1
 -2      1618      1706      1624      1713      2123      2317      1834      2126      2127      2141
 -1      1497    6    0    1
 -2      1632      1672      1699      1673      2245      2168      2272      2246      2001      2170
 -1      1498    6    0    1
 -2      1639      1699      1633      1617      2273      2361      1902      1873      2276      1856
 -1      1499    6    0    1
 -2      1576      1700      1708      1641      2157      2446      2156      1877      2159      2107
 -1      1500    6    0    1
 -2      1708      1700      1576      1586      2446      2157      2156      2396      2160      1807
 -1      1501    6    0    1
 -2      1677      1587      1700      1586      2014      2183      2374      2013      1738      2160
 -1      1502    6    0    1
 -2      1679      1637      1649      1654      2119      1908      2203      2257      1941      1940
 -1      1503    6    0    1
 -2      1641      1677      1664      1700      2098      2031      2210      2159      2374      2375
 -1      1504    6    0    1
 -2      1604      1710      1603      1637      2434      2433      1760      1864      2399      1865
 -1      1505    6    0    1
 -2      1602      1636      1701      1601      1862      2104      2106      1758      1863      2299
 -1      1506    6    0    1
 -2      1636      1602      1720      1648      1862      2105      2102      1916      1894      2244
 -1      1507    6    0    1
 -2      1647      1636      1701      1669      1913      2104      2449      2280      2278      2313
 -1      1508    6    0    1
 -2      1636      1647      1701      1601      1913      2449      2104      1863      1891      2299
 -1      1509    6    0    1
 -2      1701      1669      1636      1680      2313      2278      2104      2391      2040      2213
 -1      1510    6    0    1
 -2      1710      1611      1720      1668      2359      2296      2240      2242      1988      2241
 -1      1511    6    0    1
 -2      1670      1608      1702      1575      1992      2254      2255      1991      1765      2365
 -1      1512    6    0    1
 -2      1627      1702      1575      1670      2428      2365      1787      1994      2255      1991
 -1      1513    6    0    1
 -2      1627      1621      1702      1717      1840      2429      2428      2137      2166      2432
 -1      1514    6    0    1
 -2      1635      1702      1621      1717      2341      2429      1860      2431      2432      2166
 -1      1515    6    0    1
 -2      1715      1632      1583      1703      2251      1853      2225      2450      2201      2200
 -1      1516    6    0    1
 -2      1715      1703      1583      1593      2450      2200      2225      2227      2218      1800
 -1      1517    6    0    1
 -2      1594      1703      1661      1593      2252      2372      1972      1745      2218      1971
 -1      1518    6    0    1
 -2      1641      1665      1708      1628      2109      2110      2107      1897      2134      2155
 -1      1519    6    0    1
 -2      1602      1720      1648      1603      2105      2244      1894      1759      2430      1893
 -1      1520    6    0    1
 -2      1579      1589      1704      1716      1793      2230      2228      2335      2347      2451
 -1      1521    6    0    1
 -2      1579      1642      1704      1578      1878      2452      2228      1729      1879      2330
 -1      1522    6    0    1
 -2      1704      1589      1676      1716      2230      2012      2351      2451      2347      2348
 -1      1523    6    0    1
 -2      1642      1578      1714      1704      1879      2238      2453      2452      2330      2354
 -1      1524    6    0    1
 -2      1642      1704      1714      1676      2452      2354      2453      2217      2351      2385
 -1      1525    6    0    1
 -2      1662      1705      1675      1591      2454      2264      2029      1973      2386      2010
 -1      1526    6    0    1
 -2      1705      1712      1631      1582      2455      2343      2248      2250      2221      1850
 -1      1527    6    0    1
 -2      1705      1662      1675      1631      2454      2029      2264      2248      2148      2184
 -1      1528    6    0    1
 -2      1592      1712      1705      1582      2271      2455      2353      1808      2221      2250
 -1      1529    6    0    1
 -2      1592      1591      1705      1662      1743      2386      2353      1974      1973      2454
 -1      1530    6    0    1
 -2      1671      1682      1706      1634      2033      2323      2187      2177      2382      2186
 -1      1531    6    0    1
 -2      1624      1706      1682      1713      2317      2323      2026      2141      2127      2333
 -1      1532    6    0    1
 -2      1645      1682      1634      1706      2199      2382      1915      2124      2323      2186
 -1      1533    6    0    1
 -2      1682      1625      1706      1624      2027      2314      2323      2026      1784      2317
 -1      1534    6    0    1
 -2      1636      1648      1720      1680      1916      2244      2102      2213      2358      2325
 -1      1535    6    0    1
 -2      1716      1630      1580      1718      2307      1848      2336      2285      2306      2267
 -1      1536    6    0    1
 -2      1605      1604      1721      1612      1761      2368      2327      1824      1821      2436
 -1      1537    6    0    1
 -2      1720      1680      1648      1668      2325      2358      2244      2241      2032      2224
 -1      1538    6    0    1
 -2      1613      1612      1721      1667      1770      2436      2435      1986      1985      2302
 -1      1539    6    0    1
 -2      1613      1667      1721      1707      1986      2302      2435      2171      2172      2328
 -1      1540    6    0    1
 -2      1569      1708      1586      1665      2395      2396      1737      1979      2110      1980
 -1      1541    6    0    1
 -2      1710      1603      1720      1611      2433      2430      2240      2359      1819      2296
 -1      1542    6    0    1
 -2      1704      1716      1676      1642      2451      2348      2351      2452      2356      2217
 -1      1543    6    0    1
 -2      1675      1663      1718      1643      2037      2287      2263      2099      2100      2260
 -1      1544    6    0    1
 -2      1716      1663      1590      1589      2286      1976      2284      2347      1975      1741
 -1      1545    6    0    1
 -2      1678      1665      1641      1638      2044      2109      2096      2129      2130      1942
 -1      1546    6    0    1
 -2      1579      1716      1704      1642      2335      2451      2228      1878      2356      2452
 -1      1547    6    0    1
 -2      1616      1585      1695      1696      1854      2406      2329      2412      2407      2442
 -1      1548    6    0    1
 -2      1676      1716      1630      1642      2348      2307      2282      2217      2356      1899
 -1      1549    6    0    1
 -2      1700      1629      1714      1664      2345      2456      2305      2375      2208      2326
 -1      1550    6    0    1
 -2      1622      1696      1616      1695      2411      2412      1843      2235      2442      2329
 -1      1551    6    0    1
 -2      1709      1698      1666      1598      2443      2423      2424      2426      2422      2003
 -1      1552    6    0    1
 -2      1641      1678      1677      1665      2096      2061      2098      2109      2044      2035
 -1      1553    6    0    1
 -2      1597      1709      1596      1640      2401      2427      1750      1885      2444      1874
 -1      1554    6    0    1
 -2      1655      1656      1676      1642      1934      2206      2357      1929      1931      2217
 -1      1555    6    0    1
 -2      1666      1640      1628      1638      2440      1900      2381      2128      1901      1917
 -1      1556    6    0    1
 -2      1628      1640      1709      1597      1900      2444      2400      1869      1885      2401
 -1      1557    6    0    1
 -2      1637      1710      1648      1668      2399      2243      1911      2122      2242      2224
 -1      1558    6    0    1
 -2      1637      1679      1710      1668      2119      2360      2399      2122      2041      2242
 -1      1559    6    0    1
 -2      1648      1710      1637      1603      2243      2399      1911      1893      2433      1865
 -1      1560    6    0    1
 -2      1598      1698      1615      1573      2422      2414      1982      1752      2415      1773
 -1      1561    6    0    1
 -2      1640      1709      1596      1698      2444      2427      1874      2421      2443      2420
 -1      1562    6    0    1
 -2      1674      1662      1592      1712      2008      1974      2006      2366      2457      2271
 -1      1563    6    0    1
 -2      1662      1644      1712      1674      2376      2223      2457      2008      2369      2366
 -1      1564    6    0    1
 -2      1644      1662      1712      1631      2376      2457      2223      1905      2148      2343
 -1      1565    6    0    1
 -2      1705      1662      1631      1712      2454      2148      2248      2455      2457      2343
 -1      1566    6    0    1
 -2      1592      1662      1705      1712      1974      2454      2353      2271      2457      2455
 -1      1567    6    0    1
 -2      1699      1672      1624      1623      2168      1998      2138      2169      1997      1783
 -1      1568    6    0    1
 -2      1699      1623      1624      1618      2169      1783      2138      2139      1835      1834
 -1      1569    6    0    1
 -2      1693      1672      1713      1633      2082      2334      2309      2311      2390      2310
 -1      1570    6    0    1
 -2      1713      1633      1672      1699      2310      2390      2334      2140      2361      2168
 -1      1571    6    0    1
 -2      1713      1624      1672      1682      2141      1998      2334      2333      2026      2028
 -1      1572    6    0    1
 -2      1636      1680      1720      1701      2213      2325      2102      2104      2391      2103
 -1      1573    6    0    1
 -2      1577      1587      1714      1578      1789      2236      2304      1728      1792      2238
 -1      1574    6    0    1
 -2      1680      1701      1609      1610      2391      2298      2022      2023      2308      1767
 -1      1575    6    0    1
 -2      1680      1720      1701      1610      2325      2103      2391      2023      2297      2308
 -1      1576    6    0    1
 -2      1641      1700      1664      1629      2159      2375      2210      1884      2345      2208
 -1      1577    6    0    1
 -2      1577      1578      1714      1629      1728      2238      2304      1847      1846      2456
 -1      1578    6    0    1
 -2      1719      1670      1635      1647      2253      2352      2340      2319      2292      1907
 -1      1579    6    0    1
 -2      1719      1647      1635      1600      2319      1907      2340      2318      1892      1861
 -1      1580    6    0    1
 -2      1600      1635      1702      1574      1861      2341      2324      1756      1859      2346
 -1      1581    6    0    1
 -2      1701      1647      1719      1601      2449      2319      2312      2299      1891      2293
 -1      1582    6    0    1
 -2      1647      1701      1719      1669      2449      2312      2319      2280      2313      2194
 -1      1583    6    0    1
 -2      1584      1585      1695      1639      1735      2406      2387      1872      1871      2384
 -1      1584    6    0    1
 -2      1631      1705      1643      1675      2248      2262      1909      2184      2264      2099
 -1      1585    6    0    1
 -2      1581      1580      1718      1591      1731      2267      2344      1799      1796      2266
 -1      1586    6    0    1
 -2      1581      1591      1718      1705      1799      2266      2344      2249      2386      2261
 -1      1587    6    0    1
 -2      1699      1617      1695      1623      2276      2234      2383      2169      1832      2233
 -1      1588    6    0    1
 -2      1695      1617      1639      1616      2234      1873      2384      2329      1775      1870
 -1      1589    6    0    1
 -2      1699      1623      1695      1673      2169      2233      2383      2170      2000      2331
 -1      1590    6    0    1
 -2      1673      1639      1703      1695      2274      2270      2373      2331      2384      2388
 -1      1591    6    0    1
 -2      1584      1639      1695      1703      1872      2384      2387      2202      2270      2388
 -1      1592    6    0    1
 -2      1716      1580      1590      1718      2336      1797      2284      2285      2267      2268
 -1      1593    6    0    1
 -2      1577      1629      1714      1700      1847      2456      2304      2158      2345      2305
 -1      1594    6    0    1
 -2      1587      1700      1714      1664      2183      2305      2236      1977      2375      2326
 -1      1595    6    0    1
 -2      1642      1676      1714      1629      2217      2385      2453      1903      2207      2456
 -1      1596    6    0    1
 -2      1642      1629      1714      1578      1903      2456      2453      1879      1846      2238
 -1      1597    6    0    1
 -2      1676      1664      1714      1629      2036      2326      2385      2207      2208      2456
 -1      1598    6    0    1
 -2      1693      1632      1715      1661      2350      2251      2337      2085      2247      2338
 -1      1599    6    0    1
 -2      1661      1593      1715      1674      1971      2227      2338      2005      2004      2339
 -1      1600    6    0    1
 -2      1661      1632      1715      1703      2247      2251      2338      2372      2201      2450
 -1      1601    6    0    1
 -2      1661      1703      1715      1593      2372      2450      2338      1971      2218      2227
 -1      1602    6    0    1
 -2      1678      1638      1649      1707      2129      1912      2281      2173      2288      2289
 -1      1603    6    0    1
 -2      1591      1675      1718      1705      2010      2263      2266      2386      2264      2261
 -1      1604    6    0    1
 -2      1613      1614      1722      1605      1771      2320      2370      1823      1825      2437
 -1      1605    6    0    1
 -2      1613      1605      1722      1707      1823      2437      2370      2171      2290      2371
 -3
    1PSTEP                         1           1           1          
  100CL  101 1.000000000         890                     0    1           1
 -4  DISP        4    1
 -5  D1          1    2    1    0
 -5  D2          1    2    2    0
 -5  D3          1    2    3    0
 -5  ALL         1    2    0    0    1ALL
 -1      1568-5.41036E+00 2.53515E+01 0.00000E+00
 -1      1569-5.45826E+00 2.53854E+01 0.00000E+00
 -1      1570 0.00000E+00 0.00000E+00 0.00000E+00
 -1      1571 0.00000E+00 0.00000E+00 0.00000E+00
 -1      1572-1.94082E+01 2.71606E+01 0.00000E+00
 -1      1573-1.93916E+01 2.71290E+01 0.00000E+00
 -1      1574 0.00000E+00 0.00000E+00 0.00000E+00
 -1      1575 0.00000E+00 0.00000E+00 0.00000E+00
 -1      1576-2.69598E+00 2.07525E+01 0.00000E+00
 -1      1577-7.04068E-01 1.65474E+01 0.00000E+00
 -1      1578 5.36543E-01 1.28477E+01 0.00000E+00
 -1      1579 1.18377E+00 9.71644E+00 0.00000E+00
 -1      1580 1.36306E+00 7.17414E+00 0.00000E+00
 -1      1581 1.16765E+00 5.20945E+00 0.00000E+00
 -1      1582 7.75387E-01 3.78496E+00 0.00000E+00
 -1      1583 3.59950E-01 2.74915E+00 0.00000E+00
 -1      1584 7.60975E-02 1.92121E+00 0.00000E+00
 -1      1585 1.19703E-02 1.04101E+00 0.00000E+00
 -1      1586-2.61754E+00 2.07649E+01 0.00000E+00
 -1      1587-7.32100E-01 1.65105E+01 0.00000E+00
 -1      1588 5.25153E-01 1.28376E+01 0.00000E+00
 -1      1589 1.18537E+00 9.72569E+00 0.00000E+00
 -1      1590 1.37262E+00 7.17778E+00 0.00000E+00
 -1      1591 1.17370E+00 5.21017E+00 0.00000E+00
 -1      1592 7.60297E-01 3.78192E+00 0.00000E+00
 -1      1593 3.56357E-01 2.74551E+00 0.00000E+00
 -1      1594 8.16994E-02 1.93869E+00 0.00000E+00
 -1      1595 1.93503E-02 1.03572E+00 0.00000E+00
 -1      1596-1.37443E+01 2.65476E+01 0.00000E+00
 -1      1597-9.39689E+00 2.58522E+01 0.00000E+00
 -1      1598-1.37679E+01 2.66061E+01 0.00000E+00
 -1      1599-9.42031E+00 2.58359E+01 0.00000E+00
 -1      1600-2.16579E+00 1.64932E+00 0.00000E+00
 -1      1601-3.87210E+00 2.64275E+00 0.00000E+00
 -1      1602-5.70518E+00 4.05483E+00 0.00000E+00
 -1      1603-7.70231E+00 6.03199E+00 0.00000E+00
 -1      1604-9.86245E+00 8.64540E+00 0.00000E+00
 -1      1605-1.21558E+01 1.19490E+01 0.00000E+00
 -1      1606-1.45292E+01 1.60425E+01 0.00000E+00
 -1      1607-1.68908E+01 2.09001E+01 0.00000E+00
 -1      1608-2.17533E+00 1.63883E+00 0.00000E+00
 -1      1609-3.88461E+00 2.63182E+00 0.00000E+00
 -1      1610-5.73992E+00 4.03854E+00 0.00000E+00
 -1      1611-7.73597E+00 6.01995E+00 0.00000E+00
 -1      1612-9.88814E+00 8.62866E+00 0.00000E+00
 -1      1613-1.21793E+01 1.19839E+01 0.00000E+00
 -1      1614-1.44823E+01 1.60282E+01 0.00000E+00
 -1      1615-1.69474E+01 2.08917E+01 0.00000E+00
 -1      1616 0.00000E+00 0.00000E+00 0.00000E+00
 -1      1617 0.00000E+00 0.00000E+00 0.00000E+00
 -1      1618 0.00000E+00 0.00000E+00 0.00000E+00
 -1      1619 0.00000E+00 0.00000E+00 0.00000E+00
 -1      1620 0.00000E+00 0.00000E+00 0.00000E+00
 -1      1621 0.00000E+00 0.00000E+00 0.00000E+00
 -1      1622 0.00000E+00 0.00000E+00 0.00000E+00
 -1      1623 0.00000E+00 0.00000E+00 0.00000E+00
 -1      1624 0.00000E+00 0.00000E+00 0.00000E+00
 -1      1625 0.00000E+00 0.00000E+00 0.00000E+00
 -1      1626 0.00000E+00 0.00000E+00 0.00000E+00
 -1      1627 0.00000E+00 0.00000E+00 0.00000E+00
 -1      1628-6.82364E+00 1.99227E+01 0.00000E+00
 -1      1629-1.50217E+00 1.17589E+01 0.00000E+00
 -1      1630 7.46356E-01 6.45965E+00 0.00000E+00
 -1      1631 9.84653E-01 3.10809E+00 0.00000E+00
 -1      1632 2.88743E-01 1.61789E+00 0.00000E+00
 -1      1633 9.46134E-02 6.75510E-01 0.00000E+00
 -1      1634 1.44006E-01 2.00366E-01 0.00000E+00
 -1      1635-3.30861E-01 3.06035E-01 0.00000E+00
 -1      1636-2.74040E+00 2.90770E+00 0.00000E+00
 -1      1637-5.86897E+00 7.44752E+00 0.00000E+00
 -1      1638-9.13130E+00 1.52426E+01 0.00000E+00
 -1      1639 2.99151E-02 9.40302E-01 0.00000E+00
 -1      1640-1.13842E+01 2.04180E+01 0.00000E+00
 -1      1641-4.36089E+00 1.45862E+01 0.00000E+00
 -1      1642 8.00917E-03 8.97399E+00 0.00000E+00
 -1      1643 1.06427E+00 4.49877E+00 0.00000E+00
 -1      1644 6.31929E-01 2.17048E+00 0.00000E+00
 -1      1645 2.26874E-01 7.38382E-01 0.00000E+00
 -1      1646 4.04773E-02-2.28544E-02 0.00000E+00
 -1      1647-1.52245E+00 1.48301E+00 0.00000E+00
 -1      1648-4.26025E+00 4.83791E+00 0.00000E+00
 -1      1649-7.39582E+00 1.09107E+01 0.00000E+00
 -1      1650 1.39420E-01 3.94012E+00 0.00000E+00
 -1      1651 5.62481E-01 1.37845E+00 0.00000E+00
 -1      1652 2.39750E-01 8.71461E-01 0.00000E+00
 -1      1653-2.86262E+00 6.39753E+00 0.00000E+00
 -1      1654-3.89750E+00 9.72294E+00 0.00000E+00
 -1      1655-6.40665E-01 6.01862E+00 0.00000E+00
 -1      1656-1.64573E+00 8.37452E+00 0.00000E+00
 -1      1657-1.57839E+00 4.01850E+00 0.00000E+00
 -1      1658-3.52517E-01 7.72756E-01 0.00000E+00
 -1      1659 5.87887E-01 2.40761E+00 0.00000E+00
 -1      1660-5.37430E-01 2.05317E+00 0.00000E+00
 -1      1661 2.75855E-01 1.69808E+00 0.00000E+00
 -1      1662 9.87623E-01 3.12671E+00 0.00000E+00
 -1      1663 7.74070E-01 6.44156E+00 0.00000E+00
 -1      1664-1.69809E+00 1.15931E+01 0.00000E+00
 -1      1665-6.73069E+00 1.99821E+01 0.00000E+00
 -1      1666-1.12392E+01 2.02774E+01 0.00000E+00
 -1      1667-8.02474E+00 1.05613E+01 0.00000E+00
 -1      1668-4.14726E+00 5.00479E+00 0.00000E+00
 -1      1669-1.53921E+00 1.46913E+00 0.00000E+00
 -1      1670-4.04759E-01 3.24241E-01 0.00000E+00
 -1      1671 1.73818E-01 1.83262E-01 0.00000E+00
 -1      1672 1.01578E-01 7.04513E-01 0.00000E+00
 -1      1673 4.66923E-02 9.53651E-01 0.00000E+00
 -1      1674 6.53232E-01 2.37894E+00 0.00000E+00
 -1      1675 1.07204E+00 4.50064E+00 0.00000E+00
 -1      1676-1.32427E-01 8.82170E+00 0.00000E+00
 -1      1677-3.96433E+00 1.53556E+01 0.00000E+00
 -1      1678-8.48111E+00 1.47227E+01 0.00000E+00
 -1      1679-5.86555E+00 7.63699E+00 0.00000E+00
 -1      1680-2.70076E+00 2.94132E+00 0.00000E+00
 -1      1681 3.79770E-03-2.31824E-02 0.00000E+00
 -1      1682 1.55326E-01 4.60750E-01 0.00000E+00
 -1      1683-4.73849E+00 1.08676E+01 0.00000E+00
 -1      1684 1.96780E-01 3.90884E+00 0.00000E+00
 -1      1685-1.51402E+00 4.18099E+00 0.00000E+00
 -1      1686-2.47859E+00 7.35508E+00 0.00000E+00
 -1      1687 2.30077E-01 8.51425E-01 0.00000E+00
 -1      1688-3.09481E-01 7.65221E-01 0.00000E+00
 -1      1689 6.07978E-01 2.38396E+00 0.00000E+00
 -1      1690-4.91417E-01 5.92029E+00 0.00000E+00
 -1      1691-4.94856E-01 2.07389E+00 0.00000E+00
 -1      1692 5.32045E-01 1.35752E+00 0.00000E+00
 -1      1693 3.77774E-01 1.27686E+00 0.00000E+00
 -1      1694-7.11012E+00 2.28852E+01-1.68543E-02
 -1      1695 1.93167E-02 7.63033E-01 2.92705E-03
 -1      1696 4.39929E-03 4.91689E-01 7.74984E-03
 -1      1697-1.35229E+01 1.91801E+01 1.28992E-02
 -1      1698-1.43563E+01 2.30732E+01-2.39301E-03
 -1      1699 4.21879E-02 4.91140E-01-1.07718E-02
 -1      1700-2.31076E+00 1.56814E+01 1.89450E-03
 -1      1701-3.31933E+00 2.69058E+00-7.13225E-03
 -1      1702-1.96179E-01 3.34869E-01 1.75848E-02
 -1      1703 1.86654E-01 1.79785E+00-2.67594E-03
 -1      1704 4.97159E-01 1.00712E+01 8.14483E-03
 -1      1705 1.12042E+00 4.13700E+00-9.93466E-04
 -1      1706 4.53827E-02 1.67486E-01-5.91002E-03
 -1      1707-9.76515E+00 1.23775E+01 2.13829E-03
 -1      1708-4.62689E+00 1.99427E+01-1.38730E-04
 -1      1709-1.02915E+01 2.30435E+01 1.60736E-03
 -1      1710-6.73525E+00 6.65554E+00 3.51182E-03
 -1      1711 2.99096E-02 1.11509E-02 5.79511E-03
 -1      1712 8.47789E-01 3.16244E+00 1.29249E-03
 -1      1713 6.23821E-02 4.09998E-01 7.93564E-03
 -1      1714-4.66360E-01 1.23303E+01-1.07920E-03
 -1      1715 5.23482E-01 2.42599E+00 4.49395E-03
 -1      1716 9.92532E-01 7.89829E+00 4.01250E-04
 -1      1717-5.49746E-02-6.71603E-02-4.55691E-03
 -1      1718 1.24685E+00 5.74891E+00 1.16136E-03
 -1      1719-1.78996E+00 1.47357E+00-6.60112E-03
 -1      1720-4.93680E+00 4.36974E+00-6.37912E-03
 -1      1721-8.65063E+00 9.54702E+00-2.60914E-03
 -1      1722-1.15635E+01 1.55720E+01 2.70140E-03
 -1      1723 2.74879E-02-9.79402E-02-1.89189E-03
 -1      1724-5.46488E+00 2.53673E+01 5.99506E-03
 -1      1725 0.00000E+00 0.00000E+00 0.00000E+00
 -1      1726-3.96837E+00 2.30002E+01 0.00000E+00
 -1      1727-1.60261E+00 1.85581E+01 0.00000E+00
 -1      1728-1.18491E-02 1.46194E+01 0.00000E+00
 -1      1729 9.10452E-01 1.12212E+01 0.00000E+00
 -1      1730 1.32656E+00 8.38369E+00 0.00000E+00
 -1      1731 1.30188E+00 6.12876E+00 0.00000E+00
 -1      1732 9.87642E-01 4.43838E+00 0.00000E+00
 -1      1733 5.52985E-01 3.22808E+00 0.00000E+00
 -1      1734 2.06724E-01 2.31498E+00 0.00000E+00
 -1      1735 3.03396E-02 1.48252E+00 0.00000E+00
 -1      1736 2.34499E-03 5.21033E-01 0.00000E+00
 -1      1737-3.93148E+00 2.29746E+01 0.00000E+00
 -1      1738-1.60888E+00 1.85617E+01 0.00000E+00
 -1      1739-3.82067E-02 1.46118E+01 0.00000E+00
 -1      1740 9.21589E-01 1.12136E+01 0.00000E+00
 -1      1741 1.32523E+00 8.39522E+00 0.00000E+00
 -1      1742 1.30721E+00 6.13183E+00 0.00000E+00
 -1      1743 9.74533E-01 4.43937E+00 0.00000E+00
 -1      1744 5.50009E-01 3.21966E+00 0.00000E+00
 -1      1745 2.07799E-01 2.30974E+00 0.00000E+00
 -1      1746 4.86477E-02 1.47587E+00 0.00000E+00
 -1      1747 1.75486E-03 5.20089E-01 0.00000E+00
 -1      1748-1.93813E+01 2.71318E+01-1.86828E-02
 -1      1749-1.64224E+01 2.68653E+01 0.00000E+00
 -1      1750-1.15346E+01 2.61864E+01 0.00000E+00
 -1      1751-7.45107E+00 2.55569E+01 0.00000E+00
 -1      1752-1.63953E+01 2.68733E+01 0.00000E+00
 -1      1753-1.15321E+01 2.61883E+01 0.00000E+00
 -1      1754-7.45161E+00 2.55657E+01 0.00000E+00
 -1      1755 0.00000E+00 0.00000E+00 0.00000E+00
 -1      1756-1.04095E+00 9.56988E-01 0.00000E+00
 -1      1757-2.98355E+00 2.02176E+00 0.00000E+00
 -1      1758-4.76452E+00 3.29018E+00 0.00000E+00
 -1      1759-6.68598E+00 4.97234E+00 0.00000E+00
 -1      1760-8.76942E+00 7.26375E+00 0.00000E+00
 -1      1761-1.09979E+01 1.02308E+01 0.00000E+00
 -1      1762-1.33582E+01 1.39299E+01 0.00000E+00
 -1      1763-1.57235E+01 1.83990E+01 0.00000E+00
 -1      1764-1.81163E+01 2.38814E+01 0.00000E+00
 -1      1765-1.07133E+00 1.10743E+00 0.00000E+00
 -1      1766-3.01541E+00 2.00384E+00 0.00000E+00
 -1      1767-4.80009E+00 3.23987E+00 0.00000E+00
 -1      1768-6.71764E+00 4.94798E+00 0.00000E+00
 -1      1769-8.79210E+00 7.24677E+00 0.00000E+00
 -1      1770-1.10312E+01 1.02277E+01 0.00000E+00
 -1      1771-1.33430E+01 1.39282E+01 0.00000E+00
 -1      1772-1.57307E+01 1.84122E+01 0.00000E+00
 -1      1773-1.81036E+01 2.38404E+01 0.00000E+00
 -1      1774 0.00000E+00 0.00000E+00 0.00000E+00
 -1      1775 0.00000E+00 0.00000E+00 0.00000E+00
 -1      1776 0.00000E+00 0.00000E+00 0.00000E+00
 -1      1777 0.00000E+00 0.00000E+00 0.00000E+00
 -1      1778 0.00000E+00 0.00000E+00 0.00000E+00
 -1      1779 0.00000E+00 0.00000E+00 0.00000E+00
 -1      1780 0.00000E+00 0.00000E+00 0.00000E+00
 -1      1781 0.00000E+00 0.00000E+00 0.00000E+00
 -1      1782 0.00000E+00 0.00000E+00 0.00000E+00
 -1      1783 0.00000E+00 0.00000E+00 0.00000E+00
 -1      1784 0.00000E+00 0.00000E+00 0.00000E+00
 -1      1785 0.00000E+00 0.00000E+00 0.00000E+00
 -1      1786 0.00000E+00 0.00000E+00 0.00000E+00
 -1      1787 0.00000E+00 0.00000E+00 0.00000E+00
 -1      1788-3.89832E+00 2.30078E+01-2.24063E-02
 -1      1789-7.40348E-01 1.65322E+01-4.12398E-03
 -1      1790-1.59815E+00 1.85740E+01 1.69577E-02
 -1      1791 5.08798E-01 1.28489E+01-1.29890E-02
 -1      1792-3.42473E-02 1.46141E+01-9.62067E-03
 -1      1793 1.18072E+00 9.72506E+00-8.82504E-03
 -1      1794 9.10292E-01 1.12168E+01-9.58032E-03
 -1      1795 1.32660E+00 8.38780E+00-9.25887E-03
 -1      1796 1.30065E+00 6.12617E+00-1.26460E-03
 -1      1797 1.35977E+00 7.18253E+00-2.86843E-04
 -1      1798 9.76945E-01 4.42741E+00 4.93221E-03
 -1      1799 1.16325E+00 5.20922E+00 2.49020E-03
 -1      1800 3.57520E-01 2.74891E+00-2.25916E-05
 -1      1801 5.40947E-01 3.22284E+00-6.77316E-03
 -1      1802 7.27763E-02 1.91828E+00-3.15648E-03
 -1      1803 1.98664E-01 2.30820E+00-2.56209E-03
 -1      1804 1.16718E-02 1.02453E+00 5.10256E-04
 -1      1805 4.32458E-02 1.48175E+00 1.42942E-02
 -1      1806 4.72887E-03 5.25964E-01-5.39814E-03
 -1      1807-2.65111E+00 2.07723E+01 1.68162E-02
 -1      1808 7.76236E-01 3.77825E+00-4.56212E-03
 -1      1809-1.63457E+01 2.68984E+01-2.51238E-02
 -1      1810-1.15200E+01 2.61673E+01 1.74501E-02
 -1      1811-1.37596E+01 2.65690E+01-1.42435E-02
 -1      1812-7.46619E+00 2.55353E+01 2.92407E-02
 -1      1813-9.41705E+00 2.58291E+01 1.79914E-02
 -1      1814-1.07278E+00 1.10855E+00-1.73455E-02
 -1      1815-3.86503E+00 2.61739E+00-1.28356E-03
 -1      1816-3.00685E+00 1.99071E+00 2.82109E-02
 -1      1817-5.70756E+00 4.06219E+00-6.71399E-03
 -1      1818-4.76694E+00 3.27535E+00-3.76362E-03
 -1      1819-7.70147E+00 6.04824E+00-4.97369E-03
 -1      1820-6.68182E+00 4.98657E+00-8.50425E-03
 -1      1821-9.85288E+00 8.65634E+00-2.99416E-03
 -1      1822-8.75560E+00 7.27166E+00-9.38298E-03
 -1      1823-1.21582E+01 1.19625E+01-5.77352E-04
 -1      1824-1.09975E+01 1.02472E+01-1.37049E-03
 -1      1825-1.33334E+01 1.39352E+01 9.29771E-03
 -1      1826-1.45191E+01 1.60509E+01-7.92273E-03
 -1      1827-1.69354E+01 2.09458E+01-1.13685E-02
 -1      1828-1.57119E+01 1.84060E+01-2.11907E-02
 -1      1829-1.81481E+01 2.38045E+01 1.42826E-02
 -1      1830-2.14513E+00 1.69070E+00 1.26887E-02
 -1      1831 0.00000E+00 0.00000E+00 0.00000E+00
 -1      1832 0.00000E+00 0.00000E+00 0.00000E+00
 -1      1833 0.00000E+00 0.00000E+00 0.00000E+00
 -1      1834 0.00000E+00 0.00000E+00 0.00000E+00
 -1      1835 0.00000E+00 0.00000E+00 0.00000E+00
 -1      1836 0.00000E+00 0.00000E+00 0.00000E+00
 -1      1837 0.00000E+00 0.00000E+00 0.00000E+00
 -1      1838 0.00000E+00 0.00000E+00 0.00000E+00
 -1      1839 0.00000E+00 0.00000E+00 0.00000E+00
 -1      1840 0.00000E+00 0.00000E+00 0.00000E+00
 -1      1841 0.00000E+00 0.00000E+00 0.00000E+00
 -1      1842 0.00000E+00 0.00000E+00 0.00000E+00
 -1      1843 0.00000E+00 0.00000E+00 0.00000E+00
 -1      1844-4.68670E+00 2.02645E+01 0.00000E+00
 -1      1845-6.14353E+00 2.25787E+01 0.00000E+00
 -1      1846-3.77069E-01 1.22566E+01 0.00000E+00
 -1      1847-1.13297E+00 1.39967E+01 0.00000E+00
 -1      1848 1.17297E+00 6.82218E+00 0.00000E+00
 -1      1849 9.75111E-01 7.99891E+00 0.00000E+00
 -1      1850 9.42997E-01 3.47344E+00 0.00000E+00
 -1      1851 1.11732E+00 4.10325E+00 0.00000E+00
 -1      1852 1.79651E-01 1.79987E+00 0.00000E+00
 -1      1853 3.46235E-01 2.17603E+00 0.00000E+00
 -1      1854 8.97289E-03 5.01652E-01 0.00000E+00
 -1      1855 2.09150E-02 2.74515E-01 0.00000E+00
 -1      1856 2.41078E-02 3.47184E-01 0.00000E+00
 -1      1857 3.93066E-02-1.84053E-02 0.00000E+00
 -1      1858 4.55151E-02 7.57264E-02 0.00000E+00
 -1      1859-1.16177E-01 2.14259E-01 0.00000E+00
 -1      1860-9.76580E-02 1.77694E-02 0.00000E+00
 -1      1861-9.27239E-01 9.23544E-01 0.00000E+00
 -1      1862-4.08366E+00 3.44503E+00 0.00000E+00
 -1      1863-3.29349E+00 2.69000E+00 0.00000E+00
 -1      1864-7.72915E+00 8.01599E+00 0.00000E+00
 -1      1865-6.78331E+00 6.64393E+00 0.00000E+00
 -1      1866-1.16461E+01 1.56154E+01 0.00000E+00
 -1      1867-1.05931E+01 1.34723E+01 0.00000E+00
 -1      1868-1.52080E+01 2.36366E+01 0.00000E+00
 -1      1869-8.07471E+00 2.28006E+01 0.00000E+00
 -1      1870 3.01814E-04 4.58313E-01 0.00000E+00
 -1      1871 1.81603E-02 9.93137E-01 0.00000E+00
 -1      1872 5.82496E-02 1.43048E+00 0.00000E+00
 -1      1873 1.13223E-02 4.39962E-01 0.00000E+00
 -1      1874-1.25273E+01 2.33453E+01 0.00000E+00
 -1      1875-1.39466E+01 2.06789E+01 0.00000E+00
 -1      1876-2.42826E+00 1.54681E+01 0.00000E+00
 -1      1877-3.57684E+00 1.74653E+01 0.00000E+00
 -1      1878 7.01289E-01 9.33955E+00 0.00000E+00
 -1      1879 2.56716E-01 1.08000E+01 0.00000E+00
 -1      1880 1.22015E+00 4.87033E+00 0.00000E+00
 -1      1881 1.24776E+00 5.76390E+00 0.00000E+00
 -1      1882 5.21872E-01 2.49580E+00 0.00000E+00
 -1      1883 7.38829E-01 2.94549E+00 0.00000E+00
 -1      1884-2.79598E+00 1.31060E+01 0.00000E+00
 -1      1885-1.03393E+01 2.30704E+01 0.00000E+00
 -1      1886-1.29045E+01 1.81127E+01 0.00000E+00
 -1      1887 7.56192E-02 2.08297E-01 0.00000E+00
 -1      1888 5.33544E-02 3.43282E-01 0.00000E+00
 -1      1889-9.25440E-03-7.88905E-02 0.00000E+00
 -1      1890 7.67478E-03-7.14843E-02 0.00000E+00
 -1      1891-2.55664E+00 2.02221E+00 0.00000E+00
 -1      1892-1.77996E+00 1.49137E+00 0.00000E+00
 -1      1893-5.84481E+00 5.40579E+00 0.00000E+00
 -1      1894-4.98249E+00 4.36269E+00 0.00000E+00
 -1      1895-9.61877E+00 1.14054E+01 0.00000E+00
 -1      1896-8.61360E+00 9.66090E+00 0.00000E+00
 -1      1897-5.53181E+00 1.71156E+01 0.00000E+00
 -1      1898 1.36315E-01 7.40639E-01 0.00000E+00
 -1      1899 4.33881E-01 7.64038E+00 0.00000E+00
 -1      1900-8.99730E+00 2.01764E+01 0.00000E+00
 -1      1901-1.02450E+01 1.77371E+01 0.00000E+00
 -1      1902 6.42951E-02 8.12234E-01 0.00000E+00
 -1      1903-6.49070E-01 1.03011E+01 0.00000E+00
 -1      1904 9.56789E-01 5.40811E+00 0.00000E+00
 -1      1905 8.20643E-01 2.59714E+00 0.00000E+00
 -1      1906 1.06497E-01 5.76499E-02 0.00000E+00
 -1      1907-9.20946E-01 9.44347E-01 0.00000E+00
 -1      1908-6.61850E+00 9.07159E+00 0.00000E+00
 -1      1909 1.06384E+00 3.74303E+00 0.00000E+00
 -1      1910 4.40194E-01 1.89545E+00 0.00000E+00
 -1      1911-5.04075E+00 6.05358E+00 0.00000E+00
 -1      1912-8.26275E+00 1.29843E+01 0.00000E+00
 -1      1913-2.12410E+00 2.15507E+00 0.00000E+00
 -1      1914-1.42590E-01 7.71521E-02 0.00000E+00
 -1      1915 1.87299E-01 4.46685E-01 0.00000E+00
 -1      1916-3.47844E+00 3.79460E+00 0.00000E+00
 -1      1917-7.94011E+00 1.74769E+01 0.00000E+00
 -1      1918 6.97582E-01 4.19812E+00 0.00000E+00
 -1      1919 4.48685E-01 5.10629E+00 0.00000E+00
 -1      1920 6.21096E-01 1.77983E+00 0.00000E+00
 -1      1921 7.85652E-01 2.19452E+00 0.00000E+00
 -1      1922 1.06213E-01 3.44654E-01 0.00000E+00
 -1      1923 2.25608E-01 4.85520E-01 0.00000E+00
 -1      1924-4.25120E+00 6.88940E+00 0.00000E+00
 -1      1925-3.56236E+00 5.53362E+00 0.00000E+00
 -1      1926-2.64234E+00 1.06747E+01 0.00000E+00
 -1      1927-4.12663E+00 1.19873E+01 0.00000E+00
 -1      1928 1.46145E-01 6.21016E+00 0.00000E+00
 -1      1929-3.19590E-01 7.39759E+00 0.00000E+00
 -1      1930-1.95910E-01 4.90130E+00 0.00000E+00
 -1      1931-7.35776E-01 8.64904E+00 0.00000E+00
 -1      1932-1.58178E+00 9.97635E+00 0.00000E+00
 -1      1933-2.68176E+00 9.02129E+00 0.00000E+00
 -1      1934-1.09931E+00 7.13316E+00 0.00000E+00
 -1      1935-2.78878E+00 4.38852E+00 0.00000E+00
 -1      1936-2.16589E+00 3.36148E+00 0.00000E+00
 -1      1937-2.18543E+00 5.13144E+00 0.00000E+00
 -1      1938 3.27978E-01 7.14682E-01 0.00000E+00
 -1      1939 3.91661E-01 1.03521E+00 0.00000E+00
 -1      1940-5.52435E+00 1.02806E+01 0.00000E+00
 -1      1941-4.87517E+00 8.48006E+00 0.00000E+00
 -1      1942-6.58149E+00 1.48918E+01 0.00000E+00
 -1      1943-3.81576E-01 4.87286E-01 0.00000E+00
 -1      1944-9.18484E-02 2.94108E-01 0.00000E+00
 -1      1945-3.27369E-02 7.68497E-01 0.00000E+00
 -1      1946-8.23445E-01 1.09721E+00 0.00000E+00
 -1      1947-5.83576E+00 1.26013E+01 0.00000E+00
 -1      1948 8.53767E-01 2.74595E+00 0.00000E+00
 -1      1949 8.39088E-01 3.38715E+00 0.00000E+00
 -1      1950 6.19189E-01 1.83748E+00 0.00000E+00
 -1      1951-1.45043E+00 2.42373E+00 0.00000E+00
 -1      1952-1.00989E+00 1.65093E+00 0.00000E+00
 -1      1953-4.66757E-01 1.34742E+00 0.00000E+00
 -1      1954-1.01029E+00 2.96621E+00 0.00000E+00
 -1      1955 1.31959E-01 1.29930E+00 0.00000E+00
 -1      1956 1.84365E-01 1.13213E+00 0.00000E+00
 -1      1957 4.29404E-01 3.10092E+00 0.00000E+00
 -1      1958 4.11792E-01 1.09317E+00 0.00000E+00
 -1      1959 4.34381E-01 1.40179E+00 0.00000E+00
 -1      1960 2.66610E-01 1.18768E+00 0.00000E+00
 -1      1961-3.36901E+00 7.95268E+00 0.00000E+00
 -1      1962 3.95711E-01 1.58039E+00 0.00000E+00
 -1      1963-4.82049E-02 1.40351E+00 0.00000E+00
 -1      1964 1.23992E-01 2.16613E+00 0.00000E+00
 -1      1965-1.63951E+00 6.17311E+00 0.00000E+00
 -1      1966-1.11543E+00 4.92360E+00 0.00000E+00
 -1      1967-6.04607E-01 3.93404E+00 0.00000E+00
 -1      1968-2.18024E-01 2.89752E+00 0.00000E+00
 -1      1969-2.24570E+00 7.31907E+00 0.00000E+00
 -1      1970 6.81156E-03 5.13667E-01 0.00000E+00
 -1      1971 3.35580E-01 2.20073E+00 0.00000E+00
 -1      1972 1.83197E-01 1.83617E+00 0.00000E+00
 -1      1973 1.11640E+00 4.10641E+00 0.00000E+00
 -1      1974 9.24659E-01 3.47927E+00 0.00000E+00
 -1      1975 9.93816E-01 7.98996E+00 0.00000E+00
 -1      1976 1.18756E+00 6.81143E+00 0.00000E+00
 -1      1977-1.24058E+00 1.38963E+01 0.00000E+00
 -1      1978-4.73011E-01 1.21756E+01 0.00000E+00
 -1      1979-6.12713E+00 2.26151E+01 0.00000E+00
 -1      1980-4.61850E+00 2.02890E+01 0.00000E+00
 -1      1981-8.03960E+00 2.28157E+01 0.00000E+00
 -1      1982-1.52117E+01 2.36549E+01 0.00000E+00
 -1      1983-1.28097E+01 1.80191E+01 0.00000E+00
 -1      1984-1.38775E+01 2.06148E+01 0.00000E+00
 -1      1985-8.94143E+00 9.51475E+00 0.00000E+00
 -1      1986-9.97329E+00 1.12540E+01 0.00000E+00
 -1      1987-4.92951E+00 4.42826E+00 0.00000E+00
 -1      1988-5.78485E+00 5.48636E+00 0.00000E+00
 -1      1989-1.73483E+00 1.46034E+00 0.00000E+00
 -1      1990-2.51763E+00 2.04138E+00 0.00000E+00
 -1      1991-1.05217E-01 3.08517E-01 0.00000E+00
 -1      1992-9.46569E-01 9.70710E-01 0.00000E+00
 -1      1993-9.58195E-01 8.98432E-01 0.00000E+00
 -1      1994-7.51821E-02 1.49767E-02 0.00000E+00
 -1      1995 4.91549E-02 7.25655E-02 0.00000E+00
 -1      1996 4.07289E-02-4.15580E-02 0.00000E+00
 -1      1997 2.32473E-02 3.79660E-01 0.00000E+00
 -1      1998 3.25445E-02 3.00109E-01 0.00000E+00
 -1      1999 9.49823E-03 4.84941E-01 0.00000E+00
 -1      2000 1.11697E-02 4.52534E-01 0.00000E+00
 -1      2001 7.32516E-02 8.43118E-01 0.00000E+00
 -1      2002 3.14856E-02 1.00380E+00 0.00000E+00
 -1      2003-1.24301E+01 2.32784E+01 0.00000E+00
 -1      2004 5.20843E-01 2.59250E+00 0.00000E+00
 -1      2005 4.51151E-01 2.01650E+00 0.00000E+00
 -1      2006 7.33826E-01 3.05169E+00 0.00000E+00
 -1      2007 7.36572E-02 1.44631E+00 0.00000E+00
 -1      2008 8.29716E-01 2.72466E+00 0.00000E+00
 -1      2009 1.24735E+00 5.76101E+00 0.00000E+00
 -1      2010 1.22356E+00 4.86633E+00 0.00000E+00
 -1      2011 1.82100E-01 1.07092E+01 0.00000E+00
 -1      2012 6.49634E-01 9.25945E+00 0.00000E+00
 -1      2013-3.33070E+00 1.78870E+01 0.00000E+00
 -1      2014-2.23221E+00 1.58718E+01 0.00000E+00
 -1      2015-1.02921E+01 2.29957E+01 0.00000E+00
 -1      2016-1.12847E+01 1.53783E+01 0.00000E+00
 -1      2017-9.83551E+00 1.73940E+01 0.00000E+00
 -1      2018-1.02569E+01 1.32249E+01 0.00000E+00
 -1      2019-8.26800E+00 1.25252E+01 0.00000E+00
 -1      2020-6.78977E+00 6.73207E+00 0.00000E+00
 -1      2021-7.73699E+00 8.11689E+00 0.00000E+00
 -1      2022-3.26827E+00 2.70132E+00 0.00000E+00
 -1      2023-4.06118E+00 3.47310E+00 0.00000E+00
 -1      2024 1.45842E-04-8.64125E-02 0.00000E+00
 -1      2025 1.59861E-02-6.52934E-02 0.00000E+00
 -1      2026 4.12683E-02 2.47983E-01 0.00000E+00
 -1      2027 4.06209E-02 1.41716E-01 0.00000E+00
 -1      2028 1.27792E-01 6.00301E-01 0.00000E+00
 -1      2029 1.07086E+00 3.75106E+00 0.00000E+00
 -1      2030 3.98589E-01 7.55680E+00 0.00000E+00
 -1      2031-2.73416E+00 1.33812E+01 0.00000E+00
 -1      2032-3.41031E+00 3.89718E+00 0.00000E+00
 -1      2033 1.47830E-01 3.20695E-01 0.00000E+00
 -1      2034-1.21142E-01 7.79884E-02 0.00000E+00
 -1      2035-5.25575E+00 1.75494E+01 0.00000E+00
 -1      2036-8.25809E-01 1.01390E+01 0.00000E+00
 -1      2037 9.76544E-01 5.40001E+00 0.00000E+00
 -1      2038-8.88390E+00 2.01313E+01 0.00000E+00
 -1      2039-6.91371E+00 9.03278E+00 0.00000E+00
 -1      2040-2.11628E+00 2.16419E+00 0.00000E+00
 -1      2041-4.97764E+00 6.23648E+00 0.00000E+00
 -1      2042 9.14645E-02 4.66396E-02 0.00000E+00
 -1      2043 1.40160E-01 1.33953E+00 0.00000E+00
 -1      2044-7.57973E+00 1.72317E+01 0.00000E+00
 -1      2045-4.35027E+00 1.29881E+01 0.00000E+00
 -1      2046-3.11262E+00 1.11928E+01 0.00000E+00
 -1      2047 4.89953E-01 5.08481E+00 0.00000E+00
 -1      2048 7.27254E-01 4.18325E+00 0.00000E+00
 -1      2049-2.11807E+00 3.45322E+00 0.00000E+00
 -1      2050-2.70312E+00 4.55010E+00 0.00000E+00
 -1      2051-2.10213E+00 9.31564E+00 0.00000E+00
 -1      2052-1.19729E+00 8.02565E+00 0.00000E+00
 -1      2053-3.52526E+00 9.00603E+00 0.00000E+00
 -1      2054-5.32622E+00 9.11976E+00 0.00000E+00
 -1      2055-6.31362E+00 1.06788E+01 0.00000E+00
 -1      2056-6.49669E+00 1.27182E+01 0.00000E+00
 -1      2057 2.27432E-01 4.72601E-01 0.00000E+00
 -1      2058 7.99746E-02 3.43009E-01 0.00000E+00
 -1      2059-3.32745E+00 6.03568E+00 0.00000E+00
 -1      2060-4.04365E+00 7.43994E+00 0.00000E+00
 -1      2061-6.07003E+00 1.50101E+01 0.00000E+00
 -1      2062-4.00732E-01 4.71362E-01 0.00000E+00
 -1      2063-8.23031E-01 1.08395E+00 0.00000E+00
 -1      2064-9.01032E-02 2.94685E-01 0.00000E+00
 -1      2065 8.51853E-01 3.37321E+00 0.00000E+00
 -1      2066 8.63427E-01 2.74267E+00 0.00000E+00
 -1      2067 4.69700E-01 3.07356E+00 0.00000E+00
 -1      2068-3.17138E-01 7.27852E+00 0.00000E+00
 -1      2069 2.26335E-01 6.15559E+00 0.00000E+00
 -1      2070-1.36723E+00 6.59632E+00 0.00000E+00
 -1      2071-1.00333E-01 4.84166E+00 0.00000E+00
 -1      2072-1.00012E+00 1.65915E+00 0.00000E+00
 -1      2073-1.42105E+00 2.44990E+00 0.00000E+00
 -1      2074-9.58012E-01 3.04788E+00 0.00000E+00
 -1      2075-4.29427E-01 1.35424E+00 0.00000E+00
 -1      2076 3.24922E-01 8.51271E-01 0.00000E+00
 -1      2077 3.24260E-01 6.85920E-01 0.00000E+00
 -1      2078-2.16959E-02 7.52793E-01 0.00000E+00
 -1      2079 1.85916E-01 1.18918E+00 0.00000E+00
 -1      2080 6.29074E-01 1.79714E+00 0.00000E+00
 -1      2081 7.74778E-01 2.18461E+00 0.00000E+00
 -1      2082 2.19478E-01 1.00285E+00 0.00000E+00
 -1      2083 2.63453E-01 8.30077E-01 0.00000E+00
 -1      2084 4.63479E-01 1.32271E+00 0.00000E+00
 -1      2085 3.26126E-01 1.49942E+00 0.00000E+00
 -1      2086 4.21666E-01 1.06641E+00 0.00000E+00
 -1      2087 6.27176E-01 1.87976E+00 0.00000E+00
 -1      2088-9.98274E-01 4.97300E+00 0.00000E+00
 -1      2089-5.33616E-01 4.00177E+00 0.00000E+00
 -1      2090-1.97850E+00 5.63761E+00 0.00000E+00
 -1      2091-1.59929E-01 2.89796E+00 0.00000E+00
 -1      2092 5.19225E-01 1.79465E+00 0.00000E+00
 -1      2093 4.04671E-01 1.56085E+00 0.00000E+00
 -1      2094 1.60100E-01 2.16535E+00 0.00000E+00
 -1      2095-3.29279E-02 1.40032E+00 0.00000E+00
 -1      2096-6.29969E+00 1.46396E+01-6.80112E-03
 -1      2097-4.54911E+00 1.26326E+01 7.90007E-03
 -1      2098-4.16326E+00 1.49665E+01-9.14647E-04
 -1      2099 1.06775E+00 4.50352E+00-7.12681E-04
 -1      2100 9.65981E-01 5.40853E+00 3.40190E-04
 -1      2101 7.15167E-01 4.18920E+00-1.85950E-03
 -1      2102-3.77069E+00 3.59924E+00-1.07301E-03
 -1      2103-4.11112E+00 3.45488E+00 1.90430E-03
 -1      2104-3.03314E+00 2.77922E+00-4.41884E-03
 -1      2105-5.33560E+00 4.18176E+00 3.83831E-03
 -1      2106-4.44961E+00 3.33910E+00-6.23972E-04
 -1      2107-4.49422E+00 1.71235E+01 4.35449E-03
 -1      2108-4.27688E+00 1.75410E+01 5.28471E-03
 -1      2109-5.47834E+00 1.71449E+01-1.85096E-03
 -1      2110-5.65550E+00 1.99508E+01 2.15653E-03
 -1      2111-2.15456E-02-8.11597E-02-1.02788E-02
 -1      2112 8.09671E-03-1.16840E-01 4.01651E-03
 -1      2113 2.69737E-02-1.17313E-01 5.84813E-03
 -1      2114 1.02488E-02 4.08034E-04 2.09832E-03
 -1      2115-2.00971E-02-9.06144E-02-7.98301E-06
 -1      2116 3.27240E-02-9.28767E-02-1.37220E-02
 -1      2117 7.58495E-01 6.45371E+00-1.11202E-03
 -1      2118 4.76458E-01 5.09557E+00-9.45499E-04
 -1      2119-5.85956E+00 7.54690E+00-2.15493E-04
 -1      2120-4.24872E+00 6.98517E+00 1.65384E-03
 -1      2121-3.50141E+00 5.63319E+00-2.40353E-03
 -1      2122-4.97036E+00 6.15726E+00 3.07964E-03
 -1      2123 1.13304E-02 1.05639E-01 2.44261E-04
 -1      2124 1.22262E-01 4.01035E-01 4.82252E-03
 -1      2125 1.26697E-01 5.82196E-01 4.11921E-03
 -1      2126 1.89838E-02 1.87266E-01 5.43147E-03
 -1      2127 5.44876E-02 2.83240E-01 6.05357E-03
 -1      2128-1.01634E+01 1.76635E+01-7.81918E-03
 -1      2129-8.79820E+00 1.49888E+01 8.24145E-04
 -1      2130-7.87474E+00 1.75071E+01-2.08754E-03
 -1      2131-3.28895E-01 7.71476E-01-4.75223E-04
 -1      2132-3.07072E-02 7.63745E-01-5.58600E-03
 -1      2133-7.64803E-02 2.99739E-01 5.98117E-03
 -1      2134-6.77617E+00 1.99495E+01-4.83949E-03
 -1      2135 8.44943E-01 3.37912E+00 1.48518E-03
 -1      2136 7.03755E-03-1.02037E-01 7.88399E-03
 -1      2137-1.61710E-02-9.25543E-02 8.30021E-03
 -1      2138 1.05809E-02 1.97795E-01 1.40858E-03
 -1      2139 1.05873E-02 1.98241E-01-5.81026E-04
 -1      2140 5.11334E-02 4.55479E-01-1.13236E-03
 -1      2141 1.75487E-02 1.89705E-01 3.98213E-03
 -1      2142 9.25879E-02 3.57283E-01 1.05171E-02
 -1      2143 5.97618E-01 2.39852E+00-1.62114E-03
 -1      2144 4.47542E-01 3.09411E+00-2.21975E-03
 -1      2145 1.29310E-01 2.18622E+00 4.15099E-03
 -1      2146 8.59299E-01 2.73806E+00 2.16670E-03
 -1      2147 7.71824E-01 2.16992E+00-3.61654E-03
 -1      2148 9.84500E-01 3.11738E+00-2.08955E-03
 -1      2149-5.76012E-01 4.01713E+00-9.90700E-05
 -1      2150-1.33133E-01 4.85869E+00-2.49383E-03
 -1      2151 1.68575E-01 3.92657E+00 3.21479E-05
 -1      2152 6.28499E-01 1.82974E+00 2.88164E-03
 -1      2153 4.17533E-01 1.07825E+00-5.62876E-03
 -1      2154 5.41786E-01 1.36644E+00-1.20757E-03
 -1      2155-5.70734E+00 1.99152E+01-5.51989E-03
 -1      2156-3.64026E+00 2.03219E+01 2.70249E-03
 -1      2157-2.48903E+00 1.80992E+01-2.59828E-04
 -1      2158-1.47744E+00 1.60972E+01-1.97547E-03
 -1      2159-3.30477E+00 1.51059E+01 6.12645E-03
 -1      2160-2.48432E+00 1.81033E+01 9.20265E-03
 -1      2161 7.26937E-02 1.22718E-03-2.66860E-03
 -1      2162 7.20588E-03-6.65906E-02 1.13372E-03
 -1      2163 2.89354E-02-4.64405E-02-6.27323E-04
 -1      2164 7.82899E-02 9.24266E-02 7.17370E-03
 -1      2165 7.49986E-03-3.78457E-02-4.94050E-04
 -1      2166-2.34870E-02-7.71798E-02 1.32656E-03
 -1      2167 6.76885E-03-1.00698E-01 9.75388E-03
 -1      2168 6.74036E-02 6.00240E-01-5.09203E-03
 -1      2169 1.06097E-02 2.52977E-01-4.03626E-03
 -1      2170 3.85507E-02 7.12706E-01-1.48371E-03
 -1      2171-1.09318E+01 1.21562E+01 7.57720E-04
 -1      2172-8.88140E+00 1.14538E+01 4.12654E-03
 -1      2173-9.11659E+00 1.35021E+01-4.14886E-03
 -1      2174 3.31019E-01 8.67083E-01-2.25504E-03
 -1      2175 4.68510E-01 1.33317E+00 2.25540E-03
 -1      2176 9.66346E-02 5.78910E-02-9.16414E-03
 -1      2177 1.53035E-01 1.95983E-01-1.05556E-03
 -1      2178 2.23426E-01 4.82540E-01-7.52269E-03
 -1      2179-2.67028E+00 6.86205E+00-8.20579E-05
 -1      2180-2.14187E+00 5.22116E+00-5.45457E-04
 -1      2181-1.54689E+00 4.10063E+00-4.80265E-04
 -1      2182-2.73741E+00 4.48313E+00 9.78231E-04
 -1      2183-1.49502E+00 1.60808E+01 1.95221E-03
 -1      2184 1.06740E+00 3.74485E+00 1.43294E-03
 -1      2185 3.01465E-02 8.21096E-02 4.71987E-04
 -1      2186 8.38159E-02 1.97576E-01-6.37170E-05
 -1      2187 8.90337E-02 1.78896E-01 3.26580E-03
 -1      2188 9.00522E-02 6.49123E-02-1.02943E-03
 -1      2189 2.27671E-01 8.68262E-01 4.30790E-03
 -1      2190 3.89180E-01 1.57367E+00 2.27458E-03
 -1      2191-4.59449E-02 1.41818E+00 2.82852E-03
 -1      2192-2.74624E+00 2.01096E+00 1.00178E-02
 -1      2193-1.94049E+00 1.51453E+00 5.24206E-03
 -1      2194-1.63815E+00 1.45493E+00-9.94238E-03
 -1      2195-3.02988E+00 9.55248E+00-5.23128E-03
 -1      2196-2.04851E+00 7.84985E+00-1.31279E-03
 -1      2197-1.66937E+00 9.90346E+00 3.36025E-04
 -1      2198 2.93735E-01 9.91099E-01 1.46065E-03
 -1      2199 1.91229E-01 5.90047E-01 2.52040E-03
 -1      2200 2.78621E-01 2.25660E+00-1.54915E-04
 -1      2201 2.35813E-01 1.71087E+00 1.13238E-03
 -1      2202 1.32471E-01 1.86712E+00-5.53189E-03
 -1      2203-6.61628E+00 9.18889E+00 5.05455E-04
 -1      2204-6.00571E+00 1.08747E+01 2.80707E-03
 -1      2205-7.71333E+00 1.07366E+01 3.99614E-04
 -1      2206-8.29112E-01 8.57902E+00 1.26034E-03
 -1      2207-7.41118E-01 1.02151E+01 2.56625E-03
 -1      2208-1.59586E+00 1.16723E+01 2.06565E-04
 -1      2209-2.14080E+00 3.38883E+00-4.61777E-03
 -1      2210-2.91662E+00 1.30119E+01 6.49577E-03
 -1      2211-2.98688E+00 1.12575E+01-2.64215E-03
 -1      2212-1.44124E+00 2.44765E+00-7.19187E-04
 -1      2213-2.70988E+00 2.93403E+00 4.65045E-03
 -1      2214 2.11011E-01 6.17163E+00 3.95899E-03
 -1      2215-4.11962E-01 4.83901E-01 4.06910E-03
 -1      2216-8.21238E-01 1.08197E+00-1.54389E-02
 -1      2217-6.06656E-02 8.89847E+00 3.02079E-04
 -1      2218 2.77264E-01 2.24948E+00-3.13395E-03
 -1      2219 6.53792E-01 3.04519E+00-1.59507E-03
 -1      2220 5.82621E-01 2.30816E+00 1.64310E-03
 -1      2221 8.26410E-01 3.47313E+00-7.56056E-04
 -1      2222 6.89000E-01 2.76579E+00 2.06471E-04
 -1      2223 7.48747E-01 2.65172E+00 1.94483E-03
 -1      2224-4.19383E+00 4.93195E+00 1.62808E-03
 -1      2225 4.42990E-01 2.59781E+00 2.59751E-03
 -1      2226 6.58173E-01 3.05062E+00 3.60586E-03
 -1      2227 4.51228E-01 2.59761E+00 3.52261E-03
 -1      2228 8.89712E-01 9.89810E+00-1.55865E-03
 -1      2229 5.07821E-01 1.14031E+01 9.45952E-03
 -1      2230 8.97199E-01 9.89104E+00 7.68639E-03
 -1      2231 7.02798E-02-3.34260E-02 3.68860E-03
 -1      2232-4.50315E-01 1.35136E+00-1.34289E-03
 -1      2233 4.78675E-03 3.61323E-01 3.13938E-04
 -1      2234 4.96006E-03 3.57702E-01-1.39867E-03
 -1      2235 4.86092E-03 3.81596E-01-5.59950E-04
 -1      2236-5.99520E-01 1.43293E+01 4.34042E-04
 -1      2237 5.94894E-02 1.25775E+01 2.83447E-03
 -1      2238 5.89544E-02 1.25828E+01-6.07580E-04
 -1      2239-5.20396E-01 2.06844E+00 1.94797E-03
 -1      2240-5.81667E+00 5.42613E+00-1.31975E-03
 -1      2241-4.55292E+00 4.65540E+00 5.21052E-03
 -1      2242-5.36673E+00 5.79826E+00 5.12799E-03
 -1      2243-5.42299E+00 5.71134E+00-3.84935E-03
 -1      2244-4.60275E+00 4.58252E+00-8.31319E-03
 -1      2245 1.94988E-01 1.14750E+00-4.27402E-03
 -1      2246 1.36479E-01 1.29231E+00-3.64242E-04
 -1      2247 2.74887E-01 1.65065E+00 9.05663E-04
 -1      2248 1.06399E+00 3.60940E+00-4.35332E-04
 -1      2249 1.15725E+00 4.65898E+00 9.41291E-04
 -1      2250 9.79897E-01 3.95722E+00-5.96654E-04
 -1      2251 3.98891E-01 1.99944E+00 3.57030E-03
 -1      2252 1.32705E-01 1.87059E+00-3.92307E-03
 -1      2253-9.70060E-01 9.08169E-01 8.66186E-03
 -1      2254-9.92654E-01 1.07219E+00-2.55491E-03
 -1      2255-3.11083E-01 3.25692E-01 5.79338E-03
 -1      2256-9.77952E-01 9.60747E-01 4.99739E-03
 -1      2257-4.87248E+00 8.58696E+00 2.44782E-03
 -1      2258-4.30422E+00 1.02839E+01 2.37276E-03
 -1      2259-3.14578E+00 8.48617E+00-4.15615E-03
 -1      2260 1.16562E+00 5.10957E+00 5.64872E-04
 -1      2261 1.22008E+00 4.88178E+00 2.83423E-04
 -1      2262 1.15388E+00 4.31230E+00 5.70963E-04
 -1      2263 1.16636E+00 5.10739E+00-1.86300E-04
 -1      2264 1.15571E+00 4.31128E+00 2.08539E-03
 -1      2265 6.83340E-03-6.67515E-02-1.03641E-03
 -1      2266 1.27449E+00 5.47687E+00-3.28612E-04
 -1      2267 1.31295E+00 6.44217E+00 1.64187E-04
 -1      2268 1.31496E+00 6.44596E+00 3.12632E-03
 -1      2269-1.98545E-01 2.90829E+00-2.02637E-03
 -1      2270 9.91785E-02 1.36666E+00-1.94849E-03
 -1      2271 8.28937E-01 3.47571E+00-3.18724E-03
 -1      2272 1.45353E-01 1.04216E+00-4.44864E-03
 -1      2273 4.01032E-02 7.08371E-01 1.90760E-04
 -1      2274 4.27538E-02 9.33958E-01-2.02956E-04
 -1      2275-1.30933E-01 7.58704E-02-1.92918E-02
 -1      2276 1.06788E-02 2.49693E-01-2.95524E-03
 -1      2277-1.53317E+00 6.11632E+00-1.87947E-03
 -1      2278-2.11219E+00 2.16346E+00 5.60166E-03
 -1      2279-1.01496E+00 1.65555E+00-3.11072E-03
 -1      2280-1.51697E+00 1.48352E+00 2.39884E-03
 -1      2281-7.94347E+00 1.27371E+01-2.44736E-03
 -1      2282 3.82014E-01 7.56996E+00 5.76594E-03
 -1      2283-9.90079E-01 2.97856E+00 7.55404E-04
 -1      2284 1.25966E+00 7.52897E+00-1.36901E-03
 -1      2285 1.17096E+00 6.75519E+00 5.63608E-04
 -1      2286 8.83792E-01 7.14860E+00-1.49414E-03
 -1      2287 1.08414E+00 6.08121E+00 1.12881E-03
 -1      2288-9.45079E+00 1.37577E+01 3.44460E-03
 -1      2289-8.55098E+00 1.16357E+01 6.59304E-03
 -1      2290-1.09241E+01 1.21405E+01-3.75154E-03
 -1      2291-1.79651E-01 6.05616E-02-2.09205E-02
 -1      2292-9.44503E-01 9.18032E-01 1.03877E-02
 -1      2293-2.76780E+00 2.01399E+00-1.02063E-02
 -1      2294-5.64647E-01 5.97022E+00-7.44996E-04
 -1      2295-1.08566E+00 5.02071E+00 1.96339E-03
 -1      2296-6.24999E+00 5.16974E+00-9.00090E-03
 -1      2297-5.32718E+00 4.19545E+00-1.22617E-02
 -1      2298-3.58892E+00 2.64280E+00-1.78866E-02
 -1      2299-3.60538E+00 2.63855E+00-6.74733E-03
 -1      2300-7.19860E+00 8.56217E+00 2.05407E-03
 -1      2301-8.02572E+00 1.01940E+01-2.83323E-03
 -1      2302-8.35083E+00 1.00297E+01 5.69293E-04
 -1      2303-1.00600E+00 7.07371E+00 8.33946E-03
 -1      2304-5.95163E-01 1.43366E+01-6.91704E-03
 -1      2305-1.29329E+00 1.39327E+01-6.51738E-03
 -1      2306 1.07696E+00 6.08863E+00 3.53083E-04
 -1      2307 8.71738E-01 7.15798E+00 4.15060E-03
 -1      2308-4.44238E+00 3.34110E+00-7.96431E-03
 -1      2309 1.88630E-01 8.14308E-01-2.34927E-03
 -1      2310 7.55698E-02 5.35703E-01 1.87911E-03
 -1      2311 2.03743E-01 9.83885E-01 7.80312E-04
 -1      2312-2.53798E+00 2.02156E+00-2.35447E-03
 -1      2313-2.34626E+00 2.07062E+00 1.09827E-02
 -1      2314 1.15137E-02 4.07194E-02-4.12164E-04
 -1      2315 7.59178E-03 7.61817E-04 4.41437E-03
 -1      2316 1.13671E-02 4.89217E-02-9.36159E-03
 -1      2317 1.13266E-02 1.09979E-01-4.37983E-04
 -1      2318-1.96908E+00 1.57194E+00-2.99532E-03
 -1      2319-1.64550E+00 1.45382E+00 7.95577E-03
 -1      2320-1.29898E+01 1.57964E+01-2.21264E-04
 -1      2321-9.96906E+00 1.51435E+01 4.48654E-03
 -1      2322-1.14184E+01 1.78073E+01-7.76973E-03
 -1      2323 9.34959E-02 2.93786E-01-1.39846E-03
 -1      2324-9.93257E-01 1.00148E+00 8.38901E-03
 -1      2325-3.74243E+00 3.63151E+00 3.98494E-03
 -1      2326-1.04938E+00 1.19491E+01-4.62678E-03
 -1      2327-1.03293E+01 1.07300E+01 4.76290E-03
 -1      2328-9.21973E+00 1.08997E+01 5.44334E-03
 -1      2329 4.75308E-03 3.69003E-01 4.99985E-03
 -1      2330 4.93501E-01 1.14130E+01-7.33163E-03
 -1      2331 3.16791E-02 8.58549E-01 2.09625E-03
 -1      2332 6.05784E-01 1.77334E+00-5.11132E-03
 -1      2333 1.05551E-01 4.48835E-01 4.01074E-03
 -1      2334 8.01385E-02 5.53234E-01 5.37860E-03
 -1      2335 1.08956E+00 8.78765E+00-3.90257E-03
 -1      2336 1.25546E+00 7.53320E+00-4.09820E-03
 -1      2337 4.65262E-01 1.83130E+00-8.13706E-04
 -1      2338 3.94326E-01 2.03775E+00 1.64816E-03
 -1      2339 5.89968E-01 2.40395E+00 7.09073E-04
 -1      2340-9.45695E-01 9.36140E-01 1.43380E-02
 -1      2341-2.91289E-01 2.79323E-01 2.75371E-03
 -1      2342 3.25370E-01 6.98230E-01-2.94977E-03
 -1      2343 9.35526E-01 3.13861E+00-1.93833E-04
 -1      2344 1.26989E+00 5.47586E+00-2.62247E-04
 -1      2345-1.88496E+00 1.36299E+01-3.62682E-03
 -1      2346-4.92853E-02 2.35426E-01 2.17155E-02
 -1      2347 1.09230E+00 8.78468E+00-1.64668E-03
 -1      2348 5.34646E-01 8.33825E+00-8.65731E-04
 -1      2349 4.99511E-01 1.71035E+00 1.79987E-03
 -1      2350 3.36179E-01 1.45736E+00-4.00563E-03
 -1      2351 1.93427E-01 9.43099E+00-4.92732E-03
 -1      2352-3.67225E-01 3.35025E-01-2.45960E-04
 -1      2353 9.74942E-01 3.96361E+00-9.35593E-05
 -1      2354 6.25000E-02 1.11620E+01 8.34374E-04
 -1      2355 7.38409E-03-3.97992E-02 1.05306E-04
 -1      2356 5.86372E-01 8.41745E+00 1.12241E-03
 -1      2357-3.96377E-01 7.33065E+00 6.98512E-04
 -1      2358-3.44642E+00 3.83558E+00 2.92357E-03
 -1      2359-7.22789E+00 6.32312E+00-6.21151E-03
 -1      2360-6.30771E+00 7.11617E+00 6.22373E-03
 -1      2361 6.83979E-02 5.88000E-01-6.18939E-03
 -1      2362-1.25482E+01 1.73392E+01-3.71714E-03
 -1      2363-1.23418E+01 1.97244E+01 1.32195E-02
 -1      2364-1.40357E+01 1.75517E+01-3.71055E-03
 -1      2365-4.93490E-02 2.35390E-01 2.97341E-03
 -1      2366 7.53870E-01 2.75573E+00-9.37871E-04
 -1      2367-7.18587E+00 8.45801E+00-4.21713E-03
 -1      2368-9.25320E+00 9.07313E+00-5.33733E-04
 -1      2369 6.40728E-01 2.28287E+00 3.87367E-03
 -1      2370-1.18992E+01 1.36611E+01 2.07085E-03
 -1      2371-1.06546E+01 1.39305E+01 4.24041E-03
 -1      2372 2.36307E-01 1.75422E+00-1.25636E-03
 -1      2373 1.08319E-01 1.37516E+00-2.19334E-03
 -1      2374-3.10539E+00 1.55105E+01 1.53223E-03
 -1      2375-1.98964E+00 1.35357E+01 1.00435E-03
 -1      2376 8.14305E-01 2.61664E+00 1.53839E-03
 -1      2377-1.15043E+01 1.78819E+01-2.52689E-03
 -1      2378-1.03095E+01 1.54013E+01 8.37584E-03
 -1      2379-1.30121E+01 1.58028E+01-8.52036E-03
 -1      2380 7.38085E-03 1.02113E-02-2.61365E-03
 -1      2381-8.93988E+00 2.00971E+01-8.38061E-03
 -1      2382 1.40651E-01 3.34936E-01-3.79170E-03
 -1      2383 1.91190E-02 6.34475E-01 1.34170E-03
 -1      2384 1.86367E-02 8.50771E-01-1.15134E-03
 -1      2385-2.90323E-01 1.04800E+01-2.16398E-03
 -1      2386 1.15976E+00 4.66549E+00-5.36959E-04
 -1      2387 4.47204E-02 1.34548E+00 1.11139E-03
 -1      2388 7.37648E-02 1.29275E+00-2.39391E-03
 -1      2389 4.53931E-02 1.34826E+00 1.94568E-03
 -1      2390 9.70649E-02 6.90700E-01 7.48359E-03
 -1      2391-3.00799E+00 2.79386E+00 7.29890E-03
 -1      2392-8.22695E+00 2.43473E+01-7.22079E-03
 -1      2393-6.33487E+00 2.40981E+01-8.01917E-03
 -1      2394-6.30525E+00 2.40769E+01 4.58513E-03
 -1      2395-5.01844E+00 2.25823E+01 8.11817E-03
 -1      2396-3.61375E+00 2.03274E+01-4.35367E-03
 -1      2397-5.01564E+00 2.25903E+01-8.83828E-04
 -1      2398-7.67113E+00 8.01225E+00-2.84126E-03
 -1      2399-6.30202E+00 7.03006E+00-1.31828E-03
 -1      2400-8.49891E+00 2.14387E+01-2.85527E-04
 -1      2401-9.83022E+00 2.44310E+01 5.69472E-03
 -1      2402-6.96155E+00 2.13721E+01-1.89430E-03
 -1      2403-8.65356E+00 2.29664E+01-2.15401E-03
 -1      2404-8.22349E+00 7.62037E+00-1.04649E-02
 -1      2405 1.56078E-02 8.95666E-01 3.44012E-03
 -1      2406 2.16753E-02 8.99879E-01 6.74736E-03
 -1      2407 8.42525E-03 7.68391E-01 8.22748E-03
 -1      2408 1.06448E-03 2.46487E-01 6.91527E-05
 -1      2409 1.14448E-03 2.46755E-01 2.32151E-03
 -1      2410 1.19242E-02 7.55427E-01 4.80966E-03
 -1      2411 1.16796E-03 2.42952E-01 2.91944E-03
 -1      2412 1.08626E-03 2.34721E-01-1.32006E-03
 -1      2413-1.67519E+01 2.50357E+01-1.89204E-03
 -1      2414-1.56027E+01 2.19590E+01 1.85970E-03
 -1      2415-1.67396E+01 2.50238E+01-1.08344E-02
 -1      2416-1.55853E+01 2.19894E+01 2.58850E-03
 -1      2417-1.51766E+01 2.00730E+01-1.91107E-02
 -1      2418-1.39376E+01 2.10577E+01 2.99470E-03
 -1      2419-1.51633E+01 2.00387E+01 1.37371E-02
 -1      2420-1.40442E+01 2.47684E+01-4.76598E-04
 -1      2421-1.28232E+01 2.17248E+01-2.74279E-03
 -1      2422-1.40149E+01 2.47988E+01-1.42875E-02
 -1      2423-1.27254E+01 2.16484E+01 1.59427E-02
 -1      2424-1.07596E+01 2.16231E+01-5.38870E-04
 -1      2425-9.85018E+00 2.44291E+01 4.61835E-03
 -1      2426-1.19469E+01 2.47261E+01 1.58911E-02
 -1      2427-1.19568E+01 2.47261E+01-1.05644E-02
 -1      2428-4.89670E-02-1.47155E-03 1.82056E-02
 -1      2429-4.89265E-02 2.92009E-02 1.26101E-02
 -1      2430-6.25204E+00 5.16859E+00 2.07114E-03
 -1      2431-1.75464E-01 5.95236E-02-6.35581E-04
 -1      2432-1.43831E-01 7.92690E-02 2.98523E-03
 -1      2433-7.22764E+00 6.31654E+00 6.28689E-03
 -1      2434-8.22591E+00 7.61777E+00 2.87005E-03
 -1      2435-1.03294E+01 1.07371E+01 5.47261E-03
 -1      2436-9.24971E+00 9.07253E+00-2.98049E-03
 -1      2437-1.18935E+01 1.36653E+01 8.04165E-03
 -1      2438-1.24329E+01 1.97899E+01-6.09479E-03
 -1      2439-1.40482E+01 1.75548E+01 1.48602E-02
 -1      2440-1.13077E+01 2.03589E+01 2.97756E-03
 -1      2441-5.82092E+00 2.13586E+01 3.00618E-03
 -1      2442 1.25467E-02 6.26970E-01 5.47016E-03
 -1      2443-1.22110E+01 2.30595E+01 9.96454E-03
 -1      2444-1.08211E+01 2.17039E+01-2.24711E-04
 -1      2445-8.25878E+00 2.43336E+01 1.34856E-03
 -1      2446-3.37665E+00 1.77093E+01 3.55224E-03
 -1      2447-6.91564E+00 2.14064E+01-1.27830E-02
 -1      2448-8.45081E+00 2.14645E+01-9.44307E-04
 -1      2449-2.35420E+00 2.07030E+00-1.29040E-03
 -1      2450 3.42484E-01 2.09947E+00 3.49009E-03
 -1      2451 7.83548E-01 8.94173E+00 8.19119E-05
 -1      2452 2.58738E-01 9.51506E+00 6.51863E-03
 -1      2453-2.12768E-01 1.05696E+01-2.95709E-03
 -1      2454 1.06448E+00 3.61901E+00 1.01749E-03
 -1      2455 9.91313E-01 3.61412E+00-1.57702E-03
 -1      2456-9.60151E-01 1.20363E+01-2.21899E-03
 -1      2457 9.30750E-01 3.15212E+00-1.35289E-03
 -3
    1PSTEP                         2           1           1          
  100CL  101 1.000000000         890                     0    1           1
 -4  STRESS      6    1
 -5  SXX         1    4    1    1
 -5  SYY         1    4    2    2
 -5  SZZ         1    4    3    3
 -5  SXY         1    4    1    2
 -5  SYZ         1    4    2    3
 -5  SZX         1    4    3    1
 -1      1568 3.42437E+00 7.69677E+00 5.74730E+00 7.16334E+00 4.44041E-02-6.75075E-01
 -1      1569 1.39693E+00 6.40728E+00 3.45405E+00 7.44730E+00 3.09767E-01 6.44051E-01
 -1      1570 5.21732E+00 5.24649E+00 5.24161E+00 5.59202E+00 9.98611E-03 9.06938E-03
 -1      1571 3.44269E+00 3.39940E+00 3.54825E+00 5.62772E+00-1.14384E-02-9.71901E-02
 -1      1572-2.53764E+00 5.32956E+00 8.26889E-01 1.70100E+00-3.39398E-01 3.16239E-01
 -1      1573-4.07651E+00 5.45338E+00 1.76930E+00 1.72281E+00 1.22684E-01-2.49933E-01
 -1      1574-4.85893E+01-3.58295E+01-4.17158E+01 2.39066E+00 1.00925E+00 4.46198E-01
 -1      1575-5.19202E+01-3.87771E+01-4.52600E+01 3.36604E+00-1.38610E-01-1.62946E-01
 -1      1576 1.03498E+01 1.02026E+01 1.07718E+01 1.03450E+01-7.86603E-02 4.25056E-01
 -1      1577 1.32317E+01 1.08129E+01 1.18251E+01 1.17836E+01-3.01926E-02-1.29808E-01
 -1      1578 1.43303E+01 1.13695E+01 1.22756E+01 1.24008E+01 1.84376E-01-4.04724E-01
 -1      1579 1.37744E+01 1.19287E+01 1.23775E+01 1.24186E+01 1.17246E-01-1.93469E-02
 -1      1580 1.32690E+01 1.12363E+01 1.21414E+01 1.21212E+01 4.00928E-02-5.67459E-02
 -1      1581 1.21643E+01 9.80419E+00 1.10991E+01 1.09068E+01-3.30061E-02-6.59186E-03
 -1      1582 1.07096E+01 7.64638E+00 8.97858E+00 8.86000E+00-5.70538E-02 9.55056E-02
 -1      1583 8.30985E+00 6.29832E+00 7.31901E+00 6.65236E+00 1.36233E-01-6.32767E-02
 -1      1584 5.51076E+00 4.26393E+00 4.64013E+00 5.44326E+00-7.98515E-02 5.19725E-02
 -1      1585 5.98424E+00 5.48110E+00 6.10154E+00 5.47911E+00 9.22005E-02 1.19140E-02
 -1      1586 1.22717E+01 1.05002E+01 1.10745E+01 1.02422E+01-2.48148E-01 1.09173E-01
 -1      1587 1.30768E+01 1.12556E+01 1.22508E+01 1.17918E+01-5.93470E-02 8.47524E-02
 -1      1588 1.39692E+01 1.18299E+01 1.29600E+01 1.24262E+01 7.48744E-02-5.27386E-02
 -1      1589 1.45722E+01 1.22508E+01 1.35350E+01 1.25829E+01 1.58157E-01-1.99997E-02
 -1      1590 1.34341E+01 1.11311E+01 1.22841E+01 1.21582E+01-3.03337E-03 2.33342E-02
 -1      1591 1.23524E+01 9.86654E+00 1.10868E+01 1.09464E+01-1.16304E-01 2.44867E-02
 -1      1592 1.03925E+01 8.02073E+00 9.35140E+00 8.90993E+00-2.89816E-02-2.86381E-01
 -1      1593 7.74367E+00 5.88964E+00 6.80312E+00 6.88109E+00-1.56223E-01-9.85662E-02
 -1      1594 5.78351E+00 4.47923E+00 5.18319E+00 5.37123E+00 6.06189E-02 1.36901E-01
 -1      1595 4.28153E+00 3.76252E+00 3.83033E+00 5.40513E+00 2.67018E-01 6.16882E-02
 -1      1596 2.07781E+00 1.34483E+01 7.36678E+00 6.75602E+00-9.14940E-02 1.64590E-01
 -1      1597 3.18876E-01 1.16325E+01 6.65904E+00 7.70512E+00 9.22248E-02 1.50634E-01
 -1      1598 1.57715E+00 1.41722E+01 8.51848E+00 7.30009E+00 1.65797E-01-5.99974E-01
 -1      1599 7.56767E-01 1.11181E+01 5.16850E+00 7.77058E+00-2.11590E-01 1.47478E-01
 -1      1600-2.08765E+01 9.17342E-01-9.62544E+00-8.71697E+00 8.91637E-01 4.55812E-03
 -1      1601-2.03342E+01-2.87542E+00-1.17855E+01-6.43242E+00-9.22910E-02-3.15660E-01
 -1      1602-1.91767E+01-2.19655E+00-1.06392E+01-6.58796E+00-2.28353E-01-1.65954E-01
 -1      1603-1.85388E+01-2.17632E+00-1.02557E+01-6.37265E+00-2.89057E-02-3.58155E-02
 -1      1604-1.75940E+01-2.22994E+00-9.99251E+00-5.88260E+00 4.77847E-02 1.33088E-01
 -1      1605-1.55894E+01-1.88000E+00-8.62457E+00-5.41435E+00 3.83354E-02 5.97239E-03
 -1      1606-1.29880E+01-2.58257E+00-7.99841E+00-4.09163E+00 1.01686E-01-8.47385E-02
 -1      1607-9.99978E+00-3.53569E+00-6.81222E+00-2.42485E+00 1.69555E-01-2.23356E-01
 -1      1608-1.73491E+01 2.49665E+00-7.80357E+00-1.10530E+01-1.67470E-01-1.58372E-01
 -1      1609-1.92792E+01-2.55549E+00-1.05437E+01-7.28372E+00 2.11068E-01-3.67871E-01
 -1      1610-1.86954E+01-3.13699E+00-1.02075E+01-6.88055E+00-2.47232E-01-4.17903E-01
 -1      1611-1.82266E+01-2.90627E+00-9.98767E+00-6.62582E+00-2.35083E-01-3.42761E-01
 -1      1612-1.71620E+01-2.51119E+00-9.44658E+00-6.24217E+00-2.66551E-01-4.24797E-01
 -1      1613-1.52345E+01-1.85599E+00-8.66779E+00-5.64843E+00 1.97493E-01-1.48033E-01
 -1      1614-1.29661E+01-2.09858E+00-7.13850E+00-3.86278E+00-1.68284E-01 2.40039E-01
 -1      1615-9.38283E+00-4.56867E+00-6.41004E+00-3.40203E+00-7.31973E-02 2.03094E-01
 -1      1616 3.05718E+00 2.97421E+00 3.06227E+00 5.03711E+00 7.89242E-02 2.43857E-02
 -1      1617 8.66286E+00 8.57285E+00 8.56296E+00 4.60723E+00 1.44640E-01-4.46848E-02
 -1      1618 5.98165E+00 5.88909E+00 6.08099E+00 2.61046E+00 1.47796E-02 1.08886E-01
 -1      1619 9.75988E+00 9.56705E+00 9.30385E+00 3.41694E-01-5.17274E-02-2.47920E-01
 -1      1620 2.00060E-01 1.44421E-01 1.81103E-01-1.46589E+00-1.51075E-01-9.51817E-04
 -1      1621-1.43562E+01-1.35079E+01-1.35860E+01-1.84577E+00-5.09711E-01 1.98841E-01
 -1      1622 4.72948E+00 4.70230E+00 4.72641E+00 5.41917E+00-2.59622E-02-5.01800E-03
 -1      1623 7.37179E+00 7.38228E+00 7.43330E+00 4.74691E+00-1.21133E-01-3.55829E-02
 -1      1624 6.63355E+00 6.44746E+00 6.40896E+00 2.71572E+00 5.01780E-02 7.72185E-02
 -1      1625 4.43423E+00 4.33038E+00 4.27824E+00 2.36098E-01 2.90968E-01 7.18865E-02
 -1      1626-9.24108E-01-8.77675E-01-8.51431E-01-1.65533E+00 2.07043E-02-2.96204E-02
 -1      1627-3.58442E+00-3.94043E+00-4.34204E+00-2.03435E+00 8.46888E-01 4.23793E-01
 -1      1628 5.99397E-01 8.03987E+00 4.07120E+00 6.91633E+00-8.56114E-02-8.99163E-02
 -1      1629 5.88643E+00 7.12326E+00 6.41637E+00 7.35016E+00-2.93568E-02 6.60548E-02
 -1      1630 8.85560E+00 6.60596E+00 7.84267E+00 8.15464E+00 2.93832E-02 6.82713E-02
 -1      1631 1.00425E+01 4.13351E+00 7.03710E+00 7.28401E+00 2.55989E-02 1.25026E-02
 -1      1632 8.78625E+00 4.00786E+00 6.38175E+00 5.48973E+00-1.71840E-01 5.40173E-03
 -1      1633 8.16137E+00 4.29300E+00 6.25287E+00 4.49629E+00-2.45804E-02 1.08761E-01
 -1      1634 4.55474E+00-3.69991E-01 2.00679E+00 2.38074E+00 9.58670E-02-8.65693E-02
 -1      1635-1.44832E+01-1.59260E+00-7.86623E+00 2.32727E+00 5.30740E-02-6.95488E-01
 -1      1636-1.19812E+01-5.17535E-01-6.12478E+00-3.02933E+00-1.54454E-02 8.59867E-02
 -1      1637-9.95890E+00 2.40070E-01-4.94026E+00-1.99370E+00-1.18226E-02 1.03122E-01
 -1      1638-5.89368E+00 2.27445E+00-1.67755E+00 1.67899E+00 1.36582E-01 8.16270E-02
 -1      1639 6.91023E+00 5.06469E+00 5.95857E+00 5.45862E+00-2.15940E-02 7.09234E-02
 -1      1640-3.94715E+00 2.89744E+00-7.07210E-01 3.77675E+00 6.51789E-03-1.79349E-02
 -1      1641 1.63411E+00 6.67577E+00 4.28691E+00 5.65835E+00-4.24016E-02 4.98820E-02
 -1      1642 8.67492E+00 7.83341E+00 8.34826E+00 8.31406E+00-1.87617E-02 8.24318E-02
 -1      1643 9.59139E+00 5.49822E+00 7.54040E+00 7.82761E+00 9.59262E-02-1.75637E-02
 -1      1644 1.05355E+01 3.87051E+00 7.27851E+00 6.27082E+00 1.80483E-01 7.74272E-03
 -1      1645 8.90929E+00 2.05153E+00 5.69385E+00 4.14961E+00 1.92743E-02-7.01081E-02
 -1      1646-3.65512E+00-4.05187E+00-4.03211E+00 1.44934E+00-7.26468E-02-7.85173E-03
 -1      1647-1.50986E+01-1.93070E+00-8.11366E+00-2.59516E+00-1.06911E-01-5.10631E-02
 -1      1648-1.13404E+01-6.67391E-01-6.17101E+00-2.65537E+00 4.44995E-02 1.42342E-01
 -1      1649-7.93964E+00 1.54992E+00-3.14270E+00-5.03956E-01 9.97234E-02-7.30010E-02
 -1      1650 3.64196E+00 2.72713E+00 3.14069E+00 4.68500E+00-2.57644E-02-1.04738E-03
 -1      1651 7.87003E+00 4.98263E-01 4.10844E+00 4.90300E+00-3.49594E-02-7.42766E-02
 -1      1652 8.08171E-01-1.13003E+00-5.25328E-02 3.47495E+00 5.77181E-03-2.08429E-01
 -1      1653-3.74952E+00 1.87019E+00-9.72537E-01 1.02583E+00-8.33216E-03 5.81480E-02
 -1      1654-1.36276E+00 3.70085E+00 1.21583E+00 2.57136E+00-5.04288E-02 6.16896E-02
 -1      1655 2.94106E+00 4.02322E+00 3.48634E+00 4.59387E+00 1.47967E-02-7.11893E-02
 -1      1656 2.48565E+00 4.93748E+00 3.74521E+00 4.69545E+00-3.75793E-02 3.33123E-02
 -1      1657-4.04903E+00 9.17801E-01-1.61140E+00 1.09610E+00 4.68939E-02 1.44083E-02
 -1      1658-6.98548E+00-1.02138E+00-4.15804E+00 1.83831E+00-1.32033E-01 4.64387E-03
 -1      1659 5.46534E+00 1.47558E+00 3.46648E+00 5.04802E+00 8.64354E-02-9.12948E-02
 -1      1660-3.83526E+00-1.64584E-01-1.98799E+00 2.05477E+00 5.90758E-02-1.54667E-02
 -1      1661 9.00852E+00 4.21577E+00 6.58958E+00 5.33452E+00 5.75143E-02-4.25680E-02
 -1      1662 1.06168E+01 4.56882E+00 7.63660E+00 7.39119E+00-7.91297E-02-2.09323E-03
 -1      1663 8.96743E+00 6.57382E+00 7.82257E+00 8.18951E+00-5.21945E-02 9.20514E-02
 -1      1664 5.79434E+00 7.36798E+00 6.59792E+00 6.88893E+00 8.75663E-02-8.00314E-02
 -1      1665 9.31272E-01 8.61229E+00 5.01478E+00 6.96513E+00-5.46217E-02-1.66286E-01
 -1      1666-2.92137E+00 4.20205E+00 4.38456E-01 4.07355E+00 1.49160E-01-6.19124E-03
 -1      1667-8.84017E+00 1.36551E+00-3.87014E+00-1.36749E+00 1.40364E-01 3.43292E-01
 -1      1668-1.05178E+01-3.45166E-01-5.62598E+00-2.40667E+00 2.46163E-02-4.17036E-04
 -1      1669-1.48880E+01-1.41860E+00-8.09720E+00-1.92365E+00-5.74023E-02-3.57155E-02
 -1      1670-1.78406E+01-3.47943E+00-1.05405E+01 1.20916E+00 2.16695E-01 3.27731E-01
 -1      1671 3.81132E+00-1.30194E+00 1.25442E+00 2.48823E+00 1.50540E-01 2.38870E-01
 -1      1672 8.28546E+00 4.16945E+00 6.10005E+00 4.54954E+00 6.58619E-02-4.02165E-02
 -1      1673 7.30671E+00 5.09946E+00 6.16382E+00 5.24985E+00 1.49218E-01 9.55486E-03
 -1      1674 8.38778E+00 2.56976E+00 5.42171E+00 6.62227E+00-6.32960E-02-7.80896E-02
 -1      1675 9.61513E+00 5.48261E+00 7.53074E+00 7.90854E+00-6.02014E-02-7.82555E-03
 -1      1676 7.75813E+00 7.28431E+00 7.55413E+00 7.79175E+00 5.92662E-02-4.70548E-02
 -1      1677 2.87021E+00 6.89281E+00 4.76968E+00 6.28614E+00-3.76397E-02-5.42067E-02
 -1      1678-4.98439E+00 3.19280E+00-8.14927E-01 1.88058E+00-5.45831E-02 7.55090E-02
 -1      1679-9.53652E+00 6.77793E-01-4.57811E+00-1.84997E+00 3.29212E-02 1.09823E-02
 -1      1680-1.24162E+01-9.95971E-01-6.99007E+00-2.68648E+00 1.77454E-02-6.96837E-02
 -1      1681-4.82690E+00-4.15643E+00-4.46432E+00 1.85116E+00 2.13214E-01-1.09492E-01
 -1      1682 9.20920E+00 3.67433E+00 6.40498E+00 3.09188E+00 1.32806E-02 3.54341E-02
 -1      1683-2.24041E+00 3.66856E+00 5.63730E-01 2.47792E+00 8.35286E-02-1.00487E-01
 -1      1684 3.93806E+00 2.72760E+00 3.37976E+00 4.78933E+00-6.68012E-02 2.79835E-02
 -1      1685-3.42979E+00 1.07616E+00-1.17791E+00 1.20984E+00 1.44069E-02 6.39802E-03
 -1      1686-1.18837E+00 2.75050E+00 8.60358E-01 2.46548E+00-4.28833E-02-8.34802E-02
 -1      1687 1.26264E+00-1.26737E+00-9.59781E-02 3.38461E+00-5.71606E-03 5.05383E-02
 -1      1688-7.09792E+00-1.24836E+00-4.15066E+00 1.80332E+00-5.52863E-02 2.84192E-02
 -1      1689 5.77219E+00 1.38040E+00 3.55671E+00 5.18279E+00-9.62751E-02-1.14035E-02
 -1      1690 3.36414E+00 4.01596E+00 3.65944E+00 4.82361E+00-4.15297E-02-1.22359E-02
 -1      1691-3.08010E+00-8.17603E-02-1.67427E+00 1.94640E+00-6.17724E-02 1.21179E-01
 -1      1692 8.44920E+00 7.80770E-01 4.74816E+00 4.99746E+00 7.43819E-02 3.02106E-02
 -1      1693 8.57899E+00 1.66301E+00 5.12444E+00 4.98134E+00 3.26073E-02 1.13085E-01
 -1      1694-1.40141E+00 7.98079E+00 2.97194E+00 7.81674E+00-8.50367E-03-2.97469E-01
 -1      1695 7.17744E+00 6.30182E+00 6.72949E+00 5.34426E+00 6.02525E-03 4.92737E-02
 -1      1696 7.62030E+00 7.14469E+00 7.37025E+00 5.61049E+00-4.39569E-02 1.12968E-01
 -1      1697-4.96776E+00 1.95225E+00-1.91499E+00-2.94276E-01 2.56691E-01 1.13556E-01
 -1      1698-1.87385E+00 5.03828E+00 1.56252E+00 2.83431E+00-1.49340E-01 1.76204E-01
 -1      1699 8.59262E+00 5.85103E+00 7.21408E+00 4.71225E+00-6.95703E-02-9.71511E-02
 -1      1700 7.51240E+00 8.54041E+00 8.16234E+00 8.67805E+00 5.68222E-02-2.95372E-02
 -1      1701-1.59526E+01-1.17260E+00-8.51227E+00-4.86950E+00-1.30104E-01 3.53220E-01
 -1      1702-2.32185E+01-4.80466E+00-1.42296E+01 1.91625E+00 5.03885E-01-1.93998E-01
 -1      1703 7.82543E+00 4.63933E+00 6.18793E+00 5.61634E+00 1.04447E-01 2.23191E-02
 -1      1704 1.05343E+01 9.07708E+00 9.98432E+00 1.02733E+01-1.52740E-01 1.85345E-01
 -1      1705 1.09463E+01 6.70606E+00 8.84632E+00 9.00432E+00 7.72518E-02 2.03440E-02
 -1      1706 6.27137E+00 2.89019E+00 4.70861E+00 2.05611E+00-8.47438E-02 1.04871E-01
 -1      1707-1.10344E+01-7.50648E-01-5.96474E+00-1.62579E+00-1.00900E-02 2.06383E-02
 -1      1708 3.87987E+00 7.95883E+00 6.03800E+00 8.03327E+00 8.82194E-03 7.56573E-02
 -1      1709 5.11059E-01 8.82081E+00 4.90550E+00 6.71160E+00-4.96613E-02-8.04998E-02
 -1      1710-1.41360E+01-1.07384E+00-7.73234E+00-4.13470E+00 1.11047E-02 4.33843E-02
 -1      1711 3.56355E+00 1.00732E+00 2.22953E+00 8.90350E-01-2.37740E-01 7.13798E-02
 -1      1712 9.85126E+00 5.11140E+00 7.36199E+00 7.53144E+00 6.87033E-02-2.03110E-02
 -1      1713 9.17625E+00 5.71464E+00 7.45590E+00 3.66499E+00 6.77025E-02-3.89190E-03
 -1      1714 9.72583E+00 8.99449E+00 9.47041E+00 9.80229E+00-1.01146E-01 6.87874E-02
 -1      1715 9.42481E+00 4.68501E+00 7.05473E+00 6.60845E+00-5.20313E-02 6.22723E-02
 -1      1716 1.08866E+01 8.54672E+00 9.65778E+00 1.03043E+01-1.80119E-02-2.33094E-02
 -1      1717-5.93472E+00-2.60328E+00-4.63038E+00-2.73784E-01-1.32694E-01-1.42938E-01
 -1      1718 1.12845E+01 8.09094E+00 9.73159E+00 9.84855E+00 2.19826E-02-1.74166E-05
 -1      1719-1.83880E+01-1.74041E+00-1.00885E+01-5.41290E+00-5.04645E-01 2.66615E-01
 -1      1720-1.50924E+01-1.31317E+00-8.31573E+00-4.57259E+00 1.20361E-01 1.39729E-01
 -1      1721-1.37188E+01-7.82606E-01-7.15563E+00-3.23870E+00 8.67574E-03 5.06541E-02
 -1      1722-9.15662E+00 4.12455E-01-4.43579E+00-1.04533E+00-1.83842E-01-1.22753E-02
 -1      1723 5.50887E-01-1.30898E+00-2.12664E-02-3.61699E-01-2.03757E-01-7.66413E-02
 -1      1724 6.40449E+00 1.08905E+01 8.64577E+00 7.16558E+00 3.57378E-01-1.80191E-01
 -1      1725 1.98247E+00 1.94430E+00 1.96299E+00 5.62241E+00 8.77010E-03-5.37208E-02
 -1      1726 9.05800E+00 1.01584E+01 9.58098E+00 8.79564E+00-8.88251E-02 2.65284E-01
 -1      1727 1.40049E+01 1.25326E+01 1.36508E+01 1.09290E+01-4.38224E-02 3.13542E-01
 -1      1728 1.78715E+01 1.53441E+01 1.62180E+01 1.23040E+01 6.25209E-02-3.23021E-01
 -1      1729 1.64312E+01 1.41569E+01 1.46169E+01 1.26412E+01 1.22726E-02-1.70818E-01
 -1      1730 1.63849E+01 1.43119E+01 1.49824E+01 1.23343E+01 6.61559E-02-1.43243E-02
 -1      1731 1.53143E+01 1.30248E+01 1.41648E+01 1.15430E+01-1.02024E-02-2.04393E-02
 -1      1732 1.27107E+01 1.00351E+01 1.13995E+01 9.79664E+00-8.53980E-02 3.42227E-02
 -1      1733 7.70092E+00 5.11008E+00 6.20969E+00 7.78331E+00 3.09472E-02-2.13559E-02
 -1      1734 2.32633E+00 6.72181E-01 1.33966E+00 5.95768E+00 4.12362E-03 5.81526E-02
 -1      1735-1.27595E+00-2.06918E+00-1.33801E+00 5.15857E+00-5.77230E-02 9.84357E-02
 -1      1736-9.84034E-01-1.19402E+00-9.77513E-01 5.66498E+00 2.05665E-01-6.70307E-02
 -1      1737 7.65036E+00 9.39063E+00 8.64139E+00 8.25192E+00 4.41829E-02 1.26358E-02
 -1      1738 1.31910E+01 1.14331E+01 1.18410E+01 1.15153E+01-7.24295E-02 7.45439E-02
 -1      1739 1.40750E+01 1.19435E+01 1.32158E+01 1.22813E+01 6.58904E-02-9.40454E-02
 -1      1740 1.48967E+01 1.25327E+01 1.35986E+01 1.26459E+01 2.22225E-01-1.63663E-01
 -1      1741 1.50300E+01 1.28415E+01 1.42763E+01 1.25494E+01 1.43813E-01-1.90985E-02
 -1      1742 1.34418E+01 1.10368E+01 1.21967E+01 1.15617E+01-2.73127E-02 2.90258E-02
 -1      1743 1.15391E+01 8.96979E+00 1.01522E+01 9.90173E+00-1.00829E-01-8.81160E-02
 -1      1744 8.27100E+00 6.19516E+00 7.19374E+00 7.79415E+00-7.57095E-02-1.71438E-01
 -1      1745 5.18827E+00 3.43826E+00 4.55086E+00 5.91943E+00-1.54034E-02 7.02964E-02
 -1      1746 2.52512E+00 1.83287E+00 1.86100E+00 5.05556E+00 1.08844E-01 2.30354E-01
 -1      1747 6.09128E+00 5.87207E+00 6.02080E+00 5.65416E+00 1.17681E-01-4.17585E-02
 -1      1748-2.73030E+00 5.19441E+00 1.23181E+00 1.74522E+00-3.48841E-02-1.88467E-01
 -1      1749 2.57718E+00 1.29128E+01 7.15959E+00 4.09442E+00-3.00205E-02 3.32100E-01
 -1      1750 3.26049E+00 1.56522E+01 9.79217E+00 7.32463E+00 5.17888E-02 4.99607E-01
 -1      1751-1.59938E+00 7.60097E+00 3.65639E+00 7.52106E+00-7.08293E-02-2.07530E-01
 -1      1752 4.10044E+00 1.41040E+01 1.03860E+01 4.41259E+00 4.97084E-02-5.98693E-01
 -1      1753 3.56191E+00 1.66388E+01 9.50033E+00 7.37986E+00 2.96250E-03-4.24781E-01
 -1      1754 1.17968E+00 8.58781E+00 4.17256E+00 7.68729E+00 1.29672E-01 6.19836E-01
 -1      1755-4.32020E+01-3.01888E+01-3.66881E+01 3.37646E+00-1.82138E-01 1.13627E-01
 -1      1756-2.63106E+01-1.65732E+00-1.34491E+01-4.47573E+00 1.48060E+00 2.58368E-01
 -1      1757-1.89315E+01-2.80323E+00-1.05696E+01-7.13012E+00 6.62435E-01-2.28667E-01
 -1      1758-1.95546E+01-2.65130E+00-1.12778E+01-6.70812E+00-3.96071E-01-1.96237E-01
 -1      1759-1.84233E+01-1.80935E+00-1.00740E+01-6.46157E+00-1.36840E-01-8.01009E-02
 -1      1760-1.86324E+01-2.57408E+00-1.05966E+01-6.20753E+00-8.47619E-02 5.55346E-02
 -1      1761-1.80609E+01-3.34098E+00-1.06027E+01-5.77755E+00 1.20631E-01 3.81502E-02
 -1      1762-1.73811E+01-4.97532E+00-1.12078E+01-4.98687E+00 1.70963E-01-9.65677E-02
 -1      1763-1.55235E+01-6.86737E+00-1.09830E+01-3.85192E+00-4.86039E-01 5.73196E-02
 -1      1764-1.12579E+01-3.37407E+00-7.22091E+00-3.41396E-01-1.37240E-01-6.85220E-02
 -1      1765 5.26882E+00 2.94872E+01 1.78516E+01-4.97782E+00-9.07379E-02-1.93585E-01
 -1      1766 1.11716E+01 2.66127E+01 1.79912E+01-8.30156E+00 2.07837E-01-1.70980E-01
 -1      1767 7.98628E-01 1.65850E+01 9.46168E+00-7.24753E+00-1.29321E-01-3.96789E-01
 -1      1768-5.43764E+00 1.00069E+01 2.98172E+00-6.84750E+00-3.10277E-01-3.88562E-01
 -1      1769-9.33954E+00 5.67441E+00-1.13843E+00-6.43982E+00-1.23659E-01-4.09668E-01
 -1      1770-1.31449E+01 9.20379E-01-6.18856E+00-6.05782E+00-2.02707E-01-2.94960E-01
 -1      1771-1.60726E+01-4.29816E+00-1.03194E+01-4.75594E+00 1.01019E-01-2.83479E-02
 -1      1772-1.41803E+01-4.81304E+00-8.21611E+00-4.11914E+00-1.56592E-01-4.17498E-02
 -1      1773-1.12266E+01-4.68293E+00-7.67301E+00-2.72074E-01 5.15772E-01 7.89228E-02
 -1      1774 1.03004E+01 1.02427E+01 1.01891E+01 5.35469E+00-1.32857E-02-5.57580E-02
 -1      1775 9.48859E+00 9.52452E+00 9.56425E+00 4.81241E+00 1.28953E-01 3.96901E-02
 -1      1776 1.99320E+01 1.99574E+01 1.99906E+01 3.65809E+00 1.09312E-01 3.25537E-02
 -1      1777 1.97719E+01 1.96473E+01 1.95305E+01 1.40302E+00-5.84120E-02-1.20566E-01
 -1      1778 5.70414E+00 5.58939E+00 5.47686E+00-5.23172E-01-1.27294E-01-1.15142E-01
 -1      1779 1.16607E+01 1.18764E+01 1.20968E+01-1.87071E+00-4.41247E-01 2.22843E-01
 -1      1780-1.63714E+01-1.58881E+01-1.54110E+01 1.18042E+00 4.54956E-01 4.83250E-01
 -1      1781 1.35641E+01 1.35753E+01 1.35918E+01 5.51826E+00-5.96830E-04-1.52321E-02
 -1      1782 6.80876E+00 6.83808E+00 6.87013E+00 5.07899E+00-8.27833E-02-3.12778E-02
 -1      1783 1.30396E+01 1.29810E+01 1.29275E+01 3.77366E+00-5.25340E-02 5.43475E-02
 -1      1784 2.04461E+01 2.03993E+01 2.03605E+01 1.46603E+00 1.88823E-01 3.99562E-02
 -1      1785-4.19184E+00-4.22030E+00-4.25048E+00-7.27744E-01 1.46317E-01 2.90437E-02
 -1      1786 2.69744E+00 2.55060E+00 2.40477E+00-1.89484E+00 4.48554E-01 1.44158E-01
 -1      1787-4.30611E+01-4.32749E+01-4.35059E+01 1.33672E+00 2.98492E-01 2.27591E-01
 -1      1788 1.14568E+01 1.10533E+01 1.11013E+01 7.95169E+00-2.88373E-02-2.01280E-01
 -1      1789 1.25681E+01 1.07100E+01 1.16367E+01 1.19332E+01-1.09666E-01-7.60633E-02
 -1      1790 1.48475E+01 1.27244E+01 1.34900E+01 1.14323E+01-6.63851E-02-1.51126E-02
 -1      1791 1.34385E+01 1.10213E+01 1.22275E+01 1.25648E+01 1.30657E-01-2.02658E-01
 -1      1792 1.46022E+01 1.22695E+01 1.33090E+01 1.22177E+01 1.42278E-01-2.24881E-01
 -1      1793 1.52126E+01 1.30971E+01 1.41521E+01 1.25865E+01 1.56320E-01-5.87181E-02
 -1      1794 1.62180E+01 1.43353E+01 1.53319E+01 1.26644E+01 1.37824E-01-5.38900E-02
 -1      1795 1.42166E+01 1.20920E+01 1.30322E+01 1.24034E+01 8.27962E-02-6.97600E-02
 -1      1796 1.29847E+01 1.08768E+01 1.18895E+01 1.15819E+01 5.19190E-02 3.15343E-03
 -1      1797 1.09298E+01 8.74215E+00 9.83401E+00 1.22004E+01 1.13807E-02-9.53304E-03
 -1      1798 1.09780E+01 9.04750E+00 1.01095E+01 9.81819E+00-1.40153E-02-6.04902E-02
 -1      1799 1.14681E+01 9.29359E+00 1.03788E+01 1.09758E+01-3.18081E-02 3.06018E-02
 -1      1800 6.80225E+00 5.14098E+00 5.97042E+00 6.72917E+00 1.49528E-02-4.13586E-02
 -1      1801 8.67006E+00 6.75776E+00 7.77592E+00 7.87354E+00 9.46977E-02-1.74155E-01
 -1      1802 5.46568E+00 4.33999E+00 4.90185E+00 5.36293E+00-2.44438E-02 2.49059E-02
 -1      1803 4.68050E+00 3.46191E+00 4.02652E+00 6.09895E+00-1.43571E-01 4.86756E-02
 -1      1804 3.09631E+00 2.68945E+00 2.89230E+00 5.34447E+00 9.51979E-02-4.13880E-02
 -1      1805 3.91297E+00 3.14701E+00 3.58062E+00 5.11808E+00-1.21748E-01 1.49724E-01
 -1      1806 4.09417E-02-1.41781E-01-4.32655E-02 5.52539E+00 9.30632E-02-1.67157E-01
 -1      1807 9.23252E+00 7.88027E+00 8.55469E+00 1.04133E+01-1.60385E-01 3.86817E-01
 -1      1808 8.77249E+00 6.23585E+00 7.50267E+00 8.91878E+00 8.09279E-03-5.86470E-02
 -1      1809 4.08780E+00 1.37982E+01 8.87905E+00 4.83069E+00-5.89151E-03 8.84980E-02
 -1      1810-7.75887E-01 1.15343E+01 4.92686E+00 7.01207E+00-9.91925E-02 4.96909E-01
 -1      1811 2.40470E+00 1.52351E+01 8.81813E+00 7.10001E+00 8.85561E-02-1.23428E-01
 -1      1812-2.22013E+00 5.97071E+00 2.04286E+00 7.27662E+00 2.85523E-02 7.56573E-01
 -1      1813 1.09784E+00 1.21400E+01 6.61760E+00 7.31973E+00-8.21565E-02 1.30082E-01
 -1      1814-2.04017E+01 3.05824E+00-8.84765E+00-5.56020E+00 8.85826E-02-7.29290E-02
 -1      1815-2.59856E+01-9.20180E+00-1.75902E+01-6.51333E+00 1.65178E-01-2.93821E-01
 -1      1816-1.15465E+01 4.50499E+00-3.71564E+00-8.23191E+00 1.08882E-01-4.33946E-01
 -1      1817-2.99839E+01-1.33705E+01-2.16729E+01-6.50713E+00-9.66216E-02-1.69687E-01
 -1      1818-1.70848E+01-1.08385E-01-8.67092E+00-6.90238E+00 1.12371E-01-2.42694E-01
 -1      1819-2.38155E+01-7.46595E+00-1.56376E+01-6.36190E+00-1.14741E-01-1.34134E-01
 -1      1820-1.88992E+01-2.51432E+00-1.06803E+01-6.55307E+00-1.07233E-01-1.19244E-01
 -1      1821-1.92106E+01-3.79568E+00-1.15008E+01-5.94672E+00-5.14453E-02-8.42866E-02
 -1      1822-1.78480E+01-1.98792E+00-9.88826E+00-6.15514E+00-1.63302E-01-5.16199E-02
 -1      1823-1.92215E+01-5.52264E+00-1.23696E+01-5.46436E+00 1.32553E-01-8.34977E-02
 -1      1824-2.16309E+01-6.71604E+00-1.41368E+01-5.99400E+00-1.98763E-01-1.80429E-01
 -1      1825-1.09772E+01 1.60755E+00-4.58103E+00-4.64636E+00-8.26093E-02 1.39450E-01
 -1      1826-1.61282E+01-5.14341E+00-1.06337E+01-4.03356E+00-1.75694E-01 2.24004E-01
 -1      1827-1.08713E+01-4.37523E+00-7.62172E+00-3.41124E+00-1.19660E-01-6.92601E-02
 -1      1828-1.63746E+01-6.36302E+00-1.14148E+01-3.57167E+00-2.25152E-01 8.61994E-02
 -1      1829-7.86199E+00-2.21744E+00-5.14111E+00-9.93138E-01-2.96538E-01 1.27376E-01
 -1      1830-1.92600E+01 1.61443E+00-8.82101E+00-9.83568E+00 9.58488E-02 6.23387E-02
 -1      1831 1.27797E+01 1.27746E+01 1.27746E+01 5.52505E+00-1.86612E-07 3.09494E-02
 -1      1832 3.94761E+00 3.93863E+00 3.94233E+00 4.79612E+00 1.11610E-03-3.25515E-02
 -1      1833 1.15706E+01 1.15660E+01 1.15660E+01 5.09029E+00-3.00771E-07-4.86887E-02
 -1      1834 1.37578E+01 1.35990E+01 1.36757E+01 2.64205E+00-8.11557E-03 8.35410E-02
 -1      1835 9.60694E+00 9.60310E+00 9.60310E+00 3.83247E+00-2.30291E-07 1.43242E-02
 -1      1836 6.25713E+00 6.25114E+00 6.25289E+00 1.09112E-01 1.85644E-02-8.06068E-02
 -1      1837 2.18832E-01 2.18754E-01 2.18749E-01 1.42689E+00 2.91813E-07-1.29946E-01
 -1      1838-2.93999E+00-2.95219E+00-2.94550E+00-1.65833E+00 1.44602E-02-1.58384E-02
 -1      1839 1.35548E+01 1.35494E+01 1.35494E+01-8.44858E-01 3.34459E-07 2.02557E-02
 -1      1840-1.56570E+01-1.52147E+01-1.54328E+01-2.58172E+00 3.27470E-03 2.93547E-01
 -1      1841-1.40117E+01-1.40061E+01-1.40061E+01-2.34227E+00-3.17195E-07 1.91041E-01
 -1      1842-1.31927E+01-1.31875E+01-1.31875E+01 1.07798E+00 9.05639E-07 5.04457E-01
 -1      1843-6.15183E-01-6.16366E-01-6.15651E-01 5.25119E+00 2.50393E-02-1.20927E-03
 -1      1844 5.66912E+00 9.40044E+00 7.37911E+00 8.50735E+00-1.01240E-01-2.75016E-02
 -1      1845-4.18886E+00 1.93140E+00-9.27035E-01 7.04636E+00-2.81356E-01-5.47798E-01
 -1      1846 6.94229E+00 6.11565E+00 6.40056E+00 9.68833E+00 1.94817E-01-1.54154E-01
 -1      1847 8.11811E+00 7.56749E+00 7.41857E+00 9.54098E+00 7.53692E-02 1.98577E-02
 -1      1848 1.22551E+01 9.99428E+00 1.11165E+01 1.00986E+01-2.10798E-02-1.60260E-02
 -1      1849 9.52589E+00 7.27265E+00 8.40024E+00 1.01910E+01 2.80929E-02 1.94522E-02
 -1      1850 8.65510E+00 4.07557E+00 6.30028E+00 8.14351E+00-3.38051E-03 5.52321E-02
 -1      1851 1.13910E+01 7.18684E+00 9.34339E+00 8.99045E+00 1.56990E-02 6.17971E-02
 -1      1852 1.17574E+01 8.50202E+00 9.95435E+00 5.57745E+00-9.11646E-02 1.38255E-01
 -1      1853 1.09652E+01 7.60398E+00 9.46188E+00 6.13266E+00 2.12700E-02 3.29962E-02
 -1      1854 8.46668E+00 7.96045E+00 8.53355E+00 5.49156E+00 1.86777E-01 2.86378E-02
 -1      1855 2.09568E+00-1.18050E-01 1.04524E+00 3.64464E+00 8.25913E-02 1.31331E-01
 -1      1856 1.99436E+00-5.96564E-02 7.64217E-01 4.63563E+00 2.01838E-01 5.53312E-02
 -1      1857-1.36672E+01-1.61907E+01-1.48258E+01 4.00935E-01-1.02718E-01-5.67638E-02
 -1      1858 5.59602E+00 2.92872E+00 4.14679E+00 1.18716E+00 1.82140E-02-2.04874E-01
 -1      1859-4.76285E+01-3.41407E+01-3.99978E+01 1.98694E+00 5.51501E-01-3.38055E-01
 -1      1860 3.65553E+00 9.09142E+00 6.63176E+00 3.76093E-01-7.95153E-01-3.42539E-01
 -1      1861-2.20311E+01-1.49513E+00-1.13000E+01-3.08185E+00 3.31558E-01-7.92940E-01
 -1      1862-1.17883E+01 2.39313E+00-4.57390E+00-4.78376E+00-2.90412E-01-3.83766E-01
 -1      1863-2.26367E+01-7.75905E+00-1.56198E+01-4.80849E+00-3.28946E-01-3.52066E-01
 -1      1864-1.30563E+01-4.77253E-01-6.86819E+00-3.92282E+00-7.44333E-02-7.58663E-02
 -1      1865-1.70677E+01-3.79043E+00-1.02486E+01-4.17624E+00-1.17307E-01-1.85355E-01
 -1      1866-1.34311E+01-4.04392E+00-8.81921E+00-1.05933E+00 3.05247E-01-2.67592E-01
 -1      1867-8.51752E+00 2.37044E+00-2.72068E+00-1.78326E+00 1.77378E-02-9.73854E-02
 -1      1868-6.75466E-01 7.35797E+00 3.52520E+00 2.31971E+00 1.02893E-01-2.75941E-01
 -1      1869-2.75100E+00 6.08495E+00 1.75953E+00 7.57041E+00 1.85478E-01 7.51118E-02
 -1      1870 6.07267E+00 5.39799E+00 5.86717E+00 5.36317E+00 2.03325E-01 4.46148E-02
 -1      1871 1.43410E+01 1.33690E+01 1.40827E+01 5.44231E+00 6.41981E-02 9.50229E-02
 -1      1872 1.01738E+01 8.56677E+00 9.15513E+00 5.38191E+00-4.45228E-02 1.21809E-01
 -1      1873 1.05372E+01 9.58997E+00 1.00215E+01 5.16883E+00 2.41419E-01-8.07716E-03
 -1      1874-6.36544E+00 2.34742E+00-2.37998E+00 5.44460E+00-2.78587E-02 1.20906E-01
 -1      1875 2.33731E+00 8.44732E+00 5.45386E+00 8.99891E-01-3.77477E-02-8.44958E-02
 -1      1876 7.59914E+00 8.89583E+00 8.42331E+00 8.42653E+00-6.65847E-03 2.02271E-01
 -1      1877 2.88836E+00 5.59558E+00 4.57862E+00 8.00758E+00-1.45123E-01 2.93390E-01
 -1      1878 8.33698E+00 6.92725E+00 7.58430E+00 1.02872E+01 6.59691E-02 9.10650E-02
 -1      1879 9.52983E+00 7.54539E+00 8.30985E+00 1.02878E+01 5.67908E-02-1.81856E-01
 -1      1880 1.04752E+01 6.93765E+00 8.75346E+00 9.41243E+00 6.85125E-02 4.33467E-02
 -1      1881 1.08950E+01 7.71287E+00 9.31041E+00 9.90294E+00 5.36465E-02-1.95704E-02
 -1      1882 1.01417E+01 5.71699E+00 8.04254E+00 6.56878E+00 3.01364E-01 6.34980E-02
 -1      1883 1.39853E+01 9.27815E+00 1.15903E+01 7.61111E+00 1.49188E-01 1.30951E-01
 -1      1884 4.67228E+00 7.80623E+00 6.38951E+00 6.54628E+00-6.29389E-02 6.29123E-02
 -1      1885-9.36652E-01 7.85390E+00 3.71861E+00 5.94587E+00 3.22941E-01-4.09401E-02
 -1      1886 7.21206E+00 1.55940E+01 1.11720E+01-6.98715E-02-1.45714E-01-2.43143E-01
 -1      1887 6.23685E-01-3.03947E+00-1.29769E+00 2.31598E+00 8.30943E-02-2.39410E-01
 -1      1888 1.81454E+00-1.89130E+00 3.34736E-01 3.42256E+00 9.69563E-02 3.21037E-02
 -1      1889-1.35090E+01-1.30805E+01-1.32557E+01-4.38914E-01-1.05942E+00 1.26884E-01
 -1      1890 5.18420E+00 4.30390E+00 4.09266E+00-2.71941E-01-6.20200E-01 1.47855E-01
 -1      1891-1.69252E+01-5.59805E-01-8.83524E+00-4.55673E+00-1.30793E-01-2.81690E-01
 -1      1892-3.05247E+01-1.38157E+01-2.17036E+01-5.84011E+00 2.06745E-01-2.34411E-01
 -1      1893-1.27190E+01 6.70635E-01-6.09075E+00-4.49208E+00-1.36634E-01-2.21340E-01
 -1      1894-1.94419E+01-5.49775E+00-1.25389E+01-4.57626E+00-2.50181E-01-2.73682E-01
 -1      1895-9.77695E+00 1.55125E+00-3.97425E+00-2.80128E+00-2.40372E-02-2.57916E-01
 -1      1896-1.27467E+01-4.31800E-01-6.70510E+00-3.17189E+00 8.42922E-03-2.06794E-01
 -1      1897 3.24933E+00 9.52351E+00 6.23831E+00 6.29835E+00-1.94019E-02 8.85462E-03
 -1      1898 1.08068E+01 5.46612E+00 8.22231E+00 4.26414E+00-1.17184E-01 3.60196E-02
 -1      1899 9.85635E+00 8.33144E+00 9.30377E+00 8.21098E+00 5.88426E-03 1.09880E-01
 -1      1900 7.57644E+00 1.50812E+01 1.12019E+01 5.38439E+00 1.73177E-02-2.51901E-02
 -1      1901-1.27041E+01-5.08169E+00-8.89567E+00 2.75234E+00 1.04328E-01-1.51144E-02
 -1      1902 1.14261E+01 8.62413E+00 9.99002E+00 5.21395E+00 8.81935E-02 1.21759E-01
 -1      1903 7.24741E+00 7.55546E+00 7.35612E+00 7.89496E+00 5.49190E-03-4.09276E-02
 -1      1904 9.64017E+00 6.53949E+00 8.06217E+00 8.00245E+00 6.38452E-02 4.25379E-03
 -1      1905 9.74216E+00 3.39537E+00 6.51185E+00 6.81606E+00 7.99460E-02 5.04278E-03
 -1      1906-2.31638E+00-5.05224E+00-3.97614E+00 2.11027E+00 6.72015E-02-2.70671E-02
 -1      1907-5.07788E+00 9.91410E+00 3.08625E+00-4.28764E-01 1.31841E-01-4.13743E-01
 -1      1908-6.83728E+00 2.88194E+00-2.08374E+00-1.28328E+00 8.06527E-03 8.38752E-03
 -1      1909 1.04289E+01 5.41778E+00 7.96656E+00 7.52951E+00 7.98819E-02 1.14198E-03
 -1      1910 9.95145E+00 4.24372E+00 7.14412E+00 5.82091E+00-3.17598E-02 1.16742E-01
 -1      1911-4.23103E+00 6.24539E+00 9.51551E-01-2.33167E+00 3.25201E-02 1.20116E-01
 -1      1912-1.07961E+01-1.79220E+00-6.13328E+00 5.99568E-01 4.19303E-02 2.79037E-02
 -1      1913-1.52077E+00 1.10262E+01 4.85953E+00-2.63378E+00-2.43569E-02 6.31825E-02
 -1      1914-2.22878E+01-1.75255E+01-2.02356E+01 1.45274E+00-1.83337E-01-3.17834E-02
 -1      1915 9.30668E+00 3.50346E+00 6.48811E+00 3.13446E+00 1.43473E-01-1.34898E-01
 -1      1916-2.53216E+00 8.53785E+00 3.02114E+00-2.83447E+00 3.36393E-02 1.09596E-01
 -1      1917-1.09349E+00 6.62744E+00 2.48392E+00 4.47591E+00-5.17486E-02-2.30967E-03
 -1      1918 4.18664E+00 1.76901E+00 2.92606E+00 6.20805E+00 1.78610E-02-7.99504E-03
 -1      1919 5.77963E+00 4.09988E+00 4.93676E+00 6.29420E+00 3.78086E-02 3.01627E-02
 -1      1920 5.77115E+00-1.38332E+00 2.09876E+00 5.58864E+00 5.86660E-02-1.21228E-01
 -1      1921 7.40162E+00 9.15677E-01 4.12687E+00 6.18542E+00 2.95675E-02-3.02456E-02
 -1      1922-1.17547E+01-1.28416E+01-1.20212E+01 2.54446E+00 1.11680E-01-1.98289E-01
 -1      1923 4.02700E+00 1.38640E-01 1.99239E+00 3.29882E+00 6.53008E-02-9.74448E-02
 -1      1924-4.49155E+00 3.27783E+00-5.74170E-01-5.40123E-01 3.80477E-02 9.14142E-02
 -1      1925-3.77811E+00 4.11946E+00 1.48932E-01-9.12990E-01 9.71508E-02 1.31559E-01
 -1      1926 2.98302E-01 3.51762E+00 1.90004E+00 4.96720E+00-8.45812E-02 1.18229E-01
 -1      1927-5.04211E+00-2.15934E-01-2.34086E+00 4.13216E+00 5.84743E-02 4.07534E-02
 -1      1928 3.00558E+00 2.49750E+00 2.87287E+00 6.30511E+00 4.59052E-02 3.54100E-02
 -1      1929 5.30815E+00 5.55871E+00 5.46036E+00 6.46567E+00 4.79645E-03 8.30518E-03
 -1      1930 5.73510E+00 5.86971E+00 5.76137E+00 4.59084E+00 1.91166E-02-6.17565E-02
 -1      1931 3.05056E+00 3.85389E+00 3.49528E+00 6.50980E+00 2.12419E-02-2.59774E-02
 -1      1932 2.69171E+00 4.54053E+00 3.60146E+00 6.04764E+00-9.79007E-02 7.94500E-02
 -1      1933 3.60459E+00 7.53665E+00 5.45814E+00 3.66662E+00-8.90929E-02 1.00138E-01
 -1      1934 8.42406E+00 1.02013E+01 9.47605E+00 4.53300E+00-5.59252E-03-6.20796E-02
 -1      1935-5.77343E+00 1.97394E+00-1.87078E+00-9.01557E-01 1.57837E-01 1.43805E-01
 -1      1936-3.58750E+00 4.41777E+00 4.15970E-01-1.04884E+00 5.57588E-02 1.75998E-01
 -1      1937-4.30006E+00 1.23440E+00-1.56529E+00 9.39197E-01 5.16620E-02 2.92481E-02
 -1      1938 2.94284E+00-3.31622E+00-3.76927E-01 3.84240E+00 6.55916E-02-3.02808E-02
 -1      1939 9.29112E+00 2.31221E+00 5.85251E+00 4.45274E+00-3.96568E-02-9.89658E-02
 -1      1940-1.44312E+00 5.50282E+00 2.14931E+00 9.66018E-01 5.79693E-02-2.19485E-02
 -1      1941-8.63672E+00-1.32839E+00-4.91905E+00 2.50543E-01 8.34933E-03 6.83732E-02
 -1      1942 1.86229E+00 8.29198E+00 4.92939E+00 3.59220E+00 4.62669E-02 9.86963E-02
 -1      1943-2.74354E+01-1.78659E+01-2.25391E+01 1.87531E+00 1.39240E-01-2.76450E-01
 -1      1944 4.08581E+00 7.47321E+00 5.73602E+00 1.75114E+00-5.80366E-02 1.78701E-01
 -1      1945-8.94050E+00-6.61740E+00-7.94711E+00 2.40714E+00-4.07357E-02 4.21694E-04
 -1      1946-9.52133E+00-4.89731E-01-5.10816E+00-4.85119E-01-1.83818E-01-5.69928E-02
 -1      1947 3.17564E-01 7.43042E+00 3.91350E+00 2.73008E+00 4.40198E-02-2.10821E-03
 -1      1948 4.75473E+00-5.35659E-01 2.12439E+00 6.13597E+00 4.80476E-02 7.26817E-03
 -1      1949 6.26366E+00 2.14013E+00 4.15821E+00 6.37637E+00 6.51174E-02-4.94120E-02
 -1      1950 1.04779E+01 4.95415E+00 7.70552E+00 5.06319E+00-1.17602E-02 3.28763E-02
 -1      1951-7.50363E+00 5.18892E-01-3.39567E+00-4.73749E-01 8.15513E-02 8.46303E-02
 -1      1952-1.38795E+01-5.77863E+00-9.84701E+00-6.13887E-02 4.52182E-02 4.72794E-02
 -1      1953-3.13258E+00 1.33880E+00-1.10602E+00 1.73585E+00-5.63546E-02 8.40684E-02
 -1      1954-4.08052E+00 4.52944E-01-1.81527E+00 1.52196E+00 1.96605E-02-1.91155E-02
 -1      1955 4.27941E+00 7.21511E-01 2.51463E+00 5.46989E+00-1.76737E-01 9.42958E-02
 -1      1956 9.57647E+00 5.25849E+00 7.36102E+00 4.87998E+00-5.94543E-02 7.97958E-02
 -1      1957 6.99516E+00 4.65596E+00 5.80452E+00 4.94005E+00 3.32744E-02-4.87095E-02
 -1      1958 5.68855E+00 8.26468E-01 3.21987E+00 4.26275E+00-3.47616E-02-3.12568E-02
 -1      1959 4.93102E+00-1.87590E+00 1.61855E+00 5.16817E+00-8.31409E-02-8.53843E-02
 -1      1960 1.38077E+01 7.84048E+00 1.07507E+01 4.73149E+00-1.72197E-01 2.58711E-02
 -1      1961-4.09367E+00 1.30049E+00-1.41867E+00 1.79716E+00-2.58452E-02 4.87698E-02
 -1      1962 1.49975E+00-1.28364E+00 2.96162E-01 4.42637E+00 8.17314E-02-1.92173E-01
 -1      1963 6.02320E+00 6.86164E+00 6.46130E+00 2.64452E+00 2.59350E-02-8.35998E-02
 -1      1964 9.84384E-01 4.55617E-01 8.90627E-01 3.45710E+00 1.04275E-01-1.12173E-01
 -1      1965-1.16717E+00 2.06464E+00 4.11605E-01 2.80719E+00 1.26710E-03-1.58286E-02
 -1      1966-3.10699E+00-1.74649E-01-1.59897E+00 2.76816E+00 7.16712E-02-7.38748E-02
 -1      1967 8.40841E-01 2.67925E+00 1.73655E+00 2.95003E+00 1.01951E-02-3.33859E-02
 -1      1968-6.87608E-01 4.45371E-01-1.23290E-01 3.31233E+00 1.20614E-02-1.65426E-02
 -1      1969-1.63342E+00 2.43907E+00 4.42516E-01 2.85655E+00-2.31373E-02 3.78516E-02
 -1      1970 8.60625E+00 8.29601E+00 8.28478E+00 5.51725E+00 7.35282E-02 2.56613E-02
 -1      1971 8.72247E+00 5.45407E+00 7.09162E+00 6.11972E+00-1.99089E-01-1.94031E-01
 -1      1972 1.06887E+01 7.55690E+00 9.33377E+00 5.39257E+00 3.15051E-02-8.80379E-02
 -1      1973 1.12017E+01 6.88279E+00 8.98588E+00 9.12393E+00-2.50898E-01-6.02803E-02
 -1      1974 9.05853E+00 4.62753E+00 6.96473E+00 8.18053E+00-1.70653E-01-2.77470E-01
 -1      1975 1.13102E+01 8.95153E+00 1.03163E+01 1.03098E+01 6.54353E-02 1.04514E-01
 -1      1976 6.64321E+00 4.24129E+00 5.42679E+00 1.01213E+01 2.01452E-02 9.77498E-02
 -1      1977 3.93039E+00 3.70360E+00 3.86505E+00 9.29957E+00-6.06123E-03-9.80410E-02
 -1      1978 1.01081E+01 9.70025E+00 9.97289E+00 9.56784E+00 2.39719E-02-1.53785E-01
 -1      1979-2.78265E+00 3.77536E+00 6.29437E-01 7.13605E+00 1.74968E-02 2.06160E-01
 -1      1980 8.21999E-01 4.40872E+00 2.73378E+00 8.07417E+00-1.80980E-01 8.57219E-02
 -1      1981-1.39520E+00 7.34598E+00 2.99932E+00 7.52587E+00-2.68487E-01-3.78425E-02
 -1      1982 3.25023E-01 7.36355E+00 4.47471E+00 2.44173E+00 5.64808E-01-4.34587E-01
 -1      1983-2.93125E+00 5.71777E+00 1.53099E+00 1.79563E-01 4.88304E-02 1.87168E-01
 -1      1984-5.73310E-01 5.19101E+00 2.19051E+00 4.05865E-01 1.75503E-02-1.48874E-01
 -1      1985-6.76239E+00 5.68116E+00-4.79414E-01-3.81559E+00-2.67950E-02 1.29564E-01
 -1      1986-1.46822E+01-2.83167E+00-9.06105E+00-3.52523E+00 1.79339E-01 2.26536E-01
 -1      1987-1.67908E+01-3.59722E+00-9.97454E+00-4.60508E+00 8.71252E-03 9.87599E-02
 -1      1988-1.62096E+01-3.27168E+00-9.64041E+00-4.39910E+00 7.93591E-02 1.81260E-01
 -1      1989-3.39267E+01-1.72523E+01-2.55060E+01-5.64193E+00 1.56126E-01 2.54234E-01
 -1      1990-2.63477E+01-9.85671E+00-1.80999E+01-4.36248E+00 1.08195E-01 1.90565E-01
 -1      1991-4.79995E+01-3.21691E+01-4.00749E+01 2.58056E+00 4.76000E-01 4.97820E-01
 -1      1992-4.65135E+01-2.62391E+01-3.66695E+01-4.48007E+00 3.08201E-01 5.23829E-01
 -1      1993-1.11768E+01 3.43903E+00-3.99377E+00-4.91910E-01-1.02770E-01 4.31291E-02
 -1      1994 2.07204E+01 2.72258E+01 2.38886E+01 8.86238E-04 1.22108E+00 5.64715E-01
 -1      1995 8.91597E+00 5.85358E+00 7.22557E+00 1.33730E+00 4.99534E-01 1.39416E-01
 -1      1996-7.04204E+00-9.86777E+00-8.42964E+00 2.00189E-01 2.74051E-01 8.89284E-02
 -1      1997 9.22673E+00 7.08574E+00 8.37227E+00 4.57316E+00-3.49984E-02-8.79223E-02
 -1      1998 4.71525E+00 2.43269E+00 3.36532E+00 3.67125E+00 6.06896E-02 7.78807E-02
 -1      1999 4.95441E+00 4.02658E+00 4.48550E+00 5.42107E+00-4.25610E-02-3.40225E-03
 -1      2000 7.51497E+00 6.39391E+00 6.93048E+00 5.08538E+00-1.13459E-01 1.81513E-02
 -1      2001 1.60525E+01 1.27519E+01 1.44981E+01 4.98004E+00 1.08311E-01-1.55951E-02
 -1      2002 1.09299E+01 9.77902E+00 1.01233E+01 5.26337E+00 1.60919E-01 9.42098E-02
 -1      2003-5.63798E+00 3.88903E+00-1.35444E+00 5.72452E+00 2.85566E-01-3.67601E-01
 -1      2004 1.52341E+01 1.12830E+01 1.31477E+01 6.81197E+00-1.61534E-01-2.52160E-01
 -1      2005 6.31095E+00 9.83363E-01 3.64042E+00 6.10574E+00-3.60451E-02-8.62485E-02
 -1      2006 1.49911E+01 1.07988E+01 1.29825E+01 7.66643E+00-1.29149E-01-3.13658E-01
 -1      2007 6.24155E+00 4.64458E+00 5.50084E+00 5.42060E+00 8.51085E-02 6.17971E-02
 -1      2008 9.31023E+00 3.31517E+00 6.28286E+00 6.94402E+00-6.25871E-02-5.29249E-02
 -1      2009 1.21633E+01 8.87462E+00 1.03852E+01 9.90705E+00-5.94237E-02 1.31722E-02
 -1      2010 6.16685E+00 2.71087E+00 4.41096E+00 9.39836E+00-1.51879E-01-5.41942E-02
 -1      2011 9.48019E+00 8.05436E+00 8.72046E+00 9.93299E+00 1.04110E-01-1.01152E-01
 -1      2012 5.11873E+00 3.75758E+00 4.54668E+00 1.00810E+01 1.33766E-01-7.80025E-02
 -1      2013 4.88413E+00 6.23897E+00 5.25684E+00 8.35382E+00-1.20499E-01 8.81234E-02
 -1      2014 7.61605E+00 8.75584E+00 8.04066E+00 8.87295E+00-1.32485E-01-6.21368E-03
 -1      2015 2.50960E-01 8.93949E+00 4.41042E+00 6.22000E+00-1.50164E-01 6.23079E-02
 -1      2016-8.77422E+00 4.42389E-01-4.32886E+00-8.24477E-01 1.16088E-01 1.70914E-01
 -1      2017-8.44197E+00-6.44214E-01-4.32648E+00 2.93595E+00 4.08057E-02 9.94593E-03
 -1      2018-5.87568E+00 5.15239E+00-3.44452E-01-1.88837E+00 1.57496E-01 7.18968E-02
 -1      2019-1.01207E+01-9.27673E-01-5.46459E+00 1.45805E-01 1.08569E-02 1.71788E-01
 -1      2020-1.44020E+01-1.46380E+00-7.83283E+00-4.23737E+00 9.73347E-02 1.11588E-01
 -1      2021-1.57120E+01-3.28712E+00-9.34339E+00-3.93663E+00 5.85105E-02 7.73909E-03
 -1      2022-2.27353E+01-8.11669E+00-1.50291E+01-5.12374E+00 1.67288E-01 4.86862E-02
 -1      2023-1.50930E+01-1.27509E+00-8.11927E+00-4.64161E+00 1.25509E-02 2.44239E-03
 -1      2024 1.02679E+01 1.01780E+01 9.89771E+00-2.38038E-01 7.98935E-01-3.52195E-01
 -1      2025-2.81323E+01-2.76767E+01-2.82759E+01-7.08136E-02 1.43780E+00 1.47963E-01
 -1      2026-4.66862E+00-7.79086E+00-6.37387E+00 2.94835E+00 1.18776E-01 3.45284E-02
 -1      2027-7.71187E+00-1.07368E+01-9.28565E+00 1.82175E+00 3.24738E-01 1.77369E-02
 -1      2028 3.32394E+01 2.83484E+01 3.04872E+01 3.87405E+00 1.56688E-02 5.21375E-02
 -1      2029 1.15984E+01 6.63476E+00 9.05762E+00 7.60239E+00-9.64560E-02 8.48068E-03
 -1      2030 1.14552E+01 1.00112E+01 1.06932E+01 8.02927E+00-2.45145E-02 6.96948E-03
 -1      2031 4.99389E+00 7.95077E+00 6.34104E+00 6.71775E+00 4.07852E-02-5.68376E-02
 -1      2032-9.51948E+00 1.35088E+00-4.27889E+00-2.51234E+00 3.67605E-02-3.04621E-02
 -1      2033 1.22223E+01 6.97488E+00 9.62956E+00 2.84828E+00 8.81193E-03 1.09552E-01
 -1      2034-8.83339E+00-3.06278E+00-5.08376E+00 1.22113E+00 1.51337E-01 4.53608E-01
 -1      2035 2.47225E+00 8.48806E+00 5.35888E+00 6.57687E+00-1.50570E-01 5.04471E-02
 -1      2036 6.07607E+00 6.69628E+00 6.41399E+00 7.40232E+00 7.43503E-02-6.88713E-02
 -1      2037 1.12420E+01 8.01044E+00 9.62433E+00 8.03687E+00-5.83074E-02 4.52830E-02
 -1      2038 6.21310E-01 8.54035E+00 4.86600E+00 5.55189E+00 1.38935E-01-8.86233E-02
 -1      2039-1.25866E+01-2.43173E+00-7.61240E+00-1.57484E+00 1.23772E-01 1.72644E-01
 -1      2040-8.60791E+00 3.77107E+00-2.82980E+00-2.24649E+00 3.82467E-02-4.48510E-02
 -1      2041-1.01307E+01 1.65314E-02-5.22093E+00-2.13098E+00 5.31510E-02 9.02355E-03
 -1      2042 5.29334E-01-2.04983E+00-7.77102E-01 2.07603E+00 3.52895E-01-1.64631E-01
 -1      2043 2.73224E+00-8.86814E-01 9.56094E-01 5.30399E+00 1.28297E-01 3.38002E-03
 -1      2044 2.36341E-01 8.23156E+00 4.34767E+00 4.66522E+00-2.97688E-02-1.63442E-02
 -1      2045 2.71625E-01 5.50826E+00 2.69377E+00 4.63936E+00 1.34183E-01 1.51229E-02
 -1      2046 2.04083E+00 5.80218E+00 3.89174E+00 4.69268E+00 1.08716E-01-1.60910E-02
 -1      2047 5.03262E+00 3.12976E+00 4.13284E+00 6.38094E+00-7.98507E-02 4.30527E-02
 -1      2048 1.82204E+00-9.11281E-01 5.27308E-01 6.31546E+00-4.70263E-02 2.73887E-02
 -1      2049-6.26290E+00 1.42482E+00-2.27581E+00-6.83498E-01 1.94801E-02-7.87475E-02
 -1      2050-5.71398E+00 1.53483E+00-2.06776E+00-6.73989E-01-3.71710E-02-6.26831E-02
 -1      2051 1.00984E+00 3.86617E+00 2.46487E+00 4.70310E+00-3.82155E-03-4.41056E-02
 -1      2052 2.88526E+00 4.56843E+00 3.72757E+00 5.16717E+00-3.22747E-03-3.14086E-02
 -1      2053-2.23193E+00 2.71692E+00 3.34687E-01 2.48308E+00-2.62161E-03-1.09324E-01
 -1      2054-5.61992E+00 2.33656E+00-1.75747E+00 3.28031E-01-1.38345E-02-1.02943E-01
 -1      2055-2.68154E+00 5.40977E+00 1.27405E+00 6.05097E-01 1.99371E-02-4.75134E-02
 -1      2056-5.32378E+00 1.53466E+00-1.91402E+00 2.05378E+00 2.26159E-02-2.46481E-02
 -1      2057 6.43519E+00 2.75545E+00 4.83459E+00 2.89024E+00 3.86162E-02 1.38925E-01
 -1      2058-4.41704E+00-5.73338E+00-5.15317E+00 2.55096E+00-1.32380E-01 4.00852E-03
 -1      2059-7.00521E+00-1.10543E-01-3.48757E+00-4.43612E-02-4.64088E-03-9.13278E-02
 -1      2060-4.10282E+00 2.79871E+00-6.55286E-01 2.86870E-01-5.94192E-02-7.65354E-02
 -1      2061 3.77568E+00 9.79087E+00 6.99796E+00 4.22248E+00 3.52887E-02 7.66713E-02
 -1      2062-1.61190E+01-7.61919E+00-1.18082E+01 1.12312E+00-4.63686E-02 1.09382E-01
 -1      2063-4.59085E+00 4.18881E+00 1.36754E-01-4.82002E-01-2.10032E-02-3.46355E-02
 -1      2064-3.34966E+00-5.00060E-01-2.15070E+00 2.15643E+00-2.47837E-01-2.06371E-02
 -1      2065 6.85508E+00 2.50768E+00 4.63169E+00 6.50710E+00-7.47203E-02-1.84225E-03
 -1      2066 7.07230E-01-4.63224E+00-1.96427E+00 6.20263E+00-4.87862E-02-2.81292E-03
 -1      2067 7.49196E+00 4.75674E+00 6.19739E+00 5.03129E+00-7.33625E-02 3.64294E-02
 -1      2068 4.60780E+00 4.67298E+00 4.50878E+00 6.25303E+00-9.64051E-03-1.16411E-02
 -1      2069 1.99148E+00 1.22987E+00 1.53064E+00 6.41066E+00-1.08933E-01 2.55394E-02
 -1      2070 2.39715E+00 4.75241E+00 3.50652E+00 3.66526E+00-8.98708E-03-3.54825E-02
 -1      2071 6.29408E+00 6.18630E+00 6.25473E+00 4.69257E+00-8.29341E-02-5.49435E-03
 -1      2072-7.43909E+00 3.06338E-01-3.53311E+00-3.44230E-02-4.95290E-02 1.67285E-02
 -1      2073-6.97895E+00 6.03038E-01-3.17312E+00-4.22892E-01-4.07413E-02-1.20317E-03
 -1      2074-2.69232E+00 1.37469E+00-6.42345E-01 1.56286E+00 2.91211E-02 6.25003E-02
 -1      2075-4.89331E+00-3.58924E-01-2.61021E+00 1.81915E+00-5.91748E-02 1.17032E-01
 -1      2076 6.16809E+00-2.91057E-01 3.03488E+00 3.97681E+00-5.55430E-02 7.72717E-02
 -1      2077 3.89958E+00-2.03741E+00 1.04730E+00 3.92714E+00-1.55478E-02 1.27107E-01
 -1      2078-5.36053E+00-3.31242E+00-4.46960E+00 2.61386E+00-1.08008E-01-4.52659E-02
 -1      2079 1.05303E+01 5.96022E+00 8.33790E+00 5.05588E+00 1.04049E-01-4.57526E-02
 -1      2080 1.02014E+01 4.25949E+00 7.21267E+00 5.13366E+00-1.84400E-02-1.15980E-02
 -1      2081 7.61178E+00 5.83907E-01 4.23609E+00 6.17296E+00 1.86778E-02 2.16348E-02
 -1      2082 2.55852E+00-3.20785E+00-3.74650E-01 4.67763E+00 6.63577E-02 2.02382E-02
 -1      2083 9.71651E+00 3.47329E+00 6.56965E+00 4.06954E+00 3.10285E-02 1.40507E-01
 -1      2084 1.21479E+01 5.07740E+00 8.62154E+00 5.00779E+00 1.92246E-02 8.40381E-02
 -1      2085 1.24097E+01 6.52057E+00 9.54668E+00 5.25566E+00 6.23552E-02-5.37152E-02
 -1      2086 4.64440E+00-6.00993E-01 2.21272E+00 4.20938E+00 8.85886E-02 5.30293E-02
 -1      2087 1.17757E+01 4.87608E+00 8.35888E+00 5.79907E+00-5.99162E-03 1.52281E-02
 -1      2088-9.43287E-01 1.69565E+00 3.93883E-01 3.05061E+00-5.21601E-03-2.42545E-02
 -1      2089 1.27256E+00 3.14642E+00 2.21092E+00 3.04138E+00-2.47400E-02 3.88656E-02
 -1      2090-2.35017E-01 4.20188E+00 2.00061E+00 1.72803E+00-4.28156E-03-4.71522E-02
 -1      2091-1.11114E+00-2.87081E-01-6.81496E-01 3.43724E+00-3.58381E-02 9.12089E-02
 -1      2092 4.06519E+00-2.09563E+00 9.28579E-01 5.92920E+00-7.62510E-02 1.71298E-03
 -1      2093 2.41209E+00-8.31096E-01 8.05630E-01 4.52004E+00-1.16891E-02 4.06574E-02
 -1      2094 1.00119E+00 9.06613E-02 4.74982E-01 3.60348E+00-6.40374E-02 8.74420E-02
 -1      2095 2.17905E+00 2.58962E+00 2.19075E+00 2.83817E+00-1.00001E-01 8.91172E-02
 -1      2096-2.28772E+00 4.04907E+00 9.10158E-01 3.82126E+00-3.48499E-02 8.02262E-03
 -1      2097-1.51884E+00 3.95338E+00 1.20618E+00 4.16277E+00 5.26405E-02-5.12288E-02
 -1      2098 1.43470E+00 6.01930E+00 3.68763E+00 6.02649E+00-1.07290E-02-2.28251E-02
 -1      2099 9.75906E+00 5.63931E+00 7.69622E+00 7.86422E+00 2.82243E-02-1.04376E-02
 -1      2100 1.08048E+01 7.67474E+00 9.24267E+00 8.00419E+00 2.12430E-03 3.32783E-02
 -1      2101 5.79075E+00 3.16108E+00 4.49089E+00 6.27686E+00 7.03830E-03 2.49024E-03
 -1      2102-4.38832E+00 8.12975E+00 1.94017E+00-3.66949E+00 5.62756E-02 8.01545E-02
 -1      2103-1.84164E+01-4.43132E+00-1.15255E+01-4.67620E+00 7.14859E-02 2.69064E-01
 -1      2104-2.10204E+01-7.93209E+00-1.42888E+01-3.88132E+00-1.40325E-01 1.72153E-01
 -1      2105-1.65967E+01-1.28907E+00-9.11034E+00-5.57767E+00 1.74977E-02 3.83359E-02
 -1      2106-1.30110E+01 2.63544E+00-5.36067E+00-5.77608E+00-1.27050E-01 1.83119E-01
 -1      2107 4.82046E+00 9.52498E+00 7.28297E+00 6.96654E+00-5.23278E-02 4.30512E-02
 -1      2108 4.29366E+00 8.36263E+00 6.20786E+00 7.25504E+00-4.87090E-02-1.32186E-03
 -1      2109-1.78397E+00 4.65884E+00 1.42950E+00 6.28678E+00-4.58062E-02 1.19786E-02
 -1      2110 5.05608E+00 1.09219E+01 8.09616E+00 7.40438E+00-7.71854E-02 1.55718E-02
 -1      2111-2.10622E+01-1.86877E+01-1.98871E+01 6.91890E-01-9.96294E-02 1.51967E-02
 -1      2112 4.52086E+00 5.25673E+00 5.08948E+00-2.38462E-01-1.54629E-01-1.48699E-01
 -1      2113-9.13247E-02-5.68930E-01-7.14360E-02 5.75318E-01 7.30964E-03-2.10867E-01
 -1      2114 4.91775E+00 4.98038E+00 4.94939E+00 2.12391E+00-2.06004E-02-6.72778E-02
 -1      2115-1.43003E+01-1.27238E+01-1.39099E+01 2.69767E-01-2.22778E-02-1.08617E-01
 -1      2116-7.80758E-01-2.17467E+00-1.39668E+00 4.08982E-01-1.81336E-01 2.93883E-02
 -1      2117 7.82646E+00 5.58506E+00 6.70539E+00 8.18417E+00-1.60631E-02 6.20461E-02
 -1      2118 7.57512E+00 5.80354E+00 6.67606E+00 6.39296E+00 1.55679E-02 2.35336E-02
 -1      2119-1.24049E+01-2.43091E+00-7.41338E+00-2.00819E+00-2.05193E-02 1.61983E-02
 -1      2120-6.74969E+00 1.06407E+00-2.84954E+00-4.19718E-01-6.14070E-02 1.97092E-04
 -1      2121-8.08633E+00-2.87760E-01-4.21901E+00-7.27048E-01-3.85651E-02-3.47741E-02
 -1      2122-1.09376E+01-8.64433E-01-5.92051E+00-2.30202E+00-5.83960E-03-4.16400E-03
 -1      2123 1.46079E+01 1.28580E+01 1.37704E+01 2.32503E+00-5.85681E-03 1.04282E-01
 -1      2124 5.88002E+00 6.92218E-01 3.40493E+00 3.07982E+00 1.21332E-01 3.11873E-02
 -1      2125 1.32468E+01 7.99151E+00 1.07101E+01 3.91015E+00 4.60042E-02-1.71909E-02
 -1      2126-5.33899E+00-7.16584E+00-6.11385E+00 3.12370E+00 4.34683E-02 7.95636E-02
 -1      2127 8.67499E+00 5.18927E+00 6.84462E+00 2.86625E+00-2.40978E-02 8.76893E-02
 -1      2128-5.23872E+00 2.61058E+00-1.30592E+00 2.80717E+00 6.45249E-02 3.21866E-02
 -1      2129-4.21008E+00 3.90655E+00-1.27807E-01 1.74592E+00 1.98129E-02 8.87065E-02
 -1      2130 2.90649E+00 1.07641E+01 6.90174E+00 4.49985E+00 5.75293E-02-4.61854E-02
 -1      2131-9.61714E+00-3.81250E+00-6.71408E+00 1.73488E+00-7.72065E-02 9.68446E-02
 -1      2132-2.66386E+00-3.66292E-01-1.44293E+00 2.58320E+00-3.91267E-02-8.17682E-02
 -1      2133-3.05229E+00-2.73846E-01-1.54791E+00 1.93753E+00 2.56559E-02-6.03272E-02
 -1      2134-1.18507E-01 7.36388E+00 3.62116E+00 6.98807E+00-4.13932E-03-1.48308E-01
 -1      2135 8.32141E+00 4.02374E+00 6.18087E+00 6.44385E+00 2.35820E-03-1.79931E-02
 -1      2136 3.50564E+00 2.43167E+00 2.80562E+00-1.19914E+00 3.44415E-01 1.16234E-01
 -1      2137-1.03654E+01-8.87442E+00-9.95191E+00-8.04176E-01 2.04817E-01 1.09662E-01
 -1      2138 6.42011E+00 4.73990E+00 5.57223E+00 3.70722E+00 1.74562E-02-8.72575E-03
 -1      2139 4.87685E+00 3.23715E+00 4.08797E+00 3.71770E+00 5.68734E-02-2.65012E-02
 -1      2140 2.38925E+01 2.06212E+01 2.23171E+01 4.18484E+00 5.56497E-02-4.75055E-02
 -1      2141 3.81148E+00 1.89301E+00 2.72669E+00 3.20238E+00 7.82850E-02 5.36045E-02
 -1      2142-4.39733E+00-5.83155E+00-5.14211E+00 2.49930E+00 1.51663E-01-1.23532E-01
 -1      2143 4.67611E+00 4.40240E-01 2.55605E+00 5.10619E+00-2.99118E-03-2.63147E-02
 -1      2144 6.15660E+00 3.64576E+00 4.88036E+00 4.96403E+00 1.41900E-02-1.55999E-02
 -1      2145 9.36502E-01 1.66910E-01 5.15684E-01 3.51386E+00 1.08896E-02-8.28217E-04
 -1      2146 6.83112E+00 1.58385E+00 4.17507E+00 6.19100E+00-2.63496E-02-2.04098E-03
 -1      2147 9.07206E+00 2.21540E+00 5.63980E+00 6.14429E+00 4.87911E-02 1.57228E-02
 -1      2148 1.13328E+01 5.29652E+00 8.31324E+00 7.32595E+00-9.71826E-03 2.09539E-02
 -1      2149-2.02417E-01 1.61614E+00 6.87261E-01 2.95129E+00 1.06007E-02 1.45616E-02
 -1      2150 3.00987E+00 2.96154E+00 2.99363E+00 4.66799E+00-3.95314E-02-2.77017E-02
 -1      2151 2.98224E+00 1.95583E+00 2.46899E+00 4.73630E+00-4.46634E-02 1.37782E-02
 -1      2152 9.94215E+00 4.33964E+00 7.14480E+00 5.16569E+00-6.30411E-02-1.80497E-02
 -1      2153 4.54769E+00-4.27176E-01 2.03549E+00 4.15722E+00-1.08988E-02 5.44356E-02
 -1      2154 6.97825E+00-5.57006E-01 3.20826E+00 4.98907E+00 2.21101E-02-5.41672E-02
 -1      2155 9.61174E+00 1.52813E+01 1.24760E+01 7.46635E+00-5.65798E-03-9.45479E-02
 -1      2156 7.25872E+00 9.28544E+00 8.45538E+00 9.17070E+00-3.31421E-02 1.55426E-01
 -1      2157 1.20947E+01 1.22836E+01 1.25567E+01 9.51453E+00-4.66912E-02 1.45943E-01
 -1      2158 9.35934E+00 8.48604E+00 8.94499E+00 1.01454E+01-3.45972E-02-1.01341E-01
 -1      2159 6.65894E+00 9.67506E+00 8.29738E+00 7.10599E+00-2.10708E-02 3.48975E-02
 -1      2160 1.13999E+01 1.09811E+01 1.09403E+01 9.77398E+00-6.11832E-02 9.12630E-02
 -1      2161-5.72993E+00-9.11253E+00-7.25462E+00 8.06241E-01-1.65680E-01-7.02843E-02
 -1      2162 1.38595E+01 1.28462E+01 1.34532E+01-7.71251E-01-5.10983E-02-2.07120E-02
 -1      2163 6.25593E+00 4.03972E+00 5.10134E+00 2.80385E-01-2.80053E-01-9.08182E-03
 -1      2164 8.84726E+00 5.00441E+00 6.99319E+00 1.46234E+00-6.18443E-02-3.27924E-02
 -1      2165-1.43575E+01-1.56487E+01-1.49652E+01-2.37852E-01-1.21288E-01 2.08367E-02
 -1      2166-2.74827E+01-2.49952E+01-2.61095E+01-7.99520E-01-2.21484E-01-3.02190E-02
 -1      2167-2.43530E+01-2.49234E+01-2.43759E+01-1.15733E+00-1.93916E-01 6.01135E-02
 -1      2168 3.68868E+00 2.44934E-01 2.04569E+00 4.55810E+00 2.02303E-04-7.33668E-02
 -1      2169 7.58127E+00 6.21682E+00 7.00976E+00 4.74354E+00-9.69495E-02-9.20768E-02
 -1      2170 6.44173E+00 4.05553E+00 5.28951E+00 5.00509E+00-1.64671E-02-3.18540E-02
 -1      2171-1.39565E+01-2.04128E+00-8.04898E+00-3.67820E+00 1.43832E-01-6.89135E-02
 -1      2172-8.33791E+00 1.83682E+00-3.42360E+00-1.58192E+00 8.27339E-02 1.87005E-01
 -1      2173-6.18453E+00 3.14323E+00-1.58331E+00 6.62245E-02-6.46937E-02 9.44032E-02
 -1      2174 6.69102E+00 1.95942E-01 3.41835E+00 3.94735E+00-4.31300E-02-3.25917E-02
 -1      2175 1.34021E+01 6.31191E+00 9.79139E+00 4.98013E+00-9.29140E-03 8.20787E-03
 -1      2176 5.38456E+00 3.20057E+00 4.24023E+00 2.35928E+00-6.78050E-02-1.38385E-01
 -1      2177 7.82279E+00 2.84377E+00 5.32384E+00 2.53030E+00 3.55942E-02 1.08107E-01
 -1      2178 4.74965E+00 9.15418E-01 2.66837E+00 3.08796E+00 5.09597E-02 5.01736E-02
 -1      2179-2.36883E+00 2.44674E+00 4.75516E-02 1.70960E+00-1.97051E-02-2.20765E-02
 -1      2180-3.78666E+00 1.31608E+00-1.25729E+00 1.05804E+00-6.43737E-03 2.02482E-02
 -1      2181-4.31307E+00 4.22829E-01-1.94895E+00 1.16482E+00 3.84160E-02-1.44635E-02
 -1      2182-4.94714E+00 2.72255E+00-1.14163E+00-7.48235E-01-2.47470E-02-5.14097E-02
 -1      2183 1.00848E+01 9.85308E+00 1.00613E+01 1.02064E+01-3.42683E-02 1.03366E-01
 -1      2184 1.16971E+01 6.72812E+00 9.19167E+00 7.59251E+00-1.48781E-02 9.95041E-04
 -1      2185 8.02607E+00 5.12023E+00 6.73503E+00 1.47195E+00-1.57339E-01 7.33357E-02
 -1      2186 1.06419E+01 6.48925E+00 8.62182E+00 1.92721E+00 8.08137E-02-2.74383E-02
 -1      2187 1.35605E+01 9.15254E+00 1.14481E+01 2.19413E+00-1.24901E-02 1.62528E-01
 -1      2188-1.91416E-03-4.31086E+00-2.30093E+00 1.51342E+00-5.68811E-02 1.94395E-01
 -1      2189 1.93212E+00-3.02141E-01 8.17111E-01 3.47317E+00-1.22588E-02-9.15238E-02
 -1      2190 3.01965E+00 3.31280E-02 1.45099E+00 4.43156E+00 3.60803E-02-6.19019E-03
 -1      2191 1.23343E+00 1.84613E+00 1.56800E+00 2.81115E+00-4.86056E-02-2.37562E-02
 -1      2192-1.83522E+01-2.32069E+00-1.00918E+01-5.84283E+00 1.26569E-01 7.74243E-02
 -1      2193-3.05927E+01-1.29710E+01-2.18450E+01-7.96387E+00-2.73623E-01 8.24288E-02
 -1      2194-2.67834E+01-1.10617E+01-1.89014E+01-3.26865E+00-1.97271E-01 2.97530E-01
 -1      2195 2.38345E-01 4.41436E+00 2.26927E+00 3.57035E+00 1.10117E-02-2.36147E-02
 -1      2196-1.04116E+00 2.14243E+00 5.59445E-01 3.62879E+00-4.86731E-02-5.40189E-03
 -1      2197 3.53615E+00 5.64102E+00 4.58983E+00 5.81908E+00-1.48189E-02 5.97965E-02
 -1      2198 9.13503E+00 2.25563E+00 5.70528E+00 4.53183E+00-4.18126E-02 4.44063E-02
 -1      2199 8.08070E+00 2.05744E+00 5.04804E+00 3.60087E+00 2.25232E-02 2.44091E-02
 -1      2200 6.88716E+00 4.36783E+00 5.60734E+00 6.08394E+00 1.10133E-01 3.92527E-02
 -1      2201 7.46384E+00 3.38613E+00 5.46422E+00 5.61980E+00-9.38769E-03 3.24461E-02
 -1      2202 7.76865E+00 5.52483E+00 6.50524E+00 5.55979E+00 4.06668E-03 5.60652E-02
 -1      2203-1.18423E+01-2.21798E+00-7.01672E+00-1.28440E+00 3.81241E-02-4.01736E-02
 -1      2204-4.31202E+00 3.26377E+00-5.75544E-01 9.36780E-01 6.52074E-02-9.30621E-02
 -1      2205-8.83517E+00 8.64904E-01-4.00398E+00-1.04717E+00 1.41496E-01 9.85587E-02
 -1      2206 4.47227E+00 5.40109E+00 4.95090E+00 6.24820E+00 6.73072E-03 1.39930E-02
 -1      2207 9.12652E+00 9.49425E+00 9.29183E+00 7.57337E+00-1.15547E-02-3.94678E-03
 -1      2208 7.47569E+00 8.82236E+00 8.13418E+00 7.15110E+00 6.31134E-03 1.76263E-02
 -1      2209-9.14559E+00-1.12357E+00-5.18328E+00-8.06617E-01-1.53582E-02-6.41859E-02
 -1      2210 1.70407E+00 5.03257E+00 3.35622E+00 6.25525E+00-7.68150E-03-3.15828E-02
 -1      2211 1.91274E+00 5.47531E+00 3.62627E+00 4.96067E+00 6.96175E-03 5.37054E-02
 -1      2212-5.29067E+00 2.52322E+00-1.41900E+00-3.57656E-01-3.58392E-02-9.98550E-02
 -1      2213-1.95648E+01-8.36040E+00-1.39527E+01-2.98442E+00-7.99254E-03 1.88316E-02
 -1      2214 5.55544E+00 4.82135E+00 5.19025E+00 6.44645E+00 4.65722E-03 2.64534E-02
 -1      2215-1.73988E+01-7.80178E+00-1.27416E+01 1.26378E+00-1.05860E-01-7.79729E-02
 -1      2216 2.01512E+00 1.09021E+01 6.41883E+00-3.22575E-01-8.14025E-02-1.37105E-01
 -1      2217 7.68511E+00 7.06017E+00 7.35930E+00 8.05799E+00 2.90023E-02 2.22702E-02
 -1      2218 5.33238E+00 2.97612E+00 4.14232E+00 6.19181E+00-5.77570E-02-3.81498E-02
 -1      2219 1.01304E+01 6.34279E+00 8.20805E+00 7.62534E+00 1.24155E-02 1.50827E-01
 -1      2220 1.26862E+01 6.90083E+00 9.86912E+00 6.46908E+00 1.42206E-01 9.75329E-02
 -1      2221 1.09036E+01 6.99707E+00 8.84272E+00 8.19985E+00 1.50877E-02 3.99947E-02
 -1      2222 8.69957E+00 3.93593E+00 6.29696E+00 6.91927E+00 4.01366E-02 2.88169E-02
 -1      2223 1.05249E+01 4.96237E+00 7.79336E+00 6.91492E+00 1.44240E-01-2.93085E-02
 -1      2224-1.53582E+01-5.21333E+00-1.02843E+01-2.64906E+00 9.73325E-03 2.28751E-02
 -1      2225 1.01309E+01 6.97549E+00 8.61636E+00 6.62274E+00 1.30389E-01 5.87384E-02
 -1      2226 7.13934E+00 3.69615E+00 5.54346E+00 7.69969E+00-3.44356E-02-1.33644E-01
 -1      2227 9.85426E+00 6.67108E+00 8.16876E+00 6.74792E+00-1.55120E-01-9.31406E-02
 -1      2228 1.31082E+01 1.15075E+01 1.23423E+01 1.14293E+01-9.42814E-03 8.70574E-02
 -1      2229 1.39138E+01 1.21000E+01 1.32320E+01 1.14325E+01-9.62182E-03 3.42088E-02
 -1      2230 1.58379E+01 1.38884E+01 1.49074E+01 1.14653E+01 5.58416E-02 5.45785E-02
 -1      2231-1.16699E+01-1.51569E+01-1.32678E+01 8.32218E-01-1.28910E-01 1.00938E-01
 -1      2232-6.37134E+00-1.72997E+00-4.01645E+00 1.71773E+00 1.11916E-02 7.30990E-02
 -1      2233 3.17529E+00 2.64641E+00 2.91686E+00 5.15524E+00-7.86240E-02 5.83100E-02
 -1      2234 8.36884E+00 7.91574E+00 8.14693E+00 5.12843E+00 1.58046E-01 2.01010E-02
 -1      2235-2.97416E+00-3.44057E+00-3.26318E+00 5.48747E+00-2.60747E-02 8.29218E-03
 -1      2236 1.46316E+01 1.32363E+01 1.41311E+01 1.08464E+01-3.99026E-02 4.66454E-02
 -1      2237 1.06252E+01 9.20037E+00 9.97559E+00 1.10800E+01-2.28851E-02 5.36093E-02
 -1      2238 1.14667E+01 9.57461E+00 1.03709E+01 1.10623E+01 5.46601E-02-1.83140E-01
 -1      2239-4.34156E+00-1.00666E+00-2.67521E+00 1.96146E+00-1.01347E-02 5.28260E-02
 -1      2240-1.69763E+01-3.53181E+00-1.02776E+01-4.38967E+00 5.05705E-02 1.12199E-01
 -1      2241-1.23956E+01-1.96654E-01-6.33789E+00-3.37052E+00 8.99179E-02 1.03604E-01
 -1      2242-6.48748E+00 5.23777E+00-6.75097E-01-3.14300E+00 5.43998E-02 2.81090E-02
 -1      2243-9.66576E+00 2.19176E+00-3.74166E+00-3.29539E+00 3.24342E-03 9.08423E-02
 -1      2244-1.83146E+01-6.02142E+00-1.22296E+01-3.51543E+00 1.70374E-02 1.47029E-01
 -1      2245 6.80498E+00 2.38242E+00 4.50984E+00 5.03150E+00-4.40664E-03-1.21317E-01
 -1      2246 7.55111E+00 3.93604E+00 5.73080E+00 5.35848E+00 2.12212E-02-1.68196E-02
 -1      2247 1.17027E+01 6.82953E+00 9.25311E+00 5.44318E+00-1.66056E-02-4.49407E-02
 -1      2248 1.21163E+01 7.15326E+00 9.60647E+00 8.14631E+00 3.26001E-02-7.88446E-03
 -1      2249 1.08193E+01 7.49375E+00 9.18500E+00 9.91349E+00 3.09169E-03-1.27309E-02
 -1      2250 1.02001E+01 6.47322E+00 8.23295E+00 8.94218E+00 9.20804E-03 2.85581E-02
 -1      2251 3.19162E+00-1.48575E+00 8.97823E-01 6.13802E+00-9.55456E-02 4.61525E-02
 -1      2252 8.95542E+00 6.63667E+00 7.91695E+00 5.57124E+00 1.15889E-01 1.86514E-04
 -1      2253 6.11562E+00 2.35388E+01 1.45575E+01-1.79155E+00-3.32612E-01 1.98565E-01
 -1      2254-1.74182E+01 5.74444E+00-6.21044E+00-5.19660E+00 6.02524E-02-1.34724E-01
 -1      2255-4.17653E+01-2.42851E+01-3.31594E+01 1.84971E+00 4.61594E-01 1.53248E-01
 -1      2256-2.49046E+01-3.85541E+00-1.44520E+01-2.55343E+00 4.08865E-02 3.74044E-02
 -1      2257-4.89037E+00 2.57798E+00-1.16171E+00 3.79092E-01-6.49071E-02-1.85766E-02
 -1      2258-1.99088E+00 3.54048E+00 7.19524E-01 2.48559E+00 2.82825E-03-1.38030E-02
 -1      2259-4.60250E-01 4.09195E+00 1.84886E+00 2.52812E+00-7.49531E-02 2.03033E-02
 -1      2260 1.16372E+01 7.94474E+00 9.80544E+00 8.84558E+00 4.33454E-02-2.19078E-02
 -1      2261 9.12283E+00 5.40239E+00 7.25085E+00 9.41100E+00 4.56266E-02 1.31702E-02
 -1      2262 8.97314E+00 4.76180E+00 6.86662E+00 8.42637E+00 5.14945E-02-1.59921E-02
 -1      2263 8.38090E+00 4.71877E+00 6.55014E+00 8.85148E+00 1.79900E-03 5.91661E-03
 -1      2264 1.36548E+01 9.51769E+00 1.15967E+01 8.45307E+00 2.53723E-03 2.00969E-02
 -1      2265 4.37330E+00 3.42361E+00 3.98974E+00-9.76548E-01-9.79496E-02-5.49461E-02
 -1      2266 1.56315E+01 1.27572E+01 1.41943E+01 1.04205E+01 2.18659E-03 4.06531E-02
 -1      2267 1.13508E+01 8.73129E+00 1.00476E+01 1.09571E+01 2.71172E-02-4.38900E-02
 -1      2268 1.12429E+01 8.43713E+00 9.83348E+00 1.09317E+01-4.32670E-03 5.50091E-02
 -1      2269-3.23845E-01 6.99099E-01 1.60505E-01 3.32291E+00-2.89803E-02 5.43477E-02
 -1      2270 3.23211E+00 5.70413E-01 1.86508E+00 5.49126E+00-2.63635E-03 1.03121E-01
 -1      2271 1.11763E+01 7.43354E+00 9.32362E+00 8.18140E+00 1.76851E-02-1.84526E-01
 -1      2272 1.07772E+01 7.05365E+00 8.81763E+00 5.07459E+00-1.51968E-01-1.62204E-02
 -1      2273 4.91541E+00 2.66424E+00 3.72219E+00 5.15737E+00-6.08413E-02 4.01569E-02
 -1      2274 7.57706E+00 5.39632E+00 6.48484E+00 5.19237E+00 5.58340E-02 2.93623E-02
 -1      2275-1.21585E-01 5.07884E+00 2.51427E+00 1.22662E+00 1.13663E-03 1.47987E-01
 -1      2276 6.47777E-01-7.72756E-01-1.95677E-01 4.71720E+00 7.89150E-02-6.95949E-02
 -1      2277 3.29198E-01 3.38061E+00 1.83335E+00 2.91373E+00-3.01079E-02 3.48394E-02
 -1      2278-1.84630E+01-6.14838E+00-1.22662E+01-2.54263E+00 9.79255E-03-5.48679E-02
 -1      2279-1.24311E+01-4.36583E+00-8.36571E+00 7.57380E-02 2.71409E-03-9.91610E-02
 -1      2280-2.07867E+01-7.70486E+00-1.42401E+01-2.27732E+00-9.02831E-03-9.97899E-02
 -1      2281-9.00959E+00-2.89978E-01-4.62153E+00 5.88655E-01 4.50168E-03 4.26355E-02
 -1      2282 9.34585E+00 8.05482E+00 8.69822E+00 7.95052E+00 1.86162E-02 4.66158E-02
 -1      2283-6.05638E+00-1.76498E+00-3.94409E+00 1.49058E+00-8.98668E-03 2.69614E-02
 -1      2284 1.64606E+01 1.41955E+01 1.53928E+01 1.12770E+01 9.58418E-03-1.71234E-02
 -1      2285 7.67941E+00 4.97689E+00 6.33645E+00 1.00483E+01 4.21099E-03-1.71867E-02
 -1      2286 8.76580E+00 6.36486E+00 7.49268E+00 9.19755E+00 4.06499E-03 4.77645E-02
 -1      2287 1.41149E+01 1.13709E+01 1.27729E+01 9.00053E+00-1.68307E-02 5.10785E-02
 -1      2288-9.95356E+00-5.60591E-01-5.18637E+00 2.89863E-02 3.37468E-02 7.13244E-02
 -1      2289-5.86395E+00 4.07507E+00-8.63102E-01-9.55276E-01 6.59597E-02-4.41526E-02
 -1      2290-1.02359E+01 1.48601E+00-4.34480E+00-3.41002E+00 1.08532E-02-5.07275E-02
 -1      2291-9.02243E+00-1.52729E+00-5.16507E+00 3.69953E-01-1.84237E-02 4.74782E-02
 -1      2292-1.33341E+01 8.75591E-01-6.18610E+00-9.84225E-01-1.75409E-01-1.34430E-01
 -1      2293-1.37879E+01 2.67537E+00-5.41568E+00-5.75506E+00-1.21963E-01 1.50028E-02
 -1      2294 3.70570E+00 4.52844E+00 4.12130E+00 4.70308E+00-7.90400E-03-4.40026E-02
 -1      2295-1.81331E+00 9.69470E-01-4.28471E-01 2.93576E+00 2.80787E-02-4.34601E-02
 -1      2296-1.63221E+01-1.69523E+00-8.85673E+00-5.69146E+00-8.95518E-02-1.06587E-01
 -1      2297-2.26059E+01-7.80742E+00-1.50429E+01-5.79727E+00-5.09631E-02-1.55244E-01
 -1      2298-2.59194E+01-9.83165E+00-1.76685E+01-6.19968E+00 1.16001E-01-1.85851E-02
 -1      2299-1.99509E+01-3.49389E+00-1.20308E+01-5.82022E+00-2.45451E-01 1.06832E-01
 -1      2300-7.40085E+00 4.19454E+00-1.55219E+00-2.46065E+00 2.66165E-02-3.26321E-02
 -1      2301-1.29484E+01-1.72765E+00-7.25996E+00-1.87165E+00 2.66620E-02-7.41577E-02
 -1      2302-9.46047E+00 2.14761E+00-3.65815E+00-2.29726E+00 6.54085E-02 2.09742E-01
 -1      2303 3.30192E+00 4.86462E+00 4.12988E+00 4.76441E+00 5.49239E-03 1.52840E-02
 -1      2304 1.12048E+01 9.64093E+00 1.03292E+01 1.09590E+01-9.16001E-02-1.64056E-01
 -1      2305 5.24334E+00 5.46784E+00 5.53728E+00 9.32050E+00-4.36709E-02 1.24523E-02
 -1      2306 9.60487E+00 6.88219E+00 8.28051E+00 8.97818E+00-2.96975E-02-1.65530E-03
 -1      2307 1.08510E+01 8.50098E+00 9.72709E+00 9.18259E+00-3.37646E-02 3.31829E-02
 -1      2308-1.59981E+01-1.04787E+00-8.32492E+00-5.83055E+00-9.89359E-02 2.84140E-02
 -1      2309 5.17993E+00-4.60447E-01 2.38811E+00 4.22615E+00 5.66900E-02 7.94569E-02
 -1      2310 6.26653E+00 2.50589E+00 4.51138E+00 4.05560E+00-1.48465E-02 4.19854E-02
 -1      2311 1.01833E+01 4.52783E+00 7.44504E+00 4.50993E+00-6.65571E-02 5.78462E-02
 -1      2312-2.21193E+01-6.54058E+00-1.42845E+01-4.89679E+00-7.55532E-02 3.34515E-01
 -1      2313-1.62685E-01 1.47438E+01 7.25747E+00-3.21575E+00-9.01953E-02 1.42536E-01
 -1      2314 3.42993E+00 1.62904E+00 2.69524E+00 1.23938E+00 6.70006E-02 5.18796E-02
 -1      2315 2.65059E+00 1.34772E+00 1.96206E+00 5.25015E-01 1.02024E-02 8.78747E-02
 -1      2316-1.26992E+00-3.03684E+00-2.26415E+00 1.24229E+00-8.06628E-03-9.02705E-02
 -1      2317 9.51099E+00 7.67331E+00 8.62772E+00 2.43727E+00-6.20496E-02 6.38179E-02
 -1      2318-2.38471E+01-5.09291E+00-1.45050E+01-7.32712E+00-3.77271E-04 1.31736E-01
 -1      2319-2.64338E+01-1.11878E+01-1.88580E+01-4.11740E+00-3.26410E-01 8.99156E-03
 -1      2320-7.80937E+00 1.94138E+00-2.79456E+00-2.49875E+00-2.28811E-01 3.71968E-02
 -1      2321-8.60906E+00 5.48199E-01-4.15085E+00 5.35365E-01-8.34606E-02-7.89505E-02
 -1      2322-4.96003E+00 3.27134E+00-8.76439E-01 1.56747E+00-7.91485E-02-3.61589E-02
 -1      2323-1.19877E+00-5.78977E+00-3.46439E+00 2.53747E+00-7.04586E-02 7.60733E-02
 -1      2324-1.42031E+01 1.00734E+01-1.84866E+00-4.04242E+00 9.96181E-01-8.61133E-03
 -1      2325-6.42980E+00 6.43283E+00-1.03914E-01-3.46561E+00 7.74130E-02-2.56937E-03
 -1      2326 7.83610E+00 8.21535E+00 8.13053E+00 8.33811E+00 2.25091E-02-4.61887E-02
 -1      2327-1.55722E+01-2.29035E+00-8.87942E+00-4.54387E+00 6.16209E-02 7.09545E-02
 -1      2328-1.71429E+01-5.50552E+00-1.12382E+01-2.53257E+00 4.14468E-05 3.35748E-02
 -1      2329-6.51432E-01-1.12034E+00-8.96215E-01 5.31905E+00 1.63981E-01 7.32525E-02
 -1      2330 1.29629E+01 1.08311E+01 1.18621E+01 1.14521E+01-2.08910E-02-1.16065E-01
 -1      2331 6.12479E+00 4.62222E+00 5.35234E+00 5.25993E+00 3.95311E-03 2.29764E-02
 -1      2332 9.05370E+00 1.79326E+00 5.49166E+00 5.62018E+00 9.97305E-02-1.45299E-02
 -1      2333 2.13421E+01 1.66571E+01 1.88562E+01 3.42189E+00 6.30139E-02 2.68935E-02
 -1      2334 4.73090E+00 9.12046E-01 2.68256E+00 4.09799E+00 3.67071E-02 4.15549E-02
 -1      2335 1.04833E+01 8.33860E+00 9.21070E+00 1.13352E+01 5.53653E-02-2.83698E-02
 -1      2336 1.21280E+01 9.94208E+00 1.09807E+01 1.12675E+01 2.21912E-02-4.18593E-02
 -1      2337 1.17955E+01 5.90074E+00 8.83009E+00 5.98624E+00-9.33042E-02-8.08096E-03
 -1      2338 4.17457E+00-7.21272E-01 1.63152E+00 6.03793E+00-8.45731E-02-2.86095E-02
 -1      2339 1.08705E+01 5.42869E+00 8.08757E+00 6.63536E+00-1.19348E-01-8.47167E-02
 -1      2340-2.51607E+00 1.47206E+01 6.10354E+00-1.59409E+00-1.84572E-01-3.40306E-01
 -1      2341-2.67884E+01-1.12987E+01-1.88832E+01 1.91555E+00 4.02801E-01-5.37370E-01
 -1      2342 4.85333E+00-1.20674E+00 1.81631E+00 3.82671E+00-3.07637E-02 4.95472E-02
 -1      2343 8.26574E+00 2.88682E+00 5.53623E+00 7.49544E+00 1.35459E-02-3.51655E-02
 -1      2344 1.18340E+01 8.96053E+00 1.04409E+01 1.04501E+01 1.34258E-02-8.29264E-03
 -1      2345 5.46397E+00 6.67009E+00 6.01101E+00 8.08421E+00 2.18781E-02 3.64743E-02
 -1      2346-4.15482E+01-2.59988E+01-3.36695E+01 2.22206E+00 7.46841E-01 1.42063E-01
 -1      2347 1.25394E+01 1.02280E+01 1.14664E+01 1.14171E+01 4.80345E-02 5.10537E-03
 -1      2348 1.34920E+01 1.20556E+01 1.27098E+01 9.03300E+00 3.22704E-02-7.53806E-02
 -1      2349 8.41137E+00 1.79942E+00 5.09194E+00 5.64656E+00 3.99600E-02 5.84472E-02
 -1      2350 9.17253E+00 3.39345E+00 6.25864E+00 5.17486E+00-3.88901E-02 2.80297E-02
 -1      2351 8.52774E+00 7.52785E+00 7.99946E+00 8.85666E+00 9.99513E-04 3.06197E-02
 -1      2352-2.57124E+01-1.25972E+01-1.91510E+01 1.74441E+00 2.52970E-01-2.03172E-01
 -1      2353 1.21142E+01 8.70343E+00 1.04842E+01 8.96180E+00 4.57877E-02-7.75895E-02
 -1      2354 7.10182E+00 6.06374E+00 6.73352E+00 1.00533E+01-1.56669E-01 1.40006E-01
 -1      2355-3.40235E+00-4.63734E+00-4.07077E+00-4.10650E-01-1.18006E-01 1.24594E-02
 -1      2356 9.79726E+00 8.15696E+00 9.01592E+00 9.26989E+00-2.45538E-02 7.90080E-02
 -1      2357 3.60506E+00 3.95729E+00 3.76415E+00 6.16968E+00-2.41606E-02-7.13163E-03
 -1      2358-1.39160E+01-2.97054E+00-8.48144E+00-2.74942E+00 4.16146E-02 1.33833E-02
 -1      2359-1.99697E+01-5.66949E+00-1.27737E+01-5.40717E+00-9.42134E-02-1.38401E-01
 -1      2360-8.30893E+00 3.50138E+00-2.55685E+00-2.91858E+00 8.23068E-02 3.09652E-02
 -1      2361 9.29506E+00 5.90854E+00 7.44369E+00 4.65614E+00 2.59640E-02 4.71842E-02
 -1      2362-5.59711E+00 2.24470E+00-1.62368E+00-4.82549E-01 4.96858E-02 2.07981E-01
 -1      2363-6.46901E-01 6.06566E+00 2.37575E+00 2.17805E+00 2.39478E-01-1.30326E-01
 -1      2364-1.13153E+01-2.13696E+00-6.89427E+00-2.18129E+00-1.30613E-02 9.22460E-02
 -1      2365-4.19991E+01-2.60344E+01-3.44775E+01 3.00365E+00-1.83233E-01-1.56000E-01
 -1      2366 4.62975E+00-5.67452E-01 1.91440E+00 6.98777E+00 2.71962E-03-3.75741E-02
 -1      2367-6.53012E+00 4.93245E+00-8.20136E-01-2.53879E+00-2.31924E-02 1.20202E-02
 -1      2368-1.43019E+01-3.21495E-01-7.36733E+00-4.56497E+00 1.02238E-01 9.13023E-02
 -1      2369 8.07135E+00 1.79182E+00 4.93402E+00 6.41628E+00 5.36966E-02-3.37515E-02
 -1      2370-1.06653E+01 8.21331E-01-5.02508E+00-3.37649E+00 2.35355E-03-1.49254E-01
 -1      2371-1.35664E+01-3.45043E+00-8.69200E+00-1.37271E+00-6.92831E-02 1.72828E-02
 -1      2372 9.91958E+00 6.00689E+00 7.90816E+00 5.45551E+00 6.37607E-02-5.04199E-02
 -1      2373 5.51729E+00 2.76247E+00 4.13968E+00 5.44866E+00 1.53723E-01-8.89467E-03
 -1      2374 5.37982E+00 7.94722E+00 6.59280E+00 7.40738E+00 6.32125E-02-1.73044E-02
 -1      2375 9.79164E+00 1.12525E+01 1.05663E+01 7.88901E+00 1.19365E-01-1.08886E-02
 -1      2376 1.22308E+01 5.73206E+00 9.05723E+00 6.82669E+00 4.47575E-02-4.02598E-02
 -1      2377-1.51401E+01-6.94104E+00-1.11844E+01 1.37912E+00-1.45829E-01 6.14040E-02
 -1      2378-6.67112E+00 2.49133E+00-2.00818E+00 4.06576E-01 9.17936E-02 7.35571E-02
 -1      2379-9.70519E+00 1.25097E-01-4.87624E+00-2.58974E+00 8.23525E-02 4.55268E-02
 -1      2380 2.18909E+01 2.05722E+01 2.12409E+01 6.76971E-01-9.02015E-02-5.27906E-02
 -1      2381-1.47846E+00 6.40151E+00 2.35584E+00 5.50773E+00-2.41746E-02-4.81164E-02
 -1      2382 7.73867E+00 2.52993E+00 5.07964E+00 2.75268E+00 9.38238E-02-2.57728E-02
 -1      2383 1.73036E+01 1.56128E+01 1.64895E+01 5.11242E+00-2.16233E-02 1.94647E-02
 -1      2384 6.14206E+00 4.81474E+00 5.49914E+00 5.34974E+00 6.62785E-02 7.90128E-02
 -1      2385 9.18845E+00 8.67584E+00 8.99414E+00 8.79321E+00 4.40974E-02 2.63755E-02
 -1      2386 1.08124E+01 7.33608E+00 9.07496E+00 9.94195E+00-2.83288E-02 5.63357E-02
 -1      2387 6.19118E+00 5.16893E+00 5.63909E+00 5.26148E+00-7.31780E-02 3.79528E-02
 -1      2388 8.15892E+00 6.07913E+00 7.19565E+00 5.40154E+00 1.35171E-02 3.97886E-02
 -1      2389 5.25773E+00 4.35700E+00 4.77540E+00 5.26478E+00-5.89893E-02 6.32397E-02
 -1      2390 9.25053E+00 5.25592E+00 7.20826E+00 4.39345E+00 2.14983E-02 9.45306E-03
 -1      2391-1.55772E+01-2.35502E+00-9.17654E+00-3.64916E+00-6.08773E-03 2.02789E-01
 -1      2392-1.67594E+00 8.68041E+00 3.67745E+00 7.75978E+00 1.31314E-01 2.40718E-02
 -1      2393 2.37701E+00 9.54488E+00 5.69479E+00 7.46455E+00 2.17472E-02 2.34384E-01
 -1      2394-7.99306E-01 6.82316E+00 2.84763E+00 7.41599E+00 4.10611E-02-5.82345E-01
 -1      2395 1.08421E+00 5.73157E+00 3.30585E+00 7.52839E+00 1.25780E-01 3.14733E-01
 -1      2396 9.19580E+00 1.02744E+01 9.69106E+00 8.83395E+00-1.40408E-01 1.44944E-01
 -1      2397 5.68201E+00 9.20653E+00 7.61623E+00 7.48682E+00 3.88665E-02-2.33706E-01
 -1      2398-1.57649E+01-2.87805E+00-9.34441E+00-3.65865E+00-3.35148E-03 9.57381E-03
 -1      2399-1.59999E+01-4.34916E+00-1.01171E+01-2.98924E+00-3.54703E-02 5.45027E-02
 -1      2400-6.71959E+00 1.43413E+00-2.77479E+00 6.82503E+00 4.33472E-02-5.91665E-02
 -1      2401 3.78139E+00 1.32956E+01 8.79398E+00 6.92825E+00 2.85031E-01-1.36403E-01
 -1      2402-8.97450E-01 7.24478E+00 2.76253E+00 7.39554E+00 1.04461E-01-1.14647E-01
 -1      2403 2.65278E+00 1.15403E+01 7.04747E+00 7.25390E+00 6.69580E-02-2.40637E-01
 -1      2404-1.56575E+01-1.86662E+00-8.71927E+00-5.20472E+00-7.88691E-02-1.99881E-01
 -1      2405 5.72271E+00 5.13085E+00 5.26980E+00 5.30749E+00 6.68744E-02 1.82610E-02
 -1      2406 1.28197E+01 1.21144E+01 1.26628E+01 5.35744E+00 1.95514E-03 4.55539E-02
 -1      2407 1.32108E+00 8.43630E-01 1.19746E+00 5.61556E+00 7.59204E-02-1.86105E-02
 -1      2408 4.27547E+00 4.09647E+00 4.16251E+00 5.57514E+00-3.59234E-02-5.43036E-03
 -1      2409 5.51983E+00 5.32852E+00 5.45941E+00 5.64544E+00 4.11355E-02 7.32350E-02
 -1      2410 2.61698E+00 2.23777E+00 2.23549E+00 5.53183E+00 2.07807E-02 3.15767E-02
 -1      2411 1.08519E+01 1.05872E+01 1.06885E+01 5.52323E+00-3.31445E-02 6.97573E-02
 -1      2412 6.39367E+00 6.01224E+00 6.24619E+00 5.43932E+00 6.78135E-02 5.62883E-02
 -1      2413-2.63759E+00 4.77508E+00 5.64608E-01 2.19929E+00-2.11959E-01 2.16510E-01
 -1      2414-4.15996E+00 1.23163E+00-1.34914E+00-2.54469E-01-9.18383E-02 9.03057E-02
 -1      2415-2.99311E+00 4.93618E+00 1.27400E+00 2.22849E+00 6.52497E-02-1.61424E-01
 -1      2416-2.69174E+00 3.94813E+00 5.78995E-01 3.57226E-01 7.41886E-02-5.93475E-02
 -1      2417-9.94494E+00-3.21236E+00-6.66922E+00-2.32116E+00-1.29772E-01-1.91519E-01
 -1      2418 3.09682E+00 1.02295E+01 6.72026E+00 1.28154E+00-1.92725E-02 7.21088E-02
 -1      2419-1.17429E+01-4.81115E+00-8.69815E+00-1.71729E+00 8.63493E-02 5.87535E-02
 -1      2420-1.27406E+00 7.48136E+00 2.73217E+00 4.76853E+00-7.39710E-02 5.44988E-02
 -1      2421-1.03044E+01-3.17189E+00-6.58800E+00 3.42650E+00-1.08970E-01 2.33496E-01
 -1      2422-3.16873E-02 9.07624E+00 4.80233E+00 5.16430E+00 1.00497E-01-1.75811E-01
 -1      2423-1.10049E+01-4.29512E+00-7.80723E+00 3.52877E+00 3.91243E-02 4.19048E-02
 -1      2424 1.74478E+00 9.46606E+00 5.57992E+00 5.64829E+00-5.50305E-02-5.90769E-03
 -1      2425-2.25996E-01 9.12357E+00 4.20178E+00 7.04136E+00-3.16708E-01 2.22899E-02
 -1      2426-4.79895E+00 6.13648E+00 1.04893E+00 7.05742E+00-6.55230E-02-2.26786E-01
 -1      2427 2.04386E+00 1.21129E+01 7.23432E+00 6.77083E+00 1.56601E-02 1.98784E-01
 -1      2428-1.10128E+01-4.84635E+00-8.30676E+00 5.74080E-01 1.49701E-01 1.01369E-01
 -1      2429 1.25655E+01 1.91643E+01 1.61693E+01 5.81111E-01 5.57999E-02-5.03976E-02
 -1      2430-1.48904E+01 1.52124E-01-7.62196E+00-5.55755E+00 7.69070E-02 1.59463E-01
 -1      2431 5.43739E+00 1.16074E+01 8.14289E+00 7.87170E-01 7.44456E-02-1.95497E-01
 -1      2432 4.80147E+00 1.26759E+01 8.65020E+00 1.12939E+00 1.36482E-01-2.38151E-01
 -1      2433-1.53502E+01-6.91639E-01-8.03336E+00-5.30785E+00 8.86081E-03 2.09712E-02
 -1      2434-1.56742E+01-1.45585E+00-8.83617E+00-5.08361E+00 8.38897E-04 1.54744E-01
 -1      2435-1.32691E+01-1.02909E-01-6.77697E+00-4.53049E+00 5.50783E-02-2.94970E-02
 -1      2436-1.79313E+01-4.08821E+00-1.08507E+01-4.71104E+00-1.56221E-01-1.43747E-01
 -1      2437-1.12035E+01 5.78753E-01-5.23881E+00-3.30618E+00-2.94647E-02 7.40086E-02
 -1      2438-7.37912E-01 5.78751E+00 2.61643E+00 1.99063E+00 4.98577E-02 3.03350E-01
 -1      2439-1.28486E+01-4.40923E+00-8.68702E+00-2.28607E+00 3.52343E-02 2.71805E-01
 -1      2440-5.66643E+00 1.30503E+00-2.16843E+00 3.88148E+00 1.05208E-01 9.08736E-02
 -1      2441-8.91702E+00-2.17936E+00-5.65253E+00 7.64432E+00-1.09949E-01-5.25765E-02
 -1      2442 1.51042E+01 1.44594E+01 1.46656E+01 5.59416E+00-3.07209E-02 3.22668E-02
 -1      2443 8.03694E+00 1.55216E+01 1.22121E+01 5.14422E+00-4.64353E-02 2.15582E-01
 -1      2444-1.11622E+00 6.56871E+00 2.81685E+00 5.41053E+00 2.57753E-01-4.23150E-02
 -1      2445 3.07260E-01 9.97548E+00 4.98241E+00 7.81003E+00-1.92274E-01-6.83948E-02
 -1      2446 1.88891E-01 2.82241E+00 1.50746E+00 8.40395E+00 5.54952E-02-2.76196E-02
 -1      2447 7.44161E+00 1.55355E+01 1.17057E+01 7.39448E+00-1.65188E-01-3.77891E-01
 -1      2448-9.58658E+00-1.43422E+00-5.32796E+00 6.83698E+00-1.60904E-01-1.76878E-01
 -1      2449-5.25296E+00 9.27144E+00 2.31010E+00-3.55237E+00-7.45238E-02 1.05434E-01
 -1      2450 1.32115E+01 9.41093E+00 1.12193E+01 6.14150E+00 2.15030E-02 6.77307E-02
 -1      2451 7.54158E+00 5.61637E+00 6.55743E+00 1.02475E+01-8.42229E-02 1.18449E-01
 -1      2452 1.03118E+01 9.14115E+00 9.86115E+00 9.14705E+00-1.28073E-01 1.75289E-01
 -1      2453 1.29458E+01 1.22323E+01 1.26235E+01 9.07986E+00-1.04647E-01 4.69419E-02
 -1      2454 9.04817E+00 3.98831E+00 6.58104E+00 8.23352E+00-1.02200E-02 4.36928E-02
 -1      2455 9.98747E+00 5.41726E+00 7.67959E+00 8.29771E+00 8.01783E-02-1.06739E-02
 -1      2456 8.78955E+00 9.07171E+00 8.87972E+00 8.49850E+00-5.12808E-02 3.15795E-02
 -1      2457 1.36921E+01 8.26822E+00 1.09338E+01 7.51164E+00-8.31776E-04-3.04505E-02
 -3
    1PSTEP                         3           1           1          
  100CL  101 1.000000000         890                     0    1           1
 -4  TOSTRAIN    6    1
 -5  EXX         1    4    1    1
 -5  EYY         1    4    2    2
 -5  EZZ         1    4    3    3
 -5  EXY         1    4    1    2
 -5  EYZ         1    4    2    3
 -5  EZX         1    4    3    1
 -1      1568-4.70903E-02 4.44550E-02 2.68348E-03 1.53490E-01 9.51453E-04-1.44649E-02
 -1      1569-5.04679E-02 5.68898E-02-6.38972E-03 1.59574E-01 6.63743E-03 1.38002E-02
 -1      1570-3.66927E-04 2.58184E-04 1.53616E-04 1.19821E-01 2.13974E-04 1.94331E-04
 -1      1571-4.34854E-04-1.36243E-03 1.82697E-03 1.20586E-01-2.45091E-04-2.08251E-03
 -1      1572-8.02178E-02 8.83538E-02-8.12563E-03 3.64475E-02-7.27233E-03 6.77611E-03
 -1      1573-1.09816E-01 9.43822E-02 1.54429E-02 3.69150E-02 2.62876E-03-5.35535E-03
 -1      1574-1.40349E-01 1.33057E-01 6.93165E-03 5.12250E-02 2.16253E-02 9.56075E-03
 -1      1575-1.41572E-01 1.40046E-01 1.13736E-03 7.21246E-02-2.97001E-03-3.49146E-03
 -1      1576-1.93191E-03-5.08727E-03 7.10868E-03 2.21665E-01-1.68547E-03 9.10773E-03
 -1      1577 2.73566E-02-2.44707E-02-2.78334E-03 2.52489E-01-6.46940E-04-2.78142E-03
 -1      1578 3.58581E-02-2.75830E-02-8.16659E-03 2.65713E-01 3.95066E-03-8.67208E-03
 -1      1579 2.31962E-02-1.63512E-02-6.73621E-03 2.66095E-01 2.51225E-03-4.14549E-04
 -1      1580 2.26063E-02-2.09473E-02-1.55430E-03 2.59722E-01 8.59074E-04-1.21590E-03
 -1      1581 2.44969E-02-2.60742E-02 1.67176E-03 2.33701E-01-7.07226E-04-1.41245E-04
 -1      1582 3.42684E-02-3.13678E-02-2.82257E-03 1.89844E-01-1.22250E-03 2.04641E-03
 -1      1583 2.14650E-02-2.16364E-02 2.34055E-04 1.42541E-01 2.91908E-03-1.35584E-03
 -1      1584 1.51375E-02-1.15786E-02-3.51771E-03 1.16633E-01-1.71099E-03 1.11362E-03
 -1      1585 2.77249E-03-8.00834E-03 5.28604E-03 1.17402E-01 1.97559E-03 2.55284E-04
 -1      1586 2.12356E-02-1.67219E-02-4.41703E-03 2.19461E-01-5.31711E-03 2.33927E-03
 -1      1587 1.89426E-02-2.00810E-02 1.24295E-03 2.52665E-01-1.27164E-03 1.81600E-03
 -1      1588 2.25245E-02-2.33142E-02 9.00495E-04 2.66258E-01 1.60434E-03-1.13004E-03
 -1      1589 2.40273E-02-2.57134E-02 1.80144E-03 2.69615E-01 3.38885E-03-4.28536E-04
 -1      1590 2.46987E-02-2.46490E-02 5.56668E-05 2.60516E-01-6.49964E-05 4.99984E-04
 -1      1591 2.68259E-02-2.64384E-02-2.92347E-04 2.34549E-01-2.49206E-03 5.24680E-04
 -1      1592 2.44027E-02-2.64180E-02 2.09455E-03 1.90914E-01-6.20992E-04-6.13632E-03
 -1      1593 1.99794E-02-1.97472E-02-1.73847E-04 1.47442E-01-3.34742E-03-2.11199E-03
 -1      1594 1.36181E-02-1.43289E-02 7.54886E-04 1.15090E-01 1.29889E-03 2.93340E-03
 -1      1595 6.94093E-03-4.17999E-03-2.72701E-03 1.15816E-01 5.72143E-03 1.32180E-03
 -1      1596-1.18967E-01 1.24671E-01-5.63911E-03 1.44762E-01-1.96045E-03 3.52669E-03
 -1      1597-1.26072E-01 1.16346E-01 9.77924E-03 1.65099E-01 1.97611E-03 3.22766E-03
 -1      1598-1.39513E-01 1.30363E-01 9.21967E-03 1.56420E-01 3.55256E-03-1.28557E-02
 -1      1599-1.05499E-01 1.16515E-01-1.09679E-02 1.66501E-01-4.53376E-03 3.16003E-03
 -1      1600-2.36048E-01 2.30933E-01 5.03092E-03-1.86780E-01 1.91052E-02 9.76676E-05
 -1      1601-1.85789E-01 1.88304E-01-2.61489E-03-1.37828E-01-1.97753E-03-6.76369E-03
 -1      1602-1.82287E-01 1.81549E-01 6.47315E-04-1.41161E-01-4.89295E-03-3.55592E-03
 -1      1603-1.76057E-01 1.74544E-01 1.42461E-03-1.36548E-01-6.19367E-04-7.67423E-04
 -1      1604-1.64057E-01 1.65151E-01-1.17894E-03-1.26047E-01 1.02389E-03 2.85169E-03
 -1      1605-1.47689E-01 1.46065E-01 1.54857E-03-1.16014E-01 8.21417E-04 1.27971E-04
 -1      1606-1.09980E-01 1.12979E-01-3.06698E-03-8.76720E-02 2.17883E-03-1.81570E-03
 -1      1607-6.89551E-02 6.95518E-02-6.54863E-04-5.19576E-02 3.63308E-03-4.78589E-03
 -1      1608-2.09946E-01 2.15293E-01-5.41151E-03-2.36835E-01-3.58840E-03-3.39346E-03
 -1      1609-1.81870E-01 1.76471E-01 5.30672E-03-1.56069E-01 4.52258E-03-7.88242E-03
 -1      1610-1.71778E-01 1.61594E-01 1.00925E-02-1.47430E-01-5.29749E-03-8.95447E-03
 -1      1611-1.68299E-01 1.59972E-01 8.23775E-03-1.41972E-01-5.03715E-03-7.34439E-03
 -1      1612-1.59776E-01 1.54149E-01 5.54375E-03-1.33752E-01-5.71143E-03-9.10219E-03
 -1      1613-1.42480E-01 1.44182E-01-1.77531E-03-1.21030E-01 4.23171E-03-3.17193E-03
 -1      1614-1.19265E-01 1.13596E-01 5.60493E-03-8.27684E-02-3.60584E-03 5.14335E-03
 -1      1615-5.56367E-02 4.75169E-02 8.06161E-03-7.28957E-02-1.56841E-03 4.35173E-03
 -1      1616 5.64891E-04-1.21294E-03 6.74031E-04 1.07931E-01 1.69112E-03 5.22515E-04
 -1      1617 1.38102E-03-5.47728E-04-7.59583E-04 9.87198E-02 3.09923E-03-9.57468E-04
 -1      1618-3.13367E-05-2.01463E-03 2.09726E-03 5.59348E-02 3.16685E-04 2.33311E-03
 -1      1619 4.66167E-03 5.29931E-04-5.10979E-03 7.32154E-03-1.10837E-03-5.31222E-03
 -1      1620 5.33288E-04-6.58886E-04 1.27100E-04-3.14099E-02-3.23712E-03-2.03947E-05
 -1      1621-1.15986E-02 6.57663E-03 4.90352E-03-3.95495E-02-1.09217E-02 4.26059E-03
 -1      1622 2.29472E-04-3.52822E-04 1.63801E-04 1.16117E-01-5.56295E-04-1.07521E-04
 -1      1623-4.93115E-04-2.68414E-04 8.24921E-04 1.01713E-01-2.59553E-03-7.62440E-04
 -1      1624 2.95180E-03-1.03555E-03-1.86057E-03 5.81901E-02 1.07517E-03 1.65457E-03
 -1      1625 1.86834E-03-3.56868E-04-1.47421E-03 5.05890E-03 6.23461E-03 1.54032E-03
 -1      1626-8.53257E-04 1.41668E-04 7.04008E-04-3.54689E-02 4.43634E-04-6.34680E-04
 -1      1627 7.94260E-03 3.14401E-04-8.29091E-03-4.35903E-02 1.81464E-02 9.08067E-03
 -1      1628-7.79276E-02 8.15005E-02-3.53667E-03 1.48197E-01-1.83441E-03-1.92665E-03
 -1      1629-1.26005E-02 1.39014E-02-1.24537E-03 1.57493E-01-6.29033E-04 1.41537E-03
 -1      1630 2.33246E-02-2.48786E-02 1.62057E-03 1.74731E-01 6.29599E-04 1.46286E-03
 -1      1631 6.36905E-02-6.29228E-02-7.07081E-04 1.56076E-01 5.48512E-04 2.67896E-04
 -1      1632 5.13212E-02-5.10660E-02-2.00343E-04 1.17629E-01-3.68205E-03 1.15744E-04
 -1      1633 4.12784E-02-4.16098E-02 3.84761E-04 9.63427E-02-5.26689E-04 2.33043E-03
 -1      1634 5.33786E-02-5.21442E-02-1.21670E-03 5.10124E-02 2.05416E-03-1.85493E-03
 -1      1635-1.39353E-01 1.36855E-01 2.42947E-03 4.98668E-02 1.13722E-03-1.49023E-02
 -1      1636-1.23725E-01 1.21909E-01 1.76225E-03-6.49098E-02-3.30951E-04 1.84245E-03
 -1      1637-1.08704E-01 1.09831E-01-1.16885E-03-4.27193E-02-2.53325E-04 2.20960E-03
 -1      1638-8.84581E-02 8.65614E-02 1.88153E-03 3.59760E-02 2.92657E-03 1.74903E-03
 -1      1639 1.99958E-02-1.95490E-02-3.95565E-04 1.16963E-01-4.62697E-04 1.51969E-03
 -1      1640-7.20292E-02 7.46308E-02-2.60658E-03 8.09249E-02 1.39660E-04-3.84293E-04
 -1      1641-5.49447E-02 5.30836E-02 1.89709E-03 1.21242E-01-9.08546E-04 1.06883E-03
 -1      1642 8.36722E-03-9.66402E-03 1.36782E-03 1.78147E-01-4.02010E-04 1.76628E-03
 -1      1643 4.39055E-02-4.37994E-02-4.13793E-05 1.67723E-01 2.05542E-03-3.76341E-04
 -1      1644 7.08878E-02-7.19248E-02 1.09893E-03 1.34366E-01 3.86723E-03 1.65904E-04
 -1      1645 7.19625E-02-7.49798E-02 3.06484E-03 8.89142E-02 4.12993E-04-1.50222E-03
 -1      1646 5.51523E-03-2.98618E-03-2.56259E-03 3.10551E-02-1.55661E-03-1.68240E-04
 -1      1647-1.43963E-01 1.38187E-01 5.70383E-03-5.56069E-02-2.29079E-03-1.09414E-03
 -1      1648-1.13169E-01 1.15522E-01-2.40490E-03-5.68970E-02 9.53496E-04 3.04998E-03
 -1      1649-1.02049E-01 1.01286E-01 7.35976E-04-1.07983E-02 2.13679E-03-1.56420E-03
 -1      1650 1.01234E-02-9.47888E-03-6.17333E-04 1.00386E-01-5.52056E-04-2.24425E-05
 -1      1651 7.95306E-02-7.84253E-02-1.06962E-03 1.05057E-01-7.49080E-04-1.59153E-03
 -1      1652 1.99905E-02-2.15396E-02 1.54803E-03 7.44582E-02 1.23673E-04-4.46604E-03
 -1      1653-5.99751E-02 6.04392E-02-4.72280E-04 2.19805E-02-1.78534E-04 1.24594E-03
 -1      1654-5.45802E-02 5.39187E-02 6.71658E-04 5.50968E-02-1.08054E-03 1.32183E-03
 -1      1655-1.16137E-02 1.15737E-02 6.99307E-05 9.84335E-02 3.17051E-04-1.52538E-03
 -1      1656-2.64976E-02 2.60382E-02 4.91279E-04 1.00610E-01-8.05218E-04 7.13787E-04
 -1      1657-5.28899E-02 5.35350E-02-6.58633E-04 2.34863E-02 1.00480E-03 3.08729E-04
 -1      1658-6.28041E-02 6.49895E-02-2.22016E-03 3.93898E-02-2.82910E-03 9.95048E-05
 -1      1659 4.27829E-02-4.27062E-02-4.69811E-05 1.08165E-01 1.85206E-03-1.95619E-03
 -1      1660-3.94169E-02 3.92351E-02 1.64700E-04 4.40277E-02 1.26583E-03-3.31406E-04
 -1      1661 5.15275E-02-5.11674E-02-3.03433E-04 1.14304E-01 1.23237E-03-9.12111E-04
 -1      1662 6.45047E-02-6.50866E-02 6.47108E-04 1.58372E-01-1.69552E-03-4.48520E-05
 -1      1663 2.52954E-02-2.59928E-02 7.64150E-04 1.75478E-01-1.11838E-03 1.97240E-03
 -1      1664-1.69602E-02 1.67584E-02 2.58296E-04 1.47610E-01 1.87630E-03-1.71484E-03
 -1      1665-8.40128E-02 8.05694E-02 3.48504E-03 1.49243E-01-1.17039E-03-3.56304E-03
 -1      1666-7.48737E-02 7.77608E-02-2.88218E-03 8.72844E-02 3.19607E-03-1.32661E-04
 -1      1667-1.08402E-01 1.10277E-01-1.90790E-03-2.93013E-02 3.00761E-03 7.35576E-03
 -1      1668-1.07612E-01 1.10359E-01-2.79397E-03-5.15681E-02 5.27457E-04-8.93589E-06
 -1      1669-1.44729E-01 1.43881E-01 7.78093E-04-4.12184E-02-1.22997E-03-7.65282E-04
 -1      1670-1.54743E-01 1.52976E-01 1.67620E-03 2.59088E-02 4.64315E-03 7.02233E-03
 -1      1671 5.47868E-02-5.47758E-02-2.47740E-07 5.33157E-02 3.22564E-03 5.11829E-03
 -1      1672 4.50248E-02-4.31695E-02-1.80226E-03 9.74836E-02 1.41123E-03-8.61726E-04
 -1      1673 2.39456E-02-2.33494E-02-5.43148E-04 1.12489E-01 3.19732E-03 2.04733E-04
 -1      1674 6.27549E-02-6.19086E-02-7.99558E-04 1.41896E-01-1.35625E-03-1.67324E-03
 -1      1675 4.44251E-02-4.41231E-02-2.37390E-04 1.69457E-01-1.28994E-03-1.67679E-04
 -1      1676 4.86280E-03-5.28981E-03 4.91578E-04 1.66955E-01 1.26991E-03-1.00825E-03
 -1      1677-4.22838E-02 4.39089E-02-1.58360E-03 1.34694E-01-8.06511E-04-1.16149E-03
 -1      1678-8.81870E-02 8.70268E-02 1.15276E-03 4.02955E-02-1.16956E-03 1.61794E-03
 -1      1679-1.08382E-01 1.10481E-01-2.13763E-03-3.96396E-02 7.05406E-04 2.35320E-04
 -1      1680-1.20343E-01 1.24361E-01-4.07574E-03-5.75635E-02 3.80233E-04-1.49312E-03
 -1      1681-7.39128E-03 6.97508E-03 3.77779E-04 3.96650E-02 4.56858E-03-2.34610E-03
 -1      1682 5.95793E-02-5.90172E-02-5.07026E-04 6.62501E-02 2.84565E-04 7.59252E-04
 -1      1683-6.22305E-02 6.43819E-02-2.14573E-03 5.30948E-02 1.78978E-03-2.15314E-03
 -1      1684 1.26427E-02-1.32939E-02 6.79917E-04 1.02622E-01-1.43136E-03 5.99605E-04
 -1      1685-4.82703E-02 4.82792E-02-1.90175E-05 2.59234E-02 3.08698E-04 1.37091E-04
 -1      1686-4.27634E-02 4.16353E-02 1.13504E-03 5.28282E-02-9.18867E-04-1.78874E-03
 -1      1687 2.77739E-02-2.64369E-02-1.33734E-03 7.25226E-02-1.22479E-04 1.08289E-03
 -1      1688-6.28421E-02 6.24972E-02 3.09202E-04 3.86400E-02-1.18463E-03 6.08943E-04
 -1      1689 4.72019E-02-4.69016E-02-2.69670E-04 1.11052E-01-2.06290E-03-2.44345E-04
 -1      1690-6.75419E-03 7.21247E-03-4.26745E-04 1.03356E-01-8.89862E-04-2.62181E-04
 -1      1691-3.14608E-02 3.27850E-02-1.33799E-03 4.17058E-02-1.32361E-03 2.59652E-03
 -1      1692 8.12184E-02-8.30942E-02 1.91570E-03 1.07081E-01 1.59379E-03 6.47327E-04
 -1      1693 7.40849E-02-7.41047E-02 6.37331E-05 1.06736E-01 6.98681E-04 2.42310E-03
 -1      1694-9.82382E-02 1.02795E-01-4.52987E-03 1.67490E-01-1.82209E-04-6.37391E-03
 -1      1695 9.47264E-03-9.28930E-03-1.25602E-04 1.14512E-01 1.29104E-04 1.05579E-03
 -1      1696 5.20403E-03-4.98699E-03-1.53800E-04 1.20217E-01-9.41871E-04 2.42059E-03
 -1      1697-7.12342E-02 7.70420E-02-5.82189E-03-6.30549E-03 5.50016E-03 2.43318E-03
 -1      1698-7.39085E-02 7.41989E-02-2.76883E-04 6.07311E-02-3.19992E-03 3.77554E-03
 -1      1699 2.94482E-02-2.92963E-02-8.99783E-05 1.00970E-01-1.49069E-03-2.08167E-03
 -1      1700-1.19614E-02 1.00658E-02 1.96480E-03 1.85946E-01 1.21754E-03-6.32897E-04
 -1      1701-1.58731E-01 1.57963E-01 6.94591E-04-1.04340E-01-2.78776E-03 7.56849E-03
 -1      1702-1.95762E-01 1.98795E-01-3.15460E-03 4.10597E-02 1.07968E-02-4.15682E-03
 -1      1703 3.44698E-02-3.37994E-02-6.17107E-04 1.20342E-01 2.23800E-03 4.78234E-04
 -1      1704 1.43643E-02-1.68597E-02 2.57990E-03 2.20126E-01-3.27278E-03 3.97141E-03
 -1      1705 4.53089E-02-4.55464E-02 3.13203E-04 1.92937E-01 1.65528E-03 4.35914E-04
 -1      1706 3.53247E-02-3.71243E-02 1.83925E-03 4.40565E-02-1.81582E-03 2.24709E-03
 -1      1707-1.09676E-01 1.10674E-01-1.04880E-03-3.48360E-02-2.16201E-04 4.42221E-04
 -1      1708-4.45306E-02 4.28698E-02 1.71188E-03 1.72130E-01 1.89029E-04 1.62112E-03
 -1      1709-9.07246E-02 8.73297E-02 3.43561E-03 1.43811E-01-1.06410E-03-1.72488E-03
 -1      1710-1.39054E-01 1.40831E-01-1.84193E-03-8.85948E-02 2.37942E-04 9.29601E-04
 -1      1711 2.77921E-02-2.69806E-02-7.92140E-04 1.90777E-02-5.09410E-03 1.52947E-03
 -1      1712 5.16545E-02-4.99073E-02-1.68345E-03 1.61377E-01 1.47211E-03-4.35208E-04
 -1      1713 3.70328E-02-3.71397E-02 1.70692E-04 7.85302E-02 1.45067E-03-8.33924E-05
 -1      1714 7.07465E-03-8.59583E-03 1.60173E-03 2.10035E-01-2.16727E-03 1.47392E-03
 -1      1715 5.08016E-02-5.07587E-02 1.76230E-05 1.41600E-01-1.11488E-03 1.33432E-03
 -1      1716 2.55167E-02-2.46202E-02-8.13315E-04 2.20792E-01-3.85945E-04-4.99454E-04
 -1      1717-3.31230E-02 3.82601E-02-5.17472E-03-5.86640E-03-2.84325E-03-3.06276E-03
 -1      1718 3.39294E-02-3.45004E-02 6.54166E-04 2.11026E-01 4.71024E-04-3.73189E-07
 -1      1719-1.78211E-01 1.78500E-01-3.75484E-04-1.15983E-01-1.08131E-02 5.71280E-03
 -1      1720-1.46841E-01 1.48408E-01-1.63724E-03-9.79775E-02 2.57900E-03 2.99400E-03
 -1      1721-1.39292E-01 1.37893E-01 1.33726E-03-6.93961E-02 1.85896E-04 1.08537E-03
 -1      1722-1.02077E-01 1.02961E-01-9.22522E-04-2.23984E-02-3.93920E-03-2.63024E-04
 -1      1723 1.73697E-02-2.24819E-02 5.11004E-03-7.75018E-03-4.36594E-03-1.64220E-03
 -1      1724-4.80241E-02 4.80982E-02-3.23081E-08 1.53538E-01 7.65760E-03-3.86097E-03
 -1      1725 4.17409E-04-4.00592E-04 1.07986E-08 1.20472E-01 1.87918E-04-1.15108E-03
 -1      1726-1.15675E-02 1.20112E-02-3.61413E-04 1.88465E-01-1.90327E-03 5.68428E-03
 -1      1727 1.30839E-02-1.84645E-02 5.49544E-03 2.34177E-01-9.38989E-04 6.71831E-03
 -1      1728 2.99088E-02-2.42456E-02-5.52196E-03 2.63639E-01 1.33964E-03-6.92142E-03
 -1      1729 2.92453E-02-1.94853E-02-9.63083E-03 2.70865E-01 2.62966E-04-3.66015E-03
 -1      1730 2.48666E-02-1.95519E-02-5.18423E-03 2.64288E-01 1.41753E-03-3.06928E-04
 -1      1731 2.46026E-02-2.44538E-02-2.73325E-05 2.47334E-01-2.18609E-04-4.37955E-04
 -1      1732 2.85081E-02-2.88223E-02 4.11721E-04 2.09914E-01-1.82984E-03 7.33294E-04
 -1      1733 2.91738E-02-2.63405E-02-2.77891E-03 1.66774E-01 6.63110E-04-4.57596E-04
 -1      1734 1.88659E-02-1.65778E-02-2.27570E-03 1.27656E-01 8.83574E-05 1.24604E-03
 -1      1735 6.10430E-03-1.08923E-02 4.77458E-03 1.10533E-01-1.23684E-03 2.10920E-03
 -1      1736 1.45023E-03-3.04921E-03 1.58996E-03 1.21384E-01 4.40681E-03-1.43628E-03
 -1      1737-1.94836E-02 1.78055E-02 1.75143E-03 1.76815E-01 9.46713E-04 2.70749E-04
 -1      1738 2.22319E-02-1.54330E-02-6.69470E-03 2.46741E-01-1.55196E-03 1.59726E-03
 -1      1739 2.13985E-02-2.42734E-02 2.98708E-03 2.63152E-01 1.41184E-03-2.01512E-03
 -1      1740 2.61946E-02-2.44585E-02-1.61889E-03 2.70964E-01 4.76165E-03-3.50683E-03
 -1      1741 2.10538E-02-2.58388E-02 4.90544E-03 2.68898E-01 3.08150E-03-4.09225E-04
 -1      1742 2.61050E-02-2.54268E-02-5.73418E-04 2.47734E-01-5.85234E-04 6.21941E-04
 -1      1743 2.82854E-02-2.67666E-02-1.43114E-03 2.12166E-01-2.16048E-03-1.88807E-03
 -1      1744 2.25413E-02-2.19381E-02-5.41323E-04 1.67006E-01-1.62224E-03-3.67344E-03
 -1      1745 1.70643E-02-2.04332E-02 3.40658E-03 1.26836E-01-3.30050E-04 1.50625E-03
 -1      1746 9.69364E-03-5.13928E-03-4.53660E-03 1.08326E-01 2.33222E-03 4.93582E-03
 -1      1747 2.08616E-03-2.61080E-03 5.76020E-04 1.21152E-01 2.52157E-03-8.94764E-04
 -1      1748-8.48967E-02 8.49072E-02 7.68067E-09 3.73951E-02-7.47467E-04-4.03831E-03
 -1      1749-1.06528E-01 1.14934E-01-8.34061E-03 8.77318E-02-6.43254E-04 7.11594E-03
 -1      1750-1.35131E-01 1.30388E-01 4.82447E-03 1.56946E-01 1.10969E-03 1.07051E-02
 -1      1751-1.03242E-01 9.38953E-02 9.37422E-03 1.61155E-01-1.51767E-03-4.44679E-03
 -1      1752-1.16316E-01 9.80321E-02 1.83655E-02 9.45491E-02 1.06511E-03-1.28283E-02
 -1      1753-1.35786E-01 1.44414E-01-8.54290E-03 1.58129E-01 6.34779E-05-9.10185E-03
 -1      1754-7.42746E-02 8.44603E-02-1.01459E-02 1.64717E-01 2.77849E-03 1.32813E-02
 -1      1755-1.39575E-01 1.39261E-01 2.19601E-08 7.23479E-02-3.90270E-03 2.43469E-03
 -1      1756-2.67983E-01 2.60265E-01 7.60033E-03-9.59022E-02 3.17250E-02 5.53608E-03
 -1      1757-1.74949E-01 1.70634E-01 4.22290E-03-1.52778E-01 1.41941E-02-4.89969E-03
 -1      1758-1.79878E-01 1.82311E-01-2.52914E-03-1.43736E-01-8.48667E-03-4.20481E-03
 -1      1759-1.78327E-01 1.77664E-01 5.76081E-04-1.38453E-01-2.93208E-03-1.71633E-03
 -1      1760-1.72119E-01 1.71964E-01 6.43592E-05-1.33010E-01-1.81621E-03 1.18995E-03
 -1      1761-1.58435E-01 1.56970E-01 1.37288E-03-1.23796E-01 2.58477E-03 8.17449E-04
 -1      1762-1.32731E-01 1.33090E-01-4.54288E-04-1.06854E-01 3.66326E-03-2.06917E-03
 -1      1763-9.42861E-02 9.11889E-02 3.00179E-03-8.25357E-02-1.04144E-02 1.22820E-03
 -1      1764-8.51641E-02 8.37643E-02 1.33733E-03-7.31514E-03-2.94067E-03-1.46823E-03
 -1      1765-2.62798E-01 2.56132E-01 6.81598E-03-1.06660E-01-1.94425E-03-4.14798E-03
 -1      1766-1.58942E-01 1.71918E-01-1.28161E-02-1.77879E-01 4.45336E-03-3.66362E-03
 -1      1767-1.74601E-01 1.63655E-01 1.10232E-02-1.55294E-01-2.77097E-03-8.50205E-03
 -1      1768-1.70438E-01 1.60495E-01 9.96474E-03-1.46722E-01-6.64836E-03-8.32577E-03
 -1      1769-1.65815E-01 1.55891E-01 9.91099E-03-1.37987E-01-2.64965E-03-8.77802E-03
 -1      1770-1.50162E-01 1.51217E-01-1.10756E-03-1.29802E-01-4.34343E-03-6.32014E-03
 -1      1771-1.25218E-01 1.27074E-01-1.94429E-03-1.01906E-01 2.16455E-03-6.07414E-04
 -1      1772-1.09528E-01 9.11843E-02 1.82663E-02-8.82613E-02-3.35533E-03-8.94578E-04
 -1      1773-7.21410E-02 6.80712E-02 4.00239E-03-5.82977E-03 1.10515E-02 1.69109E-03
 -1      1774 1.23716E-03 3.76910E-08-1.14939E-03 1.14736E-01-2.84674E-04-1.19473E-03
 -1      1775-7.69765E-04 3.55399E-08 8.51379E-04 1.03116E-01 2.76310E-03 8.50446E-04
 -1      1776-5.42403E-04 1.52274E-07 7.13337E-04 7.83824E-02 2.34225E-03 6.97532E-04
 -1      1777 2.67003E-03 2.14999E-07-2.50182E-03 3.00626E-02-1.25160E-03-2.58338E-03
 -1      1778 2.45882E-03 1.65000E-07-2.41107E-03-1.12101E-02-2.72754E-03-2.46716E-03
 -1      1779-4.62061E-03 6.56567E-08 4.72235E-03-4.00840E-02-9.45467E-03 4.77488E-03
 -1      1780-1.03571E-02-5.28332E-07 1.02215E-02 2.52931E-02 9.74841E-03 1.03547E-02
 -1      1781-2.38187E-04 1.17058E-08 3.54550E-04 1.18241E-01-1.27884E-05-3.26380E-04
 -1      1782-6.28234E-04 6.32647E-08 6.86791E-04 1.08828E-01-1.77381E-03-6.70194E-04
 -1      1783 1.25702E-03 1.64692E-07-1.14591E-03 8.08587E-02-1.12565E-03 1.16451E-03
 -1      1784 1.00439E-03 2.11860E-07-8.29725E-04 3.14129E-02 4.04593E-03 8.56146E-04
 -1      1785 6.10095E-04 1.69377E-07-6.46444E-04-1.55935E-02 3.13516E-03 6.22323E-04
 -1      1786 3.14653E-03 4.29659E-08-3.12471E-03-4.06010E-02 9.61123E-03 3.08890E-03
 -1      1787 4.58027E-03-6.65731E-07-4.95058E-03 2.86420E-02 6.39583E-03 4.87663E-03
 -1      1788 5.45283E-03-3.19258E-03-2.16422E-03 1.70382E-01-6.17902E-04-4.31286E-03
 -1      1789 1.99569E-02-1.98572E-02 2.92304E-09 2.55694E-01-2.34982E-03-1.62982E-03
 -1      1790 2.48987E-02-2.05933E-02-4.18805E-03 2.44961E-01-1.42244E-03-3.23821E-04
 -1      1791 2.59497E-02-2.58448E-02-2.94470E-08 2.69229E-01 2.79961E-03-4.34239E-03
 -1      1792 2.59348E-02-2.40470E-02-1.77303E-03 2.61791E-01 3.04862E-03-4.81856E-03
 -1      1793 2.27252E-02-2.26039E-02-3.04170E-08 2.69693E-01 3.34949E-03-1.25816E-03
 -1      1794 1.98191E-02-2.05207E-02 8.32775E-04 2.71361E-01 2.95318E-03-1.15471E-03
 -1      1795 2.36719E-02-2.18519E-02-1.70765E-03 2.65769E-01 1.77409E-03-1.49476E-03
 -1      1796 2.29123E-02-2.22548E-02-5.55412E-04 2.48166E-01 1.11248E-03 6.75689E-05
 -1      1797 2.34797E-02-2.33954E-02-2.46323E-09 2.61420E-01 2.43855E-04-2.04266E-04
 -1      1798 2.00206E-02-2.13450E-02 1.41047E-03 2.10376E-01-3.00307E-04-1.29613E-03
 -1      1799 2.33414E-02-2.32524E-02 6.75063E-09 2.35180E-01-6.81557E-04 6.55709E-04
 -1      1800 1.78237E-02-1.77725E-02-7.50166E-11 1.44187E-01 3.20395E-04-8.86197E-04
 -1      1801 2.00668E-02-2.09084E-02 9.07901E-04 1.68707E-01 2.02910E-03-3.73165E-03
 -1      1802 1.20811E-02-1.20390E-02-1.58061E-08 1.14912E-01-5.23762E-04 5.33663E-04
 -1      1803 1.33862E-02-1.27246E-02-6.26777E-04 1.30683E-01-3.07632E-03 1.04298E-03
 -1      1804 4.37138E-03-4.34661E-03 1.62449E-08 1.14517E-01 2.03982E-03-8.86826E-04
 -1      1805 7.85473E-03-8.55768E-03 7.33351E-04 1.09666E-01-2.60872E-03 3.20816E-03
 -1      1806 1.90638E-03-2.00885E-03 1.02058E-04 1.18393E-01 1.99408E-03-3.58169E-03
 -1      1807 1.45241E-02-1.44508E-02 4.62272E-10 2.23127E-01-3.43660E-03 8.28838E-03
 -1      1808 2.72086E-02-2.71443E-02-2.56514E-09 1.91104E-01 1.73405E-04-1.25664E-03
 -1      1809-1.03551E-01 1.04515E-01-8.87840E-04 1.03508E-01-1.26238E-04 1.89626E-03
 -1      1810-1.28641E-01 1.35132E-01-6.44701E-03 1.50249E-01-2.12541E-03 1.06473E-02
 -1      1811-1.37421E-01 1.37497E-01 1.25653E-08 1.52133E-01 1.89750E-03-2.64472E-03
 -1      1812-8.89446E-02 8.65619E-02 2.39927E-03 1.55917E-01 6.11794E-04 1.62112E-02
 -1      1813-1.18273E-01 1.18330E-01-2.32292E-09 1.56841E-01-1.76038E-03 2.78729E-03
 -1      1814-2.50108E-01 2.52571E-01-2.53771E-03-1.19139E-01 1.89807E-03-1.56266E-03
 -1      1815-1.79889E-01 1.79739E-01 1.00356E-08-1.39562E-01 3.53930E-03-6.29574E-03
 -1      1816-1.70587E-01 1.73350E-01-2.79449E-03-1.76386E-01 2.33304E-03-9.29822E-03
 -1      1817-1.78081E-01 1.77896E-01 3.75269E-08-1.39429E-01-2.07032E-03-3.63590E-03
 -1      1818-1.81372E-01 1.82385E-01-1.08607E-03-1.47898E-01 2.40779E-03-5.20023E-03
 -1      1819-1.75229E-01 1.75095E-01 3.49086E-08-1.36317E-01-2.45857E-03-2.87411E-03
 -1      1820-1.75761E-01 1.75321E-01 3.48090E-04-1.40413E-01-2.29770E-03-2.55505E-03
 -1      1821-1.65198E-01 1.65100E-01 1.71207E-08-1.27421E-01-1.10232E-03-1.80602E-03
 -1      1822-1.70159E-01 1.69678E-01 3.95935E-04-1.31887E-01-3.49909E-03-1.10607E-03
 -1      1823-1.46817E-01 1.46711E-01 5.14196E-09-1.17086E-01 2.84024E-03-1.78912E-03
 -1      1824-1.60094E-01 1.59490E-01 4.83365E-04-1.28434E-01-4.25892E-03-3.86607E-03
 -1      1825-1.35582E-01 1.34073E-01 1.46907E-03-9.95581E-02-1.77008E-03 2.98801E-03
 -1      1826-1.17732E-01 1.17641E-01 2.35800E-08-8.64276E-02-3.76462E-03 4.79977E-03
 -1      1827-6.96285E-02 6.95631E-02 2.30302E-08-7.30930E-02-2.56398E-03-1.48405E-03
 -1      1828-1.06964E-01 1.07556E-01-6.89093E-04-7.65306E-02-4.82436E-03 1.84701E-03
 -1      1829-5.97637E-02 6.11830E-02-1.46286E-03-2.12801E-02-6.35397E-03 2.72929E-03
 -1      1830-2.23677E-01 2.23602E-01-3.96361E-09-2.10751E-01 2.05377E-03 1.33574E-03
 -1      1831 1.09500E-04 1.35058E-08-2.16687E-09 1.18386E-01-3.99856E-09 6.63158E-04
 -1      1832 1.13199E-04-7.94025E-05-9.18288E-10 1.02767E-01 2.39149E-05-6.97485E-04
 -1      1833 9.91186E-05 2.73837E-08 4.19517E-09 1.09070E-01-6.44466E-09-1.04326E-03
 -1      1834 1.75972E-03-1.64249E-03 1.54826E-10 5.66115E-02-1.73893E-04 1.79004E-03
 -1      1835 8.22318E-05 9.24069E-08-9.90770E-10 8.21189E-02-4.93447E-09 3.06927E-04
 -1      1836 9.10227E-05-3.73962E-05-2.32301E-08 2.33795E-03 3.97783E-04-1.72717E-03
 -1      1837 1.77519E-06 1.09067E-07-9.01494E-09 3.05742E-02 6.25271E-09-2.78438E-03
 -1      1838 1.18091E-04-1.43344E-04 2.28380E-09-3.55334E-02 3.09840E-04-3.39372E-04
 -1      1839 1.16085E-04 7.67934E-08-8.31727E-09-1.81029E-02 7.16650E-09 4.34022E-04
 -1      1840-4.80415E-03 4.67187E-03-1.16670E-08-5.53189E-02 7.01675E-05 6.28988E-03
 -1      1841-1.20133E-04 6.02484E-08 4.40544E-09-5.01882E-02-6.79658E-09 4.09347E-03
 -1      1842-1.12680E-04-3.84704E-07 1.43357E-08 2.30980E-02 1.94053E-08 1.08091E-02
 -1      1843 1.00389E-05-1.53185E-05 1.91964E-09 1.12518E-01 5.36521E-04-2.59113E-05
 -1      1844-3.88424E-02 4.11090E-02-2.20239E-03 1.82288E-01-2.16929E-03-5.89280E-04
 -1      1845-6.70135E-02 6.41263E-02 2.87813E-03 1.50983E-01-6.02866E-03-1.17377E-02
 -1      1846 9.79191E-03-7.92050E-03-1.81582E-03 2.07593E-01 4.17437E-03-3.30309E-03
 -1      1847 8.95112E-03-2.84709E-03-6.03802E-03 2.04436E-01 1.61495E-03 4.25494E-04
 -1      1848 2.43112E-02-2.41306E-02-8.52231E-05 2.16385E-01-4.51680E-04-3.43391E-04
 -1      1849 2.41573E-02-2.41232E-02 3.78676E-05 2.18363E-01 6.01950E-04 4.16805E-04
 -1      1850 4.95460E-02-4.85803E-02-9.11271E-04 1.74492E-01-7.24346E-05 1.18347E-03
 -1      1851 4.46787E-02-4.54038E-02 8.04922E-04 1.92640E-01 3.36385E-04 1.32413E-03
 -1      1852 3.61581E-02-3.35955E-02-2.47630E-03 1.19509E-01-1.95340E-03 2.96241E-03
 -1      1853 3.47716E-02-3.72505E-02 2.55900E-03 1.31405E-01 4.55755E-04 7.07015E-04
 -1      1854 3.16188E-03-7.68525E-03 4.59469E-03 1.17668E-01 4.00210E-03 6.13626E-04
 -1      1855 2.33168E-02-2.41170E-02 8.08885E-04 7.80942E-02 1.76970E-03 2.81406E-03
 -1      1856 2.34593E-02-2.05524E-02-2.89916E-03 9.93282E-02 4.32481E-03 1.18559E-03
 -1      1857 2.62566E-02-2.78147E-02 1.43045E-03 8.59090E-03-2.20096E-03-1.21629E-03
 -1      1858 2.94139E-02-2.77388E-02-1.63892E-03 2.54375E-02 3.90274E-04-4.38986E-03
 -1      1859-1.50952E-01 1.38053E-01 1.25514E-02 4.25745E-02 1.18171E-02-7.24356E-03
 -1      1860-6.00642E-02 5.64115E-02 3.70806E-03 8.05859E-03-1.70378E-02-7.33963E-03
 -1      1861-2.23355E-01 2.16672E-01 6.58275E-03-6.60351E-02 7.10434E-03-1.69904E-02
 -1      1862-1.52830E-01 1.51037E-01 1.75354E-03-1.02502E-01-6.22269E-03-8.22302E-03
 -1      1863-1.56423E-01 1.62362E-01-6.07067E-03-1.03032E-01-7.04836E-03-7.54376E-03
 -1      1864-1.34061E-01 1.35471E-01-1.46821E-03-8.40548E-02-1.59489E-03-1.62560E-03
 -1      1865-1.43566E-01 1.40929E-01 2.54868E-03-8.94849E-02-2.51355E-03-3.97162E-03
 -1      1866-1.00012E-01 1.01129E-01-1.19207E-03-2.26984E-02 6.54057E-03-5.73372E-03
 -1      1867-1.19178E-01 1.14120E-01 5.03211E-03-3.82101E-02 3.80070E-04-2.08669E-03
 -1      1868-8.73709E-02 8.47626E-02 2.63737E-03 4.97049E-02 2.20471E-03-5.91263E-03
 -1      1869-9.53209E-02 9.40084E-02 1.32700E-03 1.62212E-01 3.97427E-03 1.60943E-03
 -1      1870 6.30309E-03-8.15330E-03 1.89974E-03 1.14917E-01 4.35667E-03 9.55968E-04
 -1      1871 8.82761E-03-1.19999E-02 3.29171E-03 1.16613E-01 1.37558E-03 2.03607E-03
 -1      1872 1.87803E-02-1.56537E-02-3.04685E-03 1.15319E-01-9.53995E-04 2.61003E-03
 -1      1873 1.04780E-02-9.81935E-03-5.72471E-04 1.10753E-01 5.17293E-03-1.73070E-04
 -1      1874-9.07023E-02 9.59893E-02-5.30528E-03 1.16662E-01-5.96931E-04 2.59068E-03
 -1      1875-6.58841E-02 6.50359E-02 8.94594E-04 1.92821E-02-8.08826E-04-1.81050E-03
 -1      1876-1.51243E-02 1.26601E-02 2.53538E-03 1.80556E-01-1.42672E-04 4.33408E-03
 -1      1877-3.13960E-02 2.66120E-02 4.82132E-03 1.71580E-01-3.10958E-03 6.28651E-03
 -1      1878 1.54665E-02-1.47399E-02-6.61283E-04 2.20425E-01 1.41353E-03 1.95126E-03
 -1      1879 2.29113E-02-1.96095E-02-3.22926E-03 2.20438E-01 1.21686E-03-3.89666E-03
 -1      1880 3.75894E-02-3.82111E-02 6.96431E-04 2.01681E-01 1.46803E-03 9.28796E-04
 -1      1881 3.40722E-02-3.41116E-02 1.19121E-04 2.12192E-01 1.14949E-03-4.19337E-04
 -1      1882 4.66185E-02-4.81901E-02 1.63987E-03 1.40750E-01 6.45736E-03 1.36058E-03
 -1      1883 5.07590E-02-5.01013E-02-5.58144E-04 1.63084E-01 3.19668E-03 2.80590E-03
 -1      1884-3.46311E-02 3.25206E-02 2.16442E-03 1.40268E-01-1.34860E-03 1.34803E-03
 -1      1885-9.60250E-02 9.23314E-02 3.72397E-03 1.27403E-01 6.91971E-03-8.77229E-04
 -1      1886-8.81186E-02 9.14832E-02-3.26751E-03-1.49715E-03-3.12223E-03-5.20987E-03
 -1      1887 3.98833E-02-3.86077E-02-1.28621E-03 4.96248E-02 1.78047E-03-5.12988E-03
 -1      1888 3.70381E-02-4.23675E-02 5.33010E-03 7.33356E-02 2.07750E-03 6.87891E-04
 -1      1889-4.90711E-03 4.27436E-03 5.18912E-04-9.40466E-03-2.27004E-02 2.71875E-03
 -1      1890 1.40966E-02-4.76570E-03-9.29206E-03-5.82691E-03-1.32891E-02 3.16810E-03
 -1      1891-1.74694E-01 1.75969E-01-1.34985E-03-9.76378E-02-2.80252E-03-6.03580E-03
 -1      1892-1.82408E-01 1.75617E-01 6.60305E-03-1.25137E-01 4.42996E-03-5.02276E-03
 -1      1893-1.42992E-01 1.43909E-01-9.68454E-04-9.62524E-02-2.92768E-03-4.74269E-03
 -1      1894-1.48934E-01 1.49850E-01-1.02263E-03-9.80561E-02-5.36067E-03-5.86423E-03
 -1      1895-1.22367E-01 1.20364E-01 1.96824E-03-6.00235E-02-5.15048E-04-5.52640E-03
 -1      1896-1.31128E-01 1.32745E-01-1.67399E-03-6.79646E-02 1.80614E-04-4.43100E-03
 -1      1897-6.61429E-02 6.82948E-02-2.09766E-03 1.34956E-01-4.15727E-04 1.89729E-04
 -1      1898 5.66273E-02-5.78074E-02 1.25002E-03 9.13684E-02-2.51092E-03 7.71798E-04
 -1      1899 1.48643E-02-1.78100E-02 3.02421E-03 1.75938E-01 1.26083E-04 2.35441E-03
 -1      1900-7.94644E-02 8.13419E-02-1.78075E-03 1.15372E-01 3.71069E-04-5.39752E-04
 -1      1901-8.16681E-02 8.16573E-02-6.54013E-05 5.89747E-02 2.23545E-03-3.23857E-04
 -1      1902 3.02980E-02-2.97396E-02-4.72588E-04 1.11720E-01 1.88973E-03 2.60894E-03
 -1      1903-2.95555E-03 3.64502E-03-6.26161E-04 1.69166E-01 1.17676E-04-8.76962E-04
 -1      1904 3.34399E-02-3.29986E-02-3.72006E-04 1.71470E-01 1.36802E-03 9.11466E-05
 -1      1905 6.84220E-02-6.75716E-02-7.94319E-04 1.46049E-01 1.71301E-03 1.08052E-04
 -1      1906 3.13844E-02-2.72373E-02-4.17949E-03 4.52171E-02 1.43994E-03-5.79970E-04
 -1      1907-1.65382E-01 1.55853E-01 9.55174E-03-9.18720E-03 2.82497E-03-8.86533E-03
 -1      1908-1.03376E-01 1.04879E-01-1.52090E-03-2.74971E-02 1.72816E-04 1.79721E-04
 -1      1909 5.34012E-02-5.39731E-02 6.39965E-04 1.61336E-01 1.71164E-03 2.44694E-05
 -1      1910 6.08382E-02-6.14623E-02 6.85085E-04 1.24726E-01-6.80522E-04 2.50144E-03
 -1      1911-1.11840E-01 1.12640E-01-7.91870E-04-4.99610E-02 6.96812E-04 2.57373E-03
 -1      1912-9.76313E-02 9.52973E-02 2.28048E-03 1.28470E-02 8.98446E-04 5.97897E-04
 -1      1913-1.35172E-01 1.33674E-01 1.53950E-03-5.64343E-02-5.21898E-04 1.35382E-03
 -1      1914-4.87292E-02 5.33138E-02-4.75619E-03 3.11281E-02-3.92839E-03-6.81027E-04
 -1      1915 6.15985E-02-6.27479E-02 1.20458E-03 6.71626E-02 3.07422E-03-2.89048E-03
 -1      1916-1.18721E-01 1.18477E-01 2.69903E-04-6.07346E-02 7.20793E-04 2.34833E-03
 -1      1917-8.06894E-02 8.47480E-02-4.03570E-03 9.59060E-02-1.10883E-03-4.94897E-05
 -1      1918 2.62796E-02-2.55233E-02-7.30933E-04 1.33021E-01 3.82710E-04-1.71311E-04
 -1      1919 1.80317E-02-1.79606E-02-2.87449E-05 1.34867E-01 8.10130E-04 6.46301E-04
 -1      1920 7.73358E-02-7.59642E-02-1.35309E-03 1.19749E-01 1.25704E-03-2.59757E-03
 -1      1921 6.97264E-02-6.92488E-02-4.42063E-04 1.32536E-01 6.33546E-04-6.48076E-04
 -1      1922 9.63256E-03-1.36582E-02 3.92097E-03 5.45205E-02 2.39299E-03-4.24876E-03
 -1      1923 4.23100E-02-4.10065E-02-1.28591E-03 7.06843E-02 1.39921E-03-2.08796E-03
 -1      1924-8.34729E-02 8.30026E-02 4.65241E-04-1.15733E-02 8.15253E-04 1.95875E-03
 -1      1925-8.44554E-02 8.47670E-02-3.10184E-04-1.95628E-02 2.08166E-03 2.81894E-03
 -1      1926-3.44283E-02 3.45524E-02-1.07747E-04 1.06433E-01-1.81233E-03 2.53331E-03
 -1      1927-5.37710E-02 4.96402E-02 4.10912E-03 8.85404E-02 1.25294E-03 8.73229E-04
 -1      1928 4.58475E-03-6.30198E-03 1.74116E-03 1.35100E-01 9.83618E-04 7.58735E-04
 -1      1929-2.86110E-03 2.50752E-03 4.00227E-04 1.38541E-01 1.02774E-04 1.77956E-04
 -1      1930-1.13250E-03 1.75176E-03-5.69634E-04 9.83686E-02 4.09613E-04-1.32327E-03
 -1      1931-8.90417E-03 8.30892E-03 6.24964E-04 1.39486E-01 4.55153E-04-5.56621E-04
 -1      1932-1.96925E-02 1.99225E-02-1.99098E-04 1.29584E-01-2.09773E-03 1.70239E-03
 -1      1933-4.13072E-02 4.29456E-02-1.59099E-03 7.85652E-02-1.90901E-03 2.14568E-03
 -1      1934-2.01806E-02 1.79004E-02 2.36053E-03 9.71293E-02-1.19832E-04-1.33019E-03
 -1      1935-8.32143E-02 8.27897E-02 4.08403E-04-1.93178E-02 3.38199E-03 3.08133E-03
 -1      1936-8.57698E-02 8.57603E-02 1.30783E-05-2.24736E-02 1.19475E-03 3.77113E-03
 -1      1937-5.90665E-02 5.95213E-02-4.68031E-04 2.01243E-02 1.10697E-03 6.26702E-04
 -1      1938 6.84150E-02-6.56989E-02-2.71821E-03 8.23316E-02 1.40544E-03-6.48831E-04
 -1      1939 7.44226E-02-7.51157E-02 7.42949E-04 9.54095E-02-8.49731E-04-2.12055E-03
 -1      1940-7.52631E-02 7.35686E-02 1.71226E-03 2.06990E-02 1.24212E-03-4.70293E-04
 -1      1941-7.87661E-02 7.78306E-02 8.92924E-04 5.36841E-03 1.78902E-04 1.46504E-03
 -1      1942-6.78154E-02 6.99546E-02-2.09607E-03 7.69707E-02 9.91367E-04 2.11478E-03
 -1      1943-1.03385E-01 1.01662E-01 1.52926E-03 4.01825E-02 2.98351E-03-5.92354E-03
 -1      1944-3.59640E-02 3.66183E-02-6.04815E-04 3.75219E-02-1.24356E-03 3.82905E-03
 -1      1945-2.37100E-02 2.60673E-02-2.42448E-03 5.15781E-02-8.72851E-04 9.03569E-06
 -1      1946-9.60420E-02 9.74793E-02-1.48045E-03-1.03947E-02-3.93869E-03-1.22119E-03
 -1      1947-7.64752E-02 7.59330E-02 5.75523E-04 5.84979E-02 9.43218E-04-4.51730E-05
 -1      1948 5.65789E-02-5.67790E-02 2.18217E-04 1.31476E-01 1.02952E-03 1.55736E-04
 -1      1949 4.45017E-02-4.38537E-02-6.12052E-04 1.36627E-01 1.39528E-03-1.05876E-03
 -1      1950 5.92760E-02-5.90819E-02-1.27996E-04 1.08490E-01-2.51988E-04 7.04446E-04
 -1      1951-8.66504E-02 8.52493E-02 1.37141E-03-1.01511E-02 1.74741E-03 1.81338E-03
 -1      1952-8.66886E-02 8.68890E-02-2.84735E-04-1.31538E-03 9.68897E-04 1.01306E-03
 -1      1953-4.64136E-02 4.93954E-02-2.99015E-03 3.71942E-02-1.20752E-03 1.80134E-03
 -1      1954-4.85642E-02 4.85750E-02-2.63022E-05 3.26113E-02 4.21268E-04-4.09591E-04
 -1      1955 3.80238E-02-3.82118E-02 2.09500E-04 1.17204E-01-3.78698E-03 2.02049E-03
 -1      1956 4.66854E-02-4.58367E-02-7.85330E-04 1.04564E-01-1.27394E-03 1.70980E-03
 -1      1957 2.52281E-02-2.48943E-02-2.83852E-04 1.05851E-01 7.12976E-04-1.04371E-03
 -1      1958 5.23683E-02-5.18122E-02-5.28325E-04 9.13386E-02-7.44842E-04-6.69745E-04
 -1      1959 7.22811E-02-7.35719E-02 1.30421E-03 1.10739E-01-1.78147E-03-1.82954E-03
 -1      1960 6.44859E-02-6.33754E-02-1.01799E-03 1.01382E-01-3.68969E-03 5.54344E-04
 -1      1961-5.76370E-02 5.79444E-02-3.19481E-04 3.85079E-02-5.53789E-04 1.04500E-03
 -1      1962 2.84770E-02-3.11630E-02 2.68755E-03 9.48444E-02 1.75127E-03-4.11772E-03
 -1      1963-9.09911E-03 8.86627E-03 2.88111E-04 5.66645E-02 5.55713E-04-1.79131E-03
 -1      1964 4.44852E-03-6.88144E-03 2.43958E-03 7.40757E-02 2.23432E-03-2.40356E-03
 -1      1965-3.43577E-02 3.48906E-02-5.29116E-04 6.01500E-02 2.71502E-05-3.39161E-04
 -1      1966-3.17195E-02 3.11123E-02 5.93249E-04 5.93137E-02 1.53571E-03-1.58293E-03
 -1      1967-1.95231E-02 1.98688E-02-3.30666E-04 6.32107E-02 2.18452E-04-7.15364E-04
 -1      1968-1.21231E-02 1.21534E-02-3.13619E-05 7.09738E-02 2.58441E-04-3.54461E-04
 -1      1969-4.39132E-02 4.33486E-02 5.68137E-04 6.12076E-02-4.95766E-04 8.11052E-04
 -1      1970 4.53594E-03-2.11167E-03-2.35231E-03 1.18219E-01 1.57550E-03 5.49849E-04
 -1      1971 3.50125E-02-3.50199E-02 6.81449E-05 1.31128E-01-4.26590E-03-4.15753E-03
 -1      1972 3.20723E-02-3.50334E-02 3.03991E-03 1.15547E-01 6.75064E-04-1.88640E-03
 -1      1973 4.66988E-02-4.58424E-02-7.79129E-04 1.95500E-01-5.37603E-03-1.29163E-03
 -1      1974 4.66223E-02-4.83214E-02 1.75807E-03 1.75285E-01-3.65661E-03-5.94540E-03
 -1      1975 2.39748E-02-2.65650E-02 2.67761E-03 2.20909E-01 1.40209E-03 2.23944E-03
 -1      1976 2.58591E-02-2.56072E-02-2.05296E-04 2.16871E-01 4.31654E-04 2.09450E-03
 -1      1977 2.09744E-03-2.76198E-03 6.97402E-04 1.99263E-01-1.29875E-04-2.10074E-03
 -1      1978 3.90726E-03-4.83196E-03 1.00980E-03 2.05011E-01 5.13648E-04-3.29518E-03
 -1      1979-7.12087E-02 6.93107E-02 1.90263E-03 1.52905E-01 3.74907E-04 4.41741E-03
 -1      1980-3.92648E-02 3.75884E-02 1.69919E-03 1.73006E-01-3.87788E-03 1.83678E-03
 -1      1981-9.38117E-02 9.34869E-02 3.50444E-04 1.61258E-01-5.75290E-03-8.10856E-04
 -1      1982-7.98989E-02 7.09167E-02 9.01698E-03 5.23193E-02 1.21022E-02-9.31196E-03
 -1      1983-9.36415E-02 9.16822E-02 1.97160E-03 3.84752E-03 1.04630E-03 4.01047E-03
 -1      1984-6.09048E-02 6.26082E-02-1.68402E-03 8.69653E-03 3.76053E-04-3.18994E-03
 -1      1985-1.33753E-01 1.32876E-01 8.72756E-04-8.17572E-02-5.74140E-04 2.77620E-03
 -1      1986-1.24815E-01 1.29108E-01-4.36956E-03-7.55356E-02 3.84273E-03 4.85402E-03
 -1      1987-1.42947E-01 1.39754E-01 3.10632E-03-9.86737E-02 1.86684E-04 2.11614E-03
 -1      1988-1.39354E-01 1.37867E-01 1.40367E-03-9.42600E-02 1.70044E-03 3.88388E-03
 -1      1989-1.79312E-01 1.77972E-01 1.12082E-03-1.20890E-01 3.34532E-03 5.44750E-03
 -1      1990-1.76745E-01 1.76609E-01-1.93371E-05-9.34755E-02 2.31832E-03 4.08327E-03
 -1      1991-1.69782E-01 1.69418E-01 2.05418E-05 5.52939E-02 1.01993E-02 1.06669E-02
 -1      1992-2.15221E-01 2.19202E-01-4.29363E-03-9.59952E-02 6.60386E-03 1.12242E-02
 -1      1993-1.55706E-01 1.57468E-01-1.79547E-03-1.05402E-02-2.20206E-03 9.24133E-04
 -1      1994-6.90246E-02 7.03685E-02-1.13874E-03 1.89896E-05 2.61642E-02 1.21002E-02
 -1      1995 3.39671E-02-3.16510E-02-2.25332E-03 2.86545E-02 1.07036E-02 2.98730E-03
 -1      1996 3.00690E-02-3.04781E-02 3.36772E-04 4.28948E-03 5.87213E-03 1.90548E-03
 -1      1997 2.14182E-02-2.44572E-02 3.10953E-03 9.79899E-02-7.49915E-04-1.88392E-03
 -1      1998 2.59547E-02-2.29541E-02-2.97055E-03 7.86644E-02 1.30040E-03 1.66876E-03
 -1      1999 9.98885E-03-9.89191E-03-5.84635E-05 1.16158E-01-9.11960E-04-7.29004E-05
 -1      2000 1.22016E-02-1.18196E-02-3.22481E-04 1.08965E-01-2.43110E-03 3.88930E-04
 -1      2001 3.47180E-02-3.60045E-02 1.41026E-03 1.06708E-01 2.32079E-03-3.34158E-04
 -1      2002 1.40105E-02-1.06500E-02-3.27243E-03 1.12779E-01 3.44803E-03 2.01865E-03
 -1      2003-9.86432E-02 1.05493E-01-6.85908E-03 1.22660E-01 6.11885E-03-7.87664E-03
 -1      2004 4.31592E-02-4.15005E-02-1.54536E-03 1.45961E-01-3.46122E-03-5.40307E-03
 -1      2005 5.71361E-02-5.70190E-02-8.58438E-05 1.30829E-01-7.72342E-04-1.84806E-03
 -1      2006 4.43257E-02-4.55028E-02 1.28787E-03 1.64270E-01-2.76730E-03-6.72080E-03
 -1      2007 1.67121E-02-1.75062E-02 8.40964E-04 1.16148E-01 1.82363E-03 1.32413E-03
 -1      2008 6.44596E-02-6.39974E-02-4.08242E-04 1.48790E-01-1.34106E-03-1.13403E-03
 -1      2009 3.62185E-02-3.42479E-02-1.88085E-03 2.12280E-01-1.27328E-03 2.82243E-04
 -1      2010 3.72379E-02-3.68139E-02-3.85985E-04 2.01380E-01-3.25433E-03-1.16123E-03
 -1      2011 1.56351E-02-1.49164E-02-6.43660E-04 2.12836E-01 2.23077E-03-2.16739E-03
 -1      2012 1.38204E-02-1.53451E-02 1.56302E-03 2.16008E-01 2.86622E-03-1.67137E-03
 -1      2013-1.23232E-02 1.67070E-02-4.33703E-03 1.78998E-01-2.58194E-03 1.88823E-03
 -1      2014-1.11503E-02 1.32721E-02-2.05206E-03 1.90122E-01-2.83877E-03-1.33141E-04
 -1      2015-9.17523E-02 9.44181E-02-2.62702E-03 1.33277E-01-3.21757E-03 1.33508E-03
 -1      2016-9.75910E-02 9.98946E-02-2.33973E-03-1.76662E-02 2.48742E-03 3.66221E-03
 -1      2017-8.51017E-02 8.19819E-02 3.08148E-03 6.29090E-02 8.74349E-04 2.13113E-04
 -1      2018-1.18274E-01 1.18026E-01 2.44570E-04-4.04625E-02 3.37469E-03 1.54054E-03
 -1      2019-9.89314E-02 9.80487E-02 8.35501E-04 3.12418E-03 2.32633E-04 3.68093E-03
 -1      2020-1.39351E-01 1.37877E-01 1.40680E-03-9.07948E-02 2.08561E-03 2.39101E-03
 -1      2021-1.34257E-01 1.31972E-01 2.20369E-03-8.43507E-02 1.25371E-03 1.65827E-04
 -1      2022-1.59496E-01 1.53739E-01 5.62591E-03-1.09787E-01 3.58451E-03 1.04321E-03
 -1      2023-1.48526E-01 1.47553E-01 9.02164E-04-9.94564E-02 2.68930E-04 5.23335E-05
 -1      2024 3.31456E-03 1.38905E-03-4.61692E-03-5.10047E-03 1.71189E-02-7.54653E-03
 -1      2025-2.30919E-03 7.45429E-03-5.38535E-03-1.51733E-03 3.08078E-02 3.17042E-03
 -1      2026 3.44619E-02-3.24389E-02-2.07685E-03 6.31748E-02 2.54504E-03 7.39845E-04
 -1      2027 3.28193E-02-3.19963E-02-9.02202E-04 3.90349E-02 6.95820E-03 3.80052E-04
 -1      2028 5.46785E-02-5.01220E-02-4.29347E-03 8.30099E-02 3.35738E-04 1.11716E-03
 -1      2029 5.36257E-02-5.27315E-02-8.16275E-04 1.62897E-01-2.06678E-03 1.81717E-04
 -1      2030 1.57860E-02-1.51539E-02-5.40222E-04 1.72044E-01-5.25275E-04 1.49336E-04
 -1      2031-3.07226E-02 3.26348E-02-1.85713E-03 1.43942E-01 8.73911E-04-1.21787E-03
 -1      2032-1.15082E-01 1.17838E-01-2.79155E-03-5.38323E-02 7.87674E-04-6.52716E-04
 -1      2033 5.60255E-02-5.64127E-02 4.69559E-04 6.10305E-02 1.88815E-04 2.34739E-03
 -1      2034-6.80134E-02 5.56344E-02 1.23305E-02 2.61653E-02 3.24272E-03 9.71952E-03
 -1      2035-6.35691E-02 6.53326E-02-1.71688E-03 1.40924E-01-3.22629E-03 1.08094E-03
 -1      2036-6.82511E-03 6.46431E-03 4.15609E-04 1.58611E-01 1.59311E-03-1.47571E-03
 -1      2037 3.46623E-02-3.45804E-02 6.50536E-07 1.72207E-01-1.24936E-03 9.70284E-04
 -1      2038-8.68646E-02 8.28178E-02 4.08689E-03 1.18961E-01 2.97699E-03-1.89894E-03
 -1      2039-1.08079E-01 1.09511E-01-1.49643E-03-3.37442E-02 2.65208E-03 3.69926E-03
 -1      2040-1.29692E-01 1.35554E-01-5.88377E-03-4.81359E-02 8.19517E-04-9.61030E-04
 -1      2041-1.07558E-01 1.09869E-01-2.35488E-03-4.56607E-02 1.13887E-03 1.93349E-04
 -1      2042 2.77502E-02-2.75139E-02-2.42961E-04 4.44833E-02 7.56154E-03-3.52757E-03
 -1      2043 3.85373E-02-3.90088E-02 4.79500E-04 1.13649E-01 2.74903E-03 7.24242E-05
 -1      2044-8.64573E-02 8.48573E-02 1.63665E-03 9.99624E-02-6.37860E-04-3.50209E-04
 -1      2045-5.46939E-02 5.75123E-02-2.79416E-03 9.94083E-02 2.87516E-03 3.24040E-04
 -1      2046-4.00738E-02 4.05213E-02-4.13971E-04 1.00551E-01 2.32947E-03-3.44784E-04
 -1      2047 2.00293E-02-2.07437E-02 7.49527E-04 1.36725E-01-1.71097E-03 9.22495E-04
 -1      2048 2.87712E-02-2.97960E-02 1.02887E-03 1.35322E-01-1.00764E-03 5.86861E-04
 -1      2049-8.33927E-02 8.13332E-02 2.03921E-03-1.46454E-02 4.17403E-04-1.68733E-03
 -1      2050-7.78224E-02 7.74990E-02 3.05632E-04-1.44417E-02-7.96468E-04-1.34312E-03
 -1      2051-3.07864E-02 3.04166E-02 3.90699E-04 1.00774E-01-8.18850E-05-9.45057E-04
 -1      2052-1.80273E-02 1.80382E-02 2.09894E-05 1.10718E-01-6.91554E-05-6.72997E-04
 -1      2053-5.36775E-02 5.23621E-02 1.31773E-03 5.32054E-02-5.61736E-05-2.34249E-03
 -1      2054-8.44201E-02 8.60645E-02-1.65885E-03 7.02878E-03-2.96434E-04-2.20577E-03
 -1      2055-8.60397E-02 8.73338E-02-1.28267E-03 1.29655E-02 4.27195E-04-1.01808E-03
 -1      2056-7.33448E-02 7.36119E-02-2.83457E-04 4.40066E-02 4.84595E-04-5.28138E-04
 -1      2057 3.77276E-02-4.11189E-02 3.43132E-03 6.19296E-02 8.27436E-04 2.97677E-03
 -1      2058 1.46450E-02-1.35606E-02-1.12817E-03 5.46597E-02-2.83653E-03 8.58911E-05
 -1      2059-7.43788E-02 7.33542E-02 9.94235E-04-9.50534E-04-9.94408E-05-1.95689E-03
 -1      2060-7.39187E-02 7.39611E-02-4.80301E-05 6.14680E-03-1.27318E-03-1.63994E-03
 -1      2061-6.59579E-02 6.29303E-02 3.08630E-03 9.04757E-02 7.56136E-04 1.64285E-03
 -1      2062-9.15325E-02 9.05951E-02 8.35807E-04 2.40652E-02-9.93547E-04 2.34375E-03
 -1      2063-9.64743E-02 9.16488E-02 4.82475E-03-1.03279E-02-4.50039E-04-7.42139E-04
 -1      2064-2.89220E-02 3.21367E-02-3.23179E-03 4.62061E-02-5.31043E-03-4.42194E-04
 -1      2065 4.69445E-02-4.62080E-02-6.96461E-04 1.39429E-01-1.60104E-03-3.94741E-05
 -1      2066 5.72118E-02-5.71978E-02-3.08597E-05 1.32905E-01-1.04535E-03-6.02729E-05
 -1      2067 2.87998E-02-2.98081E-02 1.06096E-03 1.07806E-01-1.57195E-03 7.80578E-04
 -1      2068 2.54800E-04 1.65149E-03-1.86689E-03 1.33984E-01-2.06569E-04-2.49435E-04
 -1      2069 8.73576E-03-7.58340E-03-1.13878E-03 1.37362E-01-2.33413E-03 5.47237E-04
 -1      2070-2.47356E-02 2.57309E-02-9.64893E-04 7.85361E-02-1.92567E-04-7.60289E-04
 -1      2071 1.06877E-03-1.24085E-03 2.25610E-04 1.00548E-01-1.77704E-03-1.17728E-04
 -1      2072-8.32290E-02 8.27334E-02 4.65092E-04-7.37587E-04-1.06127E-03 3.58443E-04
 -1      2073-8.13452E-02 8.11151E-02 2.02809E-04-9.06138E-03-8.72970E-04-2.57805E-05
 -1      2074-4.36917E-02 4.34527E-02 2.33424E-04 3.34876E-02 6.23983E-04 1.33920E-03
 -1      2075-4.87005E-02 4.84584E-02 2.19682E-04 3.89793E-02-1.26795E-03 2.50766E-03
 -1      2076 6.85207E-02-6.98803E-02 1.38504E-03 8.52118E-02-1.19013E-03 1.65571E-03
 -1      2077 6.27790E-02-6.44336E-02 1.66292E-03 8.41474E-02-3.33146E-04 2.72354E-03
 -1      2078-2.10042E-02 2.28809E-02-1.91427E-03 5.60077E-02-2.31430E-03-9.69919E-04
 -1      2079 4.83233E-02-4.95997E-02 1.34733E-03 1.08333E-01 2.22947E-03-9.80348E-04
 -1      2080 6.38069E-02-6.35115E-02-2.33483E-04 1.10000E-01-3.95117E-04-2.48511E-04
 -1      2081 7.43180E-02-7.62692E-02 1.98664E-03 1.32269E-01 4.00211E-04 4.63572E-04
 -1      2082 6.21344E-02-6.14223E-02-7.15042E-04 1.00228E-01 1.42186E-03 4.33647E-04
 -1      2083 6.70864E-02-6.66881E-02-3.41834E-04 8.71986E-02 6.64852E-04 3.01065E-03
 -1      2084 7.57111E-02-7.57890E-02 1.51720E-04 1.07303E-01 4.11929E-04 1.80070E-03
 -1      2085 6.25388E-02-6.36491E-02 1.19176E-03 1.12614E-01 1.33609E-03-1.15096E-03
 -1      2086 5.48386E-02-5.75552E-02 2.73452E-03 9.01949E-02 1.89820E-03 1.13627E-03
 -1      2087 7.37078E-02-7.41314E-02 4.95052E-04 1.24257E-01-1.28383E-04 3.26295E-04
 -1      2088-2.83978E-02 2.81471E-02 2.53968E-04 6.53660E-02-1.11764E-04-5.19705E-04
 -1      2089-2.00796E-02 2.00718E-02 2.67638E-05 6.51680E-02-5.30108E-04 8.32778E-04
 -1      2090-4.76520E-02 4.74181E-02 2.51001E-04 3.70268E-02-9.17416E-05-1.01034E-03
 -1      2091-8.95642E-03 8.70084E-03 2.49645E-04 7.36502E-02-7.67909E-04 1.95435E-03
 -1      2092 6.64086E-02-6.56003E-02-8.00017E-04 1.27046E-01-1.63384E-03 3.67043E-05
 -1      2093 3.46403E-02-3.48519E-02 2.18425E-04 9.68516E-02-2.50465E-04 8.71171E-04
 -1      2094 1.02632E-02-9.24684E-03-1.01193E-03 7.72123E-02-1.37214E-03 1.87363E-03
 -1      2095-3.00925E-03 5.78789E-03-2.75875E-03 6.08139E-02-2.14273E-03 1.90953E-03
 -1      2096-6.80977E-02 6.76817E-02 4.23662E-04 8.18787E-02-7.46733E-04 1.71902E-04
 -1      2097-5.85443E-02 5.87096E-02-1.54908E-04 8.91962E-02 1.12794E-03-1.09769E-03
 -1      2098-4.88256E-02 4.94093E-02-5.51839E-04 1.29131E-01-2.29892E-04-4.89076E-04
 -1      2099 4.41804E-02-4.40940E-02-2.03762E-05 1.68508E-01 6.04767E-04-2.23647E-04
 -1      2100 3.35405E-02-3.35288E-02 6.75119E-05 1.71507E-01 4.55177E-05 7.13058E-04
 -1      2101 2.80790E-02-2.82673E-02 2.26707E-04 1.34495E-01 1.50811E-04 5.33588E-05
 -1      2102-1.34604E-01 1.33623E-01 9.97521E-04-7.86266E-02 1.20583E-03 1.71748E-03
 -1      2103-1.49137E-01 1.50524E-01-1.48517E-03-1.00198E-01 1.53174E-03 5.76528E-03
 -1      2104-1.41602E-01 1.38842E-01 2.63684E-03-8.31656E-02-3.00677E-03 3.68876E-03
 -1      2105-1.62829E-01 1.65169E-01-2.41803E-03-1.19513E-01 3.74925E-04 8.21430E-04
 -1      2106-1.66410E-01 1.68849E-01-2.48469E-03-1.23765E-01-2.72231E-03 3.92371E-03
 -1      2107-5.11690E-02 4.96354E-02 1.59547E-03 1.49273E-01-1.12123E-03 9.22464E-04
 -1      2108-4.27161E-02 4.44703E-02-1.70036E-03 1.55455E-01-1.04369E-03-2.83238E-05
 -1      2109-6.89648E-02 6.90863E-02-1.09170E-04 1.34708E-01-9.81496E-04 2.56666E-04
 -1      2110-6.35867E-02 6.21018E-02 1.55366E-03 1.58655E-01-1.65386E-03 3.33659E-04
 -1      2111-2.54097E-02 2.54690E-02-2.29706E-04 1.48252E-02-2.13477E-03 3.25621E-04
 -1      2112-9.30299E-03 6.46458E-03 2.88089E-03-5.10956E-03-3.31327E-03-3.18619E-03
 -1      2113 3.26849E-03-6.96523E-03 3.69465E-03 1.23274E-02 1.56625E-04-4.51828E-03
 -1      2114-6.59158E-04 6.82813E-04 1.87667E-05 4.55094E-02-4.41407E-04-1.44157E-03
 -1      2115-1.40870E-02 1.96922E-02-5.72218E-03 5.78033E-03-4.77349E-04-2.32734E-03
 -1      2116 1.43509E-02-1.55167E-02 1.15340E-03 8.76332E-03-3.88551E-03 6.29708E-04
 -1      2117 2.40352E-02-2.39916E-02 1.38946E-05 1.75363E-01-3.44186E-04 1.32947E-03
 -1      2118 1.90938E-02-1.88660E-02-1.70448E-04 1.36983E-01 3.33576E-04 5.04257E-04
 -1      2119-1.06911E-01 1.06804E-01 4.36235E-05-4.30298E-02-4.39670E-04 3.47083E-04
 -1      2120-8.36733E-02 8.37532E-02-1.04284E-04-8.99335E-03-1.31578E-03 4.22313E-06
 -1      2121-8.33342E-02 8.37668E-02-4.68648E-04-1.55786E-02-8.26340E-04-7.45109E-04
 -1      2122-1.07797E-01 1.08042E-01-2.95570E-04-4.93256E-02-1.25126E-04-8.92227E-05
 -1      2123 1.85199E-02-1.89758E-02 5.73800E-04 4.98188E-02-1.25495E-04 2.23447E-03
 -1      2124 5.47408E-02-5.64190E-02 1.70669E-03 6.59917E-02 2.59979E-03 6.68254E-04
 -1      2125 5.56840E-02-5.69217E-02 1.32906E-03 8.37834E-02 9.85739E-04-3.68353E-04
 -1      2126 1.85646E-02-2.05796E-02 1.96174E-03 6.69321E-02 9.31401E-04 1.70482E-03
 -1      2127 3.79893E-02-3.66997E-02-1.23041E-03 6.14155E-02-5.16347E-04 1.87893E-03
 -1      2128-8.41560E-02 8.40321E-02 1.12679E-04 6.01495E-02 1.38259E-03 6.89667E-04
 -1      2129-8.71297E-02 8.67866E-02 3.41817E-04 3.74101E-02 4.24533E-04 1.90073E-03
 -1      2130-8.46383E-02 8.37286E-02 9.68543E-04 9.64189E-02 1.23269E-03-9.89622E-04
 -1      2131-6.22130E-02 6.21640E-02-8.52612E-06 3.71736E-02-1.65432E-03 2.07510E-03
 -1      2132-2.51347E-02 2.40956E-02 1.02633E-03 5.53506E-02-8.38374E-04-1.75206E-03
 -1      2133-3.05943E-02 2.89400E-02 1.64039E-03 4.15157E-02 5.49732E-04-1.29264E-03
 -1      2134-8.01418E-02 8.01844E-02-1.14722E-05 1.49734E-01-8.86939E-05-3.17782E-03
 -1      2135 4.60017E-02-4.60849E-02 1.36139E-04 1.38073E-01 5.05295E-05-3.85542E-04
 -1      2136 1.26788E-02-1.03332E-02-2.32059E-03-2.56941E-02 7.37984E-03 2.49056E-03
 -1      2137-1.36305E-02 1.83174E-02-4.77032E-03-1.72312E-02 4.38865E-03 2.34975E-03
 -1      2138 1.80725E-02-1.79296E-02-9.50859E-05 7.94351E-02 3.74037E-04-1.86968E-04
 -1      2139 1.73574E-02-1.77766E-02 4.54072E-04 7.96597E-02 1.21863E-03-5.67845E-04
 -1      2140 3.46798E-02-3.54134E-02 9.24540E-04 8.96691E-02 1.19241E-03-1.01791E-03
 -1      2141 2.14585E-02-1.96489E-02-1.78552E-03 6.86178E-02 1.67742E-03 1.14859E-03
 -1      2142 1.55486E-02-1.51826E-02-4.09877E-04 5.35528E-02 3.24969E-03-2.64694E-03
 -1      2143 4.54038E-02-4.53588E-02-2.30764E-05 1.09411E-01-6.40924E-05-5.63849E-04
 -1      2144 2.70627E-02-2.67374E-02-2.83399E-04 1.06365E-01 3.04050E-04-3.34261E-04
 -1      2145 8.50390E-03-7.98625E-03-5.13019E-04 7.52921E-02 2.33334E-04-1.77463E-05
 -1      2146 5.64605E-02-5.59735E-02-4.51051E-04 1.32655E-01-5.64596E-04-4.37324E-05
 -1      2147 7.35035E-02-7.34152E-02-4.00212E-05 1.31655E-01 1.04545E-03 3.36895E-04
 -1      2148 6.47041E-02-6.46363E-02 3.41784E-06 1.56974E-01-2.08235E-04 4.48983E-04
 -1      2149-1.93413E-02 1.96253E-02-2.78016E-04 6.32378E-02 2.27142E-04 3.12014E-04
 -1      2150 4.69791E-04-5.65839E-04 1.21662E-04 1.00022E-01-8.47045E-04-5.93569E-04
 -1      2151 1.10039E-02-1.09891E-02 6.43132E-06 1.01485E-01-9.57009E-04 2.95228E-04
 -1      2152 6.00155E-02-6.00304E-02 7.61909E-05 1.10686E-01-1.35079E-03-3.86754E-04
 -1      2153 5.34813E-02-5.31158E-02-3.47852E-04 8.90772E-02-2.33531E-04 1.16640E-03
 -1      2154 8.07555E-02-8.07035E-02-2.45316E-05 1.06902E-01 4.73755E-04-1.16065E-03
 -1      2155-6.09164E-02 6.05670E-02 4.56203E-04 1.59983E-01-1.21234E-04-2.02589E-03
 -1      2156-2.29987E-02 2.04280E-02 2.64214E-03 1.96502E-01-7.10140E-04 3.33035E-03
 -1      2157-4.61478E-03-5.65674E-04 5.28598E-03 2.03869E-01-1.00046E-03 3.12714E-03
 -1      2158 9.22249E-03-9.49000E-03 3.44055E-04 2.17386E-01-7.41320E-04-2.17144E-03
 -1      2159-3.32212E-02 3.14057E-02 1.88590E-03 1.52261E-01-4.51487E-04 7.47753E-04
 -1      2160 6.30568E-03-2.66804E-03-3.54244E-03 2.09428E-01-1.31098E-03 1.95550E-03
 -1      2161 3.50287E-02-3.74508E-02 2.35893E-03 1.72754E-02-3.55005E-03-1.50599E-03
 -1      2162 1.01774E-02-1.15346E-02 1.47195E-03-1.65257E-02-1.09489E-03-4.43799E-04
 -1      2163 2.40903E-02-2.33968E-02-6.49454E-04 6.00785E-03-6.00074E-03-1.94597E-04
 -1      2164 4.07094E-02-4.16319E-02 9.82027E-04 3.13337E-02-1.32515E-03-7.02648E-04
 -1      2165 1.35203E-02-1.41472E-02 4.98432E-04-5.09649E-03-2.59885E-03 4.46471E-04
 -1      2166-2.76495E-02 2.56507E-02 1.77425E-03-1.71314E-02-4.74578E-03-6.47507E-04
 -1      2167 4.16670E-03-8.05394E-03 3.67680E-03-2.47984E-02-4.15506E-03 1.28806E-03
 -1      2168 3.63370E-02-3.74525E-02 1.13257E-03 9.76671E-02 4.33478E-06-1.57204E-03
 -1      2169 1.38471E-02-1.53890E-02 1.60139E-03 1.01641E-01-2.07735E-03-1.97294E-03
 -1      2170 2.52878E-02-2.58417E-02 5.98949E-04 1.07245E-01-3.52842E-04-6.82539E-04
 -1      2171-1.27320E-01 1.27990E-01-7.38310E-04-7.88134E-02 3.08191E-03-1.47662E-03
 -1      2172-1.07781E-01 1.10234E-01-2.48150E-03-3.38960E-02 1.77275E-03 4.00698E-03
 -1      2173-9.94905E-02 1.00377E-01-8.99440E-04 1.41900E-03-1.38620E-03 2.02279E-03
 -1      2174 6.97747E-02-6.93962E-02-3.49113E-04 8.45805E-02-9.24153E-04-6.98348E-04
 -1      2175 7.64580E-02-7.54646E-02-9.09122E-04 1.06710E-01-1.99088E-04 1.75871E-04
 -1      2176 2.37843E-02-2.30123E-02-7.35338E-04 5.05526E-02-1.45287E-03-2.96519E-03
 -1      2177 5.34257E-02-5.32604E-02-1.19612E-04 5.42171E-02 7.62683E-04 2.31642E-03
 -1      2178 4.22588E-02-3.98979E-02-2.33709E-03 6.61662E-02 1.09192E-03 1.07508E-03
 -1      2179-5.16532E-02 5.15307E-02 1.22888E-04 3.66319E-02-4.22223E-04-4.73037E-04
 -1      2180-5.45150E-02 5.48221E-02-3.17827E-04 2.26707E-02-1.37934E-04 4.33862E-04
 -1      2181-5.07167E-02 5.07602E-02-6.02349E-05 2.49588E-02 8.23146E-04-3.09911E-04
 -1      2182-8.19635E-02 8.23761E-02-4.22204E-04-1.60325E-02-5.30258E-04-1.10156E-03
 -1      2183 1.85140E-03-3.11317E-03 1.34748E-03 2.18695E-01-7.34272E-04 2.21483E-03
 -1      2184 5.34113E-02-5.30596E-02-2.72764E-04 1.62686E-01-3.18796E-04 2.13209E-05
 -1      2185 2.99947E-02-3.22693E-02 2.33141E-03 3.15397E-02-3.37133E-03 1.57138E-03
 -1      2186 4.41124E-02-4.48669E-02 8.28066E-04 4.12945E-02 1.73161E-03-5.87925E-04
 -1      2187 4.66039E-02-4.78471E-02 1.34080E-03 4.70139E-02-2.67628E-04 3.48251E-03
 -1      2188 4.71903E-02-4.51380E-02-2.07113E-03 3.24284E-02-1.21880E-03 4.16534E-03
 -1      2189 2.39241E-02-2.39498E-02 3.26241E-05 7.44201E-02-2.62672E-04-1.96109E-03
 -1      2190 3.25391E-02-3.14535E-02-1.07279E-03 9.49557E-02 7.73099E-04-1.32638E-04
 -1      2191-6.76142E-03 6.36714E-03 4.07562E-04 6.02348E-02-1.04148E-03-5.09028E-04
 -1      2192-1.73531E-01 1.69978E-01 3.46520E-03-1.25195E-01 2.71202E-03 1.65898E-03
 -1      2193-1.88403E-01 1.89180E-01-9.64331E-04-1.70643E-01-5.86295E-03 1.76621E-03
 -1      2194-1.68640E-01 1.68230E-01 2.47902E-04-7.00379E-02-4.22696E-03 6.37522E-03
 -1      2195-4.43257E-02 4.51544E-02-8.08854E-04 7.65024E-02 2.35949E-04-5.05995E-04
 -1      2196-3.41689E-02 3.40463E-02 1.27393E-04 7.77545E-02-1.04293E-03-1.15747E-04
 -1      2197-2.25465E-02 2.25549E-02 3.09350E-05 1.24686E-01-3.17527E-04 1.28127E-03
 -1      2198 7.36482E-02-7.37578E-02 1.58443E-04 9.71041E-02-8.95924E-04 9.51499E-04
 -1      2199 6.46952E-02-6.43659E-02-2.85907E-04 7.71563E-02 4.82608E-04 5.23018E-04
 -1      2200 2.71510E-02-2.68310E-02-2.71799E-04 1.30361E-01 2.35984E-03 8.41073E-04
 -1      2201 4.34221E-02-4.39516E-02 5.76094E-04 1.20416E-01-2.01151E-04 6.95228E-04
 -1      2202 2.50688E-02-2.30098E-02-2.00239E-03 1.19130E-01 8.71374E-05 1.20132E-03
 -1      2203-1.03227E-01 1.02995E-01 1.71877E-04-2.75211E-02 8.16890E-04-8.60806E-04
 -1      2204-8.07981E-02 8.15295E-02-7.36072E-04 2.00725E-02 1.39721E-03-1.99406E-03
 -1      2205-1.03799E-01 1.04046E-01-2.80574E-04-2.24378E-02 3.03186E-03 2.11183E-03
 -1      2206-1.00384E-02 9.86343E-03 2.17315E-04 1.33881E-01 1.44220E-04 2.99830E-04
 -1      2207-3.78051E-03 4.09878E-03-2.38515E-04 1.62276E-01-2.47584E-04-8.45683E-05
 -1      2208-1.42984E-02 1.45570E-02-1.88751E-04 1.53228E-01 1.35234E-04 3.77680E-04
 -1      2209-8.56114E-02 8.62777E-02-7.10455E-04-1.72835E-02-3.29082E-04-1.37532E-03
 -1      2210-3.55641E-02 3.57561E-02-1.63186E-04 1.34032E-01-1.64593E-04-6.76729E-04
 -1      2211-3.76734E-02 3.86622E-02-9.57292E-04 1.06293E-01 1.49170E-04 1.15075E-03
 -1      2212-8.34667E-02 8.39626E-02-5.07904E-04-7.66354E-03-7.67931E-04-2.13961E-03
 -1      2213-1.20150E-01 1.19929E-01 1.02126E-04-6.39477E-02-1.71257E-04 4.03507E-04
 -1      2214 7.86632E-03-7.86323E-03 4.13864E-05 1.38129E-01 9.97910E-05 5.66820E-04
 -1      2215-1.01845E-01 1.03791E-01-2.05452E-03 2.70791E-02-2.26829E-03-1.67074E-03
 -1      2216-9.49088E-02 9.55138E-02-5.49813E-04-6.91186E-03-1.74422E-03-2.93776E-03
 -1      2217 6.81167E-03-6.57895E-03-1.69560E-04 1.72660E-01 6.21437E-04 4.77187E-04
 -1      2218 2.53410E-02-2.51469E-02-1.58531E-04 1.32673E-01-1.23757E-03-8.17441E-04
 -1      2219 4.08056E-02-4.03512E-02-3.83947E-04 1.63389E-01 2.66029E-04 3.23180E-03
 -1      2220 6.14694E-02-6.24936E-02 1.10841E-03 1.38614E-01 3.04706E-03 2.08985E-03
 -1      2221 4.26470E-02-4.10589E-02-1.51172E-03 1.75699E-01 3.23286E-04 8.56972E-04
 -1      2222 5.12022E-02-5.08691E-02-2.78954E-04 1.48260E-01 8.60014E-04 6.17464E-04
 -1      2223 5.92621E-02-5.99278E-02 7.32184E-04 1.48167E-01 3.09065E-03-6.27997E-04
 -1      2224-1.08728E-01 1.08648E-01-7.71836E-06-5.67617E-02 2.08556E-04 4.90147E-04
 -1      2225 3.33786E-02-3.42321E-02 9.26991E-04 1.41906E-01 2.79387E-03 1.25860E-03
 -1      2226 3.60066E-02-3.77713E-02 1.81146E-03 1.64982E-01-7.37857E-04-2.86361E-03
 -1      2227 3.47975E-02-3.34089E-02-1.31799E-03 1.44589E-01-3.32378E-03-1.99574E-03
 -1      2228 1.69375E-02-1.73597E-02 5.27849E-04 2.44898E-01-2.02018E-04 1.86539E-03
 -1      2229 1.78617E-02-2.10022E-02 3.25260E-03 2.44967E-01-2.06168E-04 7.32998E-04
 -1      2230 2.06130E-02-2.11598E-02 6.74307E-04 2.45670E-01 1.19653E-03 1.16946E-03
 -1      2231 3.62804E-02-3.84361E-02 2.04114E-03 1.78321E-02-2.76217E-03 2.16281E-03
 -1      2232-4.99815E-02 4.94699E-02 4.77028E-04 3.68061E-02 2.39804E-04 1.56630E-03
 -1      2233 5.63150E-03-5.70077E-03 9.42441E-05 1.10462E-01-1.68469E-03 1.24942E-03
 -1      2234 4.84439E-03-4.86425E-03 8.96602E-05 1.09888E-01 3.38648E-03 4.30708E-04
 -1      2235 5.38641E-03-4.60761E-03-8.06448E-04 1.17581E-01-5.58707E-04 1.77678E-04
 -1      2236 1.35806E-02-1.63169E-02 2.85626E-03 2.32407E-01-8.54998E-04 9.99478E-04
 -1      2237 1.48443E-02-1.56850E-02 9.25847E-04 2.37412E-01-4.90361E-04 1.14869E-03
 -1      2238 2.13707E-02-1.91717E-02-2.10925E-03 2.37034E-01 1.17121E-03-3.92417E-03
 -1      2239-3.57285E-02 3.57289E-02-2.33177E-05 4.20284E-02-2.17158E-04 1.13191E-03
 -1      2240-1.43900E-01 1.44178E-01-3.66090E-04-9.40581E-02 1.08358E-03 2.40410E-03
 -1      2241-1.30413E-01 1.30974E-01-6.14826E-04-7.22207E-02 1.92668E-03 2.21993E-03
 -1      2242-1.25262E-01 1.25976E-01-7.19561E-04-6.73455E-02 1.16563E-03 6.02296E-04
 -1      2243-1.27014E-01 1.27059E-01-7.72459E-05-7.06107E-02 6.94972E-05 1.94649E-03
 -1      2244-1.31298E-01 1.32109E-01-9.15470E-04-7.53256E-02 3.65063E-04 3.15042E-03
 -1      2245 4.79934E-02-4.67695E-02-1.18484E-03 1.07811E-01-9.44218E-05-2.59948E-03
 -1      2246 3.88379E-02-3.86226E-02-1.66108E-04 1.14817E-01 4.54710E-04-3.60397E-04
 -1      2247 5.23288E-02-5.20899E-02-1.59528E-04 1.16632E-01-3.55810E-04-9.62951E-04
 -1      2248 5.34015E-02-5.29422E-02-3.76761E-04 1.74552E-01 6.98526E-04-1.68942E-04
 -1      2249 3.54509E-02-3.58055E-02 4.33172E-04 2.12418E-01 6.62461E-05-2.72788E-04
 -1      2250 4.06930E-02-3.91640E-02-1.45785E-03 1.91605E-01 1.97302E-04 6.11919E-04
 -1      2251 4.97932E-02-5.04295E-02 6.43742E-04 1.31520E-01-2.04727E-03 9.88917E-04
 -1      2252 2.40009E-02-2.56833E-02 1.74958E-03 1.19376E-01 2.48317E-03 3.99647E-06
 -1      2253-1.84696E-01 1.88633E-01-3.81106E-03-3.83877E-02-7.12693E-03 4.25469E-03
 -1      2254-2.45503E-01 2.50806E-01-5.35330E-03-1.11348E-01 1.29104E-03-2.88675E-03
 -1      2255-1.86411E-01 1.88139E-01-2.01145E-03 3.96340E-02 9.89064E-03 3.28366E-03
 -1      2256-2.25040E-01 2.25985E-01-1.06873E-03-5.47126E-02 8.76081E-04 8.01468E-04
 -1      2257-7.99766E-02 8.00488E-02-8.20572E-05 8.12285E-03-1.39077E-03-3.98044E-04
 -1      2258-5.88637E-02 5.96576E-02-7.87469E-04 5.32590E-02 6.06014E-05-2.95760E-04
 -1      2259-4.90008E-02 4.85398E-02 4.76741E-04 5.41704E-02-1.60603E-03 4.35041E-04
 -1      2260 3.94837E-02-3.96346E-02 2.34829E-04 1.89535E-01 9.28767E-04-4.69423E-04
 -1      2261 3.99640E-02-3.97544E-02-1.47340E-04 2.01651E-01 9.77648E-04 2.82200E-04
 -1      2262 4.51442E-02-4.50928E-02 7.54583E-06 1.80553E-01 1.10338E-03-3.42665E-04
 -1      2263 3.92510E-02-3.92179E-02 2.30735E-05 1.89662E-01 3.85474E-05 1.26776E-04
 -1      2264 4.42817E-02-4.43644E-02 1.82041E-04 1.81125E-01 5.43656E-05 4.30619E-04
 -1      2265 9.53386E-03-1.08153E-02 1.31516E-03-2.09246E-02-2.09878E-03-1.17734E-03
 -1      2266 3.08358E-02-3.07541E-02 4.00198E-05 2.23282E-01 4.68524E-05 8.71080E-04
 -1      2267 2.80464E-02-2.80825E-02 1.22139E-04 2.34779E-01 5.81044E-04-9.40438E-04
 -1      2268 3.01342E-02-2.99848E-02-6.51465E-05 2.34234E-01-9.27089E-05 1.17869E-03
 -1      2269-1.07652E-02 1.11536E-02-3.86924E-04 7.12004E-02-6.20965E-04 1.16452E-03
 -1      2270 2.87801E-02-2.82524E-02-5.11441E-04 1.17662E-01-5.64895E-05 2.20959E-03
 -1      2271 3.99920E-02-4.02055E-02 2.93384E-04 1.75304E-01 3.78941E-04-3.95387E-03
 -1      2272 4.06161E-02-3.91684E-02-1.37150E-03 1.08734E-01-3.25624E-03-3.47558E-04
 -1      2273 2.46120E-02-2.36243E-02-9.55336E-04 1.10508E-01-1.30366E-03 8.60448E-04
 -1      2274 2.33953E-02-2.33318E-02-7.94213E-06 1.11258E-01 1.19636E-03 6.29150E-04
 -1      2275-5.59626E-02 5.54677E-02 5.16305E-04 2.62830E-02 2.43547E-05 3.17095E-03
 -1      2276 1.61699E-02-1.42680E-02-1.90285E-03 1.01076E-01 1.69092E-03-1.49122E-03
 -1      2277-3.25323E-02 3.28507E-02-3.02558E-04 6.24330E-02-6.45126E-04 7.46508E-04
 -1      2278-1.32251E-01 1.31617E-01 5.29369E-04-5.44813E-02 2.09826E-04-1.17566E-03
 -1      2279-8.66653E-02 8.61497E-02 4.43756E-04 1.62285E-03 5.81552E-05-2.12474E-03
 -1      2280-1.40235E-01 1.40072E-01 4.12663E-05-4.87965E-02-1.93451E-04-2.13821E-03
 -1      2281-9.36333E-02 9.32031E-02 3.90395E-04 1.26132E-02 9.64581E-05 9.13557E-04
 -1      2282 1.38714E-02-1.37914E-02-5.42416E-06 1.70357E-01 3.98891E-04 9.98843E-04
 -1      2283-4.57487E-02 4.62037E-02-4.88549E-04 3.19389E-02-1.92559E-04 5.77706E-04
 -1      2284 2.38487E-02-2.46861E-02 9.69024E-04 2.41634E-01 2.05362E-04-3.66906E-04
 -1      2285 2.89124E-02-2.89948E-02 1.36697E-04 2.15307E-01 9.02295E-05-3.68261E-04
 -1      2286 2.62631E-02-2.51822E-02-1.01628E-03 1.97077E-01 8.71011E-05 1.02346E-03
 -1      2287 2.92191E-02-2.95753E-02 4.65553E-04 1.92856E-01-3.60634E-04 1.09447E-03
 -1      2288-1.01152E-01 1.00112E-01 9.95118E-04 6.21093E-04 7.23097E-04 1.52828E-03
 -1      2289-1.06709E-01 1.06256E-01 4.45186E-04-2.04688E-02 1.41333E-03-9.46064E-04
 -1      2290-1.25811E-01 1.25356E-01 4.18054E-04-7.30669E-02 2.32553E-04-1.08695E-03
 -1      2291-8.10988E-02 7.95006E-02 1.55329E-03 7.92704E-03-3.94767E-04 1.01732E-03
 -1      2292-1.52563E-01 1.51911E-01 5.98648E-04-2.10891E-02-3.75852E-03-2.88045E-03
 -1      2293-1.77401E-01 1.75361E-01 1.99272E-03-1.23314E-01-2.61331E-03 3.21467E-04
 -1      2294-8.83294E-03 8.79608E-03 7.21532E-05 1.00773E-01-1.69360E-04-9.42849E-04
 -1      2295-2.97679E-02 2.98591E-02-9.48074E-05 6.29049E-02 6.01646E-04-9.31226E-04
 -1      2296-1.57817E-01 1.55595E-01 2.14492E-03-1.21952E-01-1.91884E-03-2.28386E-03
 -1      2297-1.59757E-01 1.57331E-01 2.29623E-03-1.24219E-01-1.09199E-03-3.32643E-03
 -1      2298-1.73888E-01 1.70828E-01 2.90693E-03-1.32841E-01 2.48558E-03-3.98226E-04
 -1      2299-1.74144E-01 1.78482E-01-4.43929E-03-1.24711E-01-5.25931E-03 2.28910E-03
 -1      2300-1.24597E-01 1.23859E-01 7.23587E-04-5.27247E-02 5.70316E-04-6.99212E-04
 -1      2301-1.20792E-01 1.19636E-01 1.09403E-03-4.01041E-02 5.71291E-04-1.58899E-03
 -1      2302-1.24362E-01 1.24366E-01-3.49536E-05-4.92238E-02 1.40152E-03 4.49416E-03
 -1      2303-1.70634E-02 1.64209E-02 6.77619E-04 1.02088E-01 1.17686E-04 3.27493E-04
 -1      2304 1.74541E-02-1.60561E-02-1.30891E-03 2.34820E-01-1.96273E-03-3.51525E-03
 -1      2305-3.68746E-03 1.12290E-03 2.61098E-03 1.99712E-01-9.35743E-04 2.66818E-04
 -1      2306 2.89291E-02-2.94101E-02 5.51792E-04 1.92377E-01-6.36333E-04-3.54683E-05
 -1      2307 2.48401E-02-2.55144E-02 7.57436E-04 1.96757E-01-7.23478E-04 7.11015E-04
 -1      2308-1.61610E-01 1.58732E-01 2.80538E-03-1.24932E-01-2.11991E-03 6.08831E-04
 -1      2309 6.02328E-02-6.06244E-02 4.11955E-04 9.05544E-02 1.21470E-03 1.70254E-03
 -1      2310 3.94085E-02-4.11712E-02 1.80065E-03 8.69000E-02-3.18117E-04 8.99627E-04
 -1      2311 5.99717E-02-6.12079E-02 1.29951E-03 9.66350E-02-1.42613E-03 1.23948E-03
 -1      2312-1.67269E-01 1.66538E-01 6.08536E-04-1.04924E-01-1.61889E-03 7.16770E-03
 -1      2313-1.59444E-01 1.59958E-01-4.51602E-04-6.89044E-02-1.93263E-03 3.05414E-03
 -1      2314 1.81174E-02-2.04705E-02 2.37524E-03 2.65564E-02 1.43563E-03 1.11163E-03
 -1      2315 1.42291E-02-1.36878E-02-5.24259E-04 1.12496E-02 2.18608E-04 1.88290E-03
 -1      2316 1.97149E-02-1.81451E-02-1.58853E-03 2.66187E-02-1.72837E-04-1.93424E-03
 -1      2317 1.94586E-02-1.99175E-02 5.32598E-04 5.22237E-02-1.32955E-03 1.36744E-03
 -1      2318-2.00717E-01 2.01133E-01-5.40304E-04-1.56999E-01-8.08385E-06 2.82272E-03
 -1      2319-1.63057E-01 1.63623E-01-7.27728E-04-8.82241E-02-6.99403E-03 1.92663E-04
 -1      2320-1.05469E-01 1.03461E-01 1.98351E-03-5.35412E-02-4.90277E-03 7.97021E-04
 -1      2321-9.72585E-02 9.89554E-02-1.73174E-03 1.14713E-02-1.78832E-03-1.69168E-03
 -1      2322-8.79607E-02 8.84142E-02-4.60880E-04 3.35864E-02-1.69593E-03-7.74782E-04
 -1      2323 4.89625E-02-4.94093E-02 4.16926E-04 5.43708E-02-1.50973E-03 1.63003E-03
 -1      2324-2.61638E-01 2.58538E-01 3.08313E-03-8.66175E-02 2.13453E-02-1.84516E-04
 -1      2325-1.37052E-01 1.38558E-01-1.50616E-03-7.42581E-02 1.65874E-03-5.50542E-05
 -1      2326-4.78864E-03 3.33753E-03 1.52020E-03 1.78662E-01 4.82306E-04-9.89691E-04
 -1      2327-1.42692E-01 1.41900E-01 7.15427E-04-9.73621E-02 1.32036E-03 1.52035E-03
 -1      2328-1.25324E-01 1.24031E-01 1.19686E-03-5.42658E-02 8.88086E-07 7.19412E-04
 -1      2329 5.09489E-03-4.95240E-03-1.50112E-04 1.13972E-01 3.51364E-03 1.56959E-03
 -1      2330 2.31221E-02-2.25556E-02-4.64622E-04 2.45385E-01-4.47635E-04-2.48694E-03
 -1      2331 1.62644E-02-1.59314E-02-2.87029E-04 1.12705E-01 8.47039E-05 4.92319E-04
 -1      2332 7.73139E-02-7.82567E-02 9.89513E-04 1.20424E-01 2.13694E-03-3.11334E-04
 -1      2333 5.12722E-02-4.91159E-02-1.99389E-03 7.33213E-02 1.35021E-03 5.76251E-04
 -1      2334 4.19136E-02-3.99134E-02-1.97639E-03 8.78081E-02 7.86529E-04 8.90404E-04
 -1      2335 2.44345E-02-2.15204E-02-2.83398E-03 2.42881E-01 1.18632E-03-6.07885E-04
 -1      2336 2.38391E-02-2.29994E-02-7.45295E-04 2.41430E-01 4.75494E-04-8.96925E-04
 -1      2337 6.33076E-02-6.29997E-02-2.32148E-04 1.28268E-01-1.99924E-03-1.73152E-04
 -1      2338 5.31363E-02-5.17677E-02-1.35408E-03 1.29376E-01-1.81216E-03-6.13020E-04
 -1      2339 5.87667E-02-5.78347E-02-8.62342E-04 1.42177E-01-2.55729E-03-1.81524E-03
 -1      2340-1.84658E-01 1.84675E-01 3.53027E-05-3.41569E-02-3.95485E-03-7.29179E-03
 -1      2341-1.67149E-01 1.64750E-01 2.23681E-03 4.10449E-02 8.63088E-03-1.15143E-02
 -1      2342 6.49801E-02-6.48699E-02-9.46099E-05 8.19954E-02-6.59179E-04 1.06166E-03
 -1      2343 5.79293E-02-5.73254E-02-5.56175E-04 1.60606E-01 2.90250E-04-7.53497E-04
 -1      2344 3.05029E-02-3.10670E-02 6.53433E-04 2.23916E-01 2.87676E-04-1.77688E-04
 -1      2345-1.25044E-02 1.33392E-02-7.82996E-04 1.73222E-01 4.68785E-04 7.81540E-04
 -1      2346-1.67429E-01 1.65751E-01 1.38889E-03 4.76123E-02 1.60027E-02 3.04400E-03
 -1      2347 2.42053E-02-2.53222E-02 1.21475E-03 2.44635E-01 1.02924E-03 1.09394E-04
 -1      2348 1.58829E-02-1.48951E-02-8.78485E-04 1.93551E-01 6.91462E-04-1.61519E-03
 -1      2349 7.09483E-02-7.07269E-02-1.77647E-04 1.20990E-01 8.56228E-04 1.25236E-03
 -1      2350 6.21064E-02-6.17228E-02-3.29872E-04 1.10882E-01-8.33304E-04 6.00596E-04
 -1      2351 1.09376E-02-1.04870E-02-3.81840E-04 1.89773E-01 2.14167E-05 6.56094E-04
 -1      2352-1.40592E-01 1.40428E-01-8.29742E-08 3.73777E-02 5.42042E-03-4.35340E-03
 -1      2353 3.60328E-02-3.70501E-02 1.10671E-03 1.92026E-01 9.81099E-04-1.66252E-03
 -1      2354 1.00640E-02-1.21793E-02 2.17216E-03 2.15414E-01-3.35697E-03 2.99993E-03
 -1      2355 1.35833E-02-1.28789E-02-7.38989E-04-8.79905E-03-2.52854E-03 2.66969E-04
 -1      2356 1.73219E-02-1.78250E-02 5.80146E-04 1.98627E-01-5.26117E-04 1.69291E-03
 -1      2357-3.64119E-03 3.90594E-03-2.32384E-04 1.32199E-01-5.17692E-04-1.52810E-04
 -1      2358-1.17017E-01 1.17514E-01-5.69158E-04-5.89122E-02 8.91681E-04 2.86766E-04
 -1      2359-1.53571E-01 1.52842E-01 6.19071E-04-1.15860E-01-2.01872E-03-2.96554E-03
 -1      2360-1.25444E-01 1.27617E-01-2.19372E-03-6.25369E-02 1.76360E-03 6.63496E-04
 -1      2361 3.74326E-02-3.51309E-02-2.23699E-03 9.97679E-02 5.56335E-04 1.01102E-03
 -1      2362-8.43937E-02 8.36338E-02 7.45668E-04-1.03396E-02 1.06463E-03 4.45644E-03
 -1      2363-6.95252E-02 7.43058E-02-4.75835E-03 4.66695E-02 5.13133E-03-2.79252E-03
 -1      2364-9.71506E-02 9.95140E-02-2.42158E-03-4.67389E-02-2.79867E-04 1.97657E-03
 -1      2365-1.67846E-01 1.74233E-01-6.68006E-03 6.43596E-02-3.92616E-03-3.34262E-03
 -1      2366 5.65202E-02-5.48410E-02-1.66207E-03 1.49728E-01 5.82736E-05-8.05106E-04
 -1      2367-1.22655E-01 1.22955E-01-3.06578E-04-5.43990E-02-4.96947E-04 2.57558E-04
 -1      2368-1.49404E-01 1.50156E-01-8.15758E-04-9.78142E-02 2.19066E-03 1.95635E-03
 -1      2369 6.72729E-02-6.72795E-02 4.88748E-05 1.37483E-01 1.15057E-03-7.23199E-04
 -1      2370-1.22341E-01 1.23785E-01-1.48675E-03-7.23486E-02 5.04299E-05-3.19809E-03
 -1      2371-1.07091E-01 1.09665E-01-2.64700E-03-2.94133E-02-1.48454E-03 3.70320E-04
 -1      2372 4.23350E-02-4.15028E-02-7.64085E-04 1.16896E-01 1.36621E-03-1.08035E-03
 -1      2373 2.95272E-02-2.95007E-02 8.95429E-06 1.16749E-01 3.29384E-03-1.90587E-04
 -1      2374-2.69819E-02 2.80300E-02-9.91269E-04 1.58719E-01 1.35446E-03-3.70783E-04
 -1      2375-1.59368E-02 1.53643E-02 6.62834E-04 1.69039E-01 2.55765E-03-2.33312E-04
 -1      2376 6.91086E-02-7.01402E-02 1.10882E-03 1.46276E-01 9.59025E-04-8.62652E-04
 -1      2377-8.68462E-02 8.88366E-02-2.08545E-03 2.95505E-02-3.12469E-03 1.31571E-03
 -1      2378-9.87521E-02 9.75731E-02 1.16132E-03 8.71176E-03 1.96687E-03 1.57612E-03
 -1      2379-1.04716E-01 1.05919E-01-1.24506E-03-5.54908E-02 1.76458E-03 9.75510E-04
 -1      2380 1.41222E-02-1.41349E-02 1.94748E-04 1.45055E-02-1.93276E-03-1.13115E-03
 -1      2381-8.36608E-02 8.51844E-02-1.50277E-03 1.18015E-01-5.17992E-04-1.03100E-03
 -1      2382 5.62092E-02-5.53991E-02-7.66252E-04 5.89820E-02 2.01038E-03-5.52237E-04
 -1      2383 1.79379E-02-1.82907E-02 4.93954E-04 1.09545E-01-4.63325E-04 4.17072E-04
 -1      2384 1.40879E-02-1.43528E-02 3.11912E-04 1.14630E-01 1.42016E-03 1.69302E-03
 -1      2385 5.07468E-03-5.90913E-03 9.11190E-04 1.88413E-01 9.44882E-04 5.65151E-04
 -1      2386 3.72643E-02-3.72228E-02 3.63095E-05 2.13028E-01-6.07006E-04 1.20711E-03
 -1      2387 1.12607E-02-1.06431E-02-5.68994E-04 1.12738E-01-1.56800E-03 8.13221E-04
 -1      2388 2.17551E-02-2.28088E-02 1.11494E-03 1.15740E-01 2.89633E-04 8.52555E-04
 -1      2389 9.89210E-03-9.40811E-03-4.42875E-04 1.12809E-01-1.26397E-03 1.35505E-03
 -1      2390 4.31384E-02-4.24548E-02-6.21598E-04 9.41391E-02 4.60648E-04 2.02552E-04
 -1      2391-1.40180E-01 1.43134E-01-3.03147E-03-7.81911E-02-1.30443E-04 4.34519E-03
 -1      2392-1.12195E-01 1.09712E-01 2.51302E-03 1.66270E-01 2.81368E-03 5.15789E-04
 -1      2393-7.48757E-02 7.87112E-02-3.78520E-03 1.59944E-01 4.65981E-04 5.02218E-03
 -1      2394-8.04819E-02 8.28457E-02-2.33843E-03 1.58904E-01 8.79822E-04-1.24780E-02
 -1      2395-4.90514E-02 5.05283E-02-1.44795E-03 1.61312E-01 2.69510E-03 6.74383E-03
 -1      2396-1.12131E-02 1.18977E-02-6.01194E-04 1.89286E-01-3.00854E-03 3.10574E-03
 -1      2397-3.89669E-02 3.65533E-02 2.47785E-03 1.60421E-01 8.32797E-04-5.00766E-03
 -1      2398-1.37926E-01 1.38201E-01-3.54574E-04-7.83944E-02-7.18126E-05 2.05139E-04
 -1      2399-1.25260E-01 1.24382E-01 7.91230E-04-6.40509E-02-7.60028E-04 1.16784E-03
 -1      2400-8.64200E-02 8.82910E-02-1.89407E-03 1.46241E-01 9.28807E-04-1.26777E-03
 -1      2401-1.03732E-01 1.00132E-01 3.67401E-03 1.48453E-01 6.10741E-03-2.92273E-03
 -1      2402-8.42873E-02 9.01776E-02-5.86426E-03 1.58465E-01 2.23829E-03-2.45656E-03
 -1      2403-9.48463E-02 9.55877E-02-6.80755E-04 1.55430E-01 1.43472E-03-5.15616E-03
 -1      2404-1.48081E-01 1.47419E-01 5.86593E-04-1.11522E-01-1.68994E-03-4.28289E-03
 -1      2405 7.47747E-03-5.20437E-03-2.22704E-03 1.13724E-01 1.43293E-03 3.91281E-04
 -1      2406 6.19424E-03-8.91847E-03 2.83164E-03 1.14795E-01 4.18930E-05 9.76089E-04
 -1      2407 4.29624E-03-5.93405E-03 1.64741E-03 1.20325E-01 1.62676E-03-3.98770E-04
 -1      2408 2.09725E-03-1.73830E-03-3.23145E-04 1.19459E-01-7.69736E-04-1.16357E-04
 -1      2409 1.81356E-03-2.28582E-03 5.18850E-04 1.20966E-01 8.81417E-04 1.56922E-03
 -1      2410 5.43998E-03-2.68541E-03-2.73431E-03 1.18531E-01 4.45271E-04 6.76598E-04
 -1      2411 3.08797E-03-2.58363E-03-4.12545E-04 1.18347E-01-7.10191E-04 1.49470E-03
 -1      2412 3.79548E-03-4.37757E-03 6.35374E-04 1.16549E-01 1.45305E-03 1.20610E-03
 -1      2413-7.58129E-02 8.30195E-02-7.19890E-03 4.71244E-02-4.54167E-03 4.63919E-03
 -1      2414-5.85888E-02 5.69376E-02 1.63899E-03-5.45255E-03-1.96783E-03 1.93499E-03
 -1      2415-8.71082E-02 8.27937E-02 4.32375E-03 4.77502E-02 1.39811E-03-3.45886E-03
 -1      2416-7.07836E-02 7.14900E-02-7.01080E-04 7.65432E-03 1.58965E-03-1.27165E-03
 -1      2417-7.15020E-02 7.27580E-02-1.31267E-03-4.97358E-02-2.78064E-03-4.10370E-03
 -1      2418-7.68050E-02 7.60272E-02 8.35052E-04 2.74597E-02-4.12954E-04 1.54509E-03
 -1      2419-7.12797E-02 7.72473E-02-6.03978E-03-3.67967E-02 1.85022E-03 1.25892E-03
 -1      2420-9.11401E-02 9.64637E-02-5.29803E-03 1.02176E-01-1.58499E-03 1.16775E-03
 -1      2421-7.75058E-02 7.53230E-02 2.12549E-03 7.34201E-02-2.33491E-03 5.00315E-03
 -1      2422-9.95655E-02 9.55914E-02 4.01372E-03 1.10656E-01 2.15335E-03-3.76713E-03
 -1      2423-7.07852E-02 7.29868E-02-2.26763E-03 7.56114E-02 8.38322E-04 8.97899E-04
 -1      2424-8.25244E-02 8.29207E-02-3.48343E-04 1.21027E-01-1.17915E-03-1.26585E-04
 -1      2425-9.83905E-02 1.01944E-01-3.51601E-03 1.50876E-01-6.78615E-03 4.77609E-04
 -1      2426-1.19871E-01 1.14445E-01 5.43289E-03 1.51220E-01-1.40397E-03-4.85938E-03
 -1      2427-1.08969E-01 1.06782E-01 2.24809E-03 1.45080E-01 3.35551E-04 4.25938E-03
 -1      2428-6.33938E-02 6.87357E-02-5.41099E-03 1.23009E-02 3.20767E-03 2.17204E-03
 -1      2429-7.28256E-02 6.85688E-02 4.39367E-03 1.24516E-02 1.19563E-03-1.07988E-03
 -1      2430-1.59375E-01 1.62943E-01-3.63286E-03-1.19082E-01 1.64790E-03 3.41684E-03
 -1      2431-6.33682E-02 6.88372E-02-5.39705E-03 1.68668E-02 1.59516E-03-4.18895E-03
 -1      2432-8.37062E-02 8.50199E-02-1.23900E-03 2.41997E-02 2.92442E-03-5.10290E-03
 -1      2433-1.56979E-01 1.57111E-01-2.00926E-04-1.13732E-01 1.89862E-04 4.49353E-04
 -1      2434-1.50417E-01 1.54241E-01-3.89828E-03-1.08927E-01 1.79752E-05 3.31571E-03
 -1      2435-1.40427E-01 1.41688E-01-1.31851E-03-9.70754E-02 1.18017E-03-6.32036E-04
 -1      2436-1.49476E-01 1.47141E-01 2.24072E-03-1.00944E-01-3.34737E-03-3.08009E-03
 -1      2437-1.26771E-01 1.25690E-01 1.03580E-03-7.08421E-02-6.31345E-04 1.58579E-03
 -1      2438-7.05577E-02 6.92634E-02 1.31620E-03 4.26536E-02 1.06831E-03 6.49992E-03
 -1      2439-9.00249E-02 9.08059E-02-8.55049E-04-4.89840E-02 7.54971E-04 5.82402E-03
 -1      2440-7.47831E-02 7.45954E-02 1.69060E-04 8.31691E-02 2.25431E-03 1.94716E-03
 -1      2441-7.14550E-02 7.29137E-02-1.50649E-03 1.63796E-01-2.35590E-03-1.12656E-03
 -1      2442 7.78060E-03-6.03631E-03-1.61793E-03 1.19867E-01-6.58261E-04 6.91386E-04
 -1      2443-8.32446E-02 7.71301E-02 6.21674E-03 1.10226E-01-9.94977E-04 4.61930E-03
 -1      2444-8.29723E-02 8.16938E-02 1.30210E-03 1.15932E-01 5.52290E-03-9.06689E-04
 -1      2445-1.02431E-01 1.04731E-01-2.25611E-03 1.67347E-01-4.11989E-03-1.46550E-03
 -1      2446-2.82230E-02 2.82058E-02 3.01142E-05 1.80073E-01 1.18910E-03-5.91809E-04
 -1      2447-8.82320E-02 8.51960E-02 3.13512E-03 1.58442E-01-3.53951E-03-8.09712E-03
 -1      2448-8.86595E-02 8.60223E-02 2.59055E-03 1.46497E-01-3.44770E-03-3.79000E-03
 -1      2449-1.57751E-01 1.53465E-01 4.30375E-03-7.61171E-02-1.59683E-03 2.25915E-03
 -1      2450 4.14062E-02-4.00293E-02-1.28020E-03 1.31595E-01 4.60749E-04 1.45128E-03
 -1      2451 2.07985E-02-2.04532E-02-2.88926E-04 2.19574E-01-1.80466E-03 2.53802E-03
 -1      2452 1.16071E-02-1.34754E-02 1.95205E-03 1.95995E-01-2.74425E-03 3.75594E-03
 -1      2453 7.43450E-03-7.85469E-03 5.28196E-04 1.94555E-01-2.24229E-03 1.00583E-03
 -1      2454 5.37793E-02-5.46391E-02 9.15852E-04 1.76421E-01-2.18986E-04 9.36211E-04
 -1      2455 4.91479E-02-4.87787E-02-3.03253E-04 1.77796E-01 1.71799E-03-2.28711E-04
 -1      2456-2.63385E-03 3.41202E-03-7.01769E-04 1.82099E-01-1.09880E-03 6.76659E-04
 -1      2457 5.84708E-02-5.77467E-02-6.30106E-04 1.60953E-01-1.78226E-05-6.52466E-04
 -3
    1PSTEP                         4           1           1          
  100CL  101 1.000000000         890                     0    1           1
 -4  FORC        4    1
 -5  F1          1    2    1    0
 -5  F2          1    2    2    0
 -5  F3          1    2    3    0
 -5  ALL         1    2    0    0    1ALL
 -1      1568 4.41911E-10 6.92167E-10-4.47723E+00
 -1      1569-1.90412E-10-6.04276E-10 1.56492E+00
 -1      1570 1.03613E+00-2.91755E-02 2.00269E+00
 -1      1571-5.02334E+00 3.20181E+00-4.41330E+00
 -1      1572-2.97059E-10-2.26117E-10-8.56768E-01
 -1      1573 1.52048E-10-1.89066E-10-2.96438E-01
 -1      1574 5.80940E+01-6.66652E+01 4.43420E+01
 -1      1575 9.44299E+00-6.17888E+01-4.64716E+01
 -1      1576-2.24953E-10-2.22751E-09-6.18776E-01
 -1      1577 6.58615E-10 2.20594E-09 3.40097E-01
 -1      1578 2.82567E-10-1.16096E-10-5.02735E+00
 -1      1579-6.33099E-10 7.26384E-10-4.69327E+00
 -1      1580 6.53310E-10 7.38231E-10-1.08024E+00
 -1      1581-1.14140E-10-6.32151E-11-1.63420E-01
 -1      1582 1.96263E-10 4.17933E-11-2.48019E+00
 -1      1583-4.44839E-12-1.26325E-10-7.12931E+00
 -1      1584-8.01003E-11-1.61750E-10-1.04595E+01
 -1      1585 9.86298E-11-2.26249E-11 5.86540E+00
 -1      1586-3.05018E-11 9.82969E-10 1.45988E+01
 -1      1587 8.44984E-10 2.17198E-09 7.95083E+00
 -1      1588-1.09859E-09 5.00353E-10 3.95313E+00
 -1      1589-2.95154E-10 1.74632E-10 4.43775E+00
 -1      1590-4.88242E-11 9.80306E-11 3.41151E+00
 -1      1591-8.32114E-11-2.66748E-10 4.64180E+00
 -1      1592-1.68142E-10 3.21911E-10 9.43425E-01
 -1      1593 8.35200E-11-1.85852E-11 5.37874E-01
 -1      1594-5.75559E-11-7.00610E-11 3.33250E+00
 -1      1595 1.51478E-11-2.87386E-11-5.13158E+00
 -1      1596-7.62946E-10-5.51757E-10-1.34921E+01
 -1      1597 9.80820E-10 5.36677E-10-4.59150E+00
 -1      1598-2.13150E-10-1.87936E-09 1.44656E+01
 -1      1599-1.97469E-09 1.46365E-09 2.46182E+00
 -1      1600 5.84889E-11 6.93426E-11 1.19627E+00
 -1      1601 1.32282E-10 1.81020E-11 6.58352E+00
 -1      1602 5.45440E-10-5.06648E-10 3.63887E+00
 -1      1603 5.06743E-10-2.41823E-10 4.96689E+00
 -1      1604 6.15616E-10 2.72296E-10 6.04419E+00
 -1      1605 5.73908E-10 2.63602E-10 5.46370E+00
 -1      1606-5.26098E-10 4.00152E-10 5.28382E+00
 -1      1607 1.31972E-09-1.18391E-09 1.43030E+01
 -1      1608-8.56961E-11-1.69483E-11-2.70465E+01
 -1      1609-2.06318E-11-9.37816E-11-4.57992E+01
 -1      1610-1.90290E-10 2.62802E-10-4.15094E+01
 -1      1611 9.75349E-11-1.26304E-10-3.10098E+01
 -1      1612-2.97816E-10 7.74505E-10-1.97635E+01
 -1      1613 5.85107E-10 4.27913E-10-1.16293E+00
 -1      1614-6.65156E-10 1.20137E-09-1.18066E+01
 -1      1615 3.33870E-10-1.08152E-09-1.90798E+01
 -1      1616 5.54346E-01 1.42431E+01 9.69364E+00
 -1      1617 8.91774E-01 9.75190E+00 7.27265E+00
 -1      1618 8.84271E+00-1.05994E+01 3.52205E+01
 -1      1619-4.11845E+00-2.16133E+01 8.79324E+00
 -1      1620 7.85628E+00-6.97159E+01-2.09857E+01
 -1      1621 2.99370E+01-5.90328E+01 1.40721E+01
 -1      1622-3.16344E+00 7.40554E+00-7.53968E-01
 -1      1623-8.10419E+00-6.72516E+00-9.34113E+00
 -1      1624 1.14503E+01-1.25161E+01-1.00669E+01
 -1      1625-2.52385E+00 2.87572E+00-3.10935E+00
 -1      1626-9.41720E+00-1.71210E+01 9.57009E-01
 -1      1627-1.28434E+01-1.09314E+01 2.96903E+01
 -1      1628-1.08304E-09-2.94048E-11 2.27302E+01
 -1      1629-1.48458E-09-8.68126E-10-1.24951E+01
 -1      1630-6.24280E-10-5.14666E-10-5.76059E+00
 -1      1631 1.51521E-10 2.01293E-10-5.51251E+00
 -1      1632-2.34376E-10 5.52011E-11 4.80208E+00
 -1      1633 2.05386E-11-5.16359E-11-6.61044E+00
 -1      1634 4.25376E-12-5.28209E-11-9.57942E+00
 -1      1635-3.03260E-11 5.58823E-11 9.34244E+00
 -1      1636 1.33678E-10 4.69678E-10 4.56649E+01
 -1      1637 1.04083E-09-4.18120E-10 2.35253E+01
 -1      1638 4.26934E-10 2.80214E-09 8.31612E+00
 -1      1639-9.95021E-12 3.69629E-11 2.26429E+00
 -1      1640 7.39140E-10 2.39380E-09 2.45637E+00
 -1      1641 1.87300E-09 2.14985E-09-6.88453E+00
 -1      1642-1.59438E-10-1.61255E-09-4.31703E+00
 -1      1643 6.11431E-10-2.73407E-10-6.74086E+00
 -1      1644-4.47433E-10-2.25137E-10 2.00743E+00
 -1      1645-2.60492E-11-1.30397E-10-8.57067E+00
 -1      1646 1.26634E-11-9.06982E-12-2.48390E+01
 -1      1647-5.33531E-10 2.53017E-11 5.55633E+01
 -1      1648 3.19941E-10 8.01325E-11 3.36788E+01
 -1      1649-9.04553E-10 1.43843E-09 7.17923E+00
 -1      1650-6.88747E-10-2.75810E-10 5.01401E+00
 -1      1651-4.90895E-11 1.85909E-10 8.74541E+00
 -1      1652 1.58578E-11 3.90511E-11-5.67728E+00
 -1      1653-7.41116E-10 3.00949E-11 3.93043E+00
 -1      1654 6.26862E-10-2.20234E-10-8.20126E-01
 -1      1655-2.85078E-10-2.83852E-10-2.53351E+00
 -1      1656-1.21079E-09 2.17930E-09 3.97731E+00
 -1      1657-1.79513E-10-2.87537E-10 3.81689E+00
 -1      1658-1.20641E-10-7.78707E-11 1.25386E+01
 -1      1659 1.47200E-10 8.50109E-13 6.26699E+00
 -1      1660 2.21028E-10-1.25901E-10 5.10873E+00
 -1      1661 5.15851E-11-1.45961E-10 1.63186E+00
 -1      1662 5.34843E-11 1.42398E-10 1.97928E+00
 -1      1663-2.29181E-10-1.79429E-10-3.29406E+00
 -1      1664-3.63022E-10 3.34913E-10 3.91302E+00
 -1      1665-2.04580E-09 4.20676E-09-6.93633E+00
 -1      1666 2.48175E-09-1.45424E-09 7.13482E+00
 -1      1667-1.36469E-10 1.73247E-10 4.79106E+00
 -1      1668 7.33033E-10-1.49628E-11-6.34179E+00
 -1      1669-1.20350E-11-2.48400E-10-3.10080E+01
 -1      1670-9.07886E-11 8.89201E-11-1.84489E+01
 -1      1671-3.42834E-11 1.01618E-10-1.20154E+00
 -1      1672 6.71047E-11 2.24241E-12-2.35933E+01
 -1      1673 6.32545E-11-1.80178E-10 1.46141E+00
 -1      1674-8.38476E-11 4.50487E-11 1.84381E+00
 -1      1675 2.03298E-11 5.10115E-10-3.13470E+00
 -1      1676 6.11767E-10-1.55588E-09 4.56509E-01
 -1      1677 4.37948E-10 1.39372E-09-2.69393E-01
 -1      1678-1.75135E-09 1.73329E-09-6.83045E+00
 -1      1679 9.47405E-10-9.79668E-11-4.55384E+00
 -1      1680 3.36664E-10-3.11150E-11-1.30412E+01
 -1      1681 1.56145E-12-6.54419E-12 1.34619E+01
 -1      1682-2.00418E-11-2.48579E-12 2.14396E+00
 -1      1683-5.83604E-10-1.30311E-09-3.05296E+00
 -1      1684 5.95274E-11-6.72116E-10-3.87435E+00
 -1      1685-2.75021E-11 2.75431E-10-1.92513E+00
 -1      1686-3.07364E-10-7.37203E-11-1.53618E+00
 -1      1687-1.29974E-10 1.11862E-10 7.24359E+00
 -1      1688 1.85077E-11-3.18298E-10-1.15604E+01
 -1      1689-3.14922E-10-3.34730E-10-4.33574E+00
 -1      1690-4.16924E-10 7.92609E-10 5.62522E+00
 -1      1691-3.88444E-11 2.08688E-10-4.97986E+00
 -1      1692-5.44062E-11 1.15467E-10-7.93490E+00
 -1      1693-2.39055E-10 2.45979E-10-1.08654E+00
 -1      1694-5.97820E-10 2.76557E-09 5.14232E-10
 -1      1695 1.43083E-10-2.75491E-11-6.13432E-11
 -1      1696 2.97171E-11-3.39812E-11 8.10600E-12
 -1      1697 3.54972E-09-1.84557E-12-2.01532E-11
 -1      1698 4.69971E-09-3.45371E-09-6.88701E-10
 -1      1699 9.41234E-12 1.84348E-11 2.19991E-11
 -1      1700-7.29680E-10-2.12652E-09 3.00798E-10
 -1      1701-1.67827E-10 6.30114E-10-7.30476E-10
 -1      1702 2.79052E-11 1.77578E-10-4.18652E-11
 -1      1703 2.93209E-10-6.48174E-11-1.41304E-10
 -1      1704 1.41799E-09-6.57805E-10 8.54327E-10
 -1      1705-2.70595E-12 1.99543E-10 2.68454E-10
 -1      1706-2.06227E-11-1.19806E-11 2.03251E-11
 -1      1707 1.93713E-10-2.79838E-09-3.85397E-10
 -1      1708 5.28432E-11 4.10501E-09 1.90352E-09
 -1      1709 1.54185E-09 9.61531E-10 2.18314E-12
 -1      1710-7.68361E-10 2.14590E-09 2.23128E-10
 -1      1711-5.51343E-12-7.06457E-12 1.24103E-11
 -1      1712-1.09921E-10-3.22083E-10-2.43059E-11
 -1      1713-2.50523E-11-2.66436E-11-7.29168E-11
 -1      1714-2.51106E-10 6.65449E-10-1.28373E-09
 -1      1715-1.37941E-10-6.05345E-10-1.86257E-10
 -1      1716-1.11352E-09 2.34913E-10 4.28690E-11
 -1      1717 2.30162E-11-3.00484E-11 1.65272E-11
 -1      1718 1.50507E-10-6.60065E-10 7.34561E-10
 -1      1719 6.84310E-11 2.75127E-10 2.00243E-10
 -1      1720 1.62814E-09-7.20099E-10 1.07764E-09
 -1      1721-3.09473E-09 1.12243E-09 7.55902E-11
 -1      1722 6.45885E-10 6.41748E-09 1.30568E-09
 -1      1723-4.61895E-11-6.13554E-12 1.78747E-12
 -1      1724 2.16948E-09 2.77778E+01 2.23963E-09
 -1      1725-2.69932E+01-3.17354E+01 3.95381E+00
 -1      1726-1.03952E-10-5.86711E-10-3.44252E+01
 -1      1727-8.86544E-10-1.97435E-09-7.71566E+01
 -1      1728-6.71453E-10 1.70286E-09-6.69206E+01
 -1      1729-3.75106E-10 8.03107E-10-5.66422E+01
 -1      1730-5.36039E-10 1.11289E-10-6.31953E+01
 -1      1731 6.34661E-12-1.19276E-10-6.25659E+01
 -1      1732-1.27172E-10 3.18471E-10-5.42858E+01
 -1      1733 7.10406E-11-2.30353E-10-3.88309E+01
 -1      1734 5.48345E-11 2.45984E-10-2.05306E+01
 -1      1735 1.00781E-10 4.40302E-11-1.64878E+01
 -1      1736-1.59806E-11 1.05939E-11-2.92158E+01
 -1      1737 4.97126E-11 5.59790E-10 3.39846E+01
 -1      1738-3.60354E-10 5.19352E-10 5.30636E+01
 -1      1739-6.85341E-10-9.94343E-12 6.46487E+01
 -1      1740-1.71343E-10 9.15835E-10 6.24820E+01
 -1      1741 5.32969E-10-3.64823E-10 5.97249E+01
 -1      1742 1.54932E-10-3.14401E-10 5.76754E+01
 -1      1743-1.66449E-10 2.38585E-10 4.91150E+01
 -1      1744-6.59567E-11-7.10333E-11 3.48996E+01
 -1      1745 5.56161E-11 2.07122E-11 2.68840E+01
 -1      1746 4.01606E-11-1.03115E-10 2.30695E+01
 -1      1747-7.22620E-12 3.32389E-12 2.49256E+01
 -1      1748 4.17286E-10 2.77778E+01-8.50954E-10
 -1      1749-3.24274E-10 2.77778E+01-1.51337E+00
 -1      1750 2.79785E-10 2.77778E+01-2.80707E+01
 -1      1751 4.77923E-10 2.77778E+01-2.14125E+01
 -1      1752-2.18404E-09 2.77778E+01 3.90806E+00
 -1      1753-2.37898E-09 2.77778E+01 2.47154E+01
 -1      1754 4.79722E-10 2.77778E+01 2.90074E+01
 -1      1755 2.41142E+02-9.97947E+01 2.52648E+00
 -1      1756-1.05243E-10 1.00121E-10 7.62780E+01
 -1      1757-1.22000E-10 9.27034E-11 5.14846E+01
 -1      1758 1.49162E-10 1.58004E-11 5.10792E+01
 -1      1759 2.49790E-11 9.82976E-11 4.78598E+01
 -1      1760-1.49438E-10-1.08443E-10 4.54320E+01
 -1      1761-1.77298E-09 3.50069E-10 4.36876E+01
 -1      1762 1.19580E-09-2.02435E-09 3.67206E+01
 -1      1763 1.16006E-09 9.77289E-10 3.04787E+01
 -1      1764 6.46567E-10 2.21084E-10-5.00210E+00
 -1      1765-4.01696E-11-3.10742E-11-4.63210E+01
 -1      1766-3.12898E-10 1.16731E-10-8.41385E+00
 -1      1767 2.11370E-10 1.29658E-10-1.33901E+01
 -1      1768-6.48715E-10 2.08370E-10-2.52033E+01
 -1      1769 1.09429E-09 6.34188E-10-2.95021E+01
 -1      1770 1.43293E-09 2.28628E-11-3.19087E+01
 -1      1771-3.86949E-10-1.23761E-09-4.35971E+01
 -1      1772 1.77428E-09-5.47374E-10-2.18631E+01
 -1      1773-6.24852E-10-8.78594E-10 5.11447E+00
 -1      1774-3.37174E+01-3.51348E+01-3.01118E+01
 -1      1775-2.91081E+01-5.19745E+01-4.19738E+01
 -1      1776-4.54156E+01-2.37218E+01-3.83560E+01
 -1      1777-4.24114E+01 3.13128E+00-7.39647E+01
 -1      1778-9.99017E+00 6.13003E+01-2.32769E+01
 -1      1779 2.37661E+00 8.20168E+01 4.05828E+01
 -1      1780 5.91618E+01 7.88352E+01 4.69912E+01
 -1      1781-2.16531E+01-4.03159E+01 3.36540E+01
 -1      1782-2.59121E+01-2.76786E+01 3.65903E+01
 -1      1783-3.67002E+01-1.74580E+01 3.41315E+01
 -1      1784-5.38494E+01 4.26030E+00 5.05705E+01
 -1      1785 1.68639E+01 1.56135E+01 3.85763E+00
 -1      1786-4.64457E+00 1.82609E+01-4.25917E+01
 -1      1787 1.54868E+02 6.94982E+01-8.18236E+01
 -1      1788-1.75717E-09-3.36427E-09-1.10379E-09
 -1      1789-1.07201E-09 2.04609E-12 1.21566E-09
 -1      1790-2.19626E-10-7.58808E-10 1.77630E-09
 -1      1791-9.22943E-12-1.72219E-10 8.51763E-10
 -1      1792 5.99184E-10-6.46036E-10-5.32424E-10
 -1      1793-1.66744E-09 2.51332E-09-6.52100E-11
 -1      1794-2.47326E-10 1.00153E-09 2.60866E-10
 -1      1795 3.94110E-10 5.38846E-10-4.09570E-10
 -1      1796-4.16888E-10-1.03044E-09-6.54009E-10
 -1      1797 7.82379E-11 2.17999E-10-3.63248E-10
 -1      1798-1.90276E-10 3.46369E-10-3.95435E-10
 -1      1799-3.51360E-10 1.08831E-10 3.33432E-10
 -1      1800-3.98759E-11 4.29082E-10 7.23492E-11
 -1      1801-2.79580E-10 1.84363E-10 3.77050E-11
 -1      1802 2.10103E-10-1.96691E-10 2.08086E-11
 -1      1803 8.52162E-11-4.79425E-10 1.54380E-10
 -1      1804-3.81409E-11-1.11150E-10 2.19171E-11
 -1      1805 7.51790E-11-3.50411E-10 7.65858E-11
 -1      1806 1.26182E-11-2.06790E-11-2.38778E-11
 -1      1807 1.26408E-09 1.15321E-09 3.47876E-10
 -1      1808-5.47656E-11 7.65159E-11 2.31914E-10
 -1      1809-1.45675E-09 5.55556E+01 7.83558E-10
 -1      1810-1.60828E-09 5.55556E+01 2.01096E-10
 -1      1811-1.08738E-09 5.55556E+01 9.01968E-12
 -1      1812 1.52411E-09 5.55556E+01-4.07643E-11
 -1      1813 1.96843E-09 5.55556E+01-1.46869E-09
 -1      1814-2.80419E-11 1.41426E-10 1.12138E-10
 -1      1815 9.75678E-11-2.96111E-10-3.61872E-10
 -1      1816 6.61114E-11-2.56524E-10-8.41993E-11
 -1      1817 1.21583E-10-2.43066E-10-4.19567E-10
 -1      1818 1.12128E-10 1.20167E-10 2.12873E-10
 -1      1819-3.87143E-10-1.38629E-09 6.98829E-10
 -1      1820 4.31805E-10-2.91544E-11 2.92317E-10
 -1      1821-3.59000E-10-3.93800E-10-1.00565E-09
 -1      1822-4.73810E-10-5.30362E-10-6.87705E-10
 -1      1823 2.61932E-09-9.43203E-10 1.94990E-09
 -1      1824-1.37064E-10 2.03338E-09 1.15285E-09
 -1      1825-5.29567E-10 3.12774E-09 7.48065E-10
 -1      1826 1.25855E-09-5.21219E-10-1.80059E-10
 -1      1827-1.93872E-09-2.19337E-09 5.70287E-10
 -1      1828 1.89801E-09-1.04159E-09-1.26988E-09
 -1      1829 8.63426E-10-1.00290E-09-8.28173E-11
 -1      1830 2.17754E-10 1.77309E-10 5.02665E-11
 -1      1831-6.84106E+01-5.59856E+01-7.16687E+00
 -1      1832-4.60165E+01-4.19007E+01 5.59305E+00
 -1      1833-8.89564E+01-6.57609E+01 4.28032E+00
 -1      1834-8.04082E+01-3.60335E+01-1.15798E+01
 -1      1835-9.52431E+01-3.65440E+01 4.45261E-01
 -1      1836-3.24387E+01-2.11985E+01 1.38081E+01
 -1      1837-5.80036E+01-1.88231E+01 6.19387E+00
 -1      1838 1.59909E+01 1.29754E+01 3.38659E+00
 -1      1839-7.40546E+01 2.96342E+01 1.33813E+01
 -1      1840 7.76818E+01-7.51351E+00-3.83666E+01
 -1      1841 8.89258E+01 4.74070E+01 1.95734E+01
 -1      1842 1.86189E+02 4.03167E+01 5.53198E+00
 -1      1843-5.21844E+01-5.24160E+01-6.92081E+00
 -1      1844 4.99277E-11-3.87480E-10-9.34238E+01
 -1      1845 3.27757E-10-4.02162E-09-4.80325E+01
 -1      1846-2.17344E-10-8.42242E-10-8.88116E+01
 -1      1847 9.37131E-10 2.94987E-10-1.02303E+02
 -1      1848 6.66145E-11-1.50590E-10-1.06671E+02
 -1      1849-2.87035E-11 6.38111E-10-9.15443E+01
 -1      1850 4.52627E-11-1.19600E-10-8.51744E+01
 -1      1851 2.73154E-11-2.69467E-11-9.33782E+01
 -1      1852 3.16223E-11 4.45215E-11-6.09372E+01
 -1      1853 3.24873E-11-1.69168E-10-6.28403E+01
 -1      1854-1.72403E-11 2.43365E-11-4.61320E+01
 -1      1855 3.45580E-11 1.03469E-11-7.93992E+01
 -1      1856-3.05773E-13-2.70686E-12-2.09569E+01
 -1      1857-1.37972E-11-7.72753E-12 2.07662E+01
 -1      1858-9.77147E-12 4.23883E-12-7.64826E+01
 -1      1859-4.56950E-11 4.77152E-11 2.00798E+02
 -1      1860-2.66440E-11 4.26853E-12 1.06746E+02
 -1      1861 3.03194E-11-9.24161E-11 7.28749E+01
 -1      1862 2.65426E-10-2.51595E-10 8.94887E+01
 -1      1863 1.54713E-10-7.07597E-11 9.34284E+01
 -1      1864 2.33724E-10-1.71978E-10 7.13050E+01
 -1      1865-7.83206E-10-2.08645E-10 7.82372E+01
 -1      1866-9.94053E-10 1.31267E-10 4.48117E+01
 -1      1867 2.68747E-10-8.03840E-10 5.95725E+01
 -1      1868-6.72442E-10 1.05974E-09-1.03464E+01
 -1      1869 4.55390E-10-2.96142E-10-4.86797E+01
 -1      1870-1.48524E-11-1.48215E-11-4.02017E+01
 -1      1871 5.36758E-14-8.50582E-12-6.03057E+01
 -1      1872-5.92591E-11-1.02376E-10-3.67239E+01
 -1      1873 8.19824E-11 2.89090E-11-7.99477E+01
 -1      1874 2.50931E-09-1.09450E-09-3.06274E+01
 -1      1875-2.80944E-10 1.03919E-09 2.40824E+01
 -1      1876 8.50895E-10 3.42567E-10-1.11469E+02
 -1      1877-7.42460E-10-9.01656E-10-9.17678E+01
 -1      1878 7.37981E-11 4.66350E-10-9.90287E+01
 -1      1879 3.14229E-10-3.67304E-10-9.32686E+01
 -1      1880-4.29528E-11 1.54345E-10-1.04833E+02
 -1      1881-2.20773E-10 9.82797E-11-9.57136E+01
 -1      1882 2.62189E-11 4.87976E-11-6.63294E+01
 -1      1883-2.88471E-11-5.83763E-11-9.02164E+01
 -1      1884 4.48140E-10-7.70430E-10-5.35953E+01
 -1      1885 7.18758E-10 7.31459E-10-3.37343E+01
 -1      1886 1.71914E-10-2.85348E-10 2.20071E+01
 -1      1887-4.67549E-12-2.85953E-12-4.39747E+01
 -1      1888-4.43316E-12-4.25914E-11-5.67815E+01
 -1      1889 2.25765E-13 2.21610E-12 6.55424E+01
 -1      1890-2.65291E-12 5.61784E-12 8.56666E+00
 -1      1891-3.27963E-11 1.78190E-10 7.79572E+01
 -1      1892-1.16014E-11 1.91858E-12 1.21632E+02
 -1      1893 3.35719E-10 2.24306E-10 8.00632E+01
 -1      1894 1.63133E-10-3.80984E-10 8.47245E+01
 -1      1895-2.35244E-10-8.46509E-10 6.65068E+01
 -1      1896 4.79982E-10 3.68147E-10 7.27089E+01
 -1      1897 1.34812E-09-6.04054E-11-4.44360E+01
 -1      1898 1.70578E-11-7.18560E-11-6.90264E+01
 -1      1899-3.98547E-10 3.20020E-10-7.01510E+01
 -1      1900 4.76615E-10 2.02347E-09-4.40528E+01
 -1      1901-1.27395E-09-5.88908E-10 3.17574E+01
 -1      1902 2.92066E-12-2.26607E-11-5.20585E+01
 -1      1903-6.62942E-10 1.02651E-09-6.50860E+01
 -1      1904 8.62490E-11 5.32750E-11-7.39524E+01
 -1      1905-1.09828E-10 2.72545E-10-7.37759E+01
 -1      1906-5.33526E-11 1.52547E-11 3.02544E+01
 -1      1907 1.62277E-10-3.12849E-10 4.09220E+01
 -1      1908 1.82341E-12-4.22066E-10 2.36901E+01
 -1      1909 3.14610E-10-1.44354E-10-7.21860E+01
 -1      1910 5.77920E-11 2.02271E-10-7.04490E+01
 -1      1911-3.75748E-10 6.49693E-11 2.37716E+01
 -1      1912-9.14815E-10-1.78568E-10 3.40520E+01
 -1      1913 3.61750E-10-1.77491E-10 2.49169E+01
 -1      1914 3.33475E-11-1.27299E-11 7.76331E+01
 -1      1915 3.47063E-11 4.68133E-11-5.29791E+01
 -1      1916-4.29216E-10 2.10598E-10 1.69887E+01
 -1      1917 2.36616E-10 1.47620E-09-4.15888E+01
 -1      1918-2.63966E-10 6.12193E-11-5.06448E+01
 -1      1919-1.46853E-10-6.09154E-11-5.99274E+01
 -1      1920 2.19360E-10 5.57732E-11-8.08207E+01
 -1      1921-8.00966E-11-3.99455E-11-6.14371E+01
 -1      1922 6.08319E-12 2.10719E-11 3.88248E+01
 -1      1923-1.60572E-11-7.45323E-12-1.87676E+01
 -1      1924 8.00917E-10-5.04943E-10 2.65801E+01
 -1      1925-9.74700E-11 7.04807E-10 3.22771E+01
 -1      1926 1.66694E-11-9.51773E-10-3.46751E+01
 -1      1927-5.79024E-11 8.05729E-10-2.20852E+01
 -1      1928 5.84332E-10-6.40878E-10-4.57843E+01
 -1      1929 2.42930E-10-1.41853E-09-4.90875E+01
 -1      1930 2.42866E-10 6.82243E-10-3.34145E+01
 -1      1931-5.99762E-11-1.38080E-09-4.05146E+01
 -1      1932 1.28851E-09-6.59992E-10-4.35371E+01
 -1      1933 1.01836E-09 4.99900E-10-2.14680E+01
 -1      1934 1.94804E-10 8.83325E-10-3.49661E+01
 -1      1935-6.52486E-10 2.87364E-11 3.72029E+01
 -1      1936-2.54520E-10-3.17443E-11 4.46641E+01
 -1      1937 1.45336E-10-5.62381E-10 6.95726E+00
 -1      1938-2.38850E-11-1.24976E-10-3.18398E+01
 -1      1939-3.64693E-11 7.32774E-11-5.65319E+01
 -1      1940 1.45765E-10 3.30169E-10 9.22152E+00
 -1      1941-7.76523E-10-1.21955E-10 2.16448E+01
 -1      1942-1.77383E-09-1.21799E-09-2.95829E+01
 -1      1943 4.65812E-12 5.38050E-11 6.93956E+01
 -1      1944-2.93149E-11 7.06585E-11 2.34274E+01
 -1      1945-2.36814E-11-1.36529E-11 3.39065E+01
 -1      1946 1.95605E-11 1.40378E-10 2.05334E+01
 -1      1947 1.44436E-09-7.81562E-11-1.14321E+00
 -1      1948-2.16085E-10 3.49231E-11-5.70114E+01
 -1      1949-3.04494E-10-2.17021E-10-6.20521E+01
 -1      1950 1.69492E-10-2.51154E-10-4.91068E+01
 -1      1951-2.31852E-10-1.61220E-10 4.37425E+01
 -1      1952-2.08574E-11 2.61463E-10 6.75080E+01
 -1      1953-9.97042E-11 2.35214E-11 1.85926E+01
 -1      1954-6.68148E-11-8.36907E-11 1.76209E+01
 -1      1955 1.10365E-11-9.83929E-11-4.73595E+01
 -1      1956 4.93914E-11-1.89023E-10-4.96678E+01
 -1      1957-6.22614E-11 4.81743E-10-4.37030E+01
 -1      1958 5.01691E-11-6.61332E-11-2.59420E+01
 -1      1959-9.21112E-11-1.44374E-10-6.10350E+01
 -1      1960-8.27404E-11 2.25964E-11-6.40830E+01
 -1      1961-9.16208E-10-3.70201E-10-1.15519E+00
 -1      1962 5.64619E-11 5.12607E-11-2.18741E+01
 -1      1963-5.97217E-11-1.18888E-10-5.45745E-01
 -1      1964 7.47948E-11-1.26368E-10-9.58131E+00
 -1      1965-5.44937E-10 5.29754E-10-3.33896E+00
 -1      1966-1.74009E-10-2.95966E-10-5.50354E+00
 -1      1967-2.66287E-11-6.30481E-10-1.42521E+01
 -1      1968-3.05426E-10-1.71817E-10-6.23999E+00
 -1      1969 7.68721E-10-5.25380E-10-1.32600E+01
 -1      1970 1.63858E-11 1.76436E-11 5.48185E+01
 -1      1971-7.10252E-11-2.03095E-11 4.50442E+01
 -1      1972 2.22792E-11 7.88629E-11 6.07899E+01
 -1      1973-1.70607E-10-9.52844E-11 9.31454E+01
 -1      1974 2.84270E-11 2.88833E-11 7.90240E+01
 -1      1975-2.03211E-10-5.88138E-11 1.05139E+02
 -1      1976 9.18229E-11-6.06157E-10 9.99926E+01
 -1      1977 4.15157E-10-1.74815E-10 9.86758E+01
 -1      1978 8.23402E-10-2.45979E-10 1.07057E+02
 -1      1979-6.36168E-10 1.36522E-09 3.81659E+01
 -1      1980-2.51683E-10 3.62986E-10 7.23399E+01
 -1      1981 3.92753E-10-7.05069E-12 5.66992E+01
 -1      1982-1.50822E-10-1.19793E-09 9.59125E+00
 -1      1983 8.34201E-10 7.59563E-11-3.98272E+01
 -1      1984 3.17253E-10 7.85264E-10-1.82494E+01
 -1      1985 5.10029E-10-1.65431E-10-5.38927E+01
 -1      1986-1.38164E-10-8.36394E-10-6.50907E+01
 -1      1987 3.65684E-10 6.37303E-11-8.52628E+01
 -1      1988 9.87451E-11-4.89725E-10-8.14130E+01
 -1      1989 8.44976E-11-4.52981E-11-1.22044E+02
 -1      1990 9.89444E-11 2.78004E-10-9.86513E+01
 -1      1991 3.91456E-11-2.73817E-11-2.00688E+02
 -1      1992-7.74342E-11-6.75252E-11-9.16456E+01
 -1      1993 1.90128E-10-1.42779E-10-4.88714E+01
 -1      1994 7.11547E-12 1.78665E-11-6.75628E+01
 -1      1995-6.75884E-12 2.25509E-12 6.49317E+01
 -1      1996 1.18238E-11-1.22655E-11-2.55033E+01
 -1      1997-3.70495E-13 1.16789E-11 3.84996E+01
 -1      1998 2.66960E-11-5.89292E-12 8.30968E+01
 -1      1999-1.77063E-11 1.57142E-11 3.90848E+01
 -1      2000-7.38946E-12 1.30996E-11 7.01081E+01
 -1      2001 9.82408E-11 3.32759E-11 7.21021E+01
 -1      2002-3.07187E-11-6.89747E-12 5.44113E+01
 -1      2003 7.54041E-10 1.39206E-09 3.40641E+01
 -1      2004 1.07636E-10 5.60688E-12 6.91000E+01
 -1      2005 3.33855E-11-3.75976E-11 4.87826E+01
 -1      2006 1.10396E-10-2.46539E-10 7.92515E+01
 -1      2007 4.80449E-11-7.93229E-11 3.37527E+01
 -1      2008-1.05348E-10-6.91106E-11 6.56332E+01
 -1      2009-1.92117E-10 1.58778E-11 1.02122E+02
 -1      2010 3.30794E-10 1.96108E-10 9.60950E+01
 -1      2011 7.55955E-10-8.96381E-10 1.10500E+02
 -1      2012-2.83067E-10-3.28477E-10 9.85079E+01
 -1      2013-4.85729E-10 3.53624E-10 8.66100E+01
 -1      2014 8.78809E-10-9.35733E-10 1.00603E+02
 -1      2015 2.23073E-10 7.59146E-10 2.63176E+01
 -1      2016 2.11900E-09-1.45331E-10-3.61240E+01
 -1      2017-1.50734E-09 2.13555E-09-3.31202E+01
 -1      2018-1.72915E-10 2.87253E-10-5.82247E+01
 -1      2019 1.23478E-09-6.21764E-11-4.07708E+01
 -1      2020 3.49451E-10 5.79687E-11-7.53759E+01
 -1      2021-3.54691E-10-5.34936E-10-6.80999E+01
 -1      2022-2.50710E-10-2.11942E-10-8.89233E+01
 -1      2023 4.66717E-12-2.12931E-10-9.32190E+01
 -1      2024 1.93164E-12 4.68722E-14 2.69736E+01
 -1      2025 6.91508E-12-1.01497E-12-1.18050E+02
 -1      2026 2.95531E-11-2.68119E-11 2.20812E+01
 -1      2027-4.42076E-12-3.18373E-12 2.19044E+01
 -1      2028 6.09024E-12 1.33755E-11 1.03254E+02
 -1      2029-3.61097E-10 2.33279E-11 8.18677E+01
 -1      2030-4.04580E-10 1.57977E-10 7.88151E+01
 -1      2031-6.54031E-10 8.50110E-10 6.37786E+01
 -1      2032-2.64985E-10 5.43981E-10-5.57091E+01
 -1      2033 1.07006E-11-1.70162E-12 5.88645E+01
 -1      2034-3.03684E-11 2.82182E-11-5.76663E+01
 -1      2035 1.41633E-09-2.08062E-09 4.79890E+01
 -1      2036 5.76076E-10 1.42721E-09 7.53484E+01
 -1      2037-2.99525E-10 5.32947E-10 8.23711E+01
 -1      2038-1.05560E-09-3.08919E-09 3.10442E+01
 -1      2039-8.08623E-10 8.98016E-10-4.37856E+01
 -1      2040-4.37112E-11 9.26710E-11-5.47803E+01
 -1      2041-9.59112E-10 6.93551E-10-5.04892E+01
 -1      2042 2.11603E-11 1.00214E-11-3.06363E+01
 -1      2043 4.00079E-11 4.45660E-11 4.18159E+01
 -1      2044 1.20036E-09 6.35268E-09 5.14302E+01
 -1      2045 1.04634E-09 8.11020E-11 3.54079E+01
 -1      2046-2.00199E-10-1.00555E-09 3.54971E+01
 -1      2047 2.51472E-10 1.46517E-10 5.86439E+01
 -1      2048-6.55866E-12 3.50098E-13 5.04771E+01
 -1      2049-5.75300E-10-6.33055E-10-4.40329E+01
 -1      2050-1.32586E-11-7.97756E-10-3.51237E+01
 -1      2051-1.39260E-10 1.08435E-09 4.43296E+01
 -1      2052 1.57773E-10 1.46021E-10 4.72907E+01
 -1      2053-2.95830E-10 5.67504E-10 1.05370E+01
 -1      2054 1.73271E-10 4.24955E-10-1.97901E+01
 -1      2055 7.44000E-10 1.07992E-09-9.97666E+00
 -1      2056 9.78387E-10 1.40480E-09-1.41248E+01
 -1      2057 1.92978E-11-4.44835E-11 1.79141E+01
 -1      2058 3.93705E-11 5.07769E-11-3.45496E+01
 -1      2059-1.39730E-10-2.24964E-10-3.00314E+01
 -1      2060 1.02602E-09-1.64555E-09-2.16750E+01
 -1      2061-1.59433E-09 7.87089E-10 3.86080E+01
 -1      2062-2.25550E-11-6.81710E-12-6.72405E+01
 -1      2063 7.12329E-11 2.83625E-10-2.38664E+01
 -1      2064 2.87753E-11-2.12261E-11-2.21894E+01
 -1      2065 9.28444E-11 2.48907E-10 6.41923E+01
 -1      2066 8.23636E-11 4.43679E-11 5.65948E+01
 -1      2067 1.41523E-10 4.67161E-10 4.45534E+01
 -1      2068 2.39278E-10-1.38099E-10 4.82758E+01
 -1      2069 7.96718E-11-1.76768E-10 4.13271E+01
 -1      2070-8.74767E-11 3.66836E-10 2.91454E+01
 -1      2071-1.26684E-10 4.18326E-10 3.21467E+01
 -1      2072-3.75613E-12 8.55776E-11-6.53848E+01
 -1      2073 1.12555E-11 3.77689E-11-4.55589E+01
 -1      2074 4.74007E-10 3.06204E-10-1.43737E+01
 -1      2075 1.57280E-12-3.82907E-11-1.85492E+01
 -1      2076 1.70797E-10 1.92049E-12 4.62579E+01
 -1      2077-3.18533E-11-2.33256E-11 2.87009E+01
 -1      2078 7.59131E-11-1.05014E-10-3.66980E+01
 -1      2079-1.89702E-12-8.37526E-11 5.45445E+01
 -1      2080 3.69003E-10 3.04439E-12 5.14147E+01
 -1      2081-3.35335E-11-2.48429E-10 7.24667E+01
 -1      2082-2.08000E-11-7.24518E-13 3.51976E+01
 -1      2083 3.90555E-11-1.76968E-10 2.38760E+01
 -1      2084 7.57361E-11-3.24983E-11 6.69026E+01
 -1      2085-8.39988E-11-1.92062E-10 4.93158E+01
 -1      2086-3.90711E-11 7.69917E-11 3.13778E+01
 -1      2087 5.03276E-11 9.14974E-11 6.09071E+01
 -1      2088-1.09704E-10 3.06470E-11 7.56064E+00
 -1      2089-3.73039E-10-1.92289E-10 1.66083E+01
 -1      2090-9.97327E-11-2.41072E-10-5.16119E+00
 -1      2091 1.37048E-10 2.26029E-10 7.88254E+00
 -1      2092-9.95355E-11-4.00682E-11 4.87843E+01
 -1      2093 3.38350E-11 1.21703E-10 2.43743E+01
 -1      2094-2.88449E-10-4.26985E-11 1.13177E+01
 -1      2095-5.38572E-11 2.32205E-10 2.13486E+00
 -1      2096 4.27298E-10-1.75557E-09-4.16666E-09
 -1      2097-1.64600E-09 3.76229E-11-1.28846E-09
 -1      2098 2.00123E-10-1.45395E-09-1.12469E-09
 -1      2099-3.41383E-10-1.10873E-09-3.17581E-10
 -1      2100 3.99545E-10 8.74174E-10-9.88622E-10
 -1      2101 2.05018E-10 7.59960E-10-5.20920E-10
 -1      2102 1.47489E-09-1.42299E-09 3.18938E-10
 -1      2103 2.92700E-10-3.72648E-10 1.10422E-10
 -1      2104 3.68490E-10-1.55639E-09 2.76399E-10
 -1      2105-6.88431E-10 3.01184E-10 5.58581E-10
 -1      2106-3.68158E-10 3.92196E-10 1.34023E-11
 -1      2107-9.08380E-10-3.74172E-09 2.33317E-09
 -1      2108 1.19073E-09 1.24697E-09-4.02421E-10
 -1      2109 7.35049E-10 1.55737E-09 2.49733E-09
 -1      2110 4.58102E-09-1.92079E-09 2.19338E-09
 -1      2111 6.17152E-12-7.98913E-13-8.34444E-12
 -1      2112 4.52818E-12-6.27665E-12 1.38670E-13
 -1      2113 1.85073E-11-5.73509E-12 1.76303E-12
 -1      2114-2.25465E-12-3.19992E-12 6.55583E-12
 -1      2115-5.80418E-12 3.14908E-12 2.83884E-12
 -1      2116-4.39930E-12-4.42715E-12 9.01856E-12
 -1      2117-8.04066E-10-1.05800E-09 5.06404E-10
 -1      2118 3.35334E-10 3.07709E-10 2.23923E-10
 -1      2119 1.03361E-09-1.82400E-10-1.14125E-09
 -1      2120 8.79215E-10 2.17243E-10-7.10155E-10
 -1      2121-9.78482E-11-1.02518E-09 4.16100E-10
 -1      2122-7.87497E-10-4.04203E-10-3.40038E-10
 -1      2123-1.62711E-11-1.76499E-11-1.07718E-11
 -1      2124-1.08267E-11-1.84995E-11-2.45954E-11
 -1      2125 5.25463E-11-9.41340E-11-8.05613E-11
 -1      2126 5.47358E-11-5.75188E-11 3.97335E-11
 -1      2127-1.33201E-11-1.19165E-11 1.36851E-11
 -1      2128-2.59674E-09-9.25975E-10 1.49190E-09
 -1      2129-1.41534E-09-2.57314E-09 3.54362E-10
 -1      2130 2.57888E-09 2.59687E-09 1.75758E-09
 -1      2131-6.48981E-11 7.75902E-11-3.04969E-11
 -1      2132 4.72761E-11-3.16097E-10-7.13428E-11
 -1      2133-5.00826E-12 3.33395E-11-2.42482E-11
 -1      2134-3.64746E-09 1.85330E-09 1.09577E-09
 -1      2135-1.15032E-10 3.18098E-10 6.43624E-10
 -1      2136-1.37908E-11-1.15930E-12-6.76881E-12
 -1      2137-6.71525E-12 6.53083E-12-1.11307E-11
 -1      2138-8.71123E-12 8.30582E-12 2.74625E-11
 -1      2139 2.07208E-11 1.97118E-11-2.58549E-12
 -1      2140 1.85681E-11 3.99824E-12 2.01164E-11
 -1      2141 4.59322E-11 5.98286E-12 1.42109E-14
 -1      2142 1.56658E-12 8.84978E-11 9.02176E-11
 -1      2143-7.96714E-10 1.41707E-10 4.54946E-10
 -1      2144 2.87132E-10 2.18400E-10-1.71259E-10
 -1      2145 4.16552E-10-4.66208E-10-1.53485E-10
 -1      2146-1.58799E-10-7.81187E-11-3.46020E-10
 -1      2147-4.44454E-10 7.10601E-11 6.13229E-11
 -1      2148-4.31221E-10 1.38364E-11-2.89119E-10
 -1      2149-2.00450E-09 2.07619E-10-4.54617E-10
 -1      2150 9.71037E-10-3.02887E-10 5.56690E-10
 -1      2151 2.43985E-11 1.43257E-10-2.13292E-11
 -1      2152-1.02355E-11-7.87710E-11 3.43316E-11
 -1      2153 1.82573E-10-1.98685E-11 1.29094E-10
 -1      2154 7.60288E-11-4.01640E-10 2.20362E-10
 -1      2155 2.48593E-09 5.88451E-10-7.09013E-10
 -1      2156-1.48569E-09-3.87008E-09-1.00290E-09
 -1      2157 1.28565E-09 1.76157E-09 3.00522E-09
 -1      2158 3.83599E-10-2.12288E-09-1.43948E-09
 -1      2159 5.70450E-10 1.43513E-09-1.45788E-09
 -1      2160 1.26704E-09 3.16587E-09-1.52744E-09
 -1      2161 1.58901E-11-9.59510E-14 1.23688E-11
 -1      2162-1.98421E-11 1.10761E-11 1.37845E-11
 -1      2163-5.37331E-12-6.44462E-12 7.01720E-12
 -1      2164-1.46413E-11-1.09260E-11 9.81260E-12
 -1      2165 1.76836E-12-1.39080E-12-2.85638E-12
 -1      2166-5.13124E-11 3.16148E-11-3.50795E-11
 -1      2167 6.38056E-12-6.18307E-12 1.68177E-12
 -1      2168 3.70282E-11 4.98828E-12 1.03551E-10
 -1      2169 4.82752E-11 2.80960E-11 2.66979E-11
 -1      2170-2.46664E-10-1.96216E-11-5.76890E-11
 -1      2171-4.05137E-10-4.20182E-10-1.39594E-09
 -1      2172 1.43520E-10-1.22775E-09-6.21057E-10
 -1      2173 9.51457E-10 1.27036E-09-3.31980E-10
 -1      2174-6.33146E-11 3.14151E-10-4.49987E-11
 -1      2175 2.16564E-11-1.90741E-10 9.65770E-11
 -1      2176-2.81908E-11-7.43101E-12 3.69849E-12
 -1      2177-6.71303E-11-4.29657E-11-2.04299E-11
 -1      2178-1.42138E-10-1.70248E-10 1.48967E-10
 -1      2179 1.18940E-09-2.11056E-09 5.29212E-10
 -1      2180 8.70578E-10-1.31471E-09-3.79238E-10
 -1      2181-2.17876E-10 5.91554E-10-1.22156E-09
 -1      2182 2.88734E-10 9.68590E-11-5.62107E-10
 -1      2183-6.57993E-10-3.06168E-09 1.43216E-09
 -1      2184-4.28920E-10 3.98452E-10-4.67555E-10
 -1      2185-1.49801E-11-3.20904E-12-1.59366E-12
 -1      2186 3.24273E-11 3.11678E-11-1.68958E-11
 -1      2187 2.08884E-11-4.29061E-12 3.54201E-11
 -1      2188-4.69304E-11 4.01701E-12-3.81029E-12
 -1      2189 1.41823E-10 3.07321E-10-8.54852E-11
 -1      2190 3.12475E-10-1.03901E-10-2.37095E-10
 -1      2191-7.38044E-11 1.65763E-10-1.33261E-10
 -1      2192 2.45262E-10-6.10139E-11-3.25446E-10
 -1      2193-3.29869E-11 5.58056E-10-4.15529E-10
 -1      2194 2.94014E-10-1.03946E-10 2.62901E-12
 -1      2195 7.90212E-11-1.55833E-09 4.62170E-10
 -1      2196-1.16745E-09-2.71365E-09-5.31504E-10
 -1      2197 5.51460E-10-7.87352E-10 1.75017E-10
 -1      2198 1.41363E-10-8.57152E-11 3.89173E-11
 -1      2199-2.76703E-11 1.65255E-10 3.61862E-11
 -1      2200 1.75840E-10 1.52936E-11 1.51771E-10
 -1      2201 2.42290E-10-9.14889E-11 2.49338E-11
 -1      2202-1.97884E-10-1.57266E-10 9.05032E-11
 -1      2203-1.60034E-09 2.17422E-09-2.66947E-09
 -1      2204 1.37276E-09-2.35609E-09-1.66844E-11
 -1      2205 1.37007E-10-2.37736E-09 8.64484E-10
 -1      2206-3.74703E-10-5.33565E-10 1.12771E-09
 -1      2207-1.25594E-09 1.09219E-09 1.14455E-09
 -1      2208 2.10680E-09 3.02955E-09 2.21504E-09
 -1      2209 1.03457E-09 1.55329E-11 4.29075E-10
 -1      2210-1.88870E-09-6.31844E-11 6.37058E-10
 -1      2211 1.76465E-10 8.85423E-10 3.24904E-10
 -1      2212-3.27783E-10 4.01353E-11 2.95643E-10
 -1      2213 8.81885E-11 6.23201E-10-3.49204E-10
 -1      2214-8.50248E-10 1.36386E-09-5.34166E-10
 -1      2215 8.84074E-11 2.23462E-10-1.32722E-10
 -1      2216 8.88246E-12-3.67802E-11 2.64700E-10
 -1      2217-8.48576E-11-3.48367E-10 2.13132E-10
 -1      2218-2.44782E-10-4.86981E-10 9.58149E-11
 -1      2219 5.58570E-11 3.35788E-10-4.93742E-10
 -1      2220 7.55102E-11-1.44971E-10 1.47124E-10
 -1      2221 2.77060E-10-2.54363E-10-2.91660E-11
 -1      2222-3.22968E-10 9.95764E-10-1.54916E-11
 -1      2223 1.28795E-10-7.00422E-10 1.41495E-10
 -1      2224-9.15374E-12 1.96671E-09-1.27438E-10
 -1      2225 2.36104E-10-1.21143E-10 3.98073E-10
 -1      2226 4.55187E-11 5.30459E-11 8.76662E-10
 -1      2227 1.78163E-11 6.62680E-11-2.82975E-10
 -1      2228 2.76755E-10 1.41822E-09 1.24242E-10
 -1      2229 1.05902E-09-1.02873E-09 2.95853E-10
 -1      2230-2.04973E-10-1.54887E-09-9.15829E-10
 -1      2231-1.90506E-11 1.97480E-11-1.80522E-12
 -1      2232 2.16438E-11 1.76674E-10 1.55348E-10
 -1      2233 3.01114E-11-1.83920E-11 5.45953E-11
 -1      2234-5.74326E-11 6.33221E-12 5.73337E-11
 -1      2235 3.27519E-11 2.92649E-11 2.41425E-11
 -1      2236 9.16381E-10-1.74189E-09 3.17210E-09
 -1      2237 5.89063E-10-1.25794E-09 3.21404E-09
 -1      2238 5.91406E-10-1.28083E-10-1.77334E-09
 -1      2239-1.13557E-10 2.34976E-10-2.72020E-10
 -1      2240 6.05085E-10-3.26526E-10 4.30977E-10
 -1      2241-1.82192E-10 3.64517E-12-1.41554E-10
 -1      2242-5.03860E-10 4.13084E-10-1.11432E-10
 -1      2243 8.72820E-10-1.68215E-09-1.90699E-10
 -1      2244 6.18475E-10-8.89885E-10 3.91503E-10
 -1      2245 2.63770E-11 2.17987E-10-9.44449E-11
 -1      2246 5.94239E-11 1.05313E-10 4.50662E-11
 -1      2247 1.65250E-10 7.53877E-11-1.51353E-10
 -1      2248-9.06374E-11 2.10509E-10-3.95263E-10
 -1      2249-5.84094E-10 8.76792E-10 2.51742E-10
 -1      2250 4.71723E-10 2.83502E-10 2.31130E-10
 -1      2251 7.57998E-11-2.69124E-10 6.80656E-11
 -1      2252-9.18112E-12 5.53107E-11-7.48654E-11
 -1      2253-2.87954E-11 1.07480E-10 1.34193E-10
 -1      2254-2.25556E-10-1.80770E-10-9.61746E-11
 -1      2255-9.82756E-11 8.48477E-11 8.20322E-12
 -1      2256-1.36837E-10 1.24008E-10-9.92837E-12
 -1      2257-1.46975E-10 2.37749E-10 6.15435E-10
 -1      2258 1.70315E-10 1.63142E-09-1.60505E-09
 -1      2259-1.44736E-09 1.14435E-09 1.27400E-10
 -1      2260 5.65165E-10 3.59608E-10-2.75151E-10
 -1      2261-2.01120E-10-8.04890E-11-9.59552E-11
 -1      2262-6.46139E-11 6.64612E-11 2.93753E-10
 -1      2263-1.34365E-10-6.28131E-10 4.20023E-10
 -1      2264 1.59699E-10-2.92560E-10 6.89461E-10
 -1      2265 1.74827E-11-2.47321E-12-2.50040E-11
 -1      2266-3.41457E-10 2.03634E-10 1.46879E-10
 -1      2267-7.87182E-10 6.99306E-10-8.13589E-11
 -1      2268-1.74804E-10 1.45534E-09-3.01785E-10
 -1      2269 3.19950E-10-1.03007E-09-4.64425E-10
 -1      2270-1.18538E-10-8.65254E-11 5.07052E-11
 -1      2271 1.03545E-10 1.41862E-10 3.14037E-10
 -1      2272 1.24304E-10 2.13829E-10 8.08456E-11
 -1      2273-8.41506E-11-1.62927E-10-2.29544E-10
 -1      2274 3.05153E-11-2.22615E-10 9.44149E-11
 -1      2275 2.79693E-12 6.11054E-11-5.12426E-11
 -1      2276-1.90185E-11 3.62393E-11-2.69369E-11
 -1      2277 9.84819E-10 9.74165E-10-3.23288E-11
 -1      2278-4.20787E-10 1.41752E-10-1.54275E-10
 -1      2279-2.47031E-10 2.10764E-10 2.77463E-10
 -1      2280 3.32832E-10 1.32192E-10 1.82920E-10
 -1      2281-1.01952E-09-6.93228E-10-2.89596E-10
 -1      2282 5.30449E-10-3.63632E-10 1.92597E-11
 -1      2283-2.40609E-10 9.08339E-10 1.64905E-10
 -1      2284 3.03498E-10-5.03791E-10 5.93397E-10
 -1      2285-6.30173E-10 2.57199E-11-2.54945E-10
 -1      2286-8.92187E-10-5.04013E-11 8.38076E-11
 -1      2287-9.71379E-11 5.50334E-10-3.78583E-10
 -1      2288-1.49647E-11-6.27660E-10-9.65784E-10
 -1      2289 8.12790E-10-3.04500E-09 3.12057E-10
 -1      2290-7.94066E-10-2.84046E-09 2.25311E-09
 -1      2291-6.97087E-11-3.89221E-11-3.58691E-11
 -1      2292 3.06098E-10 3.94168E-11 3.24007E-12
 -1      2293 3.80370E-10 4.45009E-10 5.23358E-10
 -1      2294 1.68076E-09-9.38537E-10-2.47450E-10
 -1      2295 7.83624E-10 1.64852E-09-6.75299E-10
 -1      2296 1.46838E-10 3.45988E-10-1.25042E-09
 -1      2297 7.29902E-10-6.43921E-10-2.17739E-10
 -1      2298-6.79112E-10 6.37406E-10 1.58265E-10
 -1      2299-7.91670E-10 2.25864E-12 3.37457E-10
 -1      2300 6.97693E-10-1.42034E-09-7.29635E-10
 -1      2301 2.40717E-10-7.15772E-10 5.27799E-10
 -1      2302 2.62123E-10-2.00361E-09 4.14527E-10
 -1      2303-1.30132E-09-1.83425E-11 4.29232E-10
 -1      2304-2.69028E-10-1.07865E-09-5.46115E-10
 -1      2305-1.80975E-09 4.09705E-10-5.11946E-10
 -1      2306 3.91812E-10 6.99138E-10-2.74531E-10
 -1      2307 4.91489E-10-1.69360E-11-2.05807E-11
 -1      2308 7.05886E-10 1.67020E-10 2.57941E-10
 -1      2309 1.49665E-10-1.80439E-10-9.18741E-11
 -1      2310 8.51939E-11 6.46594E-12 5.12115E-11
 -1      2311-8.51716E-11-3.25778E-10 1.20561E-10
 -1      2312-2.44735E-10 1.01826E-10 1.44069E-10
 -1      2313 1.33448E-10 1.74966E-10 2.01158E-10
 -1      2314-2.32538E-12-3.07865E-13-3.02158E-12
 -1      2315 5.67717E-12-2.65390E-12 1.12976E-12
 -1      2316-2.08026E-11 2.42567E-12-1.18474E-11
 -1      2317-2.39904E-11 3.99242E-12 1.05871E-11
 -1      2318 9.30124E-11 1.61177E-10 2.28951E-10
 -1      2319 2.07169E-10-5.41969E-10-3.68856E-10
 -1      2320-3.23233E-10 1.57510E-09-1.40455E-09
 -1      2321 5.43130E-09 1.29429E-09-1.49835E-09
 -1      2322-1.06823E-09-3.22086E-09 9.38622E-10
 -1      2323 4.76949E-11-3.90526E-11 2.37872E-11
 -1      2324-5.19408E-11-1.33391E-10 3.23254E-10
 -1      2325 1.02260E-09-1.74237E-09 1.77503E-10
 -1      2326 7.15775E-11 1.32227E-09 1.25110E-09
 -1      2327 5.28611E-09-1.43057E-09 8.43974E-10
 -1      2328 2.82263E-09 3.46855E-10-4.66336E-10
 -1      2329 3.34109E-11 3.09848E-11-2.49294E-11
 -1      2330-4.07912E-10-1.21465E-09 3.94830E-10
 -1      2331 4.64429E-11 1.45743E-11-5.42322E-12
 -1      2332 7.57322E-10 6.49218E-11 2.39895E-11
 -1      2333-8.69743E-11 2.16853E-11 1.19698E-10
 -1      2334-5.31284E-12-1.16934E-11 4.46061E-11
 -1      2335 2.02410E-10 3.67266E-10 6.37539E-11
 -1      2336-3.45516E-10-7.29600E-10-1.52618E-10
 -1      2337 1.94225E-10 3.78068E-10-3.92029E-11
 -1      2338-1.81922E-10 6.29553E-11 9.03571E-11
 -1      2339-1.42949E-10 2.96851E-10-1.97787E-10
 -1      2340-2.14346E-10 1.23497E-10-3.51431E-10
 -1      2341 3.79690E-11 6.90176E-12 7.03082E-12
 -1      2342 7.59018E-11 9.95811E-11-3.80122E-11
 -1      2343-8.30147E-11 2.13861E-10 1.50720E-10
 -1      2344-6.39926E-10 7.34314E-11 2.48425E-10
 -1      2345 5.40728E-10 8.15148E-10 1.05202E-09
 -1      2346-5.28178E-12-9.46128E-11 1.72875E-11
 -1      2347 9.25149E-10-5.67991E-11 5.19101E-10
 -1      2348 6.27383E-10-1.19548E-09 2.13684E-09
 -1      2349 1.60533E-10 1.87639E-10 1.67963E-10
 -1      2350-1.75159E-10-5.68647E-11-9.62358E-11
 -1      2351 3.94328E-10 1.57281E-10 8.73390E-10
 -1      2352 1.07104E-10-2.95078E-10-5.37960E-11
 -1      2353 3.02726E-10-2.79516E-10 1.28939E-10
 -1      2354 2.83310E-10-1.99401E-09 2.59633E-10
 -1      2355 6.41197E-13-5.35936E-12 3.21343E-12
 -1      2356 1.42713E-10-8.20693E-11-1.07763E-09
 -1      2357 2.10672E-10 1.10700E-09 1.22062E-11
 -1      2358 5.62116E-10 4.00290E-10 6.51050E-10
 -1      2359-3.14694E-10-5.84061E-10-1.35946E-09
 -1      2360 5.51202E-10 1.07035E-10 2.73826E-10
 -1      2361 1.60582E-11 1.12936E-10 1.76215E-12
 -1      2362-3.91893E-09-5.76226E-09-1.20957E-09
 -1      2363 4.97926E-11 1.47542E-09 5.09455E-10
 -1      2364 1.03790E-09-2.12499E-10 1.34409E-09
 -1      2365-6.07806E-11 1.21069E-11-3.62883E-11
 -1      2366-7.22166E-11 2.50512E-10-2.21210E-10
 -1      2367-2.67213E-09-7.94286E-10-1.66301E-09
 -1      2368-1.19635E-09 1.41671E-09-9.24270E-10
 -1      2369 9.52771E-11 2.93392E-10-1.61123E-10
 -1      2370-2.42208E-10 1.28210E-09-1.15366E-09
 -1      2371-1.29044E-09-1.02692E-09 7.14014E-10
 -1      2372 1.72083E-10-1.88281E-10 3.78596E-10
 -1      2373-3.50950E-10 2.92275E-11-1.35445E-10
 -1      2374-1.50599E-09 2.47994E-09 1.34158E-09
 -1      2375-1.62372E-10 5.56082E-10-1.03063E-09
 -1      2376 4.80149E-10-2.59473E-10 1.16372E-10
 -1      2377 1.54530E-09-2.88550E-09 3.52440E-09
 -1      2378-6.35400E-10-5.53776E-09-5.41362E-10
 -1      2379-4.00579E-10-1.59345E-09 9.05516E-11
 -1      2380 7.62262E-12-8.48121E-12 9.97424E-13
 -1      2381-2.52559E-09 2.07796E-09-1.18882E-09
 -1      2382 7.59652E-12 3.50520E-11 1.61995E-11
 -1      2383 2.26242E-11-1.84916E-11 2.06084E-11
 -1      2384 7.78734E-11-1.11923E-10 1.77695E-10
 -1      2385-5.32188E-10 1.86089E-09 9.09345E-10
 -1      2386-4.35741E-10-5.16995E-10-1.62510E-10
 -1      2387-1.80632E-11 3.29145E-10-3.60564E-10
 -1      2388-1.14636E-10 3.67192E-10-1.31481E-10
 -1      2389 6.17725E-11 5.55425E-11 8.04334E-12
 -1      2390 2.48591E-11 1.25532E-10 1.22575E-11
 -1      2391 2.68923E-10-7.38500E-10 5.96176E-10
 -1      2392-7.67361E-10 3.26387E-09-2.25617E-09
 -1      2393-7.19749E-10-1.51252E-09 7.36682E-10
 -1      2394-7.54121E-10-3.73643E-11-1.10566E-09
 -1      2395-2.37828E-09-4.13425E-10-2.82923E-09
 -1      2396 1.20663E-09 3.31438E-09-5.53612E-10
 -1      2397-2.48883E-09 2.02495E-09 2.84776E-09
 -1      2398-1.69498E-09 8.18318E-10-4.25960E-10
 -1      2399 9.58835E-10-2.24905E-09 6.65588E-10
 -1      2400 1.71001E-09 1.70867E-09-2.02720E-09
 -1      2401 3.02088E-09 4.53531E-10-6.20810E-10
 -1      2402 1.18117E-10 3.25442E-09-1.51527E-09
 -1      2403 1.71995E-09 1.11268E-09-1.02068E-09
 -1      2404-9.62150E-10-2.18488E-10-1.36065E-10
 -1      2405-8.13022E-11 1.47883E-10 2.79162E-11
 -1      2406-1.71524E-10 4.04050E-10 9.02043E-11
 -1      2407-3.13485E-12 5.08704E-11-4.88107E-11
 -1      2408 1.80253E-11-2.27237E-11 8.84626E-12
 -1      2409-4.35046E-11 3.33604E-12-8.89511E-13
 -1      2410 2.00864E-11-1.53170E-10-3.85558E-12
 -1      2411 3.41811E-11-1.03248E-12 1.32914E-11
 -1      2412-2.04481E-11-2.77096E-11-2.00930E-11
 -1      2413 7.43761E-10 3.18684E-10-1.86459E-10
 -1      2414-2.62029E-09-5.53975E-10 3.52700E-10
 -1      2415 5.39752E-09-4.74211E-09 3.76860E-09
 -1      2416 2.64689E-09 8.58312E-10-2.88569E-11
 -1      2417 2.31789E-09 1.83303E-10 7.82009E-10
 -1      2418-3.86466E-09-7.65905E-10 4.52238E-09
 -1      2419 4.56622E-10 2.79828E-09 7.25387E-10
 -1      2420-2.64522E-09 4.55173E-10 9.11179E-10
 -1      2421-5.28676E-10-9.32373E-10 1.36652E-09
 -1      2422 3.32559E-10-2.52657E-09-1.25714E-09
 -1      2423-2.09666E-09 5.41611E-10-1.35714E-10
 -1      2424 2.36717E-09 9.90941E-10 2.10465E-10
 -1      2425 4.25110E-09 1.85934E-09 1.14950E-09
 -1      2426 3.89510E-09 9.98866E-11-1.51465E-09
 -1      2427 1.01517E-09 1.00993E-09-9.29462E-10
 -1      2428-4.38018E-12-1.42112E-11-1.72129E-12
 -1      2429 5.26205E-12-2.04296E-11-2.63864E-11
 -1      2430 3.12629E-10 1.00589E-09 7.24693E-10
 -1      2431 7.53754E-11-1.95979E-11-4.85727E-11
 -1      2432 8.49575E-12-1.20051E-11 2.93312E-11
 -1      2433 7.41661E-11-4.23778E-11-1.72413E-11
 -1      2434 9.00701E-10-1.19757E-09 1.08657E-09
 -1      2435-1.72006E-09 1.71989E-09-6.23574E-10
 -1      2436 1.34856E-09-3.02256E-09-3.19130E-10
 -1      2437 4.78602E-11 6.28997E-10-1.00523E-09
 -1      2438-3.75691E-09-5.19400E-09-6.89885E-11
 -1      2439 9.48437E-10 4.63142E-10-1.51416E-09
 -1      2440 1.78197E-09-1.00590E-09 5.09272E-10
 -1      2441 5.16263E-10-3.54199E-09 3.58968E-09
 -1      2442-1.39062E-11-2.19265E-11-6.89745E-12
 -1      2443 9.39250E-10 2.08878E-09 1.29853E-09
 -1      2444-2.73903E-09-2.54794E-10-4.58282E-10
 -1      2445-1.40586E-09-2.51083E-09-1.67180E-10
 -1      2446 8.07530E-10-2.43198E-09-5.59559E-10
 -1      2447 2.51432E-09-5.41529E-09-5.27077E-10
 -1      2448-1.86306E-09 2.87010E-10-1.27738E-09
 -1      2449 1.89117E-10-2.35800E-10 1.82947E-11
 -1      2450-7.47113E-11-1.13575E-10-1.90605E-10
 -1      2451 8.28507E-10-4.43848E-10-4.85429E-10
 -1      2452-6.41661E-10-1.98930E-09-2.22236E-10
 -1      2453-6.67744E-12-6.02727E-10-1.74781E-09
 -1      2454 6.57230E-10-4.04665E-10 1.23949E-10
 -1      2455-1.07898E-10-3.50303E-10-3.07882E-10
 -1      2456 4.52596E-10-4.80943E-10-6.25359E-10
 -1      2457-4.40700E-10 3.26022E-10 1.86121E-10
 -3
    1PSTEP                         5           1           1          
  100CL  101 1.000000000         890                     0    1           1
 -4  ERROR       1    1
 -5  STR(%)      1    1    0    0
 -1      1568 2.85924E+01
 -1      1569 3.60348E+01
 -1      1570 2.26762E+01
 -1      1571 4.24276E+01
 -1      1572 4.43992E+01
 -1      1573 4.29096E+01
 -1      1574 3.73416E+01
 -1      1575 3.29576E+01
 -1      1576 3.37897E+01
 -1      1577 2.31881E+01
 -1      1578 2.12831E+01
 -1      1579 1.70601E+01
 -1      1580 1.68646E+01
 -1      1581 1.67140E+01
 -1      1582 3.70129E+01
 -1      1583 2.87716E+01
 -1      1584 3.81391E+01
 -1      1585 4.37089E+01
 -1      1586 3.25481E+01
 -1      1587 2.66196E+01
 -1      1588 2.42088E+01
 -1      1589 2.28163E+01
 -1      1590 2.28163E+01
 -1      1591 2.24423E+01
 -1      1592 3.82055E+01
 -1      1593 2.87716E+01
 -1      1594 3.81391E+01
 -1      1595 4.24276E+01
 -1      1596 4.69221E+01
 -1      1597 3.72361E+01
 -1      1598 4.84779E+01
 -1      1599 3.60348E+01
 -1      1600 2.49744E+01
 -1      1601 4.44013E+01
 -1      1602 4.37851E+01
 -1      1603 3.51596E+01
 -1      1604 2.93746E+01
 -1      1605 4.35694E+01
 -1      1606 4.81189E+01
 -1      1607 4.81189E+01
 -1      1608 4.08179E+01
 -1      1609 4.00625E+01
 -1      1610 3.67946E+01
 -1      1611 3.06705E+01
 -1      1612 2.76731E+01
 -1      1613 3.84466E+01
 -1      1614 4.23250E+01
 -1      1615 4.84779E+01
 -1      1616 4.37089E+01
 -1      1617 4.81626E+01
 -1      1618 5.45128E+01
 -1      1619 5.11722E+01
 -1      1620 5.76042E+01
 -1      1621 5.14029E+01
 -1      1622 4.24276E+01
 -1      1623 4.14832E+01
 -1      1624 5.45128E+01
 -1      1625 5.11722E+01
 -1      1626 5.76042E+01
 -1      1627 5.42551E+01
 -1      1628 3.72361E+01
 -1      1629 2.35885E+01
 -1      1630 2.20405E+01
 -1      1631 2.90158E+01
 -1      1632 2.90008E+01
 -1      1633 4.81626E+01
 -1      1634 5.13037E+01
 -1      1635 4.73655E+01
 -1      1636 4.44013E+01
 -1      1637 3.51596E+01
 -1      1638 4.60136E+01
 -1      1639 4.05325E+01
 -1      1640 4.81189E+01
 -1      1641 3.37897E+01
 -1      1642 2.32453E+01
 -1      1643 2.18119E+01
 -1      1644 3.70129E+01
 -1      1645 4.60921E+01
 -1      1646 5.45053E+01
 -1      1647 4.62327E+01
 -1      1648 4.37851E+01
 -1      1649 3.98573E+01
 -1      1650 2.57447E+01
 -1      1651 2.80419E+01
 -1      1652 4.08070E+01
 -1      1653 4.45221E+01
 -1      1654 3.39988E+01
 -1      1655 4.45221E+01
 -1      1656 4.45221E+01
 -1      1657 3.58212E+01
 -1      1658 4.62327E+01
 -1      1659 2.70286E+01
 -1      1660 4.08070E+01
 -1      1661 2.90008E+01
 -1      1662 2.90158E+01
 -1      1663 2.28163E+01
 -1      1664 2.66196E+01
 -1      1665 3.60348E+01
 -1      1666 4.84779E+01
 -1      1667 3.98573E+01
 -1      1668 3.32492E+01
 -1      1669 4.07817E+01
 -1      1670 4.73655E+01
 -1      1671 4.51021E+01
 -1      1672 4.64213E+01
 -1      1673 4.05325E+01
 -1      1674 3.82055E+01
 -1      1675 2.24423E+01
 -1      1676 2.42088E+01
 -1      1677 3.25481E+01
 -1      1678 4.60136E+01
 -1      1679 3.32558E+01
 -1      1680 4.07817E+01
 -1      1681 5.45053E+01
 -1      1682 4.77469E+01
 -1      1683 2.82393E+01
 -1      1684 2.12394E+01
 -1      1685 2.91876E+01
 -1      1686 3.39988E+01
 -1      1687 3.77412E+01
 -1      1688 4.08070E+01
 -1      1689 2.80419E+01
 -1      1690 4.45221E+01
 -1      1691 4.08070E+01
 -1      1692 2.90158E+01
 -1      1693 4.64213E+01
 -1      1694 3.60348E+01
 -1      1695 4.37089E+01
 -1      1696 4.37089E+01
 -1      1697 4.81189E+01
 -1      1698 4.84779E+01
 -1      1699 4.81626E+01
 -1      1700 3.37897E+01
 -1      1701 4.44013E+01
 -1      1702 4.82904E+01
 -1      1703 4.05325E+01
 -1      1704 2.42088E+01
 -1      1705 1.90597E+01
 -1      1706 5.45128E+01
 -1      1707 4.60136E+01
 -1      1708 3.37897E+01
 -1      1709 4.77074E+01
 -1      1710 3.51596E+01
 -1      1711 5.76042E+01
 -1      1712 3.82055E+01
 -1      1713 5.45128E+01
 -1      1714 2.66196E+01
 -1      1715 3.82055E+01
 -1      1716 2.28163E+01
 -1      1717 5.45053E+01
 -1      1718 2.24423E+01
 -1      1719 4.08179E+01
 -1      1720 4.37851E+01
 -1      1721 3.98573E+01
 -1      1722 4.60136E+01
 -1      1723 5.76042E+01
 -1      1724 3.23136E+01
 -1      1725 3.25519E+01
 -1      1726 3.11911E+01
 -1      1727 2.84889E+01
 -1      1728 2.22356E+01
 -1      1729 1.91716E+01
 -1      1730 1.69624E+01
 -1      1731 1.67893E+01
 -1      1732 2.68634E+01
 -1      1733 3.28922E+01
 -1      1734 3.34554E+01
 -1      1735 4.09240E+01
 -1      1736 3.31925E+01
 -1      1737 3.42915E+01
 -1      1738 2.95839E+01
 -1      1739 2.54142E+01
 -1      1740 2.35126E+01
 -1      1741 2.28163E+01
 -1      1742 2.26293E+01
 -1      1743 3.03239E+01
 -1      1744 3.34885E+01
 -1      1745 3.34554E+01
 -1      1746 4.02834E+01
 -1      1747 4.24276E+01
 -1      1748 4.36544E+01
 -1      1749 4.56607E+01
 -1      1750 4.20791E+01
 -1      1751 3.29142E+01
 -1      1752 4.56937E+01
 -1      1753 4.22564E+01
 -1      1754 3.60348E+01
 -1      1755 3.51496E+01
 -1      1756 3.11580E+01
 -1      1757 3.46878E+01
 -1      1758 4.40932E+01
 -1      1759 3.94724E+01
 -1      1760 3.22671E+01
 -1      1761 3.64720E+01
 -1      1762 4.58442E+01
 -1      1763 4.81189E+01
 -1      1764 4.62591E+01
 -1      1765 3.68877E+01
 -1      1766 4.04402E+01
 -1      1767 3.84285E+01
 -1      1768 3.37325E+01
 -1      1769 2.91718E+01
 -1      1770 3.30598E+01
 -1      1771 4.03858E+01
 -1      1772 4.54014E+01
 -1      1773 4.56937E+01
 -1      1774 3.31925E+01
 -1      1775 4.59357E+01
 -1      1776 5.13377E+01
 -1      1777 5.28425E+01
 -1      1778 5.43882E+01
 -1      1779 5.45035E+01
 -1      1780 4.43722E+01
 -1      1781 4.24276E+01
 -1      1782 4.19554E+01
 -1      1783 4.79980E+01
 -1      1784 5.28425E+01
 -1      1785 5.43882E+01
 -1      1786 5.59296E+01
 -1      1787 4.36063E+01
 -1      1788 3.05703E+01
 -1      1789 2.49039E+01
 -1      1790 2.78681E+01
 -1      1791 2.27459E+01
 -1      1792 2.39514E+01
 -1      1793 1.99382E+01
 -1      1794 2.06344E+01
 -1      1795 1.99382E+01
 -1      1796 1.96535E+01
 -1      1797 1.98405E+01
 -1      1798 2.74597E+01
 -1      1799 1.95781E+01
 -1      1800 2.87716E+01
 -1      1801 3.34885E+01
 -1      1802 3.81391E+01
 -1      1803 3.34554E+01
 -1      1804 4.30682E+01
 -1      1805 4.09240E+01
 -1      1806 4.30682E+01
 -1      1807 3.31689E+01
 -1      1808 3.76092E+01
 -1      1809 4.64385E+01
 -1      1810 4.14785E+01
 -1      1811 4.77000E+01
 -1      1812 3.66355E+01
 -1      1813 3.66355E+01
 -1      1814 3.90797E+01
 -1      1815 4.22319E+01
 -1      1816 4.26096E+01
 -1      1817 4.02899E+01
 -1      1818 4.19238E+01
 -1      1819 3.29150E+01
 -1      1820 3.59771E+01
 -1      1821 2.85239E+01
 -1      1822 3.00225E+01
 -1      1823 4.10080E+01
 -1      1824 3.56213E+01
 -1      1825 4.29472E+01
 -1      1826 4.52219E+01
 -1      1827 4.82984E+01
 -1      1828 4.52219E+01
 -1      1829 4.64385E+01
 -1      1830 3.28961E+01
 -1      1831 3.25519E+01
 -1      1832 4.48229E+01
 -1      1833 4.52951E+01
 -1      1834 5.45128E+01
 -1      1835 4.79980E+01
 -1      1836 5.11722E+01
 -1      1837 5.28425E+01
 -1      1838 5.76042E+01
 -1      1839 5.43882E+01
 -1      1840 5.28290E+01
 -1      1841 5.45035E+01
 -1      1842 4.57983E+01
 -1      1843 4.30682E+01
 -1      1844 3.55129E+01
 -1      1845 3.29142E+01
 -1      1846 2.24358E+01
 -1      1847 2.33883E+01
 -1      1848 1.94526E+01
 -1      1849 1.95503E+01
 -1      1850 3.30143E+01
 -1      1851 2.28649E+01
 -1      1852 3.35699E+01
 -1      1853 2.88862E+01
 -1      1854 4.37089E+01
 -1      1855 5.13377E+01
 -1      1856 4.81626E+01
 -1      1857 5.44539E+01
 -1      1858 5.12379E+01
 -1      1859 4.23535E+01
 -1      1860 4.93842E+01
 -1      1861 3.61699E+01
 -1      1862 4.40932E+01
 -1      1863 4.44013E+01
 -1      1864 3.22671E+01
 -1      1865 3.51596E+01
 -1      1866 4.70662E+01
 -1      1867 4.47915E+01
 -1      1868 4.75205E+01
 -1      1869 3.72361E+01
 -1      1870 4.21207E+01
 -1      1871 4.21207E+01
 -1      1872 3.93358E+01
 -1      1873 4.43476E+01
 -1      1874 4.75205E+01
 -1      1875 4.81189E+01
 -1      1876 2.84889E+01
 -1      1877 3.37897E+01
 -1      1878 2.01527E+01
 -1      1879 2.22642E+01
 -1      1880 1.92630E+01
 -1      1881 1.93383E+01
 -1      1882 3.28922E+01
 -1      1883 3.70129E+01
 -1      1884 2.86891E+01
 -1      1885 4.26775E+01
 -1      1886 4.81189E+01
 -1      1887 4.86321E+01
 -1      1888 5.03024E+01
 -1      1889 5.29541E+01
 -1      1890 5.60547E+01
 -1      1891 4.53170E+01
 -1      1892 3.56035E+01
 -1      1893 3.94724E+01
 -1      1894 4.37851E+01
 -1      1895 4.17134E+01
 -1      1896 3.46160E+01
 -1      1897 3.55129E+01
 -1      1898 4.71273E+01
 -1      1899 2.26429E+01
 -1      1900 4.26775E+01
 -1      1901 4.70662E+01
 -1      1902 4.43476E+01
 -1      1903 2.34169E+01
 -1      1904 2.19262E+01
 -1      1905 3.30143E+01
 -1      1906 5.29045E+01
 -1      1907 4.67991E+01
 -1      1908 3.75085E+01
 -1      1909 2.54139E+01
 -1      1910 3.30068E+01
 -1      1911 3.94724E+01
 -1      1912 4.29355E+01
 -1      1913 4.53170E+01
 -1      1914 5.09354E+01
 -1      1915 4.86979E+01
 -1      1916 4.40932E+01
 -1      1917 4.16248E+01
 -1      1918 2.37783E+01
 -1      1919 2.38926E+01
 -1      1920 3.25274E+01
 -1      1921 2.85288E+01
 -1      1922 4.76561E+01
 -1      1923 4.60553E+01
 -1      1924 3.98409E+01
 -1      1925 4.41536E+01
 -1      1926 2.87936E+01
 -1      1927 3.38943E+01
 -1      1928 3.32813E+01
 -1      1929 3.38837E+01
 -1      1930 3.51334E+01
 -1      1931 3.38837E+01
 -1      1932 3.40553E+01
 -1      1933 3.92605E+01
 -1      1934 4.45221E+01
 -1      1935 3.98032E+01
 -1      1936 4.01113E+01
 -1      1937 4.01717E+01
 -1      1938 3.96728E+01
 -1      1939 3.70670E+01
 -1      1940 3.69281E+01
 -1      1941 3.45792E+01
 -1      1942 3.99017E+01
 -1      1943 4.67991E+01
 -1      1944 5.03690E+01
 -1      1945 4.35198E+01
 -1      1946 4.62327E+01
 -1      1947 3.68235E+01
 -1      1948 2.80222E+01
 -1      1949 2.44203E+01
 -1      1950 2.75352E+01
 -1      1951 4.26041E+01
 -1      1952 4.35198E+01
 -1      1953 4.35198E+01
 -1      1954 3.83141E+01
 -1      1955 3.47667E+01
 -1      1956 3.85817E+01
 -1      1957 2.63866E+01
 -1      1958 3.44244E+01
 -1      1959 4.15525E+01
 -1      1960 3.75464E+01
 -1      1961 3.92605E+01
 -1      1962 3.39178E+01
 -1      1963 4.08070E+01
 -1      1964 3.39178E+01
 -1      1965 4.45221E+01
 -1      1966 4.01717E+01
 -1      1967 3.07829E+01
 -1      1968 3.32758E+01
 -1      1969 4.45221E+01
 -1      1970 4.24276E+01
 -1      1971 2.88862E+01
 -1      1972 3.35699E+01
 -1      1973 2.57290E+01
 -1      1974 3.36106E+01
 -1      1975 2.28163E+01
 -1      1976 2.28163E+01
 -1      1977 2.66196E+01
 -1      1978 2.54142E+01
 -1      1979 3.60348E+01
 -1      1980 3.42915E+01
 -1      1981 3.60348E+01
 -1      1982 4.84779E+01
 -1      1983 4.54014E+01
 -1      1984 4.84779E+01
 -1      1985 3.37652E+01
 -1      1986 3.91520E+01
 -1      1987 3.50219E+01
 -1      1988 3.19598E+01
 -1      1989 4.07998E+01
 -1      1990 4.04221E+01
 -1      1991 4.01615E+01
 -1      1992 4.40917E+01
 -1      1993 4.40736E+01
 -1      1994 5.08103E+01
 -1      1995 4.81371E+01
 -1      1996 5.13532E+01
 -1      1997 4.39522E+01
 -1      1998 5.04670E+01
 -1      1999 4.14801E+01
 -1      2000 4.10078E+01
 -1      2001 4.34769E+01
 -1      2002 4.14801E+01
 -1      2003 4.84779E+01
 -1      2004 3.34885E+01
 -1      2005 3.36031E+01
 -1      2006 3.82055E+01
 -1      2007 3.93358E+01
 -1      2008 3.36106E+01
 -1      2009 2.26293E+01
 -1      2010 2.24423E+01
 -1      2011 2.42088E+01
 -1      2012 2.35126E+01
 -1      2013 3.25481E+01
 -1      2014 2.95839E+01
 -1      2015 4.22564E+01
 -1      2016 4.41693E+01
 -1      2017 4.72457E+01
 -1      2018 4.22301E+01
 -1      2019 4.29355E+01
 -1      2020 3.19632E+01
 -1      2021 3.04645E+01
 -1      2022 4.04221E+01
 -1      2023 3.87881E+01
 -1      2024 5.60547E+01
 -1      2025 5.43802E+01
 -1      2026 5.11298E+01
 -1      2027 4.94595E+01
 -1      2028 4.70841E+01
 -1      2029 2.57290E+01
 -1      2030 2.35126E+01
 -1      2031 2.95839E+01
 -1      2032 3.70154E+01
 -1      2033 4.64245E+01
 -1      2034 5.09354E+01
 -1      2035 3.42915E+01
 -1      2036 2.54142E+01
 -1      2037 2.26293E+01
 -1      2038 4.22564E+01
 -1      2039 3.65566E+01
 -1      2040 4.07817E+01
 -1      2041 3.32525E+01
 -1      2042 4.98037E+01
 -1      2043 3.47667E+01
 -1      2044 4.10242E+01
 -1      2045 3.03937E+01
 -1      2046 2.74294E+01
 -1      2047 2.20279E+01
 -1      2048 2.18408E+01
 -1      2049 3.49846E+01
 -1      2050 3.12184E+01
 -1      2051 3.03092E+01
 -1      2052 2.91038E+01
 -1      2053 3.11190E+01
 -1      2054 3.07476E+01
 -1      2055 3.40483E+01
 -1      2056 3.71264E+01
 -1      2057 4.14217E+01
 -1      2058 4.61233E+01
 -1      2059 3.36240E+01
 -1      2060 3.36273E+01
 -1      2061 3.92809E+01
 -1      2062 4.40862E+01
 -1      2063 4.07943E+01
 -1      2064 4.76561E+01
 -1      2065 2.52421E+01
 -1      2066 2.85288E+01
 -1      2067 2.46406E+01
 -1      2068 3.43655E+01
 -1      2069 3.36692E+01
 -1      2070 3.92605E+01
 -1      2071 3.28808E+01
 -1      2072 4.07943E+01
 -1      2073 4.07943E+01
 -1      2074 3.49973E+01
 -1      2075 4.08070E+01
 -1      2076 3.83813E+01
 -1      2077 3.70590E+01
 -1      2078 3.92741E+01
 -1      2079 3.77110E+01
 -1      2080 2.85288E+01
 -1      2081 2.90158E+01
 -1      2082 4.64213E+01
 -1      2083 4.70841E+01
 -1      2084 3.77185E+01
 -1      2085 3.77110E+01
 -1      2086 3.33785E+01
 -1      2087 3.36106E+01
 -1      2088 3.68549E+01
 -1      2089 2.52135E+01
 -1      2090 3.15932E+01
 -1      2091 3.10232E+01
 -1      2092 4.23134E+01
 -1      2093 3.28916E+01
 -1      2094 3.44244E+01
 -1      2095 3.92741E+01
 -1      2096 3.99017E+01
 -1      2097 3.10145E+01
 -1      2098 3.31689E+01
 -1      2099 2.21271E+01
 -1      2100 2.23141E+01
 -1      2101 2.15257E+01
 -1      2102 4.40932E+01
 -1      2103 4.40932E+01
 -1      2104 4.44013E+01
 -1      2105 4.37851E+01
 -1      2106 4.40932E+01
 -1      2107 3.37897E+01
 -1      2108 3.31689E+01
 -1      2109 3.49123E+01
 -1      2110 3.49123E+01
 -1      2111 5.45053E+01
 -1      2112 5.60547E+01
 -1      2113 5.60547E+01
 -1      2114 5.45053E+01
 -1      2115 5.45053E+01
 -1      2116 5.60547E+01
 -1      2117 2.24284E+01
 -1      2118 2.16399E+01
 -1      2119 3.42077E+01
 -1      2120 3.88890E+01
 -1      2121 3.88857E+01
 -1      2122 3.42044E+01
 -1      2123 5.45128E+01
 -1      2124 5.03024E+01
 -1      2125 5.03024E+01
 -1      2126 5.45128E+01
 -1      2127 5.45128E+01
 -1      2128 4.72457E+01
 -1      2129 4.60136E+01
 -1      2130 4.10242E+01
 -1      2131 4.35198E+01
 -1      2132 4.08070E+01
 -1      2133 4.76561E+01
 -1      2134 3.66355E+01
 -1      2135 2.49269E+01
 -1      2136 5.59296E+01
 -1      2137 5.43802E+01
 -1      2138 5.13377E+01
 -1      2139 5.13377E+01
 -1      2140 5.13377E+01
 -1      2141 5.45128E+01
 -1      2142 4.61233E+01
 -1      2143 2.75352E+01
 -1      2144 2.41340E+01
 -1      2145 3.39178E+01
 -1      2146 2.85288E+01
 -1      2147 2.90158E+01
 -1      2148 2.90158E+01
 -1      2149 2.74661E+01
 -1      2150 3.51334E+01
 -1      2151 2.34920E+01
 -1      2152 2.80419E+01
 -1      2153 3.28916E+01
 -1      2154 2.85288E+01
 -1      2155 3.55129E+01
 -1      2156 3.37897E+01
 -1      2157 3.37897E+01
 -1      2158 2.84889E+01
 -1      2159 3.37897E+01
 -1      2160 3.31689E+01
 -1      2161 5.44539E+01
 -1      2162 5.76042E+01
 -1      2163 5.76042E+01
 -1      2164 5.44539E+01
 -1      2165 5.76042E+01
 -1      2166 5.29541E+01
 -1      2167 5.45035E+01
 -1      2168 4.72919E+01
 -1      2169 4.48229E+01
 -1      2170 4.43476E+01
 -1      2171 4.22301E+01
 -1      2172 4.29355E+01
 -1      2173 4.60136E+01
 -1      2174 3.78944E+01
 -1      2175 3.72316E+01
 -1      2176 5.29045E+01
 -1      2177 4.82029E+01
 -1      2178 4.45225E+01
 -1      2179 3.92605E+01
 -1      2180 3.68549E+01
 -1      2181 3.25044E+01
 -1      2182 3.45352E+01
 -1      2183 3.02047E+01
 -1      2184 2.57290E+01
 -1      2185 5.60585E+01
 -1      2186 5.29082E+01
 -1      2187 4.98075E+01
 -1      2188 5.13532E+01
 -1      2189 3.92741E+01
 -1      2190 3.23849E+01
 -1      2191 4.08070E+01
 -1      2192 4.04402E+01
 -1      2193 4.08179E+01
 -1      2194 4.07998E+01
 -1      2195 3.63807E+01
 -1      2196 3.92605E+01
 -1      2197 3.55709E+01
 -1      2198 4.62567E+01
 -1      2199 4.69195E+01
 -1      2200 3.46521E+01
 -1      2201 3.47667E+01
 -1      2202 3.93358E+01
 -1      2203 3.65566E+01
 -1      2204 3.40483E+01
 -1      2205 3.98573E+01
 -1      2206 3.43655E+01
 -1      2207 2.38986E+01
 -1      2208 2.51041E+01
 -1      2209 3.83015E+01
 -1      2210 3.02047E+01
 -1      2211 2.59139E+01
 -1      2212 4.07943E+01
 -1      2213 4.25915E+01
 -1      2214 3.32813E+01
 -1      2215 4.67991E+01
 -1      2216 4.35072E+01
 -1      2217 2.37270E+01
 -1      2218 3.46521E+01
 -1      2219 3.76092E+01
 -1      2220 3.76092E+01
 -1      2221 3.76092E+01
 -1      2222 3.82055E+01
 -1      2223 3.76092E+01
 -1      2224 3.85172E+01
 -1      2225 3.34885E+01
 -1      2226 3.82055E+01
 -1      2227 3.34885E+01
 -1      2228 2.06344E+01
 -1      2229 2.42088E+01
 -1      2230 2.35126E+01
 -1      2231 5.13532E+01
 -1      2232 4.08070E+01
 -1      2233 4.25960E+01
 -1      2234 4.59357E+01
 -1      2235 4.30682E+01
 -1      2236 2.66196E+01
 -1      2237 2.54142E+01
 -1      2238 2.39514E+01
 -1      2239 4.08070E+01
 -1      2240 3.94724E+01
 -1      2241 3.85172E+01
 -1      2242 3.42044E+01
 -1      2243 3.94724E+01
 -1      2244 4.37851E+01
 -1      2245 3.77110E+01
 -1      2246 3.47667E+01
 -1      2247 2.90008E+01
 -1      2248 2.40378E+01
 -1      2249 1.78868E+01
 -1      2250 2.80363E+01
 -1      2251 3.36031E+01
 -1      2252 3.93358E+01
 -1      2253 4.40917E+01
 -1      2254 4.45541E+01
 -1      2255 4.78279E+01
 -1      2256 4.45541E+01
 -1      2257 3.36273E+01
 -1      2258 3.11190E+01
 -1      2259 3.39988E+01
 -1      2260 2.21271E+01
 -1      2261 2.07510E+01
 -1      2262 2.04358E+01
 -1      2263 2.24423E+01
 -1      2264 2.07510E+01
 -1      2265 5.76042E+01
 -1      2266 2.24423E+01
 -1      2267 1.96535E+01
 -1      2268 2.26293E+01
 -1      2269 3.32758E+01
 -1      2270 4.05325E+01
 -1      2271 3.82055E+01
 -1      2272 3.85817E+01
 -1      2273 4.43476E+01
 -1      2274 4.05325E+01
 -1      2275 5.09354E+01
 -1      2276 4.81626E+01
 -1      2277 4.45221E+01
 -1      2278 4.25915E+01
 -1      2279 4.07943E+01
 -1      2280 4.35072E+01
 -1      2281 4.29355E+01
 -1      2282 2.31247E+01
 -1      2283 3.83141E+01
 -1      2284 2.28163E+01
 -1      2285 2.26293E+01
 -1      2286 2.28163E+01
 -1      2287 2.26293E+01
 -1      2288 4.60136E+01
 -1      2289 4.29355E+01
 -1      2290 4.47915E+01
 -1      2291 5.09354E+01
 -1      2292 4.67991E+01
 -1      2293 4.26096E+01
 -1      2294 4.45221E+01
 -1      2295 3.68549E+01
 -1      2296 3.72278E+01
 -1      2297 4.02899E+01
 -1      2298 4.22319E+01
 -1      2299 4.44013E+01
 -1      2300 3.65566E+01
 -1      2301 3.98573E+01
 -1      2302 3.98573E+01
 -1      2303 4.45221E+01
 -1      2304 2.49039E+01
 -1      2305 3.02047E+01
 -1      2306 2.22414E+01
 -1      2307 2.24284E+01
 -1      2308 4.05980E+01
 -1      2309 5.04670E+01
 -1      2310 5.13377E+01
 -1      2311 4.72919E+01
 -1      2312 4.26096E+01
 -1      2313 4.25915E+01
 -1      2314 5.28425E+01
 -1      2315 5.43882E+01
 -1      2316 5.28425E+01
 -1      2317 5.45128E+01
 -1      2318 3.28961E+01
 -1      2319 4.35253E+01
 -1      2320 4.41693E+01
 -1      2321 4.60136E+01
 -1      2322 4.72457E+01
 -1      2323 5.11298E+01
 -1      2324 3.66324E+01
 -1      2325 4.22834E+01
 -1      2326 2.66196E+01
 -1      2327 4.17134E+01
 -1      2328 4.29355E+01
 -1      2329 4.37089E+01
 -1      2330 2.27459E+01
 -1      2331 4.21207E+01
 -1      2332 3.30143E+01
 -1      2333 5.11298E+01
 -1      2334 5.04670E+01
 -1      2335 1.99382E+01
 -1      2336 1.98405E+01
 -1      2337 4.23134E+01
 -1      2338 3.36031E+01
 -1      2339 3.82055E+01
 -1      2340 4.40917E+01
 -1      2341 4.78279E+01
 -1      2342 3.65720E+01
 -1      2343 3.36106E+01
 -1      2344 1.95781E+01
 -1      2345 2.86891E+01
 -1      2346 4.28160E+01
 -1      2347 2.28163E+01
 -1      2348 2.35126E+01
 -1      2349 4.17171E+01
 -1      2350 3.77110E+01
 -1      2351 2.42088E+01
 -1      2352 4.73655E+01
 -1      2353 2.86326E+01
 -1      2354 2.54142E+01
 -1      2355 5.76042E+01
 -1      2356 2.30308E+01
 -1      2357 3.43655E+01
 -1      2358 4.22834E+01
 -1      2359 3.29150E+01
 -1      2360 3.42077E+01
 -1      2361 4.81626E+01
 -1      2362 4.70662E+01
 -1      2363 4.82984E+01
 -1      2364 4.52219E+01
 -1      2365 4.06240E+01
 -1      2366 3.82055E+01
 -1      2367 3.75085E+01
 -1      2368 3.46160E+01
 -1      2369 3.76092E+01
 -1      2370 4.22301E+01
 -1      2371 4.60136E+01
 -1      2372 3.47667E+01
 -1      2373 4.05325E+01
 -1      2374 3.31689E+01
 -1      2375 3.02047E+01
 -1      2376 3.30143E+01
 -1      2377 4.70662E+01
 -1      2378 4.60136E+01
 -1      2379 4.70662E+01
 -1      2380 5.43882E+01
 -1      2381 4.28570E+01
 -1      2382 4.95253E+01
 -1      2383 4.59357E+01
 -1      2384 4.21207E+01
 -1      2385 2.54142E+01
 -1      2386 2.07510E+01
 -1      2387 4.09240E+01
 -1      2388 4.21207E+01
 -1      2389 4.09240E+01
 -1      2390 4.72919E+01
 -1      2391 4.25915E+01
 -1      2392 3.66355E+01
 -1      2393 3.60348E+01
 -1      2394 3.23136E+01
 -1      2395 3.49123E+01
 -1      2396 3.31689E+01
 -1      2397 3.11911E+01
 -1      2398 3.75085E+01
 -1      2399 3.51596E+01
 -1      2400 4.24717E+01
 -1      2401 4.24717E+01
 -1      2402 3.66355E+01
 -1      2403 4.18711E+01
 -1      2404 3.14164E+01
 -1      2405 4.30682E+01
 -1      2406 4.37089E+01
 -1      2407 4.37089E+01
 -1      2408 4.30682E+01
 -1      2409 3.31925E+01
 -1      2410 4.30682E+01
 -1      2411 4.30682E+01
 -1      2412 4.37089E+01
 -1      2413 4.64385E+01
 -1      2414 4.84779E+01
 -1      2415 4.56937E+01
 -1      2416 4.82984E+01
 -1      2417 4.82984E+01
 -1      2418 4.82984E+01
 -1      2419 4.81189E+01
 -1      2420 4.77000E+01
 -1      2421 4.82984E+01
 -1      2422 4.84779E+01
 -1      2423 4.84779E+01
 -1      2424 4.80926E+01
 -1      2425 4.18711E+01
 -1      2426 4.80926E+01
 -1      2427 4.73147E+01
 -1      2428 5.12727E+01
 -1      2429 4.98466E+01
 -1      2430 3.94724E+01
 -1      2431 5.09354E+01
 -1      2432 5.13978E+01
 -1      2433 3.51596E+01
 -1      2434 3.22671E+01
 -1      2435 3.91520E+01
 -1      2436 3.37652E+01
 -1      2437 4.47915E+01
 -1      2438 4.81189E+01
 -1      2439 4.81189E+01
 -1      2440 4.82984E+01
 -1      2441 3.49123E+01
 -1      2442 4.37089E+01
 -1      2443 4.80926E+01
 -1      2444 4.79131E+01
 -1      2445 3.60348E+01
 -1      2446 3.37897E+01
 -1      2447 3.60348E+01
 -1      2448 4.18711E+01
 -1      2449 4.53170E+01
 -1      2450 3.93690E+01
 -1      2451 2.35126E+01
 -1      2452 2.37270E+01
 -1      2453 2.49325E+01
 -1      2454 2.40378E+01
 -1      2455 2.86326E+01
 -1      2456 2.51041E+01
 -1      2457 3.36106E+01
 -3
 9999
