    1C
    1UUSER                                                              
    1UDATE              18.february.2021                                
    1UTIME              19:26:56                                        
    1UHOST                                                              
    1UPGM               CalculiX                                        
    1UVERSION           Version 2.17                             
    1UCOMPILETIME       Thu Jul 23 21:43:50 CEST 2020                    
    1UDIR                                                               
    1UDBN                                                               
    1UMAT    1STEEL                                                     
    2C                           117                                     1
 -1         1 1.16500E+00 8.12831E-01 0.00000E+00
 -1         2-3.05640E-15 1.00000E+00 0.00000E+00
 -1         3 1.35239E-16 1.29150E+00 0.00000E+00
 -1         4 1.26688E+00 1.05788E+00 0.00000E+00
 -1         5 3.88952E-15 1.58300E+00 0.00000E+00
 -1         6 1.36939E+00 1.30442E+00 0.00000E+00
 -1         7 1.73501E-16 2.16649E+00 0.00000E+00
 -1         8 1.57569E+00 1.80060E+00 0.00000E+00
 -1         9-4.65605E-15 2.75000E+00 0.00000E+00
 -1        10 1.78300E+00 2.29921E+00 0.00000E+00
 -1        11 1.78302E+00 4.53000E-01 0.00000E+00
 -1        12 1.95559E+00 6.00127E-01 0.00000E+00
 -1        13 2.12969E+00 7.48564E-01 0.00000E+00
 -1        14 2.48028E+00 1.04748E+00 0.00000E+00
 -1        15 2.83277E+00 1.34800E+00 0.00000E+00
 -1        16 2.00000E+00 1.09117E-14 0.00000E+00
 -1        17 2.20850E+00-1.29659E-20 0.00000E+00
 -1        18 2.41700E+00 2.86282E-24 0.00000E+00
 -1        19 2.83348E+00-8.96472E-34 0.00000E+00
 -1        20 3.25000E+00 9.31453E-15 0.00000E+00
 -1        21 5.90531E-01 9.55415E-01 0.00000E+00
 -1        22 6.44794E-01 1.23523E+00 0.00000E+00
 -1        23 6.99455E-01 1.51527E+00 0.00000E+00
 -1        24 8.09559E-01 2.07618E+00 0.00000E+00
 -1        25 9.20210E-01 2.63746E+00 0.00000E+00
 -1        26 1.49321E+00 6.65266E-01 0.00000E+00
 -1        27 1.63688E+00 8.67005E-01 0.00000E+00
 -1        28 1.78156E+00 1.06977E+00 0.00000E+00
 -1        29 2.07263E+00 1.47725E+00 0.00000E+00
 -1        30 2.36495E+00 1.88628E+00 0.00000E+00
 -1        31 1.93761E+00 2.47828E-01 0.00000E+00
 -1        32 2.13824E+00 3.23170E-01 0.00000E+00
 -1        33 2.33896E+00 3.99010E-01 0.00000E+00
 -1        34 2.74013E+00 5.51513E-01 0.00000E+00
 -1        35 3.14145E+00 7.04781E-01 0.00000E+00
 -1        36 9.67793E-01 1.16089E+00 0.00000E+00
 -1        37 9.04897E-01 1.02403E+00 0.00000E+00
 -1        38 1.21594E+00 9.35354E-01 0.00000E+00
 -1        39 6.17662E-01 1.09532E+00 0.00000E+00
 -1        40 3.25967E-01 1.27736E+00 0.00000E+00
 -1        41 2.95265E-01 1.12346E+00 0.00000E+00
 -1        42 2.98613E-01 9.88791E-01 0.00000E+00
 -1        43 5.20698E-16 1.14575E+00 0.00000E+00
 -1        44 8.89271E-01 8.95712E-01 0.00000E+00
 -1        45 1.04687E+00 1.42681E+00 0.00000E+00
 -1        46 9.83170E-01 1.28657E+00 0.00000E+00
 -1        47 1.31814E+00 1.18115E+00 0.00000E+00
 -1        48 3.22397E-01 1.40912E+00 0.00000E+00
 -1        49 1.56209E-15 1.43725E+00 0.00000E+00
 -1        50 6.72124E-01 1.37525E+00 0.00000E+00
 -1        51 3.53530E-01 1.56597E+00 0.00000E+00
 -1        52 7.54507E-01 1.79572E+00 0.00000E+00
 -1        53 4.04780E-01 1.82959E+00 0.00000E+00
 -1        54 1.47254E+00 1.55251E+00 0.00000E+00
 -1        55 1.13757E+00 1.65793E+00 0.00000E+00
 -1        56 3.12505E-15 1.87474E+00 0.00000E+00
 -1        57 4.09065E-01 2.14379E+00 0.00000E+00
 -1        58 1.20616E+00 1.96039E+00 0.00000E+00
 -1        59 8.64885E-01 2.35682E+00 0.00000E+00
 -1        60 4.60105E-01 2.40197E+00 0.00000E+00
 -1        61 1.67935E+00 2.04990E+00 0.00000E+00
 -1        62 1.29628E+00 2.18769E+00 0.00000E+00
 -1        63 1.36630E+00 2.49518E+00 0.00000E+00
 -1        64 5.20963E-15 2.45824E+00 0.00000E+00
 -1        65 4.64886E-01 2.72172E+00 0.00000E+00
 -1        66 1.33727E+00 7.43589E-01 0.00000E+00
 -1        67 1.38005E+00 8.61571E-01 0.00000E+00
 -1        68 1.65181E+00 5.63807E-01 0.00000E+00
 -1        69 1.70995E+00 6.60002E-01 0.00000E+00
 -1        70 1.56505E+00 7.66135E-01 0.00000E+00
 -1        71 1.81067E+00 7.39461E-01 0.00000E+00
 -1        72 1.86930E+00 5.26564E-01 0.00000E+00
 -1        73 1.46102E+00 9.68502E-01 0.00000E+00
 -1        74 1.50313E+00 1.08571E+00 0.00000E+00
 -1        75 1.58563E+00 1.19474E+00 0.00000E+00
 -1        76 1.70922E+00 9.68389E-01 0.00000E+00
 -1        77 1.86857E+00 8.34950E-01 0.00000E+00
 -1        78 1.97094E+00 9.16288E-01 0.00000E+00
 -1        79 2.04264E+00 6.74345E-01 0.00000E+00
 -1        80 1.72101E+00 1.39083E+00 0.00000E+00
 -1        81 1.83637E+00 1.64990E+00 0.00000E+00
 -1        82 1.92709E+00 1.27351E+00 0.00000E+00
 -1        83 2.13092E+00 1.05863E+00 0.00000E+00
 -1        84 2.29374E+00 1.27195E+00 0.00000E+00
 -1        85 2.30499E+00 8.98022E-01 0.00000E+00
 -1        86 1.97032E+00 1.84344E+00 0.00000E+00
 -1        87 2.08828E+00 2.10718E+00 0.00000E+00
 -1        88 2.65653E+00 1.19774E+00 0.00000E+00
 -1        89 2.45270E+00 1.41263E+00 0.00000E+00
 -1        90 2.21879E+00 1.68177E+00 0.00000E+00
 -1        91 2.61825E+00 1.62921E+00 0.00000E+00
 -1        92 1.98434E+00 1.24892E-01 0.00000E+00
 -1        93 2.06912E+00 1.61585E-01 0.00000E+00
 -1        94 2.03792E+00 2.85499E-01 0.00000E+00
 -1        95 2.06057E+00 4.64728E-01 0.00000E+00
 -1        96 1.94660E+00 4.23977E-01 0.00000E+00
 -1        97 2.19086E+00 1.62886E-01 0.00000E+00
 -1        98 2.10425E+00 8.57287E-15 0.00000E+00
 -1        99 1.87159E+00 3.52538E-01 0.00000E+00
 -1       100 2.39741E+00 2.01135E-01 0.00000E+00
 -1       101 2.27373E+00 1.99505E-01 0.00000E+00
 -1       102 2.31275E+00 7.01281E-15 0.00000E+00
 -1       103 2.25020E+00 5.77865E-01 0.00000E+00
 -1       104 2.13396E+00 5.35867E-01 0.00000E+00
 -1       105 2.23860E+00 3.61090E-01 0.00000E+00
 -1       106 2.53955E+00 4.75262E-01 0.00000E+00
 -1       107 2.43491E+00 6.50039E-01 0.00000E+00
 -1       108 2.63028E+00 8.05644E-01 0.00000E+00
 -1       109 2.81005E+00 2.78056E-01 0.00000E+00
 -1       110 2.57857E+00 2.75757E-01 0.00000E+00
 -1       111 2.62524E+00 4.67465E-15 0.00000E+00
 -1       112 3.04174E+00 1.55826E-15 0.00000E+00
 -1       113 2.99507E+00 2.75757E-01 0.00000E+00
 -1       114 2.94079E+00 6.28147E-01 0.00000E+00
 -1       115 2.81087E+00 8.76130E-01 0.00000E+00
 -1       116 3.01119E+00 1.03467E+00 0.00000E+00
 -1       117 3.22275E+00 3.55370E-01 0.00000E+00
 -3
    3C                            48                                     1
 -1         1    8    0    1
 -2         4        22         1        36        37        38
 -1         2    8    0    1
 -2        19        20        34       112       113       109
 -1         3    8    0    1
 -2        14        34        35       108       114       115
 -1         4    8    0    1
 -2        21        22         3        39        40        41
 -1         5    8    0    1
 -2         2        21         3        42        41        43
 -1         6    8    0    1
 -2        35        15        14       116        88       115
 -1         7    8    0    1
 -2        21         1        22        44        37        39
 -1         8    8    0    1
 -2        35        34        20       114       113       117
 -1         9    8    0    1
 -2        33        34        13       106       107       103
 -1        10    8    0    1
 -2         6        23         4        45        46        47
 -1        11    8    0    1
 -2         3        22         5        40        48        49
 -1        12    8    0    1
 -2        22         4        23        36        46        50
 -1        13    8    0    1
 -2        23         5        22        51        48        50
 -1        14    8    0    1
 -2        14        13        34        85       107       108
 -1        15    8    0    1
 -2         5        23        24        51        52        53
 -1        16    8    0    1
 -2        19        34        18       109       110       111
 -1        17    8    0    1
 -2        33        18        34       100       110       106
 -1        18    8    0    1
 -2         6         8        23        54        55        45
 -1        19    8    0    1
 -2         7         5        24        56        53        57
 -1        20    8    0    1
 -2         8        24        23        58        52        55
 -1        21    8    0    1
 -2        18        33        17       100       101       102
 -1        22    8    0    1
 -2        33        13        32       103       104       105
 -1        23    8    0    1
 -2         7        24        25        57        59        60
 -1        24    8    0    1
 -2         8        10        24        61        62        58
 -1        25    8    0    1
 -2        25        24        10        59        62        63
 -1        26    8    0    1
 -2         9         7        25        64        60        65
 -1        27    8    0    1
 -2        32        17        33        97       101       105
 -1        28    8    0    1
 -2        12        32        13        95       104        79
 -1        29    8    0    1
 -2        31        16        32        92        93        94
 -1        30    8    0    1
 -2        32        12        31        95        96        94
 -1        31    8    0    1
 -2         4         1        26        38        66        67
 -1        32    8    0    1
 -2        26        11        27        68        69        70
 -1        33    8    0    1
 -2        12        27        11        71        69        72
 -1        34    8    0    1
 -2        27         4        26        73        67        70
 -1        35    8    0    1
 -2         4        27         6        73        74        47
 -1        36    8    0    1
 -2        28         6        27        75        74        76
 -1        37    8    0    1
 -2        27        12        28        71        77        76
 -1        38    8    0    1
 -2        13        28        12        78        77        79
 -1        39    8    0    1
 -2         8         6        29        54        80        81
 -1        40    8    0    1
 -2        29         6        28        80        75        82
 -1        41    8    0    1
 -2        29        28        14        82        83        84
 -1        42    8    0    1
 -2        14        28        13        83        78        85
 -1        43    8    0    1
 -2        10         8        30        61        86        87
 -1        44    8    0    1
 -2        29        14        15        84        88        89
 -1        45    8    0    1
 -2        30         8        29        86        81        90
 -1        46    8    0    1
 -2        30        29        15        90        89        91
 -1        47    8    0    1
 -2        17        32        16        97        93        98
 -1        48    8    0    1
 -2        11        31        12        99        96        72
 -3
    1PSTEP                         1           1           1          
  100CL  101 1.000000000         117                     0    1           1
 -4  DISP        4    1
 -5  D1          1    2    1    0
 -5  D2          1    2    2    0
 -5  D3          1    2    3    0
 -5  ALL         1    2    0    0    1ALL
 -1         1-4.63998E-05 4.17172E-04 4.10282E-22
 -1         2 0.00000E+00 5.48300E-04-2.24993E-22
 -1         3 0.00000E+00 5.49223E-04-7.78873E-21
 -1         4-1.73310E-08 3.94819E-04 1.93229E-21
 -1         5 0.00000E+00 5.47903E-04-2.11758E-22
 -1         6 3.56053E-05 3.78109E-04 4.23516E-22
 -1         7 0.00000E+00 5.44832E-04-1.58819E-21
 -1         8 1.00012E-04 3.53231E-04-8.99973E-22
 -1         9 0.00000E+00 5.44714E-04-1.90582E-21
 -1        10 1.74495E-04 3.29084E-04-8.99973E-22
 -1        11-8.43177E-05 2.09485E-04-2.01170E-21
 -1        12-5.71991E-05 1.64870E-04 1.48231E-21
 -1        13-3.63152E-05 1.40542E-04 3.70577E-22
 -1        14 8.93765E-06 1.04130E-04 1.90582E-21
 -1        15 6.83836E-05 5.75048E-05 1.05879E-22
 -1        16-1.01048E-04 0.00000E+00-2.11758E-22
 -1        17-1.10868E-04 0.00000E+00 9.52912E-22
 -1        18-1.07162E-04 0.00000E+00-1.05879E-22
 -1        19-9.16109E-05 0.00000E+00-1.05879E-22
 -1        20-7.28948E-05 0.00000E+00-2.77933E-22
 -1        21-2.12827E-05 5.15415E-04 1.19776E-21
 -1        22 7.62120E-06 5.09735E-04 2.34258E-21
 -1        23 3.07596E-05 5.03576E-04 4.60574E-21
 -1        24 7.21469E-05 4.93239E-04-1.05879E-21
 -1        25 1.17881E-04 4.85641E-04 2.54110E-21
 -1        26-6.49740E-05 3.25729E-04 5.02926E-22
 -1        27-2.05771E-05 2.86997E-04-1.05879E-22
 -1        28 1.20062E-05 2.61043E-04 3.17637E-22
 -1        29 7.34982E-05 2.22838E-04-2.48816E-21
 -1        30 1.49567E-04 1.81151E-04 5.29396E-22
 -1        31-9.56962E-05 1.10108E-04 1.27055E-21
 -1        32-9.25060E-05 7.36267E-05 1.05879E-22
 -1        33-8.42460E-05 5.71453E-05-1.27055E-21
 -1        34-6.01152E-05 3.21256E-05-3.17637E-22
 -1        35-2.82661E-05-1.74683E-06-1.85288E-22
 -1        36 6.50678E-06 4.59504E-04 3.78412E-19
 -1        37-1.29284E-05 4.70284E-04 4.01547E-19
 -1        38-2.13949E-05 4.05371E-04 1.22079E-19
 -1        39-5.89720E-06 5.12768E-04 4.03664E-20
 -1        40 4.74110E-06 5.38941E-04 5.89217E-20
 -1        41-2.79306E-06 5.40838E-04 2.75484E-20
 -1        42-1.02955E-05 5.39934E-04 1.47648E-19
 -1        43 0.00000E+00 5.49292E-04 1.05032E-19
 -1        44-3.30463E-05 4.72815E-04 3.23884E-19
 -1        45 3.82352E-05 4.47905E-04 4.37493E-19
 -1        46 2.14241E-05 4.57822E-04 3.91382E-19
 -1        47 1.86169E-05 3.85820E-04 7.34801E-20
 -1        48 1.01143E-05 5.38744E-04 1.77771E-19
 -1        49 0.00000E+00 5.48710E-04 1.16414E-19
 -1        50 1.97061E-05 5.06560E-04 1.68877E-20
 -1        51 1.72431E-05 5.36092E-04 6.64921E-20
 -1        52 5.15038E-05 4.97928E-04 1.79359E-19
 -1        53 2.91203E-05 5.32018E-04 1.80630E-19
 -1        54 6.75616E-05 3.64924E-04 6.92449E-20
 -1        55 6.35859E-05 4.36197E-04 4.69680E-19
 -1        56 0.00000E+00 5.45945E-04 2.81427E-19
 -1        57 3.90823E-05 5.31643E-04 1.48443E-19
 -1        58 9.43060E-05 4.31329E-04 3.80953E-19
 -1        59 9.37878E-05 4.89413E-04 6.09864E-20
 -1        60 5.21214E-05 5.28963E-04 1.47384E-19
 -1        61 1.35117E-04 3.41845E-04-2.67874E-19
 -1        62 1.21387E-04 4.21370E-04 2.54110E-20
 -1        63 1.57036E-04 4.16455E-04-6.39510E-20
 -1        64 0.00000E+00 5.44532E-04 2.85238E-19
 -1        65 6.28405E-05 5.29954E-04 6.13040E-19
 -1        66-5.53894E-05 3.73165E-04 1.21973E-19
 -1        67-2.97265E-05 3.61917E-04 1.39549E-19
 -1        68-7.44625E-05 2.68087E-04 2.79521E-20
 -1        69-5.35774E-05 2.51279E-04 8.08916E-20
 -1        70-4.06034E-05 3.04348E-04 6.01393E-20
 -1        71-3.77000E-05 2.24242E-04 6.54333E-20
 -1        72-6.93331E-05 1.83388E-04-1.69407E-21
 -1        73-8.75673E-06 3.42171E-04-1.22820E-20
 -1        74 9.90412E-06 3.35689E-04 7.87741E-20
 -1        75 2.67542E-05 3.19829E-04 9.29619E-20
 -1        76-3.59288E-06 2.72810E-04 4.75397E-20
 -1        77-2.25508E-05 2.16355E-04 2.77403E-20
 -1        78-1.02661E-05 1.97299E-04 1.43996E-20
 -1        79-4.66625E-05 1.51310E-04 3.30343E-20
 -1        80 5.48889E-05 2.98863E-04-8.95737E-20
 -1        81 9.20523E-05 2.88062E-04-1.56913E-19
 -1        82 4.19016E-05 2.41159E-04-1.21337E-19
 -1        83 1.05288E-05 1.74593E-04 1.44843E-19
 -1        84 4.44260E-05 1.58853E-04 5.46336E-20
 -1        85-1.48436E-05 1.22215E-04-4.12929E-20
 -1        86 1.23979E-04 2.68896E-04-2.36322E-19
 -1        87 1.69752E-04 2.54730E-04-3.07049E-20
 -1        88 3.64667E-05 8.31803E-05-4.61633E-20
 -1        89 7.01873E-05 1.36267E-04-1.63054E-20
 -1        90 1.08957E-04 2.03604E-04-1.89735E-19
 -1        91 1.13899E-04 1.13056E-04-8.75620E-20
 -1        92-9.93517E-05 5.45023E-05-1.73642E-20
 -1        93-1.03460E-04 4.92267E-05-3.43048E-20
 -1        94-9.51898E-05 8.76504E-05 2.96462E-21
 -1        95-7.57781E-05 1.15917E-04 2.66815E-20
 -1        96-8.09964E-05 1.42405E-04-1.24937E-20
 -1        97-1.05485E-04 3.44274E-05-2.32934E-20
 -1        98-1.08499E-04 0.00000E+00-8.89385E-21
 -1        99-9.00096E-05 1.59490E-04-6.31040E-20
 -1       100-1.00685E-04 2.57446E-05-1.50348E-20
 -1       101-1.02892E-04 3.39544E-05-2.32934E-21
 -1       102-1.09686E-04 0.00000E+00-2.07523E-20
 -1       103-6.18916E-05 9.42934E-05 4.08693E-20
 -1       104-6.69510E-05 1.10405E-04 1.90582E-20
 -1       105-8.88955E-05 6.44322E-05-1.60936E-20
 -1       106-7.34024E-05 4.45631E-05-5.08220E-21
 -1       107-5.18240E-05 7.45024E-05 7.87741E-20
 -1       108-2.77663E-05 6.16449E-05-8.91502E-20
 -1       109-8.33975E-05 1.29425E-05-5.54807E-20
 -1       110-9.12141E-05 2.36960E-05-5.82335E-20
 -1       111-9.98729E-05 0.00000E+00-6.60686E-20
 -1       112-8.27139E-05 0.00000E+00-6.45863E-21
 -1       113-7.62667E-05 4.79511E-06-9.11619E-20
 -1       114-4.52681E-05 1.69548E-05-1.31290E-20
 -1       115-1.37929E-05 4.16441E-05-8.65032E-20
 -1       116 1.75114E-05 1.85285E-05-8.75620E-20
 -1       117-6.09558E-05-5.76542E-06-1.35208E-19
 -3
    1PSTEP                         2           1           1          
  100CL  101 1.000000000         117                     0    1           1
 -4  STRESS      6    1
 -5  SXX         1    4    1    1
 -5  SYY         1    4    2    2
 -5  SZZ         1    4    3    3
 -5  SXY         1    4    1    2
 -5  SYZ         1    4    2    3
 -5  SZX         1    4    3    1
 -1         1 4.41238E+06 6.56704E+05-4.67515E+04-1.86675E+06-4.59404E-08-7.78964E-08
 -1         2-7.42177E+06 8.83063E+04-8.84378E+04-1.73871E+05 2.36396E-07 9.71422E-08
 -1         3 3.24814E+06 2.84717E+05 1.16725E+04-3.37006E+05-7.80783E-08 1.82717E-09
 -1         4 7.12329E+06 6.18821E+06-6.85025E+03-7.33285E+06-3.19524E-08-9.18917E-08
 -1         5 1.12724E+07 1.42558E+06 2.21480E+04-1.63614E+05 5.45988E-08 4.39832E-09
 -1         6 8.96049E+06 1.08148E+07-4.01113E+03-9.36642E+06 6.79174E-08-8.74261E-08
 -1         7 2.26121E+07 5.97920E+06-1.29658E+04-1.55775E+05-8.44993E-08 1.99400E-08
 -1         8 1.43931E+07 1.39558E+07 4.10097E+03-8.47934E+06-7.99955E-08-1.26483E-07
 -1         9 3.25175E+07 9.99687E+06 1.88306E+04 1.39001E+05-3.37473E-07 1.99174E-07
 -1        10 2.17106E+07 1.40741E+07-6.71528E+03-7.01313E+06 8.05485E-08 3.94824E-08
 -1        11 2.17513E+07 2.24693E+07 1.75004E+05-2.14489E+07-1.60217E-08-1.27256E-08
 -1        12 9.32834E+06 2.94757E+07-1.09978E+05-1.15184E+07 1.02664E-08 7.05768E-10
 -1        13 6.18793E+06 2.89823E+07 4.61960E+02-5.20415E+06 1.51958E-07 2.48201E-09
 -1        14 6.66165E+06 2.02556E+07 1.97101E+04-7.40760E+05-3.63798E-12-4.39068E-08
 -1        15 9.55570E+06 1.11010E+07-2.34105E+04 2.35165E+05-2.45018E-08 5.64760E-08
 -1        16 4.16744E+06 8.84285E+07 3.16453E+05-6.75732E+06-7.65631E-08-2.25846E-08
 -1        17 1.54807E+07 4.75076E+07 4.20767E+04 1.88895E+04-3.86999E-08 4.96366E-08
 -1        18 1.58982E+07 2.95202E+07-2.94570E+04 3.34068E+05-1.27443E-09-1.95869E-08
 -1        19 1.21733E+07 1.17855E+07 7.41291E+03 1.99697E+05-3.68454E-08 5.34274E-08
 -1        20 1.06465E+07-1.66763E+06-3.54856E+04 6.05586E+04-2.98132E-08 9.10950E-09
 -1        21-4.71210E+06-1.88228E+05-7.10027E+04 3.96873E+05 5.11209E-08 3.85626E-10
 -1        22 4.15960E+06 1.33868E+06-2.97470E+03-3.02694E+06-2.91329E-08 9.57352E-08
 -1        23 1.07967E+07 3.55358E+06 9.42350E+03-5.05044E+06 5.71163E-10 1.23393E-07
 -1        24 2.05773E+07 8.13330E+06 9.00151E+03-5.75845E+06-1.02049E-07 5.97174E-09
 -1        25 2.95127E+07 1.11124E+07 1.30691E+04-5.14220E+06 1.49021E-07-8.68392E-08
 -1        26 1.41038E+07 5.01868E+06-3.84975E+04-8.53288E+06 2.08129E-08 1.94996E-08
 -1        27 8.85878E+06 1.45726E+07-1.10694E+04-1.08761E+07-1.34232E-08 9.93896E-09
 -1        28 6.59750E+06 1.95257E+07-1.02998E+04-9.84916E+06-8.08691E-08-1.78552E-08
 -1        29 8.90377E+06 1.88817E+07 2.19291E+04-6.32508E+06 2.61928E-08 8.95329E-09
 -1        30 1.44500E+07 1.46984E+07-1.35224E+04-4.50822E+06-7.69396E-08 3.40145E-08
 -1        31 1.57143E+07 5.76836E+07 4.38192E+05-2.77078E+07 1.76369E-08 2.28756E-08
 -1        32 1.20123E+07 4.17178E+07-1.74613E+05-6.41367E+06 1.51340E-09-2.88128E-08
 -1        33 1.10495E+07 3.14334E+07-2.35073E+04-2.12698E+05 1.73677E-08 8.00355E-10
 -1        34 1.01202E+07 1.53722E+07-9.71950E+03 3.03434E+06-1.57106E-08-2.98714E-08
 -1        35 9.27560E+06 3.10955E+06-2.84195E+04 2.97792E+06-6.67924E-08 2.40143E-08
 -1        36 5.88495E+06 3.51303E+06 1.29001E+04-5.15658E+06-1.87720E-08-8.14907E-10
 -1        37 3.77272E+06 8.33927E+05-3.26784E+04-2.37966E+06-1.02169E-07 1.62690E-08
 -1        38 5.91200E+06 3.66768E+06 7.69573E+02-4.74994E+06-9.31541E-08-4.95638E-08
 -1        39-1.01082E+05 7.85128E+05 1.73440E+04-1.30987E+06 1.64437E-08 9.70322E-08
 -1        40 3.71260E+06 6.83598E+05-1.31483E+04-1.65671E+06 2.81289E-08 8.18545E-09
 -1        41-9.19989E+05-1.25771E+05-1.50406E+04 1.18579E+04-3.75585E-08-5.00659E-08
 -1        42-6.42757E+06-1.14736E+05-1.00257E+05 5.60906E+04 6.08270E-08-1.66947E-08
 -1        43-1.93779E+06 1.99298E+05 2.48793E+04-2.20285E+05-2.58005E-08 2.23440E-08
 -1        44-1.34964E+05 2.21355E+05-6.23012E+04-5.59662E+05-8.99308E-08-2.74085E-08
 -1        45 9.89243E+06 6.59453E+06-3.27062E+04-7.02677E+06-7.71979E-08 1.90412E-08
 -1        46 8.65636E+06 4.33662E+06-2.27108E+04-5.94617E+06 6.46542E-08 1.56724E-08
 -1        47 7.81736E+06 8.80023E+06-7.52183E+03-8.17004E+06 1.15033E-08-8.30041E-08
 -1        48 7.60722E+06 1.23138E+06-1.43112E+04-1.53765E+06 1.92522E-08-8.51833E-09
 -1        49 7.27753E+06 1.37435E+06 2.55449E+04-2.52473E+05-1.55705E-09 2.80379E-08
 -1        50 7.37724E+06 2.94610E+06 2.08245E+04-3.99757E+06 7.07223E-09 7.13553E-08
 -1        51 1.08456E+07 2.36832E+06-9.62137E+03-2.39736E+06 8.02247E-08-7.95990E-09
 -1        52 1.61302E+07 6.29797E+06 5.07363E+04-5.56290E+06-1.95578E-08 7.36982E-08
 -1        53 1.61454E+07 4.61691E+06 1.66623E+04-2.92760E+06 5.12809E-08-1.73159E-08
 -1        54 1.19352E+07 1.28855E+07 5.01518E+04-9.11418E+06 9.46420E-08-1.53967E-07
 -1        55 1.30096E+07 8.70322E+06 2.74919E+04-7.13706E+06-4.30082E-08 1.77242E-08
 -1        56 1.75091E+07 4.11622E+06 5.08607E+04-1.87977E+05-6.28934E-08 7.44603E-09
 -1        57 2.16576E+07 6.85106E+06 5.10221E+03-2.84655E+06-1.22251E-07-7.82711E-09
 -1        58 1.74038E+07 1.07977E+07-6.85381E+03-7.19275E+06-1.64728E-07-3.06682E-08
 -1        59 2.50457E+07 9.91409E+06 1.50925E+04-5.34870E+06 3.54703E-08-3.33876E-08
 -1        60 2.59464E+07 8.42059E+06-3.37710E+04-2.75144E+06 1.31098E-07-4.81277E-08
 -1        61 1.80302E+07 1.40784E+07-1.61948E+04-7.56190E+06-1.65819E-08-2.27774E-08
 -1        62 2.09240E+07 1.11155E+07-5.14498E+04-6.53133E+06-3.12575E-08-1.50158E-09
 -1        63 2.56824E+07 1.26945E+07 5.25277E+04-6.18147E+06 3.91592E-08-2.76218E-08
 -1        64 2.74959E+07 8.15003E+06-3.15175E+03-1.86530E+04-6.73172E-08 7.89723E-08
 -1        65 3.10610E+07 1.03725E+07 2.38431E+04-2.65155E+06-8.95379E-08 3.24030E-09
 -1        66 9.71533E+06 2.96702E+06 8.56352E+03-5.02982E+06 8.78536E-08 4.37867E-08
 -1        67 9.94863E+06 5.42023E+06-8.71654E+04-7.79894E+06-8.52633E-08-2.67755E-08
 -1        68 1.96504E+07 1.29435E+07 2.39198E+05-1.50300E+07-2.42435E-08 6.92380E-08
 -1        69 1.40741E+07 1.69995E+07-2.26160E+05-1.53833E+07-1.21945E-08-1.62690E-08
 -1        70 1.11911E+07 1.00050E+07-5.86371E+04-9.66101E+06 3.18178E-08-1.58907E-08
 -1        71 1.02205E+07 2.26572E+07 1.75132E+05-1.18626E+07-9.11532E-08-1.89175E-10
 -1        72 1.43601E+07 2.63452E+07-1.67479E+05-1.60040E+07 1.87720E-08-1.82481E-08
 -1        73 8.55324E+06 1.06831E+07 8.10206E+04-9.33187E+06 3.71692E-08-1.33441E-08
 -1        74 8.77342E+06 1.20948E+07-3.64594E+04-9.99194E+06 3.04281E-08 1.97178E-09
 -1        75 8.04026E+06 1.47644E+07-1.41090E+04-9.62800E+06-1.09867E-09-3.88245E-08
 -1        76 7.54797E+06 1.72121E+07 2.63454E+04-1.01909E+07-3.70637E-08 2.74740E-08
 -1        77 7.89925E+06 2.35600E+07-5.14121E+04-1.07876E+07 1.88302E-08-3.80423E-08
 -1        78 6.60038E+06 2.42219E+07-1.59478E+04-7.97061E+06 1.78552E-08 1.33150E-09
 -1        79 7.33521E+06 2.95097E+07-1.02697E+04-8.33777E+06 1.36672E-07 4.63479E-09
 -1        80 9.04894E+06 1.52300E+07 3.01791E+04-8.27816E+06 1.47738E-07 4.66498E-08
 -1        81 1.15273E+07 1.63609E+07 1.41519E+04-7.42018E+06-6.12818E-08-1.12132E-08
 -1        82 7.76817E+06 1.96742E+07 5.02340E+04-8.15223E+06-1.22091E-08 2.74849E-08
 -1        83 6.37643E+06 2.08301E+07-2.14507E+04-5.51343E+06-4.27935E-08-4.18117E-08
 -1        84 7.62809E+06 1.98004E+07 1.71315E+04-3.54003E+06 7.11007E-08-4.80541E-08
 -1        85 6.19208E+06 2.46237E+07 7.02401E+03-2.89093E+06 1.05800E-07-1.63200E-08
 -1        86 1.42431E+07 1.43914E+07-4.46581E+04-6.39830E+06-9.41363E-08-2.00439E-08
 -1        87 1.81812E+07 1.46189E+07 8.82348E+04-5.71197E+06 4.08581E-08 1.55002E-07
 -1        88 8.04050E+06 1.52825E+07-1.83800E+04-3.53223E+05 2.31166E-08 2.16096E-08
 -1        89 9.29894E+06 1.50981E+07-3.31045E+04-2.92023E+06-2.18097E-09-5.53518E-08
 -1        90 1.16660E+07 1.65637E+07-2.37180E+04-5.31311E+06-8.98399E-08-5.05725E-08
 -1        91 1.21275E+07 1.32660E+07 4.89448E+04-2.09386E+06-6.84631E-08 4.37431E-08
 -1        92 1.06409E+07 8.09146E+07 1.67112E+06-2.03443E+07 2.50293E-08-5.13392E-08
 -1        93 7.95064E+06 6.27662E+07-5.09171E+05-6.78267E+06-9.34233E-08-3.22470E-08
 -1        94 1.26578E+07 4.92575E+07-2.64476E+05-1.54359E+07 5.10481E-08-8.23638E-09
 -1        95 1.20490E+07 3.76518E+07 4.18158E+05-9.53650E+06-3.70783E-08 1.79862E-08
 -1        96 1.13511E+07 3.99621E+07-5.75344E+05-1.88004E+07-7.07223E-08 4.48053E-08
 -1        97 1.43274E+07 4.56719E+07 1.23434E+05-4.26924E+06-1.81026E-08 1.04483E-08
 -1        98 1.00347E+07 6.49537E+07-1.33621E+05-7.88823E+05 1.38098E-08 6.46105E-09
 -1        99 2.23861E+07 4.07885E+07 9.71282E+05-2.70299E+07-1.45170E-07 3.49537E-08
 -1       100 1.38826E+07 3.08319E+07 3.46672E+04-2.49512E+05 3.95230E-08-1.52504E-08
 -1       101 1.38095E+07 3.91686E+07 2.90560E+04-2.35548E+05-1.19908E-08 3.34985E-08
 -1       102 1.50623E+07 3.77261E+07-1.51125E+05 4.06541E+05-1.42936E-08 5.18048E-09
 -1       103 8.68333E+06 3.08130E+07-4.00305E+03-2.70073E+06-1.39989E-08 3.07264E-08
 -1       104 8.64848E+06 3.50277E+07-3.20913E+04-5.86118E+06 3.92320E-08-8.57108E-09
 -1       105 1.08676E+07 3.69888E+07-4.40438E+04-2.85903E+06 4.00178E-08-6.62112E-09
 -1       106 9.91358E+06 2.28748E+07-8.20110E+04 1.71405E+06-2.54804E-08-1.66910E-08
 -1       107 8.19320E+06 2.31051E+07-1.34992E+04-5.73328E+05 2.37123E-08-3.26108E-08
 -1       108 8.39965E+06 1.83542E+07 4.39613E+04 1.39117E+06-3.97631E-08-2.59897E-08
 -1       109 1.16918E+07 1.36073E+07 2.97139E+04 1.44258E+06 9.94260E-09 1.47702E-08
 -1       110 1.31036E+07 2.20126E+07 2.14614E+04 1.73211E+06 7.60701E-09-1.21945E-08
 -1       111 1.39164E+07 2.02164E+07-1.47734E+04 3.85963E+05-1.59780E-08-1.13505E-08
 -1       112 1.09397E+07 5.07737E+06-4.41079E+04 1.75950E+05-5.26488E-08 5.73345E-08
 -1       113 1.07321E+07 6.90545E+06 1.65374E+04 1.28807E+06-2.56223E-08-9.13860E-09
 -1       114 9.22708E+06 9.14400E+06-3.25896E+04 2.70778E+06-1.30785E-08 8.03266E-09
 -1       115 8.41029E+06 1.17496E+07 1.13966E+04 1.19646E+06-5.03733E-08 8.94215E-09
 -1       116 9.58749E+06 7.22279E+06 1.47532E+04 1.80686E+06-6.50616E-08 4.73665E-08
 -1       117 1.00508E+07 3.28151E+05-5.24302E+04 1.56536E+06-2.17551E-08-1.22964E-08
 -3
    1PSTEP                         3           1           1          
  100CL  101 1.000000000         117                     0    1           1
 -4  TOSTRAIN    6    1
 -5  EXX         1    4    1    1
 -5  EYY         1    4    2    2
 -5  EZZ         1    4    3    3
 -5  EXY         1    4    1    2
 -5  EYZ         1    4    2    3
 -5  EZX         1    4    3    1
 -1         1 2.01400E-05-3.10945E-06-7.46418E-06-1.15561E-05-2.84352E-19-4.82147E-19
 -1         2-3.53416E-05 1.11494E-05 1.00552E-05-1.07635E-06 1.46325E-18 6.01347E-19
 -1         3 1.50439E-05-3.30107E-06-4.99135E-06-2.08623E-06-4.83285E-19 1.13059E-20
 -1         4 2.50899E-05 1.93013E-05-1.90490E-05-4.53938E-05-1.97862E-19-5.68889E-19
 -1         5 5.16098E-05-9.34656E-06-1.80345E-05-1.01285E-06 3.37966E-19 2.72308E-20
 -1         6 2.72251E-05 3.87040E-05-2.82695E-05-5.79826E-05 4.20393E-19-5.41228E-19
 -1         7 9.91534E-05-3.81207E-06-4.09064E-05-9.64318E-07-5.23069E-19 1.23425E-19
 -1         8 4.85960E-05 4.58888E-05-4.04790E-05-5.24912E-05-4.95197E-19-7.82983E-19
 -1         9 1.40537E-04 1.12364E-06-6.06452E-05 8.60482E-07-2.08921E-18 1.23299E-18
 -1        10 8.32874E-05 3.60138E-05-5.11528E-05-4.34146E-05 4.98631E-19 2.44409E-19
 -1        11 7.12288E-05 7.56732E-05-6.23389E-05-1.32779E-04-9.87852E-20-7.87741E-20
 -1        12 2.46966E-06 1.27191E-04-5.59580E-05-7.13042E-05 6.35804E-20 4.36751E-21
 -1        13-1.19376E-05 1.29170E-04-5.02410E-05-3.22162E-05 9.40709E-19 1.53194E-20
 -1        14 2.75743E-06 8.69104E-05-3.83594E-05-4.58566E-06-1.98523E-23-2.71871E-19
 -1        15 2.96782E-05 3.92444E-05-2.96211E-05 1.45578E-06-1.51705E-19 3.49646E-19
 -1        16-1.06934E-04 4.14683E-04-1.30773E-04-4.18310E-05-4.73862E-19-1.38278E-19
 -1        17 5.78957E-06 2.04051E-04-8.97829E-05 1.16935E-07-2.39611E-19 3.07261E-19
 -1        18 3.35761E-05 1.17903E-04-6.50237E-05 2.06804E-06-7.88386E-21-1.20967E-19
 -1        19 4.11212E-05 3.87204E-05-3.41916E-05 1.23622E-06-2.28064E-19 3.31137E-19
 -1        20 5.31309E-05-2.30998E-05-1.29960E-05 3.74887E-07-1.84574E-19 5.63012E-20
 -1        21-2.20683E-05 5.93668E-06 6.66236E-06 2.45683E-06 3.16367E-19 2.43522E-21
 -1        22 1.78994E-05 4.36634E-07-7.86884E-06-1.87382E-05-1.80471E-19 5.92632E-19
 -1        23 4.63230E-05 1.48444E-06-2.04556E-05-3.12646E-05 3.57342E-21 7.63832E-19
 -1        24 8.63552E-05 9.32102E-06-4.09723E-05-3.56476E-05-6.31701E-19 3.69518E-20
 -1        25 1.24643E-04 1.07367E-05-5.79736E-05-3.18326E-05 9.22498E-19-5.37566E-19
 -1        26 6.00462E-05 3.80525E-06-2.75011E-05-5.28226E-05 1.28828E-19 1.20702E-19
 -1        27 2.13825E-05 5.67536E-05-3.35261E-05-6.73281E-05-8.30754E-20 6.16746E-20
 -1        28 3.53748E-06 8.35693E-05-3.73679E-05-6.09710E-05-5.00593E-19-1.10551E-19
 -1        29 1.53937E-05 7.71619E-05-3.95891E-05-3.91553E-05 1.62151E-19 5.53971E-20
 -1        30 4.78311E-05 4.93689E-05-4.17050E-05-2.79081E-05-4.76258E-19 2.10579E-19
 -1        31-8.20097E-06 2.51609E-04-1.02768E-04-1.71525E-04 1.09267E-19 1.41349E-19
 -1        32-2.14605E-06 1.81745E-04-7.75888E-05-3.97037E-05 9.47618E-21-1.78247E-19
 -1        33 7.74562E-06 1.33931E-04-6.08018E-05-1.31670E-06 1.07361E-19 5.05573E-21
 -1        34 2.62452E-05 5.87574E-05-3.64641E-05 1.87840E-05-9.72897E-20-1.84918E-19
 -1        35 3.97679E-05 1.59713E-06-1.78284E-05 1.84347E-05-4.13531E-19 1.48654E-19
 -1        36 2.29865E-05 8.30324E-06-1.33643E-05-3.19217E-05-1.16255E-19-5.13514E-21
 -1        37 1.68207E-05-1.37184E-06-6.73654E-06-1.47312E-05-6.32628E-19 1.00797E-19
 -1        38 2.29117E-05 9.01834E-06-1.36816E-05-2.94044E-05-5.76671E-19-3.06838E-19
 -1        39-1.62773E-06 3.85833E-06-8.94619E-07-8.10874E-06 1.01750E-19 6.00652E-19
 -1        40 1.67213E-05-2.02970E-06-6.34289E-06-1.02558E-05 1.74171E-19 5.06499E-20
 -1        41-4.17974E-06 7.36848E-07 1.42232E-06 7.34063E-08-2.32616E-19-3.09895E-19
 -1        42-3.03003E-05 8.77910E-06 8.86874E-06 3.47228E-07 3.76189E-19-1.03351E-19
 -1        43-9.54785E-06 3.68178E-06 2.60204E-06-1.36367E-06-1.59666E-19 1.38321E-19
 -1        44-8.69905E-07 1.33588E-06-4.20088E-07-3.46457E-06-5.56712E-19-1.69618E-19
 -1        45 3.77328E-05 1.73172E-05-2.37085E-05-4.34990E-05-4.77991E-19 1.17896E-19
 -1        46 3.50580E-05 8.31677E-06-1.86695E-05-3.68097E-05 4.00329E-19 9.70912E-20
 -1        47 2.46645E-05 3.07489E-05-2.37752E-05-5.05764E-05 7.11508E-20-5.13884E-19
 -1        48 3.44862E-05-4.98331E-06-1.26947E-05-9.51878E-06 1.19220E-19-5.27278E-20
 -1        49 3.26550E-05-3.88845E-06-1.22382E-05-1.56293E-06-9.63500E-21 1.73562E-19
 -1        50 3.08913E-05 3.46036E-06-1.46485E-05-2.47469E-05 4.38340E-20 4.41728E-19
 -1        51 4.82763E-05-4.20228E-06-1.89229E-05-1.48408E-05 4.96573E-19-4.93132E-20
 -1        52 6.77407E-05 6.87479E-06-3.17986E-05-3.44370E-05-1.21073E-19 4.56154E-19
 -1        53 7.02637E-05-1.10342E-06-2.95812E-05-1.81232E-05 3.17479E-19-1.07216E-19
 -1        54 3.83550E-05 4.42376E-05-3.52194E-05-5.64211E-05 5.85882E-19-9.53150E-19
 -1        55 4.94781E-05 2.28195E-05-3.08874E-05-4.41818E-05-2.66286E-19 1.09691E-19
 -1        56 7.74239E-05-5.48470E-06-3.06512E-05-1.16366E-06-3.89265E-19 4.60905E-20
 -1        57 9.33371E-05 1.67732E-06-4.07024E-05-1.76215E-05-7.56877E-19-4.84662E-20
 -1        58 6.74596E-05 2.65651E-05-4.03205E-05-4.45265E-05-1.01977E-18-1.89828E-19
 -1        59 1.05081E-04 1.14088E-05-4.98707E-05-3.31110E-05 2.19646E-19-2.06669E-19
 -1        60 1.11573E-04 3.08004E-06-4.92565E-05-1.70327E-05 8.11511E-19-2.97937E-19
 -1        61 6.57692E-05 4.13057E-05-4.59465E-05-4.68118E-05-1.02650E-19-1.41005E-19
 -1        62 8.38321E-05 2.31131E-05-4.60156E-05-4.04321E-05-1.93494E-19-9.31074E-21
 -1        63 1.04087E-04 2.36857E-05-5.45739E-05-3.82662E-05 2.42410E-19-1.70991E-19
 -1        64 1.19294E-04-4.65664E-07-5.09377E-05-1.15471E-07-4.16793E-19 4.88874E-19
 -1        65 1.33058E-04 4.98590E-06-5.90771E-05-1.64144E-05-5.54330E-19 2.00624E-20
 -1        66 4.20126E-05 2.37411E-07-1.80769E-05-3.11370E-05 5.43875E-19 2.71262E-19
 -1        67 3.97558E-05 1.17228E-05-2.23706E-05-4.82792E-05-5.27834E-19-1.65807E-19
 -1        68 7.47409E-05 3.32219E-05-4.54236E-05-9.30427E-05-1.49501E-19 4.28599E-19
 -1        69 4.30577E-05 6.11674E-05-4.54679E-05-9.52298E-05-7.50683E-20-1.00373E-19
 -1        70 3.90818E-05 3.17393E-05-3.05593E-05-5.98062E-05 1.97001E-19-9.85735E-20
 -1        71 1.60514E-05 9.30405E-05-4.61341E-05-7.34352E-05-5.64230E-19-9.52912E-22
 -1        72 3.09849E-05 1.05178E-04-5.89479E-05-9.90725E-05 1.16044E-19-1.13079E-19
 -1        73 2.53524E-05 3.85371E-05-2.70946E-05-5.77687E-05 2.30022E-19-8.27975E-20
 -1        74 2.45520E-05 4.51131E-05-2.99854E-05-6.18549E-05 1.88293E-19 1.22290E-20
 -1        75 1.72152E-05 5.88405E-05-3.26452E-05-5.96019E-05-6.84244E-21-2.40293E-19
 -1        76 1.13164E-05 7.11417E-05-3.52460E-05-6.30868E-05-2.29440E-19 1.70042E-19
 -1        77 4.03184E-06 1.00979E-04-4.51866E-05-6.67805E-05 1.16573E-19-2.35475E-19
 -1        78-3.14956E-06 1.05936E-04-4.41078E-05-4.93419E-05 1.10591E-19 8.23210E-21
 -1        79-7.21246E-06 1.30058E-04-5.26845E-05-5.16148E-05 8.46080E-19 2.86403E-20
 -1        80 2.12900E-05 5.95536E-05-3.45405E-05-5.12457E-05 9.14610E-19 2.88759E-19
 -1        81 3.14990E-05 6.14211E-05-3.97728E-05-4.59344E-05-3.79338E-19-6.94104E-20
 -1        82 8.81349E-06 8.25177E-05-3.89642E-05-5.04662E-05-7.55778E-20 1.70121E-19
 -1        83 6.37354E-07 9.01123E-05-3.89686E-05-3.41308E-05-2.64883E-19-2.58851E-19
 -1        84 8.01347E-06 8.33659E-05-3.91020E-05-2.19145E-05 4.40166E-19-2.97520E-19
 -1        85-5.70064E-06 1.08400E-04-4.39891E-05-1.78962E-05 6.54968E-19-1.01035E-19
 -1        86 4.73289E-05 4.82469E-05-4.11190E-05-3.96085E-05-5.82706E-19-1.24084E-19
 -1        87 6.55669E-05 4.35147E-05-4.64372E-05-3.53598E-05 2.52945E-19 9.59530E-19
 -1        88 1.64823E-05 6.13135E-05-3.34060E-05-2.18662E-06 1.43102E-19 1.33831E-19
 -1        89 2.27593E-05 5.86587E-05-3.50105E-05-1.80776E-05-1.35128E-20-3.42678E-19
 -1        90 3.19239E-05 6.22428E-05-4.04411E-05-3.28907E-05-5.56130E-19-3.13058E-19
 -1        91 3.87288E-05 4.57766E-05-3.60434E-05-1.29620E-05-4.23781E-19 2.70865E-19
 -1        92-6.73085E-05 3.67719E-04-1.22836E-04-1.25941E-04 1.55007E-19-3.15943E-19
 -1        93-5.10784E-05 2.88256E-04-1.03449E-04-4.19880E-05-5.78100E-19-1.99476E-19
 -1        94-9.71491E-06 2.16855E-04-8.97099E-05-9.55557E-05 3.15943E-19-5.13514E-20
 -1        95 2.99041E-06 1.61484E-04-6.90098E-05-5.90355E-05-2.29652E-19 1.11702E-19
 -1        96-2.21378E-06 1.74902E-04-7.60443E-05-1.16383E-04-4.37704E-19 2.77192E-19
 -1        97 2.80387E-06 1.96841E-04-8.51256E-05-2.64286E-05-1.11914E-19 6.50098E-20
 -1        98-4.48157E-05 2.95159E-04-1.07763E-04-4.88319E-06 8.56033E-20 4.02341E-20
 -1        99 4.69435E-05 1.60863E-04-8.56243E-05-1.67328E-04-8.98702E-19 2.16205E-19
 -1       100 2.20123E-05 1.26937E-04-6.37128E-05-1.54460E-06 2.44793E-19-9.44442E-20
 -1       101 9.76286E-06 1.66748E-04-7.55447E-05-1.45815E-06-7.44330E-20 2.07100E-19
 -1       102 1.80465E-05 1.58346E-04-7.61316E-05 2.51668E-06-8.84488E-20 3.17637E-20
 -1       103-2.66368E-06 1.34330E-04-5.64424E-05-1.67188E-05-8.67150E-20 1.90371E-19
 -1       104-8.81044E-06 1.54489E-04-6.25473E-05-3.62835E-05 2.42993E-19-5.27278E-20
 -1       105-1.02791E-06 1.60675E-04-6.85760E-05-1.76987E-05 2.47545E-19-4.09752E-20
 -1       106 1.46464E-05 9.48826E-05-4.72311E-05 1.06108E-05-1.57654E-19-1.03232E-19
 -1       107 6.02717E-06 9.83391E-05-4.47762E-05-3.54917E-06 1.46748E-19-2.01911E-19
 -1       108 1.37153E-05 7.53384E-05-3.80104E-05 8.61203E-06-2.46195E-19-1.60936E-19
 -1       109 3.61939E-05 4.80515E-05-3.60000E-05 8.93025E-06 6.15952E-20 9.16913E-20
 -1       110 3.09208E-05 8.60717E-05-5.00638E-05 1.07226E-05 4.70897E-20-7.51742E-20
 -1       111 3.74090E-05 7.64090E-05-4.88314E-05 2.38929E-06-9.89043E-20-6.99861E-20
 -1       112 4.49034E-05 8.61283E-06-2.30916E-05 1.08922E-06-3.25922E-19 3.55330E-19
 -1       113 4.12166E-05 1.75279E-05-2.51177E-05 7.97377E-06-1.58620E-19-5.67512E-20
 -1       114 3.09222E-05 3.04079E-05-2.63996E-05 1.67624E-05-8.10306E-20 4.95514E-20
 -1       115 2.32475E-05 4.39197E-05-2.87456E-05 7.40667E-06-3.11880E-19 5.52689E-20
 -1       116 3.53154E-05 2.06767E-05-2.39444E-05 1.11853E-05-4.02764E-19 2.93232E-19
 -1       117 4.74670E-05-1.27207E-05-1.50767E-05 9.69032E-06-1.34698E-19-7.62330E-20
 -3
    1PSTEP                         4           1           1          
  100CL  101 1.000000000         117                     0    1           1
 -4  ERROR       1    1
 -5  STR(%)      1    1    0    0
 -1         1 3.97955E+01
 -1         2 4.64855E+01
 -1         3 4.64855E+01
 -1         4 2.06062E+01
 -1         5 2.04090E+01
 -1         6 1.23932E+01
 -1         7 1.22171E+01
 -1         8 1.23932E+01
 -1         9 7.59747E+00
 -1        10 6.47891E+00
 -1        11 1.72573E+01
 -1        12 1.72573E+01
 -1        13 1.33166E+01
 -1        14 1.68358E+01
 -1        15 1.39476E+01
 -1        16 1.79014E+01
 -1        17 1.23443E+01
 -1        18 1.63833E+01
 -1        19 1.63833E+01
 -1        20 1.03766E+01
 -1        21 4.64855E+01
 -1        22 4.60307E+01
 -1        23 1.57045E+01
 -1        24 1.57045E+01
 -1        25 7.59747E+00
 -1        26 1.78371E+01
 -1        27 1.49834E+01
 -1        28 8.78656E+00
 -1        29 1.32353E+01
 -1        30 1.17441E+01
 -1        31 1.79014E+01
 -1        32 1.79014E+01
 -1        33 1.36484E+01
 -1        34 1.68358E+01
 -1        35 1.68358E+01
 -1        36 3.33185E+01
 -1        37 4.29131E+01
 -1        38 3.02009E+01
 -1        39 4.62581E+01
 -1        40 4.62581E+01
 -1        41 4.64855E+01
 -1        42 4.64855E+01
 -1        43 4.64855E+01
 -1        44 4.31405E+01
 -1        45 1.40489E+01
 -1        46 1.81554E+01
 -1        47 1.64997E+01
 -1        48 3.32199E+01
 -1        49 3.34472E+01
 -1        50 3.08676E+01
 -1        51 1.80568E+01
 -1        52 1.57045E+01
 -1        53 1.80568E+01
 -1        54 1.23932E+01
 -1        55 1.40489E+01
 -1        56 1.63131E+01
 -1        57 1.39608E+01
 -1        58 1.40489E+01
 -1        59 1.16510E+01
 -1        60 9.90728E+00
 -1        61 9.43605E+00
 -1        62 1.10917E+01
 -1        63 7.03819E+00
 -1        64 9.90728E+00
 -1        65 7.59747E+00
 -1        66 2.88163E+01
 -1        67 1.92217E+01
 -1        68 1.75472E+01
 -1        69 1.61204E+01
 -1        70 1.64103E+01
 -1        71 1.61204E+01
 -1        72 1.72573E+01
 -1        73 1.77948E+01
 -1        74 1.36883E+01
 -1        75 1.05899E+01
 -1        76 1.18850E+01
 -1        77 1.30219E+01
 -1        78 1.10516E+01
 -1        79 1.52870E+01
 -1        80 1.28143E+01
 -1        81 1.28143E+01
 -1        82 1.10109E+01
 -1        83 1.28112E+01
 -1        84 1.50356E+01
 -1        85 1.50762E+01
 -1        86 1.20686E+01
 -1        87 9.11148E+00
 -1        88 1.53917E+01
 -1        89 1.35914E+01
 -1        90 1.24897E+01
 -1        91 1.28458E+01
 -1        92 1.79014E+01
 -1        93 1.79014E+01
 -1        94 1.79014E+01
 -1        95 1.75794E+01
 -1        96 1.75794E+01
 -1        97 1.51228E+01
 -1        98 1.51228E+01
 -1        99 1.75794E+01
 -1       100 1.50158E+01
 -1       101 1.29963E+01
 -1       102 1.43638E+01
 -1       103 1.34825E+01
 -1       104 1.56090E+01
 -1       105 1.57749E+01
 -1       106 1.52421E+01
 -1       107 1.50762E+01
 -1       108 1.68358E+01
 -1       109 1.66095E+01
 -1       110 1.66095E+01
 -1       111 1.63833E+01
 -1       112 1.33799E+01
 -1       113 1.36062E+01
 -1       114 1.68358E+01
 -1       115 1.68358E+01
 -1       116 1.53917E+01
 -1       117 1.36062E+01
 -3
 9999
