    1C
    1UUSER                                                              
    1UDATE              26.march.2021                                   
    1UTIME              22:13:22                                        
    1UHOST                                                              
    1UPGM               CalculiX                                        
    1UVERSION           Version 2.17                             
    1UCOMPILETIME       Thu Jul 23 21:43:50 CEST 2020                    
    1UDIR                                                               
    1UDBN                                                               
    1UMAT    1MAT                                                       
    2C                           122                                     1
 -1        62 9.98098E+00-1.87295E-03-1.87295E-03
 -1        64 1.00206E+01 2.02903E-03 2.02903E-03
 -1        65 7.05753E+00-1.47569E-03 7.05753E+00
 -1        67 7.08573E+00 1.59867E-03 7.08573E+00
 -1        68 5.76242E+00 5.76242E+00 5.76242E+00
 -1        70 5.78551E+00 5.78551E+00 5.78551E+00
 -1        71 7.05753E+00 7.05753E+00-1.47569E-03
 -1        73 7.08573E+00 7.08573E+00 1.59867E-03
 -1        74-1.87295E-03-1.87295E-03 9.98098E+00
 -1        76 2.02903E-03 2.02903E-03 1.00206E+01
 -1        77-1.47569E-03 7.05753E+00 7.05753E+00
 -1        79 1.59867E-03 7.08573E+00 7.08573E+00
 -1        80-1.87295E-03 9.98098E+00-1.87295E-03
 -1        82 2.02903E-03 1.00206E+01 2.02903E-03
 -1        83 9.78911E+00-1.89239E-03 1.94718E+00
 -1        85 9.82815E+00 2.05008E-03 1.95494E+00
 -1        86 9.22114E+00-1.82816E-03 3.81952E+00
 -1        88 9.25793E+00 1.98051E-03 3.83476E+00
 -1        89 8.29879E+00-1.68840E-03 5.54508E+00
 -1        91 8.33192E+00 1.82910E-03 5.56721E+00
 -1        92 6.97410E+00 1.52969E+00 6.97412E+00
 -1        94 7.00207E+00 1.53582E+00 7.00205E+00
 -1        95 6.72592E+00 3.02324E+00 6.72595E+00
 -1        97 6.75290E+00 3.03536E+00 6.75288E+00
 -1        98 6.31882E+00 4.44534E+00 6.31884E+00
 -1       100 6.34416E+00 4.46317E+00 6.34414E+00
 -1       101 6.31883E+00 6.31883E+00 4.44534E+00
 -1       103 6.34415E+00 6.34415E+00 4.46317E+00
 -1       104 6.72594E+00 6.72594E+00 3.02324E+00
 -1       106 6.75289E+00 6.75289E+00 3.03536E+00
 -1       107 6.97411E+00 6.97411E+00 1.52969E+00
 -1       109 7.00206E+00 7.00206E+00 1.53582E+00
 -1       110 9.78911E+00 1.94717E+00-1.85502E-03
 -1       112 9.82816E+00 1.95494E+00 2.00960E-03
 -1       113 9.22113E+00 3.81952E+00-1.77495E-03
 -1       115 9.25793E+00 3.83476E+00 1.92286E-03
 -1       116 8.29879E+00 5.54507E+00-1.64527E-03
 -1       118 8.33193E+00 5.56722E+00 1.78237E-03
 -1       119 5.54507E+00-1.64326E-03 8.29879E+00
 -1       121 5.56722E+00 1.78020E-03 8.33193E+00
 -1       122 3.81952E+00-1.76956E-03 9.22113E+00
 -1       124 3.83476E+00 1.91703E-03 9.25793E+00
 -1       125 1.94717E+00-1.84982E-03 9.78911E+00
 -1       127 1.95494E+00 2.00397E-03 9.82816E+00
 -1       128-1.64326E-03 5.54507E+00 8.29879E+00
 -1       130 1.78020E-03 5.56722E+00 8.33193E+00
 -1       131-1.76956E-03 3.81952E+00 9.22113E+00
 -1       133 1.91703E-03 3.83476E+00 9.25793E+00
 -1       134-1.84982E-03 1.94717E+00 9.78911E+00
 -1       136 2.00397E-03 1.95494E+00 9.82816E+00
 -1       137 1.52969E+00 6.97410E+00 6.97412E+00
 -1       139 1.53582E+00 7.00207E+00 7.00205E+00
 -1       140 3.02324E+00 6.72592E+00 6.72595E+00
 -1       142 3.03536E+00 6.75290E+00 6.75288E+00
 -1       143 4.44534E+00 6.31882E+00 6.31884E+00
 -1       145 4.46317E+00 6.34416E+00 6.34414E+00
 -1       146-1.89239E-03 9.78911E+00 1.94718E+00
 -1       148 2.05008E-03 9.82815E+00 1.95494E+00
 -1       149-1.82816E-03 9.22114E+00 3.81952E+00
 -1       151 1.98051E-03 9.25793E+00 3.83476E+00
 -1       152-1.68840E-03 8.29879E+00 5.54508E+00
 -1       154 1.82910E-03 8.33192E+00 5.56721E+00
 -1       155 5.54507E+00 8.29879E+00-1.64527E-03
 -1       157 5.56722E+00 8.33193E+00 1.78237E-03
 -1       158 3.81952E+00 9.22113E+00-1.77495E-03
 -1       160 3.83476E+00 9.25793E+00 1.92286E-03
 -1       161 1.94717E+00 9.78911E+00-1.85502E-03
 -1       163 1.95494E+00 9.82816E+00 2.00960E-03
 -1       164 8.16208E+00 1.74846E+00 5.47171E+00
 -1       166 8.19480E+00 1.75545E+00 5.49364E+00
 -1       167 7.76461E+00 3.42099E+00 5.25586E+00
 -1       169 7.79574E+00 3.43466E+00 5.27693E+00
 -1       170 7.13756E+00 4.95753E+00 4.90861E+00
 -1       172 7.16619E+00 4.97736E+00 4.92829E+00
 -1       173 9.04764E+00 1.89192E+00 3.76527E+00
 -1       175 9.08391E+00 1.89947E+00 3.78036E+00
 -1       176 8.54405E+00 3.68882E+00 3.60669E+00
 -1       178 8.57831E+00 3.70356E+00 3.62114E+00
 -1       179 7.75264E+00 5.31600E+00 3.35456E+00
 -1       181 7.78374E+00 5.33726E+00 3.36801E+00
 -1       182 9.59703E+00 1.95784E+00 1.91840E+00
 -1       184 9.63550E+00 1.96566E+00 1.92609E+00
 -1       185 9.03578E+00 3.82169E+00 1.83460E+00
 -1       187 9.07201E+00 3.83697E+00 1.84196E+00
 -1       188 8.14417E+00 5.51283E+00 1.70222E+00
 -1       190 8.17683E+00 5.53489E+00 1.70904E+00
 -1       191 1.91423E+00 1.91423E+00 9.60665E+00
 -1       193 1.92192E+00 1.92192E+00 9.64515E+00
 -1       194 1.83177E+00 3.77016E+00 9.05797E+00
 -1       196 1.83912E+00 3.78527E+00 9.09427E+00
 -1       197 1.70190E+00 5.48161E+00 8.16528E+00
 -1       199 1.70873E+00 5.50357E+00 8.19801E+00
 -1       200 3.77016E+00 1.83177E+00 9.05797E+00
 -1       202 3.78527E+00 1.83912E+00 9.09427E+00
 -1       203 3.61660E+00 3.61660E+00 8.57069E+00
 -1       205 3.63109E+00 3.63109E+00 8.60505E+00
 -1       206 3.36365E+00 5.27140E+00 7.77911E+00
 -1       208 3.37712E+00 5.29251E+00 7.81030E+00
 -1       209 5.48161E+00 1.70190E+00 8.16528E+00
 -1       211 5.50357E+00 1.70873E+00 8.19801E+00
 -1       212 5.27140E+00 3.36365E+00 7.77911E+00
 -1       214 5.29251E+00 3.37712E+00 7.81030E+00
 -1       215 4.92109E+00 4.92109E+00 7.15416E+00
 -1       217 4.94080E+00 4.94080E+00 7.18286E+00
 -1       218 4.95753E+00 7.13756E+00 4.90861E+00
 -1       220 4.97736E+00 7.16619E+00 4.92829E+00
 -1       221 3.42099E+00 7.76461E+00 5.25586E+00
 -1       223 3.43466E+00 7.79574E+00 5.27693E+00
 -1       224 1.74846E+00 8.16208E+00 5.47171E+00
 -1       226 1.75545E+00 8.19480E+00 5.49364E+00
 -1       227 5.31600E+00 7.75264E+00 3.35456E+00
 -1       229 5.33726E+00 7.78374E+00 3.36801E+00
 -1       230 3.68882E+00 8.54405E+00 3.60669E+00
 -1       232 3.70356E+00 8.57831E+00 3.62114E+00
 -1       233 1.89192E+00 9.04764E+00 3.76527E+00
 -1       235 1.89947E+00 9.08391E+00 3.78036E+00
 -1       236 5.51283E+00 8.14417E+00 1.70222E+00
 -1       238 5.53489E+00 8.17683E+00 1.70904E+00
 -1       239 3.82169E+00 9.03578E+00 1.83460E+00
 -1       241 3.83697E+00 9.07201E+00 1.84196E+00
 -1       242 1.95784E+00 9.59703E+00 1.91840E+00
 -1       244 1.96566E+00 9.63550E+00 1.92609E+00
 -3
    3C                            48                                     1
 -1         1    1    0    1
 -2        65        89       164        92        67        91       166        94
 -1         2    1    0    1
 -2        92       164       167        95        94       166       169        97
 -1         3    1    0    1
 -2        95       167       170        98        97       169       172       100
 -1         4    1    0    1
 -2        98       170       101        68       100       172       103        70
 -1         5    1    0    1
 -2        89        86       173       164        91        88       175       166
 -1         6    1    0    1
 -2       164       173       176       167       166       175       178       169
 -1         7    1    0    1
 -2       167       176       179       170       169       178       181       172
 -1         8    1    0    1
 -2       170       179       104       101       172       181       106       103
 -1         9    1    0    1
 -2        86        83       182       173        88        85       184       175
 -1        10    1    0    1
 -2       173       182       185       176       175       184       187       178
 -1        11    1    0    1
 -2       176       185       188       179       178       187       190       181
 -1        12    1    0    1
 -2       179       188       107       104       181       190       109       106
 -1        13    1    0    1
 -2        83        62       110       182        85        64       112       184
 -1        14    1    0    1
 -2       182       110       113       185       184       112       115       187
 -1        15    1    0    1
 -2       185       113       116       188       187       115       118       190
 -1        16    1    0    1
 -2       188       116        71       107       190       118        73       109
 -1        17    1    0    1
 -2        74       125       191       134        76       127       193       136
 -1        18    1    0    1
 -2       134       191       194       131       136       193       196       133
 -1        19    1    0    1
 -2       131       194       197       128       133       196       199       130
 -1        20    1    0    1
 -2       128       197       137        77       130       199       139        79
 -1        21    1    0    1
 -2       125       122       200       191       127       124       202       193
 -1        22    1    0    1
 -2       191       200       203       194       193       202       205       196
 -1        23    1    0    1
 -2       194       203       206       197       196       205       208       199
 -1        24    1    0    1
 -2       197       206       140       137       199       208       142       139
 -1        25    1    0    1
 -2       122       119       209       200       124       121       211       202
 -1        26    1    0    1
 -2       200       209       212       203       202       211       214       205
 -1        27    1    0    1
 -2       203       212       215       206       205       214       217       208
 -1        28    1    0    1
 -2       206       215       143       140       208       217       145       142
 -1        29    1    0    1
 -2       119        65        92       209       121        67        94       211
 -1        30    1    0    1
 -2       209        92        95       212       211        94        97       214
 -1        31    1    0    1
 -2       212        95        98       215       214        97       100       217
 -1        32    1    0    1
 -2       215        98        68       143       217       100        70       145
 -1        33    1    0    1
 -2        68       101       218       143        70       103       220       145
 -1        34    1    0    1
 -2       143       218       221       140       145       220       223       142
 -1        35    1    0    1
 -2       140       221       224       137       142       223       226       139
 -1        36    1    0    1
 -2       137       224       152        77       139       226       154        79
 -1        37    1    0    1
 -2       101       104       227       218       103       106       229       220
 -1        38    1    0    1
 -2       218       227       230       221       220       229       232       223
 -1        39    1    0    1
 -2       221       230       233       224       223       232       235       226
 -1        40    1    0    1
 -2       224       233       149       152       226       235       151       154
 -1        41    1    0    1
 -2       104       107       236       227       106       109       238       229
 -1        42    1    0    1
 -2       227       236       239       230       229       238       241       232
 -1        43    1    0    1
 -2       230       239       242       233       232       241       244       235
 -1        44    1    0    1
 -2       233       242       146       149       235       244       148       151
 -1        45    1    0    1
 -2       107        71       155       236       109        73       157       238
 -1        46    1    0    1
 -2       236       155       158       239       238       157       160       241
 -1        47    1    0    1
 -2       239       158       161       242       241       160       163       244
 -1        48    1    0    1
 -2       242       161        80       146       244       163        82       148
 -3
    1PSTEP                         1           1           1          
  100CL  101 1.000000000         122                     0    1           1
 -4  DISP        4    1
 -5  D1          1    2    1    0
 -5  D2          1    2    2    0
 -5  D3          1    2    3    0
 -5  ALL         1    2    0    0    1ALL
 -1        62 3.25477E-05-2.11819E-11 1.67157E-05
 -1        64 3.25482E-05 2.11819E-11 1.67157E-05
 -1        65 8.13863E-06 1.67163E-11 9.58162E-06
 -1        67 8.13832E-06-1.67163E-11 9.58132E-06
 -1        68 3.23565E-06-3.23565E-06 3.11336E-16
 -1        70 3.16568E-06-3.16568E-06 3.12121E-16
 -1        71 1.24758E-05-1.24758E-05 4.71871E-16
 -1        73 1.22790E-05-1.22790E-05 4.89971E-16
 -1        74-1.51104E-20-1.51104E-20-1.53419E-19
 -1        76 1.51104E-20 1.51104E-20 1.53419E-19
 -1        77-1.67163E-11-8.13863E-06-9.58162E-06
 -1        79 1.67163E-11-8.13832E-06-9.58132E-06
 -1        80 2.11819E-11-3.25477E-05-1.67157E-05
 -1        82-2.11819E-11-3.25482E-05-1.67157E-05
 -1        83 2.56444E-05-1.88735E-11 1.61358E-05
 -1        85 2.56448E-05 1.88735E-11 1.61359E-05
 -1        86 1.90972E-05-8.23116E-11 1.47721E-05
 -1        88 1.90988E-05 8.23116E-11 1.47727E-05
 -1        89 1.32088E-05-5.77345E-11 1.25530E-05
 -1        91 1.32099E-05 5.77345E-11 1.25537E-05
 -1        92 6.10651E-06-4.58433E-07 7.31143E-06
 -1        94 5.99655E-06-3.03008E-07 7.37873E-06
 -1        95 3.89336E-06-1.36577E-06 4.30167E-06
 -1        97 3.83694E-06-1.32989E-06 4.33624E-06
 -1        98 3.61896E-06-1.95277E-06 2.52968E-06
 -1       100 3.55268E-06-1.91308E-06 2.57086E-06
 -1       101 4.68183E-06-4.68183E-06 3.35394E-16
 -1       103 4.58121E-06-4.58121E-06 3.37029E-16
 -1       104 6.62898E-06-6.62898E-06 3.61207E-16
 -1       106 6.50343E-06-6.50343E-06 3.62436E-16
 -1       107 9.16257E-06-9.16257E-06 4.37925E-16
 -1       109 9.00782E-06-9.00782E-06 4.48309E-16
 -1       110 3.07983E-05-5.52514E-07 1.54611E-05
 -1       112 3.07642E-05-4.69586E-07 1.56697E-05
 -1       113 2.70077E-05-2.02446E-06 1.20615E-05
 -1       115 2.69626E-05-1.94585E-06 1.22219E-05
 -1       116 2.11327E-05-5.28588E-06 6.72982E-06
 -1       118 2.10183E-05-5.12002E-06 6.83961E-06
 -1       119 4.64176E-06 2.05125E-11 6.64720E-06
 -1       121 4.64150E-06-2.05125E-11 6.64680E-06
 -1       122 2.49692E-06 3.67660E-12 4.16282E-06
 -1       124 2.49689E-06-3.67660E-12 4.16274E-06
 -1       125 1.07142E-06-9.15371E-11 1.78757E-06
 -1       127 1.07179E-06 9.15371E-11 1.78942E-06
 -1       128-2.05125E-11-4.64176E-06-6.64720E-06
 -1       130 2.05125E-11-4.64150E-06-6.64680E-06
 -1       131-3.67660E-12-2.49692E-06-4.16282E-06
 -1       133 3.67660E-12-2.49689E-06-4.16274E-06
 -1       134 9.15371E-11-1.07142E-06-1.78757E-06
 -1       136-9.15371E-11-1.07179E-06-1.78942E-06
 -1       137 4.58433E-07-6.10651E-06-7.31143E-06
 -1       139 3.03008E-07-5.99655E-06-7.37873E-06
 -1       140 1.36577E-06-3.89336E-06-4.30167E-06
 -1       142 1.32989E-06-3.83694E-06-4.33624E-06
 -1       143 1.95277E-06-3.61896E-06-2.52968E-06
 -1       145 1.91308E-06-3.55268E-06-2.57086E-06
 -1       146 1.88735E-11-2.56444E-05-1.61358E-05
 -1       148-1.88735E-11-2.56448E-05-1.61359E-05
 -1       149 8.23116E-11-1.90972E-05-1.47721E-05
 -1       151-8.23116E-11-1.90988E-05-1.47727E-05
 -1       152 5.77345E-11-1.32088E-05-1.25530E-05
 -1       154-5.77345E-11-1.32099E-05-1.25537E-05
 -1       155 5.28588E-06-2.11327E-05-6.72982E-06
 -1       157 5.12002E-06-2.10183E-05-6.83961E-06
 -1       158 2.02446E-06-2.70077E-05-1.20615E-05
 -1       160 1.94585E-06-2.69626E-05-1.22219E-05
 -1       161 5.52514E-07-3.07983E-05-1.54611E-05
 -1       163 4.69586E-07-3.07642E-05-1.56697E-05
 -1       164 9.89978E-06-5.07729E-07 9.94950E-06
 -1       166 9.77696E-06-3.25353E-07 1.00632E-05
 -1       167 6.76013E-06-1.63061E-06 6.50927E-06
 -1       169 6.69894E-06-1.60832E-06 6.57660E-06
 -1       170 6.24429E-06-2.37511E-06 3.93924E-06
 -1       172 6.17390E-06-2.31510E-06 3.99012E-06
 -1       173 1.54513E-05-4.12737E-07 1.26627E-05
 -1       175 1.53453E-05-2.46178E-07 1.28194E-05
 -1       176 1.15718E-05-1.68291E-06 9.04399E-06
 -1       178 1.15045E-05-1.64551E-06 9.15381E-06
 -1       179 9.83107E-06-3.05300E-06 5.18356E-06
 -1       181 9.74612E-06-2.96606E-06 5.25412E-06
 -1       182 2.25765E-05-3.23830E-07 1.47403E-05
 -1       184 2.25103E-05-1.97995E-07 1.49325E-05
 -1       185 1.85022E-05-1.63613E-06 1.11529E-05
 -1       187 1.84454E-05-1.57452E-06 1.12982E-05
 -1       188 1.47806E-05-3.94443E-06 6.20818E-06
 -1       190 1.46831E-05-3.82176E-06 6.30411E-06
 -1       191 7.11725E-07-7.11725E-07 1.34224E-16
 -1       193 6.26060E-07-6.26060E-07 1.35705E-16
 -1       194 4.31300E-07-1.89368E-06-2.48226E-06
 -1       196 3.57789E-07-1.83740E-06-2.48951E-06
 -1       197 4.65283E-07-3.34437E-06-4.48158E-06
 -1       199 3.56620E-07-3.27452E-06-4.49957E-06
 -1       200 1.89368E-06-4.31300E-07 2.48226E-06
 -1       202 1.83740E-06-3.57789E-07 2.48951E-06
 -1       203 1.26572E-06-1.26572E-06 3.08171E-16
 -1       205 1.23601E-06-1.23601E-06 3.08565E-16
 -1       206 1.31557E-06-2.11601E-06-1.78237E-06
 -1       208 1.28001E-06-2.08251E-06-1.78526E-06
 -1       209 3.34437E-06-4.65283E-07 4.48158E-06
 -1       211 3.27452E-06-3.56620E-07 4.49957E-06
 -1       212 2.11601E-06-1.31557E-06 1.78237E-06
 -1       214 2.08251E-06-1.28001E-06 1.78526E-06
 -1       215 2.05465E-06-2.05465E-06 3.00808E-16
 -1       217 2.01469E-06-2.01469E-06 3.00573E-16
 -1       218 2.37511E-06-6.24429E-06-3.93924E-06
 -1       220 2.31510E-06-6.17390E-06-3.99012E-06
 -1       221 1.63061E-06-6.76013E-06-6.50927E-06
 -1       223 1.60832E-06-6.69894E-06-6.57660E-06
 -1       224 5.07729E-07-9.89978E-06-9.94950E-06
 -1       226 3.25353E-07-9.77696E-06-1.00632E-05
 -1       227 3.05300E-06-9.83107E-06-5.18356E-06
 -1       229 2.96606E-06-9.74612E-06-5.25412E-06
 -1       230 1.68291E-06-1.15718E-05-9.04399E-06
 -1       232 1.64551E-06-1.15045E-05-9.15381E-06
 -1       233 4.12737E-07-1.54513E-05-1.26627E-05
 -1       235 2.46178E-07-1.53453E-05-1.28194E-05
 -1       236 3.94443E-06-1.47806E-05-6.20818E-06
 -1       238 3.82176E-06-1.46831E-05-6.30411E-06
 -1       239 1.63613E-06-1.85022E-05-1.11529E-05
 -1       241 1.57452E-06-1.84454E-05-1.12982E-05
 -1       242 3.23830E-07-2.25765E-05-1.47403E-05
 -1       244 1.97995E-07-2.25103E-05-1.49325E-05
 -3
    1PSTEP                         2           1           1          
  100CL  101 1.000000000         122                     0    1           1
 -4  STRESS      6    1
 -5  SXX         1    4    1    1
 -5  SYY         1    4    2    2
 -5  SZZ         1    4    3    3
 -5  SXY         1    4    1    2
 -5  SYZ         1    4    2    3
 -5  SZX         1    4    3    1
 -1        62 7.15749E+03-1.71383E+04-1.99690E+04 1.27986E+04-1.35916E+04-9.30348E+04
 -1        64 6.76940E+03-1.40375E+04-1.91311E+04 1.24340E+04-1.07526E+04-9.29881E+04
 -1        65 9.06413E+04-3.06641E+03-5.15640E+04 3.49725E+03-4.54037E+03-1.31203E+04
 -1        67 9.20714E+04 4.87507E+03-4.96359E+04 1.64147E+03-3.37167E+03-1.39296E+04
 -1        68 2.93305E+03-2.93305E+03-1.53459E-07 1.21434E-07 1.10246E+03-1.10246E+03
 -1        70 1.90615E+03-1.90615E+03-1.77952E-07 9.52415E-08 1.93825E+02-1.93825E+02
 -1        71-8.88615E+02 8.88615E+02 5.82365E-07 7.66272E-08 5.53702E+02-5.53702E+02
 -1        73-1.15593E+03 1.15593E+03 3.61691E-07-8.13050E-08-1.04365E+03 1.04365E+03
 -1        74 2.68228E+04-2.68228E+04 1.44390E-07 1.21725E-07-8.24271E+03 8.24271E+03
 -1        76 2.67676E+04-2.67676E+04 2.15580E-07 1.20738E-07-8.14631E+03 8.14631E+03
 -1        77 3.06641E+03-9.06413E+04 5.15640E+04-3.49725E+03 1.31203E+04 4.54037E+03
 -1        79-4.87507E+03-9.20714E+04 4.96359E+04-1.64147E+03 1.39296E+04 3.37167E+03
 -1        80 1.71383E+04-7.15749E+03 1.99690E+04-1.27986E+04 9.30348E+04 1.35916E+04
 -1        82 1.40375E+04-6.76940E+03 1.91311E+04-1.24340E+04 9.29881E+04 1.07526E+04
 -1        83 3.49544E+04-1.39376E+03-2.43037E+04 2.03639E+03-1.28157E+04-8.60876E+04
 -1        85 3.50426E+04 3.48297E+03-2.28002E+04 1.19832E+03-1.02209E+04-8.61264E+04
 -1        86 7.05559E+04 3.24453E+03-3.56000E+04 3.21245E+03-1.03098E+04-6.67281E+04
 -1        88 7.08631E+04 9.90974E+03-3.36865E+04 1.73857E+03-8.12940E+03-6.71178E+04
 -1        89 8.72707E+04-5.30012E+02-4.78084E+04 3.47272E+03-7.84079E+03-4.08231E+04
 -1        91 8.80595E+04 7.43002E+03-4.58128E+04 1.64220E+03-6.12508E+03-4.16219E+04
 -1        92-1.38017E+04-3.06582E+03 2.21521E+04-5.35888E+03 6.37820E+03-7.75273E+03
 -1        94-1.49504E+04-2.76601E+03 2.09930E+04-5.19208E+03 6.62968E+03-6.96639E+03
 -1        95 2.72534E+03 7.24026E+02-1.01696E+04-8.50324E+02 3.42291E+02 1.31568E+03
 -1        97 1.31658E+03-2.30767E+03-1.13538E+04-8.89891E+01 7.11491E+02 2.27579E+03
 -1        98-8.01459E+01-1.16808E+03 2.61374E+03-7.61626E+02 1.84221E+03 1.46853E+03
 -1       100-6.82632E+02-6.51155E+02 2.23697E+03-8.69771E+02 1.47223E+03 2.03775E+03
 -1       101-5.02152E+02 5.02152E+02 2.71731E-07 3.34916E-07 1.35683E+03-1.35683E+03
 -1       103-1.27143E+03 1.27143E+03 2.53933E-07 2.83053E-07 4.44070E+02-4.44070E+02
 -1       104 5.92626E+01-5.92626E+01 1.55939E-08-4.36469E-07 8.22389E+02-8.22389E+02
 -1       106-5.86758E+02 5.86758E+02-1.62329E-07-4.72700E-07-2.71241E+02 2.71241E+02
 -1       107 4.01981E+02-4.01981E+02 2.11275E-07-7.39348E-08 4.11357E+02-4.11357E+02
 -1       109-3.39498E+01 3.39498E+01-1.09264E-07-1.37178E-07-1.01947E+03 1.01947E+03
 -1       110 9.37778E+02-1.09135E+04 9.73539E+03-4.90116E+03 2.62137E+03 2.54739E+04
 -1       112 9.96166E+02-9.42430E+03 9.66251E+03-5.10893E+03 4.38461E+03 2.51300E+04
 -1       113-1.59055E+03-6.86544E+03-4.83621E+03 4.74291E+03-3.80110E+03-5.64337E+03
 -1       115-7.29573E+02-4.97760E+03-4.42737E+03 4.07234E+03-4.47665E+03-5.39652E+03
 -1       116-5.84841E+02-6.34250E+02 1.80732E+03 4.25832E+03 2.37325E+03 2.04658E+03
 -1       118 5.82822E+02 1.98172E+03 2.51836E+03 2.76457E+03 9.91226E+02 2.89285E+03
 -1       119 6.59059E+04-4.72531E+03-3.28116E+04 1.06338E+03-3.77159E+03 8.61546E+03
 -1       121 6.68418E+04 1.67431E+02-3.19345E+04 1.07397E+01-3.48011E+03 8.04630E+03
 -1       122 4.54811E+04-4.99674E+03-2.06741E+04 3.37605E+03 1.77611E+03 1.83686E+04
 -1       124 4.59117E+04-2.12765E+03-2.07256E+04 2.57409E+03 1.88541E+03 1.79307E+04
 -1       125 3.89087E+04-1.30460E+04-8.23681E+03 4.42961E+03-4.42834E+03 3.27591E+04
 -1       127 4.01180E+04-9.34165E+03-7.35938E+03 3.25260E+03-4.46022E+03 3.25760E+04
 -1       128 4.72531E+03-6.59059E+04 3.28116E+04-1.06338E+03-8.61546E+03 3.77159E+03
 -1       130-1.67431E+02-6.68418E+04 3.19345E+04-1.07397E+01-8.04630E+03 3.48011E+03
 -1       131 4.99674E+03-4.54811E+04 2.06741E+04-3.37605E+03-1.83686E+04-1.77611E+03
 -1       133 2.12765E+03-4.59117E+04 2.07256E+04-2.57409E+03-1.79307E+04-1.88541E+03
 -1       134 1.30460E+04-3.89087E+04 8.23681E+03-4.42961E+03-3.27591E+04 4.42834E+03
 -1       136 9.34165E+03-4.01180E+04 7.35938E+03-3.25260E+03-3.25760E+04 4.46022E+03
 -1       137 3.06582E+03 1.38017E+04-2.21521E+04 5.35888E+03 7.75273E+03-6.37820E+03
 -1       139 2.76601E+03 1.49504E+04-2.09930E+04 5.19208E+03 6.96639E+03-6.62968E+03
 -1       140-7.24026E+02-2.72534E+03 1.01696E+04 8.50324E+02-1.31568E+03-3.42291E+02
 -1       142 2.30767E+03-1.31658E+03 1.13538E+04 8.89891E+01-2.27579E+03-7.11491E+02
 -1       143 1.16808E+03 8.01459E+01-2.61374E+03 7.61626E+02-1.46853E+03-1.84221E+03
 -1       145 6.51155E+02 6.82632E+02-2.23697E+03 8.69771E+02-2.03775E+03-1.47223E+03
 -1       146 1.39376E+03-3.49544E+04 2.43037E+04-2.03639E+03 8.60876E+04 1.28157E+04
 -1       148-3.48297E+03-3.50426E+04 2.28002E+04-1.19832E+03 8.61264E+04 1.02209E+04
 -1       149-3.24453E+03-7.05559E+04 3.56000E+04-3.21245E+03 6.67281E+04 1.03098E+04
 -1       151-9.90974E+03-7.08631E+04 3.36865E+04-1.73857E+03 6.71178E+04 8.12940E+03
 -1       152 5.30012E+02-8.72707E+04 4.78084E+04-3.47272E+03 4.08231E+04 7.84079E+03
 -1       154-7.43002E+03-8.80595E+04 4.58128E+04-1.64220E+03 4.16219E+04 6.12508E+03
 -1       155 6.34250E+02 5.84841E+02-1.80732E+03-4.25832E+03-2.04658E+03-2.37325E+03
 -1       157-1.98172E+03-5.82822E+02-2.51836E+03-2.76457E+03-2.89285E+03-9.91226E+02
 -1       158 6.86544E+03 1.59055E+03 4.83621E+03-4.74291E+03 5.64337E+03 3.80110E+03
 -1       160 4.97760E+03 7.29573E+02 4.42737E+03-4.07234E+03 5.39652E+03 4.47665E+03
 -1       161 1.09135E+04-9.37778E+02-9.73539E+03 4.90116E+03-2.54739E+04-2.62137E+03
 -1       163 9.42430E+03-9.96166E+02-9.66251E+03 5.10893E+03-2.51300E+04-4.38461E+03
 -1       164-2.06784E+04 3.13097E+03 2.42658E+04-2.03394E+03 6.21878E+03 2.57192E+03
 -1       166-2.11407E+04 3.32005E+03 2.32631E+04-2.06281E+03 6.99278E+03 2.94767E+03
 -1       167 2.71894E+03-9.36954E+01-1.16877E+04-3.51244E+03-1.30944E+03 4.40625E+02
 -1       169 1.38763E+03-3.07786E+03-1.34135E+04-2.51348E+03-1.44883E+03 1.51333E+03
 -1       170 3.10157E+03 2.44703E+02 1.56974E+03 1.79087E+03 2.02950E+03 1.28308E+03
 -1       172 3.38244E+03 1.90938E+03 1.76122E+03 1.25676E+03 1.31265E+03 1.75716E+03
 -1       173-1.92436E+04 4.86836E+03 1.88581E+04-1.76274E+03 3.55179E+03 1.36091E+04
 -1       175-1.92622E+04 5.46941E+03 1.80856E+04-2.01183E+03 4.91000E+03 1.36042E+04
 -1       176 8.28092E+02 1.93434E+03-1.04915E+04-2.21249E+03-2.17240E+03-1.94904E+03
 -1       178 8.79735E+01 1.14958E+02-1.20884E+04-1.52181E+03-2.71390E+03-1.08776E+03
 -1       179 2.48551E+03 2.17677E+02 2.64134E+03 1.53064E+03 1.20303E+03 5.03276E+02
 -1       181 2.57229E+03 1.81056E+03 2.44989E+03 8.48018E+02 1.66097E+02 1.26293E+03
 -1       182-9.33799E+03 3.54850E+03 1.24009E+04-2.12482E+03 2.17736E+03 2.23739E+04
 -1       184-9.30724E+03 4.64440E+03 1.19971E+04-2.36863E+03 3.85193E+03 2.20990E+04
 -1       185-4.41888E+02 1.62165E+03-6.96130E+03-3.32027E+01-3.34418E+03-4.38341E+03
 -1       187-4.65309E+02 1.53102E+03-7.64806E+03-5.74255E+01-4.01596E+03-3.94904E+03
 -1       188 1.97652E+03 7.38995E+02 2.87192E+03 1.11533E+03 1.60157E+03 1.27460E+03
 -1       190 2.35620E+03 2.47596E+03 2.88526E+03 1.00307E+02 3.09328E+02 2.11918E+03
 -1       191 7.46515E+03-7.46515E+03 2.77525E-07 1.14747E-08 1.37162E+04-1.37162E+04
 -1       193 6.59386E+03-6.59386E+03 2.72457E-07-4.93432E-08 1.36765E+04-1.36765E+04
 -1       194 3.61472E+03-3.88960E+03-9.34309E+03 5.66359E+03 9.48703E+03 8.20343E+02
 -1       196 2.97243E+03-4.06610E+03-9.13974E+03 5.68205E+03 9.57393E+03 7.72768E+02
 -1       197 1.77576E+03 3.04635E+03-1.21185E+04 6.14752E+03 1.09607E+04-4.16130E+03
 -1       199 1.51572E+03 4.22247E+03-1.13661E+04 5.76333E+03 1.04222E+04-4.07821E+03
 -1       200 3.88960E+03-3.61472E+03 9.34309E+03-5.66359E+03-8.20343E+02-9.48703E+03
 -1       202 4.06610E+03-2.97243E+03 9.13974E+03-5.68205E+03-7.72768E+02-9.57393E+03
 -1       203 2.23366E+03-2.23366E+03 8.08460E-08 2.89429E-08-2.18772E+03 2.18772E+03
 -1       205 2.70953E+03-2.70953E+03 1.20173E-07 1.76375E-08-2.05035E+03 2.05035E+03
 -1       206 5.25593E+02-2.07510E+03 6.24914E+03-2.51133E+02-9.58939E+02-6.22969E+01
 -1       208 1.91024E+03-1.34102E+03 6.45139E+03-6.79305E+02-1.47610E+03-3.47759E+02
 -1       209-3.04635E+03-1.77576E+03 1.21185E+04-6.14752E+03 4.16130E+03-1.09607E+04
 -1       211-4.22247E+03-1.51572E+03 1.13661E+04-5.76333E+03 4.07821E+03-1.04222E+04
 -1       212 2.07510E+03-5.25593E+02-6.24914E+03 2.51133E+02 6.22969E+01 9.58939E+02
 -1       214 1.34102E+03-1.91024E+03-6.45139E+03 6.79305E+02 3.47759E+02 1.47610E+03
 -1       215-4.96278E+02 4.96278E+02-6.60604E-08 5.60311E-08 1.61649E+03-1.61649E+03
 -1       217-9.89462E+02 9.89462E+02-8.19956E-08 3.37082E-08 1.20106E+03-1.20106E+03
 -1       218-2.44703E+02-3.10157E+03-1.56974E+03-1.79087E+03-1.28308E+03-2.02950E+03
 -1       220-1.90938E+03-3.38244E+03-1.76122E+03-1.25676E+03-1.75716E+03-1.31265E+03
 -1       221 9.36954E+01-2.71894E+03 1.16877E+04 3.51244E+03-4.40625E+02 1.30944E+03
 -1       223 3.07786E+03-1.38763E+03 1.34135E+04 2.51348E+03-1.51333E+03 1.44883E+03
 -1       224-3.13097E+03 2.06784E+04-2.42658E+04 2.03394E+03-2.57192E+03-6.21878E+03
 -1       226-3.32005E+03 2.11407E+04-2.32631E+04 2.06281E+03-2.94767E+03-6.99278E+03
 -1       227-2.17677E+02-2.48551E+03-2.64134E+03-1.53064E+03-5.03276E+02-1.20303E+03
 -1       229-1.81056E+03-2.57229E+03-2.44989E+03-8.48018E+02-1.26293E+03-1.66097E+02
 -1       230-1.93434E+03-8.28092E+02 1.04915E+04 2.21249E+03 1.94904E+03 2.17240E+03
 -1       232-1.14958E+02-8.79735E+01 1.20884E+04 1.52181E+03 1.08776E+03 2.71390E+03
 -1       233-4.86836E+03 1.92436E+04-1.88581E+04 1.76274E+03-1.36091E+04-3.55179E+03
 -1       235-5.46941E+03 1.92622E+04-1.80856E+04 2.01183E+03-1.36042E+04-4.91000E+03
 -1       236-7.38995E+02-1.97652E+03-2.87192E+03-1.11533E+03-1.27460E+03-1.60157E+03
 -1       238-2.47596E+03-2.35620E+03-2.88526E+03-1.00307E+02-2.11918E+03-3.09328E+02
 -1       239-1.62165E+03 4.41888E+02 6.96130E+03 3.32027E+01 4.38341E+03 3.34418E+03
 -1       241-1.53102E+03 4.65309E+02 7.64806E+03 5.74255E+01 3.94904E+03 4.01596E+03
 -1       242-3.54850E+03 9.33799E+03-1.24009E+04 2.12482E+03-2.23739E+04-2.17736E+03
 -1       244-4.64440E+03 9.30724E+03-1.19971E+04 2.36863E+03-2.20990E+04-3.85193E+03
 -3
    1PSTEP                         3           1           1          
  100CL  101 1.000000000         122                     0    1           1
 -4  TOSTRAIN    6    1
 -5  EXX         1    4    1    1
 -5  EYY         1    4    2    2
 -5  EZZ         1    4    3    3
 -5  EXY         1    4    1    2
 -5  EYZ         1    4    2    3
 -5  EZX         1    4    3    1
 -1        62 2.67980E-07-1.94796E-07-2.48715E-07 2.43782E-07-2.58888E-07-1.77209E-06
 -1        64 2.44981E-07-1.51340E-07-2.48361E-07 2.36838E-07-2.04811E-07-1.77120E-06
 -1        65 1.56821E-06-2.16697E-07-1.14046E-06 6.66144E-08-8.64832E-08-2.49911E-07
 -1        67 1.54578E-06-1.15100E-07-1.15340E-06 3.12662E-08-6.42223E-08-2.65325E-07
 -1        68 5.58677E-08-5.58677E-08-1.60071E-18 2.31303E-18 2.09992E-08-2.09992E-08
 -1        70 3.63075E-08-3.63075E-08-1.99103E-18 1.81412E-18 3.69190E-09-3.69190E-09
 -1        71-1.69260E-08 1.69260E-08 4.37002E-18 1.45956E-18 1.05467E-08-1.05467E-08
 -1        73-2.20177E-08 2.20177E-08-5.12279E-19-1.54867E-18-1.98790E-08 1.98790E-08
 -1        74 5.10910E-07-5.10910E-07 6.48526E-18 2.31857E-18-1.57004E-07 1.57004E-07
 -1        76 5.09859E-07-5.09859E-07 7.26311E-18 2.29978E-18-1.55168E-07 1.55168E-07
 -1        77 2.16697E-07-1.56821E-06 1.14046E-06-6.66144E-08 2.49911E-07 8.64832E-08
 -1        79 1.15100E-07-1.54578E-06 1.15340E-06-3.12662E-08 2.65325E-07 6.42223E-08
 -1        80 1.94796E-07-2.67980E-07 2.48715E-07-2.43782E-07 1.77209E-06 2.58888E-07
 -1        82 1.51340E-07-2.44981E-07 2.48361E-07-2.36838E-07 1.77120E-06 2.04811E-07
 -1        83 6.25109E-07-6.72378E-08-5.03618E-07 3.87883E-08-2.44108E-07-1.63976E-06
 -1        85 5.98356E-07-2.78043E-09-5.03411E-07 2.28251E-08-1.94684E-07-1.64050E-06
 -1        86 1.17601E-06-1.06113E-07-8.46010E-07 6.11896E-08-1.96378E-07-1.27101E-06
 -1        88 1.14280E-06-1.82160E-08-8.48621E-07 3.31156E-08-1.54846E-07-1.27843E-06
 -1        89 1.49117E-06-1.81226E-07-1.08177E-06 6.61471E-08-1.49348E-07-7.77583E-07
 -1        91 1.45896E-06-7.68351E-08-1.09098E-06 3.12800E-08-1.16668E-07-7.92797E-07
 -1        92-2.86119E-07-8.16252E-08 3.98715E-07-1.02074E-07 1.21490E-07-1.47671E-07
 -1        94-2.99171E-07-6.70884E-08 3.85463E-07-9.88967E-08 1.26280E-07-1.32693E-07
 -1        95 8.14507E-08 4.33305E-08-1.64167E-07-1.61966E-08 6.51982E-09 2.50606E-08
 -1        97 7.93410E-08 1.03077E-08-1.62000E-07-1.69503E-09 1.35522E-08 4.33484E-08
 -1        98-7.52885E-09-2.82513E-08 4.37832E-08-1.45072E-08 3.50897E-08 2.79720E-08
 -1       100-1.69725E-08-1.63730E-08 3.86389E-08-1.65671E-08 2.80424E-08 3.88142E-08
 -1       101-9.56481E-09 9.56481E-09 6.01117E-18 6.37934E-18 2.58443E-08-2.58443E-08
 -1       103-2.42177E-08 2.42177E-08 5.34572E-18 5.39149E-18 8.45847E-09-8.45847E-09
 -1       104 1.12881E-09-1.12881E-09-2.32642E-18-8.31370E-18 1.56646E-08-1.56646E-08
 -1       106-1.11763E-08 1.11763E-08-4.71234E-18-9.00380E-18-5.16649E-09 5.16649E-09
 -1       107 7.65678E-09-7.65678E-09 4.68801E-18-1.40828E-18 7.83538E-09-7.83538E-09
 -1       109-6.46663E-10 6.46663E-10 2.18956E-19-2.61291E-18-1.94186E-08 1.94186E-08
 -1       110 1.89190E-08-2.06820E-07 1.86493E-07-9.33555E-08 4.99309E-08 4.85217E-07
 -1       112 1.35488E-08-1.84936E-07 1.78622E-07-9.73130E-08 8.35163E-08 4.78667E-07
 -1       113 2.81311E-08-7.23430E-08-3.36911E-08 9.03412E-08-7.24018E-08-1.07493E-07
 -1       115 3.06508E-08-5.02639E-08-3.97834E-08 7.75684E-08-8.52696E-08-1.02791E-07
 -1       116-1.37254E-08-1.46666E-08 3.18395E-08 8.11108E-08 4.52047E-08 3.89825E-08
 -1       118-1.12411E-08 1.54047E-08 2.56263E-08 5.26585E-08 1.88805E-08 5.51019E-08
 -1       119 1.13065E-06-2.14705E-07-7.49682E-07 2.02548E-08-7.18398E-08 1.64104E-07
 -1       121 1.11900E-06-1.50985E-07-7.62451E-07 2.04566E-10-6.62877E-08 1.53263E-07
 -1       122 7.79229E-07-1.82254E-07-4.80871E-07 6.43058E-08 3.38308E-08 3.49879E-07
 -1       124 7.73152E-07-1.41882E-07-4.96129E-07 4.90303E-08 3.59125E-08 3.41537E-07
 -1       125 6.63642E-07-3.25971E-07-2.34368E-07 8.43734E-08-8.43494E-08 6.23983E-07
 -1       127 6.61220E-07-2.80868E-07-2.43110E-07 6.19543E-08-8.49567E-08 6.20495E-07
 -1       128 2.14705E-07-1.13065E-06 7.49682E-07-2.02548E-08-1.64104E-07 7.18398E-08
 -1       130 1.50985E-07-1.11900E-06 7.62451E-07-2.04566E-10-1.53263E-07 6.62877E-08
 -1       131 1.82254E-07-7.79229E-07 4.80871E-07-6.43058E-08-3.49879E-07-3.38308E-08
 -1       133 1.41882E-07-7.73152E-07 4.96129E-07-4.90303E-08-3.41537E-07-3.59125E-08
 -1       134 3.25971E-07-6.63642E-07 2.34368E-07-8.43734E-08-6.23983E-07 8.43494E-08
 -1       136 2.80868E-07-6.61220E-07 2.43110E-07-6.19543E-08-6.20495E-07 8.49567E-08
 -1       137 8.16252E-08 2.86119E-07-3.98715E-07 1.02074E-07 1.47671E-07-1.21490E-07
 -1       139 6.70884E-08 2.99171E-07-3.85463E-07 9.88967E-08 1.32693E-07-1.26280E-07
 -1       140-4.33305E-08-8.14507E-08 1.64167E-07 1.61966E-08-2.50606E-08-6.51982E-09
 -1       142-1.03077E-08-7.93410E-08 1.62000E-07 1.69503E-09-4.33484E-08-1.35522E-08
 -1       143 2.82513E-08 7.52885E-09-4.37832E-08 1.45072E-08-2.79720E-08-3.50897E-08
 -1       145 1.63730E-08 1.69725E-08-3.86389E-08 1.65671E-08-3.88142E-08-2.80424E-08
 -1       146 6.72378E-08-6.25109E-07 5.03618E-07-3.87883E-08 1.63976E-06 2.44108E-07
 -1       148 2.78043E-09-5.98356E-07 5.03411E-07-2.28251E-08 1.64050E-06 1.94684E-07
 -1       149 1.06113E-07-1.17601E-06 8.46010E-07-6.11896E-08 1.27101E-06 1.96378E-07
 -1       151 1.82160E-08-1.14280E-06 8.48621E-07-3.31156E-08 1.27843E-06 1.54846E-07
 -1       152 1.81226E-07-1.49117E-06 1.08177E-06-6.61471E-08 7.77583E-07 1.49348E-07
 -1       154 7.68351E-08-1.45896E-06 1.09098E-06-3.12800E-08 7.92797E-07 1.16668E-07
 -1       155 1.46666E-08 1.37254E-08-3.18395E-08-8.11108E-08-3.89825E-08-4.52047E-08
 -1       157-1.54047E-08 1.12411E-08-2.56263E-08-5.26585E-08-5.51019E-08-1.88805E-08
 -1       158 7.23430E-08-2.81311E-08 3.36911E-08-9.03412E-08 1.07493E-07 7.24018E-08
 -1       160 5.02639E-08-3.06508E-08 3.97834E-08-7.75684E-08 1.02791E-07 8.52696E-08
 -1       161 2.06820E-07-1.89190E-08-1.86493E-07 9.33555E-08-4.85217E-07-4.99309E-08
 -1       163 1.84936E-07-1.35488E-08-1.78622E-07 9.73130E-08-4.78667E-07-8.35163E-08
 -1       164-4.23405E-07 3.01058E-08 4.32675E-07-3.87417E-08 1.18453E-07 4.89889E-08
 -1       166-4.26603E-07 3.93161E-08 4.19184E-07-3.92917E-08 1.33196E-07 5.61460E-08
 -1       167 9.16242E-08 3.80502E-08-1.82788E-07-6.69036E-08-2.49417E-08 8.39287E-09
 -1       169 9.28213E-08 7.76429E-09-1.89106E-07-4.78759E-08-2.75967E-08 2.88253E-08
 -1       170 3.74686E-08-1.69478E-08 8.29099E-09 3.41118E-08 3.86572E-08 2.44396E-08
 -1       172 3.34250E-08 5.36680E-09 2.54473E-09 2.39383E-08 2.50029E-08 3.34697E-08
 -1       173-3.86250E-07 7.30260E-08 3.39497E-07-3.35759E-08 6.76531E-08 2.59220E-07
 -1       175-3.85769E-07 8.53099E-08 3.25618E-07-3.83206E-08 9.35238E-08 2.59128E-07
 -1       176 4.97473E-08 7.08187E-08-1.65865E-07-4.21426E-08-4.13790E-08-3.71246E-08
 -1       178 5.39197E-08 5.44337E-08-1.78012E-07-2.89868E-08-5.16934E-08-2.07193E-08
 -1       179 2.38507E-08-1.93462E-08 2.68188E-08 2.91551E-08 2.29148E-08 9.58622E-09
 -1       181 1.89620E-08 4.45286E-09 1.66305E-08 1.61527E-08 3.16376E-09 2.40558E-08
 -1       182-2.06928E-07 3.85293E-08 2.07147E-07-4.04728E-08 4.14735E-08 4.26169E-07
 -1       184-2.09519E-07 5.62263E-08 1.96278E-07-4.51167E-08 7.33701E-08 4.20934E-07
 -1       185 1.69964E-08 5.63019E-08-1.07183E-07-6.32433E-10-6.36986E-08-8.34936E-08
 -1       187 2.00704E-08 5.80957E-08-1.16744E-07-1.09382E-09-7.64944E-08-7.52198E-08
 -1       188 1.30878E-08-1.04841E-08 3.01431E-08 2.12444E-08 3.05061E-08 2.42781E-08
 -1       190 1.09573E-08 1.32384E-08 2.10347E-08 1.91062E-09 5.89196E-09 4.03654E-08
 -1       191 1.42193E-07-1.42193E-07 7.99252E-18 2.18573E-19 2.61261E-07-2.61261E-07
 -1       193 1.25597E-07-1.25597E-07 8.03667E-18-9.39865E-19 2.60505E-07-2.60505E-07
 -1       194 1.11129E-07-3.18109E-08-1.35687E-07 1.07878E-07 1.80705E-07 1.56256E-08
 -1       196 1.01600E-07-3.24675E-08-1.29108E-07 1.08230E-07 1.82361E-07 1.47194E-08
 -1       197 6.58959E-08 9.00977E-08-1.98756E-07 1.17096E-07 2.08774E-07-7.92629E-08
 -1       199 5.36090E-08 1.05166E-07-1.91759E-07 1.09778E-07 1.98518E-07-7.76802E-08
 -1       200 3.18109E-08-1.11129E-07 1.35687E-07-1.07878E-07-1.56256E-08-1.80705E-07
 -1       202 3.24675E-08-1.01600E-07 1.29108E-07-1.08230E-07-1.47194E-08-1.82361E-07
 -1       203 4.25458E-08-4.25458E-08-5.90430E-19 5.51298E-19-4.16708E-08 4.16708E-08
 -1       205 5.16101E-08-5.16101E-08-1.08383E-18 3.35953E-19-3.90542E-08 3.90542E-08
 -1       206-1.06464E-08-6.01835E-08 9.83735E-08-4.78349E-09-1.82655E-08-1.18661E-09
 -1       208 5.52563E-09-5.64031E-08 9.20239E-08-1.29391E-08-2.81161E-08-6.62398E-09
 -1       209-9.00977E-08-6.58959E-08 1.98756E-07-1.17096E-07 7.92629E-08-2.08774E-07
 -1       211-1.05166E-07-5.36090E-08 1.91759E-07-1.09778E-07 7.76802E-08-1.98518E-07
 -1       212 6.01835E-08 1.06464E-08-9.83735E-08 4.78349E-09 1.18661E-09 1.82655E-08
 -1       214 5.64031E-08-5.52563E-09-9.20239E-08 1.29391E-08 6.62398E-09 2.81161E-08
 -1       215-9.45292E-09 9.45292E-09-1.65718E-18 1.06726E-18 3.07904E-08-3.07904E-08
 -1       217-1.88469E-08 1.88469E-08-1.95827E-18 6.42061E-19 2.28773E-08-2.28773E-08
 -1       218 1.69478E-08-3.74686E-08-8.29099E-09-3.41118E-08-2.44396E-08-3.86572E-08
 -1       220-5.36680E-09-3.34250E-08-2.54473E-09-2.39383E-08-3.34697E-08-2.50029E-08
 -1       221-3.80502E-08-9.16242E-08 1.82788E-07 6.69036E-08-8.39287E-09 2.49417E-08
 -1       223-7.76429E-09-9.28213E-08 1.89106E-07 4.78759E-08-2.88253E-08 2.75967E-08
 -1       224-3.01058E-08 4.23405E-07-4.32675E-07 3.87417E-08-4.89889E-08-1.18453E-07
 -1       226-3.93161E-08 4.26603E-07-4.19184E-07 3.92917E-08-5.61460E-08-1.33196E-07
 -1       227 1.93462E-08-2.38507E-08-2.68188E-08-2.91551E-08-9.58622E-09-2.29148E-08
 -1       229-4.45286E-09-1.89620E-08-1.66305E-08-1.61527E-08-2.40558E-08-3.16376E-09
 -1       230-7.08187E-08-4.97473E-08 1.65865E-07 4.21426E-08 3.71246E-08 4.13790E-08
 -1       232-5.44337E-08-5.39197E-08 1.78012E-07 2.89868E-08 2.07193E-08 5.16934E-08
 -1       233-7.30260E-08 3.86250E-07-3.39497E-07 3.35759E-08-2.59220E-07-6.76531E-08
 -1       235-8.53099E-08 3.85769E-07-3.25618E-07 3.83206E-08-2.59128E-07-9.35238E-08
 -1       236 1.04841E-08-1.30878E-08-3.01431E-08-2.12444E-08-2.42781E-08-3.05061E-08
 -1       238-1.32384E-08-1.09573E-08-2.10347E-08-1.91062E-09-4.03654E-08-5.89196E-09
 -1       239-5.63019E-08-1.69964E-08 1.07183E-07 6.32433E-10 8.34936E-08 6.36986E-08
 -1       241-5.80957E-08-2.00704E-08 1.16744E-07 1.09382E-09 7.52198E-08 7.64944E-08
 -1       242-3.85293E-08 2.06928E-07-2.07147E-07 4.04728E-08-4.26169E-07-4.14735E-08
 -1       244-5.62263E-08 2.09519E-07-1.96278E-07 4.51167E-08-4.20934E-07-7.33701E-08
 -3
    1PSTEP                         4           1           1          
  100CL  101 1.000000000         122                     0    1           1
 -4  ERROR       1    1
 -5  STR(%)      1    1    0    0
 -1        62 1.23354E+02
 -1        64 1.23354E+02
 -1        65 9.78468E+01
 -1        67 9.78468E+01
 -1        68 1.01413E+02
 -1        70 1.01413E+02
 -1        71 1.13567E+02
 -1        73 1.13567E+02
 -1        74 6.59411E+01
 -1        76 6.59411E+01
 -1        77 9.78468E+01
 -1        79 9.78468E+01
 -1        80 1.23354E+02
 -1        82 1.23354E+02
 -1        83 1.23354E+02
 -1        85 1.23354E+02
 -1        86 1.17413E+02
 -1        88 1.17413E+02
 -1        89 1.08927E+02
 -1        91 1.08927E+02
 -1        92 9.78468E+01
 -1        94 9.78468E+01
 -1        95 9.60672E+01
 -1        97 9.60672E+01
 -1        98 1.01413E+02
 -1       100 1.01413E+02
 -1       101 1.30643E+02
 -1       103 1.30643E+02
 -1       104 1.41763E+02
 -1       106 1.41763E+02
 -1       107 1.41763E+02
 -1       109 1.41763E+02
 -1       110 1.23354E+02
 -1       112 1.23354E+02
 -1       113 1.08486E+02
 -1       115 1.08486E+02
 -1       116 1.13567E+02
 -1       118 1.13567E+02
 -1       119 8.96382E+01
 -1       121 8.96382E+01
 -1       122 8.37351E+01
 -1       124 8.37351E+01
 -1       125 8.31953E+01
 -1       127 8.31953E+01
 -1       128 8.96382E+01
 -1       130 8.96382E+01
 -1       131 8.37351E+01
 -1       133 8.37351E+01
 -1       134 8.31953E+01
 -1       136 8.31953E+01
 -1       137 9.78468E+01
 -1       139 9.78468E+01
 -1       140 9.60672E+01
 -1       142 9.60672E+01
 -1       143 1.01413E+02
 -1       145 1.01413E+02
 -1       146 1.23354E+02
 -1       148 1.23354E+02
 -1       149 1.17413E+02
 -1       151 1.17413E+02
 -1       152 1.08927E+02
 -1       154 1.08927E+02
 -1       155 1.13567E+02
 -1       157 1.13567E+02
 -1       158 1.08486E+02
 -1       160 1.08486E+02
 -1       161 1.23354E+02
 -1       163 1.23354E+02
 -1       164 1.08927E+02
 -1       166 1.08927E+02
 -1       167 1.03910E+02
 -1       169 1.03910E+02
 -1       170 1.30643E+02
 -1       172 1.30643E+02
 -1       173 1.17413E+02
 -1       175 1.17413E+02
 -1       176 1.18049E+02
 -1       178 1.18049E+02
 -1       179 1.41763E+02
 -1       181 1.41763E+02
 -1       182 1.23354E+02
 -1       184 1.23354E+02
 -1       185 1.18049E+02
 -1       187 1.18049E+02
 -1       188 1.41763E+02
 -1       190 1.41763E+02
 -1       191 8.88353E+01
 -1       193 8.88353E+01
 -1       194 1.02048E+02
 -1       196 1.02048E+02
 -1       197 1.02048E+02
 -1       199 1.02048E+02
 -1       200 1.02048E+02
 -1       202 1.02048E+02
 -1       203 1.02048E+02
 -1       205 1.02048E+02
 -1       206 1.02048E+02
 -1       208 1.02048E+02
 -1       209 1.02048E+02
 -1       211 1.02048E+02
 -1       212 1.02048E+02
 -1       214 1.02048E+02
 -1       215 1.01413E+02
 -1       217 1.01413E+02
 -1       218 1.30643E+02
 -1       220 1.30643E+02
 -1       221 1.03910E+02
 -1       223 1.03910E+02
 -1       224 1.08927E+02
 -1       226 1.08927E+02
 -1       227 1.41763E+02
 -1       229 1.41763E+02
 -1       230 1.18049E+02
 -1       232 1.18049E+02
 -1       233 1.17413E+02
 -1       235 1.17413E+02
 -1       236 1.41763E+02
 -1       238 1.41763E+02
 -1       239 1.18049E+02
 -1       241 1.18049E+02
 -1       242 1.23354E+02
 -1       244 1.23354E+02
 -3
 9999
