    1C
    1UHash: PXJD0WWr, Date: 03/11/2021, Unit system: MM_TON_S_C         
    1UUSER                                                              
    1UDATE              13.march.2021                                   
    1UTIME              18:34:51                                        
    1UHOST                                                              
    1UPGM               CalculiX                                        
    1UVERSION           Version 2.17                             
    1UCOMPILETIME       Thu Jul 23 21:43:50 CEST 2020                    
    1UDIR                                                               
    1UDBN                                                               
    1UMAT    1RUBBER                                                    
    2C                            50                                     1
 -1       175 4.80000E+01 4.40000E+01 0.00000E+00
 -1       176 4.80000E+01 4.40000E+01 5.00000E+00
 -1       177 0.00000E+00 0.00000E+00 0.00000E+00
 -1       178 0.00000E+00 0.00000E+00 5.00000E+00
 -1       179 4.80000E+01 6.00000E+01 0.00000E+00
 -1       180 4.80000E+01 6.00000E+01 5.00000E+00
 -1       181 0.00000E+00 4.40000E+01 0.00000E+00
 -1       182 0.00000E+00 4.40000E+01 5.00000E+00
 -1       183 3.60000E+01 3.30000E+01 0.00000E+00
 -1       184 2.40000E+01 2.20000E+01 0.00000E+00
 -1       185 1.20000E+01 1.10000E+01 0.00000E+00
 -1       186 3.60000E+01 3.30000E+01 5.00000E+00
 -1       187 2.40000E+01 2.20000E+01 5.00000E+00
 -1       188 1.20000E+01 1.10000E+01 5.00000E+00
 -1       189 4.80000E+01 5.60000E+01 0.00000E+00
 -1       190 4.80000E+01 5.20000E+01 0.00000E+00
 -1       191 4.80000E+01 4.80000E+01 0.00000E+00
 -1       192 4.80000E+01 5.60000E+01 5.00000E+00
 -1       193 4.80000E+01 5.20000E+01 5.00000E+00
 -1       194 4.80000E+01 4.80000E+01 5.00000E+00
 -1       195 1.20000E+01 4.80000E+01 0.00000E+00
 -1       196 2.40000E+01 5.20000E+01 0.00000E+00
 -1       197 3.60000E+01 5.60000E+01 0.00000E+00
 -1       198 1.20000E+01 4.80000E+01 5.00000E+00
 -1       199 2.40000E+01 5.20000E+01 5.00000E+00
 -1       200 3.60000E+01 5.60000E+01 5.00000E+00
 -1       201 0.00000E+00 1.10000E+01 0.00000E+00
 -1       202 0.00000E+00 2.20000E+01 0.00000E+00
 -1       203 0.00000E+00 3.30000E+01 0.00000E+00
 -1       204 0.00000E+00 1.10000E+01 5.00000E+00
 -1       205 0.00000E+00 2.20000E+01 5.00000E+00
 -1       206 0.00000E+00 3.30000E+01 5.00000E+00
 -1       207 3.60000E+01 3.87500E+01 0.00000E+00
 -1       208 3.60000E+01 4.45000E+01 0.00000E+00
 -1       209 3.60000E+01 5.02500E+01 0.00000E+00
 -1       210 2.40000E+01 2.95000E+01 0.00000E+00
 -1       211 2.40000E+01 3.70000E+01 0.00000E+00
 -1       212 2.40000E+01 4.45000E+01 0.00000E+00
 -1       213 1.20000E+01 2.02500E+01 0.00000E+00
 -1       214 1.20000E+01 2.95000E+01 0.00000E+00
 -1       215 1.20000E+01 3.87500E+01 0.00000E+00
 -1       216 1.20000E+01 2.02500E+01 5.00000E+00
 -1       217 1.20000E+01 2.95000E+01 5.00000E+00
 -1       218 1.20000E+01 3.87500E+01 5.00000E+00
 -1       219 2.40000E+01 2.95000E+01 5.00000E+00
 -1       220 2.40000E+01 3.70000E+01 5.00000E+00
 -1       221 2.40000E+01 4.45000E+01 5.00000E+00
 -1       222 3.60000E+01 3.87500E+01 5.00000E+00
 -1       223 3.60000E+01 4.45000E+01 5.00000E+00
 -1       224 3.60000E+01 5.02500E+01 5.00000E+00
 -3
    3C                            16                                     1
 -1       363    1    0    1
 -2       176       175       183       186       194       191       207       222
 -1       364    1    0    1
 -2       194       191       207       222       193       190       208       223
 -1       365    1    0    1
 -2       193       190       208       223       192       189       209       224
 -1       366    1    0    1
 -2       192       189       209       224       180       179       197       200
 -1       367    1    0    1
 -2       186       183       184       187       222       207       210       219
 -1       368    1    0    1
 -2       222       207       210       219       223       208       211       220
 -1       369    1    0    1
 -2       223       208       211       220       224       209       212       221
 -1       370    1    0    1
 -2       224       209       212       221       200       197       196       199
 -1       371    1    0    1
 -2       187       184       185       188       219       210       213       216
 -1       372    1    0    1
 -2       219       210       213       216       220       211       214       217
 -1       373    1    0    1
 -2       220       211       214       217       221       212       215       218
 -1       374    1    0    1
 -2       221       212       215       218       199       196       195       198
 -1       375    1    0    1
 -2       188       185       177       178       216       213       201       204
 -1       376    1    0    1
 -2       216       213       201       204       217       214       202       205
 -1       377    1    0    1
 -2       217       214       202       205       218       215       203       206
 -1       378    1    0    1
 -2       218       215       203       206       198       195       181       182
 -3
    1PSTEP                         1           1           1          
  100CL  101 1.000000000          50                     0    1           1
 -4  DISP        4    1
 -5  D1          1    2    1    0
 -5  D2          1    2    2    0
 -5  D3          1    2    3    0
 -5  ALL         1    2    0    0    1ALL
 -1       175-2.68393E-02 7.43878E+00 0.00000E+00
 -1       176-2.68393E-02 7.43878E+00 0.00000E+00
 -1       177 0.00000E+00 0.00000E+00 0.00000E+00
 -1       178 0.00000E+00 0.00000E+00 0.00000E+00
 -1       179-7.00312E-02 7.43903E+00 0.00000E+00
 -1       180-7.00312E-02 7.43903E+00 0.00000E+00
 -1       181 0.00000E+00 0.00000E+00 0.00000E+00
 -1       182 0.00000E+00 0.00000E+00 0.00000E+00
 -1       183-1.26343E-02 4.76967E+00 0.00000E+00
 -1       184-3.54077E-03 2.80987E+00 0.00000E+00
 -1       185-1.95440E-05 1.26732E+00 0.00000E+00
 -1       186-1.26343E-02 4.76967E+00 0.00000E+00
 -1       187-3.54077E-03 2.80987E+00 0.00000E+00
 -1       188-1.95440E-05 1.26732E+00 0.00000E+00
 -1       189-5.22144E-02 7.43960E+00 0.00000E+00
 -1       190-4.02543E-02 7.43974E+00 0.00000E+00
 -1       191-3.21302E-02 7.43968E+00 0.00000E+00
 -1       192-5.22144E-02 7.43960E+00 0.00000E+00
 -1       193-4.02543E-02 7.43974E+00 0.00000E+00
 -1       194-3.21302E-02 7.43968E+00 0.00000E+00
 -1       195-9.40787E-03 1.28263E+00 0.00000E+00
 -1       196-2.83936E-02 2.82711E+00 0.00000E+00
 -1       197-5.00794E-02 4.78087E+00 0.00000E+00
 -1       198-9.40787E-03 1.28263E+00 0.00000E+00
 -1       199-2.83936E-02 2.82711E+00 0.00000E+00
 -1       200-5.00794E-02 4.78087E+00 0.00000E+00
 -1       201 0.00000E+00 0.00000E+00 0.00000E+00
 -1       202 0.00000E+00 0.00000E+00 0.00000E+00
 -1       203 0.00000E+00 0.00000E+00 0.00000E+00
 -1       204 0.00000E+00 0.00000E+00 0.00000E+00
 -1       205 0.00000E+00 0.00000E+00 0.00000E+00
 -1       206 0.00000E+00 0.00000E+00 0.00000E+00
 -1       207-1.73173E-02 4.77207E+00 0.00000E+00
 -1       208-2.32624E-02 4.77505E+00 0.00000E+00
 -1       209-3.24691E-02 4.77838E+00 0.00000E+00
 -1       210-6.72622E-03 2.81191E+00 0.00000E+00
 -1       211-1.00518E-02 2.81565E+00 0.00000E+00
 -1       212-1.54967E-02 2.82088E+00 0.00000E+00
 -1       213-1.31530E-03 1.26815E+00 0.00000E+00
 -1       214-2.30403E-03 1.27084E+00 0.00000E+00
 -1       215-3.62036E-03 1.27538E+00 0.00000E+00
 -1       216-1.31530E-03 1.26815E+00 0.00000E+00
 -1       217-2.30403E-03 1.27084E+00 0.00000E+00
 -1       218-3.62036E-03 1.27538E+00 0.00000E+00
 -1       219-6.72622E-03 2.81191E+00 0.00000E+00
 -1       220-1.00518E-02 2.81565E+00 0.00000E+00
 -1       221-1.54967E-02 2.82088E+00 0.00000E+00
 -1       222-1.73173E-02 4.77207E+00 0.00000E+00
 -1       223-2.32624E-02 4.77505E+00 0.00000E+00
 -1       224-3.24691E-02 4.77838E+00 0.00000E+00
 -3
    1PSTEP                         2           1           1          
  100CL  101 1.000000000          50                     0    1           1
 -4  STRESS      6    1
 -5  SXX         1    4    1    1
 -5  SYY         1    4    2    2
 -5  SZZ         1    4    3    3
 -5  SXY         1    4    1    2
 -5  SYZ         1    4    2    3
 -5  SZX         1    4    3    1
 -1       175 2.72011E+01 2.72124E+01 2.72013E+01 5.15498E+00 1.71687E-11-4.78634E-12
 -1       176 2.72011E+01 2.72124E+01 2.72013E+01 5.15498E+00 1.71692E-11-4.78635E-12
 -1       177-8.62898E-01-8.62775E-01-8.62664E-01 2.46443E+00 3.16175E-16 3.15600E-18
 -1       178-8.62898E-01-8.62775E-01-8.62664E-01 2.46443E+00-3.94997E-16 3.15600E-18
 -1       179-3.62960E+01-3.62908E+01-3.62861E+01 5.06796E+00 2.19064E-11-8.38514E-13
 -1       180-3.62960E+01-3.62908E+01-3.62861E+01 5.06796E+00 2.19061E-11-8.38506E-13
 -1       181-9.45454E+01-9.45096E+01-9.45086E+01 2.49463E+00 5.83942E-17-1.60704E-19
 -1       182-9.45454E+01-9.45096E+01-9.45086E+01 2.49463E+00 5.83942E-17-1.60704E-19
 -1       183 2.02541E+01 2.02850E+01 2.02655E+01 4.47302E+00-2.67547E-12-2.35959E-12
 -1       184 1.35631E+01 1.35823E+01 1.35700E+01 3.38989E+00-9.74675E-13-8.18569E-13
 -1       185 7.07358E+00 7.07877E+00 7.07476E+00 2.72694E+00-3.76169E-13-1.42542E-13
 -1       186 2.02541E+01 2.02850E+01 2.02655E+01 4.47302E+00-2.67596E-12-2.35960E-12
 -1       187 1.35631E+01 1.35823E+01 1.35700E+01 3.38989E+00-9.79332E-13-8.18573E-13
 -1       188 7.07358E+00 7.07877E+00 7.07476E+00 2.72694E+00-3.73253E-13-1.42541E-13
 -1       189 5.24899E+00 5.24263E+00 5.24476E+00 5.09070E+00 2.17646E-11-8.11204E-13
 -1       190 1.51572E+01 1.51539E+01 1.51525E+01 5.12445E+00 2.03599E-11-2.65746E-12
 -1       191 1.88039E+01 1.88099E+01 1.88031E+01 5.14669E+00 1.83261E-11-4.49881E-12
 -1       192 5.24899E+00 5.24263E+00 5.24476E+00 5.09070E+00 2.17651E-11-8.11260E-13
 -1       193 1.51572E+01 1.51539E+01 1.51525E+01 5.12445E+00 2.03599E-11-2.65741E-12
 -1       194 1.88039E+01 1.88099E+01 1.88031E+01 5.14669E+00 1.83251E-11-4.49878E-12
 -1       195-2.47777E+01-2.46958E+01-2.47318E+01 2.72868E+00 4.04069E-13-7.86192E-14
 -1       196-3.50800E+01-3.49879E+01-3.50270E+01 3.35561E+00 7.94893E-13-2.92372E-13
 -1       197-3.26813E+01-3.26256E+01-3.26469E+01 4.41051E+00 8.19487E-13-5.65954E-13
 -1       198-2.47777E+01-2.46958E+01-2.47318E+01 2.72868E+00 4.04499E-13-7.86198E-14
 -1       199-3.50800E+01-3.49879E+01-3.50270E+01 3.35561E+00 7.94257E-13-2.92372E-13
 -1       200-3.26813E+01-3.26256E+01-3.26469E+01 4.41051E+00 8.19786E-13-5.65955E-13
 -1       201-1.36705E+01-1.36655E+01-1.36652E+01 2.46608E+00 1.05082E-16 2.63280E-18
 -1       202-2.38480E+01-2.38395E+01-2.38390E+01 2.47138E+00 7.65712E-18 1.45242E-18
 -1       203-3.77352E+01-3.77217E+01-3.77209E+01 2.48039E+00 1.28126E-17 6.13386E-19
 -1       204-1.36705E+01-1.36655E+01-1.36652E+01 2.46608E+00 1.80225E-16 2.63280E-18
 -1       205-2.38480E+01-2.38395E+01-2.38390E+01 2.47138E+00 8.28002E-17 1.45242E-18
 -1       206-3.77352E+01-3.77217E+01-3.77209E+01 2.48039E+00 1.28126E-17 6.13386E-19
 -1       207 1.21746E+01 1.22140E+01 1.21919E+01 4.46997E+00-1.53817E-12-2.16088E-12
 -1       208 1.15325E+01 1.15805E+01 1.15542E+01 4.45791E+00-1.28554E-13-1.23315E-12
 -1       209 9.87058E+00 9.91583E+00 9.89123E+00 4.43168E+00 7.53681E-13-3.49889E-13
 -1       210 4.18053E+00 4.21432E+00 4.19658E+00 3.39007E+00-3.77841E-13-8.34761E-13
 -1       211 8.52162E+00 8.57377E+00 8.54599E+00 3.38517E+00 3.03673E-13-4.66104E-13
 -1       212 1.53700E+01 1.54354E+01 1.53996E+01 3.36956E+00 7.50981E-13-6.11168E-14
 -1       213-6.90810E-01-6.73319E-01-6.81928E-01 2.72783E+00-1.31392E-13-2.11622E-13
 -1       214 4.01376E+00 4.04773E+00 4.02993E+00 2.72926E+00 2.10488E-13-1.01418E-13
 -1       215 1.80062E+01 1.80574E+01 1.80282E+01 2.72709E+00 3.76358E-13 1.40535E-14
 -1       216-6.90810E-01-6.73319E-01-6.81928E-01 2.72783E+00-1.31040E-13-2.11623E-13
 -1       217 4.01376E+00 4.04773E+00 4.02993E+00 2.72926E+00 2.10312E-13-1.01417E-13
 -1       218 1.80062E+01 1.80574E+01 1.80282E+01 2.72709E+00 3.75734E-13 1.40542E-14
 -1       219 4.18053E+00 4.21432E+00 4.19658E+00 3.39007E+00-3.77411E-13-8.34759E-13
 -1       220 8.52162E+00 8.57377E+00 8.54599E+00 3.38517E+00 3.06058E-13-4.66115E-13
 -1       221 1.53700E+01 1.54354E+01 1.53996E+01 3.36956E+00 7.51009E-13-6.11204E-14
 -1       222 1.21746E+01 1.22140E+01 1.21919E+01 4.46997E+00-1.53622E-12-2.16087E-12
 -1       223 1.15325E+01 1.15805E+01 1.15542E+01 4.45791E+00-1.28835E-13-1.23317E-12
 -1       224 9.87058E+00 9.91583E+00 9.89123E+00 4.43168E+00 7.53123E-13-3.49865E-13
 -3
    1PSTEP                         3           1           1          
  100CL  101 1.000000000          50                     0    1           1
 -4  TOSTRAIN    6    1
 -5  EXX         1    4    1    1
 -5  EYY         1    4    2    2
 -5  EZZ         1    4    3    3
 -5  EXY         1    4    1    2
 -5  EYZ         1    4    2    3
 -5  EZX         1    4    3    1
 -1       175-4.48273E-06 2.37668E-04 0.00000E+00 1.10456E-01 3.67876E-13-1.02558E-13
 -1       176-4.48273E-06 2.37668E-04 0.00000E+00 1.10456E-01 3.67888E-13-1.02558E-13
 -1       177-5.01638E-06-2.37887E-06 0.00000E+00 5.28058E-02 6.77472E-18 6.76240E-20
 -1       178-5.01638E-06-2.37887E-06 0.00000E+00 5.28058E-02-8.46365E-18 6.76240E-20
 -1       179-2.10993E-04-1.00072E-04 0.00000E+00 1.08592E-01 4.69391E-13-1.79670E-14
 -1       180-2.10993E-04-1.00072E-04 0.00000E+00 1.08592E-01 4.69385E-13-1.79668E-14
 -1       181-7.89472E-04-2.07094E-05 0.00000E+00 5.34527E-02 1.25122E-18-3.44343E-21
 -1       182-7.89472E-04-2.07094E-05 0.00000E+00 5.34527E-02 1.25122E-18-3.44343E-21
 -1       183-2.44699E-04 4.18426E-04 0.00000E+00 9.58439E-02-5.73277E-14-5.05592E-14
 -1       184-1.48174E-04 2.64504E-04 0.00000E+00 7.26356E-02-2.08845E-14-1.75396E-14
 -1       185-2.52190E-05 8.58679E-05 0.00000E+00 5.84306E-02-8.06023E-15-3.05427E-15
 -1       186-2.44699E-04 4.18426E-04 0.00000E+00 9.58439E-02-5.73381E-14-5.05594E-14
 -1       187-1.48174E-04 2.64504E-04 0.00000E+00 7.26356E-02-2.09843E-14-1.75397E-14
 -1       188-2.52190E-05 8.58679E-05 0.00000E+00 5.84306E-02-7.99775E-15-3.05426E-15
 -1       189 9.05668E-05-4.56057E-05 0.00000E+00 1.09079E-01 4.66353E-13-1.73818E-14
 -1       190 9.99165E-05 2.99797E-05 0.00000E+00 1.09802E-01 4.36255E-13-5.69418E-14
 -1       191 1.68079E-05 1.44383E-04 0.00000E+00 1.10279E-01 3.92676E-13-9.63967E-14
 -1       192 9.05668E-05-4.56057E-05 0.00000E+00 1.09079E-01 4.66365E-13-1.73830E-14
 -1       193 9.99165E-05 2.99797E-05 0.00000E+00 1.09802E-01 4.36255E-13-5.69408E-14
 -1       194 1.68079E-05 1.44383E-04 0.00000E+00 1.10279E-01 3.92654E-13-9.63961E-14
 -1       195-9.83459E-04 7.71445E-04 0.00000E+00 5.84678E-02 8.65803E-15-1.68459E-15
 -1       196-1.13706E-03 8.36792E-04 0.00000E+00 7.19012E-02 1.70323E-14-6.26470E-15
 -1       197-7.36725E-04 4.56857E-04 0.00000E+00 9.45046E-02 1.75593E-14-1.21268E-14
 -1       198-9.83459E-04 7.71445E-04 0.00000E+00 5.84678E-02 8.66726E-15-1.68460E-15
 -1       199-1.13706E-03 8.36792E-04 0.00000E+00 7.19012E-02 1.70187E-14-6.26470E-15
 -1       200-7.36725E-04 4.56857E-04 0.00000E+00 9.45046E-02 1.75657E-14-1.21268E-14
 -1       201-1.12117E-04-5.02907E-06 0.00000E+00 5.28411E-02 2.25160E-18 5.64135E-20
 -1       202-1.94050E-04-1.03114E-05 0.00000E+00 5.29545E-02 1.64070E-19 3.11212E-20
 -1       203-3.06539E-04-1.68264E-05 0.00000E+00 5.31477E-02 2.74537E-19 1.31431E-20
 -1       204-1.12117E-04-5.02907E-06 0.00000E+00 5.28411E-02 3.86170E-18 5.64135E-20
 -1       205-1.94050E-04-1.03114E-05 0.00000E+00 5.29545E-02 1.77417E-18 3.11212E-20
 -1       206-3.06539E-04-1.68264E-05 0.00000E+00 5.31477E-02 2.74537E-19 1.31431E-20
 -1       207-3.69954E-04 4.74470E-04 0.00000E+00 9.57786E-02-3.29586E-14-4.63014E-14
 -1       208-4.64932E-04 5.63981E-04 0.00000E+00 9.55202E-02-2.75455E-15-2.64230E-14
 -1       209-4.42360E-04 5.27153E-04 0.00000E+00 9.49583E-02 1.61492E-14-7.49713E-15
 -1       210-3.44023E-04 3.79999E-04 0.00000E+00 7.26395E-02-8.09606E-15-1.78865E-14
 -1       211-5.22162E-04 5.95423E-04 0.00000E+00 7.25345E-02 6.50684E-15-9.98728E-15
 -1       212-6.34057E-04 7.66072E-04 0.00000E+00 7.22001E-02 1.60914E-14-1.30956E-15
 -1       213-1.90306E-04 1.84460E-04 0.00000E+00 5.84496E-02-2.81536E-15-4.53446E-15
 -1       214-3.46662E-04 3.81209E-04 0.00000E+00 5.84803E-02 4.51015E-15-2.17311E-15
 -1       215-4.70857E-04 6.25405E-04 0.00000E+00 5.84338E-02 8.06427E-15 3.01126E-16
 -1       216-1.90306E-04 1.84460E-04 0.00000E+00 5.84496E-02-2.80782E-15-4.53447E-15
 -1       217-3.46662E-04 3.81209E-04 0.00000E+00 5.84803E-02 4.50638E-15-2.17308E-15
 -1       218-4.70857E-04 6.25405E-04 0.00000E+00 5.84338E-02 8.05091E-15 3.01141E-16
 -1       219-3.44023E-04 3.79999E-04 0.00000E+00 7.26395E-02-8.08685E-15-1.78865E-14
 -1       220-5.22162E-04 5.95423E-04 0.00000E+00 7.25345E-02 6.55795E-15-9.98751E-15
 -1       221-6.34057E-04 7.66072E-04 0.00000E+00 7.22001E-02 1.60920E-14-1.30963E-15
 -1       222-3.69954E-04 4.74470E-04 0.00000E+00 9.57786E-02-3.29168E-14-4.63013E-14
 -1       223-4.64932E-04 5.63981E-04 0.00000E+00 9.55202E-02-2.76056E-15-2.64233E-14
 -1       224-4.42360E-04 5.27153E-04 0.00000E+00 9.49583E-02 1.61373E-14-7.49662E-15
 -3
    1PSTEP                         4           1           1          
  100CL  101 1.000000000          50                     0    1           1
 -4  FORC        4    1
 -5  F1          1    2    1    0
 -5  F2          1    2    2    0
 -5  F3          1    2    3    0
 -5  ALL         1    2    0    0    1ALL
 -1       175 4.38088E-10 3.12500E+01-1.08788E+02
 -1       176 4.35203E-10 3.12500E+01 1.08788E+02
 -1       177-1.10006E+02-1.39608E+01-9.12978E+01
 -1       178-1.10006E+02-1.39608E+01 9.12978E+01
 -1       179-1.40528E-11 3.12500E+01 1.26718E+02
 -1       180 1.00220E-10 3.12500E+01-1.26718E+02
 -1       181 4.17159E+02-4.41339E+02 1.16753E+03
 -1       182 4.17159E+02-4.41339E+02-1.16753E+03
 -1       183-8.47820E-11-1.22437E-10-2.73559E+02
 -1       184-2.18379E-11-4.92980E-11-3.07029E+02
 -1       185 6.95194E-11-7.18395E-11-2.94626E+02
 -1       186-2.61574E-10-1.85803E-11 2.73559E+02
 -1       187-1.56362E-10 2.72424E-10 3.07029E+02
 -1       188 9.56435E-11-3.13268E-11 2.94626E+02
 -1       189-5.23615E-10 6.25000E+01-6.33012E+01
 -1       190 1.48295E-10 6.25000E+01-1.21199E+02
 -1       191 2.98592E-10 6.25000E+01-1.49857E+02
 -1       192 2.08143E-10 6.25000E+01 6.33012E+01
 -1       193-4.60529E-10 6.25000E+01 1.21199E+02
 -1       194-1.61805E-09 6.25000E+01 1.49857E+02
 -1       195 2.07810E-11-2.16129E-10 6.26049E+02
 -1       196 1.19764E-10-1.49869E-10 5.91778E+02
 -1       197 2.90080E-10-5.26329E-10 3.82806E+02
 -1       198 4.82221E-11-1.35863E-10-6.26049E+02
 -1       199 7.11161E-11-7.06873E-11-5.91778E+02
 -1       200 1.46872E-10-6.78595E-10-3.82806E+02
 -1       201-1.35641E+02 1.48186E+01 1.49753E+02
 -1       202-7.24504E+01-8.44235E+00 4.23866E+02
 -1       203-9.90616E+01 1.98923E+02 9.05075E+02
 -1       204-1.35641E+02 1.48186E+01-1.49753E+02
 -1       205-7.24504E+01-8.44235E+00-4.23866E+02
 -1       206-9.90616E+01 1.98923E+02-9.05075E+02
 -1       207-1.28211E-09 7.61549E-10-3.41428E+02
 -1       208 6.04216E-10-1.31695E-09-2.98418E+02
 -1       209 1.65087E-10 5.65243E-10-2.37962E+02
 -1       210 1.57780E-10 2.20386E-10-2.96054E+02
 -1       211-3.62494E-10 1.91632E-10-3.30455E+02
 -1       212-4.44945E-10 1.55792E-10-4.09066E+02
 -1       213-4.10328E-11 2.39016E-10-2.34224E+02
 -1       214 5.28531E-11-9.79890E-11-2.91084E+02
 -1       215 1.29342E-10-9.53863E-11-5.49793E+02
 -1       216-2.46415E-11 2.08361E-11 2.34224E+02
 -1       217 1.39083E-10-1.62586E-10 2.91084E+02
 -1       218-1.14178E-10 1.58713E-10 5.49793E+02
 -1       219 1.21089E-10 2.16060E-10 2.96054E+02
 -1       220-1.89269E-10-4.61308E-10 3.30455E+02
 -1       221-3.01198E-10 4.56284E-10 4.09066E+02
 -1       222-4.66735E-10 4.00146E-10 3.41428E+02
 -1       223 9.04579E-10-9.64084E-10 2.98418E+02
 -1       224-2.54108E-10 1.88071E-09 2.37962E+02
 -3
    1PSTEP                         5           1           1          
  100CL  101 1.000000000          50                     0    1           1
 -4  ERROR       1    1
 -5  STR(%)      1    1    0    0
 -1       175 1.14029E+02
 -1       176 1.14029E+02
 -1       177 9.21833E+01
 -1       178 9.21833E+01
 -1       179 1.18729E+02
 -1       180 1.18729E+02
 -1       181 1.40093E+02
 -1       182 1.40093E+02
 -1       183 1.21011E+02
 -1       184 1.21011E+02
 -1       185 1.18644E+02
 -1       186 1.21011E+02
 -1       187 1.21011E+02
 -1       188 1.18644E+02
 -1       189 1.23225E+02
 -1       190 1.23225E+02
 -1       191 1.20012E+02
 -1       192 1.23225E+02
 -1       193 1.23225E+02
 -1       194 1.20012E+02
 -1       195 1.48435E+02
 -1       196 1.48435E+02
 -1       197 1.42273E+02
 -1       198 1.48435E+02
 -1       199 1.48435E+02
 -1       200 1.42273E+02
 -1       201 1.19451E+02
 -1       202 1.31171E+02
 -1       203 1.40093E+02
 -1       204 1.19451E+02
 -1       205 1.31171E+02
 -1       206 1.40093E+02
 -1       207 1.28375E+02
 -1       208 1.33213E+02
 -1       209 1.42273E+02
 -1       210 1.28375E+02
 -1       211 1.45154E+02
 -1       212 1.48435E+02
 -1       213 1.25526E+02
 -1       214 1.45154E+02
 -1       215 1.48435E+02
 -1       216 1.25526E+02
 -1       217 1.45154E+02
 -1       218 1.48435E+02
 -1       219 1.28375E+02
 -1       220 1.45154E+02
 -1       221 1.48435E+02
 -1       222 1.28375E+02
 -1       223 1.33213E+02
 -1       224 1.42273E+02
 -3
 9999
