    1C
    1UUSER                                                              
    1UDATE              26.march.2021                                   
    1UTIME              22:13:21                                        
    1UHOST                                                              
    1UPGM               CalculiX                                        
    1UVERSION           Version 2.17                             
    1UCOMPILETIME       Thu Jul 23 21:43:50 CEST 2020                    
    1UDIR                                                               
    1UDBN                                                               
    1UMAT    1MAT                                                       
    2C                           399                                     1
 -1       170 9.98080E+00-4.52017E-06-4.52017E-06
 -1       171 1.00008E+01 1.88340E-07 1.88340E-07
 -1       172 1.00208E+01 4.89685E-06 4.89685E-06
 -1       173 7.05749E+00-2.17936E-06 7.05749E+00
 -1       174 7.07163E+00 9.08069E-08 7.07163E+00
 -1       175 7.08578E+00 2.36098E-06 7.08578E+00
 -1       176 5.76242E+00 5.76242E+00 5.76242E+00
 -1       177 5.77396E+00 5.77396E+00 5.77396E+00
 -1       178 5.78551E+00 5.78551E+00 5.78551E+00
 -1       179 7.05749E+00 7.05749E+00-2.17936E-06
 -1       180 7.07163E+00 7.07163E+00 9.08069E-08
 -1       181 7.08578E+00 7.08578E+00 2.36098E-06
 -1       182-4.52017E-06-4.52017E-06 9.98080E+00
 -1       183 1.88340E-07 1.88340E-07 1.00008E+01
 -1       184 4.89685E-06 4.89685E-06 1.00208E+01
 -1       185-2.17936E-06 7.05749E+00 7.05749E+00
 -1       186 9.08069E-08 7.07163E+00 7.07163E+00
 -1       187 2.36098E-06 7.08578E+00 7.08578E+00
 -1       188-4.52017E-06 9.98080E+00-4.52017E-06
 -1       189 1.88340E-07 1.00008E+01 1.88340E-07
 -1       190 4.89685E-06 1.00208E+01 4.89685E-06
 -1       191 9.78902E+00-4.59584E-06 1.94716E+00
 -1       192 9.80864E+00 1.91493E-07 1.95106E+00
 -1       193 9.82825E+00 4.97882E-06 1.95496E+00
 -1       194 9.22106E+00-4.14339E-06 3.81949E+00
 -1       195 9.23953E+00 1.72641E-07 3.82714E+00
 -1       196 9.25801E+00 4.48868E-06 3.83479E+00
 -1       197 8.29873E+00-3.26393E-06 5.54504E+00
 -1       198 8.31536E+00 1.35997E-07 5.55615E+00
 -1       199 8.33199E+00 3.53593E-06 5.56726E+00
 -1       200 6.97411E+00 1.52969E+00 6.97411E+00
 -1       201 6.98808E+00 1.53276E+00 6.98808E+00
 -1       202 7.00206E+00 1.53582E+00 7.00206E+00
 -1       203 6.72593E+00 3.02324E+00 6.72593E+00
 -1       204 6.73941E+00 3.02930E+00 6.73941E+00
 -1       205 6.75289E+00 3.03535E+00 6.75289E+00
 -1       206 6.31883E+00 4.44535E+00 6.31883E+00
 -1       207 6.33149E+00 4.45426E+00 6.33149E+00
 -1       208 6.34415E+00 4.46316E+00 6.34415E+00
 -1       209 6.31883E+00 6.31883E+00 4.44535E+00
 -1       210 6.33149E+00 6.33149E+00 4.45426E+00
 -1       211 6.34415E+00 6.34415E+00 4.46316E+00
 -1       212 6.72593E+00 6.72593E+00 3.02324E+00
 -1       213 6.73941E+00 6.73941E+00 3.02930E+00
 -1       214 6.75289E+00 6.75289E+00 3.03535E+00
 -1       215 6.97411E+00 6.97411E+00 1.52969E+00
 -1       216 6.98808E+00 6.98808E+00 1.53276E+00
 -1       217 7.00206E+00 7.00206E+00 1.53582E+00
 -1       218 9.78902E+00 1.94716E+00-4.32643E-06
 -1       219 9.80864E+00 1.95106E+00 1.80268E-07
 -1       220 9.82825E+00 1.95496E+00 4.68697E-06
 -1       221 9.22106E+00 3.81949E+00-3.78653E-06
 -1       222 9.23953E+00 3.82714E+00 1.57772E-07
 -1       223 9.25801E+00 3.83479E+00 4.10208E-06
 -1       224 8.29873E+00 5.54504E+00-3.01682E-06
 -1       225 8.31536E+00 5.55615E+00 1.25701E-07
 -1       226 8.33199E+00 5.56726E+00 3.26822E-06
 -1       227 5.54504E+00-3.00880E-06 8.29873E+00
 -1       228 5.55615E+00 1.25367E-07 8.31536E+00
 -1       229 5.56726E+00 3.25953E-06 8.33199E+00
 -1       230 3.81949E+00-3.75757E-06 9.22106E+00
 -1       231 3.82714E+00 1.56565E-07 9.23953E+00
 -1       232 3.83479E+00 4.07070E-06 9.25801E+00
 -1       233 1.94716E+00-4.29269E-06 9.78902E+00
 -1       234 1.95106E+00 1.78862E-07 9.80864E+00
 -1       235 1.95496E+00 4.65041E-06 9.82825E+00
 -1       236-3.00880E-06 5.54504E+00 8.29873E+00
 -1       237 1.25367E-07 5.55615E+00 8.31536E+00
 -1       238 3.25953E-06 5.56726E+00 8.33199E+00
 -1       239-3.75757E-06 3.81949E+00 9.22106E+00
 -1       240 1.56565E-07 3.82714E+00 9.23953E+00
 -1       241 4.07070E-06 3.83479E+00 9.25801E+00
 -1       242-4.29269E-06 1.94716E+00 9.78902E+00
 -1       243 1.78862E-07 1.95106E+00 9.80864E+00
 -1       244 4.65041E-06 1.95496E+00 9.82825E+00
 -1       245 1.52969E+00 6.97411E+00 6.97411E+00
 -1       246 1.53276E+00 6.98808E+00 6.98808E+00
 -1       247 1.53582E+00 7.00206E+00 7.00206E+00
 -1       248 3.02324E+00 6.72593E+00 6.72593E+00
 -1       249 3.02930E+00 6.73941E+00 6.73941E+00
 -1       250 3.03535E+00 6.75289E+00 6.75289E+00
 -1       251 4.44535E+00 6.31883E+00 6.31883E+00
 -1       252 4.45426E+00 6.33149E+00 6.33149E+00
 -1       253 4.46316E+00 6.34415E+00 6.34415E+00
 -1       254-4.59584E-06 9.78902E+00 1.94716E+00
 -1       255 1.91493E-07 9.80864E+00 1.95106E+00
 -1       256 4.97882E-06 9.82825E+00 1.95496E+00
 -1       257-4.14339E-06 9.22106E+00 3.81949E+00
 -1       258 1.72641E-07 9.23953E+00 3.82714E+00
 -1       259 4.48868E-06 9.25801E+00 3.83479E+00
 -1       260-3.26393E-06 8.29873E+00 5.54504E+00
 -1       261 1.35997E-07 8.31536E+00 5.55615E+00
 -1       262 3.53593E-06 8.33199E+00 5.56726E+00
 -1       263 5.54504E+00 8.29873E+00-3.01682E-06
 -1       264 5.55615E+00 8.31536E+00 1.25701E-07
 -1       265 5.56726E+00 8.33199E+00 3.26822E-06
 -1       266 3.81949E+00 9.22106E+00-3.78653E-06
 -1       267 3.82714E+00 9.23953E+00 1.57772E-07
 -1       268 3.83479E+00 9.25801E+00 4.10208E-06
 -1       269 1.94716E+00 9.78902E+00-4.32643E-06
 -1       270 1.95106E+00 9.80864E+00 1.80268E-07
 -1       271 1.95496E+00 9.82825E+00 4.68697E-06
 -1       272 8.16208E+00 1.74845E+00 5.47171E+00
 -1       273 8.17844E+00 1.75196E+00 5.48268E+00
 -1       274 8.19480E+00 1.75546E+00 5.49364E+00
 -1       275 7.76461E+00 3.42097E+00 5.25587E+00
 -1       276 7.78017E+00 3.42783E+00 5.26640E+00
 -1       277 7.79573E+00 3.43468E+00 5.27693E+00
 -1       278 7.13757E+00 4.95751E+00 4.90861E+00
 -1       279 7.15188E+00 4.96745E+00 4.91845E+00
 -1       280 7.16618E+00 4.97738E+00 4.92829E+00
 -1       281 9.04764E+00 1.89190E+00 3.76527E+00
 -1       282 9.06577E+00 1.89570E+00 3.77281E+00
 -1       283 9.08390E+00 1.89949E+00 3.78036E+00
 -1       284 8.54406E+00 3.68880E+00 3.60669E+00
 -1       285 8.56118E+00 3.69619E+00 3.61392E+00
 -1       286 8.57830E+00 3.70358E+00 3.62114E+00
 -1       287 7.75265E+00 5.31598E+00 3.35457E+00
 -1       288 7.76819E+00 5.32663E+00 3.36129E+00
 -1       289 7.78372E+00 5.33728E+00 3.36801E+00
 -1       290 9.59703E+00 1.95783E+00 1.91840E+00
 -1       291 9.61626E+00 1.96175E+00 1.92225E+00
 -1       292 9.63549E+00 1.96567E+00 1.92609E+00
 -1       293 9.03579E+00 3.82167E+00 1.83460E+00
 -1       294 9.05389E+00 3.82933E+00 1.83828E+00
 -1       295 9.07200E+00 3.83699E+00 1.84196E+00
 -1       296 8.14418E+00 5.51282E+00 1.70222E+00
 -1       297 8.16050E+00 5.52386E+00 1.70563E+00
 -1       298 8.17682E+00 5.53491E+00 1.70904E+00
 -1       299 1.91424E+00 1.91424E+00 9.60665E+00
 -1       300 1.91808E+00 1.91808E+00 9.62590E+00
 -1       301 1.92191E+00 1.92191E+00 9.64515E+00
 -1       302 1.83177E+00 3.77016E+00 9.05797E+00
 -1       303 1.83544E+00 3.77772E+00 9.07612E+00
 -1       304 1.83911E+00 3.78527E+00 9.09427E+00
 -1       305 1.70191E+00 5.48161E+00 8.16529E+00
 -1       306 1.70532E+00 5.49259E+00 8.18165E+00
 -1       307 1.70873E+00 5.50357E+00 8.19801E+00
 -1       308 3.77016E+00 1.83177E+00 9.05797E+00
 -1       309 3.77772E+00 1.83544E+00 9.07612E+00
 -1       310 3.78527E+00 1.83911E+00 9.09427E+00
 -1       311 3.61659E+00 3.61659E+00 8.57070E+00
 -1       312 3.62384E+00 3.62384E+00 8.58787E+00
 -1       313 3.63109E+00 3.63109E+00 8.60505E+00
 -1       314 3.36365E+00 5.27139E+00 7.77912E+00
 -1       315 3.37039E+00 5.28196E+00 7.79470E+00
 -1       316 3.37713E+00 5.29252E+00 7.81029E+00
 -1       317 5.48161E+00 1.70191E+00 8.16529E+00
 -1       318 5.49259E+00 1.70532E+00 8.18165E+00
 -1       319 5.50357E+00 1.70873E+00 8.19801E+00
 -1       320 5.27139E+00 3.36365E+00 7.77912E+00
 -1       321 5.28196E+00 3.37039E+00 7.79470E+00
 -1       322 5.29252E+00 3.37713E+00 7.81029E+00
 -1       323 4.92109E+00 4.92109E+00 7.15417E+00
 -1       324 4.93095E+00 4.93095E+00 7.16851E+00
 -1       325 4.94081E+00 4.94081E+00 7.18285E+00
 -1       326 4.95751E+00 7.13757E+00 4.90861E+00
 -1       327 4.96745E+00 7.15188E+00 4.91845E+00
 -1       328 4.97738E+00 7.16618E+00 4.92829E+00
 -1       329 3.42097E+00 7.76461E+00 5.25587E+00
 -1       330 3.42783E+00 7.78017E+00 5.26640E+00
 -1       331 3.43468E+00 7.79573E+00 5.27693E+00
 -1       332 1.74845E+00 8.16208E+00 5.47171E+00
 -1       333 1.75196E+00 8.17844E+00 5.48268E+00
 -1       334 1.75546E+00 8.19480E+00 5.49364E+00
 -1       335 5.31598E+00 7.75265E+00 3.35457E+00
 -1       336 5.32663E+00 7.76819E+00 3.36129E+00
 -1       337 5.33728E+00 7.78372E+00 3.36801E+00
 -1       338 3.68880E+00 8.54406E+00 3.60669E+00
 -1       339 3.69619E+00 8.56118E+00 3.61392E+00
 -1       340 3.70358E+00 8.57830E+00 3.62114E+00
 -1       341 1.89190E+00 9.04764E+00 3.76527E+00
 -1       342 1.89570E+00 9.06577E+00 3.77281E+00
 -1       343 1.89949E+00 9.08390E+00 3.78036E+00
 -1       344 5.51282E+00 8.14418E+00 1.70222E+00
 -1       345 5.52386E+00 8.16050E+00 1.70563E+00
 -1       346 5.53491E+00 8.17682E+00 1.70904E+00
 -1       347 3.82167E+00 9.03579E+00 1.83460E+00
 -1       348 3.82933E+00 9.05389E+00 1.83828E+00
 -1       349 3.83699E+00 9.07200E+00 1.84196E+00
 -1       350 1.95783E+00 9.59703E+00 1.91840E+00
 -1       351 1.96175E+00 9.61626E+00 1.92225E+00
 -1       352 1.96567E+00 9.63549E+00 1.92609E+00
 -1       353 7.71526E+00-1.78855E-05 6.33175E+00
 -1       355 7.74618E+00 1.93759E-05 6.35713E+00
 -1       356 8.26241E+00 8.77626E-01 5.52980E+00
 -1       358 8.29553E+00 8.81143E-01 5.55195E+00
 -1       359 7.60364E+00 1.64677E+00 6.25214E+00
 -1       361 7.63411E+00 1.65337E+00 6.27719E+00
 -1       362 7.03662E+00 7.67115E-01 7.03661E+00
 -1       364 7.06482E+00 7.70190E-01 7.06482E+00
 -1       365 7.99351E+00 2.59450E+00 5.38411E+00
 -1       367 8.02555E+00 2.60490E+00 5.40568E+00
 -1       368 7.27637E+00 3.23593E+00 6.01661E+00
 -1       370 7.30553E+00 3.24890E+00 6.04072E+00
 -1       371 6.87035E+00 2.28322E+00 6.87034E+00
 -1       373 6.89788E+00 2.29237E+00 6.89788E+00
 -1       374 7.47812E+00 4.20444E+00 5.10067E+00
 -1       376 7.50809E+00 4.22129E+00 5.12111E+00
 -1       377 6.75300E+00 4.71876E+00 5.63441E+00
 -1       379 6.78007E+00 4.73767E+00 5.65700E+00
 -1       380 6.54173E+00 3.74537E+00 6.54173E+00
 -1       382 6.56795E+00 3.76038E+00 6.56795E+00
 -1       383 6.75144E+00 5.65764E+00 4.69314E+00
 -1       385 6.77850E+00 5.68032E+00 4.71194E+00
 -1       386 6.05855E+00 6.05855E+00 5.11903E+00
 -1       388 6.08283E+00 6.08283E+00 5.13954E+00
 -1       389 6.05855E+00 5.11903E+00 6.05855E+00
 -1       391 6.08283E+00 5.13954E+00 6.08283E+00
 -1       392 8.80228E+00-2.58228E-05 4.70492E+00
 -1       394 8.83756E+00 2.79747E-05 4.72377E+00
 -1       395 9.17604E+00 9.50269E-01 3.80969E+00
 -1       397 9.21281E+00 9.54078E-01 3.82495E+00
 -1       398 8.64528E+00 1.82873E+00 4.64018E+00
 -1       400 8.67993E+00 1.83605E+00 4.65878E+00
 -1       401 8.83482E+00 2.80271E+00 3.70231E+00
 -1       403 8.87023E+00 2.81395E+00 3.71714E+00
 -1       404 8.18934E+00 3.57015E+00 4.45030E+00
 -1       406 8.22216E+00 3.58445E+00 4.46813E+00
 -1       407 8.18270E+00 4.52136E+00 3.49530E+00
 -1       409 8.21549E+00 4.53948E+00 3.50930E+00
 -1       410 7.47256E+00 5.15569E+00 4.14682E+00
 -1       412 7.50251E+00 5.17634E+00 4.16344E+00
 -1       413 7.26810E+00 6.04491E+00 3.20159E+00
 -1       415 7.29723E+00 6.06914E+00 3.21442E+00
 -1       416 6.54173E+00 6.54173E+00 3.74537E+00
 -1       418 6.56795E+00 6.56795E+00 3.76038E+00
 -1       419 9.55103E+00-3.01936E-05 2.89727E+00
 -1       421 9.58931E+00 3.27097E-05 2.90888E+00
 -1       422 9.74045E+00 9.83703E-01 1.94224E+00
 -1       424 9.77949E+00 9.87646E-01 1.95002E+00
 -1       425 9.36613E+00 1.93391E+00 2.85518E+00
 -1       427 9.40366E+00 1.94166E+00 2.86663E+00
 -1       428 9.36110E+00 2.90361E+00 1.88551E+00
 -1       430 9.39862E+00 2.91525E+00 1.89306E+00
 -1       431 8.82766E+00 3.77136E+00 2.73233E+00
 -1       433 8.86304E+00 3.78647E+00 2.74328E+00
 -1       434 8.62984E+00 4.68890E+00 1.77662E+00
 -1       436 8.66443E+00 4.70769E+00 1.78374E+00
 -1       437 7.97772E+00 5.43436E+00 2.53772E+00
 -1       439 8.00970E+00 5.45614E+00 2.54789E+00
 -1       440 7.59289E+00 6.27134E+00 1.62317E+00
 -1       442 7.62332E+00 6.29647E+00 1.62967E+00
 -1       443 6.87035E+00 6.87035E+00 2.28322E+00
 -1       445 6.89788E+00 6.89788E+00 2.29237E+00
 -1       446 9.93274E+00-3.13122E-05 9.78289E-01
 -1       448 9.97255E+00 3.39216E-05 9.82210E-01
 -1       449 9.93274E+00 9.78289E-01-3.14474E-05
 -1       451 9.97255E+00 9.82210E-01 3.40680E-05
 -1       452 9.73856E+00 1.96167E+00 9.63708E-01
 -1       454 9.77759E+00 1.96952E+00 9.67570E-01
 -1       455 9.55103E+00 2.89727E+00-2.92432E-05
 -1       457 9.58931E+00 2.90888E+00 3.16801E-05
 -1       458 9.16762E+00 3.83699E+00 9.21241E-01
 -1       460 9.20436E+00 3.85236E+00 9.24933E-01
 -1       461 8.80228E+00 4.70492E+00-2.49273E-05
 -1       463 8.83756E+00 4.72377E+00 2.70046E-05
 -1       464 8.25177E+00 5.54932E+00 8.54249E-01
 -1       466 8.28484E+00 5.57155E+00 8.57673E-01
 -1       467 7.71526E+00 6.33175E+00-1.87338E-05
 -1       469 7.74618E+00 6.35713E+00 2.02950E-05
 -1       470 7.03661E+00 7.03661E+00 7.67115E-01
 -1       472 7.06482E+00 7.06482E+00 7.70190E-01
 -1       473 9.78289E-01-3.06283E-05 9.93274E+00
 -1       475 9.82210E-01 3.31807E-05 9.97255E+00
 -1       476 1.93972E+00 9.61594E-01 9.74316E+00
 -1       478 1.94750E+00 9.65447E-01 9.78221E+00
 -1       479 9.61594E-01 1.93972E+00 9.74316E+00
 -1       481 9.65447E-01 1.94750E+00 9.78221E+00
 -1       482-3.06283E-05 9.78289E-01 9.93274E+00
 -1       484 3.31807E-05 9.82210E-01 9.97255E+00
 -1       485 1.88189E+00 2.85568E+00 9.37656E+00
 -1       487 1.88943E+00 2.86712E+00 9.41414E+00
 -1       488 9.19801E-01 3.81105E+00 9.17858E+00
 -1       490 9.23488E-01 3.82631E+00 9.21536E+00
 -1       491-2.89658E-05 2.89727E+00 9.55103E+00
 -1       493 3.13796E-05 2.90888E+00 9.58931E+00
 -1       494 1.77520E+00 4.64776E+00 8.65236E+00
 -1       496 1.78231E+00 4.66639E+00 8.68704E+00
 -1       497 8.54087E-01 5.53362E+00 8.26232E+00
 -1       499 8.57510E-01 5.55580E+00 8.29543E+00
 -1       500-2.53425E-05 4.70492E+00 8.80228E+00
 -1       502 2.74543E-05 4.72377E+00 8.83756E+00
 -1       503 1.62331E+00 6.25679E+00 7.60486E+00
 -1       505 1.62981E+00 6.28186E+00 7.63534E+00
 -1       506 7.67115E-01 7.03662E+00 7.03661E+00
 -1       508 7.70190E-01 7.06482E+00 7.06482E+00
 -1       509-1.98831E-05 6.33175E+00 7.71526E+00
 -1       511 2.15400E-05 6.35713E+00 7.74618E+00
 -1       512 2.89727E+00-2.89658E-05 9.55103E+00
 -1       514 2.90888E+00 3.13796E-05 9.58931E+00
 -1       515 3.81105E+00 9.19801E-01 9.17858E+00
 -1       517 3.82631E+00 9.23488E-01 9.21536E+00
 -1       518 2.85568E+00 1.88189E+00 9.37656E+00
 -1       520 2.86712E+00 1.88943E+00 9.41414E+00
 -1       521 3.70946E+00 2.73604E+00 8.85270E+00
 -1       523 3.72432E+00 2.74701E+00 8.88818E+00
 -1       524 2.73604E+00 3.70946E+00 8.85270E+00
 -1       526 2.74701E+00 3.72432E+00 8.88818E+00
 -1       527 3.50524E+00 4.46324E+00 8.21031E+00
 -1       529 3.51928E+00 4.48113E+00 8.24322E+00
 -1       530 2.54222E+00 5.39655E+00 8.00192E+00
 -1       532 2.55241E+00 5.41817E+00 8.03400E+00
 -1       533 3.20692E+00 6.02397E+00 7.28312E+00
 -1       535 3.21976E+00 6.04811E+00 7.31231E+00
 -1       536 2.28322E+00 6.87035E+00 6.87034E+00
 -1       538 2.29237E+00 6.89788E+00 6.89788E+00
 -1       539 4.70492E+00-2.53425E-05 8.80228E+00
 -1       541 4.72377E+00 2.74543E-05 8.83756E+00
 -1       542 5.53362E+00 8.54087E-01 8.26232E+00
 -1       544 5.55580E+00 8.57510E-01 8.29543E+00
 -1       545 4.64776E+00 1.77520E+00 8.65236E+00
 -1       547 4.66639E+00 1.78231E+00 8.68704E+00
 -1       548 5.39655E+00 2.54222E+00 8.00192E+00
 -1       550 5.41817E+00 2.55241E+00 8.03400E+00
 -1       551 4.46324E+00 3.50524E+00 8.21031E+00
 -1       553 4.48113E+00 3.51928E+00 8.24322E+00
 -1       554 5.11514E+00 4.15773E+00 7.49433E+00
 -1       556 5.13563E+00 4.17439E+00 7.52437E+00
 -1       557 4.15773E+00 5.11514E+00 7.49433E+00
 -1       559 4.17439E+00 5.13563E+00 7.52437E+00
 -1       560 4.70022E+00 5.64036E+00 6.76096E+00
 -1       562 4.71906E+00 5.66297E+00 6.78806E+00
 -1       563 3.74537E+00 6.54173E+00 6.54173E+00
 -1       565 3.76038E+00 6.56795E+00 6.56795E+00
 -1       566 6.33175E+00-1.98831E-05 7.71526E+00
 -1       568 6.35713E+00 2.15400E-05 7.74618E+00
 -1       569 6.25679E+00 1.62331E+00 7.60486E+00
 -1       571 6.28186E+00 1.62981E+00 7.63534E+00
 -1       572 6.02397E+00 3.20692E+00 7.28312E+00
 -1       574 6.04811E+00 3.21976E+00 7.31231E+00
 -1       575 5.64036E+00 4.70022E+00 6.76096E+00
 -1       577 5.66297E+00 4.71906E+00 6.78806E+00
 -1       578 5.11903E+00 6.05855E+00 6.05855E+00
 -1       580 5.13954E+00 6.08283E+00 6.08283E+00
 -1       581 5.65764E+00 6.75144E+00 4.69314E+00
 -1       583 5.68032E+00 6.77850E+00 4.71194E+00
 -1       584 4.71876E+00 6.75300E+00 5.63441E+00
 -1       586 4.73767E+00 6.78007E+00 5.65700E+00
 -1       587 4.20444E+00 7.47812E+00 5.10067E+00
 -1       589 4.22129E+00 7.50809E+00 5.12111E+00
 -1       590 3.23593E+00 7.27637E+00 6.01661E+00
 -1       592 3.24890E+00 7.30553E+00 6.04072E+00
 -1       593 2.59450E+00 7.99351E+00 5.38411E+00
 -1       595 2.60490E+00 8.02555E+00 5.40568E+00
 -1       596 1.64677E+00 7.60364E+00 6.25214E+00
 -1       598 1.65337E+00 7.63411E+00 6.27719E+00
 -1       599 8.77626E-01 8.26241E+00 5.52980E+00
 -1       601 8.81143E-01 8.29553E+00 5.55195E+00
 -1       602-1.78855E-05 7.71526E+00 6.33175E+00
 -1       604 1.93759E-05 7.74618E+00 6.35713E+00
 -1       605 6.04491E+00 7.26810E+00 3.20159E+00
 -1       607 6.06914E+00 7.29723E+00 3.21442E+00
 -1       608 5.15569E+00 7.47256E+00 4.14682E+00
 -1       610 5.17634E+00 7.50251E+00 4.16344E+00
 -1       611 4.52136E+00 8.18270E+00 3.49530E+00
 -1       613 4.53948E+00 8.21549E+00 3.50930E+00
 -1       614 3.57015E+00 8.18934E+00 4.45030E+00
 -1       616 3.58445E+00 8.22216E+00 4.46813E+00
 -1       617 2.80271E+00 8.83482E+00 3.70231E+00
 -1       619 2.81395E+00 8.87023E+00 3.71714E+00
 -1       620 1.82873E+00 8.64528E+00 4.64018E+00
 -1       622 1.83605E+00 8.67993E+00 4.65878E+00
 -1       623 9.50269E-01 9.17604E+00 3.80969E+00
 -1       625 9.54078E-01 9.21281E+00 3.82495E+00
 -1       626-2.58228E-05 8.80228E+00 4.70492E+00
 -1       628 2.79747E-05 8.83756E+00 4.72377E+00
 -1       629 6.27134E+00 7.59289E+00 1.62317E+00
 -1       631 6.29647E+00 7.62332E+00 1.62967E+00
 -1       632 5.43436E+00 7.97772E+00 2.53772E+00
 -1       634 5.45614E+00 8.00970E+00 2.54789E+00
 -1       635 4.68890E+00 8.62984E+00 1.77662E+00
 -1       637 4.70769E+00 8.66443E+00 1.78374E+00
 -1       638 3.77136E+00 8.82766E+00 2.73233E+00
 -1       640 3.78647E+00 8.86304E+00 2.74328E+00
 -1       641 2.90361E+00 9.36110E+00 1.88551E+00
 -1       643 2.91525E+00 9.39862E+00 1.89306E+00
 -1       644 1.93391E+00 9.36613E+00 2.85518E+00
 -1       646 1.94166E+00 9.40366E+00 2.86663E+00
 -1       647 9.83703E-01 9.74045E+00 1.94224E+00
 -1       649 9.87646E-01 9.77949E+00 1.95002E+00
 -1       650-3.01936E-05 9.55103E+00 2.89727E+00
 -1       652 3.27097E-05 9.58931E+00 2.90888E+00
 -1       653 6.33175E+00 7.71526E+00-1.87338E-05
 -1       655 6.35713E+00 7.74618E+00 2.02950E-05
 -1       656 5.54932E+00 8.25177E+00 8.54249E-01
 -1       658 5.57155E+00 8.28484E+00 8.57673E-01
 -1       659 4.70492E+00 8.80228E+00-2.49273E-05
 -1       661 4.72377E+00 8.83756E+00 2.70046E-05
 -1       662 3.83699E+00 9.16762E+00 9.21241E-01
 -1       664 3.85236E+00 9.20436E+00 9.24933E-01
 -1       665 2.89727E+00 9.55103E+00-2.92432E-05
 -1       667 2.90888E+00 9.58931E+00 3.16801E-05
 -1       668 1.96167E+00 9.73856E+00 9.63708E-01
 -1       670 1.96952E+00 9.77759E+00 9.67570E-01
 -1       671 9.78289E-01 9.93274E+00-3.14474E-05
 -1       673 9.82210E-01 9.97255E+00 3.40680E-05
 -1       674-3.13122E-05 9.93274E+00 9.78289E-01
 -1       676 3.39216E-05 9.97255E+00 9.82210E-01
 -3
    3C                            48                                     1
 -1         1    4    0    1
 -2       173       197       272       200       175       199       274       202       353       356
 -2       359       362       174       198       273       201       355       358       361       364
 -1         2    4    0    1
 -2       200       272       275       203       202       274       277       205       359       365
 -2       368       371       201       273       276       204       361       367       370       373
 -1         3    4    0    1
 -2       203       275       278       206       205       277       280       208       368       374
 -2       377       380       204       276       279       207       370       376       379       382
 -1         4    4    0    1
 -2       206       278       209       176       208       280       211       178       377       383
 -2       386       389       207       279       210       177       379       385       388       391
 -1         5    4    0    1
 -2       197       194       281       272       199       196       283       274       392       395
 -2       398       356       198       195       282       273       394       397       400       358
 -1         6    4    0    1
 -2       272       281       284       275       274       283       286       277       398       401
 -2       404       365       273       282       285       276       400       403       406       367
 -1         7    4    0    1
 -2       275       284       287       278       277       286       289       280       404       407
 -2       410       374       276       285       288       279       406       409       412       376
 -1         8    4    0    1
 -2       278       287       212       209       280       289       214       211       410       413
 -2       416       383       279       288       213       210       412       415       418       385
 -1         9    4    0    1
 -2       194       191       290       281       196       193       292       283       419       422
 -2       425       395       195       192       291       282       421       424       427       397
 -1        10    4    0    1
 -2       281       290       293       284       283       292       295       286       425       428
 -2       431       401       282       291       294       285       427       430       433       403
 -1        11    4    0    1
 -2       284       293       296       287       286       295       298       289       431       434
 -2       437       407       285       294       297       288       433       436       439       409
 -1        12    4    0    1
 -2       287       296       215       212       289       298       217       214       437       440
 -2       443       413       288       297       216       213       439       442       445       415
 -1        13    4    0    1
 -2       191       170       218       290       193       172       220       292       446       449
 -2       452       422       192       171       219       291       448       451       454       424
 -1        14    4    0    1
 -2       290       218       221       293       292       220       223       295       452       455
 -2       458       428       291       219       222       294       454       457       460       430
 -1        15    4    0    1
 -2       293       221       224       296       295       223       226       298       458       461
 -2       464       434       294       222       225       297       460       463       466       436
 -1        16    4    0    1
 -2       296       224       179       215       298       226       181       217       464       467
 -2       470       440       297       225       180       216       466       469       472       442
 -1        17    4    0    1
 -2       182       233       299       242       184       235       301       244       473       476
 -2       479       482       183       234       300       243       475       478       481       484
 -1        18    4    0    1
 -2       242       299       302       239       244       301       304       241       479       485
 -2       488       491       243       300       303       240       481       487       490       493
 -1        19    4    0    1
 -2       239       302       305       236       241       304       307       238       488       494
 -2       497       500       240       303       306       237       490       496       499       502
 -1        20    4    0    1
 -2       236       305       245       185       238       307       247       187       497       503
 -2       506       509       237       306       246       186       499       505       508       511
 -1        21    4    0    1
 -2       233       230       308       299       235       232       310       301       512       515
 -2       518       476       234       231       309       300       514       517       520       478
 -1        22    4    0    1
 -2       299       308       311       302       301       310       313       304       518       521
 -2       524       485       300       309       312       303       520       523       526       487
 -1        23    4    0    1
 -2       302       311       314       305       304       313       316       307       524       527
 -2       530       494       303       312       315       306       526       529       532       496
 -1        24    4    0    1
 -2       305       314       248       245       307       316       250       247       530       533
 -2       536       503       306       315       249       246       532       535       538       505
 -1        25    4    0    1
 -2       230       227       317       308       232       229       319       310       539       542
 -2       545       515       231       228       318       309       541       544       547       517
 -1        26    4    0    1
 -2       308       317       320       311       310       319       322       313       545       548
 -2       551       521       309       318       321       312       547       550       553       523
 -1        27    4    0    1
 -2       311       320       323       314       313       322       325       316       551       554
 -2       557       527       312       321       324       315       553       556       559       529
 -1        28    4    0    1
 -2       314       323       251       248       316       325       253       250       557       560
 -2       563       533       315       324       252       249       559       562       565       535
 -1        29    4    0    1
 -2       227       173       200       317       229       175       202       319       566       362
 -2       569       542       228       174       201       318       568       364       571       544
 -1        30    4    0    1
 -2       317       200       203       320       319       202       205       322       569       371
 -2       572       548       318       201       204       321       571       373       574       550
 -1        31    4    0    1
 -2       320       203       206       323       322       205       208       325       572       380
 -2       575       554       321       204       207       324       574       382       577       556
 -1        32    4    0    1
 -2       323       206       176       251       325       208       178       253       575       389
 -2       578       560       324       207       177       252       577       391       580       562
 -1        33    4    0    1
 -2       176       209       326       251       178       211       328       253       386       581
 -2       584       578       177       210       327       252       388       583       586       580
 -1        34    4    0    1
 -2       251       326       329       248       253       328       331       250       584       587
 -2       590       563       252       327       330       249       586       589       592       565
 -1        35    4    0    1
 -2       248       329       332       245       250       331       334       247       590       593
 -2       596       536       249       330       333       246       592       595       598       538
 -1        36    4    0    1
 -2       245       332       260       185       247       334       262       187       596       599
 -2       602       506       246       333       261       186       598       601       604       508
 -1        37    4    0    1
 -2       209       212       335       326       211       214       337       328       416       605
 -2       608       581       210       213       336       327       418       607       610       583
 -1        38    4    0    1
 -2       326       335       338       329       328       337       340       331       608       611
 -2       614       587       327       336       339       330       610       613       616       589
 -1        39    4    0    1
 -2       329       338       341       332       331       340       343       334       614       617
 -2       620       593       330       339       342       333       616       619       622       595
 -1        40    4    0    1
 -2       332       341       257       260       334       343       259       262       620       623
 -2       626       599       333       342       258       261       622       625       628       601
 -1        41    4    0    1
 -2       212       215       344       335       214       217       346       337       443       629
 -2       632       605       213       216       345       336       445       631       634       607
 -1        42    4    0    1
 -2       335       344       347       338       337       346       349       340       632       635
 -2       638       611       336       345       348       339       634       637       640       613
 -1        43    4    0    1
 -2       338       347       350       341       340       349       352       343       638       641
 -2       644       617       339       348       351       342       640       643       646       619
 -1        44    4    0    1
 -2       341       350       254       257       343       352       256       259       644       647
 -2       650       623       342       351       255       258       646       649       652       625
 -1        45    4    0    1
 -2       215       179       263       344       217       181       265       346       470       653
 -2       656       629       216       180       264       345       472       655       658       631
 -1        46    4    0    1
 -2       344       263       266       347       346       265       268       349       656       659
 -2       662       635       345       264       267       348       658       661       664       637
 -1        47    4    0    1
 -2       347       266       269       350       349       268       271       352       662       665
 -2       668       641       348       267       270       351       664       667       670       643
 -1        48    4    0    1
 -2       350       269       188       254       352       271       190       256       668       671
 -2       674       647       351       270       189       255       670       673       676       649
 -3
    1PSTEP                         1           1           1          
  100CL  101 1.000000000         399                     0    1           1
 -4  DISP        4    1
 -5  D1          1    2    1    0
 -5  D2          1    2    2    0
 -5  D3          1    2    3    0
 -5  ALL         1    2    0    0    1ALL
 -1       170 7.91695E-05 1.47042E-12 4.12002E-05
 -1       171 7.91610E-05 0.00000E+00 4.16283E-05
 -1       172 7.91570E-05-1.47042E-12 4.20565E-05
 -1       173 1.54535E-05 3.61045E-13 2.14720E-05
 -1       174 1.54516E-05 0.00000E+00 2.14700E-05
 -1       175 1.54490E-05-3.61045E-13 2.14675E-05
 -1       176 7.67522E-06-7.67522E-06-2.90908E-15
 -1       177 7.57725E-06-7.57725E-06-2.93495E-15
 -1       178 7.47933E-06-7.47933E-06-2.96084E-15
 -1       179 3.37277E-05-3.37277E-05-1.09435E-14
 -1       180 3.34361E-05-3.34361E-05-1.14438E-14
 -1       181 3.31446E-05-3.31446E-05-1.19443E-14
 -1       182 1.96149E-22 1.96149E-22 8.33169E-19
 -1       183 0.00000E+00 0.00000E+00 0.00000E+00
 -1       184-1.96149E-22-1.96149E-22-8.33169E-19
 -1       185-3.61045E-13-1.54535E-05-2.14720E-05
 -1       186 0.00000E+00-1.54516E-05-2.14700E-05
 -1       187 3.61045E-13-1.54490E-05-2.14675E-05
 -1       188-1.47042E-12-7.91695E-05-4.12002E-05
 -1       189 0.00000E+00-7.91610E-05-4.16283E-05
 -1       190 1.47042E-12-7.91570E-05-4.20565E-05
 -1       191 5.59173E-05-1.22965E-12 4.00107E-05
 -1       192 5.59227E-05 0.00000E+00 4.00117E-05
 -1       193 5.59274E-05 1.22965E-12 4.00127E-05
 -1       194 4.00919E-05 3.84886E-13 3.56599E-05
 -1       195 4.00904E-05 0.00000E+00 3.56592E-05
 -1       196 4.00886E-05-3.84886E-13 3.56585E-05
 -1       197 2.64566E-05 6.70103E-13 2.92280E-05
 -1       198 2.64538E-05 0.00000E+00 2.92260E-05
 -1       199 2.64500E-05-6.70103E-13 2.92236E-05
 -1       200 1.27177E-05-7.05755E-07 1.79270E-05
 -1       201 1.26391E-05-5.99801E-07 1.79814E-05
 -1       202 1.25607E-05-4.93794E-07 1.80360E-05
 -1       203 1.02335E-05-1.78719E-06 1.28638E-05
 -1       204 1.01565E-05-1.75383E-06 1.29270E-05
 -1       205 1.00796E-05-1.72048E-06 1.29905E-05
 -1       206 9.47215E-06-3.57113E-06 7.71735E-06
 -1       207 9.38183E-06-3.49517E-06 7.75415E-06
 -1       208 9.29136E-06-3.41926E-06 7.79075E-06
 -1       209 1.15992E-05-1.15992E-05-4.63788E-15
 -1       210 1.14807E-05-1.14807E-05-4.68684E-15
 -1       211 1.13621E-05-1.13621E-05-4.73571E-15
 -1       212 1.69369E-05-1.69369E-05-6.89925E-15
 -1       213 1.67900E-05-1.67900E-05-6.99224E-15
 -1       214 1.66431E-05-1.66431E-05-7.08514E-15
 -1       215 2.41134E-05-2.41134E-05-9.32071E-15
 -1       216 2.39094E-05-2.39094E-05-9.53243E-15
 -1       217 2.37055E-05-2.37055E-05-9.74405E-15
 -1       218 8.19662E-05 1.29160E-06 3.97991E-05
 -1       219 8.19823E-05 1.22556E-06 4.01073E-05
 -1       220 8.19986E-05 1.15946E-06 4.04156E-05
 -1       221 7.95047E-05-6.46814E-08 3.27698E-05
 -1       222 7.94563E-05 4.85666E-08 3.31138E-05
 -1       223 7.94075E-05 1.61770E-07 3.34578E-05
 -1       224 6.10552E-05-1.08052E-05 1.87956E-05
 -1       225 6.08805E-05-1.05433E-05 1.90058E-05
 -1       226 6.07054E-05-1.02818E-05 1.92161E-05
 -1       227 7.90946E-06 3.30452E-13 1.38799E-05
 -1       228 7.90848E-06 0.00000E+00 1.38784E-05
 -1       229 7.90711E-06-3.30452E-13 1.38764E-05
 -1       230 3.63633E-06 4.23491E-13 7.81929E-06
 -1       231 3.63561E-06 0.00000E+00 7.81750E-06
 -1       232 3.63468E-06-4.23491E-13 7.81530E-06
 -1       233 1.32004E-06 1.60975E-13 2.93563E-06
 -1       234 1.31995E-06 0.00000E+00 2.93510E-06
 -1       235 1.31976E-06-1.60975E-13 2.93422E-06
 -1       236-3.30452E-13-7.90946E-06-1.38799E-05
 -1       237 0.00000E+00-7.90848E-06-1.38784E-05
 -1       238 3.30452E-13-7.90711E-06-1.38764E-05
 -1       239-4.23491E-13-3.63633E-06-7.81929E-06
 -1       240 0.00000E+00-3.63561E-06-7.81750E-06
 -1       241 4.23491E-13-3.63468E-06-7.81530E-06
 -1       242-1.60975E-13-1.32004E-06-2.93563E-06
 -1       243 0.00000E+00-1.31995E-06-2.93510E-06
 -1       244 1.60975E-13-1.31976E-06-2.93422E-06
 -1       245 7.05755E-07-1.27177E-05-1.79270E-05
 -1       246 5.99801E-07-1.26391E-05-1.79814E-05
 -1       247 4.93794E-07-1.25607E-05-1.80360E-05
 -1       248 1.78719E-06-1.02335E-05-1.28638E-05
 -1       249 1.75383E-06-1.01565E-05-1.29270E-05
 -1       250 1.72048E-06-1.00796E-05-1.29905E-05
 -1       251 3.57113E-06-9.47215E-06-7.71735E-06
 -1       252 3.49517E-06-9.38183E-06-7.75415E-06
 -1       253 3.41926E-06-9.29136E-06-7.79075E-06
 -1       254 1.22965E-12-5.59173E-05-4.00107E-05
 -1       255 0.00000E+00-5.59227E-05-4.00117E-05
 -1       256-1.22965E-12-5.59274E-05-4.00127E-05
 -1       257-3.84886E-13-4.00919E-05-3.56599E-05
 -1       258 0.00000E+00-4.00904E-05-3.56592E-05
 -1       259 3.84886E-13-4.00886E-05-3.56585E-05
 -1       260-6.70103E-13-2.64566E-05-2.92280E-05
 -1       261 0.00000E+00-2.64538E-05-2.92260E-05
 -1       262 6.70103E-13-2.64500E-05-2.92236E-05
 -1       263 1.08052E-05-6.10552E-05-1.87956E-05
 -1       264 1.05433E-05-6.08805E-05-1.90058E-05
 -1       265 1.02818E-05-6.07054E-05-1.92161E-05
 -1       266 6.46814E-08-7.95047E-05-3.27698E-05
 -1       267-4.85666E-08-7.94563E-05-3.31138E-05
 -1       268-1.61770E-07-7.94075E-05-3.34578E-05
 -1       269-1.29160E-06-8.19662E-05-3.97991E-05
 -1       270-1.22556E-06-8.19823E-05-4.01073E-05
 -1       271-1.15946E-06-8.19986E-05-4.04156E-05
 -1       272 2.22939E-05-7.93390E-07 2.51154E-05
 -1       273 2.22061E-05-6.84742E-07 2.52096E-05
 -1       274 2.21186E-05-5.76010E-07 2.53039E-05
 -1       275 1.85346E-05-2.27846E-06 1.87280E-05
 -1       276 1.84522E-05-2.23185E-06 1.88215E-05
 -1       277 1.83700E-05-2.18520E-06 1.89152E-05
 -1       278 1.58238E-05-5.32110E-06 1.07294E-05
 -1       279 1.57162E-05-5.22103E-06 1.07849E-05
 -1       280 1.56084E-05-5.12098E-06 1.08403E-05
 -1       281 3.66220E-05-5.93995E-07 3.23301E-05
 -1       282 3.65429E-05-5.12827E-07 3.24764E-05
 -1       283 3.64636E-05-4.31700E-07 3.26227E-05
 -1       284 3.16065E-05-2.52232E-06 2.48493E-05
 -1       285 3.15131E-05-2.45328E-06 2.50026E-05
 -1       286 3.14199E-05-2.38423E-06 2.51559E-05
 -1       287 2.53496E-05-7.43462E-06 1.39239E-05
 -1       288 2.52190E-05-7.30062E-06 1.40141E-05
 -1       289 2.50885E-05-7.16654E-06 1.41042E-05
 -1       290 5.42084E-05-4.16625E-07 3.75388E-05
 -1       291 5.41750E-05-3.93870E-07 3.76763E-05
 -1       292 5.41420E-05-3.70986E-07 3.78137E-05
 -1       293 5.11815E-05-1.97604E-06 3.01935E-05
 -1       294 5.11022E-05-1.89956E-06 3.04270E-05
 -1       295 5.10228E-05-1.82316E-06 3.06605E-05
 -1       296 3.99823E-05-9.24543E-06 1.70310E-05
 -1       297 3.98247E-05-9.06051E-06 1.71844E-05
 -1       298 3.96671E-05-8.87560E-06 1.73379E-05
 -1       299 9.15387E-07-9.15387E-07-1.01668E-15
 -1       300 8.73489E-07-8.73489E-07-1.02013E-15
 -1       301 8.31612E-07-8.31612E-07-1.02352E-15
 -1       302 7.23537E-07-2.62709E-06-4.59380E-06
 -1       303 6.57465E-07-2.59019E-06-4.59509E-06
 -1       304 5.91359E-07-2.55334E-06-4.59646E-06
 -1       305 7.83493E-07-6.03846E-06-1.02461E-05
 -1       306 6.95976E-07-5.97809E-06-1.02681E-05
 -1       307 6.08396E-07-5.91789E-06-1.02904E-05
 -1       308 2.62709E-06-7.23537E-07 4.59380E-06
 -1       309 2.59019E-06-6.57465E-07 4.59509E-06
 -1       310 2.55334E-06-5.91359E-07 4.59646E-06
 -1       311 2.01357E-06-2.01357E-06-1.73925E-15
 -1       312 1.98195E-06-1.98195E-06-1.73700E-15
 -1       313 1.95037E-06-1.95037E-06-1.73468E-15
 -1       314 2.04006E-06-4.69014E-06-5.29615E-06
 -1       315 2.00927E-06-4.62023E-06-5.33097E-06
 -1       316 1.97844E-06-4.55044E-06-5.36607E-06
 -1       317 6.03846E-06-7.83493E-07 1.02461E-05
 -1       318 5.97809E-06-6.95976E-07 1.02681E-05
 -1       319 5.91789E-06-6.08396E-07 1.02904E-05
 -1       320 4.69014E-06-2.04006E-06 5.29615E-06
 -1       321 4.62023E-06-2.00927E-06 5.33097E-06
 -1       322 4.55044E-06-1.97844E-06 5.36607E-06
 -1       323 4.43026E-06-4.43026E-06-1.84424E-15
 -1       324 4.35279E-06-4.35279E-06-1.85213E-15
 -1       325 4.27525E-06-4.27525E-06-1.86010E-15
 -1       326 5.32110E-06-1.58238E-05-1.07294E-05
 -1       327 5.22103E-06-1.57162E-05-1.07849E-05
 -1       328 5.12098E-06-1.56084E-05-1.08403E-05
 -1       329 2.27846E-06-1.85346E-05-1.87280E-05
 -1       330 2.23185E-06-1.84522E-05-1.88215E-05
 -1       331 2.18520E-06-1.83700E-05-1.89152E-05
 -1       332 7.93390E-07-2.22939E-05-2.51154E-05
 -1       333 6.84742E-07-2.22061E-05-2.52096E-05
 -1       334 5.76010E-07-2.21186E-05-2.53039E-05
 -1       335 7.43462E-06-2.53496E-05-1.39239E-05
 -1       336 7.30062E-06-2.52190E-05-1.40141E-05
 -1       337 7.16654E-06-2.50885E-05-1.41042E-05
 -1       338 2.52232E-06-3.16065E-05-2.48493E-05
 -1       339 2.45328E-06-3.15131E-05-2.50026E-05
 -1       340 2.38423E-06-3.14199E-05-2.51559E-05
 -1       341 5.93995E-07-3.66220E-05-3.23301E-05
 -1       342 5.12827E-07-3.65429E-05-3.24764E-05
 -1       343 4.31700E-07-3.64636E-05-3.26227E-05
 -1       344 9.24543E-06-3.99823E-05-1.70310E-05
 -1       345 9.06051E-06-3.98247E-05-1.71844E-05
 -1       346 8.87560E-06-3.96671E-05-1.73379E-05
 -1       347 1.97604E-06-5.11815E-05-3.01935E-05
 -1       348 1.89956E-06-5.11022E-05-3.04270E-05
 -1       349 1.82316E-06-5.10228E-05-3.06605E-05
 -1       350 4.16625E-07-5.42084E-05-3.75388E-05
 -1       351 3.93870E-07-5.41750E-05-3.76763E-05
 -1       352 3.70986E-07-5.41420E-05-3.78137E-05
 -1       353 2.06382E-05 3.71083E-12 2.55076E-05
 -1       355 2.06321E-05-3.71083E-12 2.55026E-05
 -1       356 2.52587E-05-1.94587E-07 2.80097E-05
 -1       358 2.50573E-05-5.68970E-08 2.82827E-05
 -1       359 1.69742E-05-7.76395E-07 2.14391E-05
 -1       361 1.68001E-05-5.57411E-07 2.15869E-05
 -1       362 1.47329E-05-2.13014E-07 2.04502E-05
 -1       364 1.45206E-05-9.12854E-08 2.06436E-05
 -1       365 1.97015E-05-1.56881E-06 2.17479E-05
 -1       367 1.95048E-05-1.42686E-06 2.19744E-05
 -1       368 1.39419E-05-2.02191E-06 1.57653E-05
 -1       370 1.37816E-05-1.94605E-06 1.59185E-05
 -1       371 1.08697E-05-1.32130E-06 1.50012E-05
 -1       373 1.06881E-05-1.18555E-06 1.51393E-05
 -1       374 1.75224E-05-3.37434E-06 1.52378E-05
 -1       376 1.73313E-05-3.22337E-06 1.53971E-05
 -1       377 1.23639E-05-4.36784E-06 9.22304E-06
 -1       379 1.21626E-05-4.19282E-06 9.31556E-06
 -1       380 1.00502E-05-2.40711E-06 1.06975E-05
 -1       382 9.88020E-06-2.29651E-06 1.08063E-05
 -1       383 1.37710E-05-8.06158E-06 5.59676E-06
 -1       385 1.35456E-05-7.84022E-06 5.65562E-06
 -1       386 9.48568E-06-9.48568E-06-3.67170E-15
 -1       388 9.27008E-06-9.27008E-06-3.74134E-15
 -1       389 8.63501E-06-5.32011E-06 4.08864E-06
 -1       391 8.44547E-06-5.14310E-06 4.12972E-06
 -1       392 3.30005E-05 4.90804E-12 3.26537E-05
 -1       394 3.29940E-05-4.90804E-12 3.26503E-05
 -1       395 3.91526E-05-1.10501E-07 3.46791E-05
 -1       397 3.89916E-05-1.72227E-08 3.50370E-05
 -1       398 2.87969E-05-7.36392E-07 2.88076E-05
 -1       400 2.86234E-05-5.38852E-07 2.90449E-05
 -1       401 3.38025E-05-1.40471E-06 2.88862E-05
 -1       403 3.36071E-05-1.25141E-06 2.92406E-05
 -1       404 2.42875E-05-2.49279E-06 2.17677E-05
 -1       406 2.41039E-05-2.37896E-06 2.20127E-05
 -1       407 2.89631E-05-4.35812E-06 1.99652E-05
 -1       409 2.87407E-05-4.15376E-06 2.02275E-05
 -1       410 2.01037E-05-6.37101E-06 1.23090E-05
 -1       412 1.98643E-05-6.14273E-06 1.24531E-05
 -1       413 2.11632E-05-1.16722E-05 7.19355E-06
 -1       415 2.08850E-05-1.13880E-05 7.29181E-06
 -1       416 1.40776E-05-1.40776E-05-5.73494E-15
 -1       418 1.38156E-05-1.38156E-05-5.87794E-15
 -1       419 4.78715E-05 5.35397E-12 3.81249E-05
 -1       421 4.78650E-05-5.35397E-12 3.81230E-05
 -1       422 5.51821E-05-1.89603E-07 3.92551E-05
 -1       424 5.51124E-05-1.57687E-07 3.96318E-05
 -1       425 4.54134E-05-4.13451E-07 3.53827E-05
 -1       427 4.52961E-05-3.02348E-07 3.56819E-05
 -1       428 5.33673E-05-8.68754E-07 3.45844E-05
 -1       430 5.32521E-05-7.76880E-07 3.50314E-05
 -1       431 4.04093E-05-2.37584E-06 2.77388E-05
 -1       433 4.02219E-05-2.21746E-06 2.81146E-05
 -1       434 4.66595E-05-4.58012E-06 2.43553E-05
 -1       436 4.64278E-05-4.30614E-06 2.47717E-05
 -1       437 3.18575E-05-8.45886E-06 1.55260E-05
 -1       439 3.15659E-05-8.15072E-06 1.57715E-05
 -1       440 3.21679E-05-1.58153E-05 8.80768E-06
 -1       442 3.18079E-05-1.54216E-05 8.97979E-06
 -1       443 2.02786E-05-2.02786E-05-8.03352E-15
 -1       445 1.99358E-05-1.99358E-05-8.32198E-15
 -1       446 6.27747E-05-1.00092E-12 4.08228E-05
 -1       448 6.27759E-05 1.00092E-12 4.08229E-05
 -1       449 7.94806E-05 4.58685E-07 4.07982E-05
 -1       451 7.94781E-05 3.74179E-07 4.17231E-05
 -1       452 6.60722E-05-4.68887E-08 3.90713E-05
 -1       454 6.60359E-05-1.43928E-07 3.96255E-05
 -1       455 8.31289E-05 1.39405E-06 3.71979E-05
 -1       457 8.31170E-05 1.45937E-06 3.79317E-05
 -1       458 6.40971E-05-1.28742E-06 3.20243E-05
 -1       460 6.39591E-05-1.10342E-06 3.25800E-05
 -1       461 7.20773E-05-3.88549E-06 2.65936E-05
 -1       463 7.18767E-05-3.50027E-06 2.71787E-05
 -1       464 4.97164E-05-9.98161E-06 1.82094E-05
 -1       466 4.93812E-05-9.54707E-06 1.85804E-05
 -1       467 4.77675E-05-2.08422E-05 9.72985E-06
 -1       469 4.73064E-05-2.02761E-05 9.96414E-06
 -1       470 2.85672E-05-2.85672E-05-1.04979E-14
 -1       472 2.80762E-05-2.80762E-05-1.12192E-14
 -1       473 5.58563E-07 1.80671E-12 9.58166E-07
 -1       475 5.58341E-07-1.80671E-12 9.55912E-07
 -1       476 1.19987E-06-3.59935E-07 2.02577E-06
 -1       478 1.07767E-06-3.01018E-07 2.04426E-06
 -1       479 3.59935E-07-1.19987E-06-2.02577E-06
 -1       481 3.01018E-07-1.07767E-06-2.04426E-06
 -1       482-1.80671E-12-5.58563E-07-9.58166E-07
 -1       484 1.80671E-12-5.58341E-07-9.55912E-07
 -1       485 7.48733E-07-1.68804E-06-2.36398E-06
 -1       487 6.34026E-07-1.60987E-06-2.36240E-06
 -1       488 2.36881E-07-3.36645E-06-6.92083E-06
 -1       490 1.62869E-07-3.24592E-06-6.96102E-06
 -1       491-3.07915E-12-2.31952E-06-5.33023E-06
 -1       493 3.07915E-12-2.31833E-06-5.32632E-06
 -1       494 7.77753E-07-3.98445E-06-7.08837E-06
 -1       496 6.20032E-07-3.88341E-06-7.10694E-06
 -1       497 2.49116E-07-7.40813E-06-1.28488E-05
 -1       499 1.48085E-07-7.23351E-06-1.29516E-05
 -1       500-4.37810E-12-5.43472E-06-1.06473E-05
 -1       502 4.37810E-12-5.43159E-06-1.06415E-05
 -1       503 7.67299E-07-8.87649E-06-1.38598E-05
 -1       505 5.76357E-07-8.73499E-06-1.39308E-05
 -1       506 2.13014E-07-1.47329E-05-2.04502E-05
 -1       508 9.12854E-08-1.45206E-05-2.06436E-05
 -1       509-4.06182E-12-1.12028E-05-1.75258E-05
 -1       511 4.06182E-12-1.11979E-05-1.75197E-05
 -1       512 2.31952E-06 3.07915E-12 5.33023E-06
 -1       514 2.31833E-06-3.07915E-12 5.32632E-06
 -1       515 3.36645E-06-2.36881E-07 6.92083E-06
 -1       517 3.24592E-06-1.62869E-07 6.96102E-06
 -1       518 1.68804E-06-7.48733E-07 2.36398E-06
 -1       520 1.60987E-06-6.34026E-07 2.36240E-06
 -1       521 2.06832E-06-1.38180E-06 1.97461E-06
 -1       523 1.99164E-06-1.28744E-06 1.97823E-06
 -1       524 1.38180E-06-2.06832E-06-1.97461E-06
 -1       526 1.28744E-06-1.99164E-06-1.97823E-06
 -1       527 2.11505E-06-2.98690E-06-2.18938E-06
 -1       529 2.04787E-06-2.88165E-06-2.21794E-06
 -1       530 1.46965E-06-4.89197E-06-7.32340E-06
 -1       532 1.35428E-06-4.74550E-06-7.38749E-06
 -1       533 1.89704E-06-7.12450E-06-8.93901E-06
 -1       535 1.83557E-06-6.97294E-06-9.03764E-06
 -1       536 1.32130E-06-1.08697E-05-1.50012E-05
 -1       538 1.18555E-06-1.06881E-05-1.51393E-05
 -1       539 5.43472E-06 4.37810E-12 1.06473E-05
 -1       541 5.43159E-06-4.37810E-12 1.06415E-05
 -1       542 7.40813E-06-2.49116E-07 1.28488E-05
 -1       544 7.23351E-06-1.48085E-07 1.29516E-05
 -1       545 3.98445E-06-7.77753E-07 7.08837E-06
 -1       547 3.88341E-06-6.20032E-07 7.10694E-06
 -1       548 4.89197E-06-1.46965E-06 7.32340E-06
 -1       550 4.74550E-06-1.35428E-06 7.38749E-06
 -1       551 2.98690E-06-2.11505E-06 2.18938E-06
 -1       553 2.88165E-06-2.04787E-06 2.21794E-06
 -1       554 4.74059E-06-2.87940E-06 3.13100E-06
 -1       556 4.59039E-06-2.76526E-06 3.17220E-06
 -1       557 2.87940E-06-4.74059E-06-3.13100E-06
 -1       559 2.76526E-06-4.59039E-06-3.17220E-06
 -1       560 3.99754E-06-6.63964E-06-3.69766E-06
 -1       562 3.84130E-06-6.47032E-06-3.72842E-06
 -1       563 2.40711E-06-1.00502E-05-1.06975E-05
 -1       565 2.29651E-06-9.88020E-06-1.08063E-05
 -1       566 1.12028E-05 4.06182E-12 1.75258E-05
 -1       568 1.11979E-05-4.06182E-12 1.75197E-05
 -1       569 8.87649E-06-7.67299E-07 1.38598E-05
 -1       571 8.73499E-06-5.76357E-07 1.39308E-05
 -1       572 7.12450E-06-1.89704E-06 8.93901E-06
 -1       574 6.97294E-06-1.83557E-06 9.03764E-06
 -1       575 6.63964E-06-3.99754E-06 3.69766E-06
 -1       577 6.47032E-06-3.84130E-06 3.72842E-06
 -1       578 5.32011E-06-8.63501E-06-4.08864E-06
 -1       580 5.14310E-06-8.44547E-06-4.12972E-06
 -1       581 8.06158E-06-1.37710E-05-5.59676E-06
 -1       583 7.84022E-06-1.35456E-05-5.65562E-06
 -1       584 4.36784E-06-1.23639E-05-9.22304E-06
 -1       586 4.19282E-06-1.21626E-05-9.31556E-06
 -1       587 3.37434E-06-1.75224E-05-1.52378E-05
 -1       589 3.22337E-06-1.73313E-05-1.53971E-05
 -1       590 2.02191E-06-1.39419E-05-1.57653E-05
 -1       592 1.94605E-06-1.37816E-05-1.59185E-05
 -1       593 1.56881E-06-1.97015E-05-2.17479E-05
 -1       595 1.42686E-06-1.95048E-05-2.19744E-05
 -1       596 7.76395E-07-1.69742E-05-2.14391E-05
 -1       598 5.57411E-07-1.68001E-05-2.15869E-05
 -1       599 1.94587E-07-2.52587E-05-2.80097E-05
 -1       601 5.68970E-08-2.50573E-05-2.82827E-05
 -1       602-3.71083E-12-2.06382E-05-2.55076E-05
 -1       604 3.71083E-12-2.06321E-05-2.55026E-05
 -1       605 1.16722E-05-2.11632E-05-7.19355E-06
 -1       607 1.13880E-05-2.08850E-05-7.29181E-06
 -1       608 6.37101E-06-2.01037E-05-1.23090E-05
 -1       610 6.14273E-06-1.98643E-05-1.24531E-05
 -1       611 4.35812E-06-2.89631E-05-1.99652E-05
 -1       613 4.15376E-06-2.87407E-05-2.02275E-05
 -1       614 2.49279E-06-2.42875E-05-2.17677E-05
 -1       616 2.37896E-06-2.41039E-05-2.20127E-05
 -1       617 1.40471E-06-3.38025E-05-2.88862E-05
 -1       619 1.25141E-06-3.36071E-05-2.92406E-05
 -1       620 7.36392E-07-2.87969E-05-2.88076E-05
 -1       622 5.38852E-07-2.86234E-05-2.90449E-05
 -1       623 1.10501E-07-3.91526E-05-3.46791E-05
 -1       625 1.72227E-08-3.89916E-05-3.50370E-05
 -1       626-4.90804E-12-3.30005E-05-3.26537E-05
 -1       628 4.90804E-12-3.29940E-05-3.26503E-05
 -1       629 1.58153E-05-3.21679E-05-8.80768E-06
 -1       631 1.54216E-05-3.18079E-05-8.97979E-06
 -1       632 8.45886E-06-3.18575E-05-1.55260E-05
 -1       634 8.15072E-06-3.15659E-05-1.57715E-05
 -1       635 4.58012E-06-4.66595E-05-2.43553E-05
 -1       637 4.30614E-06-4.64278E-05-2.47717E-05
 -1       638 2.37584E-06-4.04093E-05-2.77388E-05
 -1       640 2.21746E-06-4.02219E-05-2.81146E-05
 -1       641 8.68754E-07-5.33673E-05-3.45844E-05
 -1       643 7.76880E-07-5.32521E-05-3.50314E-05
 -1       644 4.13451E-07-4.54134E-05-3.53827E-05
 -1       646 3.02348E-07-4.52961E-05-3.56819E-05
 -1       647 1.89603E-07-5.51821E-05-3.92551E-05
 -1       649 1.57687E-07-5.51124E-05-3.96318E-05
 -1       650-5.35397E-12-4.78715E-05-3.81249E-05
 -1       652 5.35397E-12-4.78650E-05-3.81230E-05
 -1       653 2.08422E-05-4.77675E-05-9.72985E-06
 -1       655 2.02761E-05-4.73064E-05-9.96414E-06
 -1       656 9.98161E-06-4.97164E-05-1.82094E-05
 -1       658 9.54707E-06-4.93812E-05-1.85804E-05
 -1       659 3.88549E-06-7.20773E-05-2.65936E-05
 -1       661 3.50027E-06-7.18767E-05-2.71787E-05
 -1       662 1.28742E-06-6.40971E-05-3.20243E-05
 -1       664 1.10342E-06-6.39591E-05-3.25800E-05
 -1       665-1.39405E-06-8.31289E-05-3.71979E-05
 -1       667-1.45937E-06-8.31170E-05-3.79317E-05
 -1       668 4.68887E-08-6.60722E-05-3.90713E-05
 -1       670 1.43928E-07-6.60359E-05-3.96255E-05
 -1       671-4.58685E-07-7.94806E-05-4.07982E-05
 -1       673-3.74179E-07-7.94781E-05-4.17231E-05
 -1       674 1.00092E-12-6.27747E-05-4.08228E-05
 -1       676-1.00092E-12-6.27759E-05-4.08229E-05
 -3
    1PSTEP                         2           1           1          
  100CL  101 1.000000000         399                     0    1           1
 -4  STRESS      6    1
 -5  SXX         1    4    1    1
 -5  SYY         1    4    2    2
 -5  SZZ         1    4    3    3
 -5  SXY         1    4    1    2
 -5  SYZ         1    4    2    3
 -5  SZX         1    4    3    1
 -1       170-2.65225E+04 1.52152E+04 1.58912E+04-2.08578E+04-7.96485E+02-5.06642E+03
 -1       171-3.36423E+04-6.49344E+03-3.73380E+04-2.07871E+04 2.65713E+03-3.47659E+03
 -1       172-4.06535E+04-2.80813E+04-9.03248E+04-2.07734E+04 6.08874E+03-1.95803E+03
 -1       173 1.87819E+05 3.70850E+03-1.51177E+05 1.75818E+02-1.22184E+04-1.48674E+04
 -1       174 1.87635E+05 9.96008E+03-1.50484E+05-5.61328E+03-6.42780E+03-1.61041E+04
 -1       175 1.87424E+05 1.61784E+04-1.49805E+05-1.13621E+04-6.45828E+02-1.73363E+04
 -1       176-7.29288E+00 7.29288E+00 2.81380E-07-1.72269E-06-5.06162E+01 5.06162E+01
 -1       177-6.42060E+02 6.42060E+02 9.50030E-07-1.36688E-06-8.46450E+02 8.46450E+02
 -1       178-1.27608E+03 1.27608E+03 1.62470E-06-1.00149E-06-1.63563E+03 1.63563E+03
 -1       179 7.83502E+02-7.83502E+02-8.49661E-06 7.45653E-06-1.36912E+03 1.36912E+03
 -1       180 8.04860E+02-8.04860E+02-1.03980E-06 1.75483E-05-5.44274E+03 5.44274E+03
 -1       181 8.19333E+02-8.19333E+02 6.26327E-06 2.75711E-05-9.50127E+03 9.50127E+03
 -1       182 2.25662E+04-2.25662E+04-1.14531E-06 7.64309E-08-1.22673E+04 1.22673E+04
 -1       183 2.25144E+04-2.25144E+04-1.13950E-06 7.65630E-08-1.21950E+04 1.21950E+04
 -1       184 2.24594E+04-2.24594E+04-1.14828E-06 7.66443E-08-1.21169E+04 1.21169E+04
 -1       185-3.70850E+03-1.87819E+05 1.51177E+05-1.75818E+02 1.48674E+04 1.22184E+04
 -1       186-9.96008E+03-1.87635E+05 1.50484E+05 5.61328E+03 1.61041E+04 6.42780E+03
 -1       187-1.61784E+04-1.87424E+05 1.49805E+05 1.13621E+04 1.73363E+04 6.45828E+02
 -1       188-1.52152E+04 2.65225E+04-1.58912E+04 2.08578E+04 5.06642E+03 7.96485E+02
 -1       189 6.49344E+03 3.36423E+04 3.73380E+04 2.07871E+04 3.47659E+03-2.65713E+03
 -1       190 2.80813E+04 4.06535E+04 9.03248E+04 2.07734E+04 1.95803E+03-6.08874E+03
 -1       191 5.30723E+04-2.54716E+04-9.44417E+04-1.47340E+04-9.94594E+03-1.24721E+05
 -1       192 5.50400E+04-2.05722E+04-8.48622E+04-1.63224E+04-1.79948E+03-1.25152E+05
 -1       193 5.70077E+04-1.56830E+04-7.53176E+04-1.78885E+04 6.30719E+03-1.25608E+05
 -1       194 1.63188E+05 1.59972E+04-1.26265E+05-1.41549E+02-1.26014E+04-1.58673E+05
 -1       195 1.63010E+05 2.01332E+04-1.24811E+05-3.41119E+03-4.72266E+03-1.58625E+05
 -1       196 1.62815E+05 2.42415E+04-1.23377E+05-6.66340E+03 3.12633E+03-1.58573E+05
 -1       197 1.91192E+05 1.09519E+04-1.51520E+05-5.34181E+03-1.45840E+04-8.79191E+04
 -1       198 1.90140E+05 1.74116E+04-1.50421E+05-9.89044E+03-7.73870E+03-8.89967E+04
 -1       199 1.89068E+05 2.38368E+04-1.49342E+05-1.43990E+04-9.10921E+02-9.00699E+04
 -1       200 3.44064E+04 2.64866E+02-2.63190E+04-3.57939E+03 4.86670E+02-3.76325E+03
 -1       201 3.35741E+04 8.29846E+00-2.64236E+04-1.99915E+03-8.55134E+02-2.74531E+03
 -1       202 3.27464E+04-2.44370E+02-2.65209E+04-4.16493E+02-2.18504E+03-1.73222E+03
 -1       203 7.51041E+02 2.82531E+02-1.05087E+04-1.06337E+02 1.75669E+03 3.77044E+03
 -1       204 3.37980E+02-2.52074E+02-1.06276E+04 3.41862E+02 1.55155E+03 4.33290E+03
 -1       205-6.56100E+01-7.81930E+02-1.07367E+04 7.85695E+02 1.34399E+03 4.89433E+03
 -1       206 2.88885E+03 2.05401E+03 6.26283E+02-8.11258E+02-4.49064E+02 4.82404E+02
 -1       207 1.78547E+03 2.95080E+03-2.63994E+02-1.16465E+03-1.26249E+03 9.32380E+02
 -1       208 6.83183E+02 3.84145E+03-1.15193E+03-1.51838E+03-2.07393E+03 1.38017E+03
 -1       209-7.06272E+02 7.06272E+02-5.48490E-06 1.36233E-06-5.48911E+02 5.48911E+02
 -1       210-1.26523E+03 1.26523E+03-3.83562E-06 2.07684E-06-1.51242E+03 1.51242E+03
 -1       211-1.82374E+03 1.82374E+03-2.19242E-06 2.79397E-06-2.47130E+03 2.47130E+03
 -1       212-7.91992E+02 7.91992E+02-4.08233E-06 2.81202E-06-3.71641E+02 3.71641E+02
 -1       213-1.42313E+03 1.42313E+03-2.34978E-06 4.91094E-06-2.02456E+03 2.02456E+03
 -1       214-2.05082E+03 2.05082E+03-5.85938E-07 7.02780E-06-3.67082E+03 3.67082E+03
 -1       215-1.01070E+03 1.01070E+03 1.01448E-05 5.70604E-06-7.46002E+02 7.46002E+02
 -1       216-1.58992E+03 1.58992E+03 1.92199E-05 8.30329E-06-3.82686E+03 3.82686E+03
 -1       217-2.16741E+03 2.16741E+03 2.81482E-05 1.08686E-05-6.89563E+03 6.89563E+03
 -1       218 3.86596E+03 1.44559E+04-2.10124E+04 7.04795E+03-5.26871E+03-8.36920E+04
 -1       219 7.69909E+03 1.99906E+04-1.64015E+04 6.78472E+03-7.29410E+03-8.33776E+04
 -1       220 1.15381E+04 2.55098E+04-1.18075E+04 6.48995E+03-9.31278E+03-8.30545E+04
 -1       221 7.63550E+03 8.43305E+03 6.34457E+03-7.42183E+03 9.57081E+02 5.32534E+03
 -1       222 6.79201E+03 1.19886E+04 1.62531E+03-9.40088E+03-6.61921E+02 6.05427E+03
 -1       223 5.94421E+03 1.55194E+04-3.08446E+03-1.13762E+04-2.27436E+03 6.78600E+03
 -1       224 1.62011E+03 4.04004E+03-7.71902E+02 3.84595E+01-4.13336E+03-1.91399E+03
 -1       225 3.35196E+03 7.58462E+03-6.49211E+02-2.50695E+03-7.35847E+03 1.54491E+02
 -1       226 5.06376E+03 1.11070E+04-5.35811E+02-5.04280E+03-1.05658E+04 2.22006E+03
 -1       227 1.30954E+05 4.54010E+02-9.87544E+04-3.81691E+02-1.05390E+04 3.40469E+04
 -1       228 1.31449E+05 5.30965E+03-9.82930E+04-4.75186E+03-7.63510E+03 3.31889E+04
 -1       229 1.31924E+05 1.01432E+04-9.78378E+04-9.09558E+03-4.73153E+03 3.23312E+04
 -1       230 7.74700E+04-6.26778E+02-5.09493E+04 6.50089E+02-6.82045E+03 4.75519E+04
 -1       231 7.78680E+04 2.49978E+03-5.10537E+04-2.21775E+03-5.60193E+03 4.69751E+04
 -1       232 7.82509E+04 5.61099E+03-5.11635E+04-5.06987E+03-4.38108E+03 4.63972E+04
 -1       233 4.61554E+04-1.16217E+04-2.36801E+04 9.32140E+02-1.02774E+04 5.90447E+04
 -1       234 4.68289E+04-8.71611E+03-2.37280E+04-1.81457E+03-9.72958E+03 5.87224E+04
 -1       235 4.74896E+04-5.82591E+03-2.37821E+04-4.54875E+03-9.17825E+03 5.83963E+04
 -1       236-4.54010E+02-1.30954E+05 9.87544E+04 3.81691E+02-3.40469E+04 1.05390E+04
 -1       237-5.30965E+03-1.31449E+05 9.82930E+04 4.75186E+03-3.31889E+04 7.63510E+03
 -1       238-1.01432E+04-1.31924E+05 9.78378E+04 9.09558E+03-3.23312E+04 4.73153E+03
 -1       239 6.26778E+02-7.74700E+04 5.09493E+04-6.50089E+02-4.75519E+04 6.82045E+03
 -1       240-2.49978E+03-7.78680E+04 5.10537E+04 2.21775E+03-4.69751E+04 5.60193E+03
 -1       241-5.61099E+03-7.82509E+04 5.11635E+04 5.06987E+03-4.63972E+04 4.38108E+03
 -1       242 1.16217E+04-4.61554E+04 2.36801E+04-9.32140E+02-5.90447E+04 1.02774E+04
 -1       243 8.71611E+03-4.68289E+04 2.37280E+04 1.81457E+03-5.87224E+04 9.72958E+03
 -1       244 5.82591E+03-4.74896E+04 2.37821E+04 4.54875E+03-5.83963E+04 9.17825E+03
 -1       245-2.64866E+02-3.44064E+04 2.63190E+04 3.57939E+03 3.76325E+03-4.86670E+02
 -1       246-8.29847E+00-3.35741E+04 2.64236E+04 1.99915E+03 2.74531E+03 8.55134E+02
 -1       247 2.44370E+02-3.27464E+04 2.65209E+04 4.16493E+02 1.73222E+03 2.18504E+03
 -1       248-2.82531E+02-7.51041E+02 1.05087E+04 1.06337E+02-3.77044E+03-1.75669E+03
 -1       249 2.52074E+02-3.37980E+02 1.06276E+04-3.41862E+02-4.33290E+03-1.55155E+03
 -1       250 7.81930E+02 6.56100E+01 1.07367E+04-7.85695E+02-4.89433E+03-1.34399E+03
 -1       251-2.05401E+03-2.88885E+03-6.26283E+02 8.11258E+02-4.82404E+02 4.49064E+02
 -1       252-2.95080E+03-1.78547E+03 2.63994E+02 1.16465E+03-9.32380E+02 1.26249E+03
 -1       253-3.84145E+03-6.83183E+02 1.15193E+03 1.51838E+03-1.38017E+03 2.07393E+03
 -1       254 2.54716E+04-5.30723E+04 9.44417E+04 1.47340E+04 1.24721E+05 9.94594E+03
 -1       255 2.05722E+04-5.50400E+04 8.48622E+04 1.63224E+04 1.25152E+05 1.79948E+03
 -1       256 1.56830E+04-5.70077E+04 7.53176E+04 1.78885E+04 1.25608E+05-6.30719E+03
 -1       257-1.59972E+04-1.63188E+05 1.26265E+05 1.41549E+02 1.58673E+05 1.26014E+04
 -1       258-2.01332E+04-1.63010E+05 1.24811E+05 3.41119E+03 1.58625E+05 4.72266E+03
 -1       259-2.42415E+04-1.62815E+05 1.23377E+05 6.66340E+03 1.58573E+05-3.12633E+03
 -1       260-1.09519E+04-1.91192E+05 1.51520E+05 5.34181E+03 8.79191E+04 1.45840E+04
 -1       261-1.74116E+04-1.90140E+05 1.50421E+05 9.89044E+03 8.89967E+04 7.73870E+03
 -1       262-2.38368E+04-1.89068E+05 1.49342E+05 1.43990E+04 9.00699E+04 9.10921E+02
 -1       263-4.04004E+03-1.62011E+03 7.71902E+02-3.84595E+01 1.91399E+03 4.13336E+03
 -1       264-7.58462E+03-3.35196E+03 6.49211E+02 2.50695E+03-1.54491E+02 7.35847E+03
 -1       265-1.11070E+04-5.06376E+03 5.35811E+02 5.04280E+03-2.22006E+03 1.05658E+04
 -1       266-8.43305E+03-7.63550E+03-6.34457E+03 7.42183E+03-5.32534E+03-9.57081E+02
 -1       267-1.19886E+04-6.79201E+03-1.62531E+03 9.40088E+03-6.05427E+03 6.61921E+02
 -1       268-1.55194E+04-5.94421E+03 3.08446E+03 1.13762E+04-6.78600E+03 2.27436E+03
 -1       269-1.44559E+04-3.86596E+03 2.10124E+04-7.04795E+03 8.36920E+04 5.26871E+03
 -1       270-1.99906E+04-7.69909E+03 1.64015E+04-6.78472E+03 8.33776E+04 7.29410E+03
 -1       271-2.55098E+04-1.15381E+04 1.18075E+04-6.48995E+03 8.30545E+04 9.31278E+03
 -1       272 3.14749E+04 4.64890E+03-3.07271E+04-2.61375E+03-4.00083E+03-1.43253E+04
 -1       273 3.12981E+04 3.77582E+03-3.15279E+04-1.59517E+03-4.95968E+03-1.31563E+04
 -1       274 3.11149E+04 2.90636E+03-3.23202E+04-5.71007E+02-5.90910E+03-1.19870E+04
 -1       275 8.63067E+02-3.04570E+02-1.28595E+04 2.04776E+03 1.60430E+03 1.43559E+03
 -1       276 2.72093E+02-6.52032E+01-1.37153E+04 2.48364E+03 9.41645E+02 2.65347E+03
 -1       277-3.06592E+02 1.76745E+02-1.45596E+04 2.91433E+03 2.80189E+02 3.86816E+03
 -1       278 2.61712E+03 3.19111E+03 3.28063E+02-1.00608E+03-5.29370E+02 6.02185E+02
 -1       279 1.77523E+03 4.28335E+03-3.32738E+02-1.40306E+03-1.41909E+03 1.32523E+03
 -1       280 9.36278E+02 5.36835E+03-9.95211E+02-1.79916E+03-2.30727E+03 2.04527E+03
 -1       281 2.99288E+04 8.74069E+03-2.17401E+04-1.66270E+03-9.25385E+03-2.74536E+04
 -1       282 2.90540E+04 9.13655E+03-2.26478E+04-1.73407E+03-9.62570E+03-2.71087E+04
 -1       283 2.81761E+04 9.53012E+03-2.35467E+04-1.80079E+03-9.99510E+03-2.67628E+04
 -1       284 2.42036E+03-7.40626E+02-1.29290E+04 1.67684E+02-2.44069E+03 3.74637E+02
 -1       285 2.12741E+03-1.81972E+02-1.43525E+04 3.39194E+02-3.38507E+03 1.54665E+03
 -1       286 1.83703E+03 3.78720E+02-1.57633E+04 5.10456E+02-4.32465E+03 2.71702E+03
 -1       287-6.81858E+01 3.48659E+03-2.67789E+03 4.08488E+02-2.00579E+02-3.07529E+01
 -1       288-6.21853E+02 4.85270E+03-4.08159E+03 6.82627E+01-1.51488E+03 1.42600E+03
 -1       289-1.17091E+03 6.21386E+03-5.47917E+03-2.71207E+02-2.82420E+03 2.87665E+03
 -1       290 1.98729E+04 2.46740E+03-2.23492E+04 5.88294E+03-1.09759E+04-6.20312E+04
 -1       291 1.90727E+04 1.10832E+03-2.87731E+04 5.74394E+03-9.64324E+03-6.14242E+04
 -1       292 1.82796E+04-2.44947E+02-3.51703E+04 5.61015E+03-8.31825E+03-6.08169E+04
 -1       293 4.82657E+03 2.57041E+03-4.94375E+03-3.18381E+03-1.92668E+03 9.63591E+02
 -1       294 5.13281E+03 5.50093E+03-6.70038E+03-4.44239E+03-2.25673E+03 1.46533E+03
 -1       295 5.43516E+03 8.41552E+03-8.45122E+03-5.69995E+03-2.58401E+03 1.96983E+03
 -1       296 3.04155E+03 7.61962E+03-2.78510E+03-2.20698E+03-3.34402E+03-1.68819E+03
 -1       297 3.22633E+03 9.59125E+03-4.36096E+03-3.10624E+03-5.44976E+03 4.22138E+01
 -1       298 3.40513E+03 1.15533E+04-5.93331E+03-4.00216E+03-7.54370E+03 1.76833E+03
 -1       299 1.38237E+04-1.38237E+04 1.15859E-06-8.46953E-07-1.24176E+04 1.24176E+04
 -1       300 1.37342E+04-1.37342E+04 1.22299E-06-7.53739E-07-1.24355E+04 1.24355E+04
 -1       301 1.36440E+04-1.36440E+04 1.28188E-06-6.60706E-07-1.24504E+04 1.24504E+04
 -1       302 1.92079E+03-1.65399E+04 8.10526E+03 3.53240E+03-6.90508E+03 6.28359E+02
 -1       303 1.62706E+03-1.62059E+04 7.69958E+03 2.36736E+03-6.94560E+03 1.05404E+03
 -1       304 1.33410E+03-1.58730E+04 7.29567E+03 1.20419E+03-6.98625E+03 1.47507E+03
 -1       305 2.57670E+03-2.34473E+04 1.82034E+04 3.35301E+03-6.05432E+03-2.73644E+02
 -1       306 2.37628E+03-2.30917E+04 1.75272E+04 2.06744E+03-6.57735E+03 3.78619E+02
 -1       307 2.17309E+03-2.27401E+04 1.68501E+04 7.82263E+02-7.09823E+03 1.02233E+03
 -1       308 1.65399E+04-1.92079E+03-8.10526E+03-3.53240E+03-6.28359E+02 6.90508E+03
 -1       309 1.62059E+04-1.62706E+03-7.69958E+03-2.36736E+03-1.05404E+03 6.94560E+03
 -1       310 1.58730E+04-1.33410E+03-7.29567E+03-1.20419E+03-1.47507E+03 6.98625E+03
 -1       311 1.75003E+03-1.75003E+03-6.53554E-07 1.43173E-06-1.49872E+03 1.49872E+03
 -1       312 1.48377E+03-1.48377E+03-6.18362E-07 1.38403E-06-1.67522E+03 1.67522E+03
 -1       313 1.22032E+03-1.22032E+03-6.02976E-07 1.33561E-06-1.85339E+03 1.85339E+03
 -1       314 4.31909E+03 7.49353E+02 6.40136E+03-3.18084E+02-3.33438E+03-5.32316E+02
 -1       315 4.22913E+03 1.46520E+03 6.26865E+03-3.75767E+02-4.17368E+03-6.31942E+02
 -1       316 4.13515E+03 2.17224E+03 6.12964E+03-4.32158E+02-5.01175E+03-7.29875E+02
 -1       317 2.34473E+04-2.57670E+03-1.82034E+04-3.35301E+03 2.73644E+02 6.05432E+03
 -1       318 2.30917E+04-2.37628E+03-1.75272E+04-2.06744E+03-3.78619E+02 6.57735E+03
 -1       319 2.27401E+04-2.17309E+03-1.68501E+04-7.82263E+02-1.02233E+03 7.09823E+03
 -1       320-7.49353E+02-4.31909E+03-6.40136E+03 3.18084E+02 5.32316E+02 3.33438E+03
 -1       321-1.46520E+03-4.22913E+03-6.26865E+03 3.75767E+02 6.31942E+02 4.17368E+03
 -1       322-2.17224E+03-4.13515E+03-6.12964E+03 4.32158E+02 7.29875E+02 5.01175E+03
 -1       323 1.13370E+03-1.13370E+03 3.09927E-07-4.97598E-07-8.08464E+02 8.08464E+02
 -1       324 1.75897E+02-1.75897E+02 1.48748E-07-3.48632E-07-1.33395E+03 1.33395E+03
 -1       325-7.80131E+02 7.80131E+02-1.85819E-08-2.00746E-07-1.85826E+03 1.85826E+03
 -1       326-3.19111E+03-2.61712E+03-3.28063E+02 1.00608E+03-6.02185E+02 5.29370E+02
 -1       327-4.28335E+03-1.77523E+03 3.32738E+02 1.40306E+03-1.32523E+03 1.41909E+03
 -1       328-5.36835E+03-9.36278E+02 9.95211E+02 1.79916E+03-2.04527E+03 2.30727E+03
 -1       329 3.04570E+02-8.63067E+02 1.28595E+04-2.04776E+03-1.43559E+03-1.60430E+03
 -1       330 6.52032E+01-2.72093E+02 1.37153E+04-2.48364E+03-2.65347E+03-9.41645E+02
 -1       331-1.76745E+02 3.06592E+02 1.45596E+04-2.91433E+03-3.86816E+03-2.80189E+02
 -1       332-4.64890E+03-3.14749E+04 3.07271E+04 2.61375E+03 1.43253E+04 4.00083E+03
 -1       333-3.77582E+03-3.12981E+04 3.15279E+04 1.59517E+03 1.31563E+04 4.95968E+03
 -1       334-2.90636E+03-3.11149E+04 3.23202E+04 5.71007E+02 1.19870E+04 5.90910E+03
 -1       335-3.48659E+03 6.81858E+01 2.67789E+03-4.08488E+02 3.07528E+01 2.00579E+02
 -1       336-4.85270E+03 6.21853E+02 4.08159E+03-6.82627E+01-1.42600E+03 1.51488E+03
 -1       337-6.21386E+03 1.17091E+03 5.47917E+03 2.71207E+02-2.87665E+03 2.82420E+03
 -1       338 7.40626E+02-2.42036E+03 1.29290E+04-1.67684E+02-3.74637E+02 2.44069E+03
 -1       339 1.81972E+02-2.12741E+03 1.43525E+04-3.39194E+02-1.54665E+03 3.38507E+03
 -1       340-3.78720E+02-1.83703E+03 1.57633E+04-5.10456E+02-2.71702E+03 4.32465E+03
 -1       341-8.74069E+03-2.99288E+04 2.17401E+04 1.66270E+03 2.74536E+04 9.25385E+03
 -1       342-9.13655E+03-2.90540E+04 2.26478E+04 1.73407E+03 2.71087E+04 9.62570E+03
 -1       343-9.53012E+03-2.81761E+04 2.35467E+04 1.80079E+03 2.67628E+04 9.99510E+03
 -1       344-7.61962E+03-3.04155E+03 2.78510E+03 2.20698E+03 1.68819E+03 3.34402E+03
 -1       345-9.59125E+03-3.22633E+03 4.36096E+03 3.10624E+03-4.22138E+01 5.44976E+03
 -1       346-1.15533E+04-3.40513E+03 5.93331E+03 4.00216E+03-1.76833E+03 7.54370E+03
 -1       347-2.57041E+03-4.82657E+03 4.94375E+03 3.18381E+03-9.63591E+02 1.92668E+03
 -1       348-5.50093E+03-5.13281E+03 6.70038E+03 4.44239E+03-1.46533E+03 2.25673E+03
 -1       349-8.41552E+03-5.43516E+03 8.45122E+03 5.69995E+03-1.96983E+03 2.58401E+03
 -1       350-2.46740E+03-1.98729E+04 2.23492E+04-5.88294E+03 6.20312E+04 1.09759E+04
 -1       351-1.10832E+03-1.90727E+04 2.87731E+04-5.74394E+03 6.14242E+04 9.64324E+03
 -1       352 2.44947E+02-1.82796E+04 3.51703E+04-5.61015E+03 6.08169E+04 8.31825E+03
 -1       353 1.93681E+05 7.37686E+03-1.52204E+05-6.22034E+03-1.69181E+04-5.19015E+04
 -1       355 1.92514E+05 2.02823E+04-1.50261E+05-1.64939E+04-4.27756E+03-5.42630E+04
 -1       356-2.28287E+04-5.22743E+03 3.92310E+04 4.06901E+03 5.19725E+03 1.62719E+03
 -1       358-2.11182E+04 4.16730E+03 4.04117E+04 1.43043E+03 8.42292E+03 1.20415E+03
 -1       359 3.52607E+04 6.66899E+03-2.29688E+04-2.35530E+03-4.08740E+02-1.34039E+04
 -1       361 3.36964E+04 5.09970E+03-2.43838E+04 1.59146E+02-2.68960E+03-1.09820E+04
 -1       362-1.55875E+04-9.41425E+03 3.54760E+04-2.40591E+02 6.03313E+03-1.24690E+04
 -1       364-1.46350E+04 5.45529E+02 3.60559E+04-2.62542E+03 7.78867E+03-1.22488E+04
 -1       365-3.99297E+03 5.54159E+03 5.35203E+02-4.94987E+03 4.63162E+02 6.30206E+03
 -1       367-7.06630E+03-1.14856E+03-4.20593E+03-3.61076E+03 9.04613E+02 8.24451E+03
 -1       368 4.12566E+03 1.26458E+03-8.06259E+03-7.16101E+02 4.07783E+02-4.22097E+02
 -1       370 3.12916E+03 9.81042E+02-8.82916E+03 2.41685E+02-4.89145E+02 1.31643E+03
 -1       371-3.32141E+03 6.25210E+03 3.21498E+03-4.79441E+03 1.06680E+03 3.17001E+03
 -1       373-8.02047E+03-2.64292E+03-1.57372E+03-3.81579E+03 2.02137E+03 4.79878E+03
 -1       374-3.60236E+03-5.53983E+03-4.31965E+03 1.68794E+03 1.62811E+03 1.86272E+03
 -1       376-2.74343E+03-9.13589E+02-4.36031E+03 6.60211E+02 4.34355E+02 3.64085E+03
 -1       377 3.95098E+03 3.40869E+03 2.07170E+03-1.74302E+03-8.19231E+01-1.24344E+03
 -1       379 2.28044E+03 5.63512E+03 9.19805E+02-2.47189E+03-1.79621E+03-1.99913E+02
 -1       380-2.99095E+03-4.29872E+03-2.16072E+03 1.57229E+02 2.49557E+03 1.48302E+03
 -1       382-2.52147E+03-2.75327E+02-1.57685E+03-5.53379E+02 1.34026E+03 2.57927E+03
 -1       383-1.21103E+03-2.29004E+03-1.62957E+03 1.32213E+03 8.06198E+02 1.59160E+02
 -1       385-2.75800E+03-9.55571E+02-2.51925E+03 9.61892E+02-9.89941E+02 1.81516E+03
 -1       386 4.57584E+02-4.57584E+02-4.89080E-06-3.39294E-07 1.29606E+02-1.29606E+02
 -1       388-7.77776E+02 7.77776E+02-2.40694E-06 6.36713E-07-1.62711E+03 1.62711E+03
 -1       389-1.22867E+03-2.54502E+03-1.34655E+03 8.65742E+02 1.52025E+03 1.94946E+02
 -1       391-2.97183E+03-1.27834E+03-2.40100E+03 4.92448E+02 2.81967E+01 1.37331E+03
 -1       392 1.76119E+05 9.91881E+03-1.43671E+05-8.02578E+03-1.53376E+04-1.23570E+05
 -1       394 1.74975E+05 2.06948E+04-1.41002E+05-1.57854E+04-6.98907E+02-1.24655E+05
 -1       395-2.01031E+04-2.14304E+03 3.33849E+04 2.01148E+03-1.01543E+03 1.70694E+04
 -1       397-1.96107E+04 3.94863E+03 3.37602E+04-5.44317E+02 3.81326E+03 1.66067E+04
 -1       398 3.08217E+04 1.05181E+04-1.97714E+04 1.07082E+02-6.01568E+03-2.30922E+04
 -1       400 2.93382E+04 9.66643E+03-2.23940E+04 9.45960E+02-7.31520E+03-2.13470E+04
 -1       401-4.88532E+03 4.86787E+03-8.37138E+02 1.82627E+03-1.90000E+02 6.55225E+03
 -1       403-7.27380E+03 2.20351E+03-5.30170E+03 1.68759E+03 6.22683E+02 7.43188E+03
 -1       404 6.03766E+03 2.87889E+03-3.99562E+03-7.83859E+02-9.24136E+02-4.54206E+03
 -1       406 4.69672E+03 3.09106E+03-6.99275E+03-1.38652E+02-2.43974E+03-2.02847E+03
 -1       407-2.46151E+03-7.88397E+03-4.86854E+03 1.17379E+03 1.44909E+03 2.56085E+03
 -1       409-1.30248E+03-2.85558E+03-6.49241E+03 8.25755E+01-5.53277E+02 5.02590E+03
 -1       410 4.68261E+03 3.70221E+03 2.80287E+03-1.35614E+03-8.41767E+02-2.87095E+03
 -1       412 3.20419E+03 6.19314E+03 1.04865E+03-1.97071E+03-3.11976E+03-7.00852E+02
 -1       413-9.20011E+02-2.49253E+03-2.56289E+03 1.52328E+03 1.15788E+03-2.12221E+02
 -1       415-2.89825E+03-1.62462E+03-4.91319E+03 1.44377E+03-1.65550E+03 2.80007E+03
 -1       416-1.95352E+02 1.95352E+02-9.94606E-06 4.47093E-06 3.53128E+02-3.53128E+02
 -1       418-1.44630E+03 1.44630E+03-8.04955E-06 7.12031E-06-2.20178E+03 2.20178E+03
 -1       419 1.18922E+05 1.96446E+03-1.09394E+05-5.50352E+03-1.08838E+04-1.88040E+05
 -1       421 1.16671E+05 7.04923E+03-1.08039E+05-1.02334E+04 5.28596E+03-1.87838E+05
 -1       422-1.82114E+04-1.06804E+04 1.13590E+04-5.99840E+03-2.87523E+03 6.71516E+04
 -1       424-1.64998E+04-7.46064E+03 1.49080E+04-7.22983E+03 2.84649E+03 6.63396E+04
 -1       425 1.64520E+04 4.76062E+03-1.93112E+04 2.26773E+03-1.10832E+04-3.09748E+04
 -1       427 1.98226E+04 8.81101E+03-1.57367E+04 2.14560E+03-1.09877E+04-3.10585E+04
 -1       428-3.93619E+03-9.87887E+03-6.50238E+03 7.87692E+03-5.41724E+03-3.46138E+02
 -1       430-4.68841E+03-9.10913E+03-1.57436E+04 6.24286E+03-9.10473E+02-4.71502E+02
 -1       431 4.82369E+03 1.07479E+04 3.40353E+03-1.03620E+03-4.20388E+03-7.57268E+03
 -1       433 4.52845E+03 1.36103E+04-6.17513E+02-2.16543E+03-5.29281E+03-5.88991E+03
 -1       434-5.05922E+03-1.15033E+04-6.52630E+03 3.61757E+03 2.50511E+03 4.43585E+03
 -1       436-2.68002E+03-3.82519E+03-8.64758E+03 6.09958E+02 7.29431E+01 6.42328E+03
 -1       437 5.60577E+03 5.71798E+03 8.17291E+03-4.56214E+03-4.05175E+02-2.28454E+03
 -1       439 4.46594E+03 8.25360E+03 4.36539E+03-5.56293E+03-3.77670E+03 9.89879E+02
 -1       440-1.21279E+03-3.53124E+03-3.93537E+03 2.24395E+03 1.81853E+03-1.41896E+03
 -1       442-1.84001E+03-1.50882E+03-6.12360E+03 1.39345E+03-3.30562E+03 3.18170E+03
 -1       443 5.74846E+02-5.74846E+02-2.19641E-05 1.05526E-05 1.52269E+03-1.52269E+03
 -1       445-8.15979E+02 8.15979E+02-1.36120E-05 1.47604E-05-3.23788E+03 3.23788E+03
 -1       446 6.92109E+04 2.56463E+03-2.09048E+04 1.96043E+04-1.22257E+04-3.08573E+05
 -1       448 6.69716E+04-1.23585E+04-5.53212E+04 1.76326E+04 6.45397E+03-3.05097E+05
 -1       449-7.42821E+03 3.22530E+04 9.53537E+03-1.97321E+04 1.52274E+04 9.86361E+04
 -1       451-1.24521E+04 1.12865E+04-3.94294E+04-1.85738E+04 1.24157E+04 1.00004E+05
 -1       452 5.22789E+03-5.11663E+03 1.42750E+04-3.68247E+03-3.87216E+03-1.25621E+04
 -1       454 3.90997E+03-5.42414E+03 2.11863E+03-4.15280E+03-1.07171E+03-1.18468E+04
 -1       455-8.50634E+03-2.48960E+04-2.89299E+04 1.27625E+04 6.21778E+01-1.13440E+04
 -1       457-3.22857E+03-1.07773E+04-2.71456E+04 9.61340E+03 1.83602E+02-1.16808E+04
 -1       458 4.84881E+03 1.39808E+04 1.27270E+04-2.88997E+03-2.31048E+03-1.29800E+04
 -1       460 4.91333E+03 2.16306E+04 7.51297E+03-6.06109E+03-5.18352E+03-1.12120E+04
 -1       461-6.95427E+03-2.53857E+04-1.11645E+04 1.12573E+04 4.56906E+03 3.64722E+03
 -1       463-4.81736E+03-1.60542E+04-1.48767E+04 6.06176E+03-1.06123E+02 6.06639E+03
 -1       464 4.56683E+03 8.70817E+03 8.70804E+03-5.55965E+03 2.81633E+02-3.64981E+02
 -1       466 6.16249E+03 1.39898E+04 6.83619E+03-8.89036E+03-4.79773E+03 3.32006E+03
 -1       467-7.04306E+03-9.01772E+03-6.40475E+03 7.37110E+03 2.35816E+03-2.62942E+03
 -1       469-3.83319E+03-4.45158E+03-5.78213E+03 4.16286E+03-4.87286E+03 3.17705E+03
 -1       470-4.88715E+02 4.88715E+02-4.03541E-05 2.38471E-05 1.84859E+03-1.84859E+03
 -1       472-1.21039E+03 1.21039E+03-1.75479E-05 3.54827E-05-5.41048E+03 5.41048E+03
 -1       473 3.88061E+04-2.07052E+04-7.75294E+03 5.49423E+02-1.13766E+04 3.69954E+04
 -1       475 4.10355E+04-1.40332E+04-6.24659E+03-2.38228E+03-1.09981E+04 3.66736E+04
 -1       476 1.23802E+04-1.80742E+04 5.81881E+03-1.08330E+03-5.80892E+02-1.37172E+04
 -1       478 1.10843E+04-1.56832E+04 4.81405E+03-2.70797E+03-4.93240E+02-1.34494E+04
 -1       479 1.80742E+04-1.23802E+04-5.81881E+03 1.08330E+03 1.37172E+04 5.80892E+02
 -1       481 1.56832E+04-1.10843E+04-4.81405E+03 2.70797E+03 1.34494E+04 4.93240E+02
 -1       482 2.07052E+04-3.88061E+04 7.75294E+03-5.49423E+02-3.69954E+04 1.13766E+04
 -1       484 1.40332E+04-4.10355E+04 6.24659E+03 2.38228E+03-3.66736E+04 1.09981E+04
 -1       485 1.77873E+03-1.72481E+04 8.09677E+03 1.61744E+03-8.29303E+03-5.38654E+02
 -1       487 6.72321E+02-1.80803E+04 6.87043E+03-4.59669E+02-7.92849E+03 1.04559E+02
 -1       488 9.75959E+03-7.81730E+03-1.01585E+04 3.77001E+03 1.45653E+04-1.92635E+03
 -1       490 4.75160E+03-7.81636E+03-1.02711E+04 4.52019E+03 1.43772E+04-1.92289E+03
 -1       491 2.82362E+03-6.53639E+04 3.55209E+04-1.93801E+03-5.22702E+04 6.82681E+03
 -1       493-3.47575E+03-6.65939E+04 3.55644E+04 3.62737E+03-5.13629E+04 5.11518E+03
 -1       494 3.55131E+02-2.47278E+04 1.28195E+04 3.39374E+03-3.25428E+03-1.84496E+03
 -1       496 3.35184E+01-2.34238E+04 1.20095E+04 8.65572E+02-3.97379E+03-6.89750E+02
 -1       497 1.14775E+04 4.32384E+03-2.08782E+04 2.26298E+03 1.70972E+04-4.92830E+03
 -1       499 4.37940E+03 4.44157E+03-2.10653E+04 3.76963E+03 1.63661E+04-5.52927E+03
 -1       500-1.61769E+02-1.07678E+05 7.40806E+04 2.41902E+00-4.12292E+04 1.03701E+04
 -1       502-8.23136E+03-1.08682E+05 7.37214E+04 7.17139E+03-3.97924E+04 6.36860E+03
 -1       503-1.04658E+03-3.29118E+04 2.04850E+04 3.66370E+03 2.88997E+03-5.72921E+02
 -1       505-1.27037E+03-3.22486E+04 1.93119E+04 7.77826E+02 1.57638E+03 1.39912E+03
 -1       506 9.41425E+03 1.55875E+04-3.54760E+04 2.40591E+02 1.24690E+04-6.03313E+03
 -1       508-5.45529E+02 1.46350E+04-3.60559E+04 2.62542E+03 1.22488E+04-7.78867E+03
 -1       509-2.60503E+03-1.62988E+05 1.23769E+05 6.75587E+02-1.00717E+04 1.24345E+04
 -1       511-1.33992E+04-1.63205E+05 1.22723E+05 1.06996E+04-7.92877E+03 3.99451E+03
 -1       512 6.53639E+04-2.82362E+03-3.55209E+04 1.93801E+03-6.82681E+03 5.22702E+04
 -1       514 6.65939E+04 3.47575E+03-3.55644E+04-3.62737E+03-5.11518E+03 5.13629E+04
 -1       515 7.81730E+03-9.75959E+03 1.01585E+04-3.77001E+03 1.92635E+03-1.45653E+04
 -1       517 7.81636E+03-4.75160E+03 1.02711E+04-4.52019E+03 1.92289E+03-1.43772E+04
 -1       518 1.72481E+04-1.77873E+03-8.09677E+03-1.61744E+03 5.38654E+02 8.29303E+03
 -1       520 1.80803E+04-6.72321E+02-6.87043E+03 4.59669E+02-1.04559E+02 7.92849E+03
 -1       521 7.03921E+02 3.71488E+02 4.08858E+03-3.24960E+03-1.05254E+03-5.40597E+02
 -1       523-1.96567E+03-3.28273E+03 2.12129E+03-2.83271E+03-6.40377E+02-1.37848E+02
 -1       524-3.71488E+02-7.03921E+02-4.08858E+03 3.24960E+03 5.40597E+02 1.05254E+03
 -1       526 3.28273E+03 1.96567E+03-2.12129E+03 2.83271E+03 1.37849E+02 6.40377E+02
 -1       527 7.17523E+02-5.90292E+03 1.75657E+03-4.42561E+02 2.34998E+02-9.07426E+02
 -1       529 1.35039E+03-2.80213E+03 2.75085E+03-6.42915E+02-1.25519E+03-7.47034E+02
 -1       530-1.76594E+03 3.06798E+03-2.95745E+03 2.53216E+03-1.26522E+03-3.80117E+02
 -1       532 4.58668E+03 7.47924E+03 2.93434E+02 2.41151E+03-3.01597E+03-1.72092E+03
 -1       533 1.10981E+03-3.64525E+03 6.23855E+03 6.46044E+02-1.15175E+03-2.90970E+02
 -1       535 9.54978E+02-3.38723E+03 5.53045E+03 1.19033E+02-2.29320E+03-1.65780E+02
 -1       536-6.25210E+03 3.32141E+03-3.21498E+03 4.79441E+03-3.17001E+03-1.06680E+03
 -1       538 2.64292E+03 8.02047E+03 1.57372E+03 3.81579E+03-4.79878E+03-2.02137E+03
 -1       539 1.07678E+05 1.61769E+02-7.40806E+04-2.41902E+00-1.03701E+04 4.12292E+04
 -1       541 1.08682E+05 8.23136E+03-7.37214E+04-7.17139E+03-6.36860E+03 3.97924E+04
 -1       542-4.32384E+03-1.14775E+04 2.08782E+04-2.26298E+03 4.92830E+03-1.70972E+04
 -1       544-4.44157E+03-4.37940E+03 2.10653E+04-3.76963E+03 5.52927E+03-1.63661E+04
 -1       545 2.47278E+04-3.55131E+02-1.28195E+04-3.39374E+03 1.84496E+03 3.25428E+03
 -1       547 2.34238E+04-3.35184E+01-1.20095E+04-8.65572E+02 6.89750E+02 3.97379E+03
 -1       548-3.06798E+03 1.76594E+03 2.95745E+03-2.53216E+03 3.80117E+02 1.26522E+03
 -1       550-7.47924E+03-4.58668E+03-2.93434E+02-2.41151E+03 1.72092E+03 3.01597E+03
 -1       551 5.90292E+03-7.17523E+02-1.75657E+03 4.42561E+02 9.07426E+02-2.34998E+02
 -1       553 2.80213E+03-1.35039E+03-2.75085E+03 6.42915E+02 7.47034E+02 1.25519E+03
 -1       554-3.03691E+03-7.62219E+03-3.64560E+03 5.89309E+02 3.11489E+03 4.11799E+02
 -1       556-3.10926E+03-3.22881E+03-1.73971E+03 3.63276E+02 2.00325E+03 1.89770E+03
 -1       557 7.62219E+03 3.03691E+03 3.64560E+03-5.89309E+02-4.11799E+02-3.11489E+03
 -1       559 3.22881E+03 3.10926E+03 1.73971E+03-3.63276E+02-1.89770E+03-2.00325E+03
 -1       560-2.48719E+03-4.92608E+03-1.51127E+03 3.90019E+02 2.02977E+03 5.23354E+02
 -1       562-4.82137E+03-3.65480E+03-1.33648E+03 7.25250E+02 1.29326E+03 1.92762E+03
 -1       563 4.29872E+03 2.99095E+03 2.16072E+03-1.57229E+02-1.48302E+03-2.49557E+03
 -1       565 2.75327E+02 2.52147E+03 1.57685E+03 5.53379E+02-2.57927E+03-1.34026E+03
 -1       566 1.62988E+05 2.60503E+03-1.23769E+05-6.75587E+02-1.24345E+04 1.00717E+04
 -1       568 1.63205E+05 1.33992E+04-1.22723E+05-1.06996E+04-3.99451E+03 7.92877E+03
 -1       569 3.29118E+04 1.04658E+03-2.04850E+04-3.66370E+03 5.72921E+02-2.88997E+03
 -1       571 3.22486E+04 1.27037E+03-1.93119E+04-7.77826E+02-1.39912E+03-1.57638E+03
 -1       572 3.64525E+03-1.10981E+03-6.23855E+03-6.46044E+02 2.90970E+02 1.15175E+03
 -1       574 3.38723E+03-9.54978E+02-5.53045E+03-1.19033E+02 1.65780E+02 2.29320E+03
 -1       575 4.92608E+03 2.48719E+03 1.51127E+03-3.90019E+02-5.23354E+02-2.02977E+03
 -1       577 3.65480E+03 4.82137E+03 1.33648E+03-7.25250E+02-1.92762E+03-1.29326E+03
 -1       578 2.54502E+03 1.22867E+03 1.34655E+03-8.65742E+02-1.94946E+02-1.52025E+03
 -1       580 1.27834E+03 2.97183E+03 2.40100E+03-4.92448E+02-1.37331E+03-2.81967E+01
 -1       581 2.29004E+03 1.21103E+03 1.62957E+03-1.32213E+03-1.59160E+02-8.06198E+02
 -1       583 9.55571E+02 2.75800E+03 2.51925E+03-9.61892E+02-1.81516E+03 9.89941E+02
 -1       584-3.40869E+03-3.95098E+03-2.07170E+03 1.74302E+03 1.24344E+03 8.19231E+01
 -1       586-5.63512E+03-2.28044E+03-9.19805E+02 2.47189E+03 1.99913E+02 1.79621E+03
 -1       587 5.53983E+03 3.60236E+03 4.31965E+03-1.68794E+03-1.86272E+03-1.62811E+03
 -1       589 9.13589E+02 2.74343E+03 4.36031E+03-6.60211E+02-3.64085E+03-4.34355E+02
 -1       590-1.26458E+03-4.12566E+03 8.06259E+03 7.16101E+02 4.22097E+02-4.07783E+02
 -1       592-9.81042E+02-3.12916E+03 8.82916E+03-2.41685E+02-1.31643E+03 4.89145E+02
 -1       593-5.54159E+03 3.99297E+03-5.35203E+02 4.94987E+03-6.30206E+03-4.63162E+02
 -1       595 1.14856E+03 7.06630E+03 4.20593E+03 3.61076E+03-8.24451E+03-9.04613E+02
 -1       596-6.66899E+03-3.52607E+04 2.29688E+04 2.35530E+03 1.34039E+04 4.08740E+02
 -1       598-5.09970E+03-3.36964E+04 2.43838E+04-1.59146E+02 1.09820E+04 2.68960E+03
 -1       599 5.22743E+03 2.28287E+04-3.92310E+04-4.06901E+03-1.62719E+03-5.19725E+03
 -1       601-4.16730E+03 2.11182E+04-4.04117E+04-1.43043E+03-1.20415E+03-8.42292E+03
 -1       602-7.37686E+03-1.93681E+05 1.52204E+05 6.22034E+03 5.19015E+04 1.69181E+04
 -1       604-2.02823E+04-1.92514E+05 1.50261E+05 1.64939E+04 5.42630E+04 4.27756E+03
 -1       605 2.49253E+03 9.20011E+02 2.56289E+03-1.52328E+03 2.12221E+02-1.15788E+03
 -1       607 1.62462E+03 2.89825E+03 4.91319E+03-1.44377E+03-2.80007E+03 1.65550E+03
 -1       608-3.70221E+03-4.68261E+03-2.80287E+03 1.35614E+03 2.87095E+03 8.41767E+02
 -1       610-6.19314E+03-3.20419E+03-1.04865E+03 1.97071E+03 7.00852E+02 3.11976E+03
 -1       611 7.88397E+03 2.46151E+03 4.86854E+03-1.17379E+03-2.56085E+03-1.44909E+03
 -1       613 2.85558E+03 1.30248E+03 6.49241E+03-8.25755E+01-5.02590E+03 5.53277E+02
 -1       614-2.87889E+03-6.03766E+03 3.99562E+03 7.83859E+02 4.54206E+03 9.24136E+02
 -1       616-3.09106E+03-4.69672E+03 6.99275E+03 1.38652E+02 2.02847E+03 2.43974E+03
 -1       617-4.86787E+03 4.88532E+03 8.37138E+02-1.82627E+03-6.55225E+03 1.90000E+02
 -1       619-2.20351E+03 7.27380E+03 5.30170E+03-1.68759E+03-7.43188E+03-6.22683E+02
 -1       620-1.05181E+04-3.08217E+04 1.97714E+04-1.07082E+02 2.30922E+04 6.01568E+03
 -1       622-9.66643E+03-2.93382E+04 2.23940E+04-9.45960E+02 2.13470E+04 7.31520E+03
 -1       623 2.14304E+03 2.01031E+04-3.33849E+04-2.01148E+03-1.70694E+04 1.01543E+03
 -1       625-3.94863E+03 1.96107E+04-3.37602E+04 5.44317E+02-1.66067E+04-3.81326E+03
 -1       626-9.91881E+03-1.76119E+05 1.43671E+05 8.02578E+03 1.23570E+05 1.53376E+04
 -1       628-2.06948E+04-1.74975E+05 1.41002E+05 1.57854E+04 1.24655E+05 6.98907E+02
 -1       629 3.53124E+03 1.21279E+03 3.93537E+03-2.24395E+03 1.41896E+03-1.81853E+03
 -1       631 1.50882E+03 1.84001E+03 6.12360E+03-1.39345E+03-3.18170E+03 3.30562E+03
 -1       632-5.71798E+03-5.60577E+03-8.17291E+03 4.56214E+03 2.28454E+03 4.05175E+02
 -1       634-8.25360E+03-4.46594E+03-4.36539E+03 5.56293E+03-9.89879E+02 3.77670E+03
 -1       635 1.15033E+04 5.05922E+03 6.52630E+03-3.61757E+03-4.43585E+03-2.50511E+03
 -1       637 3.82519E+03 2.68002E+03 8.64758E+03-6.09958E+02-6.42328E+03-7.29431E+01
 -1       638-1.07479E+04-4.82369E+03-3.40353E+03 1.03620E+03 7.57268E+03 4.20388E+03
 -1       640-1.36103E+04-4.52845E+03 6.17513E+02 2.16543E+03 5.88991E+03 5.29281E+03
 -1       641 9.87887E+03 3.93619E+03 6.50238E+03-7.87692E+03 3.46138E+02 5.41724E+03
 -1       643 9.10913E+03 4.68841E+03 1.57436E+04-6.24286E+03 4.71502E+02 9.10473E+02
 -1       644-4.76062E+03-1.64520E+04 1.93112E+04-2.26773E+03 3.09748E+04 1.10832E+04
 -1       646-8.81101E+03-1.98226E+04 1.57367E+04-2.14560E+03 3.10585E+04 1.09877E+04
 -1       647 1.06804E+04 1.82114E+04-1.13590E+04 5.99840E+03-6.71516E+04 2.87523E+03
 -1       649 7.46064E+03 1.64998E+04-1.49080E+04 7.22983E+03-6.63396E+04-2.84649E+03
 -1       650-1.96446E+03-1.18922E+05 1.09394E+05 5.50352E+03 1.88040E+05 1.08838E+04
 -1       652-7.04923E+03-1.16671E+05 1.08039E+05 1.02334E+04 1.87838E+05-5.28596E+03
 -1       653 9.01772E+03 7.04306E+03 6.40475E+03-7.37110E+03 2.62942E+03-2.35816E+03
 -1       655 4.45158E+03 3.83319E+03 5.78213E+03-4.16286E+03-3.17705E+03 4.87286E+03
 -1       656-8.70817E+03-4.56683E+03-8.70804E+03 5.55965E+03 3.64981E+02-2.81633E+02
 -1       658-1.39898E+04-6.16249E+03-6.83619E+03 8.89036E+03-3.32006E+03 4.79773E+03
 -1       659 2.53857E+04 6.95427E+03 1.11645E+04-1.12573E+04-3.64722E+03-4.56906E+03
 -1       661 1.60542E+04 4.81736E+03 1.48767E+04-6.06176E+03-6.06639E+03 1.06123E+02
 -1       662-1.39808E+04-4.84881E+03-1.27270E+04 2.88997E+03 1.29800E+04 2.31048E+03
 -1       664-2.16306E+04-4.91333E+03-7.51297E+03 6.06109E+03 1.12120E+04 5.18352E+03
 -1       665 2.48960E+04 8.50634E+03 2.89299E+04-1.27625E+04 1.13440E+04-6.21778E+01
 -1       667 1.07773E+04 3.22857E+03 2.71456E+04-9.61340E+03 1.16808E+04-1.83602E+02
 -1       668 5.11663E+03-5.22789E+03-1.42750E+04 3.68247E+03 1.25621E+04 3.87216E+03
 -1       670 5.42414E+03-3.90997E+03-2.11863E+03 4.15280E+03 1.18468E+04 1.07171E+03
 -1       671-3.22530E+04 7.42821E+03-9.53537E+03 1.97321E+04-9.86361E+04-1.52274E+04
 -1       673-1.12865E+04 1.24521E+04 3.94294E+04 1.85738E+04-1.00004E+05-1.24157E+04
 -1       674-2.56463E+03-6.92109E+04 2.09048E+04-1.96043E+04 3.08573E+05 1.22257E+04
 -1       676 1.23585E+04-6.69716E+04 5.53212E+04-1.76326E+04 3.05097E+05-6.45397E+03
 -3
    1PSTEP                         3           1           1          
  100CL  101 1.000000000         399                     0    1           1
 -4  TOSTRAIN    6    1
 -5  EXX         1    4    1    1
 -5  EYY         1    4    2    2
 -5  EZZ         1    4    3    3
 -5  EXY         1    4    1    2
 -5  EYZ         1    4    2    3
 -5  EZX         1    4    3    1
 -1       170-5.25339E-07 2.69663E-07 2.82541E-07-3.97291E-07-1.51711E-08-9.65032E-08
 -1       171-3.00261E-07 2.16859E-07-3.70657E-07-3.95946E-07 5.06120E-08-6.62208E-08
 -1       172-7.51894E-08 1.64280E-07-1.02131E-06-3.95683E-07 1.15976E-07-3.72958E-08
 -1       173 3.40013E-06-1.06726E-07-3.05692E-06 3.34890E-09-2.32731E-07-2.83188E-07
 -1       174 3.36692E-06-1.73653E-08-3.07345E-06-1.06920E-07-1.22434E-07-3.06745E-07
 -1       175 3.33351E-06 7.16901E-08-3.08991E-06-2.16421E-07-1.23015E-08-3.30216E-07
 -1       176-1.38912E-10 1.38912E-10-9.65626E-18-3.28132E-17-9.64118E-10 9.64118E-10
 -1       177-1.22297E-08 1.22297E-08 1.98678E-19-2.60357E-17-1.61229E-08 1.61229E-08
 -1       178-2.43063E-08 2.43063E-08 1.00279E-17-1.90760E-17-3.11548E-08 3.11548E-08
 -1       179 1.49238E-08-1.49238E-08 1.22427E-16 1.42029E-16-2.60785E-08 2.60785E-08
 -1       180 1.53307E-08-1.53307E-08 2.97198E-16 3.34254E-16-1.03671E-07 1.03671E-07
 -1       181 1.56063E-08-1.56064E-08 4.71561E-16 5.25163E-16-1.80977E-07 1.80977E-07
 -1       182 4.29832E-07-4.29832E-07-4.15832E-17 1.45583E-18-2.33663E-07 2.33663E-07
 -1       183 4.28846E-07-4.28846E-07-4.14465E-17 1.45834E-18-2.32287E-07 2.32287E-07
 -1       184 4.27799E-07-4.27799E-07-4.14481E-17 1.45989E-18-2.30799E-07 2.30799E-07
 -1       185 1.06726E-07-3.40013E-06 3.05692E-06-3.34890E-09 2.83188E-07 2.32731E-07
 -1       186 1.73653E-08-3.36692E-06 3.07345E-06 1.06920E-07 3.06745E-07 1.22434E-07
 -1       187-7.16901E-08-3.33351E-06 3.08991E-06 2.16421E-07 3.30216E-07 1.23015E-08
 -1       188-2.69663E-07 5.25339E-07-2.82541E-07 3.97291E-07 9.65032E-08 1.51711E-08
 -1       189-2.16859E-07 3.00261E-07 3.70657E-07 3.95946E-07 6.62208E-08-5.06120E-08
 -1       190-1.64280E-07 7.51894E-08 1.02131E-06 3.95683E-07 3.72958E-08-1.15976E-07
 -1       191 1.30471E-06-1.91367E-07-1.50508E-06-2.80649E-07-1.89447E-07-2.37564E-06
 -1       192 1.26989E-06-1.70338E-07-1.39491E-06-3.10903E-07-3.42759E-08-2.38386E-06
 -1       193 1.23528E-06-1.49305E-07-1.28520E-06-3.40734E-07 1.20137E-07-2.39254E-06
 -1       194 2.87573E-06 7.20892E-08-2.63766E-06-2.69617E-09-2.40027E-07-3.02234E-06
 -1       195 2.84855E-06 1.27084E-07-2.63376E-06-6.49751E-08-8.99554E-08-3.02143E-06
 -1       196 2.82133E-06 1.81835E-07-2.62996E-06-1.26922E-07 5.95491E-08-3.02043E-06
 -1       197 3.41922E-06-1.39147E-08-3.10861E-06-1.01749E-07-2.77791E-07-1.67465E-06
 -1       198 3.37059E-06 8.05255E-08-3.11628E-06-1.88389E-07-1.47404E-07-1.69518E-06
 -1       199 3.32189E-06 1.74640E-07-3.12401E-06-2.74266E-07-1.73509E-08-1.71562E-06
 -1       200 6.18647E-07-3.16683E-08-5.38028E-07-6.81789E-08 9.26991E-09-7.16809E-08
 -1       201 6.08040E-07-3.13091E-08-5.34774E-07-3.80790E-08-1.62883E-08-5.22915E-08
 -1       202 5.97450E-07-3.09451E-08-5.31451E-07-7.93319E-09-4.16198E-08-3.29946E-08
 -1       203 5.59544E-08 4.70304E-08-1.58517E-07-2.02546E-09 3.34607E-08 7.18178E-08
 -1       204 5.27747E-08 4.15356E-08-1.56093E-07 6.51166E-09 2.95533E-08 8.25313E-08
 -1       205 4.96702E-08 3.60260E-08-1.53589E-07 1.49656E-08 2.55999E-08 9.32253E-08
 -1       206 3.05459E-08 1.46442E-08-1.25505E-08-1.54525E-08-8.55359E-09 9.18865E-09
 -1       207 1.43506E-08 3.65474E-08-2.46868E-08-2.21839E-08-2.40474E-08 1.77596E-08
 -1       208-1.81203E-09 5.83454E-08-3.67667E-08-2.89214E-08-3.95033E-08 2.62889E-08
 -1       209-1.34528E-08 1.34528E-08-3.67534E-17 2.59491E-17-1.04554E-08 1.04554E-08
 -1       210-2.40996E-08 2.40996E-08-1.50272E-17 3.95589E-17-2.88080E-08 2.88080E-08
 -1       211-3.47380E-08 3.47380E-08 6.55259E-18 5.32184E-17-4.70725E-08 4.70725E-08
 -1       212-1.50856E-08 1.50856E-08-4.25117E-17 5.35622E-17-7.07887E-09 7.07887E-09
 -1       213-2.71073E-08 2.71073E-08-6.50978E-18 9.35416E-17-3.85631E-08 3.85631E-08
 -1       214-3.90632E-08 3.90632E-08 2.93889E-17 1.33863E-16-6.99205E-08 6.99205E-08
 -1       215-1.92514E-08 1.92514E-08 2.49762E-16 1.08687E-16-1.42096E-08 1.42096E-08
 -1       216-3.02843E-08 3.02843E-08 3.90181E-16 1.58158E-16-7.28926E-08 7.28926E-08
 -1       217-4.12840E-08 4.12840E-08 5.29875E-16 2.07021E-16-1.31345E-07 1.31345E-07
 -1       218 8.54639E-08 2.87178E-07-3.88411E-07 1.34247E-07-1.00356E-07-1.59413E-06
 -1       219 9.70309E-08 3.31156E-07-3.62028E-07 1.29233E-07-1.38935E-07-1.58815E-06
 -1       220 1.08827E-07 3.74954E-07-3.35851E-07 1.23618E-07-1.77386E-07-1.58199E-06
 -1       221 4.69188E-08 6.21102E-08 2.23298E-08-1.41368E-07 1.82301E-08 1.01435E-07
 -1       222 3.96754E-08 1.38657E-07-5.87379E-08-1.79064E-07-1.26080E-08 1.15319E-07
 -1       223 3.24357E-08 2.14820E-07-1.39539E-07-2.16689E-07-4.33212E-08 1.29257E-07
 -1       224 9.37240E-09 5.54663E-08-3.61897E-08 7.32562E-10-7.87306E-08-3.64569E-08
 -1       225 1.86277E-08 9.92497E-08-5.75851E-08-4.77515E-08-1.40161E-07 2.94269E-09
 -1       226 2.77277E-08 1.42836E-07-7.89308E-08-9.60533E-08-2.01254E-07 4.22869E-08
 -1       227 2.35084E-06-1.34887E-07-2.02457E-06-7.27031E-09-2.00742E-07 6.48513E-07
 -1       228 2.33472E-06-6.79455E-08-2.04133E-06-9.05116E-08-1.45430E-07 6.32170E-07
 -1       229 2.31842E-06-1.21058E-09-2.05799E-06-1.73249E-07-9.01244E-08 6.15832E-07
 -1       230 1.36180E-06-1.25758E-07-1.08428E-06 1.23827E-08-1.29913E-07 9.05751E-07
 -1       231 1.35435E-06-8.12385E-08-1.10130E-06-4.22429E-08-1.06703E-07 8.94763E-07
 -1       232 1.34676E-06-3.68530E-08-1.11827E-06-9.65690E-08-8.34492E-08 8.83757E-07
 -1       233 8.31442E-07-2.69074E-07-4.98757E-07 1.77550E-08-1.95760E-07 1.12466E-06
 -1       234 8.28749E-07-2.29251E-07-5.15192E-07-3.45633E-08-1.85325E-07 1.11852E-06
 -1       235 8.25964E-07-1.89570E-07-5.31593E-07-8.66428E-08-1.74824E-07 1.11231E-06
 -1       236 1.34887E-07-2.35084E-06 2.02457E-06 7.27031E-09-6.48513E-07 2.00742E-07
 -1       237 6.79455E-08-2.33472E-06 2.04133E-06 9.05116E-08-6.32170E-07 1.45430E-07
 -1       238 1.21058E-09-2.31842E-06 2.05799E-06 1.73249E-07-6.15832E-07 9.01244E-08
 -1       239 1.25758E-07-1.36180E-06 1.08428E-06-1.23827E-08-9.05751E-07 1.29913E-07
 -1       240 8.12385E-08-1.35435E-06 1.10130E-06 4.22429E-08-8.94763E-07 1.06703E-07
 -1       241 3.68530E-08-1.34676E-06 1.11827E-06 9.65690E-08-8.83757E-07 8.34492E-08
 -1       242 2.69074E-07-8.31442E-07 4.98757E-07-1.77550E-08-1.12466E-06 1.95760E-07
 -1       243 2.29251E-07-8.28749E-07 5.15192E-07 3.45633E-08-1.11852E-06 1.85325E-07
 -1       244 1.89570E-07-8.25964E-07 5.31593E-07 8.66428E-08-1.11231E-06 1.74824E-07
 -1       245 3.16683E-08-6.18647E-07 5.38028E-07 6.81789E-08 7.16809E-08-9.26991E-09
 -1       246 3.13091E-08-6.08040E-07 5.34774E-07 3.80790E-08 5.22915E-08 1.62883E-08
 -1       247 3.09451E-08-5.97450E-07 5.31451E-07 7.93319E-09 3.29946E-08 4.16198E-08
 -1       248-4.70304E-08-5.59544E-08 1.58517E-07 2.02546E-09-7.18178E-08-3.34607E-08
 -1       249-4.15356E-08-5.27747E-08 1.56093E-07-6.51166E-09-8.25313E-08-2.95533E-08
 -1       250-3.60260E-08-4.96702E-08 1.53589E-07-1.49656E-08-9.32253E-08-2.55999E-08
 -1       251-1.46442E-08-3.05459E-08 1.25505E-08 1.54525E-08-9.18865E-09 8.55359E-09
 -1       252-3.65474E-08-1.43506E-08 2.46868E-08 2.21839E-08-1.77596E-08 2.40474E-08
 -1       253-5.83454E-08 1.81203E-09 3.67667E-08 2.89214E-08-2.62889E-08 3.95033E-08
 -1       254 1.91367E-07-1.30471E-06 1.50508E-06 2.80649E-07 2.37564E-06 1.89447E-07
 -1       255 1.70338E-07-1.26989E-06 1.39491E-06 3.10903E-07 2.38386E-06 3.42759E-08
 -1       256 1.49305E-07-1.23528E-06 1.28520E-06 3.40734E-07 2.39254E-06-1.20137E-07
 -1       257-7.20892E-08-2.87573E-06 2.63766E-06 2.69617E-09 3.02234E-06 2.40027E-07
 -1       258-1.27084E-07-2.84855E-06 2.63376E-06 6.49751E-08 3.02143E-06 8.99554E-08
 -1       259-1.81835E-07-2.82133E-06 2.62996E-06 1.26922E-07 3.02043E-06-5.95491E-08
 -1       260 1.39147E-08-3.41922E-06 3.10861E-06 1.01749E-07 1.67465E-06 2.77791E-07
 -1       261-8.05255E-08-3.37059E-06 3.11628E-06 1.88389E-07 1.69518E-06 1.47404E-07
 -1       262-1.74640E-07-3.32189E-06 3.12401E-06 2.74266E-07 1.71562E-06 1.73509E-08
 -1       263-5.54663E-08-9.37240E-09 3.61897E-08-7.32561E-10 3.64569E-08 7.87306E-08
 -1       264-9.92497E-08-1.86277E-08 5.75851E-08 4.77515E-08-2.94269E-09 1.40161E-07
 -1       265-1.42836E-07-2.77277E-08 7.89308E-08 9.60533E-08-4.22869E-08 2.01254E-07
 -1       266-6.21102E-08-4.69188E-08-2.23298E-08 1.41368E-07-1.01435E-07-1.82301E-08
 -1       267-1.38657E-07-3.96754E-08 5.87379E-08 1.79064E-07-1.15319E-07 1.26080E-08
 -1       268-2.14820E-07-3.24357E-08 1.39539E-07 2.16689E-07-1.29257E-07 4.33212E-08
 -1       269-2.87178E-07-8.54639E-08 3.88411E-07-1.34247E-07 1.59413E-06 1.00356E-07
 -1       270-3.31156E-07-9.70309E-08 3.62028E-07-1.29233E-07 1.58815E-06 1.38935E-07
 -1       271-3.74954E-07-1.08827E-07 3.35851E-07-1.23618E-07 1.58199E-06 1.77386E-07
 -1       272 5.75800E-07 6.48288E-08-6.09000E-07-4.97857E-08-7.62063E-08-2.72864E-07
 -1       273 5.80568E-07 5.63334E-08-6.16119E-07-3.03841E-08-9.44700E-08-2.50595E-07
 -1       274 5.85188E-07 4.78817E-08-6.23100E-07-1.08763E-08-1.12554E-07-2.28324E-07
 -1       275 7.05098E-08 4.82691E-08-1.90873E-07 3.90049E-08 3.05581E-08 2.73446E-08
 -1       276 6.45602E-08 5.81355E-08-2.01866E-07 4.73074E-08 1.79361E-08 5.05422E-08
 -1       277 5.87291E-08 6.79355E-08-2.12757E-07 5.55110E-08 5.33692E-09 7.36793E-08
 -1       278 2.28771E-08 3.38103E-08-2.07239E-08-1.91634E-08-1.00832E-08 1.14702E-08
 -1       279 8.64539E-09 5.64191E-08-3.15064E-08-2.67250E-08-2.70302E-08 2.52425E-08
 -1       280-5.50424E-09 7.89162E-08-4.22945E-08-3.42696E-08-4.39481E-08 3.89576E-08
 -1       281 4.95657E-07 9.20746E-08-4.88512E-07-3.16704E-08-1.76264E-07-5.22925E-07
 -1       282 4.85089E-07 1.05710E-07-4.99706E-07-3.30300E-08-1.83347E-07-5.16355E-07
 -1       283 4.74448E-07 1.19286E-07-5.10748E-07-3.43008E-08-1.90383E-07-5.09768E-07
 -1       284 9.55494E-08 3.53402E-08-1.96819E-07 3.19398E-09-4.64894E-08 7.13595E-09
 -1       285 9.50587E-08 5.10704E-08-2.18845E-07 6.46084E-09-6.44775E-08 2.94600E-08
 -1       286 9.45408E-08 6.67634E-08-2.40704E-07 9.72297E-09-8.23743E-08 5.17528E-08
 -1       287-4.55377E-09 6.31562E-08-5.42624E-08 7.78072E-09-3.82054E-09-5.85769E-10
 -1       288-1.25009E-08 9.17763E-08-7.84007E-08 1.30024E-09-2.88549E-08 2.71619E-08
 -1       289-2.03856E-08 1.20277E-07-1.02448E-07-5.16585E-09-5.37944E-08 5.47933E-08
 -1       290 3.78570E-07 4.70373E-08-4.25659E-07 1.12056E-07-2.09064E-07-1.18155E-06
 -1       291 4.01057E-07 5.88785E-08-5.10292E-07 1.09408E-07-1.83681E-07-1.16998E-06
 -1       292 4.23504E-07 7.06556E-08-5.94588E-07 1.06860E-07-1.58443E-07-1.15842E-06
 -1       293 8.11513E-08 3.81767E-08-1.04950E-07-6.06440E-08-3.66987E-08 1.83541E-08
 -1       294 8.04783E-08 8.74902E-08-1.44916E-07-8.46169E-08-4.29853E-08 2.79111E-08
 -1       295 7.97930E-08 1.36562E-07-1.84710E-07-1.08570E-07-4.92192E-08 3.75207E-08
 -1       296 2.33142E-08 1.10516E-07-8.76696E-08-4.20378E-08-6.36957E-08-3.21559E-08
 -1       297 2.42819E-08 1.45519E-07-1.20238E-07-5.91664E-08-1.03805E-07 8.04073E-10
 -1       298 2.51888E-08 1.80392E-07-1.52686E-07-7.62317E-08-1.43690E-07 3.36825E-08
 -1       299 2.63309E-07-2.63309E-07 1.17288E-17-1.61325E-17-2.36526E-07 2.36526E-07
 -1       300 2.61604E-07-2.61604E-07 1.48728E-17-1.43569E-17-2.36867E-07 2.36867E-07
 -1       301 2.59885E-07-2.59885E-07 1.79565E-17-1.25849E-17-2.37151E-07 2.37151E-07
 -1       302 6.52188E-08-2.86414E-07 1.83018E-07 6.72838E-08-1.31525E-07 1.19687E-08
 -1       303 6.12299E-08-2.78445E-07 1.76897E-07 4.50927E-08-1.32297E-07 2.00770E-08
 -1       304 5.72500E-08-2.70505E-07 1.70804E-07 2.29370E-08-1.33071E-07 2.80967E-08
 -1       305 6.08042E-08-4.34892E-07 3.58455E-07 6.38668E-08-1.15320E-07-5.21227E-09
 -1       306 5.92770E-08-4.25828E-07 3.47865E-07 3.93797E-08-1.25283E-07 7.21180E-09
 -1       307 5.77304E-08-4.16806E-07 3.37292E-07 1.49002E-08-1.35204E-07 1.94730E-08
 -1       308 2.86414E-07-6.52188E-08-1.83018E-07-6.72838E-08-1.19687E-08 1.31525E-07
 -1       309 2.78445E-07-6.12299E-08-1.76897E-07-4.50927E-08-2.00770E-08 1.32297E-07
 -1       310 2.70505E-07-5.72500E-08-1.70804E-07-2.29370E-08-2.80967E-08 1.33071E-07
 -1       311 3.33340E-08-3.33340E-08 5.74898E-18 2.72710E-17-2.85470E-08 2.85470E-08
 -1       312 2.82624E-08-2.82624E-08 7.87736E-18 2.63625E-17-3.19090E-08 3.19090E-08
 -1       313 2.32443E-08-2.32443E-08 9.77663E-18 2.54402E-17-3.53027E-08 3.53027E-08
 -1       314 3.18517E-08-3.61433E-08 7.15139E-08-6.05874E-09-6.35119E-08-1.01394E-08
 -1       315 2.79703E-08-2.46760E-08 6.68183E-08-7.15746E-09-7.94986E-08-1.20370E-08
 -1       316 2.40965E-08-1.32922E-08 6.20868E-08-8.23158E-09-9.54620E-08-1.39024E-08
 -1       317 4.34892E-07-6.08042E-08-3.58455E-07-6.38668E-08 5.21227E-09 1.15320E-07
 -1       318 4.25828E-07-5.92770E-08-3.47865E-07-3.93797E-08-7.21180E-09 1.25283E-07
 -1       319 4.16806E-07-5.77304E-08-3.37292E-07-1.49002E-08-1.94730E-08 1.35204E-07
 -1       320 3.61433E-08-3.18517E-08-7.15139E-08 6.05874E-09 1.01394E-08 6.35119E-08
 -1       321 2.46760E-08-2.79703E-08-6.68183E-08 7.15746E-09 1.20370E-08 7.94986E-08
 -1       322 1.32922E-08-2.40965E-08-6.20868E-08 8.23158E-09 1.39024E-08 9.54620E-08
 -1       323 2.15943E-08-2.15943E-08-9.58691E-18-9.47806E-18-1.53993E-08 1.53993E-08
 -1       324 3.35042E-09-3.35042E-09-9.96811E-18-6.64061E-18-2.54086E-08 2.54086E-08
 -1       325-1.48596E-08 1.48596E-08-1.04153E-17-3.82374E-18-3.53955E-08 3.53955E-08
 -1       326-3.38103E-08-2.28771E-08 2.07239E-08 1.91634E-08-1.14702E-08 1.00832E-08
 -1       327-5.64191E-08-8.64539E-09 3.15064E-08 2.67250E-08-2.52425E-08 2.70302E-08
 -1       328-7.89162E-08 5.50424E-09 4.22945E-08 3.42696E-08-3.89576E-08 4.39481E-08
 -1       329-4.82691E-08-7.05098E-08 1.90873E-07-3.90049E-08-2.73446E-08-3.05581E-08
 -1       330-5.81355E-08-6.45602E-08 2.01866E-07-4.73074E-08-5.05422E-08-1.79361E-08
 -1       331-6.79355E-08-5.87291E-08 2.12757E-07-5.55110E-08-7.36793E-08-5.33692E-09
 -1       332-6.48288E-08-5.75800E-07 6.09000E-07 4.97857E-08 2.72864E-07 7.62063E-08
 -1       333-5.63334E-08-5.80568E-07 6.16119E-07 3.03841E-08 2.50595E-07 9.44700E-08
 -1       334-4.78817E-08-5.85188E-07 6.23100E-07 1.08763E-08 2.28324E-07 1.12554E-07
 -1       335-6.31562E-08 4.55377E-09 5.42624E-08-7.78072E-09 5.85769E-10 3.82054E-09
 -1       336-9.17763E-08 1.25009E-08 7.84007E-08-1.30024E-09-2.71619E-08 2.88549E-08
 -1       337-1.20277E-07 2.03856E-08 1.02448E-07 5.16585E-09-5.47933E-08 5.37944E-08
 -1       338-3.53402E-08-9.55494E-08 1.96819E-07-3.19398E-09-7.13595E-09 4.64894E-08
 -1       339-5.10704E-08-9.50587E-08 2.18845E-07-6.46084E-09-2.94600E-08 6.44775E-08
 -1       340-6.67634E-08-9.45408E-08 2.40704E-07-9.72297E-09-5.17528E-08 8.23743E-08
 -1       341-9.20746E-08-4.95657E-07 4.88512E-07 3.16704E-08 5.22925E-07 1.76264E-07
 -1       342-1.05710E-07-4.85089E-07 4.99706E-07 3.30300E-08 5.16355E-07 1.83347E-07
 -1       343-1.19286E-07-4.74448E-07 5.10748E-07 3.43008E-08 5.09768E-07 1.90383E-07
 -1       344-1.10516E-07-2.33142E-08 8.76696E-08 4.20378E-08 3.21559E-08 6.36957E-08
 -1       345-1.45519E-07-2.42819E-08 1.20238E-07 5.91664E-08-8.04073E-10 1.03805E-07
 -1       346-1.80392E-07-2.51888E-08 1.52686E-07 7.62317E-08-3.36825E-08 1.43690E-07
 -1       347-3.81767E-08-8.11513E-08 1.04950E-07 6.06440E-08-1.83541E-08 3.66987E-08
 -1       348-8.74902E-08-8.04783E-08 1.44916E-07 8.46169E-08-2.79111E-08 4.29853E-08
 -1       349-1.36562E-07-7.97930E-08 1.84710E-07 1.08570E-07-3.75207E-08 4.92192E-08
 -1       350-4.70373E-08-3.78570E-07 4.25659E-07-1.12056E-07 1.18155E-06 2.09064E-07
 -1       351-5.88785E-08-4.01057E-07 5.10292E-07-1.09408E-07 1.16998E-06 1.83681E-07
 -1       352-7.06556E-08-4.23504E-07 5.94588E-07-1.06860E-07 1.15842E-06 1.58443E-07
 -1       353 3.47442E-06-7.42300E-08-3.11387E-06-1.18483E-07-3.22250E-07-9.88599E-07
 -1       355 3.39205E-06 1.11448E-07-3.13699E-06-3.14170E-07-8.14773E-08-1.03358E-06
 -1       356-4.83952E-07-1.48690E-07 6.98136E-07 7.75050E-08 9.89952E-08 3.09942E-08
 -1       358-5.05375E-07-2.37471E-08 6.66622E-07 2.72463E-08 1.60437E-07 2.29363E-08
 -1       359 5.88288E-07 4.36840E-08-5.20846E-07-4.48629E-08-7.78553E-09-2.55312E-07
 -1       361 5.78486E-07 3.37861E-08-5.27804E-07 3.03135E-09-5.12305E-08-2.09181E-07
 -1       362-3.42946E-07-2.25360E-07 6.29693E-07-4.58269E-09 1.14917E-07-2.37505E-07
 -1       364-3.75318E-07-8.61648E-08 5.90224E-07-5.00080E-08 1.48356E-07-2.33311E-07
 -1       365-8.52163E-08 9.63944E-08 1.03472E-09-9.42832E-08 8.82214E-09 1.20039E-07
 -1       367-7.99993E-08 3.27195E-08-2.55161E-08-6.87764E-08 1.72307E-08 1.57038E-07
 -1       368 9.03306E-08 3.58338E-08-1.41827E-07-1.36400E-08 7.76730E-09-8.03994E-09
 -1       370 8.03457E-08 3.94292E-08-1.47432E-07 4.60352E-09-9.31705E-09 2.50749E-08
 -1       371-9.02789E-08 9.20737E-08 3.42238E-08-9.13221E-08 2.03200E-08 6.03811E-08
 -1       373-9.89813E-08 3.44821E-09 2.38138E-08-7.26818E-08 3.85023E-08 9.14054E-08
 -1       374-9.44356E-09-4.63476E-08-2.31061E-08 3.21513E-08 3.10117E-08 3.54803E-08
 -1       376-1.70149E-08 1.78393E-08-4.78125E-08 1.25754E-08 8.27342E-09 6.93496E-08
 -1       377 3.38002E-08 2.34709E-08-1.99558E-09-3.32004E-08-1.56044E-09-2.36847E-08
 -1       379 4.60021E-09 6.84988E-08-2.13167E-08-4.70835E-08-3.42135E-08-3.80786E-09
 -1       380-1.54303E-08-4.03402E-08 3.83565E-10 2.99483E-09 4.75347E-08 2.82480E-08
 -1       382-2.88032E-08 1.39805E-08-1.08104E-08-1.05406E-08 2.55289E-08 4.91289E-08
 -1       383-5.15041E-10-2.10675E-08-8.48718E-09 2.51833E-08 1.53562E-08 3.03161E-09
 -1       385-2.51362E-08 9.19566E-09-2.05888E-08 1.83218E-08-1.88560E-08 3.45745E-08
 -1       386 8.71589E-09-8.71589E-09-5.56377E-17-6.46275E-18 2.46869E-09-2.46869E-09
 -1       388-1.48148E-08 1.48148E-08-2.41353E-17 1.21279E-17-3.09927E-08 3.09927E-08
 -1       389-8.96712E-10-2.59700E-08-3.14208E-09 1.64903E-08 2.89571E-08 3.71326E-09
 -1       391-2.73703E-08 4.88653E-09-1.64974E-08 9.37997E-09 5.37081E-10 2.61582E-08
 -1       392 3.16843E-06 2.70040E-09-2.92282E-06-1.52872E-07-2.92145E-07-2.35371E-06
 -1       394 3.09256E-06 1.53886E-07-2.92605E-06-3.00674E-07-1.33125E-08-2.37439E-06
 -1       395-4.31878E-07-8.97815E-08 5.86942E-07 3.83139E-08-1.93416E-08 3.25131E-07
 -1       397-4.53089E-07-4.34019E-09 5.63499E-07-1.03679E-08 7.26335E-08 3.16318E-07
 -1       398 4.92274E-07 1.05539E-07-4.71404E-07 2.03966E-09-1.14584E-07-4.39852E-07
 -1       400 4.85810E-07 1.11109E-07-4.99567E-07 1.80183E-08-1.39337E-07-4.06609E-07
 -1       401-8.92972E-08 9.64777E-08-1.21891E-08 3.47861E-08-3.61904E-09 1.24805E-07
 -1       403-9.29574E-08 8.75628E-08-5.53936E-08 3.21446E-08 1.18606E-08 1.41560E-07
 -1       404 9.33726E-08 3.32055E-08-9.77375E-08-1.49307E-08-1.76026E-08-8.65154E-08
 -1       406 8.59666E-08 5.53827E-08-1.36690E-07-2.64098E-09-4.64712E-08-3.86376E-08
 -1       407 1.99889E-08-8.32960E-08-2.58593E-08 2.23580E-08 2.76017E-08 4.87781E-08
 -1       409 2.20061E-08-7.57670E-09-7.68498E-08 1.57287E-09-1.05386E-08 9.57315E-08
 -1       410 4.00159E-08 2.13416E-08 4.21137E-09-2.58313E-08-1.60337E-08-5.46848E-08
 -1       412 1.51158E-08 7.20482E-08-2.59421E-08-3.75373E-08-5.94240E-08-1.33496E-08
 -1       413 8.74157E-09-2.12111E-08-2.25513E-08 2.90148E-08 2.20548E-08-4.04230E-09
 -1       415-1.37276E-08 1.05321E-08-5.21074E-08 2.75003E-08-3.15333E-08 5.33347E-08
 -1       416-3.72099E-09 3.72099E-09-9.26992E-17 8.51605E-17 6.72625E-09-6.72625E-09
 -1       418-2.75485E-08 2.75485E-08-5.07657E-17 1.35625E-16-4.19386E-08 4.19386E-08
 -1       419 2.21467E-06-1.31016E-08-2.13421E-06-1.04829E-07-2.07311E-07-3.58172E-06
 -1       421 2.15337E-06 6.53447E-08-2.12682E-06-1.94921E-07 1.00685E-07-3.57787E-06
 -1       422-2.69816E-07-1.26369E-07 2.93430E-07-1.14255E-07-5.47663E-08 1.27908E-06
 -1       424-2.74490E-07-1.02317E-07 3.23752E-07-1.37711E-07 5.42189E-08 1.26361E-06
 -1       425 3.05014E-07 8.23206E-08-3.76191E-07 4.31948E-08-2.11109E-07-5.89996E-07
 -1       427 3.20884E-07 1.11139E-07-3.56437E-07 4.08686E-08-2.09289E-07-5.91591E-07
 -1       428 1.43325E-08-9.88616E-08-3.45474E-08 1.50037E-07-1.03186E-07-6.59310E-09
 -1       430 4.05479E-08-4.36562E-08-1.70026E-07 1.18912E-07-1.73423E-08-8.98099E-09
 -1       431 8.47272E-09 1.21315E-07-1.85781E-08-1.97372E-08-8.00740E-08-1.44241E-07
 -1       433 9.23973E-09 1.82227E-07-8.87786E-08-4.12463E-08-1.00815E-07-1.12189E-07
 -1       434 5.12330E-09-1.17622E-07-2.28210E-08 6.89061E-08 4.77165E-08 8.44925E-08
 -1       436 1.55576E-08-6.25506E-09-9.81101E-08 1.16182E-08 1.38939E-09 1.22348E-07
 -1       437 2.10770E-08 2.32143E-08 6.99748E-08-8.68979E-08-7.71762E-09-4.35150E-08
 -1       439 9.96688E-09 8.21129E-08 8.05173E-09-1.05961E-07-7.19372E-08 1.88548E-08
 -1       440 1.50505E-08-2.91105E-08-3.68083E-08 4.27420E-08 3.46387E-08-2.70278E-08
 -1       442 6.58932E-09 1.28976E-08-7.50030E-08 2.65419E-08-6.29643E-08 6.06039E-08
 -1       443 1.09494E-08-1.09494E-08-1.63852E-16 2.01002E-16 2.90037E-08-2.90037E-08
 -1       445-1.55425E-08 1.55425E-08-2.22735E-17 2.81150E-16-6.16738E-08 6.16738E-08
 -1       446 1.09469E-06-1.74758E-07-6.21794E-07 3.73415E-07-2.32870E-07-5.87759E-06
 -1       448 1.27876E-06-2.32287E-07-1.05062E-06 3.35859E-07 1.22933E-07-5.81137E-06
 -1       449-2.92523E-07 4.63309E-07 3.05923E-08-3.75850E-07 2.90045E-07 1.87878E-06
 -1       451-5.87434E-08 3.93421E-07-5.72597E-07-3.53786E-07 2.36490E-07 1.90484E-06
 -1       452 3.63427E-08-1.60696E-07 2.08668E-07-7.01422E-08-7.37554E-08-2.39278E-07
 -1       454 7.18187E-08-1.05974E-07 3.76979E-08-7.91009E-08-2.04135E-08-2.25653E-07
 -1       455 1.11962E-07-2.00222E-07-2.77058E-07 2.43095E-07 1.18434E-09-2.16077E-07
 -1       457 1.19389E-07-2.43970E-08-3.36173E-07 1.83112E-07 3.49719E-09-2.22492E-07
 -1       458-4.63521E-08 1.27591E-07 1.03708E-07-5.50471E-08-4.40092E-08-2.47238E-07
 -1       460-5.61135E-08 2.62311E-07-6.59650E-09-1.15449E-07-9.87336E-08-2.13562E-07
 -1       461 5.87664E-08-2.92309E-07-2.14293E-08 2.14425E-07 8.70298E-08 6.94709E-08
 -1       463 6.53761E-08-1.48659E-07-1.26231E-07 1.15462E-07-2.02139E-09 1.15550E-07
 -1       464-9.64156E-09 6.92412E-08 6.92387E-08-1.05898E-07 5.36444E-09-6.95201E-09
 -1       466-1.24979E-09 1.47841E-07 1.15826E-08-1.69340E-07-9.13854E-08 6.32392E-08
 -1       467-3.54039E-08-7.30165E-08-2.32457E-08 1.40402E-07 4.49174E-08-5.00841E-08
 -1       469-1.11807E-08-2.29595E-08-4.83033E-08 7.92926E-08-9.28164E-08 6.05152E-08
 -1       470-9.30885E-09 9.30885E-09-3.36809E-16 4.54231E-16 3.52112E-08-3.52112E-08
 -1       472-2.30550E-08 2.30550E-08 3.21881E-17 6.75861E-16-1.03057E-07 1.03057E-07
 -1       473 6.93679E-07-4.39870E-07-1.93161E-07 1.04652E-08-2.16697E-07 7.04674E-07
 -1       475 6.90395E-07-3.58533E-07-2.10217E-07-4.53767E-08-2.09487E-07 6.98544E-07
 -1       476 2.35265E-07-3.44819E-07 1.10286E-07-2.06344E-08-1.10646E-08-2.61280E-07
 -1       478 2.10185E-07-2.99674E-07 9.07505E-08-5.15804E-08-9.39505E-09-2.56179E-07
 -1       479 3.44819E-07-2.35265E-07-1.10286E-07 2.06344E-08 2.61280E-07 1.10646E-08
 -1       481 2.99674E-07-2.10185E-07-9.07505E-08 5.15804E-08 2.56179E-07 9.39505E-09
 -1       482 4.39870E-07-6.93679E-07 1.93161E-07-1.04652E-08-7.04674E-07 2.16697E-07
 -1       484 3.58533E-07-6.90395E-07 2.10217E-07 4.53767E-08-6.98544E-07 2.09487E-07
 -1       485 6.62877E-08-2.96129E-07 1.86631E-07 3.08085E-08-1.57962E-07-1.02601E-08
 -1       487 5.91248E-08-2.98067E-07 1.77184E-07-8.75559E-09-1.51019E-07 1.99161E-09
 -1       488 2.22012E-07-1.12786E-07-1.57380E-07 7.18097E-08 2.77433E-07-3.66923E-08
 -1       490 1.49126E-07-9.02637E-08-1.37021E-07 8.60989E-08 2.73851E-07-3.66265E-08
 -1       491 1.72550E-07-1.12626E-06 7.95356E-07-3.69145E-08-9.95624E-07 1.30035E-07
 -1       493 8.54667E-08-1.11678E-06 8.29088E-07 6.90927E-08-9.78340E-07 9.74319E-08
 -1       494 5.75474E-08-4.20223E-07 2.94965E-07 6.46426E-08-6.19863E-08-3.51422E-08
 -1       496 5.06636E-08-3.96142E-07 2.78778E-07 1.64871E-08-7.56913E-08-1.31381E-08
 -1       497 2.40935E-07 1.04675E-07-3.75365E-07 4.31044E-08 3.25661E-07-9.38724E-08
 -1       499 1.37238E-07 1.38423E-07-3.47423E-07 7.18024E-08 3.11736E-07-1.05319E-07
 -1       500 1.45310E-07-1.90262E-06 1.55945E-06 4.60765E-11-7.85318E-07 1.97525E-07
 -1       502 3.30663E-08-1.88028E-06 1.59407E-06 1.36598E-07-7.57951E-07 1.21307E-07
 -1       503 3.92889E-08-5.67668E-07 4.49414E-07 6.97847E-08 5.50471E-08-1.09128E-08
 -1       505 3.82509E-08-5.51810E-07 4.30295E-07 1.48157E-08 3.00263E-08 2.66499E-08
 -1       506 2.25360E-07 3.42946E-07-6.29693E-07 4.58269E-09 2.37505E-07-1.14917E-07
 -1       508 8.61648E-08 3.75318E-07-5.90224E-07 5.00080E-08 2.33311E-07-1.48356E-07
 -1       509 1.34222E-07-2.92069E-06 2.54135E-06 1.28683E-08-1.91842E-07 2.36848E-07
 -1       511-1.83788E-08-2.87183E-06 2.57442E-06 2.03802E-07-1.51024E-07 7.60859E-08
 -1       512 1.12626E-06-1.72550E-07-7.95356E-07 3.69145E-08-1.30035E-07 9.95624E-07
 -1       514 1.11678E-06-8.54667E-08-8.29088E-07-6.90927E-08-9.74319E-08 9.78340E-07
 -1       515 1.12786E-07-2.22012E-07 1.57380E-07-7.18097E-08 3.66923E-08-2.77433E-07
 -1       517 9.02637E-08-1.49126E-07 1.37021E-07-8.60989E-08 3.66265E-08-2.73851E-07
 -1       518 2.96129E-07-6.62877E-08-1.86631E-07-3.08085E-08 1.02601E-08 1.57962E-07
 -1       520 2.98067E-07-5.91248E-08-1.77184E-07 8.75559E-09-1.99161E-09 1.51019E-07
 -1       521-9.29084E-09-1.56229E-08 5.51789E-08-6.18972E-08-2.00485E-08-1.02971E-08
 -1       523-2.36958E-08-4.87827E-08 5.41510E-08-5.39564E-08-1.21977E-08-2.62569E-09
 -1       524 1.56229E-08 9.29084E-09-5.51789E-08 6.18972E-08 1.02971E-08 2.00485E-08
 -1       526 4.87827E-08 2.36958E-08-5.41510E-08 5.39564E-08 2.62569E-09 1.21977E-08
 -1       527 2.87389E-08-9.73649E-08 4.85303E-08-8.42974E-09 4.47615E-09-1.72843E-08
 -1       529 2.00113E-08-5.90843E-08 4.66868E-08-1.22460E-08-2.39083E-08-1.42292E-08
 -1       530-2.63605E-08 6.57143E-08-4.90558E-08 4.82315E-08-2.40994E-08-7.24033E-09
 -1       532 3.30385E-08 8.81349E-08-4.87376E-08 4.59335E-08-5.74471E-08-3.27794E-08
 -1       533 4.86178E-09-8.57108E-08 1.02552E-07 1.23056E-08-2.19382E-08-5.54228E-09
 -1       535 4.57157E-09-7.81371E-08 9.17235E-08 2.26730E-09-4.36800E-08-3.15772E-09
 -1       536-9.20737E-08 9.02789E-08-3.42238E-08 9.13221E-08-6.03811E-08-2.03200E-08
 -1       538-3.44821E-09 9.89813E-08-2.38138E-08 7.26818E-08-9.14054E-08-3.85023E-08
 -1       539 1.90262E-06-1.45310E-07-1.55945E-06-4.60765E-11-1.97525E-07 7.85318E-07
 -1       541 1.88028E-06-3.30663E-08-1.59407E-06-1.36598E-07-1.21307E-07 7.57951E-07
 -1       542-1.04675E-07-2.40935E-07 3.75365E-07-4.31044E-08 9.38724E-08-3.25661E-07
 -1       544-1.38423E-07-1.37238E-07 3.47423E-07-7.18024E-08 1.05319E-07-3.11736E-07
 -1       545 4.20223E-07-5.75474E-08-2.94965E-07-6.46426E-08 3.51422E-08 6.19863E-08
 -1       547 3.96142E-07-5.06636E-08-2.78778E-07-1.64871E-08 1.31381E-08 7.56913E-08
 -1       548-6.57143E-08 2.63605E-08 4.90558E-08-4.82315E-08 7.24033E-09 2.40994E-08
 -1       550-8.81349E-08-3.30385E-08 4.87376E-08-4.59335E-08 3.27794E-08 5.74471E-08
 -1       551 9.73649E-08-2.87389E-08-4.85303E-08 8.42974E-09 1.72843E-08-4.47615E-09
 -1       553 5.90843E-08-2.00113E-08-4.66868E-08 1.22460E-08 1.42292E-08 2.39083E-08
 -1       554 5.03193E-09-8.23067E-08-6.56224E-09 1.12249E-08 5.93312E-08 7.84378E-09
 -1       556-2.37173E-08-2.59944E-08 2.36937E-09 6.91953E-09 3.81571E-08 3.61466E-08
 -1       557 8.23067E-08-5.03193E-09 6.56224E-09-1.12249E-08-7.84378E-09-5.93312E-08
 -1       559 2.59944E-08 2.37173E-08-2.36937E-09-6.91953E-09-3.61466E-08-3.81571E-08
 -1       560-8.14629E-09-5.46013E-08 1.04426E-08 7.42893E-09 3.86623E-08 9.96865E-09
 -1       562-4.87030E-08-2.64828E-08 1.76758E-08 1.38143E-08 2.46335E-08 3.67165E-08
 -1       563 4.03402E-08 1.54303E-08-3.83565E-10-2.99483E-09-2.82480E-08-4.75347E-08
 -1       565-1.39805E-08 2.88032E-08 1.08104E-08 1.05406E-08-4.91289E-08-2.55289E-08
 -1       566 2.92069E-06-1.34222E-07-2.54135E-06-1.28683E-08-2.36848E-07 1.91842E-07
 -1       568 2.87183E-06 1.83788E-08-2.57442E-06-2.03802E-07-7.60859E-08 1.51024E-07
 -1       569 5.67668E-07-3.92889E-08-4.49414E-07-6.97847E-08 1.09128E-08-5.50471E-08
 -1       571 5.51810E-07-3.82509E-08-4.30295E-07-1.48157E-08-2.66499E-08-3.00263E-08
 -1       572 8.57108E-08-4.86178E-09-1.02552E-07-1.23056E-08 5.54228E-09 2.19382E-08
 -1       574 7.81371E-08-4.57157E-09-9.17235E-08-2.26730E-09 3.15772E-09 4.36800E-08
 -1       575 5.46013E-08 8.14629E-09-1.04426E-08-7.42893E-09-9.96865E-09-3.86623E-08
 -1       577 2.64828E-08 4.87030E-08-1.76758E-08-1.38143E-08-3.67165E-08-2.46335E-08
 -1       578 2.59700E-08 8.96712E-10 3.14208E-09-1.64903E-08-3.71326E-09-2.89571E-08
 -1       580-4.88653E-09 2.73703E-08 1.64974E-08-9.37997E-09-2.61582E-08-5.37081E-10
 -1       581 2.10675E-08 5.15041E-10 8.48718E-09-2.51833E-08-3.03161E-09-1.53562E-08
 -1       583-9.19566E-09 2.51362E-08 2.05888E-08-1.83218E-08-3.45745E-08 1.88560E-08
 -1       584-2.34709E-08-3.38002E-08 1.99558E-09 3.32004E-08 2.36847E-08 1.56044E-09
 -1       586-6.84988E-08-4.60021E-09 2.13167E-08 4.70835E-08 3.80786E-09 3.42135E-08
 -1       587 4.63476E-08 9.44356E-09 2.31061E-08-3.21513E-08-3.54803E-08-3.10117E-08
 -1       589-1.78393E-08 1.70149E-08 4.78125E-08-1.25754E-08-6.93496E-08-8.27342E-09
 -1       590-3.58338E-08-9.03306E-08 1.41827E-07 1.36400E-08 8.03994E-09-7.76730E-09
 -1       592-3.94292E-08-8.03457E-08 1.47432E-07-4.60352E-09-2.50749E-08 9.31705E-09
 -1       593-9.63944E-08 8.52163E-08-1.03472E-09 9.42832E-08-1.20039E-07-8.82214E-09
 -1       595-3.27195E-08 7.99993E-08 2.55161E-08 6.87764E-08-1.57038E-07-1.72307E-08
 -1       596-4.36840E-08-5.88288E-07 5.20846E-07 4.48629E-08 2.55312E-07 7.78553E-09
 -1       598-3.37861E-08-5.78486E-07 5.27804E-07-3.03135E-09 2.09181E-07 5.12305E-08
 -1       599 1.48690E-07 4.83952E-07-6.98136E-07-7.75050E-08-3.09942E-08-9.89952E-08
 -1       601 2.37471E-08 5.05375E-07-6.66622E-07-2.72463E-08-2.29363E-08-1.60437E-07
 -1       602 7.42300E-08-3.47442E-06 3.11387E-06 1.18483E-07 9.88599E-07 3.22250E-07
 -1       604-1.11448E-07-3.39205E-06 3.13699E-06 3.14170E-07 1.03358E-06 8.14773E-08
 -1       605 2.12111E-08-8.74157E-09 2.25513E-08-2.90148E-08 4.04230E-09-2.20548E-08
 -1       607-1.05321E-08 1.37276E-08 5.21074E-08-2.75003E-08-5.33347E-08 3.15333E-08
 -1       608-2.13416E-08-4.00159E-08-4.21137E-09 2.58313E-08 5.46848E-08 1.60337E-08
 -1       610-7.20482E-08-1.51158E-08 2.59421E-08 3.75373E-08 1.33496E-08 5.94240E-08
 -1       611 8.32960E-08-1.99889E-08 2.58593E-08-2.23580E-08-4.87781E-08-2.76017E-08
 -1       613 7.57670E-09-2.20061E-08 7.68498E-08-1.57287E-09-9.57315E-08 1.05386E-08
 -1       614-3.32055E-08-9.33726E-08 9.77375E-08 1.49307E-08 8.65154E-08 1.76026E-08
 -1       616-5.53827E-08-8.59666E-08 1.36690E-07 2.64098E-09 3.86376E-08 4.64712E-08
 -1       617-9.64777E-08 8.92972E-08 1.21891E-08-3.47861E-08-1.24805E-07 3.61904E-09
 -1       619-8.75628E-08 9.29574E-08 5.53936E-08-3.21446E-08-1.41560E-07-1.18606E-08
 -1       620-1.05539E-07-4.92274E-07 4.71404E-07-2.03966E-09 4.39852E-07 1.14584E-07
 -1       622-1.11109E-07-4.85810E-07 4.99567E-07-1.80183E-08 4.06609E-07 1.39337E-07
 -1       623 8.97815E-08 4.31878E-07-5.86942E-07-3.83139E-08-3.25131E-07 1.93416E-08
 -1       625 4.34019E-09 4.53089E-07-5.63499E-07 1.03679E-08-3.16318E-07-7.26335E-08
 -1       626-2.70040E-09-3.16843E-06 2.92282E-06 1.52872E-07 2.35371E-06 2.92145E-07
 -1       628-1.53886E-07-3.09256E-06 2.92605E-06 3.00674E-07 2.37439E-06 1.33125E-08
 -1       629 2.91105E-08-1.50505E-08 3.68083E-08-4.27420E-08 2.70278E-08-3.46387E-08
 -1       631-1.28976E-08-6.58932E-09 7.50030E-08-2.65419E-08-6.06039E-08 6.29643E-08
 -1       632-2.32143E-08-2.10770E-08-6.99748E-08 8.68979E-08 4.35150E-08 7.71762E-09
 -1       634-8.21129E-08-9.96688E-09-8.05173E-09 1.05961E-07-1.88548E-08 7.19372E-08
 -1       635 1.17622E-07-5.12330E-09 2.28210E-08-6.89061E-08-8.44925E-08-4.77165E-08
 -1       637 6.25506E-09-1.55576E-08 9.81101E-08-1.16182E-08-1.22348E-07-1.38939E-09
 -1       638-1.21315E-07-8.47272E-09 1.85781E-08 1.97372E-08 1.44241E-07 8.00740E-08
 -1       640-1.82227E-07-9.23973E-09 8.87786E-08 4.12463E-08 1.12189E-07 1.00815E-07
 -1       641 9.88616E-08-1.43325E-08 3.45474E-08-1.50037E-07 6.59310E-09 1.03186E-07
 -1       643 4.36562E-08-4.05479E-08 1.70026E-07-1.18912E-07 8.98099E-09 1.73423E-08
 -1       644-8.23206E-08-3.05014E-07 3.76191E-07-4.31948E-08 5.89996E-07 2.11109E-07
 -1       646-1.11139E-07-3.20884E-07 3.56437E-07-4.08686E-08 5.91591E-07 2.09289E-07
 -1       647 1.26369E-07 2.69816E-07-2.93430E-07 1.14255E-07-1.27908E-06 5.47663E-08
 -1       649 1.02317E-07 2.74490E-07-3.23752E-07 1.37711E-07-1.26361E-06-5.42189E-08
 -1       650 1.31016E-08-2.21467E-06 2.13421E-06 1.04829E-07 3.58172E-06 2.07311E-07
 -1       652-6.53447E-08-2.15337E-06 2.12682E-06 1.94921E-07 3.57787E-06-1.00685E-07
 -1       653 7.30165E-08 3.54039E-08 2.32457E-08-1.40402E-07 5.00841E-08-4.49174E-08
 -1       655 2.29595E-08 1.11807E-08 4.83033E-08-7.92926E-08-6.05152E-08 9.28164E-08
 -1       656-6.92412E-08 9.64156E-09-6.92387E-08 1.05898E-07 6.95201E-09-5.36444E-09
 -1       658-1.47841E-07 1.24979E-09-1.15826E-08 1.69340E-07-6.32392E-08 9.13854E-08
 -1       659 2.92309E-07-5.87664E-08 2.14293E-08-2.14425E-07-6.94709E-08-8.70298E-08
 -1       661 1.48659E-07-6.53761E-08 1.26231E-07-1.15462E-07-1.15550E-07 2.02139E-09
 -1       662-1.27591E-07 4.63521E-08-1.03708E-07 5.50471E-08 2.47238E-07 4.40092E-08
 -1       664-2.62311E-07 5.61135E-08 6.59650E-09 1.15449E-07 2.13562E-07 9.87336E-08
 -1       665 2.00222E-07-1.11962E-07 2.77058E-07-2.43095E-07 2.16077E-07-1.18434E-09
 -1       667 2.43970E-08-1.19389E-07 3.36173E-07-1.83112E-07 2.22492E-07-3.49719E-09
 -1       668 1.60696E-07-3.63427E-08-2.08668E-07 7.01422E-08 2.39278E-07 7.37554E-08
 -1       670 1.05974E-07-7.18187E-08-3.76979E-08 7.91009E-08 2.25653E-07 2.04135E-08
 -1       671-4.63309E-07 2.92523E-07-3.05923E-08 3.75850E-07-1.87878E-06-2.90045E-07
 -1       673-3.93421E-07 5.87434E-08 5.72597E-07 3.53786E-07-1.90484E-06-2.36490E-07
 -1       674 1.74758E-07-1.09469E-06 6.21794E-07-3.73415E-07 5.87759E-06 2.32870E-07
 -1       676 2.32287E-07-1.27876E-06 1.05062E-06-3.35859E-07 5.81137E-06-1.22933E-07
 -3
    1PSTEP                         4           1           1          
  100CL  101 1.000000000         399                     0    1           1
 -4  ERROR       1    1
 -5  STR(%)      1    1    0    0
 -1       170 2.23367E+01
 -1       171 2.23367E+01
 -1       172 2.23367E+01
 -1       173 1.91491E+01
 -1       174 1.91491E+01
 -1       175 1.91491E+01
 -1       176 2.83878E+01
 -1       177 2.83878E+01
 -1       178 2.83878E+01
 -1       179 2.66032E+01
 -1       180 2.66032E+01
 -1       181 2.66032E+01
 -1       182 1.58099E+01
 -1       183 1.58099E+01
 -1       184 1.58099E+01
 -1       185 1.91491E+01
 -1       186 1.91491E+01
 -1       187 1.91491E+01
 -1       188 2.23367E+01
 -1       189 2.23367E+01
 -1       190 2.23367E+01
 -1       191 2.23367E+01
 -1       192 2.23367E+01
 -1       193 2.23367E+01
 -1       194 2.04147E+01
 -1       195 2.04147E+01
 -1       196 2.04147E+01
 -1       197 1.93261E+01
 -1       198 1.93261E+01
 -1       199 1.93261E+01
 -1       200 2.45242E+01
 -1       201 2.45242E+01
 -1       202 2.45242E+01
 -1       203 2.56276E+01
 -1       204 2.56276E+01
 -1       205 2.56276E+01
 -1       206 2.83878E+01
 -1       207 2.83878E+01
 -1       208 2.83878E+01
 -1       209 2.68919E+01
 -1       210 2.68919E+01
 -1       211 2.68919E+01
 -1       212 2.68919E+01
 -1       213 2.68919E+01
 -1       214 2.68919E+01
 -1       215 2.66032E+01
 -1       216 2.66032E+01
 -1       217 2.66032E+01
 -1       218 2.32496E+01
 -1       219 2.32496E+01
 -1       220 2.32496E+01
 -1       221 2.37691E+01
 -1       222 2.37691E+01
 -1       223 2.37691E+01
 -1       224 2.66032E+01
 -1       225 2.66032E+01
 -1       226 2.66032E+01
 -1       227 1.81692E+01
 -1       228 1.81692E+01
 -1       229 1.81692E+01
 -1       230 1.72880E+01
 -1       231 1.72880E+01
 -1       232 1.72880E+01
 -1       233 1.58099E+01
 -1       234 1.58099E+01
 -1       235 1.58099E+01
 -1       236 1.81692E+01
 -1       237 1.81692E+01
 -1       238 1.81692E+01
 -1       239 1.72880E+01
 -1       240 1.72880E+01
 -1       241 1.72880E+01
 -1       242 1.58099E+01
 -1       243 1.58099E+01
 -1       244 1.58099E+01
 -1       245 2.45242E+01
 -1       246 2.45242E+01
 -1       247 2.45242E+01
 -1       248 2.56276E+01
 -1       249 2.56276E+01
 -1       250 2.56276E+01
 -1       251 2.83878E+01
 -1       252 2.83878E+01
 -1       253 2.83878E+01
 -1       254 2.23367E+01
 -1       255 2.23367E+01
 -1       256 2.23367E+01
 -1       257 2.04147E+01
 -1       258 2.04147E+01
 -1       259 2.04147E+01
 -1       260 1.93261E+01
 -1       261 1.93261E+01
 -1       262 1.93261E+01
 -1       263 2.66032E+01
 -1       264 2.66032E+01
 -1       265 2.66032E+01
 -1       266 2.37691E+01
 -1       267 2.37691E+01
 -1       268 2.37691E+01
 -1       269 2.32496E+01
 -1       270 2.32496E+01
 -1       271 2.32496E+01
 -1       272 1.97637E+01
 -1       273 1.97637E+01
 -1       274 1.97637E+01
 -1       275 2.38241E+01
 -1       276 2.38241E+01
 -1       277 2.38241E+01
 -1       278 2.68919E+01
 -1       279 2.68919E+01
 -1       280 2.68919E+01
 -1       281 2.20234E+01
 -1       282 2.20234E+01
 -1       283 2.20234E+01
 -1       284 2.50253E+01
 -1       285 2.50253E+01
 -1       286 2.50253E+01
 -1       287 2.68919E+01
 -1       288 2.68919E+01
 -1       289 2.68919E+01
 -1       290 2.32496E+01
 -1       291 2.32496E+01
 -1       292 2.32496E+01
 -1       293 2.50253E+01
 -1       294 2.50253E+01
 -1       295 2.50253E+01
 -1       296 2.66032E+01
 -1       297 2.66032E+01
 -1       298 2.66032E+01
 -1       299 2.13469E+01
 -1       300 2.13469E+01
 -1       301 2.13469E+01
 -1       302 2.69445E+01
 -1       303 2.69445E+01
 -1       304 2.69445E+01
 -1       305 2.69445E+01
 -1       306 2.69445E+01
 -1       307 2.69445E+01
 -1       308 2.69445E+01
 -1       309 2.69445E+01
 -1       310 2.69445E+01
 -1       311 2.69445E+01
 -1       312 2.69445E+01
 -1       313 2.69445E+01
 -1       314 2.69445E+01
 -1       315 2.69445E+01
 -1       316 2.69445E+01
 -1       317 2.69445E+01
 -1       318 2.69445E+01
 -1       319 2.69445E+01
 -1       320 2.69445E+01
 -1       321 2.69445E+01
 -1       322 2.69445E+01
 -1       323 2.83878E+01
 -1       324 2.83878E+01
 -1       325 2.83878E+01
 -1       326 2.68919E+01
 -1       327 2.68919E+01
 -1       328 2.68919E+01
 -1       329 2.38241E+01
 -1       330 2.38241E+01
 -1       331 2.38241E+01
 -1       332 1.97637E+01
 -1       333 1.97637E+01
 -1       334 1.97637E+01
 -1       335 2.68919E+01
 -1       336 2.68919E+01
 -1       337 2.68919E+01
 -1       338 2.50253E+01
 -1       339 2.50253E+01
 -1       340 2.50253E+01
 -1       341 2.20234E+01
 -1       342 2.20234E+01
 -1       343 2.20234E+01
 -1       344 2.66032E+01
 -1       345 2.66032E+01
 -1       346 2.66032E+01
 -1       347 2.50253E+01
 -1       348 2.50253E+01
 -1       349 2.50253E+01
 -1       350 2.32496E+01
 -1       351 2.32496E+01
 -1       352 2.32496E+01
 -1       353 1.92376E+01
 -1       355 1.92376E+01
 -1       356 1.95449E+01
 -1       358 1.95449E+01
 -1       359 2.21439E+01
 -1       361 2.21439E+01
 -1       362 2.18366E+01
 -1       364 2.18366E+01
 -1       365 2.17939E+01
 -1       367 2.17939E+01
 -1       368 2.47259E+01
 -1       370 2.47259E+01
 -1       371 2.50759E+01
 -1       373 2.50759E+01
 -1       374 2.53580E+01
 -1       376 2.53580E+01
 -1       377 2.76399E+01
 -1       379 2.76399E+01
 -1       380 2.70077E+01
 -1       382 2.70077E+01
 -1       383 2.68919E+01
 -1       385 2.68919E+01
 -1       386 2.76399E+01
 -1       388 2.76399E+01
 -1       389 2.83878E+01
 -1       391 2.83878E+01
 -1       392 1.98704E+01
 -1       394 1.98704E+01
 -1       395 2.12190E+01
 -1       397 2.12190E+01
 -1       398 2.08935E+01
 -1       400 2.08935E+01
 -1       401 2.35244E+01
 -1       403 2.35244E+01
 -1       404 2.44247E+01
 -1       406 2.44247E+01
 -1       407 2.59586E+01
 -1       409 2.59586E+01
 -1       410 2.68919E+01
 -1       412 2.68919E+01
 -1       413 2.68919E+01
 -1       415 2.68919E+01
 -1       416 2.68919E+01
 -1       418 2.68919E+01
 -1       419 2.13757E+01
 -1       421 2.13757E+01
 -1       422 2.27932E+01
 -1       424 2.27932E+01
 -1       425 2.26365E+01
 -1       427 2.26365E+01
 -1       428 2.41375E+01
 -1       430 2.41375E+01
 -1       431 2.50253E+01
 -1       433 2.50253E+01
 -1       434 2.58143E+01
 -1       436 2.58143E+01
 -1       437 2.67476E+01
 -1       439 2.67476E+01
 -1       440 2.66032E+01
 -1       442 2.66032E+01
 -1       443 2.67476E+01
 -1       445 2.67476E+01
 -1       446 2.23367E+01
 -1       448 2.23367E+01
 -1       449 2.27932E+01
 -1       451 2.27932E+01
 -1       452 2.32496E+01
 -1       454 2.32496E+01
 -1       455 2.35093E+01
 -1       457 2.35093E+01
 -1       458 2.43972E+01
 -1       460 2.43972E+01
 -1       461 2.51862E+01
 -1       463 2.51862E+01
 -1       464 2.66032E+01
 -1       466 2.66032E+01
 -1       467 2.66032E+01
 -1       469 2.66032E+01
 -1       470 2.66032E+01
 -1       472 2.66032E+01
 -1       473 1.58099E+01
 -1       475 1.58099E+01
 -1       476 1.85784E+01
 -1       478 1.85784E+01
 -1       479 1.85784E+01
 -1       481 1.85784E+01
 -1       482 1.58099E+01
 -1       484 1.58099E+01
 -1       485 2.41457E+01
 -1       487 2.41457E+01
 -1       488 2.21162E+01
 -1       490 2.21162E+01
 -1       491 1.65489E+01
 -1       493 1.65489E+01
 -1       494 2.69445E+01
 -1       496 2.69445E+01
 -1       497 2.25568E+01
 -1       499 2.25568E+01
 -1       500 1.77286E+01
 -1       502 1.77286E+01
 -1       503 2.57343E+01
 -1       505 2.57343E+01
 -1       506 2.18366E+01
 -1       508 2.18366E+01
 -1       509 1.86591E+01
 -1       511 1.86591E+01
 -1       512 1.65489E+01
 -1       514 1.65489E+01
 -1       515 2.21162E+01
 -1       517 2.21162E+01
 -1       518 2.41457E+01
 -1       520 2.41457E+01
 -1       521 2.69445E+01
 -1       523 2.69445E+01
 -1       524 2.69445E+01
 -1       526 2.69445E+01
 -1       527 2.69445E+01
 -1       529 2.69445E+01
 -1       530 2.69445E+01
 -1       532 2.69445E+01
 -1       533 2.62861E+01
 -1       535 2.62861E+01
 -1       536 2.50759E+01
 -1       538 2.50759E+01
 -1       539 1.77286E+01
 -1       541 1.77286E+01
 -1       542 2.25568E+01
 -1       544 2.25568E+01
 -1       545 2.69445E+01
 -1       547 2.69445E+01
 -1       548 2.69445E+01
 -1       550 2.69445E+01
 -1       551 2.69445E+01
 -1       553 2.69445E+01
 -1       554 2.76661E+01
 -1       556 2.76661E+01
 -1       557 2.76661E+01
 -1       559 2.76661E+01
 -1       560 2.83878E+01
 -1       562 2.83878E+01
 -1       563 2.70077E+01
 -1       565 2.70077E+01
 -1       566 1.86591E+01
 -1       568 1.86591E+01
 -1       569 2.57343E+01
 -1       571 2.57343E+01
 -1       572 2.62861E+01
 -1       574 2.62861E+01
 -1       575 2.83878E+01
 -1       577 2.83878E+01
 -1       578 2.83878E+01
 -1       580 2.83878E+01
 -1       581 2.68919E+01
 -1       583 2.68919E+01
 -1       584 2.76399E+01
 -1       586 2.76399E+01
 -1       587 2.53580E+01
 -1       589 2.53580E+01
 -1       590 2.47259E+01
 -1       592 2.47259E+01
 -1       593 2.17939E+01
 -1       595 2.17939E+01
 -1       596 2.21439E+01
 -1       598 2.21439E+01
 -1       599 1.95449E+01
 -1       601 1.95449E+01
 -1       602 1.92376E+01
 -1       604 1.92376E+01
 -1       605 2.68919E+01
 -1       607 2.68919E+01
 -1       608 2.68919E+01
 -1       610 2.68919E+01
 -1       611 2.59586E+01
 -1       613 2.59586E+01
 -1       614 2.44247E+01
 -1       616 2.44247E+01
 -1       617 2.35244E+01
 -1       619 2.35244E+01
 -1       620 2.08935E+01
 -1       622 2.08935E+01
 -1       623 2.12190E+01
 -1       625 2.12190E+01
 -1       626 1.98704E+01
 -1       628 1.98704E+01
 -1       629 2.66032E+01
 -1       631 2.66032E+01
 -1       632 2.67476E+01
 -1       634 2.67476E+01
 -1       635 2.58143E+01
 -1       637 2.58143E+01
 -1       638 2.50253E+01
 -1       640 2.50253E+01
 -1       641 2.41375E+01
 -1       643 2.41375E+01
 -1       644 2.26365E+01
 -1       646 2.26365E+01
 -1       647 2.27932E+01
 -1       649 2.27932E+01
 -1       650 2.13757E+01
 -1       652 2.13757E+01
 -1       653 2.66032E+01
 -1       655 2.66032E+01
 -1       656 2.66032E+01
 -1       658 2.66032E+01
 -1       659 2.51862E+01
 -1       661 2.51862E+01
 -1       662 2.43972E+01
 -1       664 2.43972E+01
 -1       665 2.35093E+01
 -1       667 2.35093E+01
 -1       668 2.32496E+01
 -1       670 2.32496E+01
 -1       671 2.27932E+01
 -1       673 2.27932E+01
 -1       674 2.23367E+01
 -1       676 2.23367E+01
 -3
 9999
