    1C
    1UUSER                                                              
    1UDATE              18.february.2021                                
    1UTIME              19:26:56                                        
    1UHOST                                                              
    1UPGM               CalculiX                                        
    1UVERSION           Version 2.17                             
    1UCOMPILETIME       Thu Jul 23 21:43:50 CEST 2020                    
    1UDIR                                                               
    1UDBN                                                               
    1UMAT    1STEEL                                                     
    2C                            35                                     1
 -1         1 1.16500E+00 8.12831E-01 0.00000E+00
 -1         2-3.05640E-15 1.00000E+00 0.00000E+00
 -1         3 3.39463E-15 1.58305E+00 0.00000E+00
 -1         4 1.36776E+00 1.30989E+00 0.00000E+00
 -1         5-4.65605E-15 2.75000E+00 0.00000E+00
 -1         6 1.77348E+00 2.30447E+00 0.00000E+00
 -1         7 1.78302E+00 4.53000E-01 0.00000E+00
 -1         8 2.13324E+00 7.51594E-01 0.00000E+00
 -1         9 2.83277E+00 1.34800E+00 0.00000E+00
 -1        10 2.00000E+00 1.09117E-14 0.00000E+00
 -1        11 2.41700E+00 2.81975E-15 0.00000E+00
 -1        12 3.25000E+00 9.31453E-15 0.00000E+00
 -1        13 1.26638E+00 1.06136E+00 0.00000E+00
 -1        14 7.01092E-01 1.51739E+00 0.00000E+00
 -1        15 5.82500E-01 1.19794E+00 0.00000E+00
 -1        16 6.11832E-01 9.52058E-01 0.00000E+00
 -1        17 1.04148E-15 1.29152E+00 0.00000E+00
 -1        18 9.24995E-01 2.63627E+00 0.00000E+00
 -1        19 4.16745E-15 2.16652E+00 0.00000E+00
 -1        20 8.86740E-01 1.94376E+00 0.00000E+00
 -1        21 1.57062E+00 1.80718E+00 0.00000E+00
 -1        22 1.51730E+00 6.51501E-01 0.00000E+00
 -1        23 1.57539E+00 8.81446E-01 0.00000E+00
 -1        24 1.78691E+00 1.07212E+00 0.00000E+00
 -1        25 1.95813E+00 6.02297E-01 0.00000E+00
 -1        26 2.10027E+00 1.32895E+00 0.00000E+00
 -1        27 2.37146E+00 1.88042E+00 0.00000E+00
 -1        28 2.48300E+00 1.04980E+00 0.00000E+00
 -1        29 2.34293E+00 3.97036E-01 0.00000E+00
 -1        30 2.12762E+00 3.89984E-01 0.00000E+00
 -1        31 2.20850E+00 7.79284E-15 0.00000E+00
 -1        32 1.94500E+00 2.32905E-01 0.00000E+00
 -1        33 2.83350E+00 3.11639E-15 0.00000E+00
 -1        34 2.77596E+00 3.97746E-01 0.00000E+00
 -1        35 3.14396E+00 6.96732E-01 0.00000E+00
 -3
    3C                            12                                     1
 -1         1    8    0    1
 -2         1         4         3        13        14        15
 -1         2    8    0    1
 -2         8        11        12        29        33        34
 -1         3    8    0    1
 -2         2         1         3        16        15        17
 -1         4    8    0    1
 -2         9         8        12        28        34        35
 -1         5    8    0    1
 -2        11         8        10        29        30        31
 -1         6    8    0    1
 -2         7        10         8        32        30        25
 -1         7    8    0    1
 -2         6         5         3        18        19        20
 -1         8    8    0    1
 -2         4         6         3        21        20        14
 -1         9    8    0    1
 -2         1         7         4        22        23        13
 -1        10    8    0    1
 -2         8         4         7        24        23        25
 -1        11    8    0    1
 -2         6         4         9        21        26        27
 -1        12    8    0    1
 -2         8         9         4        28        26        24
 -3
    1PSTEP                         1           1           1          
  100CL  101 1.000000000          35                     0    1           1
 -4  DISP        4    1
 -5  D1          1    2    1    0
 -5  D2          1    2    2    0
 -5  D3          1    2    3    0
 -5  ALL         1    2    0    0    1ALL
 -1         1-4.16654E-05 4.04273E-04 2.20030E-21
 -1         2 0.00000E+00 5.33126E-04 1.58819E-22
 -1         3 0.00000E+00 5.32693E-04 1.72054E-22
 -1         4 3.93038E-05 3.68602E-04-1.16467E-21
 -1         5 0.00000E+00 5.28078E-04-1.58819E-22
 -1         6 1.73528E-04 3.20110E-04-6.35275E-22
 -1         7-7.40899E-05 2.00325E-04-9.52912E-22
 -1         8-2.95164E-05 1.35577E-04 8.47033E-22
 -1         9 7.25926E-05 5.85455E-05 1.21761E-21
 -1        10-9.07351E-05 0.00000E+00 1.05879E-21
 -1        11-9.34751E-05 0.00000E+00-6.35275E-22
 -1        12-6.37293E-05 0.00000E+00-1.05879E-22
 -1        13 3.67483E-06 3.83588E-04 6.24687E-21
 -1        14 3.29465E-05 4.86106E-04-3.20920E-19
 -1        15 4.90519E-06 5.00575E-04 5.21455E-20
 -1        16-1.80106E-05 4.96753E-04 1.54557E-19
 -1        17 0.00000E+00 5.34067E-04-3.39872E-20
 -1        18 1.14602E-04 4.72858E-04-8.55503E-19
 -1        19 0.00000E+00 5.28986E-04-4.65868E-21
 -1        20 6.93599E-05 4.68340E-04-3.35107E-19
 -1        21 1.00122E-04 3.45220E-04 4.06788E-19
 -1        22-5.68476E-05 3.05855E-04-2.15146E-19
 -1        23-1.54489E-05 2.95995E-04-1.08314E-19
 -1        24 1.66567E-05 2.49392E-04-7.51742E-20
 -1        25-5.02664E-05 1.57896E-04-2.75286E-20
 -1        26 5.49519E-05 2.01186E-04 3.57236E-19
 -1        27 1.47459E-04 1.77037E-04 6.74132E-19
 -1        28 1.52861E-05 1.02205E-04 1.77348E-19
 -1        29-7.30242E-05 5.89971E-05 3.30343E-20
 -1        30-7.40961E-05 8.61625E-05 1.58819E-20
 -1        31-9.49773E-05 0.00000E+00 2.11758E-21
 -1        32-8.07783E-05 9.42978E-05 2.58345E-20
 -1        33-8.32152E-05 0.00000E+00 4.44692E-21
 -1        34-6.34007E-05 2.07436E-05 2.85874E-20
 -1        35-1.98510E-05-1.62035E-06-6.59627E-20
 -3
    1PSTEP                         2           1           1          
  100CL  101 1.000000000          35                     0    1           1
 -4  STRESS      6    1
 -5  SXX         1    4    1    1
 -5  SYY         1    4    2    2
 -5  SZZ         1    4    3    3
 -5  SXY         1    4    1    2
 -5  SYZ         1    4    2    3
 -5  SZX         1    4    3    1
 -1         1 3.15018E+06 8.09032E+05 1.49487E+05-2.52088E+06-4.82469E-08-4.57221E-08
 -1         2-6.88982E+06 5.89108E+05-9.71645E+04-1.27352E+06 1.20141E-07 5.06261E-08
 -1         3 1.14822E+07 3.99907E+05 3.72349E+04-9.28371E+05-9.13860E-09-4.69527E-08
 -1         4 8.18017E+06 1.16442E+07 1.39252E+04-9.88459E+06 1.18171E-07 5.00004E-08
 -1         5 3.31327E+07 9.70235E+06 6.42147E+03-1.95495E+04-4.62751E-08-1.17377E-07
 -1         6 2.15557E+07 1.43673E+07 1.55682E+04-8.10911E+06-1.09421E-07 8.21601E-08
 -1         7 1.97090E+07 2.40069E+07 2.48006E+05-2.09713E+07-2.96859E-08 2.76535E-08
 -1         8 6.44287E+06 2.70162E+07-1.61466E+05-2.92216E+06 5.51245E-08 1.83391E-08
 -1         9 8.01667E+06 1.33866E+07-7.42577E+02 1.00294E+06-8.49577E-08-3.17268E-08
 -1        10 1.12368E+07 7.30984E+07-7.16392E+04-8.41745E+06 5.76838E-08 1.88011E-08
 -1        11 1.33907E+07 3.24052E+07-1.91598E+05 1.42602E+06 1.53159E-09 9.92441E-09
 -1        12 1.19692E+07-4.35773E+06-1.33517E+05 2.13359E+06 1.63709E-09-2.79397E-09
 -1        13 5.34443E+06 6.28314E+06 1.95561E+05-5.61743E+06-5.40313E-08-8.99308E-09
 -1        14 1.05578E+07 5.24175E+06 3.52604E+04-5.11559E+06-3.59432E-08 2.35741E-08
 -1        15 5.88111E+06-3.10180E+04-9.42281E+03-1.36032E+06-5.74073E-08-3.88318E-08
 -1        16-3.02379E+06-2.83673E+05-8.79402E+04-1.34161E+06 5.90226E-08-3.33966E-08
 -1        17 2.06775E+06 1.57647E+06 5.00977E+04-9.92626E+05 4.62169E-08 4.77230E-08
 -1        18 2.78856E+07 1.17140E+07 9.95437E+03-4.62112E+06-1.23873E-07 2.19311E-08
 -1        19 2.29245E+07 5.72708E+06-5.04749E+02-6.51844E+05 1.04876E-07-1.02931E-07
 -1        20 1.73135E+07 7.47851E+06-3.25036E+04-4.97159E+06-2.68410E-08 1.81353E-08
 -1        21 1.50504E+07 1.40492E+07 3.22674E+04-9.01049E+06 8.94943E-08 8.07449E-08
 -1        22 1.50818E+07 9.50107E+06-1.02371E+05-1.11469E+07 5.06698E-08 5.51663E-08
 -1        23 1.10526E+07 1.27590E+07-3.26043E+05-1.33633E+07 5.94882E-08 1.18598E-09
 -1        24 8.14916E+06 2.18787E+07 1.23059E+05-7.87126E+06 1.35333E-07 4.08036E-08
 -1        25 1.02834E+07 2.52753E+07-3.41241E+04-1.14516E+07-1.65601E-08 8.17818E-09
 -1        26 8.48945E+06 1.47011E+07-8.55061E+04-5.51070E+06 8.73115E-08 3.06427E-08
 -1        27 1.42927E+07 1.50938E+07 2.20309E+03-3.27973E+06-6.74372E-08-1.84591E-08
 -1        28 6.91683E+06 2.05605E+07 4.69019E+04-1.17809E+06 2.32394E-08-2.06637E-09
 -1        29 1.20835E+07 3.09735E+07 8.77089E+04-1.37244E+06-4.39686E-08 5.99539E-09
 -1        30 7.13785E+06 4.55336E+07-4.77438E+05-5.37351E+06 1.09576E-08 1.73459E-08
 -1        31 1.31136E+07 4.77265E+07-2.29734E+05 1.27714E+06 5.67234E-08 6.28643E-09
 -1        32 1.91210E+07 6.07533E+07 1.03011E+06-2.23187E+07-5.04078E-08-8.03266E-09
 -1        33 1.09004E+07 1.15230E+07-5.96865E+04 1.27190E+06-1.45519E-10 2.30793E-08
 -1        34 1.05150E+07 1.28562E+07-5.72394E+04 2.06249E+05 4.04762E-08-2.96859E-09
 -1        35 1.04847E+07 5.40416E+06 7.30327E+03 2.42583E+06-1.16932E-07-3.45499E-08
 -3
    1PSTEP                         3           1           1          
  100CL  101 1.000000000          35                     0    1           1
 -4  TOSTRAIN    6    1
 -5  EXX         1    4    1    1
 -5  EYY         1    4    2    2
 -5  EZZ         1    4    3    3
 -5  EXY         1    4    1    2
 -5  EYZ         1    4    2    3
 -5  EZX         1    4    3    1
 -1         1 1.36315E-05-8.61279E-07-4.94417E-06-1.56054E-05-2.98632E-19-2.83068E-19
 -1         2-3.35114E-05 1.27867E-05 8.53833E-06-7.88371E-06 7.43060E-19 3.13415E-19
 -1         3 5.40529E-05-1.45521E-05-1.67972E-05-5.74706E-06-5.65130E-20-2.90694E-19
 -1         4 2.22987E-05 4.37427E-05-2.82542E-05-6.11903E-05 7.31585E-19 3.09643E-19
 -1         5 1.43905E-04-1.13999E-06-6.11624E-05-1.21021E-07-2.86456E-19-7.26635E-19
 -1         6 8.20995E-05 3.75994E-05-5.12445E-05-5.01992E-05-6.77365E-19 5.08580E-19
 -1         7 5.92024E-05 8.58087E-05-6.12703E-05-1.29823E-04-1.83171E-19 1.71418E-19
 -1         8-7.68353E-06 1.19675E-04-4.85675E-05-1.80896E-05 3.41169E-19 1.13502E-19
 -1         9 1.90519E-05 5.22946E-05-3.05797E-05 6.20870E-06-5.26007E-19-1.96419E-19
 -1        10-5.08156E-05 3.32138E-04-1.20820E-04-5.21080E-05 3.57342E-19 1.17314E-19
 -1        11 1.77458E-05 1.35455E-04-6.63351E-05 8.82771E-06 9.39677E-21 6.18334E-20
 -1        12 6.34124E-05-3.76593E-05-1.15094E-05 1.32079E-05 1.00320E-20-1.74701E-20
 -1        13 1.61944E-05 2.20054E-05-1.56796E-05-3.47746E-05-3.34366E-19-5.56924E-20
 -1        14 4.27365E-05 9.82781E-06-2.24029E-05-3.16680E-05-2.22346E-19 1.45954E-19
 -1        15 2.80630E-05-8.53583E-06-8.40214E-06-8.42102E-06-3.55330E-19-2.40399E-19
 -1        16-1.38681E-05 3.09450E-06 4.30618E-06-8.30519E-06 3.65283E-19-2.06835E-19
 -1        17 7.52276E-06 4.48151E-06-4.96747E-06-6.14483E-06 2.85874E-19 2.95350E-19
 -1        18 1.16040E-04 1.59301E-05-5.65234E-05-2.86070E-05-7.66830E-19 1.35757E-19
 -1        19 1.00984E-04-5.47683E-06-4.09333E-05-4.03523E-06 6.49251E-19-6.37194E-19
 -1        20 7.18079E-05 1.09248E-05-3.55719E-05-3.07765E-05-1.66124E-19 1.12219E-19
 -1        21 5.15523E-05 4.53541E-05-4.14172E-05-5.57792E-05 5.54039E-19 4.99829E-19
 -1        22 5.83913E-05 2.38440E-05-3.56059E-05-6.90049E-05 3.13614E-19 3.41460E-19
 -1        23 3.48700E-05 4.54336E-05-3.55692E-05-8.27251E-05 3.68459E-19 7.51742E-21
 -1        24 7.37438E-06 9.23670E-05-4.23110E-05-4.87269E-05 8.37927E-19 2.52522E-19
 -1        25 1.29100E-05 1.05716E-04-5.09606E-05-7.08911E-05-1.02279E-19 5.08220E-20
 -1        26 1.95465E-05 5.79997E-05-3.35366E-05-3.41138E-05 5.40513E-19 1.89682E-19
 -1        27 4.64950E-05 5.14539E-05-4.19703E-05-2.03031E-05-4.17455E-19-1.14297E-19
 -1        28 3.49812E-06 8.79590E-05-3.90300E-05-7.29293E-06 1.43863E-19-1.29702E-20
 -1        29 1.31673E-05 1.30105E-04-6.10923E-05-8.49604E-06-2.72427E-19 3.74812E-20
 -1        30-3.03762E-05 2.07312E-04-7.75185E-05-3.32646E-05 6.79744E-20 1.07997E-19
 -1        31-5.40687E-06 2.08864E-04-8.80085E-05 7.90608E-06 3.51307E-19 3.98105E-20
 -1        32 2.79042E-06 2.60514E-04-1.09201E-04-1.38163E-04-3.11708E-19-4.82809E-20
 -1        33 3.55303E-05 3.93847E-05-3.23176E-05 7.87364E-06-1.05879E-21 1.43254E-19
 -1        34 3.17872E-05 4.62803E-05-3.36599E-05 1.27678E-06 2.50351E-19-1.84230E-20
 -1        35 4.21966E-05 1.07455E-05-2.26636E-05 1.50171E-05-7.23790E-19-2.13916E-19
 -3
    1PSTEP                         4           1           1          
  100CL  101 1.000000000          35                     0    1           1
 -4  ERROR       1    1
 -5  STR(%)      1    1    0    0
 -1         1 3.89257E+01
 -1         2 3.89257E+01
 -1         3 3.89257E+01
 -1         4 2.63079E+01
 -1         5 1.63032E+01
 -1         6 1.83560E+01
 -1         7 2.67915E+01
 -1         8 2.80514E+01
 -1         9 1.78890E+01
 -1        10 2.67915E+01
 -1        11 2.80514E+01
 -1        12 2.80514E+01
 -1        13 3.26168E+01
 -1        14 3.26168E+01
 -1        15 3.89257E+01
 -1        16 3.89257E+01
 -1        17 3.89257E+01
 -1        18 1.73296E+01
 -1        19 2.76145E+01
 -1        20 2.86409E+01
 -1        21 2.23320E+01
 -1        22 3.28586E+01
 -1        23 2.65497E+01
 -1        24 2.71797E+01
 -1        25 2.74215E+01
 -1        26 2.20984E+01
 -1        27 1.81225E+01
 -1        28 2.29702E+01
 -1        29 2.80514E+01
 -1        30 2.74215E+01
 -1        31 2.74215E+01
 -1        32 2.67915E+01
 -1        33 2.80514E+01
 -1        34 2.80514E+01
 -1        35 2.29702E+01
 -3
 9999
