    1C
    1UUSER                                                              
    1UDATE              18.february.2021                                
    1UTIME              19:26:56                                        
    1UHOST                                                              
    1UPGM               CalculiX                                        
    1UVERSION           Version 2.17                             
    1UCOMPILETIME       Thu Jul 23 21:43:50 CEST 2020                    
    1UDIR                                                               
    1UDBN                                                               
    1UMAT    1STEEL                                                     
    2C                            35                                     1
 -1         1 1.16500E+00 8.12831E-01 0.00000E+00
 -1         2-3.05640E-15 1.00000E+00 0.00000E+00
 -1         3 3.39463E-15 1.58305E+00 0.00000E+00
 -1         4 1.36776E+00 1.30989E+00 0.00000E+00
 -1         5-4.65605E-15 2.75000E+00 0.00000E+00
 -1         6 1.77348E+00 2.30447E+00 0.00000E+00
 -1         7 1.78302E+00 4.53000E-01 0.00000E+00
 -1         8 2.13324E+00 7.51594E-01 0.00000E+00
 -1         9 2.83277E+00 1.34800E+00 0.00000E+00
 -1        10 2.00000E+00 1.09117E-14 0.00000E+00
 -1        11 2.41700E+00 2.81975E-15 0.00000E+00
 -1        12 3.25000E+00 9.31453E-15 0.00000E+00
 -1        13 5.90531E-01 9.55415E-01 0.00000E+00
 -1        14 1.04148E-15 1.29152E+00 0.00000E+00
 -1        15 6.98357E-01 1.51793E+00 0.00000E+00
 -1        16 1.26638E+00 1.06136E+00 0.00000E+00
 -1        17 4.16745E-15 2.16652E+00 0.00000E+00
 -1        18 9.14932E-01 2.63878E+00 0.00000E+00
 -1        19 1.57062E+00 1.80718E+00 0.00000E+00
 -1        20 1.49321E+00 6.65266E-01 0.00000E+00
 -1        21 1.78308E+00 1.07486E+00 0.00000E+00
 -1        22 1.95813E+00 6.02297E-01 0.00000E+00
 -1        23 2.36090E+00 1.88991E+00 0.00000E+00
 -1        24 2.48300E+00 1.04980E+00 0.00000E+00
 -1        25 1.93761E+00 2.47828E-01 0.00000E+00
 -1        26 2.34160E+00 4.00442E-01 0.00000E+00
 -1        27 2.20850E+00 7.79284E-15 0.00000E+00
 -1        28 3.14145E+00 7.04781E-01 0.00000E+00
 -1        29 2.83350E+00 3.11639E-15 0.00000E+00
 -1        30 6.44444E-01 1.23667E+00 0.00000E+00
 -1        31 8.06644E-01 2.07835E+00 0.00000E+00
 -1        32 1.63814E+00 8.70063E-01 0.00000E+00
 -1        33 2.07199E+00 1.48239E+00 0.00000E+00
 -1        34 2.13960E+00 3.24135E-01 0.00000E+00
 -1        35 2.74153E+00 5.52612E-01 0.00000E+00
 -3
    3C                            24                                     1
 -1         1    9    0    1
 -2         2        13        30        14
 -1         2    9    0    1
 -2        14        30        15         3
 -1         3    9    0    1
 -2        13         1        16        30
 -1         4    9    0    1
 -2        30        16         4        15
 -1         5    9    0    1
 -2         3        15        31        17
 -1         6    9    0    1
 -2        17        31        18         5
 -1         7    9    0    1
 -2        15         4        19        31
 -1         8    9    0    1
 -2        31        19         6        18
 -1         9    9    0    1
 -2         1        20        32        16
 -1        10    9    0    1
 -2        16        32        21         4
 -1        11    9    0    1
 -2        20         7        22        32
 -1        12    9    0    1
 -2        32        22         8        21
 -1        13    9    0    1
 -2         4        21        33        19
 -1        14    9    0    1
 -2        19        33        23         6
 -1        15    9    0    1
 -2        21         8        24        33
 -1        16    9    0    1
 -2        33        24         9        23
 -1        17    9    0    1
 -2         7        25        34        22
 -1        18    9    0    1
 -2        22        34        26         8
 -1        19    9    0    1
 -2        25        10        27        34
 -1        20    9    0    1
 -2        34        27        11        26
 -1        21    9    0    1
 -2         8        26        35        24
 -1        22    9    0    1
 -2        24        35        28         9
 -1        23    9    0    1
 -2        26        11        29        35
 -1        24    9    0    1
 -2        35        29        12        28
 -3
    1PSTEP                         1           1           1          
  100CL  101 1.000000000          35                     0    1           1
 -4  DISP        4    1
 -5  D1          1    2    1    0
 -5  D2          1    2    2    0
 -5  D3          1    2    3    0
 -5  ALL         1    2    0    0    1ALL
 -1         1-2.63991E-05 3.81617E-04 0.00000E+00
 -1         2 0.00000E+00 5.01674E-04 0.00000E+00
 -1         3 0.00000E+00 5.02237E-04 0.00000E+00
 -1         4 4.55072E-05 3.48640E-04 0.00000E+00
 -1         5 0.00000E+00 5.05189E-04 0.00000E+00
 -1         6 1.68195E-04 3.10235E-04 0.00000E+00
 -1         7-5.26573E-05 1.90034E-04 0.00000E+00
 -1         8-1.27739E-05 1.29861E-04 0.00000E+00
 -1         9 7.94252E-05 5.80857E-05 0.00000E+00
 -1        10-6.39714E-05 0.00000E+00 0.00000E+00
 -1        11-7.32470E-05 0.00000E+00 0.00000E+00
 -1        12-4.56111E-05 0.00000E+00 0.00000E+00
 -1        13-1.18886E-05 4.71544E-04 0.00000E+00
 -1        14 0.00000E+00 5.02837E-04 0.00000E+00
 -1        15 3.42534E-05 4.61939E-04 0.00000E+00
 -1        16 1.40954E-05 3.62827E-04 0.00000E+00
 -1        17 0.00000E+00 5.02114E-04 0.00000E+00
 -1        18 1.11573E-04 4.52030E-04 0.00000E+00
 -1        19 1.02032E-04 3.29155E-04 0.00000E+00
 -1        20-3.91501E-05 2.97742E-04 0.00000E+00
 -1        21 2.77797E-05 2.40469E-04 0.00000E+00
 -1        22-2.99854E-05 1.50764E-04 0.00000E+00
 -1        23 1.50370E-04 1.73592E-04 0.00000E+00
 -1        24 2.66211E-05 9.90667E-05 0.00000E+00
 -1        25-6.04204E-05 9.78215E-05 0.00000E+00
 -1        26-5.39133E-05 5.32682E-05 0.00000E+00
 -1        27-7.51498E-05 0.00000E+00 0.00000E+00
 -1        28-6.01442E-06 1.48671E-06 0.00000E+00
 -1        29-6.08172E-05 0.00000E+00 0.00000E+00
 -1        30 1.37534E-05 4.66746E-04 0.00000E+00
 -1        31 7.05019E-05 4.55485E-04 0.00000E+00
 -1        32-4.44023E-07 2.63075E-04 0.00000E+00
 -1        33 8.19344E-05 2.08990E-04 0.00000E+00
 -1        34-6.01517E-05 6.72150E-05 0.00000E+00
 -1        35-3.33514E-05 3.18240E-05 0.00000E+00
 -3
    1PSTEP                         2           1           1          
  100CL  101 1.000000000          35                     0    1           1
 -4  STRESS      6    1
 -5  SXX         1    4    1    1
 -5  SYY         1    4    2    2
 -5  SZZ         1    4    3    3
 -5  SXY         1    4    1    2
 -5  SYZ         1    4    2    3
 -5  SZX         1    4    3    1
 -1         1 5.84960E+06 3.50540E+06 8.65327E+05-3.91622E+06-2.85509E-08 7.26141E-09
 -1         2-4.03168E+06-2.26547E+05 4.56419E+05-4.12914E+06 1.37516E-08 6.67569E-09
 -1         3 1.14508E+07 3.23989E+06 1.39206E+05-4.68559E+06 1.97469E-08-4.16549E-10
 -1         4 1.01547E+07 9.85970E+06-1.64121E+05-7.48856E+06-1.05429E-08-1.60071E-10
 -1         5 2.83981E+07 9.44398E+06-6.07010E+05-4.65230E+06 1.08485E-08-2.87832E-09
 -1         6 1.96629E+07 1.30126E+07-5.35265E+05-6.16999E+06 3.24944E-08 5.34585E-08
 -1         7 2.04682E+07 3.37502E+07 1.79115E+06-1.91764E+07-4.42378E-08-7.78527E-09
 -1         8 7.63532E+06 2.51160E+07-6.69735E+05-6.14915E+06 5.83386E-08 2.41380E-09
 -1         9 8.54343E+06 1.14035E+07-1.43408E+05-4.27415E+05 1.83345E-08 2.83617E-08
 -1        10 1.48516E+07 8.55504E+07 1.13995E+06-1.46259E+03-7.21775E-09 3.02680E-09
 -1        11 1.32721E+07 3.10251E+07-4.30981E+05 4.15453E+06-1.12777E-08-1.01863E-09
 -1        12 8.54846E+06 2.66424E+06 2.60512E+05 4.99397E+06 1.60253E-09 6.95582E-09
 -1        13-1.43239E+06 2.04835E+05 1.77936E+05-8.55119E+05 3.81260E-09-7.21775E-09
 -1        14 5.28170E+06 1.91952E+06 4.25344E+05-4.54030E+06-5.76256E-09-2.03727E-09
 -1        15 1.10824E+07 4.83046E+06 8.94323E+04-4.13918E+06 1.84955E-08 3.98359E-09
 -1        16 9.19213E+06 6.84512E+06 5.23456E+05-6.26938E+06 6.65023E-09 1.17579E-08
 -1        17 2.03892E+07 6.55140E+06-3.22448E+05-4.65987E+06-2.64190E-08 5.67616E-09
 -1        18 2.58105E+07 1.06344E+07-4.69138E+05-4.40399E+06 2.22717E-08-1.93886E-08
 -1        19 1.46169E+07 1.17977E+07-3.60274E+05-6.56628E+06 1.15324E-08-1.74387E-08
 -1        20 1.37650E+07 1.17059E+07 7.35846E+05-1.07859E+07 1.14378E-08 9.74978E-09
 -1        21 8.15476E+06 1.71733E+07-4.47072E+05-8.75519E+06-7.42330E-09-4.29281E-10
 -1        22 1.03822E+07 2.65093E+07-4.58891E+04-1.19248E+07 1.72440E-08 5.09317E-09
 -1        23 1.28144E+07 1.41653E+07-3.03966E+05-4.36697E+06 2.51130E-08-4.23388E-08
 -1        24 8.57364E+06 1.72744E+07-7.99965E+04-2.21239E+06 2.55241E-08 5.53700E-09
 -1        25 1.85685E+07 6.58363E+07 8.90803E+05-1.91957E+07 2.24682E-08 4.30737E-09
 -1        26 1.07600E+07 2.98601E+07-5.15110E+05-2.13470E+06-1.56288E-08-3.36149E-09
 -1        27 8.71004E+06 4.49096E+07-4.15882E+05 3.30813E+06 8.44011E-09-1.16415E-09
 -1        28 7.98515E+06 5.72136E+06 1.29715E+05 1.59439E+06-2.27901E-08-5.68980E-09
 -1        29 1.15457E+07 1.50003E+07 2.49925E+05 4.45084E+06 5.78075E-09-3.72529E-09
 -1        30 6.30094E+06 2.84309E+06 3.30243E+05-2.67598E+06 4.20550E-08-2.99769E-09
 -1        31 1.86918E+07 8.03911E+06-2.48442E+05-4.35360E+06-2.35013E-08 4.96220E-09
 -1        32 1.06602E+07 1.41366E+07 7.97494E+04-1.04709E+07-3.90173E-08-9.03674E-09
 -1        33 1.02455E+07 1.56903E+07-1.35401E+05-5.63011E+06 4.24279E-09 1.42691E-08
 -1        34 9.30522E+06 3.88921E+07-4.12305E+05-8.48930E+06-3.37313E-08-2.41562E-09
 -1        35 1.01378E+07 1.60736E+07 1.70160E+05 2.38620E+05 1.07138E-08-1.93540E-09
 -3
    1PSTEP                         3           1           1          
  100CL  101 1.000000000          35                     0    1           1
 -4  TOSTRAIN    6    1
 -5  EXX         1    4    1    1
 -5  EYY         1    4    2    2
 -5  EZZ         1    4    3    3
 -5  EXY         1    4    1    2
 -5  EYZ         1    4    2    3
 -5  EZX         1    4    3    1
 -1         1 2.16114E-05 7.09962E-06-9.24369E-06-2.42433E-05-1.76818E-19 4.48927E-20
 -1         2-1.95268E-05 4.02871E-06 8.25660E-06-2.55613E-05 8.50209E-20 4.13458E-20
 -1         3 4.97003E-05-1.12909E-06-2.03238E-05-2.90060E-05 1.22237E-19-2.58080E-21
 -1         4 3.45049E-05 3.26787E-05-2.93735E-05-4.63577E-05-6.51951E-20-9.52912E-22
 -1         5 1.22605E-04 5.26970E-06-5.69507E-05-2.87999E-05 6.70215E-20-1.78208E-20
 -1         6 7.58081E-05 3.46395E-05-4.92281E-05-3.81952E-05 2.01117E-19 3.30938E-19
 -1         7 4.66944E-05 1.28916E-04-6.89256E-05-1.18711E-04-2.74439E-19-4.81750E-20
 -1         8 1.43543E-06 1.09649E-04-4.99768E-05-3.80662E-05 3.61048E-19 1.49157E-20
 -1         9 2.45971E-05 4.23025E-05-2.91786E-05-2.64591E-06 1.13506E-19 1.75653E-19
 -1        10-5.31213E-05 3.84538E-04-1.38003E-04-9.05412E-09-4.44692E-20 1.82112E-20
 -1        11 1.94945E-05 1.29394E-04-6.53339E-05 2.57185E-05-6.97743E-20-6.03511E-21
 -1        12 3.65288E-05 1.02602E-07-1.47776E-05 3.09151E-05 9.91624E-21 4.30928E-20
 -1        13-7.36772E-06 2.76748E-06 2.60096E-06-5.29360E-06 2.35052E-20-4.47869E-20
 -1        14 2.18011E-05 9.87665E-07-8.26202E-06-2.81066E-05-3.57871E-20-1.26261E-20
 -1        15 4.57451E-05 7.04238E-06-2.23069E-05-2.56235E-05 1.14402E-19 2.45904E-20
 -1        16 3.32455E-05 1.87164E-05-2.04177E-05-3.88105E-05 4.11870E-20 7.27390E-20
 -1        17 8.81930E-05 2.53034E-06-4.00221E-05-2.88468E-05-1.63583E-19 3.51519E-20
 -1        18 1.08385E-04 1.44382E-05-5.42982E-05-2.72628E-05 1.37802E-19-1.20027E-19
 -1        19 5.32650E-05 3.58129E-05-3.94507E-05-4.06484E-05 7.13361E-20-1.07970E-19
 -1        20 4.77738E-05 3.50270E-05-3.28831E-05-6.67699E-05 7.06214E-20 6.02452E-20
 -1        21 1.49376E-05 7.07666E-05-3.83118E-05-5.41988E-05-4.59515E-20-2.64698E-21
 -1        22 1.16340E-05 1.11469E-04-5.29206E-05-7.38203E-05 1.06832E-19 3.15784E-20
 -1        23 4.12190E-05 4.95816E-05-3.99898E-05-2.70336E-05 1.55483E-19-2.62051E-19
 -1        24 1.62635E-05 7.01252E-05-3.73067E-05-1.36958E-05 1.57972E-19 3.43048E-20
 -1        25-6.90278E-06 2.85707E-04-1.16336E-04-1.18831E-04 1.40184E-19 2.66815E-20
 -1        26 9.31664E-06 1.27555E-04-6.04816E-05-1.32148E-05-9.65618E-20-2.07523E-20
 -1        27-2.20861E-05 2.02007E-04-7.85799E-05 2.04789E-05 5.23043E-20-8.47033E-21
 -1        28 2.96659E-05 1.56519E-05-1.89630E-05 9.87001E-06-1.41081E-19-3.51519E-20
 -1        29 3.31932E-05 5.45794E-05-3.67327E-05 2.75528E-05 3.57342E-20-2.30816E-20
 -1        30 2.54712E-05 4.06541E-06-1.14903E-05-1.65656E-05 2.60357E-19-1.85288E-20
 -1        31 7.78791E-05 1.19338E-05-3.93701E-05-2.69508E-05-1.45584E-19 3.07182E-20
 -1        32 3.04536E-05 5.19745E-05-3.50442E-05-6.48200E-05-2.41537E-19-5.59042E-20
 -1        33 2.65666E-05 6.02729E-05-3.76959E-05-3.48531E-05 2.62646E-20 8.83379E-20
 -1        34-1.06606E-05 1.72496E-04-7.08167E-05-5.25528E-05-2.09429E-19-1.52466E-20
 -1        35 2.50700E-05 6.18152E-05-3.66346E-05 1.47717E-06 6.62803E-20-1.17526E-20
 -3
    1PSTEP                         4           1           1          
  100CL  101 1.000000000          35                     0    1           1
 -4  ERROR       1    1
 -5  STR(%)      1    1    0    0
 -1         1 4.86454E+01
 -1         2 7.76909E+01
 -1         3 2.98710E+01
 -1         4 1.52742E+01
 -1         5 1.25179E+01
 -1         6 1.07091E+01
 -1         7 2.24615E+01
 -1         8 3.09582E+01
 -1         9 3.44209E+01
 -1        10 2.68016E+01
 -1        11 3.29806E+01
 -1        12 2.63191E+01
 -1        13 7.76909E+01
 -1        14 7.76909E+01
 -1        15 2.98710E+01
 -1        16 4.86454E+01
 -1        17 1.90581E+01
 -1        18 1.25179E+01
 -1        19 1.08358E+01
 -1        20 1.64902E+01
 -1        21 2.33184E+01
 -1        22 2.47100E+01
 -1        23 1.77571E+01
 -1        24 3.44209E+01
 -1        25 2.68016E+01
 -1        26 3.29806E+01
 -1        27 2.68016E+01
 -1        28 3.44209E+01
 -1        29 3.29806E+01
 -1        30 7.76909E+01
 -1        31 1.90581E+01
 -1        32 1.94904E+01
 -1        33 2.33184E+01
 -1        34 2.68016E+01
 -1        35 3.44209E+01
 -3
 9999
