    1C
    1UHash: PXJD0WWr, Date: 03/11/2021, Unit system: MM_TON_S_C         
    1UUSER                                                              
    1UDATE              13.march.2021                                   
    1UTIME              18:35:48                                        
    1UHOST                                                              
    1UPGM               CalculiX                                        
    1UVERSION           Version 2.17                             
    1UCOMPILETIME       Thu Jul 23 21:43:50 CEST 2020                    
    1UDIR                                                               
    1UDBN                                                               
    1UMAT    1RUBBER                                                    
    2C                           339                                     1
 -1       380 4.80000E+01 4.40000E+01 0.00000E+00
 -1       381 4.80000E+01 4.40000E+01 5.00000E+00
 -1       382 0.00000E+00 0.00000E+00 0.00000E+00
 -1       383 0.00000E+00 0.00000E+00 5.00000E+00
 -1       384 4.80000E+01 6.00000E+01 0.00000E+00
 -1       385 4.80000E+01 6.00000E+01 5.00000E+00
 -1       386 0.00000E+00 4.40000E+01 0.00000E+00
 -1       387 0.00000E+00 4.40000E+01 5.00000E+00
 -1       388 4.00000E+01 3.66667E+01 0.00000E+00
 -1       389 3.20000E+01 2.93333E+01 0.00000E+00
 -1       390 2.40000E+01 2.20000E+01 0.00000E+00
 -1       391 1.60000E+01 1.46667E+01 0.00000E+00
 -1       392 8.00000E+00 7.33333E+00 0.00000E+00
 -1       393 4.00000E+01 3.66667E+01 5.00000E+00
 -1       394 3.20000E+01 2.93333E+01 5.00000E+00
 -1       395 2.40000E+01 2.20000E+01 5.00000E+00
 -1       396 1.60000E+01 1.46667E+01 5.00000E+00
 -1       397 8.00000E+00 7.33333E+00 5.00000E+00
 -1       398 4.80000E+01 5.20000E+01 0.00000E+00
 -1       399 4.80000E+01 5.20000E+01 5.00000E+00
 -1       400 1.20000E+01 4.80000E+01 0.00000E+00
 -1       401 2.40000E+01 5.20000E+01 0.00000E+00
 -1       402 3.60000E+01 5.60000E+01 0.00000E+00
 -1       403 1.20000E+01 4.80000E+01 5.00000E+00
 -1       404 2.40000E+01 5.20000E+01 5.00000E+00
 -1       405 3.60000E+01 5.60000E+01 5.00000E+00
 -1       406 0.00000E+00 1.10000E+01 0.00000E+00
 -1       407 0.00000E+00 2.20000E+01 0.00000E+00
 -1       408 0.00000E+00 3.30000E+01 0.00000E+00
 -1       409 0.00000E+00 1.10000E+01 5.00000E+00
 -1       410 0.00000E+00 2.20000E+01 5.00000E+00
 -1       411 0.00000E+00 3.30000E+01 5.00000E+00
 -1       412 3.80065E+01 4.67331E+01 0.00000E+00
 -1       413 2.09537E+01 3.61194E+01 0.00000E+00
 -1       414 6.62674E+00 2.71099E+01 0.00000E+00
 -1       415 9.61877E+00 3.62657E+01 0.00000E+00
 -1       416 7.75803E+00 1.77959E+01 0.00000E+00
 -1       417 3.05955E+01 4.02121E+01 0.00000E+00
 -1       418 1.49260E+01 2.57683E+01 0.00000E+00
 -1       419 1.14120E+01 2.54818E+01 5.00000E+00
 -1       420 2.54557E+01 4.04878E+01 5.00000E+00
 -1       421 3.70129E+01 4.65978E+01 5.00000E+00
 -1       422 1.14283E+01 3.72313E+01 5.00000E+00
 -1       423 7.18583E+00 1.63756E+01 5.00000E+00
 -1       424 2.08432E+01 3.11517E+01 5.00000E+00
 -1       425 4.76644E+00 2.94410E+01 2.49260E+00
 -1       426 1.90846E+01 4.34778E+01 2.67109E+00
 -1       427 4.07939E+01 4.27991E+01 2.51110E+00
 -1       428 4.39936E+00 1.43227E+01 2.48868E+00
 -1       429 4.16500E+01 5.27551E+01 2.48414E+00
 -1       430 2.72183E+01 3.45384E+01 2.49888E+00
 -1       431 1.80600E+01 2.26208E+01 2.46317E+00
 -1       432 3.44644E+01 3.83298E+01 2.39541E+00
 -1       433 5.28484E+00 2.17785E+01 2.44780E+00
 -1       434 3.47176E+00 7.98777E+00 2.50831E+00
 -1       435 8.74601E+00 4.20323E+01 2.48626E+00
 -1       436 3.13696E+01 4.86081E+01 2.53841E+00
 -1       437 4.45190E+00 3.72323E+01 2.46029E+00
 -1       438 2.37781E+01 2.81748E+01 2.59705E+00
 -1       439 1.24811E+01 1.89365E+01 2.48864E+00
 -1       440 4.38562E+01 4.75927E+01 2.42804E+00
 -1       441 9.79015E+00 1.41780E+01 2.49064E+00
 -1       442 4.80000E+01 4.40000E+01 2.50000E+00
 -1       443 0.00000E+00 0.00000E+00 2.50000E+00
 -1       444 4.40000E+01 4.03333E+01 0.00000E+00
 -1       445 3.60000E+01 3.30000E+01 0.00000E+00
 -1       446 2.80000E+01 2.56667E+01 0.00000E+00
 -1       447 2.00000E+01 1.83333E+01 0.00000E+00
 -1       448 1.20000E+01 1.10000E+01 0.00000E+00
 -1       449 4.00000E+00 3.66667E+00 0.00000E+00
 -1       450 4.40000E+01 4.03333E+01 5.00000E+00
 -1       451 3.60000E+01 3.30000E+01 5.00000E+00
 -1       452 2.80000E+01 2.56667E+01 5.00000E+00
 -1       453 2.00000E+01 1.83333E+01 5.00000E+00
 -1       454 1.20000E+01 1.10000E+01 5.00000E+00
 -1       455 4.00000E+00 3.66667E+00 5.00000E+00
 -1       456 4.80000E+01 6.00000E+01 2.50000E+00
 -1       457 4.80000E+01 5.60000E+01 0.00000E+00
 -1       458 4.80000E+01 4.80000E+01 0.00000E+00
 -1       459 4.80000E+01 5.60000E+01 5.00000E+00
 -1       460 4.80000E+01 4.80000E+01 5.00000E+00
 -1       461 0.00000E+00 4.40000E+01 2.50000E+00
 -1       462 6.00000E+00 4.60000E+01 0.00000E+00
 -1       463 1.80000E+01 5.00000E+01 0.00000E+00
 -1       464 3.00000E+01 5.40000E+01 0.00000E+00
 -1       465 4.20000E+01 5.80000E+01 0.00000E+00
 -1       466 6.00000E+00 4.60000E+01 5.00000E+00
 -1       467 1.80000E+01 5.00000E+01 5.00000E+00
 -1       468 3.00000E+01 5.40000E+01 5.00000E+00
 -1       469 4.20000E+01 5.80000E+01 5.00000E+00
 -1       470 0.00000E+00 5.50000E+00 0.00000E+00
 -1       471 0.00000E+00 1.65000E+01 0.00000E+00
 -1       472 0.00000E+00 2.75000E+01 0.00000E+00
 -1       473 0.00000E+00 3.85000E+01 0.00000E+00
 -1       474 0.00000E+00 5.50000E+00 5.00000E+00
 -1       475 0.00000E+00 1.65000E+01 5.00000E+00
 -1       476 0.00000E+00 2.75000E+01 5.00000E+00
 -1       477 0.00000E+00 3.85000E+01 5.00000E+00
 -1       478 4.40000E+01 4.03333E+01 2.50000E+00
 -1       479 3.60000E+01 3.30000E+01 2.50000E+00
 -1       480 3.20000E+01 2.93333E+01 2.50000E+00
 -1       481 2.80000E+01 2.56667E+01 2.50000E+00
 -1       482 2.00000E+01 1.83333E+01 2.50000E+00
 -1       483 2.40000E+01 2.20000E+01 2.50000E+00
 -1       484 1.20000E+01 1.10000E+01 2.50000E+00
 -1       485 1.60000E+01 1.46667E+01 2.50000E+00
 -1       486 4.00000E+00 3.66667E+00 2.50000E+00
 -1       487 8.00000E+00 7.33333E+00 2.50000E+00
 -1       488 4.00000E+01 3.66667E+01 2.50000E+00
 -1       489 4.80000E+01 5.20000E+01 2.50000E+00
 -1       490 4.80000E+01 5.60000E+01 2.50000E+00
 -1       491 4.80000E+01 4.80000E+01 2.50000E+00
 -1       492 6.00000E+00 4.60000E+01 2.50000E+00
 -1       493 1.80000E+01 5.00000E+01 2.50000E+00
 -1       494 2.40000E+01 5.20000E+01 2.50000E+00
 -1       495 3.00000E+01 5.40000E+01 2.50000E+00
 -1       496 4.20000E+01 5.80000E+01 2.50000E+00
 -1       497 3.60000E+01 5.60000E+01 2.50000E+00
 -1       498 1.20000E+01 4.80000E+01 2.50000E+00
 -1       499 0.00000E+00 5.50000E+00 2.50000E+00
 -1       500 0.00000E+00 1.65000E+01 2.50000E+00
 -1       501 0.00000E+00 2.20000E+01 2.50000E+00
 -1       502 0.00000E+00 2.75000E+01 2.50000E+00
 -1       503 0.00000E+00 3.85000E+01 2.50000E+00
 -1       504 0.00000E+00 3.30000E+01 2.50000E+00
 -1       505 0.00000E+00 1.10000E+01 2.50000E+00
 -1       506 3.90033E+01 4.16999E+01 0.00000E+00
 -1       507 4.30033E+01 4.53666E+01 0.00000E+00
 -1       508 2.24769E+01 2.90597E+01 0.00000E+00
 -1       509 2.64769E+01 3.27264E+01 0.00000E+00
 -1       510 4.00000E+00 9.16667E+00 0.00000E+00
 -1       511 3.31337E+00 3.00549E+01 0.00000E+00
 -1       512 3.31337E+00 2.45549E+01 0.00000E+00
 -1       513 4.80938E+00 4.01328E+01 0.00000E+00
 -1       514 4.80938E+00 3.46328E+01 0.00000E+00
 -1       515 8.12276E+00 3.16878E+01 0.00000E+00
 -1       516 1.08094E+01 4.21328E+01 0.00000E+00
 -1       517 2.24769E+01 4.40597E+01 0.00000E+00
 -1       518 1.64769E+01 4.20597E+01 0.00000E+00
 -1       519 3.70033E+01 5.13666E+01 0.00000E+00
 -1       520 3.10033E+01 4.93666E+01 0.00000E+00
 -1       521 4.20000E+01 5.40000E+01 0.00000E+00
 -1       522 4.30033E+01 4.93666E+01 0.00000E+00
 -1       523 3.87902E+00 1.43979E+01 0.00000E+00
 -1       524 7.87902E+00 1.25646E+01 0.00000E+00
 -1       525 1.18790E+01 1.62313E+01 0.00000E+00
 -1       526 3.87902E+00 1.98979E+01 0.00000E+00
 -1       527 3.12977E+01 3.47727E+01 0.00000E+00
 -1       528 3.52977E+01 3.84394E+01 0.00000E+00
 -1       529 1.54630E+01 2.02175E+01 0.00000E+00
 -1       530 1.94630E+01 2.38841E+01 0.00000E+00
 -1       531 3.43010E+01 4.34726E+01 0.00000E+00
 -1       532 1.79399E+01 3.09438E+01 0.00000E+00
 -1       533 2.57746E+01 3.81657E+01 0.00000E+00
 -1       534 2.72977E+01 4.61061E+01 0.00000E+00
 -1       535 7.19239E+00 2.24529E+01 0.00000E+00
 -1       536 1.52862E+01 3.61925E+01 0.00000E+00
 -1       537 1.13420E+01 2.17821E+01 0.00000E+00
 -1       538 1.07764E+01 2.64391E+01 0.00000E+00
 -1       539 1.22724E+01 3.10170E+01 0.00000E+00
 -1       540 4.00000E+00 9.16667E+00 5.00000E+00
 -1       541 1.77060E+01 2.37409E+01 5.00000E+00
 -1       542 1.37060E+01 2.00742E+01 5.00000E+00
 -1       543 3.27279E+01 3.85772E+01 5.00000E+00
 -1       544 2.87279E+01 3.49106E+01 5.00000E+00
 -1       545 4.25065E+01 4.52989E+01 5.00000E+00
 -1       546 3.85065E+01 4.16322E+01 5.00000E+00
 -1       547 3.12343E+01 4.35428E+01 5.00000E+00
 -1       548 4.25065E+01 4.92989E+01 5.00000E+00
 -1       549 4.20000E+01 5.40000E+01 5.00000E+00
 -1       550 3.05065E+01 4.92989E+01 5.00000E+00
 -1       551 2.47279E+01 4.62439E+01 5.00000E+00
 -1       552 1.87279E+01 4.42439E+01 5.00000E+00
 -1       553 5.71414E+00 4.06156E+01 5.00000E+00
 -1       554 1.17141E+01 4.26156E+01 5.00000E+00
 -1       555 5.71414E+00 3.51156E+01 5.00000E+00
 -1       556 5.70602E+00 2.37409E+01 5.00000E+00
 -1       557 5.70602E+00 2.92409E+01 5.00000E+00
 -1       558 1.15929E+01 1.55211E+01 5.00000E+00
 -1       559 7.59292E+00 1.18544E+01 5.00000E+00
 -1       560 2.64216E+01 3.02425E+01 5.00000E+00
 -1       561 2.24216E+01 2.65759E+01 5.00000E+00
 -1       562 2.31495E+01 3.58198E+01 5.00000E+00
 -1       563 3.65065E+01 5.12989E+01 5.00000E+00
 -1       564 1.14202E+01 3.13565E+01 5.00000E+00
 -1       565 3.59292E+00 1.36878E+01 5.00000E+00
 -1       566 3.59292E+00 1.91878E+01 5.00000E+00
 -1       567 1.61276E+01 2.83167E+01 5.00000E+00
 -1       568 1.84420E+01 3.88595E+01 5.00000E+00
 -1       569 9.29894E+00 2.09287E+01 5.00000E+00
 -1       570 1.61357E+01 3.41915E+01 5.00000E+00
 -1       571 3.36848E+01 5.23040E+01 1.26920E+00
 -1       572 3.88250E+01 5.43775E+01 1.24207E+00
 -1       573 3.65098E+01 5.06816E+01 2.51127E+00
 -1       574 3.36848E+01 5.23040E+01 3.76920E+00
 -1       575 3.88250E+01 5.43775E+01 3.74207E+00
 -1       576 2.48400E+01 4.18450E+01 1.33555E+00
 -1       577 2.22702E+01 4.19828E+01 3.83555E+00
 -1       578 2.80256E+01 4.03500E+01 2.50000E+00
 -1       579 2.00191E+01 3.97986E+01 1.33555E+00
 -1       580 2.32047E+01 3.83036E+01 2.50000E+00
 -1       581 2.38322E+00 3.12205E+01 3.74630E+00
 -1       582 2.38322E+00 3.12205E+01 1.24630E+00
 -1       583 2.38322E+00 2.57205E+01 1.24630E+00
 -1       584 7.94009E+00 3.72318E+01 3.73014E+00
 -1       585 2.22595E+00 3.51161E+01 3.73014E+00
 -1       586 8.09736E+00 3.33361E+01 3.74630E+00
 -1       587 4.60917E+00 3.33366E+01 2.47644E+00
 -1       588 1.43517E+01 3.98718E+01 1.33555E+00
 -1       589 1.05235E+01 3.67485E+01 2.50000E+00
 -1       590 1.52564E+01 4.03545E+01 3.83555E+00
 -1       591 1.61910E+01 3.66753E+01 2.50000E+00
 -1       592 2.76848E+01 5.03040E+01 1.26920E+00
 -1       593 1.05154E+01 3.08737E+01 2.50000E+00
 -1       594 1.52310E+01 3.37087E+01 2.50000E+00
 -1       595 4.03970E+01 3.97329E+01 3.75555E+00
 -1       596 3.76292E+01 4.05645E+01 2.45326E+00
 -1       597 3.72322E+01 3.74982E+01 3.69771E+00
 -1       598 4.03970E+01 3.97329E+01 1.25555E+00
 -1       599 3.72322E+01 3.74982E+01 1.19771E+00
 -1       600 1.39153E+01 4.27550E+01 2.57868E+00
 -1       601 1.03730E+01 4.50161E+01 3.74313E+00
 -1       602 1.55423E+01 4.57389E+01 3.83555E+00
 -1       603 1.00871E+01 3.96318E+01 3.74313E+00
 -1       604 2.22595E+00 4.06161E+01 3.73014E+00
 -1       605 2.76848E+01 5.03040E+01 3.76920E+00
 -1       606 3.89034E+01 4.46984E+01 3.75555E+00
 -1       607 4.43970E+01 4.33996E+01 3.75555E+00
 -1       608 2.19968E+00 1.81614E+01 1.24434E+00
 -1       609 2.64242E+00 2.18892E+01 1.22390E+00
 -1       610 4.84210E+00 1.80506E+01 2.46824E+00
 -1       611 2.19968E+00 1.81614E+01 3.74434E+00
 -1       612 2.64242E+00 2.18892E+01 3.72390E+00
 -1       613 3.46881E+01 4.76706E+01 1.26920E+00
 -1       614 3.09825E+01 4.44101E+01 1.26920E+00
 -1       615 1.78846E+01 2.84600E+01 2.50000E+00
 -1       616 1.31690E+01 2.56250E+01 2.50000E+00
 -1       617 3.32322E+01 3.38316E+01 1.19771E+00
 -1       618 3.32322E+01 3.38316E+01 3.69771E+00
 -1       619 2.96091E+01 3.19359E+01 1.24944E+00
 -1       620 3.08414E+01 3.64341E+01 2.44714E+00
 -1       621 2.96091E+01 3.19359E+01 3.74944E+00
 -1       622 3.93315E+01 4.96764E+01 3.74207E+00
 -1       623 4.48250E+01 5.23775E+01 3.74207E+00
 -1       624 2.08985E+01 3.36356E+01 2.50000E+00
 -1       625 8.08924E+00 2.74614E+01 3.74630E+00
 -1       626 7.19260E+00 3.28533E+01 1.24630E+00
 -1       627 2.78890E+01 2.87541E+01 1.29852E+00
 -1       628 2.23659E+01 3.21471E+01 1.29852E+00
 -1       629 2.54982E+01 3.13566E+01 2.54796E+00
 -1       630 2.40860E+01 3.53289E+01 1.24944E+00
 -1       631 2.63370E+01 3.75131E+01 3.74944E+00
 -1       632 2.40307E+01 3.28451E+01 3.74944E+00
 -1       633 2.15423E+01 4.77389E+01 1.33555E+00
 -1       634 4.48250E+01 5.63775E+01 3.74207E+00
 -1       635 4.48250E+01 5.23775E+01 1.24207E+00
 -1       636 4.48250E+01 5.63775E+01 1.24207E+00
 -1       637 3.57387E+01 4.24638E+01 3.69771E+00
 -1       638 9.01939E+00 2.62958E+01 2.50000E+00
 -1       639 9.58504E+00 2.16388E+01 2.50000E+00
 -1       640 1.73588E+00 9.49388E+00 1.25416E+00
 -1       641 5.73588E+00 7.66055E+00 1.25416E+00
 -1       642 1.73588E+00 3.99388E+00 1.25416E+00
 -1       643 8.89507E+00 1.07557E+01 3.74532E+00
 -1       644 8.48799E+00 1.52768E+01 3.74532E+00
 -1       645 1.28951E+01 1.44223E+01 3.74532E+00
 -1       646 2.19968E+00 1.26614E+01 1.24434E+00
 -1       647 2.78890E+01 2.87541E+01 3.79852E+00
 -1       648 2.23107E+01 2.96633E+01 3.79852E+00
 -1       649 2.99601E+01 3.94088E+01 3.69771E+00
 -1       650 4.59281E+01 4.97963E+01 1.21402E+00
 -1       651 4.59281E+01 4.97963E+01 3.71402E+00
 -1       652 4.59281E+01 4.57963E+01 1.21402E+00
 -1       653 5.73588E+00 7.66055E+00 3.75416E+00
 -1       654 1.03730E+01 4.50161E+01 1.24313E+00
 -1       655 4.37301E+00 4.30161E+01 1.24313E+00
 -1       656 1.55423E+01 4.57389E+01 1.33555E+00
 -1       657 1.42406E+01 1.68016E+01 1.24432E+00
 -1       658 1.37036E+01 2.23524E+01 1.24432E+00
 -1       659 1.01196E+01 1.83662E+01 1.24432E+00
 -1       660 2.22595E+00 3.51161E+01 1.23014E+00
 -1       661 2.22595E+00 4.06161E+01 1.23014E+00
 -1       662 1.28951E+01 1.44223E+01 1.24532E+00
 -1       663 8.77409E+00 1.59869E+01 1.24532E+00
 -1       664 8.89507E+00 1.07557E+01 1.24532E+00
 -1       665 2.10300E+01 2.23104E+01 1.23158E+00
 -1       666 1.70300E+01 1.86437E+01 3.73158E+00
 -1       667 1.70300E+01 1.86437E+01 1.23158E+00
 -1       668 2.10300E+01 2.23104E+01 3.73158E+00
 -1       669 1.94516E+01 2.68863E+01 3.73158E+00
 -1       670 1.47360E+01 2.40513E+01 3.73158E+00
 -1       671 4.37301E+00 4.30161E+01 3.74313E+00
 -1       672 2.38890E+01 2.50874E+01 1.29852E+00
 -1       673 2.38890E+01 2.50874E+01 3.79852E+00
 -1       674 2.09191E+01 2.53978E+01 2.53011E+00
 -1       675 1.42406E+01 1.68016E+01 3.74432E+00
 -1       676 1.52706E+01 2.07787E+01 2.47590E+00
 -1       677 4.27531E+01 5.01739E+01 2.45609E+00
 -1       678 9.83349E+00 1.76561E+01 3.74432E+00
 -1       679 1.11356E+01 1.65573E+01 2.48964E+00
 -1       680 7.09476E+00 1.42504E+01 2.48966E+00
 -1       681 6.19968E+00 1.08280E+01 3.74434E+00
 -1       682 5.79260E+00 1.53491E+01 3.74434E+00
 -1       683 2.15423E+01 4.77389E+01 3.83555E+00
 -1       684 2.84127E+01 4.45479E+01 3.76920E+00
 -1       685 2.52271E+01 4.60429E+01 2.60475E+00
 -1       686 6.23534E+00 1.90770E+01 3.72390E+00
 -1       687 8.34844E+00 2.36301E+01 3.72390E+00
 -1       688 2.89069E+01 3.73753E+01 1.24944E+00
 -1       689 3.98283E+01 4.97441E+01 1.24207E+00
 -1       690 2.38322E+00 2.57205E+01 3.74630E+00
 -1       691 4.43970E+01 4.33996E+01 1.25555E+00
 -1       692 6.19968E+00 1.08280E+01 1.24434E+00
 -1       693 6.07870E+00 1.60593E+01 1.24434E+00
 -1       694 3.93556E+00 1.11553E+01 2.49850E+00
 -1       695 2.19968E+00 1.26614E+01 3.74434E+00
 -1       696 4.04346E+01 4.70952E+01 3.71402E+00
 -1       697 4.59281E+01 4.57963E+01 3.71402E+00
 -1       698 1.73588E+00 3.99388E+00 3.75416E+00
 -1       699 6.52144E+00 1.97872E+01 1.22390E+00
 -1       700 7.47193E+00 1.70857E+01 2.50000E+00
 -1       701 1.93521E+01 2.69716E+01 1.29852E+00
 -1       702 3.25299E+01 3.92710E+01 1.19771E+00
 -1       703 5.69659E+00 2.82754E+01 1.24630E+00
 -1       704 5.02564E+00 2.56097E+01 2.47020E+00
 -1       705 3.62355E+01 4.25315E+01 1.19771E+00
 -1       706 3.94002E+01 4.47661E+01 1.25555E+00
 -1       707 4.23251E+01 4.51959E+01 2.46957E+00
 -1       708 4.09314E+01 4.71629E+01 1.21402E+00
 -1       709 3.75097E+01 4.66655E+01 2.50000E+00
 -1       710 1.64930E+01 2.41945E+01 1.23158E+00
 -1       711 5.95579E+00 2.44442E+01 1.22390E+00
 -1       712 3.38042E+01 4.34049E+01 2.50000E+00
 -1       713 1.73588E+00 9.49388E+00 3.75416E+00
 -1       714 9.18239E+00 3.91490E+01 1.24313E+00
 -1       715 6.59896E+00 3.96323E+01 2.47328E+00
 -1       716 7.03533E+00 3.67490E+01 1.23014E+00
 -1       717 3.41913E+01 4.76029E+01 3.76920E+00
 -1       718 1.19466E+01 2.22091E+01 3.74432E+00
 -3
    3C                           173                                     1
 -1       395    6    0    1
 -2       436       429       402       405       573       572       571       574       575       497
 -1       396    6    0    1
 -2       417       420       426       413       578       577       576       533       580       579
 -1       397    6    0    1
 -2       411       407       408       425       502       472       504       581       583       582
 -1       398    6    0    1
 -2       411       437       422       425       585       584       555       581       587       586
 -1       399    6    0    1
 -2       426       422       415       413       590       589       588       579       591       536
 -1       400    6    0    1
 -2       436       405       402       401       574       497       571       592       495       464
 -1       401    6    0    1
 -2       419       424       415       422       567       594       593       564       570       589
 -1       402    6    0    1
 -2       393       432       427       388       597       596       595       488       599       598
 -1       403    6    0    1
 -2       426       403       435       422       602       601       600       590       554       603
 -1       404    6    0    1
 -2       422       411       387       437       555       477       553       584       585       604
 -1       405    6    0    1
 -2       401       436       405       404       592       574       495       494       605       468
 -1       406    6    0    1
 -2       427       381       421       393       607       545       606       595       450       546
 -1       407    6    0    1
 -2       428       433       407       410       610       609       608       611       612       501
 -1       408    6    0    1
 -2       412       436       401       417       613       592       520       531       614       534
 -1       409    6    0    1
 -2       424       419       415       418       567       593       594       615       616       539
 -1       410    6    0    1
 -2       389       394       432       430       480       618       617       619       621       620
 -1       411    6    0    1
 -2       421       399       429       405       548       623       622       563       549       575
 -1       412    6    0    1
 -2       424       415       413       418       594       536       624       615       539       532
 -1       413    6    0    1
 -2       413       415       424       422       536       594       624       591       589       570
 -1       414    6    0    1
 -2       419       422       415       425       564       589       593       625       586       626
 -1       415    6    0    1
 -2       389       413       438       430       509       628       627       619       630       629
 -1       416    6    0    1
 -2       413       430       420       424       630       631       580       624       632       562
 -1       417    6    0    1
 -2       417       413       426       401       533       579       576       534       517       633
 -1       418    6    0    1
 -2       389       388       432       394       445       599       617       480       479       618
 -1       419    6    0    1
 -2       385       384       398       429       456       457       490       634       636       635
 -1       420    6    0    1
 -2       432       393       427       421       597       595       596       637       546       606
 -1       421    6    0    1
 -2       388       432       394       393       599       618       479       488       597       451
 -1       422    6    0    1
 -2       419       414       418       416       638       538       616       639       535       537
 -1       423    6    0    1
 -2       406       392       434       382       510       641       640       470       449       642
 -1       424    6    0    1
 -2       441       423       397       396       644       559       643       645       558       454
 -1       425    6    0    1
 -2       428       410       407       406       611       501       608       646       500       471
 -1       426    6    0    1
 -2       394       389       438       430       480       627       647       621       619       629
 -1       427    6    0    1
 -2       394       430       438       424       621       629       647       560       632       648
 -1       428    6    0    1
 -2       413       422       424       420       591       570       624       580       568       562
 -1       429    6    0    1
 -2       420       393       394       432       543       451       544       649       597       618
 -1       430    6    0    1
 -2       398       399       440       380       489       651       650       458       491       652
 -1       431    6    0    1
 -2       424       394       430       420       560       621       632       562       544       631
 -1       432    6    0    1
 -2       434       392       397       382       641       487       653       642       449       486
 -1       433    6    0    1
 -2       421       393       420       432       546       543       547       637       597       649
 -1       434    6    0    1
 -2       403       386       400       435       492       462       498       601       655       654
 -1       435    6    0    1
 -2       426       413       415       400       579       536       588       656       518       516
 -1       436    6    0    1
 -2       439       418       391       416       658       529       657       659       537       525
 -1       437    6    0    1
 -2       408       386       411       437       473       503       504       660       661       585
 -1       438    6    0    1
 -2       411       386       387       437       503       461       477       585       661       604
 -1       439    6    0    1
 -2       441       416       391       392       663       525       662       664       524       448
 -1       440    6    0    1
 -2       390       391       396       431       447       485       482       665       667       666
 -1       441    6    0    1
 -2       395       419       424       431       541       567       561       668       670       669
 -1       442    6    0    1
 -2       387       386       403       435       461       492       466       671       655       601
 -1       443    6    0    1
 -2       390       395       438       431       483       673       672       665       668       674
 -1       444    6    0    1
 -2       413       401       400       426       517       463       518       579       633       656
 -1       445    6    0    1
 -2       396       419       395       431       542       541       453       666       670       668
 -1       446    6    0    1
 -2       391       439       396       431       657       675       485       667       676       666
 -1       447    6    0    1
 -2       390       431       396       395       665       666       482       483       668       453
 -1       448    6    0    1
 -2       440       399       398       429       651       489       650       677       623       635
 -1       449    6    0    1
 -2       423       396       441       439       558       645       644       678       675       679
 -1       450    6    0    1
 -2       428       397       441       423       681       643       680       682       559       644
 -1       451    6    0    1
 -2       426       400       435       403       656       654       600       602       498       601
 -1       452    6    0    1
 -2       420       426       404       436       577       683       551       684       685       605
 -1       453    6    0    1
 -2       441       439       391       416       679       657       662       663       659       525
 -1       454    6    0    1
 -2       422       419       411       425       564       557       555       586       625       581
 -1       455    6    0    1
 -2       391       392       397       441       448       487       484       662       664       643
 -1       456    6    0    1
 -2       410       419       423       433       556       569       566       612       687       686
 -1       457    6    0    1
 -2       430       413       417       389       630       533       688       619       509       527
 -1       458    6    0    1
 -2       398       402       412       429       521       519       522       635       572       689
 -1       459    6    0    1
 -2       422       387       403       435       553       466       554       603       671       601
 -1       460    6    0    1
 -2       433       423       410       428       686       566       612       610       682       611
 -1       461    6    0    1
 -2       426       403       422       420       602       554       590       577       552       568
 -1       462    6    0    1
 -2       410       407       411       425       501       502       476       690       583       581
 -1       463    6    0    1
 -2       427       381       393       380       607       450       595       691       442       478
 -1       464    6    0    1
 -2       427       393       388       380       595       488       598       691       478       444
 -1       465    6    0    1
 -2       428       392       406       416       692       510       646       693       524       523
 -1       466    6    0    1
 -2       385       429       398       399       634       635       490       459       623       489
 -1       467    6    0    1
 -2       406       392       428       434       510       692       646       640       641       694
 -1       468    6    0    1
 -2       397       434       428       392       653       694       681       487       641       692
 -1       469    6    0    1
 -2       406       428       410       409       646       611       500       505       695       475
 -1       470    6    0    1
 -2       441       396       391       439       645       485       662       679       675       657
 -1       471    6    0    1
 -2       384       402       398       429       465       521       457       636       572       635
 -1       472    6    0    1
 -2       421       381       440       399       545       697       696       548       460       651
 -1       473    6    0    1
 -2       391       441       397       396       662       643       484       485       645       454
 -1       474    6    0    1
 -2       397       434       382       383       653       642       486       455       698       443
 -1       475    6    0    1
 -2       411       419       410       425       557       556       476       581       625       690
 -1       476    6    0    1
 -2       401       404       400       426       494       493       463       633       683       656
 -1       477    6    0    1
 -2       419       433       416       423       687       699       639       569       686       700
 -1       478    6    0    1
 -2       400       404       403       426       493       467       498       656       683       602
 -1       479    6    0    1
 -2       399       381       440       380       460       697       651       491       442       652
 -1       480    6    0    1
 -2       438       418       413       390       701       532       628       672       530       508
 -1       481    6    0    1
 -2       420       432       430       417       649       620       631       578       702       688
 -1       482    6    0    1
 -2       408       437       411       425       660       585       504       582       587       581
 -1       483    6    0    1
 -2       425       407       408       414       583       472       582       703       512       511
 -1       484    6    0    1
 -2       419       425       415       414       625       626       593       638       703       515
 -1       485    6    0    1
 -2       419       414       415       418       638       515       593       616       538       539
 -1       486    6    0    1
 -2       410       433       407       425       612       609       501       690       704       583
 -1       487    6    0    1
 -2       425       419       410       433       625       556       690       704       687       612
 -1       488    6    0    1
 -2       408       415       425       414       514       626       582       511       515       703
 -1       489    6    0    1
 -2       426       420       422       413       577       568       590       579       580       591
 -1       490    6    0    1
 -2       417       401       426       436       534       633       576       614       592       685
 -1       491    6    0    1
 -2       404       426       401       436       683       633       494       605       685       592
 -1       492    6    0    1
 -2       426       404       403       420       683       467       602       577       551       552
 -1       493    6    0    1
 -2       412       427       432       388       706       596       705       506       598       599
 -1       494    6    0    1
 -2       427       421       440       412       606       696       707       706       709       708
 -1       495    6    0    1
 -2       412       388       432       417       506       599       705       531       528       702
 -1       496    6    0    1
 -2       427       412       440       380       706       708       707       691       507       652
 -1       497    6    0    1
 -2       412       427       388       380       706       598       506       507       691       444
 -1       498    6    0    1
 -2       391       439       431       418       657       676       667       529       658       710
 -1       499    6    0    1
 -2       407       433       414       425       609       711       512       583       704       703
 -1       500    6    0    1
 -2       428       423       441       416       682       644       680       693       700       663
 -1       501    6    0    1
 -2       428       416       441       392       693       663       680       692       524       664
 -1       502    6    0    1
 -2       428       423       410       409       682       566       611       695       565       475
 -1       503    6    0    1
 -2       385       384       429       405       456       636       634       469       496       575
 -1       504    6    0    1
 -2       389       417       432       388       527       702       617       445       528       599
 -1       505    6    0    1
 -2       417       436       426       420       614       685       576       578       684       577
 -1       506    6    0    1
 -2       385       405       429       399       469       575       634       459       549       623
 -1       507    6    0    1
 -2       384       402       429       405       465       572       636       496       497       575
 -1       508    6    0    1
 -2       389       395       438       390       481       673       627       446       483       672
 -1       509    6    0    1
 -2       394       424       438       395       560       648       647       452       561       673
 -1       510    6    0    1
 -2       389       390       438       413       446       672       627       509       508       628
 -1       511    6    0    1
 -2       423       439       441       416       678       679       644       700       659       663
 -1       512    6    0    1
 -2       430       413       420       417       630       580       631       688       533       578
 -1       513    6    0    1
 -2       390       391       431       418       447       667       665       530       529       710
 -1       514    6    0    1
 -2       428       392       441       397       692       664       680       681       487       643
 -1       515    6    0    1
 -2       436       401       402       412       592       464       571       613       520       519
 -1       516    6    0    1
 -2       436       412       402       429       613       519       571       573       689       572
 -1       517    6    0    1
 -2       421       399       440       429       548       651       696       622       623       677
 -1       518    6    0    1
 -2       412       440       398       429       708       650       522       689       677       635
 -1       519    6    0    1
 -2       425       419       433       414       625       687       704       703       638       711
 -1       520    6    0    1
 -2       412       417       432       421       531       702       705       709       712       637
 -1       521    6    0    1
 -2       412       421       432       427       709       637       705       706       606       596
 -1       522    6    0    1
 -2       389       430       432       417       619       620       617       527       688       702
 -1       523    6    0    1
 -2       420       432       394       430       649       618       544       631       620       621
 -1       524    6    0    1
 -2       421       432       420       417       637       649       547       712       702       578
 -1       525    6    0    1
 -2       428       406       407       416       646       471       608       693       523       526
 -1       526    6    0    1
 -2       428       416       407       433       693       526       608       610       699       609
 -1       527    6    0    1
 -2       433       419       416       414       687       639       699       711       638       535
 -1       528    6    0    1
 -2       416       423       433       428       700       686       699       693       682       610
 -1       529    6    0    1
 -2       416       407       433       414       526       609       699       535       512       711
 -1       530    6    0    1
 -2       406       434       409       382       640       713       505       470       642       499
 -1       531    6    0    1
 -2       382       434       409       383       642       713       499       443       698       474
 -1       532    6    0    1
 -2       406       434       428       409       640       694       646       505       713       695
 -1       533    6    0    1
 -2       397       423       428       409       559       682       681       540       565       695
 -1       534    6    0    1
 -2       397       409       428       434       540       695       681       653       713       694
 -1       535    6    0    1
 -2       398       440       412       380       650       708       522       458       652       507
 -1       536    6    0    1
 -2       431       419       424       418       670       567       669       710       616       615
 -1       537    6    0    1
 -2       390       431       438       418       665       674       672       530       710       701
 -1       538    6    0    1
 -2       421       440       412       429       696       708       709       622       677       689
 -1       539    6    0    1
 -2       426       435       415       422       600       714       588       590       603       589
 -1       540    6    0    1
 -2       435       386       400       415       655       462       654       714       513       516
 -1       541    6    0    1
 -2       435       415       437       386       714       716       715       655       513       661
 -1       542    6    0    1
 -2       426       400       415       435       656       516       588       600       654       714
 -1       543    6    0    1
 -2       435       386       437       387       655       661       715       671       461       604
 -1       544    6    0    1
 -2       409       434       397       383       713       653       540       474       698       455
 -1       545    6    0    1
 -2       427       381       440       421       607       697       707       606       545       696
 -1       546    6    0    1
 -2       429       405       436       421       575       574       573       622       563       717
 -1       547    6    0    1
 -2       436       421       405       404       717       563       574       605       550       468
 -1       548    6    0    1
 -2       412       421       436       417       709       717       613       531       712       614
 -1       549    6    0    1
 -2       436       421       420       417       717       547       684       614       712       578
 -1       550    6    0    1
 -2       421       436       420       404       717       684       547       550       605       551
 -1       551    6    0    1
 -2       412       429       436       421       689       573       613       709       622       717
 -1       552    6    0    1
 -2       437       415       422       425       716       589       584       587       626       586
 -1       553    6    0    1
 -2       435       387       437       422       671       604       715       603       553       584
 -1       554    6    0    1
 -2       408       386       437       415       473       661       660       514       513       716
 -1       555    6    0    1
 -2       435       422       437       415       603       584       715       714       589       716
 -1       556    6    0    1
 -2       408       415       437       425       514       716       660       582       626       587
 -1       557    6    0    1
 -2       438       395       424       431       673       561       648       674       668       669
 -1       558    6    0    1
 -2       424       418       413       438       615       532       624       648       701       628
 -1       559    6    0    1
 -2       413       430       424       438       630       632       624       628       629       648
 -1       560    6    0    1
 -2       394       395       438       389       452       673       647       480       481       627
 -1       561    6    0    1
 -2       438       431       424       418       674       669       648       701       710       615
 -1       562    6    0    1
 -2       419       418       439       416       616       658       718       639       537       659
 -1       563    6    0    1
 -2       439       419       396       431       718       542       675       676       670       666
 -1       564    6    0    1
 -2       423       419       439       416       569       718       678       700       639       659
 -1       565    6    0    1
 -2       423       396       439       419       558       675       678       569       542       718
 -1       566    6    0    1
 -2       439       419       431       418       718       670       676       658       616       710
 -1       567    6    0    1
 -2       427       380       440       381       691       652       707       607       442       697
 -3
    1PSTEP                         1           1           1          
  100CL  101 1.000000000         339                     0    1           1
 -4  DISP        4    1
 -5  D1          1    2    1    0
 -5  D2          1    2    2    0
 -5  D3          1    2    3    0
 -5  ALL         1    2    0    0    1ALL
 -1       380-4.75858E+00 2.40029E+01 0.00000E+00
 -1       381-4.85862E+00 2.40365E+01 0.00000E+00
 -1       382 0.00000E+00 0.00000E+00 0.00000E+00
 -1       383 0.00000E+00 0.00000E+00 0.00000E+00
 -1       384-1.80515E+01 2.53809E+01 0.00000E+00
 -1       385-1.80497E+01 2.55219E+01 0.00000E+00
 -1       386 0.00000E+00 0.00000E+00 0.00000E+00
 -1       387 0.00000E+00 0.00000E+00 0.00000E+00
 -1       388-6.17024E-01 1.60398E+01 0.00000E+00
 -1       389 1.15542E+00 9.82670E+00 0.00000E+00
 -1       390 1.37536E+00 5.58663E+00 0.00000E+00
 -1       391 6.50906E-01 3.10884E+00 0.00000E+00
 -1       392 6.78265E-02 1.61372E+00 0.00000E+00
 -1       393-6.20850E-01 1.60631E+01 0.00000E+00
 -1       394 1.18206E+00 9.91324E+00 0.00000E+00
 -1       395 1.35324E+00 5.57991E+00 0.00000E+00
 -1       396 6.32332E-01 3.11085E+00 0.00000E+00
 -1       397 6.35651E-02 1.63767E+00 0.00000E+00
 -1       398-1.06310E+01 2.48755E+01 0.00000E+00
 -1       399-1.05754E+01 2.48020E+01 0.00000E+00
 -1       400-3.54341E+00 2.76414E+00 0.00000E+00
 -1       401-7.95631E+00 6.64921E+00 0.00000E+00
 -1       402-1.28731E+01 1.39589E+01 0.00000E+00
 -1       403-3.40848E+00 2.63087E+00 0.00000E+00
 -1       404-7.80567E+00 6.63724E+00 0.00000E+00
 -1       405-1.28824E+01 1.38876E+01 0.00000E+00
 -1       406 0.00000E+00 0.00000E+00 0.00000E+00
 -1       407 0.00000E+00 0.00000E+00 0.00000E+00
 -1       408 0.00000E+00 0.00000E+00 0.00000E+00
 -1       409 0.00000E+00 0.00000E+00 0.00000E+00
 -1       410 0.00000E+00 0.00000E+00 0.00000E+00
 -1       411 0.00000E+00 0.00000E+00 0.00000E+00
 -1       412-6.01390E+00 1.46929E+01 0.00000E+00
 -1       413-3.87522E-01 3.89039E+00 0.00000E+00
 -1       414 2.19047E-01 3.41406E-01 0.00000E+00
 -1       415-2.43007E-01 5.58625E-01 0.00000E+00
 -1       416 3.24882E-01 1.19532E+00 0.00000E+00
 -1       417-2.00616E+00 8.94187E+00 0.00000E+00
 -1       418 8.80284E-01 2.23793E+00 0.00000E+00
 -1       419 5.68389E-01 1.34747E+00 0.00000E+00
 -1       420-1.91704E+00 6.09586E+00 0.00000E+00
 -1       421-5.82971E+00 1.38575E+01 0.00000E+00
 -1       422-3.61307E-01 9.42367E-01 0.00000E+00
 -1       423 3.09142E-01 1.21516E+00 0.00000E+00
 -1       424 5.49260E-01 3.97062E+00 0.00000E+00
 -1       425 1.31666E-01 1.50537E-01 4.49342E-03
 -1       426-2.64028E+00 3.76393E+00 2.54972E-03
 -1       427-3.74273E+00 1.68297E+01 2.04605E-02
 -1       428 1.05980E-01 7.64159E-01 7.55539E-03
 -1       429-1.06592E+01 1.83639E+01 8.14640E-03
 -1       430 1.53306E-03 6.82754E+00-4.15391E-03
 -1       431 1.05543E+00 3.32653E+00-3.90608E-03
 -1       432-1.27599E+00 1.15345E+01 6.48976E-03
 -1       433 1.64226E-01 5.65553E-01-7.93360E-04
 -1       434 5.42931E-03 7.11044E-01-5.87027E-03
 -1       435-8.95271E-01 8.91873E-01-4.30337E-02
 -1       436-6.65454E+00 1.00006E+01-5.04029E-04
 -1       437-7.07371E-02 2.96932E-02-3.30513E-03
 -1       438 1.03410E+00 5.31083E+00-4.11513E-03
 -1       439 6.06225E-01 2.02915E+00 9.38323E-03
 -1       440-6.99282E+00 2.00297E+01-7.41592E-03
 -1       441 3.04983E-01 1.74537E+00-4.39686E-03
 -1       442-4.85464E+00 2.40523E+01-3.04615E-03
 -1       443 0.00000E+00 0.00000E+00 0.00000E+00
 -1       444-2.41134E+00 1.98079E+01 0.00000E+00
 -1       445 4.85401E-01 1.27419E+01 0.00000E+00
 -1       446 1.37338E+00 7.51959E+00 0.00000E+00
 -1       447 9.81342E-01 4.23767E+00 0.00000E+00
 -1       448 2.78169E-01 2.31429E+00 0.00000E+00
 -1       449 2.81675E-02 8.29221E-01 0.00000E+00
 -1       450-2.35506E+00 1.97660E+01 0.00000E+00
 -1       451 5.06266E-01 1.27682E+01 0.00000E+00
 -1       452 1.38146E+00 7.52553E+00 0.00000E+00
 -1       453 9.85305E-01 4.18138E+00 0.00000E+00
 -1       454 2.60228E-01 2.32235E+00 0.00000E+00
 -1       455 1.68427E-02 8.70330E-01 0.00000E+00
 -1       456-1.80594E+01 2.54377E+01 2.68863E-04
 -1       457-1.40185E+01 2.51282E+01 0.00000E+00
 -1       458-7.65820E+00 2.43447E+01 0.00000E+00
 -1       459-1.40683E+01 2.51367E+01 0.00000E+00
 -1       460-7.65633E+00 2.43855E+01 0.00000E+00
 -1       461 0.00000E+00 0.00000E+00 0.00000E+00
 -1       462-1.37550E+00 1.30840E+00 0.00000E+00
 -1       463-5.65686E+00 4.31294E+00 0.00000E+00
 -1       464-1.03988E+01 9.82584E+00 0.00000E+00
 -1       465-1.54772E+01 1.91977E+01 0.00000E+00
 -1       466-1.19052E+00 1.13004E+00 0.00000E+00
 -1       467-5.61377E+00 4.38724E+00 0.00000E+00
 -1       468-1.03710E+01 9.92845E+00 0.00000E+00
 -1       469-1.54254E+01 1.92125E+01 0.00000E+00
 -1       470 0.00000E+00 0.00000E+00 0.00000E+00
 -1       471 0.00000E+00 0.00000E+00 0.00000E+00
 -1       472 0.00000E+00 0.00000E+00 0.00000E+00
 -1       473 0.00000E+00 0.00000E+00 0.00000E+00
 -1       474 0.00000E+00 0.00000E+00 0.00000E+00
 -1       475 0.00000E+00 0.00000E+00 0.00000E+00
 -1       476 0.00000E+00 0.00000E+00 0.00000E+00
 -1       477 0.00000E+00 0.00000E+00 0.00000E+00
 -1       478-2.35918E+00 1.98343E+01-3.14018E-02
 -1       479 4.92517E-01 1.27383E+01-2.37513E-03
 -1       480 1.18213E+00 9.86206E+00-1.21164E-02
 -1       481 1.35947E+00 7.50390E+00 6.05512E-03
 -1       482 9.53971E-01 4.19871E+00 7.27445E-03
 -1       483 1.33316E+00 5.59225E+00 3.90954E-03
 -1       484 2.32927E-01 2.30791E+00 1.13786E-02
 -1       485 6.24343E-01 3.10778E+00 3.00248E-04
 -1       486 2.21477E-02 8.64267E-01-1.04028E-03
 -1       487 6.68574E-02 1.62241E+00-2.89277E-03
 -1       488-6.20044E-01 1.60370E+01-3.70138E-03
 -1       489-1.06562E+01 2.47765E+01-2.51026E-02
 -1       490-1.40215E+01 2.52019E+01 3.78893E-02
 -1       491-7.64709E+00 2.43175E+01-3.71945E-02
 -1       492-1.34591E+00 1.13026E+00-3.40425E-02
 -1       493-5.64534E+00 4.28419E+00 1.69699E-03
 -1       494-7.86973E+00 6.63535E+00-4.49332E-03
 -1       495-1.03708E+01 9.89439E+00-2.70485E-03
 -1       496-1.54871E+01 1.91382E+01-2.16495E-03
 -1       497-1.28969E+01 1.39186E+01-1.93913E-02
 -1       498-3.55421E+00 2.73395E+00-4.79371E-03
 -1       499 0.00000E+00 0.00000E+00 0.00000E+00
 -1       500 0.00000E+00 0.00000E+00 0.00000E+00
 -1       501 0.00000E+00 0.00000E+00 0.00000E+00
 -1       502 0.00000E+00 0.00000E+00 0.00000E+00
 -1       503 0.00000E+00 0.00000E+00 0.00000E+00
 -1       504 0.00000E+00 0.00000E+00 0.00000E+00
 -1       505 0.00000E+00 0.00000E+00 0.00000E+00
 -1       506-3.03189E+00 1.52472E+01 0.00000E+00
 -1       507-5.43557E+00 1.90224E+01 0.00000E+00
 -1       508 8.65956E-01 4.65725E+00 0.00000E+00
 -1       509 4.38983E-01 6.48125E+00 0.00000E+00
 -1       510 2.96029E-03 8.11695E-01 0.00000E+00
 -1       511 1.10998E-01 8.54244E-04 0.00000E+00
 -1       512 2.54490E-02 2.11162E-01 0.00000E+00
 -1       513-1.45579E-02 2.59221E-01 0.00000E+00
 -1       514 4.96690E-04 3.91338E-02 0.00000E+00
 -1       515 1.29899E-01 3.60191E-01 0.00000E+00
 -1       516-1.11430E+00 1.35510E+00 0.00000E+00
 -1       517-3.22819E+00 4.96699E+00 0.00000E+00
 -1       518-1.82401E+00 2.76214E+00 0.00000E+00
 -1       519-9.15151E+00 1.42392E+01 0.00000E+00
 -1       520-7.09854E+00 9.83556E+00 0.00000E+00
 -1       521-1.17515E+01 1.88029E+01 0.00000E+00
 -1       522-8.15297E+00 1.93628E+01 0.00000E+00
 -1       523 6.88459E-02 6.96229E-01 0.00000E+00
 -1       524 1.65482E-01 1.44433E+00 0.00000E+00
 -1       525 5.23605E-01 2.06203E+00 0.00000E+00
 -1       526 6.47569E-02 4.60190E-01 0.00000E+00
 -1       527-5.45526E-02 9.32743E+00 0.00000E+00
 -1       528-1.33833E+00 1.21524E+01 0.00000E+00
 -1       529 8.11984E-01 2.72790E+00 0.00000E+00
 -1       530 1.13987E+00 3.71478E+00 0.00000E+00
 -1       531-3.78744E+00 1.15690E+01 0.00000E+00
 -1       532 4.81530E-01 2.91327E+00 0.00000E+00
 -1       533-1.08652E+00 6.14043E+00 0.00000E+00
 -1       534-4.72875E+00 7.44318E+00 0.00000E+00
 -1       535 2.22454E-01 7.46945E-01 0.00000E+00
 -1       536-3.50525E-01 1.98247E+00 0.00000E+00
 -1       537 5.99840E-01 1.61718E+00 0.00000E+00
 -1       538 5.25346E-01 1.12373E+00 0.00000E+00
 -1       539 3.42138E-01 1.22290E+00 0.00000E+00
 -1       540 3.80212E-02 8.08343E-01 0.00000E+00
 -1       541 1.04751E+00 3.11933E+00 0.00000E+00
 -1       542 6.88523E-01 2.27175E+00 0.00000E+00
 -1       543-1.37649E+00 1.02873E+01 0.00000E+00
 -1       544-9.67186E-02 7.68193E+00 0.00000E+00
 -1       545-5.34922E+00 1.85531E+01 0.00000E+00
 -1       546-2.96878E+00 1.48089E+01 0.00000E+00
 -1       547-3.65923E+00 9.52008E+00 0.00000E+00
 -1       548-8.05143E+00 1.88601E+01 0.00000E+00
 -1       549-1.17586E+01 1.87815E+01 0.00000E+00
 -1       550-6.99116E+00 9.53670E+00 0.00000E+00
 -1       551-4.57866E+00 6.14142E+00 0.00000E+00
 -1       552-2.93486E+00 3.68814E+00 0.00000E+00
 -1       553-2.13561E-01 3.80453E-01 0.00000E+00
 -1       554-1.31024E+00 1.53650E+00 0.00000E+00
 -1       555-1.34839E-01 1.64066E-01 0.00000E+00
 -1       556 1.87491E-01 4.66116E-01 0.00000E+00
 -1       557 1.69387E-01 2.15778E-01 0.00000E+00
 -1       558 4.73293E-01 2.08851E+00 0.00000E+00
 -1       559 1.18616E-01 1.46246E+00 0.00000E+00
 -1       560 8.39582E-01 6.52754E+00 0.00000E+00
 -1       561 1.12222E+00 4.75828E+00 0.00000E+00
 -1       562-3.25977E-01 4.90312E+00 0.00000E+00
 -1       563-9.09411E+00 1.37964E+01 0.00000E+00
 -1       564 2.42822E-01 1.02721E+00 0.00000E+00
 -1       565 8.19265E-02 6.50577E-01 0.00000E+00
 -1       566 1.01642E-01 4.11749E-01 0.00000E+00
 -1       567 6.81909E-01 2.36991E+00 0.00000E+00
 -1       568-1.00540E+00 3.10399E+00 0.00000E+00
 -1       569 4.13699E-01 1.31661E+00 0.00000E+00
 -1       570 5.26845E-02 2.23049E+00 0.00000E+00
 -1       571-9.52165E+00 1.18811E+01 6.59626E-04
 -1       572-1.17380E+01 1.59946E+01-3.99153E-03
 -1       573-8.58973E+00 1.37769E+01 2.10686E-03
 -1       574-9.55210E+00 1.18924E+01-8.48737E-03
 -1       575-1.17595E+01 1.59880E+01 7.39853E-03
 -1       576-2.42519E+00 5.84682E+00-3.35388E-03
 -1       577-2.31951E+00 4.76701E+00-7.32936E-03
 -1       578-1.96917E+00 7.40967E+00 8.40959E-03
 -1       579-1.36213E+00 3.73426E+00 2.09039E-03
 -1       580-1.02036E+00 4.92124E+00-1.25128E-02
 -1       581 3.25075E-02-4.69496E-02 7.31260E-03
 -1       582 3.22987E-02-1.19216E-01-2.02839E-02
 -1       583 3.33063E-02 9.22100E-02 1.27309E-02
 -1       584-2.23255E-01 4.04525E-01 2.47009E-02
 -1       585-1.82316E-02-6.72557E-02-1.21375E-02
 -1       586 1.01150E-02 3.69681E-01 3.85561E-03
 -1       587-8.28755E-03 1.44919E-02-6.97337E-03
 -1       588-1.00097E+00 1.90612E+00-9.76988E-03
 -1       589-3.05117E-01 7.77130E-01 3.23520E-03
 -1       590-1.16917E+00 2.21431E+00-2.65190E-03
 -1       591-4.44784E-01 2.31924E+00-6.99849E-03
 -1       592-7.34207E+00 8.10462E+00 2.11526E-03
 -1       593 2.71954E-01 8.54195E-01-7.63625E-03
 -1       594 8.29227E-02 1.99037E+00 1.69890E-02
 -1       595-2.01999E+00 1.63924E+01 1.60951E-02
 -1       596-2.38028E+00 1.40443E+01 5.57400E-03
 -1       597-9.77370E-01 1.36638E+01-8.66653E-04
 -1       598-2.02920E+00 1.64181E+01 3.24999E-03
 -1       599-9.49818E-01 1.36803E+01 3.97273E-03
 -1       600-1.71870E+00 2.10927E+00-1.41651E-02
 -1       601-1.85695E+00 1.65660E+00-4.60125E-02
 -1       602-3.18539E+00 3.00952E+00 3.21468E-04
 -1       603-5.64761E-01 8.63483E-01-1.39604E-02
 -1       604-1.53487E-02 3.87188E-02-2.48855E-02
 -1       605-7.28727E+00 8.10379E+00 8.30968E-03
 -1       606-4.74696E+00 1.53010E+01 1.35397E-02
 -1       607-4.24539E+00 2.02917E+01-5.38295E-03
 -1       608 2.64066E-02 2.75025E-01 7.52526E-03
 -1       609 5.33139E-02 2.21343E-01 1.11445E-02
 -1       610 1.28739E-01 6.63134E-01 6.54958E-03
 -1       611 2.65513E-02 2.94824E-01 1.05352E-02
 -1       612 5.83067E-02 2.36112E-01 8.23129E-04
 -1       613-6.36583E+00 1.21306E+01 2.68650E-04
 -1       614-4.10440E+00 9.37533E+00 2.68950E-03
 -1       615 8.07595E-01 3.01873E+00 1.74740E-02
 -1       616 7.34615E-01 1.74014E+00-6.55334E-03
 -1       617 2.28690E-01 1.06502E+01-5.52791E-03
 -1       618 2.04702E-01 1.06361E+01-6.27385E-03
 -1       619 6.47087E-01 8.23990E+00-7.69719E-03
 -1       620-5.71396E-01 9.01820E+00 5.24213E-04
 -1       621 6.28942E-01 8.24725E+00-1.60766E-02
 -1       622-8.10057E+00 1.60127E+01 3.55137E-04
 -1       623-1.06285E+01 2.14349E+01 7.38924E-03
 -1       624 1.58817E-01 3.95871E+00 7.54909E-03
 -1       625 3.24840E-01 5.71408E-01-2.43159E-03
 -1       626 7.08460E-02 2.51336E-01 1.99626E-02
 -1       627 1.08265E+00 7.34262E+00-4.79499E-03
 -1       628 4.15376E-01 4.56219E+00-6.85066E-03
 -1       629 6.43280E-01 6.00185E+00-3.95032E-03
 -1       630-1.81363E-01 5.24897E+00-2.06943E-03
 -1       631-8.64660E-01 6.40383E+00 5.60780E-03
 -1       632 3.37884E-01 5.27506E+00 5.71731E-03
 -1       633-4.96982E+00 5.05103E+00-9.20525E-04
 -1       634-1.41435E+01 2.17911E+01 8.74004E-03
 -1       635-1.06360E+01 2.14640E+01 5.62118E-03
 -1       636-1.41346E+01 2.17611E+01 2.27009E-03
 -1       637-3.29051E+00 1.26013E+01 5.87159E-03
 -1       638 4.27257E-01 7.90672E-01-6.68071E-03
 -1       639 4.29864E-01 1.24795E+00-2.41549E-02
 -1       640 1.68879E-03 3.53716E-01 3.01886E-03
 -1       641 3.22700E-02 1.15624E+00-9.89690E-03
 -1       642 1.34897E-03 3.69032E-01-4.96978E-03
 -1       643 1.56136E-01 1.73785E+00 6.54408E-03
 -1       644 3.13134E-01 1.46599E+00 4.25845E-04
 -1       645 4.72934E-01 2.39126E+00 7.95410E-03
 -1       646 2.65977E-02 4.13436E-01 5.81313E-03
 -1       647 1.12480E+00 7.34809E+00 9.18884E-03
 -1       648 8.03585E-01 4.61581E+00-1.04418E-02
 -1       649-1.64837E+00 8.50709E+00 8.34798E-03
 -1       650-8.77031E+00 2.23319E+01-1.58205E-02
 -1       651-8.71973E+00 2.23584E+01-7.13916E-03
 -1       652-5.92818E+00 2.19475E+01-8.76902E-03
 -1       653 2.20478E-02 1.16977E+00-1.04268E-02
 -1       654-1.87381E+00 1.78959E+00-8.59943E-03
 -1       655-4.46740E-01 4.13526E-01-2.83893E-02
 -1       656-3.15447E+00 3.02196E+00-3.86988E-03
 -1       657 6.61984E-01 2.55832E+00-3.05698E-04
 -1       658 7.39205E-01 2.09843E+00 4.50947E-03
 -1       659 4.68201E-01 1.56644E+00 5.00191E-03
 -1       660-1.58607E-02-1.42560E-01-1.56386E-02
 -1       661-1.75830E-02-6.74604E-02-1.43575E-02
 -1       662 4.70026E-01 2.37078E+00-2.68227E-05
 -1       663 3.29332E-01 1.44881E+00-1.34176E-02
 -1       664 1.57947E-01 1.69729E+00-9.48984E-04
 -1       665 1.23263E+00 4.38799E+00 8.40576E-05
 -1       666 8.51927E-01 3.24802E+00 3.84751E-03
 -1       667 8.61587E-01 3.25514E+00-4.38464E-03
 -1       668 1.23091E+00 4.39984E+00 3.40507E-04
 -1       669 9.88005E-01 3.60150E+00 6.24218E-03
 -1       670 8.55314E-01 2.23642E+00-3.37248E-03
 -1       671-3.54893E-01 4.64306E-01 9.34639E-03
 -1       672 1.26639E+00 5.44731E+00 1.59770E-03
 -1       673 1.28729E+00 5.46095E+00 4.68015E-03
 -1       674 1.13787E+00 4.20339E+00 3.41724E-03
 -1       675 6.53772E-01 2.57935E+00 1.57345E-03
 -1       676 8.19450E-01 2.60956E+00-1.45932E-03
 -1       677-8.73931E+00 1.91836E+01 6.51361E-04
 -1       678 4.33088E-01 1.60276E+00-4.99885E-03
 -1       679 4.73843E-01 1.88063E+00-2.10771E-05
 -1       680 1.96097E-01 1.23979E+00-6.80263E-03
 -1       681 8.97960E-02 1.18124E+00-3.83727E-03
 -1       682 2.05923E-01 9.82179E-01-3.49071E-03
 -1       683-4.97970E+00 5.07719E+00 1.01939E-02
 -1       684-3.99398E+00 7.88921E+00-7.02427E-03
 -1       685-4.49391E+00 6.40706E+00-1.37392E-05
 -1       686 2.23999E-01 8.35329E-01-6.78921E-03
 -1       687 3.49037E-01 9.02225E-01-1.40890E-02
 -1       688-8.70133E-01 7.84024E+00 5.49281E-03
 -1       689-8.19206E+00 1.64595E+01 3.54896E-03
 -1       690 3.25018E-02 9.92512E-02 1.08260E-02
 -1       691-4.26191E+00 2.02694E+01 8.25436E-03
 -1       692 7.63566E-02 1.19073E+00-4.14312E-03
 -1       693 1.91712E-01 9.91546E-01-1.49946E-03
 -1       694 3.73604E-02 7.59054E-01 1.38687E-03
 -1       695 2.63954E-02 4.21513E-01 3.48101E-03
 -1       696-6.38584E+00 1.67971E+01-5.57650E-03
 -1       697-5.93332E+00 2.20043E+01 2.69389E-03
 -1       698 1.21666E-03 3.76823E-01-1.25903E-03
 -1       699 2.14085E-01 8.22567E-01-9.66770E-04
 -1       700 3.01518E-01 1.16928E+00-1.23590E-02
 -1       701 9.67318E-01 3.54372E+00 7.18503E-03
 -1       702-1.65041E+00 1.01698E+01 5.34601E-03
 -1       703 2.05759E-01 2.31622E-01 1.21845E-02
 -1       704 1.41147E-01 3.62530E-01 4.33211E-03
 -1       705-3.35947E+00 1.29974E+01-2.37823E-04
 -1       706-4.84111E+00 1.57347E+01 4.63151E-03
 -1       707-5.30130E+00 1.83819E+01-1.27402E-03
 -1       708-6.49813E+00 1.72499E+01 3.25710E-04
 -1       709-5.92674E+00 1.42491E+01 5.68496E-03
 -1       710 9.50910E-01 2.75712E+00 4.95391E-03
 -1       711 1.75361E-01 4.89374E-01 9.72799E-04
 -1       712-3.72296E+00 1.11960E+01 7.12428E-03
 -1       713 1.69656E-03 3.61101E-01 5.70318E-03
 -1       714-4.30690E-01 6.77536E-01-4.22378E-03
 -1       715-2.89774E-01 3.62671E-01 6.39329E-03
 -1       716-1.72929E-01 2.74629E-01-3.67351E-03
 -1       717-6.27064E+00 1.17851E+01-4.19021E-03
 -1       718 6.11303E-01 1.74196E+00-1.62304E-03
 -3
    1PSTEP                         2           1           1          
  100CL  101 1.000000000         339                     0    1           1
 -4  STRESS      6    1
 -5  SXX         1    4    1    1
 -5  SYY         1    4    2    2
 -5  SZZ         1    4    3    3
 -5  SXY         1    4    1    2
 -5  SYZ         1    4    2    3
 -5  SZX         1    4    3    1
 -1       380 4.52592E+00 8.07995E+00 5.66576E+00 8.72651E+00 3.71857E-01-9.23091E-01
 -1       381 4.23387E-01 7.29634E+00 4.10619E+00 9.07627E+00-7.05849E-01 3.18436E-01
 -1       382-3.54834E-01-6.35272E-01-5.84795E-01 5.13620E+00 1.33364E-01-7.33819E-02
 -1       383 3.04541E+00 3.01413E+00 3.02135E+00 5.37114E+00 1.33367E-02 7.54241E-03
 -1       384-3.25652E+00 2.70080E+00-2.94005E-01 2.32179E-01-2.28169E-01-1.45652E-01
 -1       385-1.78279E+00 5.92845E+00 1.34792E+00 1.19354E+00 1.93306E-01-3.22289E-02
 -1       386-2.73500E+01-2.04804E+01-2.48036E+01 3.38376E-02-1.62671E+00-1.07061E+00
 -1       387 1.55466E+01 2.09927E+01 1.83204E+01 1.11878E+00-3.42800E-01-4.13898E-01
 -1       388 1.34150E+01 1.29679E+01 1.31274E+01 1.13974E+01 7.03617E-02 1.94608E-01
 -1       389 1.20664E+01 9.36686E+00 1.01337E+01 1.24364E+01-1.73643E-01 2.09084E-01
 -1       390 1.18777E+01 7.87897E+00 1.01152E+01 1.06146E+01 3.35987E-01-1.90153E-01
 -1       391 7.52747E+00 3.84787E+00 5.65742E+00 7.68151E+00-1.07429E-01-1.94298E-01
 -1       392 8.26452E+00 6.42062E+00 6.96650E+00 4.67109E+00-7.07102E-02 1.06863E-01
 -1       393 1.31963E+01 1.10949E+01 1.22653E+01 1.15683E+01 3.43017E-01-2.10405E-02
 -1       394 1.19560E+01 8.24183E+00 1.06557E+01 1.23739E+01 5.39441E-01-3.57526E-02
 -1       395 1.25176E+01 9.64979E+00 1.07713E+01 1.06400E+01-5.70683E-01-2.38531E-02
 -1       396 8.05468E+00 4.64891E+00 6.08526E+00 7.22903E+00-7.43382E-02-1.49768E-02
 -1       397 2.00098E+00 6.30734E-01 1.46151E+00 4.73454E+00 2.25137E-01-2.28233E-02
 -1       398 1.54642E+00 1.17580E+01 6.17713E+00 8.08281E+00-4.35451E-01-3.03318E-01
 -1       399 2.83491E+00 1.20708E+01 8.17904E+00 7.19247E+00 2.20874E-01 3.12682E-01
 -1       400-1.61315E+01 5.08857E+00-5.68576E+00-7.86284E+00-2.30051E-01 2.22093E-01
 -1       401-1.81530E+01-2.53315E+00-1.04126E+01-6.49968E+00 1.68262E-01 2.74987E-01
 -1       402-1.34780E+01-2.28422E+00-8.57470E+00-3.98235E+00-6.52084E-01 7.02324E-02
 -1       403-2.14612E+01 2.11588E+00-8.47224E+00-6.62887E+00-4.76854E-01 2.35306E+00
 -1       404-1.93972E+01-3.40632E+00-1.18328E+01-5.82728E+00 1.05966E-01 2.69252E-01
 -1       405-1.44745E+01-3.65081E+00-8.67779E+00-3.75710E+00 2.64406E-02-3.56321E-02
 -1       406 6.95793E+00 7.10781E+00 7.26550E+00 4.74875E+00-4.33999E-02 1.76108E-01
 -1       407 1.43556E+01 1.43229E+01 1.48975E+01 1.58478E+00-4.43171E-01 5.00820E-01
 -1       408-1.32564E+00-2.03756E+00-2.88566E+00-1.94111E+00-2.14035E+00-8.89217E-01
 -1       409 7.44352E+00 7.21905E+00 7.10060E+00 4.73257E+00-2.87383E-01 1.78153E-01
 -1       410 8.49169E+00 7.68801E+00 7.78680E+00 1.49066E+00-4.71290E-01 2.41615E-01
 -1       411 6.87731E+00 7.15447E+00 7.06826E+00-1.28647E+00 6.21467E-01-5.23554E-02
 -1       412-4.54533E-01 6.02282E+00 2.93823E+00 4.33405E+00-1.84830E-01-7.04954E-02
 -1       413-2.85202E-01-4.00239E-02-3.10763E-01 3.62962E+00 7.52250E-01 1.89673E-01
 -1       414 2.76882E+00-3.19488E+00 1.59218E-01 2.75799E+00 7.28679E-01 7.66873E-01
 -1       415-9.48072E+00-6.55707E+00-7.71392E+00 2.38899E+00 2.83340E-01-5.09056E-01
 -1       416 6.80445E+00 1.59826E-01 2.85627E+00 4.15389E+00-5.27165E-01-8.90294E-02
 -1       417 2.39598E+00 5.11134E+00 4.16219E+00 4.37165E+00-4.70693E-01-3.29325E-02
 -1       418 5.26427E+00-3.10936E-01 2.82801E+00 5.94405E+00-3.27202E-01-2.12371E-01
 -1       419 6.21799E+00-1.71717E+00 2.84033E+00 4.73871E+00 2.39962E-01-3.92179E-01
 -1       420-1.78440E+00 2.70820E+00 5.55275E-01 1.77625E+00 2.17462E-01-2.41312E-01
 -1       421-1.13475E-01 6.01814E+00 2.79971E+00 3.57702E+00 6.94706E-02-3.63186E-03
 -1       422-1.38760E+01-1.02989E+01-1.23639E+01 2.59217E+00-2.98327E-01 2.51475E-01
 -1       423 7.10487E+00 1.94185E+00 5.04203E+00 4.80006E+00 6.70974E-01 1.53143E-01
 -1       424 7.04265E+00 4.55894E+00 5.49315E+00 5.89111E+00-5.01012E-01-2.06098E-01
 -1       425 9.68727E+00 4.85218E+00 7.20977E+00 1.51512E+00 3.31151E-01-3.23989E-01
 -1       426-1.12043E+01-1.12053E+00-6.13484E+00-2.33206E+00 3.53959E-01-4.20134E-01
 -1       427 2.86077E+00 7.37534E+00 5.32300E+00 7.13787E+00-1.84489E-01 3.64504E-01
 -1       428 1.10774E+01 7.48834E+00 9.21387E+00 4.35830E+00 4.28709E-02 1.36662E-01
 -1       429-5.53292E+00 2.63210E+00-1.23661E+00 2.80937E+00-1.21128E-02-1.55763E-01
 -1       430 7.86507E+00 7.76670E+00 7.78638E+00 6.72978E+00-3.69748E-02-3.87832E-01
 -1       431 1.31771E+01 7.01180E+00 1.00284E+01 8.01365E+00 3.94068E-02 3.71989E-01
 -1       432 5.42035E+00 6.24767E+00 5.82857E+00 7.73924E+00-2.16340E-01-2.64569E-01
 -1       433 3.65350E+00-4.59906E-01 1.14022E+00 3.02257E+00 1.45134E-01 1.91663E-01
 -1       434 8.46142E+00 7.96173E+00 8.30527E+00 4.63018E+00 2.07998E-01-2.08617E-01
 -1       435-1.99146E+01-7.08110E+00-1.36871E+01-6.85069E-01-7.11932E-01 3.18650E-01
 -1       436-8.08360E+00 1.81383E+00-3.31542E+00-8.06010E-01 2.71483E-01-1.74985E-02
 -1       437-5.82983E+00-2.90498E+00-3.93120E+00 2.09140E+00 9.35809E-01 2.03417E-01
 -1       438 1.21494E+01 8.70300E+00 1.04469E+01 7.99914E+00-5.20990E-02 4.95435E-01
 -1       439 1.15656E+01 5.98560E+00 8.53124E+00 5.47386E+00 7.15537E-01-1.05526E-01
 -1       440-1.69069E+00 6.19220E+00 2.44580E+00 6.99038E+00 5.17411E-01 4.45676E-01
 -1       441 8.70810E+00 4.00519E+00 6.94213E+00 5.60998E+00 3.74740E-01 2.36395E-01
 -1       442 1.36013E+01 1.88410E+01 1.62179E+01 8.82411E+00 1.63020E-01-5.20509E-01
 -1       443 1.22331E+00 1.08533E+00 1.15409E+00 5.31027E+00-1.38024E-02-1.25203E-02
 -1       444 2.87226E+00 4.00777E+00 2.98340E+00 9.94477E+00 2.30230E-01 2.84857E-02
 -1       445 1.51176E+01 1.35055E+01 1.39655E+01 1.22949E+01 2.07324E-02 2.59562E-01
 -1       446 1.79114E+01 1.45548E+01 1.63387E+01 1.15547E+01-7.04892E-02-2.27092E-01
 -1       447 1.54994E+01 1.14790E+01 1.35258E+01 9.36784E+00-2.20090E-02 1.84309E-01
 -1       448 4.36436E+00 1.22429E+00 2.94693E+00 6.13028E+00-6.41182E-02-2.93003E-01
 -1       449-5.95228E+00-6.85353E+00-6.78966E+00 4.75497E+00 8.15396E-02 1.26440E-02
 -1       450 1.45779E+01 1.62439E+01 1.58765E+01 9.99873E+00-6.11004E-01 2.84861E-01
 -1       451 1.59889E+01 1.30481E+01 1.48798E+01 1.21922E+01 4.16183E-01 3.74323E-01
 -1       452 1.87012E+01 1.59201E+01 1.69281E+01 1.18435E+01 3.72152E-01-4.97681E-01
 -1       453 1.06278E+01 7.18734E+00 8.57974E+00 9.23504E+00-6.33060E-01 1.36955E-01
 -1       454 7.93572E+00 5.60140E+00 6.13794E+00 5.79326E+00-2.04574E-02-9.95532E-02
 -1       455 1.45312E+01 1.35597E+01 1.43030E+01 5.02105E+00 5.88098E-02 1.92982E-01
 -1       456-1.40737E+00 4.96382E+00 1.77786E+00 8.10182E-01 5.11825E-01 1.25827E-01
 -1       457 1.08978E+00 7.41293E+00 4.89230E+00 4.47097E+00 1.24772E-01 3.12492E-01
 -1       458-3.28040E+00 5.91745E+00-1.55906E-01 8.19209E+00-5.59986E-01-5.97318E-01
 -1       459 3.70296E+00 1.17567E+01 7.21381E+00 4.13241E+00-1.86801E-02-9.78075E-02
 -1       460 3.12579E+00 1.24422E+01 8.36587E+00 8.60310E+00-3.03697E-01-6.32532E-02
 -1       461-7.29284E+01-6.67858E+01-6.98432E+01 4.30822E-01 1.78830E-02-1.18534E-01
 -1       462-2.85035E+01-1.05950E+01-2.05246E+01-3.89453E+00-1.39245E+00-2.61351E-01
 -1       463-1.70247E+01-5.14349E-02-8.73445E+00-6.98041E+00-3.37324E-01-1.21352E-01
 -1       464-2.09655E+01-7.59219E+00-1.45018E+01-5.67376E+00 1.99815E-01 3.79684E-03
 -1       465-1.35450E+01-4.50395E+00-9.48773E+00-2.22647E+00-6.90715E-01-1.77898E-01
 -1       466-7.43113E+01-5.75061E+01-6.49971E+01-3.04360E+00-1.84515E-01 8.24406E-01
 -1       467-3.19098E+01-1.41685E+01-2.32689E+01-6.15615E+00 3.83393E-01 1.33859E+00
 -1       468-2.69467E+01-1.21653E+01-1.94534E+01-5.60185E+00 3.02701E-01-9.82875E-02
 -1       469-1.79618E+01-8.22046E+00-1.33977E+01-1.19381E+00 4.04439E-01 3.24304E-01
 -1       470 1.59998E+01 1.60117E+01 1.60300E+01 4.90104E+00 4.90337E-02 2.08668E-02
 -1       471 1.47271E+01 1.49004E+01 1.50797E+01 3.30572E+00-9.82279E-02 2.04180E-01
 -1       472 9.93364E+00 9.74628E+00 9.56278E+00-3.55232E-01-1.23564E+00-2.31407E-01
 -1       473 1.01133E+01 9.57179E+00 9.03414E+00-1.13246E+00-2.21636E+00-6.01954E-01
 -1       474-2.10338E+00-2.24069E+00-2.37891E+00 5.07824E+00-8.67088E-02 1.41545E-01
 -1       475-5.80677E+00-5.99461E+00-6.18489E+00 3.24963E+00-5.18954E-01 2.19667E-01
 -1       476-1.62554E+01-1.65445E+01-1.68403E+01-9.57677E-02 2.45451E-01 3.67986E-01
 -1       477-4.14453E+01-4.07790E+01-4.01290E+01-7.76636E-02 6.61081E-01-8.02223E-01
 -1       478 1.03793E+01 9.97274E+00 1.01832E+01 1.00273E+01 4.18286E-01-3.06442E-01
 -1       479 1.19305E+01 9.58672E+00 1.08743E+01 1.21585E+01 7.62818E-02 6.86889E-02
 -1       480 2.56454E+01 2.25061E+01 2.40709E+01 1.25373E+01 3.45095E-01 1.15819E-01
 -1       481 1.92539E+01 1.64752E+01 1.76366E+01 1.16936E+01-1.10942E-01 2.53712E-01
 -1       482 1.43524E+01 1.11247E+01 1.27865E+01 9.29599E+00-2.18432E-01-2.90641E-02
 -1       483 2.48397E+01 2.21151E+01 2.34727E+01 1.07418E+01-1.94084E-02-1.00983E-01
 -1       484 3.83320E+00 1.92055E+00 2.92100E+00 6.00246E+00 2.34331E-02-1.42223E-01
 -1       485 7.69047E+00 4.44221E+00 6.06512E+00 7.62396E+00-1.42167E-02-9.96686E-02
 -1       486 4.22234E-01-1.02051E+00-2.58580E-01 4.84007E+00 9.53174E-02 3.58403E-02
 -1       487 8.17929E+00 6.59423E+00 7.38528E+00 4.77761E+00 1.02745E-01 9.79716E-02
 -1       488 8.67405E+00 7.70682E+00 8.18879E+00 1.16294E+01 1.92157E-01-1.21204E-01
 -1       489 1.27284E+01 2.33205E+01 1.80209E+01 7.37159E+00-1.45360E-01 6.65339E-02
 -1       490 3.61793E+00 1.13865E+01 7.14552E+00 5.01269E+00-1.12755E-01-2.73080E-01
 -1       491 1.21078E+00 9.15368E+00 5.48998E+00 7.89508E+00 5.69104E-01-2.35764E-01
 -1       492-5.19593E+01-3.31774E+01-4.24927E+01-3.31334E+00-8.27717E-01 1.16096E+00
 -1       493-2.08419E+01-4.86526E+00-1.28552E+01-6.63987E+00 5.30891E-01-2.08610E-01
 -1       494-1.22774E+01 3.87752E+00-4.19911E+00-5.94180E+00-1.48397E-01 7.34299E-01
 -1       495-2.06264E+01-6.44908E+00-1.33265E+01-5.62290E+00 4.84903E-01 2.35724E-01
 -1       496-9.67207E+00-1.46056E+00-5.28996E+00-1.80250E+00-4.65438E-02 3.52567E-01
 -1       497-1.49152E+01-3.86093E+00-9.38617E+00-4.13183E+00-4.21623E-01-4.32985E-05
 -1       498-1.51613E+01 7.30032E+00-3.92971E+00-7.56703E+00-4.93611E-01 6.86375E-01
 -1       499 2.22435E+01 2.22346E+01 2.22346E+01 5.03574E+00-5.59082E-07 4.93151E-02
 -1       500 8.43900E+00 8.43564E+00 8.43564E+00 3.46019E+00-8.10722E-07 1.33353E-01
 -1       501 4.96918E+00 4.45091E+00 4.70910E+00 1.54587E+00 9.29791E-03 1.45026E-01
 -1       502-9.43857E-01-9.43464E-01-9.43474E-01-2.93821E-01-1.59554E-06 1.74254E-01
 -1       503-2.33849E+01-2.33755E+01-2.33755E+01-1.56788E+00-4.48532E-06-2.60425E-01
 -1       504 1.46036E+01 1.46047E+01 1.46013E+01-2.35513E+00-2.45235E-02-2.08929E-01
 -1       505-4.30664E+00-4.32604E+00-4.31548E+00 4.81486E+00-2.01668E-02 1.06479E-01
 -1       506 9.47338E+00 1.29115E+01 1.11267E+01 7.48796E+00 2.92786E-01 3.43395E-01
 -1       507-4.06836E+00 1.36139E+00-1.42342E+00 6.47463E+00 2.26032E-01-5.36449E-01
 -1       508 8.57803E+00 5.79403E+00 7.01234E+00 7.14671E+00 6.97551E-01-3.71903E-01
 -1       509-6.35558E-01-2.50286E+00-2.03628E+00 7.88191E+00-2.72080E-01-5.58159E-02
 -1       510 3.91794E+00 3.15056E+00 3.35438E+00 4.68569E+00-1.78777E-01 2.30489E-01
 -1       511 3.70072E+01 3.38051E+01 3.48179E+01 7.25647E-01-1.42922E+00-3.68249E-01
 -1       512 3.22905E+01 2.92633E+01 3.17722E+01 2.14334E+00-1.33443E-01 8.56081E-01
 -1       513-4.34634E+01-3.71777E+01-4.11023E+01 1.65888E+00-2.00287E+00-2.24539E+00
 -1       514 3.07740E+01 3.24492E+01 3.09870E+01 3.61266E-01-1.76045E+00-1.02284E+00
 -1       515-6.90523E+00-8.71760E+00-7.16871E+00 2.11943E+00 4.85430E-01 4.68982E-01
 -1       516-2.02608E+01-6.04975E+00-1.31781E+01-1.75181E+00-4.57900E-01 1.44003E-02
 -1       517-8.80490E+00 9.00864E-02-4.36204E+00-1.15745E+00 3.91751E-01 1.29297E-01
 -1       518-2.47024E+01-1.39851E+01-1.94999E+01-1.67588E+00 3.16093E-02 1.35606E-01
 -1       519-2.77669E+00 5.63935E+00 1.33080E+00 6.06385E-01-6.23551E-01 1.03286E-01
 -1       520-9.02335E+00 1.47745E+00-3.62682E+00-1.27405E+00-1.24980E-01-4.25245E-01
 -1       521-6.69761E+00 2.58849E+00-2.19186E+00 2.03332E+00-1.37833E-01 6.19586E-01
 -1       522-1.20637E+01-3.63502E+00-8.09014E+00 6.11217E+00 8.93315E-02-4.81880E-01
 -1       523 3.78019E+00 6.01779E-01 2.22070E+00 4.50947E+00-4.00136E-01 1.27361E-01
 -1       524 9.30651E+00 5.53541E+00 6.80541E+00 4.63827E+00-2.69900E-01 1.10450E-01
 -1       525 1.58539E+01 1.09017E+01 1.30575E+01 5.94076E+00-3.95580E-01-5.67315E-02
 -1       526 2.65349E+01 2.26323E+01 2.49704E+01 2.91378E+00-7.48739E-01 2.95724E-01
 -1       527-5.15834E+00-4.94998E+00-5.15820E+00 8.44942E+00-3.62902E-01 6.57142E-02
 -1       528 1.00273E+00 1.71291E+00 1.71253E+00 7.88601E+00 1.14713E-02 9.22634E-02
 -1       529 1.50641E+01 1.02616E+01 1.27194E+01 7.02034E+00-4.86234E-01-7.95995E-02
 -1       530 9.31150E-01-4.10848E+00-1.11354E+00 7.83261E+00 2.96731E-01-1.54105E-01
 -1       531-1.11696E+00 3.73445E+00 1.55770E+00 4.16131E+00-3.49157E-01-1.04975E-01
 -1       532 3.08872E+01 2.83011E+01 3.01442E+01 4.47904E+00 4.99435E-01 3.01856E-01
 -1       533 2.40357E-01 2.38676E+00 1.32426E+00 4.03787E+00-2.11033E-01 3.50659E-01
 -1       534-1.35613E+01-4.66491E+00-9.09310E+00-9.45787E-01-3.81455E-01-2.92465E-02
 -1       535-1.46283E+00-8.63138E+00-5.45733E+00 3.37931E+00 1.15354E-01 3.34756E-01
 -1       536-4.31893E+00-2.97057E+00-3.60233E+00 3.22977E+00 6.25940E-01-1.89576E-01
 -1       537 1.15694E+01 4.80516E+00 7.81767E+00 5.25515E+00-5.99292E-01-1.64757E-01
 -1       538 4.64299E+00-2.32813E+00 7.86647E-01 4.72337E+00-1.39001E-01 4.29366E-01
 -1       539-2.09387E+00-5.09694E+00-3.40280E+00 3.70079E+00 1.16793E-01 1.70359E-01
 -1       540 1.65579E+01 1.55705E+01 1.62139E+01 4.73468E+00 5.28920E-02 1.87821E-01
 -1       541 1.30345E+00-4.57303E+00-1.57492E+00 7.45163E+00-5.50195E-01-3.65801E-01
 -1       542 1.36549E+01 7.45889E+00 1.06543E+01 5.79315E+00-3.25043E-01-3.95793E-01
 -1       543 2.11467E+00 3.86423E+00 2.76114E+00 6.68163E+00 3.68121E-01 2.14099E-01
 -1       544 8.18072E+00 8.41558E+00 8.60505E+00 7.07801E+00 2.09689E-01 3.19884E-01
 -1       545-1.28705E+01-6.41544E+00-9.60706E+00 6.42233E+00-8.29791E-01-2.52798E-02
 -1       546 9.64328E+00 1.22164E+01 1.02861E+01 7.32799E+00 1.57963E-01-2.29563E-01
 -1       547-8.79064E+00-3.34043E+00-6.20185E+00 2.53118E+00 3.24412E-01-1.52135E-01
 -1       548-1.49758E+01-7.77310E+00-1.12000E+01 5.59778E+00-5.96197E-01 1.57430E-02
 -1       549-1.85371E+00 7.20002E+00 2.07639E+00 2.06122E+00-2.79854E-01-3.02312E-01
 -1       550-7.22309E+00 4.33636E+00-1.69170E+00-1.23263E+00-1.82998E-01 1.11127E-01
 -1       551-1.49890E+00 8.02010E+00 3.16838E+00-1.97025E+00-2.53826E-01-4.05716E-01
 -1       552-2.16600E+01-9.14879E+00-1.49034E+01-2.67868E+00-3.16277E-01 1.29180E+00
 -1       553-2.72269E+00 3.15910E+00-3.10206E-01 1.75883E+00 2.23629E-01-5.45977E-02
 -1       554 4.01865E+01 5.46734E+01 4.87468E+01-1.62716E+00-2.09044E-01 1.52503E+00
 -1       555 2.90619E+01 3.08791E+01 2.93069E+01 6.44643E-01 1.32556E+00-3.96858E-01
 -1       556 1.49906E+01 1.00954E+01 1.28158E+01 3.08655E+00-1.50982E-01-3.46362E-02
 -1       557 1.49434E+01 1.13637E+01 1.30038E+01 1.81617E+00 1.03834E+00-2.59138E-03
 -1       558 1.04550E+01 6.35434E+00 8.27182E+00 5.81581E+00 3.46245E-01-1.51141E-01
 -1       559 1.05696E+01 7.81704E+00 9.22557E+00 5.10918E+00 5.21937E-01-5.29113E-01
 -1       560-1.07658E+00-4.25484E+00-2.47891E+00 8.85700E+00 4.08027E-01-2.24844E-01
 -1       561-1.45002E+00-4.44366E+00-3.01898E+00 7.97259E+00-6.73721E-01-3.63399E-01
 -1       562 1.03905E+01 1.16588E+01 1.08059E+01 4.00848E+00 1.33719E-01-6.47999E-03
 -1       563 7.40151E+00 1.55294E+01 1.17107E+01 6.90599E-02-6.07303E-02-3.01997E-01
 -1       564 2.80784E+01 2.48888E+01 2.65798E+01 3.30113E+00 1.92849E-01-1.92383E-01
 -1       565 4.37333E+00 1.27775E+00 3.03611E+00 4.90515E+00 7.30800E-03-4.70050E-02
 -1       566 8.85868E+00 4.82165E+00 6.90433E+00 3.14183E+00-3.29470E-01 1.75970E-01
 -1       567 5.95119E+00 1.14650E+00 3.26316E+00 5.02731E+00-4.77390E-01-3.55537E-01
 -1       568-1.91430E+01-1.48582E+01-1.63963E+01 2.25311E+00-3.86748E-01 2.32192E-02
 -1       569 1.97608E+01 1.27695E+01 1.72103E+01 4.75936E+00 5.45066E-01 3.30079E-02
 -1       570-8.09190E+00-8.23997E+00-8.49233E+00 4.16207E+00-8.37912E-01 3.38573E-01
 -1       571-1.14670E+01-1.23726E+00-6.81048E+00-2.37480E+00-9.41016E-02-5.60570E-02
 -1       572-5.76186E+00 3.90205E+00-1.03273E+00-5.22384E-01-1.91701E-01-8.17278E-02
 -1       573-1.50080E+01-6.13521E+00-1.06489E+01 1.01683E+00 2.55301E-01-1.97322E-01
 -1       574-1.22201E+01-1.82456E+00-6.79134E+00-2.50742E+00 1.40430E-01-2.57754E-01
 -1       575-8.44507E+00 8.59019E-01-3.54609E+00-3.06519E-01-1.73933E-01-3.38492E-02
 -1       576-9.34790E+00-3.15235E+00-6.20002E+00 9.99240E-01-1.22509E-02-1.11285E-01
 -1       577-2.25971E+00 4.78707E+00 1.30221E+00-4.85218E-01 6.61058E-02-5.45578E-01
 -1       578 7.51847E+00 1.13311E+01 9.61353E+00 3.18727E+00-5.21751E-02 2.92019E-03
 -1       579-5.12017E+00 6.69910E-01-2.40593E+00 8.18154E-01 7.14442E-01 1.41966E-01
 -1       580 3.13345E-01 3.13482E+00 1.68498E+00 2.60716E+00 5.46620E-01 8.08714E-02
 -1       581-2.14805E+01-2.35821E+01-2.22622E+01 1.94696E-01 2.31579E-01 9.03536E-02
 -1       582-7.47836E+01-7.77647E+01-7.66091E+01 7.85058E-02-3.26423E-01-6.49946E-01
 -1       583 1.79988E+01 1.51687E+01 1.69051E+01 1.78421E+00 1.75383E-01 8.70455E-02
 -1       584-1.03630E+02-9.98954E+01-1.01976E+02 2.13414E+00 4.49084E-01-1.44738E-01
 -1       585 3.62274E+01 3.79227E+01 3.73292E+01 3.31402E-01 9.59284E-01-1.41279E-01
 -1       586 2.37840E+00 1.15180E+00 1.31249E+00 1.37473E+00-6.17525E-02-3.04247E-01
 -1       587 6.85336E+01 6.77668E+01 6.86518E+01 1.58754E+00 6.54709E-01-2.14318E-02
 -1       588 1.81435E+01 2.56586E+01 2.20143E+01 1.20464E+00 2.96496E-01-2.00634E-01
 -1       589 3.26183E+01 3.52884E+01 3.40541E+01 2.45065E+00-7.71321E-02 5.19569E-02
 -1       590-9.68264E+00-1.70270E+00-5.65656E+00 7.39770E-01-6.10536E-01 3.46827E-02
 -1       591-8.38907E+00-6.38002E+00-7.51081E+00 2.90374E+00-9.36676E-02 1.45167E-01
 -1       592-1.24290E+01 1.65105E-01-6.17557E+00-3.71579E+00 3.43474E-01 1.63748E-01
 -1       593 5.59305E+00 2.61618E+00 4.38929E+00 3.03750E+00 2.94872E-01-2.78758E-01
 -1       594-5.79780E+00-6.45202E+00-6.38784E+00 4.00131E+00-1.98371E-01 7.52717E-02
 -1       595 6.15208E+00 7.01544E+00 6.64571E+00 9.29187E+00 1.17883E-01 2.55911E-01
 -1       596 5.70139E+00 8.60903E+00 7.48765E+00 7.28009E+00-2.66655E-01 4.89372E-02
 -1       597 9.86681E+00 9.67983E+00 9.70070E+00 9.66751E+00 5.19523E-02-2.67933E-01
 -1       598 1.53258E+01 1.73047E+01 1.66658E+01 9.01704E+00-2.96640E-01 6.98751E-02
 -1       599 1.10746E+01 1.12529E+01 1.11082E+01 9.61778E+00-4.70735E-02-2.83824E-02
 -1       600-2.82405E+01-1.62766E+01-2.27876E+01-1.30388E+00-4.16115E-01-1.56736E-01
 -1       601-1.16417E+01 7.42446E+00-1.25125E+00-3.51881E+00-3.19590E-01 1.52841E+00
 -1       602-1.97887E+01-3.41449E+00-1.13438E+01-4.55308E+00-4.25921E-01 5.88900E-01
 -1       603-4.10291E+01-3.24263E+01-3.65264E+01 8.47710E-01-8.26662E-02 1.00667E+00
 -1       604 1.90099E+01 2.24983E+01 2.08960E+01 1.58001E+00 6.98249E-01-1.98857E-01
 -1       605-1.04931E+01 2.85019E+00-3.95715E+00-3.24297E+00-3.17343E-01 2.77952E-01
 -1       606 3.76853E+00 9.51465E+00 6.41990E+00 5.43537E+00-1.26648E-02 3.33543E-01
 -1       607 1.60911E+00 7.06247E+00 4.24113E+00 8.13660E+00-1.89231E-01 6.38001E-01
 -1       608 7.91309E+00 5.59680E+00 7.13306E+00 3.02049E+00-7.38426E-02 1.88749E-01
 -1       609-1.94495E+01-2.16320E+01-2.03735E+01 2.47267E+00-1.52480E-02 4.21329E-01
 -1       610 4.85809E+00 4.73584E-01 2.41530E+00 3.69895E+00 1.59276E-01 1.22531E-01
 -1       611 3.29232E+00 6.57703E-01 1.71809E+00 2.94926E+00-9.89352E-02 1.52952E-01
 -1       612 2.33929E+01 2.05115E+01 2.15422E+01 2.28519E+00-4.06489E-01 6.48103E-02
 -1       613-7.01050E-01 7.41031E+00 3.34747E+00 1.93508E+00-1.51523E-01-4.97924E-02
 -1       614-1.42287E+00 5.09018E+00 1.84250E+00 1.70350E+00-6.06554E-02-4.51824E-02
 -1       615 6.94927E+00 3.32051E+00 5.15399E+00 5.67877E+00-2.59584E-01-2.50469E-01
 -1       616 3.15140E+00-3.76851E+00-1.45521E-01 5.44810E+00-1.34590E-01-2.05462E-01
 -1       617 1.77718E+01 1.70924E+01 1.70759E+01 1.02603E+01-2.96549E-02 5.72011E-02
 -1       618 1.44498E+01 1.30496E+01 1.40686E+01 1.01866E+01-8.15439E-02-1.34474E-01
 -1       619 2.72416E+00 1.36117E+00 1.56960E+00 9.52455E+00-1.79895E-01-1.76750E-01
 -1       620 9.25629E-01 1.36855E+00 1.02292E+00 7.38773E+00-1.62526E-01-2.61699E-01
 -1       621 9.28378E+00 7.20400E+00 8.58116E+00 9.39322E+00 2.18493E-01-1.59954E-01
 -1       622 7.61932E-01 7.68220E+00 4.20145E+00 3.29060E+00-1.15476E-01-9.15284E-03
 -1       623-3.34846E+00 4.65485E+00 8.66449E-01 4.85669E+00-2.81729E-02 1.43377E-01
 -1       624 5.53509E-01-7.64719E-01-1.79800E-01 4.74902E+00 2.34102E-01 1.18812E-01
 -1       625-9.81883E+00-1.58987E+01-1.28395E+01 2.99949E+00-1.56365E-01-5.30804E-01
 -1       626 3.50227E+01 3.39107E+01 3.45684E+01 1.17799E+00 7.50322E-01-3.13041E-01
 -1       627 8.39798E+00 4.96180E+00 6.66875E+00 1.01839E+01-1.81874E-01 4.44896E-01
 -1       628 1.83109E+01 1.59388E+01 1.70529E+01 5.95117E+00 3.30965E-01 3.27474E-01
 -1       629 2.25979E+01 2.02726E+01 2.15685E+01 7.30998E+00-1.11729E-01 6.37327E-02
 -1       630-1.09608E+01-1.10634E+01-1.09124E+01 5.09744E+00 1.52402E-01-6.75455E-02
 -1       631 2.47325E+00 4.90772E+00 3.59074E+00 4.33419E+00 1.50607E-01-1.55798E-01
 -1       632 1.00242E+01 8.74500E+00 9.46188E+00 6.17506E+00 3.65206E-02-1.67403E-01
 -1       633-1.23722E+01 3.44635E-02-6.06805E+00-4.26916E+00 2.76400E-01-3.16401E-02
 -1       634-2.72310E+00 5.25235E+00 1.01975E+00 1.91554E+00 1.08854E-02-8.15454E-02
 -1       635-1.60177E+00 7.04404E+00 2.78548E+00 5.45928E+00-1.18799E-01-1.61733E-01
 -1       636-1.77532E+00 5.32831E+00 2.00886E+00 1.48458E+00-9.58088E-02-1.83386E-01
 -1       637 4.90532E+00 8.70300E+00 6.63212E+00 5.51511E+00 5.88439E-02-1.54380E-01
 -1       638-1.17026E-02-6.70403E+00-3.17379E+00 3.96102E+00 4.29073E-01 2.19035E-02
 -1       639-1.05080E+00-8.73083E+00-4.89064E+00 4.66876E+00 1.88903E-01-1.37428E-01
 -1       640 1.61925E+01 1.59805E+01 1.62241E+01 4.69180E+00 9.37428E-02-1.15092E-02
 -1       641 5.20029E+00 4.10911E+00 4.35699E+00 4.64406E+00 1.69211E-02-2.64244E-02
 -1       642-7.34087E-01-1.09611E+00-9.14967E-01 4.87269E+00 1.70447E-01-1.40477E-01
 -1       643 6.62138E+00 3.92675E+00 5.42894E+00 5.08353E+00 2.41170E-01 5.62570E-02
 -1       644 5.47200E+00 1.00173E+00 3.75457E+00 5.29260E+00 5.15159E-01 3.07033E-01
 -1       645 3.97692E+00-3.57513E-01 1.89470E+00 6.48677E+00 2.20876E-01 1.37664E-01
 -1       646 6.74605E-01-1.04673E+00 1.79141E-02 4.54043E+00 5.85168E-03 1.07979E-01
 -1       647-3.38124E+00-6.91956E+00-4.94126E+00 1.01644E+01 2.60954E-01-5.52721E-02
 -1       648 1.07133E+01 7.63397E+00 9.21470E+00 6.69884E+00-1.88270E-01-6.07445E-02
 -1       649-6.98248E+00-4.20220E+00-5.91762E+00 4.82755E+00-5.49108E-02-1.68231E-01
 -1       650 2.12504E+00 1.23529E+01 6.77197E+00 7.35745E+00-2.73402E-01-1.14202E-01
 -1       651 2.52409E+00 1.16896E+01 7.82157E+00 7.22226E+00 5.62035E-01 3.90471E-01
 -1       652 5.71918E-01 6.63957E+00 3.42535E+00 7.90702E+00 3.86990E-01-2.75535E-01
 -1       653-4.59833E+00-5.92675E+00-4.96882E+00 4.72644E+00 1.78567E-01 3.45749E-02
 -1       654-6.37016E+00 1.20593E+01 1.67635E+00-4.08958E+00-8.69789E-01-2.17897E-01
 -1       655-5.33756E+00 6.88841E+00 2.36623E-01-5.27697E-02-1.21327E+00-7.88651E-01
 -1       656-1.46064E+01 6.07671E-01-6.95739E+00-4.99004E+00 8.44874E-02-7.06360E-02
 -1       657 1.59125E+00-3.16247E+00-7.68190E-01 6.59548E+00 1.35279E-01-1.49016E-01
 -1       658 1.64092E+01 1.06851E+01 1.35739E+01 6.13444E+00-2.35191E-01-2.23909E-01
 -1       659 8.12279E+00 2.57006E+00 5.04818E+00 4.71832E+00 7.04395E-02-1.36358E-01
 -1       660 1.53941E+01 1.65093E+01 1.57274E+01 7.48849E-02-4.27456E-01-1.86093E-01
 -1       661 1.72191E+01 2.04126E+01 1.86152E+01 1.04115E+00-3.38820E-02-3.69378E-01
 -1       662 8.03977E+00 3.43176E+00 6.03356E+00 6.68678E+00 9.22139E-02-1.54056E-01
 -1       663 6.47724E-01-4.44061E+00-2.00836E+00 5.04124E+00-2.77424E-02 9.62773E-02
 -1       664 9.45759E+00 6.20726E+00 7.97240E+00 5.07778E+00 2.76076E-01 1.54948E-02
 -1       665 7.70765E+00 2.37524E+00 5.10643E+00 9.31262E+00 7.54416E-02 4.62021E-02
 -1       666 1.40935E+01 9.38206E+00 1.17937E+01 7.85414E+00-1.29515E-01 1.40095E-01
 -1       667 9.39165E+00 4.61973E+00 6.90663E+00 7.94894E+00-9.22298E-02 1.28542E-01
 -1       668-4.44933E+00-9.07098E+00-6.84117E+00 9.31080E+00-2.33211E-01 1.47536E-01
 -1       669 2.83533E+01 2.43693E+01 2.61319E+01 6.75608E+00-1.56443E-01 8.21277E-02
 -1       670-3.13052E+00-1.02529E+01-6.53563E+00 6.18139E+00-8.76064E-03 1.05054E-01
 -1       671 7.31661E+01 8.38608E+01 7.90853E+01 5.55056E-02-5.58427E-02 8.98033E-01
 -1       672 7.33569E+00 4.04277E+00 5.81155E+00 9.18518E+00 3.91952E-01 1.50550E-01
 -1       673 2.40756E+01 2.11478E+01 2.25064E+01 9.25900E+00-2.04139E-01 2.03516E-01
 -1       674 2.51115E+01 2.06319E+01 2.26798E+01 7.86288E+00 2.11046E-01 3.30360E-01
 -1       675 4.15913E+00-4.74596E-01 1.58881E+00 6.31937E+00 3.98647E-01-1.07105E-01
 -1       676 8.86563E+00 2.72989E+00 5.67141E+00 6.91782E+00 2.43186E-01 1.56275E-01
 -1       677-1.86197E+01-1.05317E+01-1.45531E+01 4.90146E+00 2.11016E-01 1.87889E-01
 -1       678 3.49644E+00-1.31874E+00 1.04946E+00 4.82910E+00 8.00352E-01 1.16178E-01
 -1       679 2.58350E+01 2.05933E+01 2.34186E+01 5.59040E+00 5.16346E-01 6.38029E-02
 -1       680 1.14568E+01 7.75887E+00 9.86087E+00 5.02825E+00 1.43552E-01 2.36274E-01
 -1       681-1.21500E+00-3.43032E+00-2.29035E+00 4.85159E+00 2.37177E-01-6.78366E-03
 -1       682 9.24057E+00 4.53778E+00 6.93594E+00 4.69626E+00 3.93061E-01 1.84919E-01
 -1       683-1.68661E+01-4.96864E+00-1.10281E+01-4.05404E+00 3.78262E-01-3.98838E-01
 -1       684-1.23664E+00 5.86462E+00 2.36105E+00 5.66104E-01-9.99930E-02-1.82887E-01
 -1       685-1.53300E+01-5.68340E+00-1.04997E+01-1.64253E+00 3.52749E-01-2.72361E-01
 -1       686 3.26497E+00-1.99691E+00 7.20082E-01 3.83183E+00 2.23211E-01 1.93472E-01
 -1       687 1.43709E+01 8.07704E+00 1.14684E+01 3.95043E+00 1.72261E-01-1.17875E-01
 -1       688 2.00573E+01 2.15544E+01 2.10129E+01 5.67341E+00-3.30130E-01-1.53916E-01
 -1       689 4.71341E+00 1.17683E+01 8.41035E+00 3.81389E+00-2.24312E-02-1.65019E-01
 -1       690 5.35406E+00 2.48427E+00 3.72211E+00 1.52836E+00-4.52782E-01 7.39544E-02
 -1       691 6.84440E+00 1.04734E+01 8.49740E+00 7.94649E+00 9.13242E-02-4.18502E-01
 -1       692 1.51619E+01 1.27433E+01 1.38209E+01 4.65365E+00-1.35519E-01 1.45196E-01
 -1       693 2.46326E+01 1.93791E+01 2.18182E+01 4.33276E+00-3.53129E-01 4.96668E-02
 -1       694 1.61352E+01 1.44278E+01 1.52805E+01 4.55178E+00 1.04548E-01-8.17245E-02
 -1       695 2.38536E+00 4.73574E-01 1.11933E+00 4.47029E+00-9.13327E-02 1.19338E-01
 -1       696 8.46479E+00 1.51624E+01 1.17580E+01 5.39516E+00 8.79357E-02 1.19875E-01
 -1       697-3.90510E+00 3.50429E+00 6.39948E-02 8.22807E+00 5.51678E-02 2.38540E-01
 -1       698 2.90095E+00 2.70167E+00 2.90744E+00 4.98872E+00 1.02969E-01-8.12865E-02
 -1       699-6.49747E+00-1.22887E+01-9.82358E+00 3.49730E+00-1.10905E-01 5.98318E-02
 -1       700 1.62572E-01-5.65792E+00-2.76917E+00 4.33355E+00 1.42094E-01 1.13807E-01
 -1       701-2.77329E+01-3.12818E+01-2.92299E+01 6.56778E+00 1.99767E-01 8.63175E-02
 -1       702 1.93957E+00 3.42476E+00 2.97342E+00 6.00810E+00-1.49955E-01 7.19729E-03
 -1       703 3.93878E+00-1.51601E+00 1.36875E+00 2.06680E+00 9.91777E-01 1.14472E-01
 -1       704 5.14848E+01 4.67319E+01 4.86412E+01 2.31144E+00 9.48299E-02-1.66162E-01
 -1       705-2.55826E+00 1.34027E+00-5.04059E-01 5.80343E+00-3.12938E-02 7.37268E-02
 -1       706-9.49951E-01 4.97978E+00 2.39351E+00 5.54903E+00-2.81944E-01 1.04045E-02
 -1       707-6.37941E+00-1.07133E-01-3.25338E+00 7.12221E+00 1.87743E-01 3.93080E-01
 -1       708 6.98609E+00 1.39796E+01 1.05682E+01 5.55665E+00 1.24543E-01 2.55896E-01
 -1       709-4.95886E+00 1.29324E+00-1.83477E+00 4.04075E+00-5.04804E-02 1.35997E-01
 -1       710 1.74004E+01 1.18334E+01 1.46140E+01 6.98637E+00-2.05753E-01 5.09243E-03
 -1       711-1.51704E+01-2.04421E+01-1.78205E+01 2.74645E+00 6.87537E-01 5.48844E-01
 -1       712-2.95447E+00 1.72500E+00-5.48329E-01 3.75766E+00 1.48279E-01 6.23366E-02
 -1       713 1.59684E+01 1.56364E+01 1.57482E+01 4.72156E+00 6.92686E-03 2.62975E-02
 -1       714-7.08312E+01-6.24937E+01-6.69848E+01 1.20147E+00-6.47393E-01-1.03649E+00
 -1       715-1.07706E+01-3.08161E+00-6.22693E+00 4.77816E-01 3.54906E-01 3.69983E-01
 -1       716-5.34182E+01-4.97558E+01-5.09699E+01 2.26393E+00 3.51483E-01-2.26611E-01
 -1       717-3.21685E+00 4.83784E+00 7.37574E-01 1.36840E+00 2.84087E-01 2.54577E-02
 -1       718 1.34595E+01 6.21197E+00 9.91230E+00 5.19693E+00 5.17802E-01-1.91530E-02
 -3
    1PSTEP                         3           1           1          
  100CL  101 1.000000000         339                     0    1           1
 -4  TOSTRAIN    6    1
 -5  EXX         1    4    1    1
 -5  EYY         1    4    2    2
 -5  EZZ         1    4    3    3
 -5  EXY         1    4    1    2
 -5  EYZ         1    4    2    3
 -5  EZX         1    4    3    1
 -1       380-3.35080E-02 4.26447E-02-9.08448E-03 1.86984E-01 7.96783E-03-1.97792E-02
 -1       381-7.53820E-02 7.18857E-02 3.53002E-03 1.94479E-01-1.51243E-02 6.82318E-03
 -1       382 3.64396E-03-2.36503E-03-1.28344E-03 1.10054E-01 2.85760E-03-1.57236E-03
 -1       383 4.03842E-04-2.66296E-04-1.11601E-04 1.15088E-01 2.85767E-04 1.61612E-04
 -1       384-6.37097E-02 6.39387E-02-2.31489E-04 4.97492E-03-4.88900E-03-3.12091E-03
 -1       385-7.74322E-02 8.77978E-02-1.03499E-02 2.55742E-02 4.14199E-03-6.90573E-04
 -1       386-6.73228E-02 7.98744E-02-1.27591E-02 7.25042E-04-3.48557E-02-2.29401E-02
 -1       387-5.86571E-02 5.80377E-02 7.76118E-04 2.39722E-02-7.34521E-03-8.86865E-03
 -1       388 5.28609E-03-4.29554E-03-8.77658E-04 2.44215E-01 1.50765E-03 4.16988E-03
 -1       389 3.31159E-02-2.47281E-02-8.29761E-03 2.66477E-01-3.72068E-03 4.48008E-03
 -1       390 4.11767E-02-4.45040E-02 3.41261E-03 2.27442E-01 7.19923E-03-4.07443E-03
 -1       391 3.96540E-02-3.91895E-02-4.15818E-04 1.64593E-01-2.30191E-03-4.16324E-03
 -1       392 2.24614E-02-1.70481E-02-5.35143E-03 1.00088E-01-1.51512E-03 2.28976E-03
 -1       393 2.16938E-02-2.33344E-02 1.74508E-03 2.47876E-01 7.34986E-03-4.50839E-04
 -1       394 3.58444E-02-4.37393E-02 7.98312E-03 2.65138E-01 1.15587E-02-7.66076E-04
 -1       395 3.29879E-02-2.84620E-02-4.43175E-03 2.27985E-01-1.22281E-02-5.11104E-04
 -1       396 3.84096E-02-3.45664E-02-3.78949E-03 1.54897E-01-1.59285E-03-3.20910E-04
 -1       397 1.36439E-02-1.57166E-02 2.08445E-03 1.01448E-01 4.82405E-03-4.89038E-04
 -1       398-1.05991E-01 1.12814E-01-6.76763E-03 1.73191E-01-9.33047E-03-6.49924E-03
 -1       399-1.04114E-01 9.37851E-02 1.03951E-02 1.54114E-01 4.73270E-03 6.69988E-03
 -1       400-2.26186E-01 2.28501E-01-2.36249E-03-1.68478E-01-4.92933E-03 4.75883E-03
 -1       401-1.66878E-01 1.67812E-01-1.02284E-03-1.39270E-01 3.60537E-03 5.89218E-03
 -1       402-1.14994E-01 1.24856E-01-9.93123E-03-8.53304E-02-1.39723E-02 1.50488E-03
 -1       403-2.61196E-01 2.43995E-01 1.71215E-02-1.42038E-01-1.02176E-02 5.04193E-02
 -1       404-1.68274E-01 1.74365E-01-6.19067E-03-1.24862E-01 2.27055E-03 5.76930E-03
 -1       405-1.18735E-01 1.13186E-01 5.47247E-03-8.05040E-02 5.66547E-04-7.63493E-04
 -1       406-3.24689E-03-3.55299E-05 3.34336E-03 1.01752E-01-9.29936E-04 3.77349E-03
 -1       407-3.59473E-03-4.29598E-03 8.01521E-03 3.39574E-02-9.49588E-03 1.07311E-02
 -1       408 1.62211E-02 9.66691E-04-1.72057E-02-4.15925E-02-4.58616E-02-1.90534E-02
 -1       409 4.07323E-03-7.36489E-04-3.27456E-03 1.01406E-01-6.15780E-03 3.81732E-03
 -1       410 1.07976E-02-6.42301E-03-4.30615E-03 3.19406E-02-1.00984E-02 5.17713E-03
 -1       411-3.32330E-03 2.61547E-03 7.68117E-04-2.75654E-02 1.33163E-02-1.12183E-03
 -1       412-7.04880E-02 6.83032E-02 2.20913E-03 9.28663E-02-3.96039E-03-1.51051E-03
 -1       413-1.56919E-03 3.68427E-03-2.11689E-03 7.77723E-02 1.61186E-02 4.06416E-03
 -1       414 6.12335E-02-6.65516E-02 5.31726E-03 5.90958E-02 1.56135E-02 1.64319E-02
 -1       415-3.35236E-02 2.91219E-02 4.33382E-03 5.11893E-02 6.07116E-03-1.09076E-02
 -1       416 7.56672E-02-6.67081E-02-8.93103E-03 8.90060E-02-1.12956E-02-1.90765E-03
 -1       417-3.19979E-02 2.61844E-02 5.84685E-03 9.36720E-02-1.00856E-02-7.05649E-04
 -1       418 5.72282E-02-6.22324E-02 5.02637E-03 1.27364E-01-7.01100E-03-4.55049E-03
 -1       419 8.08074E-02-8.92203E-02 8.43394E-03 1.01537E-01 5.14169E-03-8.40328E-03
 -1       420-4.87974E-02 4.74663E-02 1.33529E-03 3.80599E-02 4.65958E-03-5.17062E-03
 -1       421-6.45931E-02 6.67898E-02-2.17181E-03 7.66453E-02 1.48856E-03-7.78203E-05
 -1       422-3.63843E-02 4.02633E-02-3.98343E-03 5.55429E-02-6.39230E-03 5.38840E-03
 -1       423 5.16234E-02-5.90056E-02 7.42246E-03 1.02852E-01 1.43771E-02 3.28142E-03
 -1       424 2.88230E-02-2.43959E-02-4.37830E-03 1.26230E-01-1.07353E-02-4.41609E-03
 -1       425 5.22499E-02-5.13521E-02-8.35660E-04 3.24647E-02 7.09563E-03-6.94217E-03
 -1       426-1.08247E-01 1.07818E-01 3.75928E-04-4.99693E-02 7.58434E-03-9.00226E-03
 -1       427-4.98161E-02 4.69182E-02 2.94236E-03 1.52944E-01-3.95308E-03 7.81027E-03
 -1       428 3.89702E-02-3.79320E-02-9.58809E-04 9.33858E-02 9.18600E-04 2.92829E-03
 -1       429-8.90074E-02 8.59455E-02 3.05012E-03 6.01967E-02-2.59542E-04-3.33756E-03
 -1       430 1.28687E-03-8.20737E-04-3.99225E-04 1.44200E-01-7.92265E-04-8.31014E-03
 -1       431 6.65526E-02-6.55516E-02-9.14606E-04 1.71710E-01 8.44374E-04 7.97067E-03
 -1       432-8.80805E-03 8.91903E-03-6.09943E-05 1.65830E-01-4.63555E-03-5.66896E-03
 -1       433 4.73345E-02-4.08041E-02-6.51804E-03 6.47651E-02 3.10981E-03 4.10679E-03
 -1       434 4.70779E-03-5.99915E-03 1.36201E-03 9.92115E-02 4.45681E-03-4.47006E-03
 -1       435-1.36179E-01 1.38806E-01-2.74268E-03-1.46791E-02-1.52547E-02 6.82777E-03
 -1       436-1.04756E-01 1.07317E-01-2.58804E-03-1.72705E-02 5.81711E-03-3.74944E-04
 -1       437-3.44631E-02 2.82080E-02 6.21900E-03 4.48128E-02 2.00517E-02 4.35864E-03
 -1       438 3.68049E-02-3.70409E-02 3.25349E-04 1.71399E-01-1.11633E-03 1.06158E-02
 -1       439 6.15521E-02-5.80117E-02-3.46587E-03 1.17289E-01 1.53319E-02-2.26112E-03
 -1       440-8.58403E-02 8.30674E-02 2.79282E-03 1.49784E-01 1.10866E-02 9.54956E-03
 -1       441 4.62218E-02-5.45480E-02 8.38227E-03 1.20206E-01 8.02961E-03 5.06527E-03
 -1       442-5.60662E-02 5.62053E-02-4.67057E-08 1.89075E-01 3.49305E-03-1.11530E-02
 -1       443 1.48313E-03-1.47322E-03-9.22713E-09 1.13784E-01-2.95747E-04-2.68274E-04
 -1       444-8.89464E-03 1.54361E-02-6.51327E-03 2.13088E-01 4.93316E-03 6.10367E-04
 -1       445 1.97833E-02-1.47595E-02-4.90216E-03 2.63445E-01 4.44236E-04 5.56167E-03
 -1       446 3.52540E-02-3.66686E-02 1.55409E-03 2.47583E-01-1.51038E-03-4.86594E-03
 -1       447 4.28508E-02-4.32969E-02 5.61872E-04 2.00726E-01-4.71589E-04 3.94921E-03
 -1       448 3.25596E-02-3.47233E-02 2.18805E-03 1.31354E-01-1.37387E-03-6.27822E-03
 -1       449 1.23993E-02-6.91189E-03-5.54339E-03 1.01885E-01 1.74716E-03 2.70924E-04
 -1       450-2.11296E-02 1.45670E-02 6.69599E-03 2.14244E-01-1.30921E-02 6.10375E-03
 -1       451 2.89680E-02-3.40452E-02 5.20265E-03 2.61244E-01 8.91762E-03 8.02067E-03
 -1       452 3.25767E-02-2.70138E-02-5.41566E-03 2.53772E-01 7.97414E-03-1.06639E-02
 -1       453 3.92258E-02-3.44928E-02-4.65755E-03 1.97880E-01-1.35647E-02 2.93455E-03
 -1       454 2.95317E-02-2.04860E-02-8.98948E-03 1.24133E-01-4.38343E-04-2.13314E-03
 -1       455 8.60893E-03-1.22078E-02 3.72001E-03 1.07587E-01 1.26013E-03 4.13504E-03
 -1       456-6.82506E-02 6.82659E-02-5.77874E-08 1.73599E-02 1.09669E-02 2.69611E-03
 -1       457-7.23087E-02 6.31784E-02 9.16857E-03 9.58002E-02 2.67350E-03 6.69580E-03
 -1       458-8.80085E-02 1.09075E-01-2.10596E-02 1.75533E-01-1.19989E-02-1.27988E-02
 -1       459-8.25769E-02 8.99910E-02-7.34930E-03 8.85457E-02-4.00260E-04-2.09573E-03
 -1       460-1.03945E-01 9.56790E-02 8.33474E-03 1.84340E-01-6.50735E-03-1.35533E-03
 -1       461-6.61087E-02 6.55100E-02-6.43059E-08 9.23129E-03 3.83182E-04-2.53985E-03
 -1       462-1.84954E-01 1.98774E-01-1.39900E-02-8.34486E-02-2.98361E-02-5.60001E-03
 -1       463-1.80466E-01 1.83222E-01-2.82998E-03-1.49570E-01-7.22790E-03-2.60022E-03
 -1       464-1.41724E-01 1.44827E-01-3.22678E-03-1.21572E-01 4.28146E-03 8.13555E-05
 -1       465-9.35791E-02 1.00144E-01-6.64393E-03-4.77068E-02-1.48001E-02-3.81185E-03
 -1       466-1.86742E-01 1.73345E-01 1.28349E-02-6.52157E-02-3.95362E-03 1.76647E-02
 -1       467-1.88498E-01 1.91648E-01-3.34840E-03-1.31909E-01 8.21501E-03 2.86822E-02
 -1       468-1.59149E-01 1.57573E-01 1.40942E-03-1.20032E-01 6.48601E-03-2.10602E-03
 -1       469-1.02213E-01 1.06516E-01-4.41649E-03-2.55799E-02 8.66597E-03 6.94891E-03
 -1       470-2.55159E-04 2.38698E-08 3.92397E-04 1.05015E-01 1.05065E-03 4.47116E-04
 -1       471-3.71418E-03 2.54205E-07 3.84166E-03 7.08321E-02-2.10474E-03 4.37500E-03
 -1       472 4.01482E-03 3.13831E-07-3.93159E-03-7.61161E-03-2.64763E-02-4.95838E-03
 -1       473 1.16026E-02-1.83536E-07-1.15204E-02-2.42654E-02-4.74903E-02-1.28982E-02
 -1       474 2.94232E-03 4.63094E-08-2.96158E-03 1.08812E-01-1.85792E-03 3.03289E-03
 -1       475 4.02530E-03 2.43966E-07-4.07693E-03 6.96303E-02-1.11197E-02 4.70684E-03
 -1       476 6.19586E-03 2.69014E-07-6.33796E-03-2.05203E-03 5.25932E-03 7.88490E-03
 -1       477-1.42763E-02-2.12309E-07 1.39270E-02-1.66411E-03 1.41651E-02-1.71894E-02
 -1       478 4.33418E-03-4.37799E-03 1.31047E-04 2.14855E-01 8.96267E-03-6.56618E-03
 -1       479 2.43156E-02-2.59060E-02 1.68301E-03 2.60522E-01 1.63450E-03 1.47181E-03
 -1       480 3.37362E-02-3.35298E-02-7.01491E-10 2.68639E-01 7.39440E-03 2.48167E-03
 -1       481 3.14481E-02-2.80904E-02-3.20521E-03 2.50559E-01-2.37717E-03 5.43633E-03
 -1       482 3.42733E-02-3.48858E-02 7.21850E-04 1.99187E-01-4.68038E-03-6.22760E-04
 -1       483 2.92913E-02-2.90901E-02-3.96812E-09 2.30166E-01-4.15866E-04-2.16377E-03
 -1       484 2.01845E-02-2.07983E-02 6.38588E-04 1.28616E-01 5.02104E-04-3.04744E-03
 -1       485 3.48266E-02-3.47746E-02-1.74910E-08 1.63360E-01-3.04623E-04-2.13561E-03
 -1       486 1.51664E-02-1.57474E-02 5.78552E-04 1.03709E-01 2.04238E-03 7.67956E-04
 -1       487 1.70133E-02-1.69499E-02-1.35632E-08 1.02371E-01 2.20153E-03 2.09925E-03
 -1       488 1.03976E-02-1.03274E-02 9.46163E-09 2.49185E-01 4.11737E-03-2.59705E-03
 -1       489-1.13403E-01 1.13557E-01 3.93906E-08 1.57952E-01-3.11465E-03 1.42563E-03
 -1       490-8.06604E-02 8.57980E-02-5.07431E-03 1.07408E-01-2.41601E-03-5.85132E-03
 -1       491-8.72798E-02 8.29138E-02 4.41128E-03 1.69169E-01 1.21943E-02-5.05175E-03
 -1       492-2.01883E-01 2.00559E-01 9.58742E-04-7.09955E-02-1.77356E-02 2.48761E-02
 -1       493-1.71192E-01 1.71142E-01-6.00950E-05-1.42273E-01 1.13755E-02-4.46993E-03
 -1       494-1.73095E-01 1.73059E-01-2.83659E-08-1.27316E-01-3.17973E-03 1.57339E-02
 -1       495-1.53437E-01 1.50342E-01 2.97960E-03-1.20483E-01 1.03901E-02 5.05090E-03
 -1       496-8.99641E-02 8.59852E-02 3.93202E-03-3.86225E-02-9.97300E-04 7.55450E-03
 -1       497-1.18471E-01 1.18390E-01 2.78902E-10-8.85333E-02-9.03419E-03-9.27763E-07
 -1       498-2.40661E-01 2.40628E-01 7.42835E-08-1.62140E-01-1.05767E-02 1.47071E-02
 -1       499 1.90599E-04 1.53841E-08-6.97349E-09 1.07902E-01-1.19795E-08 1.05668E-03
 -1       500 7.21844E-05 1.31399E-07-7.39159E-10 7.41420E-02-1.73714E-08 2.85737E-03
 -1       501 5.57268E-03-5.53232E-03 1.00500E-08 3.31236E-02 1.99228E-04 3.10749E-03
 -1       502-8.23723E-06 1.77261E-07-2.80154E-08-6.29575E-03-3.41878E-08 3.73376E-03
 -1       503-2.00306E-04-8.97510E-08 7.66250E-09-3.35952E-02-9.61075E-08-5.58017E-03
 -1       504 5.11042E-05 7.41113E-05-4.52137E-08-5.04638E-02-5.25468E-04-4.47676E-03
 -1       505 1.89382E-04-2.26377E-04-5.12067E-10 1.03169E-01-4.32117E-04 2.28154E-03
 -1       506-3.63333E-02 3.73354E-02-9.06357E-04 1.60446E-01 6.27356E-03 7.35796E-03
 -1       507-5.76764E-02 5.86675E-02-1.00292E-03 1.38733E-01 4.84321E-03-1.14946E-02
 -1       508 3.10876E-02-2.85657E-02-2.46079E-03 1.53133E-01 1.49465E-02-7.96882E-03
 -1       509 2.33365E-02-1.66743E-02-6.67700E-03 1.68887E-01-5.82989E-03-1.19597E-03
 -1       510 9.51606E-03-6.92675E-03-2.55953E-03 1.00401E-01-3.83068E-03 4.93871E-03
 -1       511 3.86078E-02-3.00044E-02-8.30154E-03 1.55485E-02-3.06241E-02-7.89053E-03
 -1       512 2.54119E-02-3.94514E-02 1.43061E-02 4.59256E-02-2.85930E-03 1.83434E-02
 -1       513-6.18751E-02 7.28100E-02-1.12828E-02 3.55450E-02-4.29157E-02-4.81124E-02
 -1       514-1.33960E-02 2.24985E-02-8.83331E-03 7.74089E-03-3.77214E-02-2.19165E-02
 -1       515 1.48048E-02-2.40292E-02 9.15924E-03 4.54132E-02 1.04014E-02 1.00490E-02
 -1       516-1.52126E-01 1.52377E-01-3.63142E-04-3.75362E-02-9.81149E-03 3.08558E-04
 -1       517-9.52764E-02 9.53176E-02-7.86033E-05-2.48009E-02 8.39411E-03 2.77047E-03
 -1       518-1.13761E-01 1.15881E-01-2.28694E-03-3.59094E-02 6.77298E-04 2.90565E-03
 -1       519-8.94439E-02 9.08880E-02-1.43213E-03 1.29931E-02-1.33609E-02 2.21313E-03
 -1       520-1.13555E-01 1.11447E-01 2.07682E-03-2.72993E-02-2.67797E-03-9.11178E-03
 -1       521-9.85126E-02 1.00462E-01-1.96734E-03 4.35682E-02-2.95336E-03 1.32759E-02
 -1       522-8.86040E-02 9.19982E-02-3.46222E-03 1.30966E-01 1.91412E-03-1.03253E-02
 -1       523 3.38462E-02-3.42581E-02 4.30716E-04 9.66250E-02-8.57376E-03 2.72899E-03
 -1       524 4.48191E-02-3.59848E-02-8.77240E-03 9.93849E-02-5.78318E-03 2.36663E-03
 -1       525 5.53815E-02-5.07309E-02-4.53687E-03 1.27293E-01-8.47615E-03-1.21559E-03
 -1       526 3.91185E-02-4.45020E-02 5.59533E-03 6.24340E-02-1.60433E-02 6.33653E-03
 -1       527-1.50380E-03 2.96078E-03-1.50060E-03 1.81047E-01-7.77595E-03 1.40807E-03
 -1       528-1.01378E-02 5.07919E-03 5.07125E-03 1.68975E-01 2.45798E-04 1.97694E-03
 -1       529 5.10845E-02-5.18206E-02 8.44825E-04 1.50426E-01-1.04186E-02-1.70559E-03
 -1       530 5.05948E-02-5.73900E-02 6.78289E-03 1.67830E-01 6.35809E-03-3.30203E-03
 -1       531-5.37501E-02 5.02018E-02 3.56026E-03 8.91649E-02-7.48143E-03-2.24931E-03
 -1       532 2.38625E-02-3.15492E-02 7.94190E-03 9.59730E-02 1.07015E-02 6.46792E-03
 -1       533-2.30683E-02 2.29230E-02 1.56551E-04 8.65200E-02-4.52184E-03 7.51363E-03
 -1       534-9.54805E-02 9.51429E-02 2.59470E-04-2.02655E-02-8.17349E-03-6.26668E-04
 -1       535 7.97160E-02-7.38856E-02-5.87481E-03 7.24089E-02 2.47170E-03 7.17286E-03
 -1       536-1.47591E-02 1.41323E-02 5.95652E-04 6.92048E-02 1.34121E-02-4.06208E-03
 -1       537 7.51315E-02-6.98059E-02-5.25643E-03 1.12603E-01-1.28411E-02-3.53027E-03
 -1       538 7.73369E-02-7.20344E-02-5.29358E-03 1.01208E-01-2.97839E-03 9.20008E-03
 -1       539 3.07879E-02-3.35594E-02 2.74119E-03 7.92973E-02 2.50254E-03 3.65031E-03
 -1       540 9.55546E-03-1.16027E-02 2.18536E-03 1.01451E-01 1.13332E-03 4.02447E-03
 -1       541 6.25259E-02-6.33904E-02 8.50629E-04 1.59667E-01-1.17891E-02-7.83806E-03
 -1       542 6.57159E-02-6.70473E-02 1.42215E-03 1.24131E-01-6.96475E-03-8.48072E-03
 -1       543-1.71051E-02 2.03831E-02-3.25305E-03 1.43168E-01 7.88777E-03 4.58753E-03
 -1       544-4.68421E-03 3.48199E-04 4.40802E-03 1.51661E-01 4.49304E-03 6.85419E-03
 -1       545-6.94411E-02 6.88730E-02 4.85593E-04 1.37612E-01-1.77801E-02-5.41673E-04
 -1       546-2.29388E-02 3.21952E-02-9.16453E-03 1.57018E-01 3.38469E-03-4.91888E-03
 -1       547-5.74350E-02 5.93473E-02-1.96469E-03 5.42359E-02 6.95123E-03-3.25983E-03
 -1       548-7.84451E-02 7.58889E-02 2.45925E-03 1.19944E-01-1.27748E-02 3.37328E-04
 -1       549-9.27285E-02 1.01267E-01-8.51757E-03 4.41661E-02-5.99647E-03-6.47769E-03
 -1       550-1.22074E-01 1.25612E-01-3.55178E-03-2.64117E-02-3.92113E-03 2.38114E-03
 -1       551-1.01315E-01 1.02650E-01-1.30804E-03-4.22169E-02-5.43876E-03-8.69334E-03
 -1       552-1.37661E-01 1.30418E-01 7.11301E-03-5.73966E-02-6.77691E-03 2.76796E-02
 -1       553-5.92407E-02 6.67892E-02-7.54816E-03 3.76866E-02 4.79173E-03-1.16987E-03
 -1       554-1.64475E-01 1.45938E-01 1.89467E-02-3.48654E-02-4.47922E-03 3.26770E-02
 -1       555-1.46437E-02 2.42936E-02-9.39489E-03 1.38129E-02 2.84030E-02-8.50353E-03
 -1       556 5.05335E-02-5.43581E-02 3.93285E-03 6.61360E-02-3.23510E-03-7.42154E-04
 -1       557 3.94587E-02-3.72452E-02-2.10118E-03 3.89153E-02 2.22487E-02-5.55259E-05
 -1       558 4.49049E-02-4.29597E-02-1.87354E-03 1.24616E-01 7.41905E-03-3.23851E-03
 -1       559 2.92858E-02-2.96938E-02 4.86870E-04 1.09475E-01 1.11836E-02-1.13374E-02
 -1       560 3.27088E-02-3.53921E-02 2.66093E-03 1.89780E-01 8.74285E-03-4.81777E-03
 -1       561 3.25794E-02-3.15658E-02-1.03902E-03 1.70830E-01-1.44359E-02-7.78660E-03
 -1       562-1.19948E-02 1.51824E-02-3.09369E-03 8.58902E-02 2.86521E-03-1.38848E-04
 -1       563-8.87970E-02 8.53603E-02 3.53567E-03 1.47976E-03-1.30128E-03-6.47093E-03
 -1       564 3.35598E-02-3.47830E-02 1.45047E-03 7.07338E-02 4.13220E-03-4.12222E-03
 -1       565 3.16690E-02-3.46605E-02 3.01628E-03 1.05103E-01 1.56589E-04-1.00718E-03
 -1       566 4.28123E-02-4.36896E-02 9.36153E-04 6.73205E-02-7.05960E-03 3.77053E-03
 -1       567 5.35258E-02-4.94251E-02-4.07111E-03 1.07721E-01-1.02291E-02-7.61813E-03
 -1       568-5.02698E-02 4.15409E-02 8.58483E-03 4.82776E-02-8.28691E-03 4.97521E-04
 -1       569 6.81983E-02-8.16055E-02 1.35493E-02 1.01980E-01 1.16792E-02 7.07264E-04
 -1       570 3.89389E-03 7.21308E-04-4.68613E-03 8.91812E-02-1.79541E-02 7.25466E-03
 -1       571-1.06343E-01 1.12852E-01-6.56567E-03-5.08853E-02-2.01633E-03-1.20114E-03
 -1       572-1.02803E-01 1.04267E-01-1.47156E-03-1.11932E-02-4.10760E-03-1.75119E-03
 -1       573-9.45373E-02 9.55814E-02-1.13497E-03 2.17879E-02 5.47037E-03-4.22804E-03
 -1       574-1.13044E-01 1.09704E-01 3.28004E-03-5.37269E-02 3.00902E-03-5.52294E-03
 -1       575-1.01454E-01 9.79058E-02 3.51678E-03-6.56782E-03-3.72689E-03-7.25291E-04
 -1       576-6.67522E-02 6.60009E-02 6.97931E-04 2.14109E-02-2.62502E-04-2.38452E-03
 -1       577-7.57677E-02 7.52246E-02 5.54021E-04-1.03968E-02 1.41646E-03-1.16902E-02
 -1       578-4.21681E-02 3.95262E-02 2.72322E-03 6.82942E-02-1.11796E-03 6.25714E-05
 -1       579-6.07476E-02 6.33172E-02-2.58921E-03 1.75307E-02 1.53085E-02 3.04194E-03
 -1       580-2.99439E-02 3.05123E-02-5.53757E-04 5.58639E-02 1.17125E-02 1.73284E-03
 -1       581 2.05286E-02-2.45016E-02 3.78063E-03 4.17178E-03 4.96207E-03 1.93602E-03
 -1       582 3.41129E-02-2.97638E-02-5.00382E-03 1.68216E-03-6.99431E-03-1.39265E-02
 -1       583 2.80734E-02-3.25686E-02 4.63832E-03 3.82305E-02 3.75796E-03 1.86514E-03
 -1       584-3.87825E-02 4.12430E-02-3.33335E-03 4.57284E-02 9.62259E-03-3.10132E-03
 -1       585-1.98719E-02 1.64544E-02 3.73599E-03 7.10100E-03 2.05547E-02-3.02720E-03
 -1       586 1.63786E-02-9.90394E-03-6.46082E-03 2.94566E-02-1.32318E-03-6.51915E-03
 -1       587 4.82742E-03-1.16022E-02 7.36031E-03 3.40165E-02 1.40286E-02-4.59223E-04
 -1       588-8.12598E-02 7.97675E-02 1.68034E-03 2.58120E-02 6.35307E-03-4.29901E-03
 -1       589-2.92278E-02 2.79832E-02 1.53584E-03 5.25103E-02-1.65272E-03 1.11329E-03
 -1       590-8.57678E-02 8.52195E-02 4.99651E-04 1.58512E-02-1.30820E-02 7.43150E-04
 -1       591-2.06434E-02 2.24047E-02-1.82487E-03 6.22189E-02-2.00703E-03 3.11052E-03
 -1       592-1.34634E-01 1.35222E-01-6.40670E-04-7.96187E-02 7.35967E-03 3.50866E-03
 -1       593 2.98717E-02-3.39141E-02 4.07847E-03 6.50849E-02 6.31826E-03-5.97299E-03
 -1       594 8.86923E-03-5.14884E-03-3.77363E-03 8.57367E-02-4.25052E-03 1.61286E-03
 -1       595-9.67329E-03 8.82610E-03 9.03796E-04 1.99098E-01 2.52589E-03 5.48343E-03
 -1       596-3.35049E-02 2.87975E-02 4.76970E-03 1.55992E-01-5.71366E-03 1.04858E-03
 -1       597 2.54969E-03-1.45669E-03-1.00943E-03 2.07147E-01 1.11319E-03-5.74105E-03
 -1       598-2.36580E-02 1.87447E-02 5.05412E-03 1.93209E-01-6.35614E-03 1.49722E-03
 -1       599-1.48092E-03 2.33844E-03-7.61991E-04 2.06081E-01-1.00865E-03-6.08154E-04
 -1       600-1.24462E-01 1.31890E-01-7.62034E-03-2.79384E-02-8.91615E-03-3.35840E-03
 -1       601-2.10396E-01 1.98138E-01 1.22425E-02-7.53980E-02-6.84791E-03 3.27495E-02
 -1       602-1.77300E-01 1.73552E-01 3.64925E-03-9.75595E-02-9.12628E-03 1.26184E-02
 -1       603-9.37098E-02 9.06240E-02 2.77156E-03 1.81640E-02-1.77130E-03 2.15701E-02
 -1       604-3.83270E-02 3.64188E-02 2.08650E-03 3.38551E-02 1.49615E-02-4.26095E-03
 -1       605-1.41996E-01 1.43912E-01-1.94965E-03-6.94876E-02-6.79976E-03 5.95571E-03
 -1       606-5.99593E-02 6.31636E-02-3.14803E-03 1.16464E-01-2.71371E-04 7.14687E-03
 -1       607-5.77366E-02 5.91134E-02-1.33993E-03 1.74344E-01-4.05467E-03 1.36705E-02
 -1       608 2.21347E-02-2.74967E-02 5.42094E-03 6.47205E-02-1.58223E-03 4.04434E-03
 -1       609 2.21285E-02-2.46354E-02 2.33129E-03 5.29823E-02-3.26722E-04 9.02787E-03
 -1       610 4.87706E-02-4.51769E-02-3.57156E-03 7.92578E-02 3.41283E-03 2.62549E-03
 -1       611 3.00666E-02-2.63857E-02-3.66464E-03 6.31943E-02-2.11990E-03 3.27733E-03
 -1       612 3.38605E-02-2.78794E-02-5.79413E-03 4.89651E-02-8.70989E-03 1.38870E-03
 -1       613-8.68409E-02 8.69624E-02-9.27853E-05 4.14632E-02-3.24671E-03-1.06691E-03
 -1       614-6.98360E-02 6.97202E-02 1.31577E-04 3.65012E-02-1.29967E-03-9.68130E-04
 -1       615 3.87552E-02-3.89987E-02 2.87577E-04 1.21680E-01-5.56215E-03-5.36684E-03
 -1       616 7.29717E-02-7.53021E-02 2.32820E-03 1.16737E-01-2.88389E-03-4.40247E-03
 -1       617 9.87201E-03-4.68558E-03-5.03803E-03 2.19848E-01-6.35420E-04 1.22566E-03
 -1       618 1.27621E-02-1.72393E-02 4.59596E-03 2.18269E-01-1.74725E-03-2.88139E-03
 -1       619 1.79866E-02-1.12183E-02-6.75214E-03 2.04084E-01-3.85464E-03-3.78724E-03
 -1       620-3.85521E-03 5.63530E-03-1.77062E-03 1.58298E-01-3.48247E-03-5.60745E-03
 -1       621 1.98968E-02-2.46669E-02 4.84165E-03 2.01270E-01 4.68167E-03-3.42735E-03
 -1       622-7.39815E-02 7.43001E-02-2.82486E-04 7.05082E-02-2.47431E-03-1.96119E-04
 -1       623-8.72651E-02 8.42230E-02 3.04834E-03 1.04065E-01-6.03665E-04 3.07216E-03
 -1       624 1.46525E-02-1.35934E-02-1.06023E-03 1.01758E-01 5.01614E-03 2.54581E-03
 -1       625 6.49625E-02-6.53116E-02 2.38988E-04 6.42705E-02-3.35046E-03-1.13736E-02
 -1       626 1.12860E-02-1.25417E-02 1.55140E-03 2.52409E-02 1.60773E-02-6.70756E-03
 -1       627 3.69124E-02-3.67151E-02-1.40099E-04 2.18211E-01-3.89703E-03 9.53285E-03
 -1       628 2.59761E-02-2.48511E-02-9.78389E-04 1.27517E-01 7.09163E-03 7.01683E-03
 -1       629 2.40223E-02-2.58024E-02 1.96423E-03 1.56632E-01-2.39404E-03 1.36561E-03
 -1       630 3.55234E-04-1.84257E-03 1.39323E-03 1.09224E-01 3.26553E-03-1.44731E-03
 -1       631-2.53590E-02 2.68048E-02-1.41448E-03 9.28694E-02 3.22707E-03-3.33831E-03
 -1       632 1.31804E-02-1.42302E-02 1.13050E-03 1.32314E-01 7.82533E-04-3.58696E-03
 -1       633-1.33657E-01 1.32182E-01 1.42264E-03-9.14759E-02 5.92246E-03-6.77957E-04
 -1       634-8.36932E-02 8.71979E-02-3.49458E-03 4.10447E-02 2.33242E-04-1.74729E-03
 -1       635-9.30793E-02 9.21758E-02 9.26992E-04 1.16977E-01-2.54552E-03-3.46547E-03
 -1       636-7.77596E-02 7.44509E-02 3.32462E-03 3.18102E-02-2.05291E-03-3.92943E-03
 -1       637-3.94386E-02 4.19347E-02-2.43830E-03 1.18173E-01 1.26086E-03-3.30791E-03
 -1       638 7.03745E-02-7.30228E-02 2.62000E-03 8.48732E-02 9.19382E-03 4.69329E-04
 -1       639 8.22653E-02-8.22957E-02-1.14906E-05 1.00038E-01 4.04765E-03-2.94470E-03
 -1       640 1.33475E-03-3.20734E-03 2.01087E-03 1.00532E-01 2.00864E-03-2.46609E-04
 -1       641 1.38298E-02-9.55103E-03-4.23975E-03 9.95090E-02 3.62570E-04-5.66200E-04
 -1       642 3.87500E-03-3.88209E-03-7.51483E-07 1.04408E-01 3.65219E-03-3.01002E-03
 -1       643 2.77781E-02-2.99600E-02 2.22760E-03 1.08925E-01 5.16759E-03 1.20543E-03
 -1       644 4.42046E-02-5.15804E-02 7.40502E-03 1.13405E-01 1.10384E-02 6.57884E-03
 -1       645 4.58355E-02-4.70391E-02 1.21937E-03 1.38993E-01 4.73274E-03 2.94974E-03
 -1       646 1.69844E-02-1.98989E-02 2.91343E-03 9.72884E-02 1.25385E-04 2.31368E-03
 -1       647 3.63998E-02-3.94164E-02 2.97299E-03 2.17795E-01 5.59151E-03-1.18432E-03
 -1       648 3.27230E-02-3.32574E-02 6.13102E-04 1.43537E-01-4.03408E-03-1.30158E-03
 -1       649-2.74797E-02 3.20937E-02-4.66288E-03 1.03441E-01-1.17658E-03-3.60471E-03
 -1       650-1.06221E-01 1.12933E-01-6.65084E-03 1.57649E-01-5.85821E-03-2.44703E-03
 -1       651-1.03279E-01 9.31115E-02 1.02306E-02 1.54752E-01 1.20428E-02 8.36667E-03
 -1       652-6.37077E-02 6.63048E-02-2.56677E-03 1.69425E-01 8.29208E-03-5.90393E-03
 -1       653 1.21195E-02-1.63447E-02 4.18096E-03 1.01274E-01 3.82619E-03 7.40841E-04
 -1       654-1.89095E-01 2.05797E-01-1.66809E-02-8.76281E-02-1.86371E-02-4.66890E-03
 -1       655-1.27134E-01 1.34834E-01-7.69497E-03-1.13070E-03-2.59970E-02-1.68985E-02
 -1       656-1.63316E-01 1.62677E-01 5.79451E-04-1.06922E-01 1.81032E-03-1.51353E-03
 -1       657 5.08027E-02-5.10560E-02 2.46672E-04 1.41322E-01 2.89864E-03-3.19298E-03
 -1       658 6.11719E-02-6.14771E-02 4.21364E-04 1.31444E-01-5.03946E-03-4.79773E-03
 -1       659 6.16348E-02-5.73444E-02-4.24539E-03 1.01100E-01 1.50932E-03-2.92176E-03
 -1       660-1.03005E-02 1.35952E-02-3.15862E-03 1.60457E-03-9.15917E-03-3.98745E-03
 -1       661-3.27278E-02 3.57003E-02-2.81182E-03 2.23088E-02-7.25994E-04-7.91472E-03
 -1       662 4.72579E-02-5.14785E-02 4.27060E-03 1.43279E-01 1.97588E-03-3.30098E-03
 -1       663 5.53081E-02-5.37203E-02-1.60430E-03 1.08019E-01-5.94440E-04 2.06295E-03
 -1       664 3.38454E-02-3.57999E-02 2.02204E-03 1.08802E-01 5.91551E-03 3.32008E-04
 -1       665 5.66795E-02-5.75788E-02 9.42738E-04 1.99543E-01 1.61650E-03 9.89978E-04
 -1       666 5.01108E-02-5.08419E-02 8.31862E-04 1.68292E-01-2.77513E-03 3.00183E-03
 -1       667 5.18517E-02-5.03968E-02-1.39512E-03 1.70323E-01-1.97622E-03 2.75428E-03
 -1       668 5.00736E-02-4.89551E-02-1.17673E-03 1.99504E-01-4.99704E-03 3.16127E-03
 -1       669 4.43968E-02-4.09695E-02-3.20201E-03 1.44764E-01-3.35213E-03 1.75976E-03
 -1       670 7.51724E-02-7.74399E-02 2.21060E-03 1.32450E-01-1.87716E-04 2.25101E-03
 -1       671-1.18438E-01 1.10718E-01 8.39408E-03 1.18933E-03-1.19655E-03 1.92423E-02
 -1       672 3.44216E-02-3.61362E-02 1.76372E-03 1.96812E-01 8.39840E-03 3.22585E-03
 -1       673 3.21837E-02-3.05502E-02-1.43989E-03 1.98394E-01-4.37411E-03 4.36077E-03
 -1       674 4.94272E-02-4.65559E-02-2.67586E-03 1.68479E-01 4.52211E-03 7.07867E-03
 -1       675 5.14591E-02-4.78284E-02-3.61562E-03 1.35406E-01 8.54186E-03-2.29495E-03
 -1       676 6.66545E-02-6.48168E-02-1.78838E-03 1.48229E-01 5.21079E-03 3.34854E-03
 -1       677-8.68542E-02 8.64487E-02 2.80597E-04 1.05024E-01 4.52148E-03 4.02592E-03
 -1       678 5.18722E-02-5.13034E-02-5.59625E-04 1.03474E-01 1.71492E-02 2.48936E-03
 -1       679 5.47632E-02-5.75507E-02 2.98702E-03 1.19786E-01 1.10638E-02 1.36711E-03
 -1       680 3.78388E-02-4.13978E-02 3.64200E-03 1.07741E-01 3.07591E-03 5.06267E-03
 -1       681 2.34966E-02-2.39713E-02 4.54887E-04 1.03956E-01 5.08202E-03-1.45354E-04
 -1       682 5.00694E-02-5.06979E-02 6.87713E-04 1.00628E-01 8.42216E-03 3.96229E-03
 -1       683-1.26704E-01 1.28224E-01-1.61369E-03-8.68664E-02 8.10506E-03-8.54596E-03
 -1       684-7.64093E-02 7.57504E-02 6.78912E-04 1.21300E-02-2.14256E-03-3.91874E-03
 -1       685-1.03429E-01 1.03270E-01 6.95548E-05-3.51946E-02 7.55840E-03-5.83591E-03
 -1       686 5.57608E-02-5.69862E-02 1.23116E-03 8.21052E-02 4.78276E-03 4.14554E-03
 -1       687 6.57165E-02-6.91431E-02 3.52356E-03 8.46464E-02 3.69107E-03-2.52573E-03
 -1       688-1.74585E-02 1.46202E-02 3.01726E-03 1.21565E-01-7.07375E-03-3.29798E-03
 -1       689-7.67698E-02 7.43960E-02 2.44495E-03 8.17207E-02-4.80637E-04-3.53589E-03
 -1       690 3.21641E-02-2.93272E-02-2.80386E-03 3.27484E-02-9.70182E-03 1.58463E-03
 -1       691-3.77018E-02 4.00581E-02-2.28257E-03 1.70271E-01 1.95682E-03-8.96730E-03
 -1       692 2.68929E-02-2.49323E-02-1.84143E-03 9.97145E-02-2.90378E-03 3.11113E-03
 -1       693 5.76864E-02-5.48811E-02-2.61717E-03 9.28386E-02-7.56654E-03 1.06422E-03
 -1       694 1.83431E-02-1.82415E-02 2.94437E-05 9.75316E-02 2.24017E-03-1.75112E-03
 -1       695 2.27010E-02-1.82632E-02-4.42645E-03 9.57855E-02-1.95700E-03 2.55707E-03
 -1       696-7.13248E-02 7.21857E-02-7.59779E-04 1.15603E-01 1.88421E-03 2.56858E-03
 -1       697-8.12698E-02 7.74922E-02 3.77663E-03 1.76304E-01 1.18209E-03 5.11122E-03
 -1       698 1.38515E-03-2.88495E-03 1.52411E-03 1.06894E-01 2.20633E-03-1.74174E-03
 -1       699 6.50921E-02-5.89969E-02-6.17696E-03 7.49371E-02-2.37637E-03 1.28202E-03
 -1       700 6.25039E-02-6.22126E-02-3.14919E-04 9.28557E-02 3.04467E-03 2.43855E-03
 -1       701 3.59563E-02-4.00870E-02 3.87858E-03 1.40729E-01 4.28043E-03 1.84954E-03
 -1       702-1.79840E-02 1.38395E-02 4.16833E-03 1.28736E-01-3.21312E-03 1.54217E-04
 -1       703 5.73200E-02-5.95606E-02 2.25143E-03 4.42855E-02 2.12510E-02 2.45280E-03
 -1       704 5.43973E-02-4.74436E-02-6.53412E-03 4.95276E-02 2.03193E-03-3.56037E-03
 -1       705-4.25182E-02 4.10160E-02 1.49732E-03 1.24351E-01-6.70537E-04 1.57975E-03
 -1       706-6.62265E-02 6.08306E-02 5.41427E-03 1.18900E-01-6.04124E-03 2.22939E-04
 -1       707-6.71355E-02 6.72614E-02-1.53717E-04 1.52609E-01 4.02279E-03 8.42257E-03
 -1       708-7.55056E-02 7.43463E-02 1.24945E-03 1.19063E-01 2.66860E-03 5.48313E-03
 -1       709-6.69736E-02 6.69912E-02-3.32831E-05 8.65818E-02-1.08165E-03 2.91403E-03
 -1       710 5.97042E-02-5.95794E-02 5.00158E-07 1.49698E-01-4.40870E-03 1.09116E-04
 -1       711 5.65302E-02-5.64282E-02-2.54694E-04 5.88485E-02 1.47320E-02 1.17602E-02
 -1       712-5.06098E-02 4.96579E-02 9.46859E-04 8.05159E-02 3.17720E-03 1.33570E-03
 -1       713 3.98844E-03-3.12462E-03-7.28519E-04 1.01170E-01 1.48423E-04 5.63480E-04
 -1       714-8.72127E-02 9.14351E-02-4.79476E-03 2.57440E-02-1.38718E-02-2.22089E-02
 -1       715-8.73891E-02 7.73634E-02 9.96827E-03 1.02382E-02 7.60461E-03 7.92768E-03
 -1       716-4.37916E-02 3.46832E-02 8.66803E-03 4.85095E-02 7.53127E-03-4.85563E-03
 -1       717-8.57715E-02 8.68176E-02-1.03936E-03 2.93209E-02 6.08716E-03 5.45486E-04
 -1       718 7.71284E-02-7.81657E-02 1.12184E-03 1.11355E-01 1.10950E-02-4.10394E-04
 -3
    1PSTEP                         4           1           1          
  100CL  101 1.000000000         339                     0    1           1
 -4  FORC        4    1
 -5  F1          1    2    1    0
 -5  F2          1    2    2    0
 -5  F3          1    2    3    0
 -5  ALL         1    2    0    0    1ALL
 -1       380-1.65866E-09 7.39946E-10-3.65994E+01
 -1       381 3.23913E-10-6.19525E-10-6.68637E+00
 -1       382 2.02956E+01 1.76964E+01 8.32679E-01
 -1       383-2.18839E+01 3.92463E+00-1.86410E+01
 -1       384-4.32760E-10 1.28653E-09-7.82889E+00
 -1       385-1.32923E-09 7.27667E-10 1.52904E+01
 -1       386 2.20156E+01-2.32398E+02 2.07195E+02
 -1       387 1.67972E+02-3.47242E+02 3.03287E+02
 -1       388-8.40808E-10 3.41195E-10-4.84428E+01
 -1       389-3.34059E-10 3.94541E-10-1.38818E+01
 -1       390 1.67074E-10 7.94477E-11-5.55011E+01
 -1       391 2.11287E-10-7.45146E-11-3.43438E-01
 -1       392-4.45566E-12-4.02605E-11 3.99641E+00
 -1       393 1.66045E-10 2.09839E-09 3.07726E+01
 -1       394-2.65439E-10 4.73364E-10 4.38858E+01
 -1       395 8.58370E-11 3.41309E-10 2.74020E+01
 -1       396-1.32370E-10-1.46506E-11 5.57519E+00
 -1       397-1.56582E-10 2.12399E-11-3.67914E+01
 -1       398-1.14252E-09-5.33544E-10-5.77738E+01
 -1       399 5.91285E-10 1.38365E-10 4.35043E+01
 -1       400 1.31215E-11-7.00262E-12-7.47809E+01
 -1       401-6.91116E-11-6.54029E-11 8.67712E+01
 -1       402 6.46078E-10-5.76859E-10 5.52632E+00
 -1       403 7.60952E-11 1.30961E-10 2.03925E+02
 -1       404 4.20743E-10 6.67461E-10-2.71482E+01
 -1       405 9.07923E-10-6.49325E-10-3.95649E+01
 -1       406-1.19582E+01 2.95719E+01-2.57013E+01
 -1       407-7.18048E+01-6.64592E+01 5.65340E+01
 -1       408 3.68813E+01-2.99871E+02 3.51281E+01
 -1       409-4.71771E+01-3.13383E+00-2.89367E+01
 -1       410-6.40279E+01-2.13782E+01-4.13209E+01
 -1       411 3.36070E+01-2.71566E+02 1.87957E+02
 -1       412 9.15074E-10-4.06954E-09-6.00017E+01
 -1       413-4.65785E-10 1.71753E-10-6.96953E+01
 -1       414 4.66837E-11-1.02936E-11-1.56143E+01
 -1       415 2.58631E-10-2.75040E-10 7.19463E+01
 -1       416-1.88563E-10-6.39651E-11 7.28283E+00
 -1       417 1.06989E-10-1.83871E-09-4.79034E+01
 -1       418 2.90838E-10 1.65199E-11-2.13228E-01
 -1       419 1.49110E-11 1.12318E-10-1.32434E+02
 -1       420 2.16545E-10-1.82793E-10 8.90987E+01
 -1       421 9.99259E-10-2.18150E-09 3.33023E+01
 -1       422-2.50589E-11-1.36915E-10-3.05993E+02
 -1       423-4.97303E-11 5.93364E-11-6.82485E+01
 -1       424-4.80646E-11 8.08551E-10 1.13516E+02
 -1       425-6.83493E-11 3.65394E-11 1.07434E-11
 -1       426 1.60876E-10 6.98437E-11-7.00371E-10
 -1       427-1.93783E-09-5.74914E-09 2.53384E-10
 -1       428 3.18372E-11-1.16958E-10 7.61182E-11
 -1       429-2.20127E-09 1.09975E-09-1.15551E-09
 -1       430 2.86439E-10 6.73672E-10-2.81201E-10
 -1       431 1.14922E-10 2.57353E-10 5.54277E-11
 -1       432-8.23885E-11 6.11326E-10 7.37185E-10
 -1       433 3.69969E-11 7.56895E-12-6.84111E-11
 -1       434-9.03028E-11-7.18153E-11-7.41043E-11
 -1       435-2.73309E-11 1.69224E-10 2.17454E-10
 -1       436 1.68125E-09-1.28647E-09-3.08486E-09
 -1       437 5.60307E-12-1.46811E-11 4.27463E-11
 -1       438 6.57772E-10 1.13403E-09 2.67576E-10
 -1       439-1.74851E-10 1.04497E-10-3.23013E-11
 -1       440-1.65974E-09-2.77981E-09 3.13980E-09
 -1       441-1.88517E-10 8.14570E-11 9.32502E-11
 -1       442-1.15685E-09 4.16667E+01-5.46115E-09
 -1       443-3.77994E+01-5.26279E+01 2.44063E+01
 -1       444 3.97634E-10 8.21214E-10-9.87109E+01
 -1       445-1.04205E-10-6.01760E-10-1.88301E+02
 -1       446-4.55400E-11 5.79383E-10-2.33678E+02
 -1       447-1.25831E-11 6.52861E-11-1.59304E+02
 -1       448-1.05918E-10-1.13734E-10-4.71463E+01
 -1       449 1.82377E-11-8.21203E-11-5.82759E+01
 -1       450-2.75018E-10-2.71038E-09 1.68332E+02
 -1       451 1.80253E-10 1.48586E-09 2.34506E+02
 -1       452-3.11284E-10 1.31568E-10 1.70861E+02
 -1       453-1.94218E-10 2.16833E-10 1.90302E+02
 -1       454 4.30094E-11-7.96642E-11 6.07567E+01
 -1       455 5.25406E-11-2.50554E-11 6.18847E+01
 -1       456 7.12019E-10 4.16667E+01 2.28824E-09
 -1       457 2.33333E-10 4.16667E+01-5.62546E+00
 -1       458-1.14005E-09 4.16667E+01-4.57197E+01
 -1       459 1.00103E-09 4.16667E+01-1.21236E+01
 -1       460-1.43051E-09 4.16667E+01 1.01455E+02
 -1       461 4.67367E+02-1.60593E+02-1.67932E+01
 -1       462-2.37272E-11 1.40856E-10 5.24951E+02
 -1       463-3.37045E-10 1.68173E-10 2.21819E+02
 -1       464-3.37478E-10-2.38005E-10 1.91481E+02
 -1       465-1.04485E-09 2.32450E-09 2.07605E+01
 -1       466-7.43627E-11 8.53740E-11-1.21872E+03
 -1       467-5.47697E-10-4.36509E-11-2.14275E+02
 -1       468 5.46074E-10 4.39463E-10-1.46478E+02
 -1       469-1.02845E-09 8.88437E-10-2.27187E+01
 -1       470-6.73625E+01-8.17077E+01-6.70710E+01
 -1       471-5.18293E+01-6.16565E+01-1.82070E+02
 -1       472 9.77339E+00 1.62240E+02-1.62400E+02
 -1       473 1.66753E+02 5.41193E+02 4.41775E+02
 -1       474 1.77510E+01-3.75164E+01 1.06676E+02
 -1       475-3.94065E+01-3.06799E+01 5.44557E+01
 -1       476 2.39131E+01 7.24819E+01 6.73800E+01
 -1       477 1.35427E+00 6.31260E+02-9.52189E+02
 -1       478-2.36498E-09 5.04838E-09 5.49853E-11
 -1       479 6.19552E-10 1.05126E-09-1.00144E-10
 -1       480-1.03634E-09-3.19298E-11-1.40089E-09
 -1       481-4.32378E-10 9.65984E-10-6.70681E-10
 -1       482 1.43027E-10 4.69171E-10 6.30762E-10
 -1       483-1.29902E-10-1.62729E-10-5.86638E-10
 -1       484 5.90299E-11 3.50362E-10-1.67208E-11
 -1       485 1.22865E-10-2.61551E-10 7.42112E-10
 -1       486-9.51086E-11 7.91900E-12 1.22496E-10
 -1       487-1.60302E-10-5.24913E-12-3.31610E-11
 -1       488-2.02424E-09-3.64230E-10-1.94509E-09
 -1       489-1.47630E-10 8.33333E+01-3.52444E-09
 -1       490-4.68963E-09 8.33333E+01 2.29094E-09
 -1       491 8.42239E-10 8.33333E+01-3.20866E-09
 -1       492-9.11513E-11 5.38072E-10 5.23421E-11
 -1       493-9.62966E-10 5.14889E-10 2.69289E-10
 -1       494 5.50321E-10 6.36179E-10-3.21436E-10
 -1       495 1.16868E-10 5.04752E-10-2.06275E-09
 -1       496-1.19802E-09 6.81152E-09 6.78822E-10
 -1       497-2.10777E-09-2.60103E-10 4.83404E-10
 -1       498-1.83644E-10 4.27450E-10 8.83919E-10
 -1       499-1.67913E+02-1.11896E+02-7.33495E+01
 -1       500-1.31792E+02-5.56986E+01-1.26114E+00
 -1       501-4.06707E+01-5.47448E+01 7.43090E+01
 -1       502-8.84548E+01 7.30375E+01 1.08632E+02
 -1       503 2.29278E+01-1.22703E+02-7.03273E+01
 -1       504-9.33958E+01 6.32366E+01-8.96872E+01
 -1       505-5.51361E+01-8.27699E+01 1.10766E+02
 -1       506 8.28715E-11 1.25118E-09-2.88743E+02
 -1       507-8.92422E-10 2.11588E-10-7.45930E+01
 -1       508 1.56430E-10-1.28279E-10-1.71495E+02
 -1       509 3.10354E-10-3.72137E-10-3.97411E+02
 -1       510 2.46028E-12-2.39293E-11-1.70003E+02
 -1       511-7.41474E-12 9.97535E-13 4.11132E+01
 -1       512 4.32387E-11 1.89970E-12-2.16590E+02
 -1       513 6.73150E-12 5.50866E-11-9.96750E-01
 -1       514 1.42626E-11 2.91833E-12-5.11017E+01
 -1       515 4.97992E-11 4.75609E-11 4.16152E+01
 -1       516 1.39658E-10-1.22984E-10 3.81725E+02
 -1       517-6.13166E-10 2.89735E-10 2.37265E+02
 -1       518 9.15403E-11-8.35612E-11 3.97518E+02
 -1       519 8.98602E-10 5.11826E-10 1.36045E+02
 -1       520-1.46509E-10 9.15155E-10 1.56413E+02
 -1       521-3.89710E-11-5.16511E-10 3.38705E+01
 -1       522-2.47262E-11-2.91693E-10-6.30139E+01
 -1       523 1.31951E-11 1.33089E-11-1.18909E+02
 -1       524 2.73645E-12 2.85241E-11-2.21832E+02
 -1       525-2.60102E-11-2.12926E-10-1.86159E+02
 -1       526 7.02871E-12 1.50399E-11-1.61268E+02
 -1       527-3.28456E-10 3.99836E-11-2.03999E+02
 -1       528 3.81156E-10-5.92943E-11-1.97839E+02
 -1       529-1.17843E-10-7.62834E-11-2.33916E+02
 -1       530-1.85687E-10-2.95389E-11-2.07472E+02
 -1       531 1.46898E-09 1.62829E-09 1.02957E+01
 -1       532-2.60529E-10 7.21512E-11-3.38704E+02
 -1       533-4.45180E-10 1.80824E-10-1.64881E+01
 -1       534-7.25927E-10 3.46313E-10 3.69594E+01
 -1       535 9.45333E-11-9.29883E-11-7.21875E+01
 -1       536-4.73392E-11 3.22863E-10 2.67075E+02
 -1       537-7.34353E-11 1.13325E-10-1.37702E+02
 -1       538 1.52263E-11-1.70213E-11-3.30745E+01
 -1       539-1.34036E-10 1.63540E-10-1.29571E+02
 -1       540-1.27789E-11-5.45271E-11 2.26391E+02
 -1       541-1.73475E-10-1.72722E-11 2.64094E+02
 -1       542 6.03748E-11 1.79300E-11 2.50426E+02
 -1       543-2.39719E-12-2.26223E-10 2.31128E+02
 -1       544-3.97006E-10 1.43505E-10 2.60017E+02
 -1       545 6.69896E-10 2.66870E-09 5.57231E+01
 -1       546-4.57787E-10 6.95674E-10 3.09435E+02
 -1       547-5.70407E-10 1.19174E-09 8.28427E-01
 -1       548 1.51700E-10-2.27417E-09 5.47665E+01
 -1       549-2.57449E-10 3.80570E-10 3.07100E+00
 -1       550-3.86689E-10 5.07772E-12-1.59040E+02
 -1       551 8.97417E-11 1.88035E-11-2.31863E+02
 -1       552 9.66858E-11 2.71454E-10-4.03329E+02
 -1       553 1.22058E-11-7.28217E-12 4.01304E+02
 -1       554-4.60212E-11-1.21232E-10-1.11300E+02
 -1       555 2.42555E-12-1.61902E-11 1.72648E+01
 -1       556 2.25231E-11-8.40994E-12 1.71993E+02
 -1       557-5.90297E-12 2.09033E-11 4.33787E+01
 -1       558 1.06629E-10-3.82087E-11 1.71145E+02
 -1       559 3.83637E-12-4.66300E-11 1.58843E+02
 -1       560-2.43830E-10 1.02512E-10 2.65383E+02
 -1       561-4.03942E-10 1.24446E-10 2.17662E+02
 -1       562 1.91631E-10-3.79398E-10 1.73731E+02
 -1       563-4.74260E-10-1.62536E-10-1.59406E+02
 -1       564-1.68094E-10-7.96608E-11 2.41113E+02
 -1       565 7.69377E-11 4.28426E-11 9.29611E+01
 -1       566 1.21103E-11-2.84217E-13 2.44363E+02
 -1       567 2.74560E-10-1.83836E-10 1.26534E+02
 -1       568 7.56564E-11-1.27365E-10-2.21548E+02
 -1       569-6.18111E-11-5.58028E-11 2.26512E+02
 -1       570 3.48918E-12 2.02273E-10-1.90382E+02
 -1       571 7.70331E-10 1.18923E-09 4.17393E-09
 -1       572 6.03546E-10-3.36697E-09 9.62316E-10
 -1       573 2.20323E-09-2.90932E-09-1.90575E-10
 -1       574 8.11593E-10 5.63728E-10-1.51461E-09
 -1       575-4.60918E-10-2.59065E-10 3.37305E-10
 -1       576-6.63364E-10-1.18421E-10 2.86158E-09
 -1       577-5.68287E-10 8.18437E-10-5.26150E-11
 -1       578 7.59541E-10 4.51625E-10 1.28574E-09
 -1       579 6.93806E-10 1.26450E-09-1.42027E-09
 -1       580 7.49678E-10-1.11627E-09-5.83484E-10
 -1       581 8.96802E-12-3.80669E-11 6.90079E-11
 -1       582 6.64535E-12-1.24509E-11 1.02318E-12
 -1       583 4.60615E-12-3.36842E-12-2.31068E-11
 -1       584-5.17704E-11 6.53599E-11 1.42748E-11
 -1       585-9.99004E-12 1.38856E-12-4.81748E-11
 -1       586 1.40046E-11-2.43829E-11 5.36886E-11
 -1       587-2.04148E-12-4.07736E-11 9.09495E-12
 -1       588-2.65010E-10 4.01111E-10-9.61080E-11
 -1       589-1.63902E-11 2.58433E-10 8.24087E-11
 -1       590-9.01876E-11-2.26963E-10 7.88586E-10
 -1       591 8.64825E-11-5.24528E-10-2.83991E-10
 -1       592-6.93835E-10 9.41423E-10-8.69356E-10
 -1       593-8.49981E-11-2.85216E-11 3.72768E-11
 -1       594-3.36049E-11-8.11274E-10-5.57749E-11
 -1       595 3.22881E-09-9.46636E-10 4.92842E-10
 -1       596-1.26222E-10-1.83977E-09 2.65743E-10
 -1       597-9.27480E-12-2.31860E-10-1.59318E-09
 -1       598 1.77391E-09-2.98153E-09-2.04805E-09
 -1       599-5.94551E-11 2.37252E-10 1.55921E-09
 -1       600-9.24683E-12-2.52687E-11-1.00709E-09
 -1       601-2.58358E-10 5.06387E-10 8.45860E-11
 -1       602-4.04230E-10-2.38243E-10 8.12868E-10
 -1       603-6.35724E-11-4.88478E-11 2.37812E-10
 -1       604 1.94426E-11 3.71640E-11 2.66525E-11
 -1       605-2.28595E-10 1.30313E-09 1.47244E-09
 -1       606-1.67996E-09 4.19520E-09 2.45386E-09
 -1       607 1.56156E-09-1.00341E-09-2.86232E-09
 -1       608 4.75629E-11 6.90895E-11 3.63658E-11
 -1       609-1.91729E-11-2.23092E-11-1.05324E-10
 -1       610-1.21158E-10-3.10997E-11 2.37401E-11
 -1       611 3.88803E-11 1.47005E-12 1.01963E-12
 -1       612-3.60394E-12-4.39604E-11 5.05764E-11
 -1       613-2.85789E-09 1.56826E-09-3.40843E-11
 -1       614-1.10402E-09-5.23947E-10 6.15429E-10
 -1       615 7.81784E-10 7.45677E-11 4.44828E-10
 -1       616-1.15957E-10-1.69564E-10-9.62785E-11
 -1       617-1.30645E-10-4.86382E-10-1.04430E-10
 -1       618-1.33979E-09 4.20157E-11-1.12212E-09
 -1       619 2.49766E-10-4.19823E-11 2.45928E-09
 -1       620-5.31158E-10-9.18369E-10-1.18348E-10
 -1       621 7.44080E-10-3.80731E-10 8.91788E-10
 -1       622-3.59627E-09 1.12445E-09 6.85569E-10
 -1       623-8.12773E-11 4.44266E-09-2.90867E-09
 -1       624-8.52985E-11 7.94692E-10-1.56259E-10
 -1       625 3.28813E-11-2.43625E-11-5.66018E-11
 -1       626 8.30176E-11 1.05116E-11-1.27443E-10
 -1       627 1.49279E-09-1.85140E-09-2.93657E-10
 -1       628 4.26429E-10-1.14116E-09 5.73380E-10
 -1       629 1.83489E-10 3.83385E-10 1.12049E-09
 -1       630-1.21705E-10 5.83835E-10 1.16919E-09
 -1       631-9.69755E-10 1.39199E-09 3.89036E-10
 -1       632 2.81492E-11-3.37154E-10 1.71624E-10
 -1       633-3.74893E-10 2.98288E-11 6.39034E-10
 -1       634-1.86391E-09-1.76206E-09-6.87848E-10
 -1       635 1.72268E-09-8.00429E-10 7.33449E-09
 -1       636 3.28364E-09-4.82093E-11 5.32452E-09
 -1       637 7.63400E-10-2.08036E-10 1.02539E-09
 -1       638-1.72850E-11 7.27435E-11 3.84119E-11
 -1       639 2.01393E-10-1.02971E-10-6.19522E-11
 -1       640 6.80282E-12 1.69307E-11-1.62252E-11
 -1       641 1.91383E-12 1.41187E-10 1.62146E-11
 -1       642 5.40177E-11 1.11983E-10-1.36930E-11
 -1       643-1.48393E-10 4.83893E-11 3.04427E-10
 -1       644-2.02166E-10 1.12929E-10 2.23374E-11
 -1       645-5.40331E-11-1.88054E-10 3.00801E-10
 -1       646 3.01518E-12 2.64880E-12 9.30349E-11
 -1       647 1.84986E-10 1.97903E-10-1.04551E-09
 -1       648-2.88694E-10 2.89832E-10-8.50701E-10
 -1       649 3.62980E-10 1.57383E-09 1.13326E-09
 -1       650-1.11552E-09-5.00737E-10-1.86362E-09
 -1       651-1.51646E-12-1.49576E-09 3.66528E-11
 -1       652 6.20974E-10-1.02595E-09 9.11147E-10
 -1       653 4.45236E-12-2.53439E-10 1.48628E-11
 -1       654-2.28879E-11-1.67170E-10-1.47338E-10
 -1       655 1.51668E-10-1.78146E-10-3.14571E-10
 -1       656 1.57876E-10 2.88719E-10-1.47742E-09
 -1       657-3.42052E-11 4.07678E-12 1.60534E-10
 -1       658 2.02569E-10-1.44975E-10-8.70415E-12
 -1       659 2.35613E-10 3.69426E-11 2.66400E-10
 -1       660-1.90142E-12 1.65145E-11 1.43316E-11
 -1       661-2.79554E-12 3.30989E-11-3.28839E-11
 -1       662 4.28695E-11 4.11547E-10-1.98392E-10
 -1       663-1.46587E-10-3.49684E-10 6.43836E-11
 -1       664 1.25943E-10 1.84753E-10-2.07192E-10
 -1       665 8.10686E-10-1.52580E-10 6.98524E-10
 -1       666 4.62096E-10 4.84471E-10-2.47326E-10
 -1       667 1.04583E-11-7.89127E-11 4.38020E-10
 -1       668-1.16730E-10-4.76945E-10-1.80435E-10
 -1       669-5.50075E-10 4.02728E-10-1.68754E-10
 -1       670 2.46080E-10 1.74688E-12 1.55158E-10
 -1       671-7.84942E-11-5.14685E-11 6.59384E-11
 -1       672 4.53657E-10-5.93266E-10 1.79236E-10
 -1       673-1.00226E-10-3.61256E-10-6.35464E-10
 -1       674-3.54038E-11-1.84121E-11-1.15925E-10
 -1       675 2.97112E-12 1.96945E-10 4.64819E-10
 -1       676 1.63813E-10-1.26571E-10-1.28975E-10
 -1       677 5.55051E-10-9.66129E-11-1.94185E-09
 -1       678-7.43089E-12 4.92095E-10 1.35934E-10
 -1       679-1.39623E-11 7.15894E-11 2.55588E-11
 -1       680-7.80468E-11-1.00546E-10 1.83260E-10
 -1       681 6.05911E-11 2.52416E-10 9.86651E-11
 -1       682 4.51097E-11-2.80116E-11-6.16604E-13
 -1       683-7.98273E-12 6.10804E-11-5.97566E-11
 -1       684-4.81815E-10-8.46693E-10 2.31107E-09
 -1       685-2.49449E-10-2.71182E-10 5.22364E-11
 -1       686-6.32981E-11-1.21007E-10 7.86180E-11
 -1       687-1.24139E-10-1.30435E-10 1.94959E-10
 -1       688-8.40040E-10 4.52229E-10-1.63993E-10
 -1       689 4.78544E-10 4.61773E-09 1.87604E-09
 -1       690 4.20827E-11 4.42052E-12 2.65317E-11
 -1       691 8.33262E-10-6.26224E-09 3.76190E-10
 -1       692-3.44894E-11-1.17157E-10-4.78106E-11
 -1       693 2.53877E-10 6.19222E-11-6.87663E-11
 -1       694 9.55438E-11-1.05462E-10-3.38503E-11
 -1       695-9.29288E-12 3.65257E-11-3.38707E-11
 -1       696 2.73041E-09 2.80778E-09 2.00127E-09
 -1       697-1.52252E-09 2.49862E-09-2.94938E-09
 -1       698-2.52911E-11 1.97340E-11 4.20215E-11
 -1       699-8.10614E-11 1.22383E-11-1.25119E-10
 -1       700-9.21123E-11-1.32003E-10-2.01034E-10
 -1       701-3.68347E-10-9.87792E-11 1.53841E-09
 -1       702 8.94107E-10-8.78536E-10 4.15241E-10
 -1       703-7.19136E-11 1.95399E-13-6.13767E-11
 -1       704 1.43767E-11-4.74402E-11 1.87583E-11
 -1       705 9.09018E-10 3.66024E-10-6.01091E-10
 -1       706-1.66831E-09 2.73729E-09-3.82475E-09
 -1       707-6.03854E-10 2.38411E-09-7.94294E-10
 -1       708 2.28724E-09-5.95394E-09-5.03135E-10
 -1       709 2.81244E-09-4.38410E-09 2.36542E-09
 -1       710-1.98411E-10 4.01350E-11 1.94479E-10
 -1       711-2.11684E-11 1.71250E-11-1.00158E-10
 -1       712-7.42217E-10-3.65063E-09 1.60847E-09
 -1       713-7.35088E-11 5.24022E-11 3.14415E-12
 -1       714 7.09047E-11-9.30970E-11-4.50484E-12
 -1       715 2.74540E-12 5.73689E-11-3.57314E-12
 -1       716-2.24000E-11-4.19125E-11-5.09601E-11
 -1       717-9.04763E-10 3.22077E-09-1.50540E-09
 -1       718-2.56756E-10-1.58529E-10 1.15937E-10
 -3
    1PSTEP                         5           1           1          
  100CL  101 1.000000000         339                     0    1           1
 -4  ERROR       1    1
 -5  STR(%)      1    1    0    0
 -1       380 3.78267E+01
 -1       381 4.32670E+01
 -1       382 4.75905E+01
 -1       383 3.62379E+01
 -1       384 3.65045E+01
 -1       385 4.40608E+01
 -1       386 5.45568E+01
 -1       387 4.24366E+01
 -1       388 3.26216E+01
 -1       389 4.45114E+01
 -1       390 4.63340E+01
 -1       391 4.48076E+01
 -1       392 4.01612E+01
 -1       393 3.33656E+01
 -1       394 4.45114E+01
 -1       395 4.80083E+01
 -1       396 4.04909E+01
 -1       397 4.59425E+01
 -1       398 4.40423E+01
 -1       399 4.44482E+01
 -1       400 5.45568E+01
 -1       401 4.04038E+01
 -1       402 4.29318E+01
 -1       403 4.73616E+01
 -1       404 4.57891E+01
 -1       405 4.57891E+01
 -1       406 5.26202E+01
 -1       407 5.47585E+01
 -1       408 5.74362E+01
 -1       409 5.26202E+01
 -1       410 5.51680E+01
 -1       411 5.74362E+01
 -1       412 4.70120E+01
 -1       413 5.43047E+01
 -1       414 5.15372E+01
 -1       415 5.45568E+01
 -1       416 5.47585E+01
 -1       417 4.40248E+01
 -1       418 5.28378E+01
 -1       419 5.51680E+01
 -1       420 4.63785E+01
 -1       421 4.70120E+01
 -1       422 4.81281E+01
 -1       423 5.09310E+01
 -1       424 5.43047E+01
 -1       425 5.74362E+01
 -1       426 5.38749E+01
 -1       427 4.59223E+01
 -1       428 5.47585E+01
 -1       429 4.70120E+01
 -1       430 5.43047E+01
 -1       431 5.28378E+01
 -1       432 4.43011E+01
 -1       433 5.51680E+01
 -1       434 5.26202E+01
 -1       435 5.45568E+01
 -1       436 4.70120E+01
 -1       437 5.74362E+01
 -1       438 5.43047E+01
 -1       439 4.50078E+01
 -1       440 4.59223E+01
 -1       441 4.67859E+01
 -1       442 4.05469E+01
 -1       443 4.19142E+01
 -1       444 3.52242E+01
 -1       445 3.85665E+01
 -1       446 4.54227E+01
 -1       447 4.55708E+01
 -1       448 4.24844E+01
 -1       449 4.38759E+01
 -1       450 3.83163E+01
 -1       451 3.89385E+01
 -1       452 4.62598E+01
 -1       453 4.42496E+01
 -1       454 4.32167E+01
 -1       455 4.10902E+01
 -1       456 4.02826E+01
 -1       457 4.02734E+01
 -1       458 4.09345E+01
 -1       459 4.42545E+01
 -1       460 4.38576E+01
 -1       461 4.84967E+01
 -1       462 5.45568E+01
 -1       463 4.74803E+01
 -1       464 4.16678E+01
 -1       465 3.97181E+01
 -1       466 4.48991E+01
 -1       467 4.65754E+01
 -1       468 4.57891E+01
 -1       469 4.49249E+01
 -1       470 5.01054E+01
 -1       471 5.36894E+01
 -1       472 5.60974E+01
 -1       473 5.59965E+01
 -1       474 4.44291E+01
 -1       475 5.38941E+01
 -1       476 5.63021E+01
 -1       477 4.99364E+01
 -1       478 3.55962E+01
 -1       479 3.85665E+01
 -1       480 4.45114E+01
 -1       481 4.62598E+01
 -1       482 4.34125E+01
 -1       483 4.71712E+01
 -1       484 4.53751E+01
 -1       485 4.26492E+01
 -1       486 4.67665E+01
 -1       487 4.30519E+01
 -1       488 3.29936E+01
 -1       489 4.42452E+01
 -1       490 4.40515E+01
 -1       491 4.11375E+01
 -1       492 5.09592E+01
 -1       493 5.01730E+01
 -1       494 4.30965E+01
 -1       495 4.30965E+01
 -1       496 4.11468E+01
 -1       497 4.43604E+01
 -1       498 5.09592E+01
 -1       499 5.01054E+01
 -1       500 5.38941E+01
 -1       501 5.49632E+01
 -1       502 5.60974E+01
 -1       503 5.59965E+01
 -1       504 5.74362E+01
 -1       505 5.26202E+01
 -1       506 3.98168E+01
 -1       507 4.24194E+01
 -1       508 5.03194E+01
 -1       509 4.94081E+01
 -1       510 4.63907E+01
 -1       511 5.44867E+01
 -1       512 5.31478E+01
 -1       513 5.45568E+01
 -1       514 5.59965E+01
 -1       515 5.30470E+01
 -1       516 5.45568E+01
 -1       517 4.73543E+01
 -1       518 5.44308E+01
 -1       519 4.49719E+01
 -1       520 4.37079E+01
 -1       521 4.34870E+01
 -1       522 4.55271E+01
 -1       523 5.36894E+01
 -1       524 4.74598E+01
 -1       525 4.97830E+01
 -1       526 5.47585E+01
 -1       527 4.42681E+01
 -1       528 3.83232E+01
 -1       529 4.88227E+01
 -1       530 4.95859E+01
 -1       531 4.55184E+01
 -1       532 5.35712E+01
 -1       533 4.91648E+01
 -1       534 4.22143E+01
 -1       535 5.31478E+01
 -1       536 5.44308E+01
 -1       537 5.37981E+01
 -1       538 5.21875E+01
 -1       539 5.36973E+01
 -1       540 4.92814E+01
 -1       541 5.15882E+01
 -1       542 4.78294E+01
 -1       543 3.98721E+01
 -1       544 4.54450E+01
 -1       545 4.51395E+01
 -1       546 4.01888E+01
 -1       547 4.66953E+01
 -1       548 4.57301E+01
 -1       549 4.51187E+01
 -1       550 4.64005E+01
 -1       551 4.60838E+01
 -1       552 4.68701E+01
 -1       553 4.52824E+01
 -1       554 4.77449E+01
 -1       555 5.27821E+01
 -1       556 5.51680E+01
 -1       557 5.63021E+01
 -1       558 4.57109E+01
 -1       559 4.84368E+01
 -1       560 4.94081E+01
 -1       561 5.11565E+01
 -1       562 5.03416E+01
 -1       563 4.64005E+01
 -1       564 5.16480E+01
 -1       565 5.17756E+01
 -1       566 5.30495E+01
 -1       567 5.47363E+01
 -1       568 4.72533E+01
 -1       569 5.30495E+01
 -1       570 5.12164E+01
 -1       571 4.49719E+01
 -1       572 4.49719E+01
 -1       573 4.70120E+01
 -1       574 4.64005E+01
 -1       575 4.64005E+01
 -1       576 4.89499E+01
 -1       577 5.01267E+01
 -1       578 4.52017E+01
 -1       579 5.40898E+01
 -1       580 5.03416E+01
 -1       581 5.74362E+01
 -1       582 5.74362E+01
 -1       583 5.60974E+01
 -1       584 5.27821E+01
 -1       585 5.74362E+01
 -1       586 5.27821E+01
 -1       587 5.74362E+01
 -1       588 5.42159E+01
 -1       589 5.13425E+01
 -1       590 5.10015E+01
 -1       591 5.12164E+01
 -1       592 4.37079E+01
 -1       593 5.48624E+01
 -1       594 5.44308E+01
 -1       595 3.96440E+01
 -1       596 4.51117E+01
 -1       597 3.88334E+01
 -1       598 3.92720E+01
 -1       599 3.84614E+01
 -1       600 5.42159E+01
 -1       601 5.09592E+01
 -1       602 5.06182E+01
 -1       603 5.13425E+01
 -1       604 4.99364E+01
 -1       605 4.64005E+01
 -1       606 4.64671E+01
 -1       607 4.45947E+01
 -1       608 5.47585E+01
 -1       609 5.49632E+01
 -1       610 5.49632E+01
 -1       611 5.49632E+01
 -1       612 5.51680E+01
 -1       613 4.70120E+01
 -1       614 4.55184E+01
 -1       615 5.35712E+01
 -1       616 5.40029E+01
 -1       617 4.44063E+01
 -1       618 4.44063E+01
 -1       619 4.94081E+01
 -1       620 4.93029E+01
 -1       621 4.94081E+01
 -1       622 4.70120E+01
 -1       623 4.57301E+01
 -1       624 5.43047E+01
 -1       625 5.63021E+01
 -1       626 5.59965E+01
 -1       627 4.94081E+01
 -1       628 5.43047E+01
 -1       629 5.43047E+01
 -1       630 5.43047E+01
 -1       631 5.03416E+01
 -1       632 5.43047E+01
 -1       633 4.71394E+01
 -1       634 4.55364E+01
 -1       635 4.55271E+01
 -1       636 4.17582E+01
 -1       637 4.56566E+01
 -1       638 5.33526E+01
 -1       639 5.49632E+01
 -1       640 5.26202E+01
 -1       641 4.63907E+01
 -1       642 5.01054E+01
 -1       643 4.63642E+01
 -1       644 4.88584E+01
 -1       645 4.36384E+01
 -1       646 5.36894E+01
 -1       647 4.94081E+01
 -1       648 5.43047E+01
 -1       649 4.53398E+01
 -1       650 4.49823E+01
 -1       651 4.51853E+01
 -1       652 4.18745E+01
 -1       653 4.92814E+01
 -1       654 5.45568E+01
 -1       655 5.45568E+01
 -1       656 5.42159E+01
 -1       657 4.49077E+01
 -1       658 4.89228E+01
 -1       659 4.98831E+01
 -1       660 5.74362E+01
 -1       661 5.59965E+01
 -1       662 4.57967E+01
 -1       663 5.07722E+01
 -1       664 4.34735E+01
 -1       665 4.95859E+01
 -1       666 4.66643E+01
 -1       667 4.88227E+01
 -1       668 5.04230E+01
 -1       669 5.35712E+01
 -1       670 5.40029E+01
 -1       671 4.84967E+01
 -1       672 5.03194E+01
 -1       673 5.11565E+01
 -1       674 5.35712E+01
 -1       675 4.27493E+01
 -1       676 4.89228E+01
 -1       677 4.64671E+01
 -1       678 4.79694E+01
 -1       679 4.58968E+01
 -1       680 5.07722E+01
 -1       681 5.03505E+01
 -1       682 5.28447E+01
 -1       683 4.98320E+01
 -1       684 4.66953E+01
 -1       685 5.04434E+01
 -1       686 5.30495E+01
 -1       687 5.51680E+01
 -1       688 4.91648E+01
 -1       689 4.70120E+01
 -1       690 5.63021E+01
 -1       691 4.18745E+01
 -1       692 4.74598E+01
 -1       693 5.47585E+01
 -1       694 5.36894E+01
 -1       695 5.36894E+01
 -1       696 4.64671E+01
 -1       697 4.45947E+01
 -1       698 4.44291E+01
 -1       699 5.49632E+01
 -1       700 5.28447E+01
 -1       701 5.35712E+01
 -1       702 4.41630E+01
 -1       703 5.44867E+01
 -1       704 5.63021E+01
 -1       705 4.56566E+01
 -1       706 4.64671E+01
 -1       707 4.59223E+01
 -1       708 4.64671E+01
 -1       709 4.70120E+01
 -1       710 5.28378E+01
 -1       711 5.33526E+01
 -1       712 4.55184E+01
 -1       713 5.26202E+01
 -1       714 5.45568E+01
 -1       715 5.59965E+01
 -1       716 5.59965E+01
 -1       717 4.70120E+01
 -1       718 5.00879E+01
 -3
 9999
